# x y z rho theta phi s1 s2 stress_xx np intf bulk
-0.891921 -10.791917 -14.351687 17.978652 1.488337 2.495202 0.008458 0.001276 538336.000000 1 0 0
2.021979 -13.466917 -12.944887 18.788730 -1.421765 2.330864 0.016531 0.000941 478401.000000 1 0 0
2.071279 -11.048117 -14.504887 18.350554 -1.385470 2.482312 0.006874 -0.003778 341394.000000 1 0 0
-5.628521 -6.342217 -16.338787 18.408148 0.844948 2.662871 0.024244 -0.013769 -1060810.000000 1 0 0
4.480779 -14.156117 -11.537487 18.803900 -1.264248 2.231369 0.012592 -0.000410 221976.000000 1 0 0
14.041979 -10.548417 -7.935787 19.272338 -0.644272 1.995193 0.055250 -0.017219 97489.300000 1 0 0
7.109279 10.760683 -10.856787 16.858350 0.986956 2.270512 0.024288 -0.009198 687027.000000 1 0 0
5.630079 -4.214717 -12.501687 14.344121 -0.642609 2.629161 0.007600 -0.001222 2719590.000000 1 0 0
13.685679 0.512083 -10.019987 16.969390 0.037400 2.202443 0.039130 -0.005655 2648770.000000 1 0 0
14.083679 5.007683 -10.327187 18.168041 0.341625 2.175388 0.045185 -0.012845 -1187600.000000 1 0 0
4.081379 4.337183 -13.455987 14.715040 0.815774 2.724913 0.011513 -0.001358 1460550.000000 1 0 0
10.382679 -5.098217 -13.736887 17.958115 -0.456447 2.441745 0.039836 -0.004864 -583576.000000 1 0 0
2.488379 -7.532617 -12.062687 14.437478 -1.251736 2.559860 0.003156 -0.000932 1928390.000000 1 0 0
-5.560421 -2.011817 -15.181287 16.292242 0.347157 2.770167 0.011838 -0.010839 1361150.000000 1 0 0
10.658979 0.070683 -9.661687 14.386349 0.006631 2.307145 0.013179 -0.000736 1314490.000000 1 0 0
-1.625621 -9.470017 -16.908987 19.448334 1.400794 2.624846 0.017346 -0.008028 1592210.000000 1 0 0
8.722379 1.788783 -17.932387 20.021242 0.202275 2.680727 0.050901 -0.016774 -642298.000000 1 0 0
16.366479 -5.939917 -8.791587 19.504775 -0.348149 2.038391 0.065179 -0.009416 -1354790.000000 1 0 0
10.104579 7.593683 -9.941787 16.081221 0.644466 2.237277 0.029941 -0.006886 939810.000000 1 0 0
13.828579 -2.285317 -10.651287 17.604039 -0.163780 2.220622 0.044424 -0.001665 -436619.000000 1 0 0
7.239279 -1.941017 -13.620987 15.546897 -0.261962 2.638556 0.019242 -0.004602 480588.000000 1 0 0
-2.863921 6.705483 -13.860587 15.661462 -1.167147 2.657317 0.014161 -0.003776 35645.500000 1 0 0
11.310279 1.681483 -13.845987 17.957203 0.147588 2.451292 0.034821 -0.009667 1293690.000000 1 0 0
-2.367121 10.775183 -12.911587 16.982841 -1.354549 2.434529 0.016998 -0.002053 -524199.000000 1 0 0
2.924379 -1.002617 -15.235687 15.546170 -0.330289 2.941400 0.012782 -0.003724 270502.000000 1 0 0
-9.126121 0.391583 -15.378087 17.886446 -0.042882 2.605600 0.023137 -0.002403 -1727260.000000 1 0 0
2.423779 -1.809717 -17.961387 18.214313 -0.641354 2.974749 0.028891 -0.012652 2017680.000000 1 0 0
0.950379 7.881783 -13.112687 15.328675 1.450796 2.597187 0.009411 -0.003248 438221.000000 1 0 0
9.344079 -9.032517 -9.794287 16.273483 -0.768446 2.216619 0.026228 -0.008316 -168746.000000 1 0 0
3.940179 7.340883 -13.485187 15.851304 1.078187 2.588170 0.003297 -0.000631 2406510.000000 1 0 0
-2.763921 9.213583 -15.539087 18.275464 -1.279355 2.587295 0.020385 -0.002699 358555.000000 1 0 0
5.568979 -7.728917 -15.329287 18.048178 -0.946419 2.585556 0.029955 -0.003937 529049.000000 1 0 0
4.304579 7.312883 -16.425487 18.487949 1.038779 2.664738 0.017858 -0.000444 1613540.000000 1 0 0
-0.317721 5.142583 -13.469587 14.421403 -1.509092 2.776245 0.014744 -0.003805 1436450.000000 1 0 0
8.878579 4.346883 -16.591787 19.313517 0.455287 2.604259 0.040219 -0.008542 -2612060.000000 1 0 0
5.392579 0.303483 -14.370887 15.352342 0.056218 2.782088 0.012572 -0.001849 244931.000000 1 0 0
6.266279 7.888283 -11.572687 15.343348 0.899493 2.425304 0.003657 -0.002278 113734.000000 1 0 0
2.708579 -8.365917 -15.002187 17.389381 -1.257683 2.611423 0.014600 -0.004761 116046.000000 1 0 0
4.122479 11.389283 -13.916387 18.449293 1.223506 2.425391 0.021202 -0.008828 -1539930.000000 1 0 0
0.522279 -4.523217 -13.701587 14.438343 -1.455839 2.820757 0.008777 -0.003935 -89818.200000 1 0 0
8.503479 -0.086217 -11.624487 14.402961 -0.010139 2.510003 0.005900 -0.002050 396520.000000 1 0 0
-0.978221 -5.088417 -16.191587 17.000482 1.380869 2.831874 0.010959 -0.013338 -814736.000000 1 0 0
4.485379 0.928783 -11.752587 12.613666 0.204183 2.769957 0.004059 -0.002090 124628.000000 1 0 0
-2.958421 -7.245717 -15.515787 17.377926 1.183156 2.674419 0.002094 -0.007687 1976680.000000 1 0 0
11.356879 -3.760317 -11.420987 16.539578 -0.319744 2.333011 0.033490 -0.003630 1067570.000000 1 0 0
6.397979 -7.088317 -12.545387 15.765948 -0.836542 2.491003 0.021256 -0.003084 -2375730.000000 1 0 0
3.390979 -3.944417 -14.601487 15.500342 -0.860703 2.799369 0.013833 -0.003952 2649260.000000 1 0 0
-0.515221 -1.591517 -18.304387 18.380668 1.257714 3.050456 0.034960 -0.019690 -425625.000000 1 0 0
14.899779 2.932383 -8.464187 17.385188 0.194324 2.079290 0.033618 -0.010642 124050.000000 1 0 0
6.863979 4.337883 -14.383587 16.517234 0.563601 2.627670 0.012609 -0.002671 3245900.000000 1 0 0
10.006179 -9.640717 -14.015787 19.735991 -0.766799 2.360527 0.054507 -0.013290 -1290950.000000 1 0 0
9.079679 -3.205717 -15.599487 18.331972 -0.339403 2.588577 0.045177 -0.013205 -632247.000000 1 0 0
-5.149421 -2.236117 -18.068187 18.920257 0.409676 2.840339 0.001872 -0.004208 1047710.000000 1 0 0
4.946879 -9.161017 -11.184187 15.280114 -1.075669 2.391967 -0.000238 0.002303 3000930.000000 1 0 0
-2.508921 4.053983 -17.194587 17.843298 -1.016611 2.871117 0.015512 0.003751 1666310.000000 1 0 0
9.391479 9.356383 -14.578287 19.704523 0.783526 2.403636 0.062201 -0.010393 -104855.000000 1 0 0
9.832179 10.002283 -11.703387 18.267093 0.793974 2.266182 0.042128 -0.014882 187143.000000 1 0 0
11.912179 -5.918717 -9.667987 16.443880 -0.461135 2.199304 0.030409 -0.007577 -39742.100000 1 0 0
8.076679 6.917083 -13.725087 17.362511 0.708213 2.482423 0.013605 -0.004651 -1638260.000000 1 0 0
4.081479 -4.132817 -17.468787 18.409160 -0.791648 2.820586 0.038520 -0.015877 -944594.000000 1 0 0
9.247779 -7.467517 -12.331787 17.127703 -0.679293 2.374585 0.033963 -0.009865 1206670.000000 1 0 0
11.977879 -8.617117 -8.827887 17.194647 -0.623640 2.109949 0.040441 -0.014048 -770410.000000 1 0 0
-2.872121 -2.469817 -13.899387 14.406319 0.710230 2.875523 0.007409 -0.009222 -1590490.000000 1 0 0
-0.331421 6.145583 -17.713687 18.752406 -1.516920 2.807197 0.025395 -0.000483 2561910.000000 1 0 0
1.080079 -8.524017 -17.502287 19.497576 -1.444758 2.685238 0.026395 -0.007170 557165.000000 1 0 0
-0.006021 8.542383 -15.966287 18.107862 -1.570092 2.650318 0.014410 -0.002805 191886.000000 1 0 0
1.740379 3.484483 -14.978487 15.476615 1.107576 2.887191 0.018659 -0.004361 1452820.000000 1 0 0
-1.923021 -0.449717 -15.849887 15.972450 0.229731 3.017631 0.015820 -0.008134 2217300.000000 1 0 0
14.074179 -4.232217 -8.426187 16.940921 -0.292106 2.091380 0.039902 -0.006608 1446820.000000 1 0 0
0.561279 0.701883 -14.566587 14.594284 0.896252 3.079974 0.008159 -0.005231 2225120.000000 1 0 0
8.804179 2.686483 -12.650987 15.645390 0.296163 2.512579 0.011396 0.000100 1386710.000000 1 0 0
5.974979 1.060883 -17.104887 18.149463 0.175723 2.800668 0.036145 -0.004599 616313.000000 1 0 0
15.389679 1.633683 -12.298587 19.767812 0.105758 2.242285 0.066283 -0.016634 761850.000000 1 0 0
8.808279 -11.225517 -11.841687 18.542480 -0.905476 2.263506 0.045147 -0.010262 981806.000000 1 0 0
-4.619721 0.751583 -15.154387 15.860710 -0.161277 2.842035 0.010418 -0.004118 1120570.000000 1 0 0
2.481579 5.128483 -17.257587 18.173714 1.120126 2.822724 0.023691 -0.005679 2125310.000000 1 0 0
5.943879 -11.783917 -12.363987 18.084761 -1.103630 2.323574 0.019017 -0.001288 -21596.600000 1 0 0
12.795979 7.107183 -8.626087 16.989953 0.506997 2.103329 0.031242 -0.008016 1483360.000000 1 0 0
-5.061921 3.625583 -15.700787 16.890311 -0.621547 2.764051 0.010119 0.001395 2105930.000000 1 0 0
-0.590821 -4.451417 -18.982287 19.506189 1.438841 2.909303 0.027386 -0.018960 -678249.000000 1 0 0
9.700879 4.472183 -10.353587 14.876298 0.431970 2.340578 0.003280 -0.002903 1635150.000000 1 0 0
13.339779 3.627683 -12.787887 18.831884 0.265524 2.317271 0.058634 -0.018150 136863.000000 1 0 0
-6.322821 5.839183 -17.227787 19.258005 -0.745653 2.678282 0.013445 0.003770 923172.000000 1 0 0
-10.114521 3.152983 -15.485987 18.763278 -0.302182 2.541591 0.027994 -0.003930 -81225.700000 1 0 0
10.636879 13.635883 -8.479287 19.260810 0.908329 2.026657 0.069451 -0.008542 367519.000000 1 0 0
7.439079 13.389483 -12.378687 19.693908 1.063671 2.250489 0.057823 -0.013296 -180165.000000 1 0 0
5.389179 15.189083 -11.281587 19.672968 1.229846 2.181515 0.035911 -0.011463 -730428.000000 1 0 0
14.276879 9.334883 -9.945687 19.745531 0.579074 2.098665 0.089036 -0.019669 -321097.000000 1 0 0
8.425779 -17.100317 -1.956887 19.163612 -1.112984 1.673089 0.027851 -0.014909 -720556.000000 1 0 0
0.701079 -16.002917 -0.007587 16.018269 -1.527015 1.571270 0.014497 -0.008279 1796220.000000 1 0 0
-9.150421 -11.669917 7.643513 16.683539 0.905824 1.094887 0.024214 -0.009556 -116943.000000 1 0 0
2.111979 -15.885117 -2.606987 16.235572 -1.438618 1.732067 0.015942 -0.012321 1604530.000000 1 0 0
-1.309121 -11.120017 -9.409587 14.625625 1.453609 2.269679 -0.001752 -0.000097 1374490.000000 1 0 0
-4.849721 -12.621417 -12.862287 18.661682 1.203945 2.331229 0.009950 -0.005856 126012.000000 1 0 0
-8.484821 -17.626817 -1.744487 19.640268 1.122173 1.659735 0.042091 -0.017191 -608555.000000 1 0 0
-11.405821 -7.220917 -8.984687 16.216010 0.564396 2.158033 0.018404 0.000003 2140590.000000 1 0 0
-13.654021 -11.613417 -4.619587 18.510654 0.704813 1.823026 0.023147 -0.005904 -337060.000000 1 0 0
-5.813321 -13.402717 9.835513 17.611498 1.161545 0.978255 0.021072 -0.005454 1953970.000000 1 0 0
0.077779 -14.047117 -3.664787 14.517514 -1.565259 1.825996 0.008295 -0.004540 -666957.000000 1 0 0
-14.824621 -11.541817 2.034713 18.897698 0.661529 1.462917 0.014871 -0.005739 1334650.000000 1 0 0
-3.893821 -16.509217 -7.510287 18.550485 1.339172 1.987618 0.017323 -0.010830 349279.000000 1 0 0
0.570679 -15.354117 -9.178687 17.897567 -1.533646 2.109292 0.007844 -0.001736 330798.000000 1 0 0
4.569079 -14.172017 -2.475987 15.094803 -1.258916 1.735570 0.011601 -0.005255 917640.000000 1 0 0
-3.560921 -18.147517 -2.371287 18.644987 1.377037 1.698323 0.021543 -0.008212 871771.000000 1 0 0
-0.913021 -13.511917 0.653813 13.558503 1.503327 1.522556 0.010980 -0.003319 3837420.000000 1 0 0
-8.488921 -11.263317 -10.491687 17.578384 0.924945 2.210368 0.019730 -0.008121 3079740.000000 1 0 0
-3.800421 -14.165917 -0.408487 14.672535 1.308689 1.598640 0.014855 -0.003239 5374430.000000 1 0 0
-1.468121 -14.977817 -7.273387 16.715040 1.473089 2.020990 0.007418 -0.003036 741237.000000 1 0 0
-14.261721 -7.906017 -1.850787 16.411191 0.506179 1.683813 0.006051 -0.003866 1822270.000000 1 0 0
-10.763221 -7.419617 -11.812887 17.619362 0.603542 2.305610 0.024094 -0.002162 -665078.000000 1 0 0
-9.555221 -14.713717 6.885013 18.846727 0.994837 1.196824 0.018001 -0.001928 558152.000000 1 0 0
-2.533821 -14.318517 -12.294987 19.042240 1.395648 2.272696 0.014777 0.000131 -502117.000000 1 0 0
2.377279 -17.775017 -4.831587 18.572747 -1.437843 1.833968 0.023523 -0.013575 -564265.000000 1 0 0
-6.585321 -9.684817 -9.160187 14.868462 0.973645 2.234555 0.010407 -0.005999 -547890.000000 1 0 0
-11.092521 -15.238017 0.498113 18.854424 0.941557 1.544374 0.027547 -0.007714 771728.000000 1 0 0
-12.651621 -11.098517 4.143213 17.332248 0.720098 1.329413 0.021555 -0.009295 3526700.000000 1 0 0
-17.104221 -8.753717 -1.484587 19.271376 0.473033 1.647909 0.009273 -0.006479 -256477.000000 1 0 0
-1.415421 -19.263017 -3.995187 19.723812 1.497449 1.774764 0.028103 -0.004653 -697922.000000 1 0 0
3.333279 -14.301017 -8.801187 17.119893 -1.341805 2.110744 0.014026 -0.004258 1319950.000000 1 0 0
-4.398621 -8.065917 -12.994687 15.914420 1.071542 2.526180 0.007195 -0.007286 889543.000000 1 0 0
5.614279 -16.603617 1.348613 17.578936 -1.244730 1.494003 0.023798 -0.007012 3970890.000000 1 0 0
-2.814521 -13.840117 -3.179287 14.476817 1.370172 1.792213 0.007748 -0.002975 -180274.000000 1 0 0
-0.307221 -14.005517 3.704913 14.490524 1.548864 1.312247 0.015838 -0.000450 -3669470.000000 1 0 0
1.279679 -16.120917 7.139313 17.677425 -1.491582 1.155057 0.026305 -0.004182 1555610.000000 1 0 0
-5.509421 -10.320917 -14.578787 18.692674 1.080467 2.465334 0.016593 -0.008421 -1664540.000000 1 0 0
-0.284521 -17.302117 -5.844787 18.264878 1.554354 1.896527 0.020930 -0.010723 958197.000000 1 0 0
-6.577521 -13.429617 -1.281087 15.008650 1.115360 1.656257 0.016325 -0.007346 1670820.000000 1 0 0
-1.657321 -17.723917 -0.133087 17.801732 1.477560 1.578272 0.017345 -0.009757 1259780.000000 1 0 0
-9.507421 -9.781317 -4.851887 14.477777 0.799597 1.912536 0.019324 -0.005117 3988770.000000 1 0 0
-0.698021 -16.653817 4.968113 17.393074 1.528907 1.281125 0.033535 -0.005781 3694980.000000 1 0 0
-6.844321 -9.905917 -6.293987 13.586250 0.966182 2.052468 0.018623 -0.005434 2434420.000000 1 0 0
-6.022421 -14.562417 -8.610087 17.957370 1.178656 2.070851 0.013581 -0.006904 -513869.000000 1 0 0
-5.705121 -12.174817 -10.223187 16.890475 1.132583 2.220893 0.009772 -0.006757 739129.000000 1 0 0
-10.781621 -12.161217 -8.701687 18.435235 0.845458 2.062370 0.035420 -0.016960 1012060.000000 1 0 0
4.050379 -16.931017 6.697813 18.652765 -1.335981 1.203516 0.033830 -0.007882 934582.000000 1 0 0
-6.716121 -14.540317 -4.178887 16.552649 1.138093 1.826018 0.022542 -0.010667 745341.000000 1 0 0
-2.898921 -12.310617 -7.095187 14.501611 1.339528 2.082048 0.005878 -0.001922 1721440.000000 1 0 0
-7.088221 -12.833417 4.427313 15.314718 1.066170 1.277521 0.014771 -0.004066 2917540.000000 1 0 0
2.657379 -16.384217 2.405113 16.771667 -1.410005 1.426897 0.019489 -0.008251 2967060.000000 1 0 0
-6.193321 -11.984217 7.239413 15.309729 1.093807 1.078258 0.010232 -0.003439 2889340.000000 1 0 0
-11.377421 -12.760617 -0.814587 17.115566 0.842639 1.618408 0.020741 -0.004402 857790.000000 1 0 0
-14.323921 -8.725217 4.600713 17.391684 0.547110 1.303074 0.022679 -0.011524 -435180.000000 1 0 0
-8.082221 -15.525617 4.384413 18.044117 1.090826 1.325357 0.025955 -0.001489 2014980.000000 1 0 0
-16.540421 -9.110117 1.306813 18.928484 0.503441 1.501702 0.002813 -0.001820 448222.000000 1 0 0
-6.574221 -16.962417 2.291313 18.335597 1.201046 1.445503 0.026181 -0.004225 1898190.000000 1 0 0
-11.563821 -14.922317 -4.601587 19.431215 0.911527 1.809882 0.038779 -0.009084 -620519.000000 1 0 0
-9.967121 -10.062017 -12.734987 19.046458 0.790136 2.303158 0.019996 -0.001394 766202.000000 1 0 0
-4.319321 -16.122117 -4.514087 17.290349 1.309031 1.834933 0.014586 -0.005343 1086270.000000 1 0 0
-11.875821 -8.274617 -0.060387 14.474393 0.608549 1.574968 0.007649 -0.002737 213515.000000 1 0 0
-9.609621 -11.185917 3.517313 15.160510 0.861053 1.336658 0.014699 -0.003509 2188960.000000 1 0 0
-14.355721 -12.806617 -0.483487 19.243958 0.728429 1.595923 0.020319 -0.001742 1330990.000000 1 0 0
5.612879 -14.942817 -7.009387 17.433408 -1.211479 1.984569 0.011746 -0.012168 1697650.000000 1 0 0
-7.438521 -10.585317 -1.282987 13.001023 0.958247 1.669641 0.015569 -0.006821 931586.000000 1 0 0
-11.744621 -8.264417 -6.082487 15.595940 0.613189 1.971433 0.017936 -0.004026 357003.000000 1 0 0
-14.369421 -6.595517 -9.261987 18.323905 0.430310 2.100710 0.033694 -0.005006 1381390.000000 1 0 0
-3.790521 -16.384817 1.450113 16.879962 1.343452 1.484783 0.020024 -0.009053 2116570.000000 1 0 0
-8.075321 -15.404917 0.193213 17.394241 1.087973 1.559688 0.029101 -0.007029 1711440.000000 1 0 0
1.172979 -18.536417 3.743713 18.947033 -1.507601 1.371899 0.029620 -0.010298 261009.000000 1 0 0
-14.199121 -8.773717 -4.616087 17.317662 0.553482 1.840612 0.014972 -0.006485 189981.000000 1 0 0
-3.322921 -14.463117 11.203613 18.594207 1.344964 0.924126 0.019252 -0.010377 978452.000000 1 0 0
-10.917321 -12.114117 -3.668487 16.715188 0.837315 1.792068 0.025226 -0.011135 1773120.000000 1 0 0
-9.976721 -10.653317 0.543113 14.605585 0.818183 1.533602 0.013906 -0.002749 2529230.000000 1 0 0
-0.125921 -13.181817 -11.090087 17.226903 1.561244 2.270205 0.007785 -0.001450 964458.000000 1 0 0
-5.895921 -12.672817 -6.291787 15.328038 1.135340 1.993772 0.010861 -0.009053 2321250.000000 1 0 0
1.887279 -15.854817 9.979913 18.829119 -1.452319 1.012166 0.026620 -0.005758 -204719.000000 1 0 0
-8.977121 -15.712917 -5.611387 18.946560 1.051731 1.871476 0.042372 -0.014230 550095.000000 1 0 0
-3.277521 -15.517317 5.989913 16.953122 1.362639 1.209676 0.019588 -0.000630 -435995.000000 1 0 0
-17.633721 -5.336217 -6.436587 19.515455 0.293854 1.906909 0.039930 -0.006956 1492190.000000 1 0 0
18.856179 5.565783 -2.968687 19.883323 0.287020 1.720662 0.013977 -0.001887 -16501.500000 1 0 0
12.950879 -12.371017 -5.827487 18.834196 -0.762503 1.885369 0.052574 -0.009908 -360861.000000 1 0 0
11.035879 -13.401917 -1.590587 17.433645 -0.881916 1.662160 0.028715 -0.013399 1650760.000000 1 0 0
18.774679 -2.870517 4.557813 19.532079 -0.151718 1.335275 0.057779 -0.014490 -564687.000000 1 0 0
8.716879 -16.939617 5.006113 19.697609 -1.095549 1.313829 0.029844 -0.014995 -1260830.000000 1 0 0
18.104379 -1.067117 6.674013 19.324848 -0.058874 1.218175 0.073034 -0.014883 -1333520.000000 1 0 0
17.981879 -4.132517 -4.976087 19.109870 -0.225893 1.834226 0.081600 -0.013875 430435.000000 1 0 0
5.542779 -11.588717 14.839813 19.627553 -1.124666 0.713508 0.013722 -0.003137 -470624.000000 1 0 0
16.026179 -8.904817 -0.795987 18.351234 -0.507165 1.614185 0.050217 -0.009905 -407308.000000 1 0 0
13.889979 -12.488417 -1.410687 18.731848 -0.732315 1.646177 0.045521 -0.008624 81152.600000 1 0 0
11.156979 -1.956217 13.814913 17.864960 -0.173571 0.686772 0.047938 -0.008010 2312780.000000 1 0 0
16.995479 -6.119817 -1.458087 18.122486 -0.345631 1.651341 0.060120 -0.013091 -1008970.000000 1 0 0
17.816279 3.657683 -1.066887 18.219130 0.202486 1.629388 0.008168 -0.004291 91719.800000 1 0 0
9.831079 -11.077717 9.459513 17.574081 -0.844950 1.002419 0.018062 -0.003707 1180340.000000 1 0 0
9.196279 -11.061717 4.258013 15.002127 -0.877223 1.283013 0.007602 -0.009944 -593594.000000 1 0 0
13.997879 -10.144117 6.682813 18.533854 -0.627105 1.201914 0.033003 -0.016092 473413.000000 1 0 0
16.265679 -0.498817 -4.710687 16.941420 -0.030657 1.852567 0.031085 -0.008460 259395.000000 1 0 0
15.774279 -0.462117 -1.684687 15.870716 -0.029287 1.677147 0.025803 -0.008326 806718.000000 1 0 0
12.953979 -5.161617 -0.206487 13.945986 -0.379176 1.585603 0.014590 -0.009127 1495350.000000 1 0 0
14.391579 -7.521517 1.040613 16.271867 -0.481590 1.506801 0.034588 -0.011243 2734170.000000 1 0 0
15.551479 2.392183 3.531213 16.125772 0.152627 1.350028 0.018049 -0.007765 1820580.000000 1 0 0
15.929679 -7.009917 5.015713 18.112178 -0.414552 1.290204 0.045500 -0.015121 -2008590.000000 1 0 0
13.757879 -12.040517 3.260613 18.571077 -0.718928 1.394307 0.026431 -0.013839 265777.000000 1 0 0
13.979279 -0.933617 9.227513 16.776141 -0.066687 0.988387 0.042551 -0.009285 1371530.000000 1 0 0
14.169679 -2.783817 -1.534187 14.521818 -0.193992 1.676641 0.012708 -0.006178 -971992.000000 1 0 0
15.037179 1.791283 9.151513 17.693944 0.118565 1.027207 0.046105 -0.009250 -191873.000000 1 0 0
14.346579 -10.009517 -3.033487 17.754347 -0.609176 1.742498 0.053955 -0.011891 -884842.000000 1 0 0
7.409979 -12.541617 6.070213 15.781237 -1.037146 1.175970 0.004069 -0.007124 -768363.000000 1 0 0
12.387179 -4.602217 6.967813 14.938977 -0.355726 1.085559 0.019553 -0.006952 2268550.000000 1 0 0
14.850779 -8.890217 -5.653487 18.208337 -0.539416 1.886504 0.064146 -0.012394 -122430.000000 1 0 0
14.363879 -4.515917 4.675313 15.766201 -0.304609 1.269728 0.020842 -0.010107 1038530.000000 1 0 0
17.331879 -4.221417 0.847113 17.858668 -0.238912 1.523344 0.049003 -0.012546 -1142490.000000 1 0 0
10.257079 -14.411817 1.155113 17.726885 -0.952252 1.505588 0.024962 -0.012644 -374511.000000 1 0 0
16.340479 -2.505617 8.551413 18.612256 -0.152153 1.093420 0.063916 -0.012921 532096.000000 1 0 0
16.182479 -2.650917 3.199513 16.707390 -0.162372 1.378103 0.027338 -0.008789 974102.000000 1 0 0
7.911179 -15.275817 2.722113 17.416867 -1.092940 1.413861 0.014754 -0.008630 3226090.000000 1 0 0
16.677779 -6.932217 7.798313 19.672764 -0.393930 1.163202 0.061864 -0.015286 274135.000000 1 0 0
10.335079 -8.575317 5.187613 14.396571 -0.692607 1.202167 0.010170 -0.009161 853646.000000 1 0 0
11.035379 -11.820317 2.182013 16.317496 -0.819728 1.436672 0.017934 -0.013829 733658.000000 1 0 0
12.405179 -7.200117 12.055213 18.736551 -0.525892 0.871857 0.054171 -0.017006 834233.000000 1 0 0
15.221979 -9.779717 4.195313 18.572888 -0.571066 1.342946 0.029459 -0.018366 293530.000000 1 0 0
7.325779 -10.280117 7.875313 14.878455 -0.951653 1.013009 0.005747 -0.003474 1740070.000000 1 0 0
15.189079 -3.313917 -4.314287 16.133916 -0.214811 1.841495 0.041249 -0.007239 986738.000000 1 0 0
11.871279 -8.938617 9.747313 17.771783 -0.645394 0.990261 0.036755 -0.011866 -1994700.000000 1 0 0
17.029279 -6.629617 2.445113 18.437103 -0.371254 1.437785 0.052690 -0.014137 2301710.000000 1 0 0
17.637179 3.893883 1.939813 18.165773 0.217291 1.463808 0.013732 -0.005962 1215750.000000 1 0 0
14.715479 -4.886017 8.720213 17.789340 -0.320579 1.058485 0.053518 -0.014947 -64489.800000 1 0 0
12.950979 -12.747617 6.059613 19.155901 -0.777485 1.248937 0.023907 -0.008382 -1121920.000000 1 0 0
18.304779 0.763283 -0.907087 18.343128 0.041674 1.620268 0.028261 -0.007570 1189380.000000 1 0 0
11.707379 -2.127317 10.976313 16.188504 -0.179746 0.825715 0.028569 -0.004804 1292010.000000 1 0 0
5.797979 -12.419617 10.628213 17.344232 -1.134026 0.911222 0.002104 0.002412 -2261210.000000 1 0 0
10.704379 -5.026417 11.069813 16.198437 -0.439006 0.818403 0.028897 -0.005657 1703820.000000 1 0 0
17.888879 1.366683 5.045613 18.637007 0.076250 1.296644 0.042597 -0.008010 -1191250.000000 1 0 0
12.268679 -7.759717 7.121113 16.169229 -0.563961 1.114739 0.026421 -0.009828 -2244690.000000 1 0 0
10.593279 -7.891817 14.288513 19.459187 -0.640283 0.746189 0.056691 -0.016783 -202969.000000 1 0 0
14.235679 -0.308017 3.638913 14.696637 -0.021634 1.320592 0.012485 -0.006435 1253860.000000 1 0 0
11.739679 -7.627717 2.639513 14.246725 -0.576191 1.384448 0.015010 -0.008662 2899010.000000 1 0 0
9.327079 6.034483 3.514913 11.651781 0.574253 1.264360 0.003259 -0.001953 1913350.000000 1 0 0
-4.037821 14.676483 -9.941787 18.180821 -1.302317 2.149368 0.006323 -0.001375 1122230.000000 1 0 0
8.844579 -6.464117 9.340013 14.396084 -0.631136 0.864805 0.008145 -0.004341 -245284.000000 1 0 0
5.755179 -10.622717 -8.520287 14.783758 -1.074286 2.185024 -0.001322 -0.001845 370748.000000 1 0 0
5.496879 0.982383 0.562113 5.612195 0.176849 1.470469 0.005767 -0.000924 3186480.000000 1 0 0
-0.434521 9.933383 10.985713 14.817111 -1.527081 0.735611 -0.007506 0.003434 788643.000000 1 0 0
-6.342321 -5.267217 1.051013 8.311031 0.693056 1.443997 0.010065 -0.003309 4466640.000000 1 0 0
-1.072721 3.980783 -10.843687 11.600987 -1.307574 2.778270 0.011679 -0.004935 1899520.000000 1 0 0
11.009779 5.687283 1.258413 12.455683 0.476813 1.469592 0.000276 -0.000798 575772.000000 1 0 0
-10.220921 -1.838017 -13.701287 17.192172 0.177927 2.493024 0.020915 -0.007681 791294.000000 1 0 0
7.428679 10.930283 -6.073087 14.544371 0.973864 2.001550 0.006240 0.002196 1646100.000000 1 0 0
-12.412421 -2.811217 -9.566387 15.921271 0.222727 2.215367 0.015429 -0.004146 822084.000000 1 0 0
-3.909821 -8.684317 2.508313 9.848640 1.147763 1.313273 0.009382 -0.002385 -981063.000000 1 0 0
7.996479 -6.640517 -5.930987 11.967321 -0.693022 2.089320 -0.000050 -0.006415 1090940.000000 1 0 0
14.265579 3.188283 -4.242787 15.220813 0.219881 1.853288 0.016906 -0.003048 1601660.000000 1 0 0
-2.505521 -4.904317 9.805313 11.246072 1.098482 0.511752 -0.001840 0.001701 3555320.000000 1 0 0
3.544679 -1.990217 -4.572387 6.118206 -0.511604 2.414848 0.000365 -0.002510 -2175340.000000 1 0 0
-4.110221 8.441083 -3.501487 10.020289 -1.117659 1.927769 0.008343 -0.002191 330362.000000 1 0 0
5.845779 0.171383 11.674113 13.057083 0.029309 0.464417 0.001690 -0.006031 295638.000000 1 0 0
7.130179 4.715883 12.362313 15.030163 0.584346 0.605003 0.009204 -0.006375 751870.000000 1 0 0
1.266079 -14.474917 12.486013 19.157941 -1.483551 0.860919 0.019130 -0.003457 676886.000000 1 0 0
2.920979 8.771183 -9.130687 12.993660 1.249328 2.349986 0.008222 -0.000712 -163539.000000 1 0 0
-4.433521 -8.927417 -4.505587 10.938702 1.109858 1.995328 0.013245 -0.006127 3429890.000000 1 0 0
5.691079 -6.578617 -4.069787 9.603633 -0.857608 2.008406 -0.001295 -0.004050 1910540.000000 1 0 0
-3.169521 3.442283 8.570713 9.764850 -0.826629 0.499733 -0.000841 -0.000657 1311520.000000 1 0 0
-3.779321 3.150183 -11.127187 12.166396 -0.694855 2.725273 0.006504 -0.006358 820486.000000 1 0 0
3.087479 -6.063017 8.634913 10.993382 -1.099791 0.667350 -0.000224 -0.000167 1056380.000000 1 0 0
-5.150521 -8.601117 10.507513 14.522910 1.031245 0.761919 0.003984 -0.002770 1002110.000000 1 0 0
-13.193521 -2.520217 6.620213 14.974902 0.188746 1.112872 0.017584 -0.004116 -25379.300000 1 0 0
3.923079 -5.983517 -8.321887 10.974827 -0.990461 2.431452 -0.002600 -0.001000 1965060.000000 1 0 0
2.966579 -0.433217 12.331913 12.691113 -0.145008 0.238486 -0.002425 -0.002987 1544340.000000 1 0 0
1.505879 -1.464317 -7.581987 7.867555 -0.771406 2.871338 0.002661 -0.005562 1019150.000000 1 0 0
3.610379 -3.518117 3.394313 6.077282 -0.772456 0.978190 0.005360 -0.002484 2529050.000000 1 0 0
1.558379 0.417783 -11.810287 11.919982 0.261929 3.005823 0.008257 -0.005459 999795.000000 1 0 0
4.073679 3.557083 -10.640587 11.936071 0.717802 2.671364 0.000633 -0.001288 627863.000000 1 0 0
2.808479 3.274383 3.333813 5.451922 0.861842 0.912850 -0.002204 0.002669 -490559.000000 1 0 0
-5.269421 0.837883 2.572113 5.923226 -0.157688 1.121600 0.005037 -0.002155 1743100.000000 1 0 0
-9.398621 -9.300117 5.712113 14.403281 0.780130 1.163003 0.017023 -0.004699 -992570.000000 1 0 0
-3.085721 3.806983 -0.721887 4.953373 -0.889660 1.717054 0.005101 -0.003980 258925.000000 1 0 0
-15.935921 -6.490617 5.094413 17.945326 0.386779 1.282953 0.033354 -0.015275 1784040.000000 1 0 0
0.938579 6.683683 -8.058887 10.511812 1.431280 2.444404 0.008317 -0.002897 -395917.000000 1 0 0
-1.639321 6.497383 -9.457087 11.590507 -1.323650 2.525139 0.008767 -0.004425 -58427.000000 1 0 0
2.094779 -0.319817 5.246313 5.658108 -0.151504 0.383875 0.001219 -0.000548 2888310.000000 1 0 0
-3.481421 -0.690817 -6.407387 7.324761 0.195885 2.635731 0.016492 -0.008381 402449.000000 1 0 0
1.989479 -1.139517 -2.471687 3.371315 -0.520158 2.393742 0.006209 -0.002021 -29913.300000 1 0 0
2.428779 -8.663417 -7.569287 11.757886 -1.297464 2.270201 -0.002984 -0.000464 334594.000000 1 0 0
-2.464221 13.974383 -5.541287 15.233568 -1.396252 1.943092 0.004900 0.002676 3430200.000000 1 0 0
6.775579 -5.024517 -8.182287 11.751769 -0.638079 2.340970 -0.000371 -0.004258 1546950.000000 1 0 0
-14.205421 -4.940217 -2.205787 15.200829 0.334687 1.716420 0.000938 -0.001364 390187.000000 1 0 0
-2.788921 6.823683 -6.790387 10.022478 -1.182802 2.315176 0.008055 -0.003259 -2345560.000000 1 0 0
-5.707121 -1.291517 -8.161787 10.042610 0.222551 2.519594 0.015929 -0.010287 1837920.000000 1 0 0
-5.668421 -10.679117 3.496013 12.585573 1.082817 1.289315 0.012152 -0.003989 -4031850.000000 1 0 0
8.117279 -7.551817 6.667013 12.937126 -0.749326 1.029392 0.005855 -0.006706 324006.000000 1 0 0
8.747479 -5.944317 13.221313 16.930931 -0.596866 0.674696 0.026627 -0.006470 1028380.000000 1 0 0
-4.725421 9.510083 -0.749287 10.645783 -1.109644 1.641238 0.003526 -0.000541 1255460.000000 1 0 0
2.849979 6.588083 12.110513 14.077988 1.162509 0.535047 -0.001292 -0.004668 1229630.000000 1 0 0
5.979979 -2.794817 10.958213 12.792717 -0.437198 0.542157 0.002757 -0.002104 -1070170.000000 1 0 0
-9.765821 -6.519317 -1.158787 11.798963 0.588624 1.669166 0.015019 -0.005057 -1337210.000000 1 0 0
0.935379 -13.324717 6.293313 14.765799 -1.500712 1.130499 0.011113 -0.000741 563038.000000 1 0 0
-0.505421 -3.091217 8.692713 9.239824 1.408728 0.345850 -0.001123 0.000009 686053.000000 1 0 0
4.316279 0.752883 3.453813 5.579061 0.172691 0.903242 0.000464 0.001925 1813440.000000 1 0 0
-10.207721 5.620083 8.314313 14.314702 -0.503282 0.951057 0.005050 -0.007057 143975.000000 1 0 0
9.418979 7.896483 -0.049587 12.291219 0.697697 1.574831 -0.001469 -0.001606 -835665.000000 1 0 0
4.263079 2.863983 8.171313 9.651249 0.591555 0.561122 -0.003718 -0.001743 3341120.000000 1 0 0
1.358879 2.642583 -9.827087 10.266520 1.095834 2.847955 0.008908 -0.005210 1092740.000000 1 0 0
-1.389421 -10.173117 3.079913 10.719546 1.435059 1.279371 0.007962 -0.003232 -3451680.000000 1 0 0
-9.843121 9.525483 9.033913 16.408334 -0.769000 0.987751 0.016298 -0.012055 1563340.000000 1 0 0
9.765079 -2.086517 -7.645087 12.576076 -0.210506 2.224218 0.009506 -0.000401 1672570.000000 1 0 0
-5.166221 -1.849317 6.663013 8.631660 0.343751 0.688929 -0.000345 -0.000422 -102764.000000 1 0 0
3.120479 -7.835217 -4.821887 9.714866 -1.191788 2.090175 -0.003589 -0.001242 2346180.000000 1 0 0
-5.079021 4.871783 -13.093087 14.864711 -0.764575 2.648381 0.002387 -0.004326 3720360.000000 1 0 0
-5.683821 9.623683 5.422813 12.422881 -1.037312 1.119071 0.001452 -0.001416 1736780.000000 1 0 0
-0.452821 -1.815717 -9.405087 9.589449 1.326393 2.945188 0.008291 -0.007023 11815.600000 1 0 0
-16.735521 -0.017817 6.404313 17.919073 0.001065 1.205312 0.036510 -0.009946 -1211390.000000 1 0 0
-5.957621 -2.885117 3.998913 7.733592 0.450987 1.027356 0.001536 -0.001134 2285350.000000 1 0 0
0.926279 -5.726917 -5.121687 7.738685 -1.410444 2.294052 0.002869 -0.002677 1257080.000000 1 0 0
-7.032721 1.300183 -8.513487 11.118862 -0.182812 2.442894 0.010184 -0.005329 543567.000000 1 0 0
8.039179 1.920883 4.757613 9.536932 0.234543 1.048511 0.000093 -0.000565 1347130.000000 1 0 0
0.512779 -8.131817 -0.479987 8.162094 -1.507821 1.629637 0.004135 -0.002903 786848.000000 1 0 0
5.465379 5.468983 -3.477287 8.477716 0.785728 1.993434 0.001047 0.001067 292386.000000 1 0 0
-0.706921 -0.440317 -1.305687 1.548688 0.557064 2.573804 0.008660 -0.002996 418329.000000 1 0 0
9.112779 6.379883 -6.374087 12.820867 0.610795 2.091125 0.000225 -0.001468 1147500.000000 1 0 0
-15.032421 -6.995417 2.533013 16.772766 0.435550 1.419197 0.004264 -0.006866 -413113.000000 1 0 0
-6.328521 6.854983 8.790613 12.818574 -0.825310 0.815133 0.005509 -0.003685 987714.000000 1 0 0
-9.495221 -3.221717 -9.715187 13.961502 0.327110 2.340407 0.008831 -0.004359 467820.000000 1 0 0
14.891279 3.454383 -1.321787 15.343731 0.227942 1.657048 0.000125 -0.002148 843854.000000 1 0 0
12.048679 1.672483 -5.831487 13.489778 0.137929 2.017826 0.013240 -0.000973 -376708.000000 1 0 0
1.694879 -9.383217 12.786013 15.949907 -1.392094 0.640770 -0.000072 -0.003655 67415.600000 1 0 0
-3.490321 6.386883 7.807813 10.674107 -1.070658 0.750318 -0.002275 -0.000045 1907970.000000 1 0 0
-4.197421 13.039783 -12.364587 18.453652 -1.259377 2.305052 0.006830 -0.005231 1748090.000000 1 0 0
-10.248621 7.788883 6.467913 14.406069 -0.649866 1.105182 0.005715 -0.004380 466459.000000 1 0 0
8.013379 -9.269417 -7.139187 14.181126 -0.857946 2.098359 0.003196 -0.004330 435818.000000 1 0 0
5.894079 -3.833117 -0.279587 7.036415 -0.576610 1.610541 0.005178 -0.003035 -430324.000000 1 0 0
-1.620521 -4.491817 4.111913 6.301614 1.224558 0.859894 0.000892 0.000248 1463640.000000 1 0 0
9.943279 -2.108617 -2.598487 10.491292 -0.208969 1.821082 0.002130 -0.002309 -2973470.000000 1 0 0
13.547279 7.042983 1.434913 15.335950 0.479426 1.477094 0.002874 -0.000030 -1533900.000000 1 0 0
5.520479 -3.748217 -3.238187 7.416919 -0.596469 2.022606 0.000475 -0.004766 -945894.000000 1 0 0
-12.285221 -5.929217 1.950313 13.779912 0.449655 1.428786 0.008342 -0.002854 1989490.000000 1 0 0
3.743479 -5.806517 -0.285187 6.914522 -0.998154 1.612053 0.006109 -0.002727 814180.000000 1 0 0
-5.195421 3.656683 -8.705387 10.777174 -0.613290 2.511141 0.008467 -0.005774 468844.000000 1 0 0
-1.704721 -9.203717 7.243913 11.835910 1.387651 0.912173 0.004738 -0.000312 595387.000000 1 0 0
-7.385021 -7.493117 2.601613 10.837607 0.792664 1.328375 0.013379 -0.004052 -4496900.000000 1 0 0
-5.834621 12.966083 -8.431387 16.530287 -1.147950 2.106047 0.002433 -0.003855 1284880.000000 1 0 0
9.224979 -13.808717 -4.130387 17.112598 -0.981833 1.814569 0.020858 -0.006127 1485300.000000 1 0 0
-6.634521 -5.253117 -6.797087 10.854146 0.669712 2.247492 0.013397 -0.006733 1674530.000000 1 0 0
3.422479 0.340483 -6.180187 7.072765 0.099158 2.633760 0.002125 -0.006215 751082.000000 1 0 0
-3.574421 5.722883 4.901113 8.339591 -1.012496 0.942593 0.000045 0.001955 -723230.000000 1 0 0
-2.675021 -10.898417 -2.843187 11.576483 1.330104 1.818935 0.010075 -0.005171 408548.000000 1 0 0
-12.585321 -0.470517 1.833813 12.726922 0.037369 1.426204 0.002270 -0.004601 -2437.180000 1 0 0
8.397679 -11.963517 -6.108187 15.841613 -0.958769 1.966631 0.016611 -0.006894 1014420.000000 1 0 0
6.192879 3.886483 0.969413 7.375382 0.560447 1.438976 0.001285 -0.000191 205689.000000 1 0 0
3.386379 -4.870317 -10.883987 12.395512 -0.963225 2.642587 0.000687 -0.001853 797355.000000 1 0 0
-7.607621 4.252483 8.503013 12.176236 -0.509709 0.797737 0.004432 -0.003276 1605950.000000 1 0 0
8.225179 8.691983 4.060813 12.637023 0.812985 1.243649 0.009669 -0.004059 2940800.000000 1 0 0
0.216879 10.507883 -6.307787 12.257684 1.550160 2.111336 0.005449 0.000573 2228990.000000 1 0 0
5.458979 8.019283 3.222613 10.222259 0.973120 1.250072 0.004673 -0.000785 4198940.000000 1 0 0
8.066979 6.717283 -3.742987 11.144864 0.694358 1.913302 -0.001428 0.000401 616097.000000 1 0 0
10.505179 2.621983 -8.272387 13.625930 0.244592 2.223210 0.004664 -0.001169 656509.000000 1 0 0
3.249179 -12.459517 -0.238987 12.878426 -1.315699 1.589355 0.008273 -0.005532 -970944.000000 1 0 0
0.563979 2.115183 5.130913 5.578382 1.310224 0.403263 0.001427 -0.001013 1423830.000000 1 0 0
-4.885821 13.506683 1.513413 14.442719 -1.223707 1.465816 0.003270 0.000943 1198060.000000 1 0 0
8.107279 4.089783 -8.109987 12.174818 0.467208 2.299801 -0.002112 0.001534 370465.000000 1 0 0
-13.934521 -0.498217 -3.508387 14.378034 0.035739 1.817295 0.002055 -0.004888 -614472.000000 1 0 0
-8.623621 0.015683 -0.508587 8.638619 -0.001819 1.629704 0.003813 -0.001972 -802577.000000 1 0 0
1.804579 -3.830717 -1.170687 4.393337 -1.130550 1.840524 0.005324 -0.002683 -1538790.000000 1 0 0
8.088179 -5.723017 -0.191187 9.910001 -0.615794 1.590090 0.005231 -0.005177 2396970.000000 1 0 0
-2.299321 -1.169417 7.295813 7.738430 0.470498 0.339856 0.000889 -0.000841 889098.000000 1 0 0
-5.829121 8.721583 -11.664587 15.687805 -0.981625 2.409152 0.002556 -0.002387 -390790.000000 1 0 0
-6.237221 9.085183 -8.838987 14.126965 -0.969170 2.246802 0.000379 -0.000166 1442580.000000 1 0 0
-1.652621 13.925483 -8.441687 16.368027 -1.452673 2.112670 0.014230 -0.000666 -1026670.000000 1 0 0
-1.413121 7.227983 9.722513 12.197045 -1.377725 0.648285 -0.004435 -0.000736 418137.000000 1 0 0
10.042879 2.297583 -4.000687 11.051869 0.224907 1.941200 -0.001864 0.000816 -2857000.000000 1 0 0
-2.970421 -7.526117 -6.931387 10.654106 1.194883 2.279149 0.009788 -0.005338 1697260.000000 1 0 0
-5.526021 -5.095917 -1.591587 7.683647 0.744928 1.779446 0.014269 -0.004712 1248180.000000 1 0 0
5.647579 7.453383 -8.767087 12.818341 0.922372 2.323958 0.000271 0.001973 1317780.000000 1 0 0
-9.713221 5.113483 -7.549487 13.322504 -0.484580 2.173257 0.002958 -0.001501 1256610.000000 1 0 0
-0.481721 6.034383 -5.388387 8.104353 -1.491136 2.298124 0.008683 -0.003534 -1387920.000000 1 0 0
-8.351921 2.637883 -6.387487 10.840341 -0.305926 2.200906 0.006315 -0.003288 1450610.000000 1 0 0
3.722879 1.396583 -1.984387 4.443879 0.358889 2.033695 0.004304 -0.002888 2167050.000000 1 0 0
-6.901221 12.432983 -3.390987 14.618642 -1.064066 1.804892 0.007539 0.001469 3107410.000000 1 0 0
-6.613321 3.115483 -2.390487 7.691337 -0.440255 1.886834 0.006969 -0.000344 -1191710.000000 1 0 0
12.090979 4.059583 -0.798187 12.779245 0.323927 1.633297 0.001461 -0.001029 -258934.000000 1 0 0
2.250879 12.383283 -5.496287 13.733947 1.390992 1.982528 0.007939 -0.002797 702464.000000 1 0 0
-9.273621 -1.458617 -4.316087 10.332290 0.156009 2.001740 0.002748 -0.000556 304695.000000 1 0 0
-1.128021 5.757083 3.413413 6.787328 -1.377311 1.043834 0.000692 0.000335 910674.000000 1 0 0
11.598779 2.682283 11.988013 16.894934 0.227261 0.781919 0.034550 -0.003294 1277500.000000 1 0 0
-7.135921 -2.432317 -5.780387 9.500021 0.328505 2.224915 0.012877 -0.005719 -1499980.000000 1 0 0
7.441979 -7.347317 10.948413 15.140472 -0.778998 0.762484 0.006268 -0.002772 -940617.000000 1 0 0
-5.508721 -2.028917 -11.013287 12.480184 0.352893 2.651867 0.013740 -0.008567 632154.000000 1 0 0
0.825679 -6.154017 4.451413 7.639945 -1.437424 0.948811 0.001357 -0.000357 819471.000000 1 0 0
-4.812521 -9.342917 7.513213 12.918933 1.095143 0.950144 0.002949 -0.001899 2970640.000000 1 0 0
-8.779621 9.394783 1.626713 12.961091 -0.819233 1.444957 -0.000712 0.000678 1480750.000000 1 0 0
-8.172721 7.059983 -9.109087 14.128417 -0.712478 2.271473 0.001802 -0.000581 752465.000000 1 0 0
-1.325021 -10.646217 -0.041787 10.728438 1.446974 1.574691 0.008333 -0.003489 1009490.000000 1 0 0
-3.982621 10.288783 7.657713 13.429850 -1.201474 0.964046 0.002403 -0.001268 735420.000000 1 0 0
-7.521821 12.111883 1.951613 14.390423 -1.015058 1.434758 0.001841 -0.002673 893925.000000 1 0 0
-8.242721 -8.243517 -2.837787 11.997961 0.785447 1.809581 0.019325 -0.006836 628830.000000 1 0 0
5.333479 4.655983 -8.102987 10.760231 0.717681 2.423481 0.002294 0.000715 -252410.000000 1 0 0
-8.975121 -0.222817 -10.292487 13.657881 0.024821 2.424308 0.012223 -0.005094 -1106770.000000 1 0 0
-15.256921 -2.222617 -1.434987 15.484600 0.144662 1.663601 0.003486 -0.004217 -429881.000000 1 0 0
-7.143521 -5.795617 8.682913 12.649587 0.681600 0.814244 0.007795 -0.002905 -1015690.000000 1 0 0
8.165579 3.468283 -1.002487 8.928082 0.401654 1.683318 -0.002686 0.001126 351234.000000 1 0 0
11.844879 7.258483 -5.898987 15.092541 0.549774 1.972356 0.009077 -0.000641 -437570.000000 1 0 0
3.768979 13.393983 -9.554187 16.878580 1.296496 2.172508 0.006859 -0.004095 993171.000000 1 0 0
-9.806421 5.436383 -0.584787 11.227739 -0.506192 1.622904 -0.000968 0.001549 1315840.000000 1 0 0
11.286679 -1.289117 -5.199787 12.493548 -0.113723 2.000056 0.011795 -0.002843 -1008270.000000 1 0 0
10.610279 1.731183 -1.329487 10.832477 0.161736 1.693838 -0.002637 -0.000973 -508798.000000 1 0 0
14.627179 5.043683 4.653413 16.156960 0.332049 1.278645 0.012046 -0.007633 2292350.000000 1 0 0
0.902879 -0.747317 10.288013 10.354559 -0.691407 0.113434 0.000726 -0.001361 1339460.000000 1 0 0
-7.984021 1.253583 -12.679287 15.035969 -0.155740 2.574123 0.007048 -0.006518 -775470.000000 1 0 0
3.064179 -11.600817 -7.789287 14.305284 -1.312559 2.146594 -0.000752 0.000632 1254040.000000 1 0 0
2.798779 4.995883 -6.761287 8.860418 1.060143 2.438875 0.005834 -0.000053 -1349840.000000 1 0 0
6.553479 7.976583 0.518213 10.336465 0.883029 1.520641 0.006790 -0.001782 996272.000000 1 0 0
-9.123121 -5.455117 6.723313 12.577463 0.538907 1.006818 0.007244 -0.000593 -406066.000000 1 0 0
-0.412021 -6.880917 -11.932687 13.780631 1.510989 2.617749 -0.000461 -0.000342 2260420.000000 1 0 0
6.411279 -13.377917 -4.624787 15.539042 -1.123891 1.872999 0.008047 -0.004601 3294530.000000 1 0 0
-3.211921 -0.226917 9.978613 10.485259 0.070531 0.312135 -0.001442 0.001814 -726113.000000 1 0 0
8.594679 8.466683 6.951713 13.924063 0.777896 1.048053 0.004964 -0.002254 -743068.000000 1 0 0
-7.975021 5.654983 -2.759687 10.158526 -0.616799 1.845916 0.005353 -0.001090 1293040.000000 1 0 0
-5.459121 5.805283 -6.506187 10.287554 -0.816119 2.255486 0.007641 -0.002764 -1941220.000000 1 0 0
3.424679 -13.675017 2.543413 14.324925 -1.325410 1.392298 0.012342 -0.006548 -1837470.000000 1 0 0
-11.355021 -7.106617 6.405713 14.848356 0.559215 1.124742 0.020656 -0.006376 -935836.000000 1 0 0
-12.945621 -3.716617 -6.765087 15.072118 0.279575 2.036272 0.008802 -0.001470 -1234660.000000 1 0 0
6.037479 0.419883 -7.231087 9.429532 0.069434 2.444723 -0.002857 0.000475 -13212.000000 1 0 0
-1.402821 2.067183 -2.541187 3.563535 -0.974568 2.364719 0.009144 -0.002853 4228330.000000 1 0 0
7.631679 0.937383 -4.987187 9.164783 0.122216 2.146194 -0.002225 0.001896 -409896.000000 1 0 0
3.682979 -4.446317 10.909913 12.343431 -0.879023 0.486737 -0.003765 0.000240 -189123.000000 1 0 0
6.076179 -2.553717 2.139613 6.929601 -0.397869 1.256903 0.006974 -0.001925 -1953040.000000 1 0 0
-6.349021 7.762883 1.095613 10.088249 -0.885254 1.461979 0.000092 0.000882 2166320.000000 1 0 0
6.045379 -3.397717 7.987213 10.577650 -0.512036 0.714985 0.003077 -0.004121 413726.000000 1 0 0
6.688579 -2.254017 -7.884587 10.582268 -0.325042 2.411444 0.000677 -0.000835 816021.000000 1 0 0
11.924679 -8.230817 -5.821687 15.615261 -0.604141 1.952843 0.031984 -0.011450 -337686.000000 1 0 0
5.572779 -9.617517 10.057013 14.989864 -1.045631 0.835346 0.000143 0.001208 1821540.000000 1 0 0
-6.645121 7.516383 -4.553987 11.017823 -0.846844 1.996903 0.005943 -0.002542 -187275.000000 1 0 0
-1.320421 -7.537417 9.780913 12.418633 1.397374 0.663892 0.000141 -0.000651 -320836.000000 1 0 0
10.133879 -9.263217 0.799713 13.752900 -0.740542 1.512615 0.009803 -0.007605 1617640.000000 1 0 0
11.109979 6.100683 9.762613 15.998706 0.502165 0.914467 0.009898 -0.004532 2422750.000000 1 0 0
-15.305221 -4.208017 -4.985787 16.637766 0.268310 1.875140 0.010922 -0.005562 2815420.000000 1 0 0
-4.704221 -4.598217 7.789113 10.195272 0.774003 0.701318 0.001764 -0.000145 -333632.000000 1 0 0
2.921379 10.952383 -11.182987 15.923201 1.310131 2.349430 0.009086 -0.001560 -2089760.000000 1 0 0
9.981979 -1.464417 1.456813 10.193465 -0.145667 1.427389 0.003323 -0.003175 84238.400000 1 0 0
-1.623621 -2.712917 0.610813 3.220118 1.031497 1.379953 0.006797 -0.003619 264361.000000 1 0 0
1.592579 2.927583 0.800813 3.427587 1.072578 1.334979 0.001744 -0.000589 316608.000000 1 0 0
-8.963221 -2.373317 4.245413 10.197818 0.258844 1.141418 0.002924 -0.000774 5800530.000000 1 0 0
9.990579 4.921383 -2.729587 11.466574 0.457712 1.811151 -0.003499 0.001095 60474.000000 1 0 0
2.549479 8.432183 2.429913 9.138163 1.277184 1.301650 0.002055 -0.000475 744702.000000 1 0 0
-8.143421 -0.074417 2.428913 8.498262 0.009138 1.280942 0.001035 -0.002628 1515240.000000 1 0 0
6.989879 2.027683 13.681913 15.497247 0.282339 0.488877 0.019077 -0.005993 -1575160.000000 1 0 0
6.860579 4.305683 3.720213 8.913273 0.560465 1.140237 -0.001212 0.000889 704060.000000 1 0 0
-0.345721 3.374883 7.692713 8.407568 -1.468713 0.415351 -0.004343 -0.000432 -165784.000000 1 0 0
2.692879 -10.245417 9.240613 14.057351 -1.313772 0.853498 0.005450 -0.004022 1976790.000000 1 0 0
1.398279 -4.499617 6.887913 8.345363 -1.269502 0.599960 -0.001228 -0.000011 318321.000000 1 0 0
-0.167821 10.736583 -2.029287 10.927963 -1.555167 1.757577 0.006587 -0.001646 1919670.000000 1 0 0
8.750579 5.563383 8.001413 13.097575 0.566309 0.913589 -0.000053 -0.003247 -57660.900000 1 0 0
2.621879 11.348783 -2.958387 12.017536 1.343752 1.819526 0.007935 -0.005474 1652250.000000 1 0 0
1.475179 2.379783 -6.753687 7.311074 1.015887 2.748585 0.006625 -0.003245 1029420.000000 1 0 0
-13.624721 -2.246317 3.655013 14.284190 0.163401 1.312040 0.006073 0.000078 184521.000000 1 0 0
-0.995921 -10.745417 -5.333087 12.037345 1.478377 2.029789 0.003075 -0.002572 429980.000000 1 0 0
-5.696021 2.850283 0.374813 6.380380 -0.463967 1.512018 0.006320 -0.002596 33863.700000 1 0 0
3.795279 7.314883 -5.067087 9.674038 1.092188 2.122081 0.004617 0.000155 -2402170.000000 1 0 0
2.984379 9.740883 -6.549887 12.111661 1.273500 2.142174 0.008278 -0.000622 580770.000000 1 0 0
-12.242421 1.693983 -2.467087 12.602895 -0.137497 1.767824 0.000079 -0.000109 763103.000000 1 0 0
-2.543221 9.567683 -5.710387 11.428781 -1.310990 2.093991 0.004512 -0.000123 203330.000000 1 0 0
-1.363221 3.312783 1.621113 3.932036 -1.180413 1.145837 0.002702 -0.001390 1052800.000000 1 0 0
12.894479 3.759483 9.572913 16.493695 0.283694 0.951579 0.029387 -0.006941 1010170.000000 1 0 0
-2.560321 -9.477517 11.667513 15.248260 1.306948 0.699491 0.001703 -0.007372 1323250.000000 1 0 0
-0.455921 -8.968817 -7.490087 11.693971 1.520006 2.265956 0.003269 -0.000742 2157820.000000 1 0 0
2.392379 7.591983 -0.519187 7.976919 1.265527 1.635928 0.004709 -0.000907 2037950.000000 1 0 0
-11.950221 -1.309617 -5.526387 13.231169 0.109154 2.001686 0.006593 -0.000454 -972955.000000 1 0 0
-6.277621 -7.200417 -10.912687 14.503147 0.853758 2.422549 0.010218 -0.005329 590168.000000 1 0 0
-4.624021 -2.305017 -1.518087 5.385096 0.462437 1.856576 0.011773 -0.005100 -695039.000000 1 0 0
-10.441021 3.644883 4.567613 11.965081 -0.335866 1.179112 0.001944 -0.004065 4115710.000000 1 0 0
6.811279 9.316983 -3.567187 12.079922 0.939527 1.870565 0.001131 0.001115 116050.000000 1 0 0
1.244979 -2.712817 -11.507587 11.888394 -1.140545 2.887804 0.005743 -0.003193 -1097030.000000 1 0 0
1.226879 8.810383 7.498813 11.634443 1.432432 0.870381 -0.007403 0.006193 69872.700000 1 0 0
10.335579 0.387983 10.444213 14.698854 0.037521 0.780522 0.014904 -0.002973 539053.000000 1 0 0
-5.335521 -0.962817 -4.069587 6.779110 0.178533 2.214689 0.011082 -0.007192 130697.000000 1 0 0
11.724679 5.660983 5.417313 14.101848 0.449814 1.176503 0.004212 -0.003262 2112850.000000 1 0 0
10.037879 -3.407917 3.600713 11.195448 -0.327295 1.243353 0.011718 -0.006526 -1948570.000000 1 0 0
7.388879 -1.672617 -3.417887 8.311145 -0.222618 1.994612 0.000026 -0.000187 -2135850.000000 1 0 0
2.445679 9.298883 10.419913 14.178334 1.313613 0.745251 -0.005562 0.003962 1684840.000000 1 0 0
2.423379 -10.846917 6.346913 12.798894 -1.350990 1.051931 0.001081 0.000429 2048750.000000 1 0 0
5.922479 -7.586117 -1.277987 9.708666 -0.907935 1.702813 0.003202 -0.006245 444033.000000 1 0 0
-0.239421 -5.639817 -2.287487 6.090768 1.528370 1.955804 0.006982 -0.003457 985518.000000 1 0 0
7.768179 -5.046317 2.804413 9.678567 -0.576104 1.276825 0.005970 -0.005711 1414690.000000 1 0 0
-2.623421 -12.523217 4.717013 13.636844 1.364298 1.217596 0.010940 0.000332 351075.000000 1 0 0
4.803279 -10.306717 -1.076487 11.421854 -1.134689 1.665184 0.005653 -0.005306 1081640.000000 1 0 0
0.960579 0.140283 1.056013 1.434418 0.145014 0.743364 0.002265 -0.000405 -542184.000000 1 0 0
-1.631821 8.537383 2.422513 9.023209 -1.381936 1.298986 -0.000328 0.001672 1961470.000000 1 0 0
-7.579421 0.577783 -3.085887 8.203910 -0.076083 1.956432 0.008061 -0.001402 -32933.000000 1 0 0
4.360079 -6.337317 12.908213 15.026439 -0.968169 0.537418 0.007262 -0.005256 -532091.000000 1 0 0
-5.097421 13.024483 8.466213 16.349239 -1.197750 1.026478 0.011806 -0.006193 348845.000000 1 0 0
0.696779 6.127783 8.161913 10.229958 1.457574 0.647086 -0.005289 0.003017 -61426.700000 1 0 0
8.032479 -0.559417 -0.769787 8.088649 -0.069532 1.666109 0.001172 -0.001787 3227750.000000 1 0 0
2.410679 -9.297017 -2.391787 9.897805 -1.317088 1.814860 0.000480 -0.002577 1939770.000000 1 0 0
-7.187321 12.152283 4.853713 14.929638 -1.036696 1.239673 0.000688 -0.004094 1897810.000000 1 0 0
-15.018121 0.270883 0.279513 15.023164 -0.018035 1.552190 0.008756 -0.004909 535298.000000 1 0 0
6.911079 -0.545917 3.958113 7.982963 -0.078828 1.052017 0.003819 0.000529 989074.000000 1 0 0
-4.223121 -5.082617 5.033713 8.306986 0.877499 0.919822 0.002215 -0.001303 803756.000000 1 0 0
2.923179 5.160383 6.761313 8.993880 1.055399 0.720057 -0.005203 0.001299 -889008.000000 1 0 0
2.069979 -7.192917 1.815513 7.701881 -1.290588 1.332833 0.002509 -0.001536 1170360.000000 1 0 0
-2.460921 6.440183 -1.816587 7.129661 -1.205798 1.828430 0.005412 -0.000797 1436270.000000 1 0 0
2.690279 -3.890817 -6.527387 8.061194 -0.965836 2.514487 -0.001545 -0.003967 -558428.000000 1 0 0
-5.139621 0.882983 -12.187487 13.256326 -0.170138 2.737276 0.006715 -0.003356 -142160.000000 1 0 0
-7.504121 6.288483 -11.937987 15.439312 -0.697488 2.454700 0.003097 -0.004356 2334620.000000 1 0 0
-1.093321 11.179083 -8.993187 14.389046 -1.473306 2.245931 0.010999 -0.001021 1119180.000000 1 0 0
4.668579 5.866083 -0.674787 7.527410 0.898585 1.660561 0.003244 -0.000069 1674480.000000 1 0 0
-2.622121 13.376083 3.529513 14.080219 -1.377220 1.317422 -0.001202 0.004182 773608.000000 1 0 0
1.405779 -7.918117 10.232613 13.014575 -1.395088 0.666092 -0.002397 -0.002493 -1887670.000000 1 0 0
13.007679 -0.247117 -1.120887 13.058223 -0.018996 1.656740 0.011813 -0.004580 -623184.000000 1 0 0
-0.998121 2.948883 -5.407287 6.239463 -1.244426 2.619198 0.010283 -0.005674 1343060.000000 1 0 0
6.513779 1.102783 7.275813 9.827660 0.167710 0.737220 0.001497 -0.001896 1172740.000000 1 0 0
5.493279 -6.119317 6.983613 10.788560 -0.839256 0.866738 0.002059 -0.000818 1214790.000000 1 0 0
12.288479 -4.865217 2.617813 13.473307 -0.376982 1.375256 0.013036 -0.006992 -440679.000000 1 0 0
4.360579 -9.070517 14.011213 17.251175 -1.122673 0.622902 0.003729 -0.002343 -530786.000000 1 0 0
-2.748821 -4.468317 -1.384487 5.425742 1.019290 1.828820 0.011987 -0.005332 835058.000000 1 0 0
-9.432521 -5.230817 -7.628187 13.210720 0.506331 2.186366 0.011426 -0.003594 387482.000000 1 0 0
-10.483421 -3.151417 7.836813 13.462882 0.292016 0.949481 0.010020 -0.001872 -52328.400000 1 0 0
12.076679 -0.679717 1.613513 12.202935 -0.056224 1.438185 0.007840 -0.004954 380171.000000 1 0 0
-7.571921 4.709383 4.330913 9.913076 -0.556406 1.118659 0.001541 -0.002416 2947470.000000 1 0 0
-1.083221 10.666983 6.921313 12.761758 -1.469594 0.997567 -0.004319 0.004810 2379090.000000 1 0 0
7.433079 -9.914717 1.953913 12.544723 -0.927486 1.414404 0.007541 -0.006294 2783670.000000 1 0 0
-4.279621 -1.704717 1.555613 4.862216 0.379069 1.245131 0.005337 -0.001279 734368.000000 1 0 0
6.704779 -14.944717 -0.819787 16.400326 -1.149075 1.620803 0.021149 -0.011485 -1499560.000000 1 0 0
-10.439621 1.685583 2.420013 10.848195 -0.160079 1.345824 -0.001875 -0.000969 74643.600000 1 0 0
-3.057421 8.315683 -11.432087 14.463437 -1.218468 2.482279 0.004226 -0.001062 -1615860.000000 1 0 0
-1.283121 -5.168917 -6.927287 8.737929 1.327477 2.486159 0.005122 -0.005390 453227.000000 1 0 0
12.932979 -0.406817 6.374913 14.424527 -0.031445 1.113025 0.014183 -0.006304 2238990.000000 1 0 0
6.085679 -13.258417 3.641613 15.036039 -1.140479 1.326172 0.007755 -0.006818 1357620.000000 1 0 0
-5.704121 3.415883 -5.096087 8.377073 -0.539570 2.224760 0.008785 -0.004249 953311.000000 1 0 0
-4.425321 8.009283 3.339313 9.740795 -1.066017 1.220882 0.000624 0.000906 -141452.000000 1 0 0
13.922579 6.172683 -4.061387 15.761824 0.417316 1.831409 0.018139 -0.000619 457595.000000 1 0 0
-6.645321 -8.548917 5.315113 12.062119 0.910033 1.114479 0.013145 -0.003021 25183.200000 1 0 0
1.672979 11.393583 2.699913 11.828022 1.425003 1.340502 -0.000035 -0.002567 1159770.000000 1 0 0
-7.349221 7.307683 5.916613 11.933967 -0.782564 1.052064 0.004153 -0.005134 397643.000000 1 0 0
-17.491921 -4.035217 5.265913 18.707755 0.226724 1.285457 0.038810 -0.013117 418995.000000 1 0 0
7.494079 -13.029717 -8.521187 17.278466 -1.048847 2.086524 0.019804 -0.005090 -834342.000000 1 0 0
-2.326821 12.790683 -2.782287 13.294991 -1.390849 1.781628 0.001808 0.002967 1773970.000000 1 0 0
-5.551821 13.826883 -5.671087 15.942604 -1.188977 1.934480 0.006909 0.003217 3701710.000000 1 0 0
-5.635421 2.446183 7.315513 9.552932 -0.409530 0.698532 0.001153 -0.001014 1907860.000000 1 0 0
-7.436821 5.092683 1.353913 9.114538 -0.600447 1.421700 0.003696 -0.000663 2066060.000000 1 0 0
10.655679 -5.715417 -4.965787 13.071669 -0.492321 1.960473 0.012808 -0.007004 2498710.000000 1 0 0
-9.499621 -0.837017 6.751513 11.684448 0.087884 0.954741 -0.001811 -0.000981 13169.600000 1 0 0
-11.308921 -4.556617 -2.577487 12.461857 0.383023 1.779130 0.007641 -0.003369 72553.400000 1 0 0
6.456379 -4.248017 13.576413 15.622083 -0.581948 0.517512 0.016902 -0.008413 562375.000000 1 0 0
0.190179 10.359583 -11.637887 15.581962 1.552441 2.414157 0.011651 0.000656 -1167490.000000 1 0 0
-11.847121 -3.161417 1.471713 12.349687 0.260775 1.451342 0.003752 -0.002667 4003300.000000 1 0 0
5.217579 5.945583 5.306313 9.525232 0.850521 0.979931 -0.000958 0.001023 -4327280.000000 1 0 0
-7.115621 -0.010317 8.070213 10.759206 0.001450 0.722621 -0.001040 0.000519 -843172.000000 1 0 0
1.726079 2.143383 9.565313 9.953324 0.892828 0.280139 -0.001289 -0.003721 2587370.000000 1 0 0
10.466579 -4.973717 -1.982187 11.756539 -0.443611 1.740208 0.006004 -0.005454 2879880.000000 1 0 0
-9.685221 -2.358617 -1.686587 10.109953 0.238878 1.738404 0.004567 -0.002197 -2056090.000000 1 0 0
-2.054221 -5.190617 -9.984287 11.438895 1.193953 2.631781 0.009187 -0.007010 1644650.000000 1 0 0
7.643279 -1.581917 6.593513 10.217465 -0.204087 0.869357 0.002025 -0.004218 1519010.000000 1 0 0
1.510379 -11.897717 -2.652987 12.283129 -1.444525 1.788498 0.004070 -0.003253 -3212410.000000 1 0 0
-0.754921 -1.501117 4.797913 5.083624 1.104827 0.336858 0.004623 -0.000860 3720420.000000 1 0 0
7.645379 1.534983 9.909413 12.609697 0.198138 0.666716 0.000696 -0.002788 691267.000000 1 0 0
-3.923021 10.604783 -7.981787 13.840535 -1.216479 2.185475 0.000991 0.002873 3446120.000000 1 0 0
-9.573521 12.711083 6.433413 17.164286 -0.925274 1.186600 0.011402 -0.006094 1792090.000000 1 0 0
-2.531921 -2.426617 -11.071187 11.613366 0.764165 2.834824 0.014656 -0.009537 -2118700.000000 1 0 0
1.143579 -11.896717 11.139413 16.337876 -1.474965 0.820555 0.004782 -0.000842 1478650.000000 1 0 0
1.402879 3.443983 -1.934687 4.191909 1.183977 2.050514 0.007521 -0.001535 3481590.000000 1 0 0
-2.011421 -9.439017 -12.028087 15.421275 1.360840 2.465409 -0.003468 0.000903 -13564.600000 1 0 0
1.330179 -2.729317 1.547813 3.407973 -1.117306 1.099351 0.008714 -0.002355 3593900.000000 1 0 0
-1.051021 -2.244617 -6.613587 7.062753 1.132878 2.783034 0.008510 -0.009321 1012120.000000 1 0 0
1.797379 5.827283 3.981613 7.282928 1.271613 0.992372 -0.004400 0.003278 -3241460.000000 1 0 0
-11.016521 8.582383 3.601613 14.421950 -0.661833 1.318394 -0.000746 -0.001319 2238570.000000 1 0 0
-16.356121 -1.607217 3.934213 16.899227 0.097950 1.335836 0.025576 -0.006575 -159357.000000 1 0 0
-12.201921 0.232283 6.831813 13.986225 -0.019034 1.060464 0.002328 0.001711 -73465.300000 1 0 0
-5.084021 3.002283 4.537713 7.446597 -0.533429 0.915534 0.000491 -0.000513 1069600.000000 1 0 0
5.208779 -6.023617 4.038313 8.928792 -0.857815 1.101476 0.002768 -0.002776 763111.000000 1 0 0
9.910079 3.479283 6.246213 12.220076 0.337641 1.034282 -0.001153 0.001006 -660839.000000 1 0 0
-12.192321 5.840983 3.234313 13.900739 -0.446764 1.335972 -0.000226 -0.000636 560453.000000 1 0 0
-4.978821 12.354083 -1.237587 13.376981 -1.187698 1.663445 0.001818 0.004662 2688940.000000 1 0 0
-1.751421 -12.129317 10.374913 16.056981 1.427392 0.868292 0.013187 -0.005559 1102380.000000 1 0 0
5.249779 6.366383 13.913213 16.176171 0.881229 0.535320 0.005839 -0.004682 -16536.700000 1 0 0
12.920879 -3.752317 -5.863587 14.676875 -0.282633 1.981781 0.012692 -0.005065 1919650.000000 1 0 0
3.554479 -2.510017 6.386813 7.728253 -0.614846 0.598070 0.000284 -0.000320 1512360.000000 1 0 0
7.194179 -11.803017 -0.597187 13.835609 -1.023406 1.613973 0.008162 -0.007516 222721.000000 1 0 0
-6.072421 -6.596217 -4.126387 9.869724 0.826721 2.002133 0.018684 -0.006945 742439.000000 1 0 0
0.278379 -8.926017 5.088713 10.278438 -1.539619 1.052862 0.003889 -0.001593 2114670.000000 1 0 0
-10.285521 2.469283 -0.374687 10.584407 -0.235615 1.606204 -0.000988 0.001297 -2340080.000000 1 0 0
-1.822421 8.897783 -0.416287 9.092032 -1.368773 1.616598 0.006481 0.000232 626090.000000 1 0 0
-3.593321 2.210583 -6.613287 7.844373 -0.551515 2.573746 0.015617 -0.009011 614597.000000 1 0 0
-12.646321 2.996083 6.497113 14.529914 -0.232624 1.107215 0.005194 -0.004182 674979.000000 1 0 0
11.377579 1.595083 7.940913 13.966091 0.139287 0.966011 0.007930 -0.005815 -3072210.000000 1 0 0
6.056379 2.639083 -3.215687 7.347457 0.410943 2.023791 -0.000591 0.001234 1141470.000000 1 0 0
10.508179 -2.247117 6.349313 12.481392 -0.210672 1.037119 0.012791 -0.004922 3977780.000000 1 0 0
-0.955421 11.068483 3.995013 11.806111 -1.484691 1.225596 0.000005 0.002723 1608240.000000 1 0 0
-1.567521 -12.193417 7.427613 14.363356 1.442943 1.027311 0.011064 0.001515 -214331.000000 1 0 0
8.102579 8.695383 -7.765587 14.197387 0.820674 2.149540 0.002568 0.001240 941209.000000 1 0 0
-4.749221 -6.009417 -8.704087 11.594366 0.902000 2.419943 0.012011 -0.007047 1764900.000000 1 0 0
-8.575321 -5.354917 -11.757287 15.506291 0.558209 2.431386 0.014503 -0.005735 1011720.000000 1 0 0
6.032279 -0.546017 -9.933587 11.634547 -0.090270 2.594040 0.001770 0.001654 -1088310.000000 1 0 0
-11.289721 -5.493517 -5.390287 13.663518 0.452866 1.976322 0.007947 -0.004265 -2170950.000000 1 0 0
3.990679 8.884283 -2.728387 10.114351 1.148621 1.843934 0.010292 -0.004431 686980.000000 1 0 0
11.635279 -10.381117 -3.935687 16.082194 -0.728495 1.818031 0.024244 -0.011336 246761.000000 1 0 0
4.058879 -11.223217 3.938613 12.567728 -1.223781 1.252034 0.005107 -0.003553 1623730.000000 1 0 0
-1.038021 0.842583 3.151913 3.423739 -0.681847 0.401168 0.003989 -0.001624 -2463710.000000 1 0 0
-10.633521 -5.109117 4.490913 12.623119 0.447904 1.207060 0.014189 -0.001817 3287530.000000 1 0 0
4.593979 -8.603517 2.747213 10.132736 -1.080347 1.296237 0.004172 -0.002710 4554390.000000 1 0 0
-3.671121 -5.809517 2.572813 7.338051 1.007240 1.212571 0.004381 -0.001158 866197.000000 1 0 0
10.025279 5.109283 12.292813 16.665061 0.471330 0.741228 0.026113 -0.002531 1708850.000000 1 0 0
1.590179 -12.393517 -5.349587 13.592131 -1.443186 1.975319 0.002137 -0.002045 1227850.000000 1 0 0
9.821979 -10.699617 -1.678987 14.620947 -0.828139 1.685885 0.011018 -0.008734 -103987.000000 1 0 0
9.525079 -4.470317 -9.247887 14.008365 -0.438804 2.291840 0.017674 -0.005015 2829650.000000 1 0 0
-7.482421 -3.033417 -13.154787 15.434917 0.385158 2.591115 0.009697 -0.007045 1325080.000000 1 0 0
0.418679 6.205783 -2.575387 6.731987 1.503432 1.963361 0.006706 -0.002251 2590880.000000 1 0 0
-5.988921 -9.525917 0.994513 11.295987 1.009543 1.482641 0.013974 -0.004913 281767.000000 1 0 0
-9.016921 -4.097017 0.540013 9.918771 0.426482 1.516326 0.005257 -0.002112 3211010.000000 1 0 0
1.895479 3.865383 12.026613 12.773936 1.114880 0.343754 -0.002526 -0.007014 984032.000000 1 0 0
6.670979 4.304183 9.595413 12.453911 0.573001 0.691212 -0.002051 -0.001081 2774570.000000 1 0 0
-8.327221 9.729983 -3.644487 13.315309 -0.862927 1.848041 0.002957 -0.000717 3167600.000000 1 0 0
16.362979 2.199283 -5.972887 17.557315 0.133605 1.917919 0.042351 -0.009046 -1658580.000000 1 0 0
-10.995821 2.598283 -4.990887 12.351846 -0.232041 1.986747 0.003016 0.001587 1327890.000000 1 0 0
-13.761221 4.032883 1.496913 14.417908 -0.285079 1.466786 0.001970 0.002773 -94454.600000 1 0 0
-17.365921 10.483383 3.377313 20.564113 -0.543118 1.405816 0.036130 -0.010421 -496096.000000 1 0 0
-14.398321 2.852483 -1.099087 14.719249 -0.195580 1.645536 0.004602 0.001680 223332.000000 1 0 0
-14.307121 5.118383 5.235813 16.071878 -0.343563 1.238965 0.007047 -0.000088 1493400.000000 1 0 0
-17.494521 7.506283 3.251613 19.312574 -0.405309 1.401623 0.036110 -0.002502 -1080330.000000 1 0 0
-15.329821 12.655683 -3.299687 20.150872 -0.690133 1.735286 0.047147 -0.014514 895194.000000 1 0 0
-8.540021 12.414483 -9.506287 17.816308 -0.968232 2.133615 0.009252 -0.010855 192521.000000 1 0 0
-12.557421 8.780083 -9.915787 18.251068 -0.610185 2.145158 0.019823 0.003171 -615179.000000 1 0 0
-13.901521 -3.412617 -12.174687 18.791520 0.240725 2.275597 0.028137 -0.002259 -485342.000000 1 0 0
-14.869621 5.647183 -7.701787 17.672402 -0.362955 2.021733 0.038662 0.004830 871085.000000 1 0 0
-10.881521 13.407683 -8.143887 19.091787 -0.889029 2.011488 0.015274 -0.014773 1953260.000000 1 0 0
-10.947321 13.525483 3.926213 17.838096 -0.890359 1.348877 0.009218 -0.005313 -1637910.000000 1 0 0
-15.134721 3.258383 3.162713 15.801252 -0.212055 1.369279 0.007436 0.000022 716343.000000 1 0 0
-11.124621 9.332083 -12.510687 19.166696 -0.697995 2.281979 0.009865 -0.003975 972701.000000 1 0 0
-13.094421 11.487283 -9.024187 19.617784 -0.720112 2.048792 0.026953 -0.016182 136088.000000 1 0 0
-8.993221 14.556783 -3.405987 17.446452 -1.017389 1.767283 0.018902 -0.007180 1531490.000000 1 0 0
-16.788421 8.336583 -4.129987 19.193917 -0.460898 1.787664 0.039768 -0.004710 -847902.000000 1 0 0
-16.935821 6.732983 0.441213 18.230462 -0.378400 1.546592 0.034766 0.001607 -787239.000000 1 0 0
-10.537921 2.782583 -12.574787 16.640787 -0.258162 2.427458 0.018383 -0.009487 1848850.000000 1 0 0
-16.890521 0.951583 2.411813 17.088360 -0.056279 1.429186 0.025204 -0.006853 -17089.600000 1 0 0
-12.678321 1.197583 -6.924987 14.495843 -0.094180 2.068856 0.006630 -0.002789 334888.000000 1 0 0
-12.427921 8.886283 -5.392987 16.201961 -0.620739 1.910131 0.017464 -0.001407 -1369260.000000 1 0 0
-9.640121 14.017983 1.300313 17.062432 -0.968375 1.494513 0.013242 -0.008332 -377418.000000 1 0 0
-12.207521 11.170583 2.757513 16.775260 -0.741072 1.405667 0.008413 -0.000705 -959961.000000 1 0 0
-12.600521 6.812483 -3.590387 14.767326 -0.495637 1.816388 0.005519 0.000931 564482.000000 1 0 0
-16.045421 3.547783 -9.342087 18.902827 -0.217608 2.087730 0.056335 -0.007508 -1233760.000000 1 0 0
-15.148021 5.822683 -4.728487 16.903394 -0.366974 1.854315 0.024098 0.003740 2949460.000000 1 0 0
-17.933921 5.091883 7.639113 20.147179 -0.276644 1.181902 0.036116 -0.010090 1163730.000000 1 0 0
-15.847221 10.146783 -1.978187 18.921015 -0.569517 1.675537 0.032439 -0.004491 -314363.000000 1 0 0
-8.899721 9.733183 -8.361987 15.616104 -0.830099 2.135863 0.005065 -0.003463 713607.000000 1 0 0
-16.970021 4.288283 -1.223287 17.546150 -0.247516 1.640571 0.019289 -0.000148 -635013.000000 1 0 0
-10.279421 5.378883 -4.598187 12.479671 -0.482088 1.948142 0.002103 -0.000273 -381641.000000 1 0 0
-18.144621 2.583483 6.205813 19.349774 -0.141432 1.244309 0.044602 -0.013738 75592.500000 1 0 0
-10.444721 9.990783 -5.730487 15.548196 -0.763189 1.948259 0.008562 -0.003687 480181.000000 1 0 0
-15.348921 0.522083 -5.802087 16.417251 -0.034001 1.932014 0.018266 -0.003646 250945.000000 1 0 0
-16.325121 -4.113117 -8.798487 18.995807 0.246813 2.052377 0.037488 -0.013036 -1206960.000000 1 0 0
-10.010921 9.672783 -1.170387 13.969648 -0.768221 1.654675 0.002804 -0.000534 1042870.000000 1 0 0
-17.376721 -2.987717 -3.252587 17.929199 0.170273 1.753219 0.023330 -0.008538 -1675740.000000 1 0 0
-12.001321 5.061883 -11.663687 17.484163 -0.399138 2.301106 0.021560 -0.003306 -353900.000000 1 0 0
-16.377121 6.985683 5.990513 18.785529 -0.403184 1.246238 0.033362 -0.003177 -194381.000000 1 0 0
-12.240721 5.987183 -8.944387 16.299805 -0.454906 2.151655 0.017591 0.000148 1310240.000000 1 0 0
-14.555221 8.432983 0.049013 16.821773 -0.525119 1.567883 0.021350 -0.001604 1559240.000000 1 0 0
-14.883521 11.976483 3.829113 19.483773 -0.677589 1.372980 0.024050 -0.007423 1700020.000000 1 0 0
-17.353221 4.118183 -4.072587 18.294252 -0.233005 1.795293 0.032510 -0.002981 -76753.900000 1 0 0
-13.822321 13.371883 -0.792787 19.248176 -0.768836 1.611996 0.025183 -0.015664 -927031.000000 1 0 0
-10.056621 6.782883 -13.134587 17.879051 -0.593385 2.395926 0.006414 -0.007633 556303.000000 1 0 0
-15.807421 -1.126617 -8.284887 17.882482 0.071151 2.052507 0.022978 -0.008740 -747432.000000 1 0 0
-11.406821 11.981983 -0.063387 16.543503 -0.809985 1.574628 0.011302 -0.005583 45632.300000 1 0 0
-11.998721 7.481383 -0.883887 14.167626 -0.557531 1.633225 0.002023 0.003646 2495260.000000 1 0 0
-11.527421 0.135583 -11.769887 16.475134 -0.011761 2.366567 0.013953 -0.007093 598201.000000 1 0 0
-19.127221 -1.187417 -4.761787 19.746775 0.062000 1.814339 0.039446 -0.014691 -161923.000000 1 0 0
-17.991721 1.535283 -5.058487 18.752264 -0.085127 1.843933 0.028963 -0.004841 89703.200000 1 0 0
-13.347521 -0.007717 -9.441687 16.349367 0.000578 2.186454 0.015081 -0.004273 500955.000000 1 0 0
-6.230921 11.092283 -13.266287 18.380900 -1.058988 2.377114 0.002273 -0.005085 -1461910.000000 1 0 0
16.483079 5.742183 6.952913 18.788496 0.335220 1.191720 0.042933 -0.014501 235853.000000 1 0 0
14.792279 10.116283 -5.583087 18.770231 0.599831 1.872810 0.055929 -0.012562 878733.000000 1 0 0
2.447779 16.930783 4.449513 17.676006 1.427216 1.316333 0.010654 -0.008902 1389860.000000 1 0 0
-3.822221 18.063683 -5.877387 19.376524 -1.362275 1.878977 0.009404 -0.004700 1628090.000000 1 0 0
5.460779 14.500483 5.642213 16.489957 1.210630 1.221581 0.011521 -0.011086 -656265.000000 1 0 0
9.962079 5.980183 15.033713 19.000477 0.540636 0.657982 0.044459 -0.009742 -1089600.000000 1 0 0
4.600579 12.685283 -1.101087 13.538616 1.222879 1.652216 0.006895 -0.006441 2684490.000000 1 0 0
3.497179 13.812283 12.854413 19.189720 1.322814 0.836777 0.012136 -0.008271 -1533020.000000 1 0 0
-0.700621 12.403283 9.175413 15.444109 -1.514370 0.934645 -0.003789 0.002084 -186095.000000 1 0 0
-7.716321 13.924183 8.426213 18.011816 -1.064760 1.083978 0.015231 -0.014651 748439.000000 1 0 0
11.389979 12.861983 -4.212287 17.689137 0.846020 1.811235 0.039739 -0.005131 918231.000000 1 0 0
-5.752321 16.284883 0.858413 17.292295 -1.231246 1.521135 0.010743 0.000422 1175890.000000 1 0 0
3.231379 10.635283 6.822513 13.042152 1.275824 1.020297 -0.005098 0.005529 2010820.000000 1 0 0
-1.148221 15.589783 2.483013 15.827984 -1.497277 1.413271 0.002336 -0.000351 -2136280.000000 1 0 0
9.934279 8.889183 9.489513 16.363323 0.729934 0.952159 0.019297 -0.004192 2933580.000000 1 0 0
7.257479 12.227883 6.210413 15.516486 1.035156 1.159011 0.013584 -0.008245 -11268.700000 1 0 0
11.855779 13.892483 -1.539887 18.328443 0.864334 1.654912 0.029626 -0.005210 710628.000000 1 0 0
9.670079 15.856783 -1.156987 18.608778 1.023174 1.633011 0.018158 -0.005221 516408.000000 1 0 0
10.267679 13.681283 3.097013 17.383734 0.926981 1.391684 0.017136 -0.009863 3032930.000000 1 0 0
-6.008621 14.578883 6.262313 16.966552 -1.179864 1.192758 0.003017 -0.005521 1141830.000000 1 0 0
-0.864721 18.145183 -6.292487 19.224744 -1.523177 1.904254 0.027425 0.002473 1954730.000000 1 0 0
-3.512421 15.761483 5.410913 17.030543 -1.351531 1.247474 0.001768 -0.000669 2176590.000000 1 0 0
7.152379 12.277083 10.641813 17.751943 1.043284 0.927954 0.012760 -0.001939 1705370.000000 1 0 0
1.458579 14.637883 6.211813 15.968146 1.471480 1.171237 0.001213 -0.004204 -35196.900000 1 0 0
17.379479 7.629083 -1.628987 19.050008 0.413644 1.656412 0.010223 0.000070 1441020.000000 1 0 0
2.052479 16.115683 -3.260587 16.569832 1.444119 1.768867 0.009585 -0.004336 1661090.000000 1 0 0
6.744379 11.151983 0.611513 13.047119 1.026877 1.523910 0.012768 -0.003413 923228.000000 1 0 0
12.705779 9.298483 3.189413 16.064587 0.631771 1.370931 0.011232 -0.003135 -1730380.000000 1 0 0
5.949579 14.315083 -3.387787 15.868087 1.176901 1.785949 0.005033 -0.002488 822004.000000 1 0 0
3.132879 16.461083 1.540513 16.827221 1.382725 1.479119 0.015977 -0.017271 -1287150.000000 1 0 0
2.940779 18.720483 -2.406187 19.102209 1.414981 1.697096 0.025238 -0.020900 148528.000000 1 0 0
4.022879 11.951883 10.593613 16.469842 1.246118 0.872109 0.002997 -0.002866 2382650.000000 1 0 0
8.156379 11.457183 3.339313 14.454915 0.952128 1.337675 0.012238 -0.003051 1564400.000000 1 0 0
0.702979 12.477383 0.130513 12.497851 1.514516 1.560353 0.006103 -0.003033 -1334460.000000 1 0 0
11.936479 9.873383 -4.618387 16.164551 0.691084 1.860544 0.024261 -0.000624 1067700.000000 1 0 0
-1.220221 16.432883 10.025113 19.288117 -1.496678 1.024231 0.005976 -0.007619 -1340570.000000 1 0 0
8.127979 14.879083 -8.006887 18.749970 1.070822 2.012007 0.036371 0.000673 1488480.000000 1 0 0
14.400879 7.621383 -1.353087 16.349362 0.486758 1.653652 0.009364 -0.001434 -223312.000000 1 0 0
12.444079 8.328483 5.985013 16.125728 0.589805 1.190553 0.008671 -0.006499 -1066440.000000 1 0 0
-2.936021 14.205883 10.141413 17.699593 -1.366989 0.960666 0.008398 -0.012386 2468430.000000 1 0 0
-4.693521 17.110783 -3.106087 18.012656 -1.303079 1.744102 0.018834 -0.002398 1012210.000000 1 0 0
-7.147821 16.349783 -1.742787 17.928860 -1.158653 1.668156 0.015475 -0.006504 -81322.000000 1 0 0
8.327679 11.262783 -1.835287 14.126882 0.934115 1.701079 0.007300 -0.000611 78106.500000 1 0 0
8.499579 12.964783 -4.125187 16.041995 0.990502 1.830867 0.023340 -0.000716 2519520.000000 1 0 0
2.567279 14.888883 -7.342987 16.798488 1.400046 2.023192 0.005212 -0.000832 -670678.000000 1 0 0
11.316179 11.423283 9.647213 18.751427 0.790108 1.030397 0.028635 -0.009972 -43484.100000 1 0 0
8.641879 15.667783 1.574413 17.962190 1.066749 1.483032 0.007982 -0.010724 1364810.000000 1 0 0
6.088579 9.943183 7.723213 13.985196 1.021355 0.985745 0.002890 0.004687 2941110.000000 1 0 0
14.450979 11.385383 2.575213 18.576584 0.667296 1.431722 0.018307 -0.004642 1754970.000000 1 0 0
12.159879 12.587483 1.150713 17.539428 0.802675 1.505142 0.023053 -0.004094 1851850.000000 1 0 0
5.168279 15.970983 8.161413 18.665263 1.257827 1.118256 0.011774 -0.008138 -799456.000000 1 0 0
11.722179 14.816883 5.194713 19.594248 0.901483 1.302474 0.029223 -0.012713 270998.000000 1 0 0
5.977279 16.735683 1.735613 17.855624 1.227759 1.473440 0.003221 -0.017974 2064310.000000 1 0 0
-0.615221 16.125283 -4.269587 16.692292 -1.532662 1.829453 0.012097 0.002178 1178050.000000 1 0 0
16.082079 6.399583 2.412413 17.475917 0.378723 1.432312 0.001790 -0.006280 578310.000000 1 0 0
7.658779 16.663083 -3.138887 18.605586 1.139967 1.740314 0.010568 -0.007197 -99119.000000 1 0 0
14.872579 8.071683 7.426313 18.479605 0.497239 1.157243 0.032264 -0.011369 -685664.000000 1 0 0
2.115879 12.975883 8.590513 15.705012 1.409156 0.992030 0.001748 -0.000415 1581960.000000 1 0 0
15.933879 7.420383 -5.968787 18.562786 0.435832 1.898158 0.036888 -0.004675 275117.000000 1 0 0
-2.821721 17.054983 0.588313 17.296839 -1.406833 1.536777 0.004440 -0.003472 1331660.000000 1 0 0
-2.900421 18.545783 4.595513 19.325559 -1.415661 1.330702 0.007651 -0.001811 -1000210.000000 1 0 0
-0.850921 19.219483 0.924713 19.260521 -1.526551 1.522767 0.011301 -0.004540 -533685.000000 1 0 0
6.913579 16.776183 -6.021287 19.117891 1.179897 1.891206 0.018035 -0.003374 210362.000000 1 0 0
11.036079 10.063783 0.793113 14.956731 0.739350 1.517744 0.006271 0.000722 -2273680.000000 1 0 0
9.216579 8.695983 14.328013 19.127399 0.756343 0.724119 0.039806 -0.010829 2441170.000000 1 0 0
6.366679 12.397783 -8.427987 16.287129 1.096380 2.114680 0.019275 -0.004427 2089710.000000 1 0 0
6.403779 8.970683 13.257213 17.240512 0.950831 0.693588 0.013670 -0.006165 376148.000000 1 0 0
16.713479 9.406583 2.933213 19.401751 0.512628 1.419031 0.019514 -0.003444 -443174.000000 1 0 0
2.519579 14.643683 -0.742487 14.877399 1.400406 1.620724 0.006849 -0.007884 313557.000000 1 0 0
9.109479 12.904483 8.249813 17.820429 0.956111 1.089486 0.022360 -0.012081 86109.600000 1 0 0
7.237979 9.399983 10.506413 15.847168 0.914618 0.845999 0.005210 0.000066 1311990.000000 1 0 0
4.316379 15.758583 -5.263387 17.165876 1.303447 1.882435 0.015515 -0.003621 1482670.000000 1 0 0
0.178279 16.284883 -8.223187 18.244177 1.559849 2.038379 0.011606 0.001489 1215760.000000 1 0 0
-2.401121 15.701683 -1.998887 16.009490 -1.419051 1.695979 0.004111 -0.001207 -163399.000000 1 0 0
13.308179 10.429483 7.691013 18.575076 0.664716 1.143897 0.031154 -0.012657 1444940.000000 1 0 0
-0.968521 15.931983 7.079913 17.461136 -1.510080 1.153307 0.005090 -0.001295 1296490.000000 1 0 0
13.567079 13.266783 6.705213 20.125433 0.774208 1.231131 0.041872 -0.013343 -1576340.000000 1 0 0
5.414379 17.310683 4.521413 18.692737 1.267659 1.326493 0.016109 -0.018510 1170670.000000 1 0 0
10.856979 9.518583 -1.822087 14.553261 0.719806 1.696327 0.002656 0.003407 1392930.000000 1 0 0
3.188779 12.764783 4.783013 13.999472 1.325996 1.222117 0.001012 -0.000198 1621860.000000 1 0 0
-0.101921 18.107183 3.596913 18.461263 -1.565168 1.374706 0.007376 -0.004532 2395050.000000 1 0 0
-7.822221 15.878683 -5.798587 18.626414 -1.113067 1.887367 0.028931 -0.009801 786953.000000 1 0 0
-12.419121 -9.076617 8.201113 17.432091 0.631137 1.080984 0.022289 -0.016023 422835.000000 1 0 0
-13.283221 -11.692017 6.898113 18.992925 0.721773 1.199103 0.028167 -0.013513 -1912530.000000 1 0 0
-6.526221 -12.135717 12.389513 18.530171 1.077391 0.838454 0.021883 -0.008679 -1172220.000000 1 0 0
-1.858721 -10.691417 14.388113 18.021627 1.398665 0.646196 0.015068 -0.010411 -106109.000000 1 0 0
-8.825621 2.900083 10.928813 14.343675 -0.317483 0.704515 0.003442 -0.001581 1254810.000000 1 0 0
0.540479 9.966983 15.187413 18.173893 1.516622 0.581441 -0.004342 -0.003540 373342.000000 1 0 0
1.008779 -6.773917 16.550213 17.911258 -1.422962 0.392353 0.009706 -0.011670 882231.000000 1 0 0
6.157479 2.353883 17.715913 18.902616 0.365138 0.356224 0.036989 -0.011507 1223410.000000 1 0 0
-4.934221 -2.870717 17.675713 18.574671 0.526928 0.312386 0.010123 -0.009611 663749.000000 1 0 0
-4.231621 8.201683 12.982413 15.928505 -1.094474 0.617993 -0.001394 0.000759 -811491.000000 1 0 0
0.042279 -4.805117 18.487613 19.101905 -1.561998 0.254293 0.007513 -0.018210 -1624050.000000 1 0 0
-11.676521 2.175383 11.243613 16.355191 -0.184192 0.812804 0.028173 -0.008599 981824.000000 1 0 0
-3.330421 -6.094317 14.319513 15.914800 1.070660 0.451575 0.005759 -0.006149 1375530.000000 1 0 0
-7.421621 -2.290917 14.633013 16.566648 0.299402 0.487981 0.018903 -0.000339 1726470.000000 1 0 0
-6.075221 -1.035517 10.561513 12.228089 0.168827 0.528213 0.004944 0.002026 903034.000000 1 0 0
-4.031921 2.457983 11.053113 12.019541 -0.547471 0.403747 -0.000834 0.003843 447004.000000 1 0 0
-6.339921 6.303883 13.448513 16.149181 -0.782548 0.586708 -0.003250 -0.000631 1128620.000000 1 0 0
-8.927721 5.518583 12.507313 16.327640 -0.553651 0.698168 0.011512 -0.005196 -2012600.000000 1 0 0
-12.303721 -2.246717 15.798213 20.149760 0.180615 0.669649 0.051150 0.001425 -148634.000000 1 0 0
-3.382221 -7.633317 16.970813 18.913367 1.153706 0.457200 0.014660 -0.009415 -171770.000000 1 0 0
-0.474421 -5.280417 14.379013 15.325270 1.481192 0.353245 0.002513 -0.000676 1404920.000000 1 0 0
-14.308621 -2.245117 13.681813 19.924086 0.155638 0.813861 0.064789 -0.007285 200649.000000 1 0 0
-6.523821 1.427083 12.166913 13.879142 -0.215357 0.501977 0.005389 0.000700 1783980.000000 1 0 0
2.191679 -2.180617 14.577113 14.901368 -0.782868 0.208995 -0.004403 0.000886 1422880.000000 1 0 0
-12.596021 4.048183 9.155713 16.089580 -0.310960 0.965451 0.011625 -0.007140 335181.000000 1 0 0
-9.058821 -2.942317 12.582313 15.780813 0.314052 0.647959 0.011023 0.001778 1549720.000000 1 0 0
-7.101321 -7.180317 15.363013 18.384991 0.790929 0.581521 0.019575 -0.006280 -1309630.000000 1 0 0
-3.153121 5.889283 19.496213 20.608934 -1.079232 0.330106 0.036933 -0.021861 713462.000000 1 0 0
0.620779 5.406383 16.072413 16.968701 1.456474 0.326471 0.002508 -0.009249 614359.000000 1 0 0
3.466279 1.510483 16.746313 17.167867 0.410953 0.222063 0.012407 -0.004519 786605.000000 1 0 0
-11.720921 11.340083 7.963513 18.149242 -0.768885 1.116556 0.022809 -0.012282 629923.000000 1 0 0
0.605079 -9.508517 15.450713 18.152206 -1.507246 0.552575 0.003385 -0.003427 1231420.000000 1 0 0
-2.443921 -3.583017 19.090713 19.577183 0.972196 0.223394 0.009234 -0.009169 961074.000000 1 0 0
-12.789421 2.536783 13.828513 19.006113 -0.195809 0.756005 0.039052 -0.020433 -378208.000000 1 0 0
-5.292021 -0.570017 15.828113 16.699089 0.107299 0.324398 0.009487 -0.001077 1380020.000000 1 0 0
-4.496221 -5.966817 11.661213 13.849289 0.925035 0.569801 0.003053 -0.000645 -87411.700000 1 0 0
2.437979 1.891383 13.934713 14.272256 0.659809 0.217918 -0.001743 -0.005178 39173.600000 1 0 0
0.072679 3.322683 14.152213 14.537216 1.548926 0.230658 0.005584 -0.007025 1048260.000000 1 0 0
-12.932221 7.020283 12.234413 19.136550 -0.497339 0.877180 0.038090 -0.016805 243695.000000 1 0 0
1.003079 1.686383 18.198413 18.303888 1.034201 0.107405 0.010552 -0.005191 1621710.000000 1 0 0
-1.983421 6.488283 12.428613 14.159880 -1.274125 0.499683 -0.001604 -0.000038 -130719.000000 1 0 0
-13.478821 -2.702317 10.973213 17.589557 0.197863 0.897139 0.045146 -0.006798 -1047260.000000 1 0 0
-2.579221 3.668183 13.384713 14.115895 -0.957971 0.323271 0.000754 -0.001828 -1018870.000000 1 0 0
3.466979 6.096883 16.226313 17.677250 1.053749 0.407989 0.006991 -0.011032 -244802.000000 1 0 0
-3.639421 12.361483 12.263813 17.789119 -1.284470 0.810136 0.014426 -0.011284 476402.000000 1 0 0
3.727779 -1.424117 17.076213 17.536291 -0.364918 0.229570 0.020463 -0.008173 -36239.700000 1 0 0
-15.721521 0.393883 9.203213 18.221429 -0.025048 1.041326 0.043668 -0.012209 -724232.000000 1 0 0
-4.696621 4.574683 15.167913 16.524272 -0.772247 0.407997 0.007010 -0.003766 813000.000000 1 0 0
-8.019821 -8.135117 10.541313 15.544032 0.792535 0.825543 0.013709 -0.007480 2844040.000000 1 0 0
-2.631221 -0.373417 14.685113 14.923649 0.140977 0.179034 0.007059 0.001683 888798.000000 1 0 0
-1.799021 1.046883 17.245013 17.370173 -0.527018 0.120118 0.015703 -0.008851 1080300.000000 1 0 0
-0.758521 -2.439917 14.435813 14.660193 1.269388 0.175183 0.000851 0.002295 774938.000000 1 0 0
5.197579 -8.095617 16.619413 19.203092 -1.000049 0.524738 0.018523 -0.006170 719651.000000 1 0 0
-4.412221 10.007483 10.605113 15.234363 -1.155542 0.800802 0.001385 -0.003219 -1211540.000000 1 0 0
-6.222821 2.089983 15.144313 16.505809 -0.324021 0.409012 0.010030 0.001115 -507512.000000 1 0 0
-4.866721 6.765983 17.294713 19.198192 -0.947239 0.449070 0.015682 -0.004990 -370846.000000 1 0 0
-4.018921 9.106783 15.807813 18.680797 -1.155192 0.561971 0.005314 -0.001299 -702128.000000 1 0 0
-4.690221 -9.892117 18.307513 21.331132 1.128052 0.538940 0.038044 -0.019530 1326240.000000 1 0 0
-6.767221 -4.067217 11.068513 13.595938 0.541167 0.619611 0.011916 0.001878 1205080.000000 1 0 0
-2.111721 -0.752417 19.620813 19.748463 0.342281 0.113761 0.014568 -0.011435 -181853.000000 1 0 0
-5.649021 -4.489617 15.355613 16.966525 0.671538 0.439291 0.010873 -0.003489 2086560.000000 1 0 0
-12.887121 0.017783 9.737413 16.152257 -0.001380 0.923726 0.026183 -0.004688 9453.380000 1 0 0
-14.539521 8.884283 10.606213 20.070374 -0.548500 1.014021 0.046947 -0.013021 -317374.000000 1 0 0
-8.312921 10.656483 12.601313 18.478592 -0.908320 0.820383 0.025121 -0.024807 -1620690.000000 1 0 0
-10.423621 7.227983 10.759813 16.633375 -0.606298 0.867309 0.022256 -0.010350 303938.000000 1 0 0
-9.853221 -6.581217 14.702013 18.882467 0.588874 0.678354 0.042362 -0.015537 1230110.000000 1 0 0
-0.691321 -13.394317 14.397413 19.676666 1.519229 0.749984 0.018779 -0.011485 461109.000000 1 0 0
3.798579 -5.683117 16.955113 18.281217 -0.981597 0.383232 0.020285 -0.010865 3313780.000000 1 0 0
-7.187921 9.310283 10.349413 15.667097 -0.913338 0.849202 0.011930 -0.009051 81836.900000 1 0 0
-10.430621 -6.639617 11.749213 17.056564 0.566862 0.810911 0.038059 -0.015352 2624460.000000 1 0 0
-10.849221 -3.859017 10.727113 15.737489 0.341740 0.820811 0.022133 0.000732 -413116.000000 1 0 0
-10.064321 -10.126817 9.816013 17.326197 0.788493 0.968493 0.018100 -0.014458 1719270.000000 1 0 0
-9.864321 -3.645217 15.275313 18.545286 0.353971 0.602932 0.037426 -0.009511 1848000.000000 1 0 0
5.546979 -3.342117 16.161613 17.410815 -0.542264 0.381113 0.026073 -0.008513 667499.000000 1 0 0
-11.379421 0.507883 15.316913 19.088137 -0.044602 0.639438 0.040290 -0.008455 -2021690.000000 1 0 0
-3.369121 3.095583 18.812113 19.360506 -0.743111 0.238580 0.029706 -0.016908 -346561.000000 1 0 0
0.524179 7.325083 13.863713 15.688663 1.499359 0.487136 -0.005226 -0.007119 1363210.000000 1 0 0
-13.211021 -7.398017 12.170113 19.426101 0.510479 0.893764 0.040287 -0.013995 402754.000000 1 0 0
-1.515421 -1.081917 12.079513 12.222180 0.620020 0.152942 -0.000542 0.001318 263400.000000 1 0 0
1.988579 -4.794917 13.104613 14.095268 -1.177659 0.377152 -0.002845 -0.002434 253213.000000 1 0 0
-14.554321 -4.124017 8.736013 17.468649 0.276116 1.047086 0.029707 -0.013553 -1689940.000000 1 0 0
8.027979 0.856583 16.073113 17.986861 0.106297 0.465487 0.049229 -0.009423 535700.000000 1 0 0
-1.222821 11.336183 13.382013 17.580745 -1.463343 0.705674 0.004885 -0.001340 1483750.000000 1 0 0
2.765679 -12.260517 -13.680487 18.577540 -1.348934 2.398529 0.010694 0.001759 236868.000000 1 0 0
0.656879 -10.707417 -13.897587 17.556287 -1.509525 2.484222 0.006636 0.003172 -1130280.000000 1 0 0
3.120779 -14.439317 -12.278687 19.209355 -1.357940 2.264258 0.020725 -0.003342 -905037.000000 1 0 0
-5.040321 -10.261217 -16.143387 19.781465 1.114213 2.525403 0.014130 -0.009935 -364845.000000 1 0 0
-1.107121 -12.250017 -15.030787 19.421977 1.480664 2.455782 0.020750 -0.000604 -251114.000000 1 0 0
5.584379 -15.148417 -12.198687 20.235311 -1.217609 2.217854 0.024827 0.001030 518174.000000 1 0 0
1.970579 -11.748417 -15.950887 19.908272 -1.404612 2.500126 0.015576 -0.004103 -502193.000000 1 0 0
1.231879 -14.291417 -14.062987 20.088050 -1.484812 2.346288 0.030755 0.004376 -879507.000000 1 0 0
-1.097921 -10.657117 -15.919387 19.188707 1.468136 2.549228 0.016095 -0.005496 -392530.000000 1 0 0
-5.952721 -5.648317 -14.914587 17.023022 0.759165 2.638596 0.017060 -0.013847 -42467.600000 1 0 0
-6.438621 -7.672217 -16.422687 19.235992 0.872598 2.593938 0.017239 -0.011889 1782.070000 1 0 0
4.934579 -12.628917 -11.514287 17.788154 -1.198301 2.274834 0.009722 0.001663 -516880.000000 1 0 0
-1.813221 -15.355817 -13.281087 20.383232 1.453260 2.280448 0.019745 0.000930 73478.600000 1 0 0
15.793479 -7.451517 -8.801487 19.555697 -0.440842 2.037643 0.049487 -0.004134 461883.000000 1 0 0
19.240979 -3.399017 -4.298087 20.006053 -0.174851 1.787324 0.087206 -0.021498 752962.000000 1 0 0
14.885879 -11.528717 -8.851987 20.805249 -0.658981 2.010276 0.065644 -0.016948 -21634.800000 1 0 0
17.846679 -3.605517 -6.498187 19.332102 -0.199344 1.913606 0.084283 -0.012445 577662.000000 1 0 0
9.455479 -9.091317 -15.400387 20.229435 -0.765766 2.436090 0.075115 -0.023572 -150912.000000 1 0 0
1.185379 2.043883 -15.279387 15.460991 1.045239 2.988172 0.013508 -0.004774 225357.000000 1 0 0
4.721679 -4.350917 -13.821587 15.240112 -0.744555 2.706715 0.009496 -0.000174 -170240.000000 1 0 0
13.093179 -5.451617 -8.704387 16.640848 -0.394539 2.121249 0.037119 -0.006300 -583582.000000 1 0 0
3.003279 0.936783 -12.262887 12.660002 0.302356 2.890463 0.005839 -0.004381 -2780030.000000 1 0 0
0.598479 6.360283 -12.930187 14.422243 1.476976 2.682703 0.015900 -0.003981 453199.000000 1 0 0
3.182279 -0.977317 -16.799887 17.126536 -0.297969 2.945972 0.025274 -0.005076 184618.000000 1 0 0
13.158079 4.185983 -11.319687 17.854770 0.308006 2.257494 0.035776 -0.015116 443912.000000 1 0 0
-3.919721 9.492883 -16.631887 19.547345 -1.179209 2.588400 0.023532 -0.002587 141468.000000 1 0 0
-0.225621 -5.013917 -17.558187 18.261440 1.525828 2.863168 0.020385 -0.014197 276966.000000 1 0 0
-0.498721 -8.554017 -17.579687 19.556721 1.512560 2.688066 0.020541 -0.007653 -1742840.000000 1 0 0
5.574679 -10.250517 -12.200187 16.881787 -1.072692 2.378473 0.013382 -0.001108 586997.000000 1 0 0
1.669979 -9.900617 -18.050487 20.655051 -1.403695 2.633968 0.035153 -0.010926 -301694.000000 1 0 0
10.892579 8.783683 -14.749187 20.330762 0.678626 2.382501 0.074298 -0.018893 222015.000000 1 0 0
10.971779 -3.843317 -12.990987 17.433209 -0.336934 2.411610 0.035454 -0.007739 578355.000000 1 0 0
4.914079 7.414283 -12.233487 15.125408 0.985485 2.512911 -0.000739 -0.001736 -1034860.000000 1 0 0
9.488879 -5.922017 -12.722587 16.940287 -0.557952 2.420410 0.024467 -0.006170 -1077380.000000 1 0 0
-3.322521 0.323583 -16.046187 16.389752 -0.097084 2.936479 0.016235 -0.005186 -235955.000000 1 0 0
-0.797921 10.902983 -12.721687 16.773581 -1.497743 2.431706 0.010825 -0.001905 -1868380.000000 1 0 0
6.579979 -5.540317 -12.342187 15.043963 -0.699829 2.532920 0.017933 -0.004111 664549.000000 1 0 0
17.809879 -5.982417 -8.105487 20.461672 -0.324063 1.978095 0.070256 -0.013506 249775.000000 1 0 0
13.010379 4.801483 -13.831787 19.586795 0.353544 2.354884 0.051948 -0.024391 403705.000000 1 0 0
14.246879 0.839283 -11.469787 18.309396 0.058842 2.247777 0.042178 -0.005460 347072.000000 1 0 0
14.903279 6.076783 -11.113287 19.558634 0.387168 2.175118 0.055785 -0.018294 -411400.000000 1 0 0
8.328679 1.476883 -11.743287 14.472487 0.175501 2.517377 0.002073 0.003143 380234.000000 1 0 0
9.941879 1.296183 -8.952987 13.441616 0.129645 2.299717 0.002177 -0.000762 348702.000000 1 0 0
-0.189121 -5.814717 -13.054987 14.292634 1.538283 2.722372 0.003480 -0.003382 173310.000000 1 0 0
10.463579 -5.756317 -9.036787 14.976154 -0.502942 2.218569 0.018588 -0.009955 -661850.000000 1 0 0
10.292179 8.509283 -11.270587 17.474638 0.690853 2.271778 0.044292 -0.018119 853063.000000 1 0 0
8.237279 8.255383 -14.600087 18.686001 0.786496 2.467603 0.032048 -0.008873 702288.000000 1 0 0
8.700679 10.587783 -10.711987 17.393954 0.882924 2.234255 0.045000 -0.012025 4970.110000 1 0 0
7.141279 1.798583 -17.947487 19.399615 0.246726 2.752218 0.039827 -0.008004 -1341440.000000 1 0 0
12.162679 2.599783 -12.853787 17.886013 0.210582 2.372656 0.039866 -0.014120 -1412860.000000 1 0 0
2.710279 -0.960217 -19.266187 19.479568 -0.340489 2.993443 0.038618 -0.016505 -346321.000000 1 0 0
10.286379 -2.148517 -15.593087 18.803459 -0.205910 2.548591 0.047501 -0.012110 209955.000000 1 0 0
8.312679 -0.931517 -12.997787 15.456740 -0.111594 2.569766 0.011881 -0.003188 495044.000000 1 0 0
0.551879 4.495483 -14.640787 15.325357 1.448644 2.841574 0.014819 -0.004455 76175.600000 1 0 0
4.019179 -7.783417 -15.699087 17.977673 -1.094133 2.632639 0.029532 -0.009491 -470857.000000 1 0 0
11.622179 -5.964817 -14.265187 19.342948 -0.474173 2.400139 0.059023 -0.013932 -387631.000000 1 0 0
-6.039321 4.312483 -16.790187 18.357050 -0.620105 2.725426 0.020371 0.000862 95473.600000 1 0 0
11.426479 7.825483 -9.080287 16.560622 0.600489 2.151133 0.040235 -0.008198 -529420.000000 1 0 0
9.470079 6.205983 -13.600087 17.696299 0.580110 2.447332 0.016460 -0.000446 -1766760.000000 1 0 0
12.075179 0.593883 -10.169287 15.798008 0.049142 2.270129 0.020579 -0.000917 -421495.000000 1 0 0
5.413479 -7.233717 -13.798187 16.493101 -0.928341 2.561850 0.023598 -0.002963 -392905.000000 1 0 0
8.578779 -10.153117 -10.641387 17.027048 -0.869247 2.245889 0.026291 -0.007354 150259.000000 1 0 0
10.163079 4.457383 -15.713987 19.237615 0.413321 2.526702 0.049188 -0.016569 -1357140.000000 1 0 0
9.898579 -0.449317 -10.954087 14.770774 -0.045361 2.406257 0.010218 0.000647 -1092370.000000 1 0 0
-1.718021 5.642583 -14.018987 15.209284 -1.275240 2.743337 0.011026 -0.005352 -1157520.000000 1 0 0
1.423379 -0.643017 -14.855387 14.937269 -0.424312 3.036838 0.008536 -0.005989 -470768.000000 1 0 0
11.382779 -10.394217 -14.237687 20.983783 -0.740035 2.316527 0.077708 -0.023584 -630737.000000 1 0 0
9.306679 -7.766717 -10.775887 16.218999 -0.695445 2.297486 0.028055 -0.006850 -266735.000000 1 0 0
14.039779 -0.999017 -9.783787 17.141643 -0.071036 2.178229 0.031139 -0.000082 875164.000000 1 0 0
3.988479 11.155183 -12.343587 17.108776 1.227416 2.376729 0.016871 -0.006075 -607224.000000 1 0 0
-1.427821 2.949183 -16.864987 17.180341 -1.119916 2.949697 0.015494 -0.005665 -166689.000000 1 0 0
5.917979 -0.393217 -17.804687 18.766565 -0.066347 2.820038 0.025263 0.001060 257295.000000 1 0 0
6.452279 -6.614617 -16.108687 18.570807 -0.797821 2.620790 0.036822 -0.004759 412800.000000 1 0 0
-1.687121 -5.409617 -19.688687 20.487917 1.268482 2.861357 0.032673 -0.022909 -220758.000000 1 0 0
-0.142021 -4.361117 -15.090387 15.708574 1.538243 2.860117 0.006671 -0.007717 -802000.000000 1 0 0
0.566879 0.910383 -12.956987 13.001294 1.013865 3.059011 0.008519 -0.005534 541044.000000 1 0 0
15.895779 0.650383 -13.436087 20.823718 0.040893 2.272121 0.080875 -0.018437 588751.000000 1 0 0
-0.271621 7.032783 -16.431187 17.875058 -1.532193 2.736902 0.019721 -0.000808 129446.000000 1 0 0
-4.624321 -0.739817 -18.367387 18.955014 0.158640 2.891942 0.003918 -0.003683 -83740.800000 1 0 0
10.315179 -8.423717 -13.032687 18.633649 -0.684801 2.345377 0.033121 -0.017994 574919.000000 1 0 0
4.148079 8.575683 -17.371887 19.812404 1.120271 2.640002 0.027667 -0.013505 -100543.000000 1 0 0
9.288379 0.779983 -16.828387 19.237385 0.083777 2.635768 0.042554 -0.011829 -178333.000000 1 0 0
3.394379 4.859783 -18.537287 19.462022 0.961102 2.832090 0.036869 -0.007838 -547657.000000 1 0 0
1.498879 -8.194917 -16.011387 18.049039 -1.389892 2.661830 0.015717 -0.006221 -342870.000000 1 0 0
4.572379 7.740283 -14.903387 17.404872 1.037224 2.598814 0.009353 -0.003216 518208.000000 1 0 0
-5.657521 -0.427717 -15.292187 16.310777 0.075458 2.786318 0.008513 -0.004727 -855989.000000 1 0 0
2.797079 3.461383 -13.790987 14.491244 0.891147 2.829448 0.011019 -0.002707 -405406.000000 1 0 0
-2.414621 -10.329117 -18.050587 20.936684 1.341152 2.610297 0.024334 -0.006540 405338.000000 1 0 0
6.316879 -9.145417 -15.208387 18.837108 -0.966329 2.510466 0.042504 -0.016018 248896.000000 1 0 0
-1.745721 5.365683 -17.672387 18.551316 -1.256249 2.832539 0.017707 0.006927 769245.000000 1 0 0
10.080879 -12.169917 -11.478087 19.531449 -0.879010 2.198975 0.067603 -0.015938 539152.000000 1 0 0
10.795079 3.688283 -9.424287 14.797106 0.329229 2.261268 0.006819 -0.004946 -1296570.000000 1 0 0
4.916479 -0.411017 -11.002887 12.058367 -0.083406 2.720075 0.004035 -0.003190 -530366.000000 1 0 0
6.376479 9.492183 -11.564687 16.263548 0.979275 2.361830 0.010567 -0.005688 491110.000000 1 0 0
10.826879 -9.524817 -9.422187 17.225593 -0.721507 2.149558 0.036331 -0.011718 -831069.000000 1 0 0
3.232979 -2.372617 -14.520187 15.063774 -0.633104 2.872131 0.010849 -0.003779 -15616.700000 1 0 0
9.488879 -4.661317 -14.989487 18.342612 -0.456615 2.527323 0.049986 -0.005143 563453.000000 1 0 0
-4.078521 -6.652017 -16.429687 18.188410 1.020782 2.698209 0.010009 -0.012662 -1785360.000000 1 0 0
5.790779 -7.774617 -11.266887 14.863396 -0.930611 2.431082 0.006880 -0.004399 122940.000000 1 0 0
5.615079 6.444483 -16.900687 18.939210 0.854066 2.673355 0.025312 -0.009017 529474.000000 1 0 0
9.220379 1.259883 -19.381187 21.499607 0.135800 2.693943 0.071903 -0.020221 682985.000000 1 0 0
13.053079 5.698483 -9.347687 17.036280 0.411623 2.151596 0.026122 -0.011738 329466.000000 1 0 0
-1.451921 -0.770017 -17.311887 17.389722 0.487627 3.046943 0.022302 -0.010325 124425.000000 1 0 0
-0.422421 -0.720617 -19.653587 19.671329 1.040591 3.099117 0.038937 -0.016434 -169858.000000 1 0 0
2.929879 6.497283 -16.579587 18.046650 1.147162 2.735591 0.017664 -0.002208 -9363.940000 1 0 0
7.604979 3.952383 -15.771387 17.949754 0.479291 2.643804 0.023882 0.000557 -721153.000000 1 0 0
3.072579 -9.810817 -14.563887 17.826937 -1.267290 2.526915 0.014328 -0.010156 647368.000000 1 0 0
8.979479 -10.670417 -13.322787 19.286926 -0.871240 2.333347 0.054696 -0.009942 69089.000000 1 0 0
3.868079 0.181683 -14.795087 15.293451 0.046935 2.885603 0.015170 -0.002958 -2101970.000000 1 0 0
-1.207921 -2.953017 -18.738487 19.008163 1.182516 2.972945 0.040411 -0.014538 306160.000000 1 0 0
9.283479 10.129683 -13.159587 19.025461 0.828960 2.334613 0.058219 -0.017303 33461.500000 1 0 0
4.636679 2.094083 -10.692187 11.840897 0.424212 2.697470 -0.000650 0.000527 -171625.000000 1 0 0
-0.080321 7.136283 -18.964987 20.263359 -1.559542 2.781673 0.033159 -0.005850 -215826.000000 1 0 0
0.853979 -1.872417 -17.635887 17.755555 -1.142895 3.025426 0.031247 -0.012842 -2469170.000000 1 0 0
-4.424121 -2.131217 -14.089287 14.920554 0.448922 2.806218 0.009982 -0.013270 -1771970.000000 1 0 0
9.842679 6.084083 -10.449687 15.591355 0.553646 2.305306 0.014305 -0.002259 152686.000000 1 0 0
8.714379 5.780683 -17.261087 20.181720 0.585703 2.596894 0.066001 -0.017457 -93309.800000 1 0 0
11.670079 0.194083 -13.441687 17.801892 0.016629 2.426558 0.037321 -0.005785 440193.000000 1 0 0
6.832579 11.990283 -11.813387 18.166098 1.052846 2.278774 0.037214 -0.011448 -36410.000000 1 0 0
-0.952921 0.545683 -15.028287 15.068352 -0.520061 3.068653 0.012720 -0.006018 -114640.000000 1 0 0
-4.184921 -3.189717 -18.957687 19.674393 0.651259 2.870847 0.015835 -0.007718 50611.900000 1 0 0
5.886779 -12.141017 -13.921787 19.387486 -1.119328 2.371837 0.029708 -0.005770 294504.000000 1 0 0
2.067179 -4.674617 -14.015887 14.918792 -1.154436 2.791902 0.007072 -0.002777 -678685.000000 1 0 0
11.853679 1.836883 -15.366687 19.494074 0.153740 2.478797 0.061162 -0.014060 422870.000000 1 0 0
9.732879 2.049883 -13.784387 16.998243 0.207580 2.516536 0.021904 -0.005567 949237.000000 1 0 0
-2.305621 -4.252317 -16.344887 17.045627 1.073959 2.853862 0.011567 -0.014412 -1757250.000000 1 0 0
-2.889121 10.251383 -14.304687 17.834291 -1.296094 2.501581 0.022381 -0.004551 -3250.860000 1 0 0
3.544079 5.806783 -13.629987 15.233377 1.022813 2.678656 0.007461 -0.002147 107965.000000 1 0 0
-5.032021 -2.625217 -16.568887 17.514023 0.480858 2.811571 0.010499 -0.009675 461811.000000 1 0 0
-4.344021 6.179183 -13.642787 15.594180 -0.958054 2.635951 0.006150 -0.003722 -354673.000000 1 0 0
5.935879 -1.180517 -14.092787 15.337370 -0.196317 2.735960 0.013426 -0.000092 -1108760.000000 1 0 0
6.700079 -2.985317 -12.566887 14.550939 -0.419159 2.613258 0.012288 -0.003312 1579020.000000 1 0 0
3.028579 -3.242617 -18.195087 18.728269 -0.819515 2.902405 0.037536 -0.015622 -873049.000000 1 0 0
7.461879 -12.041917 -11.965087 18.543212 -1.016047 2.272152 0.029061 -0.005669 -1325570.000000 1 0 0
-6.210621 -5.375117 -17.476787 19.310665 0.713408 2.702253 0.039279 -0.017449 460851.000000 1 0 0
0.439479 8.840383 -11.930887 14.855691 1.521125 2.503308 0.012169 -0.001626 -108803.000000 1 0 0
0.375079 8.555583 -14.398787 16.753022 1.526984 2.605036 0.008548 -0.001470 308317.000000 1 0 0
7.757279 -2.588117 -14.968887 17.057002 -0.322024 2.641588 0.028580 -0.014095 76121.000000 1 0 0
14.342079 1.458383 -8.882187 16.932671 0.101337 2.122993 0.035852 -0.004885 601912.000000 1 0 0
2.983279 10.716483 -14.774387 18.493930 1.299288 2.496223 0.013919 0.000614 -869486.000000 1 0 0
6.245679 0.944483 -15.540787 16.775477 0.150085 2.755531 0.027113 -0.004018 285464.000000 1 0 0
16.534079 -5.504417 -10.333387 20.259647 -0.321373 2.106037 0.077859 -0.014236 330569.000000 1 0 0
4.833779 -4.150417 -11.103187 12.801256 -0.709482 2.620652 0.000146 -0.001291 122912.000000 1 0 0
8.782479 -3.382417 -17.183787 19.592223 -0.367624 2.640528 0.044807 -0.015203 318833.000000 1 0 0
13.258279 -9.493817 -8.850187 18.553715 -0.621428 2.068038 0.060996 -0.018167 -1254510.000000 1 0 0
2.376879 -7.539917 -13.656887 15.780066 -1.265418 2.616848 0.003473 -0.002555 180853.000000 1 0 0
-6.719721 -2.439517 -18.483987 19.818266 0.348243 2.772553 0.007940 -0.008456 1109280.000000 1 0 0
-1.523521 -6.513017 -15.700587 17.066017 1.341009 2.738855 0.003096 -0.010875 1185730.000000 1 0 0
1.621779 -7.399717 -18.528487 20.017263 -1.355040 2.753481 0.044140 -0.011420 134355.000000 1 0 0
5.534979 10.849683 -14.491587 18.930338 1.099061 2.442648 0.029976 -0.019246 -74874.400000 1 0 0
5.494279 -3.431317 -17.224787 18.402563 -0.558258 2.781884 0.037147 -0.013910 -556360.000000 1 0 0
4.061579 12.960183 -14.139787 19.606028 1.267102 2.376323 0.026130 -0.010287 -42320.500000 1 0 0
9.116979 10.345483 -15.809787 20.978505 0.848436 2.424346 0.075967 -0.019501 416604.000000 1 0 0
2.559979 3.892283 -16.271587 16.925362 0.989023 2.862744 0.020426 -0.006325 143705.000000 1 0 0
16.675079 2.006583 -11.403087 20.300617 0.119758 2.167249 0.078300 -0.016560 526117.000000 1 0 0
9.968279 -3.726717 -10.612787 15.029513 -0.357769 2.354814 0.023872 -0.002366 -1865.820000 1 0 0
14.728679 -2.095517 -11.947987 19.080869 -0.141326 2.247436 0.065288 -0.007890 162635.000000 1 0 0
-2.741421 -8.684017 -16.064787 18.466319 1.265012 2.625899 0.004412 0.000316 -29501.300000 1 0 0
14.011679 8.094083 -9.017987 18.524724 0.523836 2.079228 0.069650 -0.013168 631354.000000 1 0 0
-8.307521 -0.035517 -16.646487 18.604346 0.004275 2.678697 0.010151 -0.005970 -547090.000000 1 0 0
-3.574121 4.187583 -16.004987 16.925418 -0.864271 2.810287 0.007923 0.002357 118723.000000 1 0 0
15.082979 3.961583 -9.633487 18.330152 0.256851 2.124163 0.043083 -0.015767 362894.000000 1 0 0
5.472879 1.108883 -13.004087 14.152325 0.199908 2.735992 0.006930 -0.001107 382406.000000 1 0 0
7.740879 -7.792917 -12.802587 16.868818 -0.788748 2.432495 0.037126 -0.007372 -2877190.000000 1 0 0
3.159279 -6.134817 -11.811787 13.679742 -1.095240 2.612868 0.003312 -0.000828 -1045760.000000 1 0 0
-3.345921 3.517983 -18.484387 19.111356 -0.810461 2.884738 0.016284 -0.001888 -202538.000000 1 0 0
0.948879 5.174583 -17.741987 18.505534 1.389438 2.853331 0.026435 -0.012301 54909.900000 1 0 0
6.346779 7.279583 -10.174587 14.028405 0.853747 2.382244 -0.000912 -0.000543 161254.000000 1 0 0
9.716779 3.750283 -11.806087 15.743701 0.368344 2.418696 0.016308 -0.002765 285057.000000 1 0 0
4.612079 1.865683 -17.422387 18.118819 0.384398 2.863435 0.026963 -0.006221 -175310.000000 1 0 0
2.542579 8.123883 -13.211287 15.716242 1.267478 2.569211 0.008312 -0.002689 982090.000000 1 0 0
14.440379 -3.448917 -9.771687 17.773729 -0.234446 2.152900 0.047143 -0.003203 616368.000000 1 0 0
-1.333721 9.425583 -16.158187 18.753864 -1.430229 2.609195 0.023018 -0.003620 -1519420.000000 1 0 0
-5.186421 2.061783 -15.816787 16.772616 -0.378379 2.802367 0.013570 -0.002722 277650.000000 1 0 0
4.561679 4.264983 -11.979387 13.509430 0.751797 2.661046 0.005481 -0.002191 445147.000000 1 0 0
9.147679 3.325683 -17.804287 20.291201 0.348699 2.641293 0.048519 -0.007662 756991.000000 1 0 0
-4.389521 14.334283 -13.300087 20.040755 -1.273638 2.296487 0.022553 -0.010090 -291087.000000 1 0 0
15.453079 -4.940717 -7.971687 18.076397 -0.309452 2.027509 0.048980 -0.005737 127220.000000 1 0 0
1.236779 9.138383 -16.782087 19.148841 1.436275 2.639136 0.015007 -0.006183 -372597.000000 1 0 0
0.331379 -3.282917 -12.732287 13.152889 -1.470197 2.888019 0.007197 -0.003018 231451.000000 1 0 0
7.569279 3.562583 -13.134287 15.572266 0.439904 2.574453 0.009406 -0.000750 -58144.200000 1 0 0
-2.958821 7.646483 -15.140787 17.218209 -1.201589 2.645286 0.016653 -0.003361 -82046.600000 1 0 0
12.060179 -5.132817 -11.039087 17.136370 -0.402379 2.270761 0.041838 -0.007614 -807700.000000 1 0 0
0.756679 -4.453817 -19.870487 20.377569 -1.402509 2.918039 0.049699 -0.020714 -128189.000000 1 0 0
3.500679 -4.559817 -16.042287 17.041175 -0.916048 2.797506 0.030544 -0.011150 744801.000000 1 0 0
-5.719221 4.039883 -14.303687 15.925627 -0.614988 2.686352 0.004901 -0.001720 927468.000000 1 0 0
12.232179 -7.436217 -9.860687 17.382655 -0.546225 2.173985 0.032193 -0.009121 275335.000000 1 0 0
-2.105221 -1.815217 -15.085687 15.339652 0.711561 2.959373 0.014468 -0.007108 23638.300000 1 0 0
6.981879 5.873183 -14.167787 16.851323 0.699365 2.569467 0.016254 -0.006002 -595967.000000 1 0 0
4.350979 -5.412417 -18.320587 19.592580 -0.893689 2.779275 0.051579 -0.020117 328278.000000 1 0 0
7.592179 7.373383 -12.309087 16.233348 0.770779 2.431435 0.009134 -0.005907 152581.000000 1 0 0
12.294679 -2.516117 -11.076487 16.738535 -0.201864 2.293928 0.030234 -0.001124 -98812.600000 1 0 0
7.471779 -0.659717 -10.566987 12.958546 -0.088066 2.524295 0.003250 0.000982 -1852890.000000 1 0 0
5.295879 3.985583 -14.431787 15.881048 0.645151 2.711058 0.006833 -0.002251 -119440.000000 1 0 0
14.746879 2.904483 -13.055187 19.908400 0.194467 2.285989 0.057854 -0.020692 395816.000000 1 0 0
-6.720421 6.713183 -15.957087 18.570393 -0.784859 2.604648 0.011484 0.005485 295432.000000 1 0 0
-11.097321 3.785783 -16.594387 20.318867 -0.328763 2.526463 0.043820 -0.017141 53256.500000 1 0 0
-5.000621 6.482183 -17.957087 19.735295 -0.913714 2.713832 0.014800 0.006550 602833.000000 1 0 0
-10.049321 1.614283 -15.670387 18.685710 -0.159275 2.565558 0.040388 -0.012861 -627088.000000 1 0 0
-7.568221 5.719583 -18.288687 20.602613 -0.647163 2.663095 0.018370 0.004327 727906.000000 1 0 0
-8.661421 3.815583 -15.740687 18.367038 -0.414948 2.600230 0.010904 0.004822 -755575.000000 1 0 0
9.019179 13.394483 -12.199887 20.238453 0.978181 2.217811 0.086501 -0.024339 -1158240.000000 1 0 0
13.761679 9.129983 -11.418387 20.077847 0.585762 2.175728 0.071738 -0.018809 124973.000000 1 0 0
8.218779 16.034883 -9.105587 20.188549 1.097154 2.038712 0.051724 -0.009243 -520857.000000 1 0 0
7.095979 13.570883 -13.941687 20.709718 1.089011 2.309318 0.064932 -0.013198 -205806.000000 1 0 0
4.714579 15.860483 -12.624987 20.812795 1.281861 2.222570 0.049219 -0.018917 516172.000000 1 0 0
11.082679 10.997083 -11.636687 19.472393 0.781521 2.211300 0.085312 -0.020394 -295347.000000 1 0 0
15.898479 9.427383 -9.918187 20.976359 0.535237 2.063293 0.108506 -0.013957 890605.000000 1 0 0
13.621279 10.653083 -9.338987 19.653094 0.663725 2.065978 0.116056 -0.020570 152334.000000 1 0 0
10.340779 12.050583 -8.380987 17.955200 0.861610 2.056434 0.049559 -0.001810 295134.000000 1 0 0
5.492879 16.232383 -10.081987 19.882365 1.244502 2.102592 0.036811 -0.013516 -624360.000000 1 0 0
6.792279 14.622283 -11.622987 19.875614 1.135937 2.195413 0.046403 -0.005538 -1880680.000000 1 0 0
10.627479 14.182383 -9.956587 20.327738 0.927715 2.082660 0.077614 -0.009468 -746618.000000 1 0 0
8.371079 -18.528417 -1.179087 20.365841 -1.146449 1.628724 0.049115 -0.012414 50224.200000 1 0 0
7.458379 -17.330817 -3.265087 19.147988 -1.164400 1.742152 0.035766 -0.010416 823637.000000 1 0 0
4.680879 -17.862817 5.540313 19.279158 -1.314513 1.279313 0.035890 -0.010928 428101.000000 1 0 0
9.911579 -16.816017 -2.428687 19.670190 -1.038198 1.694583 0.046007 -0.011698 -1327230.000000 1 0 0
-9.726121 -12.134317 -9.941187 18.457147 0.895118 2.139582 0.028498 -0.008947 574791.000000 1 0 0
-5.239721 -7.013417 -12.137587 14.965417 0.929154 2.516728 0.007256 -0.005977 611932.000000 1 0 0
-10.952521 -9.499017 -5.556087 15.526079 0.714447 1.936766 0.019116 -0.003192 335194.000000 1 0 0
-4.609621 -11.434617 -13.919087 18.594087 1.187596 2.416708 0.009548 -0.006469 -152265.000000 1 0 0
-3.024821 -15.542517 7.559913 17.546272 1.378583 1.125355 0.020145 0.000845 202112.000000 1 0 0
-4.764021 -11.916717 -11.474587 17.215406 1.190483 2.300341 0.008707 -0.002875 439699.000000 1 0 0
-14.592621 -12.811617 -4.152587 19.857646 0.720499 1.781469 0.039415 -0.010017 -60686.900000 1 0 0
-3.299521 -12.327017 -3.224887 13.162146 1.309261 1.818329 0.012119 -0.004785 567365.000000 1 0 0
-2.474321 -17.429817 -1.466387 17.665534 1.429780 1.653900 0.012159 -0.006419 -725292.000000 1 0 0
-5.777121 -12.198917 3.755213 14.010365 1.128510 1.299448 0.010785 -0.004423 854004.000000 1 0 0
-8.684421 -10.602517 -11.960087 18.190003 0.884523 2.288304 0.012168 -0.004037 342066.000000 1 0 0
-10.034421 -11.958517 -7.288187 17.228273 0.872663 2.007590 0.033487 -0.014522 266555.000000 1 0 0
-10.996721 -14.917217 6.157813 19.528694 0.935549 1.250001 0.043549 -0.016615 254871.000000 1 0 0
-9.539121 -15.455617 0.825613 18.181105 1.017830 1.525370 0.027132 -0.004258 -656773.000000 1 0 0
-14.813121 -7.597517 -8.104087 18.515589 0.473907 2.023824 0.027799 -0.005903 17053.900000 1 0 0
-2.307321 -16.603117 5.247113 17.564721 1.432712 1.267434 0.028081 -0.004228 1520840.000000 1 0 0
4.561179 -15.430217 6.430313 17.327576 -1.283381 1.190600 0.026757 -0.005500 -555898.000000 1 0 0
4.300479 -14.652717 -10.032087 18.271262 -1.285319 2.152040 0.017396 -0.004533 257351.000000 1 0 0
-7.676921 -13.902217 -0.237887 15.882800 1.066259 1.585775 0.016850 -0.007600 607685.000000 1 0 0
3.193079 -14.965317 9.708513 18.122133 -1.360583 1.005428 0.027448 -0.001377 -363374.000000 1 0 0
2.458079 -17.295517 10.487713 20.375701 -1.429619 1.030119 0.048784 -0.004657 -64707.100000 1 0 0
-8.187121 -17.070417 -5.903987 19.831418 1.123594 1.873088 0.043091 -0.015384 -52403.800000 1 0 0
-6.475421 -9.185917 -7.652387 13.596734 0.956770 2.168579 0.016115 -0.005962 218336.000000 1 0 0
-6.091221 -13.194017 -4.788187 15.300712 1.138284 1.889082 0.011979 -0.007307 390483.000000 1 0 0
2.213379 -19.372417 -4.886187 20.101354 -1.457035 1.816334 0.023520 -0.016607 35204.000000 1 0 0
-5.488521 -12.879017 8.350913 16.301248 1.167944 1.032951 0.013298 -0.004166 1249020.000000 1 0 0
2.276879 -17.431917 3.558713 17.936565 -1.440916 1.371066 0.020529 -0.008029 -732159.000000 1 0 0
-17.712121 -9.752517 -2.546387 20.379276 0.503313 1.696074 0.032789 -0.014962 370275.000000 1 0 0
-3.394021 -15.436217 2.634213 16.022961 1.354366 1.405644 0.017334 -0.002803 -65935.100000 1 0 0
-10.052521 -10.579317 -14.265987 20.408173 0.810926 2.344841 0.033027 -0.013214 -113451.000000 1 0 0
6.044179 -14.672717 -5.493787 16.792928 -1.180045 1.904081 0.002541 -0.008815 529228.000000 1 0 0
-7.248921 -12.283117 -10.616787 17.780270 1.037649 2.210691 0.016384 -0.009211 -869596.000000 1 0 0
-7.196121 -14.304417 3.935813 16.489122 1.104696 1.329778 0.018613 -0.001360 849687.000000 1 0 0
3.285079 -14.925717 -3.094087 15.593016 -1.354155 1.770550 0.012310 -0.009802 -261282.000000 1 0 0
-7.586521 -11.380517 7.801713 15.746054 0.982824 1.052419 0.013883 -0.009141 -447228.000000 1 0 0
-12.892921 -12.247417 -0.862687 17.803676 0.759728 1.619271 0.017278 -0.000890 -572950.000000 1 0 0
-1.747421 -13.734017 4.194113 14.466074 1.444243 1.276645 0.009889 -0.000213 -3681640.000000 1 0 0
-3.042221 -13.980217 5.438813 15.306282 1.356528 1.207527 0.011122 -0.000806 249230.000000 1 0 0
-14.486121 -10.325517 -4.496287 18.348858 0.619256 1.818362 0.017241 -0.004453 81879.400000 1 0 0
-6.204121 -8.659217 -10.326487 14.836087 0.949098 2.340661 0.007874 -0.004495 102863.000000 1 0 0
0.987379 -19.438417 2.441613 19.616026 -1.520045 1.446002 0.032063 -0.013694 66549.700000 1 0 0
6.401379 -14.081117 -8.078787 17.450568 -1.144118 2.052120 0.014496 -0.007109 -2024450.000000 1 0 0
-3.791521 -16.835717 -5.909987 18.241298 1.349285 1.900740 0.013722 -0.006582 -390378.000000 1 0 0
-3.712021 -13.720917 -13.090287 19.323516 1.306584 2.315056 0.014062 -0.000665 -1868080.000000 1 0 0
-8.268921 -14.690617 -4.592287 17.472218 1.058125 1.836754 0.026120 -0.011718 -502852.000000 1 0 0
-4.559921 -14.351617 10.184713 18.179389 1.263155 0.976128 0.024755 -0.003667 109905.000000 1 0 0
-0.248221 -12.185217 -9.916487 15.712347 1.550429 2.253802 0.005330 0.000156 373289.000000 1 0 0
2.467979 -17.125817 6.831713 18.602603 -1.427673 1.194751 0.025556 -0.008818 -1263230.000000 1 0 0
-2.897721 -19.114717 -3.460687 19.640406 1.420346 1.747923 0.023658 -0.007704 -999496.000000 1 0 0
0.688879 -15.361217 -3.078887 15.681872 -1.525981 1.768414 0.006352 -0.008036 -325096.000000 1 0 0
6.154279 -17.977217 0.784113 19.017632 -1.240964 1.529554 0.028141 -0.010788 -349920.000000 1 0 0
-7.117321 -16.722617 3.799813 18.567196 1.168409 1.364688 0.029227 -0.001344 1367690.000000 1 0 0
-5.181921 -13.502117 -9.461487 17.282338 1.204345 2.150129 0.009881 -0.005688 -31013.700000 1 0 0
5.702179 -15.184317 -2.022487 16.345299 -1.211560 1.694849 0.016437 -0.007232 -732272.000000 1 0 0
-8.870921 -10.386117 -0.596987 13.671908 0.863919 1.614475 0.011375 -0.004770 -98857.300000 1 0 0
-7.601621 -18.052717 -2.984187 19.813900 1.172251 1.721982 0.043055 -0.020308 3918.760000 1 0 0
7.981379 -15.849817 -1.092687 17.779570 -1.104302 1.632293 0.018425 -0.012313 -326928.000000 1 0 0
-8.059821 -10.140917 -9.432387 16.024008 0.899245 2.200173 0.017569 -0.005645 -1563390.000000 1 0 0
-9.147421 -15.081317 -7.075087 19.004691 1.025582 1.952262 0.042998 -0.014555 -120898.000000 1 0 0
-11.383221 -10.581017 -12.068587 19.677053 0.748891 2.231070 0.037899 0.005486 1252530.000000 1 0 0
6.575479 -16.230117 2.586013 17.701444 -1.185866 1.424181 0.020952 -0.010319 1087870.000000 1 0 0
-2.306421 -11.216517 -6.131487 12.989418 1.367996 2.062396 0.006243 -0.003242 -238157.000000 1 0 0
-12.321321 -15.377017 -3.238887 19.968926 0.895274 1.733712 0.022847 -0.008400 -41580.700000 1 0 0
-0.433621 -19.634717 -2.770387 19.833941 1.548716 1.710934 0.032684 -0.010237 161195.000000 1 0 0
-5.859721 -15.760117 -4.750287 17.472345 1.214828 1.846137 0.016027 -0.008133 -1415390.000000 1 0 0
1.897579 -16.002417 -1.041087 16.148128 -1.452767 1.635312 0.017530 -0.009897 129082.000000 1 0 0
-13.233921 -12.083217 5.346413 18.700934 0.739978 1.280861 0.026441 -0.010039 746106.000000 1 0 0
2.133479 -15.348917 -8.996687 17.918744 -1.432683 2.096801 0.015782 -0.000585 -1822600.000000 1 0 0
-11.750421 -16.636417 0.061413 20.367782 0.955850 1.567781 0.052206 -0.016025 433307.000000 1 0 0
-7.757421 -16.443917 -0.949987 18.206660 1.130003 1.622998 0.033799 -0.010583 503432.000000 1 0 0
-3.098221 -14.537117 -1.797587 14.971909 1.360813 1.691151 0.011295 -0.005794 467343.000000 1 0 0
-1.969621 -10.441517 -13.263787 16.995080 1.384354 2.466179 0.003032 0.000812 -855929.000000 1 0 0
1.527279 -19.461417 5.016013 20.155390 -1.492480 1.319286 0.039367 -0.015982 -1862.240000 1 0 0
-17.531321 -9.376217 2.577413 20.047536 0.491119 1.441874 0.030250 -0.015723 594541.000000 1 0 0
-2.608321 -15.739217 -8.078787 17.882760 1.406568 2.039538 0.006903 -0.003494 -322872.000000 1 0 0
-10.626721 -12.044117 0.386713 16.066658 0.847838 1.546725 0.014164 -0.001075 32981.600000 1 0 0
-6.932421 -11.489717 -6.463487 14.894587 1.027911 2.019667 0.014895 -0.006737 82208.900000 1 0 0
-2.244321 -13.682717 -6.672487 15.387521 1.408218 2.019313 0.003413 -0.002008 760083.000000 1 0 0
-14.361821 -14.271617 -1.093487 20.276505 0.782248 1.624751 0.035563 -0.005243 -76017.500000 1 0 0
-9.667921 -11.242717 -4.176387 15.404856 0.860567 1.845341 0.023089 -0.010562 791530.000000 1 0 0
9.494879 -15.115217 -5.046587 18.549679 -1.009923 1.846327 0.027381 -0.005115 359983.000000 1 0 0
-5.540121 -10.908017 -9.264087 15.346045 1.100853 2.218904 0.009490 -0.005938 236222.000000 1 0 0
-10.433421 -15.942417 -4.986587 19.694745 0.991303 1.826777 0.046170 -0.012638 -1178820.000000 1 0 0
2.302079 -17.308017 -3.286487 17.767049 -1.438566 1.756844 0.018843 -0.012502 593514.000000 1 0 0
-0.160021 -14.588817 -8.032687 16.654827 1.559828 2.074079 0.007138 -0.002801 -1255970.000000 1 0 0
-0.578521 -18.233617 -7.134087 19.588126 1.539079 1.943575 0.021232 -0.012863 160143.000000 1 0 0
-1.794321 -10.069517 -10.562887 14.703379 1.394454 2.372294 -0.002171 -0.000093 323771.000000 1 0 0
-5.003621 -17.212317 2.113913 18.049064 1.287893 1.453407 0.028704 -0.006100 -161412.000000 1 0 0
0.234779 -12.834517 -2.657987 13.108961 -1.552506 1.774973 0.004299 -0.005041 -1712440.000000 1 0 0
2.747579 -14.997817 3.117113 15.562780 -1.389607 1.369140 0.017742 -0.002513 -650950.000000 1 0 0
-9.346421 -13.117917 6.924513 17.532376 0.951735 1.164777 0.017143 -0.006639 -624484.000000 1 0 0
-0.955921 -17.823917 -4.512687 18.411142 1.517216 1.818426 0.022512 -0.013108 -68480.600000 1 0 0
-9.958521 -17.215817 -2.256987 20.016256 1.046372 1.683794 0.055297 -0.028972 -215520.000000 1 0 0
1.370979 -16.173117 1.461513 16.296789 -1.486229 1.480995 0.015028 -0.010911 564837.000000 1 0 0
-0.279821 -17.996717 4.196313 18.481590 1.555249 1.341745 0.032098 -0.011830 491688.000000 1 0 0
-17.441121 -9.205717 0.003913 19.721509 0.485653 1.570598 0.008668 -0.005240 669210.000000 1 0 0
-14.886621 -7.112917 -10.704187 19.666842 0.445735 2.146322 0.056331 -0.009464 768902.000000 1 0 0
2.785879 -12.768017 -8.858987 15.788130 -1.355971 2.166531 0.002373 -0.000628 737939.000000 1 0 0
-11.878321 -14.612917 1.753013 18.913088 0.888260 1.477975 0.032449 -0.004911 -27822.400000 1 0 0
-2.291321 -15.522517 10.624013 18.949099 1.424242 0.975613 0.028960 -0.005864 -357027.000000 1 0 0
-7.022821 -15.757817 1.325913 17.302799 1.151547 1.494091 0.026846 -0.006000 -806385.000000 1 0 0
-12.683821 -14.948717 -5.753987 20.431638 0.867180 1.856280 0.043835 -0.016179 278430.000000 1 0 0
0.915579 -13.798117 -5.053687 14.722978 -1.504538 1.921173 0.006429 -0.003921 806246.000000 1 0 0
6.066279 -16.407817 -7.342987 18.971971 -1.216664 1.968220 0.035369 -0.018898 38066.500000 1 0 0
-6.623321 -12.828317 5.974013 15.624434 1.094190 1.178457 0.016849 -0.002935 45534.100000 1 0 0
-2.568921 -13.560617 0.552813 13.812867 1.383575 1.530764 0.012559 -0.003579 4098550.000000 1 0 0
-4.355821 -15.478517 0.243313 16.081570 1.296480 1.555666 0.017381 -0.004846 53718.700000 1 0 0
-17.763921 -7.363317 -1.906387 19.323810 0.392952 1.669612 0.008888 -0.005850 331367.000000 1 0 0
1.145179 -12.687017 -11.895487 17.429127 -1.480776 2.321982 0.007114 0.000181 -939755.000000 1 0 0
1.295079 -16.990717 -5.726287 17.976431 -1.494721 1.894990 0.023702 -0.013779 -14135.600000 1 0 0
-12.777021 -6.421017 -9.263287 17.037905 0.465681 2.145620 0.020653 0.003218 197612.000000 1 0 0
-11.479821 -13.604217 -8.756087 19.837592 0.869888 2.027942 0.042868 -0.015463 373381.000000 1 0 0
-4.263421 -9.973817 3.493313 11.395483 1.166843 1.259227 0.012318 -0.002701 -5570150.000000 1 0 0
-7.178921 -14.306717 9.705613 18.719455 1.105720 1.025727 0.023350 -0.004489 467567.000000 1 0 0
-5.247921 -15.800217 -7.963587 18.455521 1.250118 2.016953 0.014567 -0.016980 -647668.000000 1 0 0
-0.308021 -13.550817 2.141913 13.722512 1.548069 1.414068 0.012950 -0.003884 607427.000000 1 0 0
-11.042021 -13.417417 -4.533887 17.958548 0.882210 1.826022 0.038401 -0.011648 -670962.000000 1 0 0
-9.714321 -10.574717 6.641113 15.820779 0.827780 1.137603 0.023110 -0.008001 -151118.000000 1 0 0
-15.670621 -8.181117 -4.845087 18.329591 0.481145 1.838307 0.025311 -0.007245 -8307.660000 1 0 0
-14.567221 -7.344717 5.458413 17.202996 0.466998 1.247921 0.027049 -0.013391 859015.000000 1 0 0
-1.517321 -19.284717 0.116013 19.344665 1.492278 1.564799 0.029235 -0.009676 138267.000000 1 0 0
-15.425121 -11.893117 -1.289787 19.520352 0.656820 1.636918 0.020716 -0.001705 599477.000000 1 0 0
-4.424521 -12.109317 -6.699387 14.529065 1.220485 2.050033 0.010403 -0.003874 -347489.000000 1 0 0
-7.322621 -18.277117 1.737713 19.765967 1.189735 1.482768 0.037708 -0.007237 362980.000000 1 0 0
-2.526321 -11.889517 -8.606187 14.893266 1.361427 2.186898 0.002782 -0.000407 1159070.000000 1 0 0
-1.310921 -20.466117 -5.056187 21.122157 1.506830 1.812522 0.040777 -0.006036 -150428.000000 1 0 0
-5.451221 -8.926517 -13.831387 17.340870 1.022563 2.494132 0.010836 -0.007673 510763.000000 1 0 0
-8.718421 -18.978017 -0.921487 20.905146 1.140156 1.614890 0.049465 -0.007510 331991.000000 1 0 0
-17.226621 -7.312217 5.619913 19.539918 0.401423 1.279064 0.048277 -0.022166 252831.000000 1 0 0
-3.565521 -14.732217 -4.288387 15.752506 1.333340 1.846512 0.008630 -0.005371 -1824600.000000 1 0 0
-3.026421 -14.915617 -10.864287 18.699401 1.370611 2.190749 0.014474 -0.006589 -58976.600000 1 0 0
-0.043921 -16.677817 6.479813 17.892443 1.568163 1.200219 0.038118 -0.006911 -917771.000000 1 0 0
-11.134021 -11.611717 3.822913 16.535207 0.806397 1.337487 0.020141 -0.005929 1113750.000000 1 0 0
-0.229021 -14.680517 -0.224587 14.684021 1.555197 1.586092 0.005855 -0.003974 1078500.000000 1 0 0
-7.372921 -9.523117 -2.446087 12.289551 0.911978 1.771172 0.014830 -0.005397 -230254.000000 1 0 0
-11.298921 -14.329617 -0.748587 18.263733 0.903106 1.611795 0.031007 -0.009745 191947.000000 1 0 0
0.238179 -14.609817 -10.568787 18.033379 -1.554495 2.196994 0.009458 -0.003540 -176374.000000 1 0 0
-1.428321 -14.055617 -3.903887 14.657449 1.469525 1.840392 0.006474 -0.003999 -4567750.000000 1 0 0
-11.453021 -8.132417 -7.661187 16.000052 0.617451 2.070109 0.017010 -0.000914 470809.000000 1 0 0
-0.146821 -17.283917 -0.245087 17.286279 1.562302 1.584975 0.013964 -0.010553 -1221500.000000 1 0 0
-12.940021 -9.544417 4.576413 16.717763 0.635511 1.293511 0.020297 -0.009089 -218958.000000 1 0 0
4.018979 -16.787917 1.627313 17.338815 -1.335821 1.476804 0.021622 -0.012521 1535630.000000 1 0 0
-3.822421 -17.888317 -8.273387 20.076148 1.360280 1.995554 0.034697 -0.017568 207096.000000 1 0 0
-13.410721 -11.335817 2.740113 17.772349 0.701748 1.416000 0.015223 -0.005033 -298056.000000 1 0 0
-8.581921 -12.194617 4.208313 15.494127 0.957560 1.295734 0.021976 -0.006579 1134080.000000 1 0 0
-8.315621 -9.432217 -5.903987 13.891484 0.848230 2.009767 0.019551 -0.006054 143763.000000 1 0 0
3.833979 -17.438717 -5.355487 18.641070 -1.354385 1.862198 0.008940 -0.004190 -1237930.000000 1 0 0
-2.632821 -13.016717 11.356413 17.473832 1.371224 0.863331 0.016158 -0.007362 236998.000000 1 0 0
0.161179 -16.874617 -9.473087 19.352469 -1.561245 2.082316 0.022296 -0.003884 -233814.000000 1 0 0
-7.031121 -10.755717 -14.601787 19.450817 0.991817 2.419922 0.017883 0.001112 -1770080.000000 1 0 0
-4.624121 -18.913417 -1.452787 19.524611 1.331011 1.645273 0.034051 -0.011500 125021.000000 1 0 0
-2.427921 -17.185117 1.135213 17.392866 1.430445 1.505481 0.025227 -0.012243 635603.000000 1 0 0
4.041079 -14.739717 -7.406887 16.983862 -1.303209 2.022071 0.012422 -0.004341 1273400.000000 1 0 0
-1.044221 -15.924817 -6.084187 17.079448 1.505318 1.935025 0.010536 -0.004867 -787584.000000 1 0 0
-9.637321 -15.227417 8.393513 19.879720 1.006542 1.134909 0.028821 -0.005406 -477360.000000 1 0 0
-7.148921 -12.048117 -1.831887 14.128695 1.035270 1.700820 0.016897 -0.006235 860682.000000 1 0 0
-7.249621 -15.120417 -9.499087 19.272174 1.123716 2.086206 0.025963 -0.007516 109366.000000 1 0 0
-5.110921 -13.236217 -0.617387 14.202117 1.202302 1.614281 0.015693 -0.004857 1500980.000000 1 0 0
-6.438921 -13.774017 -7.321487 16.875646 1.133511 2.019557 0.013786 -0.009991 193582.000000 1 0 0
5.722079 -15.374117 0.338913 16.407941 -1.214492 1.550139 0.016610 -0.007385 282331.000000 1 0 0
-14.616821 -12.778017 1.060713 19.443618 0.718376 1.516216 0.017918 -0.004594 697546.000000 1 0 0
0.959479 -15.268317 11.112613 18.908524 -1.508038 0.942578 0.030045 -0.009922 149413.000000 1 0 0
-9.297021 -10.891717 1.980513 14.456367 0.864224 1.433365 0.014035 -0.004001 202059.000000 1 0 0
-9.512821 -8.839817 -3.611887 13.478941 0.748744 1.842077 0.018003 -0.006054 -120744.000000 1 0 0
-12.225021 -7.384617 -12.444387 18.943243 0.543398 2.287536 0.040294 -0.001514 -612846.000000 1 0 0
-13.279221 -8.513517 -0.728287 15.790759 0.570104 1.616934 0.007362 -0.002710 -898887.000000 1 0 0
-11.246821 -9.618717 0.460513 14.806173 0.707528 1.539689 0.008158 -0.001641 1590620.000000 1 0 0
-15.883621 -12.054117 3.178613 20.191452 0.649174 1.412715 0.038840 -0.007003 258798.000000 1 0 0
-10.605721 -12.465217 -2.167587 16.509433 0.865823 1.702470 0.028836 -0.010723 590265.000000 1 0 0
-3.508021 -8.974617 -12.009187 15.397095 1.198175 2.465405 0.003433 -0.001712 -1461440.000000 1 0 0
-0.226321 -15.568617 3.916113 16.055187 1.556260 1.324395 0.024581 -0.004405 -801687.000000 1 0 0
-15.762621 -7.676017 1.327313 17.582469 0.453174 1.495234 0.002229 -0.005098 538833.000000 1 0 0
-6.232321 -13.384017 -13.131687 19.758921 1.135001 2.297748 0.018586 -0.007459 -333082.000000 1 0 0
-15.336521 -10.206817 1.215813 18.462562 0.587211 1.504896 0.006097 -0.005570 995124.000000 1 0 0
-9.911821 -8.436917 -12.717287 18.197669 0.705189 2.344573 0.020285 0.001909 903114.000000 1 0 0
-13.296221 -11.799717 -6.149787 18.810707 0.725837 1.903850 0.034945 -0.006849 -24197.800000 1 0 0
-12.323421 -11.331317 -3.733387 17.152365 0.743482 1.790213 0.016687 -0.004368 38967.100000 1 0 0
-11.920521 -11.023117 -9.012987 18.569918 0.746305 2.077565 0.047323 -0.012014 1151930.000000 1 0 0
-13.291621 -8.537917 -5.881987 16.857075 0.570981 1.927228 0.018181 -0.005093 -1615540.000000 1 0 0
-13.556421 -8.136717 -3.258987 16.143225 0.540575 1.774073 0.011518 -0.005771 552239.000000 1 0 0
-4.376021 -17.052517 -3.193587 17.892370 1.319597 1.750247 0.016301 -0.008953 346168.000000 1 0 0
-15.530821 -8.853417 -1.699887 17.957700 0.518110 1.665599 0.009601 -0.003050 -1776080.000000 1 0 0
-9.514721 -15.607717 3.620513 18.634346 1.023336 1.375260 0.026826 -0.005660 324270.000000 1 0 0
4.723379 -17.438817 8.032513 19.772302 -1.306288 1.152449 0.040475 -0.005669 77935.200000 1 0 0
-8.450121 -15.450517 5.969513 18.594572 1.070325 1.243974 0.025706 0.000934 273729.000000 1 0 0
0.987679 -16.023317 8.696113 18.257727 -1.509234 1.074357 0.024640 -0.005964 178922.000000 1 0 0
-10.886421 -7.961717 -10.312787 16.978123 0.631454 2.223600 0.021549 0.002107 968746.000000 1 0 0
-4.811521 -15.855717 5.721813 17.529793 1.276171 1.238299 0.026883 -0.008628 -870991.000000 1 0 0
-1.438021 -13.208017 -11.985887 17.893605 1.462349 2.304792 0.004335 -0.000858 -632530.000000 1 0 0
-6.578121 -14.409517 -2.554487 16.044665 1.142540 1.730688 0.021697 -0.009438 479897.000000 1 0 0
-17.908421 -6.773017 -7.035487 20.398122 0.361576 1.922938 0.058298 -0.016664 354501.000000 1 0 0
-17.250921 -4.037517 -10.101887 20.394703 0.229908 2.088998 0.063617 -0.017031 887627.000000 1 0 0
-15.236421 -5.290517 -8.890487 18.416809 0.334204 2.074574 0.028305 -0.012987 670645.000000 1 0 0
-16.278821 -5.342917 -5.547387 18.008894 0.317135 1.883924 0.024125 -0.002793 930746.000000 1 0 0
-15.286921 -4.267517 -12.282987 20.069215 0.272231 2.229423 0.055927 -0.013462 380713.000000 1 0 0
-18.934321 -4.875617 -5.598087 20.337618 0.252026 1.849654 0.056628 -0.015198 68151.100000 1 0 0
-17.397021 -4.302117 -7.599387 19.465745 0.242427 1.971860 0.039149 -0.013796 1339390.000000 1 0 0
12.366579 -7.860117 8.703513 17.043030 -0.566181 1.034822 0.036211 -0.010431 428341.000000 1 0 0
16.254979 -3.410717 1.748413 16.700728 -0.206826 1.465913 0.032460 -0.009586 780224.000000 1 0 0
12.073679 -2.024317 12.511713 17.504701 -0.166119 0.774511 0.052282 -0.008132 305684.000000 1 0 0
9.775279 -10.032417 5.222813 14.949357 -0.798379 1.213901 0.007131 -0.009549 110330.000000 1 0 0
16.888679 -1.902317 7.211513 18.462184 -0.112166 1.169502 0.057486 -0.016224 -627117.000000 1 0 0
5.117479 -12.740017 9.255213 16.557645 -1.188838 0.977654 0.010344 0.002124 -479923.000000 1 0 0
15.168479 -8.962817 -2.128287 17.746675 -0.533690 1.691012 0.045916 -0.012703 276244.000000 1 0 0
11.043479 -8.571817 6.570613 15.446924 -0.660052 1.131429 0.013620 -0.010310 -3700550.000000 1 0 0
20.069379 -3.036417 3.622213 20.618444 -0.150157 1.394202 0.090026 -0.021232 249753.000000 1 0 0
13.478979 -8.588817 6.621913 17.300301 -0.567325 1.178011 0.030384 -0.012951 -2370010.000000 1 0 0
8.342879 -11.065317 8.852413 16.444151 -0.924761 1.002340 0.006460 -0.002489 -158210.000000 1 0 0
16.861379 0.084683 -0.605587 16.872463 0.005022 1.606696 0.022541 -0.005570 1029970.000000 1 0 0
12.532079 -12.349417 2.321913 17.746899 -0.778057 1.439585 0.021591 -0.015534 -1616960.000000 1 0 0
10.544079 -11.578117 3.661113 16.082107 -0.832106 1.341131 0.009269 -0.012337 -841535.000000 1 0 0
16.396279 2.888383 2.248513 16.799897 0.174372 1.436553 0.009794 -0.004236 304782.000000 1 0 0
18.600379 -3.338317 0.414413 18.902122 -0.177585 1.548870 0.070334 -0.013438 435752.000000 1 0 0
13.537979 -11.524517 -0.185387 17.779926 -0.705233 1.581223 0.042647 -0.012517 -378766.000000 1 0 0
16.968479 -7.629917 -0.885387 18.626026 -0.422565 1.618349 0.060260 -0.013457 -236091.000000 1 0 0
10.232179 -5.794517 9.777713 15.293057 -0.515274 0.877135 0.019814 -0.006653 13372.900000 1 0 0
11.492879 -13.407717 5.944813 18.633142 -0.862146 1.246075 0.020718 -0.011137 -322984.000000 1 0 0
13.026479 -1.849017 10.129713 16.604792 -0.141001 0.914676 0.039903 -0.007552 -101023.000000 1 0 0
15.550479 -2.022817 -1.346087 15.739160 -0.129354 1.656426 0.025572 -0.011378 -739798.000000 1 0 0
10.671979 -12.213017 8.673413 18.392309 -0.852635 1.079717 0.030616 -0.016671 310491.000000 1 0 0
14.597879 1.175983 3.076713 14.964865 0.080385 1.363724 0.015421 -0.005183 1003360.000000 1 0 0
14.931879 -5.825317 5.277513 16.874463 -0.371966 1.252708 0.035553 -0.012558 -1264440.000000 1 0 0
14.325179 -3.347417 -2.983787 15.010628 -0.229555 1.770907 0.019052 -0.007414 688144.000000 1 0 0
14.022679 0.614983 9.535713 16.968900 0.043828 0.974052 0.039140 -0.007244 -96336.100000 1 0 0
15.540579 -3.491317 4.386113 16.520802 -0.220989 1.302084 0.031271 -0.010669 -1040210.000000 1 0 0
18.540879 4.850083 -4.421987 19.668286 0.255855 1.797563 0.020901 -0.003836 674045.000000 1 0 0
18.387779 -5.700817 -5.000987 19.890189 -0.300636 1.824954 0.105870 -0.015992 836053.000000 1 0 0
17.440179 0.059283 5.799013 18.379117 0.003399 1.249790 0.056805 -0.011632 575070.000000 1 0 0
17.056679 -6.551217 4.023713 18.709330 -0.366712 1.354038 0.055579 -0.019468 -446816.000000 1 0 0
9.688479 -6.579817 14.323113 18.501681 -0.596587 0.685422 0.043420 -0.009475 -714766.000000 1 0 0
8.631379 -12.235517 5.172513 15.841827 -0.956431 1.238188 0.008098 -0.010184 -2468770.000000 1 0 0
16.883179 -10.230417 -0.621687 19.750688 -0.544785 1.602278 0.060084 -0.007872 -308401.000000 1 0 0
15.045079 -8.889717 0.466713 17.481399 -0.533681 1.544095 0.049911 -0.013611 104084.000000 1 0 0
10.063879 -12.921417 1.591313 16.455302 -0.909084 1.473940 0.015524 -0.015281 -29002.600000 1 0 0
16.980179 -8.117217 8.850913 20.797942 -0.445926 1.131208 0.070571 -0.018652 470096.000000 1 0 0
19.138879 -0.156417 -1.947887 19.238384 -0.008173 1.672220 0.057505 -0.008896 -443757.000000 1 0 0
13.542579 -1.137017 7.683113 15.611678 -0.083762 1.056251 0.024945 -0.009889 -62673.400000 1 0 0
12.813379 -9.681917 -3.115987 16.359450 -0.647082 1.762437 0.030969 -0.010357 -2082240.000000 1 0 0
8.924479 -15.248017 1.485013 17.730021 -1.041265 1.486941 0.022271 -0.011545 -300167.000000 1 0 0
11.576179 -8.225417 11.091213 18.018891 -0.617769 0.907735 0.052652 -0.011968 487172.000000 1 0 0
13.968479 -3.920217 -0.427387 14.514447 -0.273609 1.600246 0.016914 -0.009061 -269139.000000 1 0 0
7.178379 -13.191917 10.816813 18.508357 -1.072456 0.946621 0.017809 0.006429 -562543.000000 1 0 0
15.513879 -6.637817 1.818513 16.971979 -0.404293 1.463442 0.037142 -0.013463 928317.000000 1 0 0
15.954179 -6.065517 -2.668887 17.275685 -0.363307 1.725906 0.062927 -0.009833 -106093.000000 1 0 0
11.288779 -8.488317 3.898313 14.652130 -0.644732 1.301495 0.016026 -0.013334 271022.000000 1 0 0
10.754279 -14.435717 -0.370387 18.005045 -0.930518 1.591369 0.035164 -0.016388 781049.000000 1 0 0
13.678879 -12.825517 4.649713 19.319044 -0.753212 1.327730 0.024461 -0.011635 36292.700000 1 0 0
12.822379 -11.197717 6.428313 18.196854 -0.717863 1.209737 0.019259 -0.007959 139561.000000 1 0 0
10.987679 -10.453217 1.379813 15.228353 -0.760476 1.480064 0.013509 -0.011372 143924.000000 1 0 0
13.986679 -7.446617 11.816213 19.766189 -0.489236 0.930043 0.069348 -0.023284 328790.000000 1 0 0
15.286779 -1.773817 -4.838687 16.132109 -0.115519 1.875428 0.035561 -0.006131 188996.000000 1 0 0
12.929879 -11.399417 -7.093487 18.639905 -0.722575 1.961191 0.055155 -0.009853 1099810.000000 1 0 0
17.820579 -5.386317 1.808213 18.704414 -0.293522 1.473972 0.079313 -0.012912 520207.000000 1 0 0
10.603179 -9.718617 9.234513 17.092547 -0.741898 1.000044 0.023998 -0.008086 -1238680.000000 1 0 0
16.481479 1.593383 9.899213 19.291772 0.096378 1.031967 0.070396 -0.010150 1435970.000000 1 0 0
18.175979 3.646183 0.472913 18.544124 0.197977 1.545292 0.001804 -0.005749 562419.000000 1 0 0
13.312979 -4.028917 5.796013 15.068556 -0.293869 1.175975 0.019805 -0.012344 -911552.000000 1 0 0
12.077879 -6.183817 6.628613 15.101433 -0.473198 1.116378 0.018343 -0.012018 -175554.000000 1 0 0
16.641079 -10.144017 3.546213 19.809145 -0.547432 1.390807 0.034102 -0.014342 -197602.000000 1 0 0
16.027279 -7.822517 -5.589187 18.689689 -0.454062 1.874495 0.062984 -0.012599 93685.300000 1 0 0
14.104579 -0.258517 5.259213 15.055408 -0.018327 1.213947 0.018163 -0.008438 930725.000000 1 0 0
18.300479 -4.262217 5.181013 19.491458 -0.228823 1.301753 0.071910 -0.014665 -258957.000000 1 0 0
13.713979 -13.497917 7.254513 20.564410 -0.777458 1.210266 0.035058 -0.006075 -164111.000000 1 0 0
15.053179 -13.438617 -0.833087 20.196254 -0.728791 1.612058 0.051874 -0.009734 491876.000000 1 0 0
17.863079 -5.845917 7.870713 20.376763 -0.316277 1.174224 0.080096 -0.017417 -77232.000000 1 0 0
14.394179 3.262083 9.255113 17.420985 0.222861 1.010706 0.036134 -0.012414 453173.000000 1 0 0
18.928079 3.637483 2.858013 19.485166 0.189859 1.423589 0.043032 -0.011657 240473.000000 1 0 0
14.749179 -10.596417 8.022913 19.854206 -0.622996 1.154811 0.028327 -0.017534 -105359.000000 1 0 0
14.790679 -4.803817 10.324313 18.666341 -0.314039 0.984718 0.065169 -0.017951 206934.000000 1 0 0
17.848979 -7.939217 1.953913 19.632499 -0.418521 1.471107 0.089111 -0.020283 311499.000000 1 0 0
18.491779 -5.907517 -2.020487 19.517352 -0.309220 1.674505 0.075044 -0.012936 194450.000000 1 0 0
14.463279 -12.745017 -5.409787 20.022181 -0.722330 1.844386 0.081115 -0.017023 -371042.000000 1 0 0
15.494179 -1.470117 9.377813 18.170697 -0.094599 1.028510 0.075906 -0.011912 78445.000000 1 0 0
13.033079 -9.988217 10.059413 19.256621 -0.653899 1.021148 0.036615 -0.024730 -1311780.000000 1 0 0
16.570879 2.176983 4.734613 17.370949 0.130626 1.294744 0.030434 -0.009971 -741209.000000 1 0 0
14.958379 2.436383 -0.067787 15.155648 0.161460 1.575269 0.003859 -0.001850 -982441.000000 1 0 0
14.998579 -9.696717 -6.997587 19.182021 -0.573917 1.944214 0.064272 -0.014202 699522.000000 1 0 0
16.253479 -0.113317 -3.177387 16.561528 -0.006972 1.763847 0.030857 -0.006920 79931.300000 1 0 0
12.088679 2.705483 13.488013 18.313446 0.220175 0.742902 0.049316 -0.009134 -281802.000000 1 0 0
17.568579 -3.116617 9.422013 20.177775 -0.175571 1.084958 0.069230 -0.018088 458050.000000 1 0 0
7.908779 -18.199117 4.419013 20.329396 -1.160848 1.351676 0.047031 -0.016529 -786528.000000 1 0 0
6.835179 -11.166917 6.616613 14.669673 -1.021533 1.102866 0.007630 -0.005931 170267.000000 1 0 0
18.031079 2.174883 -1.596087 18.231770 0.120039 1.658453 0.019496 -0.004959 711200.000000 1 0 0
17.651479 -2.244417 3.607213 18.155554 -0.126473 1.370782 0.036160 -0.010189 -1508900.000000 1 0 0
12.608879 -13.320517 -1.867487 18.436581 -0.812836 1.672263 0.037674 -0.005820 -655832.000000 1 0 0
15.116079 -8.203517 4.353813 17.741174 -0.497222 1.322857 0.032524 -0.012343 -692585.000000 1 0 0
11.894279 -2.917217 14.863713 19.259128 -0.240515 0.689169 0.090953 -0.015045 267807.000000 1 0 0
12.162979 -13.695317 -6.272087 19.360756 -0.844588 1.900707 0.039156 -0.012498 295837.000000 1 0 0
10.593579 -11.969017 -1.153387 16.025343 -0.846284 1.642831 0.021070 -0.013980 -919404.000000 1 0 0
13.254579 -7.935317 2.091413 15.589328 -0.539452 1.436234 0.025422 -0.009206 920563.000000 1 0 0
8.718879 -7.845017 10.139913 15.504225 -0.732690 0.857924 0.009884 -0.004409 -1067370.000000 1 0 0
15.458179 -3.716917 8.000713 17.798376 -0.235970 1.104569 0.060637 -0.017211 -1244970.000000 1 0 0
10.218079 -17.356117 5.356413 20.840708 -1.038704 1.310862 0.039369 -0.016350 -566942.000000 1 0 0
15.257379 -6.263417 8.194813 18.416650 -0.389540 1.109658 0.051580 -0.011639 332508.000000 1 0 0
16.683679 -4.920117 -0.446487 17.399772 -0.286777 1.596460 0.049551 -0.012878 -225368.000000 1 0 0
13.981179 -10.474017 3.387513 17.794765 -0.642958 1.379262 0.028426 -0.015366 1065670.000000 1 0 0
14.971479 -9.952917 -4.431987 18.516162 -0.586704 1.812501 0.066526 -0.016428 120581.000000 1 0 0
13.631779 -6.627217 -0.059987 15.157474 -0.452514 1.574754 0.027965 -0.010814 395610.000000 1 0 0
17.819279 -0.882217 -4.992987 18.526601 -0.049469 1.843674 0.063976 -0.011696 796936.000000 1 0 0
14.386979 0.244983 -1.630287 14.481127 0.017026 1.683616 0.014113 -0.005898 -3847450.000000 1 0 0
4.894279 -12.823517 11.861413 18.140830 -1.206196 0.858132 0.007052 0.003950 -591402.000000 1 0 0
11.965979 -7.503917 13.593713 19.603124 -0.560111 0.804535 0.058942 -0.016195 77552.700000 1 0 0
12.028679 -5.720917 11.655313 17.699275 -0.443943 0.851947 0.046968 -0.010067 625850.000000 1 0 0
13.201379 -4.635017 8.372913 16.305382 -0.337655 1.031531 0.034800 -0.011247 -1630720.000000 1 0 0
15.379579 -1.246317 3.051313 15.728804 -0.080860 1.375563 0.022523 -0.005215 289302.000000 1 0 0
15.211679 -10.359717 5.658113 19.254433 -0.597885 1.272533 0.033496 -0.017457 566402.000000 1 0 0
13.493379 -8.017817 -5.614287 16.669640 -0.536147 1.914310 0.046433 -0.014272 -971772.000000 1 0 0
9.563079 -2.318017 13.458813 16.672293 -0.237806 0.631308 0.024531 -0.009275 2369380.000000 1 0 0
9.877679 -9.122517 13.564913 19.099627 -0.745674 0.780987 0.057926 -0.010887 -324410.000000 1 0 0
20.185479 6.463783 -3.080787 21.417874 0.309902 1.715139 0.066262 -0.001451 -338785.000000 1 0 0
11.108979 -3.568017 10.602613 15.765646 -0.310776 0.833196 0.026780 -0.002469 898133.000000 1 0 0
10.282879 -13.934317 -2.920287 17.562201 -0.935050 1.737855 0.027428 -0.007948 880222.000000 1 0 0
15.049479 -12.664217 2.511913 19.828740 -0.699542 1.443775 0.034664 -0.008434 300592.000000 1 0 0
11.251179 -0.417717 14.288713 18.191505 -0.037110 0.667356 0.062826 -0.008167 365869.000000 1 0 0
19.110379 -1.963617 5.818613 20.072834 -0.102392 1.276700 0.085934 -0.018734 760565.000000 1 0 0
18.812679 -0.424317 7.938413 20.423402 -0.022551 1.171585 0.075603 -0.013294 -100033.000000 1 0 0
19.039979 0.860283 0.548113 19.067284 0.045152 1.542046 0.039238 -0.010474 -18964.200000 1 0 0
18.598979 0.778283 3.741013 18.987442 0.041821 1.372473 0.033861 -0.011550 -84776.700000 1 0 0
16.662079 -3.887717 -4.087187 17.591030 -0.229226 1.805284 0.057951 -0.009964 -145228.000000 1 0 0
10.934579 -8.286217 15.825913 20.944831 -0.648474 0.714227 0.078863 -0.016131 516754.000000 1 0 0
16.543679 -7.568017 6.362013 19.272868 -0.429038 1.234385 0.048771 -0.012792 261485.000000 1 0 0
18.941879 2.150783 5.954513 19.971903 0.113062 1.268048 0.053208 -0.009799 193558.000000 1 0 0
15.387279 1.766683 7.564113 17.236744 0.114314 1.116493 0.048496 -0.011029 374618.000000 1 0 0
8.847579 -15.817717 3.901513 18.539192 -1.060806 1.358764 0.022289 -0.012814 834103.000000 1 0 0
11.401179 -15.094617 2.044313 19.026655 -0.923903 1.463144 0.025643 -0.012056 -164411.000000 1 0 0
8.075679 -16.138717 6.171513 19.072556 -1.106835 1.241285 0.024700 -0.008908 -610134.000000 1 0 0
14.519379 -11.526917 -2.491087 18.705286 -0.671010 1.704369 0.055044 -0.011338 422083.000000 1 0 0
13.772279 -4.786017 3.208713 14.929082 -0.334456 1.354176 0.015235 -0.005467 -1391760.000000 1 0 0
-1.080921 10.103283 -5.527887 11.567292 -1.464215 2.069047 0.003562 0.002741 -2012010.000000 1 0 0
8.218679 -1.797317 -7.951787 11.576180 -0.215297 2.328024 0.001461 -0.000404 -1821770.000000 1 0 0
2.896679 -10.111017 7.640313 12.999916 -1.291782 0.942558 0.006528 -0.000221 666528.000000 1 0 0
-6.364021 1.371983 8.230313 10.493862 -0.212335 0.669233 -0.000750 0.001081 -106072.000000 1 0 0
7.271879 -6.193417 -7.273687 12.006047 -0.705477 2.221612 -0.001897 -0.003996 20634.200000 1 0 0
-11.421021 -4.580517 -4.109287 12.973322 0.381420 1.893096 0.007625 -0.002042 -41104.700000 1 0 0
2.089479 -3.254817 2.893413 4.830280 -1.000090 0.928525 0.004972 -0.000928 1250440.000000 1 0 0
-3.542321 -4.238717 8.805913 10.395137 0.874660 0.560257 -0.000847 0.001411 -2111110.000000 1 0 0
-4.864921 -1.127617 -2.552587 5.608447 0.227763 2.043317 0.009734 -0.002802 -75175.700000 1 0 0
4.985979 -5.194117 -3.687487 8.089277 -0.805841 2.044122 0.000650 -0.003241 676740.000000 1 0 0
2.805479 14.432983 -8.828187 17.149886 1.378811 2.111532 0.013048 -0.002584 -356439.000000 1 0 0
5.402079 -5.463817 13.728613 15.732469 -0.791080 0.510236 0.015334 -0.007497 -244787.000000 1 0 0
-4.717921 -0.620017 9.863613 10.951441 0.130669 0.449492 0.001751 0.002246 -4077850.000000 1 0 0
-1.012621 11.888283 -2.704787 12.234073 -1.485823 1.793725 0.001395 -0.000730 -115334.000000 1 0 0
3.007179 9.418083 -10.600587 14.495373 1.261730 2.391035 0.008396 -0.002276 -679237.000000 1 0 0
-10.642421 2.675483 1.188513 11.037748 -0.246294 1.462910 -0.001945 0.000199 214300.000000 1 0 0
5.713179 -9.052417 -0.734087 10.729658 -1.007807 1.639266 0.004584 -0.006166 618972.000000 1 0 0
-6.801321 5.390683 9.215813 12.658935 -0.670208 0.755384 0.009195 -0.001918 445428.000000 1 0 0
-5.558321 -1.823817 5.107813 7.766015 0.317055 0.853017 0.001704 -0.002470 579466.000000 1 0 0
6.426079 -3.713617 -7.353987 10.448281 -0.524009 2.351594 -0.000611 -0.001791 458244.000000 1 0 0
6.186579 4.722183 11.061313 13.524993 0.651955 0.613145 0.000823 -0.003313 600370.000000 1 0 0
3.820179 -9.834917 3.293413 11.052870 -1.200303 1.268232 0.001266 -0.001109 942279.000000 1 0 0
-6.680621 6.617983 -5.887687 11.094739 -0.780688 2.130192 0.005813 -0.003492 -289909.000000 1 0 0
-10.996221 8.443383 5.243913 14.822490 -0.654824 1.209186 0.004179 -0.001835 -123389.000000 1 0 0
-9.174721 -5.468517 5.113713 11.841885 0.537504 1.124273 0.008219 0.000547 81023.800000 1 0 0
3.159079 9.870483 -8.059987 13.128960 1.261045 2.231799 0.009012 -0.000921 654765.000000 1 0 0
-8.038821 -8.539217 6.037113 13.190436 0.815573 1.095402 0.010606 -0.001166 -2015330.000000 1 0 0
-7.930221 -5.791917 -7.590187 12.411512 0.630813 2.228807 0.011707 -0.006163 -171158.000000 1 0 0
9.216579 -1.497117 6.962413 11.647399 -0.161031 0.930085 0.003958 -0.006019 1441530.000000 1 0 0
-4.082821 -0.604917 -4.968187 6.458965 0.147092 2.448373 0.015150 -0.008750 -706847.000000 1 0 0
9.071379 1.146683 -4.411487 10.152144 0.125740 2.020321 -0.003256 0.001153 -3649990.000000 1 0 0
-1.828021 -10.563317 10.772213 15.197563 1.399440 0.782984 0.001033 -0.004928 -45496.300000 1 0 0
-12.967721 0.242883 -2.551887 13.218657 -0.018728 1.765068 0.000735 -0.001894 -882948.000000 1 0 0
-9.950521 -5.318617 -6.153287 12.851595 0.490870 2.070079 0.008866 -0.002794 -2203420.000000 1 0 0
-5.513121 8.220283 -0.174487 9.899393 -0.980025 1.588423 0.003104 0.001379 434539.000000 1 0 0
6.318479 9.590883 0.415213 11.492633 0.988259 1.534660 0.011209 -0.004649 397764.000000 1 0 0
-0.503821 -12.023117 0.070713 12.033877 1.528917 1.564920 0.009485 -0.002661 -177669.000000 1 0 0
6.179579 4.712783 2.325913 8.112176 0.651541 1.279996 0.002142 -0.000655 479076.000000 1 0 0
3.512979 -7.596717 -8.170887 11.696774 -1.137651 2.344178 -0.001688 -0.002351 1111380.000000 1 0 0
-6.469021 -9.902717 4.621013 12.699047 0.992135 1.198359 0.011533 -0.002708 -1986580.000000 1 0 0
-0.104721 6.480583 -9.177287 11.235280 -1.554639 2.526687 0.010279 -0.002834 -3384550.000000 1 0 0
-17.361021 -2.768517 4.256913 18.088423 0.158136 1.333229 0.041056 -0.009833 256235.000000 1 0 0
-8.287421 0.929783 -9.447087 12.601321 -0.111725 2.418390 0.008966 -0.004531 980306.000000 1 0 0
-9.980721 -6.026417 -12.051087 16.767862 0.543213 2.372729 0.010456 0.003570 -504546.000000 1 0 0
2.193279 9.481683 6.411213 11.654031 1.343477 0.988278 -0.004437 0.005022 100488.000000 1 0 0
-11.367521 1.651483 -1.144887 11.543773 -0.144271 1.670138 0.000563 -0.000966 -2287370.000000 1 0 0
-5.942721 -5.390117 -3.104487 8.602740 0.736676 1.939999 0.018086 -0.006201 627182.000000 1 0 0
-6.981421 -8.317617 1.292813 10.935921 0.872516 1.452302 0.013909 -0.004140 -15650.500000 1 0 0
-0.165721 10.895083 -7.804887 13.403229 -1.555587 2.192368 0.012679 0.000350 -113522.000000 1 0 0
-3.025621 9.355683 -4.222487 10.701055 -1.258013 1.976414 0.007333 -0.001506 54413.500000 1 0 0
3.454479 -4.733717 9.366013 11.048245 -0.940375 0.559091 -0.002163 -0.001367 -1180290.000000 1 0 0
-8.993321 1.576483 -0.462487 9.142155 -0.173532 1.621406 0.001286 -0.000438 -2047690.000000 1 0 0
2.499879 3.564083 -10.418587 11.291547 0.959125 2.745794 0.002823 -0.002849 -1347820.000000 1 0 0
-13.665521 0.468383 1.143213 13.721253 -0.034261 1.487383 0.003122 -0.003722 248040.000000 1 0 0
9.475479 -12.493517 -5.030287 16.467437 -0.921921 1.881227 0.026585 -0.007584 -1024250.000000 1 0 0
-4.753321 9.279183 -8.287787 13.318585 -1.097392 2.242439 0.000830 -0.001894 -605335.000000 1 0 0
-2.201621 7.201383 8.337613 11.234894 -1.274098 0.734572 -0.001335 0.000770 -1330760.000000 1 0 0
-10.836221 -1.262217 -4.414487 11.768796 0.115959 1.955302 0.003223 -0.001891 -2726680.000000 1 0 0
2.672779 -7.177117 9.690613 12.351629 -1.214304 0.668808 -0.000916 -0.000581 -1211590.000000 1 0 0
-16.120421 -6.426717 3.509213 17.705514 0.379359 1.371276 0.018550 -0.009349 -716780.000000 1 0 0
-10.791221 -0.159117 6.186713 12.439903 0.014744 1.050280 0.000736 -0.000818 -1679690.000000 1 0 0
-8.298221 9.857983 9.362113 15.927632 -0.871096 0.942471 0.012668 -0.011471 196660.000000 1 0 0
0.120179 -6.044317 -3.779887 7.129920 -1.550916 2.129567 0.002377 -0.002371 166350.000000 1 0 0
4.961579 1.531983 -2.976787 5.985441 0.299482 2.091324 -0.000170 0.000507 -432435.000000 1 0 0
0.346679 5.308383 3.763713 6.516491 1.505581 0.955051 -0.001025 0.002248 -3159730.000000 1 0 0
5.949979 -11.303517 -1.508287 12.862608 -1.086266 1.688328 0.001645 -0.007013 -1592980.000000 1 0 0
6.343879 -13.437517 5.211013 15.746947 -1.129715 1.233516 0.009637 -0.007413 437753.000000 1 0 0
8.145179 -8.228817 -5.957987 13.021328 -0.790506 2.046041 0.002003 -0.006293 513727.000000 1 0 0
-13.184421 -1.366217 -4.588287 14.026684 0.103255 1.904041 0.003501 -0.001209 -3139760.000000 1 0 0
-6.906321 -1.675417 -7.160687 10.088594 0.237994 2.359983 0.011190 -0.005313 160489.000000 1 0 0
-5.735521 12.878483 -4.429987 14.777560 -1.151810 1.875256 0.001815 0.001343 906116.000000 1 0 0
-4.347121 6.781783 -6.894887 10.603278 -1.000774 2.278723 0.007778 -0.002281 -3882070.000000 1 0 0
-9.491621 -3.720617 -8.189487 13.076756 0.373582 2.247547 0.007728 -0.001664 301918.000000 1 0 0
-2.131821 -6.335317 9.213913 11.383194 1.246200 0.627613 -0.000853 0.000765 -429881.000000 1 0 0
7.520379 -5.964617 10.120413 13.948316 -0.670536 0.758941 0.007344 -0.003421 54767.100000 1 0 0
9.519179 -5.006517 12.188013 16.255081 -0.484184 0.723041 0.021730 -0.003651 -63801.200000 1 0 0
-6.438621 2.706683 -8.985987 11.381121 -0.397953 2.480875 0.008612 -0.004953 -369369.000000 1 0 0
7.358779 5.497983 8.799513 12.720491 0.641663 0.806874 -0.003649 -0.002660 -39752.700000 1 0 0
12.761979 3.390983 11.095813 17.247723 0.259709 0.871969 0.033716 -0.004816 613896.000000 1 0 0
-7.466921 -7.290017 -3.846787 11.121916 0.773411 1.923967 0.018741 -0.009774 -995273.000000 1 0 0
2.225679 1.294683 -5.829287 6.372632 0.526857 2.725655 0.006216 -0.002374 -262104.000000 1 0 0
12.791679 6.853583 -7.057987 16.137343 0.491864 2.023468 0.020314 -0.003752 -1038630.000000 1 0 0
0.810479 -7.852017 1.085013 7.967955 -1.467941 1.434200 0.003082 -0.001603 646917.000000 1 0 0
-10.275621 -6.172117 -8.612387 14.759967 0.540902 2.193824 0.011260 0.000041 -400567.000000 1 0 0
-6.692221 0.206883 3.076713 7.368499 -0.030904 1.140050 0.001913 -0.002466 1217080.000000 1 0 0
10.814779 -7.924617 1.369213 13.477157 -0.632375 1.469026 0.009495 -0.008947 41161.100000 1 0 0
6.243779 1.134483 10.515813 12.282270 0.179737 0.542969 0.002427 -0.003220 -964791.000000 1 0 0
-12.994721 5.360283 1.949813 14.191447 -0.391233 1.432967 0.001269 0.001802 -379047.000000 1 0 0
2.007079 7.351883 3.517513 8.393536 1.304288 1.138371 -0.002296 0.002123 34150.600000 1 0 0
10.163179 -9.428717 -0.769087 13.884611 -0.747928 1.626216 0.006318 -0.008130 779499.000000 1 0 0
6.808879 -11.694117 -9.097687 16.305862 -1.043532 2.162697 0.001348 -0.004586 -104722.000000 1 0 0
10.287979 3.599383 11.833413 16.088124 0.336553 0.744337 0.020428 -0.004622 -516157.000000 1 0 0
-11.015321 -3.169617 -1.943687 11.625906 0.280177 1.738771 0.001925 -0.001601 -1192950.000000 1 0 0
12.452179 1.049083 6.880413 14.265253 0.084050 1.067495 0.011592 -0.005924 -63861.800000 1 0 0
-9.563721 9.146983 3.044813 13.579504 -0.763129 1.344652 -0.001906 -0.000630 1978360.000000 1 0 0
-6.657021 7.543883 -8.858987 13.405511 -0.847768 2.292743 0.000906 -0.001272 -403010.000000 1 0 0
8.466779 5.458983 11.993013 15.662669 0.572678 0.698657 0.014460 -0.003526 -1091910.000000 1 0 0
1.276779 4.841283 -2.689187 5.683301 1.312940 2.063686 0.007466 -0.001784 683438.000000 1 0 0
1.375979 0.581583 9.493713 9.610523 0.399894 0.156071 0.000762 -0.002630 850197.000000 1 0 0
2.463679 12.611183 -3.932387 13.437831 1.377869 1.867778 0.008310 -0.003576 341437.000000 1 0 0
2.067579 0.742683 12.949213 13.134252 0.344851 0.168057 -0.003012 -0.006050 223728.000000 1 0 0
-12.358421 -1.752617 0.834513 12.509942 0.140876 1.504039 0.000942 -0.002039 -90583.800000 1 0 0
3.298579 8.723383 -1.257087 9.410542 1.209284 1.704780 0.008917 -0.002470 352769.000000 1 0 0
3.684279 -2.917117 -5.831687 7.489463 -0.669705 2.463311 -0.000750 -0.002838 -1394880.000000 1 0 0
-7.693721 -7.162517 9.337813 14.060219 0.749657 0.844467 0.006634 -0.003871 -196050.000000 1 0 0
-7.168021 10.858983 -3.526987 13.481011 -0.987353 1.835503 0.007602 0.001489 662517.000000 1 0 0
0.295579 0.462683 2.464613 2.525027 1.002307 0.219189 0.003068 -0.000400 -2769120.000000 1 0 0
-7.138621 4.533683 -2.012487 8.692772 -0.565824 1.804429 0.007411 -0.001547 -703379.000000 1 0 0
-7.096921 -4.004317 -5.931087 10.078622 0.513705 2.199976 0.008977 -0.005470 -27579.000000 1 0 0
2.887679 -6.078917 13.436813 15.027970 -1.127322 0.464333 0.000236 -0.006092 -1300360.000000 1 0 0
-5.549421 -0.508917 -11.507387 12.785735 0.091451 2.690606 0.010879 -0.007373 -741435.000000 1 0 0
11.820079 2.472283 -0.700587 12.096168 0.206187 1.628747 0.001064 -0.002555 -1758340.000000 1 0 0
6.175379 -10.897717 10.882913 16.593172 -1.055247 0.855466 0.004178 0.000344 829679.000000 1 0 0
-8.105721 6.250083 -10.475887 14.646175 -0.656850 2.367799 0.002469 -0.002041 326769.000000 1 0 0
2.951179 7.946683 11.166813 14.019877 1.215210 0.649314 -0.003075 0.001641 864926.000000 1 0 0
-6.214421 -10.120717 -0.413887 11.883570 1.020125 1.605632 0.017714 -0.002741 -181089.000000 1 0 0
11.237279 4.303283 6.024613 13.456993 0.365720 1.106612 0.005052 -0.004344 -517096.000000 1 0 0
-7.843021 10.663683 1.416713 13.312933 -0.936647 1.464178 -0.000009 0.000547 615367.000000 1 0 0
4.275379 -2.836317 -3.525487 6.225161 -0.585743 2.172841 0.000083 -0.003507 -3662160.000000 1 0 0
6.324779 6.576283 6.181513 11.020954 0.804890 0.975339 -0.000277 0.000557 -4160540.000000 1 0 0
-0.281421 10.377183 -10.126687 14.502238 -1.543684 2.343794 0.009840 -0.002523 244818.000000 1 0 0
14.037179 6.527583 -2.483587 15.678646 0.435275 1.729872 0.012387 -0.000534 674759.000000 1 0 0
1.436379 9.436583 -6.263687 11.416919 1.419742 2.151523 0.007745 -0.001455 75886.900000 1 0 0
0.654079 7.386283 7.162513 10.309539 1.482473 0.802729 -0.005279 0.005076 -197656.000000 1 0 0
12.294179 6.255883 1.936913 13.929628 0.470702 1.431294 0.003592 -0.002332 -2623240.000000 1 0 0
-6.803921 6.606883 -3.276587 10.033955 -0.770707 1.903447 0.004715 -0.004127 452753.000000 1 0 0
1.161179 9.879483 11.146013 14.939415 1.453799 0.728640 -0.007258 0.002457 -615025.000000 1 0 0
-3.706921 13.481083 -10.934687 17.749598 -1.302456 2.234518 0.008786 -0.001945 -152365.000000 1 0 0
-10.120721 -5.572017 -2.329387 11.785686 0.503270 1.769752 0.011499 -0.002933 -544811.000000 1 0 0
-3.915821 3.913483 -12.506687 13.677215 -0.785100 2.724863 0.005079 -0.004396 -23633.400000 1 0 0
-3.251421 8.487883 2.413413 9.404278 -1.204973 1.311263 0.001760 0.002541 -1211390.000000 1 0 0
7.080179 8.945683 7.061313 13.417016 0.901282 1.016559 0.007909 0.000930 -1523280.000000 1 0 0
-1.369421 -2.279317 -8.194187 8.614830 1.029787 2.827808 0.010112 -0.008658 -1033180.000000 1 0 0
0.873179 -1.264317 4.769713 5.011098 -0.966385 0.311647 0.003652 -0.001736 1163790.000000 1 0 0
2.675779 -8.831317 -5.985287 10.998892 -1.276601 2.146198 -0.003988 -0.000861 383995.000000 1 0 0
5.316879 3.941283 8.760813 10.979743 0.637895 0.646981 -0.000459 -0.001530 1180130.000000 1 0 0
6.133979 -7.515317 -2.869287 10.116250 -0.886257 1.858375 0.000944 -0.005716 728102.000000 1 0 0
1.752679 2.281183 -8.310087 8.793931 0.915673 2.808329 0.005145 -0.004377 168767.000000 1 0 0
-5.418921 10.938983 -0.669987 12.225994 -1.110854 1.625624 0.001355 0.001765 433880.000000 1 0 0
-5.505421 3.261483 -3.526387 7.306321 -0.534822 2.074473 0.008994 -0.000843 422715.000000 1 0 0
2.030379 13.724283 -6.383087 15.271613 1.423921 2.002007 0.003642 -0.001936 416013.000000 1 0 0
-5.284421 -2.622717 2.536713 6.421734 0.460692 1.164707 0.000652 -0.001530 1410150.000000 1 0 0
10.432279 -3.423617 -1.807487 11.127471 -0.317101 1.733954 0.003574 -0.002983 46250.300000 1 0 0
2.376679 -3.303517 7.086313 8.171760 -0.947143 0.521303 -0.000434 -0.000512 -1860270.000000 1 0 0
-2.949821 9.864983 -11.740187 15.615739 -1.280239 2.421611 0.006897 -0.000588 -2740080.000000 1 0 0
0.557479 -2.040417 9.285913 9.523774 -1.304087 0.223965 0.001093 -0.001573 439124.000000 1 0 0
9.490279 2.636783 4.991213 11.042202 0.271005 1.101776 0.000411 -0.002394 673644.000000 1 0 0
13.380679 2.048683 -4.987787 14.426285 0.151928 1.923827 0.016659 -0.003102 -843056.000000 1 0 0
-6.533721 3.789983 7.419213 10.587644 -0.525632 0.794358 -0.000549 -0.002229 825316.000000 1 0 0
10.608379 0.001083 1.724213 10.747587 0.000102 1.409672 0.001235 -0.002931 1297900.000000 1 0 0
15.301079 6.614683 -4.736187 17.329412 0.408039 1.847622 0.020003 -0.002210 205194.000000 1 0 0
7.951979 -4.868317 -9.227787 13.118176 -0.549352 2.351015 0.005029 -0.001751 670584.000000 1 0 0
4.467279 5.597183 -2.252287 7.507185 0.897197 1.875507 0.003838 -0.000926 101880.000000 1 0 0
-1.705721 -10.542517 1.490813 10.783167 1.410392 1.432098 0.009440 -0.003054 -950641.000000 1 0 0
-2.954621 12.250583 -12.940487 18.062745 -1.334134 2.369452 0.014769 -0.003915 -403938.000000 1 0 0
8.234379 4.187983 -9.723187 13.412105 0.470502 2.381767 0.002090 -0.000224 -162738.000000 1 0 0
4.078379 7.684383 -8.989487 12.509748 1.082863 2.372581 0.005337 -0.001025 -773551.000000 1 0 0
-1.752821 -5.199217 -2.415487 5.994899 1.245631 1.985505 0.011412 -0.006446 -1121470.000000 1 0 0
-3.250821 -9.009217 7.262213 12.019716 1.224504 0.922045 0.005178 0.000524 -1692820.000000 1 0 0
1.121379 7.281383 -1.527887 7.523992 1.417990 1.775287 0.006224 -0.001928 1749530.000000 1 0 0
0.472679 -0.800217 -2.265687 2.448900 -1.037251 2.752321 0.008224 -0.002494 -2577770.000000 1 0 0
4.243379 -6.718217 7.732313 11.087352 -1.007449 0.799034 0.000475 0.000769 -919044.000000 1 0 0
-13.910921 3.831083 6.031213 15.638620 -0.268739 1.174872 0.003828 -0.001196 -345156.000000 1 0 0
4.330279 6.317383 12.616413 14.759218 0.969899 0.545601 0.002319 -0.002727 -1708250.000000 1 0 0
8.343579 10.153883 -7.176087 14.973739 0.882955 2.070590 0.019603 -0.001709 486155.000000 1 0 0
12.499979 5.308583 9.456013 16.548315 0.401606 0.962563 0.026947 -0.006738 859828.000000 1 0 0
7.620479 4.085783 0.327413 8.652891 0.492154 1.532949 -0.001306 0.001042 -1482060.000000 1 0 0
-10.961021 -7.574017 -1.098587 13.368493 0.604657 1.653066 0.014181 -0.004565 -1842130.000000 1 0 0
10.547879 6.808483 0.210113 12.556168 0.573194 1.554062 -0.002675 -0.001628 -833182.000000 1 0 0
14.642479 3.610483 3.977813 15.596820 0.241753 1.312907 0.009836 -0.005162 349562.000000 1 0 0
2.217079 5.628883 8.134913 10.137878 1.195581 0.639444 -0.006404 0.002538 -225928.000000 1 0 0
4.304279 0.250483 11.848013 12.608132 0.058128 0.349009 -0.000133 -0.003547 -3228150.000000 1 0 0
-1.349721 -1.800517 -0.674487 2.349158 0.927533 1.862014 0.009763 -0.004859 -995135.000000 1 0 0
3.074779 -5.350817 -9.415887 11.258083 -1.049235 2.561418 -0.003290 -0.000791 -419754.000000 1 0 0
-3.970721 -5.465517 -1.299587 6.879493 0.942503 1.760846 0.010668 -0.004530 -700608.000000 1 0 0
-1.163221 -8.643317 8.640413 12.276675 1.437020 0.790054 0.002954 -0.001154 -850217.000000 1 0 0
3.959179 8.609983 -5.978187 11.204714 1.139793 2.133579 0.007431 -0.000086 -107384.000000 1 0 0
-14.311121 -1.727017 -2.604787 14.648402 0.120096 1.749568 0.002290 -0.004858 -847140.000000 1 0 0
8.823779 -10.509917 -6.618787 15.235675 -0.872390 2.020198 0.002326 -0.005244 65296.000000 1 0 0
14.799779 6.100683 1.523413 16.080192 0.390992 1.475916 -0.002871 -0.002220 -1269390.000000 1 0 0
-5.852621 0.268083 -8.478887 10.306142 -0.045774 2.536945 0.014127 -0.008717 -907943.000000 1 0 0
-8.004221 -4.553117 -13.073487 15.991075 0.517192 2.527938 0.007711 -0.005883 882041.000000 1 0 0
0.882679 -10.641817 12.117713 16.151358 -1.488041 0.722342 0.005284 -0.003481 26162.200000 1 0 0
0.247779 11.804383 3.254213 12.247234 1.549809 1.301856 0.001011 0.000955 -1605900.000000 1 0 0
5.180379 -13.149117 -3.623987 14.590027 -1.195498 1.821812 0.006416 -0.006107 694717.000000 1 0 0
-7.668821 1.406083 -7.061487 10.519148 -0.181336 2.306755 0.005207 -0.003316 639302.000000 1 0 0
1.473479 2.739183 3.978713 5.050190 1.077270 0.663512 -0.001495 -0.000287 -1828860.000000 1 0 0
17.318779 5.426683 2.111913 18.271540 0.303651 1.454953 0.007847 -0.008067 317505.000000 1 0 0
2.583479 -8.121017 -3.405987 9.177474 -1.262797 1.951016 -0.002399 -0.002763 289615.000000 1 0 0
-0.441721 -9.442417 -0.591087 9.471206 1.524050 1.633246 0.007017 -0.002508 -483001.000000 1 0 0
0.762879 11.801983 -5.557787 13.067432 1.506246 2.010107 0.006550 -0.000728 -575689.000000 1 0 0
6.082979 -5.000117 7.953113 11.191775 -0.688003 0.780415 0.002696 -0.001167 -1130430.000000 1 0 0
-6.030921 -2.154517 -9.489987 11.448747 0.343115 2.547954 0.014907 -0.007321 27526.700000 1 0 0
2.167979 -1.145517 11.119613 11.386753 -0.486093 0.217039 -0.006064 -0.002749 -775119.000000 1 0 0
17.913679 2.356783 -5.695387 18.944439 0.130812 1.876156 0.047628 -0.009404 -1114140.000000 1 0 0
-8.921621 4.871883 7.822513 12.826623 -0.499826 0.914906 0.005102 -0.007843 -1042970.000000 1 0 0
11.256379 -7.169717 -4.867387 14.205716 -0.567144 1.920517 0.017508 -0.011383 128877.000000 1 0 0
10.763079 0.473483 8.906513 13.978342 0.043963 0.879982 0.007972 -0.004157 200923.000000 1 0 0
-8.573321 -7.422117 -1.506487 11.439369 0.713551 1.702873 0.014496 -0.005879 -2187020.000000 1 0 0
10.228779 -10.454217 -3.196787 14.971240 -0.796297 1.785982 0.015392 -0.009121 364887.000000 1 0 0
7.675079 -13.881217 -3.711387 16.290164 -1.065721 1.800645 0.015517 -0.011213 -104911.000000 1 0 0
1.716579 -1.177017 -11.742887 11.925913 -0.601048 2.966171 0.005571 -0.006205 266550.000000 1 0 0
-11.882721 -2.629817 -6.304787 13.706397 0.217804 2.048779 0.007522 -0.002331 199025.000000 1 0 0
2.713879 -12.149317 -6.381687 13.989174 -1.351027 2.044503 0.000152 -0.000487 -228682.000000 1 0 0
-5.531921 1.480183 1.114813 5.834029 -0.261447 1.378526 0.005508 -0.001636 618437.000000 1 0 0
0.045879 6.779583 -4.062087 7.903505 1.564029 2.110591 0.009360 -0.003254 1095070.000000 1 0 0
5.556779 -11.757517 3.583013 13.489070 -1.129296 1.301946 0.003547 -0.009098 -1577640.000000 1 0 0
-4.425321 -9.228917 1.092713 10.293221 1.123678 1.464437 0.010724 -0.002854 -538922.000000 1 0 0
7.081879 -6.172317 -4.742387 10.523343 -0.716881 2.038294 0.000065 -0.004915 -458241.000000 1 0 0
-7.004421 -6.032717 2.209813 9.504676 0.711002 1.336152 0.008881 -0.002652 120209.000000 1 0 0
-6.144221 -0.714617 7.063213 9.388882 0.115787 0.719257 0.000072 0.000885 -1033820.000000 1 0 0
4.208279 -5.051117 3.258013 7.337442 -0.876173 1.110710 0.003081 -0.001158 -429572.000000 1 0 0
-2.546221 10.508583 -8.811487 13.948328 -1.333079 2.254571 0.001833 -0.000057 255447.000000 1 0 0
-2.383621 -4.895417 2.719213 6.086122 1.117677 1.107623 0.002582 0.000267 -797491.000000 1 0 0
15.254179 5.073983 6.105013 17.196118 0.321117 1.207858 0.027444 -0.011510 1151180.000000 1 0 0
6.876279 0.202583 0.091313 6.879869 0.029453 1.557523 0.004603 -0.001428 3007370.000000 1 0 0
-9.759421 9.321183 0.361213 13.500415 -0.762434 1.544037 0.000326 0.000863 -1725200.000000 1 0 0
7.179179 10.436383 -2.508687 12.913257 0.968238 1.766312 0.003565 -0.000582 -777452.000000 1 0 0
1.555179 -4.317617 -5.427187 7.107374 -1.225069 2.439666 0.001876 -0.003347 -26035.400000 1 0 0
0.940879 -8.227617 -7.736187 11.332587 -1.456935 2.322179 -0.002783 0.000690 -1684580.000000 1 0 0
-10.477821 0.183683 -10.518887 14.848079 -0.017529 2.358074 0.011958 -0.004188 -3033630.000000 1 0 0
5.938679 -2.518017 0.570313 6.475614 -0.401026 1.482611 0.004647 -0.001364 109104.000000 1 0 0
-3.321721 5.281183 -1.256087 6.364155 -1.009345 1.769470 0.006529 -0.002493 281210.000000 1 0 0
-0.430521 4.475283 -5.193587 6.869268 -1.474892 2.428070 0.008959 -0.003680 -881977.000000 1 0 0
3.998879 -9.810017 10.100013 14.636863 -1.183728 0.809253 0.002292 -0.001695 -1171260.000000 1 0 0
7.294479 -13.415117 -0.705987 15.286374 -1.072764 1.616997 0.015006 -0.011783 863910.000000 1 0 0
12.979979 -0.077017 0.446113 12.987872 -0.005933 1.536441 0.004753 -0.005945 342174.000000 1 0 0
9.300579 2.419683 -0.733087 9.638104 0.254522 1.646931 -0.002450 -0.000019 -1179880.000000 1 0 0
-0.736421 -5.785917 4.458113 7.341249 1.444199 0.918178 0.000498 0.000584 -137534.000000 1 0 0
11.545479 -3.733017 3.359213 12.590386 -0.312722 1.300717 0.012618 -0.007968 -2828250.000000 1 0 0
1.696779 -8.184417 11.771013 14.436776 -1.366374 0.617464 -0.000689 -0.002823 290648.000000 1 0 0
9.386179 -5.892817 -5.897987 12.554358 -0.560624 2.059856 0.000834 -0.007581 -1813520.000000 1 0 0
3.234079 6.329583 -0.098287 7.108625 1.098430 1.584623 0.003448 0.000857 -178195.000000 1 0 0
6.367779 -1.326617 11.415713 13.138761 -0.205395 0.517906 0.003600 -0.003461 444864.000000 1 0 0
-4.830621 -7.553317 -3.778687 9.729644 1.001812 1.969657 0.017061 -0.007094 543100.000000 1 0 0
-3.413521 -8.515017 -5.714087 10.807795 1.189530 2.127865 0.012977 -0.003400 264203.000000 1 0 0
9.829579 5.295983 2.235713 11.387119 0.494188 1.373175 0.000527 -0.002472 -295501.000000 1 0 0
8.876879 -1.469817 0.259813 9.001492 -0.164089 1.541929 0.001896 -0.001460 745091.000000 1 0 0
-3.942421 9.638283 9.120113 13.842530 -1.182523 0.851511 0.001718 -0.001887 249295.000000 1 0 0
-14.413521 -3.595817 -6.169287 16.085384 0.244485 1.964416 0.015759 -0.000937 -871651.000000 1 0 0
10.648779 6.184283 -6.063087 13.725993 0.526145 2.028315 0.003186 -0.000935 -1377020.000000 1 0 0
-1.755721 4.516183 2.597113 5.497586 -1.200015 1.078774 0.001358 -0.000153 395061.000000 1 0 0
6.926879 -3.706017 2.721813 8.314114 -0.491269 1.237275 0.005579 -0.002925 -1899350.000000 1 0 0
8.324079 -11.108617 -1.537087 13.966185 -0.927721 1.681077 0.012022 -0.009655 -2111460.000000 1 0 0
4.637479 0.466783 1.857713 5.017489 0.100316 1.191521 0.003938 0.000163 370754.000000 1 0 0
-10.705621 2.255283 3.848413 11.597711 -0.207627 1.232559 -0.003344 -0.001858 278322.000000 1 0 0
-0.907621 -3.064417 4.336113 5.386679 1.282847 0.635172 0.002811 -0.000825 400588.000000 1 0 0
8.542679 -8.639217 -8.505687 14.831054 -0.791017 2.181575 0.011423 -0.005722 -593202.000000 1 0 0
12.079179 -4.864917 1.061013 13.065211 -0.382877 1.489498 0.010075 -0.008021 -99158.500000 1 0 0
2.883379 4.847283 3.471213 6.622639 1.034176 1.019087 -0.002168 0.001324 -1645640.000000 1 0 0
6.150779 7.416883 1.933613 9.827568 0.878446 1.372750 0.002353 -0.002160 -241678.000000 1 0 0
-1.659321 -1.303217 -10.293587 10.507600 0.665770 2.939420 0.012732 -0.006132 1225550.000000 1 0 0
-1.034321 -8.571317 5.958913 10.490279 1.450705 0.966672 -0.000833 -0.000806 95692.200000 1 0 0
-4.211321 -0.259317 2.173913 4.746405 0.061499 1.095038 0.003672 -0.001210 92201.900000 1 0 0
-8.519921 6.063983 -7.946887 13.134456 -0.618563 2.220614 0.000717 -0.001589 -935540.000000 1 0 0
6.484479 11.173383 -9.463587 16.014132 1.044950 2.203035 0.010454 -0.002854 -32142.600000 1 0 0
-11.146521 -5.749417 3.108313 12.921391 0.476211 1.327858 0.009325 -0.000875 843054.000000 1 0 0
1.595779 -6.278817 3.068913 7.168563 -1.321913 1.128399 0.001339 -0.001733 199799.000000 1 0 0
10.224079 2.245683 7.207713 12.709289 0.216213 0.967789 0.002676 -0.002563 -2278690.000000 1 0 0
-4.042221 -2.556417 -10.714087 11.733136 0.563924 2.721737 0.012340 -0.010859 -2973600.000000 1 0 0
-8.322421 11.852683 5.944613 15.655261 -0.958626 1.181303 0.008163 -0.004758 177171.000000 1 0 0
6.910779 5.955083 -3.010987 9.606660 0.711253 1.889596 0.001219 0.000631 -2949770.000000 1 0 0
3.903579 -9.911517 -2.340987 10.906710 -1.195609 1.787117 0.000714 -0.004962 -703604.000000 1 0 0
8.563079 -12.849417 -7.381587 17.114955 -0.982966 2.016723 0.015712 -0.005373 407306.000000 1 0 0
-1.155521 9.523783 3.584313 10.241336 -1.450056 1.213241 -0.001157 0.003255 116244.000000 1 0 0
0.693779 -13.272117 4.720913 14.103810 -1.518570 1.229482 0.012705 -0.001508 -1010300.000000 1 0 0
-11.431421 -7.020817 -5.101287 14.352435 0.550772 1.934170 0.010750 -0.005419 24607.800000 1 0 0
3.698779 10.325683 -3.377987 11.476562 1.226825 1.869559 0.012841 -0.004418 -983474.000000 1 0 0
11.556179 -8.073517 -7.361887 15.903595 -0.609807 2.052068 0.035395 -0.011120 314349.000000 1 0 0
11.791279 -4.907417 -5.799687 14.026881 -0.394385 1.997058 0.011634 -0.005692 1000970.000000 1 0 0
1.285179 -10.348417 -2.792987 10.795472 -1.447238 1.832491 0.000513 -0.001601 -702494.000000 1 0 0
2.376379 -12.087917 -3.983887 12.947443 -1.376680 1.883568 0.002604 -0.002349 -1041420.000000 1 0 0
-7.673521 -5.820317 7.199313 12.024522 0.648915 0.928895 0.006975 -0.000187 -1818930.000000 1 0 0
-7.211221 -0.776017 9.459813 11.920234 0.107200 0.654105 0.002015 0.001554 230932.000000 1 0 0
16.220679 2.626383 -7.526387 18.073595 0.160523 2.000311 0.054946 -0.008597 1161360.000000 1 0 0
-2.054621 6.252583 -5.556687 8.613537 -1.253309 2.271965 0.007207 -0.001685 -833333.000000 1 0 0
7.662079 1.268183 8.357713 11.409081 0.164027 0.748737 0.002577 -0.002647 -172240.000000 1 0 0
7.941179 8.270183 -3.779787 12.072491 0.805690 1.889242 0.001412 0.003213 -939417.000000 1 0 0
8.064279 0.557283 3.998313 9.018297 0.068995 1.111457 0.002579 -0.001704 444089.000000 1 0 0
-6.936621 5.958383 5.175713 10.507475 -0.709681 1.055751 0.005585 -0.004323 -215019.000000 1 0 0
-6.074321 -2.199617 -4.634487 7.950733 0.347429 2.193090 0.012480 -0.006953 -1290440.000000 1 0 0
-15.125421 -2.239017 3.121113 15.605540 0.146963 1.369438 0.014132 -0.004685 -1012810.000000 1 0 0
1.103279 1.178783 -10.491187 10.614695 0.818472 2.988895 0.007978 -0.006998 491851.000000 1 0 0
1.449379 -9.297917 9.454313 13.339266 -1.416159 0.783060 -0.000206 -0.005587 -1156410.000000 1 0 0
-0.058321 -6.811817 -1.192887 6.915724 1.562235 1.744152 0.003908 -0.002839 427622.000000 1 0 0
-0.450821 -10.272017 -8.402387 13.278467 1.526936 2.255938 0.001277 -0.001130 -308171.000000 1 0 0
-4.329521 6.463283 3.747913 8.635139 -0.980583 1.121835 0.000542 0.001567 -609955.000000 1 0 0
10.647079 -1.152917 -8.599487 13.734653 -0.107865 2.247358 0.018391 -0.001797 312858.000000 1 0 0
3.000379 -1.020517 6.325513 7.075016 -0.327855 0.464460 0.002454 -0.000703 495664.000000 1 0 0
2.013479 -12.304017 6.779413 14.191666 -1.408590 1.072757 0.006240 -0.000386 -362946.000000 1 0 0
2.952779 -4.923317 -1.369487 5.901987 -1.030558 1.804969 0.006874 -0.003936 -960960.000000 1 0 0
-1.004721 9.445283 -1.682687 9.646464 -1.464822 1.746129 0.005856 -0.002735 -233251.000000 1 0 0
4.572979 -2.548617 2.539713 5.818740 -0.508447 1.119123 0.005873 -0.001435 -1815560.000000 1 0 0
17.595079 6.545983 -2.739887 18.972182 0.356169 1.715719 -0.003737 -0.001115 652088.000000 1 0 0
-7.205921 3.439083 -5.594487 9.749403 -0.445289 2.181969 0.007959 -0.004007 -1321500.000000 1 0 0
-13.853921 -5.950317 2.364113 15.261927 0.405680 1.415267 0.005341 -0.003486 801957.000000 1 0 0
6.769579 -5.973617 3.663713 9.743413 -0.723017 1.185300 0.004917 -0.003856 607162.000000 1 0 0
-4.559121 1.948483 3.457813 6.044720 -0.403886 0.961807 0.003034 -0.002320 475056.000000 1 0 0
6.889279 -12.139717 -5.506987 15.005393 -1.054617 1.946579 0.009655 -0.005197 450731.000000 1 0 0
3.026279 -12.280417 3.269613 13.063590 -1.329179 1.317822 0.005442 -0.003966 50975.400000 1 0 0
3.258479 11.254383 -6.084687 13.202357 1.288973 2.049782 0.007575 0.000585 -369453.000000 1 0 0
-5.486221 -8.368017 6.412013 11.884286 0.990482 1.000909 0.007424 0.000245 -102123.000000 1 0 0
-3.953921 6.439583 6.213713 9.783248 -1.020144 0.882609 0.001486 0.000756 428911.000000 1 0 0
4.193679 4.338783 -7.136887 9.345969 0.802403 2.439717 0.003257 0.000181 -2846910.000000 1 0 0
-0.290321 -2.892217 1.500913 3.271383 1.470752 1.094151 0.006190 -0.001151 601909.000000 1 0 0
-13.220521 -0.926617 6.657513 14.831159 0.069975 1.105277 0.010783 0.000009 -773633.000000 1 0 0
-0.559321 -9.328717 -5.912387 11.058668 1.510911 2.134876 0.001509 0.000062 104644.000000 1 0 0
2.113679 -1.745717 -3.950587 4.808566 -0.690344 2.534961 0.004126 -0.003082 -1422450.000000 1 0 0
11.448379 -2.079017 1.101013 11.687598 -0.179642 1.476453 0.006765 -0.005376 1040700.000000 1 0 0
0.458779 -4.254517 -1.860787 4.666254 -1.463378 1.980977 0.006508 -0.004735 -1758430.000000 1 0 0
1.002379 -7.444317 -11.422587 13.671069 -1.436951 2.559893 0.000371 0.000016 316317.000000 1 0 0
-4.487821 4.032583 -10.019087 11.695484 -0.732020 2.599562 0.006000 -0.004841 -342727.000000 1 0 0
-1.039521 5.749383 -2.103687 6.209791 -1.391923 1.916405 0.006862 -0.001859 -963696.000000 1 0 0
-11.397721 1.694783 -3.782887 12.128089 -0.147613 1.888000 0.001209 0.000992 -529835.000000 1 0 0
-1.652321 -11.319817 4.161713 12.173261 1.425853 1.221887 0.014030 -0.002329 46160.700000 1 0 0
-3.602021 -5.346517 -9.580587 11.547616 0.977931 2.549293 0.005032 -0.003078 -504684.000000 1 0 0
-12.753821 -3.683117 -8.312187 15.662622 0.281137 2.130225 0.018003 -0.000967 23963.600000 1 0 0
11.390979 4.371383 0.534213 12.212648 0.366427 1.527040 0.001406 0.000426 -275433.000000 1 0 0
-8.967321 -2.342717 -3.076387 9.765517 0.255539 1.891280 0.006415 -0.002812 -454219.000000 1 0 0
-2.467221 -6.093517 -6.392387 9.169555 1.186079 2.342185 0.008207 -0.005236 -167470.000000 1 0 0
0.004879 2.655983 -1.922587 3.278812 1.568959 2.197363 0.007741 -0.002214 966860.000000 1 0 0
8.084879 6.071383 -5.177387 11.359238 0.644112 2.044052 -0.000147 0.001132 10492.000000 1 0 0
-9.799221 -0.944717 -0.948987 9.890288 0.096110 1.666896 0.002821 -0.002080 -921241.000000 1 0 0
6.155479 0.629383 -8.841087 10.791240 0.101893 2.530957 -0.000538 0.000705 537018.000000 1 0 0
-4.105921 2.529983 7.728313 9.109677 -0.552231 0.557911 -0.001865 -0.000849 -1299500.000000 1 0 0
-10.199021 -3.344317 1.412513 10.825880 0.316858 1.439948 0.003600 -0.001117 3078400.000000 1 0 0
-1.795421 -8.149317 -7.816187 11.433621 1.353945 2.323500 0.003213 -0.004154 -28036.000000 1 0 0
-9.398321 -9.828117 4.252213 14.247864 0.807749 1.267733 0.013436 -0.004578 1610.430000 1 0 0
-1.139621 -10.677517 7.386613 13.033425 1.464468 0.968248 0.009302 -0.001407 13437.100000 1 0 0
9.523379 3.767283 -3.781087 10.917133 0.376692 1.924468 -0.003914 0.001389 -654582.000000 1 0 0
12.895279 -0.841417 2.955313 13.256323 -0.065158 1.345971 0.010288 -0.005751 -661714.000000 1 0 0
6.474679 11.901983 -6.964387 15.234216 1.072571 2.045589 0.007251 0.000013 655620.000000 1 0 0
-11.884121 -0.103117 -6.549187 13.569628 0.008677 2.074458 0.004530 -0.000355 210492.000000 1 0 0
-7.685221 -6.637817 -11.332087 15.216420 0.712401 2.410923 0.015889 -0.007797 -1994360.000000 1 0 0
4.118579 6.078083 6.449813 9.772711 0.975255 0.850002 -0.004192 0.001544 -4112820.000000 1 0 0
-4.332621 -1.655617 -7.353987 8.694469 0.365006 2.578903 0.014736 -0.009697 274063.000000 1 0 0
9.699979 9.178483 0.830113 13.379956 0.757781 1.508715 0.007437 -0.003243 -1380240.000000 1 0 0
-8.879521 3.980583 4.974713 10.928801 -0.421429 1.098207 0.004063 -0.003461 2451830.000000 1 0 0
-7.007821 7.799583 -12.221287 16.102884 -0.838818 2.432496 0.002343 -0.003703 -342421.000000 1 0 0
11.136179 -3.589317 7.128013 13.700594 -0.311798 1.023629 0.015801 -0.006384 629929.000000 1 0 0
11.840679 6.917183 6.436213 15.148397 0.528712 1.131970 0.008739 -0.006450 -372301.000000 1 0 0
-9.971721 -0.845417 -14.930487 17.974131 0.084579 2.551098 0.020626 -0.003155 -246947.000000 1 0 0
1.809179 -12.980517 12.092213 17.832234 -1.432312 0.825609 0.014071 0.001361 153964.000000 1 0 0
2.979779 3.103883 12.961513 13.657013 0.805795 0.320513 -0.002603 -0.006465 -155703.000000 1 0 0
-2.546921 -1.336617 10.896113 11.269367 0.483288 0.258091 0.000792 0.001352 -314809.000000 1 0 0
2.564679 -10.130217 -8.245187 13.310973 -1.322835 2.238810 -0.005098 0.001166 -1195340.000000 1 0 0
13.868379 3.627783 -7.496787 16.176976 0.255854 2.052651 0.021587 -0.006546 -3576250.000000 1 0 0
7.379579 -1.648417 5.025413 9.079111 -0.219768 0.984219 0.002185 -0.001208 155368.000000 1 0 0
-1.118821 8.743483 10.089013 13.397329 -1.443527 0.718093 -0.003991 0.001225 464728.000000 1 0 0
-12.267621 -4.618917 0.958813 13.143372 0.360096 1.497781 0.006585 -0.002841 -49566.400000 1 0 0
-4.984021 4.828883 -5.413387 8.801325 -0.769590 2.233265 0.008892 -0.005416 -360788.000000 1 0 0
-11.240021 0.305783 2.096513 11.437960 -0.027198 1.386460 -0.001733 0.000261 -2220770.000000 1 0 0
-1.168921 2.023283 -4.073687 4.696272 -1.046909 2.620810 0.009931 -0.005088 981435.000000 1 0 0
3.139379 -9.775917 13.296513 16.799450 -1.260065 0.657561 0.000256 -0.000505 -2648910.000000 1 0 0
8.973479 4.735983 -1.536687 10.262274 0.485620 1.721103 -0.002840 -0.000605 -1129250.000000 1 0 0
4.036279 2.308983 3.795413 6.002342 0.519620 0.886249 -0.001998 0.003120 771954.000000 1 0 0
-5.476821 -3.219317 7.469313 9.805621 0.531406 0.704805 0.001589 0.000638 111018.000000 1 0 0
1.807079 -5.786017 7.713613 9.810370 -1.268077 0.666045 -0.002394 -0.000087 74487.800000 1 0 0
-5.972921 -6.252117 -9.700887 12.995074 0.808232 2.413590 0.009746 -0.004844 -86498.200000 1 0 0
-11.765621 -5.792217 5.463213 14.206559 0.457469 1.176070 0.017457 -0.003284 -998956.000000 1 0 0
10.584779 6.219483 4.472013 13.065926 0.531243 1.221470 0.001781 -0.002687 -1061590.000000 1 0 0
1.566879 -3.682317 0.359513 4.017938 -1.168490 1.481199 0.008560 -0.003235 -660594.000000 1 0 0
8.778179 4.365083 6.933713 12.007779 0.461457 0.955213 0.000759 0.001198 -123300.000000 1 0 0
-7.999421 12.053383 3.442013 14.870179 -0.984874 1.337207 0.000496 -0.003313 277566.000000 1 0 0
-6.236021 13.056783 -6.907687 16.033829 -1.125222 2.016197 0.006483 -0.002812 551789.000000 1 0 0
4.467279 -7.046517 -1.005587 8.403642 -1.005773 1.690745 0.004986 -0.005636 -798572.000000 1 0 0
-1.957621 -8.096417 11.138513 13.908657 1.333561 0.642111 0.000270 -0.003410 -624496.000000 1 0 0
11.505979 8.845583 -5.791887 15.626191 0.655413 1.950508 0.022970 -0.002798 159165.000000 1 0 0
-3.273021 -3.068817 -2.002787 4.913396 0.753210 1.990640 0.014215 -0.006474 -1634240.000000 1 0 0
-2.023521 6.009583 4.703213 7.894931 -1.246005 0.932627 -0.002000 0.002299 -886016.000000 1 0 0
0.285579 -11.561817 -5.733087 12.908349 -1.546101 2.031008 -0.000837 -0.005404 -502930.000000 1 0 0
-8.971421 6.248883 -1.657187 11.058082 -0.608395 1.721225 0.002304 0.001691 -412222.000000 1 0 0
3.011279 -0.086817 3.904513 4.931588 -0.028823 0.657152 0.000204 -0.000120 700708.000000 1 0 0
-10.115921 3.887183 -1.045187 10.887353 -0.366868 1.666944 0.002643 0.000142 -88224.000000 1 0 0
6.511479 5.544183 13.570013 16.040031 0.705334 0.562341 0.016695 -0.006098 -1568710.000000 1 0 0
-8.695821 -1.573317 5.599413 10.461647 0.178992 1.006013 0.000107 -0.000645 99900.400000 1 0 0
12.949879 -1.786717 -1.554687 13.164680 -0.137106 1.689168 0.010438 -0.005659 -2445810.000000 1 0 0
5.064279 -5.556317 5.557313 9.348974 -0.831694 0.934239 0.002945 -0.002711 381024.000000 1 0 0
-9.029521 -1.277417 3.073513 9.623436 0.140539 1.245723 0.000590 -0.002643 539078.000000 1 0 0
1.973179 5.488983 5.522413 8.032398 1.225701 0.812732 -0.002246 0.001482 -1260450.000000 1 0 0
9.169379 3.063283 -7.550887 12.266911 0.322420 2.233879 0.001777 0.000330 -1205680.000000 1 0 0
2.291879 -2.419117 -1.531387 3.667422 -0.812400 2.001560 0.006544 -0.002066 -142273.000000 1 0 0
-6.288721 0.310483 -4.001387 7.460262 -0.049331 2.136915 0.008591 -0.000932 -1237480.000000 1 0 0
-3.965021 4.149583 4.834313 7.504066 -0.808139 0.870786 0.000030 -0.001739 887119.000000 1 0 0
-6.483321 1.656683 -12.426187 14.113404 -0.250177 2.647613 0.005744 -0.002784 -2657880.000000 1 0 0
-0.032121 3.179283 6.147713 6.921217 -1.560694 0.477293 -0.001648 -0.000323 1121700.000000 1 0 0
-8.742121 9.395883 -2.130687 13.009501 -0.821426 1.735317 0.001964 0.000378 691887.000000 1 0 0
-1.376021 -3.752617 -6.205487 7.381303 1.219337 2.569377 0.007448 -0.005400 316374.000000 1 0 0
-3.280921 7.109783 -3.038087 8.399013 -1.138449 1.940908 0.009032 -0.001398 1434610.000000 1 0 0
7.069379 -0.388017 -4.301387 8.284239 -0.054832 2.116741 -0.000410 0.000673 -178435.000000 1 0 0
-5.051821 -10.839817 7.078313 13.896944 1.134681 1.036375 0.005884 -0.001391 1172440.000000 1 0 0
9.772379 8.388983 -1.478487 12.963809 0.709372 1.685092 -0.000859 0.002259 339659.000000 1 0 0
13.566479 4.635983 -4.310787 14.970791 0.329282 1.862878 0.007068 -0.004262 745785.000000 1 0 0
4.687079 1.140983 -6.711987 8.265671 0.238787 2.518421 -0.001318 -0.000837 -167097.000000 1 0 0
9.086079 -4.668017 3.560713 10.817851 -0.474591 1.235391 0.006002 -0.005935 -1350240.000000 1 0 0
-8.821221 -3.259717 -0.787387 9.437143 0.353968 1.654328 0.006699 -0.002651 -415221.000000 1 0 0
-8.643121 -4.318017 -10.534587 14.294276 0.463320 2.399387 0.009846 -0.006279 -9240.870000 1 0 0
10.456879 -1.137317 10.734413 15.028887 -0.108337 0.775241 0.019303 -0.003642 1221430.000000 1 0 0
2.104179 -11.585017 9.865413 15.361204 -1.391126 0.873393 0.005590 -0.001899 746016.000000 1 0 0
-6.338621 -10.627617 2.087913 12.549253 1.033007 1.403642 0.016953 -0.004603 -929778.000000 1 0 0
-3.671721 -1.418117 6.583413 7.670327 0.368577 0.538856 0.002392 -0.000666 -3221320.000000 1 0 0
4.823979 -7.574617 3.906513 9.793184 -1.003713 1.160478 0.002379 -0.002131 501394.000000 1 0 0
11.331779 -9.534117 -5.232887 15.706423 -0.699457 1.910459 0.023830 -0.010419 510688.000000 1 0 0
11.364379 1.210483 11.413013 16.151510 0.106115 0.786083 0.023184 -0.002913 695767.000000 1 0 0
-10.237421 -3.491117 4.390813 11.673557 0.328648 1.185177 0.011186 -0.000041 2008800.000000 1 0 0
1.982679 8.778983 8.948913 12.691911 1.348679 0.788249 -0.006675 0.004372 -276501.000000 1 0 0
6.568679 8.740283 4.095913 11.675470 0.926310 1.212357 0.006204 -0.002513 1714430.000000 1 0 0
-4.279221 3.540383 0.335413 5.564040 -0.691192 1.510477 0.006046 -0.002118 -1051410.000000 1 0 0
4.860679 6.860683 4.103313 9.355872 0.954399 1.116777 0.002139 -0.000329 -1294020.000000 1 0 0
-8.320621 13.193783 1.080913 15.635760 -1.008146 1.501610 0.003531 -0.000909 -918112.000000 1 0 0
8.898279 8.298283 -9.134487 15.214458 0.750522 2.214775 0.008609 -0.005043 -84306.200000 1 0 0
7.013479 1.954883 5.991713 9.429268 0.271833 0.882221 -0.000383 -0.001097 -168114.000000 1 0 0
11.693179 -6.175817 3.154113 13.594837 -0.485918 1.336655 0.012941 -0.006473 -174701.000000 1 0 0
11.425379 4.793383 -2.104487 12.567604 0.397235 1.739042 0.001745 -0.001220 -1183610.000000 1 0 0
-4.017721 14.374983 -5.791187 16.009998 -1.298257 1.940912 0.000694 0.005444 1455450.000000 1 0 0
7.244979 -3.075917 7.024813 10.549834 -0.401497 0.842138 0.003487 -0.004438 -702619.000000 1 0 0
-7.999721 -0.450317 0.869013 8.059373 0.056232 1.462760 0.004238 -0.001702 401790.000000 1 0 0
-3.166021 1.137083 10.785813 11.298248 -0.344805 0.302332 -0.000105 0.002426 21660.200000 1 0 0
7.155979 -1.292617 -1.870787 7.508578 -0.178708 1.822602 0.002311 0.000017 -1871520.000000 1 0 0
-7.873921 5.294683 2.861213 9.910541 -0.591984 1.277923 0.001749 -0.000434 871550.000000 1 0 0
9.459979 -2.210217 2.770413 10.102052 -0.229522 1.292994 0.002377 -0.004833 -1812340.000000 1 0 0
0.241779 3.356183 1.558213 3.708159 1.498881 1.137117 0.002679 0.000020 -1767160.000000 1 0 0
-7.539221 -3.153117 3.926813 9.066524 0.396121 1.122855 0.002026 -0.000554 1536770.000000 1 0 0
-2.309921 8.344383 -6.693887 10.944066 -1.300736 2.228935 0.005095 -0.002664 -403538.000000 1 0 0
4.503479 9.806383 7.379813 13.073183 1.140285 0.970969 -0.005414 0.007002 1429750.000000 1 0 0
-11.755921 -3.172817 6.865313 13.978590 0.263610 1.057409 0.015366 -0.005406 -836974.000000 1 0 0
-4.873721 2.177283 -5.665487 7.784051 -0.420139 2.385952 0.011210 -0.006130 -607307.000000 1 0 0
-2.717921 2.828283 -1.951687 4.381250 -0.805294 2.032488 0.008974 -0.001109 1646880.000000 1 0 0
2.429179 5.227783 11.340513 12.721551 1.135812 0.470281 -0.002124 -0.006321 304260.000000 1 0 0
-0.795721 1.716983 4.423613 4.811398 -1.136821 0.404237 0.004383 -0.002148 145729.000000 1 0 0
5.067079 1.538283 7.739513 9.377722 0.294741 0.600048 -0.002977 0.000402 -443468.000000 1 0 0
3.335179 -8.157917 1.873113 9.010194 -1.182703 1.361381 0.003757 -0.003075 937672.000000 1 0 0
5.035579 6.399183 -4.740187 9.422100 0.904088 2.097970 0.004744 0.000196 -2337580.000000 1 0 0
-3.952721 2.985183 -7.950987 9.367684 -0.646835 2.584447 0.015882 -0.013097 756513.000000 1 0 0
-8.870521 -2.284417 -12.933987 15.849060 0.252052 2.525379 0.015017 -0.008387 203956.000000 1 0 0
-7.883721 8.211583 1.099613 11.436446 -0.805765 1.474498 0.002587 -0.000119 -695169.000000 1 0 0
7.397179 0.862583 -6.583287 9.939918 0.116085 2.294691 -0.002905 0.001905 -565719.000000 1 0 0
8.969179 8.873783 5.445113 13.741887 0.780052 1.163376 0.010778 -0.003495 211309.000000 1 0 0
9.513379 -1.050117 -1.422787 9.676335 -0.109938 1.718369 0.000629 -0.002046 1369610.000000 1 0 0
5.470979 0.075883 4.343613 6.986011 0.013869 0.899810 0.000807 0.000433 -952451.000000 1 0 0
-4.228721 -7.314417 -7.907087 11.571724 1.046609 2.323084 0.015045 -0.007709 -94321.000000 1 0 0
-2.153121 7.414783 -0.616687 7.745659 -1.288186 1.650498 0.006261 -0.000631 202861.000000 1 0 0
13.294179 -3.331717 -7.339187 15.546678 -0.245557 2.062439 0.021518 -0.005822 998465.000000 1 0 0
-4.768821 -5.178617 1.552513 7.209024 0.826571 1.353739 0.008990 -0.003062 2278650.000000 1 0 0
-8.924921 1.312783 2.627113 9.395708 -0.146045 1.287411 -0.000811 -0.001370 -1679310.000000 1 0 0
-0.957821 11.233283 10.202413 15.205042 -1.485736 0.835255 -0.005056 0.000357 578306.000000 1 0 0
-8.499621 0.255483 7.355513 11.243327 -0.030049 0.857657 -0.000119 -0.000942 -591255.000000 1 0 0
-6.323021 12.878683 -1.954487 14.479678 -1.114400 1.706191 0.006975 0.003394 1116980.000000 1 0 0
-13.056721 -0.796117 3.314213 13.494286 0.060898 1.322656 0.003002 -0.002931 307849.000000 1 0 0
-6.626521 12.782683 8.762713 16.855055 -1.092539 1.024078 0.014677 -0.010063 -1042810.000000 1 0 0
-8.113821 0.787583 -14.181987 16.357968 -0.096764 2.619901 0.010850 -0.006292 172777.000000 1 0 0
7.433979 2.808683 3.626413 8.735194 0.361238 1.142689 0.000851 -0.001249 -433329.000000 1 0 0
-1.704021 0.578883 -1.991787 2.684400 -0.327484 2.406824 0.010662 -0.004395 651934.000000 1 0 0
-6.289621 9.534383 -10.361887 15.421818 -0.987648 2.307565 0.001516 -0.001496 -102794.000000 1 0 0
-10.153921 13.731383 5.342813 17.894095 -0.934070 1.267592 0.008013 -0.003956 1074300.000000 1 0 0
-5.669521 8.313583 2.421713 10.350063 -0.972281 1.334626 0.000200 0.000974 -1288520.000000 1 0 0
-2.502221 -10.883817 -1.226487 11.234895 1.344820 1.680182 0.009296 -0.003600 1381500.000000 1 0 0
-2.274521 -12.281817 8.905613 15.340353 1.387677 0.951411 0.009027 -0.002127 704270.000000 1 0 0
-14.763521 -6.382817 -1.688487 16.172597 0.408069 1.675391 0.005984 -0.002916 638354.000000 1 0 0
-2.726021 -9.405517 3.318013 10.339447 1.288694 1.244108 0.006571 -0.002660 -1238510.000000 1 0 0
4.704079 -2.611117 7.531413 9.255727 -0.506731 0.620302 -0.001328 0.000802 -566965.000000 1 0 0
-15.127021 -1.232817 -0.160687 15.178024 0.081318 1.581383 0.007500 -0.007259 -1407.260000 1 0 0
5.558279 8.696883 -2.776987 10.688400 1.002114 1.833625 0.005703 -0.001612 -1877590.000000 1 0 0
-5.601721 -5.716017 8.421913 11.618122 0.795497 0.759915 0.004368 -0.001926 -3187000.000000 1 0 0
3.448879 3.596283 6.963213 8.562380 0.806318 0.621109 -0.003641 -0.000128 594003.000000 1 0 0
3.321379 2.378183 9.370713 10.222406 0.621399 0.411095 0.000415 -0.004406 539325.000000 1 0 0
9.952779 -3.061117 5.120313 11.603701 -0.298382 1.113788 0.011213 -0.005684 -475413.000000 1 0 0
6.532379 9.991383 -5.044487 12.959419 0.991753 1.970616 0.003542 0.000780 735628.000000 1 0 0
-4.683921 11.883083 -8.571587 15.382421 -1.195328 2.161846 0.003753 0.001104 -817494.000000 1 0 0
-3.275321 -7.277517 2.065413 8.243538 1.147892 1.317549 0.008580 -0.001807 1073240.000000 1 0 0
-7.494421 -4.115117 1.096713 8.619937 0.502145 1.443221 0.007624 -0.002685 2540310.000000 1 0 0
-2.039121 -3.918717 -10.928487 11.787544 1.090998 2.757454 0.011692 -0.006122 -984662.000000 1 0 0
-5.248421 8.220183 -4.540587 10.757985 -1.002562 2.006520 0.008028 -0.002368 -2682570.000000 1 0 0
-10.983721 -3.127917 -10.269287 15.358523 0.277433 2.303171 0.015432 -0.000339 -495603.000000 1 0 0
4.665579 -11.437317 -7.713687 14.562995 -1.183476 2.129016 -0.000763 -0.001969 -925762.000000 1 0 0
-9.296921 -3.974317 7.237613 12.434266 0.403976 0.949524 0.005465 -0.001536 -915593.000000 1 0 0
-5.804021 -9.662417 -5.068987 12.358948 1.029877 1.993412 0.016834 -0.007921 1934930.000000 1 0 0
4.899179 4.365383 -9.596887 11.625780 0.727845 2.541854 0.000788 0.003359 -30273.100000 1 0 0
-3.452121 -7.225417 -13.978487 16.109683 1.125087 2.621367 0.003815 -0.008219 -187423.000000 1 0 0
0.617679 -0.824917 -8.752187 8.812649 -0.928078 3.024386 0.006605 -0.008101 220212.000000 1 0 0
-7.787421 2.181483 -2.922587 8.599087 -0.273128 1.917577 0.007620 -0.001726 -411481.000000 1 0 0
-2.377321 7.582683 -12.626987 14.919434 -1.266983 2.579881 0.008304 -0.002746 -270766.000000 1 0 0
-9.791521 8.822683 7.591813 15.210169 -0.733397 1.048205 0.006793 -0.008187 -494363.000000 1 0 0
-10.811921 -3.144417 -14.387687 18.269935 0.283022 2.477548 0.026449 0.000977 -248660.000000 1 0 0
-3.177821 4.853483 7.926013 9.822246 -0.991089 0.631835 -0.001176 -0.000759 -484436.000000 1 0 0
8.765179 -2.402517 -3.587287 9.770828 -0.267527 1.946731 -0.000864 0.000637 -4920360.000000 1 0 0
1.900579 -8.658617 -1.049987 8.926720 -1.354722 1.688692 0.002688 -0.002736 -913595.000000 1 0 0
-13.597621 -2.844417 5.130413 14.809022 0.206211 1.217025 0.019982 -0.006473 304212.000000 1 0 0
7.153579 2.762183 -2.031087 7.932759 0.368489 1.829718 -0.002742 0.000373 305313.000000 1 0 0
-11.097021 4.501683 8.961313 14.957077 -0.385381 0.928376 0.007819 -0.006208 -2227630.000000 1 0 0
-1.749021 -2.485817 7.922013 8.485084 0.957659 0.366353 -0.001056 -0.000343 -914924.000000 1 0 0
3.037579 12.028683 -9.998787 15.933983 1.323440 2.249152 0.006398 -0.002702 549686.000000 1 0 0
3.577979 -5.092717 -7.051187 9.405155 -0.958349 2.418428 -0.003795 -0.002387 -304857.000000 1 0 0
8.224779 -13.783717 -9.729087 18.769470 -1.032805 2.115712 0.027727 -0.002475 236780.000000 1 0 0
-6.328221 -5.869717 -0.418787 8.641490 0.747827 1.619278 0.013511 -0.004458 -84774.000000 1 0 0
-1.123921 -3.975617 9.849813 10.681177 1.295283 0.397154 -0.003385 0.001122 2324600.000000 1 0 0
2.821879 3.173683 1.745613 4.591561 0.844008 1.180807 -0.001646 0.001278 -395610.000000 1 0 0
-9.070321 13.391383 7.792213 17.953229 -0.975451 1.121837 0.015170 -0.016576 -83225.100000 1 0 0
3.967079 -11.056817 0.084113 11.747255 -1.226312 1.563636 0.006511 -0.003117 54822.400000 1 0 0
-12.509121 -1.325817 -9.019087 15.478366 0.105594 2.192831 0.015315 -0.002879 270503.000000 1 0 0
-4.287321 0.931383 -13.564987 14.256839 -0.213917 2.828782 0.007778 -0.003408 665845.000000 1 0 0
3.950179 -2.986517 4.892013 6.960962 -0.647359 0.791501 0.002251 -0.000601 66015.700000 1 0 0
1.739679 -1.249117 1.120913 2.417276 -0.622715 1.088619 0.004489 -0.001011 321734.000000 1 0 0
8.119879 -9.015717 7.377913 14.200324 -0.837630 1.024461 0.008785 -0.004887 -1041580.000000 1 0 0
-0.090121 2.233683 -6.519787 6.892393 -1.530472 2.811275 0.008719 -0.005760 -780541.000000 1 0 0
-3.685321 -9.742217 -3.323287 10.933281 1.209150 1.879644 0.015783 -0.004442 500199.000000 1 0 0
-9.511621 2.219083 -5.435587 11.177695 -0.229202 2.078634 0.003483 -0.000929 -1351200.000000 1 0 0
9.013979 -7.640317 5.304713 12.952462 -0.703104 1.148833 0.007826 -0.008695 1463460.000000 1 0 0
-5.525121 -4.285617 4.617713 8.379544 0.659723 0.987151 0.002770 -0.001081 -577225.000000 1 0 0
-0.211121 -12.497417 10.549413 16.356043 1.553905 0.869792 0.012841 -0.000446 -1499050.000000 1 0 0
-14.313721 -8.242617 3.114813 16.808492 0.522476 1.384407 0.010679 -0.008671 -1713640.000000 1 0 0
10.879079 -1.365617 -3.619787 11.546521 -0.124874 1.889669 0.007745 -0.000591 -1128480.000000 1 0 0
-13.584821 3.025683 2.740613 14.184959 -0.219148 1.376368 0.001172 0.000009 -659726.000000 1 0 0
-6.289021 6.167983 1.031913 8.869083 -0.775682 1.454183 0.002313 0.000353 748021.000000 1 0 0
7.070979 -6.939117 -0.393487 9.914884 -0.775987 1.610493 0.004261 -0.006858 -448043.000000 1 0 0
-6.785321 7.784983 10.005513 14.379041 -0.853900 0.801207 0.005696 -0.006092 355726.000000 1 0 0
-12.648221 -5.076617 -1.926187 13.764437 0.381687 1.711197 0.003215 -0.003952 -2378100.000000 1 0 0
-9.512621 -5.597517 0.117313 11.037931 0.531869 1.560168 0.011138 -0.004327 -678164.000000 1 0 0
-1.810021 1.846983 2.178113 3.381079 -0.795505 0.870811 0.005132 -0.001260 -303084.000000 1 0 0
-7.085421 7.457083 7.502813 12.731986 -0.810950 0.940618 0.004556 -0.006872 -214555.000000 1 0 0
5.704079 7.072883 -0.494087 9.099797 0.892122 1.625119 0.006398 -0.002223 -1151520.000000 1 0 0
-0.015621 -3.986217 7.437713 8.438587 1.566878 0.491993 -0.000747 0.000240 -366994.000000 1 0 0
6.602279 0.660283 12.982613 14.579928 0.099677 0.472476 0.010147 -0.006886 108273.000000 1 0 0
5.719179 6.161383 -7.901287 11.536983 0.822602 2.325216 -0.002780 0.000619 -383201.000000 1 0 0
9.923579 5.323383 9.008713 14.421260 0.492371 0.896071 0.001256 -0.003338 -1854500.000000 1 0 0
-1.272921 -4.996717 -8.553687 9.987646 1.321351 2.599104 0.009666 -0.005513 723053.000000 1 0 0
9.933679 -3.640517 -7.984087 13.254320 -0.351282 2.217271 0.012386 -0.005183 606269.000000 1 0 0
8.286779 -5.593417 1.390813 10.094127 -0.593737 1.432572 0.005463 -0.006174 1053460.000000 1 0 0
15.694179 3.260483 -4.981887 16.785625 0.204837 1.872131 0.021867 -0.004116 -207203.000000 1 0 0
-6.883321 3.598383 1.116413 7.846964 -0.481696 1.428039 0.005300 -0.001549 201366.000000 1 0 0
-1.777121 3.825883 0.180413 4.222332 -1.135950 1.528055 0.007003 -0.003186 -543659.000000 1 0 0
-2.576321 10.069983 6.944413 12.500674 -1.320327 0.981804 -0.002004 0.002560 -88373.700000 1 0 0
5.478679 -5.762417 -8.695687 11.782884 -0.810634 2.400888 -0.001725 -0.003036 -930902.000000 1 0 0
-1.181421 -0.927617 6.211813 6.390841 0.665633 0.237255 0.001096 -0.000579 -201126.000000 1 0 0
-5.728421 4.920083 -7.865387 10.903500 -0.709633 2.376565 0.006571 -0.004635 -1953.180000 1 0 0
6.849279 -1.227017 2.511613 7.397730 -0.177265 1.224399 0.002683 -0.000477 -1598920.000000 1 0 0
8.862279 7.494083 3.234813 12.048456 0.701943 1.298978 0.004987 -0.002911 -80228.700000 1 0 0
-5.369521 -4.870617 -7.723287 10.592631 0.736716 2.387830 0.011876 -0.007851 1378690.000000 1 0 0
-2.197221 7.851283 -10.145987 13.015816 -1.297922 2.464683 0.005859 -0.002025 644719.000000 1 0 0
-2.827621 -2.243417 1.560013 3.932175 0.670700 1.162844 0.003591 -0.000853 -1794890.000000 1 0 0
5.917179 -1.977017 -9.251587 11.158560 -0.322454 2.548296 0.000123 0.001430 1071780.000000 1 0 0
1.081579 -7.538617 5.140513 9.188332 -1.428297 0.977061 0.000331 0.000079 479526.000000 1 0 0
1.728479 11.894683 1.174913 12.076901 1.426491 1.473356 0.003753 -0.002733 -46064.600000 1 0 0
-0.969121 7.079883 2.503713 7.571823 -1.434758 1.233792 -0.000168 0.001285 568878.000000 1 0 0
8.817779 7.856083 -6.731087 13.593336 0.727785 2.088833 0.003192 0.000606 -899786.000000 1 0 0
3.747179 -11.008017 5.453713 12.843706 -1.242695 1.132253 0.006853 -0.000535 696550.000000 1 0 0
7.872979 -7.094517 12.468113 16.363674 -0.733435 0.704495 0.017730 -0.005763 216746.000000 1 0 0
-8.759321 0.026683 -3.981787 9.621904 -0.003046 1.997448 0.006759 -0.001670 -956952.000000 1 0 0
-3.287521 -5.031217 11.182613 12.695345 0.992018 0.493155 0.001676 -0.000207 280406.000000 1 0 0
-8.283521 0.005283 -11.725987 14.356723 -0.000638 2.526568 0.006872 -0.006110 -1533730.000000 1 0 0
1.515079 -4.981317 5.353813 7.468086 -1.275534 0.771462 0.001463 -0.000260 -21249.200000 1 0 0
6.601379 3.801083 -7.707087 10.836310 0.522436 2.362040 -0.002071 0.000545 -1212900.000000 1 0 0
16.306579 4.125683 -1.277287 16.868825 0.247807 1.646588 0.001651 0.001203 -1401670.000000 1 0 0
7.986679 7.405783 0.133313 10.892678 0.747677 1.558557 0.002261 -0.002524 -3742800.000000 1 0 0
5.496979 -10.158217 14.096613 18.224178 -1.074784 0.686433 0.008039 -0.003875 -354690.000000 1 0 0
-5.263721 -9.199617 9.019113 13.917044 1.051093 0.865759 0.002997 -0.003299 205378.000000 1 0 0
-12.589221 -3.167017 2.915813 13.304903 0.246452 1.349850 0.007140 -0.002842 -582330.000000 1 0 0
-2.100321 -1.303117 -5.893987 6.391286 0.555312 2.744504 0.013353 -0.010291 -590492.000000 1 0 0
-2.440421 12.909983 -4.369287 13.846081 -1.383967 1.891844 0.004636 0.004220 478098.000000 1 0 0
4.027479 -0.554817 -4.995187 6.440520 -0.136896 2.458441 -0.000515 -0.001968 -685412.000000 1 0 0
-9.050821 3.678483 -7.453887 12.288573 -0.386033 2.222536 0.001953 -0.002880 848163.000000 1 0 0
-4.538021 7.856283 -11.279887 14.475864 -1.046988 2.464217 0.002266 -0.002403 -2882560.000000 1 0 0
-10.244821 -6.459317 7.323613 14.153248 0.562542 1.026927 0.011158 -0.003054 -1026170.000000 1 0 0
8.095579 5.234483 4.104713 10.477924 0.573971 1.168265 -0.000650 0.000471 -1493580.000000 1 0 0
-6.626521 -7.635017 4.003113 10.873324 0.855995 1.193768 0.012600 -0.000692 -1029860.000000 1 0 0
-4.175921 11.807483 7.981413 14.851192 -1.230858 1.003415 0.006349 -0.002625 312061.000000 1 0 0
-7.349921 9.820183 -7.956787 14.620799 -0.928288 2.146244 0.003292 -0.003282 -945790.000000 1 0 0
13.084779 5.489883 4.587213 14.912840 0.397256 1.258125 0.002556 -0.003293 304408.000000 1 0 0
5.377979 3.950283 -3.883987 7.720929 0.633526 2.097917 0.001798 0.001614 833059.000000 1 0 0
-2.829521 -4.272917 5.106113 7.234390 0.985893 0.787229 0.001930 0.000314 -704230.000000 1 0 0
12.299079 -2.476617 -5.170787 13.569747 -0.198709 1.961731 0.011316 -0.002825 -2053790.000000 1 0 0
-5.250921 9.707683 6.938513 13.036650 -1.074964 1.009562 -0.000393 -0.002636 -840540.000000 1 0 0
1.827479 3.830683 -0.467287 4.269914 1.125666 1.680453 0.002347 -0.001893 664383.000000 1 0 0
-0.077621 9.653883 7.679613 12.336123 -1.562756 0.898824 -0.006643 0.004527 -1002980.000000 1 0 0
-5.447421 2.108583 5.806513 8.236268 -0.369318 0.788383 0.000606 -0.001885 908332.000000 1 0 0
8.875779 0.899983 10.690813 13.924185 0.101052 0.695416 0.012474 -0.003799 -2249740.000000 1 0 0
0.478979 -2.892217 -10.122887 10.538841 -1.406676 2.859702 0.004577 -0.003451 -1571940.000000 1 0 0
1.218079 10.532683 -2.788787 10.963505 1.455660 1.827993 0.007157 -0.002273 287410.000000 1 0 0
2.288479 -4.228017 11.649813 12.602834 -1.074684 0.391388 -0.004447 -0.000779 -454455.000000 1 0 0
6.515379 -2.988917 9.451213 11.862092 -0.430105 0.648886 0.004409 -0.002531 364261.000000 1 0 0
-10.610521 -8.281217 5.603913 14.579628 0.662720 1.176275 0.012233 -0.003478 -812714.000000 1 0 0
-3.164921 0.755183 -7.016287 7.734035 -0.234231 2.707367 0.017489 -0.008115 524921.000000 1 0 0
10.965879 2.538383 -5.164787 12.384221 0.227474 2.000989 0.005708 -0.000897 -3347510.000000 1 0 0
-2.084521 -4.134317 0.050313 4.630371 1.103795 1.559930 0.005815 -0.003873 721271.000000 1 0 0
-1.388521 -6.418617 -10.737887 12.586852 1.357752 2.592701 0.003618 -0.003207 1038210.000000 1 0 0
0.287079 6.765883 -6.603687 9.458766 1.528391 2.343614 0.009528 -0.001404 -3225520.000000 1 0 0
1.982379 3.748683 -6.174087 7.490113 1.084359 2.539758 0.005457 -0.002159 -1944210.000000 1 0 0
1.654779 -14.680717 6.575413 16.170894 -1.458552 1.152045 0.016697 -0.002125 -570583.000000 1 0 0
-1.729321 5.389183 -10.567787 11.987992 -1.260289 2.649892 0.008982 -0.003388 -532749.000000 1 0 0
13.667179 4.317983 -0.776587 14.354088 0.306014 1.624925 0.004138 -0.002632 -317805.000000 1 0 0
-2.471621 3.147583 -5.982687 7.197828 -0.905118 2.552022 0.013223 -0.006388 -1101640.000000 1 0 0
5.760579 7.839183 14.155413 17.175936 0.937066 0.602110 0.012260 -0.004965 510373.000000 1 0 0
15.898679 0.676083 -5.735887 16.915244 0.042499 1.916752 0.023736 -0.006983 28974.800000 1 0 0
6.098879 -8.203817 10.662913 14.771482 -0.931520 0.764313 0.000615 0.000398 943253.000000 1 0 0
0.072379 -5.926917 -6.425687 8.742027 -1.558585 2.396513 0.002357 -0.003099 -426146.000000 1 0 0
8.549879 5.518683 -7.610987 12.707612 0.573183 2.212962 0.000460 -0.001091 -267197.000000 1 0 0
-15.958221 -0.835117 5.299213 16.835792 0.052284 1.250594 0.024783 -0.010508 -749170.000000 1 0 0
-0.480321 4.043683 -12.340087 12.994607 -1.452567 2.822854 0.011686 -0.005034 609735.000000 1 0 0
-11.262021 3.582283 5.940413 13.227032 -0.307965 1.105026 0.003643 -0.002962 -184474.000000 1 0 0
5.064079 -9.742517 -9.662387 14.626116 -1.091441 2.292448 -0.005110 -0.000759 -7189.490000 1 0 0
1.526179 11.201483 -11.759787 16.312419 1.435382 2.375911 0.011778 0.000001 -3698680.000000 1 0 0
6.063879 2.296083 1.209213 6.595819 0.361966 1.386423 0.005150 -0.000667 -369094.000000 1 0 0
5.738279 4.485583 4.845813 8.748155 0.663479 0.983726 -0.002127 0.000897 -29352.900000 1 0 0
0.424579 -1.610317 -6.384687 6.598304 -1.313001 2.886443 0.006471 -0.006301 365949.000000 1 0 0
12.593079 6.875483 -4.552087 15.052555 0.499746 1.878019 0.009065 -0.003244 -199340.000000 1 0 0
7.503679 3.160183 12.664413 15.055873 0.398606 0.571370 0.011775 -0.003928 -376298.000000 1 0 0
-2.420121 -0.185117 8.565513 8.902767 0.076342 0.276129 -0.003323 0.000959 969978.000000 1 0 0
2.384479 -15.209017 13.370213 20.390256 -1.415282 0.855666 0.026369 -0.003873 113134.000000 1 0 0
18.934979 4.480383 -1.813287 19.542141 0.232346 1.663719 0.015599 -0.007940 529728.000000 1 0 0
-0.331821 -13.171817 7.283513 15.055114 1.545610 1.065816 0.010323 -0.000750 -1145780.000000 1 0 0
4.468079 1.491183 -0.566487 4.744288 0.322118 1.690486 0.004812 -0.001265 645724.000000 1 0 0
2.804079 -0.530317 -7.375987 7.908810 -0.186916 2.772428 -0.001251 -0.004654 657460.000000 1 0 0
7.258379 -11.190117 0.911413 13.369124 -0.995376 1.502570 0.005293 -0.004939 505731.000000 1 0 0
-11.963721 -7.298417 1.199113 14.065397 0.547773 1.485440 0.009507 -0.003361 103656.000000 1 0 0
0.170179 -7.009217 10.060713 12.262791 -1.546522 0.608641 -0.003047 -0.000740 -2267110.000000 1 0 0
-4.662621 -7.138517 10.595313 13.599968 0.992200 0.677617 0.003151 0.000160 -1406060.000000 1 0 0
11.946079 0.854383 -1.709287 12.097952 0.071398 1.712558 0.005552 -0.002943 1121180.000000 1 0 0
6.489179 -9.705917 -7.413387 13.830133 -0.981470 2.136525 -0.004917 -0.002528 80322.500000 1 0 0
-11.095821 4.727383 3.608213 12.589066 -0.402760 1.280105 0.000655 -0.001731 246804.000000 1 0 0
6.033779 -9.046217 2.072713 11.069629 -0.982567 1.382441 0.004203 -0.004703 3608320.000000 1 0 0
11.701579 -1.271017 5.846813 13.142590 -0.108195 1.109761 0.010906 -0.008108 179134.000000 1 0 0
-6.466821 3.579683 4.078613 8.442096 -0.505562 1.066572 0.000588 -0.002545 -1380890.000000 1 0 0
9.545379 6.352283 -3.247787 11.916958 0.587182 1.846823 -0.000808 0.001271 242003.000000 1 0 0
-2.259021 6.548383 10.880713 12.898620 -1.238606 0.566925 -0.004174 -0.000957 147290.000000 1 0 0
1.888779 9.825483 2.877213 10.410857 1.380880 1.290785 -0.001632 0.000022 34722.900000 1 0 0
2.856179 6.189683 -5.650187 8.854069 1.138468 2.262884 0.005656 -0.000844 -2340310.000000 1 0 0
11.942479 0.042583 -5.762787 13.260254 0.003566 2.020380 0.013674 -0.001867 215501.000000 1 0 0
-2.650721 -12.463017 6.292813 14.211004 1.361232 1.112063 0.010758 0.000755 127192.000000 1 0 0
10.987879 1.897583 -2.861287 11.511789 0.171011 1.821982 0.002436 -0.001329 -188204.000000 1 0 0
-8.873721 5.348283 0.700713 10.384510 -0.542410 1.503268 0.000538 -0.000266 50686.100000 1 0 0
1.151979 -10.174117 5.595613 11.668359 -1.458050 1.070649 0.002650 -0.001136 343964.000000 1 0 0
9.438079 -5.835817 -1.074087 11.148443 -0.553786 1.667290 0.008159 -0.005888 925987.000000 1 0 0
-7.845721 8.528883 -4.578187 12.460215 -0.827095 1.947034 0.003574 -0.003468 -907998.000000 1 0 0
-7.496521 -0.079217 -1.627587 7.671580 0.010567 1.784579 0.006217 -0.001341 -1306510.000000 1 0 0
4.100379 8.777483 2.651913 10.044399 1.133774 1.303610 0.005792 -0.002952 1397840.000000 1 0 0
-1.379321 -10.672617 -3.737387 11.391898 1.442270 1.905060 0.007031 -0.002800 -1434880.000000 1 0 0
3.244979 7.888883 -3.737287 9.312984 1.180556 1.983730 0.007823 -0.002820 -106340.000000 1 0 0
-4.365221 1.685183 -11.108887 12.054143 -0.368421 2.742934 0.007859 -0.006640 -689487.000000 1 0 0
1.327679 2.801583 10.936213 11.367161 1.128243 0.276238 -0.000809 -0.003656 494384.000000 1 0 0
2.026379 5.534583 -8.078787 10.000231 1.219824 2.511308 0.006137 -0.000899 -127143.000000 1 0 0
15.561379 6.081083 3.887813 17.153751 0.372533 1.342165 0.007823 -0.007225 429855.000000 1 0 0
-4.470321 8.934483 4.622913 11.008182 -1.106873 1.137403 0.000450 0.002256 414313.000000 1 0 0
-1.110621 -8.196817 -12.470087 14.964102 1.436122 2.555907 -0.001697 -0.000713 -583707.000000 1 0 0
14.289779 -4.276617 -5.208387 15.799194 -0.290794 1.906741 0.029510 -0.003949 565031.000000 1 0 0
-6.121421 -6.254117 -5.689187 10.438037 0.796120 2.147238 0.015263 -0.006629 500827.000000 1 0 0
-8.963821 2.449783 -12.297987 15.414019 -0.266782 2.494507 0.014776 -0.007157 915385.000000 1 0 0
10.589079 5.364183 13.769213 18.179502 0.468895 0.711469 0.038620 -0.005518 509823.000000 1 0 0
-0.458021 10.989383 5.498213 12.296612 -1.529142 1.107240 -0.002761 0.004997 695483.000000 1 0 0
0.367579 11.162183 -0.636187 11.186338 1.537877 1.627699 0.004079 -0.002461 -218973.000000 1 0 0
-1.526821 -0.611217 3.639813 3.994122 0.380783 0.424384 0.004250 -0.001161 653506.000000 1 0 0
-4.734421 6.911983 8.664813 12.052769 -0.970237 0.768568 -0.000161 -0.002868 -609858.000000 1 0 0
3.370579 -8.798017 -11.500387 14.866903 -1.204937 2.455230 -0.001070 0.002077 2301550.000000 1 0 0
6.631879 -3.780217 12.030313 14.247818 -0.518074 0.565423 0.009087 -0.002470 -819905.000000 1 0 0
-2.364321 -1.867317 -12.575187 12.931056 0.668484 2.906443 0.009848 -0.009114 876677.000000 1 0 0
-16.175421 -4.981217 5.493913 17.794377 0.298734 1.256924 0.033082 -0.011296 1334040.000000 1 0 0
-8.934321 7.215683 5.751113 12.843810 -0.679380 1.106523 0.001287 -0.002387 -1711060.000000 1 0 0
-12.822121 1.464783 6.061713 14.258216 -0.113746 1.131682 0.003144 -0.003381 509157.000000 1 0 0
-3.576321 3.588683 10.109513 11.308005 -0.787123 0.464571 0.000157 0.001358 381867.000000 1 0 0
1.981579 -12.242117 -1.179687 12.457438 -1.410322 1.665636 0.005893 -0.004911 -2370330.000000 1 0 0
10.230679 -5.194417 -3.543987 12.008689 -0.469812 1.870376 0.011050 -0.005859 468775.000000 1 0 0
3.048179 -13.491417 1.019913 13.869029 -1.348592 1.497191 0.006181 -0.006018 428909.000000 1 0 0
10.044079 -1.699017 -6.121587 11.884613 -0.167570 2.111903 0.008432 0.000720 25565.600000 1 0 0
11.994979 -5.298517 -1.522087 13.201158 -0.415954 1.686353 0.014072 -0.007680 1007710.000000 1 0 0
1.517279 1.035683 5.840313 6.122421 0.598947 0.304749 -0.001373 -0.001001 761983.000000 1 0 0
-10.808921 11.719083 6.677713 17.284719 -0.825778 1.174140 0.012697 -0.008473 475260.000000 1 0 0
4.903079 -14.062017 2.956413 15.182915 -1.235302 1.374825 0.011338 -0.007337 -3579910.000000 1 0 0
5.334979 -3.472817 -1.720487 6.594129 -0.577044 1.834763 0.003723 -0.002694 -1038260.000000 1 0 0
2.049879 -2.961817 -7.710387 8.510255 -0.965391 2.704559 -0.000891 -0.004231 -63553.100000 1 0 0
-2.821321 14.818883 -8.952087 17.541351 -1.382661 2.106379 0.014460 0.001048 -2666840.000000 1 0 0
-2.394321 6.161983 -8.142187 10.487993 -1.200188 2.459625 0.010251 -0.005868 -920875.000000 1 0 0
2.507079 -3.618417 -11.297487 12.124834 -0.964874 2.770039 0.002508 -0.000769 -2226800.000000 1 0 0
14.551279 2.809683 -2.724587 15.068425 0.190741 1.752611 0.008847 -0.001762 576511.000000 1 0 0
-3.508521 13.164183 2.223213 13.803916 -1.310331 1.409035 -0.000579 0.001863 -842214.000000 1 0 0
7.866879 -4.852517 14.030113 16.801155 -0.552702 0.582539 0.027720 -0.008186 -399679.000000 1 0 0
-11.371721 7.172483 2.938013 13.761993 -0.562709 1.355653 0.000458 0.000772 683318.000000 1 0 0
-2.319021 11.925183 4.078713 12.814981 -1.378729 1.246885 -0.003363 0.003109 417991.000000 1 0 0
1.793279 1.372283 0.505113 2.313904 0.653181 1.350729 0.001017 -0.000276 -1064310.000000 1 0 0
-6.957821 8.680683 5.294513 12.320608 -0.895124 1.126605 0.004036 -0.002872 -788521.000000 1 0 0
-1.141621 9.190583 0.991113 9.314097 -1.447213 1.464184 0.002790 0.001641 396908.000000 1 0 0
4.892279 12.982383 -8.508487 16.274858 1.210414 2.120928 0.013984 -0.009381 -1753760.000000 1 0 0
8.983279 6.899883 7.124813 13.381728 0.654973 1.009329 -0.000353 -0.001743 -1040990.000000 1 0 0
7.449279 -13.726617 2.921613 15.888600 -1.073584 1.385863 0.011593 -0.010207 248874.000000 1 0 0
4.162879 -13.327617 -1.220587 14.015876 -1.268048 1.657993 0.006218 -0.002281 -2868570.000000 1 0 0
12.166679 -11.828717 -4.554187 17.569498 -0.771315 1.833000 0.034031 -0.008002 -824475.000000 1 0 0
3.076679 -0.077917 -2.030187 3.686962 -0.025320 2.153926 0.006388 -0.001545 377743.000000 1 0 0
-13.568921 -2.966417 -10.671187 17.515406 0.215232 2.225905 0.024642 -0.006325 99749.900000 1 0 0
-6.572621 13.649683 5.069213 15.975296 -1.122040 1.247899 0.004388 -0.005875 532303.000000 1 0 0
7.370379 -4.349317 -0.505587 8.572903 -0.533114 1.629806 0.003469 -0.002083 -1306490.000000 1 0 0
11.741379 2.156083 -7.341087 14.014287 0.181608 2.122136 0.018029 -0.001636 -1228080.000000 1 0 0
-7.415721 -4.578817 9.694813 13.036406 0.553150 0.732250 0.011608 -0.000776 156266.000000 1 0 0
0.947879 2.905983 8.448513 8.984464 1.255496 0.347148 -0.000040 -0.001861 -1875740.000000 1 0 0
1.623179 8.001383 -8.746587 11.964933 1.370650 2.390610 0.009997 -0.002017 -1301460.000000 1 0 0
-8.652121 -2.142317 -5.608787 10.531249 0.242724 2.132448 0.007937 -0.003733 -1713480.000000 1 0 0
6.640079 -0.460017 7.141713 9.762497 -0.069168 0.750210 0.001209 -0.002048 166912.000000 1 0 0
-10.931421 6.573783 7.203913 14.649469 -0.541423 1.056695 0.006209 -0.004607 328749.000000 1 0 0
-6.005821 11.057483 4.835713 13.480427 -1.073231 1.203899 -0.001975 -0.000563 423447.000000 1 0 0
5.986579 -1.160717 -6.916787 9.221081 -0.191510 2.419018 -0.001856 -0.001079 -1126250.000000 1 0 0
4.499979 -5.719817 11.453513 13.570154 -0.904196 0.566057 0.001897 -0.003324 -1587900.000000 1 0 0
-8.936821 -7.389417 2.774813 11.923500 0.690900 1.335925 0.016001 -0.003291 -2606840.000000 1 0 0
-1.272321 12.683483 -9.416887 15.848258 -1.470818 2.207055 0.012987 -0.000688 602000.000000 1 0 0
-4.738421 9.219483 -2.319687 10.622261 -1.096045 1.790950 0.004737 -0.002055 263647.000000 1 0 0
-3.213621 9.670783 -0.263987 10.194169 -1.249974 1.596695 0.004301 -0.001416 -1237910.000000 1 0 0
-3.497121 10.626883 -6.401687 12.889611 -1.252876 2.090537 0.005023 0.001876 482237.000000 1 0 0
4.910079 -4.929317 0.357713 6.966707 -0.787353 1.519428 0.005799 -0.004308 -659509.000000 1 0 0
-2.243521 2.875483 -10.776487 11.376926 -0.908231 2.815256 0.012419 -0.005031 -347844.000000 1 0 0
-3.662721 12.160283 -2.173687 12.884600 -1.278236 1.740311 0.001771 0.003092 579578.000000 1 0 0
-0.250321 0.218783 0.036713 0.334476 -0.718269 1.460811 0.004387 -0.002069 -1105900.000000 1 0 0
-4.711021 -1.709717 0.020913 5.011715 0.348137 1.566623 0.007956 -0.002189 79373.300000 1 0 0
2.690279 2.562983 -2.455987 4.454027 0.761171 2.154848 -0.000447 -0.001626 2084940.000000 1 0 0
6.021779 -9.659817 8.568913 14.247813 -1.013360 0.925520 0.002322 -0.000197 -85014.300000 1 0 0
-4.270921 -5.460817 6.542913 9.532628 0.907064 0.814310 0.000946 -0.000992 93053.300000 1 0 0
-6.256621 5.243983 -12.018287 14.528726 -0.697574 2.544918 -0.000602 -0.002388 1454840.000000 1 0 0
-12.957821 3.047183 8.030313 15.545944 -0.230965 1.027975 0.010731 -0.005726 748121.000000 1 0 0
4.688279 -7.434017 -4.945087 10.084566 -1.008143 2.083301 -0.003975 -0.004139 583086.000000 1 0 0
-5.945121 2.493483 -1.121787 6.543724 -0.397132 1.743077 0.007272 -0.002318 -972131.000000 1 0 0
-6.899121 -2.733417 -14.603487 16.380820 0.377224 2.671440 0.010213 -0.008836 1007980.000000 1 0 0
2.706579 -6.162617 0.863713 6.785973 -1.156966 1.443171 0.005381 -0.002210 -194861.000000 1 0 0
4.846979 -7.825317 13.153013 16.053989 -1.016236 0.610609 0.004942 -0.004716 56455.500000 1 0 0
-9.897121 -1.692517 7.984813 12.828673 0.169373 0.898966 0.006746 0.001326 -245042.000000 1 0 0
-4.544921 13.308383 -0.039487 14.063104 -1.241707 1.573604 0.001431 0.002791 743304.000000 1 0 0
6.813479 2.160583 -4.528387 8.461555 0.307074 2.135508 -0.003286 0.003054 -1471290.000000 1 0 0
5.069379 4.460783 -0.012987 6.752582 0.721625 1.572720 0.001526 -0.001421 -402957.000000 1 0 0
-5.964921 12.410183 1.879913 13.897013 -1.122750 1.435106 0.000978 0.002429 -1436180.000000 1 0 0
6.575479 -7.234717 6.582913 11.786128 -0.833098 0.978183 0.005001 -0.004296 -1514180.000000 1 0 0
-0.304221 4.964983 7.701213 9.168003 -1.509600 0.573495 -0.005610 -0.000021 -620378.000000 1 0 0
-5.728221 -3.479517 -1.537187 6.876227 0.545868 1.796252 0.013971 -0.005120 -656167.000000 1 0 0
2.263679 -6.584717 -5.147087 8.658825 -1.239675 2.207356 -0.002107 -0.000713 -846172.000000 1 0 0
-14.393521 -4.816017 -3.787187 15.643217 0.322887 1.815324 0.001018 -0.004980 -266719.000000 1 0 0
-12.461321 -5.143217 -6.356787 14.904561 0.391436 2.011415 0.008992 -0.004765 -1892460.000000 1 0 0
-14.848821 -3.781717 -1.261487 15.374661 0.249380 1.652938 0.000587 -0.004829 511852.000000 1 0 0
11.847079 2.946483 8.709013 14.996065 0.243764 0.951143 0.010052 -0.005256 -918506.000000 1 0 0
8.830579 -6.556917 7.728113 13.442323 -0.638699 0.958303 0.007777 -0.007609 368201.000000 1 0 0
-8.859721 -1.740217 -9.706987 13.257021 0.193950 2.392365 0.006490 -0.004564 -171833.000000 1 0 0
-8.837221 5.196183 -3.995887 11.002904 -0.531541 1.942461 0.004902 0.001362 -2040150.000000 1 0 0
-4.134021 -6.309017 4.049513 8.561097 0.990735 1.078089 0.006326 -0.000341 -1173250.000000 1 0 0
-0.194121 -9.230317 3.586313 9.904448 1.549769 1.200286 0.003666 -0.001398 357203.000000 1 0 0
8.017079 -10.437317 3.356713 13.582293 -0.915801 1.321070 0.006685 -0.008944 303639.000000 1 0 0
0.052279 6.571583 9.556513 11.598076 1.562841 0.602407 -0.007284 -0.001576 355074.000000 1 0 0
0.043679 3.532383 -9.783787 10.402025 1.558432 2.795088 0.010312 -0.004213 -701514.000000 1 0 0
4.445579 -3.066417 11.036413 12.286924 -0.603826 0.455084 -0.001399 -0.003906 -3305090.000000 1 0 0
8.610379 -9.099617 1.307613 12.595695 -0.813016 1.466795 0.006113 -0.007823 -374096.000000 1 0 0
-0.282021 -0.418717 11.325613 11.336859 0.978054 0.044545 0.001488 -0.000528 -1547980.000000 1 0 0
10.890379 6.001683 11.323513 16.817922 0.503687 0.832133 0.026438 -0.004165 -66887.300000 1 0 0
-6.381221 -2.994917 -12.008887 13.924901 0.438814 2.610795 0.009332 -0.007270 245730.000000 1 0 0
-1.689921 2.889483 8.387713 9.030984 -1.041589 0.379714 -0.001928 -0.002430 -849558.000000 1 0 0
-1.926521 13.398383 -6.936787 15.210100 -1.427988 2.044364 0.004828 -0.000386 494944.000000 1 0 0
7.707079 3.101283 9.780813 12.832823 0.382568 0.704135 0.002793 -0.002782 291843.000000 1 0 0
6.533779 8.471083 -7.924087 13.313176 0.913800 2.208319 0.002387 0.000099 -167953.000000 1 0 0
6.721179 -3.015717 -3.963687 8.365382 -0.421763 2.064420 -0.000215 -0.000820 -1614420.000000 1 0 0
1.997979 8.172183 0.940913 8.465330 1.331015 1.459417 0.003886 -0.000190 726943.000000 1 0 0
-17.677521 6.129083 6.446713 19.789404 -0.333746 1.238975 0.040379 -0.005999 1080840.000000 1 0 0
-14.882521 2.871283 -10.214787 18.277734 -0.190588 2.163813 0.051064 -0.008052 -526557.000000 1 0 0
-18.447321 0.172283 -4.268587 18.935526 -0.009339 1.798178 0.047888 -0.009872 1012720.000000 1 0 0
-13.007221 8.075183 0.213013 15.311490 -0.555590 1.556884 0.003142 0.001572 -544243.000000 1 0 0
-12.758621 -4.319017 -12.797087 18.579605 0.326409 2.330588 0.034892 0.000083 -756648.000000 1 0 0
-17.312121 -0.643417 -8.633487 19.356151 0.037149 2.033125 0.048632 -0.019594 411584.000000 1 0 0
-16.714521 -2.197317 -2.053487 16.982939 0.130712 1.692008 0.019344 -0.008098 -776067.000000 1 0 0
-15.347221 4.042483 1.766813 15.968734 -0.257552 1.459927 0.010569 0.002790 -812773.000000 1 0 0
-13.094521 5.936483 4.522413 15.071845 -0.425641 1.266044 0.004139 0.001173 28183.900000 1 0 0
-10.008321 14.161483 2.848613 17.573522 -0.955569 1.407981 0.010658 -0.008542 -678938.000000 1 0 0
-11.900621 2.478483 -6.335287 13.707790 -0.205330 2.051233 0.006855 0.001469 163814.000000 1 0 0
-15.847521 10.712283 3.827713 19.507647 -0.594409 1.373299 0.023094 -0.002059 -163006.000000 1 0 0
-12.885521 1.225783 -8.531187 15.502269 -0.094843 2.153542 0.014926 -0.002102 525233.000000 1 0 0
-12.229421 14.475483 3.908613 19.348788 -0.869307 1.367388 0.033661 -0.011131 -528210.000000 1 0 0
-10.405721 11.226383 -1.080387 15.345290 -0.823317 1.641260 0.007823 -0.002590 404185.000000 1 0 0
-17.129221 5.587483 8.958713 20.121846 -0.315313 1.109373 0.045068 -0.012405 571240.000000 1 0 0
-11.731821 12.316283 -8.980687 19.234842 -0.809697 2.056575 0.014365 -0.014382 -859335.000000 1 0 0
-17.178621 -0.508517 3.058213 17.456124 0.029593 1.394693 0.030089 -0.005559 1387360.000000 1 0 0
-13.281621 14.816683 -0.381287 19.901781 -0.839976 1.589956 0.035092 -0.019515 5820.630000 1 0 0
-16.841821 4.576083 -10.306287 20.268374 -0.265304 2.104228 0.085017 -0.012026 898580.000000 1 0 0
-12.033621 7.558283 -9.035087 16.839491 -0.560823 2.137130 0.015863 0.002296 -76482.400000 1 0 0
-14.628121 13.543883 -2.129887 20.048817 -0.746931 1.677232 0.029473 -0.019582 857152.000000 1 0 0
-11.953521 10.378083 -5.333587 16.704442 -0.714967 1.895778 0.023127 -0.009724 500220.000000 1 0 0
-17.730921 2.943183 -0.801787 17.991407 -0.164492 1.615376 0.036581 -0.004193 -7105.080000 1 0 0
-9.420821 15.497083 0.707813 18.149722 -1.024581 1.531788 0.015640 -0.012977 78295.500000 1 0 0
-8.294121 13.153183 -3.781487 16.003071 -1.008195 1.809350 0.010267 -0.001801 340232.000000 1 0 0
-17.720021 11.369183 2.095313 21.157688 -0.570448 1.471601 0.064908 -0.014509 100918.000000 1 0 0
-8.169721 15.589183 -7.375387 19.083063 -1.088084 1.967618 0.039252 -0.018824 -103043.000000 1 0 0
-6.421221 15.116883 -5.461087 17.308255 -1.169119 1.891800 0.013275 -0.001999 -196476.000000 1 0 0
-17.332421 5.286283 -0.054787 18.120723 -0.296032 1.573820 0.040498 0.001684 644870.000000 1 0 0
-5.574321 12.174183 -12.277487 18.166465 -1.141408 2.312890 -0.000470 -0.005614 790982.000000 1 0 0
-11.240321 3.693583 -11.464487 16.474884 -0.317486 2.340436 0.019208 -0.007643 301246.000000 1 0 0
-11.799421 11.117883 1.198613 16.256393 -0.755668 1.496998 0.009107 -0.001378 -40837.500000 1 0 0
-12.955721 0.218583 -11.013987 17.006069 -0.016870 2.275293 0.015460 -0.007996 850111.000000 1 0 0
-14.108421 -2.105617 -13.060987 19.340903 0.148152 2.312173 0.039025 -0.011561 147069.000000 1 0 0
-18.682121 -2.241417 -3.691087 19.174715 0.119406 1.764503 0.027050 -0.012911 -204102.000000 1 0 0
-18.274721 4.857883 -5.152887 19.598895 -0.259817 1.836841 0.051522 -0.010230 -300415.000000 1 0 0
-8.333221 15.375883 -2.161387 17.621916 -1.074141 1.693759 0.020848 -0.009880 -64017.400000 1 0 0
-16.069821 9.213983 -5.255087 19.254936 -0.520610 1.847225 0.034247 -0.003680 -241651.000000 1 0 0
-18.289121 1.711883 2.242013 18.505380 -0.093329 1.449343 0.051399 -0.008918 -95393.800000 1 0 0
-15.635421 -2.673417 -8.648587 18.066864 0.169347 2.069968 0.020816 -0.005876 -410840.000000 1 0 0
-9.796021 10.312783 -7.159587 15.924044 -0.811091 2.037123 0.013157 -0.007569 214410.000000 1 0 0
-13.947521 11.841683 -7.699187 19.850346 -0.703923 1.969107 0.042746 -0.019488 222324.000000 1 0 0
-11.054521 6.469883 -3.764587 13.350428 -0.529518 1.856656 0.001477 0.000662 -1327180.000000 1 0 0
-13.135721 5.029583 -12.793687 19.013739 -0.365673 2.308872 0.047154 -0.013229 226526.000000 1 0 0
-17.650121 9.040983 2.777913 20.024558 -0.473386 1.431622 0.037290 -0.009380 1062070.000000 1 0 0
-13.561521 8.595783 -6.510487 17.325956 -0.564928 1.956018 0.022045 -0.000827 -228134.000000 1 0 0
-15.932821 6.989783 -3.911887 17.832966 -0.413420 1.791957 0.029936 0.002346 141002.000000 1 0 0
-14.936321 -0.227117 -9.268787 17.579979 0.015205 2.126140 0.033109 -0.011402 85525.900000 1 0 0
-10.304321 5.670483 -6.185187 13.288714 -0.503075 2.054935 0.000891 -0.002250 358003.000000 1 0 0
-12.710921 12.245583 -0.889287 17.672369 -0.766754 1.621138 0.014302 -0.009495 -1534940.000000 1 0 0
-10.686821 3.441383 -14.043387 17.979654 -0.311535 2.467175 0.023087 -0.007217 359795.000000 1 0 0
-10.959121 6.230183 -11.935087 17.359833 -0.516930 2.328853 0.008595 -0.006235 -880411.000000 1 0 0
-5.833321 11.440983 -14.779787 19.579729 -1.099290 2.426224 0.014576 -0.016603 -370147.000000 1 0 0
-15.587621 13.365783 3.401513 20.813177 -0.708810 1.406629 0.031171 -0.012355 491557.000000 1 0 0
-15.146221 11.125283 -3.027587 19.035393 -0.633524 1.730525 0.029410 -0.005872 825115.000000 1 0 0
-18.231221 7.980683 -4.701587 20.449294 -0.412619 1.802786 0.048348 -0.005310 -720791.000000 1 0 0
-4.284421 16.063483 -10.785487 19.817125 -1.310146 2.146292 0.020511 -0.004874 -285571.000000 1 0 0
-15.799721 4.391383 -4.421987 16.984386 -0.271098 1.834187 0.027010 0.000721 538885.000000 1 0 0
-18.567321 -1.639517 -6.195387 19.642205 0.088073 1.891687 0.033345 -0.013178 308698.000000 1 0 0
-10.959721 8.476583 -5.841587 15.036358 -0.658329 1.969797 0.008491 0.000991 -216101.000000 1 0 0
-11.213221 13.337683 -6.531587 18.608915 -0.871716 1.929427 0.023922 -0.013399 300315.000000 1 0 0
-9.575121 10.406583 -4.451287 14.825446 -0.826985 1.875747 0.002492 -0.001899 65648.700000 1 0 0
-11.042621 6.370983 -0.170187 12.749818 -0.523295 1.584145 -0.001481 0.002703 -289544.000000 1 0 0
-14.683721 9.321383 -1.289487 17.440258 -0.565623 1.644801 0.021008 0.000184 92870.800000 1 0 0
-18.585021 3.373783 4.921713 19.519443 -0.179577 1.315901 0.046628 -0.011001 371174.000000 1 0 0
-14.861121 12.979283 0.360713 19.734356 -0.717907 1.552517 0.023748 -0.016398 -142883.000000 1 0 0
-17.108921 2.418383 -9.002487 19.483544 -0.140422 2.051108 0.070328 -0.014832 210862.000000 1 0 0
-9.258021 8.235383 -8.881887 15.245340 -0.727006 2.192716 0.008200 -0.001721 -1114390.000000 1 0 0
-17.651721 4.766883 -2.601087 18.468136 -0.263760 1.712108 0.034107 0.000391 1184400.000000 1 0 0
-13.552821 5.813683 -4.360687 15.378343 -0.405224 1.858301 0.011621 0.003372 749281.000000 1 0 0
-12.138721 9.649383 3.245213 15.842681 -0.671639 1.364496 0.002527 0.000940 187802.000000 1 0 0
-17.653121 2.552983 -3.926287 18.263792 -0.143624 1.787464 0.040406 -0.005382 945468.000000 1 0 0
-11.313121 1.420383 -12.692787 17.061976 -0.124898 2.409717 0.020674 -0.006224 -160756.000000 1 0 0
-11.198921 11.968783 3.650213 16.792606 -0.818616 1.351677 0.007765 -0.004723 -642083.000000 1 0 0
-16.881921 13.082683 -3.580187 21.655797 -0.659280 1.736881 0.070004 -0.018392 1312030.000000 1 0 0
-10.960321 3.989383 -4.320687 12.438333 -0.349078 1.925560 0.001993 0.000882 -82801.800000 1 0 0
-11.304221 14.885383 -8.746287 20.636316 -0.921295 2.008466 0.038675 -0.025013 382576.000000 1 0 0
-15.463021 7.109283 -0.070287 17.019161 -0.430941 1.574926 0.021167 0.003885 -44824.300000 1 0 0
-12.939821 8.310183 -3.998187 15.889732 -0.570885 1.825151 0.008798 0.000039 735980.000000 1 0 0
-19.271821 2.097883 -5.882587 20.258554 -0.108431 1.865415 0.067047 -0.011991 834086.000000 1 0 0
-12.730721 9.961483 -8.875587 18.441215 -0.663964 2.072923 0.022001 -0.008247 649200.000000 1 0 0
-16.788521 10.906183 -0.906187 20.040469 -0.576109 1.616030 0.037704 -0.010466 601649.000000 1 0 0
-10.712221 6.452083 -14.596587 19.220858 -0.542117 2.433208 0.026914 -0.012988 7072.180000 1 0 0
-14.468021 13.013583 -4.632487 20.003422 -0.732523 1.804503 0.047005 -0.007926 559038.000000 1 0 0
-17.954121 7.817283 -0.072687 19.582279 -0.410649 1.574508 0.047503 -0.003300 -486364.000000 1 0 0
-12.838521 6.721783 -2.026487 14.632724 -0.482320 1.709733 0.001373 0.003471 555345.000000 1 0 0
-13.967921 8.510183 -10.641887 19.513476 -0.547205 2.147616 0.035688 -0.003557 -171536.000000 1 0 0
-15.017921 1.395783 -0.855787 15.106903 -0.092675 1.627475 0.007219 -0.000182 -824357.000000 1 0 0
-13.445921 2.749483 -2.371387 13.927523 -0.201704 1.741896 0.002323 0.001338 287718.000000 1 0 0
-11.388321 9.096683 -10.947987 18.229150 -0.673992 2.215017 0.012590 -0.004279 -141264.000000 1 0 0
-15.497821 4.187683 -7.982087 17.928548 -0.263909 2.032212 0.040201 -0.004238 794889.000000 1 0 0
-18.426121 10.664583 4.568313 21.774405 -0.524667 1.359424 0.067931 -0.022785 433416.000000 1 0 0
-15.333421 6.115283 -6.292787 17.666625 -0.379489 1.934990 0.031431 0.005206 679378.000000 1 0 0
-7.799621 11.054483 -13.092087 18.826534 -0.956347 2.339781 -0.001787 -0.006842 -1979680.000000 1 0 0
-16.878921 9.193883 -2.785287 19.421206 -0.498762 1.714707 0.039632 -0.008827 1237490.000000 1 0 0
-20.739221 -1.025817 -4.762987 21.303840 0.049422 1.796276 0.071713 -0.022594 1152280.000000 1 0 0
-15.360721 4.365883 4.302713 16.538622 -0.276921 1.307607 0.016928 0.000166 102544.000000 1 0 0
-6.978721 12.429683 -9.390887 17.070100 -1.059200 2.153324 0.002053 -0.005691 -2477420.000000 1 0 0
-17.156121 1.389083 5.791713 18.160561 -0.080791 1.246210 0.034174 -0.016109 123841.000000 1 0 0
-10.525021 14.258183 -2.989087 17.972381 -0.934907 1.737888 0.030206 -0.017576 410957.000000 1 0 0
-9.976521 8.375883 -12.980987 18.390008 -0.698401 2.354449 -0.003886 -0.002687 -733340.000000 1 0 0
-13.668521 11.761183 2.790013 18.246590 -0.710534 1.417288 0.018777 -0.006627 -908724.000000 1 0 0
-16.884821 6.727583 2.029413 18.288686 -0.379161 1.459602 0.029823 0.001856 796341.000000 1 0 0
-9.294321 13.225683 -8.348387 18.193368 -0.958229 2.047519 0.016036 -0.013153 -15362.400000 1 0 0
-5.566121 9.687683 -12.924687 17.084508 -1.049295 2.428764 0.003414 -0.004088 -1017540.000000 1 0 0
-15.869021 1.848383 3.225613 16.298678 -0.115955 1.371575 0.011560 -0.003330 -580259.000000 1 0 0
-18.726921 -4.848617 4.620013 19.888468 0.253348 1.336359 0.055012 -0.015301 611447.000000 1 0 0
-5.311921 14.326483 -9.004887 17.735630 -1.215734 2.103343 0.003627 -0.006031 199463.000000 1 0 0
-15.453321 -0.767917 -6.773487 16.890084 0.049652 1.983441 0.022865 -0.006254 763513.000000 1 0 0
-9.078621 10.894383 -9.494587 17.066227 -0.876060 2.160768 0.005532 -0.006151 321264.000000 1 0 0
-16.705321 1.296383 -5.977787 17.789949 -0.077448 1.913485 0.027726 -0.006749 -584239.000000 1 0 0
-11.257221 8.800283 -1.533087 14.370816 -0.663511 1.677680 0.000469 -0.000429 -1327390.000000 1 0 0
-10.682221 10.892083 -12.711187 19.857532 -0.795125 2.265450 0.008360 -0.004888 -268846.000000 1 0 0
-13.942921 11.717183 -10.373587 20.959692 -0.698875 2.088551 0.040698 -0.014026 13392.100000 1 0 0
-13.254121 5.663383 -7.763987 16.371472 -0.403811 2.064896 0.019637 0.005479 -1576.580000 1 0 0
-8.944621 15.348483 -4.788887 18.398793 -1.043143 1.834111 0.027083 -0.013454 186267.000000 1 0 0
-8.668221 6.030083 -12.973387 16.727484 -0.607803 2.458419 0.007144 -0.005788 -1102810.000000 1 0 0
-16.498621 7.438583 4.468313 18.641427 -0.423570 1.328742 0.037005 0.002240 -26122.100000 1 0 0
-12.807121 5.456283 -10.351287 17.347694 -0.402747 2.210173 0.025103 0.001373 716721.000000 1 0 0
-12.464921 9.036083 -13.430887 20.430706 -0.627256 2.288143 0.033668 -0.011476 697845.000000 1 0 0
-10.898721 5.166283 -8.629987 14.830686 -0.442654 2.191860 0.006243 0.001031 -419353.000000 1 0 0
-17.780321 -4.408517 -2.702787 18.517016 0.243042 1.717282 0.019042 -0.009470 236215.000000 1 0 0
-8.900621 13.178683 -10.898287 19.278780 -0.976786 2.171593 0.027336 -0.014618 368871.000000 1 0 0
-15.065621 6.151683 6.199613 17.414113 -0.387663 1.206801 0.021668 -0.004020 -889604.000000 1 0 0
-16.287821 -3.018417 -4.398987 17.139283 0.183239 1.830362 0.009749 -0.005361 230459.000000 1 0 0
-11.232521 -1.154517 -12.655987 16.961027 0.102424 2.413103 0.015737 -0.003906 17394.300000 1 0 0
-15.464721 6.723883 -8.731787 18.989794 -0.410132 2.048583 0.036480 0.005548 -165726.000000 1 0 0
-14.916421 9.341783 1.295813 17.647879 -0.559516 1.497304 0.023346 -0.003870 -293628.000000 1 0 0
-19.527521 5.146783 8.053813 21.741144 -0.257705 1.191312 0.073735 -0.023940 1559390.000000 1 0 0
-16.343621 0.723083 0.963713 16.387969 -0.044214 1.511956 0.021629 -0.004768 -837343.000000 1 0 0
-17.467421 3.651483 7.193813 19.240454 -0.206078 1.187597 0.031497 -0.010074 605258.000000 1 0 0
-15.409221 4.046083 -1.367687 15.990167 -0.256779 1.656434 0.013307 0.002018 -1645500.000000 1 0 0
-10.796221 13.355483 0.446213 17.179243 -0.890970 1.544819 0.014900 -0.012132 -1312440.000000 1 0 0
-13.460021 3.367783 0.085213 13.875207 -0.245173 1.564655 0.002253 0.003277 -423975.000000 1 0 0
-15.133821 0.255283 -4.242187 15.719219 -0.016867 1.844057 0.015310 -0.005708 -1015.110000 1 0 0
-18.962721 6.889483 3.648113 20.502645 -0.348489 1.391910 0.051094 -0.003895 1763800.000000 1 0 0
-14.108321 1.441983 -6.292287 15.515054 -0.101854 1.988388 0.017120 -0.002207 -382613.000000 1 0 0
-14.231221 12.142683 5.293113 19.441950 -0.706374 1.295063 0.026191 -0.009934 277963.000000 1 0 0
17.867979 5.583483 6.197713 19.719321 0.302872 1.251081 0.046117 -0.013037 -228018.000000 1 0 0
18.441079 7.540783 -0.393787 19.927164 0.388166 1.590559 0.021942 -0.001505 500460.000000 1 0 0
16.746679 5.162583 8.421313 19.442789 0.299031 1.122830 0.054221 -0.013889 544577.000000 1 0 0
11.655179 12.466183 10.809513 20.201349 0.819007 1.006184 0.037956 -0.010492 594731.000000 1 0 0
-2.038521 16.432883 -0.621587 16.570503 -1.447376 1.608317 0.002022 0.000100 69239.000000 1 0 0
15.133979 12.649383 3.317113 20.001186 0.696208 1.404181 0.035615 -0.006977 599337.000000 1 0 0
13.782279 11.710483 6.818313 19.328115 0.704306 1.210270 0.036924 -0.007925 1000760.000000 1 0 0
-0.620421 15.977583 8.622913 18.166527 -1.531985 1.076219 0.003424 0.001422 -281796.000000 1 0 0
0.722179 13.041783 9.404013 16.094878 1.515479 0.946796 -0.002289 -0.000095 -648225.000000 1 0 0
0.711779 15.377683 -3.819887 15.860999 1.524543 1.814023 0.011430 0.000325 134373.000000 1 0 0
5.426879 10.234083 13.440113 17.743283 1.083223 0.711358 0.014265 -0.009922 282093.000000 1 0 0
-1.349521 16.538183 -2.930687 16.849974 -1.489376 1.745614 0.005209 0.003944 302914.000000 1 0 0
8.518079 9.951883 3.178413 13.479613 0.862872 1.332761 0.012452 -0.005476 -58482.300000 1 0 0
12.500979 13.818783 -4.876087 19.261606 0.835425 1.826732 0.056376 -0.008538 262009.000000 1 0 0
2.345379 11.623283 7.773213 14.178305 1.371687 0.990530 -0.003119 0.002764 414774.000000 1 0 0
-0.403721 14.855583 -8.656487 17.198433 -1.543627 2.098245 0.010446 -0.002187 -1272420.000000 1 0 0
2.305179 15.843383 0.327413 16.013551 1.426312 1.550349 0.012840 -0.012936 -1626360.000000 1 0 0
1.793579 13.374183 5.284613 14.491819 1.437484 1.197527 0.002822 0.000884 442058.000000 1 0 0
17.514479 9.085483 -2.311687 19.865721 0.478528 1.687426 0.012626 0.005141 645658.000000 1 0 0
-7.175021 14.972383 7.314013 18.142435 -1.123913 1.155847 0.014054 -0.012630 -413189.000000 1 0 0
8.595979 15.762583 -0.011187 17.954108 1.071537 1.571419 0.009144 -0.012471 -914665.000000 1 0 0
15.698579 10.408283 2.184613 18.961811 0.585465 1.455329 0.020711 -0.001136 758325.000000 1 0 0
14.255779 7.385383 8.739613 18.279824 0.477993 1.072304 0.037511 -0.011639 -659844.000000 1 0 0
4.407179 18.218983 -1.955787 18.846211 1.333455 1.674760 0.022147 -0.020313 -113535.000000 1 0 0
-0.287521 17.493183 -4.972587 18.188478 -1.554362 1.847714 0.018951 -0.000128 195744.000000 1 0 0
1.247779 13.663183 -0.828187 13.745014 1.479725 1.631086 0.005284 -0.007381 -11651.200000 1 0 0
10.329979 14.484183 4.473513 18.344273 0.951273 1.324448 0.017784 -0.016576 395440.000000 1 0 0
-1.637721 15.294483 -5.213987 16.241582 -1.464124 1.897610 0.007010 0.001496 244621.000000 1 0 0
15.035279 8.675583 -6.312887 18.471002 0.523347 1.919599 0.046008 -0.011724 160881.000000 1 0 0
-2.263821 18.504283 0.928913 18.665375 -1.449061 1.521009 0.008665 -0.006402 -800153.000000 1 0 0
-3.724821 19.449583 3.553713 20.119379 -1.381576 1.393233 0.017795 -0.002168 -69000.300000 1 0 0
1.867379 17.547783 -2.571087 17.833179 1.464778 1.715475 0.012313 -0.009535 -119932.000000 1 0 0
2.896879 12.217383 3.303113 12.983332 1.337985 1.313557 0.004263 -0.002686 477576.000000 1 0 0
-2.482521 16.091483 1.797913 16.380818 -1.417728 1.460818 0.003801 -0.006672 -1147300.000000 1 0 0
11.831379 12.795983 -2.678587 17.632173 0.824546 1.723302 0.023174 0.001896 451957.000000 1 0 0
7.273979 11.569083 4.717413 14.457124 1.009510 1.238406 0.010011 -0.005177 601603.000000 1 0 0
7.116879 15.617183 2.069913 17.286726 1.143206 1.450768 0.002714 -0.011469 186448.000000 1 0 0
5.584979 12.206883 10.313913 16.928579 1.141701 0.915669 0.004969 0.003557 -223373.000000 1 0 0
-1.308621 14.178183 3.220413 14.598096 -1.478759 1.348362 -0.002142 0.003695 -1264580.000000 1 0 0
4.627079 15.940583 1.401213 16.657594 1.288289 1.486578 0.005975 -0.018169 -1566170.000000 1 0 0
7.353979 13.110183 12.013913 19.242973 1.059595 0.896526 0.023523 -0.005776 191191.000000 1 0 0
0.441979 17.178883 -9.494887 19.633192 1.545074 2.075575 0.012655 0.000782 351926.000000 1 0 0
9.817279 9.581083 15.550113 20.736011 0.773223 0.722872 0.048233 -0.012008 19157.600000 1 0 0
13.453179 7.535783 -0.062787 15.420117 0.510602 1.574868 0.000759 0.002296 -119854.000000 1 0 0
12.473479 13.458483 -0.130287 18.350352 0.823364 1.577896 0.028788 -0.007980 447523.000000 1 0 0
9.516079 12.307183 3.443413 15.933600 0.912603 1.352968 0.014274 -0.002156 708999.000000 1 0 0
-0.731721 12.894683 0.698313 12.934291 -1.514111 1.516781 0.003539 -0.003721 -407461.000000 1 0 0
15.923779 7.453983 -0.960387 17.608264 0.437807 1.625365 0.009276 -0.000097 -1094260.000000 1 0 0
-4.518721 18.548083 -2.398287 19.240634 -1.331829 1.695768 0.030798 -0.001031 151057.000000 1 0 0
11.588379 9.286183 -3.200787 15.191075 0.675555 1.783089 0.011261 0.000653 -146778.000000 1 0 0
14.698679 9.596783 7.887513 19.244799 0.578412 1.148505 0.032103 -0.010824 1077810.000000 1 0 0
4.423979 13.756983 4.714713 15.200483 1.259660 1.255426 0.008405 -0.003184 -661267.000000 1 0 0
2.273279 15.926583 5.674813 17.059523 1.429019 1.231686 0.003046 -0.003165 153110.000000 1 0 0
6.358279 18.307283 5.335013 20.100912 1.236521 1.302166 0.024693 -0.022067 -358971.000000 1 0 0
10.710279 17.056983 -0.893587 20.160586 1.010106 1.615134 0.025259 -0.012115 -521552.000000 1 0 0
9.958479 13.590883 -4.433787 17.422453 0.938438 1.828113 0.034265 -0.004544 826846.000000 1 0 0
16.585379 7.933083 2.258213 18.523178 0.446152 1.448579 0.006411 -0.004517 115641.000000 1 0 0
3.879079 13.900583 -0.438687 14.438348 1.298661 1.601184 0.002021 -0.009357 -568575.000000 1 0 0
5.533479 13.146583 -2.342887 14.454797 1.172398 1.733598 0.005265 -0.006224 4348.460000 1 0 0
-6.204921 16.623383 -2.953287 17.987768 -1.213548 1.735726 0.013843 -0.008351 -1661890.000000 1 0 0
18.216679 9.952383 2.702213 20.933210 0.500024 1.441348 0.042718 -0.004711 123536.000000 1 0 0
8.047179 12.862783 9.471813 17.886406 1.011753 1.012722 0.022178 -0.006360 319360.000000 1 0 0
-2.521621 15.840283 6.748613 17.401635 -1.412931 1.172537 0.000829 -0.000577 360964.000000 1 0 0
11.368779 15.794583 6.443213 20.499585 0.946912 1.251067 0.035382 -0.017263 -157854.000000 1 0 0
13.554779 11.804783 1.346113 18.024898 0.716500 1.496046 0.024100 -0.004325 -496725.000000 1 0 0
17.487879 7.793183 -5.591487 19.945534 0.419217 1.854942 0.033950 0.007899 1454160.000000 1 0 0
9.496179 9.285283 8.017813 15.513840 0.774170 1.027668 0.015490 -0.003628 -155096.000000 1 0 0
-2.009721 14.150883 -1.982987 14.429785 -1.429719 1.708656 0.002099 -0.002258 536046.000000 1 0 0
10.963879 11.607383 0.791013 15.986359 0.813900 1.521296 0.010691 0.000608 -440983.000000 1 0 0
11.824279 9.740583 -0.498287 15.327779 0.689073 1.603311 0.004179 0.002937 -1483490.000000 1 0 0
-0.218221 16.037483 11.206613 19.566212 -1.557190 0.960936 0.008371 -0.011091 -814258.000000 1 0 0
2.360879 19.911983 -1.460687 20.104587 1.452782 1.643515 0.034715 -0.019645 -191346.000000 1 0 0
9.265179 14.301383 1.983413 17.155379 0.995933 1.454923 0.013200 -0.012298 112288.000000 1 0 0
8.426479 11.759083 -5.158587 15.358795 0.949021 1.913327 0.017598 0.000565 -726461.000000 1 0 0
10.548179 10.157783 10.242513 17.870470 0.766546 0.960448 0.017239 -0.005441 -94264.100000 1 0 0
-5.046321 15.812083 5.852613 17.599443 -1.261871 1.231795 -0.000587 -0.005041 197380.000000 1 0 0
14.281679 9.143183 -1.852387 17.058590 0.569458 1.679601 0.021414 0.003785 -710433.000000 1 0 0
12.183479 9.557983 6.982413 16.986651 0.665220 1.147187 0.016506 -0.008374 -1278440.000000 1 0 0
3.343079 12.982083 9.568213 16.470014 1.318757 0.950904 0.004517 -0.003531 -717878.000000 1 0 0
8.452279 12.650683 -2.559987 15.428361 0.981782 1.737495 0.013457 0.000594 -701389.000000 1 0 0
9.438379 16.936483 2.188513 19.511972 1.062380 1.458397 0.011915 -0.012774 39829.700000 1 0 0
9.602479 14.408483 -7.583187 18.902823 0.982946 1.983587 0.056090 -0.006109 -847357.000000 1 0 0
6.420379 11.469283 7.332713 15.051060 1.060469 1.061928 0.008080 -0.001696 -1131110.000000 1 0 0
5.414979 16.846283 -5.480487 18.524443 1.259793 1.871143 0.025040 -0.003674 -1928230.000000 1 0 0
-4.150821 17.104483 -4.613187 18.195442 -1.332724 1.827130 0.010591 -0.001956 543228.000000 1 0 0
-0.068121 18.683183 -0.372687 18.687023 -1.567150 1.590741 0.008735 -0.004652 -485879.000000 1 0 0
6.493479 15.673483 -2.676887 17.175245 1.178026 1.727292 0.008117 -0.001185 227303.000000 1 0 0
-0.975221 20.807483 0.885313 20.849129 -1.523962 1.528321 0.018111 -0.007123 -40721.700000 1 0 0
-1.389321 18.801583 4.248313 19.325576 -1.497037 1.349158 0.011499 -0.006507 -1359750.000000 1 0 0
7.191179 13.823683 -4.301387 16.165061 1.091114 1.840132 0.015698 0.000654 -544520.000000 1 0 0
-0.889621 11.986783 7.680813 14.264266 -1.496715 1.002181 -0.002637 0.004386 480583.000000 1 0 0
7.713879 10.846583 10.936513 17.226712 0.952606 0.882972 0.014884 -0.001732 -48040.800000 1 0 0
1.533979 16.088983 -7.375287 17.765227 1.475740 1.998907 0.008677 0.000185 -147712.000000 1 0 0
8.912079 7.196083 14.791513 18.708224 0.679269 0.658939 0.036765 -0.009090 933400.000000 1 0 0
11.349479 11.368183 -4.827387 16.773489 0.786221 1.862724 0.037534 -0.003743 -109049.000000 1 0 0
-3.347221 17.033983 4.425813 17.915029 -1.376766 1.321167 0.002000 -0.000766 -266218.000000 1 0 0
3.951679 15.306283 -6.726887 17.179903 1.318140 1.973118 0.015740 -0.005270 -1147250.000000 1 0 0
-4.429121 13.998283 9.542313 17.510704 -1.264358 0.994477 0.020547 -0.009785 502162.000000 1 0 0
6.427479 17.696683 0.502313 18.834473 1.222409 1.544123 0.002863 -0.015392 -320660.000000 1 0 0
9.816279 10.703683 -2.064587 14.669379 0.828617 1.712006 0.008276 0.002310 61674.400000 1 0 0
7.458479 18.109583 -2.543287 19.749790 1.180114 1.699930 0.025518 -0.002849 48665.500000 1 0 0
3.599379 10.403883 10.313813 15.085458 1.237721 0.817986 -0.001819 0.003552 311095.000000 1 0 0
0.073079 18.684283 2.118913 18.804190 1.566885 1.457873 0.013088 -0.006553 748270.000000 1 0 0
-0.957021 17.049483 -7.392487 18.607783 -1.514723 1.979347 0.023308 0.000381 93689.100000 1 0 0
10.230179 8.792583 13.047913 18.767368 0.709969 0.802036 0.037391 -0.009243 312729.000000 1 0 0
3.676379 11.508983 5.611013 13.321258 1.261605 1.136020 -0.001597 0.000547 586452.000000 1 0 0
13.253379 13.899283 8.139513 20.858902 0.809182 1.169928 0.045814 -0.018309 -94847.600000 1 0 0
-0.528521 17.393583 6.662913 18.633584 -1.540420 1.205126 0.004264 -0.005765 -858692.000000 1 0 0
12.389479 13.443383 5.657413 19.137138 0.826173 1.270687 0.030574 -0.014145 -693386.000000 1 0 0
4.831379 14.466083 -4.467987 15.892535 1.248464 1.855775 0.010507 -0.002928 -1346940.000000 1 0 0
3.844879 17.597083 4.806013 18.642376 1.355682 1.310051 0.013179 -0.010726 -48323.600000 1 0 0
7.140479 11.665983 2.101413 13.838263 1.021544 1.418351 0.013760 -0.002421 905428.000000 1 0 0
6.483979 8.639383 11.710613 15.931710 0.926966 0.745055 0.006672 -0.002297 571458.000000 1 0 0
-5.342921 15.050183 1.781513 16.069492 -1.229668 1.459705 0.002778 0.004517 216996.000000 1 0 0
6.781879 13.712883 6.025813 16.442246 1.111508 1.195570 0.013511 -0.008818 -406827.000000 1 0 0
5.932579 15.816283 4.848513 17.574367 1.211944 1.291285 0.011789 -0.015600 958916.000000 1 0 0
1.312279 18.074183 4.344313 18.635214 1.498318 1.335507 0.012805 -0.008363 245677.000000 1 0 0
7.242679 18.108483 -6.904487 20.689260 1.190324 1.911047 0.024047 -0.003980 436012.000000 1 0 0
-2.339221 18.685183 -5.944287 19.746963 -1.446253 1.876561 0.019713 0.002258 -475763.000000 1 0 0
13.529079 10.030083 -4.615887 17.462673 0.637956 1.838304 0.032097 -0.002350 -825667.000000 1 0 0
-1.404021 17.994983 10.022813 20.645761 -1.492931 1.063900 0.018995 -0.005899 -215466.000000 1 0 0
3.353679 11.752483 -1.582787 12.323686 1.292825 1.699587 0.008456 -0.005135 890587.000000 1 0 0
4.367979 14.030783 -10.848387 18.265530 1.268992 2.206727 0.019172 -0.014502 -90343.600000 1 0 0
11.707079 13.388483 2.439713 17.951584 0.852298 1.434469 0.023968 -0.007509 63476.100000 1 0 0
15.940779 6.440283 -7.229887 18.650924 0.383961 1.968869 0.040205 -0.006553 389069.000000 1 0 0
2.643579 16.184983 3.047313 16.680177 1.408891 1.387074 0.010887 -0.007525 -207696.000000 1 0 0
13.544779 10.593783 3.610913 17.570657 0.663749 1.363813 0.017637 -0.002065 -257883.000000 1 0 0
-4.802421 19.359883 -5.778687 20.766837 -1.327644 1.852784 0.007869 -0.007419 395572.000000 1 0 0
5.507879 12.000983 0.061913 13.204702 1.140523 1.566108 0.010166 -0.005633 297066.000000 1 0 0
4.585179 15.572283 9.562113 18.840219 1.284444 1.038472 0.007355 -0.006745 -358273.000000 1 0 0
7.795279 9.355583 13.901813 18.481172 0.876124 0.719379 0.020979 -0.009324 -471779.000000 1 0 0
-4.985321 13.641683 7.017913 16.130717 -1.220427 1.120686 0.001515 -0.001303 -1308820.000000 1 0 0
-4.408121 17.024883 0.365613 17.590106 -1.317438 1.550010 0.010738 -0.009677 -240053.000000 1 0 0
-0.561621 16.578283 3.555313 16.964525 -1.536932 1.359658 0.006945 -0.004557 -1120980.000000 1 0 0
7.865879 16.801983 -4.748387 19.150088 1.132950 1.821367 0.018854 -0.007105 441792.000000 1 0 0
3.021279 16.336983 -4.493087 17.210838 1.387927 1.834918 0.009557 -0.003758 76845.300000 1 0 0
9.323079 14.459383 7.968513 18.960241 0.998101 1.137048 0.018666 -0.013847 -166190.000000 1 0 0
12.727679 10.949483 9.087313 19.090947 0.710437 1.074694 0.029723 -0.014634 48048.300000 1 0 0
3.681179 12.431383 12.069413 17.713303 1.282903 0.821156 0.006961 -0.004639 626694.000000 1 0 0
-3.183221 19.007883 6.097313 20.214097 -1.404868 1.264387 0.016802 -0.002470 83317.500000 1 0 0
-2.617921 15.747883 10.236213 18.963897 -1.406063 1.000628 0.014531 -0.013587 -958911.000000 1 0 0
2.037979 14.293183 7.697013 16.361309 1.429167 1.081007 0.003716 -0.001895 108714.000000 1 0 0
4.490579 17.370083 7.754513 19.545269 1.317812 1.162827 0.017989 -0.010914 140704.000000 1 0 0
-1.815721 13.495983 9.269113 16.472852 -1.437061 0.973160 0.002238 -0.004964 -1337440.000000 1 0 0
5.711079 17.653483 2.984213 18.792749 1.257913 1.411325 0.000282 -0.022799 168156.000000 1 0 0
7.200579 15.395883 -6.789187 18.302311 1.133325 1.950825 0.020512 -0.001233 135497.000000 1 0 0
11.051779 7.670983 9.449713 16.440282 0.606752 0.958449 0.015823 -0.006317 1259920.000000 1 0 0
9.063279 16.130383 -2.589287 18.682523 1.058881 1.709838 0.022143 -0.012981 -442932.000000 1 0 0
14.561579 11.355883 -6.590887 19.607026 0.662335 1.913622 0.079871 -0.010428 570532.000000 1 0 0
11.166179 6.367383 15.992213 20.517749 0.518248 0.677036 0.063448 -0.021569 -507091.000000 1 0 0
8.540779 8.450183 10.218913 15.772656 0.780066 0.865988 0.007576 -0.001604 1319380.000000 1 0 0
16.411479 9.251583 4.527713 19.375981 0.513321 1.334939 0.025799 -0.004918 92192.700000 1 0 0
-3.320721 14.309183 4.644213 15.406122 -1.342764 1.264581 -0.002378 0.003329 -880391.000000 1 0 0
4.838879 14.668083 12.893813 20.120085 1.252146 0.875201 0.016365 0.000174 -920839.000000 1 0 0
16.073179 10.573883 -4.708587 19.807193 0.581880 1.810815 0.058852 -0.010083 466035.000000 1 0 0
14.851879 13.936983 6.082913 21.256049 0.753629 1.280566 0.053486 -0.013424 -1588010.000000 1 0 0
6.235579 9.497783 9.275113 14.666903 0.989844 0.886170 0.000104 0.002709 281302.000000 1 0 0
10.500279 12.260383 8.577413 18.279630 0.862575 1.082374 0.028889 -0.008693 -1414520.000000 1 0 0
7.967379 11.555183 -0.293787 14.038792 0.967147 1.591725 0.006438 -0.001212 -665582.000000 1 0 0
7.394779 13.653583 -8.708587 17.802881 1.074425 2.081931 0.036753 -0.005056 -141223.000000 1 0 0
2.817979 15.233783 -2.185587 15.645636 1.387882 1.710948 0.007916 -0.007070 314949.000000 1 0 0
12.080779 13.955683 -7.792887 20.035853 0.857285 1.970285 0.076156 -0.014873 507441.000000 1 0 0
-8.022721 14.672483 9.786813 19.375952 -1.070423 1.041297 0.031628 -0.021662 244078.000000 1 0 0
11.506679 9.535283 2.220513 15.108142 0.691982 1.423287 0.012239 -0.002478 -1973940.000000 1 0 0
12.100779 8.676683 4.504513 15.556488 0.622068 1.277031 0.009189 -0.004976 237229.000000 1 0 0
13.972479 7.897483 6.133613 17.182015 0.514451 1.205765 0.013043 -0.006056 -2413140.000000 1 0 0
16.258979 7.352383 7.176313 19.233081 0.424686 1.188423 0.043910 -0.011378 -405752.000000 1 0 0
13.627379 8.287783 2.413813 16.131314 0.546406 1.420597 0.004001 -0.001885 -2128360.000000 1 0 0
-4.254121 17.269983 -7.242987 19.204445 -1.329274 1.957515 0.011180 -0.010488 422736.000000 1 0 0
3.190079 19.395683 -3.844587 20.028728 1.407782 1.763949 0.026324 -0.011852 550655.000000 1 0 0
-0.090421 14.891783 6.241313 16.147054 -1.564725 1.173931 0.001509 -0.000454 -1379880.000000 1 0 0
6.746779 16.281983 8.242213 19.456517 1.177963 1.133356 0.027525 -0.012271 -476643.000000 1 0 0
12.763979 15.104783 -2.164587 19.893694 0.869195 1.679820 0.052258 -0.014346 112487.000000 1 0 0
12.716379 15.567083 4.175813 20.529924 0.885849 1.365966 0.030529 -0.013569 -104191.000000 1 0 0
3.044879 18.037683 1.206213 18.332600 1.403566 1.504953 0.019143 -0.016088 -298780.000000 1 0 0
10.394179 14.461483 -1.219087 17.851040 0.947598 1.639142 0.023126 0.000836 -1226790.000000 1 0 0
-6.449821 15.734183 -0.461587 17.011107 -1.181764 1.597934 0.011515 -0.005058 -627603.000000 1 0 0
-3.869121 15.880883 -2.464787 16.530206 -1.331818 1.720463 0.008459 -0.000187 -2217330.000000 1 0 0
-6.623821 17.346983 1.649213 18.641693 -1.206040 1.482211 0.009083 0.000349 -36189.900000 1 0 0
0.167779 19.316083 -6.688687 20.442058 1.562111 1.904138 0.034688 -0.002708 439019.000000 1 0 0
4.794379 14.901183 7.042313 17.164658 1.259511 1.148035 0.011355 -0.008390 -454823.000000 1 0 0
8.690379 12.199383 6.884213 16.484539 0.951822 1.139976 0.022238 -0.009364 -1314270.000000 1 0 0
-7.774021 17.516083 -5.587287 19.961621 -1.153092 1.854488 0.039337 -0.013336 142845.000000 1 0 0
-7.806521 17.749183 -1.348887 19.436943 -1.156437 1.640250 0.029348 -0.012241 273208.000000 1 0 0
-13.677921 -8.889017 9.197713 18.726934 0.576291 1.057388 0.040398 -0.027346 336326.000000 1 0 0
-12.556221 -12.819517 7.771013 19.554727 0.795774 1.162117 0.030459 -0.015508 119026.000000 1 0 0
-3.888421 -15.029917 12.625613 20.010606 1.317635 0.888024 0.029498 -0.010200 340405.000000 1 0 0
-1.964121 -14.105017 15.067113 20.732274 1.432436 0.757222 0.044814 -0.007671 -352672.000000 1 0 0
-7.009221 -13.614117 12.913613 20.030846 1.095340 0.870183 0.023750 -0.011022 116864.000000 1 0 0
-9.911221 -11.527217 9.010013 17.671711 0.860634 1.035780 0.022082 -0.008410 259286.000000 1 0 0
-10.732021 -10.459817 11.217113 18.719179 0.772554 0.928256 0.043532 -0.024346 203327.000000 1 0 0
-6.034921 -12.199117 10.876613 17.422384 1.111397 0.896574 0.018740 -0.005989 586119.000000 1 0 0
-12.538921 -10.328717 7.247613 17.788615 0.689045 1.151158 0.020925 -0.013295 -307905.000000 1 0 0
-7.741421 -11.065117 12.521913 18.416426 0.960323 0.823127 0.026377 -0.014149 363023.000000 1 0 0
-14.788221 -11.499517 7.342313 20.120635 0.660941 1.197255 0.033169 -0.015944 -1224590.000000 1 0 0
-11.036321 -9.103317 9.035113 16.920521 0.689711 1.007503 0.015649 -0.015396 401299.000000 1 0 0
-5.401621 -11.638517 13.373813 18.533523 1.136266 0.764684 0.028414 -0.017309 -1263150.000000 1 0 0
4.120079 -12.335617 14.785313 19.691318 -1.248447 0.721442 0.007543 -0.006886 -422566.000000 1 0 0
6.640079 -12.597617 14.258213 20.151607 -1.085712 0.784775 0.025798 -0.001092 -227525.000000 1 0 0
6.728679 -8.524817 16.221313 19.521236 -0.902611 0.589970 0.023930 -0.005322 928236.000000 1 0 0
0.659779 -1.710317 14.427913 14.543905 -1.202622 0.126380 -0.003411 0.000377 -849363.000000 1 0 0
-0.106521 -6.343717 15.493113 16.741883 1.554006 0.388679 0.005470 -0.006436 -160214.000000 1 0 0
-1.494621 -4.749917 18.596713 19.251840 1.265943 0.261626 0.004877 -0.009160 -3550960.000000 1 0 0
-5.097421 12.733883 12.849813 18.795030 -1.190028 0.818001 0.021665 -0.012340 186541.000000 1 0 0
-3.900621 8.900083 11.590613 15.125099 -1.157742 0.697708 0.002068 0.006292 -314141.000000 1 0 0
-0.669221 -3.868517 15.079513 15.582201 1.399500 0.254697 -0.000883 0.001745 -8521.890000 1 0 0
-4.430021 9.162083 14.245313 17.507078 -1.120422 0.620326 0.004884 -0.006064 455851.000000 1 0 0
-13.452321 -2.465517 16.853513 21.704484 0.181266 0.681706 0.066427 0.001006 -855701.000000 1 0 0
-0.203021 1.044583 17.324713 17.357363 -1.378834 0.061346 0.013160 -0.004369 28645.900000 1 0 0
-3.192921 -7.227217 15.402213 17.310563 1.154790 0.473981 0.010841 -0.010699 323491.000000 1 0 0
-7.393321 5.578183 12.466013 15.529932 -0.646368 0.638973 -0.000001 0.000080 -2929830.000000 1 0 0
-9.802821 10.432083 13.141813 19.432727 -0.816486 0.828106 0.042501 -0.023448 -484467.000000 1 0 0
-5.597921 2.202183 11.066813 12.596058 -0.374798 0.497888 0.002599 0.002665 -1115520.000000 1 0 0
-7.355521 -7.391917 16.927413 19.881686 0.787866 0.552134 0.021392 -0.013244 -68852.300000 1 0 0
-4.939421 2.961483 18.613713 19.484316 -0.540096 0.300063 0.013538 -0.011029 -779533.000000 1 0 0
0.890279 -8.349717 16.547713 18.556325 -1.464574 0.469585 0.013027 -0.010771 619363.000000 1 0 0
-15.226321 -3.558117 13.754813 20.825367 0.229563 0.849334 0.081175 -0.015233 184278.000000 1 0 0
-14.244421 2.314583 13.221413 19.572087 -0.161083 0.829121 0.049994 -0.010707 -870913.000000 1 0 0
-5.441221 0.995883 16.032413 16.959863 -0.181022 0.332237 0.010123 -0.005647 659060.000000 1 0 0
4.503779 5.698683 15.143813 16.795657 0.901986 0.447225 0.006713 -0.007136 -446272.000000 1 0 0
-1.130621 -11.978017 13.831513 18.331993 1.476684 0.715902 0.011045 -0.011175 -117671.000000 1 0 0
-5.778821 -3.981417 16.883013 18.283397 0.603283 0.393932 0.017259 -0.007766 -36430.300000 1 0 0
-13.039221 -1.557417 9.933413 16.465707 0.118878 0.923190 0.029037 -0.003274 -708089.000000 1 0 0
-14.369821 10.455883 10.423613 20.602644 -0.629029 1.040330 0.029274 -0.000167 601801.000000 1 0 0
-3.436221 -3.384617 17.869913 18.509377 0.777833 0.263624 0.007756 -0.005666 -1273440.000000 1 0 0
-7.849821 9.383183 11.778613 16.982330 -0.874143 0.804349 0.010395 -0.013307 -27270.100000 1 0 0
-4.005421 10.569883 16.461413 19.968574 -1.208570 0.601715 -0.006738 -0.003937 327253.000000 1 0 0
-12.495421 12.696583 8.440513 19.712458 -0.793383 1.128317 0.039792 -0.014009 254230.000000 1 0 0
-12.684821 3.229483 10.525013 16.796134 -0.249298 0.893571 0.027203 -0.008453 1120300.000000 1 0 0
-10.076121 -3.457317 13.715413 17.366456 0.330532 0.660371 0.030895 -0.002265 -1420290.000000 1 0 0
-4.180121 -6.452917 17.726013 19.321623 0.995978 0.409253 0.016400 -0.010351 -174678.000000 1 0 0
0.682379 -3.628517 17.611013 17.993876 -1.384907 0.206656 0.008634 -0.020399 -327857.000000 1 0 0
-5.913421 1.871383 13.598313 14.946061 -0.306492 0.427932 0.006491 0.002432 -839900.000000 1 0 0
-10.487621 8.711983 10.256113 17.060970 -0.693177 0.925863 0.024048 -0.018546 247235.000000 1 0 0
4.649179 2.448183 17.230713 18.014049 0.484688 0.295985 0.021259 -0.008135 -1624160.000000 1 0 0
0.495279 -5.254717 13.173113 14.191134 -1.476820 0.381080 -0.002258 -0.000470 -2757300.000000 1 0 0
-4.047721 5.665183 20.827213 21.960217 -0.950411 0.322625 0.047802 -0.021562 18782.300000 1 0 0
-10.703721 10.823483 9.095413 17.732567 -0.790961 1.032212 0.023737 -0.015702 170096.000000 1 0 0
0.683379 4.237383 12.982313 13.673437 1.410899 0.319301 0.004265 -0.005817 -2520260.000000 1 0 0
-3.053621 7.222883 13.284513 15.426371 -1.170816 0.533257 -0.002664 0.004981 -2134190.000000 1 0 0
0.832979 8.844283 14.098213 16.663577 1.476891 0.562265 -0.006075 -0.000855 273147.000000 1 0 0
-4.155821 -6.606617 13.069813 15.222952 1.009298 0.538342 0.007124 -0.003224 -15376.200000 1 0 0
-5.024321 8.194583 16.618413 19.198089 -1.020780 0.524392 0.011408 0.002035 58801.200000 1 0 0
1.669679 -10.712317 15.744913 19.116586 -1.416175 0.603022 0.007815 -0.004527 217626.000000 1 0 0
-15.065321 -0.965017 14.352213 20.829814 0.063968 0.810657 0.068817 -0.009199 630455.000000 1 0 0
-13.454921 -5.279117 8.653013 16.845730 0.373899 1.031349 0.030401 -0.012650 -741063.000000 1 0 0
-14.170221 -1.917217 12.156213 18.768175 0.134482 0.866230 0.054186 -0.007541 596928.000000 1 0 0
9.421079 1.115383 16.853013 19.339723 0.117844 0.512707 0.068375 -0.009547 314478.000000 1 0 0
5.139379 -6.542817 16.839813 18.782997 -0.904960 0.458888 0.026355 -0.012362 473489.000000 1 0 0
-5.958921 -2.642417 10.891613 12.693240 0.417384 0.539308 0.007472 0.001774 943250.000000 1 0 0
0.518179 -6.194617 17.981813 19.025967 -1.487341 0.332836 0.015048 -0.017873 -3777.350000 1 0 0
-8.268421 12.093683 11.799613 18.811029 -0.971096 0.892752 0.020687 -0.019997 126688.000000 1 0 0
-6.542421 -5.730517 14.966613 17.310159 0.719340 0.526414 0.019038 -0.004242 -974808.000000 1 0 0
-4.326521 -8.905317 17.081413 19.743306 1.118544 0.525297 0.024279 -0.016488 97473.900000 1 0 0
2.475579 -6.308617 16.218313 17.577282 -1.196848 0.395806 0.011273 -0.008314 -744850.000000 1 0 0
2.182679 5.157483 16.058713 17.007233 1.170446 0.335553 0.005942 -0.007915 -1886120.000000 1 0 0
0.968579 -8.832617 14.069113 16.640109 -1.461573 0.563307 0.001807 -0.005278 -501603.000000 1 0 0
-9.881921 -2.706917 11.218213 15.193027 0.267368 0.740133 0.005409 -0.000258 -198223.000000 1 0 0
-1.151021 10.092483 12.400813 16.030072 -1.457240 0.686299 -0.005362 -0.000761 -308657.000000 1 0 0
-12.292321 -3.666817 11.425313 17.178023 0.289898 0.843152 0.031226 -0.000492 -570042.000000 1 0 0
-1.705721 6.499983 19.870913 20.976474 -1.314164 0.326112 0.031014 -0.023047 153569.000000 1 0 0
0.390979 -13.307717 15.569313 20.485403 -1.541425 0.707453 0.017798 -0.017863 -909170.000000 1 0 0
4.191779 -8.540117 15.522713 18.206022 -1.114508 0.549828 0.011862 -0.007551 -1198380.000000 1 0 0
4.302079 -4.376717 16.207713 17.330710 -0.793998 0.361967 0.023166 -0.006644 -29225.900000 1 0 0
8.067779 1.826583 14.772313 16.930644 0.222651 0.510461 0.024504 -0.002245 -770389.000000 1 0 0
-6.350821 -0.139917 11.882413 13.473835 0.022028 0.490945 0.004083 0.001920 115466.000000 1 0 0
-3.439221 -10.927217 18.426013 21.696780 1.265873 0.556231 0.048697 -0.019570 607240.000000 1 0 0
3.192179 -1.460717 13.536713 13.984503 -0.429150 0.253743 -0.000595 -0.003680 768483.000000 1 0 0
-2.524121 8.501483 15.869013 18.178888 -1.282183 0.509607 0.008212 -0.004411 -846405.000000 1 0 0
-3.238021 4.038283 14.763713 15.644799 -0.894940 0.337209 0.008329 -0.004081 43742.300000 1 0 0
-4.884321 -9.146917 19.698413 22.260956 1.080331 0.484547 0.046104 -0.017183 208138.000000 1 0 0
-5.555421 -2.645217 19.158613 20.122434 0.444387 0.310758 0.014556 -0.017952 -1233140.000000 1 0 0
-6.615921 -8.609717 11.178113 15.583576 0.915607 0.770876 0.014956 -0.007851 131376.000000 1 0 0
-11.585021 2.612883 12.770113 17.438912 -0.221828 0.749137 0.039845 -0.020111 278015.000000 1 0 0
-11.789021 -7.351617 11.413713 17.980549 0.557591 0.883071 0.037533 -0.017576 -793379.000000 1 0 0
-11.006121 -7.407617 15.533313 20.427709 0.592406 0.706861 0.056307 -0.027319 1103900.000000 1 0 0
0.157079 5.686783 17.564313 18.462645 1.543182 0.313230 0.004466 -0.014133 -30900.800000 1 0 0
-2.258921 -0.135317 13.148513 13.341830 0.059832 0.170439 0.000793 0.002643 114021.000000 1 0 0
-6.129121 -10.633117 18.026813 21.808148 1.047897 0.597741 0.054281 -0.025819 1196300.000000 1 0 0
0.393879 2.902883 19.064413 19.288176 1.435934 0.152470 0.029411 -0.019137 82532.800000 1 0 0
-0.773721 10.832183 14.791313 18.349871 -1.499489 0.633312 0.009059 -0.003049 432881.000000 1 0 0
-12.829821 -2.432517 14.305013 19.368914 0.187375 0.739871 0.050327 -0.002486 44292.900000 1 0 0
-13.663121 8.368783 11.861313 19.935098 -0.549566 0.933535 0.041115 -0.015211 89721.800000 1 0 0
-18.004721 -0.820717 6.940913 19.313721 0.045552 1.203196 0.065245 -0.015906 -301183.000000 1 0 0
-2.001021 -7.949717 17.748513 19.550238 1.324209 0.432690 0.010571 -0.010129 -908347.000000 1 0 0
5.746879 2.638083 14.437013 15.761137 0.430351 0.412833 0.013347 -0.004934 -2918080.000000 1 0 0
-14.395721 -6.930017 11.165113 19.491579 0.448653 0.960858 0.069577 -0.015903 798078.000000 1 0 0
3.094779 7.682483 16.308913 18.291497 1.187848 0.469904 0.007460 -0.014392 -421063.000000 1 0 0
0.987579 2.080983 14.509313 14.691017 1.127696 0.157442 0.003333 -0.006839 -2081870.000000 1 0 0
-14.279821 0.717383 9.746013 17.303545 -0.050195 0.972497 0.035066 -0.008564 -3532370.000000 1 0 0
-9.699021 -5.208617 15.461013 18.980085 0.492827 0.618772 0.039209 -0.006049 86828.600000 1 0 0
-2.338721 -0.108617 18.201913 18.351868 0.046410 0.127924 0.015520 -0.012068 128468.000000 1 0 0
6.838879 3.763383 17.235113 18.920424 0.503068 0.425272 0.044190 -0.018868 -327947.000000 1 0 0
-4.183921 -0.695817 14.717213 15.316191 0.164799 0.280589 0.011788 0.003849 -1670540.000000 1 0 0
4.799979 -8.823917 17.999313 20.612535 -1.072592 0.509022 0.025897 -0.003522 -30311.900000 1 0 0
1.975879 6.836783 13.428613 15.197807 1.289455 0.487325 -0.000044 -0.004327 -1217770.000000 1 0 0
-3.468821 -0.603017 20.462113 20.762813 0.172119 0.170398 0.015773 -0.016363 -1352930.000000 1 0 0
-10.597021 1.420783 16.407413 19.583633 -0.133279 0.577532 0.037537 -0.007525 -323669.000000 1 0 0
-3.879921 6.889283 18.514513 20.132143 -1.057889 0.403610 0.023073 -0.014282 -663942.000000 1 0 0
-12.620721 1.273583 14.779413 19.476541 -0.100572 0.709279 0.049706 -0.012937 -855279.000000 1 0 0
-15.885421 -4.950017 8.500413 18.684386 0.302072 1.098483 0.039621 -0.020036 -1596400.000000 1 0 0
-2.175321 0.793283 15.716013 15.885666 -0.349687 0.146278 0.014153 -0.001239 321685.000000 1 0 0
-13.535121 -8.920817 12.663413 20.570428 0.582737 0.907633 0.038214 -0.023487 784526.000000 1 0 0
5.995479 -3.170017 14.630813 16.126236 -0.486370 0.434055 0.017387 -0.008573 557120.000000 1 0 0
-15.743921 0.284783 7.619513 17.493116 -0.018086 1.120123 0.038546 -0.012624 184853.000000 1 0 0
-14.031721 5.870883 12.381313 19.612582 -0.396268 0.887575 0.051728 -0.022526 -66509.900000 1 0 0
0.325279 9.378083 16.666213 19.126341 1.536125 0.512799 -0.004836 -0.009185 -509340.000000 1 0 0
-10.296621 -5.349117 10.842313 15.880466 0.479127 0.819283 0.022453 -0.009142 79962.200000 1 0 0
-3.171721 -11.059017 15.220913 19.079777 1.291494 0.647240 0.022344 -0.010424 -1070270.000000 1 0 0
-3.657221 2.946783 12.540913 13.391538 -0.678233 0.358340 0.006989 0.000452 -2070350.000000 1 0 0
-12.435421 -7.751617 7.371413 16.403201 0.557412 1.104715 0.028265 -0.012636 -142580.000000 1 0 0
-8.131421 -1.841017 13.251713 15.656221 0.222654 0.561573 0.017047 0.001947 -177992.000000 1 0 0
-9.756921 6.447383 9.578913 15.116938 -0.583931 0.884529 0.006828 -0.006969 -381960.000000 1 0 0
-18.167321 -3.635417 6.682213 19.695679 0.197499 1.224652 0.060853 -0.015044 907866.000000 1 0 0
-1.062721 0.089483 20.550713 20.578367 -0.084003 0.051849 0.030086 -0.013904 -464372.000000 1 0 0
-2.889021 2.581983 20.255013 20.622285 -0.729336 0.189011 0.039045 -0.017264 -272920.000000 1 0 0
-3.802421 11.352283 11.089313 16.318872 -1.247594 0.823662 0.005553 -0.006915 -476598.000000 1 0 0
-4.109721 -4.812417 14.913413 16.200588 0.863995 0.401316 0.007104 -0.005508 1299850.000000 1 0 0
-0.136721 -14.397017 13.260113 19.573538 1.561300 0.826505 0.019645 -0.007900 126903.000000 1 0 0
-12.087621 0.412483 8.419513 14.736652 -0.034111 0.962669 0.009576 0.000635 -355157.000000 1 0 0
-7.791521 2.033383 15.355813 17.339073 -0.255280 0.482971 0.006811 -0.000894 -1205000.000000 1 0 0
3.508879 -2.193617 18.488413 18.945860 -0.558716 0.220194 0.025613 -0.007439 -110681.000000 1 0 0
-2.093421 4.930483 12.580813 13.673658 -1.169275 0.402520 -0.001946 -0.000453 -559733.000000 1 0 0
-10.420821 -6.208517 13.285913 17.990405 0.537311 0.739953 0.033839 -0.012941 -560520.000000 1 0 0
2.381479 -3.725217 14.210813 14.882738 -1.001990 0.301635 -0.003132 -0.002736 -433601.000000 1 0 0
6.777579 1.075783 17.015113 18.346852 0.157413 0.383360 0.038830 -0.005158 -1336330.000000 1 0 0
-1.879021 -5.738417 13.784013 15.048561 1.254354 0.412880 0.002061 -0.003214 -1486470.000000 1 0 0
-12.826821 3.815483 14.769313 19.930325 -0.289126 0.736168 0.038929 -0.007021 385371.000000 1 0 0
-13.328521 -6.356517 13.406213 19.944456 0.445006 0.833651 0.048058 -0.021595 -286246.000000 1 0 0
-9.460921 6.952983 12.015713 16.799713 -0.633777 0.773839 0.017710 -0.005826 -111133.000000 1 0 0
-1.094921 -2.418017 12.885613 13.156165 1.145602 0.203153 -0.002492 0.003465 327986.000000 1 0 0
0.165479 6.632783 15.218813 16.602213 1.545853 0.411120 0.000523 -0.008853 29462.800000 1 0 0
-16.350921 -0.890417 9.919513 19.145292 0.054403 1.026148 0.056380 -0.009533 31036.900000 1 0 0
-1.313021 2.742083 13.609413 13.944862 -1.124219 0.219784 0.001760 -0.001934 -969863.000000 1 0 0
-11.105121 -3.197017 16.215513 19.911994 0.280307 0.619172 0.039251 -0.005085 -63934.600000 1 0 0
-4.853721 -1.406917 17.101813 17.832836 0.282132 0.287319 0.004750 -0.005714 213345.000000 1 0 0
-11.901321 6.690483 11.071213 17.577706 -0.512133 0.889444 0.039613 -0.012970 -961606.000000 1 0 0
-2.859221 4.601883 18.700613 19.469602 -1.014851 0.281992 0.036188 -0.015378 208163.000000 1 0 0
5.177279 -1.822717 16.546913 17.433498 -0.338510 0.320288 0.026558 -0.006718 -330961.000000 1 0 0
-7.948421 -4.013117 12.160413 15.071767 0.467556 0.632023 0.017720 -0.003099 -836519.000000 1 0 0
-11.819421 -0.786517 16.151613 20.029776 0.066447 0.632791 0.065135 -0.004375 305952.000000 1 0 0
2.143079 2.194583 17.255113 17.525636 0.797271 0.175930 0.007016 -0.009607 -2195590.000000 1 0 0
-9.050021 -7.515117 11.548613 16.484852 0.693003 0.794616 0.022729 -0.012981 1292570.000000 1 0 0
-7.113321 6.977683 14.708413 17.765832 -0.775773 0.595435 0.010187 -0.008247 -548877.000000 1 0 0
-5.643121 3.494283 15.678813 17.025863 -0.554426 0.400459 0.007943 -0.004385 -789700.000000 1 0 0
-9.338421 4.269283 11.588013 15.482730 -0.428804 0.725078 0.006842 -0.006157 -26224.300000 1 0 0
-10.411321 0.048783 14.158713 17.574616 -0.004685 0.634051 0.021302 -0.000774 -711746.000000 1 0 0
8.000879 -0.655317 15.578813 17.525494 -0.081723 0.475808 0.041144 -0.011305 -96696.000000 1 0 0
-8.471621 -7.376817 14.646313 18.458068 0.716428 0.654272 0.037281 -0.012349 -2454220.000000 1 0 0
-0.146121 4.121183 15.512313 16.051086 -1.535355 0.259829 0.001171 -0.010045 27766.300000 1 0 0
-8.107721 3.134183 9.497413 12.874746 -0.368873 0.741172 0.002298 -0.001529 -64260.500000 1 0 0
-2.284221 -9.618917 13.237713 16.522055 1.337643 0.641474 0.006980 -0.005761 722505.000000 1 0 0
-5.967821 10.280683 10.417713 15.806203 -1.044847 0.851188 0.016001 -0.007911 -2829130.000000 1 0 0
-8.523021 -2.865717 15.657413 18.055714 0.324358 0.521301 0.022693 -0.006506 -545304.000000 1 0 0
4.146679 5.722583 17.625113 18.989142 0.943739 0.381337 0.014201 -0.011641 359885.000000 1 0 0
-6.732621 -1.016417 15.274813 16.723672 0.149838 0.419323 0.010120 0.002602 525224.000000 1 0 0
-0.928421 -9.980317 15.420413 18.391787 1.478038 0.576382 0.006050 -0.007820 -880797.000000 1 0 0
-4.284821 5.717783 16.276413 17.775667 -0.927689 0.413657 0.012618 -0.006124 336113.000000 1 0 0
3.713279 0.123583 17.442113 17.833425 0.033269 0.209873 0.019234 -0.005832 -631796.000000 1 0 0
1.581479 0.628683 19.300213 19.375101 0.378374 0.087951 0.010283 -0.005558 -349299.000000 1 0 0
-6.328421 6.280083 17.793613 19.902287 -0.781564 0.464493 0.018730 -0.012165 -278305.000000 1 0 0
-12.186321 0.662783 11.009513 16.436395 -0.054334 0.836823 0.027282 -0.005831 -58899.400000 1 0 0
-5.264421 5.261483 13.851513 15.724559 -0.785119 0.493070 0.000642 0.000521 -1886240.000000 1 0 0
-8.618121 -9.453217 9.977413 16.222950 0.831576 0.908387 0.016461 -0.008726 -266131.000000 1 0 0
6.789679 -3.803617 17.091413 18.779874 -0.510645 0.427290 0.037055 -0.007353 -352260.000000 1 0 0
-16.616421 1.642983 9.573713 19.247358 -0.098557 1.050193 0.056323 -0.020174 -21183.200000 1 0 0
-4.153621 -9.498617 11.378013 15.392709 1.158565 0.738941 0.005787 -0.007838 509920.000000 1 0 0
-10.991721 -3.757417 9.141713 14.781983 0.329388 0.904045 0.016307 -0.002403 -310319.000000 1 0 0
3.532579 -5.350717 18.500513 19.580048 -0.987279 0.333613 0.018774 -0.014399 -331760.000000 1 0 0
2.549179 -1.800617 16.080513 16.380581 -0.614976 0.191701 0.002861 -0.003521 -443724.000000 1 0 0
-3.171221 -4.127017 20.391213 21.044964 0.915620 0.249907 0.010342 -0.011470 -1440970.000000 1 0 0
-6.191221 -3.329617 14.404313 16.028157 0.493426 0.454027 0.008088 0.001176 883445.000000 1 0 0
-9.483521 5.286983 13.994913 17.712903 -0.508577 0.659829 0.026354 -0.007117 61037.400000 1 0 0
-5.870221 -5.186317 11.758513 14.128695 0.723622 0.587654 0.007006 0.000644 -953643.000000 1 0 0
6.204879 2.159483 19.298513 20.386184 0.334918 0.328130 0.063543 -0.019518 137532.000000 1 0 0
-2.773921 11.766683 13.489213 18.113761 -1.339280 0.730720 0.018701 -0.014741 -33715.000000 1 0 0
3.398979 1.420883 15.128913 15.570998 0.395954 0.238860 0.006127 -0.002679 -730483.000000 1 0 0
-5.566221 7.432083 12.652913 15.694422 -0.927971 0.633088 -0.005364 -0.007529 -959060.000000 1 0 0
-1.919121 -1.673117 15.222513 15.433964 0.717023 0.165721 0.003983 0.001142 45528.700000 1 0 0
-7.415821 10.698383 13.916113 19.055393 -0.964668 0.752038 0.033757 -0.023535 -142600.000000 1 0 0
-10.197921 2.162183 10.664313 14.913088 -0.208928 0.774033 0.006633 -0.003148 -1372960.000000 1 0 0
-13.779221 5.151683 9.133713 17.315642 -0.357783 1.015161 0.023440 -0.011039 780409.000000 1 0 0
0.688679 -4.702717 19.975313 20.532973 -1.425387 0.233594 0.025802 -0.026570 -88469.100000 1 0 0
-14.341421 -2.987617 7.617713 16.511564 0.205383 1.091273 0.024208 -0.007882 507814.000000 1 0 0
-2.465221 2.397983 17.711613 18.042419 -0.771573 0.191787 0.016330 -0.009358 154734.000000 1 0 0
-6.343721 -8.444717 14.796813 18.179706 0.926524 0.619930 0.012073 -0.001442 -692432.000000 1 0 0
-7.974321 2.059583 12.003313 14.557170 -0.252753 0.601366 0.001117 -0.000325 -572414.000000 1 0 0
-14.571921 -3.504917 10.223113 18.142143 0.236042 0.972179 0.038598 -0.009039 -285933.000000 1 0 0
-0.524721 7.063583 12.686313 14.529696 -1.496647 0.509210 -0.001958 -0.003162 -982922.000000 1 0 0
-1.659121 -2.279417 19.561013 19.763139 0.941609 0.143143 0.009574 -0.004622 -234965.000000 1 0 0
-12.705121 10.215883 7.433113 17.917464 -0.677221 1.143015 0.019972 -0.013604 -523653.000000 1 0 0
-19.478921 1.972683 6.941213 20.772584 -0.100929 1.230090 0.079114 -0.019514 1336940.000000 1 0 0
-16.231621 8.329383 6.869513 19.494469 -0.474118 1.210680 0.035471 -0.001469 386986.000000 1 0 0
-12.224821 7.226683 13.639613 19.690359 -0.533886 0.805563 0.038275 -0.015415 -145423.000000 1 0 0
-16.073821 8.563383 10.993313 21.273273 -0.489506 1.027727 0.042345 0.007143 -96964.100000 1 0 0
1.803279 10.938883 15.109213 18.740312 1.407415 0.633026 -0.001468 -0.004197 -716669.000000 1 0 0
2.352979 14.675183 12.207113 19.233073 1.411812 0.883184 0.007546 -0.008309 -1510700.000000 1 0 0
-2.968721 13.639883 11.621613 18.163744 -1.356489 0.876526 -0.001511 -0.013408 -13039.600000 1 0 0
9.241679 4.750683 15.784613 18.897927 0.474824 0.582198 0.044199 -0.004696 -117275.000000 1 0 0
-0.319321 12.607083 12.902713 18.042187 -1.545473 0.773970 0.001135 -0.003939 111799.000000 1 0 0
3.259279 13.426683 14.403113 19.958667 1.332656 0.764618 0.013637 -0.009181 -98428.200000 1 0 0
-2.932921 -4.064217 -13.735287 14.621149 0.945691 2.791708 0.006106 -0.011493 -344659.000000 1 0 0
5.886579 -11.458617 16.368713 20.829943 -1.096229 0.666766 0.020959 -0.005986 171278.000000 1 0 0
7.825779 -13.415917 7.322313 17.171079 -1.042731 1.130251 -0.001041 -0.006983 -365407.000000 1 0 0
-0.044921 15.509983 1.376613 15.571019 -1.567900 1.482272 0.002481 -0.005766 -3811360.000000 1 0 0
-14.214821 8.146883 9.220613 18.800333 -0.520425 1.058191 0.042094 -0.006639 247910.000000 1 0 0
-15.512121 -9.778317 4.901813 18.980757 0.562449 1.309584 0.029072 -0.013276 -929141.000000 1 0 0
9.771279 -11.296317 11.061213 18.585885 -0.857660 0.933356 0.034007 -0.002730 35991.100000 1 0 0
-5.713921 -10.591317 -16.726387 20.605749 1.076057 2.517911 0.026681 -0.008388 143716.000000 1 0 0
-1.964421 -12.645917 -14.927387 19.662275 1.416688 2.432863 0.020167 -0.000959 -84454.500000 1 0 0
5.339579 -16.065517 -12.238187 20.889834 -1.249920 2.196718 0.037267 -0.007107 231815.000000 1 0 0
1.134979 -11.909917 -16.372987 20.278289 -1.475786 2.510553 0.020487 -0.008531 139394.000000 1 0 0
0.403279 -13.903217 -14.318087 19.961706 -1.541798 2.370684 0.033599 0.001633 108061.000000 1 0 0
-6.528121 -6.165617 -14.363487 16.939331 0.756848 2.582878 0.014898 -0.014057 -104744.000000 1 0 0
-6.074521 -8.169017 -17.145887 19.940263 0.931401 2.605797 0.014328 -0.013087 -30999.100000 1 0 0
-2.035021 -16.249917 -13.049087 20.939909 1.446212 2.243584 0.017574 -0.007363 183840.000000 1 0 0
16.447679 -8.100917 -9.031387 20.438125 -0.457651 2.028500 0.077446 -0.010278 42695.400000 1 0 0
19.003479 -2.689517 -3.712787 19.548671 -0.140594 1.761882 0.077774 -0.023295 85256.600000 1 0 0
15.835679 -11.514117 -8.842087 21.483160 -0.628683 1.994986 0.080785 -0.016734 126093.000000 1 0 0
18.709779 -3.539317 -6.889587 20.249667 -0.186960 1.917960 0.197295 -0.013993 -292599.000000 1 0 0
8.878179 -9.683717 -15.867487 20.600330 -0.828768 2.450036 0.074484 -0.008723 152522.000000 1 0 0
-4.609021 10.097483 -16.383387 19.789330 -1.142590 2.546131 0.021142 0.003460 477228.000000 1 0 0
2.567979 -9.827317 -18.351787 20.975194 -1.315201 2.636084 0.041624 -0.004597 242583.000000 1 0 0
11.061379 7.888683 -15.019287 20.252516 0.619513 2.406250 0.093213 -0.042822 421284.000000 1 0 0
17.685279 -6.540417 -7.346787 20.236636 -0.354224 1.942329 0.033489 -0.017426 227008.000000 1 0 0
12.122679 5.070583 -14.036487 19.227406 0.396159 2.389155 0.051015 -0.014838 141302.000000 1 0 0
15.745779 6.381383 -10.796987 20.130239 0.385046 2.136911 0.045165 -0.021525 249600.000000 1 0 0
3.459479 -0.379917 -19.198487 19.511387 -0.109381 2.962261 0.048567 -0.010881 203023.000000 1 0 0
10.213179 -1.400517 -15.011987 18.210717 -0.136278 2.539848 0.036433 -0.003988 52477.100000 1 0 0
12.267579 -6.151517 -13.593587 19.316321 -0.464803 2.351438 0.058405 -0.014134 327281.000000 1 0 0
10.035679 6.740383 -13.055087 17.792777 0.591439 2.394591 0.039352 -0.007007 375900.000000 1 0 0
10.793779 4.966783 -16.209287 20.097651 0.431264 2.509049 0.071694 -0.028854 191380.000000 1 0 0
12.050979 -9.797117 -14.552987 21.283774 -0.682601 2.323699 0.094121 -0.029332 291396.000000 1 0 0
-1.806321 2.138383 -17.184287 17.410778 -0.869379 2.980118 0.007487 -0.014297 367559.000000 1 0 0
6.446279 -1.112017 -17.478287 18.662305 -0.170824 2.783468 0.035866 0.011607 -65613.200000 1 0 0
7.146979 -6.262017 -15.564987 18.236255 -0.719496 2.593498 0.035321 -0.010031 260788.000000 1 0 0
-2.368721 -4.826417 -20.001387 20.711364 1.114550 2.879001 0.048507 -0.034011 168626.000000 1 0 0
16.070879 -0.208717 -13.070187 20.715852 -0.012987 2.253544 0.067055 -0.017647 87594.300000 1 0 0
-3.762121 -0.563217 -18.725087 19.107581 0.148604 2.941168 0.010285 -0.005041 190587.000000 1 0 0
4.729079 8.585083 -18.123487 20.604092 1.067302 2.645830 0.045219 -0.016287 217888.000000 1 0 0
9.815879 0.071683 -17.178387 19.785186 0.007303 2.622450 0.056401 -0.018956 -55350.400000 1 0 0
4.244179 4.533083 -18.265987 19.292697 0.818301 2.813884 0.039819 -0.011593 392768.000000 1 0 0
-1.841621 -10.667917 -18.728287 21.632031 1.399850 2.617476 0.028936 0.001226 189025.000000 1 0 0
5.976579 -9.824417 -15.779087 19.524811 -1.024268 2.511810 0.041167 -0.013823 75945.500000 1 0 0
10.221779 -12.385417 -10.563687 19.221728 -0.880813 2.152646 0.044199 -0.010102 246737.000000 1 0 0
6.432279 6.904783 -17.052087 19.489071 0.820811 2.636142 0.041963 -0.016919 583456.000000 1 0 0
8.726779 1.623483 -20.106887 21.979064 0.183932 2.725858 0.080987 -0.023766 78788.400000 1 0 0
-0.752921 -1.274117 -20.351487 20.405227 1.037069 3.069001 0.044151 -0.015832 155268.000000 1 0 0
-0.486421 6.891083 -19.787987 20.959199 -1.500326 2.805709 0.034584 -0.006605 142079.000000 1 0 0
8.980979 5.843483 -18.170787 21.094591 0.576833 2.608807 0.078525 -0.023680 152578.000000 1 0 0
12.491579 -0.089017 -13.825887 18.633374 -0.007126 2.406839 0.049031 0.005310 -11048.900000 1 0 0
-3.834721 -2.773917 -19.736787 20.296316 0.626238 2.906239 -0.002844 -0.014487 295177.000000 1 0 0
6.627679 -11.634717 -14.233387 19.541804 -1.052994 2.386716 0.048447 -0.009157 18427.700000 1 0 0
12.065879 2.713183 -15.665987 19.959207 0.221185 2.473331 0.078280 -0.012304 3959.030000 1 0 0
-2.847821 -4.343417 -17.119587 17.890098 0.990450 2.847036 0.013172 -0.011935 177834.000000 1 0 0
-6.852021 -4.778917 -17.108487 19.039132 0.609010 2.687355 0.026739 -0.026737 -8575.840000 1 0 0
3.240879 10.282383 -15.579087 18.945676 1.265465 2.536243 0.008619 -0.009201 235557.000000 1 0 0
17.034679 -6.136917 -10.835287 21.100841 -0.345786 2.110055 0.084149 -0.016199 -33556.800000 1 0 0
9.509279 -3.341817 -17.794287 20.450691 -0.337946 2.626215 0.036419 -0.017220 -1207.890000 1 0 0
-7.069121 -1.733017 -19.014287 20.359738 0.240412 2.776011 0.002578 -0.000053 574712.000000 1 0 0
1.758079 -7.585017 -19.450187 20.950730 -1.343035 2.760819 0.058233 -0.020175 198306.000000 1 0 0
5.971979 10.303783 -13.848487 18.265078 1.045519 2.431336 0.034559 -0.017739 424524.000000 1 0 0
6.138079 -4.108017 -17.051087 18.582018 -0.589801 2.732827 0.050044 -0.036249 284944.000000 1 0 0
4.552179 13.319983 -14.869287 20.475350 1.241485 2.383581 0.036424 -0.010472 105984.000000 1 0 0
9.561479 11.154683 -15.585787 21.418814 0.862153 2.385712 0.096841 -0.022776 164954.000000 1 0 0
17.332879 1.324583 -11.334887 20.752419 0.076272 2.148612 0.098053 -0.008178 124422.000000 1 0 0
14.826879 -2.888117 -12.462387 19.582867 -0.192380 2.260609 0.062777 -0.007444 76863.100000 1 0 0
-8.683221 0.382983 -17.412187 19.460967 -0.044077 2.678608 0.025173 -0.013660 434501.000000 1 0 0
-3.648621 4.280283 -18.963587 19.780063 -0.864896 2.853270 0.024722 -0.005369 175097.000000 1 0 0
3.780979 1.447383 -17.230787 17.700021 0.365597 2.910819 0.020784 0.001067 561452.000000 1 0 0
-5.284121 14.381083 -13.616487 20.497468 -1.218674 2.297355 0.030144 -0.018158 442176.000000 1 0 0
1.307779 8.998083 -17.718987 19.915779 1.426467 2.667475 0.027331 -0.020437 376293.000000 1 0 0
1.281679 -5.228017 -19.704587 20.426591 -1.330382 2.874922 0.043314 -0.012100 482059.000000 1 0 0
3.642279 -6.037017 -18.219987 19.536625 -1.027936 2.772366 0.042348 -0.017103 -4360.290000 1 0 0
-6.379321 7.599583 -15.980387 18.810161 -0.872471 2.585950 0.002755 0.000406 166840.000000 1 0 0
-11.788021 3.229183 -16.934387 20.884408 -0.267378 2.516421 0.063269 -0.022144 393504.000000 1 0 0
-4.476421 7.158883 -17.545087 19.470953 -1.011984 2.693074 0.010981 0.018395 580010.000000 1 0 0
-8.283421 5.297383 -17.827387 20.359102 -0.568970 2.637570 0.026619 -0.004026 260681.000000 1 0 0
-8.405821 4.563583 -15.213687 17.970542 -0.497382 2.580342 0.003368 -0.011671 476706.000000 1 0 0
9.530679 13.721083 -12.930787 21.125984 0.963703 2.229484 0.094724 -0.031061 524979.000000 1 0 0
14.342579 8.682583 -12.022487 20.630972 0.544359 2.192892 0.120967 -0.030438 -3447.330000 1 0 0
8.552479 15.667083 -9.915487 20.418601 1.071115 2.077858 0.054979 -0.015816 10351.700000 1 0 0
7.318079 12.859883 -14.531387 20.738661 1.053436 2.347161 0.087770 -0.031620 147215.000000 1 0 0
4.147279 15.242783 -13.071287 20.503680 1.305145 2.262057 0.035128 -0.021494 217346.000000 1 0 0
11.196779 11.553883 -10.875487 19.419997 0.801093 2.165200 0.094936 -0.037057 410809.000000 1 0 0
16.247279 10.310183 -9.956587 21.665816 0.565458 2.048288 0.122173 -0.029241 319722.000000 1 0 0
12.731979 10.529483 -9.028687 18.827918 0.690995 2.070924 0.079655 -0.038755 223988.000000 1 0 0
10.477679 11.820483 -7.469487 17.472802 0.845546 2.012513 0.050221 -0.011006 168570.000000 1 0 0
5.828179 17.077683 -10.356787 20.805719 1.241916 2.091840 0.056686 -0.004202 -15013.200000 1 0 0
11.195179 13.721783 -10.563287 20.620436 0.886454 2.108625 0.104797 -0.038862 117088.000000 1 0 0
8.632979 -19.309917 -1.651387 21.216228 -1.150378 1.648711 0.053179 -0.014763 314414.000000 1 0 0
7.911379 -17.420117 -4.095287 19.565832 -1.144495 1.781664 0.040530 0.001686 -7342.770000 1 0 0
3.966479 -18.420917 5.256313 19.562515 -1.358710 1.298760 0.042861 -0.024624 223979.000000 1 0 0
10.362179 -17.607917 -2.697787 20.608046 -1.038879 1.702083 0.046349 -0.011072 586589.000000 1 0 0
-3.236121 -14.702817 7.950813 17.025297 1.354149 1.084901 0.037745 -0.030698 136772.000000 1 0 0
-15.446721 -12.712917 -4.556787 20.517889 0.688619 1.794752 0.040828 -0.005157 115245.000000 1 0 0
-9.290421 -12.505217 -7.064487 17.105536 0.931840 1.996536 0.027880 -0.014420 170153.000000 1 0 0
-11.345321 -15.721117 6.524813 20.455880 0.945680 1.246154 0.033385 -0.003787 250997.000000 1 0 0
-15.758521 -7.683017 -8.067387 19.298768 0.453636 2.002068 0.112159 -0.014442 -46162.900000 1 0 0
5.509779 -15.422117 6.378413 17.575083 -1.227664 1.199393 0.033170 -0.009053 188863.000000 1 0 0
3.008079 -14.127117 9.301613 17.179756 -1.361000 0.998661 0.021898 -0.000691 421304.000000 1 0 0
3.380579 -17.267617 10.712913 20.600132 -1.377466 1.023897 0.048059 -0.004682 276028.000000 1 0 0
-8.605221 -17.804717 -5.469887 20.517735 1.120589 1.840653 0.046073 -0.003141 100948.000000 1 0 0
1.938179 -19.857817 -4.117387 20.372588 -1.473502 1.774302 0.032637 -0.014890 -4878.850000 1 0 0
-17.113721 -10.314617 -3.024387 20.209346 0.542410 1.721014 -0.055826 -0.021177 -92781.300000 1 0 0
-3.988321 -14.713717 2.799513 15.499595 1.306095 1.389181 0.014108 -0.001466 89988.500000 1 0 0
-10.887521 -10.349117 -14.656187 20.986809 0.760051 2.343889 0.044173 -0.004854 257255.000000 1 0 0
0.518679 -20.245817 2.617713 20.420935 -1.545183 1.442255 0.034335 -0.015507 334272.000000 1 0 0
5.614579 -18.488717 0.192813 19.323389 -1.275970 1.560818 0.020089 -0.009406 94041.000000 1 0 0
-7.088521 -18.846617 -2.889787 20.341902 1.211047 1.713339 0.006974 -0.023648 68567.900000 1 0 0
-9.255721 -15.748817 -7.742287 19.840278 1.039463 1.971679 0.051950 -0.014110 39197.300000 1 0 0
-11.626121 -11.392917 -12.497787 20.522181 0.775268 2.225582 0.023749 0.010399 289002.000000 1 0 0
-13.191521 -14.996417 -3.258687 20.236793 0.849342 1.732528 0.027214 -0.012227 179891.000000 1 0 0
-0.486621 -20.529117 -2.454587 20.681065 1.547097 1.689764 0.040852 -0.006912 304416.000000 1 0 0
-12.251221 -16.602317 -0.745187 20.646662 0.935070 1.606897 0.053187 -0.014376 146221.000000 1 0 0
0.786479 -19.982617 5.302513 20.689132 -1.531458 1.311610 0.049357 -0.022219 85829.600000 1 0 0
-18.467521 -9.243317 2.486913 20.800793 0.464062 1.450951 0.062571 -0.013071 217158.000000 1 0 0
-14.743021 -14.903317 -0.495087 20.969278 0.790805 1.594409 0.035022 -0.007832 74083.100000 1 0 0
10.078379 -15.724517 -4.609787 19.237576 -1.000821 1.812775 0.029661 -0.001329 -93673.800000 1 0 0
-0.174221 -19.079517 -6.980387 20.317090 1.561665 1.921514 0.030790 -0.013724 182048.000000 1 0 0
-10.168221 -17.871017 -2.912187 20.766483 1.053499 1.711495 0.046100 0.018274 441794.000000 1 0 0
-14.445321 -6.800617 -11.485387 19.667989 0.440002 2.194399 0.044425 -0.005565 -162945.000000 1 0 0
-12.694721 -15.065217 1.930013 19.794991 0.870584 1.473141 0.050233 -0.014759 280233.000000 1 0 0
-2.688521 -16.311217 10.273813 19.463689 1.407439 1.014735 0.035904 -0.013975 388378.000000 1 0 0
-12.573921 -14.329617 -6.466087 20.130864 0.850565 1.897795 0.044321 -0.014014 174824.000000 1 0 0
5.385279 -17.070017 -7.330687 19.342329 -1.265197 1.959509 0.032080 -0.013691 69814.000000 1 0 0
-17.498621 -7.128917 -2.787987 19.099635 0.386868 1.717290 -0.006555 -0.008071 -18483.900000 1 0 0
-11.986021 -13.606817 -9.559987 20.498866 0.848644 2.055975 0.046775 -0.021469 -27788.300000 1 0 0
-7.934821 -14.032517 10.211513 19.082660 1.056162 1.006147 0.040120 0.001681 497503.000000 1 0 0
-16.143721 -8.304517 -5.659587 19.016194 0.475110 1.872994 0.046455 -0.001133 565675.000000 1 0 0
-0.706721 -19.677617 -0.185887 19.691182 1.534897 1.580237 0.024315 -0.009022 158289.000000 1 0 0
-14.954621 -11.202617 -1.741887 18.766286 0.642930 1.663750 0.005626 -0.005384 153052.000000 1 0 0
-6.845921 -18.639817 1.000313 19.882406 1.218816 1.520464 0.035373 -0.018632 166341.000000 1 0 0
-2.039721 -21.067717 -5.153587 21.784596 1.474280 1.809631 0.038899 -0.001449 -34247.600000 1 0 0
-9.471421 -19.496817 -1.178887 21.707682 1.118579 1.625130 0.066527 -0.011437 137733.000000 1 0 0
-17.852621 -7.609417 4.970013 20.032981 0.402917 1.320087 0.051288 -0.021212 103444.000000 1 0 0
-3.129321 -15.859617 -10.893187 19.493118 1.375985 2.163761 0.018470 -0.001161 88562.600000 1 0 0
-2.993821 -18.348817 -8.210387 20.323693 1.409060 1.986661 0.025504 -0.007264 152870.000000 1 0 0
4.395579 -16.971617 -4.748187 18.163210 -1.317369 1.835287 0.018008 -0.027402 599014.000000 1 0 0
0.935879 -17.422817 -9.429587 19.832991 -1.517132 2.066271 0.036188 -0.004259 -2525.660000 1 0 0
-7.598221 -10.007017 -14.743787 19.371438 0.921377 2.435818 0.014056 -0.009929 278984.000000 1 0 0
-4.709421 -19.833717 -1.672387 20.453652 1.337668 1.652652 0.032724 -0.002173 283720.000000 1 0 0
-10.361821 -14.840517 8.870913 20.156919 0.961272 1.115094 0.036172 -0.032480 211982.000000 1 0 0
-7.303521 -15.005917 -10.440687 19.685703 1.117838 2.129832 0.025105 -0.012502 155470.000000 1 0 0
-12.581421 -8.183117 -12.815587 19.735623 0.576665 2.277543 0.044873 0.001867 274695.000000 1 0 0
-15.649621 -12.839117 3.659713 20.570539 0.687063 1.391934 0.041676 -0.010034 -3739.860000 1 0 0
-6.088621 -14.321917 -13.178487 20.392674 1.168819 2.273439 -0.002212 0.000616 283789.000000 1 0 0
-14.056621 -11.695817 -6.709687 19.478209 0.693981 1.922472 0.050645 -0.014338 176094.000000 1 0 0
-12.070621 -10.390417 -8.320387 17.969126 0.710732 2.052216 0.042777 -0.004383 234718.000000 1 0 0
-9.910421 -14.758017 3.465813 18.111526 0.979436 1.378249 0.018680 -0.008349 508815.000000 1 0 0
4.803779 -18.384517 7.990813 20.613585 -1.315216 1.172718 0.042859 -0.012328 280782.000000 1 0 0
-4.971121 -16.708117 5.334013 18.229781 1.281610 1.273853 0.029078 0.004868 484773.000000 1 0 0
-18.717321 -7.131717 -6.689987 21.117656 0.364040 1.893146 0.060895 -0.023067 134312.000000 1 0 0
-17.045221 -4.764117 -10.678287 20.670321 0.272544 2.113672 0.075482 -0.009252 -185486.000000 1 0 0
-15.676521 -4.060517 -13.124287 20.844376 0.253449 2.251876 0.058618 -0.013174 205224.000000 1 0 0
-19.654021 -4.663217 -6.180787 21.124115 0.232958 1.867735 0.073698 -0.016923 -136054.000000 1 0 0
5.683779 -13.230917 8.671413 16.809400 -1.165050 1.028777 0.029960 -0.001341 218231.000000 1 0 0
19.901379 -3.086017 2.688513 20.317886 -0.153840 1.438085 0.070180 -0.018055 -87481.100000 1 0 0
18.432179 -2.405817 0.481513 18.594759 -0.129789 1.544898 0.061231 -0.021670 303544.000000 1 0 0
14.257879 -11.474217 0.432513 18.306607 -0.677639 1.547168 0.043768 -0.006568 61288.300000 1 0 0
11.185879 -13.655717 5.080613 18.368864 -0.884496 1.290554 0.018152 -0.010833 468918.000000 1 0 0
10.670879 -11.958017 7.758213 17.805946 -0.842217 1.119970 0.044070 -0.040312 -94494.000000 1 0 0
19.137279 4.129383 -4.587287 20.107970 0.212519 1.800956 0.083928 -0.001338 -24710.300000 1 0 0
19.113679 -5.926017 -4.430987 20.495953 -0.300643 1.788705 0.107942 -0.020507 -4636.690000 1 0 0
17.709979 -10.048417 -0.190687 20.362967 -0.516094 1.580161 0.074257 -0.010660 319335.000000 1 0 0
17.737079 -8.629117 8.591113 21.514481 -0.452791 1.160024 0.103158 -0.026263 -21933.800000 1 0 0
20.044279 0.125883 -1.893187 20.133880 0.006280 1.664965 0.087475 -0.014293 -620668.000000 1 0 0
7.615679 -12.954317 11.626013 18.999397 -1.039331 0.912317 0.021812 -0.004110 423823.000000 1 0 0
16.310779 -6.473317 -3.449287 17.884153 -0.377808 1.764881 0.067830 -0.010092 217455.000000 1 0 0
14.546479 -6.694117 11.967613 19.990874 -0.431294 0.928977 0.085549 -0.031224 452056.000000 1 0 0
17.184479 1.301583 9.330713 19.597517 0.075597 1.074562 0.121513 -0.032967 355725.000000 1 0 0
16.647579 -10.241317 2.601313 19.717843 -0.551509 1.438484 0.030238 -0.012142 221871.000000 1 0 0
15.702679 -6.955617 -5.803287 18.128235 -0.416982 1.896657 0.052328 -0.010370 155369.000000 1 0 0
18.875679 -4.750317 5.758413 20.298180 -0.246544 1.283155 0.164604 -0.020759 -165090.000000 1 0 0
13.459179 -13.087417 8.072513 20.435153 -0.771395 1.164695 0.040623 -0.021949 309695.000000 1 0 0
15.114979 -14.119417 -1.492887 20.737629 -0.751357 1.642848 0.052003 -0.011030 230837.000000 1 0 0
18.341179 -5.874417 8.691113 21.129200 -0.309962 1.146882 0.098732 -0.021487 297161.000000 1 0 0
19.772779 3.575383 2.427813 20.239576 0.178890 1.450553 0.052958 -0.009795 436471.000000 1 0 0
15.634779 -10.317517 8.224013 20.458052 -0.583309 1.157103 0.053619 -0.035965 309931.000000 1 0 0
14.112579 -4.288517 10.745113 18.248664 -0.295012 0.941203 0.060849 -0.012615 -80575.000000 1 0 0
18.733679 -7.977117 2.297913 20.490621 -0.402562 1.458415 0.094047 -0.019852 18306.300000 1 0 0
19.035779 -5.232717 -1.631587 19.809198 -0.268263 1.653255 0.081890 -0.014579 336837.000000 1 0 0
14.898879 -13.229617 -6.101087 20.838010 -0.726124 1.867936 0.096839 -0.021710 357346.000000 1 0 0
13.885079 -9.582917 10.170313 19.699315 -0.604091 1.028298 0.046095 -0.020640 414568.000000 1 0 0
14.127279 2.201583 0.327813 14.301554 0.154596 1.547873 -0.003295 -0.004080 -235467.000000 1 0 0
12.945879 3.114383 13.509513 18.968451 0.236083 0.778155 0.045690 -0.017168 210652.000000 1 0 0
18.137779 -2.440317 9.770013 20.745779 -0.133740 1.080441 0.084752 -0.011371 273100.000000 1 0 0
7.185979 -18.231317 5.034713 20.232834 -1.195338 1.319315 0.038703 -0.028082 179694.000000 1 0 0
12.820379 -2.724117 14.950613 19.882248 -0.209369 0.719769 0.087011 -0.005645 405172.000000 1 0 0
11.478979 -13.606317 -6.925387 19.101304 -0.870000 1.941811 0.036072 -0.010175 176809.000000 1 0 0
10.822279 -17.164617 4.648813 20.817235 -1.008252 1.345582 0.037575 -0.024290 438123.000000 1 0 0
18.272979 -0.242517 -5.529187 19.092734 -0.013271 1.864601 0.075965 -0.014372 58222.600000 1 0 0
4.284179 -13.522217 11.656113 18.359454 -1.263976 0.882939 0.009675 -0.001749 82885.100000 1 0 0
8.920979 -2.223317 14.152413 16.876546 -0.244248 0.576116 0.020286 -0.011255 339088.000000 1 0 0
9.079979 -9.477417 13.939313 19.146068 -0.806812 0.755322 0.046283 -0.011470 394892.000000 1 0 0
20.903179 6.133683 -2.553087 21.933609 0.285421 1.687461 0.082241 0.000759 394200.000000 1 0 0
14.936279 -13.498217 2.071413 20.238208 -0.734867 1.468265 0.040620 -0.007076 261305.000000 1 0 0
11.635579 -0.221817 15.135113 19.092081 -0.019061 0.655500 0.084352 -0.008571 41320.500000 1 0 0
19.213879 0.422883 7.784013 20.735063 0.022006 1.185964 0.078856 -0.019020 102315.000000 1 0 0
19.915479 1.224583 0.489613 19.959099 0.061412 1.546263 0.054695 -0.010972 77951.200000 1 0 0
18.164579 0.166383 3.158413 18.437874 0.009159 1.398647 0.033623 -0.006567 -63668.700000 1 0 0
10.154279 -8.634017 16.241513 21.010531 -0.704659 0.687212 0.058984 -0.008417 209497.000000 1 0 0
19.263679 2.963683 5.582613 20.274080 0.152651 1.291835 0.056007 -0.006537 169392.000000 1 0 0
15.222379 2.542583 7.041413 16.963698 0.165501 1.142758 0.037277 -0.012150 15462.000000 1 0 0
11.478079 -16.033817 2.165113 19.837271 -0.949501 1.461435 0.012410 -0.002647 205805.000000 1 0 0
8.549079 -16.273917 6.983913 19.664745 -1.087095 1.207723 0.022994 -0.000756 363951.000000 1 0 0
6.048679 6.662683 7.086413 11.454044 0.833664 0.903732 0.002247 0.000582 -1594580.000000 1 0 0
18.355979 2.921883 -6.317887 19.631482 0.157854 1.898452 0.057599 -0.008747 260282.000000 1 0 0
14.174979 4.500183 -7.279187 16.558027 0.307410 2.025968 0.028830 -0.009214 370718.000000 1 0 0
-10.568821 -3.869017 -13.823487 17.825769 0.350926 2.458268 0.018414 -0.007804 -296139.000000 1 0 0
7.596879 -14.071717 -10.381187 19.065541 -1.075765 2.146589 0.024212 -0.003026 31429.000000 1 0 0
2.004179 -15.854917 13.954013 21.215787 -1.445056 0.853011 0.023285 -0.006677 434455.000000 1 0 0
-9.492621 -7.947917 2.244213 12.582358 0.697059 1.391475 0.015324 -0.002918 492948.000000 1 0 0
-13.977621 3.069183 -10.003687 17.460456 -0.216148 2.180877 0.036922 -0.004244 365544.000000 1 0 0
-12.953621 -4.492117 -13.710687 19.389645 0.333808 2.356204 0.037657 -0.001640 170666.000000 1 0 0
-17.965921 -1.285117 -8.884987 20.084044 0.071409 2.029059 0.079704 -0.029469 437411.000000 1 0 0
-12.083021 15.402883 4.054013 19.992078 -0.905600 1.366599 0.035949 -0.015214 373486.000000 1 0 0
-17.654121 6.210483 9.447513 20.964102 -0.338266 1.103301 0.062295 -0.016914 154731.000000 1 0 0
-13.986121 15.324183 0.004313 20.747100 -0.831018 1.570588 0.051050 -0.037329 157416.000000 1 0 0
-16.276721 5.094783 -10.866687 20.223089 -0.303350 2.138077 0.071682 -0.006210 20376.900000 1 0 0
-18.255321 3.046083 -0.016387 18.507718 -0.165337 1.571682 0.060547 -0.002944 -15279.400000 1 0 0
-9.979421 15.598083 -0.053887 18.517341 -1.001636 1.573706 0.016036 -0.015097 161505.000000 1 0 0
-18.516821 11.871683 2.218813 22.107298 -0.570114 1.470261 0.104816 -0.034712 88821.100000 1 0 0
-7.856921 16.274283 -7.954487 19.744805 -1.121018 1.985441 0.043313 -0.023269 221978.000000 1 0 0
-14.735221 -1.449817 -12.778887 19.558339 0.098076 2.282827 0.039777 -0.034637 88373.000000 1 0 0
-19.220021 4.863583 -5.058387 20.460960 -0.247845 1.820608 0.085016 -0.014728 37645.300000 1 0 0
-16.708721 9.518983 -5.888487 20.111356 -0.517843 1.867944 0.048023 0.006698 -65708.300000 1 0 0
-19.055721 1.160783 2.347213 19.234794 -0.060840 1.448462 0.062040 -0.013669 350871.000000 1 0 0
-13.492521 11.567183 -6.911687 19.068803 -0.708719 1.941703 0.033212 -0.018847 132528.000000 1 0 0
-12.880221 5.051483 -13.708387 19.476587 -0.373755 2.351584 0.057153 -0.019887 -83838.300000 1 0 0
-14.045121 9.393683 -6.688987 18.172761 -0.589493 1.947737 0.027795 -0.005651 138829.000000 1 0 0
-6.519121 11.818283 -15.318187 20.416111 -1.066715 2.419311 0.017392 -0.016187 37955.300000 1 0 0
-14.899421 13.977783 3.168313 20.673881 -0.753493 1.416938 0.031990 -0.019422 85745.900000 1 0 0
-18.633421 8.678083 -5.206087 21.204170 -0.435855 1.818854 0.061879 -0.013510 167543.000000 1 0 0
-4.979521 16.176483 -11.423087 20.419626 -1.272176 2.164479 0.015048 0.003341 141121.000000 1 0 0
-19.245821 -1.725617 -6.854687 20.502831 0.089423 1.911689 0.040492 -0.019577 69717.600000 1 0 0
-10.772321 14.012083 -6.028287 18.674089 -0.915379 1.899499 0.028739 -0.012529 80664.500000 1 0 0
-19.275621 3.010483 4.380013 19.994926 -0.154929 1.349949 0.065354 -0.013011 177083.000000 1 0 0
-15.138321 12.076183 0.461413 19.370489 -0.673351 1.546974 0.019300 -0.016973 172112.000000 1 0 0
-17.384121 2.316383 -8.098887 19.317485 -0.132467 2.003417 0.043805 -0.020186 151433.000000 1 0 0
-17.268921 13.799583 -3.091487 22.320425 -0.674191 1.709748 0.072569 0.023675 358661.000000 1 0 0
-10.643221 15.542383 -8.562187 20.691903 -0.970354 1.997414 0.038509 -0.024884 251835.000000 1 0 0
-19.720121 1.394283 -6.336987 20.760168 -0.070586 1.880995 0.111541 -0.032135 210095.000000 1 0 0
-17.427221 10.320483 -0.516887 20.260492 -0.534668 1.596311 0.056363 -0.009530 6533.340000 1 0 0
-11.512521 6.938783 -14.755487 19.960191 -0.542414 2.402746 0.036042 -0.013715 283905.000000 1 0 0
-13.528921 12.875583 -4.593787 19.233179 -0.760660 1.811975 0.032503 -0.009927 269258.000000 1 0 0
-18.757821 7.428083 -0.396787 20.178942 -0.377053 1.590461 0.052858 -0.006781 -21059.000000 1 0 0
-14.712121 8.924983 -10.221587 20.014561 -0.545289 2.106804 0.040617 -0.005024 500031.000000 1 0 0
-19.060421 11.371483 4.546913 22.655787 -0.537917 1.368729 0.090079 -0.023971 229254.000000 1 0 0
-8.187521 11.708983 -13.661087 19.767677 -0.960573 2.333781 -0.003439 -0.011075 282758.000000 1 0 0
-21.201421 -0.277717 -5.122287 21.813188 0.013098 1.807835 0.080188 -0.021403 207965.000000 1 0 0
-10.927721 13.422083 -3.192287 17.599945 -0.887481 1.753186 0.022150 -0.003596 511645.000000 1 0 0
-18.744321 -4.751717 3.675113 19.683364 0.248272 1.382982 0.049499 -0.020132 -100684.000000 1 0 0
-11.259021 11.406083 -13.263987 20.803788 -0.791887 2.262143 0.021271 -0.003053 234414.000000 1 0 0
-14.877121 11.838883 -10.251287 21.600387 -0.672161 2.065292 0.055957 0.006262 216747.000000 1 0 0
-12.943021 9.719583 -13.885587 21.326078 -0.644110 2.279840 0.061627 -0.018489 266764.000000 1 0 0
-18.588621 -4.743717 -3.072687 19.428872 0.249862 1.729614 0.033603 -0.014155 -454259.000000 1 0 0
-9.025321 12.581983 -11.626887 19.363553 -0.948540 2.214863 0.010024 -0.007855 67722.600000 1 0 0
-15.694421 7.522283 -8.270887 19.269332 -0.446948 2.014431 0.032869 0.004000 -84156.000000 1 0 0
-14.543021 8.994083 2.097113 17.227619 -0.553873 1.448764 0.023106 -0.001310 -81647.300000 1 0 0
-19.968321 5.987483 8.091313 22.361868 -0.291318 1.200560 0.081242 -0.021179 338551.000000 1 0 0
-18.808221 6.113383 4.173713 20.212434 -0.314266 1.362808 0.039642 -0.000247 67495.200000 1 0 0
-14.094221 13.058883 5.503413 19.986721 -0.747287 1.291839 0.025286 -0.013554 121173.000000 1 0 0
17.884179 6.195683 5.471413 19.701947 0.333494 1.289388 0.026781 -0.016696 204481.000000 1 0 0
18.171079 8.068983 0.348213 19.885117 0.417900 1.553284 0.023393 0.004547 -35461.500000 1 0 0
16.035079 5.369883 9.015513 19.163478 0.323145 1.080992 0.028442 0.002646 36779.900000 1 0 0
11.784079 13.330983 10.438013 20.628421 0.846913 1.040254 0.039190 -0.013693 51695.400000 1 0 0
15.702079 12.329983 4.008213 20.362945 0.665679 1.372664 0.041932 -0.009612 290130.000000 1 0 0
5.094879 10.284183 14.328713 18.358492 1.110828 0.675339 0.020609 -0.010353 302303.000000 1 0 0
12.212379 14.521083 -5.447187 19.740210 0.871544 1.850368 0.038326 0.030138 191127.000000 1 0 0
18.124979 9.058683 -3.038987 20.489267 0.463480 1.719667 0.041486 -0.000995 -34184.800000 1 0 0
14.433679 7.808283 9.571413 18.997693 0.495889 1.042781 0.038506 -0.010958 53978.200000 1 0 0
4.957479 18.971283 -1.771887 19.688213 1.315197 1.660916 0.018462 -0.012073 507573.000000 1 0 0
-4.025321 18.948883 2.804313 19.573644 -1.361477 1.427032 0.000838 -0.016935 194141.000000 1 0 0
6.798579 12.816383 12.726413 19.298755 1.083079 0.850720 0.028271 -0.001720 -75399.500000 1 0 0
-0.313721 17.232483 -10.067987 19.960492 -1.552593 2.099478 0.013641 0.008085 19563.100000 1 0 0
10.758179 9.624483 15.674413 21.308597 0.729835 0.744258 0.058499 -0.011666 148388.000000 1 0 0
-1.452821 12.295783 0.543413 12.393234 -1.453186 1.526935 -0.002165 0.002365 585303.000000 1 0 0
-4.977221 19.303683 -2.746587 20.123335 -1.318455 1.707711 0.028427 0.003367 4298.250000 1 0 0
6.575079 17.885183 6.158113 20.025828 1.218505 1.258223 0.030939 -0.032362 36590.300000 1 0 0
10.951579 17.601883 -1.633487 20.794991 1.014226 1.649429 0.024537 -0.003354 325622.000000 1 0 0
18.458579 10.697883 3.239013 21.579042 0.525256 1.420127 0.038046 -0.003495 311838.000000 1 0 0
11.806279 16.636883 6.483913 21.405962 0.953627 1.263060 0.048386 -0.002360 -116176.000000 1 0 0
18.145179 7.279983 -6.046687 20.464802 0.381547 1.870741 0.040103 0.003338 433426.000000 1 0 0
0.669079 16.053183 10.867613 19.397354 1.529142 0.976093 0.000708 0.004207 332066.000000 1 0 0
1.534879 20.239883 -1.796387 20.377333 1.495107 1.659067 0.029903 -0.008624 228305.000000 1 0 0
14.699279 9.844583 -1.366387 17.744059 0.590122 1.647878 0.033343 -0.001677 4210.240000 1 0 0
9.919179 17.468283 1.565213 20.148968 1.054360 1.493036 0.026016 -0.014310 207367.000000 1 0 0
0.149479 17.760483 -0.311787 17.763848 1.562380 1.588349 0.005830 -0.002521 -112641.000000 1 0 0
-0.146421 21.258683 0.995113 21.282464 -1.563909 1.524022 0.027492 -0.004799 122612.000000 1 0 0
5.858579 18.454283 0.431613 19.366719 1.263395 1.548508 0.000557 0.004181 13204.800000 1 0 0
7.349079 18.188583 -1.602887 19.682549 1.186804 1.652324 0.016374 -0.014607 -18407.700000 1 0 0
10.393179 9.682283 12.757613 19.092445 0.750002 0.839007 0.041635 -0.008802 142752.000000 1 0 0
13.557479 14.798683 8.172213 21.670056 0.829142 1.184112 0.059328 -0.015805 239610.000000 1 0 0
0.349179 17.577983 6.976013 18.914866 1.550934 1.193067 0.003856 -0.004466 294817.000000 1 0 0
6.638579 18.259483 -7.621987 20.870413 1.222085 1.944650 0.019956 -0.001693 -81117.600000 1 0 0
-0.583821 18.463683 10.122813 21.064657 -1.539187 1.069504 0.017743 0.002280 -10462.500000 1 0 0
16.527779 6.786683 -7.891587 19.532120 0.389630 1.986716 0.091697 -0.008264 -205442.000000 1 0 0
-5.258621 19.569483 -6.585287 21.306894 -1.308282 1.885010 0.014914 -0.010735 334657.000000 1 0 0
3.638079 15.617383 9.620613 18.700119 1.341927 1.030409 0.012113 -0.013392 191625.000000 1 0 0
9.009479 14.612983 7.085013 18.571682 1.018304 1.179383 0.023611 -0.020755 46509.900000 1 0 0
-2.857721 19.898983 6.146913 21.021908 -1.428160 1.274055 0.028674 0.001928 147490.000000 1 0 0
4.855279 18.069083 8.284413 20.462086 1.308291 1.153964 0.024265 -0.014382 87807.300000 1 0 0
15.077279 12.108783 -6.326787 20.346381 0.676637 1.886993 0.081512 -0.007684 135377.000000 1 0 0
11.824279 6.910083 15.574013 20.739159 0.528868 0.721301 0.066678 -0.019406 215557.000000 1 0 0
17.165279 8.998783 5.047613 20.027564 0.482854 1.316016 0.035216 -0.010271 152052.000000 1 0 0
4.864379 15.331383 12.214213 20.196546 1.263560 0.921323 0.007311 -0.001671 453510.000000 1 0 0
15.947679 10.547483 -3.767287 19.487697 0.584334 1.765337 0.057153 -0.013583 256552.000000 1 0 0
15.628679 13.394983 6.155913 21.484330 0.708588 1.280193 0.062134 -0.016680 287705.000000 1 0 0
12.693279 14.455183 -8.319987 20.959337 0.850206 1.978997 0.116093 -0.029175 421590.000000 1 0 0
-8.498821 15.464183 9.565313 20.071525 -1.068275 1.074057 0.042302 -0.017989 191026.000000 1 0 0
-3.761721 17.514183 -8.017787 19.626055 -1.359229 1.991637 -0.003621 0.037271 91145.400000 1 0 0
2.705879 18.941383 -4.524087 19.661259 1.428901 1.802978 0.031956 -0.031711 157215.000000 1 0 0
7.022579 16.532283 9.116213 20.142947 1.169112 1.101144 0.025407 -0.017113 596310.000000 1 0 0
13.365379 15.596683 -1.617787 20.603570 0.862289 1.649397 0.059335 -0.017054 245517.000000 1 0 0
13.009579 16.435283 4.426413 21.423370 0.901220 1.362681 0.046013 -0.023576 224581.000000 1 0 0
2.309479 18.276683 0.654413 18.433640 1.445100 1.535288 0.010691 -0.020505 -207187.000000 1 0 0
-6.726721 18.126683 1.116313 19.366764 -1.215454 1.513124 -0.013413 0.017998 24348.300000 1 0 0
-0.049721 19.933583 -6.000287 20.817147 -1.568302 1.863182 0.037621 0.004768 398787.000000 1 0 0
-8.122821 17.929183 -6.368487 20.688002 -1.145409 1.883713 0.062990 -0.021703 169654.000000 1 0 0
-7.183421 18.461883 -1.428787 19.861623 -1.199726 1.642796 0.026665 -0.014496 96186.500000 1 0 0
-14.505821 -9.281817 8.947213 19.406792 0.569220 1.091635 0.048154 -0.015139 404110.000000 1 0 0
-13.145421 -13.537617 7.970313 20.484020 0.800095 1.171143 0.030156 -0.013018 97925.200000 1 0 0
-3.844621 -15.978517 12.653013 20.741091 1.334673 0.914678 0.048510 -0.005265 80387.100000 1 0 0
-1.781421 -14.728017 15.760713 21.644585 1.450427 0.755163 0.040097 -0.001403 402305.000000 1 0 0
-7.381421 -13.456517 13.773313 20.622012 1.069076 0.839421 0.016051 -0.008139 118964.000000 1 0 0
-10.187821 -10.946217 11.825113 19.064225 0.821268 0.901700 0.047187 -0.014086 -90092.300000 1 0 0
-7.476021 -10.323717 13.053313 18.244424 0.944039 0.773502 0.028098 -0.014290 318954.000000 1 0 0
-15.294821 -12.296817 7.241313 20.918410 0.677167 1.217311 0.040418 -0.020945 230018.000000 1 0 0
-4.776421 -12.307817 13.626013 18.972738 1.200608 0.769600 0.031919 -0.014478 289944.000000 1 0 0
3.557379 -12.127717 14.048713 18.897164 -1.285473 0.732612 0.008526 -0.003381 534918.000000 1 0 0
6.418779 -13.498917 14.461113 20.797723 -1.126937 0.801929 0.015204 -0.004388 282991.000000 1 0 0
7.263179 -9.038417 16.815513 20.425676 -0.893870 0.603677 0.043551 -0.007213 603190.000000 1 0 0
-5.207421 13.660783 13.027013 19.581555 -1.206606 0.842941 0.022989 -0.014545 383530.000000 1 0 0
-13.479121 -1.799817 17.530613 22.186672 0.132741 0.659756 0.075569 -0.010536 248116.000000 1 0 0
-10.099221 9.557083 12.920413 18.980758 -0.757824 0.822063 0.037088 -0.019959 326072.000000 1 0 0
-7.270121 -8.280617 17.252213 20.471007 0.850288 0.568400 0.029970 -0.015518 173144.000000 1 0 0
-5.021521 2.027283 18.461613 19.239457 -0.383708 0.285324 0.019205 -0.009072 608887.000000 1 0 0
-16.130421 -3.414617 13.500813 21.310139 0.208608 0.884677 0.105282 -0.026116 31238.900000 1 0 0
-14.534921 3.074683 12.731113 19.565246 -0.208464 0.862290 0.051920 -0.005862 192562.000000 1 0 0
-14.548921 10.680783 9.518213 20.404573 -0.633266 1.085495 0.009615 0.003990 -144360.000000 1 0 0
-4.180721 11.320483 15.906113 19.965876 -1.217027 0.649039 0.001568 0.001034 160143.000000 1 0 0
-13.081421 12.491383 9.159513 20.274488 -0.762329 1.102042 0.039589 -0.018615 73947.600000 1 0 0
-3.753321 -6.257017 18.551813 19.935081 1.030481 0.374717 0.014235 -0.013684 323626.000000 1 0 0
0.225079 -2.827817 17.839613 18.063749 -1.491369 0.157694 -0.002714 -0.015172 -2758.410000 1 0 0
-4.463821 6.453383 21.155913 22.564231 -0.965661 0.355173 0.049729 -0.017995 294694.000000 1 0 0
2.159979 -10.518017 16.535113 19.715582 -1.368252 0.575937 0.013188 -0.010059 369179.000000 1 0 0
-14.763021 -0.093517 14.125413 20.432396 0.006334 0.807476 0.037531 -0.002137 -130739.000000 1 0 0
-13.850921 -6.126317 8.485813 17.360553 0.416436 1.060084 0.032956 -0.011757 -93533.400000 1 0 0
10.011679 1.745083 16.456613 19.341643 0.172571 0.553217 0.060415 -0.003030 458215.000000 1 0 0
-7.510121 12.335283 11.280913 18.325395 -1.023908 0.907663 0.019331 -0.024568 67632.600000 1 0 0
-1.721821 7.442783 19.755113 21.180750 -1.343455 0.368991 0.039690 -0.030559 498889.000000 1 0 0
1.283679 -13.276317 15.245713 20.256856 -1.474407 0.718764 0.009333 -0.023978 534132.000000 1 0 0
-3.442021 -11.672417 17.836913 21.592784 1.284039 0.598718 0.045597 -0.022724 400469.000000 1 0 0
-2.233521 8.568683 16.770913 18.965085 -1.315809 0.485794 0.016577 -0.009353 257704.000000 1 0 0
-5.208021 -9.749517 20.357613 23.164822 1.080178 0.497421 0.078678 -0.021543 266538.000000 1 0 0
-6.498721 -2.725717 19.237413 20.487581 0.397138 0.351146 0.014188 -0.015774 -126938.000000 1 0 0
-10.623921 -8.109117 16.047413 20.884084 0.651952 0.694453 0.063547 -0.026193 369008.000000 1 0 0
0.327279 6.593883 17.789413 18.974974 1.521203 0.355364 0.000610 -0.010925 280420.000000 1 0 0
-6.455521 -11.151017 18.753313 22.753147 1.046023 0.601995 0.073109 -0.033749 432441.000000 1 0 0
0.363679 3.642483 18.469013 18.828287 1.471282 0.195666 0.018918 -0.023134 275098.000000 1 0 0
-18.272421 -0.874117 7.850813 19.906800 0.047802 1.165405 0.057727 -0.015401 163980.000000 1 0 0
-1.702421 -8.850917 17.781613 19.935465 1.380773 0.469137 0.010656 -0.005411 343414.000000 1 0 0
5.874079 3.501683 14.811913 16.314391 0.537565 0.432538 0.015045 -0.007184 289659.000000 1 0 0
-15.069421 -7.586517 11.032513 20.158349 0.466394 0.991671 0.111999 0.011384 183652.000000 1 0 0
3.738979 8.265883 16.692413 18.998459 1.145999 0.497833 0.018490 -0.015430 14035.300000 1 0 0
6.174279 4.340983 16.878613 18.489279 0.612787 0.420496 0.045520 -0.046484 197934.000000 1 0 0
5.380279 -9.549017 18.199213 21.244823 -1.057695 0.542071 0.026714 0.000288 362422.000000 1 0 0
-4.186221 -0.434017 19.862713 20.303699 0.103309 0.208799 0.013105 -0.019375 582590.000000 1 0 0
-11.132121 2.138983 16.724113 20.203844 -0.189831 0.595677 0.052431 -0.019046 201104.000000 1 0 0
-16.669321 -4.489117 8.775213 19.365505 0.263063 1.100516 0.047224 -0.023162 376926.000000 1 0 0
-13.062921 -9.541017 12.120513 20.213306 0.630832 0.927757 0.047042 -0.031903 -60419.900000 1 0 0
-14.796121 6.099483 12.897113 20.553939 -0.391009 0.892488 0.062617 -0.025493 383476.000000 1 0 0
1.192679 9.132683 16.965913 19.304678 1.440937 0.497350 0.001053 -0.018623 79222.200000 1 0 0
-3.905721 -10.580117 14.854313 18.650581 1.217158 0.649389 0.023295 -0.013290 274034.000000 1 0 0
-18.966221 -3.135117 6.563813 20.313299 0.163819 1.241762 0.137088 -0.021957 -206353.000000 1 0 0
-1.183221 -0.174317 21.455413 21.488722 0.146272 0.055686 0.028707 -0.008638 301598.000000 1 0 0
-1.947721 2.502483 20.356113 20.601635 -0.909418 0.154540 0.026000 -0.019816 255476.000000 1 0 0
-8.109221 2.044883 16.251013 18.276664 -0.247018 0.475274 0.010619 0.006234 555393.000000 1 0 0
2.607879 -2.342217 18.750313 19.075148 -0.731782 0.184812 0.009964 -0.008701 22018.900000 1 0 0
-12.750621 4.639483 14.302713 19.714734 -0.348971 0.759060 0.046010 -0.007939 184153.000000 1 0 0
-13.174221 -5.443017 13.195913 19.424692 0.391797 0.823937 0.033908 -0.011794 -37040.600000 1 0 0
-17.298921 -0.847417 9.964113 19.981349 0.048948 1.048732 0.064728 -0.018074 291434.000000 1 0 0
-7.715321 7.680783 14.494413 18.127565 -0.783155 0.644203 0.021087 -0.016878 135179.000000 1 0 0
-9.569421 0.483883 14.226013 17.151892 -0.050522 0.592739 0.017811 0.001559 174576.000000 1 0 0
7.178679 -0.847817 15.143513 16.780293 -0.117558 0.445354 0.032609 -0.007886 122782.000000 1 0 0
3.991279 6.402283 18.270313 19.766737 1.013338 0.391610 0.018678 -0.007527 184856.000000 1 0 0
1.229379 0.810183 20.163613 20.217296 0.582688 0.072890 0.012136 -0.003147 -5643.560000 1 0 0
-7.020821 6.914483 17.650013 20.214474 -0.777767 0.509195 0.021058 -0.010974 636872.000000 1 0 0
7.517479 -3.207117 16.961013 18.827482 -0.403243 0.449039 0.040240 0.002510 357170.000000 1 0 0
-16.227821 2.463083 9.292813 18.861742 -0.150632 1.055629 0.044667 -0.017207 207753.000000 1 0 0
3.970679 -5.925617 19.116913 20.404304 -0.980430 0.357124 0.034474 -0.022549 45953.900000 1 0 0
-3.910321 -3.621217 20.708113 21.382932 0.747031 0.251897 0.013618 -0.015321 371641.000000 1 0 0
-9.770821 6.112783 14.366513 18.418245 -0.559042 0.676106 0.032156 -0.010421 -36958.200000 1 0 0
6.421079 2.976183 19.733013 20.963772 0.434025 0.344362 0.069934 -0.031563 101541.000000 1 0 0
-7.673921 11.275483 14.625213 19.998061 -0.973220 0.750524 0.044926 -0.021237 172542.000000 1 0 0
-14.639621 4.926083 9.467313 18.116699 -0.324589 1.020929 0.033048 -0.013853 399119.000000 1 0 0
1.369479 -5.331217 20.185213 20.922241 -1.319354 0.266217 0.037505 -0.028183 437627.000000 1 0 0
-6.188321 -8.408317 13.860313 17.352331 0.936331 0.645568 0.011727 0.000953 269224.000000 1 0 0
-12.774621 10.146683 6.488213 17.556851 -0.671246 1.192267 0.006261 -0.016467 161127.000000 1 0 0
-19.543721 2.072783 7.883713 21.175608 -0.105664 1.189309 0.066892 -0.023476 45841.600000 1 0 0
-15.513521 8.882683 6.585413 19.050959 -0.520011 1.217840 0.019448 -0.011516 78007.000000 1 0 0
-12.796221 7.276483 14.397013 20.590397 -0.517044 0.796504 0.042455 -0.018930 65455.100000 1 0 0
-16.686421 9.289383 11.007113 22.042817 -0.507975 1.047946 0.049407 -0.006910 276699.000000 1 0 0
2.096379 10.938783 14.205613 18.051349 1.381446 0.664937 -0.006585 -0.040132 266327.000000 1 0 0
1.670079 14.905483 12.826013 19.734974 1.459217 0.863327 0.011910 -0.019141 557985.000000 1 0 0
8.866579 4.985283 16.625313 19.490262 0.512204 0.549078 0.047221 -0.012120 70105.800000 1 0 0
-0.551221 13.424583 13.327613 18.924813 -1.529759 0.789444 0.004671 0.003693 183309.000000 1 0 0
4.088979 13.452283 14.865113 20.461067 1.275709 0.757571 0.026988 0.007270 153239.000000 1 0 0
-3.753321 -4.533717 -13.830887 15.031149 0.879292 2.739255 0.008014 -0.015299 44080.900000 1 0 0
5.848579 -12.250817 16.891713 21.670680 -1.125389 0.676972 0.005035 0.012279 191229.000000 1 0 0
8.644779 -13.897217 7.322013 17.929773 -1.014320 1.150127 0.006688 -0.002841 340579.000000 1 0 0
-0.340721 15.266283 0.507313 15.278509 -1.548482 1.537586 0.001713 -0.005134 -433538.000000 1 0 0
-14.771021 7.476283 8.842013 18.768565 -0.468552 1.080250 0.052757 -0.004526 -67395.400000 1 0 0
-16.418221 -9.504717 4.820113 19.573735 0.524770 1.321983 0.048811 -0.013129 146524.000000 1 0 0
9.348279 -10.653717 11.618513 18.327080 -0.850571 0.884142 0.024967 0.007731 135864.000000 1 0 0
-26.807281 5.858083 31.115048 41.486065 -0.215144 0.722716 0.055038 -0.030308 -1055830.000000 0 0 1
-25.616631 5.344083 30.640878 40.294347 -0.205668 0.706827 0.051613 -0.028278 -915078.000000 0 0 1
-24.621021 5.502783 31.603488 40.438295 -0.219886 0.673692 0.050008 -0.022602 852670.000000 0 0 1
-23.201521 4.938783 31.171338 39.170836 -0.209734 0.650503 0.054501 -0.024162 869493.000000 0 0 1
-22.987021 3.545083 31.368108 39.050338 -0.153016 0.638025 0.049837 -0.022125 601150.000000 0 0 1
-21.709521 2.970583 31.044658 37.998663 -0.135989 0.614619 0.050373 -0.018654 706695.000000 0 0 1
-21.394221 1.672783 31.856874 38.410562 -0.078030 0.592803 0.039357 -0.013912 -4417.570000 0 0 1
-22.228421 0.593183 31.468358 38.531962 -0.026679 0.615159 0.045996 -0.012539 395404.000000 0 0 1
-22.251121 -0.422117 32.450810 39.349023 0.018968 0.601140 0.040250 -0.008009 -133412.000000 0 0 1
-22.667521 -1.896317 32.025452 39.281574 0.083464 0.617585 0.047601 -0.028576 312010.000000 0 0 1
-21.641321 -2.682517 31.382048 38.214861 0.123324 0.607285 0.078363 -0.042836 502051.000000 0 0 1
-21.593221 -4.030017 31.852167 38.691972 0.184511 0.603729 0.085734 -0.048100 226479.000000 0 0 1
-22.787821 -5.055417 31.555528 39.250393 0.218312 0.636881 0.071689 -0.038909 1606640.000000 0 0 1
-24.031321 -4.772217 32.237374 40.491069 0.196033 0.649874 0.056724 -0.034148 967390.000000 0 0 1
-24.048721 -4.846917 33.691022 41.676354 0.198881 0.629373 0.063572 -0.030001 -135550.000000 0 0 1
-25.373781 -4.268217 -33.580787 42.305031 0.166654 2.487791 0.062412 -0.029140 541272.000000 0 0 1
-25.540291 -4.674017 -32.226627 41.384881 0.181003 2.463396 0.069161 -0.029365 513443.000000 0 0 1
-26.710971 -4.139817 -31.610977 41.591681 0.153762 2.434158 0.079451 -0.026509 175642.000000 0 0 1
-26.773291 -4.681017 -30.149227 40.591833 0.173090 2.407951 0.066760 -0.014447 -373791.000000 0 0 1
-27.097171 -6.070717 -29.941337 40.836184 0.220396 2.393821 0.068061 -0.019732 519696.000000 0 0 1
-26.970991 -6.479217 -28.604017 39.844753 0.235762 2.371558 0.043494 -0.013319 -216968.000000 0 0 1
-27.175411 -7.977017 -28.415067 40.119219 0.285518 2.357835 0.048188 -0.017118 213817.000000 0 0 1
-28.527961 -8.358717 -28.628827 41.271327 0.285023 2.337373 0.064276 -0.014045 194130.000000 0 0 1
-28.640981 -9.690317 -28.285087 41.403552 0.326248 2.322872 0.064501 -0.019545 -465457.000000 0 0 1
-30.047731 -10.110917 -27.904907 42.234827 0.324594 2.292558 0.096428 -0.013854 -531589.000000 0 0 1
-30.093961 -11.292117 -27.142767 42.070039 0.358971 2.272056 0.109307 -0.020542 -666352.000000 0 0 1
-31.321061 -11.552217 -26.530267 42.641736 0.353352 2.242304 0.106823 -0.017214 -449254.000000 0 0 1
-31.301951 -12.290317 -25.209137 42.028140 0.374143 2.214067 0.112283 -0.021141 -385064.000000 0 0 1
-30.576491 -11.570717 -24.255887 40.708124 0.361765 2.209118 0.122000 -0.017636 146243.000000 0 0 1
-30.483561 -12.299417 -23.049787 40.147426 0.383500 2.182336 0.137666 -0.022689 -384083.000000 0 0 1
-29.688511 -11.623717 -21.920887 38.691650 0.373177 2.173114 0.154899 -0.024489 -408401.000000 0 0 1
-29.878531 -12.244117 -20.685587 38.347601 0.388923 2.140548 0.168281 -0.028444 110607.000000 0 0 1
-28.853201 -13.155417 -20.376887 37.693364 0.427785 2.141942 0.166980 -0.026790 -492957.000000 0 0 1
-28.651991 -13.554517 -18.900987 36.904049 0.441876 2.108501 0.150175 -0.028935 -86062.400000 0 0 1
-28.027041 -12.542917 -18.136187 35.661759 0.420797 2.104309 0.136228 -0.031975 169744.000000 0 0 1
-27.856411 -12.874517 -16.787787 34.979460 0.432932 2.071374 0.142403 -0.027582 -13075.400000 0 0 1
-27.686991 -11.593417 -15.886887 33.961301 0.396549 2.057589 0.134771 -0.028851 -707588.000000 0 0 1
-26.461871 -11.012017 -16.164387 32.905661 0.394348 2.084302 0.117595 -0.028280 -360823.000000 0 0 1
-26.405251 -9.700317 -15.603187 32.168196 0.352059 2.077217 0.112438 -0.032190 3871.930000 0 0 1
-25.028121 -8.991417 -15.770687 30.918716 0.344894 2.106062 0.098143 -0.029094 385174.000000 0 0 1
-24.039221 -9.555017 -14.929987 29.867825 0.378329 2.094243 0.073804 -0.033991 491370.000000 0 0 1
-22.846821 -8.777917 -14.895287 28.651328 0.366818 2.117508 0.112683 -0.048086 256581.000000 0 0 1
-21.744621 -9.162217 -13.908787 27.390310 0.398780 2.103425 0.110564 -0.026885 -216666.000000 0 0 1
-20.931821 -10.194817 -14.421387 27.387074 0.453233 2.125365 0.102623 -0.020865 440058.000000 0 0 1
-19.769021 -10.342217 -13.595087 26.126653 0.481998 2.118061 0.118853 -0.015881 375753.000000 0 0 1
-18.767521 -11.415417 -14.150487 26.129827 0.546466 2.143071 0.114545 -0.016831 293814.000000 0 0 1
-18.003121 -10.957217 -15.251587 26.015070 0.546740 2.197230 0.132547 -0.034212 375388.000000 0 0 1
-18.713421 -11.108617 -16.434887 27.270845 0.535713 2.217619 0.113188 -0.045456 -253621.000000 0 0 1
-17.782821 -10.759417 -17.610887 27.242193 0.544121 2.273727 0.115338 -0.043732 29092.800000 0 0 1
-18.460021 -10.921017 -18.869087 28.567174 0.534223 2.292303 0.091059 -0.041340 575390.000000 0 0 1
-17.842021 -10.340917 -20.015487 28.738336 0.525271 2.341267 0.090905 -0.041523 150387.000000 0 0 1
-18.731321 -10.693317 -21.238387 30.270092 0.518732 2.348478 0.101663 -0.044398 859868.000000 0 0 1
-19.981121 -10.017017 -21.360587 30.916993 0.464706 2.333531 0.100091 -0.052530 322099.000000 0 0 1
-20.875421 -10.685017 -22.199187 32.291743 0.473080 2.328778 0.112867 -0.044969 122374.000000 0 0 1
-22.196621 -9.953417 -22.484387 33.125642 0.421540 2.316870 0.088685 -0.037241 66695.800000 0 0 1
-21.847121 -8.852517 -23.307487 33.149701 0.384984 2.350541 0.095253 -0.044626 116883.000000 0 0 1
-22.876221 -8.387617 -24.106687 34.275442 0.351432 2.350857 0.078490 -0.039665 -252930.000000 0 0 1
-22.176221 -7.657117 -25.291657 34.497596 0.332468 2.393728 0.067857 -0.036775 139388.000000 0 0 1
-21.396421 -8.441817 -26.143087 34.821431 0.375794 2.420032 0.086182 -0.036170 186421.000000 0 0 1
-20.780921 -7.609717 -27.157747 35.032808 0.351023 2.457842 0.076525 -0.042574 -283544.000000 0 0 1
-19.609021 -8.344917 -27.785747 35.017125 0.402349 2.487319 0.103364 -0.040794 -220964.000000 0 0 1
-20.065821 -9.341617 -28.665147 36.215930 0.435709 2.484066 0.121508 -0.035118 260838.000000 0 0 1
-18.914321 -9.974417 -29.152757 36.154166 0.485285 2.508744 0.080995 -0.027038 -59505.000000 0 0 1
-19.200521 -11.218617 -30.017687 37.357448 0.528786 2.503992 0.086935 -0.023149 -149259.000000 0 0 1
-19.510021 -10.852017 -31.327877 38.468728 0.507612 2.522444 0.076784 -0.015868 132201.000000 0 0 1
-19.646821 -12.000317 -32.107647 39.508305 0.548324 2.519535 0.070630 -0.018204 -38195.400000 0 0 1
-19.900321 -11.655517 -33.651007 40.795393 0.529835 2.540773 0.077419 -0.017630 3172.440000 0 0 1
-18.957321 -10.813717 33.612628 40.076492 0.518389 0.575883 0.068340 -0.012857 -104782.000000 0 0 1
-19.241921 -10.754317 32.201500 39.023627 0.509651 0.600276 0.064504 -0.019993 -54460.000000 0 0 1
-18.861021 -11.938517 31.276478 38.425048 0.564312 0.619859 0.053947 -0.015686 -24214.800000 0 0 1
-17.455821 -12.019417 31.098598 37.633693 0.603008 0.598201 0.045101 -0.015132 478433.000000 0 0 1
-16.872921 -13.044917 30.296038 37.050172 0.658139 0.613387 0.055084 -0.016018 120476.000000 0 0 1
-17.177621 -14.549917 30.664938 38.040888 0.702766 0.633256 0.054120 -0.007423 -26083.600000 0 0 1
-18.566121 -14.879717 30.423518 38.622497 0.675621 0.663705 0.060833 -0.014027 1000630.000000 0 0 1
-18.791421 -16.245317 30.835308 39.596010 0.712856 0.678129 0.070402 -0.020168 -60624.000000 0 0 1
-19.059321 -16.371317 32.298908 40.920620 0.709677 0.661118 0.048561 -0.021642 -381704.000000 0 0 1
-17.972621 -16.064717 33.164299 40.999524 0.729404 0.628527 0.055177 -0.015282 125249.000000 0 0 1
-18.399021 -15.796217 -33.410397 41.283157 0.709429 2.513753 0.053715 -0.018251 693248.000000 0 0 1
-17.151421 -15.253817 -32.631927 39.896025 0.726906 2.528590 0.051049 -0.011245 594490.000000 0 0 1
-16.714521 -13.999817 -33.102457 39.637643 0.697242 2.559160 0.047122 -0.006138 -609987.000000 0 0 1
-15.568721 -13.476717 -32.512687 38.484825 0.713497 2.577022 0.038387 -0.004181 -394467.000000 0 0 1
-15.646721 -13.062717 -30.957837 37.065376 0.695635 2.559334 0.065860 -0.013793 -279508.000000 0 0 1
-15.667021 -14.248117 -30.195187 36.881075 0.738003 2.529970 0.062710 -0.018539 -31276.400000 0 0 1
-16.114421 -14.019017 -28.846577 35.893347 0.715972 2.504241 0.062260 -0.014714 -35744.200000 0 0 1
-16.378321 -15.314217 -28.015777 35.883957 0.751835 2.466634 0.077012 -0.027757 423675.000000 0 0 1
-15.256521 -16.041617 -27.498397 35.302362 0.810477 2.463769 0.075908 -0.034950 53445.100000 0 0 1
-14.508621 -16.741817 -28.452297 36.059974 0.856738 2.480020 0.064131 -0.029900 -496328.000000 0 0 1
-13.080021 -17.010017 -27.946927 35.234335 0.915271 2.486798 0.088703 -0.027657 -312226.000000 0 0 1
-12.241921 -15.886117 -27.911577 34.369892 0.914238 2.518528 0.074590 -0.019637 -129441.000000 0 0 1
-11.142321 -16.068117 -27.026467 33.358142 0.964485 2.515274 0.104027 -0.029844 647355.000000 0 0 1
-9.756621 -15.556617 -27.500047 33.067394 1.010639 2.552844 0.073132 -0.027776 370436.000000 0 0 1
-9.500521 -14.173317 -27.384987 32.265776 0.980275 2.584379 0.073948 -0.028390 -774044.000000 0 0 1
-8.191221 -13.915717 -27.763047 32.117442 1.038778 2.614797 0.095419 -0.029045 -569057.000000 0 0 1
-7.911821 -12.418517 -27.991357 31.628034 1.003544 2.657327 0.068159 -0.026994 213331.000000 0 0 1
-8.743821 -11.885417 -29.055307 32.587243 0.936526 2.671698 0.086859 -0.022210 515038.000000 0 0 1
-8.358221 -10.645317 -29.602617 32.549924 0.905173 2.712762 0.064069 -0.019174 456475.000000 0 0 1
-7.017621 -10.556117 -30.407547 32.943854 0.984093 2.746631 0.064834 -0.010353 -477587.000000 0 0 1
-5.808921 -10.654717 -29.706007 32.089148 1.071648 2.753768 0.069891 -0.013540 -396357.000000 0 0 1
-4.720821 -10.378217 -30.524077 32.583935 1.143893 2.784117 0.076548 -0.014278 -593390.000000 0 0 1
-4.560621 -8.901017 -31.035497 32.607199 1.097301 2.829845 0.061052 -0.006637 -2160610.000000 0 0 1
-3.347221 -8.510617 -31.530587 32.830053 1.196080 2.859297 0.076274 -0.017621 -1010740.000000 0 0 1
-3.481221 -7.310717 -32.228677 33.230304 1.126385 2.895444 0.078790 -0.016065 402370.000000 0 0 1
-2.140321 -6.692417 -32.716327 33.462329 1.261263 2.930041 0.090929 -0.019432 515073.000000 0 0 1
-1.512321 -7.264117 -33.879037 34.682036 1.365538 2.925986 0.106017 -0.024062 496934.000000 0 0 1
-0.430421 -6.425117 33.552463 34.164823 1.503906 0.189618 0.122963 -0.026008 476067.000000 0 0 1
0.359079 -6.976717 32.381582 33.126581 -1.519373 0.212482 0.115082 -0.017617 -75971.800000 0 0 1
-0.348921 -6.919417 31.157018 31.918017 1.520413 0.218804 0.107275 -0.018954 316466.000000 0 0 1
0.499679 -7.408517 30.128518 31.030040 -1.503452 0.241640 0.098952 -0.025046 160129.000000 0 0 1
0.107079 -7.071317 28.693058 29.551761 -1.555655 0.241658 0.093082 -0.020830 -84029.000000 0 0 1
0.167979 -5.689917 28.423848 28.988247 -1.541283 0.197654 0.096415 -0.028389 -5572.730000 0 0 1
-0.085721 -5.469317 27.042568 27.590238 1.555125 0.199580 0.095972 -0.021922 375414.000000 0 0 1
-1.288821 -4.467617 26.793808 27.194279 1.289941 0.171829 0.065489 -0.016097 1530600.000000 0 0 1
-2.559921 -5.139817 26.949388 27.554317 1.108705 0.209928 0.033429 -0.002113 266428.000000 0 0 1
-3.571021 -4.157717 26.811328 27.365783 0.861164 0.201642 0.023518 -0.010650 -167616.000000 0 0 1
-4.964921 -4.666117 27.194958 28.035492 0.754383 0.245488 0.010854 -0.005374 -81218.800000 0 0 1
-5.494421 -5.689917 26.385948 27.545999 0.802876 0.291246 0.008125 -0.002527 -800549.000000 0 0 1
-6.751921 -6.166217 26.736688 28.257055 0.740090 0.329528 0.007784 -0.006063 -88938.000000 0 0 1
-6.893921 -7.670217 26.532628 28.466449 0.838650 0.370720 0.015024 -0.001608 142760.000000 0 0 1
-6.085721 -8.323917 27.484148 29.354761 0.939493 0.358923 0.024882 -0.003341 -150554.000000 0 0 1
-6.090021 -9.672317 27.327238 29.621276 1.008872 0.396148 0.033076 -0.009609 216212.000000 0 0 1
-5.376221 -10.343717 28.539098 30.828174 1.091468 0.387789 0.028201 -0.013631 82725.200000 0 0 1
-5.581021 -11.750117 28.623888 31.441056 1.127368 0.426550 0.054673 -0.023452 -54489.200000 0 0 1
-5.097021 -12.236317 29.866238 32.675667 1.176106 0.417709 0.074356 -0.029300 -132702.000000 0 0 1
-5.211121 -13.773217 30.024238 33.441174 1.209090 0.455997 0.096344 -0.038945 143217.000000 0 0 1
-6.454221 -14.332917 29.616038 33.529079 1.147687 0.487954 0.095595 -0.038386 -39451.200000 0 0 1
-6.469821 -15.757017 29.404228 33.981624 1.181186 0.525052 0.085860 -0.038114 -76510.700000 0 0 1
-6.801121 -16.476617 30.709568 35.507911 1.179327 0.525914 0.095947 -0.038116 -853320.000000 0 0 1
-8.108421 -16.305617 31.121718 36.058022 1.109329 0.529418 0.094083 -0.042607 -1000500.000000 0 0 1
-8.243921 -16.634917 32.477173 37.409216 1.110692 0.519314 0.081547 -0.031181 84688.200000 0 0 1
-9.655821 -16.973617 33.050002 38.388034 1.053579 0.533671 0.085106 -0.022287 506768.000000 0 0 1
-10.196621 -18.219917 32.613672 38.724515 1.060581 0.569451 0.102489 -0.025630 508303.000000 0 0 1
-10.866721 -18.157117 31.320998 37.799093 1.031493 0.594162 0.088252 -0.031377 3102.070000 0 0 1
-11.651321 -19.503617 30.993158 38.428117 1.032296 0.632549 0.081726 -0.024742 232366.000000 0 0 1
-12.796821 -19.746817 31.794898 39.555163 0.995797 0.637121 0.085232 -0.023286 89852.800000 0 0 1
-13.148721 -21.140617 31.893143 40.459697 1.014383 0.662805 0.088295 -0.025254 201683.000000 0 0 1
-12.314821 -21.972317 32.966048 41.487321 1.059950 0.652439 0.104018 -0.032503 1301530.000000 0 0 1
-10.929321 -22.242217 32.651302 40.991143 1.114071 0.649237 0.086915 -0.030088 1241660.000000 0 0 1
-10.175021 -22.782017 33.766301 41.984693 1.150753 0.636379 0.103119 -0.042837 631023.000000 0 0 1
-10.552621 -24.274917 -33.805877 42.935611 1.160728 2.477315 0.112063 -0.037913 24337.700000 0 0 1
-9.991321 -25.091127 33.037996 42.672009 1.191841 0.685297 0.116195 -0.034798 -190.398000 0 0 1
-10.177321 -26.436137 33.412546 43.804628 1.203307 0.703221 0.140040 -0.039587 -736611.000000 0 0 1
-9.509721 -27.494327 32.484389 43.607434 1.237797 0.730370 0.122113 -0.037348 571504.000000 0 0 1
-8.101521 -27.409217 32.306519 43.134800 1.283403 0.724295 0.123110 -0.037287 598765.000000 0 0 1
-7.335521 -27.849297 33.438783 44.131003 1.313246 0.710990 0.118670 -0.039384 -55733.100000 0 0 1
-5.824921 -27.505527 33.443308 43.691402 1.362107 0.699066 0.118804 -0.048188 316321.000000 0 0 1
-5.585721 -26.258587 -33.840667 43.196116 1.361201 2.470945 0.111699 -0.039909 57732.300000 0 0 1
-5.161821 -25.250387 33.137939 41.980346 1.369149 0.661018 0.134652 -0.043439 89341.600000 0 0 1
-4.680121 -23.975817 33.881398 41.769516 1.378019 0.624678 0.121410 -0.041690 -102443.000000 0 0 1
-3.469921 -24.002917 -33.280967 41.180130 1.427228 2.511852 0.104538 -0.047597 -196747.000000 0 0 1
-3.159621 -22.676317 -32.851797 40.042966 1.432352 2.532930 0.097159 -0.047146 -211770.000000 0 0 1
35.063903 -15.857917 1.937213 38.531852 -0.424730 1.520499 0.202861 -0.059553 -443219.000000 0 0 1
35.923443 -16.329817 2.877113 39.565572 -0.426650 1.498014 0.200513 -0.061508 -398648.000000 0 0 1
35.272773 -16.202217 4.094013 39.031287 -0.430594 1.465712 0.178132 -0.062801 359657.000000 0 0 1
36.266393 -16.251017 5.292513 40.091864 -0.421274 1.438400 0.153477 -0.046799 117046.000000 0 0 1
37.068013 -17.367817 5.468513 41.298709 -0.438164 1.437993 0.156599 -0.051250 -233862.000000 0 0 1
-36.833991 -17.261517 6.640613 41.216509 0.438238 1.408976 0.133452 -0.034337 -3212.850000 0 0 1
-35.443581 -17.917517 6.577413 40.256021 0.468056 1.406671 0.100010 -0.033116 -206353.000000 0 0 1
-35.577990 -19.330317 6.387213 40.990865 0.497702 1.414338 0.099428 -0.030974 432509.000000 0 0 1
-34.424783 -20.002217 6.880913 40.404224 0.526363 1.399660 0.079832 -0.026869 292504.000000 0 0 1
-34.723256 -21.468217 6.930313 41.407947 0.553742 1.402638 0.098145 -0.022520 -96630.800000 0 0 1
-34.574283 -22.148417 5.726813 41.457566 0.569741 1.432216 0.107722 -0.026900 161854.000000 0 0 1
-34.824811 -23.558317 5.998513 42.470506 0.594766 1.429083 0.120473 -0.026739 -111908.000000 0 0 1
-34.311392 -24.563717 4.934813 42.485294 0.621321 1.454380 0.110187 -0.022696 33313.800000 0 0 1
-34.817508 -24.438317 3.608213 42.690858 0.611998 1.486176 0.103807 -0.022124 -19739.900000 0 0 1
-34.147174 -25.306797 2.722113 42.589592 0.637787 1.506838 0.096094 -0.014776 12725.500000 0 0 1
-34.508259 -25.170257 1.226513 42.730155 0.630185 1.542089 0.087220 -0.016251 2800.320000 0 0 1
-35.704029 -25.891927 0.915813 44.113584 0.627428 1.550034 0.082371 -0.017081 647043.000000 0 0 1
-36.305561 -25.405927 -0.313087 44.313123 0.610579 1.577862 0.070735 -0.020665 171293.000000 0 0 1
-37.150761 -24.095317 -0.204787 44.280981 0.575378 1.575421 0.080176 -0.031183 -1567360.000000 0 0 1
36.277713 -24.332717 0.326313 43.683637 -0.590814 1.563326 0.053939 -0.017679 -1075750.000000 0 0 1
35.551393 -23.131217 0.542513 42.417557 -0.576826 1.558006 0.081203 -0.026974 -1056.670000 0 0 1
34.024483 -23.241417 0.608113 41.209207 -0.599279 1.556039 0.076948 -0.023368 -189152.000000 0 0 1
33.501913 -23.165417 -0.675787 40.736611 -0.604975 1.587386 0.077135 -0.033364 157857.000000 0 0 1
32.083683 -23.088517 -0.769687 39.535235 -0.623782 1.590266 0.083001 -0.029867 684449.000000 0 0 1
31.523513 -22.961117 -2.213787 39.062074 -0.629521 1.627500 0.086330 -0.031907 -56687.200000 0 0 1
31.666363 -21.609317 -2.612387 38.425847 -0.598820 1.638834 0.116673 -0.040828 60895.900000 0 0 1
31.653753 -21.431917 -3.988487 38.434297 -0.595173 1.674758 0.111470 -0.052239 -87191.000000 0 0 1
31.635793 -19.974617 -4.377187 37.669199 -0.563183 1.687260 0.121851 -0.054125 575435.000000 0 0 1
30.492843 -19.270717 -3.872487 36.279060 -0.563599 1.677742 0.123524 -0.052693 444234.000000 0 0 1
30.415193 -17.887017 -4.209687 35.535206 -0.531620 1.689540 0.128526 -0.051965 487886.000000 0 0 1
29.315913 -17.228717 -3.277087 34.161247 -0.531320 1.666874 0.139332 -0.041870 431962.000000 0 0 1
29.675443 -16.859817 -1.913787 34.184031 -0.516664 1.626810 0.135212 -0.037335 356366.000000 0 0 1
30.336523 -17.783117 -1.048787 35.180163 -0.530207 1.600613 0.128629 -0.027830 138319.000000 0 0 1
29.516313 -19.054917 -0.658687 35.138818 -0.573256 1.589543 0.120299 -0.032983 453950.000000 0 0 1
28.461213 -18.853017 0.298713 34.140389 -0.585051 1.562047 0.117973 -0.014760 615147.000000 0 0 1
27.804013 -20.123417 0.420913 34.324805 -0.626495 1.558533 0.099875 -0.012915 -809419.000000 0 0 1
26.579613 -19.985117 1.291713 33.279863 -0.644714 1.531973 0.082309 -0.003664 -1226330.000000 0 0 1
25.791713 -21.132917 1.472113 33.376336 -0.686440 1.526676 0.073761 -0.001626 123928.000000 0 0 1
24.814413 -21.013117 2.488213 32.611308 -0.702640 1.494423 0.054628 0.006146 749358.000000 0 0 1
23.423513 -20.400917 2.107213 31.133563 -0.716537 1.503062 0.044463 0.007277 18978.900000 0 0 1
23.374713 -19.029317 1.695013 30.188826 -0.683279 1.514620 0.077384 -0.012534 161253.000000 0 0 1
23.508113 -18.080017 2.716013 29.780785 -0.655612 1.479469 0.098805 -0.016330 -251030.000000 0 0 1
23.289713 -16.650817 2.195213 28.713750 -0.620685 1.494270 0.082164 -0.011742 139664.000000 0 0 1
21.922013 -16.383517 1.948813 27.437059 -0.641806 1.499708 0.082169 -0.015643 12221.900000 0 0 1
21.675213 -15.037917 1.549813 26.426421 -0.606542 1.512116 0.097505 -0.031123 166220.000000 0 0 1
20.266913 -14.641217 1.031613 25.023534 -0.625615 1.529559 0.081941 -0.023154 -35334.000000 0 0 1
19.331713 -14.541117 2.069413 24.278421 -0.644901 1.485456 0.069403 -0.017164 -420516.000000 0 1 0
18.541713 -13.395917 2.094313 22.970239 -0.625651 1.479494 0.084688 -0.027813 -731965.000000 0 1 0
19.020813 -12.021817 2.585613 22.649522 -0.563642 1.456389 0.102191 -0.026775 -719511.000000 0 1 0
19.981513 -11.518217 1.660513 23.123311 -0.522919 1.498923 0.113338 -0.027538 431474.000000 0 1 0
20.421613 -10.259517 2.144113 22.954242 -0.465554 1.477252 0.125442 -0.031010 202410.000000 0 1 0
21.405413 -9.574217 1.114113 23.475489 -0.420590 1.523320 0.145646 -0.030644 399263.000000 0 1 0
20.761913 -9.262317 -0.121787 22.734608 -0.419623 1.576153 0.150921 -0.024402 250490.000000 0 1 0
21.641713 -8.749817 -1.077387 23.368436 -0.384211 1.616917 0.153954 -0.016867 -721287.000000 0 1 0
20.997013 -8.264517 -2.387087 22.690857 -0.374981 1.676192 0.163832 -0.014210 -236823.000000 0 1 0
21.793513 -7.708817 -3.448687 23.372559 -0.339986 1.718890 0.176711 -0.020053 477519.000000 0 1 0
22.745613 -8.563317 -4.092387 24.646317 -0.360069 1.737614 0.167727 -0.022829 -324750.000000 0 1 0
22.278813 -9.863517 -4.846687 24.841998 -0.416792 1.767156 0.140283 -0.019509 -410272.000000 0 1 0
21.757013 -9.630917 -6.112887 24.566025 -0.416732 1.822274 0.127525 -0.019655 -223572.000000 0 1 0
20.375113 -9.393717 -6.092487 23.248776 -0.431996 1.835949 0.126252 -0.015083 -667642.000000 0 1 0
19.721313 -9.260217 -7.509187 23.044950 -0.438995 1.902707 0.120442 -0.012003 -128162.000000 0 1 0
19.779813 -10.464817 -8.206887 23.834983 -0.486629 1.922312 0.120193 -0.009753 476918.000000 0 1 0
20.985813 -10.617717 -8.928087 25.156530 -0.468394 1.933605 0.116625 -0.013067 -162598.000000 0 0 1
21.049813 -11.996217 -9.653987 26.080708 -0.517990 1.949976 0.112087 -0.017569 351490.000000 0 0 1
20.009513 -12.150017 -10.637087 25.712860 -0.545706 1.997297 0.123985 -0.021705 612868.000000 0 0 1
19.801313 -13.493617 -10.895687 26.322722 -0.598168 1.997560 0.120789 -0.026907 110167.000000 0 0 1
18.509013 -13.745217 -11.725087 25.864884 -0.638763 2.041284 0.117487 -0.029452 283033.000000 0 0 1
18.391713 -15.119217 -12.035187 26.677548 -0.688052 2.038833 0.113401 -0.034882 166727.000000 0 0 1
17.519313 -15.238017 -13.144287 26.681375 -0.715868 2.085916 0.113703 -0.034952 -224523.000000 0 0 1
17.361813 -16.762917 -13.604787 27.704119 -0.767850 2.084119 0.090754 -0.034754 -257197.000000 0 0 1
16.623613 -17.545617 -12.675987 27.292377 -0.812375 2.053812 0.088129 -0.029710 357907.000000 0 0 1
16.819913 -18.925817 -12.836787 28.388011 -0.844244 2.040016 0.083850 -0.028761 -239091.000000 0 0 1
15.805713 -19.766517 -11.991787 28.006048 -0.896287 2.013280 0.080716 -0.027045 1260830.000000 0 0 1
14.518213 -19.745317 -12.652787 27.581680 -0.936787 2.047372 0.067630 -0.035427 826502.000000 0 0 1
13.456113 -20.123417 -11.791587 26.926946 -0.981402 2.024069 0.067974 -0.025139 673128.000000 0 0 1
12.014213 -20.124417 -12.357987 26.496289 -1.032588 2.056018 0.075184 -0.030729 886818.000000 0 0 1
11.083713 -20.824817 -11.502687 26.245638 -1.081694 2.024470 0.080559 -0.032676 -366640.000000 0 0 1
9.766113 -20.508517 -11.814787 25.604012 -1.126371 2.050417 0.071241 -0.030250 -275505.000000 0 0 1
8.769513 -20.916617 -10.695087 25.075768 -1.173797 2.011428 0.061981 -0.027775 51298.600000 0 0 1
8.810113 -22.301317 -10.573487 26.206211 -1.194565 1.986105 0.089513 -0.027002 -86785.000000 0 0 1
7.945413 -22.734517 -9.549487 25.907153 -1.234579 1.948303 0.076724 -0.029843 -90844.300000 0 0 1
7.770413 -24.269917 -9.467787 27.185423 -1.260942 1.926518 0.076511 -0.025186 17103.400000 0 0 1
9.006813 -24.888017 -9.249287 28.037215 -1.223565 1.906987 0.069077 -0.020274 -426342.000000 0 0 1
8.926913 -26.229307 -9.611787 29.326657 -1.242752 1.904716 0.053745 -0.020217 154662.000000 0 0 1
10.318713 -26.876147 -9.491987 30.313379 -1.204215 1.889282 0.044812 -0.010794 126205.000000 0 0 1
10.738413 -26.961707 -8.126887 30.137908 -1.191770 1.843833 0.054999 -0.015198 1610500.000000 0 0 1
12.097513 -27.531367 -8.061287 31.133750 -1.156785 1.832705 0.082605 -0.006110 1429800.000000 0 0 1
12.683013 -27.692687 -6.667087 31.180023 -1.141317 1.786286 0.076180 -0.019291 -246607.000000 0 0 1
12.395313 -28.749597 -5.766287 31.834466 -1.163730 1.752935 0.073729 -0.020892 -109742.000000 0 0 1
11.016313 -28.696047 -5.466287 31.220227 -1.204249 1.746791 0.070968 -0.020184 -213006.000000 0 0 1
10.738613 -29.791157 -4.465887 31.980854 -1.224831 1.710897 0.084412 -0.030088 -86296.900000 0 0 1
10.882013 -31.122937 -4.945287 33.339336 -1.234437 1.719678 0.085722 -0.026616 281951.000000 0 0 1
9.794713 -31.569767 -5.779487 33.555761 -1.269957 1.743895 0.083765 -0.028888 604222.000000 0 0 1
9.843313 -33.046277 -6.131987 35.022115 -1.281300 1.746792 0.082217 -0.025756 -120277.000000 0 0 1
9.536213 33.828547 -5.147187 35.521873 1.296028 1.716210 0.077446 -0.023749 -189771.000000 0 0 1
10.108613 32.521660 -5.244587 34.457918 1.269436 1.723593 0.079363 -0.020162 -132444.000000 0 0 1
9.620213 31.507657 -4.248687 33.216446 1.274457 1.699057 0.079252 -0.013438 638173.000000 0 0 1
8.234013 31.179157 -4.396987 32.546463 1.312604 1.706309 0.074111 -0.016616 76299.800000 0 0 1
7.928813 30.161677 -3.500187 31.382226 1.313735 1.682563 0.046246 -0.012657 988467.000000 0 0 1
6.467813 29.593877 -3.740087 30.522424 1.355627 1.693641 0.040831 -0.016540 1187160.000000 0 0 1
6.273713 28.961187 -4.991687 30.050403 1.357468 1.737680 0.044279 -0.022680 -48451.000000 0 0 1
5.883213 29.891857 -5.998687 31.050274 1.376464 1.765211 0.037848 -0.020497 -314795.000000 0 0 1
5.728113 29.313087 -7.425487 30.776715 1.377817 1.814470 0.052081 -0.031590 -95879.000000 0 0 1
4.884813 28.245547 -7.721987 29.686721 1.399549 1.833939 0.051104 -0.033039 -89940.700000 0 0 1
5.369313 27.021627 -7.142187 28.460651 1.374647 1.824457 0.052547 -0.027469 -117367.000000 0 0 1
4.520413 25.773857 -7.528987 27.228872 1.397175 1.850954 0.054998 -0.025068 -223910.000000 0 0 1
3.228613 25.806727 -6.951487 26.920889 1.446336 1.831975 0.055307 -0.025590 34843.400000 0 0 1
2.183013 26.299517 -7.791187 27.516045 1.487980 1.857874 0.064444 -0.028368 299463.000000 0 0 1
1.805013 25.605527 -9.122587 27.241928 1.500420 1.912267 0.066902 -0.028599 180081.000000 0 0 1
2.917213 25.536957 -10.050187 27.598053 1.457054 1.943530 0.053613 -0.031970 650209.000000 0 0 1
2.508013 24.873957 -11.258487 27.418194 1.470307 1.993931 0.062112 -0.032069 -443735.000000 0 0 1
2.386813 23.320647 -11.222187 25.990131 1.468804 2.017269 0.072920 -0.021304 -588126.000000 0 0 1
1.285813 23.000987 -10.421587 25.284544 1.514952 1.995633 0.093395 -0.023039 -309524.000000 0 0 1
1.208613 21.573707 -10.363087 23.964122 1.514832 2.017995 0.046392 -0.014226 -208258.000000 0 1 0
0.032313 21.038807 -9.507687 23.087411 1.569260 1.995239 0.051914 -0.010064 753994.000000 0 1 0
-1.257487 21.155307 -10.111387 23.481235 -1.511425 2.015971 0.069663 -0.015061 293071.000000 0 1 0
-2.273187 20.608107 -9.285387 22.717391 -1.460935 1.991864 0.052919 -0.009160 248923.000000 0 1 0
-3.606987 20.414707 -10.043787 23.035804 -1.395916 2.021954 0.035973 -0.012807 270200.000000 0 1 0
-4.527087 19.644407 -9.233787 22.173409 -1.344299 2.000317 0.033612 -0.021812 349.731000 0 1 0
-5.469287 19.190807 -10.176787 22.400160 -1.293162 2.042402 0.041085 -0.018928 -577494.000000 0 1 0
-6.502987 18.179007 -9.656687 21.587420 -1.227261 2.034573 0.034984 -0.019170 -14017.300000 0 1 0
-7.545587 18.738407 -8.872787 22.063320 -1.187982 1.984661 0.061609 -0.018081 -330486.000000 0 1 0
-8.787587 18.679607 -9.507987 22.727763 -1.131077 2.002416 0.071791 -0.030925 -348134.000000 0 1 0
-9.987787 18.931707 -8.578687 23.059906 -1.085337 1.951978 0.087540 -0.041411 453.660000 0 1 0
-10.231587 17.873107 -7.736887 21.999835 -1.050875 1.930161 0.065464 -0.034312 -439456.000000 0 1 0
-11.262587 18.197407 -6.837387 22.466449 -1.016587 1.880039 0.093537 -0.030967 -372657.000000 0 1 0
-11.705487 17.021007 -5.955787 21.498941 -0.968368 1.851495 0.058181 -0.031801 -338201.000000 0 1 0
-12.625987 17.431807 -4.974687 22.091422 -0.943942 1.797931 0.072575 -0.025046 -141364.000000 0 1 0
-13.111887 16.274507 -4.329587 21.343066 -0.892607 1.775071 0.052321 -0.022882 289424.000000 0 1 0
-14.256387 16.633807 -3.319287 22.157296 -0.862210 1.721168 0.042856 -0.027535 -18667.100000 0 1 0
-15.550187 16.622207 -3.846787 23.084710 -0.818707 1.738215 0.099092 -0.051481 -127445.000000 0 1 0
-16.483387 17.049807 -2.866787 23.887579 -0.802288 1.691098 0.094874 -0.042392 -931542.000000 0 1 0
-17.863587 17.270007 -3.410887 25.079773 -0.768505 1.707221 0.114647 -0.054752 -1088900.000000 0 0 1
-17.963387 18.280607 -4.428087 26.009071 -0.794150 1.741881 0.108178 -0.060035 -89311.400000 0 0 1
-19.328787 18.401607 -4.751987 27.107241 -0.760829 1.747010 0.092301 -0.060873 186836.000000 0 0 1
-19.747087 19.236107 -6.022787 28.217888 -0.772291 1.785890 0.088770 -0.043005 60525.500000 0 0 1
-19.379587 20.593807 -5.877887 28.882916 -0.815765 1.775735 0.101661 -0.056262 219082.000000 0 0 1
-19.724187 21.271207 -7.080387 29.860336 -0.823117 1.810193 0.087415 -0.032468 -50568.100000 0 0 1
-19.560087 22.830717 -6.888787 30.843054 -0.862400 1.796046 0.099856 -0.039187 -308055.000000 0 0 1
-18.229087 23.256527 -6.763587 30.313557 -0.905995 1.795811 0.113883 -0.044412 -140755.000000 0 0 1
-17.890387 23.616647 -5.430387 30.121438 -0.922492 1.752071 0.116464 -0.051931 -365913.000000 0 0 1
-16.411787 24.022087 -5.391787 29.588490 -0.971438 1.754046 0.110807 -0.049166 -875613.000000 0 0 1
-16.008587 24.459777 -4.142187 29.524790 -0.991274 1.711556 0.106902 -0.055241 -1092400.000000 0 0 1
-14.805087 25.100837 -4.006787 29.415930 -1.037892 1.707433 0.127266 -0.055181 -931760.000000 0 0 1
-14.523187 26.427527 -4.834687 30.540323 -1.068300 1.729770 0.135826 -0.039760 -416367.000000 0 0 1
-15.179687 27.578777 -4.362087 31.781120 -1.067637 1.708485 0.147903 -0.034980 -19272.700000 0 0 1
-15.003387 28.721137 -5.160087 32.812068 -1.089404 1.728714 0.113291 -0.030391 -247297.000000 0 0 1
-15.653387 29.955787 -4.529387 34.101217 -1.089272 1.704012 0.102672 -0.019307 1086540.000000 0 0 1
-17.087987 30.027117 -4.699187 34.867024 -1.053419 1.705982 0.122166 -0.026844 1006000.000000 0 0 1
-17.512687 31.321117 -4.417387 36.155495 -1.060968 1.693280 0.122689 -0.023686 -56725.800000 0 0 1
13.362479 -8.611917 18.605138 24.471864 -0.572488 0.707073 0.123941 -0.019061 104086.000000 0 1 0
13.998379 -9.740817 19.143338 25.637970 -0.607937 0.727741 0.118393 -0.019090 -34050.900000 0 0 1
14.485179 -10.626417 18.166438 25.549181 -0.632926 0.779823 0.124689 -0.018827 -52618.700000 0 0 1
14.848579 -11.970217 18.780438 26.766981 -0.678481 0.793118 0.135893 -0.027963 -893322.000000 0 0 1
15.932679 -11.894617 19.643738 27.950110 -0.641292 0.791450 0.121349 -0.025542 -173293.000000 0 0 1
16.172679 -13.196617 20.287138 29.107975 -0.684410 0.799645 0.111028 -0.020773 124826.000000 0 0 1
16.922679 -14.330917 19.519138 29.542326 -0.702661 0.849022 0.104754 -0.023250 81716.400000 0 0 1
16.121079 -14.689917 18.364038 28.511765 -0.738982 0.870968 0.116317 -0.032217 816120.000000 0 0 1
16.508379 -15.936917 17.792438 29.035888 -0.767787 0.911230 0.122275 -0.035217 -645286.000000 0 0 1
15.759079 -16.196017 16.524638 27.995057 -0.799071 0.939403 0.110635 -0.035699 -269750.000000 0 0 1
14.358279 -16.325817 16.704638 27.417830 -0.849433 0.915667 0.147146 -0.032732 65239.200000 0 0 1
13.704179 -16.047317 15.495538 26.180768 -0.863993 0.937423 0.159534 -0.030900 -250787.000000 0 0 1
13.096079 -17.245617 14.694138 26.169377 -0.921315 0.974597 0.117521 -0.018666 -217091.000000 0 0 1
14.023079 -18.219217 14.272138 27.060683 -0.914815 1.015244 0.114128 -0.025015 312398.000000 0 0 1
13.330179 -19.443917 13.976838 27.406415 -0.969820 1.035630 0.098923 -0.019483 575714.000000 0 0 1
14.299579 -20.469517 13.294738 28.288322 -0.961025 1.081537 0.089987 -0.013218 451736.000000 0 0 1
15.172179 -21.208017 14.135538 29.661228 -0.949811 1.074052 0.068710 -0.011666 66500.100000 0 0 1
15.824079 -22.199617 13.401938 30.378223 -0.951526 1.113895 0.050346 -0.014787 -361363.000000 0 0 1
16.910979 -23.000317 14.099838 31.840246 -0.936802 1.112043 0.065373 -0.021813 278845.000000 0 0 1
18.177979 -22.363217 14.312038 32.177428 -0.888268 1.109862 0.035429 -0.020378 424459.000000 0 0 1
18.711379 -22.963617 15.506838 33.435093 -0.887080 1.088529 0.044227 -0.025821 -357832.000000 0 0 1
20.142579 -22.481217 15.751138 34.047423 -0.840210 1.089844 0.014123 -0.022214 305651.000000 0 0 1
21.143479 -23.078517 14.916238 34.672162 -0.829128 1.126073 0.012407 -0.024749 768546.000000 0 0 1
22.431579 -22.474517 14.975938 35.107811 -0.786354 1.130099 0.018865 -0.019026 149240.000000 0 0 1
23.572679 -23.245217 14.371438 36.090852 -0.778404 1.161241 0.010498 -0.023520 -555731.000000 0 0 1
23.973479 -24.371917 15.160438 37.397285 -0.793639 1.153392 0.011170 -0.018763 -37606.600000 0 0 1
25.146479 -24.950817 14.654538 38.335939 -0.781493 1.178549 0.023731 -0.024182 -653726.000000 0 0 1
25.638179 -26.189147 15.381738 39.746516 -0.796029 1.173425 0.030448 -0.016883 -622996.000000 0 0 1
26.254779 -25.745947 16.582338 40.337838 -0.775613 1.147151 0.028244 -0.008564 20956.000000 0 0 1
26.504679 -26.914047 17.313738 41.552732 -0.793061 1.141018 0.063246 -0.012011 16017.900000 0 0 1
27.036379 -26.577667 18.747538 42.294307 -0.776843 1.111560 0.048945 -0.002938 -155242.000000 0 0 1
26.049279 -26.068107 19.591038 41.736314 -0.785759 1.082185 0.065168 -0.006737 -401543.000000 0 0 1
26.411879 -25.914417 20.937838 42.515144 -0.775892 1.055860 0.077595 -0.005419 55854.000000 0 0 1
25.193879 -25.438297 21.810538 41.923002 -0.790225 1.023650 0.072197 -0.008865 768739.000000 0 0 1
24.250279 -26.514287 21.780138 42.017352 -0.829967 1.025864 0.090342 -0.017903 79572.000000 0 0 1
23.211179 -26.405477 22.731538 41.865629 -0.849689 0.996833 0.103472 -0.016219 -59560.200000 0 0 1
22.452979 -27.699427 22.994088 42.427852 -0.889629 0.998032 0.124725 -0.017834 -279465.000000 0 0 1
23.219979 -28.644247 23.719808 43.843924 -0.889605 0.999164 0.125232 -0.013807 353266.000000 0 0 1
22.976679 -29.992037 23.325968 44.402149 -0.917075 1.017689 0.129558 -0.016832 -581290.000000 0 0 1
24.111779 -30.892337 23.795518 45.846931 -0.908053 1.025091 0.119268 -0.012134 -240452.000000 0 0 1
24.174879 -30.986247 25.210688 46.692088 -0.908258 1.000437 0.114355 -0.012325 488523.000000 0 0 1
25.335179 -31.697707 25.637248 47.998796 -0.896498 1.007327 0.106382 -0.009723 -253143.000000 0 0 1
25.215479 -32.273777 27.086718 49.103028 -0.907563 0.986479 0.102601 -0.022423 184402.000000 0 0 1
24.594379 -33.556617 27.234878 49.725935 -0.938315 0.991184 0.085927 -0.017210 588654.000000 0 0 1
23.210679 -33.536447 26.896988 48.855674 -0.965390 0.987786 0.088780 -0.016792 -50042.400000 0 0 1
22.355279 33.032303 27.224178 48.291277 0.975832 0.971878 0.095428 -0.035669 -105120.000000 0 0 1
21.855079 33.161441 28.536428 48.904533 0.988085 0.947749 0.070769 -0.021832 66031.000000 0 0 1
21.242779 31.988577 29.042308 48.145408 0.984591 0.923263 0.077368 -0.035412 60313.200000 0 0 1
20.844679 32.140027 30.509528 48.972577 0.995435 0.898234 0.076593 -0.043394 -116020.000000 0 0 1
22.034479 32.197676 31.254488 49.990515 0.970651 0.895398 0.064094 -0.031531 167562.000000 0 0 1
21.790379 32.605911 32.607284 51.001970 0.981667 0.877165 0.058408 -0.027339 -632742.000000 0 0 1
23.093879 32.627312 33.367888 52.069998 0.954849 0.875221 0.039432 -0.008045 -407333.000000 0 0 1
23.508579 31.330527 33.751619 51.705193 0.927077 0.859561 0.037822 -0.007766 619486.000000 0 0 1
24.737179 31.285817 -33.363537 51.998615 0.901762 2.267409 0.033375 0.001930 813356.000000 0 0 1
25.097279 29.820727 -33.018547 51.082028 0.871196 2.273631 0.050439 -0.001021 -43457.000000 0 0 1
25.543679 29.138927 33.697078 51.352212 0.851051 0.855031 0.055843 -0.009805 240841.000000 0 0 1
25.226779 27.742247 33.862708 50.524307 0.832852 0.836283 0.071111 -0.023913 -19892.600000 0 0 1
25.502879 26.991887 32.541325 49.375061 0.813755 0.851223 0.104304 -0.027441 -434226.000000 0 0 1
26.799379 26.488667 32.636406 49.849686 0.779567 0.857016 0.097085 -0.033118 -323316.000000 0 0 1
27.245979 25.912547 31.407838 48.992405 0.760319 0.874897 0.132952 -0.050886 -412728.000000 0 0 1
28.537579 25.158397 31.683778 49.509596 0.722549 0.876360 0.110819 -0.039883 -721653.000000 0 0 1
28.315479 24.032987 32.525314 49.368480 0.703773 0.851537 0.132962 -0.044596 -284738.000000 0 0 1
29.417979 23.826717 33.336329 50.442450 0.680771 0.848808 0.130562 -0.051848 -1153620.000000 0 0 1
29.045979 22.926117 -33.297457 49.779477 0.668185 2.303523 0.129915 -0.054308 97143.500000 0 0 1
28.194979 23.590697 -32.373017 48.984590 0.696721 2.292789 0.129317 -0.055001 1886310.000000 0 0 1
26.830379 23.987207 -32.699027 48.625936 0.729508 2.308325 0.114772 -0.046455 1437880.000000 0 0 1
25.765779 22.863757 -32.964877 47.679239 0.725793 2.334205 0.103185 -0.045641 -208228.000000 0 0 1
25.573079 22.043107 -31.868847 46.427409 0.711400 2.327355 0.081651 -0.056490 177728.000000 0 0 1
25.260579 20.725607 -32.206187 45.879038 0.687100 2.348971 0.082642 -0.043687 -129981.000000 0 0 1
25.227179 19.782907 -30.972997 44.576906 0.665026 2.338968 0.077284 -0.045984 324115.000000 0 0 1
24.066079 19.958507 -30.155717 43.438294 0.692366 2.338131 0.059476 -0.033690 552543.000000 0 0 1
24.210079 19.092207 -29.061147 42.369689 0.667754 2.326629 0.064902 -0.026874 511734.000000 0 0 1
22.861479 18.833707 -28.277257 40.950690 0.689097 2.333004 0.054942 -0.022249 513139.000000 0 0 1
22.895179 18.232107 -27.013707 39.828875 0.672499 2.316167 0.056864 -0.014712 8578.470000 0 0 1
23.466279 19.022907 -25.966667 39.834721 0.681200 2.280831 0.046863 -0.000283 3524.790000 0 0 1
23.569779 18.195307 -24.672287 38.669438 0.657418 2.262734 0.077729 0.006597 20750.900000 0 0 1
24.527379 17.159507 -24.697787 38.807495 0.610462 2.260642 0.071966 -0.013152 182463.000000 0 0 1
24.408579 16.373907 -23.561387 37.669915 0.590877 2.246530 0.090533 -0.010063 -19908.400000 0 0 1
25.494679 15.253507 -23.547187 37.909341 0.539170 2.240999 0.097601 -0.017591 -74958.700000 0 0 1
26.804179 15.762807 -23.330187 38.874513 0.531603 2.214474 0.120825 -0.028276 512407.000000 0 0 1
27.821579 14.762007 -23.470187 39.278579 0.487823 2.211215 0.114157 -0.033738 332008.000000 0 0 1
27.971879 13.891207 -22.208387 38.322371 0.460935 2.188930 0.100620 -0.020351 -230206.000000 0 0 1
26.878879 12.962007 -22.103387 37.135529 0.449337 2.208322 0.082504 -0.008684 493611.000000 0 0 1
26.718979 12.641007 -20.726587 36.101112 0.441905 2.182333 0.065299 -0.022767 -660889.000000 0 0 1
25.429679 11.896207 -20.393787 34.700070 0.437564 2.199029 0.080087 -0.014649 -76842.400000 0 0 1
24.345479 12.810607 -20.301187 34.189943 0.484388 2.206541 0.095219 -0.019472 137655.000000 0 0 1
23.091679 12.215207 -20.618387 33.279946 0.486568 2.238958 0.093027 -0.023807 470139.000000 0 0 1
21.980279 13.286307 -20.697887 32.985772 0.543696 2.249108 0.088322 -0.022764 -542780.000000 0 0 1
22.231579 14.301807 -21.646387 34.166517 0.571658 2.256936 0.087252 -0.011486 210476.000000 0 0 1
21.423379 15.484807 -21.486787 34.064974 0.625864 2.253327 0.068810 -0.005632 -75716.000000 0 0 1
20.035479 15.378207 -22.119887 33.573785 0.654638 2.290077 0.069124 0.003495 -299832.000000 0 0 1
19.060379 14.547007 -21.502787 32.206883 0.651900 2.301838 0.063800 -0.000582 314825.000000 0 0 1
17.935879 14.466507 -22.357387 32.106515 0.678733 2.341096 0.068153 -0.010787 481585.000000 0 0 1
16.735979 13.619807 -21.807187 30.678095 0.683102 2.361487 0.077586 -0.017241 883224.000000 0 0 1
15.577979 13.676407 -22.633287 30.691745 0.720488 2.400067 0.089392 -0.017749 -340587.000000 0 0 1
14.480879 13.065907 -22.030587 29.423809 0.734077 2.416945 0.104884 -0.028138 -206136.000000 0 0 1
13.168979 13.310807 -22.832687 29.528481 0.790754 2.454736 0.088980 -0.035607 -47003.000000 0 0 1
12.882779 14.695307 -22.844387 30.063001 0.851027 2.433931 0.108734 -0.025273 -51448.800000 0 0 1
12.007579 15.023507 -23.918887 30.692033 0.896511 2.464375 0.106402 -0.018304 -238512.000000 0 0 1
11.790479 16.549507 -24.069887 31.500175 0.951772 2.440471 0.106442 -0.016945 415742.000000 0 0 1
12.938179 17.362807 -24.327387 32.568164 0.930396 2.414287 0.092401 -0.009962 746845.000000 0 0 1
13.903879 17.125607 -25.372467 33.620921 0.888855 2.425937 0.097585 -0.021097 195179.000000 0 0 1
13.422779 17.181707 -26.854797 34.591360 0.907609 2.459641 0.126604 -0.026993 -421599.000000 0 0 1
14.519479 17.277807 -27.733147 35.755633 0.871929 2.458509 0.103846 -0.025561 194900.000000 0 0 1
14.220379 16.872907 -29.082977 36.506626 0.870501 2.492528 0.122631 -0.033390 -397883.000000 0 0 1
15.340379 17.300607 -30.069917 37.932020 0.845380 2.486074 0.110301 -0.038969 1157810.000000 0 0 1
16.455679 16.364407 -29.964297 37.900426 0.782617 2.482594 0.076388 -0.029812 1223550.000000 0 0 1
17.656379 16.864407 -30.546587 39.105625 0.762460 2.467270 0.070688 -0.029706 684708.000000 0 0 1
18.899279 15.926907 -30.409217 39.186344 0.700256 2.459120 0.071500 -0.027910 339133.000000 0 0 1
20.060579 16.536907 -30.942397 40.414453 0.689412 2.442812 0.058661 -0.033126 115656.000000 0 0 1
21.163179 15.635707 -30.929647 40.607863 0.636305 2.436677 0.067368 -0.033447 -498163.000000 0 0 1
22.400679 16.326907 -31.439977 41.914561 0.629832 2.419005 0.079771 -0.032757 -945767.000000 0 0 1
22.307079 16.697507 -32.799677 43.037557 0.642559 2.437374 0.082322 -0.031796 -229418.000000 0 0 1
23.427979 17.465807 -33.111987 44.162521 0.640622 2.418519 0.084353 -0.034220 -356800.000000 0 0 1
23.507679 17.949107 33.338192 44.566988 0.652112 0.725682 0.064980 -0.023875 77356.800000 0 0 1
24.616479 18.770707 33.024818 45.265319 0.651470 0.753084 0.085712 -0.026043 145248.000000 0 0 1
24.444379 19.370307 31.773518 44.522948 0.670104 0.776110 0.109612 -0.024695 -611289.000000 0 0 1
25.498879 20.456407 31.636928 45.492336 0.676110 0.801772 0.130105 -0.028286 100033.000000 0 0 1
26.770579 19.864707 31.392038 45.790070 0.638384 0.815418 0.103206 -0.031558 -310217.000000 0 0 1
27.742779 20.849807 31.237648 46.692257 0.644486 0.837919 0.097417 -0.037547 -869631.000000 0 0 1
29.158879 20.306107 31.181188 47.274144 0.608303 0.850533 0.111588 -0.037004 -784693.000000 0 0 1
29.606579 19.921307 32.449985 48.232868 0.592283 0.832840 0.099255 -0.039623 -771496.000000 0 0 1
30.969679 19.632507 32.384930 48.921775 0.564993 0.847347 0.086095 -0.024528 -600224.000000 0 0 1
31.388579 19.093407 33.740771 49.882268 0.546494 0.827921 0.079050 -0.025105 -395556.000000 0 0 1
31.396979 20.064707 -33.124477 49.855729 0.568650 2.297496 0.080513 -0.042518 -38205.000000 0 0 1
30.614979 19.667607 -32.033197 48.479041 0.571027 2.292632 0.096677 -0.047074 -412834.000000 0 0 1
31.088179 20.227407 -30.663957 48.123810 0.576829 2.261642 0.102527 -0.041739 668391.000000 0 0 1
32.350879 19.589207 -30.391767 48.517790 0.544471 2.247728 0.089843 -0.041972 550822.000000 0 0 1
32.870279 19.841607 -29.103707 48.178526 0.543087 2.219408 0.103901 -0.043481 167130.000000 0 0 1
34.344179 19.376107 -29.059217 48.983612 0.513660 2.205878 0.072747 -0.027763 609066.000000 0 0 1
35.280379 20.093307 -29.861937 50.400212 0.517715 2.204950 0.080026 -0.037109 6934.150000 0 0 1
36.555679 20.238107 -29.324877 51.047498 0.505621 2.182744 0.033011 -0.011958 -529103.000000 0 0 1
-37.088554 21.151807 -29.929897 52.141716 -0.518299 2.182192 0.025414 -0.016412 -336818.000000 0 0 1
-36.420954 20.621407 -31.033507 52.103809 -0.515193 2.208820 0.023228 -0.014843 510860.000000 0 0 1
-35.177754 21.295707 -31.290987 51.673082 -0.544362 2.221262 0.025953 -0.010284 205826.000000 0 0 1
-34.376754 20.585307 -32.360597 51.504605 -0.539548 2.250169 0.027304 -0.015011 -583326.000000 0 0 1
-33.764954 19.392207 -32.009597 50.405794 -0.521330 2.258854 0.031004 -0.006876 109740.000000 0 0 1
-32.985054 18.887107 -33.087037 50.393339 -0.520026 2.287066 0.030367 0.002257 328511.000000 0 0 1
-32.169654 17.610907 -32.668937 49.115070 -0.500874 2.298492 0.021787 0.006101 -54586.400000 0 0 1
-33.013054 16.534207 -32.521947 49.202833 -0.464318 2.292916 0.029188 -0.000231 -21020.100000 0 0 1
-32.386154 15.349507 -33.027877 48.737162 -0.442594 2.315390 0.028862 0.004595 80281.300000 0 0 1
-33.410054 14.178507 -33.021837 49.068355 -0.401344 2.309022 0.031758 -0.000241 -202488.000000 0 0 1
-32.945254 12.920507 -33.417797 48.673180 -0.373748 2.327564 0.044605 -0.010255 -252612.000000 0 0 1
-33.906054 11.927507 -33.176457 48.913835 -0.338261 2.316193 0.054628 -0.016827 -270703.000000 0 0 1
-33.389054 10.474107 -33.145687 48.199299 -0.303977 2.329085 0.057985 -0.016658 -204442.000000 0 0 1
-32.879354 10.036507 33.509862 48.007231 -0.296269 0.798172 0.045177 -0.018068 -236023.000000 0 0 1
-33.178454 8.681107 33.223763 47.749239 -0.255912 0.801268 0.067740 -0.024127 -383469.000000 0 0 1
-32.282154 7.934107 32.246216 46.313129 -0.240997 0.800615 0.074373 -0.019189 280601.000000 0 0 1
-31.063354 7.517607 32.859065 45.838461 -0.237444 0.771530 0.053498 -0.006326 724153.000000 0 0 1
-30.036754 7.124007 31.925564 44.409455 -0.232873 0.768591 0.052932 -0.011364 406369.000000 0 0 1
21.639579 -4.239617 -31.742577 38.650187 -0.193469 2.534445 0.070558 -0.044519 69334.700000 0 0 1
22.931679 -4.162617 -32.315887 39.843517 -0.179567 2.516776 0.053414 -0.043599 225052.000000 0 0 1
23.849079 -3.218517 -31.815597 39.891975 -0.134143 2.494009 0.058582 -0.034794 209078.000000 0 0 1
23.643979 -1.766417 -32.401637 40.150019 -0.074570 2.509875 0.059654 -0.029391 -213209.000000 0 0 1
24.551679 -0.883317 -31.782767 40.171003 -0.035962 2.483543 0.065538 -0.021943 256260.000000 0 0 1
24.165679 0.436483 -32.125487 40.202207 0.018060 2.496589 0.068995 -0.030259 646510.000000 0 0 1
25.143379 1.498283 -31.469357 40.308247 0.059519 2.466610 0.069536 -0.022912 838092.000000 0 0 1
26.509079 1.399383 -31.834457 41.450238 0.052740 2.446534 0.072336 -0.025520 -306204.000000 0 0 1
27.190379 2.518383 -31.330767 41.560509 0.092357 2.424712 0.078453 -0.025619 -364411.000000 0 0 1
28.700879 2.473683 -31.604727 42.763516 0.085976 2.402468 0.081863 -0.027019 -107324.000000 0 0 1
29.157579 2.734683 -32.929807 44.068300 0.093516 2.414703 0.099663 -0.039852 -3666.270000 0 0 1
29.231179 1.645183 -33.784237 44.705068 0.056222 2.427540 0.077470 -0.029729 61577.100000 0 0 1
30.040979 2.009583 32.785172 44.512541 0.066795 0.742859 0.067883 -0.033821 197116.000000 0 0 1
29.413279 2.988883 31.975408 43.548836 0.101269 0.746246 0.070703 -0.023154 247222.000000 0 0 1
29.688079 4.303483 32.414518 44.165631 0.143954 0.746705 0.087946 -0.023305 -300378.000000 0 0 1
28.914679 5.320683 31.600758 43.162208 0.181977 0.749339 0.088196 -0.023687 -196590.000000 0 0 1
29.236079 6.677883 31.939596 43.811873 0.224560 0.753912 0.103936 -0.031156 210291.000000 0 0 1
28.704779 7.520883 30.920328 42.855510 0.256248 0.764828 0.097140 -0.026459 162515.000000 0 0 1
29.070779 9.052983 31.146608 43.556605 0.301893 0.774053 0.082054 -0.020886 -305833.000000 0 0 1
30.387879 9.388583 30.848058 44.307690 0.299655 0.800673 0.070842 -0.017412 -599260.000000 0 0 1
30.613579 10.795183 31.048858 44.919470 0.339013 0.807632 0.071275 -0.004824 1431620.000000 0 0 1
32.116579 11.272183 30.807448 45.908993 0.337545 0.835166 0.073683 -0.003423 1301620.000000 0 0 1
33.036979 10.767783 31.770568 47.082440 0.315074 0.830122 0.074584 -0.023902 711417.000000 0 0 1
34.390379 10.771983 31.295868 47.730128 0.303547 0.855709 0.076044 -0.024704 1221650.000000 0 0 1
35.219279 12.122983 31.467478 48.760296 0.331511 0.869314 0.071221 -0.021366 -139727.000000 0 0 1
35.439879 12.561183 32.813971 49.905161 0.340622 0.853265 0.070685 -0.020398 -11449.700000 0 0 1
35.719079 13.966083 33.001902 50.596735 0.372722 0.860243 0.077031 -0.009406 -161394.000000 0 0 1
34.604279 14.957783 32.620013 49.852348 0.407997 0.857497 0.083180 -0.018671 -934128.000000 0 0 1
34.459679 15.074283 31.203458 48.870843 0.412366 0.878264 0.078339 -0.028284 -148064.000000 0 0 1
33.442179 15.934683 30.790018 48.169686 0.444659 0.877340 0.078254 -0.023910 247114.000000 0 0 1
31.977079 15.471883 31.056168 47.184725 0.450639 0.852394 0.073249 -0.024846 -281555.000000 0 0 1
31.500979 14.609583 30.068888 45.933535 0.434256 0.857120 0.080294 -0.016848 845830.000000 0 0 1
30.063979 14.484383 30.102968 44.942506 0.448970 0.836843 0.075875 -0.025161 1062650.000000 0 0 1
29.361779 13.926483 28.874198 43.471603 0.442882 0.844362 0.070757 -0.013071 -130010.000000 0 0 1
29.403279 12.519083 28.806788 43.024543 0.402524 0.837203 0.071745 -0.009805 58458.500000 0 0 1
28.492479 12.099883 27.802498 41.607781 0.401591 0.839004 0.080795 -0.017869 221571.000000 0 0 1
28.183879 10.616983 27.769978 40.966121 0.360264 0.825926 0.074359 -0.006474 -96359.600000 0 0 1
29.188079 9.850783 27.189038 41.088023 0.325490 0.847677 0.078277 -0.006572 -437872.000000 0 0 1
28.691279 8.541083 27.070758 40.360445 0.289335 0.835611 0.086169 -0.007308 318361.000000 0 0 1
29.753979 7.470683 26.703438 40.671661 0.245997 0.854546 0.071350 -0.016186 186774.000000 0 0 1
30.276679 7.738383 25.400628 40.270979 0.250232 0.888286 0.065916 -0.011256 589902.000000 0 0 1
31.372479 6.865083 25.077118 40.745842 0.215429 0.907837 0.059382 -0.005871 529277.000000 0 0 1
31.988279 7.019183 23.701978 40.426510 0.216006 0.944315 0.073687 -0.003857 -126584.000000 0 0 1
32.657279 8.259983 23.481828 41.062409 0.247734 0.962029 0.080990 -0.011547 508892.000000 0 0 1
31.809179 9.405883 23.221718 40.491267 0.287505 0.960025 0.089238 -0.013524 310242.000000 0 0 1
31.414679 9.607983 21.692338 39.366901 0.296809 0.987198 0.101773 -0.014543 -817295.000000 0 0 1
32.515079 9.731783 20.895038 39.856500 0.290815 1.018954 0.100850 -0.023060 -847520.000000 0 0 1
32.135779 9.747383 19.514438 38.839839 0.294499 1.044385 0.127003 -0.028146 -1348250.000000 0 0 1
32.978379 10.670583 18.621638 39.347176 0.312932 1.077803 0.154084 -0.054271 -10320.200000 0 0 1
34.315279 10.390683 18.302638 40.255325 0.294024 1.098802 0.146794 -0.039147 36563.800000 0 0 1
35.158879 10.111583 19.408638 41.413598 0.280039 1.083030 0.141958 -0.032998 -1620170.000000 0 0 1
36.546579 9.652783 18.948438 42.283235 0.258226 1.106123 0.164479 -0.020657 -493226.000000 0 0 1
36.511079 8.281483 18.500938 41.760347 0.223047 1.111825 0.139903 -0.013538 251598.000000 0 0 1
-37.124954 7.981283 17.587638 41.848394 -0.211761 1.137053 0.142932 -0.011101 -365498.000000 0 0 1
-37.059654 6.499283 17.173438 41.359226 -0.173608 1.142605 0.135450 -0.013161 173382.000000 0 0 1
36.469479 6.107783 16.400638 40.451315 0.165937 1.153335 0.108562 -0.014127 529819.000000 0 0 1
36.654979 4.830683 15.814138 40.212062 0.131033 1.166612 0.119793 -0.019517 76098.200000 0 0 1
35.373179 3.955883 15.762838 38.927855 0.111370 1.153900 0.100139 -0.018846 99689.600000 0 0 1
35.129079 3.302583 16.993638 39.163031 0.093737 1.121957 0.100218 -0.009661 -405498.000000 0 0 1
33.936279 2.594883 17.020938 38.054130 0.076315 1.107072 0.083909 -0.004485 -489264.000000 0 0 1
33.832379 1.791183 18.332438 38.521637 0.052893 1.074810 0.074834 -0.009428 98837.900000 0 0 1
34.737379 0.703983 18.367438 39.300686 0.020263 1.084498 0.090378 -0.014625 78823.900000 0 0 1
34.638979 -0.031217 19.603238 39.801342 -0.000901 1.055805 0.078377 -0.016918 381933.000000 0 0 1
35.086479 -1.561617 19.460338 40.152266 -0.044478 1.064818 0.089236 -0.011207 336188.000000 0 0 1
34.790079 -2.279417 20.672238 40.532540 -0.065426 1.035593 0.093027 -0.005332 315724.000000 0 0 1
35.325279 -3.616317 20.584438 41.044758 -0.102017 1.045451 0.088554 -0.008686 -195697.000000 0 0 1
34.796679 -4.436917 21.775338 41.287534 -0.126825 1.015251 0.077014 -0.004097 -1170.200000 0 0 1
35.237479 -3.989117 23.052188 42.296529 -0.112727 0.994391 0.076980 -0.010673 365478.000000 0 0 1
34.503279 -4.618717 24.093718 42.335754 -0.133072 0.965373 0.069270 -0.011881 308174.000000 0 0 1
34.903079 -4.039717 25.484038 43.404844 -0.115228 0.943295 0.047755 -0.007872 122983.000000 0 0 1
34.155679 -4.652517 26.522178 43.493474 -0.135382 0.914992 0.053988 -0.008200 62484.600000 0 0 1
34.498079 -4.067817 27.774218 44.475519 -0.117372 0.896327 0.056311 -0.005003 -143018.000000 0 0 1
33.597679 -4.511617 28.935308 44.569169 -0.133485 0.864235 0.051531 -0.010172 -54998.000000 0 0 1
33.709679 -5.870317 29.297718 45.046192 -0.172414 0.862695 0.049842 -0.020932 443671.000000 0 0 1
32.725179 -6.122217 30.312978 45.025499 -0.184942 0.832214 0.043943 -0.024141 386432.000000 0 0 1
32.766979 -7.587617 30.775358 45.589138 -0.227552 0.829752 0.055624 -0.021240 268773.000000 0 0 1
33.908279 -7.889417 31.563118 46.991964 -0.228602 0.834335 0.064632 -0.028608 -29365.000000 0 0 1
34.215679 -9.267517 31.589798 47.481732 -0.264509 0.842895 0.059003 -0.008831 191233.000000 0 0 1
35.611479 -9.546917 32.204317 48.953438 -0.261926 0.852828 0.068760 -0.005125 327517.000000 0 0 1
35.571979 -9.658417 33.612564 49.884418 -0.265126 0.831445 0.080256 -0.021714 -452465.000000 0 0 1
36.864979 -9.504417 -33.750467 50.876858 -0.252322 2.296117 0.078551 -0.025357 -358558.000000 0 0 1
37.024179 -9.694617 -32.210207 50.022724 -0.256096 2.270396 0.095478 -0.026761 -297773.000000 0 0 1
36.510079 -8.705117 -31.346887 48.901864 -0.234060 2.266618 0.071653 -0.029170 160633.000000 0 0 1
37.048679 -7.404317 -31.519737 49.202870 -0.197255 2.266086 0.070899 -0.027407 -166919.000000 0 0 1
36.299379 -6.286617 -30.785657 48.009615 -0.171487 2.266909 0.076266 -0.030503 -441496.000000 0 0 1
36.470079 -6.338317 -29.357367 47.245063 -0.172076 2.241305 0.070697 -0.025450 339530.000000 0 0 1
35.890679 -5.195217 -28.739027 46.271620 -0.143753 2.240934 0.075056 -0.036477 -183139.000000 0 0 1
36.441179 -5.075917 -27.298257 45.813964 -0.138400 2.209120 0.080806 -0.030765 952561.000000 0 0 1
-36.849254 -4.661717 -27.244607 46.063736 0.125839 2.203658 0.083991 -0.024560 619137.000000 0 0 1
-36.454254 -4.346117 -25.922197 44.941759 0.118661 2.185597 0.088320 -0.027417 -619648.000000 0 0 1
-34.958354 -4.312417 -25.695447 43.599765 0.122739 2.201048 0.107205 -0.015349 -1453480.000000 0 0 1
-34.478254 -3.884717 -24.412087 42.423944 0.112198 2.183928 0.116794 -0.022684 497647.000000 0 0 1
-33.085154 -3.981517 -24.160887 41.161005 0.119766 2.198126 0.139463 -0.017938 377734.000000 0 0 1
-32.189854 -3.028317 -24.969087 40.851104 0.093801 2.228400 0.118464 -0.010449 -781366.000000 0 0 1
-32.041454 -3.398717 -26.349997 41.623652 0.105677 2.256288 0.118198 -0.009773 602146.000000 0 0 1
-30.970354 -2.649017 -26.972927 41.154816 0.085326 2.285510 0.104247 -0.008227 811784.000000 0 0 1
-30.512454 -3.303917 -28.291127 41.741030 0.107861 2.315532 0.105363 -0.012396 167022.000000 0 0 1
-31.591654 -3.390517 -29.208797 43.158800 0.106914 2.314169 0.126391 -0.021552 139208.000000 0 0 1
-31.242054 -4.307617 -30.227427 43.684309 0.137015 2.334985 0.106954 -0.013055 -211609.000000 0 0 1
-32.420154 -4.736817 -31.182737 45.231260 0.145081 2.331466 0.100740 -0.023182 -52111.000000 0 0 1
-33.359854 -5.674017 -30.634277 45.645737 0.168473 2.306530 0.106067 -0.024446 546364.000000 0 0 1
-34.279454 -5.116617 -29.711827 45.651434 0.148168 2.279488 0.105659 -0.026411 -345942.000000 0 0 1
-35.387254 -4.148617 -30.254457 46.741854 0.116702 2.274790 0.118861 -0.032972 -863711.000000 0 0 1
-35.087254 -2.850417 -30.739997 46.735294 0.081060 2.288620 0.133296 -0.030255 -243841.000000 0 0 1
-34.538354 -1.936517 -29.801297 45.659230 0.056010 2.281925 0.147747 -0.023319 -43436.900000 0 0 1
-34.232454 -0.575417 -30.530947 45.872985 0.016808 2.299032 0.124955 -0.028381 -169537.000000 0 0 1
-35.417254 0.099283 -30.847657 46.967752 -0.002803 2.287342 0.158030 -0.027882 -173319.000000 0 0 1
-35.211854 1.468483 -31.188307 47.061041 -0.041680 2.295242 0.153113 -0.013832 -113359.000000 0 0 1
-36.514054 2.084683 -31.710637 48.406472 -0.057031 2.285099 0.132333 -0.013476 -91962.700000 0 0 1
-36.692554 1.858183 -33.084617 49.440755 -0.050599 2.303897 0.128233 -0.014465 164372.000000 0 0 1
36.752179 2.490183 -33.450087 49.757733 0.067653 2.308052 0.103338 -0.016885 380932.000000 0 0 1
36.016379 2.000483 33.151422 48.991818 0.055487 0.827562 0.075505 -0.006100 -87569.000000 0 0 1
36.609479 2.355883 31.936084 48.638643 0.064263 0.854496 0.075879 -0.005865 58131.800000 0 0 1
-37.086754 1.444483 31.458838 48.653595 -0.038929 0.867693 0.079463 -0.004003 -76480.000000 0 0 1
-36.887754 1.519583 29.906978 47.512555 -0.041171 0.889946 0.078307 -0.006953 18765.900000 0 0 1
-36.317654 2.782183 29.566778 46.913824 -0.076458 0.888939 0.076658 -0.016157 230142.000000 0 0 1
-36.097054 2.927283 28.189298 45.893385 -0.080918 0.909381 0.065171 -0.010794 -111133.000000 0 0 1
-35.516854 4.257683 27.822438 45.317357 -0.119308 0.909746 0.068262 -0.007538 -232434.000000 0 0 1
-35.030754 4.257783 26.480498 44.119148 -0.120951 0.927040 0.073067 -0.005647 417106.000000 0 0 1
-34.403254 5.495783 26.145718 43.558995 -0.158408 0.926999 0.075327 -0.005657 75420.300000 0 0 1
-33.511454 5.512883 24.884818 42.103012 -0.163047 0.938441 0.080986 -0.009007 119521.000000 0 0 1
-32.413654 4.597083 24.876758 41.117286 -0.140886 0.921006 0.079712 -0.003668 965998.000000 0 0 1
-31.457354 4.901283 23.836668 39.771528 -0.154564 0.928120 0.081222 -0.004026 534722.000000 0 0 1
-31.943554 4.535983 22.424938 39.291776 -0.141057 0.963404 0.099236 -0.012081 -254305.000000 0 0 1
-31.963554 3.111983 22.287138 39.090533 -0.097054 0.964118 0.095418 -0.014498 65805.700000 0 0 1
-32.710354 2.681883 21.137438 39.037816 -0.081806 0.998623 0.115568 -0.012371 -51661.800000 0 0 1
-32.439254 1.220183 20.594838 38.444003 -0.037597 1.005448 0.112397 -0.022612 -645626.000000 0 0 1
-31.227754 0.870483 20.009638 37.098733 -0.027868 1.001117 0.120637 -0.022341 -492554.000000 0 0 1
-30.898254 1.523583 18.788938 36.194580 -0.049270 1.024988 0.126479 -0.018452 217550.000000 0 0 1
-29.512054 1.154783 18.177438 34.680169 -0.039109 1.019085 0.132277 -0.018386 79418.900000 0 0 1
-29.393854 -0.233217 17.902538 34.417349 0.007934 1.023758 0.135992 -0.014105 -28844.100000 0 0 1
-28.160354 -0.771417 17.472138 33.149302 0.027387 1.015642 0.134909 -0.014963 -266226.000000 0 0 1
-27.933054 -0.515717 15.988838 32.189508 0.018461 1.050993 0.152023 -0.012070 -271639.000000 0 0 1
-27.568954 0.822783 15.629938 31.702037 -0.029836 1.055232 0.141013 -0.011823 381377.000000 0 0 1
-28.064654 1.189383 14.359938 31.547540 -0.042355 1.098217 0.158358 -0.013827 -100439.000000 0 0 1
-27.535854 2.585783 13.904138 30.955364 -0.093631 1.104963 0.152953 -0.011136 -613065.000000 0 0 1
-26.162054 2.472783 13.703438 29.637003 -0.094238 1.090123 0.129508 -0.019687 -536955.000000 0 0 1
-25.641254 3.611283 13.066638 29.004350 -0.139918 1.103464 0.128809 -0.023613 -781675.000000 0 0 1
-24.127454 3.631983 13.054138 27.671933 -0.149411 1.079526 0.118336 -0.029801 -612076.000000 0 0 1
-23.432754 3.973583 14.265138 27.719623 -0.167976 1.030229 0.093382 -0.015185 403311.000000 0 0 1
-22.074754 4.271883 14.044138 26.510028 -0.191156 1.012471 0.097463 -0.017517 -200627.000000 0 0 1
-21.336754 4.879083 15.223338 26.661068 -0.224805 0.963079 0.083048 -0.017449 -355001.000000 0 0 1
-21.606454 6.254983 15.452438 27.289952 -0.281792 0.968869 0.068320 -0.010110 491219.000000 0 0 1
-20.780454 6.797383 16.452738 27.362826 -0.316134 0.925693 0.057965 -0.006127 -255517.000000 0 0 1
-21.000054 8.312783 16.668638 28.070414 -0.376920 0.935004 0.054546 -0.005847 -556635.000000 0 0 1
-20.290854 9.112083 15.771438 27.266959 -0.422083 0.954020 0.057108 -0.009181 332393.000000 0 0 1
-20.304854 10.544983 16.043338 27.944095 -0.478994 0.959264 0.058773 -0.010086 -389102.000000 0 0 1
-19.634754 11.070583 17.322538 28.428009 -0.513396 0.915559 0.058128 -0.005623 -602823.000000 0 0 1
-20.270554 10.707483 18.538238 29.482398 -0.485974 0.890800 0.060558 -0.002198 399173.000000 0 0 1
-19.628254 11.271783 19.669638 29.986932 -0.521280 0.855369 0.076674 0.001526 -363513.000000 0 0 1
-13.027021 -33.379942 -20.139987 41.104049 1.198710 2.082858 0.161265 -0.059341 166862.000000 0 0 1
-14.008621 -33.456642 -19.118187 41.001139 1.174266 2.055882 0.179311 -0.050260 -417204.000000 0 0 1
-15.129521 -32.666742 -19.391687 40.890780 1.137063 2.064887 0.151991 -0.067701 -233405.000000 0 0 1
-16.356621 -33.200642 -18.608387 41.425761 1.113038 2.036664 0.122880 -0.049297 -937182.000000 0 0 1
-16.851921 33.475283 -19.291387 42.151386 -1.104421 2.046168 0.113506 -0.051809 65485.200000 0 0 1
-17.569821 32.589583 -18.421687 41.353815 -1.076342 2.032490 0.108664 -0.041961 1576340.000000 0 0 1
-19.054021 33.063683 -18.045287 42.212500 -1.047999 2.012507 0.091828 -0.035993 606742.000000 0 0 1
-19.109521 -33.539942 -17.287787 42.296206 1.052913 1.991860 0.110601 -0.034338 259328.000000 0 0 1
-20.380721 -33.270542 -16.686787 42.435263 1.021181 1.974937 0.072659 -0.034200 511954.000000 0 0 1
-20.650321 33.899483 -15.335687 42.553425 -1.023666 1.939479 0.068402 -0.020956 -313976.000000 0 0 1
-20.764221 32.510083 -15.241787 41.477348 -1.002405 1.947086 0.076309 -0.026896 136950.000000 0 0 1
-20.924521 32.092483 -13.876187 40.746921 -0.993012 1.918294 0.084411 -0.018902 -109972.000000 0 0 1
-21.238521 30.575383 -13.781887 39.697219 -0.963685 1.925354 0.084494 -0.020291 10122.800000 0 0 1
-20.074321 29.793483 -13.595787 38.411917 -0.977884 1.932584 0.098576 -0.031507 249348.000000 0 0 1
-20.351121 28.413083 -13.730487 37.549935 -0.949242 1.945137 0.112245 -0.035474 7080.180000 0 0 1
-19.263121 27.527683 -13.093987 36.059584 -0.960223 1.942412 0.089809 -0.036154 206604.000000 0 0 1
-18.071421 27.360783 -13.838587 35.590661 -0.987085 1.970154 0.139101 -0.037760 528445.000000 0 0 1
-17.072721 26.622483 -13.113287 34.237299 -1.000569 1.963851 0.148470 -0.052596 202751.000000 0 0 1
-15.647221 26.966083 -13.529887 33.986217 -1.045021 1.980240 0.120721 -0.051511 -390638.000000 0 0 1
-15.391321 26.656583 -14.930787 34.211029 -1.047166 2.022426 0.095298 -0.037182 67629.100000 0 0 1
-14.045021 26.976683 -15.272087 34.032935 -1.090777 2.036156 0.132353 -0.035657 314547.000000 0 0 1
-13.813921 27.602983 -16.639087 35.065770 -1.106789 2.065205 0.140371 -0.049809 -257073.000000 0 0 1
-13.806421 26.679283 -17.703187 34.868384 -1.093250 2.103326 0.106467 -0.052167 200875.000000 0 0 1
-14.099721 27.358183 -18.931887 36.134313 -1.094925 2.122256 0.075871 -0.049390 -4956.970000 0 0 1
-13.883021 26.447283 -20.150587 36.031142 -1.087403 2.164283 0.041231 -0.020998 -564812.000000 0 0 1
-12.523021 26.350383 -20.442087 35.623695 -1.127144 2.181976 0.038860 -0.016888 -633846.000000 0 0 1
-12.355921 25.339983 -21.460887 35.430963 -1.117113 2.221454 0.028851 -0.021226 -84025.200000 0 0 1
-11.005821 25.418383 -22.170687 35.479031 -1.162180 2.245794 0.065837 -0.024556 -214058.000000 0 0 1
-11.057721 26.391283 -23.204287 36.840357 -1.174026 2.252170 0.057565 -0.020633 -648270.000000 0 0 1
-9.851121 26.545883 -23.869387 37.033445 -1.215451 2.271213 0.071846 -0.031875 -656377.000000 0 0 1
-9.998921 27.262283 -25.238317 38.473148 -1.219263 2.286301 0.086458 -0.032152 43929.300000 0 0 1
-10.625121 26.423283 -26.203007 38.699879 -1.188471 2.314587 0.064662 -0.022832 -225553.000000 0 0 1
-10.846921 27.043283 -27.399687 39.996720 -1.189346 2.325466 0.091711 -0.019979 961526.000000 0 0 1
-12.046921 26.297183 -28.158157 40.367709 -1.141221 2.342757 0.057510 -0.017486 1036170.000000 0 0 1
-12.427721 27.029483 -29.291037 41.749323 -1.139836 2.348427 0.080698 -0.010340 -1140720.000000 0 0 1
-13.699421 26.721283 -29.701867 42.236263 -1.097058 2.350729 0.065947 -0.006069 -1155910.000000 0 0 1
-13.933621 26.973683 -31.215027 43.544267 -1.093986 2.370081 0.070371 -0.014630 -139610.000000 0 0 1
-12.961821 26.483183 -32.130107 43.608617 -1.115636 2.399097 0.084445 -0.018385 110496.000000 0 0 1
-12.790021 25.106683 -32.109007 42.719064 -1.099636 2.421329 0.080860 -0.020764 27680.900000 0 0 1
-11.955621 24.646483 -33.331007 43.143273 -1.119152 2.453668 0.065614 -0.018499 15147.500000 0 0 1
-12.629921 24.773283 33.321569 43.399970 -1.099323 0.695429 0.072266 -0.020752 -295106.000000 0 0 1
-11.929921 24.155583 32.286391 42.050282 -1.112058 0.695389 0.074357 -0.025388 -774129.000000 0 0 1
-12.629721 24.065383 30.919788 41.166561 -1.087499 0.721085 0.081803 -0.018992 -269420.000000 0 0 1
-13.869121 23.381883 30.942658 41.188748 -1.035424 0.720857 0.092511 -0.027063 -193698.000000 0 0 1
-14.469821 23.365983 29.717298 40.477928 -1.016329 0.746367 0.106064 -0.028628 451478.000000 0 0 1
-15.750521 22.457683 29.681538 40.415592 -0.959170 0.746002 0.078080 -0.026251 904885.000000 0 0 1
-15.342721 21.074783 29.845068 39.626678 -0.941516 0.717950 0.049707 -0.029439 125480.000000 0 0 1
-16.466021 20.278683 30.139098 39.883831 -0.888789 0.714117 0.045769 -0.033044 140420.000000 0 0 1
-16.090421 18.768383 30.257868 39.072911 -0.862071 0.685038 0.037492 -0.040346 -4128.610000 0 0 1
-15.617721 18.216583 29.038128 37.669217 -0.862059 0.690588 0.056721 -0.037990 135000.000000 0 0 1
-15.079721 16.918683 29.228708 36.985905 -0.842805 0.659553 0.046746 -0.045554 6455.070000 0 0 1
-14.679921 16.259383 27.877568 35.454568 -0.836404 0.666015 0.054803 -0.034410 -320566.000000 0 0 1
-13.809921 17.019183 27.125598 34.873551 -0.889123 0.679595 0.029595 -0.030497 -447198.000000 0 0 1
-13.264621 16.362183 26.004028 33.464618 -0.889572 0.680814 0.025155 -0.017859 402698.000000 0 0 1
-12.173621 17.206083 25.259708 32.898315 -0.955042 0.695378 0.033903 -0.015333 338183.000000 0 0 1
-12.639821 18.338583 24.504878 33.114313 -0.967323 0.737713 0.018291 -0.003787 -106446.000000 0 0 1
-12.953621 19.562383 25.237358 34.458777 -0.985913 0.748967 0.022499 -0.010108 -415018.000000 0 0 1
-11.817321 20.230383 26.005438 35.002860 -1.042122 0.733327 0.027713 -0.016067 -163644.000000 0 0 1
-11.507821 19.659683 27.292818 35.550400 -1.041218 0.695518 0.049628 -0.023261 251726.000000 0 0 1
-12.575321 19.929683 28.208778 36.756851 -1.007905 0.695954 0.055905 -0.024261 449071.000000 0 0 1
-12.188221 19.774383 29.738578 37.735420 -1.018431 0.663111 0.055697 -0.034197 654421.000000 0 0 1
-11.118721 20.604683 30.240768 38.245038 -1.075956 0.658827 0.059630 -0.035817 412727.000000 0 0 1
-10.977721 20.460583 31.645068 39.249918 -1.078353 0.633019 0.052325 -0.028930 -839983.000000 0 0 1
-9.784321 21.233383 32.156699 39.757298 -1.138998 0.628645 0.040337 -0.029435 -95555.600000 0 0 1
-8.543321 20.546283 32.074120 39.036998 -1.176737 0.606525 0.056053 -0.032979 -345685.000000 0 0 1
-7.470321 21.262283 32.580323 39.615247 -1.232927 0.605146 0.058177 -0.024744 -466674.000000 0 0 1
-6.333121 20.333283 33.018659 39.290999 -1.268854 0.572846 0.067492 -0.020149 -347609.000000 0 0 1
-6.638621 19.573383 -33.645587 39.486885 -1.243806 2.590724 0.075229 -0.027645 532222.000000 0 0 1
-5.472521 19.039683 -33.018687 38.505736 -1.290914 2.601188 0.063588 -0.028420 785856.000000 0 0 1
-4.606821 17.903883 -33.700737 38.438411 -1.318951 2.639851 0.041251 -0.022266 365073.000000 0 0 1
-5.319221 16.685783 33.852048 38.113916 -1.262194 0.477426 0.043033 -0.021756 -395884.000000 0 0 1
-4.710321 15.929483 32.895188 36.851444 -1.283291 0.467621 0.040186 -0.018611 -557349.000000 0 0 1
-5.366521 14.577383 32.516448 36.036356 -1.218053 0.445667 0.058132 -0.022729 -371954.000000 0 0 1
-4.987421 13.465483 33.313527 36.276503 -1.216077 0.406975 0.065605 -0.018864 295626.000000 0 0 1
-5.700421 12.248883 32.982045 35.641902 -1.135224 0.388779 0.064012 -0.014920 263187.000000 0 0 1
-4.863521 11.026283 33.374330 35.483498 -1.155381 0.346523 0.085885 -0.023982 92152.600000 0 0 1
-4.912221 10.703483 -33.119457 35.151001 -1.140536 2.799949 0.090646 -0.026667 -624581.000000 0 0 1
-3.920821 9.838983 -32.667287 34.341375 -1.191585 2.828065 0.101015 -0.027925 -230161.000000 0 0 1
-3.976821 9.473483 -31.125927 32.777817 -1.173352 2.822765 0.095977 -0.026169 931118.000000 0 0 1
-5.076421 8.583483 -30.793967 32.368420 -1.036711 2.828412 0.107310 -0.021609 810709.000000 0 0 1
-5.594721 8.868283 -29.504667 31.312501 -1.007988 2.800127 0.123582 -0.025434 -135509.000000 0 0 1
-6.616621 7.847083 -28.999347 30.762290 -0.870266 2.801403 0.120008 -0.026557 -364976.000000 0 0 1
-6.028921 6.681483 -28.444737 29.834429 -0.836694 2.835174 0.127962 -0.023899 201253.000000 0 0 1
-7.010321 5.794783 -27.926127 29.369928 -0.690756 2.826736 0.128113 -0.040525 -452446.000000 0 0 1
-6.627221 5.069583 -26.668407 27.943240 -0.653009 2.838365 0.113493 -0.040901 -395240.000000 0 0 1
-6.747221 5.917783 -25.553617 27.083804 -0.720001 2.803840 0.094933 -0.030672 302803.000000 0 0 1
-5.544321 6.611683 -25.302137 26.732975 -0.872979 2.812936 0.087441 -0.033942 -408186.000000 0 0 1
-5.746621 7.778383 -24.286487 26.141161 -0.934506 2.762637 0.057642 -0.016692 -50626.800000 0 0 1
-6.078621 7.472683 -22.966987 24.905282 -0.887910 2.744459 0.043752 -0.006659 381032.000000 0 1 0
-7.443121 7.683483 -22.602387 25.006076 -0.801287 2.699541 0.054202 -0.008671 503417.000000 0 0 1
-7.616121 7.765483 -21.091187 23.730701 -0.795108 2.665456 0.045984 -0.007465 -24689.700000 0 1 0
-7.161221 9.008083 -20.609487 23.604652 -0.899126 2.632344 0.030352 -0.003520 -187838.000000 0 1 0
-7.042921 9.200783 -19.198387 22.423987 -0.917468 2.598576 0.028915 -0.002975 -447923.000000 0 1 0
-8.294221 9.372783 -18.334187 22.198774 -0.846372 2.542610 0.031747 -0.003357 -834757.000000 0 1 0
-8.080721 9.505583 -16.992887 21.081090 -0.866243 2.508282 0.020628 -0.001369 619783.000000 0 1 0
-9.244221 9.760783 -16.168387 21.027249 -0.812572 2.447955 0.020565 -0.005071 714118.000000 0 1 0
-9.803421 11.188783 -16.170587 21.972341 -0.851297 2.397868 0.033943 -0.018417 -234787.000000 0 1 0
-8.817421 12.140183 -15.748987 21.752276 -0.942636 2.380402 0.015461 -0.015261 520262.000000 0 1 0
-9.157221 13.437783 -16.253487 22.991401 -0.972627 2.355955 0.039644 -0.022156 139311.000000 0 1 0
-8.120721 14.524783 -15.876687 22.999665 -1.060998 2.332701 0.057633 -0.023839 23233.900000 0 1 0
-7.815421 14.650483 -14.533487 22.066710 -1.080742 2.289774 0.056115 -0.019411 420683.000000 0 1 0
-8.790321 15.385283 -13.779587 22.446685 -1.051712 2.231764 0.054865 -0.022643 -289162.000000 0 1 0
-8.166621 16.197183 -12.580787 22.075294 -1.103794 2.177185 0.069469 -0.022689 619244.000000 0 1 0
-7.504421 17.449183 -12.882287 22.950896 -1.164637 2.166749 0.067838 -0.020317 464213.000000 0 1 0
-6.452521 17.447283 -13.833987 23.182361 -1.216566 2.210236 0.090575 -0.019917 -168970.000000 0 1 0
-6.041121 18.834483 -14.299087 24.406900 -1.260415 2.196740 0.107854 -0.014202 308251.000000 0 1 0
-5.450621 19.663083 -13.297387 24.355011 -1.300385 2.148357 0.106095 -0.022402 -85747.100000 0 1 0
-5.110421 20.915483 -13.821387 25.585241 -1.331155 2.141482 0.101428 -0.022046 -5686.370000 0 0 1
-4.651021 22.024283 -12.835687 25.912465 -1.362677 2.089032 0.102962 -0.023259 -519494.000000 0 0 1
-4.928821 23.396183 -13.181487 27.302495 -1.363165 2.074639 0.101832 -0.028987 -264144.000000 0 0 1
-6.283721 23.763083 -13.171287 27.886413 -1.312281 2.062716 0.098038 -0.029184 110427.000000 0 0 1
-7.053821 23.793783 -11.784387 27.473119 -1.282594 2.014118 0.077969 -0.029339 -112867.000000 0 0 1
-7.359221 22.479383 -11.348587 26.234923 -1.254417 2.018144 0.078019 -0.025599 -199346.000000 0 0 1
-8.080021 22.463583 -10.127887 25.932091 -1.225511 1.972030 0.088715 -0.028203 20527.100000 0 0 1
-7.360321 22.793583 -8.786687 25.513283 -1.258454 1.922392 0.080115 -0.026137 20051.700000 0 0 1
-7.461421 24.168683 -8.695887 26.747270 -1.271356 1.901928 0.083728 -0.023092 -123257.000000 0 0 1
-6.893321 24.601783 -7.470187 26.618964 -1.297606 1.855251 0.078033 -0.020109 171598.000000 0 0 1
-6.919321 26.164083 -7.358587 28.046123 -1.312256 1.836278 0.084033 -0.025046 250470.000000 0 0 1
-6.093121 26.987683 -8.181587 28.851334 -1.348745 1.858319 0.072233 -0.029446 -56955.900000 0 0 1
-6.302321 26.852583 -9.582087 29.199261 -1.340268 1.905153 0.078033 -0.031687 -229562.000000 0 0 1
-5.711521 28.093083 -10.346787 30.477840 -1.370223 1.917166 0.071604 -0.029323 292225.000000 0 0 1
-6.487121 29.266183 -10.250887 31.680796 -1.352664 1.900294 0.079568 -0.025210 12222.900000 0 0 1
-7.486821 29.361883 -11.268887 32.328941 -1.321132 1.926841 0.100488 -0.036021 -166088.000000 0 0 1
-8.570421 30.358983 -10.896687 33.374507 -1.295654 1.903392 0.106887 -0.027914 30764.600000 0 0 1
-9.723521 29.791783 -10.291587 32.985056 -1.255314 1.888102 0.114129 -0.016050 529099.000000 0 0 1
-10.841021 30.629583 -10.088487 34.021708 -1.230616 1.871854 0.093409 -0.028436 1093480.000000 0 0 1
-12.032521 30.115483 -9.213587 33.713707 -1.190681 1.847607 0.106805 -0.026350 1104470.000000 0 0 1
-12.866121 29.085683 -9.764287 33.269435 -1.154320 1.868673 0.121219 -0.032832 30083.600000 0 0 1
-14.049721 28.910883 -9.040387 33.391052 -1.118438 1.844961 0.131187 -0.028567 112020.000000 0 0 1
-14.971521 27.748983 -9.457087 32.917912 -1.076024 1.862196 0.138829 -0.029040 94012.300000 0 0 1
-14.596121 26.474583 -9.015287 31.547197 -1.066936 1.860608 0.147711 -0.039065 -329581.000000 0 0 1
-15.646321 25.547283 -9.131087 31.318489 -1.021276 1.866649 0.159355 -0.039861 -446871.000000 0 0 1
-15.497021 24.062483 -8.667687 29.904674 -0.998628 1.864860 0.148134 -0.039274 -131149.000000 0 0 1
-14.452821 23.324583 -9.288987 28.969043 -1.016061 1.897214 0.149219 -0.043364 220302.000000 0 0 1
-14.358421 22.011783 -8.871387 27.737778 -0.992802 1.896347 0.124284 -0.040851 661551.000000 0 0 1
-13.277821 21.111083 -9.648487 26.740823 -1.009361 1.939938 0.131877 -0.045569 747619.000000 0 0 1
-13.687621 20.723883 -10.953087 27.144067 -0.987092 1.986154 0.128339 -0.033846 315664.000000 0 0 1
-13.026921 19.525583 -11.376887 26.084144 -0.982444 2.022124 0.120925 -0.028691 22243.600000 0 0 1
-13.543621 18.999583 -12.725887 26.577471 -0.951506 2.070109 0.116807 -0.027048 503044.000000 0 0 1
-14.931521 18.699183 -12.628287 27.057039 -0.896963 2.056384 0.112974 -0.027503 125200.000000 0 0 1
-15.476721 18.323083 -13.866187 27.704429 -0.869412 2.094978 0.110914 -0.021490 -1547880.000000 0 0 1
-16.942721 18.486483 -13.971287 28.705447 -0.828944 2.079118 0.089004 -0.006963 -1604330.000000 0 0 1
-17.396021 19.808783 -14.195587 29.942012 -0.850158 2.064741 0.066985 -0.009539 6736.820000 0 0 1
-18.598721 19.735583 -14.939287 30.961071 -0.815046 2.074324 0.063380 -0.007044 -178959.000000 0 0 1
-19.056321 21.077783 -15.466687 32.351734 -0.835723 2.069263 0.066635 -0.009075 -333150.000000 0 0 1
-19.607921 21.932183 -14.542887 32.817476 -0.841292 2.029900 0.068942 -0.030550 99283.500000 0 0 1
-20.121721 23.076583 -15.226387 34.194373 -0.853694 2.032294 0.066780 -0.017268 86812.400000 0 0 1
-20.888521 24.019683 -14.258087 34.879342 -0.855009 1.991917 0.058404 -0.009883 -25200.900000 0 0 1
-22.139421 23.543583 -13.814487 35.146753 -0.816126 1.974744 0.098701 -0.017348 -14833.900000 0 0 1
-22.615621 24.549483 -12.920287 35.792139 -0.826377 1.940116 0.097237 -0.027725 -132890.000000 0 0 1
-26.144711 -0.810817 3.467813 26.386152 0.031003 1.438990 0.201652 -0.053320 242077.000000 0 0 1
-26.889361 -0.323417 4.581713 27.278827 0.012027 1.402038 0.226521 -0.047501 951283.000000 0 0 1
-28.312181 -0.475917 4.558613 28.680778 0.016808 1.411176 0.200564 -0.051977 644746.000000 0 0 1
-28.899061 0.087083 5.875413 29.490401 -0.003013 1.370223 0.202805 -0.045220 -746686.000000 0 0 1
-29.009161 1.493183 5.810813 29.623074 -0.051427 1.373358 0.231343 -0.054450 390385.000000 0 0 1
-29.621971 2.095383 6.960413 30.500805 -0.070620 1.340563 0.237633 -0.041033 300338.000000 0 0 1
-28.533771 2.771083 7.870713 29.728826 -0.096812 1.302851 0.248841 -0.044772 349535.000000 0 0 1
-27.837751 1.767083 8.610213 29.192443 -0.063393 1.271397 0.218720 -0.052294 247933.000000 0 0 1
-26.967761 2.378383 9.538213 28.703559 -0.087966 1.232054 0.206809 -0.056054 -365461.000000 0 0 1
-25.949541 1.326483 10.030313 27.852206 -0.051073 1.202393 0.182241 -0.043861 -317634.000000 0 0 1
-24.842121 1.003483 9.215313 26.515277 -0.040372 1.215842 0.193649 -0.043050 384203.000000 0 0 1
-25.004321 -0.198917 8.461713 26.398034 0.007955 1.244493 0.155340 -0.035380 290985.000000 0 0 1
-23.749421 -0.835717 7.736513 24.991739 0.035174 1.256063 0.141952 -0.043635 1098070.000000 0 1 0
-22.823021 -1.419017 8.670313 24.455638 0.062095 1.208383 0.144053 -0.056631 644181.000000 0 1 0
-21.779521 -2.240417 8.188113 23.375461 0.102508 1.212919 0.158102 -0.042534 -24455.600000 0 1 0
-20.694421 -2.482617 9.229413 22.794835 0.119395 1.153937 0.118231 -0.028500 -387066.000000 0 1 0
-19.952821 -1.365217 9.658113 22.209413 0.068316 1.120907 0.102607 -0.026896 858037.000000 0 1 0
-20.581821 -0.693217 10.789513 23.248774 0.033668 1.088190 0.128834 -0.029217 -314900.000000 0 1 0
-20.175121 0.741883 11.118513 23.047933 -0.036756 1.067394 0.094884 -0.026962 -420800.000000 0 1 0
-20.407421 1.774783 10.198213 22.882662 -0.086749 1.108869 0.103368 -0.016656 1596400.000000 0 1 0
-21.821621 2.091983 10.120113 24.144900 -0.095575 1.138298 0.130642 -0.031292 878323.000000 0 1 0
-22.160321 3.484583 9.570813 24.388985 -0.155967 1.167531 0.120915 -0.038780 -328479.000000 0 1 0
-22.171121 4.486583 10.571313 24.968794 -0.199665 1.133622 0.102648 -0.039291 530910.000000 0 1 0
-22.465021 5.703383 9.945113 25.221241 -0.248626 1.165474 0.081504 -0.035670 -359815.000000 0 0 1
-22.685021 6.871583 11.008013 26.134367 -0.294127 1.136019 0.088101 -0.038048 338754.000000 0 0 1
-23.846521 6.765683 11.842513 27.471369 -0.276453 1.125101 0.094525 -0.030206 766180.000000 0 0 1
-23.814321 7.645683 13.001513 28.188964 -0.310659 1.091419 0.099798 -0.026632 -127595.000000 0 0 1
-24.796021 7.135283 14.074613 29.391319 -0.280189 1.071430 0.118425 -0.021230 19331.400000 0 0 1
-26.141031 7.172483 13.658513 30.353797 -0.267786 1.104057 0.130234 -0.026978 -308752.000000 0 0 1
-27.001851 6.685283 14.630613 31.430046 -0.242705 1.086599 0.125329 -0.024061 208099.000000 0 0 1
-28.499641 6.476783 14.271513 32.524672 -0.223463 1.116544 0.138065 -0.018983 348664.000000 0 0 1
-28.743631 5.400383 13.423513 32.179980 -0.185716 1.140502 0.153222 -0.017607 -83223.800000 0 0 1
-29.885291 5.661383 12.640713 32.938875 -0.187219 1.176929 0.180742 -0.029030 -191862.000000 0 0 1
-30.293351 4.480283 11.743113 32.797267 -0.146832 1.204616 0.199648 -0.031811 -127909.000000 0 0 1
-31.209611 3.565483 12.310413 33.738683 -0.113750 1.197297 0.173038 -0.029988 200986.000000 0 0 1
-31.574321 2.678283 11.293013 33.639903 -0.084622 1.228445 0.169120 -0.021445 146163.000000 0 0 1
-32.673771 1.678083 11.791513 34.776875 -0.051314 1.224877 0.141523 -0.012051 76801.200000 0 0 1
-32.219081 0.601383 12.556513 34.584633 -0.018663 1.199240 0.139185 -0.010120 -338959.000000 0 0 1
-33.212791 0.146483 13.442113 35.830173 -0.004410 1.186225 0.126749 -0.011987 -343376.000000 0 0 1
-32.961781 -1.036517 14.418713 35.992397 0.031436 1.158620 0.124558 -0.020828 -146336.000000 0 0 1
-33.157161 -2.378517 13.903713 36.032872 0.071612 1.174654 0.123534 -0.019287 229606.000000 0 0 1
-33.429471 -3.354817 14.886813 36.747810 0.100020 1.153700 0.135717 -0.013875 -154351.000000 0 0 1
-33.292211 -4.848717 14.433813 36.608965 0.144624 1.165523 0.126043 -0.016196 -55258.100000 0 0 1
-34.386859 -5.183317 13.611213 37.344182 0.149609 1.197722 0.095547 -0.027364 -346635.000000 0 0 1
-34.260282 -6.412117 12.916713 37.171543 0.185018 1.215904 0.107600 -0.030110 -949892.000000 0 0 1
-35.511204 -6.661417 12.073713 38.094548 0.185431 1.248294 0.110383 -0.024554 703175.000000 0 0 1
-36.765911 -6.763917 12.771513 39.504358 0.181938 1.241588 0.103507 -0.029495 692808.000000 0 0 1
-37.277351 -5.549717 13.327513 39.975278 0.147791 1.230895 0.098983 -0.034596 -609704.000000 0 0 1
35.942173 -5.311417 12.769513 38.511186 -0.146715 1.232819 0.119780 -0.035653 647728.000000 0 0 1
35.059523 -6.378517 13.120913 37.973860 -0.179966 1.217998 0.116511 -0.033289 361215.000000 0 0 1
33.754533 -6.018717 12.646313 36.544804 -0.176454 1.217439 0.119470 -0.034724 374902.000000 0 0 1
32.621263 -6.962717 13.032013 35.811445 -0.210286 1.198338 0.098851 -0.027923 -265635.000000 0 0 1
32.299173 -6.897817 14.413613 36.035659 -0.210400 1.159299 0.100814 -0.023389 -42966.400000 0 0 1
31.214583 -7.773917 14.626213 35.337093 -0.244082 1.144056 0.097172 -0.022352 -54822.500000 0 0 1
30.680423 -7.730717 16.075913 35.489257 -0.246837 1.100692 0.084386 -0.010187 -74114.000000 0 0 1
31.391793 -8.563117 17.000213 36.712109 -0.266303 1.089342 0.082076 -0.007837 -202539.000000 0 0 1
30.882233 -8.550717 18.292613 36.897789 -0.270115 1.052081 0.074058 -0.009825 -329361.000000 0 0 1
31.854953 -9.082917 19.381613 38.378176 -0.277763 1.041395 0.074132 -0.012850 286191.000000 0 0 1
32.931513 -8.228317 19.680913 39.236821 -0.244848 1.045357 0.072729 -0.009788 502770.000000 0 0 1
34.190893 -8.662517 19.132013 40.125931 -0.248136 1.073787 0.054874 -0.011203 1149060.000000 0 0 1
35.415863 -8.026617 19.883613 41.401305 -0.222874 1.069839 0.052203 -0.011022 444643.000000 0 0 1
35.604403 -8.389317 21.235713 42.296687 -0.231405 1.044811 0.056866 -0.020234 376305.000000 0 0 1
36.902283 -7.934417 21.639113 43.508444 -0.211787 1.050250 0.050549 -0.018277 504806.000000 0 0 1
-37.239671 -8.497817 22.951313 44.561965 0.224351 1.029739 0.059068 -0.017945 -450216.000000 0 0 1
36.780373 -8.018117 24.063313 44.678061 -0.214642 1.002029 0.066953 -0.019383 -112261.000000 0 0 1
36.633883 -8.942217 25.117913 45.309096 -0.239415 0.983193 0.069292 -0.027356 -96252.700000 0 0 1
36.242283 -8.260817 26.411113 45.599245 -0.224104 0.953049 0.076448 -0.019235 851607.000000 0 0 1
-37.259241 -7.807417 27.124613 46.743464 0.206555 0.951716 0.066591 -0.024331 809556.000000 0 0 1
36.975933 -6.878517 28.121313 46.961068 -0.183924 0.928767 0.066062 -0.025776 1114530.000000 0 0 1
-36.431471 -6.378117 28.929513 46.955821 0.173315 0.907014 0.083062 -0.022987 1071460.000000 0 0 1
-35.943706 -7.219517 29.962013 47.347583 0.198219 0.885620 0.085480 -0.023966 259945.000000 0 0 1
-34.581406 -6.937817 30.277413 46.483639 0.197994 0.861426 0.087706 -0.033522 575789.000000 0 0 1
-34.195785 -7.587217 31.576013 47.158903 0.218339 0.837172 0.080212 -0.026235 -139599.000000 0 0 1
-34.280155 -8.971217 31.547213 47.443002 0.255963 0.843370 0.086318 -0.023594 146003.000000 0 0 1
-33.702401 -9.634217 32.666313 47.914069 0.278436 0.820619 0.076559 -0.021029 -105066.000000 0 0 1
-33.985881 -11.151317 32.725613 48.480488 0.317048 0.829796 0.087346 -0.019848 234096.000000 0 0 1
-35.362884 -11.431917 32.909313 49.641164 0.312670 0.846052 0.074337 -0.018360 91561.800000 0 0 1
-35.665709 -12.823917 32.966013 50.231998 0.345165 0.854925 0.065564 -0.018916 530477.000000 0 0 1
-37.196391 -13.053417 33.131213 51.494082 0.337505 0.871867 0.070269 -0.017682 352032.000000 0 0 1
37.121923 -14.391717 33.127613 51.793798 -0.369848 0.876811 0.067564 -0.023182 -471125.000000 0 0 1
35.789573 -14.530117 33.537813 51.154695 -0.385657 0.855799 0.058956 -0.021030 -489012.000000 0 0 1
35.367843 -15.971917 33.859213 51.501775 -0.424179 0.853383 0.043752 -0.006406 -272845.000000 0 0 1
35.910113 -16.399117 -32.804611 51.328450 -0.428388 2.264139 0.052948 -0.024239 245501.000000 0 0 1
35.774023 -17.794117 -32.829311 51.712426 -0.461568 2.258603 0.044364 -0.026427 -350882.000000 0 0 1
36.527963 -18.309517 -31.613511 51.661829 -0.464644 2.229297 0.046300 -0.022440 189333.000000 0 0 1
35.757203 -18.239917 -30.393511 50.349158 -0.471699 2.218874 0.052571 -0.019603 252970.000000 0 0 1
36.114813 -19.347817 -29.561811 50.522455 -0.491822 2.195827 0.051903 -0.018137 -530405.000000 0 0 1
35.099983 -19.811517 -28.452911 49.336327 -0.513855 2.185496 0.063650 -0.019004 -138194.000000 0 0 1
33.966183 -20.452217 -28.917911 49.073826 -0.541988 2.200956 0.064194 -0.013068 -415235.000000 0 0 1
32.935323 -19.583617 -29.362511 48.274327 -0.536446 2.224641 0.053618 -0.008790 -580613.000000 0 0 1
31.613523 -20.331817 -29.650711 47.874443 -0.571535 2.238702 0.052213 0.001448 7772.200000 0 0 1
30.764403 -19.550717 -30.470611 47.509338 -0.566113 2.267066 0.050660 -0.000661 441065.000000 0 0 1
29.437713 -20.069017 -30.538711 46.925018 -0.598369 2.279431 0.049425 0.000410 838803.000000 0 0 1
28.505913 -19.238617 -31.493911 46.632370 -0.593680 2.312257 0.039257 0.010385 418811.000000 0 0 1
28.795813 -19.468217 -32.823611 47.807947 -0.594490 2.327560 0.027041 0.010353 -318086.000000 0 0 1
27.643113 -19.286417 -33.576711 47.576288 -0.609176 2.354270 0.059560 0.011247 -251146.000000 0 0 1
27.976613 -19.487117 32.820513 47.324674 -0.608407 0.804436 0.057937 0.002838 236350.000000 0 0 1
28.641913 -18.266917 32.405913 46.948724 -0.567729 0.808975 0.036336 0.004888 587060.000000 0 0 1
29.042613 -18.240517 31.008513 46.235460 -0.560797 0.835691 0.037163 0.003739 470612.000000 0 0 1
27.949113 -17.562517 30.099413 44.671799 -0.561022 0.831470 0.034192 0.006511 305021.000000 0 0 1
27.825513 -16.195917 30.402613 44.281890 -0.527118 0.814036 0.035619 -0.000255 241441.000000 0 0 1
26.964713 -15.426017 29.592413 42.904180 -0.519638 0.809677 0.029094 0.005195 83582.800000 0 0 1
26.623213 -14.036417 30.236413 42.662128 -0.485189 0.783084 0.035657 0.001360 623358.000000 0 0 1
27.806013 -13.225517 30.279813 43.185134 -0.443966 0.793769 0.047677 0.011460 703231.000000 0 0 1
27.690713 -12.137117 31.164413 43.420109 -0.413090 0.770243 0.067268 -0.011265 -625357.000000 0 0 1
29.009213 -11.393017 31.126013 44.047293 -0.374230 0.786044 0.077216 -0.015821 -442245.000000 0 0 1
29.361413 -10.814117 29.847013 43.242131 -0.352893 0.808990 0.069009 -0.021967 -48727.800000 0 0 1
30.746213 -10.942517 29.613413 44.068385 -0.341920 0.833907 0.075418 -0.013868 -18146.800000 0 0 1
31.248873 -10.592517 28.227413 43.422118 -0.326817 0.863120 0.080924 -0.013032 -173479.000000 0 0 1
31.185173 -9.199417 28.074113 42.956957 -0.286857 0.858544 0.067745 -0.010815 -92532.200000 0 0 1
31.702903 -8.767017 26.845913 42.457481 -0.269794 0.886276 0.064472 -0.014038 41175.200000 0 0 1
31.761903 -7.292617 26.648313 42.096714 -0.225691 0.885340 0.058251 -0.006448 50316.700000 0 0 1
30.514653 -6.666417 26.444013 40.925188 -0.215087 0.868261 0.068599 -0.007582 -439555.000000 0 0 1
30.573073 -5.243717 26.534613 40.820278 -0.169861 0.863166 0.069703 -0.010665 310409.000000 0 0 1
29.192113 -4.538317 26.413813 39.629097 -0.154229 0.841258 0.065375 -0.011981 458951.000000 0 0 1
28.576013 -4.834617 25.154413 38.375859 -0.167597 0.855985 0.073262 -0.007312 190625.000000 0 0 1
27.236013 -4.375617 25.151413 37.330149 -0.159294 0.831516 0.080337 -0.013253 92020.400000 0 0 1
26.315713 -4.675217 23.968013 35.900419 -0.175824 0.839782 0.084869 -0.003979 -234429.000000 0 0 1
26.509213 -3.767017 22.842013 35.194977 -0.141157 0.864509 0.094056 0.006416 462177.000000 0 0 1
25.763413 -4.179717 21.676213 33.927595 -0.160833 0.877734 0.084717 -0.002021 305954.000000 0 0 1
26.185613 -3.352617 20.454513 33.396310 -0.127340 0.911604 0.090694 0.001452 312865.000000 0 0 1
25.753513 -1.979917 20.598213 33.037099 -0.076729 0.897601 0.071399 0.006265 136034.000000 0 0 1
26.278813 -1.299117 19.487313 32.741703 -0.049396 0.933303 0.080373 0.008456 -86739.600000 0 0 1
25.255213 -0.409417 18.714713 31.436188 -0.016210 0.933128 0.078346 -0.001651 296244.000000 0 0 1
24.246213 -1.139817 18.051813 30.249727 -0.046976 0.931340 0.075697 -0.005553 -391537.000000 0 0 1
23.177913 -0.350817 17.619313 29.116644 -0.015135 0.920869 0.090263 -0.014564 -372585.000000 0 0 1
22.015713 -1.175217 17.089613 27.894939 -0.053330 0.911397 0.103453 -0.019140 -599296.000000 0 0 1
22.299013 -1.815917 15.875013 27.432820 -0.081256 0.953679 0.140090 -0.022791 157234.000000 0 0 1
21.235013 -2.661017 15.472613 26.408494 -0.124663 0.944812 0.145129 -0.034062 -231767.000000 0 0 1
21.460113 -3.372117 14.137313 25.918551 -0.155860 0.993869 0.165933 -0.041640 -259225.000000 0 0 1
20.406813 -4.164617 13.613813 24.882081 -0.201315 0.991861 0.172922 -0.043935 460622.000000 0 1 0
20.498513 -4.431117 12.230413 24.277703 -0.212892 1.042837 0.168767 -0.041685 161208.000000 0 1 0
19.360213 -5.431017 11.834213 23.331575 -0.273495 1.038842 0.153601 -0.039787 352147.000000 0 1 0
19.525013 -6.735517 12.422613 24.102171 -0.332186 1.029305 0.160357 -0.046462 -115453.000000 0 1 0
18.338613 -7.421217 12.231113 23.258962 -0.384532 1.017063 0.144389 -0.030337 -666538.000000 0 1 0
18.381513 -8.919017 12.566813 23.986532 -0.451751 1.019360 0.147115 -0.042777 29155.500000 0 1 0
19.297513 -9.653317 11.771013 24.579205 -0.463837 1.071394 0.140430 -0.044047 662399.000000 0 1 0
18.824513 -10.984417 11.831113 24.799092 -0.528211 1.073469 0.138516 -0.039077 128144.000000 0 1 0
19.102813 -11.782517 10.503513 24.780415 -0.552677 1.133090 0.109190 -0.037117 -52998.900000 0 1 0
18.440213 -11.276117 9.385113 23.564224 -0.548830 1.161158 0.101288 -0.035593 280894.000000 0 1 0
19.033813 -11.757417 8.171813 23.818091 -0.553341 1.220589 0.096651 -0.044161 110702.000000 0 1 0
18.499513 -11.096017 6.886213 22.644503 -0.540273 1.261802 0.081517 -0.030530 -25218.900000 0 1 0
18.916213 -9.736017 6.805513 22.336700 -0.475332 1.261195 0.082177 -0.029626 508375.000000 0 1 0
19.567513 -9.426017 5.597613 22.429237 -0.448915 1.318563 0.081123 -0.029978 -286829.000000 0 1 0
19.913813 -7.931017 5.495913 22.128399 -0.379012 1.319805 0.088672 -0.023729 -285307.000000 0 1 0
20.668213 -7.729617 4.298213 22.481029 -0.357881 1.378419 0.118523 -0.030114 815652.000000 0 1 0
21.160313 -6.397817 4.242813 22.509829 -0.293611 1.381175 0.135154 -0.027895 -291098.000000 0 1 0
21.707313 -5.982617 2.862513 22.697866 -0.268927 1.444346 0.144173 -0.031452 350767.000000 0 1 0
20.748813 -5.976817 1.788813 21.666459 -0.280463 1.488141 0.094256 -0.040673 768390.000000 0 1 0
21.406413 -5.616917 0.595613 22.139084 -0.256609 1.543890 0.121737 -0.024679 210994.000000 0 1 0
-26.371931 -15.078417 0.300013 30.379720 0.519396 1.560921 0.120912 -0.007507 220661.000000 0 0 1
-25.383331 -14.445017 -0.564387 29.211137 0.517370 1.590118 0.110407 0.000428 1132640.000000 0 0 1
-24.102621 -15.079317 -0.493887 28.435296 0.559052 1.588166 0.112277 0.004906 1089240.000000 0 0 1
-23.167621 -14.637717 0.711113 27.413630 0.563487 1.544853 0.134970 -0.014921 -170847.000000 0 0 1
-23.733621 -14.862917 2.001013 28.074813 0.559490 1.499462 0.122038 0.001526 -3390.990000 0 0 1
-22.879721 -14.573817 3.102213 27.303873 0.567164 1.456932 0.127872 0.000767 445661.000000 0 0 1
-23.505421 -15.110117 4.448613 28.295063 0.571322 1.412919 0.141129 0.000807 219721.000000 0 0 1
-23.243621 -16.462217 4.530913 28.840938 0.616239 1.413043 0.174458 -0.017304 224074.000000 0 0 1
-23.941621 -17.105217 5.576413 29.948056 0.620362 1.383500 0.176128 -0.027995 -55853.700000 0 0 1
-23.837321 -18.660217 5.467613 30.762255 0.664174 1.392109 0.135104 -0.022119 -61639.200000 0 0 1
-24.621421 -19.285117 6.439213 31.931075 0.664454 1.367744 0.126225 -0.032402 -51320.700000 0 0 1
-24.915921 -20.601117 6.038213 32.888739 0.690885 1.386154 0.111740 -0.031116 366857.000000 0 0 1
-25.657131 -21.423817 7.141313 34.179916 0.695724 1.360313 0.098616 -0.024824 66765.700000 0 0 1
-24.772421 -21.709217 8.159413 33.934333 0.719592 1.327970 0.087736 -0.016045 190837.000000 0 0 1
-25.485641 -22.402117 9.173113 35.149947 0.721096 1.306769 0.083341 -0.001563 465337.000000 0 0 1
-24.432521 -22.858617 10.196313 34.977554 0.752129 1.274991 0.056429 -0.012474 309393.000000 0 0 1
-24.290921 -21.919117 11.256913 34.600789 0.734117 1.239428 0.070268 -0.011177 655505.000000 0 0 1
-23.258221 -22.407817 12.144013 34.504089 0.766778 1.211133 0.058030 -0.011589 559902.000000 0 0 1
-23.323721 -21.676417 13.556313 34.606887 0.748808 1.168293 0.038319 -0.003560 -15014.500000 0 0 1
-24.416821 -22.274217 14.228113 35.982789 0.739541 1.164277 0.044399 -0.008880 -248524.000000 0 0 1
-24.616021 -21.462317 15.349613 36.085872 0.717063 1.131433 0.042815 0.001773 -1410240.000000 0 0 1
-25.803171 -21.913417 16.189513 37.524683 0.704060 1.124712 0.053876 0.001560 387585.000000 0 0 1
-27.091461 -21.706317 15.572313 38.047449 0.675487 1.149124 0.063596 -0.013431 931511.000000 0 0 1
-27.333521 -22.683217 14.510713 38.369395 0.692690 1.182962 0.056765 -0.021266 -1337440.000000 0 0 1
-28.582331 -23.553617 14.736213 39.860739 0.689242 1.192118 0.050089 -0.016382 -98783.400000 0 0 1
-28.461311 -24.431817 15.805313 40.703413 0.709363 1.172005 0.038859 -0.003404 6835.720000 0 0 1
-29.573601 -25.297157 15.938113 42.054340 0.707619 1.182093 0.049447 -0.013390 -135676.000000 0 0 1
-29.477611 -26.640177 15.102413 42.505429 0.734879 1.207555 0.052733 -0.014883 6315.820000 0 0 1
-29.761861 -26.529557 13.709813 42.160939 0.728040 1.239596 0.066365 -0.030996 -753610.000000 0 0 1
-31.108911 -26.786877 13.488113 43.211461 0.710884 1.253349 0.118419 -0.050314 -741899.000000 0 0 1
-31.491091 -26.970057 12.006013 43.164999 0.708218 1.288937 0.167683 -0.053514 -301983.000000 0 0 1
-31.144101 -28.252447 11.590313 43.617556 0.736753 1.301840 0.141713 -0.053117 233888.000000 0 0 1
-31.778061 -28.616277 10.366013 44.002167 0.733094 1.332981 0.153285 -0.040456 -92691.800000 0 0 1
-31.325491 -29.990907 9.801113 44.461250 0.763636 1.348529 0.121121 -0.051599 -139190.000000 0 0 1
-31.592621 -31.080437 10.655413 45.580973 0.777226 1.334844 0.119196 -0.039382 311321.000000 0 0 1
-30.918731 -32.223917 10.109513 45.788110 0.806066 1.348173 0.106166 -0.045529 -194737.000000 0 0 1
-30.985441 -33.509897 10.983813 46.943103 0.824520 1.334626 0.095984 -0.033333 346478.000000 0 0 1
-32.283541 33.729982 10.974413 47.962239 -0.807306 1.339938 0.093563 -0.030554 343632.000000 0 0 1
-32.225051 32.412897 11.494913 47.129426 -0.788304 1.324410 0.105888 -0.034919 -829507.000000 0 0 1
-33.463151 32.047234 12.345713 47.950227 -0.763788 1.310394 0.101194 -0.026513 454302.000000 0 0 1
-34.663734 31.808477 11.619513 48.459949 -0.742470 1.328662 0.063190 -0.026202 596185.000000 0 0 1
-35.274157 33.029032 11.139213 49.590978 -0.752540 1.344241 0.092293 -0.030745 -2353020.000000 0 0 1
-36.658401 32.871319 10.629913 50.372185 -0.730985 1.358170 0.082086 -0.011413 -1347660.000000 0 0 1
-36.805211 32.247950 9.354513 49.820284 -0.719497 1.381910 0.056423 -0.015706 -613793.000000 0 0 1
36.498083 32.210850 9.110213 49.524185 0.723082 1.385788 0.035406 -0.015206 -879309.000000 0 0 1
36.153973 31.671647 7.690813 48.675986 0.719408 1.412131 0.033395 -0.018775 -176009.000000 0 0 1
36.243463 30.255997 7.581313 47.817259 0.695602 1.411577 0.057465 -0.021410 -60788.400000 0 0 1
35.822583 29.961067 6.280113 47.120726 0.696530 1.437121 0.076496 -0.020684 26748.100000 0 0 1
36.058083 28.518517 5.746413 46.330470 0.669171 1.446445 0.095448 -0.021405 304643.000000 0 0 1
35.188763 27.525537 6.332913 45.122168 0.663808 1.429981 0.080379 -0.017254 439320.000000 0 0 1
35.735613 26.963987 7.504213 45.391672 0.646401 1.404712 0.061165 -0.020394 -464619.000000 0 0 1
34.791303 26.006797 8.168513 44.198562 0.641905 1.384914 0.057385 -0.011679 -594086.000000 0 0 1
34.614383 24.828507 7.382713 43.233259 0.622235 1.399191 0.061436 -0.015828 327564.000000 0 0 1
33.648703 23.942617 7.955313 42.056761 0.618433 1.380493 0.060234 -0.015650 -279898.000000 0 0 1
33.759603 22.544107 7.454013 41.273598 0.588775 1.389200 0.069471 -0.011605 686013.000000 0 0 1
34.878873 21.783607 7.929813 41.880106 0.558276 1.380301 0.069113 -0.008409 1173180.000000 0 0 1
36.172323 22.068607 7.374213 43.009759 0.547810 1.398491 0.069018 -0.015920 873988.000000 0 0 1
37.100553 20.807607 7.141013 43.132373 0.511130 1.404470 0.061811 -0.013740 276653.000000 0 0 1
36.607853 19.911207 6.139013 42.122186 0.498152 1.424532 0.085671 -0.025401 179662.000000 0 0 1
37.222823 18.657007 6.350413 42.118288 0.464627 1.419443 0.092386 -0.027491 -184963.000000 0 0 1
36.735223 17.454407 5.505213 41.041934 0.443563 1.436254 0.097882 -0.027297 -247776.000000 0 0 1
37.042483 17.445307 4.129313 41.152588 0.440142 1.470286 0.129963 -0.030835 3756.150000 0 0 1
36.490313 16.377607 3.424313 40.143429 0.421873 1.485391 0.113139 -0.033413 -862799.000000 0 0 1
37.248183 16.087407 2.115513 40.628896 0.407699 1.518704 0.157709 -0.027904 547806.000000 0 0 1
-36.260991 15.252507 2.262313 39.403254 -0.398164 1.513350 0.165142 -0.041761 401275.000000 0 0 1
-35.103155 16.024207 2.517813 38.669705 -0.428237 1.505639 0.163768 -0.045863 564368.000000 0 0 1
-33.755981 15.167007 2.448613 37.087734 -0.422283 1.504726 0.189304 -0.046086 1002070.000000 0 0 1
-33.531971 14.313407 3.559213 36.632426 -0.403444 1.473483 0.180258 -0.045628 1171570.000000 0 0 1
-32.151881 13.867907 3.568013 35.196491 -0.407216 1.469248 0.197917 -0.054027 1221600.000000 0 0 1
-31.672361 13.304407 4.940813 34.706733 -0.397682 1.427952 0.204487 -0.041616 59106.100000 0 0 1
-32.151091 12.001507 5.185213 34.707567 -0.357266 1.420838 0.219058 -0.046444 343688.000000 0 0 1
-31.611051 11.532307 6.438113 34.259333 -0.349815 1.381749 0.193559 -0.032126 126907.000000 0 0 1
-31.758231 10.052907 6.700113 33.978488 -0.306566 1.372309 0.213534 -0.035822 1117780.000000 0 0 1
-33.137451 9.640007 6.781613 35.171162 -0.283096 1.376764 0.201185 -0.027970 1091460.000000 0 0 1
-33.012531 8.247207 6.947013 34.729016 -0.244810 1.369403 0.219376 -0.034446 1515840.000000 0 0 1
-34.455577 7.556507 6.901713 35.943305 -0.215894 1.377580 0.182130 -0.026004 1313680.000000 0 0 1
-35.179774 7.690907 8.111113 36.912825 -0.215231 1.349251 0.158846 -0.022219 -123041.000000 0 0 1
-36.439051 7.089407 7.906313 37.954893 -0.192155 1.360951 0.108867 -0.025328 51846.900000 0 0 1
-37.011331 6.200207 9.048913 38.602642 -0.165981 1.334183 0.096762 -0.021056 126659.000000 0 0 1
37.011743 6.979107 10.109413 38.997145 0.186376 1.308567 0.096156 -0.020785 427954.000000 0 0 1
-36.781191 7.654007 11.009613 39.149092 -0.205168 1.285728 0.130592 -0.029383 -107916.000000 0 0 1
37.167013 8.604307 12.049313 40.007586 0.227496 1.264871 0.115716 -0.028924 -199204.000000 0 0 1
36.436883 8.000507 13.083213 39.532582 0.216142 1.233489 0.096403 -0.027408 457760.000000 0 0 1
35.887013 9.024007 13.899313 39.528488 0.246349 1.211487 0.126004 -0.032187 -145121.000000 0 0 1
35.006483 8.622707 15.124813 39.096866 0.241510 1.173578 0.113928 -0.028216 -460947.000000 0 0 1
33.692313 8.250607 14.805513 37.715351 0.240155 1.167384 0.112100 -0.029974 -48781.300000 0 0 1
33.060173 7.746207 15.982913 37.529086 0.230154 1.130861 0.113295 -0.018473 -76255.000000 0 0 1
31.592853 7.333407 15.739413 36.050192 0.228083 1.118983 0.109746 -0.012785 -263572.000000 0 0 1
30.779603 8.472607 16.020613 35.718750 0.268614 1.105686 0.112983 -0.017606 1030510.000000 0 0 1
29.358313 8.256507 15.957513 34.419801 0.274151 1.088726 0.121262 -0.014164 1146910.000000 0 0 1
28.683813 7.599107 17.189013 34.292415 0.258977 1.045756 0.112413 -0.017712 -492993.000000 0 0 1
28.805213 8.516707 18.268713 35.157083 0.287475 1.024377 0.132284 -0.028417 -93786.300000 0 0 1
28.118213 8.176707 19.409613 35.131546 0.282993 0.985455 0.123113 -0.017749 -494288.000000 0 0 1
28.580713 6.933307 20.226213 35.693523 0.237990 0.968346 0.111371 -0.014128 -123242.000000 0 0 1
27.794613 6.753707 21.360613 35.699144 0.238367 0.929355 0.092433 -0.005109 -536978.000000 0 0 1
28.418613 5.933907 22.268313 36.588340 0.205846 0.916479 0.075271 -0.007804 -764205.000000 0 0 1
27.658613 5.694807 23.612713 36.810188 0.203059 0.874381 0.067513 -0.005599 659035.000000 0 0 1
26.336113 5.177907 23.516713 35.685254 0.194132 0.851303 0.052400 -0.006869 350207.000000 0 0 1
25.354313 6.186207 23.287313 34.977268 0.239315 0.842252 0.073479 -0.001202 -614341.000000 0 0 1
23.979513 5.560007 23.051113 33.723650 0.227839 0.818209 0.083012 -0.009333 -765989.000000 0 0 1
23.723513 5.223407 21.681413 32.560294 0.216721 0.842117 0.085155 -0.009434 899133.000000 0 0 1
22.383513 5.014707 21.219113 31.247715 0.220396 0.824313 0.091250 -0.006258 229814.000000 0 0 1
21.471313 3.975707 21.850613 30.891307 0.183090 0.785070 0.092710 -0.011580 -44692.300000 0 0 1
20.218113 3.735407 21.240213 29.561326 0.182695 0.769134 0.095141 -0.016106 1456950.000000 0 0 1
19.029313 4.375807 21.738613 29.220365 0.226022 0.731828 0.113434 -0.016615 2036660.000000 0 0 1
17.644713 4.114007 21.003513 27.738214 0.229066 0.711773 0.147055 -0.022907 1248740.000000 0 0 1
17.177513 2.770307 21.028613 27.293665 0.159898 0.691238 0.148979 -0.026000 926088.000000 0 0 1
15.889213 2.609307 20.387013 25.978951 0.162766 0.668502 0.155346 -0.029857 715253.000000 0 0 1
15.103813 1.530207 21.139913 26.026191 0.100968 0.622788 0.177212 -0.026451 -463800.000000 0 0 1
15.664213 0.244907 20.961213 26.168684 0.015634 0.641826 0.139007 -0.030088 373728.000000 0 0 1
15.047613 -0.681293 21.810913 26.506806 -0.045245 0.604402 0.171255 -0.032431 -161469.000000 0 0 1
15.484213 -2.134493 21.487413 26.571147 -0.136986 0.628901 0.141589 -0.024012 -21572.900000 0 0 1
14.885613 -2.626593 20.277813 25.291702 -0.174654 0.640566 0.160858 -0.016685 287582.000000 0 0 1
14.960113 -4.015993 20.138413 25.406473 -0.262264 0.655655 0.118894 -0.014109 -135852.000000 0 0 1
14.521813 -4.550693 18.759213 24.155744 -0.303677 0.681555 0.124367 -0.020397 1527560.000000 0 1 0
13.084813 -4.406093 18.621913 23.181925 -0.324807 0.637990 0.136101 -0.022982 1030710.000000 0 1 0
12.483313 -4.994693 17.504513 22.072337 -0.380601 0.654993 0.129784 -0.020814 1135160.000000 0 1 0
10.913713 -4.949393 17.488113 21.199994 -0.425763 0.600751 0.109195 -0.014952 1143870.000000 0 1 0
10.217413 -5.813593 18.376413 21.814811 -0.517305 0.569107 0.101647 -0.007847 -658524.000000 0 1 0
8.868513 -5.896393 18.003713 20.917736 -0.586757 0.534170 0.083973 -0.025082 -471472.000000 0 1 0
8.034113 -6.569693 19.104313 21.741266 -0.685456 0.497639 0.071543 -0.023482 -346070.000000 0 1 0
8.115713 -8.000693 19.063113 22.209867 -0.778261 0.538815 0.067112 -0.024016 787171.000000 0 1 0
9.383213 -8.598493 19.418013 23.217192 -0.741786 0.580181 0.097085 -0.029225 956178.000000 0 1 0
9.502213 -10.089893 19.013913 23.529278 -0.815385 0.629884 0.104629 -0.034320 148589.000000 0 1 0
9.333113 -10.368793 17.619713 22.473833 -0.837917 0.669696 0.086563 -0.021651 69206.700000 0 1 0
9.899213 -11.586293 17.186813 22.970049 -0.863759 0.725411 0.096393 -0.025507 143715.000000 0 1 0
9.696913 -11.838193 15.669113 21.901919 -0.884504 0.773569 0.089545 -0.021352 202037.000000 0 1 0
10.426713 -12.946993 15.133313 22.480172 -0.892809 0.832289 0.077234 -0.020250 -29454.800000 0 1 0
10.075113 -13.249693 13.835013 21.644165 -0.920670 0.877335 0.056169 -0.007331 -325661.000000 0 1 0
10.919313 -14.391293 13.217113 22.383762 -0.921722 0.939146 0.077386 -0.014444 1043420.000000 0 1 0
12.261113 -14.091193 12.801113 22.644318 -0.854734 0.969984 0.063936 -0.015476 635220.000000 0 1 0
12.320413 -13.355693 11.609513 21.562651 -0.825697 1.002249 0.031537 -0.012591 443503.000000 0 1 0
13.773613 -13.088193 11.048313 21.979046 -0.759887 1.044106 0.052581 -0.020919 1238680.000000 0 1 0
14.516613 -14.181493 10.539413 22.867576 -0.773721 1.091800 0.058865 -0.016216 338488.000000 0 1 0
15.792913 -13.800993 10.025113 23.246213 -0.718191 1.124910 0.058409 -0.026704 573159.000000 0 1 0
16.521613 -15.100893 9.506013 24.317997 -0.740501 1.169182 0.049227 -0.024471 140734.000000 0 1 0
17.018013 -15.935493 10.542813 25.587177 -0.752560 1.146110 0.043291 -0.016956 -494462.000000 0 0 1
16.125413 -16.897093 10.948013 25.795343 -0.808762 1.132477 0.078681 -0.015108 -409390.000000 0 0 1
16.513413 -17.656393 12.320313 27.133580 -0.818836 1.099478 0.067143 -0.015018 -503604.000000 0 0 1
17.688213 -18.370493 12.126813 28.238405 -0.804317 1.126919 0.086034 -0.023703 -541598.000000 0 0 1
18.158713 -18.990193 13.296013 29.447415 -0.807777 1.102331 0.059092 -0.020205 155336.000000 0 0 1
19.464513 -19.830293 13.059613 30.702790 -0.794707 1.131441 0.034777 -0.024163 508726.000000 0 0 1
20.494813 -18.872093 12.862813 30.686239 -0.744201 1.138263 0.039259 -0.024871 -539189.000000 0 0 1
21.722813 -19.491993 12.528013 31.761132 -0.731324 1.165333 0.027210 -0.027163 485665.000000 0 0 1
22.514213 -18.541793 11.564513 31.375562 -0.688942 1.193312 0.044433 -0.028599 -204843.000000 0 0 1
22.208313 -18.766593 10.156213 30.798423 -0.701599 1.234743 0.043110 -0.018436 990239.000000 0 0 1
20.932213 -18.307293 9.638213 29.431441 -0.718603 1.237161 0.059356 -0.019136 1239750.000000 0 0 1
20.552513 -16.826093 9.783313 28.306120 -0.686033 1.217891 0.108387 -0.038630 -530858.000000 0 0 1
21.470613 -16.144093 9.011213 28.334095 -0.644726 1.247141 0.100937 -0.024645 -235281.000000 0 0 1
21.311313 -14.752393 9.103613 27.471457 -0.605494 1.233026 0.105937 -0.033282 14744.400000 0 0 1
-35.650277 24.817383 7.914613 44.152982 -0.608127 1.390568 0.080867 -0.025182 -420131.000000 0 0 1
-34.730288 24.153983 8.711913 43.191494 -0.607681 1.367699 0.086981 -0.031095 -788032.000000 0 0 1
-33.907701 25.009883 9.375613 43.163972 -0.635509 1.351842 0.110421 -0.027257 -1257840.000000 0 0 1
-32.873281 24.263183 10.205213 42.112955 -0.635830 1.326030 0.122652 -0.033054 -539834.000000 0 0 1
-32.111181 23.476883 9.325713 40.856589 -0.631303 1.340512 0.131854 -0.037296 -283690.000000 0 0 1
-31.307971 22.545483 9.993613 39.854236 -0.624102 1.317337 0.125241 -0.037782 141819.000000 0 0 1
-30.479941 21.618783 9.027813 38.443464 -0.616926 1.333749 0.117067 -0.046869 101009.000000 0 0 1
-31.263281 20.674483 8.332713 38.396107 -0.584280 1.352036 0.126849 -0.054205 71087.200000 0 0 1
-30.511471 19.967083 7.398413 37.207133 -0.579471 1.370618 0.137380 -0.056686 247352.000000 0 0 1
-31.456281 19.245683 6.361713 37.421455 -0.549068 1.399965 0.135757 -0.050097 325130.000000 0 0 1
-32.127241 18.089983 6.859113 37.502726 -0.512825 1.386865 0.147860 -0.048935 121281.000000 0 0 1
-32.947061 17.619383 5.839213 37.815973 -0.491082 1.415765 0.119012 -0.043430 -4912.120000 0 0 1
-33.856321 16.353083 6.092313 38.089238 -0.449967 1.410158 0.120883 -0.028916 496453.000000 0 0 1
-34.802358 16.551883 7.142013 39.194097 -0.443935 1.387551 0.080857 -0.021918 413508.000000 0 0 1
-35.417728 15.345883 7.574913 39.335618 -0.408865 1.377014 0.087673 -0.026056 -293957.000000 0 0 1
-36.239611 15.539383 8.826313 40.406504 -0.405081 1.350583 0.073057 -0.024032 -716761.000000 0 0 1
-37.315371 16.386583 8.636513 41.659889 -0.413784 1.361972 0.082435 -0.021961 -367950.000000 0 0 1
36.842053 16.989283 9.824013 41.743069 0.432078 1.333223 0.093899 -0.019073 -195113.000000 0 0 1
35.951333 18.173683 9.585113 41.408399 0.468044 1.337200 0.079612 -0.017548 432817.000000 0 0 1
34.655483 17.859383 9.031413 40.019077 0.475845 1.343158 0.083438 -0.021056 1107160.000000 0 0 1
33.891313 19.098783 8.972913 39.923649 0.513172 1.344108 0.070376 -0.013354 -467509.000000 0 0 1
32.475313 18.946783 8.459613 38.538184 0.528140 1.349482 0.055110 -0.014458 -751526.000000 0 0 1
31.764083 20.174583 8.770013 38.637856 0.565857 1.341821 0.062531 -0.010275 1049820.000000 0 0 1
30.384923 20.328583 8.376813 37.505544 0.589641 1.345548 0.028793 -0.003900 1097490.000000 0 0 1
30.096303 20.186983 6.859913 36.883060 0.590822 1.383716 0.020279 0.001523 -1143040.000000 0 0 1
29.845593 18.841683 6.560013 35.899891 0.563121 1.387033 0.053279 -0.002951 40205.700000 0 0 1
29.464513 18.733183 5.206913 35.301581 0.566319 1.422758 0.056013 -0.006716 468785.000000 0 0 1
28.007113 19.146383 4.805613 34.264796 0.599652 1.430083 0.080179 -0.011196 -801398.000000 0 0 1
27.039313 18.150583 5.072813 32.959089 0.591180 1.416270 0.076819 -0.010783 1443180.000000 0 0 1
25.658613 18.452383 4.762813 31.961528 0.623463 1.421222 0.101061 -0.012777 1582010.000000 0 0 1
24.982813 19.763083 5.296613 32.292019 0.669270 1.406029 0.108877 -0.009084 -677737.000000 0 0 1
25.510913 20.811783 4.495313 33.228675 0.684301 1.435096 0.082228 -0.009961 130771.000000 0 0 1
24.971913 22.000783 4.917213 33.642382 0.722230 1.424110 0.083071 -0.004951 268772.000000 0 0 1
25.955413 23.208583 4.608513 35.122075 0.729585 1.439203 0.052894 0.003075 411110.000000 0 0 1
27.239013 23.033283 5.144013 36.041044 0.701934 1.427581 0.064618 -0.004178 44530.000000 0 0 1
28.067713 24.174383 5.046613 37.385366 0.711011 1.435394 0.076426 -0.004760 910043.000000 0 0 1
29.533613 24.072883 5.679913 38.522713 0.683881 1.422814 0.071491 -0.009580 1385200.000000 0 0 1
30.349613 22.984983 5.235513 38.429403 0.648182 1.434134 0.058609 -0.007470 207272.000000 0 0 1
30.706693 22.989383 3.875813 38.554308 0.642654 1.470098 0.070720 -0.015754 -480646.000000 0 0 1
31.569323 24.135283 3.255013 39.871408 0.652727 1.489068 0.103277 -0.027999 -331191.000000 0 0 1
30.934483 25.379383 3.329913 40.151508 0.687071 1.487767 0.068777 -0.023841 -178502.000000 0 0 1
31.672573 26.303983 2.568213 41.251026 0.693062 1.508498 0.131337 -0.022890 -564950.000000 0 0 1
31.130023 27.779483 2.629213 41.805391 0.728583 1.507863 0.106358 -0.018931 665453.000000 0 0 1
29.936533 28.040883 1.869013 41.060691 0.752713 1.525262 0.131914 -0.020301 1150260.000000 0 0 1
28.785613 27.672083 2.665813 40.018274 0.765677 1.504132 0.094284 -0.009920 -238153.000000 0 0 1
27.444813 28.290383 2.308613 39.482822 0.800568 1.512292 0.056920 -0.005402 -401917.000000 0 0 1
27.361213 29.629683 2.712613 40.421682 0.825181 1.503638 0.051187 -0.013465 -125405.000000 0 0 1
26.105813 30.215983 2.488013 40.008865 0.858246 1.508570 0.045214 -0.002773 -192330.000000 0 0 1
26.095413 31.638983 3.164613 41.134056 0.881123 1.493786 0.056260 -0.018929 -171048.000000 0 0 1
25.942713 31.557183 4.556113 41.105210 0.882733 1.459728 0.065922 -0.044552 -102723.000000 0 0 1
27.171213 31.488483 5.233013 41.918776 0.858864 1.445633 0.077228 -0.047039 -326412.000000 0 0 1
27.089013 31.330983 6.799013 41.972273 0.857883 1.408091 0.101415 -0.061467 49433.100000 0 0 1
26.494813 30.104583 7.291013 40.760519 0.849089 1.390954 0.093245 -0.057922 316169.000000 0 0 1
27.245313 28.967283 6.930013 40.366268 0.816022 1.398263 0.091045 -0.058819 94938.500000 0 0 1
26.633413 27.647583 7.453413 39.106021 0.804080 1.379028 0.098588 -0.049886 124409.000000 0 0 1
25.413413 27.331283 6.808813 37.936796 0.821744 1.390341 0.068871 -0.049226 -243898.000000 0 0 1
25.096513 26.000483 7.094413 36.826495 0.803088 1.376940 0.083005 -0.039811 -533436.000000 0 0 1
23.678413 25.647683 6.601713 35.525392 0.825300 1.383879 0.098270 -0.016443 -205843.000000 0 0 1
23.407813 25.782783 5.224013 35.213178 0.833642 1.421893 0.058076 -0.012122 194539.000000 0 0 1
23.574513 27.044083 4.596713 36.170013 0.853834 1.443365 0.051327 0.005505 -601153.000000 0 0 1
23.454913 26.801783 3.104313 35.750598 0.851895 1.483854 0.039740 0.011900 43456.700000 0 0 1
24.662013 26.317183 2.547013 36.156552 0.817854 1.500294 0.023006 0.027825 296823.000000 0 0 1
24.405613 25.895083 1.201613 35.603836 0.815001 1.537040 0.044799 0.020248 191820.000000 0 0 1
25.529913 25.095283 0.498413 35.802208 0.776813 1.556875 0.060767 0.012191 -477348.000000 0 0 1
26.665513 25.815783 0.069713 37.114809 0.769208 1.568918 0.047422 0.011186 89244.800000 0 0 1
27.602513 25.118783 -0.704087 37.327573 0.738322 1.589660 0.072228 0.003928 410421.000000 0 0 1
28.433713 23.942683 -0.107987 37.171760 0.699862 1.573701 0.079169 -0.001845 -593303.000000 0 0 1
27.585013 22.869083 0.197713 35.832485 0.692199 1.565279 0.074002 -0.000427 491253.000000 0 0 1
28.225813 21.821783 0.987713 35.691208 0.658131 1.543119 0.086637 -0.008637 540412.000000 0 0 1
27.123413 20.859683 1.522613 34.250901 0.655592 1.526327 0.083901 -0.008546 540012.000000 0 0 1
26.595413 19.889283 0.589113 33.215156 0.642121 1.553059 0.111477 -0.024020 562485.000000 0 0 1
25.379513 19.323683 1.018813 31.914924 0.650750 1.538868 0.083541 -0.015200 -316444.000000 0 0 1
24.836413 18.176983 0.133413 30.777718 0.631795 1.566462 0.106901 -0.021455 737234.000000 0 0 1
23.448513 17.871083 0.350313 29.484421 0.651226 1.558915 0.089911 -0.013588 859658.000000 0 0 1
22.992413 16.920683 -0.577287 28.553350 0.634432 1.591016 0.114420 -0.040601 1039800.000000 0 0 1
21.448813 16.605483 -0.436587 27.129030 0.658805 1.586890 0.086378 -0.018865 -223634.000000 0 0 1
21.017013 15.722683 -1.417587 26.285493 0.642280 1.624753 0.091667 -0.025473 -11189.900000 0 0 1
19.681713 15.322583 -1.187187 24.971199 0.661505 1.618356 0.095688 -0.025532 78340.300000 0 1 0
18.587413 16.320683 -1.619987 24.788727 0.720555 1.636195 0.096638 -0.029617 -890411.000000 0 1 0
18.569413 17.484883 -0.775087 25.517543 0.755327 1.601176 0.091071 -0.026156 657751.000000 0 0 1
17.424113 18.243483 -1.226987 25.257274 0.808366 1.619395 0.068031 -0.028679 658658.000000 0 0 1
17.477113 19.741483 -0.837387 26.379478 0.846163 1.602546 0.067495 -0.015936 -226661.000000 0 0 1
17.410813 19.976183 0.547413 26.504414 0.853907 1.550141 0.082136 -0.016297 238114.000000 0 0 1
17.568013 21.345583 1.056013 27.665577 0.882171 1.532616 0.095251 -0.013123 -73084.800000 0 0 1
16.425013 22.314583 0.721113 27.717173 0.936273 1.544777 0.082418 -0.021418 -382606.000000 0 0 1
15.169013 22.041083 1.269513 26.786563 0.968023 1.523385 0.061754 -0.019563 -67394.700000 0 0 1
14.278813 23.103283 0.906013 27.174750 1.017216 1.537450 0.059125 -0.015549 -164305.000000 0 0 1
12.844613 22.996883 1.412413 26.378696 1.061422 1.517227 0.054144 -0.019682 -399906.000000 0 0 1
12.651313 23.275583 2.800913 26.639324 1.072923 1.465460 0.055250 -0.005801 -973048.000000 0 0 1
11.385813 23.004683 3.262513 25.874624 1.111209 1.444371 0.048769 -0.010795 -957937.000000 0 0 1
11.311313 23.224383 4.762613 26.267856 1.117567 1.388478 0.063531 -0.017812 232816.000000 0 0 1
12.136613 22.380783 5.564613 26.060732 1.073901 1.355615 0.057728 -0.037634 284580.000000 0 0 1
11.556213 22.151583 6.861813 25.909905 1.089949 1.302765 0.048022 -0.028411 -499358.000000 0 0 1
12.225513 21.120783 7.805613 25.621831 1.046082 1.261229 0.062462 -0.027089 109759.000000 0 0 1
13.433713 21.457983 8.440213 26.686080 1.011444 1.248993 0.087536 -0.024098 -114158.000000 0 0 1
14.593513 21.431283 7.640813 27.030585 0.972974 1.284217 0.089998 -0.024007 -487606.000000 0 0 1
15.848413 21.560883 8.531513 28.086128 0.936929 1.262157 0.111946 -0.032051 -474376.000000 0 0 1
16.110013 20.464483 9.390213 27.685803 0.903898 1.224761 0.117553 -0.037804 2045140.000000 0 0 1
17.457013 20.511183 10.004113 28.732181 0.865666 1.215162 0.115920 -0.039551 1923660.000000 0 0 1
17.727213 21.477983 11.121213 29.987317 0.880778 1.190857 0.088276 -0.031522 -844961.000000 0 0 1
16.933313 21.158583 12.218913 29.727505 0.895870 1.147212 0.086836 -0.022116 -126810.000000 0 0 1
17.235713 21.772083 13.441613 30.850776 0.901172 1.119983 0.073870 -0.018960 -442437.000000 0 0 1
18.364713 21.111683 14.232413 31.393111 0.854871 1.100264 0.068444 -0.018048 629794.000000 0 0 1
19.689313 21.502183 13.822013 32.265476 0.829381 1.128093 0.080594 -0.019289 697591.000000 0 0 1
20.583713 21.067483 14.832713 32.977833 0.797012 1.104279 0.066640 -0.020453 361253.000000 0 0 1
22.094613 21.409583 14.758413 34.122616 0.769653 1.123520 0.077591 -0.023930 338190.000000 0 0 1
22.660513 20.971283 13.570713 33.726218 0.746702 1.156683 0.088661 -0.027738 -184278.000000 0 0 1
23.990713 21.381983 13.337113 34.793995 0.727966 1.177412 0.090435 -0.032567 117713.000000 0 0 1
24.732013 20.750683 12.114413 34.482203 0.698086 1.211812 0.095972 -0.035560 27157.000000 0 0 1
24.418813 21.331383 10.919613 34.213218 0.718016 1.245950 0.113715 -0.043990 423995.000000 0 0 1
25.486413 21.051583 10.033113 34.545474 0.690390 1.276118 0.132720 -0.051461 -56927.300000 0 0 1
25.586213 22.042583 8.853813 34.913031 0.711134 1.314400 0.109170 -0.040748 51013.400000 0 0 1
26.036113 23.377183 9.232913 36.188652 0.731640 1.312811 0.100106 -0.044159 2090990.000000 0 0 1
27.485713 23.519483 9.068613 37.294373 0.707793 1.325171 0.085556 -0.035955 1232010.000000 0 0 1
27.982713 24.807883 9.681213 38.628864 0.725330 1.317474 0.103544 -0.043004 -843960.000000 0 0 1
29.259213 25.077383 9.203213 39.619134 0.708588 1.336363 0.094171 -0.033874 -662469.000000 0 0 1
29.791113 26.159083 9.879413 40.858424 0.720574 1.326580 0.097465 -0.036205 -166359.000000 0 0 1
30.962783 26.826483 9.149213 41.976925 0.713944 1.351074 0.092739 -0.035917 -64742.000000 0 0 1
30.584273 27.525283 7.950213 41.907575 0.732805 1.379931 0.102829 -0.039587 197609.000000 0 0 1
31.740763 27.866883 7.218113 42.850208 0.720500 1.401539 0.086157 -0.026837 -1079.230000 0 0 1
31.445013 28.801783 6.005813 43.062760 0.741553 1.430874 0.106831 -0.021606 125834.000000 0 0 1
31.045753 30.102983 6.357113 43.708595 0.769982 1.424836 0.112252 -0.033918 119210.000000 0 0 1
31.165103 31.016283 5.296113 44.286818 0.783005 1.450923 0.106024 -0.039428 82128.000000 0 0 1
31.497673 32.424083 5.756513 45.569310 0.799890 1.444134 0.075889 -0.038322 1157880.000000 0 0 1
30.334833 32.959783 6.462713 45.258326 0.826846 1.427510 0.088425 -0.049799 1226800.000000 0 0 1
30.262573 -33.435442 6.512813 45.564996 -0.835168 1.427371 0.079891 -0.047539 -81580.800000 0 0 1
28.902613 -32.959842 7.054313 44.401301 -0.850889 1.411244 0.110364 -0.052946 -473331.000000 0 0 1
27.813013 -33.224042 6.273813 43.780834 -0.873819 1.427001 0.100920 -0.052194 -1107790.000000 0 0 1
26.586513 -32.712742 6.752313 42.691450 -0.888343 1.411964 0.078349 -0.056054 -110628.000000 0 0 1
25.505313 -32.967142 5.714013 42.071408 -0.912325 1.434558 0.091717 -0.045848 -525895.000000 0 0 1
25.656513 -32.015542 4.656713 41.290877 -0.895216 1.457778 0.086260 -0.020915 573870.000000 0 0 1
24.580413 -32.051742 3.715613 40.562503 -0.916568 1.479066 0.090502 -0.031701 380067.000000 0 0 1
25.106113 -31.458842 2.384913 40.319517 -0.897238 1.511611 0.097895 -0.016361 108273.000000 0 0 1
25.493313 -30.106542 2.479713 39.527988 -0.868180 1.508022 0.108973 -0.011895 347947.000000 0 0 1
26.094813 -29.656542 1.237713 39.521914 -0.849197 1.539474 0.099265 -0.012390 -215493.000000 0 0 1
26.226213 -28.094542 1.211613 38.452380 -0.819779 1.539282 0.088784 -0.014956 157304.000000 0 0 1
25.024013 -27.339842 1.139013 37.080528 -0.829595 1.540074 0.087375 -0.010551 156491.000000 0 0 1
24.293613 -27.416542 -0.073487 36.631295 -0.845718 1.572802 0.078996 -0.009570 33518.900000 0 0 1
23.058813 -26.495042 -0.190187 35.124525 -0.854631 1.576211 0.070861 -0.013802 4799.430000 0 0 1
23.337213 -25.089042 -0.294487 34.266197 -0.821558 1.579391 0.086013 -0.020507 -142399.000000 0 0 1
23.499513 -24.321742 0.904713 33.831830 -0.802590 1.544052 0.057323 -0.006656 -390493.000000 0 0 1
22.270413 -24.243442 1.804813 32.969275 -0.827791 1.516027 0.050646 -0.002790 -299730.000000 0 0 1
22.377213 -23.417542 2.982513 32.527163 -0.808111 1.478974 0.037676 -0.002638 72195.500000 0 0 1
21.167613 -23.491842 3.735013 31.841558 -0.837395 1.453226 0.040440 -0.005056 233194.000000 0 0 1
21.259913 -22.674442 5.026113 31.486124 -0.817583 1.410481 0.025739 -0.001095 2127.010000 0 0 1
21.175813 -21.249742 4.942113 30.403800 -0.787141 1.407523 0.051777 0.006201 595948.000000 0 0 1
19.918113 -20.727142 4.493113 29.095252 -0.805300 1.415748 0.034571 0.005123 77253.800000 0 0 1
19.751413 -19.253142 4.800813 27.997314 -0.772624 1.398471 0.042820 -0.000603 68813.600000 0 0 1
19.470713 -18.986542 6.135813 27.879126 -0.772809 1.348893 0.063465 -0.001019 -211055.000000 0 0 1
18.118513 -18.695642 6.400913 26.810058 -0.801074 1.329717 0.040001 -0.004849 67812.200000 0 0 1
19.400279 -25.736847 -12.106487 34.428523 -0.924872 1.930120 0.107780 -0.035470 217265.000000 0 0 1
19.764679 -24.580217 -12.816687 34.045515 -0.893567 1.956766 0.112928 -0.027948 -369048.000000 0 0 1
18.642479 -23.939917 -13.374587 33.159331 -0.909167 1.985964 0.098049 -0.024914 8734.070000 0 0 1
18.813079 -22.421217 -13.518687 32.239694 -0.872679 2.003490 0.088943 -0.030643 -70543.700000 0 0 1
18.789079 -21.483617 -12.436887 31.132804 -0.852206 1.981744 0.101084 -0.034765 -227858.000000 0 0 1
19.868479 -21.454417 -11.491587 31.418228 -0.823758 1.945247 0.093408 -0.040901 -305605.000000 0 0 1
19.728379 -22.293317 -10.197787 31.467377 -0.846361 1.900830 0.094976 -0.032689 121283.000000 0 0 1
18.829879 -21.752317 -9.235387 30.216222 -0.857287 1.881410 0.094485 -0.033086 -139394.000000 0 0 1
17.503879 -22.160317 -9.529587 29.804001 -0.902260 1.896253 0.110458 -0.020997 -466768.000000 0 0 1
16.546979 -21.493017 -8.521887 28.431934 -0.914695 1.875205 0.108942 -0.021751 -993241.000000 0 0 1
16.472479 -20.133917 -8.696187 27.428833 -0.885088 1.893409 0.095650 -0.025567 366629.000000 0 0 1
15.608279 -19.561617 -7.713087 26.187153 -0.897335 1.869767 0.090029 -0.029718 135303.000000 0 0 1
14.088579 -19.624917 -7.920187 25.423509 -0.948163 1.887599 0.080071 -0.020859 -483210.000000 0 0 1
13.521779 -20.917817 -7.915187 26.135106 -0.996939 1.878485 0.069295 -0.020275 295365.000000 0 0 1
12.144679 -20.862717 -8.301687 25.527715 -1.043625 1.902023 0.062318 -0.019966 518857.000000 0 0 1
11.382679 -22.161317 -8.051787 26.182449 -1.096306 1.883388 0.067016 -0.019715 -326261.000000 0 0 1
11.433179 -22.512817 -6.675387 26.117146 -1.100887 1.829258 0.064001 -0.022253 391203.000000 0 0 1
10.638079 -23.661917 -6.390387 26.718760 -1.148286 1.812310 0.048048 -0.020248 197866.000000 0 0 1
11.135479 -24.362517 -5.111987 27.270196 -1.142075 1.759369 0.068234 -0.017058 323763.000000 0 0 1
10.121079 -25.059627 -4.377687 27.378556 -1.186950 1.731380 0.066525 -0.021844 108109.000000 0 0 1
10.613979 -25.703557 -3.195287 27.991772 -1.179186 1.685197 0.068310 -0.020816 93409.500000 0 0 1
9.541479 -26.548407 -2.480387 28.319783 -1.225773 1.658494 0.063150 -0.021798 646143.000000 0 0 1
8.661179 -25.799307 -1.596787 27.261145 -1.246905 1.629404 0.057586 -0.016333 296247.000000 0 0 1
8.185279 -26.679887 -0.554187 27.912763 -1.273117 1.590652 0.065186 -0.022041 343387.000000 0 0 1
7.255079 -26.090017 0.524713 27.085061 -1.299570 1.551422 0.068863 -0.019081 -595296.000000 0 0 1
6.076779 -25.511057 0.109513 26.225051 -1.336952 1.566620 0.072792 -0.024950 -1152000.000000 0 0 1
5.433579 -24.998917 1.280413 25.614627 -1.356773 1.520788 0.080349 -0.025862 108053.000000 0 0 1
3.948279 -24.673017 0.985113 25.006342 -1.412117 1.531392 0.056240 -0.025157 419565.000000 0 0 1
3.189879 -25.845767 0.664213 26.050340 -1.447998 1.545296 0.049292 -0.022525 1017940.000000 0 0 1
1.794979 -25.502797 0.520213 25.571180 -1.500529 1.550451 0.043687 -0.016915 1378930.000000 0 0 1
0.784879 -26.427617 -0.200487 26.440030 -1.541106 1.578379 0.065807 -0.023926 394322.000000 0 0 1
0.305979 -27.521297 0.580313 27.529116 -1.559679 1.549715 0.062924 -0.018993 -88771.200000 0 0 1
1.210379 -28.623007 0.629913 28.655512 -1.528535 1.548812 0.052270 -0.019658 147120.000000 0 0 1
0.651479 -29.715147 1.621813 29.766503 -1.548876 1.516285 0.086931 -0.020990 297331.000000 0 0 1
0.937379 -29.422047 3.045213 29.594068 -1.538947 1.467714 0.062828 -0.018457 327125.000000 0 0 1
0.179579 -30.313537 3.875413 30.560786 -1.564872 1.443644 0.095998 -0.020855 197467.000000 0 0 1
0.500679 -30.115267 5.376913 30.595608 -1.554172 1.394138 0.080327 -0.018765 -536409.000000 0 0 1
1.763979 -30.587747 5.753613 31.174124 -1.513191 1.385168 0.034331 -0.005417 -263711.000000 0 0 1
2.056879 -30.346477 7.130213 31.240669 -1.503120 1.340532 0.039489 -0.006248 635543.000000 0 0 1
3.539479 -30.688617 7.503613 31.790303 -1.455968 1.332513 0.051804 -0.008430 730385.000000 0 0 1
3.748079 -32.096567 7.384513 33.147681 -1.454548 1.346135 0.045374 -0.009513 -214366.000000 0 0 1
5.011479 -32.478367 7.869713 33.791888 -1.417702 1.335750 0.038401 -0.012297 -440743.000000 0 0 1
5.201279 33.836877 7.708313 35.091390 1.418274 1.349326 0.033126 -0.004483 -221947.000000 0 0 1
5.168279 33.378176 6.336513 34.365173 1.417176 1.385348 0.031510 -0.006581 12260.900000 0 0 1
5.096779 31.971417 6.163013 32.956507 1.412710 1.382684 0.032773 -0.010215 -570801.000000 0 0 1
5.365979 31.398377 4.767513 32.208399 1.401532 1.422230 0.041196 -0.013543 -789201.000000 0 0 1
6.648179 31.517387 4.269613 32.492669 1.362907 1.439013 0.049704 -0.011701 -1082460.000000 0 0 1
7.475079 30.464407 4.729913 31.722689 1.330179 1.421136 0.042112 -0.012542 -52310.100000 0 0 1
8.869179 30.436737 4.034913 31.958376 1.287251 1.444203 0.037440 -0.008004 -217124.000000 0 0 1
9.769979 31.344617 4.558113 33.146853 1.268644 1.432847 0.052355 -0.018140 -761102.000000 0 0 1
11.040279 31.218257 3.975213 33.350707 1.230875 1.451318 0.059800 -0.016376 -59145.500000 0 0 1
12.226879 31.660037 4.851113 34.283929 1.202249 1.428822 0.061750 -0.027049 205479.000000 0 0 1
12.742779 30.707837 5.800813 33.749061 1.177453 1.398058 0.070864 -0.028155 528534.000000 0 0 1
13.958479 31.105687 6.435313 34.696054 1.148988 1.384239 0.088737 -0.034455 798087.000000 0 0 1
14.660379 29.979147 7.267613 34.153977 1.115972 1.356367 0.077005 -0.032277 191895.000000 0 0 1
13.908879 29.730157 8.466113 33.897112 1.133208 1.318365 0.069019 -0.029761 830533.000000 0 0 1
14.627879 28.763577 9.276513 33.576359 1.100328 1.290874 0.064698 -0.028484 447652.000000 0 0 1
14.438179 28.741317 10.807713 33.931268 1.105271 1.246631 0.060824 -0.024270 725335.000000 0 0 1
15.395879 29.683277 11.376513 35.320746 1.092323 1.242858 0.069170 -0.024811 1164780.000000 0 0 1
14.896079 30.110457 12.662313 35.900793 1.111386 1.210338 0.058928 -0.019842 -235269.000000 0 0 1
15.821579 31.096987 13.334913 37.351906 1.100148 1.205734 0.057148 -0.020390 -358980.000000 0 0 1
16.871679 30.469067 14.030413 37.548237 1.065093 1.187841 0.050921 -0.019054 -78058.700000 0 0 1
17.564979 31.348707 14.849313 38.881513 1.060072 1.178932 0.056729 -0.018130 -947835.000000 0 0 1
18.806379 30.845077 15.559113 39.334268 1.023272 1.164117 0.049714 -0.015062 275975.000000 0 0 1
19.986479 30.644447 14.763013 39.452351 0.992872 1.187264 0.047242 -0.016464 681312.000000 0 0 1
20.291779 29.237677 14.581513 38.460611 0.964089 1.181942 0.038936 -0.006873 -91150.400000 0 0 1
21.776279 29.037777 14.233113 38.986925 0.927340 1.197084 0.073622 -0.017235 -368419.000000 0 0 1
22.681479 29.145997 15.296113 39.973863 0.909489 1.178130 0.083854 -0.017914 -339809.000000 0 0 1
23.948879 28.770537 14.777913 40.245240 0.876603 1.194803 0.096299 -0.023597 711710.000000 0 0 1
25.112079 29.066747 15.824613 41.544081 0.858262 1.180015 0.117208 -0.038856 429866.000000 0 0 1
25.085879 28.211467 16.943113 41.379431 0.843975 1.148937 0.093398 -0.027187 -157363.000000 0 0 1
26.217079 28.291067 17.786713 42.474544 0.823429 1.138715 0.093284 -0.028940 -130629.000000 0 0 1
27.061479 26.970967 17.714313 42.113580 0.783723 1.136655 0.066321 -0.013223 -63025.600000 0 0 1
26.477779 25.721517 18.101613 41.113716 0.770911 1.114884 0.063809 -0.005011 -149889.000000 0 0 1
26.148679 25.693317 19.477513 41.512329 0.776615 1.082414 0.086781 -0.006595 73640.000000 0 0 1
25.537679 24.367197 19.977113 40.558826 0.761948 1.055783 0.076444 -0.006112 86997.000000 0 0 1
26.511679 23.329517 20.041313 40.605292 0.721639 1.054613 0.066624 -0.003770 81090.000000 0 0 1
25.988579 22.128307 20.540813 39.837084 0.705343 1.029065 0.056435 0.001787 -202338.000000 0 0 1
26.914779 20.872907 20.390313 39.696958 0.659634 1.031364 0.031794 0.004093 -104304.000000 0 0 1
26.298679 19.612607 20.547713 38.710249 0.640785 1.011243 0.019097 0.022258 13391.600000 0 0 1
27.169379 18.456507 20.512713 38.724530 0.596707 1.012539 0.030577 0.008618 407120.000000 0 0 1
27.885579 18.214307 21.863213 39.841770 0.578608 0.989927 0.053730 0.007740 -158093.000000 0 0 1
26.991679 17.644607 22.789413 39.487216 0.578976 0.955582 0.039256 0.018694 216966.000000 0 0 1
27.551779 17.355307 24.084913 40.501732 0.562127 0.933949 0.071409 0.009222 557951.000000 0 0 1
26.506779 16.582307 24.992913 40.027840 0.559022 0.896448 0.050071 0.009331 655344.000000 0 0 1
26.242679 15.280907 24.560713 39.056536 0.527297 0.890723 0.053440 0.011804 678441.000000 0 0 1
24.978779 14.858407 25.081213 38.389828 0.536618 0.858822 0.059922 0.008423 233649.000000 0 0 1
24.482379 13.607907 24.426513 37.164722 0.507304 0.853632 0.063501 0.008688 -111135.000000 0 0 1
23.195579 13.233607 24.871713 36.493361 0.518463 0.820930 0.040869 0.009238 229777.000000 0 0 1
22.705379 12.088707 24.190113 35.310518 0.489243 0.816099 0.058645 0.005644 -444046.000000 0 0 1
21.350979 11.521807 24.635213 34.576149 0.494853 0.777754 0.058544 -0.004463 -610471.000000 0 0 1
20.340279 12.408107 24.239013 33.988496 0.547759 0.776810 0.060820 -0.008216 -741507.000000 0 0 1
19.119479 11.768907 24.486613 33.221317 0.551772 0.742064 0.082152 -0.011348 -406151.000000 0 0 1
17.895979 12.703107 24.623113 32.983825 0.617293 0.727979 0.072734 -0.020607 -125710.000000 0 0 1
17.741279 13.221207 25.914013 34.074762 0.640437 0.706706 0.100387 -0.017598 194756.000000 0 0 1
16.575679 14.010707 26.042813 33.901050 0.701734 0.694770 0.114693 -0.024386 -189613.000000 0 0 1
16.266879 14.414307 27.488713 35.043016 0.725090 0.669023 0.106361 -0.018890 -233849.000000 0 0 1
15.725379 13.365607 28.251513 34.986783 0.704458 0.630910 0.114760 -0.015209 -52755.700000 0 0 1
15.750579 13.578807 29.667313 36.230018 0.711485 0.611374 0.103083 -0.013556 969902.000000 0 0 1
17.094979 13.315507 30.502513 37.415830 0.661750 0.617670 0.105108 -0.020585 1339860.000000 0 0 1
18.093479 14.287307 30.169113 37.969416 0.668391 0.652508 0.128207 -0.029932 918523.000000 0 0 1
19.358479 13.614707 30.035513 38.239286 0.612933 0.667354 0.111193 -0.020968 1291080.000000 0 0 1
20.627279 14.499407 29.682313 38.945567 0.612686 0.704171 0.110077 -0.022574 779886.000000 0 0 1
20.630379 15.109107 28.441013 38.246423 0.632123 0.732320 0.120603 -0.028280 145800.000000 0 0 1
20.487579 14.397507 27.250513 37.008372 0.612565 0.743161 0.110407 -0.017413 -391011.000000 0 0 1
20.368879 15.331607 26.020613 36.428309 0.645225 0.775178 0.059116 -0.008358 -408838.000000 0 0 1
21.530479 16.052607 25.693813 37.167456 0.640664 0.807512 0.062830 0.001097 72222.600000 0 0 1
21.377079 16.635007 24.462813 36.498386 0.661288 0.836259 0.044393 0.000839 -49191.400000 0 0 1
22.633079 17.445407 24.063713 37.358544 0.656676 0.870913 0.042263 0.002334 -200158.000000 0 0 1
22.561279 18.087707 22.793113 36.819865 0.675786 0.903272 0.049184 -0.005600 -121234.000000 0 0 1
23.758679 18.703807 22.371713 37.613838 0.666913 0.933812 0.042463 0.001478 -108031.000000 0 0 1
24.100679 20.084807 22.924313 38.855712 0.694760 0.939755 0.059286 -0.000924 298976.000000 0 0 1
23.025079 21.006407 22.672713 38.541865 0.739584 0.941888 0.051469 0.001492 650873.000000 0 0 1
23.223979 22.167607 23.472313 39.770661 0.762130 0.939500 0.078741 -0.006109 412700.000000 0 0 1
22.367979 23.423547 23.025813 39.738862 0.808446 0.952770 0.071061 -0.019324 348118.000000 0 0 1
22.672279 23.944247 21.763913 39.509836 0.812677 0.987416 0.083195 -0.015102 46036.700000 0 0 1
21.765979 24.989797 21.483113 39.493948 0.854239 0.995648 0.087474 -0.018741 -116656.000000 0 0 1
22.123379 25.902167 20.306613 39.657593 0.863919 1.033228 0.090660 -0.021233 -289561.000000 0 0 1
22.040679 25.359647 19.046813 38.622329 0.855304 1.055083 0.079169 -0.020966 84623.600000 0 0 1
22.349879 26.285757 18.033113 38.931366 0.866148 1.089191 0.086130 -0.024263 4497.530000 0 0 1
22.427079 25.874347 16.556313 38.033764 0.856647 1.120419 0.069580 -0.012753 -102987.000000 0 0 1
21.108179 25.578987 16.185913 36.902894 0.880868 1.116747 0.049089 -0.010636 -150857.000000 0 0 1
21.255979 25.226017 14.830813 36.167964 0.870602 1.148283 0.060400 -0.014002 -182565.000000 0 0 1
19.955279 24.772637 14.152813 34.816646 0.892688 1.152181 0.068262 -0.013328 -26954.600000 0 0 1
18.898179 25.638167 13.865413 34.737681 0.935595 1.160211 0.057625 -0.008690 -64754.700000 0 0 1
18.118279 26.119607 14.955813 35.130930 0.964334 1.131043 0.055367 -0.006900 -260834.000000 0 0 1
16.687179 26.570387 14.506413 34.567086 1.010016 1.137726 0.054255 -0.005749 407496.000000 0 0 1
15.800179 25.628957 13.901113 33.162178 1.018335 1.138248 0.066426 -0.009275 335481.000000 0 0 1
15.385179 24.569337 14.729313 32.516284 1.011339 1.100688 0.082480 -0.026140 -194813.000000 0 0 1
14.375979 24.859147 15.917713 32.833208 1.046488 1.064656 0.088333 -0.032357 -152121.000000 0 0 1
14.816779 25.893447 16.773013 34.224867 1.051053 1.058612 0.083784 -0.026997 -452524.000000 0 0 1
13.978779 26.240847 17.814913 34.660632 1.081324 1.030977 0.073321 -0.029603 -365590.000000 0 0 1
14.488479 27.523917 18.589913 36.236265 1.086256 1.032097 0.072047 -0.031543 -100536.000000 0 0 1
14.547479 28.613607 17.677613 36.645131 1.100442 1.067404 0.067376 -0.017741 464351.000000 0 0 1
15.218179 29.732127 18.249813 38.061109 1.097719 1.070726 0.051002 -0.015174 -138034.000000 0 0 1
15.060879 30.961317 17.365213 38.561430 1.118054 1.103666 0.047473 -0.019243 -499585.000000 0 0 1
13.881679 31.673587 17.610913 38.808007 1.157737 1.099776 0.051631 -0.019702 -231730.000000 0 0 1
13.797079 32.789920 16.724513 39.309638 1.172512 1.131331 0.040715 -0.022586 -174141.000000 0 0 1
12.519179 33.669842 16.723313 39.623949 1.214815 1.135090 0.057218 -0.027678 -21360.300000 0 0 1
12.527979 -32.868737 16.117913 38.692264 -1.206643 1.141131 0.076185 -0.030392 -299900.000000 0 0 1
13.261079 -31.886787 16.839413 38.421209 -1.176676 1.117107 0.076257 -0.028239 -284130.000000 0 0 1
13.014879 -31.496637 18.321513 38.692417 -1.178950 1.077517 0.070769 -0.028763 -259620.000000 0 0 1
13.694679 -32.406677 19.178013 40.069105 -1.170970 1.071710 0.059469 -0.025435 468971.000000 0 0 1
13.325379 -32.236187 20.541713 40.480854 -1.178820 1.038582 0.053397 -0.022765 -303247.000000 0 0 1
14.449779 -32.722477 21.443713 41.705989 -1.154962 1.030764 0.044655 -0.017034 163425.000000 0 0 1
15.662279 -31.985917 21.384413 41.541534 -1.115453 1.030055 0.050843 -0.012797 -145781.000000 0 0 1
16.706079 -32.579217 22.095913 42.763628 -1.096974 1.027806 0.054121 -0.010991 -451493.000000 0 0 1
18.007079 -31.817787 21.841913 42.587506 -1.055795 1.032270 0.084133 -0.015892 -441981.000000 0 0 1
17.988679 -30.480207 22.330013 41.848120 -1.037632 1.007949 0.094401 -0.027203 756856.000000 0 0 1
19.302079 -29.926307 22.496813 42.121975 -0.997953 1.007368 0.106579 -0.030575 396933.000000 0 0 1
-5.257021 12.886583 18.365238 23.043052 -1.183459 0.648490 0.015808 -0.003647 223040.000000 0 1 0
-4.904021 14.101083 17.727438 23.176540 -1.236104 0.699930 0.016180 -0.011165 -12498.600000 0 1 0
-6.060121 14.898283 17.628938 23.863431 -1.184471 0.739593 0.022156 -0.014192 32070.500000 0 1 0
-5.747721 16.374083 17.339538 24.531743 -1.233208 0.785803 0.044848 -0.022792 -325574.000000 0 1 0
-5.241721 16.964383 18.478438 25.626521 -1.271118 0.765455 0.041401 -0.020120 57452.700000 0 0 1
-4.778221 18.278483 18.200238 26.233242 -1.315106 0.804064 0.054608 -0.025737 -407961.000000 0 0 1
-4.071621 18.980583 19.378338 27.429192 -1.359484 0.786276 0.045232 -0.031728 -439950.000000 0 0 1
-4.962621 19.458883 20.369038 28.603731 -1.321088 0.778296 0.018608 -0.030622 277473.000000 0 0 1
-4.268821 20.103183 21.487138 29.733110 -1.361559 0.763143 0.028613 -0.014290 278853.000000 0 0 1
-5.152221 20.268283 22.757938 30.907481 -1.321868 0.743174 0.025521 -0.008565 86616.900000 0 0 1
-5.527021 19.044583 23.362458 30.643898 -1.288341 0.703805 0.022174 -0.009739 370207.000000 0 0 1
-6.470821 19.179583 24.451788 31.742996 -1.245408 0.691477 0.025781 -0.006811 467447.000000 0 0 1
-5.901921 19.761883 25.765758 33.003620 -1.280577 0.675019 0.029874 -0.006948 -594350.000000 0 0 1
-5.623021 21.106683 25.575588 33.633630 -1.310434 0.706841 0.035388 -0.018581 547652.000000 0 0 1
-4.688821 21.735483 26.503078 34.595222 -1.358330 0.698060 0.057019 -0.017807 1177580.000000 0 0 1
-3.180521 21.508483 26.176678 34.028649 -1.423987 0.693123 0.071925 -0.017897 266357.000000 0 0 1
-2.689121 20.169483 26.476018 33.391899 -1.438252 0.655263 0.062804 -0.011673 221393.000000 0 0 1
-1.351021 20.066183 26.013018 32.880907 -1.503570 0.658145 0.060411 -0.014159 -18235.500000 0 0 1
-0.592721 18.943783 26.660818 32.711121 -1.539518 0.618001 0.056898 -0.007962 -498046.000000 0 0 1
-1.043121 17.647683 26.234728 31.635261 -1.511757 0.592965 0.049996 -0.006799 -15818.400000 0 0 1
-0.198121 16.609083 26.733358 31.473374 -1.558868 0.555957 0.047549 -0.005829 752964.000000 0 0 1
1.245979 16.486483 26.149508 30.937895 1.495364 0.563809 0.051746 -0.001053 105427.000000 0 0 1
1.367179 16.175983 24.746388 29.595866 1.486478 0.580582 0.041148 -0.007553 -254320.000000 0 0 1
1.012779 14.814783 24.441138 28.598474 1.502540 0.545957 0.040078 0.000020 -122514.000000 0 0 1
0.941679 14.552583 22.920838 27.166693 1.506178 0.566637 0.049319 -0.019994 130854.000000 0 0 1
2.195079 14.546083 22.260238 26.681924 1.421021 0.583968 0.051377 -0.019431 -107453.000000 0 0 1
2.120879 13.792583 21.099638 25.296802 1.418222 0.584328 0.038192 -0.018482 131495.000000 0 0 1
3.485279 13.440183 20.460038 24.726480 1.317067 0.596237 0.034865 -0.023052 220723.000000 0 1 0
4.152579 14.511583 19.852238 24.938751 1.292088 0.650073 0.060189 -0.029732 -635532.000000 0 1 0
5.531979 14.281283 19.822238 25.049530 1.201235 0.657828 0.069056 -0.025584 -213784.000000 0 0 1
6.324379 15.434983 19.168738 25.410174 1.181919 0.716099 0.088594 -0.037922 -79716.700000 0 0 1
6.090879 15.469883 17.778938 24.341461 1.195711 0.751893 0.077051 -0.040841 252279.000000 0 1 0
6.711479 16.602983 17.114138 24.770884 1.186646 0.808067 0.080229 -0.032345 181212.000000 0 1 0
6.755479 16.266483 15.617938 23.540496 1.177170 0.845376 0.068516 -0.023145 256760.000000 0 1 0
7.888179 15.512983 15.198938 23.105924 1.100381 0.852910 0.061058 -0.010127 324946.000000 0 1 0
7.855179 14.138583 15.543138 22.431952 1.063676 0.805291 0.059976 -0.019129 -532692.000000 0 1 0
8.888979 13.297283 14.807938 21.796942 0.981539 0.823908 0.052738 -0.025859 -1049720.000000 0 1 0
10.204179 13.546383 15.181238 22.761804 0.925201 0.840674 0.058390 -0.028708 -866908.000000 0 1 0
11.008179 12.714983 14.396838 22.138648 0.857221 0.862813 0.054779 -0.018540 912406.000000 0 1 0
12.537279 13.122583 14.285338 23.096675 0.808204 0.903962 0.060699 -0.022989 460980.000000 0 1 0
13.275879 12.789983 15.475738 24.069298 0.766759 0.872432 0.059795 -0.026468 1559620.000000 0 1 0
14.616979 13.335183 15.589538 25.189618 0.739573 0.903471 0.058567 -0.020275 1268960.000000 0 0 1
15.626679 12.911283 14.500838 24.923255 0.690533 0.949832 0.051132 -0.020679 -1641940.000000 0 1 0
16.936679 13.238783 14.872438 26.140120 0.663460 0.965567 0.058506 -0.027705 -186365.000000 0 0 1
17.771079 12.827983 13.798238 25.899030 0.625238 1.008925 0.064878 -0.027369 -479689.000000 0 0 1
19.072279 13.634883 13.673638 27.140933 0.620660 1.042803 0.062069 -0.032512 -193586.000000 0 0 1
19.912679 13.339083 14.785038 28.161024 0.590223 1.018060 0.027457 -0.024419 444663.000000 0 0 1
21.238479 13.789083 14.493238 29.176459 0.575848 1.050953 0.064575 -0.042471 308169.000000 0 0 1
22.266479 13.423083 15.568838 30.304520 0.542504 1.031251 0.072981 -0.031966 -418412.000000 0 0 1
22.573379 12.073783 15.644738 30.001525 0.491152 1.022230 0.088864 -0.033455 522046.000000 0 0 1
23.480079 11.802683 16.711438 31.143050 0.465780 1.004391 0.074032 -0.029411 -159859.000000 0 0 1
23.676779 10.281483 16.951038 30.881005 0.409674 0.989731 0.094772 -0.020129 71613.400000 0 0 1
22.611879 9.503983 17.516438 30.140477 0.397891 0.950643 0.064707 -0.007833 542246.000000 0 0 1
22.536379 8.212983 16.974538 29.384969 0.349474 0.954937 0.072647 0.000664 -289121.000000 0 0 1
21.418779 7.322983 17.562738 28.650304 0.329437 0.910940 0.086097 -0.005633 -195555.000000 0 0 1
21.446279 6.043983 17.003938 28.028673 0.274695 0.918941 0.105632 -0.021843 346943.000000 0 0 1
20.893179 5.158383 17.945638 28.021059 0.242052 0.875733 0.098398 -0.023507 -311040.000000 0 0 1
20.539079 3.796283 17.230838 27.077062 0.182769 0.881022 0.144929 -0.017005 -397318.000000 0 0 1
19.234279 3.797483 16.704638 25.757005 0.194926 0.865122 0.128363 -0.027980 458332.000000 0 0 1
18.613679 2.613783 16.187038 24.805667 0.139510 0.859846 0.109720 -0.021935 119125.000000 0 1 0
18.193779 1.526083 17.234738 25.107344 0.083683 0.814211 0.119191 -0.018711 -276905.000000 0 0 1
19.242779 0.815483 17.890238 26.287072 0.042353 0.822254 0.135622 -0.030678 335980.000000 0 0 1
18.737579 0.293183 19.082338 26.745438 0.015645 0.776344 0.146302 -0.012237 539087.000000 0 0 1
19.796179 -0.523317 19.924438 28.091739 -0.026429 0.782344 0.121061 -0.021817 320109.000000 0 0 1
20.085679 -1.826817 19.494838 28.050320 -0.090702 0.802383 0.124540 -0.018720 209236.000000 0 0 1
18.995479 -2.695417 19.807538 27.575933 -0.140957 0.769454 0.095896 -0.019237 382648.000000 0 0 1
18.851579 -4.019317 18.984838 27.054778 -0.210063 0.792990 0.091606 -0.012244 120167.000000 0 0 1
18.390379 -3.821517 17.616038 25.751404 -0.204884 0.817454 0.113075 -0.023090 195275.000000 0 0 1
18.328379 -4.997417 16.851938 25.394714 -0.266190 0.845175 0.127891 -0.024939 -368949.000000 0 0 1
17.811679 -4.761317 15.435038 24.045092 -0.261207 0.873796 0.107063 -0.029667 818070.000000 0 1 0
16.356179 -4.734417 15.411538 22.966384 -0.281757 0.835175 0.119908 -0.025285 1219100.000000 0 1 0
15.762879 -4.736917 14.157538 21.710427 -0.291925 0.860435 0.107031 -0.021534 40435.800000 0 1 0
16.013879 -3.471617 13.349138 21.135182 -0.213485 0.887172 0.086795 -0.022028 -490881.000000 0 1 0
15.089179 -2.424717 13.544938 20.421262 -0.159330 0.845608 0.083568 -0.018522 264874.000000 0 1 0
15.532779 -1.219317 12.926738 20.244864 -0.078339 0.878223 0.073677 -0.016691 -112571.000000 0 1 0
14.596179 -0.063917 13.301838 19.748201 -0.004379 0.831765 0.083144 -0.008719 -492751.000000 0 1 0
14.861279 1.267683 12.856738 19.691631 0.085095 0.859385 0.076545 -0.009152 -831289.000000 0 1 0
15.970879 1.841383 13.443238 20.956629 0.114789 0.874372 0.098475 -0.022647 -726309.000000 0 1 0
16.233079 3.222183 12.919338 20.995347 0.195948 0.907975 0.091709 -0.022037 -51418.000000 0 1 0
15.237479 4.206983 13.210638 20.600981 0.269383 0.874654 0.075373 -0.014229 426281.000000 0 1 0
15.311079 5.422283 12.498438 20.494908 0.340359 0.914949 0.083511 -0.021264 -1182470.000000 0 1 0
14.098979 6.283383 12.561938 19.901367 0.419241 0.887684 0.066718 -0.026866 -1348500.000000 0 1 0
14.259979 7.504783 11.840938 19.996914 0.484452 0.937087 0.048625 -0.029649 753114.000000 0 1 0
13.320279 8.560183 12.173338 19.972399 0.571186 0.915356 0.043136 -0.020078 -164941.000000 0 1 0
13.676879 9.317183 13.429138 21.312172 0.598021 0.889094 0.058656 -0.027121 -286262.000000 0 1 0
13.383779 8.727283 14.655538 21.681231 0.577835 0.828536 0.072880 -0.030542 438369.000000 0 1 0
13.892379 9.413883 15.777838 23.033878 0.595554 0.816215 0.085628 -0.034225 -326927.000000 0 1 0
13.414679 8.868883 17.116138 23.485589 0.584162 0.754238 0.081518 -0.030331 90341.200000 0 1 0
12.184879 9.472383 17.506538 23.338298 0.660800 0.722552 0.076378 -0.032989 402353.000000 0 1 0
11.399679 8.770583 18.463838 23.404895 0.655784 0.661799 0.083665 -0.025279 196460.000000 0 1 0
11.977279 8.812183 19.924738 24.861717 0.634313 0.641127 0.099925 -0.027322 799205.000000 0 1 0
13.337779 8.318883 19.917038 25.372989 0.557670 0.668148 0.122370 -0.032422 1042310.000000 0 0 1
13.904079 8.412883 21.203038 26.714581 0.544136 0.653949 0.113363 -0.020158 627480.000000 0 0 1
15.447079 8.260083 21.367338 27.629773 0.491047 0.686696 0.097397 -0.017578 1528330.000000 0 0 1
16.386079 9.143883 20.693038 27.934137 0.508985 0.736566 0.094310 -0.019589 876190.000000 0 0 1
17.087979 8.522183 19.625338 27.382120 0.462626 0.771708 0.075353 -0.013871 -54174.500000 0 0 1
17.670279 9.581083 18.690238 27.447421 0.496846 0.821741 0.075787 -0.021168 605241.000000 0 0 1
18.748979 10.303683 19.340138 28.839747 0.502505 0.835770 0.071303 -0.020607 457647.000000 0 0 1
19.475279 11.036483 18.451738 29.009603 0.515568 0.881420 0.068898 -0.023167 -802694.000000 0 0 1
20.609579 11.820883 19.075838 30.469257 0.520753 0.894295 0.056563 -0.013480 -1029280.000000 0 0 1
20.143779 12.820083 20.002238 31.148288 0.566776 0.873481 0.044142 -0.012014 552578.000000 0 0 1
21.032779 13.105683 21.082138 32.536030 0.557237 0.865890 0.043027 -0.004042 663305.000000 0 0 1
22.342579 13.888883 20.708738 33.480498 0.556174 0.903924 0.024046 -0.007567 432602.000000 0 0 1
23.518679 13.130083 20.469138 33.830651 0.509180 0.920971 0.010188 0.006094 8188.780000 0 0 1
24.611379 14.003983 20.607238 35.021276 0.517317 0.941692 0.017477 -0.000065 -390332.000000 0 0 1
25.973979 13.302683 20.499438 35.662809 0.473324 0.958421 0.041569 -0.007244 -279831.000000 0 0 1
26.249679 12.912283 19.161738 34.970629 0.457149 0.990899 0.065833 -0.025310 200885.000000 0 0 1
27.492679 12.235883 19.167938 35.678762 0.418738 1.003639 0.100340 -0.035036 -5201.630000 0 0 1
27.768179 11.680183 17.767338 34.973944 0.398165 1.037916 0.136242 -0.047386 -55497.400000 0 0 1
28.063979 12.686483 16.749538 35.058249 0.424562 1.072690 0.138494 -0.056051 299813.000000 0 0 1
28.363279 12.133483 15.476838 34.514193 0.404230 1.105800 0.165996 -0.053117 387504.000000 0 0 1
27.097779 11.876083 14.588338 32.987128 0.413055 1.112698 0.141379 -0.053825 694790.000000 0 0 1
26.495679 13.043683 14.020538 32.691500 0.457464 1.127550 0.162532 -0.059382 456066.000000 0 0 1
25.344479 12.739083 13.238738 31.303211 0.465755 1.134132 0.154293 -0.044085 275134.000000 0 0 1
24.826179 13.897783 12.394738 31.034127 0.510339 1.159944 0.124641 -0.042318 162860.000000 0 0 1
24.153079 14.905283 13.167538 31.287741 0.552911 1.136411 0.092263 -0.046650 341813.000000 0 0 1
24.710279 16.113783 12.842038 32.174055 0.577856 1.160215 0.078331 -0.030396 -246487.000000 0 0 1
23.741179 17.266683 13.168838 32.174527 0.628806 1.149116 0.075358 -0.036508 -60359.500000 0 0 1
22.587779 17.240183 12.356538 30.985734 0.651929 1.160609 0.091767 -0.057297 -146621.000000 0 0 1
21.802879 18.344883 12.677938 31.187022 0.699478 1.152162 0.079423 -0.050839 -893055.000000 0 0 1
20.760179 18.738383 11.581638 30.269562 0.734256 1.178170 0.097652 -0.030949 482756.000000 0 0 1
19.722979 17.809483 11.343838 28.893879 0.734460 1.167336 0.098953 -0.032001 1078760.000000 0 0 1
18.736079 17.527283 12.397238 28.494522 0.752077 1.120675 0.089738 -0.027481 1258770.000000 0 0 1
17.310079 17.149483 11.850038 27.095516 0.780738 1.118154 0.089847 -0.013066 583181.000000 0 0 1
17.286179 15.766083 11.568838 26.100179 0.739440 1.111578 0.093345 -0.012605 408747.000000 0 0 1
15.997779 15.282883 11.213638 24.804054 0.762548 1.101690 0.090952 -0.010490 191496.000000 0 1 0
16.000979 13.988583 10.388338 23.656486 0.718395 1.116163 0.090047 -0.018307 -23934.400000 0 1 0
16.121679 12.751983 11.117838 23.369380 0.669219 1.074987 0.084914 -0.014159 342312.000000 0 1 0
16.468379 11.678883 10.243338 22.639121 0.616854 1.101272 0.072546 -0.010894 -43070.600000 0 1 0
16.836479 10.345883 10.960038 22.597052 0.551007 1.064410 0.074851 -0.019916 -50068.400000 0 1 0
17.552779 9.449683 10.074338 22.335820 0.493861 1.102867 0.077930 -0.021266 686807.000000 0 1 0
18.225879 8.378483 10.666038 22.718847 0.430893 1.082095 0.098450 -0.021510 280742.000000 0 1 0
19.590079 8.604983 11.349338 24.220330 0.413880 1.083105 0.091925 -0.025063 -532275.000000 0 1 0
19.363979 9.279283 12.574238 24.883332 0.446872 1.041035 0.084024 -0.024101 -355363.000000 0 1 0
20.408079 9.299883 13.485938 26.169601 0.427581 1.029406 0.098548 -0.024233 -1758520.000000 0 0 1
19.971879 9.604983 14.921038 26.716456 0.448272 0.978225 0.065946 -0.014788 -66550.300000 0 0 1
19.212679 8.561183 15.536138 26.149426 0.419189 0.934614 0.074525 -0.018335 1070180.000000 0 0 1
17.938179 8.241183 14.964038 24.771310 0.430661 0.922176 0.088431 -0.029373 -495782.000000 0 1 0
17.557379 6.901483 15.481838 24.404494 0.374528 0.883584 0.114403 -0.031868 -496223.000000 0 1 0
16.652279 6.920583 16.543238 24.471853 0.393877 0.828461 0.125348 -0.030610 -158918.000000 0 1 0
16.362179 5.583883 16.909938 24.183603 0.328874 0.796474 0.132381 -0.015526 -298823.000000 0 1 0
15.033079 5.443383 17.696638 23.849421 0.347408 0.734725 0.130330 -0.016816 365693.000000 0 1 0
14.430879 4.152483 17.849438 23.325862 0.280181 0.699412 0.140097 -0.012766 506852.000000 0 1 0
13.957079 3.552983 16.624338 21.995280 0.249270 0.713900 0.132985 -0.013060 -364758.000000 0 1 0
13.721879 2.036383 16.733738 21.736025 0.147329 0.692172 0.122340 -0.010802 991945.000000 0 1 0
14.945679 1.372383 17.176338 22.809720 0.091568 0.718146 0.124597 -0.006612 1152040.000000 0 1 0
14.904279 -0.092217 17.029638 22.630833 -0.006187 0.718951 0.129156 -0.002448 -179301.000000 0 1 0
13.833579 -0.810317 17.890238 22.629298 -0.058509 0.659043 0.126978 -0.011220 841367.000000 0 1 0
12.476379 -0.604517 17.465838 21.472796 -0.048415 0.620834 0.125627 -0.010640 558634.000000 0 1 0
11.630179 -1.308017 18.373538 21.784372 -0.111997 0.567165 0.117584 -0.016440 229422.000000 0 1 0
-25.818631 14.074183 28.155418 40.711323 -0.499087 0.807113 0.097687 -0.013915 -79034.900000 0 0 1
-25.226711 13.893883 29.456088 41.195728 -0.503427 0.774133 0.080153 -0.003999 412474.000000 0 0 1
-24.780121 12.567783 29.668748 40.647732 -0.469369 0.752622 0.069892 -0.008915 302926.000000 0 0 1
-23.625821 12.468383 30.716038 40.707677 -0.485596 0.715826 0.075887 -0.021503 -10730.100000 0 0 1
-24.101921 12.843183 32.014868 42.080894 -0.489596 0.706262 0.071554 -0.023461 -218131.000000 0 0 1
-23.123721 12.947183 32.999240 42.323584 -0.510419 0.676627 0.056920 -0.015454 -994560.000000 0 0 1
-23.715921 13.250883 -33.498317 43.129665 -0.509524 2.460188 0.045146 -0.004284 -77321.500000 0 0 1
-24.361321 12.126583 -32.918677 42.710271 -0.461870 2.450804 0.046467 -0.005866 -76168.100000 0 0 1
-24.985421 12.476683 -31.743877 42.280167 -0.463134 2.420066 0.034656 -0.003560 -199201.000000 0 0 1
-25.766071 11.303983 -31.072727 41.918788 -0.413430 2.405742 0.023757 -0.005085 -154414.000000 0 0 1
-24.967121 10.346183 -30.444717 40.709721 -0.392852 2.415612 0.034792 -0.009213 -82149.100000 0 0 1
-24.447521 9.324283 -31.259797 40.765162 -0.364370 2.444678 0.036495 -0.008532 -154954.000000 0 0 1
-23.531821 8.416083 -30.415597 39.366046 -0.343471 2.453778 0.047679 0.001120 -268815.000000 0 0 1
-24.192121 7.718383 -29.349417 38.810055 -0.308837 2.428332 0.047497 0.000777 76118.300000 0 0 1
-23.372321 6.825683 -28.671637 37.615397 -0.284139 2.437550 0.046464 0.005329 -164712.000000 0 0 1
-24.169821 5.973383 -27.614257 37.180757 -0.242287 2.407894 0.049917 0.004917 463177.000000 0 0 1
-24.813721 4.755483 -28.092617 37.782674 -0.189351 2.409133 0.052598 -0.001362 476698.000000 0 0 1
-25.309581 4.020883 -26.976487 37.208510 -0.157551 2.381843 0.075806 -0.001859 -448683.000000 0 0 1
-26.157471 2.736883 -27.291007 37.901225 -0.104252 2.374679 0.072173 -0.005475 730834.000000 0 0 1
-27.481901 2.932283 -27.774767 39.182787 -0.106297 2.358665 0.091106 -0.008426 377264.000000 0 0 1
-27.631711 3.633783 -28.996127 40.218045 -0.130757 2.376002 0.088983 -0.011886 -455792.000000 0 0 1
-29.032081 3.357083 -29.632827 41.620141 -0.115122 2.363114 0.092698 -0.017381 685243.000000 0 0 1
-30.112671 3.814583 -28.814297 41.851973 -0.126006 2.330189 0.085881 -0.020525 931590.000000 0 0 1
-31.439181 3.827683 -29.340377 43.173266 -0.121153 2.318008 0.095243 -0.025068 855715.000000 0 0 1
-31.730131 5.097983 -30.146077 44.063324 -0.159305 2.324239 0.090504 -0.036527 -991301.000000 0 0 1
-30.869741 5.327083 -31.210597 44.220132 -0.170883 2.354349 0.079575 -0.031465 -146076.000000 0 0 1
-31.004661 6.591783 -31.896497 44.968067 -0.209487 2.359321 0.082059 -0.027943 -675285.000000 0 0 1
-30.768601 7.949383 -31.136027 44.489905 -0.252831 2.345976 0.054198 -0.022776 645488.000000 0 0 1
-29.374311 8.327883 -31.018397 43.524070 -0.276260 2.364097 0.029648 -0.024933 995645.000000 0 0 1
-28.825931 7.835683 -29.822377 42.210264 -0.265414 2.355364 0.028538 -0.028669 -615224.000000 0 0 1
-29.021001 8.720283 -28.591267 41.662001 -0.291899 2.327141 0.027820 -0.017649 606988.000000 0 0 1
-30.366711 8.764683 -28.075937 42.275466 -0.280991 2.297111 0.035157 -0.017422 992336.000000 0 0 1
-30.771521 7.736383 -27.222337 41.806623 -0.246309 2.279894 0.046763 -0.009401 -784960.000000 0 0 1
-31.990931 8.205683 -26.456767 42.316821 -0.251087 2.246193 0.032241 -0.007943 -597999.000000 0 0 1
-31.698311 8.952783 -25.294937 41.530339 -0.275267 2.225685 0.021122 0.000251 91212.900000 0 0 1
-31.601961 8.154083 -24.099987 40.570708 -0.252517 2.206849 0.040356 -0.000947 -141143.000000 0 0 1
-31.030611 9.060783 -23.002687 39.675183 -0.284097 2.189249 0.051584 0.003331 -255149.000000 0 0 1
-31.896831 10.030283 -22.431787 40.264121 -0.304670 2.161705 0.049529 0.010379 84458.500000 0 0 1
-31.214991 10.872683 -21.578787 39.474484 -0.335174 2.149156 0.050974 0.007841 -156116.000000 0 0 1
-32.220361 11.773883 -20.822087 40.128983 -0.350343 2.116335 0.053800 0.011873 154616.000000 0 0 1
-32.888211 11.063683 -19.772687 39.937434 -0.324510 2.088737 0.066815 0.004790 133357.000000 0 0 1
-33.732391 11.872283 -18.980087 40.485417 -0.338415 2.058743 0.057853 0.007820 -478151.000000 0 0 1
-33.174351 13.070783 -18.161087 40.015097 -0.375326 2.041884 0.061300 0.006085 -90262.100000 0 0 1
-32.307051 12.576383 -17.102787 38.657680 -0.371228 2.029088 0.104662 -0.003803 682013.000000 0 0 1
-32.977581 12.014083 -15.983587 38.565970 -0.349366 1.998132 0.091904 -0.002703 60356.200000 0 0 1
-33.756941 13.018683 -15.074287 39.195041 -0.368083 1.965567 0.074304 0.009743 110628.000000 0 0 1
-34.707144 13.867383 -15.677287 40.529834 -0.380122 1.967965 0.049386 0.006082 -221372.000000 0 0 1
-35.399945 14.593283 -14.706687 41.017150 -0.391014 1.937510 0.030269 0.010516 122063.000000 0 0 1
-36.204171 15.751683 -15.377087 42.371125 -0.410377 1.942190 0.028941 0.002731 -138566.000000 0 0 1
-37.189541 15.386483 -16.285687 43.416925 -0.392288 1.955301 0.031233 -0.007780 -194434.000000 0 0 1
36.891673 16.492883 -16.888087 43.797468 0.420408 1.966649 0.024019 -0.015251 -910466.000000 0 0 1
36.641883 16.251983 -18.385487 44.099667 0.417465 2.000837 0.024824 -0.010760 -62325.400000 0 0 1
35.525683 15.552783 -18.874687 43.130233 0.412654 2.023747 0.046001 -0.013809 160012.000000 0 0 1
34.282323 16.151983 -18.585687 42.208909 0.440299 2.026758 0.078733 -0.021399 -357920.000000 0 0 1
33.049253 15.217183 -18.752287 40.932433 0.431501 2.046684 0.083144 -0.030854 157746.000000 0 0 1
32.702443 14.931783 -20.127387 41.200966 0.428325 2.081186 0.079512 -0.025797 395692.000000 0 0 1
31.816343 13.833683 -20.307587 40.200106 0.410140 2.100367 0.064720 -0.019562 285925.000000 0 0 1
32.504303 12.430183 -20.055287 40.165329 0.365257 2.093608 0.059538 -0.004856 135521.000000 0 0 1
32.688773 12.085383 -18.670287 39.537223 0.354125 2.062604 0.065614 -0.009652 250828.000000 0 0 1
33.336793 10.829183 -18.460387 39.615639 0.314089 2.055547 0.065961 -0.010326 8627.950000 0 0 1
33.582703 10.606383 -16.948687 39.083901 0.305915 2.019335 0.058904 -0.004725 -222118.000000 0 0 1
32.373553 10.460383 -16.257487 37.706398 0.312526 2.016574 0.064757 -0.009922 52710.700000 0 0 1
32.664243 10.277383 -14.854487 37.326039 0.304831 1.980095 0.036463 -0.009038 286233.000000 0 0 1
31.967863 11.438883 -14.054787 36.746828 0.343628 1.963271 0.061226 -0.018977 -347043.000000 0 0 1
30.579333 11.297383 -13.954887 35.460758 0.353892 1.975265 0.056248 -0.010244 66021.900000 0 0 1
29.887353 12.226583 -13.086287 34.842418 0.388317 1.955824 0.076203 -0.014320 378317.000000 0 0 1
28.350913 12.131083 -13.194487 33.541496 0.404316 1.975099 0.081695 -0.015893 -574539.000000 0 0 1
27.835213 11.061083 -12.455587 32.438993 0.378243 1.964888 0.065589 -0.015301 1122410.000000 0 0 1
26.401613 10.889283 -12.567987 31.202179 0.391191 1.985361 0.074432 -0.010208 1163040.000000 0 0 1
25.942413 10.148083 -13.892987 31.128885 0.372878 2.033429 0.057911 -0.016638 -615811.000000 0 0 1
26.432913 8.827783 -14.015987 31.194175 0.322323 2.036794 0.045716 -0.010165 192771.000000 0 0 1
27.777113 8.696583 -14.415187 32.480705 0.303417 2.030640 0.054994 -0.016676 -212502.000000 0 0 1
28.574313 7.664283 -13.547287 32.538617 0.262055 2.000218 0.061387 -0.013598 -298744.000000 0 0 1
28.313613 6.269883 -13.616987 32.037391 0.217927 2.009796 0.049003 -0.019554 1114280.000000 0 0 1
27.103213 5.852783 -12.937687 30.597761 0.212678 2.007364 0.075025 -0.019980 668912.000000 0 0 1
26.782113 4.326283 -12.944087 30.059070 0.160153 2.015978 0.083331 -0.014158 -417847.000000 0 0 1
25.705713 4.044683 -12.107687 28.700858 0.156066 2.006290 0.104798 -0.017752 -4104.900000 0 0 1
25.313213 2.684183 -12.122187 28.194166 0.105644 2.015238 0.108034 -0.023960 59889.900000 0 0 1
24.712613 2.147583 -10.799887 27.054813 0.086685 1.981425 0.123406 -0.024758 -35629.900000 0 0 1
25.707513 1.898783 -9.832187 27.589011 0.073727 1.935188 0.142185 -0.015691 466906.000000 0 0 1
25.175213 1.039883 -8.836287 26.701174 0.041282 1.908088 0.157829 -0.011289 398460.000000 0 0 1
26.299913 0.601683 -7.797387 27.438052 0.022874 1.858949 0.202998 -0.004850 325022.000000 0 0 1
26.139713 -0.521317 -6.929087 27.047525 -0.019941 1.829867 0.172678 -0.020074 183464.000000 0 0 1
25.985113 -1.746917 -7.572787 27.122406 -0.067127 1.853765 0.133669 -0.028772 -271122.000000 0 0 1
26.471713 -2.860017 -6.621787 27.436825 -0.107623 1.814550 0.146861 -0.034933 -257449.000000 0 0 1
27.855013 -2.898617 -6.346887 28.715618 -0.103688 1.793662 0.144740 -0.037795 290638.000000 0 0 1
28.227013 -3.943017 -5.485987 29.024261 -0.138791 1.760954 0.148399 -0.053483 -1698190.000000 0 0 1
29.695293 -4.082917 -5.348087 30.448033 -0.136637 1.747359 0.166875 -0.053960 -1476380.000000 0 0 1
30.410373 -4.450317 -6.535087 31.421386 -0.145311 1.780308 0.123020 -0.046750 -257259.000000 0 0 1
31.736043 -4.735117 -6.243687 32.689163 -0.148111 1.762979 0.103449 -0.032406 -400194.000000 0 0 1
32.691183 -5.240717 -7.379587 33.921039 -0.158957 1.790102 0.115114 -0.043544 143979.000000 0 0 1
32.329773 -6.462117 -8.006587 33.927550 -0.197281 1.809034 0.128502 -0.064119 -283333.000000 0 0 1
32.694453 -6.630117 -9.379487 34.653434 -0.200077 1.844881 0.119773 -0.036757 -331877.000000 0 0 1
31.596453 -7.383917 -10.255587 34.029916 -0.229574 1.876925 0.114438 -0.032613 1912550.000000 0 0 1
30.332783 -6.687117 -10.405187 32.757643 -0.216988 1.894037 0.100035 -0.055419 1506450.000000 0 0 1
29.572413 -6.394717 -9.235787 31.634155 -0.212960 1.867068 0.135484 -0.057927 -1053340.000000 0 0 1
28.346113 -5.459917 -9.451087 30.374922 -0.190286 1.887197 0.129651 -0.047047 -97185.700000 0 0 1
27.210013 -6.151417 -9.870287 29.591339 -0.222334 1.910866 0.107949 -0.043132 -788069.000000 0 0 1
26.126413 -5.339017 -10.084487 28.509498 -0.201578 1.932346 0.105263 -0.034973 60170.300000 0 0 1
24.733213 -5.909417 -9.638987 27.194910 -0.234530 1.933112 0.126266 -0.031784 -72058.700000 0 0 1
24.646913 -6.065817 -8.243687 26.687504 -0.241313 1.884829 0.131403 -0.040366 398747.000000 0 0 1
23.449113 -6.669017 -7.808587 25.599038 -0.277088 1.880771 0.129717 -0.043601 644246.000000 0 0 1
22.270713 -5.621917 -7.553287 24.179387 -0.247270 1.888499 0.125392 -0.026476 330726.000000 0 1 0
21.976513 -4.810017 -8.645587 24.100821 -0.215473 1.937699 0.146587 -0.027278 116974.000000 0 1 0
21.586113 -3.546017 -8.263487 23.384177 -0.162819 1.931977 0.118694 -0.027781 -232497.000000 0 1 0
21.719013 -2.534617 -9.442687 23.818148 -0.116175 1.978442 0.130799 -0.014697 -435219.000000 0 1 0
23.074013 -2.300517 -9.721787 25.143898 -0.099373 1.967788 0.129539 -0.022692 332667.000000 0 0 1
23.220413 -1.855217 -11.062887 25.787921 -0.079727 2.014176 0.142714 -0.018829 -746653.000000 0 0 1
24.638813 -2.004317 -11.574087 27.295565 -0.081169 2.008685 0.119808 -0.020016 -361060.000000 0 0 1
25.633013 -1.091117 -11.070387 27.942716 -0.042541 1.978151 0.103419 -0.022182 977451.000000 0 0 1
26.864813 -1.382317 -11.727687 29.345658 -0.051409 1.981920 0.097768 -0.022734 -333128.000000 0 0 1
27.849413 -0.251017 -11.433487 30.106103 -0.009013 1.960347 0.088220 -0.013942 -593044.000000 0 0 1
29.146813 -0.566817 -11.899787 31.487504 -0.019445 1.958346 0.076955 -0.017922 614582.000000 0 0 1
30.150093 0.441883 -11.748887 32.361392 0.014655 1.942338 0.071598 -0.011056 393456.000000 0 0 1
30.129833 1.711283 -12.728187 32.752742 0.056736 1.969924 0.075757 -0.011565 -459310.000000 0 0 1
30.374153 1.334683 -14.067687 33.500304 0.043913 2.004161 0.068325 -0.015033 374597.000000 0 0 1
30.503353 2.516383 -14.806087 34.000102 0.082309 2.021359 0.074049 -0.014154 -185254.000000 0 0 1
30.874953 2.291983 -16.250287 34.965522 0.074098 2.054151 0.067824 -0.014392 -335406.000000 0 0 1
29.808703 1.755583 -17.007487 34.364160 0.058827 2.088538 0.067479 -0.004162 -31789.300000 0 0 1
30.094013 1.441283 -18.363787 35.283928 0.047856 2.118183 0.053279 -0.006914 -537766.000000 0 0 1
28.973813 0.715683 -19.117887 34.720133 0.024696 2.153913 0.047556 -0.005236 -490796.000000 0 0 1
28.765613 -0.652617 -18.871187 34.409419 -0.022684 2.151283 0.058714 -0.002516 254267.000000 0 0 1
28.224913 -1.326417 -19.967287 34.599099 -0.046960 2.185975 0.042019 -0.005710 -373225.000000 0 0 1
28.106413 -2.861017 -19.742187 34.466068 -0.101443 2.180715 0.058552 -0.019241 527835.000000 0 0 1
26.835313 -3.280317 -19.219087 33.170285 -0.121635 2.188797 0.072407 -0.011529 925379.000000 0 0 1
26.733513 -4.715417 -19.274887 33.293200 -0.174590 2.188229 0.081210 -0.013020 -41042.100000 0 0 1
27.466513 -5.417117 -18.102687 33.338593 -0.194727 2.144796 0.068809 -0.015748 -920028.000000 0 0 1
28.825613 -5.527817 -18.306587 34.591962 -0.189467 2.128471 0.061518 -0.010750 -1034580.000000 0 0 1
29.526113 -5.704217 -17.101787 34.594806 -0.190841 2.087878 0.054989 -0.015682 65525.400000 0 0 1
31.021873 -5.325317 -17.263387 35.899027 -0.170006 2.072463 0.065191 -0.004888 288237.000000 0 0 1
31.750613 -6.284017 -18.042087 37.055461 -0.195393 2.079327 0.049615 -0.007944 742097.000000 0 0 1
33.057173 -5.797617 -18.360987 38.255913 -0.173616 2.071396 0.071855 -0.008886 566786.000000 0 0 1
33.930863 -6.736917 -19.245787 39.586486 -0.195999 2.078499 0.068533 -0.005241 -132675.000000 0 0 1
34.314943 -7.806017 -18.430787 39.725850 -0.223675 2.053245 0.068780 -0.008252 -93257.000000 0 0 1
34.951293 -8.802917 -19.189187 40.832697 -0.246731 2.060027 0.060143 0.000256 -125768.000000 0 0 1
35.809983 -9.705617 -18.248787 41.346972 -0.264673 2.027907 0.079681 -0.004910 -1042730.000000 0 0 1
35.060023 -10.385817 -17.320187 40.460590 -0.287994 2.013159 0.056408 -0.014477 -308417.000000 0 0 1
35.744143 -11.150117 -16.364387 40.862722 -0.302377 1.982829 0.075371 -0.015382 -561405.000000 0 0 1
36.614103 -10.433717 -15.314387 41.036392 -0.277606 1.953242 0.103510 -0.016378 -105838.000000 0 0 1
37.119723 -11.135417 -14.142487 41.253864 -0.291444 1.920709 0.086934 -0.017834 792774.000000 0 0 1
-36.904681 -12.434917 -14.289887 41.482327 0.324999 1.922483 0.083728 -0.010387 239194.000000 0 0 1
-35.422936 -12.376417 -14.786787 40.331243 0.336131 1.946184 0.116940 -0.013071 190747.000000 0 0 1
-35.291886 -11.853617 -16.121787 40.570155 0.324035 1.979457 0.129799 -0.013639 596265.000000 0 0 1
-33.956541 -12.087617 -16.590887 39.678894 0.341986 2.002181 0.166209 -0.016268 503077.000000 0 0 1
-33.610541 -11.302917 -17.879187 39.712589 0.324410 2.037802 0.195385 -0.014200 103129.000000 0 0 1
-33.850651 -9.903017 -17.706487 39.464617 0.284608 2.036070 0.178108 -0.013279 888086.000000 0 0 1
-35.146737 -9.411317 -18.093787 40.635589 0.261634 2.032272 0.161666 -0.015467 259743.000000 0 0 1
-35.362324 -7.913417 -17.906987 40.419999 0.220154 2.029764 0.190047 -0.019379 -411573.000000 0 0 1
-36.506871 -7.465817 -18.577787 41.636813 0.201723 2.033296 0.157737 -0.020721 -220656.000000 0 0 1
-36.828801 -6.139017 -18.257887 41.561984 0.165172 2.025608 0.139447 -0.023682 -75927.800000 0 0 1
25.015279 27.580283 -26.713527 45.826288 0.834128 2.193127 0.041839 0.016399 96187.200000 0 0 1
25.584379 26.639883 -25.847947 45.081705 0.805606 2.181395 0.031830 0.007147 394726.000000 0 0 1
26.908879 26.248883 -26.234137 45.840174 0.772983 2.180099 0.041693 0.005940 578685.000000 0 0 1
27.524179 25.190683 -25.316527 45.089660 0.741161 2.166958 0.045480 0.000211 -259000.000000 0 0 1
27.972779 25.700783 -24.068987 44.970243 0.743094 2.135565 0.041195 0.005463 185832.000000 0 0 1
28.057479 24.685483 -23.067587 43.917067 0.721552 2.123809 0.045849 0.003429 -955.280000 0 0 1
28.750479 25.230283 -21.811087 44.032723 0.720278 2.089020 0.039751 0.012839 -352023.000000 0 0 1
27.976279 26.108083 -21.068687 43.682877 0.750870 2.074086 0.030948 0.000574 -105659.000000 0 0 1
28.644479 26.626983 -19.917987 43.888821 0.748913 2.041853 0.013342 0.004570 298033.000000 0 0 1
27.754179 27.739283 -19.267587 43.715011 0.785130 2.027235 0.022975 0.001081 187232.000000 0 0 1
26.815679 27.192083 -18.347987 42.369076 0.792367 2.018672 0.036388 -0.003037 319322.000000 0 0 1
25.863079 28.223383 -18.042687 42.320169 0.829010 2.011237 0.038137 -0.009305 -48400.900000 0 0 1
24.848379 27.752283 -16.996687 40.945311 0.840549 1.998857 0.045761 -0.016195 -272713.000000 0 0 1
23.965479 26.786083 -17.553087 39.999366 0.840918 2.025097 0.057639 -0.013581 -203891.000000 0 0 1
22.802179 26.748383 -16.761287 38.940417 0.864870 2.015770 0.042737 0.000597 -522505.000000 0 0 1
21.688479 25.959383 -17.413287 38.046054 0.874794 2.046191 0.044747 -0.007257 -870975.000000 0 0 1
21.130579 26.429483 -18.596487 38.611504 0.896356 2.073311 0.038270 -0.006524 62611.700000 0 0 1
20.353979 25.383483 -19.218587 37.788355 0.894923 2.104337 0.040524 -0.001456 525841.000000 0 0 1
19.615579 25.801383 -20.538887 38.370929 0.920766 2.135626 0.036177 0.003236 770194.000000 0 0 1
18.531779 26.707083 -20.384887 38.369763 0.964183 2.130901 0.018391 0.004962 139212.000000 0 0 1
17.534679 26.586183 -21.399087 38.369402 0.987743 2.162423 0.028800 -0.005864 108986.000000 0 0 1
16.432879 27.620783 -21.154987 38.477014 1.034101 2.152931 0.030896 0.001613 -475478.000000 0 0 1
15.701679 27.324583 -20.011487 37.331423 1.049236 2.136547 0.041103 0.002426 -438738.000000 0 0 1
14.841379 28.370983 -19.639987 37.562059 1.088826 2.121008 0.030556 -0.002481 -8861.000000 0 0 1
14.489179 28.364383 -18.125387 36.647021 1.098528 2.088164 0.026917 0.000087 430081.000000 0 0 1
13.627879 27.268283 -17.776587 35.288601 1.107332 2.098729 0.024855 0.001116 129147.000000 0 0 1
13.048279 27.422883 -16.477087 34.550926 1.126681 2.067913 0.050666 -0.003049 34961.900000 0 0 1
12.060679 26.279983 -16.221887 33.154895 1.140541 2.082055 0.067876 -0.007894 -75576.400000 0 0 1
12.739979 25.047383 -16.218087 32.445412 1.100264 2.094231 0.048376 -0.005538 166159.000000 0 0 1
11.810879 23.977083 -16.073087 31.188804 1.113094 2.112210 0.083931 -0.010400 293304.000000 0 0 1
12.564279 22.627583 -16.083687 30.472177 1.063921 2.126823 0.065426 -0.006663 220300.000000 0 0 1
13.022879 22.406883 -17.395987 31.213525 1.044315 2.161953 0.055216 0.001100 -567487.000000 0 0 1
13.983279 21.400783 -17.499987 30.980238 0.992034 2.171079 0.054933 0.006606 -363754.000000 0 0 1
13.445579 19.985283 -17.653087 29.863466 0.978577 2.203251 0.068601 -0.004421 103904.000000 0 0 1
12.778979 19.407983 -16.514987 28.508190 0.988511 2.188674 0.090435 -0.018389 -14070.600000 0 0 1
12.543079 18.039083 -16.684387 27.588151 0.963213 2.220269 0.082636 -0.017429 -152646.000000 0 0 1
13.740879 17.066183 -16.601287 27.489436 0.892922 2.219200 0.100320 -0.015182 -379098.000000 0 0 1
14.288779 16.846283 -15.327287 26.886654 0.867356 2.177388 0.096455 -0.018800 255751.000000 0 0 1
15.241579 15.778783 -15.510487 26.867283 0.802714 2.186215 0.117226 -0.024037 -737986.000000 0 0 1
15.792379 15.277183 -14.171687 26.146286 0.768818 2.143630 0.157000 -0.027947 -1865880.000000 0 0 1
16.553979 16.179483 -13.394787 26.743788 0.773958 2.095384 0.134316 -0.024709 1015110.000000 0 0 1
17.837479 16.552683 -13.935787 28.042345 0.748056 2.090883 0.108306 -0.019798 353145.000000 0 0 1
18.758379 15.342283 -14.384087 28.180922 0.685554 2.106469 0.107410 -0.024263 -1960350.000000 0 0 1
19.162779 14.470583 -13.364187 27.481109 0.646783 2.078652 0.118312 -0.034023 -511976.000000 0 0 1
20.439279 14.891383 -12.984187 28.427214 0.629642 2.045137 0.122039 -0.025068 -887868.000000 0 0 1
21.342479 13.725283 -12.542687 28.305544 0.571507 2.029870 0.131768 -0.037838 -414164.000000 0 0 1
20.930179 13.218483 -11.285087 27.205769 0.563297 1.998525 0.215179 -0.039771 757176.000000 0 0 1
21.852379 12.276583 -10.677787 27.244377 0.511855 1.973521 0.236294 -0.021172 157423.000000 0 0 1
21.760579 10.833483 -11.243087 26.782348 0.461925 2.004015 0.189137 -0.030610 -508552.000000 0 0 1
22.491179 10.685783 -12.447087 27.838266 0.443538 2.034341 0.141478 -0.018325 508405.000000 0 0 1
22.314679 9.349483 -13.094587 27.510470 0.396764 2.066881 0.113052 -0.018636 -261412.000000 0 0 1
22.962679 8.208383 -12.346387 27.333047 0.343311 2.039468 0.111528 -0.003590 -525953.000000 0 0 1
22.064779 7.708983 -11.384087 25.997699 0.336122 2.024045 0.128476 -0.018225 364456.000000 0 0 1
22.611279 6.801083 -10.459487 25.824902 0.292175 1.987792 0.120327 -0.003900 -761345.000000 0 0 1
22.859479 5.336083 -11.007287 25.926626 0.229323 2.009267 0.141628 -0.014735 591926.000000 0 0 1
21.716279 4.512583 -11.351487 24.916188 0.204882 2.043828 0.156665 -0.034188 1010090.000000 0 1 0
20.882979 5.018783 -12.371587 24.785947 0.235856 2.093399 0.101207 -0.036861 -482760.000000 0 1 0
19.756079 4.078783 -12.770087 23.874971 0.203597 2.135154 0.104256 -0.053710 -261954.000000 0 1 0
20.312879 3.144883 -13.671687 24.686401 0.153603 2.157735 0.107148 -0.041328 496614.000000 0 1 0
19.732779 1.887983 -13.620587 24.051350 0.095387 2.172822 0.118304 -0.041899 -633222.000000 0 1 0
20.591879 1.030983 -14.492087 25.201369 0.050026 2.183464 0.129976 -0.028231 -472904.000000 0 0 1
21.849179 0.771483 -13.920587 25.918421 0.035295 2.137783 0.153670 -0.019055 511999.000000 0 0 1
22.880079 0.254483 -14.786287 27.243294 0.011122 2.144504 0.099118 -0.024663 521238.000000 0 0 1
22.883479 -1.237817 -15.235387 27.519136 -0.054040 2.157512 0.090494 -0.019544 -1090740.000000 0 0 1
21.869879 -1.646117 -16.087787 27.199599 -0.075127 2.203679 0.086188 -0.016191 -118160.000000 0 0 1
22.339379 -2.575317 -17.046587 28.218190 -0.114775 2.219431 0.078893 -0.018688 -98374.600000 0 0 1
21.187579 -3.246017 -17.834187 27.883837 -0.152022 2.264759 0.076924 -0.021759 -132124.000000 0 0 1
20.495679 -4.159817 -17.017087 26.962162 -0.200241 2.253827 0.096246 -0.022549 367946.000000 0 0 1
19.505679 -4.863617 -17.763187 26.826426 -0.244361 2.294484 0.071325 -0.024554 255030.000000 0 0 1
18.804879 -5.943617 -16.896787 25.970204 -0.306132 2.279200 0.074077 -0.028927 -480490.000000 0 0 1
19.750279 -6.870617 -16.513087 26.645093 -0.334780 2.239210 0.076687 -0.021475 11804.400000 0 0 1
19.196279 -7.834217 -15.643587 25.972946 -0.387479 2.217179 0.085714 -0.015716 -126354.000000 0 0 1
20.147379 -8.959817 -15.190487 26.775849 -0.418449 2.174045 0.109024 -0.014668 -145353.000000 0 0 1
20.535179 -9.829017 -16.237487 27.963533 -0.446416 2.190343 0.093735 -0.024185 405584.000000 0 0 1
21.616179 -10.601517 -15.735387 28.762020 -0.455973 2.149679 0.093851 -0.034492 -431175.000000 0 0 1
22.204779 -11.409217 -16.873987 30.132273 -0.474641 2.165179 0.086834 -0.029916 -720513.000000 0 0 1
23.154279 -10.710617 -17.622887 31.006517 -0.433263 2.175308 0.078310 -0.025861 -155901.000000 0 0 1
23.639179 -11.440817 -18.742287 32.264166 -0.450747 2.190632 0.083245 -0.025774 137136.000000 0 0 1
22.730479 -11.454817 -20.031387 32.390492 -0.466795 2.237545 0.091775 -0.020829 1053930.000000 0 0 1
21.421479 -12.034117 -19.950787 31.650176 -0.511841 2.252804 0.086710 -0.028190 732767.000000 0 0 1
21.343179 -13.476617 -19.983287 32.194445 -0.563206 2.240439 0.078817 -0.019197 685753.000000 0 0 1
19.860079 -14.013917 -19.864687 31.391375 -0.614496 2.255970 0.072937 -0.016391 980186.000000 0 0 1
19.091379 -13.595217 -20.968687 31.448315 -0.618809 2.300658 0.072870 -0.007990 837510.000000 0 0 1
17.686279 -13.901017 -20.769887 30.617494 -0.666132 2.316334 0.065707 -0.005585 947736.000000 0 0 1
16.910179 -13.335617 -21.956987 30.755522 -0.667760 2.365877 0.052390 -0.004807 -552204.000000 0 0 1
17.044179 -14.008917 -23.148287 31.978071 -0.687963 2.380206 0.048494 -0.002414 325107.000000 0 0 1
16.582379 -13.186317 -24.205387 32.167608 -0.671808 2.422611 0.059627 -0.006656 -139702.000000 0 0 1
16.566379 -13.881717 -25.558237 33.471936 -0.697454 2.439623 0.055979 -0.020434 -451212.000000 0 0 1
15.565779 -14.858817 -25.640187 33.473827 -0.762166 2.443356 0.067529 -0.020642 42063.000000 0 0 1
15.657479 -15.575617 -26.848647 34.765016 -0.782777 2.453233 0.073400 -0.018947 -226158.000000 0 0 1
16.602379 -16.790717 -26.901987 35.795029 -0.791038 2.421215 0.077569 -0.017668 -205209.000000 0 0 1
17.983879 -16.534017 -26.963797 36.384612 -0.743420 2.405469 0.078197 -0.017196 -448458.000000 0 0 1
18.616379 -17.727717 -26.818427 37.149288 -0.760952 2.377354 0.094532 -0.023678 -759240.000000 0 0 1
20.141379 -17.761817 -26.796737 37.937085 -0.722700 2.355120 0.100458 -0.014516 -407710.000000 0 0 1
20.702179 -17.352517 -25.586857 37.207222 -0.697602 2.329092 0.101222 -0.017118 -634714.000000 0 0 1
22.087179 -17.209217 -25.645307 37.969493 -0.661897 2.312329 0.100016 -0.007998 -797714.000000 0 0 1
22.639679 -16.467417 -24.421387 37.150169 -0.628860 2.288119 0.111035 -0.006499 -150880.000000 0 0 1
22.487379 -15.084817 -24.311187 36.390490 -0.590867 2.302401 0.117399 -0.016423 1181970.000000 0 0 1
21.090079 -14.687217 -24.262687 35.343794 -0.608309 2.327429 0.117172 -0.011436 1089600.000000 0 0 1
20.836079 -13.285117 -23.639987 34.197742 -0.567610 2.334046 0.108910 0.004120 26908.900000 0 0 1
21.295479 -12.135817 -24.359987 34.556974 -0.517976 2.353110 0.125737 -0.016256 506656.000000 0 0 1
20.765779 -10.985417 -23.664487 33.345238 -0.486590 2.359842 0.110087 -0.013462 -38809.300000 0 0 1
21.167479 -9.642817 -24.343187 33.669524 -0.427459 2.378937 0.117108 -0.020177 -433868.000000 0 0 1
20.785179 -8.504417 -23.642587 32.608599 -0.388376 2.381891 0.109272 -0.019999 46420.200000 0 0 1
20.681979 -7.417017 -24.534987 32.935118 -0.344335 2.411255 0.091369 -0.019663 -5705.820000 0 0 1
20.126779 -6.114117 -23.838087 31.791887 -0.294921 2.418581 0.092759 -0.024410 -156876.000000 0 0 1
18.788179 -6.369317 -23.492587 30.748423 -0.326848 2.440326 0.084250 -0.023740 -213795.000000 0 0 1
18.185779 -5.405917 -22.605587 29.512016 -0.288942 2.443359 0.071163 -0.025141 57638.400000 0 0 1
18.783679 -5.337717 -21.176987 28.805947 -0.276869 2.396699 0.075143 -0.028015 -546196.000000 0 0 1
18.480079 -6.433817 -20.265187 28.170643 -0.335025 2.373695 0.075583 -0.022826 321359.000000 0 0 1
18.878979 -7.718417 -20.722587 29.076029 -0.388101 2.364141 0.077428 -0.016234 -265496.000000 0 0 1
18.669579 -8.882817 -19.724087 28.574416 -0.444094 2.332660 0.072659 -0.016297 335712.000000 0 0 1
17.279779 -9.136517 -19.560387 27.652766 -0.486375 2.356549 0.066611 -0.016910 -86097.300000 0 0 1
17.051079 -10.310717 -18.780687 27.381826 -0.543865 2.326611 0.081607 -0.016939 866754.000000 0 0 1
15.550679 -10.250817 -18.298687 26.110244 -0.582807 2.347348 0.084703 -0.014173 779530.000000 0 0 1
15.118279 -9.299317 -17.294887 24.782106 -0.551452 2.343227 0.100014 -0.013383 233951.000000 0 1 0
15.282479 -7.945717 -17.542387 24.585035 -0.479459 2.365333 0.131534 -0.037326 -31724.500000 0 1 0
14.022979 -7.117817 -17.091087 23.225256 -0.469695 2.397767 0.135421 -0.023025 -140150.000000 0 1 0
12.936679 -7.409317 -17.880287 23.280041 -0.520132 2.446590 0.121931 -0.031117 -786124.000000 0 1 0
11.753179 -6.855417 -17.397587 22.086421 -0.528036 2.477871 0.105239 -0.030416 -389144.000000 0 1 0
10.388379 -7.228717 -17.967887 21.977665 -0.607933 2.527944 0.109004 -0.018064 -141084.000000 0 1 0
10.010479 -6.691617 -19.247487 22.703594 -0.589244 2.582568 0.097903 -0.028184 -353278.000000 0 1 0
8.616779 -6.584617 -19.075987 21.943093 -0.652504 2.624660 0.095538 -0.041350 -417271.000000 0 1 0
7.969279 -6.035617 -20.332587 22.657276 -0.648195 2.684632 0.095863 -0.053953 -219256.000000 0 1 0
7.943279 -6.991417 -21.378887 23.854400 -0.721749 2.681979 0.100012 -0.044658 730998.000000 0 1 0
7.027979 -6.518517 -22.409187 24.373248 -0.747807 2.737393 0.098756 -0.045763 619678.000000 0 1 0
6.893379 -7.414817 -23.634687 25.711799 -0.821825 2.736880 0.091239 -0.037044 -242005.000000 0 0 1
6.168679 -8.572117 -23.396387 25.669529 -0.947023 2.717581 0.086541 -0.038120 -55228.700000 0 0 1
6.344979 -9.458717 -24.511787 27.028759 -0.979932 2.706612 0.075760 -0.023254 -75696.000000 0 0 1
5.435179 -10.698217 -24.422687 27.211407 -1.100733 2.684901 0.075537 -0.024676 18307.700000 0 0 1
5.870379 -11.636317 -23.453287 26.831360 -1.103565 2.634376 0.066987 -0.036260 1433.980000 0 0 1
5.081679 -12.781017 -23.549787 27.272153 -1.192364 2.612985 0.070281 -0.040717 -707494.000000 0 0 1
5.495479 -13.914917 -22.547887 27.059793 -1.194664 2.555777 0.079987 -0.029666 399788.000000 0 0 1
6.507779 -14.877417 -22.880587 28.057263 -1.158447 2.524382 0.080478 -0.025491 576223.000000 0 0 1
7.807679 -14.415017 -23.199887 28.407522 -1.074398 2.526433 0.067922 -0.026408 535306.000000 0 0 1
8.779479 -13.822717 -22.118987 27.520835 -1.004932 2.504314 0.068184 -0.016123 -86906.000000 0 0 1
9.290579 -14.806617 -21.227387 27.498232 -1.010429 2.452707 0.069480 -0.013059 196046.000000 0 0 1
8.443579 -15.350817 -20.199087 26.738451 -1.067922 2.427110 0.083543 -0.021620 -69456.800000 0 0 1
9.241579 -15.564017 -18.909887 26.176884 -1.034964 2.378047 0.083347 -0.017279 538039.000000 0 0 1
10.220379 -16.613717 -18.974187 27.211974 -1.019292 2.342383 0.083936 -0.017247 92024.800000 0 0 1
10.777879 -17.018317 -17.700387 26.815844 -1.006243 2.291711 0.083962 -0.018195 -239526.000000 0 0 1
9.811779 -17.692217 -16.702087 26.234429 -1.064442 2.260940 0.088389 -0.026647 -159440.000000 0 0 1
9.311679 -19.037917 -16.946187 27.135271 -1.115897 2.245297 0.099701 -0.032318 216863.000000 0 0 1
8.531179 -19.383217 -18.079187 27.845056 -1.156179 2.277431 0.104626 -0.023872 820427.000000 0 0 1
7.015579 -19.027117 -17.826487 27.000615 -1.217547 2.291915 0.101106 -0.026002 510833.000000 0 0 1
6.727479 -17.614017 -17.901687 25.999673 -1.205956 2.330263 0.107611 -0.030218 -770803.000000 0 0 1
5.380479 -17.360117 -18.147787 25.683952 -1.270251 2.355451 0.100110 -0.018984 -454861.000000 0 0 1
4.980879 -15.936717 -17.628287 24.280540 -1.267874 2.383321 0.078985 -0.012753 -105964.000000 0 1 0
4.897879 -15.796417 -16.263487 23.195194 -1.270133 2.347816 0.046359 -0.014494 178252.000000 0 1 0
4.428679 -14.482717 -15.972687 22.011112 -1.274036 2.382796 0.029074 -0.004815 -21395.100000 0 1 0
10.882579 29.816083 -18.052287 36.514577 1.220830 2.087924 0.062639 -0.026005 -340460.000000 0 0 1
9.974379 29.183883 -18.918387 36.181385 1.241466 2.121018 0.091641 -0.028011 -408969.000000 0 0 1
8.830179 28.841683 -18.209287 35.233405 1.273697 2.113927 0.087141 -0.026104 -989884.000000 0 0 1
7.692079 28.172983 -18.934387 34.805115 1.304262 2.146007 0.091376 -0.029025 -403144.000000 0 0 1
6.904979 29.125283 -19.622387 35.791045 1.338016 2.151065 0.095022 -0.038162 -88360.500000 0 0 1
6.137579 28.440183 -20.627187 35.665035 1.358249 2.187512 0.097020 -0.042757 561319.000000 0 0 1
5.087079 29.349383 -21.355687 36.651466 1.399173 2.192806 0.091184 -0.036606 246134.000000 0 0 1
3.877379 29.451383 -20.634987 36.169333 1.439896 2.177924 0.091533 -0.034217 -180622.000000 0 0 1
2.944179 30.236283 -21.340587 37.125754 1.473730 2.183179 0.097459 -0.040119 -140606.000000 0 0 1
1.488979 30.229083 -20.748787 36.695049 1.521580 2.171761 0.118381 -0.038972 663069.000000 0 0 1
0.835479 28.996283 -20.975787 35.797571 1.541991 2.196855 0.128303 -0.053564 -79574.800000 0 0 1
0.419979 28.735083 -22.312287 36.382956 1.556182 2.230980 0.160339 -0.065254 -300316.000000 0 0 1
-0.511021 27.465583 -22.456587 35.481230 -1.552193 2.256108 0.163087 -0.060857 432230.000000 0 0 1
-1.660721 27.515683 -21.657387 35.055858 -1.510514 2.236734 0.177021 -0.063522 39252.700000 0 0 1
-2.358521 26.272983 -21.509087 34.036349 -1.481267 2.254856 0.186391 -0.068661 615610.000000 0 0 1
-3.588021 26.247583 -20.542387 33.523113 -1.434939 2.230374 0.150380 -0.063472 634816.000000 0 0 1
-4.756821 26.929083 -20.988887 34.472253 -1.395957 2.225423 0.150048 -0.054033 323010.000000 0 0 1
-5.843621 26.379883 -20.257187 33.769805 -1.352799 2.214124 0.127237 -0.052646 -118585.000000 0 0 1
-7.228721 26.639683 -20.893687 34.618972 -1.305825 2.218721 0.121818 -0.059050 967376.000000 0 0 1
-8.354021 26.109483 -20.152487 34.023778 -1.261129 2.204714 0.109061 -0.044719 740130.000000 0 0 1
-8.912521 26.993283 -19.146787 34.273456 -1.251891 2.163551 0.109429 -0.050648 898755.000000 0 0 1
-10.155921 26.420183 -18.362187 33.739275 -1.203810 2.146277 0.113135 -0.044262 585359.000000 0 0 1
-9.777521 25.476183 -17.378287 32.351826 -1.204341 2.137869 0.133407 -0.059102 215182.000000 0 0 1
-10.901421 24.928083 -16.664187 31.905256 -1.158541 2.120345 0.096083 -0.040199 303047.000000 0 0 1
-10.566421 24.169083 -15.352587 30.520415 -1.158648 2.097894 0.097896 -0.029740 -124852.000000 0 0 1
-10.090221 22.847483 -15.457987 29.372936 -1.154921 2.125000 0.109584 -0.038638 -249581.000000 0 0 1
-10.041921 22.290883 -14.181787 28.263876 -1.147531 2.096433 0.129181 -0.035396 70916.000000 0 0 1
-9.528721 20.791783 -14.103487 26.870115 -1.141068 2.123366 0.126818 -0.016061 288840.000000 0 0 1
-10.379921 19.790683 -14.635087 26.713286 -1.087753 2.150598 0.093605 -0.017528 -186021.000000 0 0 1
-10.816621 19.819583 -16.000587 27.673704 -1.071219 2.187302 0.108491 -0.009044 186516.000000 0 0 1
-9.695321 19.804383 -17.075487 27.888798 -1.115540 2.229725 0.119010 -0.020923 17112.800000 0 0 1
-8.996721 18.595983 -17.046187 26.782906 -1.120193 2.260693 0.104484 -0.020767 84279.900000 0 0 1
-8.072321 18.526983 -18.141287 27.157278 -1.159893 2.302325 0.117124 -0.024515 430933.000000 0 0 1
-7.315221 17.231683 -18.447987 26.282533 -1.169331 2.348873 0.102159 -0.022102 -24226.100000 0 0 1
-8.152221 16.180883 -18.843787 26.141308 -1.104099 2.375815 0.088510 -0.030532 -19953.500000 0 0 1
-7.591121 15.371483 -19.941587 26.297803 -1.112085 2.431496 0.089049 -0.032460 1359790.000000 0 0 1
-6.306921 14.470183 -19.683087 25.230682 -1.159766 2.465662 0.080182 -0.026470 644524.000000 0 0 1
-6.573621 13.440283 -18.745687 23.984463 -1.115908 2.467985 0.055126 -0.024027 56590.600000 0 1 0
-5.397121 12.680983 -18.551887 23.110793 -1.168411 2.502667 0.061305 -0.018843 397215.000000 0 1 0
-4.457421 13.285783 -17.491387 22.412702 -1.247094 2.466138 0.049759 -0.007127 -491612.000000 0 1 0
-3.684621 14.401283 -17.740887 23.145462 -1.320316 2.444163 0.065087 -0.017756 -573077.000000 0 1 0
-3.172721 14.920283 -16.548387 22.506223 -1.361272 2.396877 0.049337 -0.003518 -34208.000000 0 1 0
-2.396521 16.222283 -16.728387 23.425300 -1.424127 2.366157 0.076475 -0.007498 228930.000000 0 1 0
-3.247721 17.322683 -17.012687 24.496010 -1.385464 2.338533 0.083276 -0.011964 -11325.900000 0 1 0
-2.437121 18.443883 -17.087187 25.260410 -1.439420 2.313716 0.096068 -0.016684 54961.600000 0 0 1
-3.209121 19.701383 -17.564587 26.588675 -1.409326 2.292419 0.105043 -0.018099 277857.000000 0 0 1
-3.476921 19.645183 -18.936987 27.506938 -1.395624 2.330138 0.129970 -0.019180 -348074.000000 0 0 1
-3.935521 20.845283 -19.506687 28.818830 -1.384196 2.314303 0.159594 -0.024415 6278.380000 0 0 1
-2.979521 22.075983 -19.503587 29.607709 -1.436640 2.289930 0.123373 -0.032675 -468700.000000 0 0 1
-1.914121 21.857683 -20.422787 29.975196 -1.483447 2.320365 0.141700 -0.031292 -232668.000000 0 0 1
-0.906921 22.832683 -20.498787 30.697787 -1.531097 2.301993 0.129690 -0.039843 203187.000000 0 0 1
0.161879 22.611383 -19.403187 29.795712 1.563637 2.279971 0.124977 -0.042677 -706894.000000 0 0 1
-0.362921 22.687683 -18.115887 29.035289 -1.554801 2.244553 0.116338 -0.033945 -585837.000000 0 0 1
0.664379 22.261383 -17.248287 28.169380 1.540961 2.229771 0.102635 -0.030469 36873.200000 0 0 1
0.388579 22.142483 -15.725487 27.161212 1.553249 2.188259 0.096526 -0.030251 -285365.000000 0 0 1
-0.597721 21.218283 -15.308287 26.170908 -1.542634 2.195597 0.090993 -0.016480 -20153.200000 0 0 1
-0.357021 20.882283 -13.949187 25.115274 -1.553701 2.159648 0.086229 -0.019502 362105.000000 0 0 1
-1.396321 19.906583 -13.296487 23.979539 -1.500767 2.158550 0.069966 -0.014229 154514.000000 0 1 0
-1.306221 18.558083 -13.637687 23.067187 -1.500527 2.203362 0.068008 -0.011686 98819.200000 0 1 0
-2.121421 17.740183 -12.784487 21.969470 -1.451779 2.191885 0.056619 -0.009054 137010.000000 0 1 0
-1.695221 16.273983 -12.803087 20.775835 -1.467003 2.234767 0.039111 -0.007505 -1352700.000000 0 1 0
-0.527521 16.186783 -12.059687 20.192232 -1.538218 2.210857 0.024771 -0.001409 -788036.000000 0 1 0
0.001479 14.855683 -12.032587 19.117386 1.570697 2.251584 0.025643 -0.000646 550301.000000 0 1 0
0.759379 14.319583 -13.321687 19.572798 1.517815 2.319408 0.023389 0.004404 299647.000000 0 1 0
-0.071721 13.853783 -14.390487 19.975449 -1.565619 2.375188 0.031760 -0.012413 298353.000000 0 1 0
0.689279 12.942183 -15.125787 19.918951 1.517588 2.433135 0.024577 -0.016048 -488531.000000 0 1 0
0.036179 12.735583 -16.462387 20.813615 1.567956 2.483145 0.039384 -0.013126 -146935.000000 0 1 0
0.030779 13.921583 -17.182087 22.114147 1.568585 2.460639 0.048415 -0.019643 -79118.100000 0 1 0
-0.135321 13.627383 -18.550687 23.018511 -1.560867 2.507995 0.062044 -0.025259 -407406.000000 0 1 0
-0.661321 14.839883 -19.387887 24.424365 -1.526262 2.487817 0.070664 -0.015225 -312327.000000 0 1 0
0.241779 15.862983 -19.619087 25.230958 1.555556 2.461604 0.064502 -0.018591 -656892.000000 0 0 1
-0.502921 16.995383 -19.937987 26.203421 -1.541213 2.435484 0.110078 -0.025865 181341.000000 0 0 1
0.361879 18.283083 -20.146787 27.208364 1.551006 2.404555 0.115668 -0.031845 244068.000000 0 0 1
1.022979 18.302683 -21.392587 28.172281 1.514962 2.433108 0.105655 -0.038856 -488976.000000 0 0 1
1.781279 19.471583 -21.519787 29.076050 1.479569 2.404046 0.115816 -0.035681 -14301.500000 0 0 1
2.370079 19.480483 -22.970787 30.211976 1.449727 2.434603 0.123920 -0.050627 -223993.000000 0 0 1
3.290779 18.460583 -23.177787 29.813288 1.394390 2.461368 0.108819 -0.042408 -438606.000000 0 0 1
3.704779 18.328483 -24.534987 30.848407 1.371351 2.490365 0.106184 -0.052771 630722.000000 0 0 1
4.561879 17.021283 -24.771287 30.399859 1.308940 2.523265 0.086545 -0.042268 273544.000000 0 0 1
5.870679 17.052283 -24.210187 30.189044 1.239231 2.501353 0.086545 -0.032405 249781.000000 0 0 1
6.606179 15.874483 -24.492787 29.925531 1.176445 2.529518 0.107189 -0.040469 -89445.200000 0 0 1
7.227579 15.781883 -25.889267 31.169855 1.141337 2.550957 0.102629 -0.033859 -873294.000000 0 0 1
8.433179 16.567183 -25.962117 31.931514 1.099951 2.520179 0.096770 -0.027065 705755.000000 0 0 1
8.964279 16.682183 -27.273247 33.203667 1.077712 2.534645 0.095380 -0.028582 204047.000000 0 0 1
9.531479 15.393583 -27.880747 33.243759 1.016389 2.565644 0.109501 -0.036574 -475250.000000 0 0 1
10.645779 14.757583 -27.268877 32.782778 0.945867 2.553148 0.104703 -0.033596 273043.000000 0 0 1
10.852579 13.432583 -27.596957 32.554643 0.891239 2.582453 0.085953 -0.029967 -106718.000000 0 0 1
10.090779 12.414483 -26.689747 31.117291 0.888285 2.601604 0.092976 -0.026300 -458452.000000 0 0 1
8.721879 12.516483 -26.915937 30.938668 0.962200 2.625952 0.116015 -0.036528 -1090610.000000 0 0 1
8.050079 11.405383 -26.355087 29.824103 0.956179 2.654472 0.125318 -0.039981 -315590.000000 0 0 1
6.538679 11.626283 -26.379247 29.559930 1.058479 2.673430 0.083908 -0.048073 -793625.000000 0 0 1
6.163979 12.448083 -25.260207 28.827547 1.111016 2.638825 0.092996 -0.038036 1069340.000000 0 0 1
4.727879 12.662683 -25.188067 28.585575 1.213455 2.649077 0.106836 -0.055610 1604690.000000 0 0 1
4.044979 13.621983 -26.237737 29.838551 1.282145 2.645236 0.106516 -0.045739 -440290.000000 0 0 1
4.059479 13.219483 -27.561587 30.836264 1.272854 2.676554 0.099651 -0.049472 85257.600000 0 0 1
3.998179 14.290783 -28.401647 32.044741 1.297998 2.660116 0.091222 -0.052215 -112909.000000 0 0 1
4.077779 14.046983 -29.928107 33.311223 1.288266 2.686998 0.114243 -0.046598 -886677.000000 0 0 1
5.300779 13.585083 -30.364457 33.684610 1.198774 2.693867 0.113605 -0.043190 -756011.000000 0 0 1
5.337879 13.196983 -31.763557 34.807712 1.186436 2.720257 0.109979 -0.040371 -29137.700000 0 0 1
6.552979 12.289183 -32.168267 35.053715 1.080918 2.733010 0.107706 -0.032591 992326.000000 0 0 1
7.887979 12.785583 -31.999617 35.350627 1.018012 2.702662 0.123003 -0.028519 775751.000000 0 0 1
8.365579 12.668083 -30.688017 34.237664 0.987168 2.682203 0.117664 -0.034545 -631610.000000 0 0 1
8.477079 11.274183 -29.993847 33.145119 0.926079 2.702000 0.115402 -0.034517 -391899.000000 0 0 1
9.612979 10.473883 -30.234947 33.410531 0.828231 2.702065 0.088095 -0.029627 52204.000000 0 0 1
9.257279 9.157183 -29.859447 32.575110 0.779962 2.730373 0.091951 -0.040564 707576.000000 0 0 1
10.439179 8.143483 -30.080657 32.865463 0.662481 2.726965 0.081520 -0.036294 108738.000000 0 0 1
11.565079 8.373383 -29.298637 32.592556 0.626667 2.688132 0.074308 -0.033976 -983206.000000 0 0 1
12.447979 7.326583 -29.432757 32.785945 0.531977 2.685374 0.049630 -0.025139 -826267.000000 0 0 1
13.696879 7.402383 -28.522877 32.495450 0.495476 2.641942 0.049507 -0.010535 395043.000000 0 0 1
14.342779 6.139283 -28.227297 32.251921 0.404443 2.636672 0.040316 -0.014338 281408.000000 0 0 1
15.297479 5.769983 -29.192327 33.458893 0.360685 2.631058 0.037857 -0.010618 -479313.000000 0 0 1
16.064779 4.442183 -28.879607 33.344292 0.269776 2.618150 0.053362 -0.020497 60535.300000 0 0 1
17.038779 4.611283 -27.876667 32.995340 0.264303 2.577112 0.030146 -0.015461 -13739.000000 0 0 1
17.871979 3.483683 -27.813357 33.243443 0.192510 2.561947 0.046250 -0.026169 129957.000000 0 0 1
18.720579 3.462183 -26.485997 32.618320 0.182874 2.518363 0.055067 -0.016491 169949.000000 0 0 1
19.796579 4.363183 -26.349377 33.245023 0.216933 2.485827 0.076300 -0.012500 -113537.000000 0 0 1
19.995579 4.731083 -24.998087 32.359090 0.232334 2.453599 0.085826 -0.013702 256384.000000 0 0 1
20.971079 5.938983 -24.897387 33.089841 0.275972 2.422521 0.081498 -0.011004 -38706.800000 0 0 1
20.370579 7.125883 -25.433197 33.355452 0.336508 2.437949 0.086011 -0.009994 129733.000000 0 0 1
21.226979 8.160583 -25.877087 34.450013 0.367024 2.420597 0.082347 -0.025240 -669567.000000 0 0 1
21.486479 8.133383 -27.418437 35.771377 0.361866 2.444156 0.114933 -0.027954 1077450.000000 0 0 1
20.332379 8.487383 -28.219857 35.802257 0.395443 2.478698 0.090915 -0.020988 1446600.000000 0 0 1
19.178879 7.628083 -28.252087 34.988533 0.378551 2.510642 0.082224 -0.015905 980898.000000 0 0 1
17.968079 8.385383 -28.920167 35.064834 0.436640 2.540579 0.054127 -0.010652 240234.000000 0 0 1
17.930879 8.336283 -30.330117 36.206712 0.435185 2.563842 0.041903 -0.012714 146057.000000 0 0 1
16.851679 9.086083 -30.838637 36.298175 0.494498 2.586007 0.028895 -0.004943 -196106.000000 0 0 1
16.471179 8.813383 -32.369597 37.373336 0.491315 2.618173 0.015151 0.003537 345919.000000 0 0 1
15.751579 7.573283 -32.547307 36.943119 0.448166 2.648792 0.030934 -0.000342 765226.000000 0 0 1
14.351079 7.729483 -32.750537 36.582729 0.494048 2.679779 0.034441 -0.004710 37121.800000 0 0 1
13.697679 6.460183 -33.117297 36.415872 0.440692 2.712682 0.042100 -0.013547 -411606.000000 0 0 1
13.711579 5.437283 -32.133267 35.357012 0.377526 2.711250 0.050370 -0.017076 -172714.000000 0 0 1
12.786879 4.428883 -32.374657 35.088997 0.333430 2.745678 0.055532 -0.022401 -231648.000000 0 0 1
12.626279 3.385783 -31.249167 33.873247 0.261990 2.745388 0.069665 -0.027819 205114.000000 0 0 1
13.786479 2.569383 -31.081477 34.098782 0.184256 2.717744 0.067885 -0.031575 280780.000000 0 0 1
13.740679 1.529983 -30.116427 33.138290 0.110890 2.711220 0.083911 -0.030460 -274946.000000 0 0 1
12.830179 0.301283 -30.287067 32.893931 0.023478 2.740793 0.090192 -0.030631 97671.300000 0 0 1
13.343079 -0.761817 -31.099877 33.849970 -0.057033 2.735715 0.093985 -0.031879 -772.585000 0 0 1
14.442779 -1.467817 -30.565487 33.837809 -0.101282 2.698183 0.107407 -0.031822 78469.400000 0 0 1
14.812079 -2.792717 -31.314417 34.753268 -0.186356 2.692980 0.114564 -0.031269 -347567.000000 0 0 1
13.888479 -3.833217 -31.284227 34.442507 -0.269295 2.710005 0.115640 -0.029553 -362884.000000 0 0 1
14.330679 -4.960217 -31.983867 35.396891 -0.333219 2.698846 0.124807 -0.043334 -204445.000000 0 0 1
13.463479 -6.208717 -31.736357 35.028700 -0.432090 2.704557 0.126045 -0.049291 6092.160000 0 0 1
13.565879 -6.711217 -30.425517 33.982136 -0.459409 2.679987 0.132414 -0.039356 357224.000000 0 0 1
13.094479 -8.073017 -30.424087 34.091994 -0.552479 2.673458 0.142386 -0.052215 116678.000000 0 0 1
13.427779 -8.681317 -29.045997 33.156304 -0.573924 2.638369 0.104452 -0.045707 -1555220.000000 0 0 1
14.751579 -8.931017 -28.841317 33.603478 -0.544401 2.602712 0.109393 -0.043488 -1284110.000000 0 0 1
14.937479 -9.652817 -27.596707 32.831135 -0.573710 2.569122 0.100326 -0.040731 -38067.800000 0 0 1
15.054479 -11.130617 -27.855237 33.562512 -0.636654 2.549816 0.080897 -0.028529 -566375.000000 0 0 1
13.844279 -11.682917 -28.291767 33.594325 -0.700931 2.572071 0.073163 -0.034358 -257370.000000 0 0 1
13.935979 -12.999317 -28.726417 34.473190 -0.750638 2.555842 0.073368 -0.029457 -107910.000000 0 0 1
-10.050521 -2.905617 -17.654187 20.521352 0.281428 2.606622 0.022768 -0.010832 266076.000000 0 1 0
-10.781721 -2.689117 -18.862187 21.891983 0.244428 2.609215 0.033771 -0.011019 97649.600000 0 1 0
-11.857521 -3.608817 -19.006087 22.690432 0.295441 2.563718 0.041883 -0.019472 -197893.000000 0 1 0
-12.875021 -3.094217 -20.010387 23.994914 0.235854 2.557011 0.053159 -0.038092 -419789.000000 0 1 0
-13.710121 -1.983917 -19.732887 24.109960 0.143707 2.529511 0.046460 -0.027642 71254.500000 0 1 0
-14.562721 -1.763017 -20.845987 25.489924 0.120477 2.528396 0.045018 -0.012853 187519.000000 0 0 1
-15.484621 -0.554817 -20.616687 25.790096 0.035815 2.497098 0.046687 -0.008428 13989.900000 0 0 1
-14.793221 0.642983 -20.830187 25.556789 -0.043437 2.523620 0.049781 -0.010445 255314.000000 0 0 1
-15.644721 1.775483 -20.603987 25.931330 -0.113004 2.489078 0.052129 -0.007833 316616.000000 0 0 1
-15.247921 3.071383 -21.406287 26.460567 -0.198770 2.513225 0.079701 -0.022401 484828.000000 0 0 1
-14.030321 3.705683 -21.003287 25.528808 -0.258223 2.536991 0.098883 -0.026907 569280.000000 0 0 1
-13.920321 4.979983 -21.654987 26.220488 -0.343562 2.542558 0.112678 -0.034854 -595163.000000 0 0 1
-12.618621 5.634383 -21.237587 25.337935 -0.419951 2.564722 0.101141 -0.030494 -707407.000000 0 0 1
-12.697521 6.342483 -19.980387 24.508569 -0.463252 2.523941 0.105657 -0.036548 -539540.000000 0 1 0
-11.563021 6.201683 -19.196287 23.252134 -0.492293 2.542010 0.079027 -0.024446 -560448.000000 0 1 0
-11.672921 6.690583 -17.724287 22.252445 -0.520459 2.492297 0.092336 -0.031498 -13614.000000 0 1 0
-11.800621 8.122383 -17.640287 22.724600 -0.602831 2.459514 0.077054 -0.037197 241362.000000 0 1 0
-12.950821 8.419283 -16.867087 22.871526 -0.576443 2.400114 0.098254 -0.031464 313280.000000 0 1 0
-13.613421 9.848983 -16.946487 23.864431 -0.626309 2.360458 0.104542 -0.033797 -130274.000000 0 1 0
-12.944521 10.740383 -16.131587 23.305461 -0.692605 2.335302 0.059262 -0.018893 82890.300000 0 1 0
-13.562821 12.003283 -16.299287 24.365870 -0.724473 2.303577 0.063898 -0.030704 -48268.200000 0 1 0
-12.934921 13.203883 -15.509687 24.128926 -0.795688 2.268923 0.070917 -0.021854 -225001.000000 0 1 0
-13.211221 13.253783 -14.074887 23.415839 -0.787006 2.215653 0.077355 -0.024131 509006.000000 0 1 0
-12.499521 14.353183 -13.435887 23.297530 -0.854320 2.185490 0.064949 -0.024487 -628330.000000 0 1 0
-12.953521 14.511883 -11.965187 22.837559 -0.842076 2.122250 0.063852 -0.028848 817135.000000 0 1 0
-14.274221 15.029383 -11.788087 23.845224 -0.811163 2.087893 0.058584 -0.021134 1351250.000000 0 1 0
-15.350521 14.140483 -12.195987 24.172998 -0.744390 2.099633 0.062995 -0.011678 -240259.000000 0 1 0
-16.626121 14.298883 -11.335387 24.685561 -0.710285 2.047881 0.034923 -0.007830 8273.130000 0 1 0
-17.659021 13.463983 -11.789987 25.142069 -0.651417 2.058881 0.025359 -0.008997 -300924.000000 0 0 1
-18.842921 13.584983 -11.062287 25.729003 -0.624655 2.015238 0.088549 -0.017907 921368.000000 0 0 1
-20.168021 13.060383 -11.782687 26.761060 -0.574671 2.026720 0.086201 -0.028212 1015590.000000 0 0 1
-20.375821 11.668883 -11.695287 26.231977 -0.520091 2.032910 0.099020 -0.027475 -64987.000000 0 0 1
-21.607821 11.300483 -12.251887 27.289330 -0.481863 2.036400 0.141863 -0.027012 -577940.000000 0 0 1
-22.203021 10.021483 -11.732287 27.037951 -0.423982 2.019635 0.135875 -0.024707 -83302.100000 0 0 1
-21.479521 8.832083 -12.076087 26.176466 -0.390112 2.050294 0.119820 -0.023749 624050.000000 0 0 1
-22.060821 7.749983 -11.345387 25.989610 -0.337833 2.022541 0.119482 -0.018312 -41906.100000 0 0 1
-21.149721 6.529383 -11.298587 24.851591 -0.299439 2.042767 0.140202 -0.019491 -328393.000000 0 1 0
-21.095921 5.813683 -12.547687 25.224615 -0.268908 2.091439 0.149445 -0.020625 211148.000000 0 0 1
-20.111021 4.808883 -12.550587 24.188752 -0.234710 2.116314 0.166664 -0.030730 -219500.000000 0 1 0
-20.275221 3.739083 -13.616587 24.707828 -0.182367 2.154483 0.184169 -0.049465 34429.500000 0 1 0
-21.151221 2.631683 -13.276987 25.111317 -0.123786 2.127894 0.167873 -0.053361 682662.000000 0 0 1
-21.056821 1.663383 -14.232187 25.469819 -0.078831 2.163718 0.157110 -0.055381 -512244.000000 0 0 1
-21.909821 0.431083 -14.037487 26.024548 -0.019673 2.140514 0.172845 -0.046159 7170.880000 0 0 1
-23.217521 0.517283 -14.592887 27.427599 -0.022276 2.131818 0.140326 -0.042638 533904.000000 0 0 1
-23.830521 -0.754017 -14.619387 27.967637 0.031630 2.120841 0.133173 -0.053408 130973.000000 0 0 1
-25.211161 -0.942117 -15.301587 29.506419 0.037352 2.115992 0.122400 -0.040669 750757.000000 0 0 1
-26.298091 -0.419417 -14.527187 30.046708 0.015947 2.075430 0.155718 -0.058414 1127100.000000 0 0 1
-27.579141 -0.613917 -15.164387 31.479271 0.022257 2.073420 0.144021 -0.046026 718283.000000 0 0 1
-28.724081 -0.117817 -14.272587 32.074810 0.004102 2.031946 0.159859 -0.042117 -472062.000000 0 0 1
-28.939341 -0.846617 -13.069187 31.764852 0.029247 1.994825 0.176506 -0.046294 106482.000000 0 0 1
-30.058401 -0.414117 -12.328087 32.490932 0.013776 1.959978 0.204913 -0.046492 35840.500000 0 0 1
-30.129181 -0.993017 -10.892987 32.053249 0.032947 1.917543 0.200041 -0.049660 38393.300000 0 0 1
-30.526681 -2.360617 -10.610387 32.404183 0.077176 1.904388 0.206626 -0.047392 682007.000000 0 0 1
-29.554011 -3.280317 -11.075787 31.731263 0.110542 1.927353 0.208811 -0.049598 15483.100000 0 0 1
-29.889401 -4.745217 -10.667087 32.088629 0.157445 1.909671 0.205390 -0.052037 -217894.000000 0 0 1
-30.978111 -5.332817 -11.333987 33.414690 0.170477 1.916854 0.195124 -0.038670 5753.750000 0 0 1
-31.288541 -6.623017 -10.893387 33.786136 0.208596 1.899083 0.191077 -0.036139 -282956.000000 0 0 1
-30.455701 -7.807917 -11.442487 33.458090 0.250965 1.919835 0.186072 -0.041267 553159.000000 0 0 1
-29.078381 -7.605417 -11.085887 32.035784 0.255818 1.924151 0.147526 -0.029036 531860.000000 0 0 1
-28.322081 -8.632017 -11.689987 31.832495 0.295837 1.946830 0.147905 -0.029171 74455.300000 0 0 1
-26.802471 -8.718417 -11.375887 30.393980 0.314489 1.954418 0.137619 -0.033618 -354945.000000 0 0 1
-26.200981 -7.542517 -11.823487 29.718274 0.280293 1.979971 0.121375 -0.030431 -61096.400000 0 0 1
-24.833621 -7.472917 -11.493787 28.366536 0.292300 1.987981 0.118520 -0.036229 -158279.000000 0 0 1
-24.374021 -7.219017 -10.000087 27.316823 0.287946 1.945587 0.124982 -0.039942 -545862.000000 0 0 1
-24.673121 -5.920617 -9.519287 27.100432 0.235509 1.929712 0.131512 -0.031998 1758630.000000 0 0 1
-26.074641 -5.667617 -9.212687 28.229105 0.214032 1.903240 0.137611 -0.036376 1058610.000000 0 0 1
-26.252241 -4.359917 -8.415387 27.910710 0.164576 1.877073 0.153413 -0.049207 -224034.000000 0 0 1
-26.215861 -4.534017 -7.020387 27.515714 0.171255 1.828790 0.167229 -0.045726 147986.000000 0 0 1
-26.322311 -3.303017 -6.410287 27.292228 0.124831 1.807887 0.210938 -0.054567 -64950.000000 0 0 1
-25.984681 -3.304317 -4.887687 26.646043 0.126485 1.755271 0.204681 -0.044203 83096.100000 0 0 1
-24.588821 -3.461717 -4.720587 25.276027 0.139865 1.758661 0.142497 -0.039460 -24086.600000 0 0 1
-24.222621 -3.122617 -3.413387 24.660440 0.128206 1.709658 0.099376 -0.030570 17776.700000 0 1 0
-22.769621 -3.540617 -3.117187 23.253138 0.154262 1.705256 0.086475 -0.029086 -23217.800000 0 1 0
-22.693121 -4.940517 -3.027087 23.421138 0.214365 1.700405 0.111429 -0.028416 82916.000000 0 1 0
-21.352121 -5.362617 -2.985987 22.216814 0.246062 1.705606 0.080910 -0.026503 -405559.000000 0 1 0
-21.024021 -6.888717 -2.662587 22.283475 0.316635 1.690570 0.075063 -0.023895 -273181.000000 0 1 0
-21.481821 -7.284617 -1.389787 22.725883 0.326937 1.631989 0.072798 -0.017932 391271.000000 0 1 0
-22.475021 -8.278017 -1.533587 24.000084 0.352902 1.634739 0.096445 -0.027676 229701.000000 0 1 0
-23.042821 -8.958317 -0.255487 24.724245 0.370787 1.581130 0.117755 -0.032938 -131429.000000 0 1 0
-22.016821 -9.744217 0.285213 24.078445 0.416667 1.558951 0.094708 -0.023122 249429.000000 0 1 0
-22.398221 -10.491817 1.425213 24.774781 0.438068 1.513238 0.079246 -0.024477 135032.000000 0 1 0
-21.105621 -11.067317 2.039513 23.918452 0.482959 1.485423 0.077170 -0.020780 123904.000000 0 1 0
-20.528821 -12.061617 1.239313 23.842210 0.531211 1.518793 0.082767 -0.007435 -187367.000000 0 1 0
-19.381621 -12.572517 1.850513 23.176277 0.575448 1.490866 0.057714 -0.009593 -576921.000000 0 1 0
-18.718121 -13.730817 1.127913 23.241678 0.632895 1.522247 0.055978 -0.001707 -293974.000000 0 1 0
-19.466421 -14.951017 0.998313 24.565648 0.654948 1.530147 0.073361 0.004756 206878.000000 0 1 0
-18.847121 -15.984017 0.263713 24.713808 0.703383 1.560125 0.066783 -0.002581 -455629.000000 0 1 0
-17.719221 -16.707217 0.989113 24.373761 0.756011 1.530204 0.071819 -0.001842 -349636.000000 0 1 0
-16.477621 -16.007317 1.001513 22.994548 0.770922 1.527228 0.061243 -0.005504 352078.000000 0 1 0
-15.512221 -16.750917 1.721313 22.895090 0.823773 1.495543 0.069203 -0.005173 87739.100000 0 1 0
-15.390921 -16.585317 3.205513 22.852320 0.822733 1.430061 0.076268 -0.016125 -321276.000000 0 1 0
-15.250421 -15.231517 3.575713 21.848574 0.784778 1.406398 0.061828 -0.017674 427724.000000 0 1 0
-14.350421 -15.084217 4.687713 21.341107 0.810323 1.349334 0.044172 -0.017580 328762.000000 0 1 0
-14.955621 -15.484817 6.053013 22.362673 0.802781 1.296702 0.064067 -0.019981 -812412.000000 0 1 0
-15.766721 -14.513317 6.691113 22.449874 0.744028 1.268151 0.060451 -0.022909 122567.000000 0 1 0
-16.056121 -14.817117 8.031813 23.277801 0.745288 1.218513 0.071964 -0.024676 -44613.500000 0 1 0
-16.995321 -16.026617 8.319913 24.797467 0.756071 1.228645 0.058245 -0.017282 -392373.000000 0 1 0
-16.465521 -17.285317 7.886013 25.141296 0.809683 1.251743 0.057320 -0.010589 -2188.810000 0 0 1
-17.124221 -18.398417 8.485513 26.528186 0.821253 1.245206 0.075405 -0.020037 -65515.900000 0 0 1
-16.811821 -18.722017 9.985213 27.071308 0.839104 1.193026 0.081152 -0.019678 1016480.000000 0 0 1
-15.474221 -19.226517 10.208813 26.708245 0.893113 1.178583 0.055075 -0.011035 907211.000000 0 0 1
-15.301321 -19.329917 11.615913 27.252625 0.901206 1.130474 0.065786 -0.012796 105349.000000 0 0 1
-14.035121 -20.121617 12.044613 27.330145 0.961740 1.114409 0.064610 -0.009836 774800.000000 0 0 1
-12.850621 -19.367617 11.759813 26.048729 0.984982 1.102402 0.068199 -0.014118 -743312.000000 0 0 1
-11.723621 -20.142117 11.813413 26.128622 1.043684 1.101650 0.074254 -0.016543 -746545.000000 0 0 1
-10.448721 -19.410317 12.268813 25.228158 1.076974 1.062930 0.075558 -0.014770 -143841.000000 0 0 1
-9.738521 -18.882617 11.180713 24.008340 1.094636 1.086369 0.064659 -0.009860 390535.000000 0 1 0
-8.635121 -18.106617 11.702213 23.224054 1.125796 1.042708 0.061977 -0.005184 919069.000000 0 1 0
-7.676621 -17.421317 10.695513 21.836364 1.155749 1.058933 0.044393 -0.007009 100893.000000 0 1 0
-6.780921 -18.251217 10.027513 21.900659 1.215069 1.095206 0.047163 -0.013598 -352831.000000 0 1 0
-6.080821 -17.556317 9.012413 20.650042 1.237367 1.119163 0.045441 -0.005734 271229.000000 0 1 0
-4.870421 -18.314517 8.401813 20.730003 1.310880 1.153492 0.045268 -0.010130 381632.000000 0 1 0
-3.755621 -18.495117 9.248813 21.017007 1.370460 1.115127 0.054082 -0.002679 -445456.000000 0 1 0
-2.657921 -18.897817 8.488713 20.886606 1.431066 1.152265 0.056426 -0.013712 66177.700000 0 1 0
-1.355521 -19.281817 9.218313 21.415023 1.500611 1.125794 0.061031 -0.010176 908810.000000 0 1 0
-0.264321 -19.671617 8.368613 21.379338 1.557360 1.168606 0.063186 -0.008859 472905.000000 0 1 0
0.917679 -19.893617 9.124613 21.905632 -1.524700 1.141158 0.058856 -0.014549 1265080.000000 0 1 0
2.201579 -20.341017 8.303813 22.080699 -1.462983 1.185249 0.066778 -0.028764 907412.000000 0 1 0
2.230179 -21.678017 7.839813 23.159724 -1.468280 1.225463 0.074229 -0.024039 -235990.000000 0 1 0
2.495779 -22.651617 8.817113 24.434938 -1.461058 1.201627 0.087663 -0.026857 -205792.000000 0 1 0
2.026879 -24.069017 8.479213 25.599275 -1.486783 1.233191 0.080197 -0.026453 -201741.000000 0 0 1
2.109279 -25.060767 9.450413 26.866363 -1.486828 1.211350 0.087088 -0.032480 -225882.000000 0 0 1
1.368079 -26.180857 9.111513 27.754794 -1.518589 1.236308 0.093014 -0.026662 -734479.000000 0 0 1
1.260679 -27.271397 10.202913 29.144774 -1.524602 1.213143 0.113801 -0.030696 367845.000000 0 0 1
0.395179 -27.119987 11.341413 29.398598 -1.556226 1.174742 0.102928 -0.038070 154716.000000 0 0 1
-0.989321 -27.184797 11.046713 29.360209 1.534420 1.185053 0.098634 -0.031893 131269.000000 0 0 1
-1.813221 -27.446047 12.326913 30.141766 1.504827 1.149477 0.093345 -0.037813 108711.000000 0 0 1
-1.397621 -28.667047 12.952613 31.488461 1.522081 1.146867 0.082831 -0.045471 -37446.700000 0 0 1
-1.699421 -28.537787 14.329013 31.978336 1.511317 1.106174 0.075694 -0.049667 268141.000000 0 0 1
-0.907721 -29.589557 15.165213 33.261833 1.540129 1.097375 0.054684 -0.035933 216826.000000 0 0 1
-1.161421 -29.377527 16.565713 33.746272 1.531283 1.057685 0.067266 -0.035307 145084.000000 0 0 1
-0.382121 -30.239237 17.392313 34.886245 1.558160 1.048878 0.072066 -0.029492 -24582.400000 0 0 1
-0.622821 -29.997957 18.880613 35.450570 1.550037 1.009139 0.080662 -0.029067 -1536290.000000 0 0 1
-1.941621 -30.085547 19.203813 35.744881 1.506349 1.003627 0.050548 -0.025319 -1405670.000000 0 0 1
-2.266421 -29.547117 20.486913 36.026135 1.494241 0.965911 0.082241 -0.033455 187471.000000 0 0 1
-3.774021 -29.737937 20.822713 36.498953 1.444562 0.963680 0.111743 -0.043502 -279335.000000 0 0 1
-4.621621 -28.857447 20.099713 35.469848 1.411991 0.968337 0.083295 -0.037286 58616.100000 0 0 1
-5.976621 -28.990567 20.488913 35.999563 1.367487 0.965333 0.100954 -0.046679 291855.000000 0 0 1
-6.277621 -28.057227 21.691113 36.015565 1.350678 0.924454 0.146468 -0.057218 -576990.000000 0 0 1
-5.413921 -28.267347 22.813413 36.726085 1.381562 0.900552 0.146814 -0.055483 101733.000000 0 0 1
-5.571321 -27.239847 23.762813 36.574857 1.369050 0.863602 0.161932 -0.051912 -405074.000000 0 0 1
-4.612321 -27.295417 24.970413 37.280489 1.403400 0.836859 0.168998 -0.051005 -167910.000000 0 0 1
-4.681821 -28.435357 25.838513 38.705526 1.407613 0.839861 0.160909 -0.049327 92370.900000 0 0 1
-4.196321 -29.640297 25.227313 39.148099 1.430156 0.870549 0.143975 -0.053392 -138044.000000 0 0 1
-4.512021 -30.896877 26.057513 40.669022 1.425787 0.875359 0.139285 -0.044254 19337.900000 0 0 1
-3.739721 -30.880617 27.243213 41.349616 1.450281 0.851507 0.144005 -0.044844 167817.000000 0 0 1
-4.072421 -31.857197 28.188313 42.732267 1.443652 0.850444 0.132945 -0.044709 -528680.000000 0 0 1
-3.421421 -31.579467 29.559713 43.390616 1.462874 0.821332 0.158237 -0.040443 -183507.000000 0 0 1
-2.035321 -31.822867 29.465613 43.417275 1.506926 0.824858 0.153570 -0.041932 -331456.000000 0 0 1
-1.418121 -31.523237 30.647713 43.988725 1.525840 0.799985 0.159016 -0.038730 -240769.000000 0 0 1
-29.537171 2.673983 -9.047687 31.007342 -0.090283 1.866896 0.168896 -0.035806 -314472.000000 0 0 1
-30.318991 2.331683 -10.139787 32.054535 -0.076754 1.892654 0.154093 -0.041700 -300939.000000 0 0 1
-30.524741 3.472783 -10.861287 32.585082 -0.113282 1.910620 0.153826 -0.045716 -52043.100000 0 0 1
-31.376811 3.305083 -12.130787 33.802127 -0.104948 1.937860 0.145157 -0.050108 1129600.000000 0 0 1
-32.697281 2.720383 -11.932987 34.912875 -0.083008 1.919621 0.168328 -0.054508 1464400.000000 0 0 1
-33.353191 2.574483 -13.198987 35.962154 -0.077036 1.946604 0.161484 -0.045056 455559.000000 0 0 1
-34.675157 1.744183 -13.160587 37.129634 -0.050258 1.933122 0.149447 -0.037020 603207.000000 0 0 1
-34.444759 0.416783 -12.767787 36.737331 -0.012099 1.925745 0.166676 -0.035609 302928.000000 0 0 1
-35.701219 -0.082117 -12.368487 37.783108 0.002300 1.904299 0.148778 -0.029136 239801.000000 0 0 1
-35.665344 -1.577317 -12.023187 37.670435 0.044197 1.895647 0.163524 -0.032136 -39445.900000 0 0 1
-35.280092 -2.422117 -13.067387 37.700240 0.068546 1.924754 0.157695 -0.021110 286693.000000 0 0 1
-34.891584 -3.690317 -12.620887 37.287100 0.105374 1.916096 0.177778 -0.030753 6266.900000 0 0 1
-35.112165 -4.759117 -13.731887 38.001027 0.134719 1.940518 0.164028 -0.028159 91956.800000 0 0 1
-34.692902 -6.036917 -13.274487 37.633147 0.172285 1.931288 0.173325 -0.037197 268198.000000 0 0 1
-35.132451 -7.101917 -14.108287 38.519737 0.199459 1.945784 0.166355 -0.030540 -335430.000000 0 0 1
-34.882627 -8.485017 -13.360587 38.305332 0.238611 1.927078 0.156044 -0.032504 854326.000000 0 0 1
-33.510111 -8.915317 -13.293887 37.136745 0.260025 1.936891 0.159149 -0.030337 1112800.000000 0 0 1
-32.977041 -9.355817 -14.529987 37.230861 0.276443 1.971718 0.152490 -0.025950 -226862.000000 0 0 1
-31.726041 -10.236317 -14.240187 36.250611 0.312102 1.974499 0.146017 -0.025817 154982.000000 0 0 1
-32.087091 -11.584117 -13.959687 36.859816 0.346459 1.959213 0.131526 -0.021601 648055.000000 0 0 1
-30.910961 -12.369117 -13.845887 36.058163 0.380638 1.964907 0.144085 -0.022238 156693.000000 0 0 1
-31.214231 -13.809117 -14.284687 37.000976 0.416514 1.967156 0.155516 -0.029743 -205194.000000 0 0 1
-30.925761 -14.028317 -15.652387 37.392427 0.425854 2.002697 0.150919 -0.032367 193394.000000 0 0 1
-31.212051 -15.303017 -16.226487 38.362395 0.455851 2.007527 0.155239 -0.039385 230059.000000 0 0 1
-30.145451 -16.341617 -15.761887 37.739021 0.496752 2.001659 0.133556 -0.036411 368030.000000 0 0 1
-28.848561 -16.065417 -16.220087 36.788970 0.508116 2.027392 0.138931 -0.041867 -54895.100000 0 0 1
-27.822811 -17.045717 -16.071887 36.372666 0.549671 2.028475 0.139326 -0.053002 -189532.000000 0 0 1
-26.457861 -16.452617 -16.267187 35.147238 0.556325 2.051981 0.132162 -0.067283 -1026060.000000 0 0 1
-26.270781 -15.991017 -17.589787 35.429750 0.546792 2.090323 0.130089 -0.062553 -932959.000000 0 0 1
-25.017221 -15.619917 -18.048787 34.577476 0.558144 2.119968 0.089178 -0.047023 -1051610.000000 0 0 1
-24.975121 -15.129217 -19.543887 35.137066 0.544652 2.160625 0.091168 -0.042393 26408.700000 0 0 1
-25.312141 -16.221117 -20.508087 36.392454 0.569911 2.169444 0.082525 -0.048428 1473950.000000 0 0 1
-26.747641 -16.410717 -20.567087 37.520034 0.550315 2.150962 0.094214 -0.055133 799257.000000 0 0 1
-27.206311 -17.557917 -21.488687 38.861645 0.573108 2.156701 0.103691 -0.053305 -106495.000000 0 0 1
-26.855481 -17.487717 -22.845187 39.356571 0.577203 2.190098 0.101458 -0.030901 224387.000000 0 0 1
-27.608121 -18.454517 -23.555487 40.714107 0.589233 2.187756 0.087201 -0.025199 -629963.000000 0 0 1
-27.173771 -18.588517 -25.000287 41.339583 0.599948 2.220254 0.089424 -0.013973 514478.000000 0 0 1
-25.841251 -19.096917 -25.114927 40.782619 0.636430 2.234228 0.098963 -0.017944 446957.000000 0 0 1
-25.671241 -20.451117 -24.804287 41.140168 0.672698 2.217954 0.077032 -0.012796 1070180.000000 0 0 1
-24.167021 -21.004717 -24.680687 40.427458 0.715506 2.227479 0.071193 -0.003327 1573060.000000 0 0 1
-23.415921 -20.939817 -25.836667 40.673267 0.729632 2.259096 0.075495 -0.010243 -25140.600000 0 0 1
-22.061321 -21.315917 -25.597807 39.953947 0.768216 2.266184 0.073944 -0.019497 1345900.000000 0 0 1
-21.037021 -20.908717 -26.744077 39.937155 0.782339 2.304539 0.075360 -0.027877 437548.000000 0 0 1
-21.061921 -21.873017 -27.740917 41.128966 0.804287 2.311065 0.091536 -0.018226 -2902.890000 0 0 1
-21.997621 -21.624217 -28.777767 42.186040 0.776838 2.321513 0.103120 -0.019089 521451.000000 0 0 1
-21.348621 -21.815417 -30.228327 42.958442 0.796212 2.351338 0.103947 -0.031067 576089.000000 0 0 1
-20.865421 -23.133817 -30.533997 43.621832 0.836908 2.346153 0.090828 -0.035293 499220.000000 0 0 1
-20.196521 -23.115817 -31.817517 44.210800 0.852697 2.374134 0.089331 -0.035199 240779.000000 0 0 1
-19.801121 -24.495617 -32.424277 45.204573 0.890982 2.370685 0.089520 -0.036955 83106.900000 0 0 1
-19.052221 -24.431317 -33.635307 45.729752 0.908477 2.397235 0.083683 -0.039375 -323242.000000 0 0 1
-19.818921 -24.126217 33.100842 45.503074 0.883101 0.756210 0.096336 -0.038860 -869280.000000 0 0 1
-19.028621 -23.982717 31.768128 44.118852 0.900074 0.766911 0.097878 -0.033428 180380.000000 0 0 1
-18.098921 -22.894117 31.681048 43.074358 0.901845 0.744397 0.081314 -0.037129 233526.000000 0 0 1
-17.422721 -22.825617 30.417898 41.830712 0.918839 0.756611 0.075675 -0.033886 543602.000000 0 0 1
-16.485021 -21.611317 30.189248 40.622600 0.919156 0.733010 0.049977 -0.020992 64727.500000 0 0 1
-17.265621 -20.468717 29.950298 40.175744 0.870081 0.729538 0.064524 -0.028117 496413.000000 0 0 1
-16.451621 -19.296617 29.785928 39.117985 0.864815 0.705267 0.065254 -0.027409 627616.000000 0 0 1
-15.758521 -18.710817 31.098858 39.567216 0.870840 0.666524 0.063108 -0.024529 340424.000000 0 0 1
-15.171721 -17.421617 30.907498 38.587139 0.854318 0.641867 0.064520 -0.024175 186870.000000 0 0 1
-14.378621 -16.969217 32.009946 38.978657 0.867851 0.607255 0.064621 -0.018652 184195.000000 0 0 1
-13.886921 -15.484717 31.805858 38.003100 0.839744 0.579150 0.048093 -0.015938 -836947.000000 0 0 1
-12.850321 -15.404717 30.907038 36.846724 0.875558 0.575721 0.045108 -0.021699 -630649.000000 0 0 1
-12.698521 -14.076417 30.436768 35.857981 0.836815 0.557058 0.033401 -0.022225 79142.700000 0 0 1
-11.453921 -13.965217 29.513508 34.601542 0.883874 0.549179 0.046521 -0.020497 446077.000000 0 0 1
-10.759321 -12.743517 29.449258 33.844039 0.869622 0.515298 0.070318 -0.023496 -207173.000000 0 0 1
-9.586821 -12.717617 30.222038 34.161623 0.924854 0.484993 0.069011 -0.026202 -355617.000000 0 0 1
-8.994621 -11.337917 30.350488 33.624450 0.900141 0.444952 0.061002 -0.016298 -160252.000000 0 0 1
-9.827221 -10.452617 31.087708 34.238532 0.816227 0.432372 0.052480 -0.011827 291383.000000 0 0 1
-9.445821 -9.081117 30.930308 33.591281 0.765716 0.400711 0.040959 -0.013119 -27921.100000 0 0 1
-10.233821 -8.096417 31.828678 34.399822 0.669317 0.389084 0.027726 -0.017612 115087.000000 0 0 1
-11.531421 -7.800717 31.348828 34.301222 0.594762 0.417939 0.040723 -0.025730 -3073.090000 0 0 1
-12.499121 -7.355217 32.281684 35.389749 0.531890 0.422233 0.039694 -0.026884 12386.900000 0 0 1
-12.360321 -5.932817 32.898352 35.640952 0.447511 0.394863 0.039289 -0.024482 -456473.000000 0 0 1
-12.391121 -4.920517 31.914792 34.587646 0.378004 0.395712 0.037801 -0.028728 129420.000000 0 0 1
-12.590321 -3.647717 32.455858 35.002924 0.282003 0.383842 0.031453 -0.030292 -237441.000000 0 0 1
-12.125921 -2.433017 31.621348 33.953897 0.198017 0.372824 0.041862 -0.024917 63953.200000 0 0 1
-10.724121 -2.288617 31.519218 33.372228 0.210254 0.334805 0.045105 -0.025908 77333.700000 0 0 1
-10.374421 -1.162217 30.742408 32.466521 0.111562 0.327356 0.045269 -0.022761 -386826.000000 0 0 1
-8.894921 -0.803117 30.910388 32.174783 0.090045 0.281275 0.044203 -0.018687 -260887.000000 0 0 1
-8.553821 -0.404517 32.204121 33.323218 0.047256 0.259895 0.065303 -0.037547 -441973.000000 0 0 1
-7.191721 -0.083017 32.252875 33.045055 0.011543 0.219404 0.087497 -0.038589 -180480.000000 0 0 1
-6.696021 0.600983 33.570395 34.236958 -0.089512 0.197649 0.117964 -0.052110 -244552.000000 0 0 1
-7.279521 1.906383 33.802685 34.630149 -0.256131 0.219044 0.116510 -0.036800 110616.000000 0 0 1
-6.742521 2.995483 33.109755 33.921827 -0.418077 0.219252 0.121840 -0.033060 -114630.000000 0 0 1
-7.486421 4.293383 33.493697 34.587676 -0.520698 0.252180 0.106670 -0.028802 537946.000000 0 0 1
-8.810821 4.277583 32.973585 34.397464 -0.451974 0.288734 0.079917 -0.012599 85099.000000 0 0 1
-9.406121 5.540083 32.933937 34.695991 -0.532282 0.320067 0.070336 -0.003361 91639.500000 0 0 1
-10.716321 5.452583 32.095748 34.274002 -0.470672 0.358438 0.054464 0.002418 220948.000000 0 0 1
-11.583321 6.534683 32.393041 35.016917 -0.513639 0.389581 0.069166 0.003634 39499.500000 0 0 1
-12.582321 6.600183 31.387428 34.453560 -0.483102 0.425077 0.040608 0.001794 620313.000000 0 0 1
-13.472921 7.931783 31.500078 35.166570 -0.532084 0.460705 0.065580 -0.003248 862792.000000 0 0 1
-14.240721 8.076783 32.722067 36.589154 -0.515923 0.463908 0.063039 0.002021 516144.000000 0 0 1
-15.001321 9.265583 32.705734 37.155829 -0.553297 0.494446 0.067832 0.007168 -572310.000000 0 0 1
-15.888321 9.479383 33.889518 38.610838 -0.537935 0.499713 0.065089 0.008884 -473573.000000 0 0 1
-15.247221 9.542283 -32.693667 37.314993 -0.559201 2.638620 0.072762 0.006606 215399.000000 0 0 1
-16.157921 9.985283 -31.674937 36.933533 -0.553536 2.601420 0.074630 0.005311 -722328.000000 0 0 1
-15.560621 10.067783 -30.258677 35.483527 -0.574266 2.592030 0.097203 -0.001702 182159.000000 0 0 1
-14.779721 11.241583 -30.068497 35.340173 -0.650256 2.588360 0.088835 -0.002281 -107304.000000 0 0 1
-13.495321 11.167183 -30.625807 35.281294 -0.691277 2.622051 0.096093 -0.011598 -511747.000000 0 0 1
-12.581621 12.426583 -30.607687 35.348941 -0.779199 2.617689 0.092781 -0.012222 141056.000000 0 0 1
-13.122521 13.335583 -31.466857 36.608761 -0.793451 2.605174 0.084368 -0.015537 -131057.000000 0 0 1
-12.281221 14.437183 -31.721817 36.953136 -0.865916 2.603004 0.087656 -0.027633 -119491.000000 0 0 1
-12.427921 15.664183 -30.808397 36.728424 -0.900094 2.565901 0.088576 -0.028309 -216362.000000 0 0 1
-13.623421 16.328783 -31.110107 37.683756 -0.875476 2.541986 0.082697 -0.028308 -759.849000 0 0 1
-13.682521 17.513083 -30.287977 37.567020 -0.907578 2.508562 0.069408 -0.015294 -801773.000000 0 0 1
-15.080021 18.091683 -30.446437 38.492876 -0.875940 2.483177 0.055303 -0.017822 -1237590.000000 0 0 1
-15.388721 18.730683 -31.678477 39.889561 -0.883036 2.488411 0.061425 -0.028070 694899.000000 0 0 1
-16.755821 19.136083 -31.806507 40.725926 -0.851619 2.467044 0.057642 -0.027459 596625.000000 0 0 1
-17.338521 20.145883 -30.811987 40.692252 -0.860153 2.429805 0.042849 -0.032651 -945919.000000 0 0 1
-16.657821 21.394783 -30.699107 40.959185 -0.909246 2.418110 0.051489 -0.029264 466460.000000 0 0 1
-17.360221 22.345583 -29.869897 41.145025 -0.910302 2.383235 0.028187 -0.023145 -111262.000000 0 0 1
-18.597021 22.963183 -30.536757 42.492946 -0.890071 2.372628 0.043463 -0.023117 -468950.000000 0 0 1
-19.760521 22.164583 -30.430427 42.517735 -0.842677 2.368438 0.046476 -0.020907 -539677.000000 0 0 1
-20.608621 22.648383 -31.427167 43.878597 -0.832518 2.369181 0.068744 -0.029728 -1083010.000000 0 0 1
-21.846721 21.720683 -31.589687 44.124546 -0.782505 2.368739 0.069376 -0.032823 -642748.000000 0 0 1
-22.904721 21.959283 -30.731087 44.172797 -0.764328 2.340193 0.089687 -0.034461 -15271.800000 0 0 1
-23.777021 23.052583 -31.110377 45.438132 -0.769930 2.324955 0.089245 -0.035805 -1047450.000000 0 0 1
-25.087181 22.472183 -31.569527 46.162762 -0.730470 2.323856 0.086532 -0.030808 -1385340.000000 0 0 1
-24.951821 21.826983 -32.807827 46.640798 -0.718697 2.350987 0.101860 -0.033604 -246899.000000 0 0 1
-26.221101 21.497283 -33.266707 47.501085 -0.686726 2.346664 0.111280 -0.033370 -561297.000000 0 0 1
-26.127781 20.529983 33.422876 47.129924 -0.665993 0.782484 0.117431 -0.026695 -88894.700000 0 0 1
-25.813231 19.224383 33.867898 46.721882 -0.640132 0.759932 0.111322 -0.032720 174133.000000 0 0 1
-25.306021 18.484283 32.783794 45.352404 -0.630858 0.762853 0.106806 -0.042570 -172614.000000 0 0 1
-24.904821 17.015283 33.188132 44.846650 -0.599370 0.737673 0.084140 -0.027335 139766.000000 0 0 1
-25.964061 16.104083 33.534221 45.365382 -0.555173 0.738910 0.073249 -0.018870 565561.000000 0 0 1
-26.175491 15.298383 32.405556 44.376986 -0.528911 0.752133 0.080532 -0.015051 -592872.000000 0 0 1
-27.076381 14.153283 32.852708 44.863640 -0.481656 0.749134 0.055040 -0.006740 -444000.000000 0 0 1
-28.265651 14.592083 33.484622 46.185450 -0.476561 0.759757 0.061796 -0.006737 335549.000000 0 0 1
-29.410701 13.757383 33.303171 46.511892 -0.437531 0.772721 0.045838 0.000733 320635.000000 0 0 1
-29.506251 12.355583 -33.911147 46.618077 -0.396560 2.385358 0.033744 -0.000899 28875.700000 0 0 1
-28.546091 11.363583 33.517306 45.468891 -0.378849 0.741956 0.030267 -0.005036 43120.900000 0 0 1
-28.848291 10.098583 -33.857097 45.612589 -0.336727 2.407256 0.040265 -0.006963 12207.500000 0 0 1
-27.675351 9.031083 -33.682967 44.519970 -0.315427 2.428865 0.030601 -0.012678 698809.000000 0 0 1
-26.843821 8.660183 33.116000 43.500102 -0.312072 0.705503 0.031693 -0.015461 -60356.400000 0 0 1
-26.016981 9.703683 32.698206 42.897755 -0.356994 0.704036 0.023331 -0.017528 -1311970.000000 0 0 1
-24.760321 9.229183 31.966061 41.473851 -0.356789 0.690775 0.024185 -0.014759 -456533.000000 0 0 1
-24.891321 9.037883 30.566058 40.441872 -0.348292 0.713918 0.035310 -0.011895 -246342.000000 0 0 1
-23.669121 8.656683 29.985208 39.169862 -0.350625 0.698951 0.062272 -0.019798 43878.400000 0 0 1
-23.674621 8.772483 28.440928 38.030652 -0.354858 0.725990 0.092622 -0.029316 -84025.600000 0 0 1
-23.784521 10.089983 27.929168 38.046676 -0.401214 0.746491 0.087795 -0.025592 107316.000000 0 0 1
-23.966121 9.959683 26.501428 37.093070 -0.393859 0.774948 0.084882 -0.024423 -514506.000000 0 0 1
-24.375421 11.298883 25.839548 37.276106 -0.434053 0.804886 0.080241 -0.017075 1471310.000000 0 0 1
-25.708361 11.773983 26.154508 38.517590 -0.429472 0.824359 0.086501 -0.017319 1309600.000000 0 0 1
-26.806151 11.120283 25.486138 38.623485 -0.393234 0.850162 0.107855 -0.013244 429713.000000 0 0 1
-28.035301 12.059983 25.625688 39.850936 -0.406243 0.872337 0.097741 -0.014719 35347.000000 0 0 1
-27.861751 13.250583 24.898098 39.645559 -0.443924 0.891794 0.111565 -0.018165 667264.000000 0 0 1
-29.049131 14.047183 25.058988 40.854965 -0.450414 0.910483 0.101025 -0.021519 833831.000000 0 0 1
-28.948231 15.384483 24.265328 40.785886 -0.488488 0.933600 0.106310 -0.019982 164020.000000 0 0 1
-28.239871 16.385483 25.040218 41.145921 -0.525752 0.916538 0.119770 -0.021229 3411.260000 0 0 1
-27.633541 17.296483 24.198058 40.599592 -0.559263 0.932264 0.097086 -0.026267 -757245.000000 0 0 1
-22.684421 -9.167617 31.904434 40.205983 0.384068 0.654217 0.096096 -0.027544 -736195.000000 0 0 1
-21.978921 -8.746817 30.825068 38.855689 0.378750 0.654550 0.090048 -0.030503 -583546.000000 0 0 1
-22.643421 -8.783217 29.591588 38.282260 0.370026 0.687265 0.087266 -0.029305 195127.000000 0 0 1
-21.617921 -8.490017 28.440938 36.719230 0.374224 0.684790 0.095192 -0.032332 252681.000000 0 0 1
-21.284321 -7.109517 28.303338 36.119890 0.322374 0.670366 0.093626 -0.031812 1749170.000000 0 0 1
-19.950821 -6.771517 28.837748 35.714204 0.327210 0.630965 0.088735 -0.033433 1980060.000000 0 0 1
-18.660621 -7.075517 27.994348 34.379721 0.362420 0.619327 0.098032 -0.037062 86678.100000 0 0 1
-18.267921 -8.477217 27.937068 34.439220 0.434476 0.624596 0.094095 -0.036307 265351.000000 0 0 1
-17.750121 -9.033617 29.140798 35.296729 0.470768 0.599541 0.082330 -0.031320 -381585.000000 0 0 1
-16.360121 -8.601717 29.671538 34.957735 0.484053 0.557117 0.064826 -0.031486 -18234.800000 0 0 1
-15.302221 -9.136717 28.873388 33.930960 0.538273 0.553014 0.052930 -0.025098 281919.000000 0 0 1
-14.055121 -8.631617 29.347458 33.664885 0.550742 0.512028 0.045575 -0.030151 562720.000000 0 0 1
-12.794621 -9.385417 28.869798 32.943187 0.632886 0.502563 0.045292 -0.027625 -178092.000000 0 0 1
-12.361321 -9.061817 27.630248 31.596667 0.632583 0.506460 0.070997 -0.029815 -254420.000000 0 0 1
-11.353121 -9.944117 27.193568 31.100948 0.719335 0.506671 0.068010 -0.026148 207673.000000 0 0 1
-10.758021 -9.762417 25.763858 29.577291 0.736919 0.513422 0.059595 -0.026712 32109.400000 0 0 1
-11.692421 -10.164217 24.804688 29.245453 0.715592 0.558303 0.067481 -0.032460 -72828.300000 0 0 1
-11.189121 -10.051117 23.477468 27.882125 0.731872 0.569769 0.062571 -0.037095 195887.000000 0 0 1
-12.249021 -10.569317 22.485438 27.700973 0.711919 0.623705 0.084158 -0.048184 -271361.000000 0 0 1
-12.313121 -12.007717 22.464938 28.292608 0.772842 0.653400 0.068970 -0.042074 346314.000000 0 0 1
-13.565421 -12.499417 22.022738 28.727287 0.744523 0.697245 0.074987 -0.036911 569069.000000 0 0 1
-14.772721 -12.398617 23.007008 30.021349 0.698244 0.697649 0.094444 -0.036092 436460.000000 0 0 1
-15.957821 -13.063817 22.542338 30.552780 0.686008 0.740967 0.086993 -0.027056 718046.000000 0 0 1
-17.007521 -12.953717 23.492868 31.764278 0.650913 0.738320 0.090987 -0.026684 270111.000000 0 0 1
-18.324421 -13.650917 23.079908 32.477901 0.640266 0.780397 0.097945 -0.019932 -269129.000000 0 0 1
-18.287221 -15.102417 23.194898 33.173916 0.690303 0.796531 0.090872 -0.025751 305069.000000 0 0 1
-19.553221 -15.754817 23.072178 34.100852 0.678231 0.827679 0.089976 -0.012085 -222658.000000 0 0 1
-20.435321 -15.762317 24.313398 35.456936 0.657011 0.815209 0.095073 -0.016251 -734090.000000 0 0 1
-20.074521 -16.627917 25.363788 36.370259 0.691766 0.799065 0.092600 -0.021246 -313956.000000 0 0 1
-20.851821 -16.504017 26.520238 37.556677 0.669531 0.786766 0.097930 -0.022136 -294026.000000 0 0 1
-20.445921 -17.484117 27.654048 38.580777 0.707470 0.771618 0.086683 -0.024070 23798.100000 0 0 1
-20.691621 -18.798917 27.309728 39.081501 0.737507 0.797093 0.083169 -0.021017 188229.000000 0 0 1
-20.227621 -19.671317 28.308028 39.968260 0.771456 0.783762 0.077489 -0.021289 -56401.500000 0 0 1
-20.421621 -21.182417 27.940528 40.575984 0.803683 0.811243 0.072700 -0.015550 -740292.000000 0 0 1
-21.759921 -21.543817 27.886588 41.416084 0.780408 0.832096 0.086870 -0.016213 -681991.000000 0 0 1
-21.902221 -22.830717 27.297098 41.786128 0.806152 0.858918 0.090995 -0.007572 690998.000000 0 0 1
-23.415421 -23.151617 27.040898 42.608561 0.779733 0.883260 0.091113 -0.000913 400862.000000 0 0 1
-24.060221 -23.624517 28.202348 43.958895 0.776261 0.874264 0.090541 -0.006459 -982799.000000 0 0 1
-25.223551 -24.257817 27.831408 44.713046 0.765884 0.898934 0.074899 -0.005647 -756763.000000 0 0 1
-25.918991 -25.096897 28.937498 46.249617 0.769285 0.894792 0.055843 -0.015129 93577.200000 0 0 1
-26.804051 -24.403217 29.817478 46.936725 0.738548 0.882439 0.043465 0.004057 697032.000000 0 0 1
-27.511441 -25.358567 30.646808 48.364896 0.744701 0.884524 0.045168 0.008950 -53297.700000 0 0 1
-28.795821 -24.799917 31.254828 49.204669 0.710979 0.882528 0.028627 0.010409 -107556.000000 0 0 1
-29.860111 -24.594917 30.328738 49.156571 0.689009 0.905894 0.035911 0.012594 690193.000000 0 0 1
-30.893921 -23.801217 30.918278 49.768184 0.656441 0.900465 0.037723 0.001178 93253.900000 0 0 1
-32.143791 -23.654417 30.022928 49.941275 0.634412 0.925839 0.030716 -0.001362 -102818.000000 0 0 1
-33.062471 -24.726517 30.196008 51.150039 0.642138 0.939314 0.028772 -0.000585 252687.000000 0 0 1
-34.044031 -24.657417 29.162268 51.160748 0.626836 0.964275 0.027916 -0.002057 370192.000000 0 0 1
-35.423184 -25.235087 29.567988 52.591610 0.618992 0.973730 0.041214 -0.011213 187436.000000 0 0 1
-35.256457 -26.636847 29.743248 53.265375 0.647023 0.978344 0.042980 -0.011561 519035.000000 0 0 1
-36.228931 -27.120517 30.691588 54.681180 0.642596 0.974862 0.043213 -0.017900 574391.000000 0 0 1
-35.885134 -28.596687 31.046668 55.402246 0.672845 0.975944 0.040217 -0.024666 395239.000000 0 0 1
-34.670170 -28.761107 31.787228 55.133019 0.692509 0.956290 0.048186 -0.015375 489862.000000 0 0 1
-34.462269 -30.101837 32.085340 55.885934 0.717964 0.959265 0.043007 -0.020376 -548158.000000 0 0 1
-33.328711 -30.275937 33.060758 55.860980 0.737439 0.937457 0.058750 -0.025420 -739906.000000 0 0 1
-33.736921 -29.977597 -33.537887 56.228338 0.726464 2.209878 0.054690 -0.019595 81405.300000 0 0 1
-32.690311 -30.080087 -32.581317 55.090927 0.743838 2.203602 0.055321 -0.023523 61399.200000 0 0 1
-33.119671 -29.868017 -31.127677 54.386977 0.733820 2.180149 0.062824 -0.028053 -90046.100000 0 0 1
-33.360351 -28.536767 -30.757697 53.603134 0.707626 2.181939 0.062463 -0.019870 1019500.000000 0 0 1
-32.155451 -27.712017 -30.657087 52.362065 0.711313 2.196272 0.063962 -0.016499 837186.000000 0 0 1
-32.447241 -26.218237 -30.422257 51.630738 0.679616 2.200899 0.045090 -0.003340 36978.400000 0 0 1
-33.095991 -25.835147 -29.192337 51.136992 0.662807 2.178356 0.043826 -0.013897 325136.000000 0 0 1
-33.240891 -24.439017 -29.166247 50.526155 0.633968 2.186154 0.039798 -0.010975 28708.200000 0 0 1
-31.952811 -23.763017 -28.641887 49.051206 0.639451 2.194343 0.040696 -0.013419 -71089.600000 0 0 1
-31.955601 -22.340017 -28.776237 48.459350 0.610119 2.206597 0.039585 -0.007413 -206654.000000 0 0 1
-30.853301 -21.814317 -28.100597 47.089639 0.615431 2.210237 0.070215 -0.008669 -460818.000000 0 0 1
-30.685481 -20.260117 -28.206077 46.342786 0.583548 2.225142 0.083323 -0.009441 -326747.000000 0 0 1
-30.119111 -19.925817 -29.428177 46.585584 0.584464 2.254542 0.094376 -0.007188 69571.300000 0 0 1
-29.918721 -18.523717 -29.505297 45.921896 0.554370 2.268566 0.089572 -0.006470 -328052.000000 0 0 1
-29.411951 -17.978417 -30.869427 46.273187 0.548659 2.301122 0.118556 -0.009092 252071.000000 0 0 1
-30.316781 -17.862917 -31.969437 47.541938 0.532447 2.308306 0.107355 -0.020539 479507.000000 0 0 1
-31.281871 -16.826317 -31.867547 47.720236 0.493501 2.302045 0.088934 -0.022110 -331155.000000 0 0 1
-31.916881 -16.291417 -33.207317 48.855127 0.471959 2.318163 0.099429 -0.028304 244066.000000 0 0 1
-32.878401 -17.076917 -33.900027 50.217747 0.479044 2.311843 0.100004 -0.031287 1390570.000000 0 0 1
-34.197069 -16.880317 -33.316167 50.639427 0.458530 2.288836 0.087196 -0.026254 373975.000000 0 0 1
-35.307321 -17.618417 33.830849 51.976358 0.462849 0.862041 0.087617 -0.030312 -722612.000000 0 0 1
-35.411113 -19.033817 33.855008 52.558488 0.493203 0.870898 0.041983 -0.024633 -227226.000000 0 0 1
-36.263461 -19.457117 32.836771 52.648566 0.492457 0.897332 0.050109 -0.020060 -569440.000000 0 0 1
-36.432141 -21.006817 32.904302 53.397381 0.523037 0.906868 0.027550 -0.013154 1529740.000000 0 0 1
-35.183163 -21.808817 32.842222 52.840240 0.554898 0.900092 0.037113 -0.014049 1641840.000000 0 0 1
-35.458179 -23.162617 33.112655 53.760926 0.578648 0.907238 0.029357 -0.012573 -297160.000000 0 0 1
-34.145401 -23.978217 33.221957 53.334433 0.612227 0.898354 0.035749 -0.010530 315780.000000 0 0 1
-33.310121 -23.732217 -33.529487 52.886754 0.619041 2.257494 0.018341 -0.015396 138977.000000 0 0 1
-32.461321 -22.609617 -33.647257 51.933323 0.608379 2.275612 0.025933 -0.019218 -1057490.000000 0 0 1
-31.394661 -22.550617 -32.551997 50.535013 0.622899 2.270704 0.044931 -0.016345 -362373.000000 0 0 1
-30.463131 -23.560517 -32.910127 50.657445 0.658317 2.277934 0.056158 -0.010615 770456.000000 0 0 1
-29.116461 -23.511317 -32.409367 49.506741 0.679293 2.284510 0.079126 -0.018203 1058810.000000 0 0 1
-28.913981 -23.930717 -30.956057 48.651567 0.691376 2.260464 0.071456 -0.000773 -802896.000000 0 0 1
-28.826891 -25.323147 -30.866907 49.244465 0.720784 2.248248 0.068507 -0.011959 158423.000000 0 0 1
-28.578721 -25.760907 -29.568197 48.524694 0.733589 2.226028 0.053029 -0.020082 -231136.000000 0 0 1
-28.114111 -27.204707 -29.451107 48.968020 0.768960 2.216093 0.052338 -0.025250 318324.000000 0 0 1
-29.137221 -28.172747 -29.727547 50.263390 0.768571 2.203634 0.046819 -0.011661 395745.000000 0 0 1
-28.698921 -29.447747 -29.361307 50.526075 0.798276 2.190891 0.041144 -0.015625 -91580.000000 0 0 1
-29.535891 -30.646977 -29.876777 52.002191 0.803858 2.182825 0.054908 0.000366 -242880.000000 0 0 1
-29.433771 -30.783857 -31.244467 52.822433 0.807815 2.203714 0.068621 -0.023972 305798.000000 0 0 1
-29.672211 -32.130467 -31.574047 53.941890 0.825153 2.196089 0.087291 -0.011060 -213008.000000 0 0 1
-29.074471 -32.486837 -32.949777 54.648030 0.840772 2.217984 0.079672 -0.027305 -887630.000000 0 0 1
-27.692361 -32.478547 -32.991597 53.945976 0.864774 2.228836 0.064219 -0.024932 -1080010.000000 0 0 1
-27.264881 -32.892037 33.599805 54.352615 0.878668 0.904369 0.071736 -0.029449 246334.000000 0 0 1
-25.716081 -32.877787 33.454414 53.492649 0.907021 0.895150 0.078249 -0.029831 337837.000000 0 0 1
-25.314741 -33.426267 32.234547 52.888727 0.922620 0.915394 0.085689 -0.023590 97980.500000 0 0 1
-24.427521 33.315791 32.442507 52.527725 -0.938127 0.905075 0.081268 -0.013679 -234450.000000 0 0 1
-24.406021 32.365495 31.215128 51.162127 -0.924692 0.914582 0.084871 -0.018077 -244463.000000 0 0 1
-25.599931 31.654727 31.008378 51.175166 -0.890759 0.919867 0.080705 -0.031684 -159679.000000 0 0 1
-25.432741 30.598397 30.044738 49.857521 -0.877331 0.924026 0.072415 -0.020298 696207.000000 0 0 1
-26.730101 29.840847 29.528128 49.768310 -0.840331 0.935629 0.069755 -0.016423 605971.000000 0 0 1
-27.376791 29.061377 30.503788 50.244734 -0.815238 0.918385 0.077752 -0.017051 -199459.000000 0 0 1
-28.626751 28.634917 30.056158 50.426401 -0.785541 0.932236 0.078042 -0.020189 -119395.000000 0 0 1
-29.209491 27.390027 30.802568 50.519363 -0.753263 0.915092 0.066327 -0.029664 379785.000000 0 0 1
-28.293071 26.325617 30.561038 49.269798 -0.749392 0.901698 0.045772 -0.016281 605527.000000 0 0 1
-28.839621 25.039957 30.890648 49.121841 -0.714993 0.890713 0.043731 -0.013999 331102.000000 0 0 1
-29.871331 24.512367 29.886268 48.850194 -0.687175 0.912469 0.044882 -0.011040 -97470.600000 0 0 1
-29.230221 24.143527 28.678758 47.537215 -0.690382 0.923176 0.041746 -0.017838 -688317.000000 0 0 1
-30.064111 23.669737 27.697878 47.236422 -0.666954 0.944230 0.047822 -0.014372 -770875.000000 0 0 1
-29.350001 23.132787 26.465138 45.792487 -0.667486 0.954599 0.051051 -0.015729 -418134.000000 0 0 1
-28.367941 22.160907 26.717018 44.829063 -0.663169 0.932317 0.055245 -0.022511 -740824.000000 0 0 1
-27.632971 22.027607 25.584238 43.627397 -0.673000 0.944157 0.055013 -0.018888 -403645.000000 0 0 1
-26.262411 21.313807 25.793908 42.536082 -0.681757 0.919270 0.068284 -0.031118 218913.000000 0 0 1
-26.367461 20.097107 26.581658 42.493778 -0.651259 0.894970 0.095309 -0.035726 923681.000000 0 0 1
-25.037421 19.712807 26.966268 41.745021 -0.666970 0.868496 0.087779 -0.034547 771073.000000 0 0 1
-25.049791 18.702607 28.100538 42.034744 -0.641333 0.838596 0.115523 -0.027808 -1072220.000000 0 0 1
-23.888921 17.980507 28.071128 41.011795 -0.645209 0.816927 0.116549 -0.019209 -871817.000000 0 0 1
-23.836921 16.994107 29.057588 41.247325 -0.619353 0.789117 0.108977 -0.019353 -356117.000000 0 0 1
-22.521821 16.208207 29.163968 40.255129 -0.623804 0.760519 0.101544 -0.021522 -1186080.000000 0 0 1
-21.501921 16.807407 29.820428 40.423748 -0.663464 0.741145 0.135664 -0.025112 -1491710.000000 0 0 1
-20.383921 15.993107 29.639928 39.367613 -0.665276 0.718337 0.112434 -0.020463 -140470.000000 0 0 1
-19.122021 16.380407 30.469138 39.526418 -0.708328 0.690614 0.084792 -0.022946 45918.900000 0 0 1
-19.289721 16.185807 31.862945 40.611832 -0.698126 0.668789 0.073325 -0.029346 205385.000000 0 0 1
-18.237721 16.696407 32.665157 40.968243 -0.741306 0.647940 0.066480 -0.033798 -795459.000000 0 0 1
-18.348921 16.322107 -33.739317 41.730511 -0.727006 2.512403 0.059458 -0.029791 158836.000000 0 0 1
-19.465021 16.863107 -33.066407 41.912273 -0.713898 2.479884 0.079280 -0.028819 199296.000000 0 0 1
-20.722421 16.278107 -33.358537 42.511027 -0.665856 2.473013 0.076292 -0.015649 -268161.000000 0 0 1
-21.855021 17.200207 -32.796467 43.001131 -0.666772 2.438256 0.074629 -0.033370 -173022.000000 0 0 1
-21.982621 17.086607 -31.392817 41.960656 -0.660732 2.416064 0.082332 -0.027772 -32513.500000 0 0 1
-22.972821 17.962607 -30.927867 42.508101 -0.663611 2.385578 0.088572 -0.021638 -530984.000000 0 0 1
-23.008921 17.848907 -29.382057 41.367852 -0.659771 2.360668 0.082171 -0.016262 355797.000000 0 0 1
-23.711221 16.709407 -28.816767 40.888046 -0.613876 2.352899 0.083610 -0.020291 826795.000000 0 0 1
-25.141831 16.781707 -28.853347 41.788191 -0.588567 2.332930 0.075835 -0.016044 524387.000000 0 0 1
-25.824751 15.761907 -27.938437 41.181448 -0.547989 2.316410 0.066571 -0.012879 33735.500000 0 0 1
-25.782131 14.373507 -28.254487 40.861130 -0.508582 2.334326 0.062103 -0.007883 339237.000000 0 0 1
-26.694761 13.620807 -27.418897 40.619361 -0.471808 2.311789 0.039028 0.001033 554049.000000 0 0 1
-26.598611 12.070707 -27.479977 40.104079 -0.426018 2.325697 0.058866 -0.000551 277324.000000 0 0 1
-25.454071 11.623707 -26.744617 38.707813 -0.428374 2.333579 0.050579 -0.001562 285160.000000 0 0 1
-25.018921 10.393907 -27.259677 38.432664 -0.393747 2.359278 0.040903 0.002312 188823.000000 0 0 1
-23.635621 10.004607 -26.669137 37.013208 -0.400417 2.375363 0.066179 0.000150 318223.000000 0 0 1
-23.816621 9.172607 -25.513117 36.087217 -0.367626 2.356022 0.062129 -0.001453 420492.000000 0 0 1
-22.566521 8.640307 -25.092497 34.835846 -0.365663 2.375041 0.077961 0.002743 197112.000000 0 0 1
-22.725621 7.604707 -23.974287 33.897667 -0.322918 2.356404 0.091132 0.011401 -104343.000000 0 0 1
-23.271021 6.398407 -24.358687 34.290314 -0.268321 2.360815 0.086716 -0.006549 3080.280000 0 0 1
-23.274921 5.484607 -23.319787 33.400828 -0.231423 2.343648 0.094481 0.008487 -258627.000000 0 0 1
35.500343 24.467183 -10.153087 44.294498 0.603447 1.802070 0.077959 -0.006476 818903.000000 0 0 1
36.559633 24.204483 -9.186387 44.797918 0.584803 1.777324 0.086797 -0.012805 576639.000000 0 0 1
-37.138721 23.368983 -9.775987 44.955131 -0.561639 1.790009 0.105979 -0.015466 -19236.500000 0 0 1
-36.199711 22.754383 -8.718787 43.637120 -0.561169 1.771952 0.121247 -0.018303 203286.000000 0 0 1
-36.875311 21.869983 -7.845587 43.584836 -0.535315 1.751790 0.096476 -0.016390 -429062.000000 0 0 1
-35.959734 21.382383 -6.958387 42.411412 -0.536454 1.735610 0.153184 -0.015758 -551184.000000 0 0 1
-36.565461 20.444483 -5.857587 42.300368 -0.509818 1.709719 0.120211 -0.001286 308536.000000 0 0 1
-37.192051 19.220583 -6.359487 42.345277 -0.476991 1.721548 0.096193 0.005349 617410.000000 0 0 1
36.795943 18.605983 -5.270287 41.568016 0.468160 1.697926 0.096556 -0.006959 -312032.000000 0 0 1
36.159893 17.314883 -5.761587 40.503567 0.446579 1.713529 0.092833 -0.000759 -894807.000000 0 0 1
35.074763 17.598083 -6.566387 39.787548 0.465031 1.736591 0.090236 -0.004715 -773852.000000 0 0 1
34.441073 16.434283 -6.991987 38.796405 0.445218 1.752009 0.106799 -0.002498 -420901.000000 0 0 1
33.358393 16.707583 -8.025587 38.161967 0.464328 1.782681 0.079424 -0.004069 -319803.000000 0 0 1
32.801013 15.582683 -8.651787 37.330683 0.443503 1.804684 0.090437 -0.005151 31410.900000 0 0 1
32.666353 15.784283 -10.028987 37.640600 0.450115 1.840495 0.067781 -0.014091 -667399.000000 0 0 1
32.195143 14.485383 -10.754387 36.905425 0.422791 1.866490 0.064424 -0.020203 1104820.000000 0 0 1
30.852303 13.993883 -10.507287 35.469655 0.425824 1.871543 0.058231 -0.012313 1387650.000000 0 0 1
30.644663 13.584183 -9.206387 34.761803 0.417252 1.838836 0.077117 -0.014790 -1178640.000000 0 0 1
29.602413 12.484183 -9.017987 33.368874 0.399096 1.844451 0.067475 -0.009464 -313195.000000 0 0 1
30.105523 11.233183 -9.407187 33.481668 0.357128 1.855596 0.076402 -0.005601 317179.000000 0 0 1
29.115913 10.252983 -9.553887 32.313106 0.338583 1.870949 0.095967 -0.008205 -752210.000000 0 0 1
29.718253 8.911783 -9.839387 32.548548 0.291343 1.877900 0.097718 -0.001575 -117603.000000 0 0 1
30.671003 8.624783 -8.800187 33.053602 0.274124 1.840286 0.097564 -0.005797 589057.000000 0 0 1
30.748173 7.217983 -8.659387 32.749571 0.230570 1.838391 0.093939 -0.001197 -683147.000000 0 0 1
31.994763 6.858383 -7.855787 33.651384 0.211164 1.806417 0.127009 -0.009856 -583303.000000 0 0 1
33.174993 7.029183 -8.583787 34.981009 0.208794 1.818712 0.126733 -0.013971 -182650.000000 0 0 1
34.326223 6.655983 -7.839587 35.833655 0.191527 1.791357 0.133034 -0.019605 809988.000000 0 0 1
35.649993 7.046183 -8.604287 37.344403 0.195134 1.803289 0.144575 -0.022702 623707.000000 0 0 1
36.004163 6.092783 -9.647887 37.769081 0.167636 1.829103 0.159495 -0.031723 1334570.000000 0 0 1
-37.223771 5.922783 -9.666687 38.911866 -0.157790 1.821850 0.161310 -0.039484 318703.000000 0 0 1
-36.791121 5.080983 -10.888487 38.703515 -0.137235 1.855977 0.154291 -0.042201 -740287.000000 0 0 1
-35.443249 4.748483 -11.030287 37.422442 -0.133181 1.869991 0.153986 -0.045192 -392111.000000 0 0 1
-34.611498 5.659683 -11.674787 36.963339 -0.162086 1.892146 0.125580 -0.034395 -331536.000000 0 0 1
-33.793471 6.598183 -10.753087 36.071645 -0.192824 1.873502 0.131867 -0.023366 -405260.000000 0 0 1
-34.642633 7.517283 -10.057687 36.848047 -0.213682 1.847255 0.151010 -0.025465 474147.000000 0 0 1
-34.959540 8.764883 -10.646287 37.581059 -0.245652 1.858018 0.139911 -0.029943 -47892.800000 0 0 1
-35.855333 9.677483 -9.813387 38.413033 -0.263622 1.829130 0.133893 -0.015655 -40189.100000 0 0 1
-35.116126 10.232883 -8.769987 37.613387 -0.283549 1.806124 0.129447 -0.003631 212892.000000 0 0 1
-35.920004 11.108083 -7.987287 38.437389 -0.299917 1.780122 0.120502 -0.004197 121547.000000 0 0 1
-35.115063 11.991983 -7.006487 37.761967 -0.329087 1.757421 0.150025 -0.009665 -142332.000000 0 0 1
-34.476924 13.031183 -7.694187 37.651965 -0.361370 1.776596 0.136926 -0.010472 -231652.000000 0 0 1
-33.901081 13.968283 -6.793587 37.290066 -0.390834 1.754002 0.155043 -0.012079 50953.400000 0 0 1
-33.054701 15.092783 -7.455287 37.094294 -0.428329 1.773157 0.142954 -0.009807 -59355.800000 0 0 1
-33.779851 16.002783 -8.273587 38.283411 -0.442418 1.788629 0.118194 -0.004923 32571.400000 0 0 1
-33.128061 17.249083 -8.327387 38.266756 -0.480054 1.790166 0.119243 -0.002045 234329.000000 0 0 1
-33.884981 18.083783 -9.406687 39.543658 -0.490228 1.810980 0.080855 -0.006830 563113.000000 0 0 1
-33.383111 18.041783 -10.739687 39.437024 -0.495479 1.846605 0.068726 -0.004744 -8117.420000 0 0 1
-34.416912 18.481483 -11.600687 40.751257 -0.492799 1.859459 0.058546 -0.010250 148963.000000 0 0 1
-34.035441 18.507683 -13.095587 40.895476 -0.498053 1.896759 0.028314 -0.000297 -77018.800000 0 0 1
-33.153391 19.577183 -13.331387 40.744806 -0.533407 1.904127 0.039556 -0.011728 -149514.000000 0 0 1
-32.991881 19.865283 -14.698687 41.220687 -0.541982 1.935407 0.018784 -0.010397 -715545.000000 0 0 1
-32.170631 21.119283 -14.852187 41.249982 -0.580915 1.939121 0.044826 -0.009977 -177486.000000 0 0 1
-30.799751 20.923783 -14.485487 39.953206 -0.596731 1.941811 0.050745 -0.006148 475286.000000 0 0 1
-30.091561 22.132583 -14.420587 40.041311 -0.634162 1.939217 0.055948 -0.003059 3139.330000 0 0 1
-29.620911 22.781983 -15.801587 40.572247 -0.655625 1.970850 0.059083 -0.004923 -571908.000000 0 0 1
-30.637401 23.361283 -16.570087 41.940048 -0.651459 1.976962 0.061504 0.001829 14024.900000 0 0 1
-30.055471 23.856783 -17.766587 42.286274 -0.670923 2.004407 0.087894 -0.003249 460213.000000 0 0 1
-29.393941 25.291483 -17.659487 42.608923 -0.710519 1.998140 0.106419 0.000452 93518.400000 0 0 1
-30.305901 26.262583 -17.273887 43.664150 -0.714043 1.977526 0.127958 -0.001900 -74528.600000 0 0 1
-29.734431 27.559283 -17.467287 44.144722 -0.747452 1.977607 0.133530 -0.004925 405489.000000 0 0 1
-30.567051 28.748083 -16.823387 45.208663 -0.754742 1.952096 0.134555 -0.013418 152986.000000 0 0 1
-30.545171 28.991283 -15.483687 44.869215 -0.759304 1.923126 0.120232 -0.015424 297836.000000 0 0 1
-29.426501 29.756383 -15.053287 44.474292 -0.790972 1.916089 0.108652 -0.010113 177208.000000 0 0 1
-29.566671 30.219883 -13.563287 44.400361 -0.796323 1.881236 0.102074 -0.004748 125932.000000 0 0 1
-30.269541 31.471783 -13.468087 45.695815 -0.804868 1.869973 0.084856 -0.007854 182070.000000 0 0 1
-30.220101 32.115083 -12.199587 45.754376 -0.815789 1.840693 0.071520 -0.009467 -33515.000000 0 0 1
-29.076931 33.135483 -12.046087 45.700507 -0.850543 1.837536 0.070308 -0.012631 144187.000000 0 0 1
-29.221341 -33.615142 -12.940787 46.382415 0.855209 1.853551 0.061336 -0.021855 -739430.000000 0 0 1
-28.049821 -32.892642 -13.058687 45.158029 0.864697 1.864164 0.084512 -0.025968 -647831.000000 0 0 1
-28.097921 -31.998542 -14.355287 44.938559 0.850213 1.895937 0.076936 -0.028248 -27692.900000 0 0 1
-27.765531 -32.674842 -15.564287 45.615973 0.866446 1.918992 0.067960 -0.032162 -197470.000000 0 0 1
-27.870701 -31.822742 -16.699987 45.479142 0.851507 1.946794 0.059951 -0.020578 79659.000000 0 0 1
-27.101021 -32.318242 -17.963287 45.843361 0.872977 1.973428 0.065745 -0.021428 -395851.000000 0 0 1
-27.603721 -33.404742 -18.685087 47.190832 0.880199 1.977896 0.070708 -0.013579 -106544.000000 0 0 1
-27.031411 33.175283 -18.255287 46.524746 -0.887092 1.974012 0.066730 -0.020618 -403136.000000 0 0 1
-27.310161 31.874483 -19.026787 46.085205 -0.862366 1.996389 0.093346 -0.022522 145112.000000 0 0 1
-28.616061 31.320683 -18.926887 46.455259 -0.830492 1.990426 0.118726 -0.026096 650367.000000 0 0 1
-29.462941 31.876183 -19.960587 47.776363 -0.824721 2.001810 0.109419 -0.024067 -440235.000000 0 0 1
-30.964861 31.650583 -19.868787 48.531955 -0.796349 1.992588 0.110000 -0.035495 -466896.000000 0 0 1
-31.358931 30.343183 -20.242587 48.102532 -0.768938 2.005147 0.123071 -0.039028 -356776.000000 0 0 1
-32.756541 30.305183 -20.228487 48.995783 -0.746545 1.996390 0.127755 -0.036324 -418944.000000 0 0 1
-33.214231 28.973883 -20.994087 48.820310 -0.717318 2.015320 0.140813 -0.033856 -476299.000000 0 0 1
-34.600101 28.782283 -21.022887 49.674425 -0.693865 2.007786 0.140425 -0.031090 -169320.000000 0 0 1
-34.894568 27.548183 -21.719487 49.479989 -0.668287 2.025232 0.134157 -0.025015 -144828.000000 0 0 1
-36.350071 27.085483 -21.889487 50.339851 -0.640376 2.020650 0.121599 -0.021073 219364.000000 0 0 1
-37.147221 27.766983 -22.893287 51.720633 -0.641889 2.029330 0.126473 -0.020192 268132.000000 0 0 1
36.513323 26.871483 -23.300287 50.972568 0.634439 2.045544 0.116261 -0.016008 -270600.000000 0 0 1
35.679793 27.308583 -24.497987 51.175753 0.653272 2.069973 0.101899 -0.011959 -438024.000000 0 0 1
36.340543 27.249883 -25.743577 52.210372 0.643404 2.086416 0.118795 -0.025718 -532308.000000 0 0 1
35.605143 27.617983 -26.885397 52.471933 0.659731 2.108746 0.114597 -0.022190 -126177.000000 0 0 1
36.472373 27.722783 -28.173527 53.782286 0.649936 2.122154 0.112518 -0.030782 302759.000000 0 0 1
36.979063 26.450083 -28.591537 53.707857 0.620902 2.132174 0.084311 -0.032807 -101571.000000 0 0 1
-36.854061 26.461083 -29.719067 54.236829 -0.622702 2.150708 0.076828 -0.033890 -565990.000000 0 0 1
-36.074221 25.113183 -29.938457 53.182070 -0.608140 2.168738 0.067854 -0.026776 366778.000000 0 0 1
-35.073608 24.673083 -29.045467 51.793417 -0.613048 2.166141 0.056628 -0.016746 174878.000000 0 0 1
-33.915831 25.528583 -29.101927 51.467604 -0.645229 2.171765 0.045667 -0.015515 -123177.000000 0 0 1
-32.777531 24.980783 -28.223897 49.949918 -0.651220 2.171283 0.057038 -0.026367 -283856.000000 0 0 1
-32.321101 23.723683 -28.620887 49.260753 -0.633182 2.190763 0.058787 -0.020484 199085.000000 0 0 1
-33.060821 22.668783 -27.997417 48.895265 -0.601043 2.180470 0.042028 -0.021070 -57420.400000 0 0 1
-32.824901 21.319883 -28.720777 48.547858 -0.576026 2.203835 0.031633 -0.019507 -77202.700000 0 0 1
-31.464361 20.946083 -28.808967 47.525792 -0.587339 2.222039 0.068687 -0.022021 132747.000000 0 0 1
-31.402411 19.705783 -29.453037 47.348819 -0.560413 2.242147 0.050443 -0.018500 119627.000000 0 0 1
-29.976411 19.124483 -29.580397 46.252901 -0.567882 2.264691 0.055795 -0.022494 488170.000000 0 0 1
-29.135801 19.660883 -30.642767 46.630723 -0.593613 2.287810 0.070563 -0.018752 952625.000000 0 0 1
-27.810081 19.178683 -30.781367 45.702461 -0.603733 2.309752 0.078314 -0.021228 333304.000000 0 0 1
-27.610551 17.756383 -31.386177 45.417218 -0.571510 2.333756 0.090797 -0.016305 -456372.000000 0 0 1
-28.085121 16.701883 -30.570737 44.747031 -0.536504 2.322919 0.058297 -0.013192 47793.500000 0 0 1
-28.084331 15.476083 -31.325777 44.827927 -0.503655 2.344516 0.041454 -0.005975 139214.000000 0 0 1
-28.833191 14.205383 -30.756437 44.487124 -0.457770 2.334160 0.041990 -0.002361 689535.000000 0 0 1
-30.254041 14.380983 -30.656297 45.408459 -0.443726 2.311928 0.027083 -0.005476 929906.000000 0 0 1
-31.079811 13.239783 -30.482267 45.501814 -0.402711 2.304888 0.019651 -0.005709 79823.800000 0 0 1
-30.687931 12.299083 -29.287547 44.167600 -0.381178 2.295749 0.021536 -0.009215 -675269.000000 0 0 1
-30.795921 12.947583 -28.026877 43.606587 -0.397995 2.268841 0.013218 -0.011472 217704.000000 0 0 1
-30.767031 11.961983 -27.058527 42.683288 -0.370807 2.257430 0.012397 -0.002614 -71040.600000 0 0 1
-30.578981 12.290583 -25.551837 41.701665 -0.382168 2.230306 0.018848 0.000085 776663.000000 0 0 1
-29.300191 12.909583 -25.305487 40.810858 -0.415007 2.239625 0.028814 -0.003493 584301.000000 0 0 1
-29.159981 13.553683 -24.040287 40.149000 -0.435097 2.212769 0.030554 0.001756 1077330.000000 0 0 1
-27.662391 13.893583 -23.663687 38.964209 -0.465450 2.223477 0.046436 0.008849 1068110.000000 0 0 1
-27.043661 15.004483 -24.335487 39.353653 -0.506540 2.237475 0.053994 0.004726 953456.000000 0 0 1
-25.649201 15.301583 -24.164787 38.418184 -0.537895 2.251054 0.059529 -0.003123 1018800.000000 0 0 1
-25.265781 15.801383 -22.738487 37.484425 -0.558892 2.222588 0.063804 0.003012 -634794.000000 0 0 1
-25.696191 17.124883 -22.465887 38.187326 -0.587843 2.199760 0.072091 -0.001920 35387.800000 0 0 1
-25.804561 17.370083 -21.072087 37.571638 -0.592471 2.166210 0.075027 -0.005605 931883.000000 0 0 1
-27.315681 17.490283 -20.608487 38.428715 -0.569527 2.136818 0.065212 -0.006193 946395.000000 0 0 1
-27.923311 16.230983 -20.687587 38.355343 -0.526534 2.140481 0.065769 0.004465 1258890.000000 0 0 1
-29.229451 16.170783 -20.043187 38.956185 -0.505324 2.111228 0.064337 0.004727 1021780.000000 0 0 1
-30.212151 15.047483 -20.445887 39.461818 -0.462095 2.115446 0.049475 0.004322 446647.000000 0 0 1
-30.853411 15.112083 -21.736087 40.654218 -0.455457 2.134899 0.043543 0.006572 1045320.000000 0 0 1
-31.878391 16.136683 -21.896687 41.905718 -0.468591 2.120603 0.036724 0.000708 369644.000000 0 0 1
-32.390361 16.110583 -23.365287 43.065334 -0.461556 2.144271 0.017641 -0.002591 -47433.800000 0 0 1
-33.247331 15.038983 -23.733987 43.529968 -0.424795 2.147464 0.023510 0.001252 217500.000000 0 0 1
-33.578481 15.052283 -25.115477 44.551911 -0.421416 2.169697 0.025984 -0.006020 188134.000000 0 0 1
-34.876735 14.286883 -25.525177 45.519625 -0.388788 2.166089 0.017084 -0.002058 311540.000000 0 0 1
-34.805220 12.925983 -25.726557 45.170123 -0.355594 2.176752 0.031648 -0.011551 -6885.210000 0 0 1
-34.775018 12.206783 -24.492987 44.251709 -0.337585 2.157348 0.034937 -0.011507 -192708.000000 0 0 1
-34.946323 10.700583 -24.604987 44.058521 -0.297136 2.163326 0.046112 -0.015056 859130.000000 0 0 1
-36.255521 10.234383 -24.974687 45.198897 -0.275126 2.156218 0.057552 -0.014177 661266.000000 0 0 1
-36.122661 9.080983 -25.708837 45.257653 -0.246289 2.174937 0.059035 -0.009045 -342386.000000 0 0 1
37.179713 8.637183 -26.216777 46.306062 0.228260 2.172640 0.093808 -0.012360 -348925.000000 0 0 1
36.379793 7.972283 -25.263027 45.002968 0.215730 2.166829 0.091433 -0.008775 276284.000000 0 0 1
35.342593 7.204783 -25.888087 44.398207 0.201100 2.193322 0.109961 -0.017652 -155698.000000 0 0 1
34.571193 6.357283 -24.914187 43.084790 0.181858 2.187390 0.114701 -0.025387 -508613.000000 0 0 1
35.317893 5.435583 -24.204687 43.159773 0.152706 2.166167 0.111094 -0.033387 -419766.000000 0 0 1
34.486813 4.423883 -23.729087 42.094900 0.127581 2.169660 0.113787 -0.027532 -226610.000000 0 0 1
35.190353 3.442183 -22.834387 42.090602 0.097506 2.144213 0.097551 -0.023260 282224.000000 0 0 1
36.258783 2.698383 -23.423087 43.250684 0.074283 2.143095 0.105344 -0.029123 378088.000000 0 0 1
36.902663 1.851683 -22.526587 43.274500 0.050135 2.118293 0.108610 -0.027542 -365711.000000 0 0 1
-36.851861 0.829883 -23.221587 43.565932 -0.022516 2.132964 0.120387 -0.029598 -27782.600000 0 0 1
37.215713 -0.074417 -24.168587 44.374942 -0.002000 2.146762 0.115966 -0.031449 31267.200000 0 0 1
-36.577131 -1.145017 -24.457887 44.015745 0.031294 2.159956 0.119769 -0.031184 56513.800000 0 0 1
-24.114521 29.128083 26.953688 46.437663 -0.879286 0.951543 0.041193 -0.011713 434065.000000 0 0 1
-25.374741 29.271083 26.262278 46.801506 -0.856579 0.975032 0.032777 -0.016059 1278280.000000 0 0 1
-25.348111 28.615383 24.998228 45.675795 -0.845870 0.991665 0.024420 0.000308 -324605.000000 0 0 1
-25.409371 27.052683 24.984538 44.740483 -0.816712 0.978301 0.033964 -0.010932 -179916.000000 0 0 1
-26.681061 26.506883 25.293018 45.323620 -0.782123 0.978758 0.026164 -0.010887 342830.000000 0 0 1
-26.996401 26.264783 26.688068 46.161644 -0.771663 0.954344 0.028451 -0.015602 -590703.000000 0 0 1
-26.330051 25.110483 27.484838 45.598511 -0.761694 0.923844 0.036807 -0.011822 1148110.000000 0 0 1
-24.953421 25.206383 27.943508 45.153898 -0.790441 0.903518 0.043181 -0.006229 1153160.000000 0 0 1
-24.837621 25.996683 29.116478 46.265583 -0.808195 0.890101 0.048382 -0.016195 427641.000000 0 0 1
-23.429721 25.878183 29.771338 45.879894 -0.835014 0.864662 0.073528 -0.014684 268118.000000 0 0 1
-22.298721 26.320583 29.006078 45.070595 -0.867932 0.871643 0.080121 -0.020106 376705.000000 0 0 1
-21.132321 26.186683 29.783888 44.937704 -0.891809 0.846269 0.116858 -0.028508 -84609.600000 0 0 1
-20.425221 24.824783 29.674448 43.749655 -0.882321 0.825379 0.110731 -0.022758 -823861.000000 0 0 1
-19.603121 24.621283 28.540068 42.485590 -0.898385 0.834216 0.103882 -0.029406 41078.300000 0 0 1
-20.133021 23.845683 27.442688 41.557866 -0.869618 0.849513 0.096836 -0.027485 -5046.800000 0 0 1
-19.868821 22.305383 27.599668 40.669912 -0.843108 0.824906 0.066062 -0.013652 68851.100000 0 0 1
-20.597521 21.777783 28.692488 41.494439 -0.813244 0.807263 0.070229 -0.016687 23332.500000 0 0 1
-20.535221 20.404883 28.845208 40.866863 -0.782215 0.787197 0.099184 -0.020523 47060.400000 0 0 1
-21.042921 19.918783 30.197808 41.850567 -0.757961 0.764740 0.113400 -0.029211 194676.000000 0 0 1
-20.173021 20.409083 31.225878 42.409160 -0.791215 0.743210 0.094378 -0.043462 463514.000000 0 0 1
-20.430921 19.894283 32.492572 43.231611 -0.772091 0.720323 0.087069 -0.030456 85929.500000 0 0 1
-19.406321 20.563183 33.453092 43.801359 -0.814334 0.701701 0.098264 -0.037524 -293645.000000 0 0 1
-19.674221 21.928983 33.675810 44.743887 -0.839542 0.718742 0.072427 -0.033278 324256.000000 0 0 1
-18.850521 22.815983 32.920688 44.268305 -0.880284 0.732264 0.090972 -0.025253 905373.000000 0 0 1
-17.343621 23.022483 33.295677 44.039050 -0.925165 0.713541 0.079645 -0.026653 881395.000000 0 0 1
-16.592121 21.815983 33.301522 43.130348 -0.920578 0.688636 0.097030 -0.043714 65122.900000 0 0 1
-15.220721 21.966783 33.646561 42.968604 -0.964853 0.671242 0.064173 -0.033573 -104135.000000 0 0 1
-14.447121 20.626383 33.428126 41.852199 -0.959789 0.645634 0.055323 -0.033128 -652247.000000 0 0 1
-13.086221 20.619583 33.718636 41.633673 -1.005288 0.626834 0.043659 -0.025522 -674642.000000 0 0 1
-12.800121 20.660683 -32.783807 40.810353 -1.016133 2.503647 0.058223 -0.029432 -1051750.000000 0 0 1
-11.326021 20.355483 -32.515057 39.998167 -1.063044 2.519934 0.058630 -0.025780 -163474.000000 0 0 1
-10.558321 21.562483 -32.446997 40.363677 -1.115454 2.504563 0.066387 -0.032608 -452837.000000 0 0 1
-9.303321 21.310583 -31.887947 39.465603 -1.159176 2.511535 0.071370 -0.034580 -333731.000000 0 0 1
-8.248821 22.443483 -32.056007 39.991756 -1.218584 2.500705 0.076220 -0.031669 180846.000000 0 0 1
-8.251421 23.534683 -31.155257 39.907609 -1.233581 2.466557 0.076943 -0.026608 -134022.000000 0 0 1
-7.852421 23.201383 -29.855477 38.617537 -1.244451 2.454521 0.073316 -0.029385 -135111.000000 0 0 1
-7.461721 24.408583 -28.978627 38.616279 -1.274118 2.419501 0.085356 -0.030520 56253.500000 0 0 1
-6.329121 25.112083 -29.436347 39.206797 -1.323903 2.420064 0.096871 -0.024095 -71758.500000 0 0 1
-6.000821 26.225283 -28.672267 39.317606 -1.345851 2.388018 0.124454 -0.026973 -134807.000000 0 0 1
-4.615821 26.846583 -28.957837 39.756774 -1.400528 2.386743 0.119302 -0.037515 -982889.000000 0 0 1
-3.605521 26.060983 -28.392457 38.707960 -1.433320 2.394260 0.120550 -0.028309 -223277.000000 0 0 1
-2.365121 26.177583 -29.066227 39.188074 -1.480692 2.406414 0.127615 -0.035149 506110.000000 0 0 1
-1.535621 27.491283 -28.875667 39.899034 -1.514996 2.379972 0.133475 -0.043073 -626667.000000 0 0 1
-0.930521 27.616183 -27.611737 39.063121 -1.537114 2.355830 0.149598 -0.055354 62479.800000 0 0 1
0.007479 28.659583 -27.511597 39.727317 1.570535 2.335760 0.147407 -0.051180 -645157.000000 0 0 1
0.786279 28.617383 -26.192567 38.802363 1.543328 2.311795 0.157288 -0.063007 190506.000000 0 0 1
1.784979 27.627383 -25.955697 37.949395 1.506277 2.323967 0.175829 -0.069165 879521.000000 0 0 1
2.994479 27.774883 -26.710977 38.650838 1.463399 2.333784 0.146288 -0.064360 321870.000000 0 0 1
4.251179 28.068183 -25.841137 38.388276 1.420480 2.309259 0.136905 -0.064518 -28085.000000 0 0 1
4.706679 26.887883 -25.169497 37.129700 1.397504 2.315672 0.131006 -0.054928 655408.000000 0 0 1
5.824179 27.239783 -24.320687 36.978678 1.360156 2.288551 0.095588 -0.044235 889777.000000 0 0 1
6.563579 25.950983 -23.742387 35.780372 1.323069 2.296362 0.090204 -0.045873 939476.000000 0 0 1
7.673179 26.275283 -22.882287 35.677264 1.286667 2.267077 0.094169 -0.048797 108678.000000 0 0 1
8.479079 25.151683 -22.631187 34.880833 1.245644 2.276822 0.080763 -0.037274 1122930.000000 0 0 1
9.965779 25.482383 -22.200387 35.235291 1.197999 2.252428 0.060286 -0.015603 317693.000000 0 0 1
10.099879 26.020483 -20.906487 34.873403 1.200546 2.213668 0.075448 -0.016681 -667028.000000 0 0 1
11.385479 26.191183 -20.407587 35.100951 1.160733 2.191241 0.102709 -0.024689 -296752.000000 0 0 1
12.144979 24.915283 -19.943287 34.146838 1.117238 2.194499 0.068694 -0.002627 -163737.000000 0 0 1
12.310579 24.075883 -21.051987 34.269296 1.098131 2.232308 0.057127 -0.007402 -328638.000000 0 0 1
12.706979 22.795883 -20.636387 33.271310 1.062271 2.239852 0.038640 0.010645 -75344.600000 0 0 1
12.842679 21.769083 -21.770187 33.358183 1.037799 2.281832 0.041058 -0.002084 -364232.000000 0 0 1
11.569479 21.418883 -22.206887 32.950982 1.075544 2.310321 0.065833 -0.012215 -249300.000000 0 0 1
11.753479 20.522583 -23.265487 33.175345 1.050685 2.348000 0.073706 -0.007175 -12433.500000 0 0 1
10.874379 20.823383 -24.458087 33.912585 1.089531 2.376343 0.087804 -0.010000 -693231.000000 0 0 1
9.496879 20.667383 -24.347587 33.318709 1.140062 2.390214 0.073556 -0.013184 -543098.000000 0 0 1
8.884179 20.505083 -25.620997 33.997390 1.161944 2.424343 0.072010 -0.013984 -1250760.000000 0 0 1
7.382479 20.372683 -25.592907 33.534222 1.223143 2.439028 0.086079 -0.025497 -870582.000000 0 0 1
6.661479 21.568983 -25.338737 33.935938 1.271244 2.413829 0.098078 -0.037337 111360.000000 0 0 1
6.638079 21.902283 -23.920587 33.105416 1.276519 2.378292 0.112231 -0.036055 124129.000000 0 0 1
5.167079 22.076183 -23.382887 32.570169 1.340878 2.371611 0.127328 -0.040387 860513.000000 0 0 1
4.549379 23.174183 -24.053387 33.709123 1.376949 2.365359 0.129193 -0.046611 244584.000000 0 0 1
3.133379 23.048483 -23.933987 33.374936 1.435677 2.370464 0.170664 -0.047186 259312.000000 0 0 1
2.355979 24.112483 -24.694687 34.594653 1.473398 2.365748 0.162796 -0.042170 310208.000000 0 0 1
0.962879 24.008983 -24.408887 34.251308 1.530713 2.364052 0.189262 -0.066343 296346.000000 0 0 1
0.218979 24.889183 -25.247367 35.453475 1.561998 2.363319 0.172493 -0.050852 540287.000000 0 0 1
-1.275321 24.513583 -25.435597 35.348434 -1.518818 2.373976 0.185588 -0.054025 334427.000000 0 0 1
-1.490021 23.384483 -26.209367 35.156580 -1.507164 2.412087 0.195143 -0.057559 -135059.000000 0 0 1
-2.857221 23.360883 -26.562687 35.489025 -1.449093 2.416557 0.192131 -0.043958 -25836.000000 0 0 1
-3.240721 22.032283 -27.102887 35.078344 -1.424754 2.453784 0.167557 -0.039528 -302783.000000 0 0 1
-2.545321 21.571583 -28.306937 35.680450 -1.453345 2.487082 0.177825 -0.054393 397119.000000 0 0 1
-3.229121 20.443483 -28.816027 35.478537 -1.414137 2.518727 0.142390 -0.046251 570070.000000 0 0 1
-4.460721 20.704583 -29.750217 36.519216 -1.358594 2.522914 0.117367 -0.043908 464774.000000 0 0 1
-4.112921 21.070283 -31.122587 37.808575 -1.378020 2.537754 0.116143 -0.042786 221016.000000 0 0 1
-3.414621 22.317583 -31.294747 38.588798 -1.418972 2.516622 0.140530 -0.042913 188544.000000 0 0 1
-2.972321 22.407283 -32.786077 39.822705 -1.438916 2.537999 0.106907 -0.028312 -710656.000000 0 0 1
-2.024721 21.462383 -33.096187 39.497986 -1.476737 2.564259 0.089924 -0.026207 -464804.000000 0 0 1
-1.524321 21.726183 33.510716 39.966469 -1.500751 0.576325 0.086502 -0.015704 -919861.000000 0 0 1
-0.279721 21.015683 33.076823 39.189455 -1.557487 0.566054 0.087860 -0.013317 -1012530.000000 0 0 1
-0.525821 19.674583 32.738661 38.199288 -1.544077 0.541282 0.067127 -0.004291 -310748.000000 0 0 1
0.426279 19.033283 31.935491 37.179606 1.548404 0.537577 0.073296 -0.012129 -475884.000000 0 0 1
-0.014621 17.607283 31.485828 36.074561 -1.569966 0.509889 0.058971 -0.013681 -200982.000000 0 0 1
-1.015421 17.584283 30.515288 35.233803 -1.513114 0.523490 0.049573 -0.008950 -270466.000000 0 0 1
-1.506921 16.295483 30.375348 34.503265 -1.478584 0.494172 0.049659 -0.004363 356553.000000 0 0 1
-2.751921 16.008683 29.441608 33.625277 -1.400558 0.504162 0.047686 -0.004914 624056.000000 0 0 1
-3.977321 16.545383 29.869148 34.376369 -1.334884 0.517849 0.028065 -0.015108 -132489.000000 0 0 1
-4.180921 17.900083 29.496388 34.755286 -1.341340 0.557297 0.038776 -0.015652 -91034.600000 0 0 1
-5.645621 18.350983 29.767758 35.422464 -1.272339 0.572842 0.046102 -0.025744 694622.000000 0 0 1
-6.509321 17.905283 28.727168 34.470575 -1.222109 0.585597 0.038994 -0.014891 -451503.000000 0 0 1
-7.833821 18.329783 28.910598 35.116553 -1.166910 0.603639 0.035845 -0.021286 -374162.000000 0 0 1
-8.823221 17.929083 27.738728 34.186814 -1.113474 0.624276 0.036339 -0.016738 356318.000000 0 0 1
-9.070421 16.531483 27.806598 33.597162 -1.068971 0.595894 0.045638 -0.026283 -132596.000000 0 0 1
-10.011321 16.247283 28.818418 34.564460 -1.018562 0.584916 0.050539 -0.022194 -1201810.000000 0 0 1
-10.511021 14.771483 28.782958 34.016715 -0.952344 0.562093 0.041413 -0.020761 534553.000000 0 0 1
-9.531721 13.728383 29.017498 33.486376 -0.963901 0.522556 0.042759 -0.013477 776381.000000 0 0 1
-8.605721 13.813983 30.101338 34.219513 -1.013657 0.495662 0.028418 -0.009137 -69813.300000 0 0 1
-9.223021 13.712983 31.515358 35.585499 -0.978714 0.482961 0.055856 -0.026801 -301261.000000 0 0 1
-9.712921 12.433683 31.839451 35.534320 -0.907638 0.460074 0.066288 -0.014356 153393.000000 0 0 1
-9.804721 12.317383 33.226213 36.767263 -0.898495 0.442486 0.047519 0.001484 -487307.000000 0 0 1
-10.421921 11.062483 33.725912 36.992324 -0.815205 0.423393 0.047878 -0.014285 -214509.000000 0 0 1
-9.510021 9.967383 33.779163 36.480420 -0.808876 0.387244 0.060681 -0.021981 -34675.500000 0 0 1
-9.905721 9.007983 -33.180147 35.779732 -0.737969 2.758050 0.098906 -0.028059 -28615.400000 0 0 1
-9.354521 9.183483 -31.728267 34.329671 -0.776172 2.749792 0.077579 -0.024811 175171.000000 0 0 1
-9.856521 10.410683 -31.127577 34.270386 -0.812734 2.709983 0.084181 -0.019404 320700.000000 0 0 1
-8.828221 11.082183 -30.435507 33.571898 -0.898123 2.705898 0.092771 -0.023222 91314.400000 0 0 1
-7.872921 11.984583 -31.236777 34.370763 -0.989571 2.711239 0.070083 -0.024601 -268462.000000 0 0 1
-8.414721 13.189683 -31.679157 35.331915 -1.002919 2.682863 0.078713 -0.022314 -132723.000000 0 0 1
-7.427821 14.029383 -32.248667 35.944020 -1.083869 2.684165 0.053192 -0.019650 -131750.000000 0 0 1
-7.850021 15.493183 -32.598827 36.937041 -1.101822 2.652057 0.058196 -0.021603 -203688.000000 0 0 1
-8.671721 15.597783 -33.750107 38.177994 -1.063390 2.655189 0.062944 -0.029712 170399.000000 0 0 1
-9.087021 16.953683 -33.930467 39.003562 -1.078772 2.625862 0.083528 -0.032167 -1253100.000000 0 0 1
-9.613421 17.234283 32.488683 38.012535 -1.061978 0.545856 0.054249 -0.037515 1044150.000000 0 0 1
-10.886721 16.702183 32.088450 37.777668 -0.993147 0.555944 0.048617 -0.036287 955557.000000 0 0 1
-11.971721 16.979583 32.971319 38.970966 -0.956679 0.562268 0.062482 -0.042717 -508348.000000 0 0 1
-13.350021 16.580083 32.347004 38.722743 -0.892902 0.582029 0.074513 -0.047013 207663.000000 0 0 1
-13.500821 15.164283 32.128016 38.005750 -0.843364 0.563583 0.070227 -0.039446 488731.000000 0 0 1
-14.259921 14.494283 33.150213 38.889152 -0.793549 0.550184 0.066110 -0.033125 14435.200000 0 0 1
-14.067521 12.973783 33.038553 38.180625 -0.744973 0.525003 0.060238 -0.027564 -52229.200000 0 0 1
-14.249221 12.496183 31.723138 36.953380 -0.719946 0.538530 0.046782 -0.026192 323402.000000 0 0 1
-13.017721 12.178883 31.096488 35.843797 -0.752119 0.520530 0.057251 -0.018532 -108263.000000 0 0 1
-13.290221 11.644683 29.691028 34.551204 -0.719500 0.536830 0.074122 -0.014964 224053.000000 0 0 1
-14.058621 10.407883 29.668538 34.441123 -0.637277 0.532722 0.064277 -0.010308 488366.000000 0 0 1
-14.194821 9.945383 28.296458 33.182723 -0.611152 0.549575 0.055432 -0.007172 157208.000000 0 0 1
-15.179721 8.798583 28.038118 33.075293 -0.525305 0.559151 0.059700 -0.001882 177586.000000 0 0 1
-14.556321 7.614183 28.463548 32.863898 -0.481944 0.523442 0.035197 -0.001367 625161.000000 0 0 1
-15.452421 6.488483 28.288998 32.880771 -0.397544 0.534839 0.057560 -0.000576 514890.000000 0 0 1
-14.851221 5.014383 28.444708 32.477749 -0.325623 0.503661 0.057989 -0.004688 737201.000000 0 0 1
-13.867621 4.728883 27.411748 31.081781 -0.328636 0.490870 0.052025 -0.008966 1104140.000000 0 0 1
-14.480921 4.525683 26.070418 30.163646 -0.302910 0.527041 0.052646 -0.009048 -105833.000000 0 0 1
-13.478921 4.251783 24.974068 28.696045 -0.305561 0.514992 0.045032 -0.004017 -597452.000000 0 0 1
-12.659821 3.119183 25.141748 28.321508 -0.241573 0.478414 0.032277 -0.007202 395178.000000 0 0 1
-11.919021 2.861883 23.940358 26.895988 -0.235650 0.473212 0.026796 -0.008359 453792.000000 0 0 1
-10.939321 1.623283 23.953078 26.382830 -0.147315 0.432540 0.022031 -0.008726 417489.000000 0 0 1
-9.574121 1.872683 24.168548 26.063181 -0.193160 0.383646 0.013915 -0.019473 388271.000000 0 0 1
-8.719821 0.721183 24.337348 25.862364 -0.082518 0.345124 0.008898 -0.018118 972325.000000 0 0 1
-7.217421 1.153683 24.280098 25.356366 -0.158506 0.292402 0.045551 -0.033713 196392.000000 0 0 1
-6.729321 1.230683 22.897158 23.897242 -0.180885 0.290326 0.048830 -0.032301 816097.000000 0 1 0
-5.330921 1.496683 22.721038 23.385986 -0.273709 0.239037 0.048107 -0.034059 772070.000000 0 1 0
-4.836721 2.909383 23.114858 23.794012 -0.541536 0.239499 0.077335 -0.039445 -638218.000000 0 1 0
-4.764121 3.042783 24.505728 25.149275 -0.568381 0.226711 0.082219 -0.040944 -20558.700000 0 0 1
-4.344021 4.329283 24.883548 25.628190 -0.783699 0.241650 0.075535 -0.041795 88578.900000 0 0 1
4.960879 -24.541017 13.394613 28.395203 -1.371338 1.079555 0.125379 -0.009623 234466.000000 0 0 1
3.955979 -25.502377 13.684213 29.210935 -1.416901 1.083247 0.137220 -0.037223 -259851.000000 0 0 1
2.706779 -24.863317 13.583413 28.460856 -1.462357 1.073255 0.104524 -0.035227 62923.600000 0 0 1
1.424779 -25.670377 13.883713 29.219099 -1.515350 1.075652 0.070372 -0.043655 -88544.300000 0 0 1
1.152679 -25.963267 15.223813 30.119502 -1.526429 1.040896 0.125362 -0.041347 -170232.000000 0 0 1
1.679679 -27.134947 15.697713 31.393389 -1.508974 1.047160 0.126724 -0.040774 -527859.000000 0 0 1
1.627479 -27.304007 17.229113 32.326458 -1.511261 1.008687 0.101153 -0.039415 -916626.000000 0 0 1
2.767379 -26.838987 17.842313 32.347145 -1.468049 0.986529 0.126832 -0.039298 -586193.000000 0 0 1
2.844179 -27.286487 19.199013 33.484980 -1.466937 0.960193 0.100617 -0.039155 -9794.180000 0 0 1
3.756679 -26.443447 20.097013 33.425417 -1.429676 0.925733 0.090790 -0.041559 15935.000000 0 0 1
3.118879 -25.253887 20.567113 32.718380 -1.447918 0.891031 0.081825 -0.038064 -14083.600000 0 0 1
4.009779 -24.383717 21.199113 32.558354 -1.407810 0.861749 0.085149 -0.029422 -175858.000000 0 0 1
3.307379 -23.249617 22.036313 32.203766 -1.429489 0.817184 0.106809 -0.041819 -71642.600000 0 0 1
2.680779 -22.261417 21.308713 30.932484 -1.450951 0.810856 0.114658 -0.039261 -157585.000000 0 0 1
3.596979 -21.411917 20.684813 29.987830 -1.404361 0.809620 0.090702 -0.027458 103595.000000 0 0 1
2.848779 -20.188217 20.041813 28.589403 -1.430611 0.793966 0.067465 -0.023836 303065.000000 0 0 1
2.742079 -19.084417 20.954513 28.475000 -1.428091 0.743814 0.053667 -0.025140 562271.000000 0 0 1
1.887879 -18.041317 20.380413 27.283960 -1.466534 0.727297 0.043872 -0.024642 623891.000000 0 0 1
1.752679 -16.802017 21.275313 27.166498 -1.466859 0.671089 0.065439 -0.017832 612705.000000 0 0 1
2.798879 -15.854817 21.040813 26.493863 -1.396065 0.653144 0.021636 -0.001085 535062.000000 0 0 1
2.245579 -14.645617 21.392513 26.022613 -1.418653 0.605752 0.042048 -0.003257 502409.000000 0 0 1
3.281679 -13.525317 21.116713 25.290694 -1.332764 0.582737 0.001435 0.009109 -737730.000000 0 0 1
3.529079 -13.267617 19.763613 24.064174 -1.310824 0.607132 -0.014229 0.003402 -154536.000000 0 1 0
2.511179 -13.038817 18.788013 23.006656 -1.380533 0.615242 -0.000618 0.004544 396244.000000 0 1 0
1.479279 -11.900617 19.068313 22.525841 -1.447128 0.561404 0.009585 -0.003845 -268159.000000 0 1 0
2.057879 -10.644017 18.918113 21.804242 -1.379816 0.520372 0.014465 -0.005211 -326431.000000 0 1 0
1.661079 -9.690417 19.885713 22.183439 -1.401032 0.459168 0.026438 -0.016774 -100154.000000 0 1 0
0.177179 -9.335217 20.033213 22.102201 -1.551819 0.436138 0.020988 -0.014083 -290248.000000 0 1 0
-0.258121 -8.461917 21.059713 22.697625 1.540302 0.382223 0.026232 -0.020377 -886248.000000 0 1 0
-1.596221 -8.115117 20.924813 22.500019 1.376579 0.376408 0.026576 -0.020291 -566886.000000 0 1 0
-2.105421 -7.311217 22.104713 23.377447 1.290411 0.331494 0.015384 -0.018898 -230241.000000 0 1 0
-2.227421 -8.156817 23.239113 24.729566 1.304221 0.348957 0.020717 -0.011382 -97934.700000 0 1 0
-2.571721 -7.429417 24.385613 25.621634 1.237552 0.311879 0.020375 -0.004520 -514167.000000 0 0 1
-2.702721 -8.349717 25.599413 27.062011 1.257750 0.330273 0.026542 -0.003114 139693.000000 0 0 1
-1.611321 -9.203817 25.945913 27.577111 1.397482 0.345667 0.030858 -0.004142 179761.000000 0 0 1
-1.745121 -9.904417 27.188013 28.988463 1.396390 0.354296 0.047816 -0.013631 -379959.000000 0 0 1
-0.602121 -10.919617 27.299313 29.408385 1.515711 0.381027 0.070642 -0.018456 -626164.000000 0 0 1
0.584579 -10.343017 27.722813 29.595171 -1.514337 0.357615 0.064901 -0.015163 -936962.000000 0 0 1
1.544679 -11.327217 27.982913 30.228055 -1.435264 0.387844 0.076723 -0.017094 -303541.000000 0 0 1
2.639179 -10.970817 28.975713 31.095274 -1.334719 0.371355 0.097538 -0.024249 -172599.000000 0 0 1
2.125979 -10.632917 30.241513 32.126747 -1.373455 0.344279 0.095291 -0.035264 345682.000000 0 0 1
3.180979 -10.274717 31.170313 32.973882 -1.270562 0.332274 0.136794 -0.029053 594270.000000 0 0 1
2.702879 -9.782317 32.534113 34.080314 -1.301220 0.302379 0.129417 -0.034833 -97081.000000 0 0 1
2.048279 -10.754317 33.378713 35.128184 -1.382589 0.316927 0.131458 -0.039891 270501.000000 0 0 1
1.956579 -10.366517 -33.156911 34.794736 -1.384250 2.833550 0.110346 -0.042052 -151792.000000 0 0 1
3.279779 -10.392217 -32.368411 34.153611 -1.265090 2.816842 0.093067 -0.024496 779948.000000 0 0 1
4.262579 -9.350717 -32.702111 34.278763 -1.143083 2.837119 0.078531 -0.032071 858793.000000 0 0 1
4.529679 -8.420617 -31.663611 33.075808 -1.077269 2.848325 0.097752 -0.036819 -482443.000000 0 0 1
3.547479 -7.288017 -31.355711 32.386424 -1.117801 2.888627 0.087801 -0.032742 -315444.000000 0 0 1
3.505079 -6.313417 -32.368211 33.163925 -1.063985 2.922094 0.122231 -0.038466 -2012.600000 0 0 1
2.898879 -5.149617 -31.846611 32.390256 -1.058080 2.958119 0.098100 -0.022582 214802.000000 0 0 1
3.124979 -4.048017 -32.900011 33.295085 -0.913377 2.987389 0.105876 -0.021500 -61123.900000 0 0 1
2.394479 -4.264517 33.827013 34.178743 -1.059175 0.143587 0.109817 -0.034256 -589859.000000 0 0 1
2.622079 -3.246817 32.938313 33.201651 -0.891448 0.126031 0.122524 -0.031433 -2207.780000 0 0 1
1.826379 -3.300517 31.623713 31.847893 -1.065376 0.118721 0.145671 -0.033041 571684.000000 0 0 1
0.429179 -3.080417 31.812513 31.964186 -1.432362 0.097456 0.139195 -0.035497 172064.000000 0 0 1
-0.278621 -3.487417 30.654213 30.853209 1.491073 0.113637 0.132941 -0.029226 299940.000000 0 0 1
-1.818521 -3.485117 30.763713 31.013854 1.089864 0.127093 0.105230 -0.024449 184192.000000 0 0 1
-2.511021 -2.295417 30.443113 30.632618 0.740571 0.111290 0.094809 -0.028057 -936611.000000 0 0 1
-3.848621 -2.617617 30.278113 30.633771 0.597275 0.152529 0.063483 -0.026445 -670922.000000 0 0 1
-4.729321 -1.512717 29.672713 30.085290 0.309575 0.165801 0.047405 -0.021006 -208180.000000 0 0 1
-4.789421 -1.558217 28.273413 28.718504 0.314545 0.176287 0.035674 -0.023368 369864.000000 0 0 1
-5.915221 -0.902017 27.666513 28.306173 0.151325 0.212995 0.009949 -0.023111 587820.000000 0 0 1
-6.005521 0.654983 27.831313 28.479418 -0.108634 0.213747 0.052312 -0.028601 14505.700000 0 0 1
-6.860121 1.050383 28.892013 29.713852 -0.151934 0.235741 0.043246 -0.022891 -234964.000000 0 0 1
-7.200121 2.406583 28.760213 29.745306 -0.322568 0.258078 0.053036 -0.024047 -214909.000000 0 0 1
-8.550121 2.776883 29.423213 30.765908 -0.314030 0.296525 0.050064 -0.027850 51770.500000 0 0 1
-9.593121 2.141083 28.713913 30.349646 -0.219590 0.329811 0.032644 -0.017775 -381429.000000 0 0 1
-10.833121 2.763583 28.976913 31.058902 -0.249778 0.368229 0.028978 -0.009341 435637.000000 0 0 1
-11.985221 2.090383 28.147013 30.663815 -0.172676 0.407984 0.033242 -0.002686 229125.000000 0 0 1
-12.264121 0.764083 28.447513 30.987957 -0.062222 0.407742 0.039623 -0.005178 27107.100000 0 0 1
-12.419321 -0.059117 27.292113 29.985037 0.004760 0.427051 0.041046 -0.002123 -898123.000000 0 0 1
-12.277721 -1.572117 27.529013 30.183780 0.127353 0.422549 0.043416 -0.010899 428609.000000 0 0 1
-10.961221 -1.970617 27.896213 30.037150 0.177881 0.379841 0.041367 -0.021562 1167030.000000 0 0 1
-9.847621 -1.785217 27.003013 28.798010 0.179337 0.354934 0.039490 -0.021535 -85322.000000 0 0 1
-9.761321 -2.420617 25.606013 27.510192 0.243077 0.374248 0.021795 -0.016763 -482074.000000 0 0 1
-10.728721 -1.879717 24.698813 26.993891 0.173444 0.415343 0.020185 -0.016941 677388.000000 0 0 1
-10.857021 -2.617617 23.487913 26.007862 0.236584 0.443843 0.029933 -0.015251 352748.000000 0 0 1
-9.720221 -2.286317 22.434813 24.556685 0.231013 0.418762 0.022310 -0.018994 403761.000000 0 1 0
-8.417021 -2.481017 22.874813 24.500179 0.286644 0.366300 0.017390 -0.021921 -934327.000000 0 1 0
-7.466721 -1.982717 21.983313 23.301269 0.259551 0.337944 0.003987 -0.023259 1293480.000000 0 1 0
-5.924121 -2.048517 22.400513 23.261011 0.332922 0.272850 0.005508 -0.019054 1579180.000000 0 1 0
-5.359621 -3.355617 22.437613 23.311632 0.559384 0.274698 0.005239 -0.016454 -266149.000000 0 1 0
-5.841821 -4.228517 23.438313 24.522678 0.626545 0.298492 0.008203 -0.013517 -340768.000000 0 1 0
-5.359121 -5.711217 23.260013 24.543154 0.817193 0.324786 0.009915 -0.013065 -614375.000000 0 1 0
-5.928721 -6.534717 22.265913 23.950431 0.833982 0.377290 -0.008580 -0.016227 -152425.000000 0 1 0
-5.585821 -6.198517 20.888313 22.493213 0.837344 0.380041 -0.000296 -0.014963 14220.200000 0 1 0
-6.799121 -6.034017 19.919113 21.895399 0.725849 0.428140 0.017897 -0.016051 20837.000000 0 1 0
-7.601421 -4.917417 20.064613 22.012526 0.574198 0.423858 0.006518 -0.020543 -82116.600000 0 1 0
-8.501821 -4.759917 18.957313 21.314725 0.510390 0.474766 0.021472 -0.018905 777230.000000 0 1 0
-9.419921 -3.499017 19.003713 21.496957 0.355654 0.486406 0.037931 -0.024458 473718.000000 0 1 0
-8.609221 -2.409817 18.608013 20.644226 0.272926 0.447882 0.031477 -0.020432 436156.000000 0 1 0
-9.387621 -1.206217 18.438513 20.725857 0.127790 0.474244 0.032403 -0.020214 -45123.400000 0 1 0
-8.524321 0.013583 18.246013 20.139047 -0.001593 0.437056 0.016367 -0.012457 -196223.000000 0 1 0
-7.702121 0.383983 19.375813 20.854070 -0.049813 0.378786 0.017279 -0.002355 629654.000000 0 1 0
-8.362721 1.207383 20.350813 22.035164 -0.143386 0.393531 0.047913 -0.005356 -39924.500000 0 1 0
-8.298621 2.672383 19.997313 21.815161 -0.311541 0.411128 0.045253 -0.020548 294700.000000 0 1 0
-9.191021 3.041783 18.949913 21.279721 -0.319605 0.472320 0.035010 -0.025928 222369.000000 0 1 0
-8.664421 4.161483 18.302313 20.672803 -0.447760 0.483587 0.031553 -0.034339 -871672.000000 0 1 0
-9.561721 4.758883 17.294713 20.326844 -0.461807 0.553231 0.033920 -0.017432 144950.000000 0 1 0
-10.682921 5.447283 17.911613 21.555129 -0.471541 0.589952 0.033708 -0.001502 720765.000000 0 1 0
-11.388721 6.309983 17.041113 21.445708 -0.505951 0.652421 0.034944 0.016167 -39047.700000 0 1 0
-10.906821 7.777883 16.993613 21.638787 -0.619478 0.667565 0.023402 0.015674 -172127.000000 0 1 0
-9.661021 7.917883 16.330713 20.560165 -0.686560 0.652960 0.019629 -0.005146 376067.000000 0 1 0
-9.160921 9.251383 16.254813 20.826173 -0.790311 0.675332 -0.009183 -0.011171 -54290.300000 0 1 0
-8.273821 9.761583 17.404213 21.602112 -0.867703 0.633988 0.014918 0.008202 -567160.000000 0 1 0
-8.979721 10.094783 18.590813 22.981696 -0.843790 0.628450 0.061626 0.019812 65046.500000 0 1 0
-9.091321 11.483483 18.836913 23.861093 -0.901145 0.660899 0.094026 0.017683 -78934.600000 0 1 0
-9.836821 12.375683 17.805113 23.810557 -0.899203 0.726081 0.104812 -0.003912 -41106.700000 0 1 0
-9.071121 12.637683 16.620313 22.764689 -0.948235 0.752340 0.069781 -0.011236 -319751.000000 0 1 0
-9.824121 13.448283 15.807013 22.961518 -0.939885 0.811497 0.074797 -0.032169 -218178.000000 0 1 0
-9.189021 13.936983 14.450313 22.079156 -0.987893 0.857305 0.058017 -0.031980 -326135.000000 0 1 0
-8.176321 14.864483 14.611613 22.389826 -1.067909 0.859785 0.059934 -0.019109 -452572.000000 0 1 0
-7.685621 15.368083 13.364513 21.768255 -1.107067 0.909747 0.043572 -0.025497 -36433.000000 0 1 0
-6.694821 16.569183 13.367613 22.317068 -1.186801 0.928562 0.029552 -0.015749 757105.000000 0 1 0
-5.340021 16.161483 13.586113 21.778242 -1.251673 0.897151 0.029052 -0.024653 65607.600000 0 1 0
-4.502821 17.292483 13.499313 22.395017 -1.316061 0.923813 0.024504 -0.026985 -145469.000000 0 1 0
-3.009521 16.959183 13.655113 21.980291 -1.395168 0.900468 0.024943 -0.029224 -80906.100000 0 1 0
-2.701421 16.577383 15.030613 22.539446 -1.409258 0.840812 0.035074 -0.025085 -312759.000000 0 1 0
-2.895321 15.256383 15.365313 21.845662 -1.383249 0.790686 0.024026 -0.015209 -1098240.000000 0 1 0
-1.866721 14.545783 16.210513 21.859670 -1.443160 0.735386 0.023541 -0.009364 -1163110.000000 0 1 0
-0.699821 14.308983 15.476513 21.089315 -1.521927 0.746816 0.022082 -0.019145 332940.000000 0 1 0
0.438579 13.835283 16.266913 21.359304 1.539107 0.705042 0.012526 -0.008702 1269640.000000 0 1 0
1.351279 14.947483 16.809213 22.534481 1.480640 0.728862 0.018767 -0.015820 -803543.000000 0 1 0
0.617479 15.882083 17.536013 23.667141 1.531937 0.736322 0.013856 -0.021744 -663499.000000 0 1 0
1.333779 16.786983 18.388113 24.934002 1.491510 0.741478 0.055868 -0.023402 -426477.000000 0 1 0
0.383679 17.816083 19.052713 26.087658 1.549264 0.751985 0.068385 -0.029788 400371.000000 0 0 1
-0.097321 18.828383 18.159813 26.159057 -1.565628 0.803478 0.054536 -0.033389 -332476.000000 0 0 1
-1.066121 18.423783 17.243213 25.256698 -1.512994 0.819320 0.040680 -0.031551 -1104630.000000 0 0 1
-1.708321 19.667283 16.575313 25.777148 -1.484153 0.872357 0.050761 -0.028291 -187930.000000 0 0 1
-2.446821 20.541383 17.376613 27.016329 -1.452238 0.872140 0.048177 -0.031419 -198584.000000 0 0 1
-3.067821 21.560483 16.632413 27.402611 -1.429456 0.918561 0.063023 -0.033850 4912.350000 0 0 1
-3.906521 22.598083 17.469913 28.829362 -1.399619 0.919804 0.053936 -0.020040 634065.000000 0 0 1
-5.148921 22.024483 17.904813 28.847384 -1.341139 0.901195 0.075238 -0.028936 463274.000000 0 0 1
-5.504921 22.743283 19.073913 30.188992 -1.333318 0.886901 0.076500 -0.028080 -530095.000000 0 0 1
-6.720321 22.137683 19.763613 30.427621 -1.276068 0.863832 0.056526 -0.033879 380252.000000 0 0 1
-7.964521 22.663683 19.251913 30.784936 -1.232855 0.895193 0.042648 -0.030076 -103.229000 0 0 1
-9.059621 22.305883 20.035313 31.321604 -1.184996 0.876735 0.001396 -0.023953 -106293.000000 0 0 1
-10.370721 22.835783 19.406413 31.711728 -1.144502 0.912256 0.018374 -0.030094 37315.600000 0 0 1
-10.766121 24.127983 19.806313 33.020584 -1.151100 0.927524 0.031496 -0.022906 484023.000000 0 0 1
-11.869721 24.597083 19.016313 33.279527 -1.121193 0.962571 0.010279 -0.025056 324141.000000 0 0 1
-12.550721 25.932783 19.433213 34.751684 -1.120054 0.977373 0.020355 -0.030153 -288882.000000 0 0 1
-13.150821 25.849883 20.682213 35.621825 -1.100183 0.951325 0.024101 -0.018773 -255479.000000 0 0 1
-13.663221 27.095583 21.061813 36.938519 -1.103746 0.964065 0.038917 -0.027174 -501937.000000 0 0 1
-14.534521 26.870883 22.312613 37.830534 -1.074965 0.939980 0.070156 -0.035525 -16864.900000 0 0 1
-15.875921 26.461983 22.069513 37.938698 -1.030412 0.949961 0.053450 -0.032143 107086.000000 0 0 1
-16.570521 26.471383 23.304113 38.966626 -1.011494 0.929727 0.037951 -0.016817 -771044.000000 0 0 1
-17.998421 26.035683 23.050713 39.155272 -0.965934 0.941346 0.049251 -0.019576 -851808.000000 0 0 1
-18.221421 24.697283 22.628013 38.131390 -0.935155 0.935492 0.065002 -0.017863 -303341.000000 0 0 1
-19.467921 24.206483 23.045713 38.678917 -0.893473 0.932509 0.071980 -0.009843 -218498.000000 0 0 1
27.967179 23.409283 23.221038 43.236260 0.696914 1.003833 0.087779 -0.014367 -167584.000000 0 0 1
27.970979 22.926683 24.511158 43.689877 0.686614 0.975172 0.089493 -0.020032 152205.000000 0 0 1
27.756679 21.536583 24.558558 42.864675 0.659876 0.960717 0.091538 -0.008859 -339041.000000 0 0 1
27.659279 21.084383 26.023168 43.437221 0.651320 0.928422 0.116021 -0.023373 337840.000000 0 0 1
26.342279 21.312483 26.505558 43.019556 0.680241 0.906979 0.112049 -0.016179 236368.000000 0 0 1
25.984879 20.596683 27.676528 43.190595 0.670238 0.875257 0.119999 -0.024567 -850410.000000 0 0 1
24.558779 20.967783 28.003478 42.743143 0.706684 0.856406 0.124254 -0.031789 -960379.000000 0 0 1
24.276779 22.328683 28.358238 43.498526 0.743623 0.860662 0.134321 -0.039508 153534.000000 0 0 1
23.145979 22.373083 29.215738 43.472411 0.768420 0.833819 0.163079 -0.040794 -263278.000000 0 0 1
22.845279 23.769183 29.832308 44.461752 0.805216 0.835286 0.159512 -0.047996 -308090.000000 0 0 1
22.362179 24.642183 28.867848 44.052887 0.833866 0.856217 0.144969 -0.044442 -125302.000000 0 0 1
22.156379 25.948583 29.340718 45.001242 0.864067 0.860580 0.125765 -0.044320 130605.000000 0 0 1
20.779879 26.282283 29.953198 44.941693 0.901788 0.841305 0.114208 -0.045505 321492.000000 0 0 1
19.619879 26.523683 29.113048 44.000170 0.933912 0.847769 0.101322 -0.044582 1078110.000000 0 0 1
18.491979 26.981483 29.822288 44.264235 0.969965 0.831547 0.084107 -0.044745 -285108.000000 0 0 1
17.618579 25.955083 30.479108 43.738503 0.974434 0.799802 0.066561 -0.021203 -962561.000000 0 0 1
18.153579 25.308683 31.623768 44.386310 0.948563 0.777789 0.083460 -0.032506 179395.000000 0 0 1
17.110279 24.554383 32.207378 43.965834 0.962200 0.748729 0.067320 -0.026354 252500.000000 0 0 1
17.457879 24.049183 33.633146 44.881279 0.942883 0.723671 0.084178 -0.034165 -26646.700000 0 0 1
17.764479 25.106483 -33.352227 45.368306 0.955011 2.396675 0.078479 -0.030283 207431.000000 0 0 1
17.956679 24.697083 -32.050057 44.267306 0.942128 2.380397 0.072016 -0.023046 -131420.000000 0 0 1
18.234579 25.872983 -31.102537 44.376558 0.956874 2.347423 0.051165 -0.007200 -545535.000000 0 0 1
17.139079 26.702283 -30.805217 44.223538 1.000166 2.341416 0.071576 -0.028145 -160201.000000 0 0 1
17.371279 27.915883 -30.095077 44.573215 1.014161 2.312009 0.060475 -0.023202 -491356.000000 0 0 1
16.754079 27.930683 -28.642797 43.373172 1.030491 2.292122 0.071839 -0.019825 43183.300000 0 0 1
17.458079 27.126383 -27.664917 42.496739 0.998945 2.279683 0.046297 -0.002570 323311.000000 0 0 1
17.225379 27.524083 -26.309767 41.791059 1.011601 2.251777 0.058769 -0.005811 -238639.000000 0 0 1
18.089679 26.827983 -25.256767 41.047307 0.977539 2.233574 0.049606 -0.008787 648540.000000 0 0 1
19.499679 26.990283 -25.421337 41.892209 0.945148 2.222859 0.047405 -0.003200 53232.700000 0 0 1
20.201779 26.743083 -24.243987 41.365145 0.923847 2.197030 0.039250 0.000725 -225706.000000 0 0 1
21.722579 26.956583 -24.370087 42.337087 0.892507 2.184159 0.045126 0.002807 -232179.000000 0 0 1
22.253879 26.272483 -23.274387 41.559302 0.868022 2.165216 0.032339 0.006223 254649.000000 0 0 1
23.690079 26.318683 -23.311487 42.394791 0.837913 2.153001 0.045128 0.004513 833743.000000 0 0 1
24.245979 26.194583 -21.889987 41.871174 0.824011 2.120921 0.055356 0.002209 -91846.100000 0 0 1
23.979879 24.958583 -21.321787 40.651987 0.805394 2.122919 0.071182 -0.001024 -135648.000000 0 0 1
24.364779 24.811083 -20.002487 40.116478 0.794474 2.092791 0.069139 -0.003445 -638126.000000 0 0 1
23.740479 23.637983 -19.271287 38.649024 0.783235 2.092806 0.071039 -0.010333 -917601.000000 0 0 1
24.235179 22.386983 -19.663987 38.408245 0.745777 2.108276 0.068083 -0.000030 151875.000000 0 0 1
23.989479 21.487283 -18.639687 37.210702 0.730432 2.095461 0.071936 0.000457 -1124540.000000 0 0 1
24.229479 20.034283 -18.997387 36.733375 0.690903 2.114337 0.087263 -0.002282 86133.600000 0 0 1
23.393979 19.423383 -19.953787 36.368938 0.692929 2.151544 0.080134 -0.001464 -160987.000000 0 0 1
22.021479 19.436483 -19.661087 35.345166 0.723127 2.160674 0.079149 0.002943 -439402.000000 0 0 1
21.052779 19.297983 -20.881487 35.378922 0.741937 2.202133 0.059893 0.010553 299787.000000 0 0 1
21.079579 20.280883 -21.917887 36.552108 0.766090 2.213840 0.053910 0.007321 -114159.000000 0 0 1
21.002979 21.659883 -21.523087 37.061016 0.800794 2.190443 0.056140 0.004266 -61175.100000 0 0 1
20.688379 22.592683 -22.734487 38.148332 0.829368 2.209244 0.050943 0.003185 108641.000000 0 0 1
19.310479 22.576683 -23.008987 37.576784 0.863217 2.229787 0.060014 0.002655 -440270.000000 0 0 1
19.073779 22.794883 -24.442387 38.481762 0.874041 2.259022 0.055296 -0.000663 438646.000000 0 0 1
17.574579 22.743083 -24.850787 37.995727 0.912897 2.283711 0.062106 -0.005725 299611.000000 0 0 1
16.796379 23.707783 -24.201587 37.813941 0.954405 2.265317 0.052614 -0.004566 354739.000000 0 0 1
15.391379 23.446783 -24.319287 37.122417 0.989908 2.285125 0.058239 -0.004092 635944.000000 0 0 1
14.568279 24.459883 -23.538587 36.940299 1.033619 2.261664 0.051074 -0.004107 -287732.000000 0 0 1
14.699279 25.799283 -24.043987 38.207134 1.052912 2.251456 0.037954 -0.005997 -441391.000000 0 0 1
13.681579 26.655683 -23.644187 38.167507 1.096589 2.238882 0.049642 -0.004178 -251726.000000 0 0 1
13.759679 28.023483 -24.339487 39.586045 1.114370 2.232992 0.051631 -0.011940 79733.300000 0 0 1
13.635179 27.947483 -25.775697 40.390178 1.116887 2.262912 0.054824 -0.024205 -168080.000000 0 0 1
13.135479 29.067283 -26.452377 41.438822 1.146364 2.263146 0.086303 -0.027376 243738.000000 0 0 1
13.976079 30.433383 -26.311917 42.589183 1.140289 2.236748 0.099640 -0.025353 1671530.000000 0 0 1
15.286979 30.371683 -26.935017 43.377713 1.104488 2.240739 0.075251 -0.021023 972915.000000 0 0 1
15.888079 31.662283 -27.078467 44.588951 1.105711 2.223443 0.087583 -0.024253 600925.000000 0 0 1
17.369979 31.638883 -27.552417 45.407827 1.068716 2.222796 0.080667 -0.011934 268176.000000 0 0 1
18.272979 31.044883 -26.649637 44.809482 1.038802 2.207729 0.048498 -0.010317 -867830.000000 0 0 1
19.553279 31.151283 -27.178067 45.731613 1.010267 2.207185 0.047698 -0.005399 -745337.000000 0 0 1
20.580279 30.492483 -26.218597 45.174708 0.977095 2.189994 0.031375 -0.003910 -679343.000000 0 0 1
20.829679 31.082983 -24.905687 44.947976 0.980399 2.158078 0.039493 -0.010765 -128770.000000 0 0 1
21.480679 32.365483 -24.809787 46.091969 0.984857 2.139176 0.045647 -0.017487 583647.000000 0 0 1
22.993579 32.362883 -25.239067 47.043292 0.953063 2.137089 0.019224 -0.005180 266945.000000 0 0 1
23.231479 31.885783 -26.549517 47.552935 0.941143 2.163150 0.024435 0.003219 457747.000000 0 0 1
24.490779 32.426483 -27.003597 48.790053 0.923930 2.157315 0.017919 0.011981 480115.000000 0 0 1
24.868179 31.871183 -28.432737 49.422861 0.908201 2.183761 0.027141 0.011372 28643.500000 0 0 1
24.053179 32.437983 -29.439727 49.974750 0.932749 2.200731 0.046047 -0.006022 756212.000000 0 0 1
22.875279 31.642383 -29.673967 49.041443 0.944845 2.220662 0.031387 -0.004555 665209.000000 0 0 1
21.757679 32.122783 -30.627427 49.429840 0.975449 2.239047 0.044536 -0.005102 -120498.000000 0 0 1
20.985279 33.175983 -30.084847 49.458324 1.006790 2.224697 0.058327 -0.006733 383949.000000 0 0 1
20.108379 33.722583 -31.103827 50.089994 1.033111 2.240762 0.070105 -0.024194 1379970.000000 0 0 1
18.567779 33.397283 -30.870997 49.123918 1.063384 2.250331 0.090222 -0.030824 936720.000000 0 0 1
18.202479 32.004783 -30.930857 48.086945 1.053677 2.269503 0.077940 -0.023365 162573.000000 0 0 1
18.480079 31.346583 -32.168947 48.569154 1.038103 2.294725 0.089563 -0.036546 -657120.000000 0 0 1
17.864779 31.845183 -33.485817 49.543576 1.059556 2.312963 0.101152 -0.045812 -179338.000000 0 0 1
18.456779 33.119683 -33.843827 50.822935 1.062385 2.299518 0.099417 -0.039363 378194.000000 0 0 1
18.101179 33.553883 32.724329 50.243382 1.076077 0.861479 0.089723 -0.037437 -1153270.000000 0 0 1
16.730979 -33.734942 32.443375 49.704572 -1.110391 0.859622 0.093199 -0.041173 -1366730.000000 0 0 1
15.712879 33.124783 32.350697 48.894922 1.127875 0.847796 0.095699 -0.041415 -856815.000000 0 0 1
14.399679 33.494583 32.518961 48.854075 1.164774 0.842453 0.079205 -0.043694 -571056.000000 0 0 1
13.704179 -33.626842 31.347208 47.970996 -1.183810 0.858648 0.071575 -0.037313 -634849.000000 0 0 1
14.381079 -32.447642 30.928968 47.077234 -1.153604 0.853986 0.085835 -0.027702 307339.000000 0 0 1
13.742279 -32.005842 29.774018 45.822661 -1.165232 0.863519 0.075592 -0.022347 -312413.000000 0 0 1
14.205479 -30.664342 29.304228 44.730697 -1.136973 0.856447 0.074854 -0.020418 -266531.000000 0 0 1
13.908479 -29.575442 30.185638 44.489609 -1.131213 0.825095 0.078219 -0.024511 363164.000000 0 0 1
14.500679 -28.321942 29.880578 43.649181 -1.097599 0.816793 0.079084 -0.029798 -154417.000000 0 0 1
13.962679 -27.186042 30.779758 43.375463 -1.096330 0.781849 0.078562 -0.027076 1005970.000000 0 0 1
12.561879 -26.835642 30.712238 42.675450 -1.132989 0.767470 0.079114 -0.024647 1234770.000000 0 0 1
12.062279 -25.889342 29.769708 41.255207 -1.134785 0.764687 0.057784 -0.019011 -30259.800000 0 0 1
12.397479 -24.448342 30.186868 40.775800 -1.101494 0.737260 0.076403 -0.020030 -213836.000000 0 0 1
11.618079 -24.092242 31.303898 41.174627 -1.121463 0.707065 0.077641 -0.026513 15882.300000 0 0 1
11.828079 -22.793742 31.723908 40.815003 -1.092129 0.680496 0.083420 -0.028851 256106.000000 0 0 1
10.807979 -22.241142 32.802931 41.079351 -1.118456 0.645954 0.075623 -0.026365 5346.260000 0 0 1
10.758879 -22.810942 -33.757037 42.138226 -1.130081 2.499931 0.082306 -0.025049 489538.000000 0 0 1
11.907179 -23.053942 -32.919577 41.916151 -1.094042 2.474086 0.097796 -0.021474 965633.000000 0 0 1
12.696779 -21.807242 -32.332167 41.013815 -1.043547 2.478876 0.092107 -0.027831 475799.000000 0 0 1
13.215779 -20.848542 -33.257967 41.417519 -1.005826 2.503096 0.071087 -0.026046 409699.000000 0 0 1
14.193579 -20.046642 -32.608137 40.824210 -0.954703 2.496003 0.066950 -0.025068 -36150.400000 0 0 1
14.672879 -18.794742 -33.381447 41.022636 -0.907941 2.521341 0.056297 -0.018866 -8061.160000 0 0 1
15.361779 -19.179242 33.282997 41.371312 -0.895471 0.635972 0.075103 -0.010508 382771.000000 0 0 1
15.232379 -18.294342 32.175084 40.024297 -0.876475 0.636991 0.058076 -0.003907 -195801.000000 0 0 1
15.985679 -16.952042 32.150476 39.706004 -0.814729 0.627133 0.074155 -0.004567 -443780.000000 0 0 1
15.481479 -15.913942 33.018083 39.788485 -0.799172 0.591975 0.063418 -0.005043 270501.000000 0 0 1
16.128079 -14.674542 32.848484 39.426894 -0.738244 0.586019 0.078816 -0.017154 77028.200000 0 0 1
17.533979 -14.527442 33.484511 40.493202 -0.691897 0.597194 0.069541 -0.001034 841186.000000 0 0 1
18.606179 -15.289342 32.893971 40.767232 -0.687854 0.631957 0.079999 -0.000825 1466450.000000 0 0 1
19.924379 -14.884442 33.362821 41.612562 -0.641608 0.640581 0.078593 0.000416 1028900.000000 0 0 1
20.911079 -15.658942 32.469583 41.674327 -0.642755 0.677525 0.099400 -0.005767 -513845.000000 0 0 1
21.112079 -15.220442 31.123548 40.571628 -0.624639 0.696448 0.071482 0.001683 317351.000000 0 0 1
22.045679 -16.005542 30.409648 40.828128 -0.627975 0.730530 0.073433 -0.006647 -79290.800000 0 0 1
22.173579 -15.426342 28.973958 39.612244 -0.607840 0.750366 0.062072 0.001196 -3533.620000 0 0 1
23.029179 -14.272142 28.923498 39.630870 -0.554809 0.752734 0.043993 0.006038 629976.000000 0 0 1
23.103279 -13.719742 27.585418 38.509065 -0.535881 0.772260 0.044529 -0.000167 44136.600000 0 0 1
23.946279 -12.435942 27.543358 38.557924 -0.478989 0.775120 0.025387 0.000619 256162.000000 0 0 1
23.225579 -11.361542 28.148668 38.221194 -0.454956 0.742963 0.029989 -0.003376 425217.000000 0 0 1
24.086479 -10.335842 28.573168 38.773883 -0.405350 0.742297 0.038129 -0.007491 119886.000000 0 0 1
23.341379 -8.989942 28.578908 37.978849 -0.367640 0.718954 0.052807 -0.017083 408746.000000 0 0 1
22.199279 -8.994842 29.421018 37.938259 -0.384969 0.683294 0.054321 -0.019817 203594.000000 0 0 1
21.556779 -7.694542 29.325208 37.200383 -0.342847 0.662749 0.068315 -0.027076 751778.000000 0 0 1
20.322679 -7.501642 30.279128 37.230518 -0.353611 0.621016 0.057839 -0.015579 304794.000000 0 0 1
20.617679 -7.142442 31.606848 38.406978 -0.333485 0.604220 0.064581 -0.022892 72460.400000 0 0 1
20.939879 -8.330142 32.331512 39.410613 -0.378619 0.608729 0.071286 -0.033104 -471899.000000 0 0 1
21.096179 -8.204242 33.854448 40.724464 -0.370898 0.589345 0.090651 -0.048906 -67137.900000 0 0 1
19.861779 -7.779042 -33.470977 39.690176 -0.373295 2.574202 0.080207 -0.054745 257250.000000 0 0 1
19.958279 -7.345242 -32.131587 38.532121 -0.352646 2.556917 0.082100 -0.058794 -69584.200000 0 0 1
18.548579 -7.069242 -31.561517 37.284760 -0.364126 2.580171 0.095383 -0.054724 150973.000000 0 0 1
18.562279 -6.141042 -30.468527 36.202234 -0.319500 2.571072 0.088310 -0.050456 338712.000000 0 0 1
17.253279 -5.989442 -29.943877 35.073991 -0.334132 2.593912 0.101369 -0.041212 128099.000000 0 0 1
17.147279 -4.895642 -28.854157 33.919889 -0.278107 2.588028 0.091179 -0.035700 -200619.000000 0 0 1
17.778779 -5.172642 -27.595477 33.231785 -0.283129 2.550611 0.085291 -0.028876 -58255.400000 0 0 1
17.308279 -6.186742 -26.743707 32.451166 -0.343291 2.539446 0.089049 -0.028099 742910.000000 0 0 1
15.855179 -5.922442 -26.170797 31.166852 -0.357484 2.567526 0.099954 -0.030937 909002.000000 0 0 1
15.750079 -4.757842 -25.388277 30.253374 -0.293367 2.566585 0.095471 -0.037385 -330190.000000 0 0 1
14.577079 -4.726942 -24.608187 28.989620 -0.313573 2.584625 0.078978 -0.036262 -327792.000000 0 0 1
14.372179 -3.559342 -23.617987 27.875397 -0.242770 2.581621 0.089261 -0.035677 -50756.100000 0 0 1
14.173779 -2.289642 -24.196787 28.135795 -0.160157 2.606066 0.084577 -0.044185 215058.000000 0 0 1
13.773379 -1.354642 -23.250787 27.058088 -0.098037 2.604679 0.083544 -0.041824 -188763.000000 0 0 1
14.160279 0.060358 -23.701087 27.609032 0.004262 2.603044 0.089331 -0.046098 -197908.000000 0 0 1
13.641579 0.488358 -24.926187 28.419113 0.035784 2.640571 0.095348 -0.043915 64822.000000 0 0 1
14.106579 1.813358 -25.170207 28.910606 0.127846 2.627261 0.088872 -0.025559 118513.000000 0 0 1
13.380479 2.444358 -26.385217 29.684875 0.180689 2.665612 0.080362 -0.018815 728233.000000 0 0 1
12.045579 2.947358 -26.288687 29.066784 0.239969 2.700823 0.098399 -0.035602 707550.000000 0 0 1
11.729779 3.696358 -27.471217 30.098481 0.305275 2.720667 0.097395 -0.033932 112760.000000 0 0 1
10.322679 4.330358 -27.366207 29.567194 0.397202 2.753308 0.103545 -0.035880 -92332.900000 0 0 1
10.204479 5.562358 -26.706197 29.125456 0.499066 2.731131 0.097204 -0.043332 -756819.000000 0 0 1
8.914379 6.004358 -26.898697 28.966504 0.592759 2.761456 0.118809 -0.047098 -1025290.000000 0 0 1
8.738479 5.374283 -31.264947 32.905027 0.551386 2.824536 0.092094 -0.043863 -131334.000000 0 0 1
8.481879 4.562183 -30.153147 31.653879 0.493486 2.832432 0.083186 -0.023903 356952.000000 0 0 1
7.998679 3.297083 -30.599817 31.799346 0.390982 2.866052 0.067497 -0.019575 -203773.000000 0 0 1
7.714779 2.372383 -29.399857 30.487663 0.298334 2.873658 0.077870 -0.024414 -1404320.000000 0 0 1
8.786779 1.903783 -28.701537 30.076737 0.213366 2.838028 0.110701 -0.033480 -749985.000000 0 0 1
8.375179 0.989683 -27.672407 28.928968 0.117623 2.845774 0.100697 -0.032020 -303070.000000 0 0 1
9.499579 0.446683 -26.793267 28.430981 0.046987 2.800521 0.103718 -0.047886 -306542.000000 0 0 1
10.483479 -0.232517 -27.554997 29.482796 -0.022176 2.777965 0.109557 -0.032367 -395442.000000 0 0 1
11.349479 -0.811817 -26.630837 28.959820 -0.071407 2.737803 0.113047 -0.037079 -257435.000000 0 0 1
12.257179 -1.888517 -27.337637 30.019183 -0.152872 2.715705 0.100035 -0.037352 74567.800000 0 0 1
11.540079 -2.940017 -27.901527 30.336650 -0.249459 2.738188 0.103518 -0.043480 -220118.000000 0 0 1
12.394879 -3.983917 -28.305287 31.155961 -0.310987 2.710484 0.121043 -0.033697 7332.470000 0 0 1
11.958979 -5.333117 -27.675367 30.616748 -0.419482 2.699665 0.102376 -0.024054 22097.300000 0 0 1
11.919879 -5.421117 -26.252287 29.336915 -0.426835 2.678903 0.106603 -0.026948 -12607.800000 0 0 1
11.432679 -6.643117 -25.743557 28.940765 -0.526380 2.667103 0.106021 -0.033788 -141422.000000 0 0 1
11.119379 -6.540017 -24.201987 27.425328 -0.531671 2.651881 0.112531 -0.032255 -639314.000000 0 0 1
12.213679 -6.463717 -23.355587 27.137374 -0.486749 2.607327 0.088337 -0.030271 -417530.000000 0 0 1
11.811679 -6.416717 -21.984687 25.768517 -0.497648 2.592811 0.091319 -0.032380 714499.000000 0 0 1
13.072879 -6.382917 -21.053687 25.591005 -0.454209 2.536938 0.088163 -0.030535 848850.000000 0 0 1
13.822579 -5.205017 -20.883587 25.578900 -0.360137 2.526012 0.073592 -0.033618 -521244.000000 0 0 1
15.028279 -5.412717 -20.237087 25.781512 -0.345705 2.473405 0.066675 -0.027392 -534363.000000 0 0 1
15.609679 -4.110917 -19.632587 25.416534 -0.257510 2.453461 0.077177 -0.032444 -100499.000000 0 0 1
16.163179 -3.197817 -20.605787 26.383193 -0.195323 2.467093 0.064434 -0.030438 127759.000000 0 0 1
16.535279 -2.052417 -19.979287 26.015376 -0.123492 2.446477 0.068875 -0.024447 1070630.000000 0 0 1
17.711179 -1.313617 -20.803987 27.353562 -0.074033 2.434969 0.066230 -0.025989 838011.000000 0 0 1
18.906779 -2.002817 -21.015987 28.339889 -0.105538 2.406203 0.078874 -0.031876 -95134.300000 0 0 1
19.872279 -1.007717 -21.385687 29.210796 -0.050666 2.392219 0.075942 -0.021057 464633.000000 0 0 1
21.256779 -1.582317 -21.803487 30.491744 -0.074301 2.367509 0.071916 -0.022437 -355020.000000 0 0 1
21.999279 -2.114617 -20.702387 30.282482 -0.095828 2.323538 0.069411 -0.020628 1451100.000000 0 0 1
23.252579 -2.772617 -21.041887 31.482231 -0.118679 2.302816 0.071557 -0.017310 1920720.000000 0 0 1
24.421979 -1.922217 -21.673487 32.708837 -0.078547 2.295106 0.076265 -0.020529 -561554.000000 0 0 1
24.163979 -1.527817 -23.025087 33.412374 -0.063143 2.331068 0.074407 -0.025564 705776.000000 0 0 1
25.207779 -0.733317 -23.618787 34.551657 -0.029083 2.323451 0.068880 -0.017679 5485.630000 0 0 1
26.451579 -1.465517 -24.082487 35.802234 -0.055347 2.308585 0.070352 -0.020788 -1368100.000000 0 0 1
27.425379 -1.842217 -23.136687 35.928422 -0.067071 2.270467 0.067229 -0.014476 607987.000000 0 0 1
28.538079 -2.599517 -23.605787 37.126980 -0.090839 2.259857 0.061785 -0.010991 462918.000000 0 0 1
29.549779 -1.869717 -24.473387 38.413955 -0.063189 2.261521 0.072559 -0.015024 -1063590.000000 0 0 1
29.077579 -1.728417 -25.833687 38.934206 -0.059372 2.296312 0.074312 -0.017542 324447.000000 0 0 1
29.843879 -0.760517 -26.532677 39.940186 -0.025478 2.297367 0.082323 -0.026943 -451626.000000 0 0 1
29.277679 -0.485117 -27.946447 40.477423 -0.016568 2.332867 0.067620 -0.035015 320172.000000 0 0 1
27.930879 -0.064517 -28.104077 39.622939 -0.002310 2.359284 0.070636 -0.026032 181213.000000 0 0 1
27.717279 1.250383 -27.637437 39.161703 0.045081 2.354244 0.062606 -0.030524 -1283390.000000 0 0 1
26.275779 1.702983 -27.761867 38.262749 0.064721 2.382642 0.059613 -0.026338 -667305.000000 0 0 1
25.397279 1.021683 -26.879827 36.994469 0.040206 2.384143 0.058783 -0.021045 455359.000000 0 0 1
24.039679 1.304783 -27.235057 36.350474 0.054223 2.417703 0.064289 -0.023047 552053.000000 0 0 1
23.105079 1.047683 -26.003627 34.801307 0.045313 2.414639 0.066379 -0.025237 -30565.000000 0 0 1
23.308679 1.881683 -24.855287 34.126537 0.080554 2.386674 0.070093 -0.028157 928434.000000 0 0 1
22.238379 1.699483 -23.897087 32.687987 0.076273 2.390680 0.069263 -0.030558 420896.000000 0 0 1
22.405079 2.341983 -22.537487 31.865511 0.104151 2.356424 0.064600 -0.024349 -303761.000000 0 0 1
22.176379 3.763483 -22.444087 31.775661 0.168105 2.355096 0.077322 -0.027936 363059.000000 0 0 1
22.030979 4.014983 -21.080387 30.754948 0.180264 2.325991 0.064507 -0.020985 -292745.000000 0 0 1
21.683579 5.529983 -20.751687 30.518696 0.249708 2.318513 0.079540 -0.012299 278549.000000 0 0 1
22.714379 6.446083 -21.160687 31.705988 0.276518 2.301513 0.064454 -0.007024 638387.000000 0 0 1
22.581179 7.782683 -20.730887 31.626721 0.331904 2.285623 0.062365 -0.004585 -281200.000000 0 0 1
23.202679 8.095183 -19.330087 31.265773 0.335686 2.237311 0.061906 -0.016621 -281390.000000 0 0 1
24.607379 8.050683 -19.154987 32.206368 0.316189 2.207761 0.036683 -0.013403 388650.000000 0 0 1
24.976679 8.229883 -17.804187 31.757748 0.318299 2.165937 0.056641 -0.026461 -161514.000000 0 0 1
24.814079 9.698083 -17.263187 31.746007 0.372576 2.145744 0.056098 -0.034674 -160654.000000 0 0 1
23.507079 10.082583 -16.861487 30.635780 0.405184 2.153622 0.067810 -0.039286 265736.000000 0 0 1
23.405979 11.466983 -16.650387 30.928416 0.455549 2.139277 0.075735 -0.034649 -1229600.000000 0 0 1
22.004279 11.979183 -16.396687 29.942286 0.498535 2.150301 0.072632 -0.040556 -305094.000000 0 0 1
21.126179 11.971383 -17.531287 29.949549 0.515545 2.196121 0.092012 -0.043173 816422.000000 0 0 1
20.389479 10.722783 -17.639987 29.015135 0.484151 2.224283 0.093967 -0.046848 -114368.000000 0 0 1
19.519579 10.606183 -18.910487 29.173817 0.497732 2.276015 0.107376 -0.022258 111832.000000 0 0 1
20.224279 10.192683 -20.051487 30.248543 0.466829 2.295470 0.106420 -0.014434 1040560.000000 0 0 1
19.234479 10.067383 -21.124087 30.290996 0.482194 2.342520 0.086681 -0.015915 828474.000000 0 0 1
19.874079 10.056083 -22.498187 31.658683 0.468428 2.361215 0.096929 -0.014626 -213770.000000 0 0 1
20.146479 11.414883 -22.871987 32.547011 0.515494 2.350034 0.088208 -0.019125 197432.000000 0 0 1
20.749979 11.506083 -24.164687 33.865671 0.506300 2.365342 0.104502 -0.020407 173298.000000 0 0 1
21.007079 12.986383 -24.596887 34.856138 0.553688 2.354163 0.097918 -0.018370 33904.000000 0 0 1
21.518379 13.187983 -25.904727 36.166537 0.549829 2.369228 0.101621 -0.018134 5174.850000 0 0 1
21.613679 14.551383 -26.199727 36.950231 0.592546 2.358953 0.101675 -0.013621 -251098.000000 0 0 1
20.369079 15.200383 -26.811777 36.943503 0.641095 2.382921 0.086864 -0.020400 -391087.000000 0 0 1
19.267879 15.150283 -25.967177 35.708213 0.666330 2.385037 0.061678 -0.012485 48538.000000 0 0 1
18.049279 15.645983 -26.562557 35.723139 0.714194 2.409186 0.073405 -0.022805 1202960.000000 0 0 1
16.746079 15.116583 -25.906557 34.352466 0.734301 2.425139 0.086083 -0.025744 -70123.200000 0 0 1
16.633779 13.757383 -26.048987 33.830429 0.691033 2.449617 0.089376 -0.019966 1004730.000000 0 0 1
15.278279 13.330883 -25.793207 32.808959 0.717434 2.475373 0.075727 -0.027389 823382.000000 0 0 1
15.146579 11.809483 -25.807447 32.169971 0.662227 2.501803 0.059440 -0.028273 227740.000000 0 0 1
13.791479 11.395983 -25.739847 31.346659 0.690577 2.534194 0.064829 -0.033792 258296.000000 0 0 1
13.775479 9.968183 -25.562407 30.701224 0.626402 2.554615 0.067881 -0.033999 -17410.600000 0 0 1
12.362279 9.372183 -25.396827 29.760083 0.648682 2.593242 0.099524 -0.048303 66934.100000 0 0 1
11.743879 9.674683 -24.177787 28.567176 0.689089 2.579888 0.129431 -0.056208 1528700.000000 0 0 1
10.381379 9.116983 -24.094987 27.775183 0.720643 2.620952 0.120094 -0.056414 1550300.000000 0 0 1
9.566979 9.698083 -22.941487 26.681299 0.792203 2.605741 0.113671 -0.056140 -223947.000000 0 0 1
8.878779 10.885183 -23.370287 27.267017 0.886570 2.600390 0.111370 -0.058784 -171649.000000 0 0 1
8.281979 11.678383 -22.378087 26.566042 0.953941 2.572438 0.107076 -0.046803 -36928.000000 0 0 1
9.176679 12.621283 -21.513787 26.577269 0.942126 2.514063 0.111274 -0.044341 426761.000000 0 0 1
9.989979 11.749083 -20.657087 25.778981 0.866141 2.500287 0.124928 -0.046156 91596.700000 0 0 1
10.921479 12.569283 -19.976487 26.006261 0.855430 2.446730 0.148176 -0.043973 -927062.000000 0 0 1
11.894579 11.764983 -19.156387 25.433501 0.779921 2.423702 0.162412 -0.042250 -158190.000000 0 0 1
12.941479 11.107683 -19.879387 26.192604 0.709293 2.432525 0.154436 -0.039866 507727.000000 0 0 1
12.516179 10.064483 -20.715187 26.211973 0.677247 2.482086 0.153392 -0.049267 -685150.000000 0 0 1
13.736979 9.372183 -21.370987 27.078801 0.598720 2.480325 0.153658 -0.041784 83272.500000 0 0 1
14.430079 8.486983 -20.529887 26.490231 0.531657 2.457509 0.158256 -0.050530 14009.800000 0 0 1
15.394479 7.832283 -21.329287 27.445822 0.470641 2.460907 0.124415 -0.037616 -58815.000000 0 0 1
16.060179 6.615883 -20.582787 26.932330 0.390760 2.440660 0.155570 -0.040800 529231.000000 0 0 1
16.892879 7.030583 -19.470487 26.718876 0.394382 2.387242 0.133363 -0.030328 512346.000000 0 0 1
17.446079 5.883383 -18.836087 26.339667 0.325256 2.367596 0.128210 -0.035931 -473376.000000 0 0 1
18.400879 6.137783 -17.711187 26.266916 0.321954 2.310782 0.155906 -0.030837 -1024030.000000 0 0 1
19.658779 6.598783 -18.145087 27.554595 0.323848 2.289639 0.127827 -0.036362 -17769.600000 0 0 1
20.507779 7.004283 -17.095287 27.602134 0.329121 2.238706 0.122014 -0.044231 -71932.100000 0 0 1
21.118179 5.981783 -16.121087 27.233227 0.276022 2.204290 0.104048 -0.041418 -812765.000000 0 0 1
22.175179 5.276283 -16.720087 28.269047 0.233593 2.203668 0.076496 -0.035097 355396.000000 0 0 1
22.958679 4.517183 -15.797587 28.232422 0.194271 2.164645 0.109742 -0.046120 7717.750000 0 0 1
24.126579 3.835983 -16.521187 29.491629 0.157674 2.165423 0.044305 -0.007381 -377911.000000 0 0 1
24.986679 3.113883 -15.686987 29.666681 0.123982 2.127952 0.039633 -0.007774 519382.000000 0 0 1
25.988779 2.428483 -16.455887 30.856286 0.093173 2.133302 0.045080 -0.011932 808891.000000 0 0 1
26.899979 1.396283 -15.679987 31.167619 0.051860 2.097962 0.062257 -0.022276 101906.000000 0 0 1
26.242279 0.221883 -15.363487 30.409590 0.008455 2.100431 0.079935 -0.022480 -48012.300000 0 0 1
27.115979 -0.818617 -15.681987 31.334824 -0.030180 2.094932 0.076437 -0.014880 -228036.000000 0 0 1
26.438079 -2.205817 -15.844687 30.901323 -0.083241 2.109182 0.061590 -0.020892 -342393.000000 0 0 1
26.105679 -2.872917 -14.643987 30.070027 -0.109608 2.079444 0.075499 -0.024691 479293.000000 0 0 1
25.727979 -4.208017 -14.991987 30.073177 -0.162123 2.092683 0.073657 -0.017201 -889019.000000 0 0 1
25.124679 -4.978917 -13.792187 29.090609 -0.195634 2.064751 0.087302 -0.018908 768564.000000 0 0 1
23.740079 -4.751417 -13.485987 27.713520 -0.197533 2.079014 0.100632 -0.013464 846910.000000 0 0 1
22.867679 -5.405717 -14.384987 27.551414 -0.232130 2.120124 0.108795 -0.014641 -202047.000000 0 0 1
21.433279 -5.433817 -13.763387 26.045012 -0.248291 2.127566 0.115907 -0.014408 106376.000000 0 0 1
21.371379 -6.439817 -12.761887 25.711337 -0.292676 2.090188 0.127484 -0.020676 514694.000000 0 0 1
20.932179 -5.946617 -11.515787 24.619743 -0.276797 2.057535 0.138348 -0.017463 -381337.000000 0 1 0
20.411479 -6.930317 -10.440887 23.951407 -0.327317 2.021856 0.129964 -0.022771 -1122690.000000 0 1 0
19.168279 -7.491117 -10.581987 23.141267 -0.372557 2.045728 0.121882 -0.018153 -487125.000000 0 1 0
19.095279 -8.501617 -11.595087 23.902996 -0.418873 2.077262 0.115573 -0.025911 -1697800.000000 0 1 0
17.811379 -9.254117 -11.571587 23.168633 -0.479175 2.093761 0.129995 -0.030888 -1207130.000000 0 1 0
16.739179 -8.371117 -11.748287 22.097465 -0.463721 2.131353 0.112092 -0.024059 358613.000000 0 1 0
15.503679 -9.014817 -12.120787 21.645888 -0.526678 2.165131 0.116151 -0.021771 527148.000000 0 1 0
14.403979 -7.992817 -12.457087 20.652815 -0.506600 2.218262 0.085698 -0.011739 -496505.000000 0 1 0
14.539179 -7.094217 -13.536387 21.093824 -0.453951 2.267539 0.084487 -0.019653 -429565.000000 0 1 0
15.521479 -6.146017 -13.368587 21.387122 -0.377026 2.246026 0.080106 -0.019539 -769631.000000 0 1 0
15.379479 -4.957317 -14.388987 21.636689 -0.311818 2.298327 0.066078 -0.019531 103741.000000 0 1 0
14.275779 -4.077917 -14.212887 20.553186 -0.278243 2.334384 0.072999 -0.022452 252478.000000 0 1 0
14.050179 -3.082217 -15.196087 20.924356 -0.215951 2.383632 0.070074 -0.027632 11757.300000 0 1 0
15.163779 -2.042817 -15.547587 21.813775 -0.133911 2.364196 0.078802 -0.025501 -53249.400000 0 1 0
16.278579 -2.555017 -16.259687 23.149464 -0.155686 2.349530 0.074362 -0.026869 91223.500000 0 1 0
17.352379 -1.666917 -16.290287 23.859110 -0.095769 2.322344 0.096925 -0.017015 342034.000000 0 1 0
18.496779 -1.886317 -15.236987 24.038611 -0.101630 2.257323 0.106914 -0.016945 100967.000000 0 1 0
18.041879 -1.607917 -13.899087 22.831545 -0.088887 2.225302 0.101792 -0.008864 190731.000000 0 1 0
18.947879 -2.128317 -12.971287 23.060923 -0.111856 2.168177 0.098690 -0.013333 -239996.000000 0 1 0
18.365279 -2.313817 -11.565287 21.826431 -0.125328 2.129250 0.094695 -0.007484 -208787.000000 0 1 0
18.125579 -1.143017 -10.798287 21.129272 -0.062978 2.107212 0.102348 -0.012103 595306.000000 0 1 0
17.712279 -1.588417 -9.529487 20.175704 -0.089440 2.062723 0.097882 -0.014449 -811365.000000 0 1 0
17.635279 -0.495517 -8.392487 19.536695 -0.028091 2.014819 0.092633 -0.013700 522711.000000 0 1 0
18.866879 -0.115917 -7.733387 20.390631 -0.006144 1.959795 0.109357 -0.017853 1574060.000000 0 1 0
19.958079 0.484083 -8.413587 21.664434 0.024250 1.969647 0.109592 -0.014666 -8392.380000 0 1 0
19.671079 1.690783 -9.353287 21.847061 0.085742 2.013214 0.112872 -0.017860 -668597.000000 0 1 0
19.443879 2.820883 -8.509187 21.410934 0.144073 1.979503 0.096111 -0.015790 325524.000000 0 1 0
18.994479 3.828183 -9.355287 21.516659 0.198878 2.020604 0.098925 -0.021103 -251406.000000 0 1 0
18.913479 5.295383 -8.880387 21.555093 0.272989 1.995428 0.103522 -0.008961 -427187.000000 0 1 0
18.541179 6.172883 -9.883287 21.898839 0.321386 2.039035 0.113551 -0.008518 366246.000000 0 1 0
18.876679 7.530883 -9.628587 22.488951 0.379602 2.013238 0.126909 -0.003731 -100031.000000 0 1 0
-26.862541 -29.145357 6.102613 40.103489 0.826134 1.418031 0.059381 -0.006812 138032.000000 0 0 1
-26.945061 -27.927627 6.771113 39.393358 0.803303 1.398054 0.073061 -0.011282 -628859.000000 0 0 1
-25.857171 -27.156237 6.365813 38.033907 0.809898 1.402633 0.050269 -0.009212 -954795.000000 0 0 1
-25.797381 -25.803187 7.054613 37.162843 0.785511 1.379808 0.052374 -0.006048 756370.000000 0 0 1
-26.922961 -24.870617 6.936513 37.302931 0.745793 1.383757 0.070755 -0.007717 980155.000000 0 0 1
-28.213911 -25.288737 7.347713 38.594480 0.730779 1.379245 0.055551 -0.010610 101555.000000 0 0 1
-28.449101 -25.546797 8.905713 39.259418 0.731699 1.341962 0.067144 -0.012415 -143940.000000 0 0 1
-27.527441 -26.482977 9.445013 39.348651 0.766062 1.328395 0.058730 -0.012726 72083.500000 0 0 1
-27.889281 -26.784797 10.827313 40.155548 0.765200 1.297783 0.049861 -0.014873 -216032.000000 0 0 1
-26.859101 -27.648077 11.568113 40.244859 0.799872 1.279240 0.019329 -0.015210 553251.000000 0 0 1
-25.611021 -27.054017 11.939113 39.120157 0.812791 1.260658 0.037078 -0.011612 251794.000000 0 0 1
-25.683291 -26.200317 13.069613 38.947437 0.795363 1.228585 0.055027 -0.012462 -137372.000000 0 0 1
-24.292521 -25.701567 13.559213 37.875446 0.813575 1.204677 0.048036 -0.007751 447052.000000 0 0 1
-23.615821 -26.795597 14.230113 38.447460 0.848391 1.191660 0.030086 -0.010319 -3277.210000 0 0 1
-22.681321 -26.317007 15.180113 37.913890 0.859463 1.158861 0.035690 -0.009876 85024.600000 0 0 1
-22.018921 -27.498877 15.956713 38.673477 0.895616 1.145489 0.047093 -0.019576 -558405.000000 0 0 1
-23.008321 -28.138357 16.683913 39.993786 0.885364 1.140475 0.048029 -0.014695 -75983.100000 0 0 1
-22.530921 -29.214377 17.461213 40.816862 0.913848 1.128745 0.057764 -0.011999 174851.000000 0 0 1
-23.690521 -29.911707 18.228713 42.287551 0.900943 1.125123 0.092012 -0.029136 282096.000000 0 0 1
-24.735721 -30.548897 17.519613 43.035193 0.890163 1.151520 0.049272 -0.022817 353169.000000 0 0 1
-25.166381 -31.671277 18.277313 44.390052 0.899349 1.146430 0.069943 -0.024573 -306557.000000 0 0 1
-26.099671 -32.637107 17.517713 45.312734 0.896243 1.173859 0.057783 -0.028561 331785.000000 0 0 1
-25.354531 -33.379807 16.510313 45.051684 0.921194 1.195579 0.063985 -0.035314 856309.000000 0 0 1
-26.105291 33.376323 15.940713 45.272193 -0.907035 1.210974 0.060654 -0.037401 -254188.000000 0 0 1
-25.295531 32.666960 14.830013 43.896736 -0.911895 1.226177 0.064111 -0.036690 1140520.000000 0 0 1
-24.073421 31.972960 15.167913 42.800296 -0.925422 1.208537 0.058894 -0.035346 1796360.000000 0 0 1
-22.900921 32.817738 15.122213 42.780105 -0.961534 1.209500 0.067843 -0.037591 1115140.000000 0 0 1
-21.530721 32.052591 15.064213 41.447208 -0.979296 1.198822 0.069285 -0.037615 437080.000000 0 0 1
-21.382221 31.394877 13.861713 40.434944 -0.972886 1.220884 0.041490 -0.022980 331513.000000 0 0 1
-20.201021 30.606377 13.790213 39.179095 -0.987405 1.211112 0.051574 -0.025328 215281.000000 0 0 1
-20.328721 29.807777 12.461113 38.171190 -0.972258 1.238247 0.045090 -0.026717 229967.000000 0 0 1
-19.914921 30.541827 11.343713 38.184906 -0.992979 1.269170 0.021689 -0.017340 12571.700000 0 0 1
-20.453121 29.913707 10.167913 37.637036 -0.971068 1.297240 0.043082 -0.017333 256321.000000 0 0 1
-19.957221 30.571747 8.828313 37.561436 -0.992456 1.333540 0.037908 -0.011405 -527300.000000 0 0 1
-18.614421 30.295277 8.584813 36.578675 -1.019832 1.333892 0.044506 -0.019533 -873542.000000 0 0 1
-18.207321 30.893307 7.373213 36.609660 -1.038236 1.368009 0.063886 -0.021744 -272766.000000 0 0 1
-17.869521 29.885887 6.247513 35.376792 -1.031904 1.393266 0.076820 -0.028358 -442913.000000 0 0 1
-18.876021 29.007757 5.816713 35.093992 -0.993913 1.404281 0.060200 -0.019491 -327010.000000 0 0 1
-19.083121 27.886637 6.692513 34.447347 -0.970678 1.375270 0.035739 -0.014051 -383805.000000 0 0 1
-20.063421 26.847447 6.212513 34.086971 -0.929018 1.387517 0.036257 -0.010038 -371348.000000 0 0 1
-19.553321 26.072157 5.162913 32.996142 -0.927315 1.413681 0.061040 -0.020967 376346.000000 0 0 1
-20.541521 25.157807 4.712713 32.818881 -0.886071 1.426701 0.061771 -0.021959 -346479.000000 0 0 1
-20.105921 24.363327 3.484213 31.779860 -0.880845 1.460940 0.088853 -0.032745 -1387750.000000 0 0 1
-20.079521 25.092217 2.252313 32.216136 -0.895916 1.500827 0.105045 -0.041736 491112.000000 0 0 1
-19.022821 26.037077 2.006013 32.308221 -0.939824 1.508666 0.115965 -0.036533 140866.000000 0 0 1
-17.577321 25.492397 2.031113 31.031434 -0.967144 1.505296 0.115671 -0.038197 -668202.000000 0 0 1
-17.164921 24.437937 1.170613 29.886746 -0.958469 1.531618 0.157414 -0.047210 268282.000000 0 0 1
-16.919521 24.743067 -0.210087 29.975551 -0.971020 1.577805 0.147427 -0.050272 -199507.000000 0 0 1
-16.462621 23.566107 -1.115387 28.768444 -0.961029 1.609577 0.138250 -0.052433 -418693.000000 0 0 1
-17.428921 22.595507 -1.361887 28.568845 -0.913774 1.618485 0.149434 -0.067193 377234.000000 0 0 1
-16.860221 21.436707 -2.086987 27.352421 -0.904334 1.647170 0.145089 -0.060606 626210.000000 0 0 1
-15.716221 20.586607 -1.462487 25.941219 -0.918762 1.627203 0.127719 -0.058893 471856.000000 0 0 1
-16.190221 19.596307 -0.542387 25.425040 -0.880290 1.592131 0.132440 -0.062143 245233.000000 0 0 1
-15.071421 18.981007 0.031313 24.236900 -0.899708 1.569504 0.115734 -0.054003 -319883.000000 0 1 0
-15.461421 17.933507 1.064213 23.702294 -0.859289 1.525882 0.090494 -0.044688 60072.500000 0 1 0
-16.082321 16.864007 0.364313 23.305975 -0.809120 1.555164 0.072403 -0.042351 256085.000000 0 1 0
-16.928021 16.115407 1.200613 23.403113 -0.760811 1.519472 0.089526 -0.055790 -68444.800000 0 1 0
-17.545121 14.822907 0.622213 22.976879 -0.701494 1.543713 0.077525 -0.049968 34251.600000 0 1 0
-18.693021 15.070707 -0.194487 24.012352 -0.678523 1.578896 0.123053 -0.056251 532640.000000 0 1 0
-19.188321 13.812107 -0.541887 23.648670 -0.623903 1.593712 0.110790 -0.048318 -744801.000000 0 1 0
-20.395721 13.755307 -1.474387 24.644831 -0.593352 1.630657 0.103310 -0.050873 -402240.000000 0 1 0
-21.181821 12.572307 -1.602587 24.684017 -0.535658 1.635766 0.096524 -0.055186 967620.000000 0 1 0
-21.969021 12.185007 -0.472587 25.126392 -0.506402 1.589606 0.119055 -0.054012 688154.000000 0 0 1
-23.368221 12.905607 -0.296187 26.696744 -0.504586 1.581891 0.148383 -0.053883 545571.000000 0 0 1
-23.247921 14.266107 0.154713 27.276575 -0.550396 1.565124 0.161042 -0.055704 1064820.000000 0 0 1
-24.554521 14.839707 0.382613 28.692992 -0.543617 1.557461 0.148340 -0.045686 890741.000000 0 0 1
-24.418621 16.268407 0.987313 29.358216 -0.587700 1.537160 0.151691 -0.049387 -86246.600000 0 0 1
-24.295721 16.227807 2.393613 29.314726 -0.588876 1.489053 0.155692 -0.059108 64444.900000 0 0 1
-24.242721 17.466107 3.080113 30.037668 -0.624331 1.468074 0.138444 -0.047740 543652.000000 0 0 1
-25.593171 18.250707 3.192713 31.595761 -0.619470 1.469575 0.145886 -0.052093 92141.800000 0 0 1
-26.589361 17.652507 3.962813 32.160674 -0.586080 1.447263 0.156225 -0.052882 -225105.000000 0 0 1
-27.790731 18.370207 4.086313 33.563182 -0.584083 1.448744 0.146672 -0.057130 542363.000000 0 0 1
-28.922351 17.939807 3.105113 34.175733 -0.555194 1.479814 0.155000 -0.058236 -73184.600000 0 0 1
-30.148571 18.610807 3.151413 35.570069 -0.553045 1.482083 0.144162 -0.052799 631765.000000 0 0 1
-31.074671 18.228907 2.111713 36.088607 -0.530520 1.512248 0.126739 -0.040920 593974.000000 0 0 1
-32.350221 19.057507 1.888213 37.593759 -0.532366 1.520548 0.121962 -0.042463 680299.000000 0 0 1
-33.461671 18.729507 2.743513 38.444826 -0.510283 1.499373 0.126066 -0.038077 1153970.000000 0 0 1
-34.503361 19.729407 2.712213 39.838267 -0.519434 1.502663 0.123389 -0.030959 691947.000000 0 0 1
-34.920785 20.328507 4.071913 40.611450 -0.527178 1.470362 0.097544 -0.034406 309114.000000 0 0 1
-33.848871 21.138607 4.581513 40.169354 -0.558239 1.456493 0.103905 -0.041750 840781.000000 0 0 1
-34.160975 21.793707 5.788713 40.932225 -0.567872 1.428899 0.092667 -0.042396 -428365.000000 0 0 1
-33.104621 22.837187 6.164513 40.687273 -0.603881 1.418701 0.103218 -0.048639 -302389.000000 0 0 1
-33.215241 24.014387 5.392113 41.340269 -0.625991 1.439991 0.081527 -0.038431 741772.000000 0 0 1
-32.080441 24.811687 5.702913 40.954825 -0.658323 1.431093 0.083017 -0.045657 208962.000000 0 0 1
-32.444801 26.286847 5.530613 42.121860 -0.680931 1.439116 0.075300 -0.034175 599185.000000 0 0 1
-33.482031 26.737697 6.449513 43.330671 -0.673867 1.421397 0.086350 -0.028216 878532.000000 0 0 1
-33.811681 28.085677 6.283913 44.401830 -0.693153 1.428796 0.076907 -0.027127 -54083.100000 0 0 1
-34.806840 28.503197 7.395513 45.592126 -0.686157 1.407866 0.072924 -0.025124 -349806.000000 0 0 1
-34.194812 28.598267 8.657513 45.410335 -0.696506 1.378971 0.088037 -0.025151 -46339.900000 0 0 1
-34.933840 29.345457 9.558913 46.614395 -0.698677 1.364268 0.090274 -0.017483 -451671.000000 0 0 1
-36.166971 28.638057 10.153713 47.236490 -0.669739 1.354151 0.077753 -0.013297 -319811.000000 0 0 1
-35.857990 27.391547 10.720813 46.379177 -0.652331 1.337531 0.088817 -0.025397 419061.000000 0 0 1
-36.895361 26.917627 11.592513 47.119132 -0.630295 1.322219 0.084345 -0.022014 145250.000000 0 0 1
-36.495291 25.585237 12.224513 46.216331 -0.611434 1.303104 0.093497 -0.020040 497365.000000 0 0 1
-35.375357 25.755507 13.106413 45.678661 -0.629313 1.279780 0.120467 -0.029246 386422.000000 0 0 1
-35.177718 24.572327 13.902213 45.105904 -0.609732 1.257483 0.131916 -0.027450 -94891.000000 0 0 1
-33.994061 24.691057 14.870313 44.568718 -0.628182 1.230624 0.142059 -0.025044 -454285.000000 0 0 1
-34.124752 25.785757 15.761613 45.583247 -0.647096 1.217730 0.144618 -0.028944 107965.000000 0 0 1
-32.966301 26.158817 16.502313 45.203838 -0.670766 1.197094 0.166107 -0.024602 549.899000 0 0 1
-33.170331 27.453857 17.350913 46.422400 -0.691383 1.187735 0.157819 -0.029168 -79473.000000 0 0 1
-32.962271 28.604207 16.579613 46.686138 -0.714730 1.207744 0.167913 -0.028563 189426.000000 0 0 1
-33.507961 29.768427 17.164913 47.995592 -0.726368 1.205062 0.137774 -0.025037 -128710.000000 0 0 1
-33.057701 31.043487 16.511013 48.260990 -0.753986 1.221625 0.119223 -0.027372 -956075.000000 0 0 1
-31.721431 31.343597 16.685113 47.613687 -0.779407 1.212770 0.107944 -0.024003 -935496.000000 0 0 1
-31.385761 32.461504 15.960113 47.890922 -0.802245 1.231038 0.098478 -0.018647 -435336.000000 0 0 1
-29.899221 32.585359 15.583313 46.889323 -0.828361 1.232010 0.109960 -0.028047 -284390.000000 0 0 1
-29.460661 31.938763 14.391213 45.772504 -0.825737 1.250964 0.104288 -0.023373 237719.000000 0 0 1
-29.115661 30.566767 14.477913 44.628006 -0.809707 1.240405 0.114930 -0.029791 -316047.000000 0 0 1
-30.231681 29.601637 14.053213 44.583676 -0.774869 1.250119 0.136397 -0.029435 -128172.000000 0 0 1
-30.332411 29.486597 12.596613 44.138296 -0.771260 1.281383 0.141567 -0.030346 640538.000000 0 0 1
-31.323171 28.491727 12.210613 44.068340 -0.738097 1.290039 0.128036 -0.027840 525198.000000 0 0 1
-31.393651 28.050037 10.726113 43.444394 -0.729209 1.321324 0.111602 -0.022155 -159124.000000 0 0 1
-30.541691 27.043697 10.248313 42.061673 -0.724728 1.324669 0.083997 -0.007588 -232757.000000 0 0 1
-30.498291 27.176227 8.831513 41.793404 -0.727862 1.357878 0.079100 -0.014601 243005.000000 0 0 1
-29.427171 26.271027 8.161313 40.283151 -0.728794 1.366785 0.084108 -0.016836 345009.000000 0 0 1
-29.146811 26.697697 6.842713 40.113917 -0.741570 1.399376 0.083900 -0.032338 -588629.000000 0 0 1
-28.079971 25.967947 6.322313 38.765844 -0.746341 1.406975 0.074563 -0.029072 -434528.000000 0 0 1
-27.756221 26.392947 4.891513 38.612463 -0.760227 1.443773 0.068753 -0.026831 -309403.000000 0 0 1
-27.092571 27.636427 4.741213 38.990493 -0.795335 1.448895 0.044753 -0.014473 97037.400000 0 0 1
-26.891771 28.012287 3.423913 38.981774 -0.805804 1.482849 0.037664 -0.014929 -549508.000000 0 0 1
-25.817211 29.068187 3.090213 39.000478 -0.844561 1.491478 0.027563 -0.016368 268357.000000 0 0 1
-24.527321 28.446107 3.138513 37.691122 -0.859240 1.487431 0.025352 -0.010680 168068.000000 0 0 1
-23.573921 29.397847 2.709213 37.779663 -0.894902 1.499024 0.028731 -0.004630 -1008200.000000 0 0 1
-22.158021 29.062597 3.113613 36.678427 -0.919391 1.485805 0.034940 -0.017193 -759867.000000 0 0 1
-21.272321 30.104947 2.719313 36.962334 -0.955651 1.497160 0.040830 -0.018010 -695569.000000 0 0 1
-19.974621 29.639507 2.978513 35.865824 -0.977790 1.487655 0.060441 -0.028990 -140073.000000 0 0 1
-18.875821 30.654287 2.546513 36.089702 -1.018866 1.500177 0.066529 -0.029015 154120.000000 0 0 1
-18.716921 31.784847 3.396013 37.042307 -1.038606 1.478988 0.070076 -0.028273 1055760.000000 0 0 1
-17.525521 32.545109 3.038613 37.088558 -1.076826 1.488776 0.089617 -0.025881 828264.000000 0 0 1
-17.321821 33.863077 3.813813 38.226936 -1.097971 1.470862 0.084502 -0.026183 112905.000000 0 0 1
-18.257821 -32.936427 3.479413 37.818813 1.064631 1.478664 0.081554 -0.026293 374916.000000 0 0 1
-18.133721 -31.966457 4.520113 37.028606 1.054788 1.448420 0.062004 -0.028716 30255.500000 0 0 1
-19.239321 -30.895647 4.614313 36.687660 1.013839 1.444689 0.070193 -0.022042 -27401.800000 0 0 1
-19.144921 -29.889077 3.624813 35.679465 1.001106 1.469027 0.094060 -0.022551 37202.900000 0 0 1
-20.241021 -29.031817 3.777213 35.592312 0.961951 1.464472 0.092780 -0.032774 -506621.000000 0 0 1
-20.558321 -28.081797 2.570513 34.897556 0.938858 1.497071 0.095203 -0.037842 -361964.000000 0 0 1
-19.625621 -27.067617 2.434913 33.522376 0.943449 1.498097 0.103145 -0.035269 -25167.400000 0 0 1
-20.110021 -26.004477 1.585413 32.911386 0.912531 1.522605 0.100385 -0.039839 -264886.000000 0 0 1
-19.094321 -24.868017 1.566613 31.392127 0.915984 1.520871 0.094197 -0.031662 -890303.000000 0 0 1
-17.971721 -25.334337 0.930713 31.075354 0.953801 1.540842 0.136404 -0.041983 -1799300.000000 0 0 1
-16.845621 -24.565617 1.205513 29.811034 0.969705 1.530347 0.108836 -0.036039 -461528.000000 0 0 1
-15.621521 -25.041897 0.405513 29.517672 1.013049 1.557058 0.091980 -0.032195 -379043.000000 0 0 1
-15.678921 -24.990417 -1.041487 29.520065 1.010475 1.606084 0.081301 -0.027260 17410.400000 0 0 1
-15.503621 -23.702217 -1.584287 28.366659 0.991544 1.626676 0.080783 -0.026794 -262011.000000 0 0 1
-15.591021 -23.692417 -3.139687 28.535385 0.988776 1.681047 0.032842 -0.015680 650476.000000 0 0 1
-14.461321 -24.194717 -3.909187 28.456913 1.032066 1.708604 0.066769 -0.010964 687338.000000 0 0 1
-14.700121 -24.116217 -5.338587 28.743451 1.023382 1.757613 0.038792 -0.007833 366702.000000 0 0 1
-13.526521 -24.635417 -6.233087 28.787531 1.068669 1.789045 0.071884 -0.013574 427279.000000 0 0 1
-13.363121 -26.030757 -6.052687 29.879899 1.096519 1.774775 0.049426 -0.014626 -292456.000000 0 0 1
-12.211121 -26.527567 -6.695787 29.960922 1.139395 1.796184 0.057685 -0.012591 217906.000000 0 0 1
24.171879 13.059983 28.172178 39.351169 0.495363 0.772859 0.066267 -0.006628 -97298.100000 0 0 1
24.978379 11.943183 28.523628 39.751181 0.446008 0.770512 0.068722 -0.013254 169784.000000 0 0 1
24.515979 11.034983 29.506378 39.917796 0.422949 0.738946 0.079856 -0.015735 -286492.000000 0 0 1
24.602579 11.459683 30.972258 41.181209 0.435909 0.719558 0.106545 -0.035391 -65086.500000 0 0 1
23.562979 12.321283 31.364348 41.118734 0.481806 0.703203 0.101518 -0.023175 -40530.500000 0 0 1
23.734879 12.739583 32.701420 42.367727 0.492610 0.689055 0.090683 -0.020887 -570064.000000 0 0 1
22.582479 13.657283 33.196810 42.408937 0.543922 0.671678 0.075710 -0.018029 346907.000000 0 0 1
21.347579 12.952983 33.242275 41.575807 0.545380 0.644237 0.085982 -0.021987 -445969.000000 0 0 1
20.477379 13.642283 -33.822827 41.826051 0.587688 2.512658 0.077949 -0.015871 -1026470.000000 0 0 1
19.355979 12.805783 -33.233537 40.535293 0.584482 2.531974 0.069925 -0.013162 -11868.300000 0 0 1
18.159979 12.834983 33.830493 40.484860 0.615257 0.581512 0.070505 -0.006260 371975.000000 0 0 1
17.196879 12.200183 -33.217017 39.343962 0.617035 2.576002 0.063531 -0.008647 -151871.000000 0 0 1
15.837179 11.999583 -33.924937 39.315488 0.648401 2.611757 0.056658 -0.009291 60999.800000 0 0 1
15.797979 11.015283 32.983896 38.194895 0.608884 0.528493 0.055462 -0.004894 -1074210.000000 0 0 1
14.567479 10.961383 32.380451 37.159884 0.645071 0.512784 0.055595 0.006922 -770427.000000 0 0 1
14.656779 9.867183 31.251618 35.900502 0.592523 0.514566 0.063336 0.006094 158298.000000 0 0 1
14.785879 8.582783 31.795328 36.100267 0.525937 0.493352 0.049753 -0.000285 38684.500000 0 0 1
15.461579 7.797183 30.824898 35.355775 0.467077 0.511831 0.069430 -0.014384 106025.000000 0 0 1
15.830779 6.420583 31.252438 35.616742 0.385304 0.500246 0.090278 -0.023934 765614.000000 0 0 1
14.684879 5.530183 31.358918 35.065800 0.360164 0.463959 0.089649 -0.020341 512723.000000 0 0 1
15.038879 4.293483 31.989847 35.608316 0.278094 0.454726 0.091285 -0.027789 278546.000000 0 0 1
13.994779 3.115883 32.075944 35.134438 0.219073 0.420344 0.063707 -0.018904 345649.000000 0 0 1
14.478779 1.957183 32.724856 35.838273 0.134362 0.419909 0.066367 -0.020846 24845.100000 0 0 1
13.419479 1.025183 32.914474 35.559753 0.076247 0.388151 0.071209 -0.021101 144615.000000 0 0 1
13.909279 -0.277817 33.522880 36.295023 -0.019971 0.393372 0.056236 -0.028226 -175315.000000 0 0 1
14.580179 -1.065317 32.561587 35.692765 -0.072937 0.421994 0.059528 -0.026367 98595.800000 0 0 1
15.058679 -2.324317 33.086246 36.426171 -0.153142 0.431571 0.101834 -0.044127 47262.800000 0 0 1
15.287379 -3.331117 31.960628 35.584857 -0.214546 0.455247 0.111752 -0.043850 -270008.000000 0 0 1
15.722179 -4.681617 32.352563 36.273858 -0.289411 0.469273 0.120299 -0.050159 476083.000000 0 0 1
16.997979 -4.973217 32.915553 37.377771 -0.284633 0.493631 0.087216 -0.046129 141304.000000 0 0 1
18.210079 -4.734417 32.021005 37.139823 -0.254358 0.531250 0.094167 -0.050034 -719795.000000 0 0 1
18.500079 -3.343517 31.833938 36.970686 -0.178800 0.533448 0.099787 -0.053413 15126.600000 0 0 1
19.487479 -3.009717 30.877918 36.636949 -0.153233 0.568317 0.106503 -0.056237 75925.500000 0 0 1
19.543579 -1.485717 30.731248 36.449533 -0.075875 0.567741 0.118685 -0.056864 -447762.000000 0 0 1
20.064579 -0.942817 31.901580 37.698634 -0.046955 0.561934 0.101479 -0.050919 -127387.000000 0 0 1
19.655379 0.401583 32.017366 37.571358 0.020428 0.550669 0.104996 -0.043993 -422033.000000 0 0 1
20.648279 1.474283 31.601748 37.778240 0.071279 0.579920 0.131289 -0.041529 -523692.000000 0 0 1
20.864179 1.532383 30.185588 36.726447 0.073314 0.606052 0.135598 -0.047595 162602.000000 0 0 1
21.889279 2.434083 29.767268 37.029117 0.110745 0.636993 0.118953 -0.040825 230957.000000 0 0 1
21.441179 3.903683 29.643768 36.792878 0.180092 0.633952 0.109267 -0.024154 29561.100000 0 0 1
20.854479 4.367783 30.850208 37.492961 0.206457 0.604429 0.120728 -0.032621 161298.000000 0 0 1
20.487479 5.714483 30.808548 37.437397 0.272012 0.604238 0.108704 -0.032241 -72791.300000 0 0 1
20.016379 6.056483 32.230163 38.420305 0.293819 0.575567 0.108797 -0.032641 375614.000000 0 0 1
18.742179 5.498683 32.562660 37.971458 0.285377 0.540296 0.075851 -0.019446 469151.000000 0 0 1
18.529879 5.770183 -33.901497 39.063575 0.301881 2.621664 0.062927 -0.018881 -124301.000000 0 0 1
17.457979 4.915483 -33.177817 37.811513 0.274455 2.641322 0.066657 -0.016537 63189.800000 0 0 1
17.746079 3.536883 -33.292827 37.892548 0.196727 2.643743 0.061388 -0.015104 -245669.000000 0 0 1
16.671379 2.823583 -32.774387 36.879099 0.167775 2.665294 0.061979 -0.016975 -368198.000000 0 0 1
16.805779 1.347583 -33.003557 37.060558 0.080014 2.669306 0.063010 -0.032442 -699679.000000 0 0 1
17.836379 0.778083 -32.270077 36.879530 0.043596 2.636260 0.061105 -0.029086 -428528.000000 0 0 1
17.963679 -0.630517 -32.529377 37.165195 -0.035085 2.636779 0.066377 -0.031625 17754.400000 0 0 1
19.127179 -1.254117 -31.696127 37.041413 -0.065474 2.597687 0.076832 -0.031701 114102.000000 0 0 1
18.906779 -1.449817 -30.295017 35.740122 -0.076533 2.582331 0.088331 -0.036435 209526.000000 0 0 1
18.822679 -0.208217 -29.592267 35.071910 -0.011062 2.575047 0.075084 -0.030629 -191228.000000 0 0 1
18.553779 -0.333317 -28.090077 33.666099 -0.017963 2.557790 0.080809 -0.027222 -144195.000000 0 0 1
17.257279 -0.803017 -27.817357 32.745440 -0.046499 2.585839 0.092310 -0.034817 -200206.000000 0 0 1
16.927779 -1.035317 -26.405607 31.382761 -0.061085 2.570674 0.087724 -0.036942 -32977.200000 0 0 1
17.793279 -2.029717 -25.570547 31.218158 -0.113581 2.530623 0.091357 -0.029759 -413618.000000 0 0 1
19.061979 -1.429417 -25.336637 31.738737 -0.074848 2.495243 0.095059 -0.028373 -276505.000000 0 0 1
19.983679 -2.463717 -25.031687 32.124799 -0.122667 2.464187 0.086742 -0.022386 482113.000000 0 0 1
20.756379 -2.972617 -26.317607 33.649371 -0.142247 2.468846 0.091277 -0.029869 -174512.000000 0 0 1
21.769279 -2.170117 -26.882727 34.659659 -0.099359 2.458493 0.086494 -0.023119 -272017.000000 0 0 1
22.196679 -2.690717 -28.123137 35.928309 -0.120633 2.469880 0.084255 -0.028812 1232070.000000 0 0 1
23.660579 -2.143817 -28.451577 37.066308 -0.090360 2.445863 0.075433 -0.026659 892192.000000 0 0 1
24.611179 -2.980117 -27.892737 37.317503 -0.120501 2.415002 0.072818 -0.029423 -952888.000000 0 0 1
25.897679 -2.454317 -28.103847 38.295426 -0.094488 2.394797 0.053987 -0.033158 357539.000000 0 0 1
27.075779 -3.374317 -27.612367 38.819153 -0.123986 2.362153 0.065662 -0.034328 90633.900000 0 0 1
27.131479 -4.511117 -28.448607 39.570072 -0.164762 2.373076 0.079171 -0.045028 595937.000000 0 0 1
28.321779 -5.265717 -28.207087 40.317375 -0.183826 2.345670 0.072513 -0.045443 449843.000000 0 0 1
28.140579 -6.405417 -27.189947 39.651164 -0.223809 2.326401 0.073112 -0.032515 -175588.000000 0 0 1
28.132879 -5.968017 -25.833317 38.657941 -0.209038 2.302655 0.066730 -0.021451 216773.000000 0 0 1
28.042479 -7.090317 -24.954887 38.202089 -0.247652 2.282644 0.053666 -0.008830 -241906.000000 0 0 1
28.248379 -6.751217 -23.519987 37.372980 -0.234594 2.251489 0.040120 -0.002884 390757.000000 0 0 1
29.605079 -6.433117 -23.212287 38.166163 -0.213971 2.224575 0.031991 -0.003522 576106.000000 0 0 1
29.784579 -6.018117 -21.882687 37.445839 -0.199371 2.194915 0.041186 -0.003522 -642334.000000 0 0 1
31.211779 -5.598217 -21.567487 38.349338 -0.177475 2.168076 0.057003 -0.005290 -800005.000000 0 0 1
31.535079 -4.383817 -22.117487 38.766768 -0.138129 2.177944 0.067808 -0.014041 549848.000000 0 0 1
32.812279 -3.864217 -21.719187 39.538601 -0.117227 2.152342 0.073374 -0.011097 628892.000000 0 0 1
33.251179 -2.634717 -22.474887 40.220681 -0.079072 2.163722 0.087716 -0.022904 -50327.800000 0 0 1
32.438679 -1.540817 -22.081787 39.271457 -0.047464 2.167944 0.070564 -0.014977 156370.000000 0 0 1
33.038579 -0.312317 -22.352487 39.890838 -0.009453 2.165594 0.094764 -0.024090 -650770.000000 0 0 1
32.139779 0.895483 -22.225687 39.086423 0.027855 2.175635 0.081606 -0.016335 -724823.000000 0 0 1
31.209279 0.921383 -23.298287 38.957390 0.029514 2.211856 0.080542 -0.013234 -207115.000000 0 0 1
30.180079 1.737283 -22.818387 37.875244 0.057500 2.217378 0.065692 -0.009480 -887780.000000 0 0 1
29.039179 1.874483 -23.824387 37.608364 0.064461 2.256847 0.048657 -0.006826 51195.800000 0 0 1
27.907079 2.588683 -23.289287 36.440324 0.092496 2.264134 0.037094 -0.006586 223794.000000 0 0 1
27.073079 2.881783 -24.356787 36.530937 0.106045 2.300628 0.062690 -0.014426 -203553.000000 0 0 1
25.919079 3.814683 -23.882187 35.450096 0.146128 2.309980 0.061755 -0.011638 179580.000000 0 0 1
26.416479 5.101183 -23.510387 35.729410 0.190758 2.288972 0.039330 -0.004314 500973.000000 0 0 1
25.335679 5.986683 -23.249887 34.904072 0.232038 2.299775 0.060103 -0.011476 90181.800000 0 0 1
25.758779 7.325883 -22.663387 35.082936 0.277087 2.273122 0.063286 -0.001801 -243930.000000 0 0 1
26.426979 8.155283 -23.602287 36.358793 0.299325 2.277262 0.063910 -0.002642 189161.000000 0 0 1
26.581679 9.472183 -23.121187 36.481464 0.342314 2.257225 0.071365 -0.005133 194661.000000 0 0 1
27.629779 10.275983 -23.965187 37.991192 0.356065 2.253392 0.099868 -0.004726 65833.100000 0 0 1
27.233679 10.600683 -25.278167 38.639791 0.371204 2.283921 0.124440 -0.015271 493064.000000 0 0 1
26.208379 11.599783 -25.353437 38.265270 0.416682 2.295042 0.123692 -0.014728 460997.000000 0 0 1
25.947879 12.180683 -26.817687 39.253660 0.438893 2.322918 0.130090 -0.016789 -165456.000000 0 0 1
25.298879 11.249883 -27.697257 39.162880 0.418420 2.356372 0.113686 -0.020999 525013.000000 0 0 1
26.054179 10.098883 -28.189647 39.692114 0.369781 2.360590 0.113502 -0.029568 414370.000000 0 0 1
27.121179 10.411683 -29.275667 41.243499 0.366546 2.360046 0.115782 -0.032872 -233568.000000 0 0 1
28.302879 11.034183 -28.803407 41.862184 0.371735 2.329599 0.117778 -0.030967 1602020.000000 0 0 1
29.385679 11.274283 -29.763147 43.318270 0.366346 2.328260 0.133161 -0.033632 1245360.000000 0 0 1
30.154679 10.034183 -30.256537 43.879922 0.321232 2.331637 0.113346 -0.029299 -982396.000000 0 0 1
29.429879 9.226383 -31.152497 43.837450 0.303799 2.361199 0.100764 -0.035323 -23779.800000 0 0 1
30.091979 8.046983 -31.525037 44.318270 0.261299 2.362189 0.099640 -0.028275 -210706.000000 0 0 1
29.196379 7.257283 -32.512277 44.296104 0.243630 2.394954 0.099306 -0.040933 238430.000000 0 0 1
28.088379 6.726083 -31.805647 42.962733 0.235036 2.404324 0.110795 -0.040852 -857566.000000 0 0 1
27.122879 6.284783 -32.703867 42.949878 0.227697 2.436332 0.091961 -0.034027 -374996.000000 0 0 1
25.841379 6.119783 -31.826257 41.450443 0.232537 2.446219 0.110268 -0.029340 -854108.000000 0 0 1
25.290179 7.393483 -31.521007 41.083216 0.284420 2.445335 0.117779 -0.025487 322761.000000 0 0 1
24.193279 7.342883 -30.589237 39.685439 0.294673 2.450880 0.109572 -0.027578 785849.000000 0 0 1
22.854679 6.945183 -31.267467 39.347508 0.295017 2.489226 0.106887 -0.031000 -718730.000000 0 0 1
22.390679 8.012483 -32.064367 39.920747 0.343650 2.503445 0.106383 -0.025480 -910419.000000 0 0 1
21.053079 7.868983 -32.400257 39.432597 0.357691 2.535117 0.086390 -0.026148 -622180.000000 0 0 1
20.545279 9.087283 -33.240727 40.120233 0.416436 2.547270 0.086029 -0.019646 -120890.000000 0 0 1
21.113079 9.042383 33.340297 40.485827 0.404648 0.603234 0.084419 -0.021135 -132797.000000 0 0 1
20.827379 10.123383 32.514305 39.917949 0.452435 0.618880 0.081683 -0.019783 1095400.000000 0 0 1
19.523479 9.930383 31.592498 38.443005 0.470534 0.606232 0.083028 -0.014144 1316270.000000 0 0 1
19.623579 8.932883 30.529448 37.375506 0.427179 0.614901 0.082751 -0.021772 344706.000000 0 0 1
20.619579 9.121783 29.497618 37.127933 0.416503 0.652636 0.096816 -0.021902 40590.000000 0 0 1
20.276979 10.181883 28.443918 36.385204 0.465358 0.673339 0.099915 -0.015493 -134538.000000 0 0 1
19.275779 9.821283 27.525218 35.009297 0.471230 0.666119 0.089258 -0.006799 -578009.000000 0 0 1
18.022379 10.274283 27.937638 34.797681 0.518132 0.638721 0.086311 -0.018781 -929096.000000 0 0 1
16.871179 9.558483 27.212118 33.414078 0.515466 0.619118 0.106991 -0.019101 -573084.000000 0 0 1
16.721879 9.902283 25.861948 32.349912 0.534646 0.644427 0.104000 -0.013575 1099030.000000 0 0 1
15.380279 9.619883 25.397078 31.210682 0.558936 0.620255 0.119204 -0.021499 1090230.000000 0 0 1
15.225079 8.112283 24.988758 30.365279 0.489560 0.604232 0.127433 -0.021750 -172961.000000 0 0 1
15.268679 7.248583 26.150468 31.137140 0.443232 0.573793 0.115348 -0.026230 15990.200000 0 0 1
14.801879 5.950783 25.788728 30.324345 0.382254 0.553995 0.128234 -0.025633 59065.500000 0 0 1
14.834379 4.895783 26.966388 31.164299 0.318774 0.525053 0.133578 -0.024459 343319.000000 0 0 1
16.085079 4.219783 27.074728 31.773845 0.256560 0.550798 0.128640 -0.027754 454943.000000 0 0 1
16.316679 3.904883 28.400398 32.985826 0.234900 0.533588 0.108885 -0.026978 127284.000000 0 0 1
17.491979 2.934283 28.708828 33.745757 0.166203 0.553407 0.131811 -0.031303 140176.000000 0 0 1
17.186879 1.535283 28.765088 33.543646 0.089092 0.540324 0.117856 -0.036780 424734.000000 0 0 1
16.290379 1.069783 29.812998 33.990230 0.065575 0.500995 0.098173 -0.035310 610541.000000 0 0 1
16.174679 -0.499317 29.848718 33.953137 -0.030861 0.496794 0.092607 -0.032682 -481788.000000 0 0 1
15.496979 -1.085717 28.763868 32.690904 -0.069946 0.495200 0.094985 -0.031869 32550.400000 0 0 1
16.070779 -1.001417 27.467588 31.839302 -0.062232 0.530223 0.117252 -0.030787 -515316.000000 0 0 1
17.270279 -1.916117 27.032548 32.135536 -0.110497 0.571290 0.119065 -0.036355 18984.900000 0 0 1
18.502479 -1.590417 27.596098 33.262829 -0.085746 0.592338 0.114649 -0.045519 -195395.000000 0 0 1
19.136579 -0.381317 27.029638 33.120317 -0.019923 0.616159 0.120865 -0.038171 -923553.000000 0 0 1
20.601579 -0.266417 27.451828 34.323445 -0.012931 0.643837 0.122031 -0.042094 -152542.000000 0 0 1
21.464779 -1.103517 26.682288 34.262209 -0.051365 0.678098 0.096755 -0.041694 380360.000000 0 0 1
22.815079 -0.858617 27.087258 35.425762 -0.037616 0.700344 0.090237 -0.040103 1194160.000000 0 0 1
23.967579 -1.580117 26.309608 35.624950 -0.065832 0.739929 0.071749 -0.029056 268512.000000 0 0 1
24.069879 -1.191517 25.000338 34.724569 -0.049462 0.767050 0.075117 -0.009192 -591897.000000 0 0 1
23.131379 -1.681617 24.128488 33.467484 -0.072571 0.765620 0.082971 0.003524 -625703.000000 0 0 1
23.230279 -1.123317 22.740638 32.527593 -0.048318 0.796633 0.080006 -0.022152 -101280.000000 0 0 1
22.707579 0.167683 22.706138 32.112785 0.007384 0.785444 0.084778 -0.018905 19965.000000 0 0 1
22.843679 0.738383 21.378838 31.295904 0.032312 0.818771 0.055404 -0.010061 -449526.000000 0 0 1
-31.312441 -26.969242 -10.040687 42.527924 0.711015 1.809143 0.035422 0.015020 -10067.400000 0 0 1
-31.267921 -25.829942 -9.220987 41.592011 0.690445 1.794355 0.041489 0.017115 -138904.000000 0 0 1
-31.683361 -26.230342 -7.929587 41.889671 0.691517 1.761242 0.051712 0.007521 -455156.000000 0 0 1
-32.041221 -25.078842 -6.968987 41.281411 0.664106 1.740425 0.094951 -0.002312 77359.000000 0 0 1
-30.977271 -24.304442 -6.448687 39.898405 0.665273 1.733136 0.108005 -0.006512 481447.000000 0 0 1
-29.990371 -24.921142 -5.571287 39.389400 0.693343 1.712713 0.097516 -0.009002 1569120.000000 0 0 1
-28.613281 -24.206042 -5.384687 37.863533 0.702151 1.713493 0.099380 -0.017879 472656.000000 0 0 1
-28.570751 -23.085842 -4.426187 36.997770 0.679614 1.690717 0.119665 -0.017157 29392.000000 0 0 1
-29.281981 -21.952542 -4.883487 36.921497 0.643306 1.703452 0.138280 -0.015051 -1766.530000 0 0 1
-29.202851 -20.741342 -3.876887 36.028322 0.617572 1.678612 0.122497 -0.020079 -182179.000000 0 0 1
-27.993101 -20.044942 -3.989887 34.660245 0.621428 1.686166 0.132263 -0.028346 -120826.000000 0 0 1
-27.874271 -19.014142 -3.008687 33.875725 0.598638 1.659729 0.153337 -0.020836 -97212.000000 0 0 1
-26.929041 -17.863642 -3.408487 32.494626 0.585710 1.675883 0.146717 -0.015022 23830.100000 0 0 1
-27.350981 -17.006342 -4.451787 32.513231 0.556282 1.708150 0.129828 -0.028787 32028.600000 0 0 1
-26.455041 -15.911942 -4.570887 31.208205 0.541500 1.717789 0.121249 -0.029753 257541.000000 0 0 1
-26.967041 -14.785042 -5.568587 31.254246 0.501509 1.749923 0.115357 -0.044186 -807989.000000 0 0 1
-28.186811 -14.253742 -5.257587 32.020426 0.468188 1.735738 0.102188 -0.030311 -1111930.000000 0 0 1
-28.518351 -13.130042 -6.071287 31.977411 0.431474 1.761818 0.139616 -0.051609 867188.000000 0 0 1
-29.999771 -12.638042 -5.854787 33.075442 0.398708 1.748747 0.120624 -0.038333 502290.000000 0 0 1
-30.995391 -13.493742 -6.303087 34.387850 0.410602 1.755133 0.124353 -0.034002 -518968.000000 0 0 1
-32.236991 -12.865942 -6.252987 35.268341 0.379735 1.749036 0.114396 -0.033654 330174.000000 0 0 1
-33.516421 -13.522542 -6.883387 36.791175 0.383486 1.758999 0.075152 -0.024507 544912.000000 0 0 1
-34.031551 -14.666342 -6.250287 37.580768 0.406911 1.737889 0.082738 -0.028620 205499.000000 0 0 1
-34.201558 -15.680142 -7.238087 38.314531 0.429869 1.760851 0.085523 -0.022738 -611606.000000 0 0 1
-35.125758 -16.847142 -6.763487 39.539724 0.447214 1.742697 0.082697 -0.025269 308150.000000 0 0 1
-36.490641 -16.504642 -6.648487 40.597690 0.424763 1.735302 0.060679 -0.033417 27805.300000 0 0 1
-36.976631 -15.794242 -5.528787 40.586904 0.403683 1.707442 0.080089 -0.034469 -177843.000000 0 0 1
36.143193 -15.835542 -5.496587 39.841025 -0.412942 1.709201 0.117326 -0.041134 -124070.000000 0 0 1
35.447273 -15.066542 -6.464487 39.055082 -0.401905 1.737084 0.126338 -0.037195 -231198.000000 0 0 1
34.055573 -15.086742 -6.358887 37.786602 -0.417021 1.739885 0.145944 -0.041210 -149262.000000 0 0 1
33.357733 -14.206942 -5.284187 36.640117 -0.402630 1.715520 0.156855 -0.047013 -494307.000000 0 0 1
33.496273 -14.663342 -3.945087 36.777406 -0.412629 1.678272 0.161931 -0.045738 411829.000000 0 0 1
32.808033 -13.905342 -2.931187 35.753565 -0.400887 1.652872 0.180903 -0.044576 -430784.000000 0 0 1
32.736623 -14.774042 -1.618787 35.952459 -0.423935 1.615837 0.185708 -0.045084 208444.000000 0 0 1
33.942733 -15.173142 -0.964287 37.192247 -0.420374 1.596726 0.214603 -0.038333 460995.000000 0 0 1
34.762833 -16.094342 -1.703587 38.345594 -0.433592 1.615238 0.180937 -0.037257 -407549.000000 0 0 1
34.377893 -17.558842 -1.865787 38.647557 -0.472218 1.619092 0.164351 -0.041029 -875754.000000 0 0 1
34.731673 -18.235642 -0.668287 39.233587 -0.483481 1.587831 0.157378 -0.044922 203766.000000 0 0 1
34.839423 -19.643942 -0.851487 40.004936 -0.513409 1.592082 0.127526 -0.042777 355069.000000 0 0 1
36.029503 -20.230442 -1.682987 41.354907 -0.511627 1.611504 0.101317 -0.047974 -19777.600000 0 0 1
35.993533 -19.799342 -3.023487 41.190895 -0.502905 1.644264 0.073998 -0.042938 -232953.000000 0 0 1
36.929463 -20.353842 -3.911787 42.348155 -0.503729 1.663300 0.092760 -0.037022 -311306.000000 0 0 1
36.850933 -19.746842 -5.358687 42.150262 -0.491920 1.698274 0.114083 -0.044579 -112071.000000 0 0 1
35.669453 -19.996542 -6.078687 41.341529 -0.510950 1.718367 0.099023 -0.048738 25070.500000 0 0 1
35.627333 -19.024542 -7.128087 41.012799 -0.490466 1.745485 0.105856 -0.047198 -453497.000000 0 0 1
34.465063 -19.271442 -8.064387 40.302151 -0.509848 1.772254 0.113834 -0.052934 -591662.000000 0 0 1
34.540423 -20.510242 -8.830887 41.130225 -0.535851 1.787187 0.121744 -0.056565 84230.300000 0 0 1
33.599883 -20.578542 -9.878687 40.620401 -0.549530 1.816455 0.106027 -0.056227 -344199.000000 0 0 1
33.477343 -21.996642 -10.476787 41.404684 -0.581323 1.826611 0.105408 -0.043302 33684.400000 0 0 1
32.668993 -22.841042 -9.632387 41.009257 -0.610166 1.807895 0.106357 -0.042489 323672.000000 0 0 1
32.754043 -24.198742 -9.950287 41.921530 -0.636296 1.810439 0.080097 -0.024670 -351806.000000 0 0 1
31.764753 -25.072642 -9.159987 41.491472 -0.668196 1.793398 0.072548 -0.027181 -1019180.000000 0 0 1
30.451143 -24.715942 -9.399287 40.329846 -0.681810 1.806020 0.073371 -0.040095 -1459920.000000 0 0 1
29.673173 -25.605142 -8.653287 40.137263 -0.711939 1.788095 0.051002 -0.029198 -569302.000000 0 0 1
28.256313 -25.037942 -8.487787 38.695740 -0.725083 1.791941 0.067648 -0.038908 -555447.000000 0 0 1
27.631813 -24.807542 -9.711187 38.382787 -0.731592 1.826585 0.073048 -0.032899 -624148.000000 0 0 1
26.621813 -23.867342 -9.546887 37.006945 -0.730896 1.831723 0.082303 -0.041105 -948290.000000 0 0 1
25.924813 -23.508342 -10.786387 36.620817 -0.736553 1.869773 0.110347 -0.046304 -705728.000000 0 0 1
24.951713 -24.455342 -11.144487 36.672214 -0.775352 1.879574 0.085108 -0.034908 298934.000000 0 0 1
24.280213 -24.068442 -12.355987 36.352291 -0.781018 1.917602 0.097101 -0.019622 -139648.000000 0 0 1
23.461413 -25.233342 -12.918787 36.797479 -0.821771 1.929519 0.099630 -0.028019 103056.000000 0 0 1
24.179613 -26.375242 -13.485087 38.238131 -0.828802 1.931209 0.088131 -0.019970 330679.000000 0 0 1
23.346213 -27.499842 -13.648987 38.569182 -0.866907 1.932516 0.097783 -0.021925 -282104.000000 0 0 1
24.019813 -28.726342 -14.298387 40.082390 -0.874392 1.935556 0.071828 -0.019699 -388732.000000 0 0 1
24.174013 -28.570442 -15.665287 40.571594 -0.868559 1.967212 0.070841 -0.013974 168416.000000 0 0 1
24.705313 -29.732242 -16.214187 41.919668 -0.877480 1.967946 0.062640 -0.007018 -551745.000000 0 0 1
24.686213 -29.814942 -17.759987 42.588226 -0.879225 2.000956 0.064583 -0.008583 38520.800000 0 0 1
23.366013 -29.567842 -18.212687 41.856060 -0.902028 2.020975 0.065435 -0.005190 13329.500000 0 0 1
23.240313 -29.686342 -19.631987 42.506540 -0.906593 2.050885 0.055299 -0.001623 19419.100000 0 0 1
21.787513 -29.452942 -20.096787 41.785791 -0.933894 2.072532 0.047944 -0.002141 59049.600000 0 0 1
21.723513 -29.739142 -21.482387 42.635906 -0.939913 2.098854 0.039288 -0.006089 -395030.000000 0 0 1
20.410013 -29.717242 -21.950387 42.207850 -0.968980 2.117711 0.053278 -0.015287 -883949.000000 0 0 1
20.251813 -29.834642 -23.481887 43.030696 -0.974439 2.148022 0.060083 -0.020687 -237871.000000 0 0 1
20.733813 -28.690142 -24.235287 42.899468 -0.945010 2.171147 0.067428 -0.026222 616122.000000 0 0 1
20.560913 -29.028142 -25.597307 43.824722 -0.954515 2.194547 0.072994 -0.034179 -167782.000000 0 0 1
21.102413 -27.925742 -26.549277 43.932027 -0.923682 2.219716 0.083114 -0.039697 200654.000000 0 0 1
20.244013 -26.806342 -26.727737 42.927520 -0.923979 2.242889 0.090035 -0.043054 144585.000000 0 0 1
19.277413 -26.983742 -27.733167 43.230423 -0.950466 2.267274 0.111457 -0.048481 -187781.000000 0 0 1
18.365513 -25.785342 -28.025177 42.279859 -0.951899 2.295414 0.105741 -0.044846 -68432.600000 0 0 1
17.441013 -25.415642 -27.030297 40.997326 -0.969371 2.290708 0.084153 -0.020886 -57695.400000 0 0 1
16.754513 -24.222942 -27.367537 40.205058 -0.965676 2.319513 0.072294 -0.011109 372450.000000 0 0 1
15.597113 -23.864242 -26.388777 38.847645 -0.991911 2.317590 0.072892 -0.013580 205226.000000 0 0 1
14.537513 -24.818342 -26.349617 39.007585 -1.040916 2.312439 0.107984 -0.021438 458634.000000 0 0 1
13.496813 -24.329842 -25.459787 37.713471 -1.064319 2.311876 0.077867 -0.012839 643186.000000 0 0 1
13.710513 -24.566942 -23.958587 36.953033 -1.061765 2.276215 0.074615 -0.012148 -1066170.000000 0 0 1
14.789413 -23.930342 -23.414187 36.600712 -1.017233 2.264929 0.048722 -0.008957 -1118360.000000 0 0 1
14.751613 -23.992942 -21.982887 35.728401 -1.019543 2.233534 0.056507 -0.023622 836717.000000 0 0 1
16.049113 -23.422142 -21.299087 35.493969 -0.970065 2.214393 0.052159 -0.028207 708988.000000 0 0 1
16.079613 -21.990042 -21.229787 34.537223 -0.939422 2.232793 0.044758 -0.026735 637579.000000 0 0 1
17.307413 -21.487742 -20.665087 34.471951 -0.892738 2.213642 0.060199 -0.025873 335365.000000 0 0 1
17.257513 -19.973642 -20.292887 33.295186 -0.858222 2.226206 0.062055 -0.022725 -156320.000000 0 0 1
16.556313 -19.717542 -19.110787 32.064234 -0.872327 2.209326 0.055640 -0.021613 807788.000000 0 0 1
15.151613 -19.521142 -19.346787 31.383826 -0.910759 2.235032 0.057594 -0.026269 603652.000000 0 0 1
14.184013 -19.626942 -18.139587 30.256366 -0.945010 2.213710 0.064692 -0.029325 17782.800000 0 0 1
14.093913 -18.549942 -17.237887 28.980743 -0.921064 2.207819 0.086261 -0.030081 21296.900000 0 0 1
13.667013 -18.926142 -15.978887 28.289767 -0.945376 2.171023 0.084703 -0.030177 -217044.000000 0 0 1
13.709713 -17.667242 -15.061287 26.961640 -0.910864 2.163516 0.092465 -0.033443 -507035.000000 0 0 1
12.601213 -16.842242 -15.267087 25.991068 -0.928454 2.198636 0.097992 -0.040004 -400066.000000 0 0 1
12.695113 -15.715842 -14.440387 24.833009 -0.891323 2.191367 0.094084 -0.031059 -134682.000000 0 1 0
11.378213 -15.003342 -14.069787 23.505806 -0.921954 2.212507 0.096148 -0.027740 -126242.000000 0 1 0
10.663913 -14.435242 -15.173187 23.501507 -0.934540 2.272639 0.111535 -0.023200 452205.000000 0 1 0
9.422113 -13.836442 -14.805187 22.347637 -0.972961 2.294940 0.116430 -0.025062 904852.000000 0 1 0
8.486913 -13.465442 -16.018387 22.581730 -1.008414 2.359374 0.094943 -0.013896 283573.000000 0 1 0
8.718513 -12.264242 -16.822687 22.570487 -0.952800 2.411841 0.083013 -0.013248 -140877.000000 0 1 0
9.983813 -12.074942 -17.439887 23.444197 -0.879914 2.409668 0.103613 -0.018020 99135.000000 0 1 0
10.133313 -10.908842 -18.442087 23.702266 -0.822237 2.462388 0.097478 -0.013846 -136033.000000 0 1 0
9.516813 -11.041842 -19.714887 24.518743 -0.859442 2.504913 0.103132 -0.008155 158754.000000 0 1 0
9.709713 -9.828942 -20.382587 24.623900 -0.791500 2.545893 0.095907 -0.015427 -53532.800000 0 1 0
9.568113 -9.865742 -21.916487 25.869172 -0.800712 2.581498 0.101565 -0.015243 35104.500000 0 0 1
10.735013 -10.360042 -22.534387 27.025350 -0.767625 2.556795 0.081314 -0.014081 -280050.000000 0 0 1
10.722613 -10.381642 -23.959987 28.228246 -0.769243 2.584498 0.074935 -0.017542 71586.500000 0 0 1
11.823913 -11.320342 -24.495787 29.461816 -0.763644 2.552494 0.114961 -0.020980 49653.900000 0 0 1
11.468513 -12.672042 -24.535687 29.901628 -0.835212 2.533163 0.093656 -0.017949 620530.000000 0 0 1
12.521113 -13.467942 -25.118517 31.130429 -0.821814 2.509647 0.065203 -0.023247 422552.000000 0 0 1
12.298213 -14.921742 -24.668287 31.343720 -0.881484 2.476768 0.056613 -0.022124 -631460.000000 0 0 1
11.247813 -15.495542 -25.337787 31.758913 -0.942915 2.494461 0.058572 -0.024848 -919108.000000 0 0 1
10.979613 -16.763542 -24.781587 31.869975 -0.990935 2.461611 0.060385 -0.031973 50072.500000 0 0 1
9.634513 -17.390842 -25.191187 32.091449 -1.064888 2.473462 0.063618 -0.025037 -103161.000000 0 0 1
9.607713 -17.742342 -26.553887 33.349779 -1.074492 2.491824 0.056640 -0.033184 87593.000000 0 0 1
8.566413 -18.619842 -26.966397 33.871352 -1.139601 2.491688 0.073287 -0.032737 -96672.800000 0 0 1
8.905413 -19.448242 -28.256117 35.439365 -1.141390 2.493619 0.077034 -0.028498 -315419.000000 0 0 1
9.802713 -20.495642 -27.998967 36.056992 -1.124673 2.459920 0.054336 -0.025503 -194775.000000 0 0 1
10.096713 -21.229942 -29.191167 37.480372 -1.126868 2.463609 0.062039 -0.022014 -270477.000000 0 0 1
10.999313 -22.424842 -28.881677 38.183893 -1.114780 2.428563 0.051944 -0.009328 -158979.000000 0 0 1
11.064913 -23.434042 -29.862117 39.539001 -1.129657 2.426843 0.061636 -0.012066 131776.000000 0 0 1
11.677613 -24.660642 -29.441817 40.141431 -1.128546 2.394183 0.091106 -0.021602 65752.400000 0 0 1
10.749013 -25.542642 -28.586547 39.814049 -1.172466 2.371723 0.080514 -0.024004 202742.000000 0 0 1
10.372013 -25.006642 -27.336897 38.473585 -1.177622 2.361057 0.080501 -0.019722 -447015.000000 0 0 1
10.020013 -25.921342 -26.334537 38.286087 -1.201934 2.329299 0.067902 -0.013365 563387.000000 0 0 1
9.243213 -25.253442 -25.134997 36.809528 -1.219923 2.322439 0.057284 -0.007207 753079.000000 0 0 1
10.081813 -24.171042 -24.697587 35.997958 -1.175634 2.326888 0.060107 -0.004059 346177.000000 0 0 1
9.512813 -22.932942 -25.065707 35.280350 -1.177588 2.360965 0.055100 0.001406 -275503.000000 0 0 1
10.431913 -21.762942 -24.807787 34.610356 -1.123810 2.369961 0.068475 -0.006547 -277349.000000 0 0 1
10.851113 -21.614442 -23.471487 33.702247 -1.105525 2.341217 0.064751 -0.015700 -187912.000000 0 0 1
11.785713 -20.573242 -23.385187 33.302076 -1.050567 2.349299 0.059107 -0.018900 -418982.000000 0 0 1
12.360413 -20.470642 -21.948387 32.458568 -1.027579 2.313385 0.054793 -0.019536 -415476.000000 0 0 1
11.583113 -19.814842 -20.971387 31.090119 -1.041802 2.311132 0.064597 -0.018771 -238236.000000 0 0 1
11.309013 -18.433242 -21.162187 30.257500 -1.020501 2.345358 0.064021 -0.021111 163510.000000 0 0 1
12.482713 -17.401342 -20.995487 29.990587 -0.948526 2.346291 0.061318 -0.022110 435556.000000 0 0 1
13.574713 -17.706642 -21.848887 31.227742 -0.916727 2.345722 0.051319 -0.017672 -51659.900000 0 0 1
14.444013 -16.567442 -21.911887 31.036115 -0.853764 2.354648 0.063889 -0.018442 760020.000000 0 0 1
15.627613 -16.700642 -22.929387 32.386579 -0.818578 2.357445 0.046329 -0.013750 1055810.000000 0 0 1
16.766913 -17.495642 -22.533287 33.090420 -0.806664 2.319870 0.051067 -0.007102 671307.000000 0 0 1
17.890113 -17.203842 -23.309187 34.049178 -0.765845 2.324816 0.061684 -0.004299 -989636.000000 0 0 1
19.208813 -17.381642 -22.590387 34.371871 -0.735504 2.287940 0.065655 -0.005820 -832456.000000 0 0 1
19.582413 -18.731642 -22.359187 35.132301 -0.763197 2.260655 0.071462 -0.013349 678504.000000 0 0 1
20.829113 -18.718642 -21.636987 35.389246 -0.732084 2.228625 0.051961 -0.018117 843037.000000 0 0 1
21.421813 -20.117542 -21.374287 36.338268 -0.754010 2.199632 0.076173 -0.024290 -171513.000000 0 0 1
20.715213 -20.758442 -20.374387 35.709223 -0.786440 2.177988 0.067880 -0.025186 -40879.200000 0 0 1
21.305913 -22.004042 -20.048287 36.606742 -0.801516 2.150369 0.081230 -0.020754 92909.800000 0 0 1
-16.509321 13.283383 29.598398 36.401525 -0.677539 0.621324 0.084361 -0.024080 -624940.000000 0 0 1
-17.680821 13.762883 29.013898 36.658350 -0.661435 0.657590 0.098125 -0.024041 -364168.000000 0 0 1
-17.626021 13.590283 27.590658 35.448791 -0.656828 0.678804 0.088131 -0.028684 358057.000000 0 0 1
-18.874221 14.119383 26.819308 35.705300 -0.642270 0.721025 0.109681 -0.022941 284495.000000 0 0 1
-18.963221 15.539483 26.893338 36.391357 -0.686491 0.739206 0.093634 -0.020644 -16468.500000 0 0 1
-19.843721 16.033483 25.901768 36.355844 -0.679593 0.777811 0.104506 -0.023642 -274581.000000 0 0 1
-20.098621 17.568383 26.107788 37.339245 -0.718325 0.796511 0.096578 -0.012467 349394.000000 0 0 1
-19.029421 18.459583 25.799088 36.992810 -0.770199 0.799022 0.057218 -0.019591 -126069.000000 0 0 1
-18.016021 18.575583 26.750498 37.218522 -0.800689 0.768806 0.044437 -0.006431 -430520.000000 0 0 1
-16.842521 19.397383 26.237718 36.719842 -0.855780 0.774833 0.050572 -0.008608 106103.000000 0 0 1
-17.367021 20.705783 26.127758 37.589926 -0.872869 0.802274 0.062648 -0.011254 -36014.400000 0 0 1
-16.342021 21.450383 25.578928 37.168025 -0.919753 0.811795 0.081207 -0.024723 -285762.000000 0 0 1
-16.591021 22.950583 25.665068 38.218934 -0.944865 0.834528 0.078398 -0.028007 31022.000000 0 0 1
-16.083221 23.623183 26.809748 39.185294 -0.973057 0.817319 0.081512 -0.026017 13222.600000 0 0 1
-16.241821 25.049483 26.605928 39.989357 -0.995554 0.842867 0.084836 -0.027541 -155175.000000 0 0 1
-15.756921 26.068783 27.663708 41.147815 -1.027121 0.833484 0.080397 -0.019041 -98760.300000 0 0 1
-14.368321 26.252383 27.486468 40.634248 -1.070017 0.827884 0.094017 -0.023836 46823.100000 0 0 1
-13.862421 27.410783 28.202448 41.700069 -1.102576 0.828046 0.107865 -0.011020 759946.000000 0 0 1
-12.311421 27.437983 28.264478 41.270990 -1.149024 0.816397 0.119126 -0.019840 842921.000000 0 0 1
-11.479121 27.790683 27.163398 40.520889 -1.179085 0.836109 0.112975 -0.026779 -422818.000000 0 0 1
-10.132021 27.799283 27.489298 40.387120 -1.221289 0.822153 0.091919 -0.016684 -1047200.000000 0 0 1
-9.288321 28.032283 26.285438 39.534871 -1.250837 0.843480 0.097618 -0.021986 -202338.000000 0 0 1
-7.869021 27.980883 26.393458 39.261506 -1.296649 0.833556 0.078513 -0.017929 573620.000000 0 0 1
-7.258821 28.099183 25.112888 38.378531 -1.317995 0.857477 0.097908 -0.022151 -1029270.000000 0 0 1
-5.779221 27.901783 25.328258 38.123870 -1.366557 0.844149 0.090363 -0.026698 -2322410.000000 0 0 1
-5.161621 28.782683 26.186718 39.253399 -1.393352 0.840461 0.103991 -0.024189 253061.000000 0 0 1
-3.741221 28.583683 26.193948 38.950565 -1.440650 0.833225 0.091775 -0.015615 819039.000000 0 0 1
-3.069521 29.363983 25.041428 38.713544 -1.466641 0.867364 0.090955 -0.017345 -988659.000000 0 0 1
-3.291421 28.737583 23.772598 37.440867 -1.456760 0.882869 0.092828 -0.016005 -90509.900000 0 0 1
-2.588821 29.360383 22.720738 37.215131 -1.482850 0.914074 0.090088 -0.035712 -210305.000000 0 0 1
-3.052321 28.770283 21.279738 35.914803 -1.465099 0.936630 0.081194 -0.017741 1061760.000000 0 0 1
-4.388321 29.124983 20.894638 36.112433 -1.421249 0.953786 0.069817 -0.003723 307618.000000 0 0 1
-5.313521 28.210883 21.434938 35.826582 -1.384627 0.929422 0.087535 -0.010523 -767802.000000 0 0 1
-6.773121 28.519983 21.062038 36.095346 -1.337629 0.947751 0.076706 -0.021355 -354894.000000 0 0 1
-7.110821 28.541583 19.666238 35.382857 -1.326628 0.981456 0.060292 -0.022307 234641.000000 0 0 1
-7.889621 27.414983 19.222038 34.399333 -1.290583 0.977869 0.042392 -0.023410 -375413.000000 0 0 1
-7.132621 26.051483 19.046238 33.050162 -1.303556 0.956623 0.031948 -0.029334 61600.600000 0 0 1
-6.193021 25.947283 18.008438 32.185692 -1.336503 0.976994 0.038011 -0.030609 -105736.000000 0 0 1
-4.921521 26.444283 18.393338 32.585830 -1.386792 0.971020 0.061826 -0.026584 -513344.000000 0 0 1
-4.049621 26.790883 17.176038 32.080634 -1.420775 1.005813 0.055701 -0.024623 -128683.000000 0 0 1
-3.472221 25.637083 16.598938 30.738267 -1.436178 1.000349 0.067271 -0.031966 -65855.700000 0 0 1
-2.589621 25.855683 15.536938 30.275714 -1.470973 1.031909 0.073026 -0.036420 119876.000000 0 0 1
-1.714321 24.723883 14.947138 28.941772 -1.501568 1.028090 0.085208 -0.031802 304231.000000 0 0 1
-0.627421 24.226383 15.738638 28.896643 -1.544904 0.994821 0.081097 -0.027903 499179.000000 0 0 1
-0.071421 23.112083 15.000438 27.553341 -1.567706 0.995105 0.069683 -0.033796 -96016.100000 0 0 1
1.330979 22.722083 15.516738 27.546936 1.512287 0.972442 0.065188 -0.032055 298414.000000 0 0 1
2.357979 23.608883 15.079138 28.112627 1.471250 1.004651 0.075986 -0.034945 220338.000000 0 0 1
3.608779 23.180883 15.587538 28.166433 1.416357 0.984346 0.089680 -0.035059 -3765.970000 0 0 1
4.770379 24.158583 15.303538 28.992963 1.375843 1.014745 0.089823 -0.030895 -422565.000000 0 0 1
5.991879 23.537683 15.516038 28.821390 1.321525 1.002317 0.086840 -0.027452 -1215010.000000 0 0 1
7.021679 24.438883 15.743638 29.906940 1.291017 1.016411 0.092103 -0.028710 -291035.000000 0 0 1
8.416479 23.772583 15.958938 29.843936 1.230526 1.006589 0.100721 -0.028451 275844.000000 0 0 1
9.003779 23.245083 14.808438 28.994685 1.201250 1.034763 0.083963 -0.019653 244074.000000 0 0 1
9.652579 24.188183 13.913238 29.526575 1.191099 1.080133 0.086860 -0.025405 -247340.000000 0 0 1
10.176379 23.611183 12.642038 28.650790 1.163856 1.113810 0.074686 -0.017000 -287721.000000 0 0 1
11.182579 22.634383 12.735338 28.276389 1.111918 1.103597 0.080221 -0.021809 -129017.000000 0 0 1
11.456479 22.068183 11.490738 27.391470 1.091954 1.137901 0.080799 -0.019901 500201.000000 0 0 1
12.730079 21.150383 11.618638 27.283444 1.028993 1.130896 0.094229 -0.025977 652149.000000 0 0 1
12.599079 20.109583 12.626438 26.880458 1.011104 1.081816 0.082017 -0.016744 1298220.000000 0 0 1
13.843779 19.333183 12.722438 26.968177 0.949371 1.079513 0.076311 -0.014287 1326200.000000 0 0 1
14.076979 18.702783 14.121938 27.338335 0.925590 1.027966 0.078118 -0.019172 -9572.380000 0 0 1
15.221079 17.864883 14.093238 27.376169 0.865136 1.030023 0.080650 -0.016084 183226.000000 0 0 1
15.651079 17.675883 15.410238 28.193413 0.846079 0.992510 0.068786 -0.019569 -609208.000000 0 0 1
16.700979 16.599283 15.473838 28.176205 0.782344 0.989412 0.044109 -0.020309 -642458.000000 0 0 1
17.201479 16.493983 16.788938 29.151514 0.764404 0.957067 0.052832 -0.023067 335048.000000 0 0 1
18.272279 15.550683 16.749838 29.261869 0.705105 0.961352 0.037749 -0.020688 310721.000000 0 0 1
18.904079 15.117583 18.108538 30.229533 0.674558 0.928501 0.046406 -0.016466 108247.000000 0 0 1
19.668379 16.145783 18.766738 31.618379 0.687356 0.935347 0.059982 -0.010521 472403.000000 0 0 1
18.895079 17.115083 19.446538 32.064278 0.736008 0.919163 0.043191 -0.009711 -33983.600000 0 0 1
19.774379 18.147183 20.213438 33.599544 0.742515 0.925296 0.030298 -0.003652 403780.000000 0 0 1
18.941379 19.096183 20.911438 34.069462 0.789468 0.909946 0.050143 -0.008143 963958.000000 0 0 1
19.791279 20.080983 21.559238 35.492835 0.792664 0.917981 0.046443 -0.003244 365419.000000 0 0 1
19.057579 21.234783 22.261738 36.189671 0.839381 0.908232 0.061113 -0.013121 9418.930000 0 0 1
18.264979 20.761883 23.327648 36.177954 0.849290 0.870031 0.060657 -0.023531 -204622.000000 0 0 1
17.489579 21.762483 23.906238 36.755941 0.893829 0.862679 0.059708 -0.033703 -401946.000000 0 0 1
16.816779 21.378383 25.196468 37.076964 0.904264 0.823617 0.088435 -0.029404 -200004.000000 0 0 1
15.754879 20.454983 24.986608 35.929836 0.914478 0.801781 0.091044 -0.037454 -186951.000000 0 0 1
14.848679 20.510283 26.058428 36.334510 0.944168 0.771047 0.110825 -0.030277 574504.000000 0 0 1
13.588379 19.569683 25.958698 35.234507 0.963867 0.742559 0.142657 -0.029936 566593.000000 0 0 1
13.807679 18.163383 26.097308 34.664534 0.920803 0.718410 0.112159 -0.032902 37011.700000 0 0 1
14.373679 17.475083 24.954368 33.685333 0.882471 0.736524 0.115271 -0.037897 398842.000000 0 0 1
13.502879 17.349683 23.611928 32.262399 0.909441 0.749732 0.127940 -0.041758 34301.100000 0 0 1
13.233879 18.509883 22.830738 32.233428 0.950099 0.783718 0.124146 -0.036296 341094.000000 0 0 1
14.331679 19.080183 22.089938 32.517930 0.926573 0.823967 0.098877 -0.033603 564201.000000 0 0 1
14.918079 18.171083 20.985738 31.514100 0.883393 0.842076 0.097685 -0.028289 -461272.000000 0 0 1
13.973179 17.892883 19.998838 30.254892 0.907789 0.848630 0.106730 -0.029474 101273.000000 0 0 1
14.430479 16.800983 19.169838 29.291542 0.861154 0.857342 0.071201 -0.026129 -853089.000000 0 0 1
13.263079 16.142083 18.549538 27.938530 0.882995 0.844719 0.073772 -0.021719 -1066490.000000 0 0 1
12.757479 16.848083 17.454138 27.409088 0.922699 0.880454 0.092658 -0.021248 -291492.000000 0 0 1
11.622979 16.261383 16.888238 26.167514 0.950233 0.869263 0.074975 -0.024135 -387360.000000 0 0 1
11.014579 16.840683 15.620338 25.473996 0.991582 0.910707 0.073176 -0.018968 -21800.000000 0 0 1
10.256479 18.025183 15.776238 26.057480 1.053477 0.920478 0.077003 -0.026000 184955.000000 0 0 1
9.985979 18.613983 14.516538 25.630646 1.078394 0.968697 0.072754 -0.016751 -415653.000000 0 0 1
9.028579 19.804283 14.599338 26.208119 1.143055 0.979962 0.077035 -0.020239 -985488.000000 0 0 1
7.707179 19.404483 14.686338 25.526909 1.192719 0.957792 0.063780 -0.029106 -920005.000000 0 0 1
6.853379 20.529483 14.827738 26.235287 1.248598 0.970141 0.069878 -0.031199 -172602.000000 0 0 1
5.539279 20.178083 15.518138 26.050935 1.302877 0.932679 0.068524 -0.038196 -159340.000000 0 0 1
4.572779 19.433283 14.751738 24.822904 1.339694 0.934427 0.058691 -0.037321 2295.730000 0 1 0
3.601179 18.974983 15.672838 24.872802 1.383241 0.889089 0.055737 -0.037788 -2304.650000 0 1 0
2.312679 18.521683 14.962138 23.922098 1.446576 0.895085 0.038762 -0.032651 -279969.000000 0 1 0
1.470779 19.534983 14.507538 24.377190 1.495649 0.933372 0.041479 -0.030313 53959.300000 0 1 0
0.508979 18.926483 13.619438 23.322948 1.543910 0.947210 0.031169 -0.030929 710080.000000 0 1 0
-0.352921 19.876683 12.701038 23.590749 -1.553043 1.002270 0.036346 -0.035591 1066440.000000 0 1 0
-1.421921 20.513283 13.446938 24.569020 -1.501590 0.991646 0.053011 -0.035076 319024.000000 0 1 0
-2.379921 20.956883 12.520038 24.527664 -1.457718 1.035093 0.052052 -0.026850 -737477.000000 0 1 0
-3.645521 21.580383 13.069738 25.491582 -1.403449 1.032460 0.051747 -0.032091 -977774.000000 0 0 1
-4.566921 20.655083 13.510138 25.100060 -1.353193 1.002436 0.055170 -0.037827 -212639.000000 0 0 1
-5.797421 21.303783 13.805538 26.039472 -1.305099 1.011987 0.058308 -0.038195 387315.000000 0 0 1
-6.567021 20.760583 15.058338 26.474159 -1.264434 0.965758 0.049356 -0.034915 -1228660.000000 0 0 1
-7.397221 19.666183 14.917738 25.768518 -1.211027 0.953401 0.050839 -0.027880 -356521.000000 0 0 1
-8.042221 19.316383 16.117638 26.411705 -1.176282 0.914425 0.039413 -0.009943 -542789.000000 0 0 1
-9.137921 20.235283 16.627838 27.739020 -1.146626 0.927997 0.022336 0.003165 -911200.000000 0 0 1
-10.317121 20.268683 15.839238 27.715409 -1.099961 0.962469 0.016750 -0.006834 336178.000000 0 0 1
-11.367821 19.579483 16.537438 28.036946 -1.044765 0.939930 0.004827 0.008276 38154.400000 0 0 1
-12.597421 19.324283 15.649738 27.875387 -0.993089 0.974698 0.015379 0.000504 -46048.200000 0 0 1
-13.305321 20.541183 15.317838 28.872268 -0.996012 1.011561 0.007115 0.001764 239432.000000 0 0 1
-14.308721 20.157683 14.369138 28.592722 -0.953497 1.044256 0.016536 -0.006997 329738.000000 0 0 1
-15.367521 21.286583 14.206538 29.851382 -0.945500 1.074799 0.015984 -0.016418 17673.900000 0 0 1
-16.330621 21.395983 15.238538 30.930410 -0.918865 1.055639 0.004135 -0.019436 -744465.000000 0 0 1
-17.230721 22.382383 14.888638 31.930241 -0.914722 1.085708 0.025291 -0.029612 -1470600.000000 0 0 1
-18.479421 22.115283 15.665138 32.802001 -0.874725 1.072913 0.087148 -0.040403 -2053910.000000 0 0 1
-19.238021 21.010183 15.198138 32.287964 -0.829401 1.080706 0.082325 -0.037905 183991.000000 0 0 1
-20.401521 20.852183 15.992638 33.268604 -0.796322 1.069329 0.090593 -0.037139 822465.000000 0 0 1
-21.577621 21.903683 15.948638 34.637033 -0.792897 1.092294 0.088967 -0.037858 -716551.000000 0 0 1
-22.392021 21.673283 14.824838 34.509558 -0.769089 1.126762 0.097893 -0.040785 -264885.000000 0 0 1
-23.436921 22.595283 14.734938 35.734499 -0.767117 1.145770 0.121819 -0.052748 -226031.000000 0 0 1
-23.035621 23.986383 14.100338 36.122097 -0.805615 1.169782 0.098902 -0.042221 -564502.000000 0 0 1
-21.979021 24.689483 14.663338 36.161601 -0.843412 1.153276 0.065918 -0.040575 -330573.000000 0 0 1
-21.701121 25.864283 13.904138 36.513351 -0.872701 1.180139 0.054515 -0.027853 252150.000000 0 0 1
-20.253121 26.413183 14.155938 36.169541 -0.916642 1.168669 0.032922 -0.017238 -121838.000000 0 0 1
-19.381821 25.662783 13.409538 34.843207 -0.923944 1.175747 0.032211 -0.009968 -1070540.000000 0 0 1
-18.070921 26.119283 13.634038 34.563884 -0.965553 1.165317 0.014045 -0.009641 250172.000000 0 0 1
-16.997321 25.501483 12.653938 33.156548 -0.982893 1.179224 0.017401 -0.010315 283283.000000 0 0 1
-15.717021 26.012483 12.894438 33.014247 -1.027286 1.169544 0.020734 -0.012489 -203317.000000 0 0 1
-14.710221 25.437283 12.089338 31.774172 -1.046490 1.180484 0.030155 -0.010018 430403.000000 0 0 1
-13.382821 26.261383 12.108838 31.865091 -1.099498 1.180997 0.039130 -0.015525 -51918.800000 0 0 1
-12.265021 25.471583 11.735838 30.609837 -1.122043 1.177321 0.035092 -0.013720 -454717.000000 0 0 1
-11.061321 26.024983 12.125738 30.768264 -1.168903 1.165709 0.050515 -0.023227 -574492.000000 0 0 1
-10.389921 27.155383 11.291338 31.190697 -1.205371 1.200373 0.053576 -0.028327 -774366.000000 0 0 1
-9.197321 27.591983 11.878138 31.416530 -1.249046 1.183069 0.070152 -0.034579 -156137.000000 0 0 1
-8.836221 28.773683 11.196938 32.115028 -1.272844 1.214665 0.074253 -0.034257 691847.000000 0 0 1
-7.530021 29.499983 11.741338 32.631414 -1.320878 1.202725 0.062314 -0.029961 900732.000000 0 0 1
-6.337321 28.787583 11.512638 31.645337 -1.354112 1.198450 0.072744 -0.030249 -538087.000000 0 0 1
-5.285021 29.357483 12.238638 32.242479 -1.392681 1.181453 0.092220 -0.028391 -874917.000000 0 0 1
-3.915221 28.986183 11.714638 31.508102 -1.436537 1.189852 0.091253 -0.033349 -884329.000000 0 0 1
-3.651221 29.710283 10.513538 31.726436 -1.448515 1.233029 0.098030 -0.033434 68879.100000 0 0 1
-2.404421 29.302383 9.992438 31.052531 -1.488924 1.243175 0.105662 -0.024632 147789.000000 0 0 1
-1.909121 30.110483 8.751938 31.414683 -1.507477 1.288467 0.106469 -0.027682 -28633.200000 0 0 1
-2.722521 30.059183 7.607238 31.126141 -1.480471 1.323895 0.103932 -0.020633 -256211.000000 0 0 1
-2.167821 30.686183 6.453538 31.432299 -1.500269 1.364010 0.110260 -0.014566 107624.000000 0 0 1
11.334279 -33.293642 -26.668957 44.138030 -1.242669 2.219579 0.119074 -0.033476 86408.200000 0 0 1
11.957779 -33.422842 -25.408097 43.653708 -1.227214 2.192028 0.098904 -0.028487 -416422.000000 0 0 1
13.109379 -32.654542 -25.313487 43.346828 -1.189035 2.194414 0.101961 -0.023499 -340104.000000 0 0 1
13.736879 -32.835042 -23.909987 42.878075 -1.174563 2.162321 0.084233 -0.015643 -351289.000000 0 0 1
13.152679 -31.872542 -23.021187 41.458738 -1.179420 2.159495 0.089902 -0.018776 555614.000000 0 0 1
13.719879 -31.848842 -21.688387 40.901955 -1.164039 2.129695 0.074021 -0.012754 770318.000000 0 0 1
15.239379 -31.505942 -21.529387 41.089872 -1.120275 2.122288 0.046403 -0.008218 1239140.000000 0 0 1
16.186679 -32.544942 -21.919887 42.446004 -1.109260 2.113459 0.065208 -0.006167 1755790.000000 0 0 1
17.542679 -32.211542 -21.535487 42.533589 -1.072102 2.101705 0.047534 -0.009118 1423060.000000 0 0 1
18.618679 -33.297142 -21.809087 43.943044 -1.060942 2.090132 0.029772 -0.004561 731920.000000 0 0 1
19.930779 -33.105442 -21.288587 44.118139 -1.028879 2.074344 0.024678 0.003083 918191.000000 0 0 1
20.709179 33.516683 -21.315787 44.795099 1.017336 2.066728 0.020052 0.002989 907520.000000 0 0 1
22.259979 33.606483 -21.111087 45.503630 0.985773 2.053237 0.032924 0.006480 637410.000000 0 0 1
22.853479 -33.697342 -22.282587 46.414502 -0.974853 2.071540 0.035187 -0.003570 195702.000000 0 0 1
24.257579 -33.869842 -22.161587 47.188264 -0.949280 2.059681 0.022261 -0.001061 625658.000000 0 0 1
25.236979 -33.150342 -23.137887 47.657235 -0.920110 2.077739 0.046998 -0.014239 325988.000000 0 0 1
25.257879 -31.745942 -23.047787 46.657966 -0.898728 2.087450 0.054115 -0.022571 620784.000000 0 0 1
24.031679 -31.119242 -23.470487 45.790748 -0.913210 2.108959 0.041527 -0.023249 660208.000000 0 0 1
24.262379 -29.589542 -23.578787 44.946226 -0.884000 2.123041 0.056436 -0.034165 106924.000000 0 0 1
24.935479 -28.964542 -24.668187 45.488924 -0.860010 2.143957 0.058514 -0.041172 58778.700000 0 0 1
24.778979 -27.558142 -24.521187 44.438020 -0.838450 2.155325 0.069083 -0.038406 133200.000000 0 0 1
25.564979 -26.820642 -25.639057 45.058587 -0.809363 2.176105 0.065816 -0.035653 61947.700000 0 0 1
25.034579 -26.829842 -26.956157 45.532461 -0.819999 2.204360 0.070353 -0.037858 -444551.000000 0 0 1
25.755079 -25.918542 -27.738067 45.874778 -0.788562 2.220119 0.059408 -0.031094 -699855.000000 0 0 1
24.893279 -25.229442 -28.829667 45.687523 -0.792105 2.253662 0.063096 -0.029831 314620.000000 0 0 1
24.006679 -24.219642 -28.346757 44.344676 -0.789814 2.264302 0.072809 -0.030726 -245996.000000 0 0 1
22.790079 -24.679042 -27.820747 43.616932 -0.825171 2.262490 0.071904 -0.030224 -446184.000000 0 0 1
21.803779 -23.523742 -27.456247 42.221046 -0.823325 2.278773 0.073476 -0.023838 291524.000000 0 0 1
21.207479 -22.988142 -28.659917 42.421724 -0.825667 2.312568 0.083260 -0.029985 227594.000000 0 0 1
20.576079 -21.730042 -28.443077 41.286540 -0.812668 2.330793 0.075520 -0.014484 204224.000000 0 0 1
19.759779 -21.240242 -29.692447 41.511904 -0.821491 2.367815 0.110626 -0.029131 -23562.000000 0 0 1
18.544179 -21.929942 -29.782977 41.374323 -0.868856 2.374371 0.094272 -0.037012 -100175.000000 0 0 1
17.672279 -21.428942 -30.784307 41.463026 -0.881180 2.407520 0.081721 -0.039495 -808629.000000 0 0 1
16.351379 -22.138442 -30.767197 41.280729 -0.934633 2.411805 0.084809 -0.044278 -1254940.000000 0 0 1
16.376779 -23.416242 -31.358297 42.424781 -0.960489 2.402605 0.082423 -0.024258 720189.000000 0 0 1
15.401579 -24.294942 -30.725797 42.089517 -1.005793 2.389134 0.101673 -0.035937 531456.000000 0 0 1
15.647479 -25.766442 -31.057627 43.281974 -1.025040 2.371096 0.121518 -0.031112 -536921.000000 0 0 1
14.821379 -26.598842 -30.359297 42.998355 -1.062428 2.354711 0.119018 -0.027073 -436307.000000 0 0 1
14.827679 -27.966942 -30.765167 44.141878 -1.083293 2.341947 0.177901 -0.036854 94425.700000 0 0 1
14.056079 -28.903742 -29.802087 43.831085 -1.118163 2.318464 0.160678 -0.041741 44241.500000 0 0 1
14.671679 -29.122042 -28.540247 43.334711 -1.104113 2.289753 0.164890 -0.047362 -12414.500000 0 0 1
14.705579 -28.018242 -27.614757 41.998223 -1.087461 2.288321 0.125183 -0.035928 -113387.000000 0 0 1
15.771379 -28.187142 -26.518517 41.790945 -1.060671 2.258225 0.090885 -0.026156 -266425.000000 0 0 1
15.472879 -29.215042 -25.575847 41.797758 -1.083734 2.229251 0.093675 -0.027494 459278.000000 0 0 1
16.326679 -29.086742 -24.413887 41.335661 -1.059311 2.202630 0.103040 -0.033316 -763983.000000 0 0 1
15.864779 -28.029742 -23.390587 39.805492 -1.055754 2.198913 0.081627 -0.027405 810429.000000 0 0 1
14.771979 -28.382242 -22.511887 39.122220 -1.090911 2.183920 0.079973 -0.023898 1041420.000000 0 0 1
13.543779 -28.575542 -23.229587 39.237855 -1.128194 2.204359 0.082545 -0.018050 -299224.000000 0 0 1
12.244479 -28.305642 -22.418587 38.127807 -1.162522 2.199362 0.054078 -0.011056 244980.000000 0 0 1
11.948479 -26.911642 -22.204887 36.878986 -1.152952 2.216927 0.041932 -0.016047 54882.300000 0 0 1
10.788379 -26.799842 -21.414287 35.960983 -1.188090 2.208668 0.060020 -0.022295 -290564.000000 0 0 1
10.312379 -25.348642 -21.191787 34.612001 -1.184423 2.229721 0.065750 -0.020136 -200829.000000 0 0 1
11.248079 -24.537542 -20.518587 33.906086 -1.140977 2.220762 0.061850 -0.019350 59821.900000 0 0 1
10.833379 -23.204142 -20.432187 32.760778 -1.134000 2.244236 0.068920 -0.024909 -848577.000000 0 0 1
11.380079 -22.372242 -19.226287 31.617614 -1.100237 2.224446 0.075370 -0.024053 -119932.000000 0 0 1
10.981579 -22.860242 -17.961187 31.077162 -1.122968 2.187016 0.087388 -0.028974 113235.000000 0 0 1
11.323479 -21.971742 -16.914487 29.951268 -1.094932 2.170907 0.079683 -0.034238 -397789.000000 0 0 1
10.404179 -22.196642 -15.724487 29.123828 -1.132478 2.141136 0.066750 -0.029842 -265310.000000 0 0 1
10.515279 -23.461842 -15.147287 29.840734 -1.149452 2.103198 0.078207 -0.023319 -85306.500000 0 0 1
9.850379 -23.591842 -13.935487 29.117053 -1.175267 2.069858 0.078292 -0.020433 -274687.000000 0 0 1
10.024479 -24.979542 -13.440087 30.084940 -1.189163 2.033912 0.089160 -0.020334 645873.000000 0 0 1
11.322479 -25.468942 -13.068687 30.784024 -1.152475 2.009237 0.064540 -0.020045 331049.000000 0 0 1
11.352579 -26.894142 -13.084687 31.990388 -1.171367 1.992175 0.066445 -0.028838 -999790.000000 0 0 1
12.650179 -27.455142 -12.528587 32.722734 -1.139032 1.963698 0.063158 -0.028680 433687.000000 0 0 1
13.887579 -27.113642 -13.210187 33.204269 -1.097437 1.979964 0.075141 -0.026582 977489.000000 0 0 1
14.027279 -27.581042 -14.540087 34.189071 -1.100305 2.010073 0.083024 -0.028392 -635583.000000 0 0 1
15.363979 -27.141542 -15.176887 34.685055 -1.055700 2.023683 0.057183 -0.024124 432630.000000 0 0 1
16.524879 -27.856542 -14.766287 35.596373 -1.035382 1.998547 0.085104 -0.020790 557787.000000 0 0 1
17.689279 -27.283242 -15.356287 35.959720 -0.995577 2.012015 0.093816 -0.024394 717343.000000 0 0 1
19.053179 -27.962242 -15.102787 37.054079 -0.972670 1.990607 0.090046 -0.023164 341726.000000 0 0 1
19.282379 -29.233842 -15.617987 38.345132 -0.987708 1.990293 0.077840 -0.015040 18823.000000 0 0 1
20.641179 -29.618342 -15.445487 39.266621 -0.962150 1.975068 0.076437 -0.005094 190771.000000 0 0 1
21.068279 -30.736842 -16.408087 40.716718 -0.969909 1.985569 0.047269 -0.003046 -286632.000000 0 0 1
20.582679 -32.067642 -16.153587 41.387422 -1.000170 1.971756 0.054464 0.010454 -229429.000000 0 0 1
20.718579 -32.876442 -17.325787 42.547654 -1.008470 1.990192 0.034445 0.010120 245539.000000 0 0 1
20.288079 33.434083 -17.275987 42.753991 1.025386 1.986768 0.016611 0.015787 418423.000000 0 0 1
21.183979 32.719583 -16.407887 42.291262 0.996223 1.969228 0.038129 0.008818 436291.000000 0 0 1
20.810179 31.358183 -16.119687 40.941953 0.984900 1.975472 0.027410 -0.001093 -484130.000000 0 0 1
21.640479 30.782383 -14.975187 40.498415 0.958050 1.949560 0.055361 -0.004314 -769826.000000 0 0 1
23.005079 30.606783 -15.260687 41.217683 0.926251 1.950070 0.043583 0.000014 -300994.000000 0 0 1
23.749779 30.281283 -14.103587 40.986818 0.905699 1.922077 0.041065 -0.004763 -34340.900000 0 0 1
23.533579 28.961183 -13.351187 39.633744 0.888425 1.914381 0.056871 0.000349 -996349.000000 0 0 1
23.783979 27.646583 -13.950587 39.046512 0.860361 1.936152 0.055617 0.010204 -39626.800000 0 0 1
23.423979 26.557583 -13.146987 37.773420 0.848011 1.926285 0.023345 0.003855 542292.000000 0 0 1
21.919279 26.453783 -12.743587 36.642276 0.878865 1.926003 0.037205 -0.002492 112650.000000 0 0 1
21.022679 26.000283 -13.765887 36.158918 0.890860 1.961355 0.041352 -0.007958 847121.000000 0 0 1
19.654679 26.349983 -13.538287 35.551557 0.929919 1.961465 0.051281 -0.009442 590914.000000 0 0 1
19.246879 27.845983 -13.799687 36.555061 0.966007 1.957896 0.042916 -0.012540 -668066.000000 0 0 1
19.292679 28.411883 -15.126187 37.526578 0.974279 1.985675 0.035781 -0.012730 230021.000000 0 0 1
18.618479 27.737183 -16.199787 37.127243 0.979630 2.022314 0.029844 -0.008820 15906.800000 0 0 1
18.871979 28.541283 -17.472787 38.419457 0.986576 2.042933 0.023042 -0.000889 -214497.000000 0 0 1
18.165579 29.731783 -17.376387 38.934637 1.022341 2.033419 0.015833 0.000802 -47686.400000 0 0 1
18.354579 30.395883 -18.639287 40.102659 1.027550 2.054193 0.024191 0.004664 290984.000000 0 0 1
17.118579 31.284983 -19.020087 40.417318 1.070119 2.060758 0.019039 0.007507 413792.000000 0 0 1
17.099779 32.461783 -18.236287 40.972331 1.085966 2.032069 0.028558 0.000194 -495576.000000 0 0 1
16.285779 33.474983 -18.656987 41.639935 1.118002 2.035385 0.034787 -0.000250 -613848.000000 0 0 1
16.234479 -33.106242 -17.769587 40.930915 -1.114878 2.019875 0.037420 -0.005452 18848.500000 0 0 1
15.188079 -32.217542 -18.084287 39.946078 -1.130271 2.040607 0.041563 -0.007307 -67397.300000 0 0 1
15.030179 -31.278642 -16.992287 38.639326 -1.122849 2.026135 0.050393 -0.008626 313439.000000 0 0 1
13.960379 -30.165242 -17.286887 37.465590 -1.137352 2.050377 0.059751 -0.015155 557493.000000 0 0 1
12.662679 -30.729942 -17.394087 37.513025 -1.179934 2.052942 0.052919 -0.014719 -649530.000000 0 0 1
11.740979 -29.705442 -17.573887 36.456897 -1.194394 2.073784 0.028502 -0.010742 -445794.000000 0 0 1
10.391079 -30.283742 -18.020087 36.739666 -1.240260 2.083437 0.049681 -0.020338 -871867.000000 0 0 1
9.701679 -31.126342 -17.097687 36.814435 -1.268652 2.053786 0.054721 -0.023633 1046510.000000 0 0 1
8.595279 -31.904342 -17.609887 37.441607 -1.307637 2.060460 0.077976 -0.025122 1263710.000000 0 0 1
7.371479 -31.185942 -18.261287 36.883279 -1.338685 2.088758 0.078847 -0.017477 -281037.000000 0 0 1
7.566679 -30.792842 -19.608087 37.281776 -1.329842 2.124620 0.061463 -0.010293 -17351.500000 0 0 1
7.213979 -31.789342 -20.536687 38.527383 -1.347645 2.132987 0.067258 -0.023118 -743230.000000 0 0 1
7.457579 -31.240442 -22.016787 38.939948 -1.336466 2.171719 0.066667 -0.007892 500225.000000 0 0 1
8.799379 -31.006342 -22.473887 39.292466 -1.294274 2.179695 0.054120 -0.000605 793425.000000 0 0 1
9.682179 -32.113042 -22.526087 40.403176 -1.277961 2.162207 0.061154 -0.000354 -95542.800000 0 0 1
9.211179 -33.242342 -23.548087 41.766153 -1.300486 2.169785 0.072588 -0.011556 83413.000000 0 0 1
8.095779 33.821083 -23.070387 41.733081 1.335846 2.156527 0.065533 -0.024112 187462.000000 0 0 1
7.798679 32.731683 -23.942487 41.296793 1.336896 2.189238 0.060914 -0.030830 -1026230.000000 0 0 1
6.715579 31.871983 -23.348787 40.076029 1.363129 2.192735 0.082501 -0.042444 -332750.000000 0 0 1
5.394979 32.362783 -23.392087 40.294481 1.405612 2.190174 0.087066 -0.044724 4151.580000 0 0 1
5.099679 33.282883 -22.395087 40.438804 1.418756 2.157720 0.075091 -0.036078 -676842.000000 0 0 1
3.803879 -33.742142 -22.721287 40.856560 -1.458537 2.160510 0.084396 -0.033181 248908.000000 0 0 1
2.669679 33.306583 -22.433387 40.245652 1.490813 2.162061 0.088091 -0.040147 -698711.000000 0 0 1
1.493679 33.892883 -22.879687 40.919905 1.526754 2.164137 0.093826 -0.033681 -404710.000000 0 0 1
0.180479 33.329183 -22.297387 40.100379 1.565381 2.160409 0.086589 -0.037856 23327.500000 0 0 1
-0.062521 33.743583 -20.955087 39.720888 -1.568944 2.126520 0.071884 -0.039095 -545055.000000 0 0 1
-1.191321 33.179783 -20.362587 38.948070 -1.534907 2.120945 0.070979 -0.052632 -216610.000000 0 0 1
-1.439121 33.476183 -18.859487 38.450047 -1.527833 2.083452 0.080261 -0.040843 -22621.500000 0 0 1
-0.576021 32.787883 -17.987687 37.402325 -1.553230 2.072505 0.084231 -0.050291 -255241.000000 0 0 1
-1.124321 32.592183 -16.731887 36.653383 -1.536313 2.044842 0.063773 -0.041556 869957.000000 0 0 1
-0.171821 31.625983 -15.837787 35.370437 -1.565363 2.035065 0.039520 -0.042344 1473090.000000 0 0 1
1.023479 32.208983 -15.338187 35.689299 1.539031 2.015034 0.048166 -0.036075 -442386.000000 0 0 1
1.878879 31.227483 -14.884687 34.644476 1.510701 2.014891 0.053444 -0.023945 -209663.000000 0 0 1
2.934879 31.822983 -13.917587 34.857065 1.478831 1.981523 0.064969 -0.038487 -575648.000000 0 0 1
4.042779 32.370283 -14.542487 35.716427 1.446548 1.990145 0.061893 -0.043193 -1043790.000000 0 0 1
4.668879 33.272683 -13.704287 36.286048 1.431385 1.958079 0.067036 -0.052440 -528187.000000 0 0 1
6.025479 33.598283 -14.345387 37.026222 1.393344 1.968648 0.075902 -0.062968 -290041.000000 0 0 1
7.015079 32.598983 -14.272187 36.271205 1.358836 1.975216 0.069524 -0.049142 -550611.000000 0 0 1
7.913779 32.776583 -15.344187 37.045598 1.333884 1.997857 0.073443 -0.032059 -195202.000000 0 0 1
8.817379 31.530883 -15.415487 36.188119 1.298119 2.010843 0.057902 -0.032456 198418.000000 0 0 1
9.725379 31.444783 -14.302687 35.887661 1.270844 1.980721 0.052247 -0.034614 98596.500000 0 0 1
10.589379 30.309683 -14.427587 35.198964 1.234680 1.993126 0.065200 -0.032722 350944.000000 0 0 1
10.010979 28.861383 -14.170987 33.675154 1.236918 2.005139 0.067612 -0.028764 423423.000000 0 0 1
9.142579 28.249083 -15.180287 33.347242 1.257794 2.043414 0.070890 -0.036944 784080.000000 0 0 1
8.703279 27.012083 -14.617687 31.922977 1.259099 2.046433 0.063673 -0.022063 -253453.000000 0 0 1
7.925479 26.054183 -15.589087 31.379185 1.275498 2.090701 0.072102 -0.023691 -82669.900000 0 0 1
8.734679 25.420383 -16.538387 31.559606 1.239826 2.122380 0.085328 -0.020160 -491979.000000 0 0 1
8.020679 24.575083 -17.402587 31.162734 1.255322 2.163303 0.072476 -0.019360 -396742.000000 0 0 1
8.874479 23.657283 -18.235687 31.160290 1.211915 2.195950 0.083786 -0.012777 -310258.000000 0 0 1
8.086379 22.802483 -19.049187 30.793088 1.230005 2.237780 0.103880 -0.024009 231414.000000 0 0 1
8.913079 21.785683 -19.587387 30.622290 1.182448 2.264832 0.096009 -0.016795 356590.000000 0 0 1
8.171779 20.903183 -20.651187 30.499058 1.198129 2.314623 0.091752 -0.025321 -105518.000000 0 0 1
7.225379 20.075583 -20.081287 29.300055 1.225321 2.325904 0.108712 -0.031323 -673779.000000 0 0 1
6.559979 19.231083 -20.950687 29.185598 1.242060 2.371496 0.106907 -0.031184 -98764.300000 0 0 1
25.762879 -12.728517 -9.555187 30.282713 -0.458888 1.891814 0.106362 -0.019207 -267598.000000 0 0 1
26.235779 -11.834817 -8.589387 30.035922 -0.423764 1.860815 0.120821 -0.030466 314139.000000 0 0 1
25.382079 -11.796717 -7.468287 28.968738 -0.435065 1.831546 0.111425 -0.015738 -473559.000000 0 0 1
25.917879 -11.042217 -6.184987 28.843043 -0.402757 1.786911 0.097422 -0.032214 -177241.000000 0 0 1
25.942879 -9.615717 -6.109187 28.334029 -0.354951 1.788116 0.103497 -0.035331 626303.000000 0 0 1
26.852579 -9.024117 -7.028487 29.187246 -0.324204 1.813993 0.094788 -0.038704 -951990.000000 0 0 1
27.091979 -7.565217 -6.578587 28.887466 -0.272306 1.800544 0.141492 -0.038381 532637.000000 0 0 1
27.977179 -7.409617 -5.423587 29.445548 -0.258901 1.756044 0.149243 -0.045649 1719870.000000 0 0 1
29.355979 -7.782817 -5.599287 30.881998 -0.259157 1.753117 0.142681 -0.048750 182521.000000 0 0 1
30.113479 -7.932817 -4.294787 31.435592 -0.257579 1.707847 0.159778 -0.057025 -687279.000000 0 0 1
30.423579 -6.704817 -3.601587 31.361125 -0.216915 1.685893 0.157146 -0.040193 257034.000000 0 0 1
30.939179 -6.860217 -2.318087 31.775288 -0.218202 1.643814 0.152755 -0.028382 -276580.000000 0 0 1
31.359079 -5.510317 -1.715987 31.885735 -0.173941 1.624639 0.140847 -0.038713 153246.000000 0 0 1
30.244679 -4.708317 -1.288487 30.636075 -0.154435 1.612867 0.194169 -0.027958 552813.000000 0 0 1
30.584179 -3.427617 -0.785787 30.785679 -0.111606 1.596324 0.168087 -0.015387 78406.400000 0 0 1
31.449879 -3.361017 0.506413 31.633018 -0.106465 1.554787 0.165614 -0.029530 -266121.000000 0 0 1
30.734879 -3.683917 1.615213 30.996983 -0.119292 1.518664 0.204431 -0.047154 5868.290000 0 0 1
31.523279 -3.496017 2.785413 31.838621 -0.110451 1.483199 0.167873 -0.039600 -149743.000000 0 0 1
30.831979 -3.910317 4.098613 31.348049 -0.126153 1.439676 0.181589 -0.042389 -179556.000000 0 0 1
30.955779 -5.313117 4.215013 31.689996 -0.169980 1.437393 0.165671 -0.043699 216575.000000 0 0 1
30.703579 -5.811517 5.498013 31.728720 -0.187065 1.396635 0.160197 -0.048635 59787.200000 0 0 1
31.420279 -7.192917 5.575213 32.711696 -0.225048 1.399525 0.130102 -0.030962 459411.000000 0 0 1
32.807279 -7.081817 5.826813 34.064960 -0.212599 1.398901 0.145283 -0.043298 309269.000000 0 0 1
33.533979 -8.316217 5.626913 35.004991 -0.243090 1.409350 0.142355 -0.042268 1870810.000000 0 0 1
35.109179 -8.213817 5.822413 36.524263 -0.229817 1.410701 0.171147 -0.043708 1102060.000000 0 0 1
35.828379 -7.561517 4.841313 36.936264 -0.207996 1.439346 0.173782 -0.033756 -540578.000000 0 0 1
37.129179 -7.345317 5.362913 38.226830 -0.195309 1.430040 0.170055 -0.043184 -158979.000000 0 0 1
-36.510954 -7.363917 4.227413 37.485305 0.199021 1.457781 0.154261 -0.037139 -394249.000000 0 0 1
-36.287554 -8.646317 3.702213 37.486688 0.233911 1.471874 0.185943 -0.040067 313217.000000 0 0 1
-35.343154 -8.545017 2.633213 36.456682 0.237221 1.498505 0.191020 -0.044974 -80252.400000 0 0 1
-35.190754 -9.809417 1.756513 36.574570 0.271849 1.522752 0.195484 -0.033258 51472.200000 0 0 1
-34.494954 -10.889417 2.372213 36.250637 0.305781 1.505310 0.189145 -0.030765 345844.000000 0 0 1
-34.087954 -11.906517 1.427213 36.135726 0.336040 1.531290 0.193845 -0.034873 -109815.000000 0 0 1
-33.507054 -13.208317 2.125413 36.079076 0.375492 1.511852 0.149003 -0.036623 964005.000000 0 0 1
-32.201054 -13.174817 2.716213 34.897873 0.388363 1.492884 0.139052 -0.031274 854143.000000 0 0 1
-31.142754 -13.269417 1.778913 33.898571 0.402788 1.518295 0.149929 -0.022893 22820.900000 0 0 1
-29.765354 -13.604717 2.404313 32.815322 0.428714 1.497463 0.140351 -0.015980 484551.000000 0 0 1
-29.028354 -12.485217 2.933913 31.735372 0.406186 1.478215 0.126360 -0.020087 375492.000000 0 0 1
-27.703754 -12.813617 3.282713 30.699560 0.433219 1.463661 0.132918 -0.013609 151977.000000 0 0 1
-27.008554 -11.724717 4.125813 29.731353 0.409563 1.431577 0.141600 -0.016647 327290.000000 0 0 1
-25.637154 -11.936017 4.426913 28.623937 0.435730 1.415515 0.129202 -0.003062 418321.000000 0 0 1
-25.142554 -10.917517 5.258213 27.910375 0.409658 1.381267 0.124204 -0.008802 662162.000000 0 0 1
-23.680954 -11.130417 5.802913 26.802007 0.439374 1.352558 0.127304 -0.001276 696419.000000 0 0 1
-23.618554 -12.034817 6.894113 27.389811 0.471258 1.316356 0.131928 -0.011336 -177191.000000 0 0 1
-22.328254 -12.568617 7.025413 26.568356 0.512695 1.303186 0.126071 -0.017489 -175292.000000 0 0 1
-21.648154 -12.206617 8.334913 26.212876 0.513425 1.247209 0.122246 -0.025436 -641728.000000 0 0 1
-21.412654 -10.844417 8.659413 25.516438 0.468793 1.224553 0.105093 -0.023332 946488.000000 0 0 1
-22.550154 -10.015417 8.954713 26.248904 0.417970 1.222660 0.120409 -0.023261 -91736.500000 0 0 1
-23.228054 -10.165017 10.320913 27.375013 0.412510 1.184220 0.132272 -0.022757 -550058.000000 0 0 1
-23.748454 -11.447017 10.648513 28.432624 0.449153 1.186920 0.127377 -0.032788 683479.000000 0 0 1
-25.093654 -11.588317 10.210313 29.465761 0.432626 1.216944 0.133405 -0.034222 561805.000000 0 0 1
-26.274054 -11.107417 11.130113 30.619929 0.399965 1.198782 0.147088 -0.034581 194801.000000 0 0 1
-26.361454 -11.763017 12.367513 31.404621 0.419706 1.166021 0.123187 -0.036074 118372.000000 0 0 1
-27.631054 -11.579817 12.956713 32.641136 0.396852 1.162611 0.112733 -0.035069 -20638.500000 0 0 1
-27.881254 -12.340517 14.269613 33.664144 0.416691 1.133070 0.111404 -0.027663 -139616.000000 0 0 1
-27.880554 -13.756117 14.065513 34.123229 0.458349 1.145932 0.112595 -0.029802 209741.000000 0 0 1
-27.781654 -14.473817 15.299313 34.862311 0.480294 1.116478 0.083710 -0.004156 -550941.000000 0 0 1
-27.519254 -16.001417 15.122413 35.242618 0.526678 1.127306 0.087072 -0.015511 635711.000000 0 0 1
-28.595054 -16.906317 15.484213 36.650533 0.533948 1.134614 0.107991 -0.022578 729156.000000 0 0 1
-28.146754 -18.236417 15.436213 36.919959 0.574901 1.139444 0.079596 -0.015503 -30084.500000 0 0 1
-29.081954 -19.214717 16.189713 38.432698 0.583867 1.135975 0.060756 -0.010254 6612.490000 0 0 1
-29.098054 -19.005417 17.616413 38.964608 0.578587 1.101663 0.061390 0.001564 -24784.100000 0 0 1
-29.731254 -20.059317 18.311113 40.269350 0.593535 1.098743 0.064125 0.001792 -326878.000000 0 0 1
-28.837354 -21.271617 18.486613 40.321577 0.635544 1.094513 0.042476 0.005615 163882.000000 0 0 1
-27.755054 -20.989917 19.398913 39.840150 0.647493 1.062238 0.041983 0.006060 1039680.000000 0 0 1
-26.887754 -22.156517 19.494513 39.923660 0.689227 1.060662 0.037581 0.008558 1032220.000000 0 0 1
-25.537054 -21.864917 20.249613 39.246179 0.708085 1.028664 0.031177 0.010646 1041660.000000 0 0 1
-24.549254 -21.274617 19.410413 37.842296 0.714058 1.032203 0.043077 0.009746 283751.000000 0 0 1
-23.267854 -21.150517 20.006613 37.269317 0.737766 1.004142 0.046541 0.005087 309170.000000 0 0 1
-22.182554 -20.940117 18.935513 35.904149 0.756594 1.015270 0.039075 0.001059 -329730.000000 0 0 1
-21.973654 -22.037117 18.109513 36.005979 0.786840 1.043778 0.027062 0.007009 340172.000000 0 0 1
-20.936554 -21.849417 17.153113 34.784560 0.806730 1.055119 0.029047 -0.000373 172560.000000 0 0 1
-20.775054 -22.961517 16.039113 34.872444 0.835348 1.092873 0.029873 0.003597 -584470.000000 0 0 1
-20.599554 -24.308017 16.401113 35.835986 0.867791 1.095422 0.038060 -0.005140 349544.000000 0 0 1
-19.481754 -24.745117 17.188513 35.879027 0.903849 1.071203 0.055307 -0.012602 45211.800000 0 0 1
-18.148854 -24.736117 16.407313 34.791613 0.937810 1.079705 0.053678 -0.014141 -300559.000000 0 0 1
-17.524054 -23.467017 16.243313 33.490874 0.929377 1.064425 0.060013 -0.014276 619934.000000 0 0 1
-16.317154 -23.652617 15.468613 32.633937 0.966904 1.076964 0.064460 -0.012697 351311.000000 0 0 1
-15.456554 -22.416617 15.272513 31.219537 0.967143 1.059627 0.063304 -0.007910 -332958.000000 0 0 1
-16.024454 -21.310217 14.574013 30.386023 0.926041 1.070565 0.075779 -0.006323 -290838.000000 0 0 1
-16.974954 -20.505317 15.197713 30.652693 0.879314 1.052036 0.051747 0.000995 -329644.000000 0 0 1
-16.343754 -19.540017 16.178213 30.177229 0.874236 1.004978 0.056281 -0.009007 132522.000000 0 0 1
-15.630154 -18.413417 15.573213 28.738139 0.866973 0.998100 0.066834 -0.014856 443218.000000 0 0 1
-15.749254 -17.214817 16.368213 28.501006 0.829828 0.959044 0.064385 -0.017213 -303881.000000 0 0 1
-15.137354 -15.927517 15.698913 27.005207 0.810829 0.950435 0.066926 -0.011513 563219.000000 0 0 1
-15.885754 -15.458617 14.547213 26.513156 0.771772 0.990013 0.051099 -0.012338 448249.000000 0 0 1
-15.829654 -16.236617 13.383913 26.331252 0.798089 1.037598 0.070648 -0.016096 -131630.000000 0 0 1
-16.506854 -15.527517 12.185713 25.730753 0.754836 1.077439 0.058893 -0.017743 -47240.400000 0 0 1
-17.903854 -15.424617 12.346613 26.662815 0.711147 1.089346 0.052213 -0.022099 -35911.700000 0 0 1
-18.481154 -14.487817 11.434113 26.118746 0.664861 1.117675 0.068921 -0.032098 -475762.000000 0 0 1
-20.014954 -14.400017 11.483813 27.199942 0.623669 1.134926 0.088408 -0.038431 23351.100000 0 0 1
-20.730754 -15.550917 11.017813 28.160032 0.643589 1.168799 0.112630 -0.043884 364840.000000 0 0 1
-20.772254 -15.570717 9.585413 27.673344 0.643240 1.217090 0.128317 -0.047715 -587449.000000 0 0 1
-21.781754 -16.600717 9.071313 28.849911 0.651225 1.250939 0.132653 -0.035574 30579.500000 0 0 1
-21.197754 -17.875317 9.204613 29.216377 0.700571 1.250287 0.124440 -0.021485 106613.000000 0 0 1
-22.094754 -18.897017 8.839613 30.387731 0.707547 1.275635 0.125602 -0.022691 236710.000000 0 0 1
-21.466754 -20.343617 8.906613 30.887086 0.758542 1.278282 0.117262 -0.019191 1203060.000000 0 0 1
-20.431654 -20.659117 7.917113 30.115317 0.790934 1.304777 0.130150 -0.017886 618619.000000 0 0 1
-20.096854 -21.983017 8.042213 30.851480 0.830192 1.307075 0.110328 -0.011262 246139.000000 0 0 1
-18.801554 -22.251517 7.197313 30.007162 0.869238 1.328582 0.101937 -0.019543 489296.000000 0 0 1
-17.644754 -21.908517 7.907413 29.220672 0.892781 1.296769 0.085866 -0.016340 -1192520.000000 0 0 1
-16.474854 -21.870817 7.190613 28.310041 0.925199 1.313988 0.103842 -0.021909 -807242.000000 0 0 1
-15.222954 -21.657517 8.053313 27.670241 0.958130 1.275476 0.061121 -0.013906 -769185.000000 0 0 1
-14.083354 -22.006517 7.347513 27.140627 1.001509 1.296655 0.076422 -0.011330 -316957.000000 0 0 1
-12.898054 -21.624217 8.044713 26.432631 1.032981 1.261543 0.071718 -0.014241 -673263.000000 0 0 1
-11.610654 -22.005817 7.428413 25.966221 1.085300 1.280663 0.070929 -0.012107 -1095000.000000 0 0 1
-11.322154 -23.321517 7.820613 27.078522 1.118831 1.277810 0.062481 -0.004737 -382245.000000 0 0 1
-10.081454 -23.714917 7.271513 26.775137 1.168832 1.295765 0.088053 -0.020218 237619.000000 0 0 1
-9.904654 -25.246697 7.260713 28.075182 1.196933 1.309206 0.073951 -0.005432 259233.000000 0 0 1
-10.836254 -25.781057 6.321313 28.671350 1.172898 1.348495 0.081731 -0.017460 -108956.000000 0 0 1
-10.960454 -27.146937 6.318913 29.950233 1.187065 1.358218 0.105891 -0.017074 118315.000000 0 0 1
-9.877754 -28.004277 5.598113 30.218346 1.231698 1.384465 0.127532 -0.031313 1587870.000000 0 0 1
-8.530654 -27.846877 6.148313 29.766128 1.273532 1.362745 0.123536 -0.035562 1614780.000000 0 0 1
-7.525654 -28.773457 5.735613 30.289348 1.314978 1.380285 0.142632 -0.034055 564932.000000 0 0 1
-7.619654 -30.154037 6.350813 31.743628 1.323287 1.369371 0.161793 -0.041702 -389060.000000 0 0 1
-7.665654 -30.139317 7.786513 32.058860 1.321737 1.325461 0.156823 -0.040836 175917.000000 0 0 1
-7.640654 -31.449357 8.301213 33.411852 1.332463 1.319715 0.181850 -0.042903 -200489.000000 0 0 1
-7.792654 -31.593307 9.827813 33.991888 1.328968 1.277486 0.147421 -0.044476 188640.000000 0 0 1
-6.762654 -30.954007 10.608013 33.412782 1.355702 1.247722 0.139155 -0.040096 679561.000000 0 0 1
-6.864654 -31.274357 11.956613 34.178495 1.354725 1.213408 0.115920 -0.035309 -369178.000000 0 0 1
-5.957654 -30.295267 12.804413 33.425288 1.376621 1.177673 0.112049 -0.034008 666168.000000 0 0 1
-6.528654 -28.975007 12.852313 32.362885 1.349177 1.162407 0.111678 -0.028112 -1119.000000 0 0 1
-5.699654 -28.132147 13.545213 31.739196 1.370899 1.129882 0.080712 -0.028267 -286992.000000 0 0 1
-6.308654 -27.739897 14.911913 32.119561 1.347178 1.087994 0.096158 -0.024660 108719.000000 0 0 1
-6.631654 -28.770607 15.848313 33.509636 1.344252 1.078163 0.076442 -0.030478 95725.500000 0 0 1
-5.519654 -29.416357 16.413513 34.134910 1.385314 1.069181 0.062006 -0.032550 -11453.000000 0 0 1
-6.004654 -30.640487 17.176113 35.635856 1.377278 1.067872 0.058865 -0.025389 135873.000000 0 0 1
-6.774654 -31.432207 16.298613 36.048917 1.358511 1.101650 0.064571 -0.021564 73166.700000 0 0 1
-6.867654 -32.783817 16.582013 37.375213 1.364299 1.111114 0.058105 -0.019743 121661.000000 0 0 1
-5.975654 -33.746507 15.667913 37.683136 1.395538 1.141995 0.050618 -0.023478 4110.440000 0 0 1
-6.416654 33.604052 14.405613 37.120445 -1.382119 1.172252 0.067904 -0.024476 65917.600000 0 0 1
-5.484654 32.763392 13.743613 35.950079 -1.404932 1.178515 0.085618 -0.033725 -302142.000000 0 0 1
-4.356654 33.491286 13.038013 36.202713 -1.441439 1.202379 0.110115 -0.044506 -1053440.000000 0 0 1
-4.735654 -33.811607 11.792913 36.120964 1.431642 1.238215 0.122939 -0.041852 -247889.000000 0 0 1
-3.740654 -33.079807 11.130613 35.102090 1.458195 1.248134 0.140508 -0.046171 -536435.000000 0 0 1
-4.271654 -32.835117 9.670713 34.495140 1.441429 1.286638 0.136581 -0.048954 -485911.000000 0 0 1
-4.328654 33.851057 8.794113 35.241562 -1.443613 1.318593 0.139787 -0.044555 276787.000000 0 0 1
-5.098654 32.708907 9.163313 34.348729 -1.416161 1.300753 0.148354 -0.048717 -81347.500000 0 0 1
-6.596654 32.812412 9.466313 34.781911 -1.372400 1.295157 0.161257 -0.047235 -765533.000000 0 0 1
-7.479654 33.081739 8.422413 34.946870 -1.348439 1.327394 0.158621 -0.037663 -565756.000000 0 0 1
-8.781654 32.953483 8.981513 35.266373 -1.310362 1.313283 0.123414 -0.042259 250210.000000 0 0 1
-9.904154 33.141453 7.935113 35.488226 -1.280400 1.345291 0.124327 -0.053480 -213880.000000 0 0 1
-10.110954 -33.384487 7.488613 35.676809 1.276714 1.359322 0.143404 -0.041813 -56743.700000 0 0 1
-10.720654 -33.413057 6.217213 35.637320 1.260320 1.395441 0.124579 -0.031979 -34351.300000 0 0 1
-11.159054 -32.019347 5.702313 34.384291 1.235450 1.404186 0.112633 -0.037285 484576.000000 0 0 1
-12.274754 -31.463577 6.398813 34.373989 1.198831 1.383551 0.112102 -0.033098 443954.000000 0 0 1
-12.942654 -30.469467 5.593013 33.573539 1.169117 1.403426 0.104515 -0.027444 445892.000000 0 0 1
-14.097254 -29.764057 6.367613 33.543676 1.128464 1.379807 0.086268 -0.015503 151866.000000 0 0 1
-15.269754 -30.529807 6.497013 34.748320 1.107022 1.382716 0.093004 -0.017144 -577202.000000 0 0 1
-16.106954 -30.029427 7.451613 34.881615 1.078476 1.355511 0.083968 -0.020877 -429098.000000 0 0 1
34.586113 -12.593217 -12.396187 38.838818 -0.349191 1.895650 0.076602 -0.029536 -718081.000000 0 0 1
33.574753 -12.672817 -11.437487 37.665375 -0.360918 1.879329 0.095542 -0.038379 -16643.200000 0 0 1
33.299433 -14.007917 -10.928487 37.742626 -0.398193 1.864556 0.096548 -0.036050 424199.000000 0 0 1
34.365793 -14.612517 -9.928187 38.640682 -0.402045 1.830647 0.081488 -0.033354 1478310.000000 0 0 1
35.627343 -14.938517 -10.539087 40.044216 -0.397032 1.837120 0.088626 -0.034820 711914.000000 0 0 1
36.645563 -15.366517 -9.638287 40.889164 -0.397057 1.808753 0.083662 -0.035054 1083460.000000 0 0 1
-36.621501 -15.340917 -10.354287 41.032783 0.396697 1.825896 0.056177 -0.036881 317740.000000 0 0 1
-36.020819 -14.109217 -10.502287 40.085751 0.373327 1.835886 0.056331 -0.029225 456187.000000 0 0 1
-34.603748 -14.292317 -10.652287 38.925068 0.391687 1.847994 0.066430 -0.027728 812339.000000 0 0 1
-33.991891 -12.923317 -11.060987 38.010606 0.363311 1.866065 0.084021 -0.037950 -258787.000000 0 0 1
-34.062858 -12.001317 -9.956387 37.462508 0.338748 1.839798 0.097770 -0.030152 341043.000000 0 0 1
-33.743041 -10.605417 -10.298687 36.839254 0.304523 1.854129 0.104256 -0.022113 -196489.000000 0 0 1
-34.106566 -9.607817 -9.183387 36.604680 0.274584 1.824386 0.114640 -0.028904 208905.000000 0 0 1
-33.351461 -9.688417 -7.963987 35.631593 0.282714 1.796210 0.126918 -0.022308 240630.000000 0 0 1
-33.960581 -8.876217 -7.029387 35.798332 0.255649 1.768441 0.158134 -0.033502 -432779.000000 0 0 1
-33.214791 -8.764817 -5.728587 34.826155 0.258002 1.736038 0.136832 -0.021181 -561472.000000 0 0 1
-32.057141 -7.936317 -5.749787 33.521716 0.242688 1.743173 0.158275 -0.043358 442877.000000 0 0 1
-31.415511 -7.926917 -4.489287 32.709693 0.247166 1.708477 0.161098 -0.040115 -128953.000000 0 0 1
-30.498191 -9.093517 -4.050487 32.081741 0.289773 1.697389 0.158614 -0.033890 -611262.000000 0 0 1
-31.144601 -10.366717 -3.756487 33.038858 0.321322 1.684742 0.160401 -0.029658 452403.000000 0 0 1
-31.629741 -10.462117 -2.432087 33.403764 0.319440 1.643670 0.139461 -0.031884 -125496.000000 0 0 1
-32.325061 -11.823117 -2.122687 34.484800 0.350643 1.632390 0.147473 -0.027946 -646815.000000 0 0 1
-33.621021 -11.990917 -2.576387 35.788167 0.342586 1.642849 0.153503 -0.031866 -618199.000000 0 0 1
-34.141996 -13.217517 -2.135487 36.673409 0.369366 1.629059 0.157991 -0.040833 -249564.000000 0 0 1
-35.654057 -13.457217 -2.387187 38.183859 0.360907 1.633355 0.131717 -0.030569 -179258.000000 0 0 1
-36.253291 -12.700517 -1.372587 38.438109 0.336966 1.606513 0.160084 -0.032423 -859141.000000 0 0 1
37.165253 -13.217417 -1.070887 39.460144 -0.341690 1.597938 0.212868 -0.032180 -1109770.000000 0 0 1
36.304553 -12.392817 -0.151787 38.361772 -0.328954 1.574753 0.190772 -0.035238 -187420.000000 0 0 1
36.857863 -12.239617 1.149113 38.853967 -0.320619 1.541217 0.211392 -0.032482 366349.000000 0 0 1
35.848923 -11.742017 1.991413 37.775468 -0.316529 1.518055 0.218863 -0.031200 262974.000000 0 0 1
36.310453 -11.846817 3.459313 38.350527 -0.315375 1.480471 0.211830 -0.043039 755121.000000 0 0 1
35.227143 -11.735017 4.391713 37.389162 -0.321562 1.453065 0.198399 -0.047324 388955.000000 0 0 1
35.701643 -12.211517 5.607513 38.146726 -0.329569 1.423263 0.196198 -0.049729 -164352.000000 0 0 1
34.585483 -12.324317 6.625213 37.308684 -0.342315 1.392271 0.185517 -0.044222 -44862.300000 0 0 1
33.965913 -11.063117 6.956413 36.393234 -0.314876 1.378467 0.178811 -0.041998 337588.000000 0 0 1
33.334183 -11.059217 8.246013 36.075903 -0.320341 1.340184 0.150637 -0.026316 -43278.200000 0 0 1
32.606613 -9.784417 8.677813 35.131617 -0.291525 1.321204 0.145707 -0.045966 134695.000000 0 0 1
31.253083 -9.687217 8.252913 33.744747 -0.300570 1.323721 0.149459 -0.043311 647043.000000 0 0 1
30.485933 -8.845217 9.114713 33.025869 -0.282387 1.291180 0.148983 -0.033807 137170.000000 0 0 1
28.951313 -8.912217 9.042313 31.612807 -0.298629 1.280712 0.129154 -0.034985 -109169.000000 0 0 1
28.372313 -8.328617 7.897813 30.606037 -0.285526 1.309796 0.158625 -0.034013 -157735.000000 0 0 1
27.533313 -9.285917 7.289313 29.957398 -0.325281 1.325006 0.165855 -0.044575 -148126.000000 0 0 1
26.713213 -8.573417 6.185813 28.729141 -0.310558 1.353782 0.180571 -0.045478 -358539.000000 0 0 1
25.710013 -7.700317 6.605613 27.639352 -0.291004 1.329468 0.183572 -0.045209 189359.000000 0 0 1
24.922813 -7.097217 5.574813 26.506521 -0.277424 1.358896 0.197077 -0.049406 54676.500000 0 0 1
25.593313 -5.979017 4.724413 26.703678 -0.229500 1.392940 0.212300 -0.048906 -560747.000000 0 0 1
26.432313 -6.518417 3.755013 27.481941 -0.241784 1.433732 0.198831 -0.038633 92689.500000 0 0 1
27.082113 -5.453917 3.044013 27.793022 -0.198726 1.461052 0.206339 -0.038385 313678.000000 0 0 1
27.710213 -5.934717 1.718313 28.390657 -0.210983 1.510235 0.196088 -0.044485 285250.000000 0 0 1
26.684213 -6.261017 0.818913 27.421127 -0.230465 1.540928 0.211448 -0.046295 513504.000000 0 0 1
27.311413 -6.235717 -0.456087 28.017949 -0.224471 1.587075 0.198289 -0.047636 288395.000000 0 0 1
26.284913 -6.362317 -1.598287 27.091147 -0.237484 1.629827 0.216662 -0.050680 506201.000000 0 0 1
25.263213 -5.361217 -1.665987 25.879492 -0.209112 1.635216 0.233242 -0.041997 106734.000000 0 0 1
24.554313 -5.433617 -2.848787 25.309170 -0.217780 1.683595 0.225617 -0.040958 -89411.700000 0 0 1
23.312513 -4.493217 -2.866587 23.914004 -0.190404 1.690956 0.184703 -0.034519 86043.800000 0 1 0
23.577813 -3.085117 -2.663587 23.927514 -0.130109 1.682347 0.175593 -0.039312 -15082.800000 0 1 0
24.182413 -2.385417 -3.703687 24.580411 -0.098325 1.722049 0.183143 -0.042321 -19346.200000 0 1 0
23.188813 -1.723417 -4.740987 23.731165 -0.074185 1.771929 0.173471 -0.026708 195922.000000 0 1 0
22.583713 -0.580617 -4.189387 22.976340 -0.025704 1.754157 0.140495 -0.011923 245818.000000 0 1 0
21.693313 -0.014117 -5.147087 22.295572 -0.000651 1.803755 0.144854 -0.006443 230892.000000 0 1 0
21.014513 1.309483 -4.633587 21.559096 0.062233 1.787411 0.095947 0.003774 -159267.000000 0 1 0
21.860513 2.444883 -4.582787 22.469122 0.111377 1.776197 0.105634 -0.004969 312127.000000 0 1 0
22.402413 2.549883 -3.261187 22.781689 0.113334 1.714439 0.107624 -0.005061 148848.000000 0 1 0
23.686313 3.424983 -3.292087 24.158017 0.143602 1.707495 0.141455 -0.009543 129451.000000 0 1 0
23.374813 4.799483 -3.224187 24.079292 0.202512 1.705098 0.107858 -0.006361 482465.000000 0 1 0
24.529713 5.545283 -2.971887 25.323687 0.222327 1.688423 0.124916 -0.010282 -243808.000000 0 0 1
24.203513 7.012883 -3.201287 25.401551 0.282024 1.697160 0.116295 -0.011450 283043.000000 0 0 1
23.343213 7.553483 -2.180087 24.631555 0.312950 1.659420 0.137618 -0.015780 605130.000000 0 1 0
22.845713 8.806483 -2.484987 24.610077 0.367924 1.671943 0.134648 -0.014224 -329526.000000 0 1 0
21.640113 9.083183 -1.580087 23.522232 0.397405 1.638021 0.100671 -0.009814 85877.200000 0 1 0
22.141913 9.383383 -0.279887 24.049751 0.400840 1.582434 0.084882 -0.014391 1101610.000000 0 1 0
20.977613 9.697583 0.449813 23.115053 0.433021 1.551335 0.055190 -0.014166 194645.000000 0 1 0
21.341713 10.036083 1.967313 23.665629 0.439571 1.487571 0.069767 -0.020053 -382183.000000 0 1 0
22.293313 11.087683 2.139413 24.990110 0.461529 1.485081 0.102391 -0.030024 382217.000000 0 1 0
22.046213 12.433283 1.803713 25.374700 0.513501 1.499653 0.110082 -0.025049 -213098.000000 0 0 1
21.005213 13.266583 2.632013 24.982968 0.563321 1.465248 0.097627 -0.017035 -322087.000000 0 1 0
19.661713 12.886783 2.409413 23.631703 0.580180 1.468662 0.102734 -0.015487 226116.000000 0 1 0
18.741913 13.752183 3.024213 23.442007 0.633030 1.441427 0.088629 -0.012151 -161852.000000 0 1 0
18.676013 13.828183 4.532113 23.675983 0.637345 1.378185 0.077354 -0.007433 -963389.000000 0 1 0
18.181913 12.685783 5.140413 22.758183 0.609190 1.342959 0.056636 -0.003876 288526.000000 0 1 0
18.430913 12.656383 6.477713 23.277529 0.601739 1.288792 0.074233 -0.020114 -228588.000000 0 1 0
18.394013 11.227283 7.109713 22.692281 0.548015 1.252120 0.034284 -0.016278 172933.000000 0 1 0
19.404113 10.385083 6.574613 22.969438 0.491410 1.280503 0.030099 -0.020682 711947.000000 0 1 0
19.258413 9.072783 7.134513 22.452241 0.440268 1.247426 0.030270 -0.020916 236007.000000 0 1 0
20.240913 8.177483 6.306713 22.723125 0.383956 1.289557 0.057598 -0.028097 387087.000000 0 1 0
19.799513 7.925783 4.968313 21.898011 0.380767 1.341919 0.030424 -0.021992 367114.000000 0 1 0
20.603313 6.976683 4.401913 22.193410 0.326500 1.371129 0.038483 -0.024033 -584684.000000 0 1 0
20.371813 6.830783 2.866713 21.676910 0.323525 1.438160 0.044014 -0.013825 -588144.000000 0 1 0
21.349113 6.083483 2.227913 22.310468 0.277595 1.470770 0.046680 -0.015654 288194.000000 0 1 0
20.998313 5.991083 0.853313 21.852926 0.277928 1.531738 0.041985 -0.002469 -14204.300000 0 1 0
21.909513 4.889383 0.233513 22.449663 0.219565 1.560395 0.091430 -0.011506 274067.000000 0 1 0
21.778213 3.569983 0.786313 22.082881 0.162479 1.535181 0.071299 -0.015196 733376.000000 0 1 0
22.941213 2.864883 0.361013 23.122222 0.124236 1.555182 0.097739 -0.017843 416954.000000 0 1 0
22.941113 1.375783 0.590813 22.989922 0.059898 1.545095 0.134320 -0.022162 -708050.000000 0 1 0
22.017413 0.864283 -0.288387 22.036257 0.039234 1.583884 0.083774 -0.020679 -190834.000000 0 1 0
22.393813 -0.367017 -0.888987 22.414457 -0.016388 1.610468 0.128619 -0.028082 -1452190.000000 0 1 0
22.162813 -1.671817 -0.069987 22.225889 -0.075291 1.573945 0.146483 -0.024480 -40340.900000 0 1 0
23.123013 -1.942917 0.923813 23.222879 -0.083828 1.531006 0.153629 -0.026256 258675.000000 0 1 0
24.366313 -2.423317 0.430613 24.490307 -0.099128 1.553212 0.177944 -0.034304 -190125.000000 0 1 0
25.435113 -2.405417 1.542313 25.595112 -0.094290 1.510502 0.185175 -0.028580 -321458.000000 0 0 1
25.491013 -1.068717 2.042613 25.595042 -0.041901 1.490906 0.172364 -0.026868 524762.000000 0 0 1
26.296113 -0.891617 3.214213 26.506824 -0.033894 1.449237 0.178673 -0.025157 -304905.000000 0 0 1
26.107313 0.507683 3.806813 26.388281 0.019444 1.426030 0.157430 -0.017864 -202375.000000 0 0 1
26.560413 1.672283 3.152113 26.799028 0.062878 1.452903 0.191800 -0.014495 -796808.000000 0 0 1
27.808513 1.731683 2.568313 27.980500 0.062191 1.478878 0.200041 -0.023732 -786569.000000 0 0 1
28.068013 3.015383 1.756313 28.284104 0.107021 1.508661 0.212158 -0.033468 -101062.000000 0 0 1
27.404713 2.939883 0.525013 27.566952 0.106868 1.551750 0.199265 -0.023934 271044.000000 0 0 1
27.779713 4.064683 -0.304387 28.077157 0.145287 1.581638 0.193046 -0.023104 321420.000000 0 0 1
29.075113 3.856483 -1.151887 29.352368 0.131869 1.610050 0.193533 -0.026037 -204699.000000 0 0 1
30.210703 3.965383 -0.345187 30.471790 0.130511 1.582125 0.201681 -0.032218 -943661.000000 0 0 1
31.357573 3.843983 -1.127787 31.612426 0.121977 1.606479 0.158800 -0.030364 284001.000000 0 0 1
32.676853 4.270083 -0.364187 32.956683 0.129940 1.581847 0.108861 -0.029619 703006.000000 0 0 1
33.106053 3.444683 0.694613 33.292027 0.103677 1.549931 0.125988 -0.028595 112786.000000 0 0 1
32.497103 3.848383 1.886113 32.778487 0.117873 1.513223 0.107427 -0.011624 -117882.000000 0 0 1
32.708083 2.872383 3.057213 32.975989 0.087594 1.477953 0.129459 -0.010344 139672.000000 0 0 1
31.899653 1.700583 2.905113 32.076776 0.053260 1.480105 0.161315 -0.014579 339442.000000 0 0 1
32.155883 0.729483 3.909613 32.400896 0.022682 1.449838 0.157687 -0.017533 -98872.200000 0 0 1
33.390733 -0.192317 3.794113 33.606150 -0.005760 1.457656 0.164325 -0.026284 -685934.000000 0 0 1
34.553123 0.539583 3.821913 34.768038 0.015615 1.460648 0.145835 -0.022950 -1148760.000000 0 0 1
35.697603 -0.261017 3.902013 35.911178 -0.007312 1.461924 0.118965 -0.024613 682271.000000 0 0 1
37.005143 0.493083 4.489513 37.279746 0.013324 1.450076 0.139422 -0.034076 1613650.000000 0 0 1
-36.968231 1.375083 3.635013 37.171955 -0.037179 1.472851 0.134319 -0.034845 56405.400000 0 0 1
-36.422001 0.805783 2.450113 36.513209 -0.022120 1.503644 0.188407 -0.041533 -462514.000000 0 0 1
-35.898071 1.951083 1.529513 35.983574 -0.054297 1.528278 0.199470 -0.041268 -246359.000000 0 0 1
-34.815953 2.614983 2.102913 34.977292 -0.074968 1.510638 0.217960 -0.068671 -329249.000000 0 0 1
-34.238521 3.565183 1.278713 34.447379 -0.103754 1.533667 0.246724 -0.041825 -194618.000000 0 0 1
-33.185861 4.432983 2.022113 33.541640 -0.132794 1.510473 0.247791 -0.044036 70221.400000 0 0 1
-32.144841 3.608083 2.549213 32.446996 -0.111777 1.492150 0.226015 -0.050205 -410001.000000 0 0 1
-31.391081 4.292383 3.470313 31.872677 -0.135896 1.461700 0.233750 -0.046902 -735003.000000 0 0 1
-31.822991 4.326983 5.015313 32.505059 -0.135142 1.415884 0.227428 -0.043953 -541897.000000 0 0 1
-33.047871 4.948183 5.325913 33.838020 -0.148624 1.412745 0.216583 -0.024486 214062.000000 0 0 1
-34.194845 4.116783 5.322813 34.850648 -0.119815 1.417464 0.213038 -0.016011 -215705.000000 0 0 1
-34.401404 3.143083 6.466313 35.144683 -0.091112 1.385751 0.164483 -0.017392 -1109440.000000 0 0 1
-34.718767 3.834783 7.630413 35.753622 -0.110007 1.355726 0.149962 -0.021875 382532.000000 0 0 1
-34.811770 3.003583 8.778113 36.026880 -0.086068 1.324664 0.125748 -0.021257 -428350.000000 0 0 1
-35.829776 1.859483 8.854113 36.954375 -0.051851 1.328847 0.116945 -0.018539 -661560.000000 0 0 1
-35.481281 0.707383 8.121213 36.405711 -0.019934 1.345828 0.121411 -0.026878 192538.000000 0 0 1
-36.270751 -0.436817 8.420613 37.237949 0.012043 1.342694 0.120070 -0.024851 -19230.600000 0 0 1
-35.885076 -1.200417 9.739313 37.202606 0.033439 1.305919 0.121761 -0.023700 760228.000000 0 0 1
-34.697479 -2.014217 9.632013 36.065881 0.057986 1.300448 0.124404 -0.028848 728895.000000 0 0 1
-34.399686 -2.700917 10.811913 36.159795 0.078355 1.267148 0.119409 -0.020740 -504354.000000 0 0 1
-33.190181 -3.586817 10.556913 35.012880 0.107651 1.264515 0.132359 -0.018571 -529712.000000 0 0 1
-33.400831 -4.601217 9.590313 35.053684 0.136896 1.293674 0.122151 -0.033589 -119899.000000 0 0 1
-32.213471 -5.299217 9.307713 33.947355 0.163043 1.293059 0.126557 -0.044035 65841.100000 0 0 1
-32.491151 -6.324117 8.226913 34.107938 0.192238 1.327192 0.128612 -0.036286 380367.000000 0 0 1
-33.355961 -7.328017 8.751213 35.254839 0.216256 1.319946 0.143067 -0.038436 -192577.000000 0 0 1
-33.808471 -8.165717 7.809013 35.646491 0.236990 1.349937 0.147449 -0.045569 -292683.000000 0 0 1
-34.716700 -9.259717 8.390913 36.897141 0.260654 1.341375 0.162540 -0.041495 187086.000000 0 0 1
-36.004647 -8.742417 8.684713 38.055074 0.238204 1.340553 0.157847 -0.051887 -66335.000000 0 0 1
-36.902331 -9.803717 8.902513 39.206500 0.259669 1.341731 0.161379 -0.052515 -143216.000000 0 0 1
8.157979 -24.068017 10.412513 27.463476 -1.243995 1.181929 0.147578 -0.035957 -203143.000000 0 0 1
7.397579 -24.619417 9.402913 27.372517 -1.278902 1.220138 0.125272 -0.041192 -576249.000000 0 0 1
6.040179 -24.782217 9.762313 27.311991 -1.331727 1.205274 0.140602 -0.045991 221686.000000 0 0 1
5.373179 -25.731977 8.787113 27.716765 -1.364941 1.248197 0.104345 -0.030224 -449465.000000 0 0 1
5.037679 -25.111517 7.573113 26.708024 -1.372812 1.283300 0.108889 -0.027184 -352500.000000 0 0 1
5.032579 -26.147307 6.600113 27.433010 -1.380651 1.327822 0.080799 -0.019367 -174659.000000 0 0 1
4.357279 -25.654777 5.275013 26.551445 -1.402559 1.370794 0.069100 -0.015745 423639.000000 0 0 1
2.943279 -25.685297 5.233313 26.377736 -1.456704 1.371072 0.060952 -0.022235 155578.000000 0 0 1
2.237579 -26.901377 4.952513 27.444822 -1.487810 1.389349 0.054598 -0.019918 123410.000000 0 0 1
0.706179 -26.696337 4.942613 27.159207 -1.544350 1.387790 0.062099 -0.021041 -216692.000000 0 0 1
0.218579 -26.302187 6.205813 27.025265 -1.562486 1.339099 0.067204 -0.022504 -157553.000000 0 0 1
-1.191321 -26.252877 6.335113 27.032693 1.525449 1.334246 0.082420 -0.024793 876737.000000 0 0 1
-1.889221 -27.670607 6.573113 28.503289 1.502627 1.338093 0.103653 -0.024678 -201966.000000 0 0 1
-1.494821 -28.201717 7.799413 29.298502 1.517841 1.301342 0.088902 -0.029540 -117232.000000 0 0 1
-1.974321 -29.490407 7.997713 30.619365 1.503948 1.306533 0.133043 -0.033544 -173285.000000 0 0 1
-1.683421 -30.058037 9.415113 31.543048 1.514849 1.267692 0.122610 -0.033003 712061.000000 0 0 1
-0.346821 -30.559097 9.574513 32.025771 1.559448 1.267191 0.105972 -0.027132 695115.000000 0 0 1
-0.122221 -30.977147 10.911313 32.842889 1.566851 1.232132 0.100702 -0.025970 12989.700000 0 0 1
1.368579 -31.243227 11.183213 33.212596 -1.527020 1.227369 0.089069 -0.032439 -239688.000000 0 0 1
1.927179 -32.454137 10.678113 34.219982 -1.511484 1.253453 0.102456 -0.024616 955621.000000 0 0 1
3.306279 -32.559837 11.103313 34.559486 -1.469598 1.243714 0.073815 -0.021933 868960.000000 0 0 1
3.510479 -33.212987 12.493813 35.658398 -1.465491 1.212825 0.093024 -0.024820 -194583.000000 0 0 1
2.918179 -32.506687 13.612213 35.362308 -1.481265 1.175658 0.093652 -0.030198 138213.000000 0 0 1
3.603379 -32.818927 14.785013 36.175447 -1.461439 1.149764 0.102810 -0.028328 -354314.000000 0 0 1
3.154079 -31.933767 16.010413 35.861498 -1.472346 1.108001 0.101836 -0.033710 222230.000000 0 0 1
3.546279 -30.543657 15.826413 34.582748 -1.455209 1.095458 0.114275 -0.042059 55676.100000 0 0 1
4.877079 -30.288737 16.226113 34.705623 -1.411147 1.084296 0.117361 -0.031658 40658.500000 0 0 1
5.305379 -28.910217 15.641313 33.295621 -1.389303 1.081765 0.127393 -0.029337 77763.400000 0 0 1
5.678379 -28.879897 14.218613 32.687328 -1.376652 1.120771 0.116963 -0.028702 206315.000000 0 0 1
4.571979 -28.535267 13.398713 31.854199 -1.411925 1.136661 0.101774 -0.014959 221200.000000 0 0 1
4.893279 -28.633807 11.846213 31.371514 -1.401540 1.183582 0.084897 -0.020792 302605.000000 0 0 1
5.250079 -29.931067 11.286813 32.416420 -1.397157 1.215165 0.083388 -0.020584 -673186.000000 0 0 1
6.598379 -30.120987 11.013913 32.743225 -1.355140 1.227734 0.089079 -0.024198 -878431.000000 0 0 1
6.985379 -31.401127 10.350113 33.792768 -1.351904 1.259512 0.068214 -0.022437 -549363.000000 0 0 1
6.937979 -32.560737 11.216813 35.130529 -1.360858 1.245817 0.064052 -0.022612 100396.000000 0 0 1
7.172079 -33.793277 10.513413 36.110333 -1.361666 1.275371 0.066615 -0.018837 -292703.000000 0 0 1
7.212279 32.815453 11.412413 35.483998 1.354453 1.243355 0.073668 -0.017620 -84974.700000 0 0 1
6.015679 32.673937 12.139613 35.371525 1.388723 1.220471 0.067248 -0.017907 -257820.000000 0 0 1
5.866179 31.363277 12.632513 34.316870 1.385893 1.193817 0.078529 -0.020654 -606501.000000 0 0 1
4.610079 31.100417 13.429513 34.188311 1.423636 1.167111 0.080437 -0.021409 -634505.000000 0 0 1
4.596379 31.716217 14.688413 35.253292 1.426876 1.141035 0.094785 -0.021187 374709.000000 0 0 1
3.464679 31.412257 15.518713 35.207447 1.460943 1.114330 0.109516 -0.024263 602954.000000 0 0 1
3.787679 31.613987 17.056013 36.120607 1.451554 1.079016 0.123212 -0.026294 37475.200000 0 0 1
4.117579 32.955739 17.403013 37.495334 1.446498 1.088135 0.124567 -0.024665 344435.000000 0 0 1
4.596779 32.975596 18.796813 38.234023 1.432289 1.056841 0.122031 -0.021893 139561.000000 0 0 1
4.605579 -33.432577 19.427713 38.940784 -1.433901 1.048463 0.114529 -0.033834 1483500.000000 0 0 1
3.285379 -32.858357 19.658013 38.430494 -1.471141 1.033842 0.097911 -0.030194 1012730.000000 0 0 1
3.430079 -31.888927 20.643813 38.142315 -1.463645 0.998896 0.095100 -0.033101 563866.000000 0 0 1
2.102779 -31.155037 21.034413 37.649762 -1.503404 0.977995 0.097530 -0.038013 552543.000000 0 0 1
1.202879 -31.957647 21.777413 38.691005 -1.533174 0.972961 0.121568 -0.031715 52097.600000 0 0 1
0.210079 -31.212107 22.466413 38.457503 -1.564066 0.946917 0.099990 -0.033295 29496.500000 0 0 1
-0.898421 -32.078797 23.119113 39.551862 1.542797 0.946500 0.111877 -0.034006 -124756.000000 0 0 1
-1.656521 -32.722707 22.082213 39.511312 1.520217 0.977758 0.105913 -0.034224 240823.000000 0 0 1
-2.561621 -33.701597 22.549913 40.630754 1.494933 0.982438 0.105271 -0.034954 1016480.000000 0 0 1
-3.941721 -33.309087 23.166613 40.764254 1.453006 0.966349 0.113409 -0.028119 601786.000000 0 0 1
-4.949921 -32.825827 22.314813 39.999844 1.421130 0.978976 0.089811 -0.028823 114823.000000 0 0 1
-6.125821 -32.373857 22.976313 40.168437 1.383786 0.961855 0.089193 -0.018666 80799.000000 0 0 1
-7.291921 -31.929117 22.101513 39.510980 1.346269 0.977163 0.072603 -0.010494 -291955.000000 0 0 1
-7.943921 -33.024637 21.536013 40.218558 1.334736 1.005727 0.050035 0.001075 -626978.000000 0 0 1
-9.018221 -32.613657 20.751813 39.694039 1.301021 1.020671 0.063659 -0.013019 -137309.000000 0 0 1
-10.250821 -33.559217 20.856913 40.820476 1.274343 1.034516 0.083759 -0.018838 113351.000000 0 0 1
-10.832821 -33.399297 22.118513 41.498093 1.257159 1.008653 0.100475 -0.028881 -777831.000000 0 0 1
-12.096721 33.830497 22.060313 42.160296 -1.227395 1.020138 0.078937 -0.018228 130920.000000 0 0 1
-12.812121 33.636900 23.458613 42.963915 -1.206868 0.993205 0.089095 -0.021403 298398.000000 0 0 1
-13.142321 -32.995107 24.224113 42.990759 1.191747 0.972213 0.086247 -0.019243 446100.000000 0 0 1
-12.038721 -32.148167 24.569313 42.214768 1.212485 0.949601 0.086882 -0.018535 164315.000000 0 0 1
-12.508021 -30.943137 25.301013 41.881614 1.186652 0.922150 0.081472 -0.024556 -7113.650000 0 0 1
-12.927721 -31.218737 26.629713 43.021822 1.178193 0.903351 0.085172 -0.018417 646762.000000 0 0 1
-14.062121 -30.403457 26.951413 42.994094 1.137582 0.893276 0.084833 -0.026758 96265.200000 0 0 1
-14.445021 -30.347067 28.416313 44.012384 1.126537 0.868931 0.092810 -0.029064 -456909.000000 0 0 1
-13.582721 -29.664347 29.307613 43.856584 1.141408 0.838929 0.075231 -0.016080 -274712.000000 0 0 1
-14.232521 -29.065507 30.401413 44.402864 1.115446 0.816642 0.089447 -0.018839 -354662.000000 0 0 1
-13.399521 -28.532687 31.570013 44.613083 1.131747 0.784643 0.073523 -0.023657 -246744.000000 0 0 1
-14.273221 -28.169347 32.622413 45.403291 1.101808 0.769148 0.072814 -0.026732 463541.000000 0 0 1
-13.616521 -27.980817 33.841513 45.973729 1.117896 0.743498 0.074244 -0.025637 -500995.000000 0 0 1
-13.085421 -29.178617 -33.253311 46.134614 1.149224 2.375736 0.088175 -0.022871 -867780.000000 0 0 1
-11.769321 -29.418987 -33.604511 46.187194 1.190239 2.385572 0.084724 -0.028829 -900298.000000 0 0 1
-11.316921 -30.670787 -33.099411 46.522478 1.217313 2.362386 0.088867 -0.025722 362592.000000 0 0 1
-9.798821 -30.952497 -33.309711 46.514630 1.264202 2.369013 0.090243 -0.031185 125467.000000 0 0 1
-9.020521 -30.112277 -32.502511 45.216504 1.279741 2.372899 0.116120 -0.038302 -126877.000000 0 0 1
-7.750021 -30.739977 -32.366211 45.305415 1.323828 2.366563 0.127306 -0.043427 223467.000000 0 0 1
-6.756821 -30.013667 -31.444811 43.991488 1.349363 2.367125 0.131601 -0.038401 -47500.100000 0 0 1
-7.110921 -30.234357 -30.094711 43.247812 1.339801 2.340422 0.141261 -0.054574 10718.200000 0 0 1
-6.368721 -29.394837 -29.237511 41.945788 1.357433 2.342045 0.130592 -0.048298 72836.000000 0 0 1
-6.900821 -29.612927 -27.844511 41.229402 1.341848 2.312243 0.128185 -0.046102 -76029.900000 0 0 1
-6.625021 -30.891017 -27.350911 41.787776 1.359532 2.284343 0.121108 -0.045698 -109015.000000 0 0 1
-7.374621 -31.139317 -26.194311 41.354372 1.338254 2.256750 0.133533 -0.046453 11866.100000 0 0 1
-7.006421 -32.561367 -25.649111 42.038191 1.358852 2.227031 0.127829 -0.051581 -345022.000000 0 0 1
-5.827521 -32.533057 -24.922611 41.394400 1.393550 2.216896 0.102849 -0.051422 -780156.000000 0 0 1
-5.579721 -33.803377 -24.402411 42.062802 1.407207 2.189700 0.111451 -0.052996 488193.000000 0 0 1
-4.590021 -33.720697 -23.142811 41.155114 1.435509 2.167999 0.122112 -0.061380 324451.000000 0 0 1
-4.985121 -33.004967 -21.957511 39.953868 1.420888 2.152648 0.134323 -0.062274 -62616.500000 0 0 1
-5.152221 -31.660627 -22.142011 38.977036 1.409478 2.174965 0.102798 -0.044288 -64014.000000 0 0 1
-5.530521 -30.807387 -20.911011 37.642425 1.393169 2.159781 0.131080 -0.047700 -719345.000000 0 0 1
-6.877621 -30.913917 -20.567111 37.762124 1.351885 2.146767 0.134358 -0.056376 -166436.000000 0 0 1
-7.551821 -29.725117 -20.110011 36.674585 1.322005 2.151170 0.137920 -0.051655 412501.000000 0 0 1
-7.857621 -28.651057 -21.173311 36.481974 1.303125 2.189988 0.152897 -0.051388 -289766.000000 0 0 1
-6.672521 -28.047997 -21.650211 36.054741 1.337241 2.214900 0.159891 -0.034031 -306705.000000 0 0 1
-6.863321 -27.546557 -22.948611 36.504202 1.326615 2.250621 0.183407 -0.035421 -558235.000000 0 0 1
-5.747521 -28.050607 -23.923211 37.312070 1.368695 2.266812 0.170635 -0.027704 1182410.000000 0 0 1
-4.457321 -27.446447 -23.788611 36.593349 1.409801 2.278486 0.162962 -0.015608 669188.000000 0 0 1
-3.786121 -27.594617 -22.522411 35.819780 1.434443 2.250767 0.112864 -0.018587 -500502.000000 0 0 1
-2.267121 -27.204897 -22.536011 35.399408 1.487653 2.260905 0.097462 -0.022809 521093.000000 0 0 1
-1.927421 -25.835877 -22.818211 34.523590 1.496332 2.292874 0.088313 -0.023245 156297.000000 0 0 1
-2.268521 -24.862217 -21.816411 33.154665 1.479805 2.288982 0.096034 -0.033529 -310410.000000 0 0 1
-1.667421 -23.482017 -22.224111 32.374319 1.499907 2.327424 0.099294 -0.035123 330377.000000 0 0 1
-2.342421 -22.755617 -23.279611 32.638097 1.468219 2.364942 0.136861 -0.037580 -821688.000000 0 0 1
-3.533621 -22.248417 -22.829711 32.072952 1.413286 2.362862 0.152947 -0.039158 -1135650.000000 0 0 1
-4.469621 -21.669517 -23.919911 32.583856 1.367386 2.395141 0.141948 -0.044026 222178.000000 0 0 1
-3.929321 -20.506017 -24.621911 32.282733 1.381473 2.438268 0.128762 -0.030748 318830.000000 0 0 1
-4.673521 -20.272617 -25.785711 33.131914 1.344221 2.462709 0.180502 -0.035886 50779.100000 0 0 1
-4.053121 -20.974417 -27.017911 34.443018 1.379908 2.472562 0.122073 -0.033275 377101.000000 0 0 1
-4.982521 -21.084317 -28.097811 35.480430 1.338739 2.484750 0.129781 -0.032662 305991.000000 0 0 1
-4.495521 -21.995517 -29.067211 36.727582 1.369189 2.483937 0.140308 -0.026834 34954.900000 0 0 1
-5.485621 -22.258217 -30.218111 37.929600 1.329158 2.492594 0.142184 -0.034882 -480733.000000 0 0 1
-5.641921 -21.094017 -31.038811 37.949923 1.309448 2.528528 0.141810 -0.035766 112590.000000 0 0 1
-6.698021 -21.357417 -31.961611 39.019833 1.266895 2.530658 0.131133 -0.037276 130003.000000 0 0 1
-6.871521 -20.439017 -33.166411 39.559854 1.246471 2.565111 0.099514 -0.031663 136654.000000 0 0 1
-5.831321 -20.746017 33.805913 40.090414 1.296785 0.567510 0.102850 -0.038382 -38742.200000 0 0 1
-6.168221 -20.278517 32.493613 38.795620 1.275514 0.577997 0.087467 -0.033910 34149.900000 0 0 1
-5.145521 -20.735217 31.469513 38.036244 1.327556 0.596413 0.107495 -0.049282 -1100920.000000 0 0 1
-5.023821 -22.171117 31.369013 38.740318 1.347966 0.627113 0.108256 -0.046865 874713.000000 0 0 1
-3.928321 -22.610417 30.516513 38.182722 1.398774 0.644795 0.117322 -0.037804 1101110.000000 0 0 1
-2.484121 -22.328317 30.984713 38.272406 1.459998 0.627354 0.103742 -0.048964 -692802.000000 0 0 1
-2.078521 -20.958317 30.829313 37.336549 1.471946 0.599329 0.127574 -0.046301 -428758.000000 0 0 1
-0.931721 -20.596617 31.544013 37.684394 1.525591 0.578913 0.126065 -0.053389 -399917.000000 0 0 1
-1.073021 -20.181817 33.034413 38.726342 1.517679 0.549048 0.108294 -0.053152 211899.000000 0 0 1
-1.919321 -18.993917 33.058013 38.174402 1.470089 0.523703 0.103546 -0.050351 276710.000000 0 0 1
-2.565521 -18.893417 -33.600511 38.633372 1.435833 2.625446 0.099815 -0.051259 -229395.000000 0 0 1
-3.649321 -17.806917 -33.606711 38.207524 1.368657 2.645783 0.110954 -0.057404 -175331.000000 0 0 1
-3.136721 -16.509317 -33.609311 37.576354 1.383037 2.677945 0.091474 -0.043791 362458.000000 0 0 1
-4.194821 -15.579117 -33.886511 37.531334 1.307775 2.697232 0.096550 -0.038967 418955.000000 0 0 1
-3.712621 -14.153017 33.725113 36.762409 1.314256 0.409348 0.099306 -0.039921 -220766.000000 0 0 1
-2.993921 -13.687917 -32.976211 35.829501 1.355460 2.739809 0.085647 -0.038107 229854.000000 0 0 1
-2.775521 -12.277117 -33.005911 35.324514 1.348461 2.777263 0.092320 -0.031342 58757.000000 0 0 1
-1.868321 -11.650517 33.802213 35.802441 1.411786 0.335847 0.091723 -0.035552 -312732.000000 0 0 1
-2.500721 -11.746517 32.511313 34.658617 1.361037 0.353854 0.092293 -0.027453 627374.000000 0 0 1
-1.614521 -11.245117 31.510713 33.496035 1.428196 0.346021 0.099119 -0.017747 497232.000000 0 0 1
-0.534621 -12.238117 31.004913 33.337096 1.527139 0.376268 0.088030 -0.020502 -78008.300000 0 0 1
-0.925021 -13.054617 29.903213 32.641704 1.500057 0.412542 0.100055 -0.029577 279569.000000 0 0 1
0.030479 -14.073917 29.728413 32.891559 -1.568631 0.442156 0.094715 -0.033627 263814.000000 0 0 1
-0.556421 -15.419317 30.342213 34.039901 1.534726 0.470433 0.107866 -0.038111 892823.000000 0 0 1
-1.680421 -16.010317 29.693413 33.776514 1.466221 0.496796 0.101377 -0.041326 252592.000000 0 0 1
-2.435321 -16.786317 30.541013 34.935150 1.426724 0.506969 0.117522 -0.051059 -294452.000000 0 0 1
-3.046921 -18.025017 29.864713 35.015512 1.403341 0.549282 0.122184 -0.029349 52433.500000 0 0 1
-3.985921 -17.802117 28.810913 34.100904 1.350528 0.564470 0.117597 -0.028174 261453.000000 0 0 1
-4.396721 -19.063817 28.272813 34.381859 1.344128 0.605324 0.124867 -0.034814 238800.000000 0 0 1
-5.120721 -18.986117 26.934413 33.349019 1.307356 0.630637 0.112592 -0.036029 -89471.500000 0 0 1
-5.696721 -20.139917 26.381113 33.675392 1.295140 0.670688 0.105272 -0.029748 -68145.400000 0 0 1
-4.750721 -20.876517 25.637113 33.401496 1.347044 0.695796 0.137208 -0.039504 -64247.800000 0 0 1
-30.402061 -33.570342 0.080413 45.290833 0.834883 1.569021 0.060450 -0.012903 -6438.830000 0 0 1
-29.515851 -32.478142 0.307313 43.887465 0.833145 1.563794 0.067031 -0.013061 484313.000000 0 0 1
-29.915371 -31.933042 1.585513 43.785413 0.818009 1.534577 0.054554 -0.018921 668341.000000 0 0 1
-29.075281 -30.637342 1.857413 42.278465 0.811552 1.526849 0.071748 -0.019287 650904.000000 0 0 1
-27.678971 -30.768842 2.048313 41.437213 0.838214 1.521344 0.082058 -0.014869 -169224.000000 0 0 1
-27.185391 -29.463242 2.313113 40.155679 0.825587 1.513161 0.085399 -0.022283 610553.000000 0 0 1
-25.622681 -29.437342 2.393113 39.099947 0.854569 1.509553 0.063586 -0.015905 464116.000000 0 0 1
-25.156671 -30.160842 3.477013 39.428721 0.875615 1.482497 0.050903 -0.006912 -63583.300000 0 0 1
-23.742021 -30.205242 3.507313 38.579028 0.904636 1.479758 0.049739 -0.003803 -10449.500000 0 0 1
-23.325621 -31.021342 4.769913 39.104479 0.926066 1.448513 0.050848 -0.008841 -170714.000000 0 0 1
-23.737621 -30.416742 5.976813 39.043247 0.908113 1.417110 0.032369 -0.005002 -38246.600000 0 0 1
-23.459721 -31.186142 7.096313 39.664740 0.925858 1.390921 0.024080 -0.010017 -272502.000000 0 0 1
-23.905721 -30.502442 8.432413 39.660913 0.906054 1.356548 0.019675 0.001157 -160010.000000 0 0 1
-23.174521 -29.334042 8.702113 38.383215 0.902170 1.342091 0.021284 0.000846 -5596.420000 0 0 1
-23.765421 -28.558542 9.708013 38.400925 0.876748 1.315216 0.011920 -0.002021 -394922.000000 0 0 1
-22.887821 -27.366942 10.047213 37.064111 0.874292 1.296285 0.005951 -0.002760 -97041.500000 0 0 1
-21.668121 -27.696342 10.666313 36.747313 0.906913 1.276297 0.020988 -0.007358 -469369.000000 0 0 1
-21.215221 -26.686642 11.493913 35.977388 0.899127 1.245620 0.037907 -0.007642 -46142.800000 0 0 1
-19.892521 -26.986942 12.256913 35.696489 0.935592 1.220299 0.047701 -0.006539 188125.000000 0 0 1
-19.804021 -27.991442 13.187013 36.737139 0.955053 1.203647 0.055686 -0.013015 -1430920.000000 0 0 1
-18.610521 -27.979642 13.849913 36.346003 0.983848 1.179857 0.069508 -0.022191 -912550.000000 0 0 1
-18.656321 -29.059542 14.965813 37.636297 1.000063 1.161850 0.095070 -0.038134 138747.000000 0 0 1
-18.541621 -30.308842 14.433813 38.350392 1.021777 1.184925 0.087893 -0.033102 -220292.000000 0 0 1
-18.315021 -31.201142 15.457313 39.343103 1.039992 1.167030 0.104460 -0.036295 153588.000000 0 0 1
-18.012321 -32.581742 14.861413 40.085848 1.065779 1.190991 0.090375 -0.044120 119568.000000 0 0 1
-18.073021 -33.627042 15.863813 41.340931 1.077636 1.176963 0.099803 -0.037332 -31835.100000 0 0 1
-17.728121 32.960183 15.365013 40.456687 -1.077318 1.181228 0.077225 -0.037564 -416181.000000 0 0 1
-17.768621 31.899783 16.465613 40.055417 -1.062584 1.147168 0.080545 -0.030114 1131920.000000 0 0 1
-19.057121 31.539383 17.057713 40.606306 -1.027270 1.137268 0.096669 -0.036202 1294730.000000 0 0 1
-18.921421 30.384183 17.942113 40.039207 -1.013824 1.106142 0.060386 -0.020843 85770.700000 0 0 1
-19.558121 30.537983 19.353613 41.105362 -1.001162 1.080566 0.067984 -0.028316 65210.900000 0 0 1
-18.908421 31.529683 20.088913 41.895270 -1.030596 1.070708 0.077291 -0.023447 150839.000000 0 0 1
-19.760421 31.978583 21.142713 43.129089 -1.017300 1.058455 0.075210 -0.020161 219813.000000 0 0 1
-19.268421 33.181283 21.980013 44.219798 -1.044688 1.050586 0.056253 -0.004271 636840.000000 0 0 1
-18.106021 32.898583 22.804513 43.933934 -1.067678 1.025041 0.059520 -0.014862 496504.000000 0 0 1
-18.082421 33.304183 24.160813 44.943157 -1.073384 1.003225 0.054116 -0.016346 160303.000000 0 0 1
-19.151921 32.575983 25.047713 45.336284 -1.039310 0.985451 0.042933 -0.015207 1163880.000000 0 0 1
-20.500921 32.971183 24.743113 46.039204 -1.014514 1.003403 0.038231 -0.020208 232833.000000 0 0 1
-21.411121 32.214383 25.483813 46.320916 -0.984195 0.988243 0.035004 -0.009309 -249928.000000 0 0 1
-22.899621 32.456683 25.185313 47.033274 -0.956359 1.005722 0.067277 -0.026097 -352208.000000 0 0 1
-23.223821 32.138283 23.838513 46.265427 -0.945049 1.029491 0.062745 -0.014421 709523.000000 0 0 1
-24.636721 32.084583 23.606413 46.836430 -0.915957 1.042551 0.055714 -0.018729 653457.000000 0 0 1
-24.925421 31.540083 22.189313 45.917524 -0.902012 1.066441 0.044599 -0.024309 -128394.000000 0 0 1
-24.479621 32.448283 21.234113 45.858810 -0.924473 1.089383 0.037939 -0.024326 76360.100000 0 0 1
-23.998121 31.762683 20.089613 44.591147 -0.923756 1.103438 0.022011 -0.011054 -62607.100000 0 0 1
-23.608521 32.806983 19.045713 44.681087 -0.947024 1.130443 0.039408 -0.011137 -196934.000000 0 0 1
-22.445021 33.510583 19.413213 44.761713 -0.980635 1.122200 0.067253 -0.019447 47548.300000 0 0 1
-21.814121 -33.727542 18.279713 44.131064 0.996692 1.143717 0.078882 -0.014831 989594.000000 0 0 1
-20.531121 -32.868642 18.653913 43.009801 1.012455 1.122187 0.091349 -0.026001 820659.000000 0 0 1
-20.766521 -31.662242 19.249713 42.477022 0.990301 1.100467 0.092436 -0.036274 145794.000000 0 0 1
-19.565521 -31.085842 19.723513 41.691200 1.009037 1.078006 0.098249 -0.041691 141030.000000 0 0 1
-19.837821 -30.065142 20.804013 41.596380 0.987543 1.047036 0.092732 -0.032768 110448.000000 0 0 1
-20.645121 -28.993542 20.350613 40.999926 0.952023 1.051399 0.097650 -0.036390 465718.000000 0 0 1
-21.100721 -28.142042 21.418513 41.182128 0.927427 1.023837 0.108989 -0.030656 240996.000000 0 0 1
-21.967921 -26.903742 20.984113 40.579969 0.886052 1.027331 0.083881 -0.041893 -117523.000000 0 0 1
-21.177721 -25.940542 20.348213 39.184912 0.886138 1.024780 0.063162 -0.023079 754625.000000 0 0 1
-21.928121 -24.820942 19.765713 38.569483 0.847199 1.032737 0.052360 -0.004675 45573.300000 0 0 1
-22.979321 -25.022242 18.628213 38.744962 0.827932 1.069240 0.036435 -0.020037 223911.000000 0 0 1
-24.288321 -25.319942 19.096113 39.946007 0.806191 1.072365 0.040831 -0.020107 -174467.000000 0 0 1
-25.104731 -25.464942 17.990113 40.029426 0.792521 1.104678 0.022879 -0.012304 -979947.000000 0 0 1
-26.601041 -25.650542 18.255813 41.216991 0.767209 1.111944 0.014490 -0.008216 -356037.000000 0 0 1
-26.987611 -26.822042 18.959513 42.511365 0.782321 1.108520 0.017147 -0.017584 -64695.700000 0 0 1
-26.889551 -27.982342 18.197313 42.862590 0.805311 1.132331 0.020075 -0.011338 -835602.000000 0 0 1
-27.656511 -29.212442 18.789313 44.399185 0.812751 1.133833 0.037518 -0.017119 1130610.000000 0 0 1
-29.091381 -29.130442 18.968113 45.328582 0.786069 1.139049 0.053423 -0.019095 1165160.000000 0 0 1
-29.727761 -29.421242 17.718813 45.423623 0.780216 1.170079 0.055591 -0.017134 -551228.000000 0 0 1
-31.200891 -28.979842 17.747713 46.133590 0.748509 1.175911 0.059312 -0.021414 -129123.000000 0 0 1
-31.463711 -27.597342 17.426113 45.334841 0.720028 1.176253 0.069055 -0.019552 683834.000000 0 0 1
-32.894821 -27.456842 17.524713 46.293228 0.695536 1.182558 0.094563 -0.004513 810030.000000 0 0 1
-33.336761 -26.077042 17.014313 45.616209 0.663812 1.188569 0.094759 -0.022420 -294244.000000 0 0 1
-33.512261 -25.985442 15.615913 45.190392 0.659561 1.217963 0.113555 -0.035979 312903.000000 0 0 1
-34.356202 -24.890242 15.301813 45.100091 0.626965 1.224639 0.131054 -0.037554 -230823.000000 0 0 1
-33.682161 -23.583142 14.939813 43.747577 0.610838 1.222284 0.122972 -0.032082 -96762.700000 0 0 1
-32.793591 -23.047942 15.910813 43.125180 0.612615 1.192923 0.100434 -0.024782 220428.000000 0 0 1
-32.355851 -21.728542 15.758413 42.039959 0.591375 1.186568 0.091173 -0.025081 -323083.000000 0 0 1
-33.414251 -20.610742 15.809213 42.323115 0.552699 1.187978 0.102504 -0.029555 -85103.400000 0 0 1
-33.856191 -20.335242 17.162313 43.061685 0.540887 1.160859 0.100400 -0.024020 192860.000000 0 0 1
-34.923896 -19.424842 17.212713 43.511843 0.507595 1.164090 0.111894 -0.027484 41660.100000 0 0 1
-35.412196 -19.019842 18.684113 44.326900 0.492884 1.135689 0.092781 -0.015837 185886.000000 0 0 1
-36.164041 -20.048942 19.383913 45.667647 0.506207 1.132435 0.107942 -0.014555 532137.000000 0 0 1
-36.296201 -19.641642 20.709713 46.174674 0.496022 1.105701 0.098367 -0.010146 898914.000000 0 0 1
36.885503 -19.813642 21.281313 46.968234 -0.492937 1.100556 0.109353 -0.013563 1446790.000000 0 0 1
36.322033 -21.093542 21.279113 47.085330 -0.526135 1.101872 0.122338 -0.013049 -141336.000000 0 0 1
36.952423 -21.955842 22.226113 48.389469 -0.536118 1.093570 0.102725 -0.005690 -665959.000000 0 0 1
36.283203 -23.246342 22.593213 48.655077 -0.569804 1.087890 0.098360 -0.001600 -476717.000000 0 0 1
35.273173 -23.017542 23.547713 48.254521 -0.578166 1.061011 0.101238 -0.015384 -52106.500000 0 0 1
34.869453 -24.236642 24.103313 48.828918 -0.607408 1.054540 0.086497 -0.026704 -257545.000000 0 0 1
33.911423 -24.118742 25.315513 48.709070 -0.618222 1.024263 0.086732 -0.026581 -210585.000000 0 0 1
32.578653 -23.963742 24.920713 47.504437 -0.634199 1.018554 0.088808 -0.025119 -815222.000000 0 0 1
31.762103 -23.748442 26.019613 47.432478 -0.642026 0.990154 0.057939 -0.020466 815534.000000 0 0 1
30.293743 -24.328642 25.895713 46.692415 -0.676623 0.982912 0.063283 -0.019121 1048070.000000 0 0 1
29.395413 -23.535342 25.141113 45.277789 -0.675135 0.982116 0.070585 -0.014075 246488.000000 0 0 1
28.175613 -24.251642 24.915013 44.752265 -0.710691 0.980350 0.071128 -0.008421 1195150.000000 0 0 1
27.008113 -23.329642 24.378213 43.220454 -0.712452 0.971522 0.062124 -0.014437 452136.000000 0 0 1
27.052613 -22.987642 22.996813 42.298097 -0.704342 0.995976 0.053383 -0.008974 524898.000000 0 0 1
28.101913 -22.016342 22.741713 42.327560 -0.664565 1.003589 0.061254 -0.006408 530733.000000 0 0 1
27.897713 -21.288842 21.393113 41.099422 -0.651835 1.023335 0.059177 -0.009206 129006.000000 0 0 1
27.315613 -19.994642 21.439413 40.069650 -0.631872 1.006225 0.055097 -0.015137 -209876.000000 0 0 1
27.293713 -19.345542 20.162113 39.060307 -0.616602 1.028413 0.034584 -0.010340 -593774.000000 0 0 1
26.310313 -18.203342 20.029313 37.746094 -0.605249 1.011449 0.027460 0.000267 -489976.000000 0 0 1
26.451013 -17.001442 20.884613 37.747479 -0.571263 0.984510 0.041530 -0.015569 -69432.700000 0 0 1
26.255413 -17.253742 22.255413 38.501191 -0.581385 0.954466 0.046117 -0.013669 -209893.000000 0 0 1
26.402013 -16.011442 23.137013 38.584374 -0.545147 0.927736 0.060166 -0.014526 -217440.000000 0 0 1
25.293113 -15.153842 23.007813 37.399732 -0.539779 0.908174 0.034558 -0.011705 -201089.000000 0 0 1
25.410313 -13.908642 23.658113 37.401078 -0.500816 0.885953 0.032677 -0.004326 243998.000000 0 0 1
24.070013 -13.140342 23.426013 36.066774 -0.499707 0.863846 0.028461 -0.008083 244700.000000 0 0 1
23.027413 -13.733142 24.169613 36.097523 -0.537755 0.837174 0.050520 -0.010186 -120683.000000 0 0 1
21.870813 -12.951842 23.896313 34.887196 -0.534663 0.816248 0.058159 -0.014020 1205440.000000 0 0 1
20.469713 -13.466742 24.436513 34.604992 -0.581899 0.786742 0.055984 -0.011664 1155940.000000 0 0 1
19.872213 -14.520642 23.712313 34.176420 -0.631035 0.804015 0.073383 -0.018982 -938377.000000 0 0 1
18.666113 -14.968042 24.187113 34.021795 -0.675888 0.779977 0.079717 -0.016919 -878615.000000 0 0 1
18.220313 -16.189942 23.284813 33.708701 -0.726462 0.808249 0.091927 -0.020130 -9159.580000 0 0 1
18.947713 -17.418042 23.386213 34.775264 -0.743359 0.833221 0.081834 -0.019686 38169.500000 0 0 1
18.440913 -18.362042 22.493913 34.397790 -0.783255 0.858022 0.102840 -0.024797 -353204.000000 0 0 1
18.802213 -19.820942 22.885813 35.639212 -0.811768 0.873493 0.091118 -0.021889 -246757.000000 0 0 1
18.060513 -20.387342 23.903513 36.238154 -0.845844 0.850480 0.095681 -0.021165 -89857.500000 0 0 1
18.588713 -21.655142 24.335213 37.505840 -0.861447 0.864740 0.104106 -0.020701 -110804.000000 0 0 1
18.462513 -22.876942 23.400713 37.574090 -0.891780 0.898495 0.090139 -0.020027 -80692.300000 0 0 1
19.212213 -22.841142 22.207113 37.201919 -0.871478 0.931121 0.093149 -0.014928 -705337.000000 0 0 1
20.296513 -23.693842 22.302313 38.350225 -0.862474 0.950172 0.087372 -0.020163 -905793.000000 0 0 1
21.200713 -23.761542 21.074813 38.186763 -0.842292 0.986170 0.069192 -0.012145 -653903.000000 0 0 1
20.567013 -24.312542 19.965713 37.586320 -0.868663 1.010784 0.062867 -0.022281 -300672.000000 0 0 1
21.423613 -24.765242 18.968213 37.842853 -0.857619 1.045769 0.066813 -0.020562 119197.000000 0 0 1
20.572413 -25.445442 17.812913 37.255799 -0.890899 1.072278 0.053407 -0.022174 268748.000000 0 0 1
20.022613 -26.648442 18.190313 37.972779 -0.926424 1.071241 0.077290 -0.027860 -76406.700000 0 0 1
19.275513 -27.217042 17.122413 37.489863 -0.954578 1.096490 0.072690 -0.028687 -35103.500000 0 0 1
18.536313 -28.491642 17.617913 38.285238 -0.994008 1.092604 0.064719 -0.030481 184522.000000 0 0 1
17.451913 -28.239842 18.499213 38.003669 -1.017254 1.062403 0.074854 -0.035717 27757.100000 0 0 1
16.799213 -29.409042 18.902213 38.786582 -1.051803 1.061757 0.077586 -0.033619 52911.400000 0 0 1
15.517113 -29.083842 19.706113 38.405489 -1.080686 1.031996 0.072293 -0.029316 109986.000000 0 0 1
14.570513 -28.333942 18.951413 37.071123 -1.095820 1.034195 0.069440 -0.032608 100082.000000 0 0 1
13.350913 -28.229742 19.683013 36.913225 -1.129032 1.008389 0.055299 -0.030678 147308.000000 0 0 1
12.239313 -27.621142 18.822413 35.595105 -1.153684 1.013619 0.076540 -0.035272 -315617.000000 0 0 1
11.799413 -28.568842 17.867113 35.702081 -1.179119 1.046678 0.087223 -0.037980 -59979.800000 0 0 1
11.565713 -27.982942 16.611213 34.536114 -1.178866 1.069023 0.108674 -0.039147 11156.700000 0 0 1
11.241813 -28.971242 15.438513 34.699552 -1.200648 1.109712 0.104738 -0.030619 785671.000000 0 0 1
9.946313 -29.588442 15.598013 34.895602 -1.246508 1.107398 0.127636 -0.028043 717528.000000 0 0 1
9.778513 -30.468042 14.534513 35.145028 -1.260238 1.144438 0.091962 -0.023595 996164.000000 0 0 1
8.431413 -31.300642 14.410213 35.474965 -1.307673 1.152496 0.084101 -0.022213 1003920.000000 0 0 1
8.364513 -32.295042 15.382813 36.736436 -1.317362 1.138745 0.091081 -0.020111 -235074.000000 0 0 1
7.372813 -33.229642 15.049613 37.216372 -1.352459 1.154494 0.091967 -0.024358 -143130.000000 0 0 1
7.306013 33.484983 16.158913 37.891059 1.355975 1.130224 0.094009 -0.020452 -17467.000000 0 0 1
8.439213 32.653783 16.049913 37.350898 1.317885 1.126629 0.092961 -0.021634 -125127.000000 0 0 1
8.482513 31.618883 17.068413 36.919338 1.308694 1.090191 0.086930 -0.024267 -142993.000000 0 0 1
9.806413 30.844883 17.165413 36.636374 1.262975 1.083165 0.074433 -0.023683 -327178.000000 0 0 1
10.185413 30.111283 16.031213 35.601008 1.244619 1.103693 0.077993 -0.024913 377244.000000 0 0 1
11.426513 29.440083 16.275613 35.527162 1.200566 1.094920 0.068119 -0.024939 459589.000000 0 0 1
12.168713 28.859983 15.053313 34.750229 1.171769 1.122772 0.068792 -0.016583 -208932.000000 0 0 1
11.557113 27.736283 14.490913 33.359478 1.175995 1.121439 0.086104 -0.030490 25447.000000 0 0 1
12.323513 27.212883 13.420813 32.749476 1.145570 1.148559 0.080171 -0.024140 49825.000000 0 0 1
-9.082121 -9.057417 19.340438 23.207203 0.784036 0.585600 0.051876 -0.030447 40666.700000 0 1 0
-9.496121 -9.396017 18.035638 22.444279 0.780100 0.637521 0.061834 -0.028796 -21595.200000 0 1 0
-9.722821 -10.761417 17.885938 23.027117 0.836057 0.681333 0.071855 -0.026611 67379.200000 0 1 0
-9.853521 -11.043617 16.391038 22.084372 0.842287 0.734448 0.066772 -0.019943 -514834.000000 0 1 0
-11.044121 -10.531117 15.877738 22.022252 0.761625 0.765572 0.074212 -0.041619 -378292.000000 0 1 0
-11.298921 -10.927017 14.515438 21.395402 0.768667 0.825163 0.061871 -0.040216 51108.100000 0 1 0
-11.412721 -12.461517 14.202738 22.073907 0.829300 0.871842 0.042272 -0.035031 -485851.000000 0 1 0
-10.190321 -13.139117 13.989738 21.729975 0.911130 0.871344 0.045639 -0.022495 118460.000000 0 1 0
-10.315721 -14.549917 14.082038 22.724832 0.954063 0.902466 0.069143 -0.025653 43364.400000 0 1 0
-10.125421 -15.105917 15.484438 23.884738 0.980286 0.865449 0.094033 -0.028764 452689.000000 0 1 0
-11.265221 -14.861117 16.308438 24.773436 0.922174 0.852234 0.088061 -0.022177 162085.000000 0 1 0
-10.916921 -14.806817 17.665938 25.505026 0.935479 0.805646 0.109892 -0.029059 -161416.000000 0 0 1
-12.021821 -14.383717 18.671838 26.458515 0.874608 0.787382 0.074684 -0.032592 -217113.000000 0 0 1
-12.603221 -13.109517 18.483138 25.929269 0.805086 0.777272 0.078414 -0.029565 138316.000000 0 0 1
-13.745621 -12.989617 17.656338 25.873123 0.757128 0.819728 0.093665 -0.037080 -213052.000000 0 0 1
-15.051921 -13.179917 18.439838 27.208421 0.719187 0.826131 0.069320 -0.029522 -819726.000000 0 0 1
-15.301721 -14.570917 18.637838 28.174870 0.760939 0.847972 0.069702 -0.021945 -80620.900000 0 0 1
-16.188121 -14.685117 19.732238 29.446037 0.736754 0.836432 0.088228 -0.029589 -126015.000000 0 0 1
-16.721221 -16.074217 20.100938 30.692465 0.765672 0.856727 0.077907 -0.023129 505409.000000 0 0 1
-17.716721 -16.600717 19.182538 30.942459 0.752890 0.902127 0.076692 -0.003892 462046.000000 0 0 1
-18.109821 -17.889617 19.601938 32.128492 0.779281 0.914596 0.045222 -0.011293 -44342.700000 0 0 1
-19.453121 -18.376617 18.990238 32.813916 0.756949 0.953632 0.049943 -0.002981 13554.700000 0 0 1
-19.495521 -18.610617 17.636738 32.210013 0.762180 0.991357 0.043772 -0.007624 18941.000000 0 0 1
-19.665721 -17.392017 16.921238 31.233814 0.724119 0.998266 0.041129 -0.005719 -624250.000000 0 0 1
-19.294521 -17.387717 15.376138 30.183387 0.733463 1.036281 0.047960 -0.014506 -217460.000000 0 0 1
-20.109321 -18.172617 14.498338 30.738097 0.734851 1.079609 0.053552 -0.014533 239380.000000 0 0 1
-19.713521 -17.958217 13.164138 29.739115 0.738837 1.112240 0.077865 -0.019937 -37077.400000 0 0 1
-19.970621 -19.146517 12.205138 30.238720 0.764334 1.155320 0.081587 -0.009465 123832.000000 0 0 1
-19.124821 -20.203917 12.623438 30.550094 0.812829 1.144826 0.070363 -0.001366 294137.000000 0 0 1
-19.407821 -21.360617 11.874338 31.208002 0.833261 1.180470 0.062157 -0.005988 -168665.000000 0 0 1
-18.582821 -22.560817 12.373138 31.739664 0.881784 1.170347 0.050044 -0.002980 16953.900000 0 0 1
-18.864621 -23.774517 11.660738 32.512680 0.900043 1.203973 0.064200 -0.006686 -8670.170000 0 0 1
-18.016021 -23.925917 10.545938 31.752848 0.925383 1.232240 0.067688 -0.002863 -287801.000000 0 0 1
-18.154721 -25.173187 9.717038 32.522363 0.945988 1.267382 0.087253 -0.010510 307738.000000 0 0 1
-19.400821 -25.259477 9.035938 33.107117 0.915836 1.294359 0.064573 -0.007291 -8767.280000 0 0 1
-19.355221 -26.374127 8.105438 33.703372 0.937698 1.327922 0.077054 -0.012266 -423921.000000 0 0 1
-20.537721 -26.410977 7.177138 34.217671 0.909851 1.359478 0.063243 -0.017164 -613012.000000 0 0 1
-20.753321 -25.215727 6.440538 33.286841 0.882169 1.376082 0.089938 -0.019378 224949.000000 0 0 1
-21.754021 -25.225957 5.425138 33.749348 0.859167 1.409348 0.093111 -0.020389 185964.000000 0 0 1
-21.675721 -23.885617 4.624938 32.584500 0.833864 1.428379 0.102369 -0.026229 -192396.000000 0 0 1
-22.568021 -23.850817 3.554838 33.027472 0.813026 1.462955 0.105248 -0.030439 -74703.300000 0 0 1
-22.658721 -22.591317 2.893638 32.127222 0.783909 1.480606 0.107980 -0.021456 93586.400000 0 0 1
-23.061121 -22.773817 1.404638 32.441255 0.779130 1.527485 0.094229 -0.020850 -38253.200000 0 0 1
-22.057121 -23.331717 0.590838 32.112843 0.813473 1.552396 0.090305 -0.031833 77986.500000 0 0 1
-22.454921 -23.520117 -0.769262 32.527083 0.808563 1.594448 0.075284 -0.036928 -215363.000000 0 0 1
-21.438021 -24.430317 -1.470862 32.536020 0.850543 1.616019 0.082246 -0.041612 -133660.000000 0 0 1
-20.130721 -23.849217 -1.582062 31.249544 0.869747 1.621445 0.086464 -0.039125 800360.000000 0 0 1
-19.329721 -24.314217 -2.685762 31.177437 0.899114 1.657048 0.076537 -0.030660 172803.000000 0 0 1
-19.011821 -25.815017 -2.772262 32.179961 0.936015 1.657052 0.083269 -0.030142 -209846.000000 0 0 1
-20.195921 -26.640017 -2.877262 33.553605 0.922128 1.656653 0.111898 -0.039056 603661.000000 0 0 1
-19.880721 -27.818047 -3.639362 34.385052 0.950293 1.676836 0.105371 -0.029787 276213.000000 0 0 1
-21.179021 -28.567137 -4.053062 35.791893 0.932837 1.684279 0.107630 -0.030310 556275.000000 0 0 1
-21.831921 -27.988667 -5.208262 35.876514 0.908353 1.716483 0.097855 -0.026925 -28162.200000 0 0 1
-22.775421 -28.891927 -5.718962 37.231301 0.903232 1.725013 0.118187 -0.038679 -217287.000000 0 0 1
-23.294321 -28.369887 -7.078662 37.384266 0.883325 1.761295 0.108642 -0.008422 -232220.000000 0 0 1
-22.276821 -28.365957 -8.069462 36.959444 0.905061 1.790902 0.119421 -0.006963 288789.000000 0 0 1
-22.789421 -28.319797 -9.371062 37.539119 0.893186 1.823099 0.111967 -0.005881 438640.000000 0 0 1
-23.665621 -27.022037 -9.734162 37.215669 0.851519 1.835435 0.092342 -0.006692 80696.300000 0 0 1
-22.969521 -25.829037 -9.975662 35.975713 0.843930 1.851767 0.086077 -0.009790 220787.000000 0 0 1
-22.418221 -25.061127 -8.909562 34.785299 0.841005 1.829813 0.067331 -0.011183 -89716.600000 0 0 1
-22.120021 -23.634617 -9.415162 33.712546 0.818489 1.853838 0.052176 -0.013747 -139586.000000 0 0 1
-23.233821 -22.816017 -9.674562 33.970255 0.776326 1.859589 0.071647 -0.014261 -9115.790000 0 0 1
-22.841421 -21.476817 -9.987462 32.904917 0.754617 1.879186 0.086055 -0.000811 244705.000000 0 0 1
-24.041021 -20.520417 -10.231562 33.222629 0.706556 1.883855 0.105342 -0.002665 -185223.000000 0 0 1
-24.686221 -20.783717 -11.495662 34.256717 0.699782 1.913011 0.097503 -0.005155 1322330.000000 0 0 1
-26.025701 -20.241517 -11.579962 34.944980 0.661027 1.908559 0.100614 -0.007804 939926.000000 0 0 1
-26.222651 -18.673617 -11.692462 34.249746 0.618813 1.919190 0.110958 -0.021820 -1064590.000000 0 0 1
-25.648921 -18.158117 -12.889562 33.966530 0.616041 1.960029 0.117596 -0.018954 571899.000000 0 0 1
-25.275571 -16.788817 -12.845462 32.950338 0.586314 1.971258 0.119260 -0.028515 -114174.000000 0 0 1
-24.140921 -16.386117 -11.879062 31.502397 0.596335 1.957443 0.096374 -0.017941 -835506.000000 0 0 1
-24.499121 -16.438317 -10.501362 31.316191 0.590980 1.912755 0.126179 -0.021227 292105.000000 0 0 1
-23.419321 -16.491117 -9.582562 30.203428 0.613517 1.893643 0.111964 -0.021616 54585.600000 0 0 1
-23.924321 -16.836517 -8.146062 30.367742 0.613232 1.842369 0.093209 -0.029604 196429.000000 0 0 1
-24.435521 -18.181117 -8.091562 31.513824 0.639679 1.830467 0.100587 -0.023248 109705.000000 0 0 1
-25.440281 -18.325517 -7.130662 32.153986 0.624243 1.794422 0.113949 -0.018271 -262666.000000 0 0 1
-26.025681 -19.711817 -7.026262 33.395511 0.648220 1.782776 0.127062 -0.019604 -180866.000000 0 0 1
-26.653321 -19.995817 -8.251662 34.326697 0.643641 1.813560 0.114023 -0.024064 -194096.000000 0 0 1
-27.349851 -21.206317 -8.189862 35.563972 0.659543 1.803167 0.112994 -0.013423 34651.000000 0 0 1
-26.425431 -22.450817 -8.465862 35.693324 0.704257 1.810262 0.089167 -0.009392 142444.000000 0 0 1
-27.017701 -23.697117 -8.171762 36.854948 0.720016 1.794382 0.094602 -0.003602 -196298.000000 0 0 1
-26.393911 -24.717317 -8.933062 37.247603 0.752607 1.812986 0.071370 0.010241 119650.000000 0 0 1
-26.982211 -26.122947 -8.596462 38.527227 0.769219 1.795817 0.080132 -0.000932 116747.000000 0 0 1
-26.457181 -26.661567 -7.380262 38.279105 0.789246 1.764813 0.108048 -0.016294 375769.000000 0 0 1
-27.070521 -27.917427 -7.109862 39.531582 0.800799 1.751633 0.096537 -0.017695 -74271.100000 0 0 1
-26.775271 -28.449437 -5.703362 39.481818 0.815704 1.715759 0.123500 -0.019132 -335366.000000 0 0 1
-27.427971 -27.637927 -4.745962 39.225920 0.789211 1.692084 0.103635 -0.018647 94712.300000 0 0 1
-27.244351 -27.953937 -3.396362 39.181788 0.798253 1.657587 0.107852 -0.030570 -301968.000000 0 0 1
-27.639081 -29.338767 -2.839962 40.407270 0.815220 1.641138 0.098232 -0.016648 -573561.000000 0 0 1
-26.986021 -30.440947 -3.362862 40.819180 0.845488 1.653274 0.116087 -0.018463 -360838.000000 0 0 1
-27.138701 -31.626817 -2.634262 41.757682 0.861623 1.633923 0.101918 -0.021563 456094.000000 0 0 1
-26.190691 -31.804427 -1.367162 41.223088 0.881894 1.603967 0.107985 -0.030215 1538620.000000 0 0 1
-24.791621 -31.583627 -1.662662 40.185998 0.905299 1.612182 0.117651 -0.038343 439366.000000 0 0 1
-23.975221 -31.905677 -0.589562 39.914046 0.926374 1.585568 0.113811 -0.023330 -546622.000000 0 0 1
-22.917021 -30.833357 -0.384162 38.419179 0.931627 1.580796 0.121632 -0.024744 -413985.000000 0 0 1
-23.425221 -29.520057 -0.066662 37.685265 0.900009 1.572565 0.106313 -0.031660 -84476.200000 0 0 1
-23.730821 -28.760137 -1.215362 37.306494 0.880920 1.603380 0.129504 -0.039289 -48032.100000 0 0 1
-24.433421 -27.416527 -0.929062 36.735830 0.842868 1.596089 0.075035 -0.028109 794489.000000 0 0 1
-25.781521 -27.506527 -0.414262 37.702354 0.817758 1.581784 0.098180 -0.031078 925428.000000 0 0 1
-26.369241 -26.199477 -0.309462 37.173179 0.782169 1.579121 0.106784 -0.042204 297474.000000 0 0 1
-25.913521 -25.381527 0.944138 36.285312 0.775027 1.544774 0.102779 -0.031446 -262226.000000 0 0 1
-26.355231 -25.893857 2.180938 37.011438 0.776568 1.511836 0.070930 -0.027907 -184665.000000 0 0 1
-25.831551 -25.244787 3.338438 36.272765 0.773911 1.478629 0.075530 -0.021835 33868.000000 0 0 1
-26.503511 -23.896417 3.783538 35.885791 0.733716 1.465167 0.109851 -0.019940 -20834.600000 0 0 1
-26.546961 -22.890417 2.806438 35.165159 0.711569 1.490904 0.111611 -0.024122 342163.000000 0 0 1
-27.485261 -21.850417 3.092738 35.248338 0.671677 1.482942 0.102341 -0.022564 153366.000000 0 0 1
-27.366701 -20.699617 1.994338 34.371323 0.647572 1.512740 0.102000 -0.013746 -454333.000000 0 0 1
-26.307381 -19.906517 2.361238 33.074509 0.647769 1.499344 0.101772 -0.009187 -643289.000000 0 0 1
-25.815141 -19.024317 1.350138 32.096246 0.635093 1.528719 0.084709 -0.004219 475839.000000 0 0 1
-24.467621 -18.263217 1.531938 30.570515 0.641208 1.520664 0.104338 -0.002211 445371.000000 0 0 1
-23.350221 -19.093617 1.273238 30.189736 0.685444 1.528609 0.106285 -0.013929 805954.000000 0 0 1
-22.108421 -18.392717 1.541238 28.800169 0.693911 1.517256 0.114784 -0.004882 439763.000000 0 0 1
-20.887121 -19.267217 1.388838 28.450419 0.745078 1.521961 0.100637 -0.018718 -896191.000000 0 0 1
-20.455021 -19.536417 0.089038 28.285816 0.762432 1.567649 0.058572 -0.008224 191980.000000 0 0 1
-19.321721 -20.381017 0.093738 28.084222 0.812073 1.567459 0.072421 -0.005737 24176.800000 0 0 1
-18.902521 -20.841017 -1.307662 28.166705 0.834135 1.617239 0.065989 -0.012981 5257.140000 0 0 1
-18.299721 -19.827717 -2.074162 27.061417 0.825453 1.647518 0.063086 -0.014459 -18888.200000 0 0 1
-18.133221 -20.171817 -3.429262 27.340003 0.838568 1.696558 0.059958 -0.010348 -26875.400000 0 0 1
-17.541021 -19.068417 -4.284862 26.261226 0.827095 1.734692 0.075054 -0.002204 1116830.000000 0 0 1
-16.121221 -18.830017 -4.193962 25.140657 0.862746 1.738400 0.100589 -0.019906 893298.000000 0 0 1
-15.590521 -18.202817 -5.334462 24.553276 0.862547 1.789804 0.107273 -0.013339 -868996.000000 0 1 0
-14.111421 -17.910517 -5.473362 23.449446 0.903487 1.806381 0.120759 -0.026098 -1163640.000000 0 1 0
-13.394721 -19.098817 -5.560962 23.981403 0.959173 1.804813 0.098051 -0.025563 -100391.000000 0 1 0
-12.092621 -18.763317 -6.017962 23.119460 0.998310 1.834128 0.100453 -0.035306 994989.000000 0 1 0
-10.972021 -19.894717 -5.942462 23.483992 1.066799 1.826621 0.109910 -0.041884 842660.000000 0 1 0
-11.282621 -20.920517 -6.797462 24.721874 1.076198 1.849342 0.093449 -0.032719 -637727.000000 0 1 0
-10.254121 -21.832517 -6.934062 25.097550 1.131704 1.850722 0.098453 -0.026779 -367618.000000 0 0 1
-10.643521 -23.024017 -7.821062 26.543529 1.137778 1.869886 0.074787 -0.016173 54864.500000 0 0 1
-11.040621 -22.546317 -9.127362 26.712178 1.115434 1.919514 0.068612 -0.021462 76417.200000 0 0 1
-11.200021 -23.619317 -10.092962 28.021073 1.128010 1.939270 0.076145 -0.019301 -175917.000000 0 0 1
-11.860921 -23.181217 -11.375062 28.415530 1.097864 1.982653 0.099383 -0.027474 -7189.700000 0 0 1
-10.992321 -22.557317 -12.314862 27.952093 1.117355 2.027030 0.089289 -0.024157 87793.800000 0 0 1
-11.744721 -22.154217 -13.447862 28.453345 1.083333 2.063067 0.094271 -0.027472 -363966.000000 0 0 1
-11.189721 -20.959617 -14.287562 27.724535 1.080421 2.112201 0.076822 -0.020817 -264268.000000 0 0 1
-11.182121 -19.799217 -13.489962 26.439136 1.056680 2.106245 0.081995 -0.023333 -84328.900000 0 0 1
-10.941421 -18.626517 -14.221062 25.863110 1.039685 2.152992 0.067399 -0.011136 -265516.000000 0 0 1
-10.447521 -17.573917 -13.227862 24.350967 1.034438 2.145060 0.085410 -0.014651 107471.000000 0 1 0
-11.413721 -17.025917 -12.294862 23.902270 0.980232 2.111081 0.087704 -0.027517 580778.000000 0 1 0
-10.874921 -15.971417 -11.499262 22.485175 0.973005 2.107627 0.077858 -0.029924 95828.500000 0 1 0
-10.492521 -14.665617 -12.228362 21.787753 0.949776 2.166691 0.074543 -0.011274 116164.000000 0 1 0
-11.595621 -13.957817 -12.755962 22.180930 0.877578 2.183507 0.078898 -0.004962 26603.000000 0 1 0
-11.789521 -14.101217 -14.138562 23.189137 0.874449 2.226486 0.096992 -0.011227 76567.100000 0 1 0
-13.036421 -13.414017 -14.788262 23.844849 0.799673 2.239777 0.092542 -0.012763 96629.800000 0 1 0
-12.955221 -12.004417 -14.687062 22.970711 0.747323 2.264491 0.069167 0.004936 -169936.000000 0 1 0
-13.874921 -11.296117 -15.453062 23.641337 0.683303 2.283188 0.071174 -0.006724 -406900.000000 0 1 0
-14.356921 -9.895317 -15.027262 23.018625 0.603466 2.282112 0.082309 -0.006198 62319.900000 0 1 0
-13.304921 -8.961617 -14.883162 21.882414 0.592757 2.318754 0.065517 -0.006278 132426.000000 0 1 0
-13.488421 -7.747017 -15.633062 22.053263 0.521342 2.358702 0.072380 -0.025160 -218301.000000 0 1 0
-12.288321 -6.803817 -15.486762 20.907763 0.505665 2.404935 0.048239 -0.018207 -209443.000000 0 1 0
-11.092321 -7.332117 -16.010662 20.812036 0.584075 2.448538 0.042699 -0.015250 -616490.000000 0 1 0
-10.071821 -6.430417 -15.787562 19.799974 0.568217 2.493692 0.024912 -0.004392 -459299.000000 0 1 0
12.008279 21.839383 15.765738 29.490946 1.068072 1.006767 0.097395 -0.021898 -54488.700000 0 0 1
12.883279 21.845883 16.881638 30.466558 1.037959 0.983510 0.116180 -0.025553 167944.000000 0 0 1
13.366879 20.518083 17.185838 29.916855 0.993390 0.958860 0.104703 -0.019833 619409.000000 0 0 1
14.542379 20.529283 18.227238 31.067096 0.954473 0.943812 0.106143 -0.029574 -172695.000000 0 0 1
15.772779 20.962083 17.769438 31.685050 0.925733 0.975427 0.085120 -0.019081 -322045.000000 0 0 1
16.796679 20.658983 18.764838 32.573626 0.888152 0.956878 0.089174 -0.026959 -1937.470000 0 0 1
18.108979 21.205683 18.242938 33.322978 0.864003 0.991473 0.063841 -0.008820 -2019070.000000 0 0 1
18.264179 22.581483 18.432638 34.398630 0.890705 1.005278 0.070351 -0.009666 990532.000000 0 0 1
19.571679 23.066083 18.071038 35.237157 0.867171 1.032306 0.059890 -0.004941 1397360.000000 0 0 1
20.903979 22.477883 18.610338 35.896744 0.821662 1.025770 0.054234 -0.006560 -437512.000000 0 0 1
21.183479 21.077783 18.330738 35.057505 0.782897 1.020575 0.053896 -0.002809 -950142.000000 0 0 1
22.477979 20.759783 18.688838 35.853881 0.745681 1.022481 0.062189 -0.001960 -869312.000000 0 0 1
22.723479 19.299283 18.532338 35.103652 0.704093 1.014633 0.055622 -0.006026 -317799.000000 0 0 1
22.625779 18.823083 17.219638 34.099124 0.693910 1.041429 0.035970 -0.003995 57594.200000 0 0 1
22.319979 17.422283 17.103138 33.079219 0.662780 1.027412 0.034961 -0.007500 -93534.500000 0 0 1
23.337679 16.436183 17.746838 33.611689 0.613590 1.014557 0.048454 -0.006962 -580430.000000 0 0 1
24.545179 16.495183 17.086838 34.154310 0.591709 1.046870 0.068943 -0.027742 -843673.000000 0 0 1
25.422179 15.417683 17.371138 34.434700 0.545160 1.042033 0.053745 -0.021447 -592560.000000 0 0 1
26.642579 15.533483 16.422238 34.940034 0.527850 1.081492 0.162228 -0.044503 -546442.000000 0 0 1
27.578479 16.566183 16.746238 36.269097 0.540928 1.090861 0.132194 -0.044148 441109.000000 0 0 1
28.528379 16.147383 17.718638 37.263340 0.515053 1.075266 0.146892 -0.051040 -282996.000000 0 0 1
29.783979 15.485283 17.101238 37.674019 0.479456 1.099629 0.152616 -0.065744 -85743.300000 0 0 1
30.572579 16.264783 16.170738 38.219347 0.488923 1.133929 0.192944 -0.055155 481457.000000 0 0 1
31.543779 15.683983 15.369638 38.434660 0.461416 1.159399 0.184788 -0.047736 358282.000000 0 0 1
30.793279 15.174383 14.084038 37.105903 0.457857 1.181472 0.147847 -0.048212 299380.000000 0 0 1
30.659279 16.094383 12.995238 36.985088 0.483403 1.211768 0.148721 -0.032473 -614444.000000 0 0 1
29.971379 15.527883 11.956538 35.810020 0.478015 1.230371 0.135532 -0.027759 -185332.000000 0 0 1
28.549079 16.125083 11.778538 34.839664 0.514150 1.225922 0.129629 -0.036160 -160552.000000 0 0 1
28.456879 17.541283 11.518438 35.357672 0.552403 1.238971 0.107964 -0.024541 -181330.000000 0 0 1
28.826079 18.410883 12.575138 36.442249 0.568382 1.218483 0.111413 -0.037140 -367004.000000 0 0 1
28.073779 18.366083 13.942038 36.329471 0.579327 1.176925 0.113822 -0.038682 454519.000000 0 0 1
26.840679 19.091583 13.950838 35.770609 0.618265 1.170156 0.105442 -0.028839 1020720.000000 0 0 1
26.110879 19.183483 15.219938 35.797074 0.633632 1.131644 0.084982 -0.033290 502537.000000 0 0 1
26.833979 20.073883 16.288138 37.260255 0.642269 1.118374 0.097810 -0.034622 -36479.200000 0 0 1
26.777279 21.497783 16.084638 37.919558 0.676468 1.132742 0.071677 -0.023834 -755138.000000 0 0 1
25.629579 22.110083 16.518038 37.663997 0.711809 1.116797 0.055347 -0.020944 -970045.000000 0 0 1
25.654679 23.643183 16.148938 38.444126 0.744618 1.137282 0.056082 -0.012935 -96580.800000 0 0 1
25.396879 23.912783 14.780938 37.885337 0.755310 1.170003 0.083340 -0.031700 43826.300000 0 0 1
25.575179 25.266583 14.433038 38.740193 0.779328 1.189030 0.098666 -0.031947 -192213.000000 0 0 1
25.260479 25.565183 12.943138 38.199413 0.791393 1.225122 0.103222 -0.033655 -18677.300000 0 0 1
23.883879 25.815483 12.724038 37.400267 0.824244 1.223653 0.095639 -0.026238 116209.000000 0 0 1
23.532379 25.847483 11.335538 36.747240 0.832247 1.257209 0.085312 -0.041927 -30762.200000 0 0 1
23.081679 24.488983 10.755838 35.329340 0.814973 1.261441 0.104387 -0.044916 42968.100000 0 0 1
21.712679 24.184883 11.053038 34.329559 0.839210 1.242988 0.108482 -0.040985 521625.000000 0 0 1
21.428679 22.791183 10.828938 33.104262 0.816200 1.237546 0.102768 -0.041052 -93924.100000 0 0 1
21.168879 22.438483 9.329738 32.228108 0.814504 1.277102 0.126692 -0.042327 -137503.000000 0 0 1
19.968979 22.946783 8.762438 31.655889 0.854674 1.290331 0.134649 -0.039919 298735.000000 0 0 1
20.187379 23.437883 7.479038 31.824529 0.859770 1.333569 0.121389 -0.035363 -145731.000000 0 0 1
18.919879 23.624383 6.617938 30.981775 0.895530 1.355530 0.112099 -0.028790 -1207350.000000 0 0 1
18.554779 22.469183 5.879838 29.727369 0.880528 1.371691 0.117182 -0.020088 -290161.000000 0 0 1
17.781979 22.685583 4.772138 29.216566 0.905984 1.406724 0.120300 -0.025436 -540703.000000 0 0 1
16.340679 23.220283 4.913138 28.815590 0.957575 1.399456 0.108059 -0.014725 -576306.000000 0 0 1
16.302679 24.543483 5.456538 29.965542 0.984478 1.387681 0.110160 -0.024002 208171.000000 0 0 1
15.002579 25.044983 5.772838 29.759943 1.031094 1.375579 0.101677 -0.027923 370052.000000 0 0 1
14.867679 26.535483 5.537538 30.916728 1.060084 1.390713 0.095567 -0.031156 -41632.700000 0 0 1
14.464579 26.830383 4.181638 30.766533 1.076351 1.434459 0.087426 -0.019009 332626.000000 0 0 1
14.431279 28.206483 3.980338 31.932907 1.097888 1.445824 0.085336 -0.024568 -365206.000000 0 0 1
13.909879 28.676183 2.620838 31.979321 1.119166 1.488750 0.089960 -0.021779 -134633.000000 0 0 1
14.650379 28.325483 1.421838 31.921595 1.093471 1.526240 0.109830 -0.027402 206810.000000 0 0 1
14.570279 26.984883 1.029838 30.684483 1.075708 1.537228 0.093364 -0.018422 -424182.000000 0 0 1
15.595279 26.597083 -0.019262 30.832092 1.040472 1.571421 0.088517 -0.022853 -193220.000000 0 0 1
15.328379 27.082983 -1.338962 31.148675 1.055769 1.613796 0.083288 -0.011929 -241422.000000 0 0 1
16.272779 26.504483 -2.213562 31.179974 1.020173 1.641849 0.082110 -0.015244 92202.000000 0 0 1
16.278679 27.060883 -3.653662 31.790502 1.029232 1.685980 0.086034 -0.029701 -859425.000000 0 0 1
15.252479 26.621183 -4.435162 30.999938 1.050508 1.714359 0.097947 -0.029955 -1136560.000000 0 0 1
15.480079 27.097383 -5.757462 31.734041 1.051765 1.753235 0.096043 -0.020005 -203821.000000 0 0 1
14.210679 27.093383 -6.583862 31.294441 1.087736 1.782764 0.114243 -0.036786 -352211.000000 0 0 1
13.758479 25.803083 -6.929462 30.051826 1.080934 1.803474 0.096148 -0.029639 -627738.000000 0 0 1
12.640579 25.880183 -7.765262 29.830645 1.116450 1.834141 0.075010 -0.036743 -427516.000000 0 0 1
12.049579 24.524183 -8.097862 28.499180 1.114105 1.858910 0.095356 -0.024057 102095.000000 0 0 1
12.771279 23.745383 -9.070862 28.446956 1.077335 1.895333 0.085172 -0.030533 298664.000000 0 0 1
12.173979 22.461683 -9.207662 27.157209 1.074125 1.916704 0.093601 -0.021298 171382.000000 0 0 1
12.519179 21.902583 -10.618062 27.371449 1.051533 1.969175 0.088811 -0.018263 60005.200000 0 0 1
12.117979 20.575483 -10.961362 26.274462 1.038540 2.001144 0.098278 -0.025008 -249839.000000 0 0 1
12.212279 20.224083 -12.351462 26.659181 1.027552 2.052523 0.088132 -0.024910 368370.000000 0 0 1
13.571279 19.696183 -12.906362 27.178915 0.967470 2.065609 0.098893 -0.009559 377955.000000 0 0 1
14.625579 20.633983 -12.840462 28.364525 0.954182 2.040581 0.087684 -0.012510 -688411.000000 0 0 1
15.802579 20.006283 -13.276962 28.744575 0.902256 2.050926 0.071090 -0.003529 -122761.000000 0 0 1
17.040679 20.901183 -13.027262 29.949186 0.886797 2.020811 0.087727 0.001778 -306982.000000 0 0 1
17.228879 22.022683 -13.815562 31.188180 0.906927 2.029710 0.074646 -0.004521 -27552.500000 0 0 1
16.245379 23.033483 -13.753962 31.362799 0.956526 2.024774 0.070256 -0.005533 -52205.800000 0 0 1
16.711679 24.312083 -14.515262 32.879331 0.968589 2.028033 0.070574 -0.002651 -175697.000000 0 0 1
17.007779 24.212583 -15.902062 33.591506 0.958438 2.063938 0.053261 -0.008096 -497060.000000 0 0 1
15.993479 24.506983 -16.829462 33.758175 0.992589 2.092699 0.041527 -0.000413 -515203.000000 0 0 1
16.375579 24.439883 -18.314862 34.654028 0.980465 2.127636 0.033225 0.004595 13120.800000 0 0 1
16.566579 23.083683 -18.704762 34.017291 0.948306 2.152993 0.036374 0.015753 -203105.000000 0 0 1
16.643379 23.054083 -20.117162 34.830920 0.945505 2.186541 0.036841 0.017575 -126806.000000 0 0 1
17.039679 21.698783 -20.776462 34.537649 0.905094 2.216249 0.051656 0.015487 267954.000000 0 0 1
16.000879 20.713183 -20.806862 33.436351 0.913052 2.242452 0.054375 0.019396 421564.000000 0 0 1
16.426479 19.642783 -21.622262 33.514032 0.874333 2.272043 0.056326 0.018681 534759.000000 0 0 1
15.498179 18.354783 -21.612962 32.314265 0.869581 2.303439 0.064031 0.010338 -438115.000000 0 0 1
15.272779 17.660483 -20.434862 31.027956 0.857773 2.289747 0.066247 0.007690 43403.900000 0 0 1
14.481679 16.482183 -20.477762 30.012000 0.849916 2.321727 0.081234 -0.007764 88407.000000 0 0 1
12.983279 16.785783 -20.703162 29.647074 0.912444 2.343845 0.096790 -0.019727 -1269720.000000 0 0 1
12.161479 16.918583 -19.634862 28.629842 0.947548 2.326523 0.082079 -0.014150 -207093.000000 0 0 1
10.899479 17.456483 -20.030362 28.718336 1.012643 2.342666 0.095353 -0.016179 477521.000000 0 0 1
9.685679 17.104783 -19.160262 27.449984 1.055559 2.343406 0.104920 -0.023773 -351003.000000 0 0 1
9.373379 15.694183 -19.348962 26.618602 1.032400 2.384588 0.127286 -0.033959 170931.000000 0 0 1
8.060479 15.314183 -18.987362 25.690766 1.086299 2.402490 0.110701 -0.025739 235303.000000 0 0 1
7.613779 15.311383 -17.495262 24.464102 1.109341 2.367621 0.105627 -0.028480 -84162.000000 0 1 0
7.473779 16.605583 -17.032462 24.934064 1.147879 2.322795 0.104793 -0.027793 -473223.000000 0 1 0
6.666579 16.716883 -15.897462 24.013054 1.191331 2.294326 0.083871 -0.032618 -118336.000000 0 1 0
6.310179 18.193583 -15.529462 24.738412 1.236943 2.249452 0.075460 -0.022809 756664.000000 0 1 0
7.421879 19.067583 -15.139662 25.453219 1.199599 2.207817 0.071822 -0.025233 819198.000000 0 0 1
7.810679 19.829983 -16.279962 26.819249 1.195575 2.223108 0.092615 -0.023869 91791.700000 0 0 1
9.037779 20.774383 -16.063962 27.772420 1.160449 2.187580 0.086386 -0.009997 302047.000000 0 0 1
8.909179 21.957983 -15.294562 28.203725 1.185354 2.143955 0.076876 -0.023991 -174846.000000 0 0 1
8.912179 21.761483 -13.902062 27.317694 1.182094 2.104707 0.065621 -0.013178 -277271.000000 0 0 1
8.421479 22.944983 -13.040162 27.702696 1.219032 2.060901 0.057605 -0.020375 -296169.000000 0 0 1
7.108579 23.327083 -13.412762 27.831401 1.275001 2.073651 0.047866 -0.017629 -32309.800000 0 0 1
6.581079 24.312783 -12.544362 28.138639 1.306447 2.032870 0.031428 -0.015800 408085.000000 0 0 1
5.918179 23.766883 -11.217162 26.939085 1.326750 2.000267 0.021956 -0.014790 -1079970.000000 0 0 1
6.872879 23.525583 -10.224362 26.556112 1.286562 1.966015 0.015896 -0.012398 -205745.000000 0 0 1
6.356179 22.968583 -9.025862 25.483779 1.300819 1.932834 0.035166 -0.022141 -219708.000000 0 0 1
7.444979 22.906983 -7.968562 25.370368 1.256556 1.890294 0.035649 -0.018995 -125423.000000 0 0 1
7.603479 24.097983 -7.210762 26.277762 1.265159 1.848768 0.026955 -0.019611 -296108.000000 0 0 1
8.582579 23.922783 -6.241062 26.170805 1.226337 1.811591 0.048028 -0.018742 -460343.000000 0 0 1
8.944979 25.133883 -5.434362 27.226035 1.228881 1.771748 0.036639 -0.013174 -278004.000000 0 0 1
9.570979 26.041483 -6.266162 28.443404 1.218592 1.792921 0.053142 -0.021348 -295491.000000 0 0 1
9.723679 27.301283 -5.542562 29.506439 1.228643 1.759761 0.051240 -0.015919 139512.000000 0 0 1
9.980179 28.505483 -6.469162 30.887159 1.234020 1.781804 0.052977 -0.018618 -115583.000000 0 0 1
11.173779 28.595283 -7.197762 31.533337 1.198284 1.801085 0.064856 -0.023022 -593172.000000 0 0 1
11.207979 29.871983 -7.778162 32.839823 1.211850 1.809920 0.060925 -0.016096 105176.000000 0 0 1
12.547879 30.224283 -8.430762 33.793998 1.177291 1.822935 0.083777 -0.027062 767845.000000 0 0 1
13.743279 30.196283 -7.636262 34.044173 1.143683 1.797026 0.084531 -0.017451 69880.200000 0 0 1
14.827879 30.733683 -8.335562 35.127010 1.121276 1.810380 0.079853 -0.020429 338342.000000 0 0 1
16.083679 30.980083 -7.443862 35.691194 1.091937 1.780902 0.081897 -0.020792 -23653.600000 0 0 1
16.766179 29.875183 -6.976462 34.961441 1.059389 1.771692 0.079413 -0.020921 -595765.000000 0 0 1
17.881779 30.364383 -6.267462 35.791547 1.038574 1.746814 0.077707 -0.014234 13559.400000 0 0 1
19.039279 29.384883 -6.027862 35.528870 0.995879 1.741282 0.075135 -0.017422 -255980.000000 0 0 1
18.830779 28.461883 -4.978162 34.488536 0.986300 1.715645 0.082925 -0.023766 -957718.000000 0 0 1
19.958179 27.753983 -4.643562 34.498915 0.947359 1.705806 0.070757 -0.020300 -1017900.000000 0 0 1
20.194779 26.420483 -5.499762 33.706355 0.918168 1.734696 0.072261 -0.012018 -346776.000000 0 0 1
20.458979 26.745683 -6.809062 34.354981 0.917799 1.770315 0.057870 -0.011213 9329.630000 0 0 1
20.381779 25.667983 -7.740762 33.677614 0.899691 1.802719 0.062284 -0.017987 -1092380.000000 0 0 1
21.008079 25.937983 -9.107962 34.598747 0.890027 1.837181 0.055130 -0.020660 1773090.000000 0 0 1
22.461779 26.133483 -9.175862 35.660719 0.860812 1.831034 0.051136 -0.014149 1537250.000000 0 0 1
23.130279 24.918283 -9.022262 35.175728 0.822593 1.830186 0.061464 -0.014005 -279764.000000 0 0 1
24.682879 25.093083 -8.959862 36.320607 0.793639 1.820058 0.022160 -0.000137 742509.000000 0 0 1
25.291879 25.255883 -10.227462 37.177140 0.784686 1.849491 0.033707 -0.001024 263596.000000 0 0 1
26.716479 25.295383 -10.137662 38.162794 0.758082 1.839667 0.028778 0.010064 779539.000000 0 0 1
27.361179 25.387883 -11.536862 39.067607 0.748006 1.870571 0.036586 0.005625 -55990.700000 0 0 1
27.426679 26.670083 -12.175962 40.146857 0.771413 1.878935 0.029655 0.003773 -266268.000000 0 0 1
28.107079 26.489583 -13.386562 40.876716 0.755781 1.904438 0.046024 0.002492 6225.540000 0 0 1
27.889579 27.580683 -14.487662 41.814053 0.779830 1.924611 0.053314 -0.005460 110681.000000 0 0 1
28.404479 28.900383 -14.244462 42.952896 0.794052 1.908827 0.051795 -0.002058 108288.000000 0 0 1
28.368379 29.701783 -15.377162 43.856789 0.808356 1.929032 0.053290 -0.003590 -345853.000000 0 0 1
28.743979 31.150583 -15.143762 45.010095 0.825557 1.913944 0.059451 -0.009459 -261444.000000 0 0 1
30.023079 31.309883 -14.590562 45.766566 0.806376 1.895264 0.054645 -0.010483 -134274.000000 0 0 1
30.429479 32.671783 -14.736062 47.016488 0.820918 1.889592 0.051852 -0.015718 3606.330000 0 0 1
16.072679 -32.107542 -28.142807 45.620640 -1.106678 2.235578 0.101303 -0.037315 -222017.000000 0 0 1
17.129479 -32.806442 -27.532997 46.127514 -1.089596 2.210414 0.086996 -0.031625 87581.700000 0 0 1
17.596579 -32.092342 -26.394627 45.124653 -1.069251 2.195586 0.091674 -0.038559 -586376.000000 0 0 1
18.834479 -32.601542 -25.657227 45.561951 -1.046922 2.168963 0.044569 -0.031905 -163728.000000 0 0 1
20.106379 -32.260442 -26.145207 46.136476 -1.013455 2.173283 0.076914 -0.047989 229776.000000 0 0 1
20.569679 -32.751442 -27.445727 47.424008 -1.010004 2.187968 0.078430 -0.035361 1073100.000000 0 0 1
22.123279 -32.454342 -27.655097 48.036738 -0.972476 2.184265 0.094373 -0.038592 1433660.000000 0 0 1
22.370179 -31.100642 -27.939347 47.416051 -0.947245 2.200912 0.094108 -0.046059 103437.000000 0 0 1
23.736979 -30.804042 -27.732167 47.764069 -0.914254 2.190271 0.062230 -0.034815 -91919.000000 0 0 1
24.253679 -29.536642 -28.396007 47.612891 -0.883298 2.209797 0.046546 -0.034754 -375056.000000 0 0 1
24.777679 -29.835642 -29.622267 48.801410 -0.877749 2.223072 0.051302 -0.031015 -229349.000000 0 0 1
25.096679 -28.635542 -30.296357 48.659088 -0.851164 2.242889 0.047745 -0.032373 52087.900000 0 0 1
25.517979 -28.796942 -31.764907 49.894293 -0.845694 2.260935 0.050733 -0.026646 71134.100000 0 0 1
26.700779 -29.515842 -32.016677 51.080174 -0.835432 2.248226 0.052654 -0.033863 -278911.000000 0 0 1
26.796479 -29.695542 -33.452507 52.143520 -0.836671 2.267309 0.047548 -0.030449 802590.000000 0 0 1
28.054279 -30.518342 33.928358 53.568136 -0.827442 0.884898 0.031728 -0.021716 2135390.000000 0 0 1
29.271979 -29.735542 33.752634 53.668347 -0.793254 0.890644 0.026800 -0.026061 1729920.000000 0 0 1
30.448279 -30.543342 33.515866 54.619655 -0.786957 0.910156 0.020920 -0.009924 781511.000000 0 0 1
31.780879 -29.805442 33.485109 54.951262 -0.753333 0.915543 0.026675 -0.024264 -319205.000000 0 0 1
31.885279 -28.758242 32.510213 53.857418 -0.733880 0.922744 0.034107 -0.023358 -256604.000000 0 0 1
33.204979 -28.387842 32.210692 54.276780 -0.707348 0.935455 0.034241 -0.027224 -429555.000000 0 0 1
33.279079 -27.171342 31.268248 53.136449 -0.684703 0.941653 0.042829 -0.031328 77407.900000 0 0 1
34.616379 -26.860942 30.898578 53.614606 -0.659910 0.956591 0.029737 -0.034932 579576.000000 0 0 1
34.597779 -25.679242 30.130538 52.576412 -0.638505 0.960536 0.038700 -0.028447 -180350.000000 0 0 1
35.236079 -25.920242 28.725388 52.331521 -0.634232 0.989735 0.038778 -0.018799 -56662.500000 0 0 1
34.679579 -26.944442 27.920258 52.040532 -0.660530 1.004500 0.030131 -0.026168 -287009.000000 0 0 1
33.332879 -26.884042 27.543348 50.916290 -0.678711 0.999226 0.032067 -0.024114 -867196.000000 0 0 1
32.854779 -28.028342 26.679508 50.762394 -0.706290 1.017404 0.014887 -0.021959 -44741.600000 0 0 1
31.749579 -27.594742 25.893218 49.395995 -0.715500 1.019025 0.025376 -0.018035 295743.000000 0 0 1
31.134079 -28.660342 25.204738 49.254694 -0.744051 1.033608 0.036599 -0.015371 245115.000000 0 0 1
29.785779 -28.360042 24.491378 47.867653 -0.760883 1.033695 0.040541 -0.010050 274177.000000 0 0 1
28.688379 -28.157942 25.355268 47.526649 -0.776067 1.008068 0.049525 -0.008885 -33466.600000 0 0 1
27.531779 -27.887842 24.576928 46.257496 -0.791823 1.010654 0.069388 -0.003351 -16773.800000 0 0 1
26.226679 -27.782742 25.353238 45.853093 -0.814201 0.984928 0.088190 -0.009872 -337237.000000 0 0 1
26.114879 -26.663042 26.210398 45.605807 -0.795784 0.958539 0.087026 -0.009297 -348317.000000 0 0 1
24.900779 -26.636242 26.921698 45.324563 -0.819060 0.934804 0.109531 -0.015832 -118948.000000 0 0 1
24.842279 -25.580542 28.042148 45.363697 -0.800039 0.904393 0.109327 -0.015885 392773.000000 0 0 1
23.602179 -25.524042 28.767158 45.123042 -0.824499 0.879512 0.106062 -0.011662 726378.000000 0 0 1
23.568779 -24.420442 29.689728 45.092408 -0.803143 0.852079 0.100402 -0.007212 -110084.000000 0 0 1
22.932979 -23.093042 29.147308 43.689537 -0.788876 0.840425 0.093316 -0.005697 -65209.500000 0 0 1
23.753379 -22.493042 28.144068 43.153777 -0.758152 0.860339 0.111500 -0.009053 381786.000000 0 0 1
23.501079 -21.103942 28.016418 42.220809 -0.731708 0.845217 0.111692 -0.005944 66077.500000 0 0 1
24.263079 -20.055842 28.922438 42.748581 -0.690751 0.827701 0.105939 -0.003405 8129.110000 0 0 1
23.798379 -20.004242 30.247038 43.375291 -0.698995 0.799126 0.111953 0.000671 74691.900000 0 0 1
24.508179 -19.059642 31.013168 43.883224 -0.660985 0.785945 0.089532 0.004825 -251394.000000 0 0 1
23.837779 -18.804042 32.365312 44.377304 -0.667895 0.753467 0.096318 0.004034 -77235.800000 0 0 1
23.986179 -19.869542 33.272933 45.576568 -0.691805 0.752409 0.081137 -0.000154 418883.000000 0 0 1
23.359079 -19.479742 -33.357367 45.142229 -0.695088 2.402291 0.092058 -0.005214 122700.000000 0 0 1
23.331279 -20.610942 -32.368787 44.909886 -0.723570 2.375680 0.069126 -0.004071 781585.000000 0 0 1
24.610079 -20.848942 -31.747137 45.257210 -0.702849 2.348272 0.053025 0.001217 577987.000000 0 0 1
24.571179 -21.758742 -30.665557 44.917280 -0.724768 2.322264 0.057235 -0.011684 304158.000000 0 0 1
25.966779 -22.147342 -30.104107 45.508632 -0.706181 2.293618 0.057896 -0.007109 51294.100000 0 0 1
26.701779 -23.075242 -30.846517 46.871733 -0.712671 2.289095 0.049372 -0.002488 -333081.000000 0 0 1
27.766279 -23.455142 -29.999257 47.128180 -0.701429 2.260808 0.053497 -0.014386 -755708.000000 0 0 1
29.032479 -24.125042 -30.497877 48.528579 -0.693340 2.250358 0.047523 -0.019398 -535722.000000 0 0 1
29.939979 -23.303342 -31.227857 49.138856 -0.661390 2.259455 0.048244 -0.008728 170604.000000 0 0 1
29.649479 -23.167242 -32.607197 49.789979 -0.663278 2.284840 0.050370 -0.007140 -145611.000000 0 0 1
29.930779 -24.438842 -33.392867 51.070462 -0.684728 2.283470 0.046541 -0.013728 -369468.000000 0 0 1
28.961779 -25.420342 -33.181047 50.852338 -0.720369 2.281672 0.055589 -0.018421 -312254.000000 0 0 1
29.194879 -26.605042 33.905958 52.055578 -0.739019 0.861445 0.047363 -0.015302 55018.900000 0 0 1
28.668479 -26.667642 32.414892 50.830798 -0.749256 0.879285 0.053196 -0.022162 -171418.000000 0 0 1
29.438379 -25.911542 31.529518 50.320340 -0.721765 0.893644 0.040212 -0.025344 -210854.000000 0 0 1
29.231879 -26.216542 30.162968 49.513780 -0.731071 0.915766 0.044686 -0.016087 -335438.000000 0 0 1
30.458379 -25.776442 29.334658 49.524337 -0.702333 0.936851 0.040605 -0.015585 -384629.000000 0 0 1
30.760279 -24.376642 29.155148 48.892107 -0.670133 0.931892 0.047317 -0.014695 230026.000000 0 0 1
30.984079 -23.620142 30.397148 49.415694 -0.651347 0.908244 0.041147 -0.013220 -824374.000000 0 0 1
31.506879 -22.141642 30.214538 48.947462 -0.612573 0.905509 0.040212 0.000632 257306.000000 0 0 1
32.827679 -21.751442 29.935198 49.466128 -0.585178 0.920822 0.052693 -0.012214 40624.500000 0 0 1
33.812079 -22.116942 30.875078 50.849643 -0.579262 0.918285 0.039125 -0.008264 -1056970.000000 0 0 1
35.204879 -21.647942 30.538968 51.387211 -0.551313 0.934412 0.025868 -0.005591 -1040960.000000 0 0 1
35.763279 -22.187342 29.410668 51.344695 -0.555281 0.960868 0.042022 -0.014565 279963.000000 0 0 1
36.985279 -21.556242 29.037308 51.727630 -0.527701 0.974780 0.034468 -0.012034 325831.000000 0 0 1
-37.186854 -21.815142 27.612048 51.197536 0.530535 1.001162 0.055976 -0.015507 -186328.000000 0 0 1
-36.744854 -23.141042 27.411468 51.352514 0.562027 1.007720 0.041395 -0.009992 276473.000000 0 0 1
-36.440754 -23.362442 26.014208 50.502191 0.570098 1.029660 0.039076 -0.001086 126948.000000 0 0 1
-36.145954 -24.853542 25.617848 50.798648 0.602347 1.042223 0.039831 -0.020902 793031.000000 0 0 1
37.304679 -25.633442 25.766068 52.082652 -0.602041 1.053290 0.041487 -0.020933 871553.000000 0 0 1
-37.329154 -27.015542 25.397338 52.614922 0.626463 1.067059 0.034026 -0.015492 -42822.900000 0 0 1
-36.414154 -27.907242 26.265748 52.864868 0.653905 1.050835 0.026507 -0.015892 -1058430.000000 0 0 1
-36.449154 -29.277042 25.733688 53.365801 0.676707 1.067617 0.039629 -0.019132 602761.000000 0 0 1
-35.456454 -30.170342 26.298218 53.469673 0.705024 1.056601 0.048839 -0.021750 1847590.000000 0 0 1
-33.974554 -29.648742 26.032918 52.067562 0.717512 1.047217 0.052897 -0.018938 -286384.000000 0 0 1
-33.454154 -29.853242 24.744348 51.212100 0.728580 1.066520 0.058056 -0.022436 -815787.000000 0 0 1
-32.201054 -29.267442 24.713698 50.042561 0.737709 1.054280 0.035361 -0.018567 -849120.000000 0 0 1
-31.550354 -29.152042 23.346558 48.890982 0.745909 1.072963 0.043655 -0.014871 -334522.000000 0 0 1
-31.306154 -30.424642 22.792738 49.246756 0.771119 1.089614 0.050839 -0.016086 348385.000000 0 0 1
-30.885954 -30.381142 21.453338 48.344613 0.777159 1.111008 0.043991 -0.014679 -680086.000000 0 0 1
-30.807554 -31.863542 20.972838 49.033158 0.802246 1.128819 0.060613 -0.019505 -133770.000000 0 0 1
-29.783054 -32.704842 21.436938 49.154647 0.832122 1.119523 0.066808 -0.031655 -153532.000000 0 0 1
-28.502854 -32.440342 20.906938 47.978000 0.849918 1.119913 0.077999 -0.030530 -374437.000000 0 0 1
-27.636854 -33.691042 20.742338 48.261025 0.883798 1.126531 0.067037 -0.020342 -420820.000000 0 0 1
-27.914554 33.250683 19.667338 47.661666 -0.872419 1.145441 0.061389 -0.016122 9047.120000 0 0 1
-29.155654 32.568283 19.654538 47.927508 -0.840630 1.148245 0.072142 -0.017905 147436.000000 0 0 1
-29.328154 31.400783 20.698238 47.692419 -0.819514 1.121875 0.079972 -0.012625 236801.000000 0 0 1
-28.401554 30.333583 20.449638 46.313737 -0.818280 1.113475 0.068167 -0.017081 276548.000000 0 0 1
-28.476154 29.335283 21.454538 46.170850 -0.800258 1.087526 0.057447 -0.016150 147202.000000 0 0 1
-27.412354 28.207083 21.321738 44.740286 -0.799686 1.074051 0.056179 -0.009126 -93665.600000 0 0 1
-26.075554 28.640483 21.477238 44.288639 -0.832241 1.064504 0.055917 -0.003809 77598.100000 0 0 1
-25.244554 27.658883 20.882038 42.876110 -0.831003 1.062108 0.039743 -0.007662 -878627.000000 0 0 1
-23.752454 27.849783 21.011038 42.204895 -0.864634 1.049697 0.026958 -0.000795 -719642.000000 0 0 1
-23.325354 27.931883 22.420138 42.742541 -0.875028 1.018623 0.036076 -0.001506 694233.000000 0 0 1
-21.971354 28.364683 22.475938 42.337494 -0.911735 1.011163 0.067599 -0.008790 278218.000000 0 0 1
-21.262054 28.395283 23.830708 42.734876 -0.928071 0.979255 0.047727 -0.004062 -479154.000000 0 0 1
-21.131954 27.146983 24.527618 42.250706 -0.909349 0.951422 0.069464 -0.014330 422218.000000 0 0 1
-20.816054 27.298783 25.915208 43.013133 -0.919326 0.924173 0.070434 -0.015876 1046740.000000 0 0 1
-19.322954 27.712283 26.279258 42.801245 -0.961905 0.909699 0.090766 -0.018086 665329.000000 0 0 1
-19.018654 29.084083 26.074858 43.445267 -0.991671 0.927074 0.060802 -0.011084 504901.000000 0 0 1
-17.712254 29.530183 26.436828 43.412688 -1.030523 0.916041 0.078287 -0.010176 168871.000000 0 0 1
-17.586654 29.813283 27.990908 44.515313 -1.037841 0.890797 0.070429 -0.004058 -337555.000000 0 0 1
-17.528454 28.577483 28.613858 44.075754 -1.020607 0.864268 0.089985 -0.012170 107780.000000 0 0 1
-17.710554 28.662283 29.994278 45.109277 -1.017316 0.843403 0.067919 -0.004316 -221310.000000 0 0 1
-17.394054 27.403283 30.861218 44.787362 -1.005221 0.810604 0.078003 -0.008197 885443.000000 0 0 1
-15.988254 27.365683 31.199498 44.473740 -1.042042 0.793259 0.076542 -0.002729 1081880.000000 0 0 1
-15.610754 26.329383 32.055558 44.322577 -1.035612 0.762324 0.092689 -0.010470 -59196.500000 0 0 1
-16.017054 26.543683 33.554301 45.683741 -1.027864 0.745880 0.088846 -0.011802 -160107.000000 0 0 1
-17.367054 26.216083 33.774388 46.147663 -0.985713 0.749725 0.086584 -0.017578 -461072.000000 0 0 1
-17.897254 26.880083 -33.022737 46.188220 -0.983381 2.367363 0.083626 -0.021471 113423.000000 0 0 1
-19.271554 26.378483 -32.498517 46.080047 -0.939841 2.353589 0.067883 -0.017925 345194.000000 0 0 1
-20.274354 26.515483 -33.496267 47.287632 -0.918002 2.357956 0.055778 -0.014923 -224332.000000 0 0 1
-21.500054 26.013683 -33.020407 47.215583 -0.880110 2.345290 0.059665 -0.018102 -424171.000000 0 0 1
-22.623854 26.054683 33.818637 48.315478 -0.855761 0.795463 0.062615 -0.029297 -507478.000000 0 0 1
-22.573054 25.070083 32.789276 47.044537 -0.837761 0.799614 0.073411 -0.026443 -41579.600000 0 0 1
-22.950454 23.782983 33.215412 46.857413 -0.803211 0.782914 0.072962 -0.027820 -208104.000000 0 0 1
-23.235954 22.740383 32.065782 45.664526 -0.774620 0.792309 0.076750 -0.030231 643997.000000 0 0 1
-24.542454 22.983483 31.535548 46.098409 -0.752607 0.817438 0.069942 -0.027594 319404.000000 0 0 1
-24.741754 22.158283 30.367908 45.003930 -0.730369 0.830125 0.096446 -0.036283 468951.000000 0 0 1
-26.186254 22.105283 29.776878 45.398523 -0.701091 0.855422 0.073360 -0.024317 595660.000000 0 0 1
-26.867954 20.955383 30.246238 45.561496 -0.662389 0.844834 0.088806 -0.025184 -247654.000000 0 0 1
-28.049054 20.688483 29.540338 45.688011 -0.635506 0.867721 0.069598 -0.020109 -342990.000000 0 0 1
-28.644354 19.317683 29.869148 45.670974 -0.593336 0.857927 0.088190 -0.015205 -348524.000000 0 0 1
-29.084154 19.170483 31.208418 46.769229 -0.582773 0.840238 0.080513 -0.017825 42783.300000 0 0 1
-29.134854 17.857183 31.743308 46.640715 -0.549862 0.822226 0.075901 -0.012115 394635.000000 0 0 1
-30.246754 16.932683 31.141258 46.597852 -0.510350 0.838878 0.054487 -0.009932 1748980.000000 0 0 1
-31.655854 17.178483 31.401638 47.783430 -0.497193 0.853744 0.056875 -0.008765 1262970.000000 0 0 1
-32.468654 16.106683 30.976218 47.677718 -0.460498 0.863606 0.069645 0.002580 -233599.000000 0 0 1
-33.938954 16.501583 31.158038 48.938514 -0.452558 0.880615 0.062325 0.000797 -544463.000000 0 0 1
-34.448354 16.561783 32.463862 50.148620 -0.448147 0.866690 0.057006 -0.000190 128123.000000 0 0 1
-35.838454 16.468983 32.663008 51.210294 -0.430754 0.879130 0.068350 -0.010064 -98550.200000 0 0 1
-36.170054 16.760283 -33.706467 52.204462 -0.433920 2.272687 0.057929 -0.013173 -317116.000000 0 0 1
37.106479 16.848283 -33.515607 52.764110 0.426219 2.259060 0.056098 -0.013920 -390985.000000 0 0 1
36.809879 17.671683 -32.416107 52.135013 0.447585 2.241800 0.045063 -0.015716 787032.000000 0 0 1
35.250779 17.807183 -32.391897 51.077864 0.467765 2.257727 0.063557 -0.021366 617089.000000 0 0 1
34.559179 16.578183 -32.252277 50.093736 0.447280 2.270301 0.075567 -0.014305 -62468.000000 0 0 1
33.182079 16.884583 -32.152617 49.192787 0.470700 2.283133 0.087472 -0.018102 41725.700000 0 0 1
32.227579 15.648483 -32.106777 48.107557 0.452031 2.301503 0.091505 -0.017192 126506.000000 0 0 1
31.581379 15.331483 -33.303607 48.389752 0.451948 2.329852 0.093196 -0.024824 116864.000000 0 0 1
30.816879 14.094283 -33.214687 47.450440 0.428954 2.346175 0.093285 -0.031225 651250.000000 0 0 1
31.600979 12.725883 -33.378937 47.694060 0.382836 2.345991 0.091786 -0.027240 444906.000000 0 0 1
32.481979 12.435183 -32.297237 47.463926 0.365620 2.319185 0.092699 -0.029337 212554.000000 0 0 1
33.124379 11.167383 -32.505677 47.734201 0.325168 2.319886 0.090550 -0.026133 119568.000000 0 0 1
17.979979 -21.233817 9.408813 29.371422 -0.868185 1.244709 0.024800 -0.011476 -1465.760000 0 0 1
17.727679 -22.358217 10.234113 30.313324 -0.900404 1.226419 0.019731 -0.012363 662959.000000 0 0 1
18.936079 -23.076617 10.520813 31.651112 -0.883635 1.231950 0.016931 -0.018420 524579.000000 0 0 1
18.590679 -24.439117 11.227413 32.694627 -0.920486 1.220259 0.026410 -0.013152 366301.000000 0 0 1
17.906679 -25.465757 10.458213 32.840953 -0.957948 1.246702 0.032802 -0.019079 1075570.000000 0 0 1
16.498879 -25.459237 10.763913 32.190800 -0.995793 1.229851 0.030632 -0.020863 685222.000000 0 0 1
15.641379 -26.375217 9.892213 32.220502 -1.035515 1.258740 0.046428 -0.028903 -127785.000000 0 0 1
15.607079 -25.888967 8.550213 31.415374 -1.028286 1.295152 0.058393 -0.030662 265380.000000 0 0 1
14.699879 -26.653447 7.750213 31.409529 -1.066788 1.321474 0.074840 -0.032504 110133.000000 0 0 1
14.505279 -26.033387 6.327813 30.466073 -1.062457 1.361573 0.081481 -0.028396 -191175.000000 0 0 1
13.775679 -24.837717 6.502013 29.136879 -1.064407 1.345747 0.088840 -0.031895 -18921.800000 0 0 1
13.553479 -24.113917 5.333513 28.171336 -1.058741 1.380323 0.095593 -0.024110 -16768.600000 0 0 1
12.861979 -22.684217 5.652013 26.682382 -1.054994 1.357354 0.105721 -0.030440 107843.000000 0 0 1
12.165879 -22.096717 4.594213 25.639429 -1.067512 1.390638 0.099563 -0.025392 -407765.000000 0 0 1
11.254779 -21.118917 5.000413 24.447553 -1.081158 1.364806 0.095684 -0.027730 -299450.000000 0 1 0
10.489179 -20.490817 3.834313 23.336633 -1.097677 1.405743 0.084718 -0.027559 -240517.000000 0 1 0
11.251679 -19.783617 2.890413 22.942238 -1.053681 1.444474 0.066914 -0.022273 -184193.000000 0 1 0
10.425679 -19.349117 1.833713 22.055513 -1.076578 1.487559 0.045704 -0.015774 398702.000000 0 1 0
11.289679 -18.957317 0.597213 22.072458 -1.033669 1.543736 0.043276 -0.009979 33975.100000 0 1 0
11.893579 -17.743717 0.787213 21.375604 -0.980284 1.533960 0.036142 -0.013285 -504779.000000 0 1 0
12.650579 -17.412417 -0.357787 21.525739 -0.942488 1.587418 0.047883 -0.015055 -484317.000000 0 1 0
13.880479 -16.569817 -0.029287 21.615444 -0.873489 1.572151 0.045961 -0.006802 -593625.000000 0 1 0
14.916679 -17.305317 0.539613 22.853283 -0.859393 1.547182 0.053241 -0.012447 -493732.000000 0 1 0
16.101079 -16.558617 0.705013 23.106917 -0.799407 1.540281 0.060391 -0.023242 42123.600000 0 1 0
17.251879 -17.336517 1.330613 24.493932 -0.787845 1.516445 0.054853 -0.009590 -164616.000000 0 1 0
17.730879 -18.445117 0.579713 25.591845 -0.805139 1.548142 0.067687 -0.015448 566838.000000 0 0 1
19.078879 -18.842417 0.837013 26.827988 -0.779163 1.539592 0.064403 -0.007873 730428.000000 0 0 1
19.384379 -20.214617 0.202313 28.007604 -0.806361 1.563573 0.049357 -0.002976 -142247.000000 0 0 1
18.905879 -21.341417 0.865413 28.524329 -0.845839 1.540452 0.061750 0.000102 -275877.000000 0 0 1
18.788779 -22.427217 -0.012487 29.257452 -0.873447 1.571223 0.060362 -0.007947 205547.000000 0 0 1
17.660479 -23.445917 0.371513 29.355436 -0.925223 1.558140 0.056940 -0.009839 250737.000000 0 0 1
17.911779 -24.408117 1.431913 30.309048 -0.937715 1.523535 0.044124 -0.004255 31620.200000 0 0 1
16.755779 -25.097907 1.874713 30.235338 -0.982136 1.508752 0.057416 -0.009410 -413177.000000 0 0 1
17.079779 -25.993027 3.125613 31.259012 -0.989452 1.470638 0.049816 -0.013355 451520.000000 0 0 1
18.105979 -26.970847 2.913313 32.615035 -0.979581 1.481353 0.042964 -0.013885 999164.000000 0 0 1
19.365879 -26.469407 3.393013 32.972403 -0.939154 1.467709 0.050470 -0.009294 690901.000000 0 0 1
20.485579 -27.565727 3.575613 34.529890 -0.931691 1.467059 0.073655 -0.009652 448345.000000 0 0 1
20.811079 -28.108357 2.352513 35.053033 -0.933476 1.503633 0.072527 -0.011091 -59189.800000 0 0 1
21.765979 -29.173017 2.361813 36.474662 -0.929796 1.505999 0.102327 -0.013789 360462.000000 0 0 1
21.304879 -30.587267 2.877013 37.386575 -0.962405 1.493767 0.097810 -0.019991 -146316.000000 0 0 1
21.290579 -30.709357 4.303013 37.614749 -0.964586 1.456148 0.097896 -0.019196 -59356.700000 0 0 1
20.340779 -31.715527 4.589013 37.956304 -1.000525 1.449597 0.100273 -0.035811 25869.400000 0 0 1
20.109479 -31.955647 6.088113 38.244211 -1.009116 1.410926 0.111176 -0.039248 246734.000000 0 0 1
21.139779 -32.786977 6.648713 39.573748 -0.998113 1.401988 0.107699 -0.048405 727080.000000 0 0 1
20.690379 -33.409697 7.872913 40.078454 -1.016312 1.373073 0.100938 -0.042365 75646.700000 0 0 1
21.795179 33.588703 8.531613 40.939214 0.995206 1.360861 0.100231 -0.045012 271884.000000 0 0 1
22.803879 -33.562657 9.249013 41.617462 -0.974001 1.346686 0.110565 -0.047123 -1425.680000 0 0 1
23.928579 33.483238 9.527713 42.243123 0.950310 1.343294 0.112425 -0.053576 -4631.020000 0 0 1
25.000479 -33.664747 10.418613 43.207484 -0.932028 1.327266 0.102508 -0.049032 150831.000000 0 0 1
25.844179 -32.758037 9.686213 42.834955 -0.902835 1.342695 0.087222 -0.044724 585318.000000 0 0 1
26.635079 -31.944847 10.566713 42.913357 -0.875793 1.322004 0.073640 -0.041757 284526.000000 0 0 1
27.442779 -30.819267 9.838813 42.423291 -0.843287 1.336745 0.066218 -0.042203 71184.300000 0 0 1
26.711579 -29.671557 9.364013 41.007250 -0.837848 1.340414 0.057213 -0.042586 169205.000000 0 0 1
27.373579 -29.149437 8.228413 40.825352 -0.816806 1.367855 0.065403 -0.037174 -40025.100000 0 0 1
26.868979 -27.715177 7.931813 39.407953 -0.800900 1.368138 0.049945 -0.031007 -228880.000000 0 0 1
27.236879 -26.781477 8.940613 39.230469 -0.776968 1.340876 0.046204 -0.035969 -44296.300000 0 0 1
26.577279 -25.534427 8.974813 37.932915 -0.765389 1.331934 0.035400 -0.022897 -141097.000000 0 0 1
27.235279 -24.610617 10.064013 38.062151 -0.734817 1.303204 0.051710 -0.038069 4700.910000 0 0 1
28.441179 -24.087317 9.580413 38.482254 -0.702701 1.319193 0.077056 -0.036213 -767579.000000 0 0 1
29.150179 -23.375117 10.551813 38.826149 -0.675890 1.295564 0.058443 -0.038583 487383.000000 0 0 1
30.577679 -23.002417 10.018513 39.553461 -0.644947 1.314716 0.085117 -0.036515 716322.000000 0 0 1
30.563979 -22.137117 8.904913 38.775073 -0.626841 1.339073 0.103837 -0.032061 209879.000000 0 0 1
31.867379 -22.178717 8.321113 39.707258 -0.608016 1.359670 0.109542 -0.034773 646524.000000 0 0 1
31.940879 -21.300717 7.008013 39.026306 -0.588150 1.390245 0.109251 -0.022567 -97567.400000 0 0 1
31.704679 -19.891617 7.231013 38.120214 -0.560326 1.379950 0.110626 -0.021834 -51521.400000 0 0 1
32.027579 -19.108817 6.100413 37.790578 -0.537943 1.408660 0.105628 -0.023891 126714.000000 0 0 1
31.625979 -17.643517 6.209013 36.743001 -0.508873 1.400997 0.120765 -0.014342 681932.000000 0 0 1
32.503379 -17.055017 7.187913 37.403334 -0.483224 1.377420 0.134879 -0.016754 418834.000000 0 0 1
32.093979 -15.738717 7.392313 36.501740 -0.455934 1.366866 0.135422 -0.017157 -181858.000000 0 0 1
32.763779 -15.099217 8.596013 37.085618 -0.431841 1.336881 0.137625 -0.037007 109326.000000 0 0 1
34.167579 -15.012117 8.445513 38.263741 -0.413977 1.348245 0.133902 -0.030235 -203807.000000 0 0 1
34.781279 -14.529317 9.615413 38.901088 -0.395700 1.321032 0.123487 -0.036569 1521690.000000 0 0 1
36.362779 -14.721417 9.624513 40.393107 -0.384679 1.330211 0.111867 -0.041964 1798560.000000 0 0 1
37.112779 -13.793217 8.801313 40.559516 -0.355836 1.352059 0.125216 -0.032150 1116060.000000 0 0 1
-36.144854 -14.082317 8.937513 39.807553 0.371516 1.344348 0.118849 -0.028805 950413.000000 0 0 1
-35.401254 -13.145117 7.949913 38.590725 0.355539 1.363305 0.129826 -0.040670 -419282.000000 0 0 1
-35.660354 -13.305017 6.562413 38.623175 0.357107 1.400059 0.165825 -0.051477 11117.500000 0 0 1
-34.613954 -12.772617 5.793613 37.347444 0.353502 1.415040 0.139900 -0.038648 934031.000000 0 0 1
-33.382654 -13.729117 5.502213 36.512527 0.390180 1.419526 0.104961 -0.027480 677857.000000 0 0 1
-32.607254 -14.023417 6.654713 36.113356 0.406158 1.385464 0.122348 -0.027678 240347.000000 0 0 1
-31.591854 -14.977117 6.376313 35.538946 0.442699 1.390402 0.121241 -0.010988 192074.000000 0 0 1
-31.203454 -15.799817 7.601713 35.792120 0.468713 1.356781 0.103827 -0.026951 -44984.600000 0 0 1
-32.214654 -16.740217 7.887313 37.151427 0.479241 1.356867 0.101642 -0.033826 -150358.000000 0 0 1
-32.223354 -17.052317 9.267313 37.616608 0.486727 1.321871 0.088582 -0.034551 739128.000000 0 0 1
-33.416054 -17.946217 9.814813 39.179459 0.492849 1.317590 0.044190 -0.029514 435104.000000 0 0 1
-34.702054 -17.357217 9.840413 40.029231 0.463790 1.322420 0.069939 -0.020231 524660.000000 0 0 1
-35.747254 -17.974917 10.565113 41.383396 0.465912 1.312640 0.086577 -0.026258 211473.000000 0 0 1
-36.159254 -19.474317 10.176613 42.311986 0.494026 1.327901 0.093240 -0.019959 -1306070.000000 0 0 1
-35.259454 -20.498517 10.432613 42.098192 0.526603 1.320371 0.085051 -0.015888 -575565.000000 0 0 1
-34.765054 -20.719217 11.763113 42.145769 0.537457 1.287934 0.101052 -0.031722 -886059.000000 0 0 1
-35.713954 -21.301217 12.775913 43.502326 0.537797 1.272718 0.133674 -0.054040 -697547.000000 0 0 1
-35.952154 -22.656717 12.500313 44.296073 0.562323 1.284711 0.141642 -0.059804 34933.300000 0 0 1
-37.226554 -22.892817 11.937213 45.303361 0.551346 1.304153 0.139873 -0.038113 -245258.000000 0 0 1
37.162779 -24.397017 11.846913 46.006912 -0.580925 1.310359 0.146397 -0.036779 -250324.000000 0 0 1
37.204979 -24.988617 13.149313 46.707022 -0.591443 1.285411 0.163351 -0.036207 -46774.600000 0 0 1
36.356079 -26.042607 13.495813 46.713155 -0.621596 1.277710 0.158939 -0.042211 -1020320.000000 0 0 1
35.118179 -25.667677 14.263113 45.777206 -0.631161 1.253944 0.165505 -0.039118 -1099130.000000 0 0 1
34.272779 -24.931117 13.440613 44.461603 -0.628900 1.263695 0.141347 -0.040985 -1083730.000000 0 0 1
33.160279 -24.476017 14.123413 43.567768 -0.635850 1.240661 0.126300 -0.027155 -984990.000000 0 0 1
33.128779 -22.925317 14.348813 42.766513 -0.605341 1.228644 0.139991 -0.027955 -469552.000000 0 0 1
34.018779 -22.427817 15.291213 43.521323 -0.582870 1.211784 0.161529 -0.031424 -676278.000000 0 0 1
35.189379 -21.957817 14.673613 43.997194 -0.557873 1.230769 0.149877 -0.036737 -328161.000000 0 0 1
36.365879 -21.778617 15.671713 45.192787 -0.539592 1.216666 0.129746 -0.031167 -158225.000000 0 0 1
36.514079 -20.578517 16.403113 45.009060 -0.513208 1.197765 0.134160 -0.021844 169988.000000 0 0 1
35.584379 -20.292617 17.447413 44.524719 -0.518270 1.168145 0.130393 -0.019464 69275.900000 0 0 1
35.634779 -18.827517 17.946713 44.117994 -0.486067 1.151860 0.119929 -0.017110 -521998.000000 0 0 1
35.222779 -17.881917 17.010013 43.008693 -0.469773 1.164182 0.116964 -0.019382 -6309.070000 0 0 1
35.057379 -16.569217 17.470613 42.529768 -0.441514 1.147481 0.117271 -0.017638 -222613.000000 0 0 1
36.315879 -15.793017 17.903713 43.460389 -0.410209 1.146198 0.099964 -0.022167 -139193.000000 0 0 1
36.834679 -16.250817 19.161013 44.587298 -0.415497 1.126590 0.092880 -0.011914 467419.000000 0 0 1
-36.658254 -15.506617 19.471213 44.310393 0.400179 1.115835 0.082888 -0.019787 191293.000000 0 0 1
-36.252854 -15.586417 20.979513 44.691675 0.406044 1.082154 0.077006 -0.016107 -176415.000000 0 0 1
-35.555954 -16.751317 21.364413 44.735564 0.440282 1.072908 0.079286 -0.013707 173958.000000 0 0 1
-34.989254 -16.594217 22.657713 44.866334 0.442849 1.041409 0.065665 -0.004393 -403760.000000 0 0 1
-33.927754 -17.603517 23.006413 44.612458 0.478616 1.028978 0.064461 0.001862 -1197420.000000 0 0 1
-34.451354 -18.885117 23.123513 45.587721 0.501435 1.038827 0.066194 -0.003796 303446.000000 0 0 1
-33.540354 -19.897217 23.530613 45.547167 0.535428 1.027897 0.042834 0.002703 378756.000000 0 0 1
-32.379554 -20.360017 22.594813 44.423996 0.561322 1.037218 0.048621 0.008656 -132633.000000 0 0 1
-31.368954 -19.441317 22.377313 43.159243 0.554825 1.025721 0.050625 0.017256 325142.000000 0 0 1
-30.119754 -20.135417 22.130013 42.454353 0.589279 1.022462 0.045309 0.009626 364533.000000 0 0 1
-28.953254 -19.180317 22.106413 41.168787 0.585083 1.003955 0.048156 0.017725 -673155.000000 0 0 1
-28.689654 -18.583217 23.381013 41.413814 0.574779 0.970884 0.037092 0.025635 787705.000000 0 0 1
-27.415954 -17.946317 23.561013 40.358719 0.579598 0.947407 0.049363 0.018575 471789.000000 0 0 1
-26.873254 -17.821317 24.979413 40.788997 0.585572 0.911696 0.048234 0.001360 -589200.000000 0 0 1
-25.788754 -16.920517 25.027413 39.720715 0.580665 0.889134 0.063212 -0.002057 -42550.100000 0 0 1
-25.530554 -16.550017 26.399913 40.282350 0.575139 0.856122 0.065230 -0.011378 548873.000000 0 0 1
-24.636354 -17.489417 27.300713 40.720494 0.617341 0.835993 0.069141 -0.013573 98363.600000 0 0 1
-25.292154 -18.687717 27.648513 41.873191 0.636342 0.849589 0.074811 -0.009340 -258665.000000 0 0 1
-24.516254 -19.436617 28.530713 42.341828 0.670339 0.831432 0.086970 -0.018941 -269991.000000 0 0 1
-25.291554 -20.573017 29.179113 43.753085 0.682879 0.840750 0.092888 -0.016316 -541688.000000 0 0 1
-26.128054 -20.225117 30.247513 44.795565 0.658733 0.829514 0.077152 -0.015610 -177242.000000 0 0 1
-26.755554 -21.359817 30.774713 46.034601 0.673723 0.838589 0.060043 -0.010935 -655453.000000 0 0 1
-28.003954 -21.086017 31.591213 47.189473 0.645396 0.837322 0.072400 -0.016338 -1082790.000000 0 0 1
-27.750654 -20.199017 32.719513 47.420098 0.629190 0.809318 0.080838 -0.019676 481430.000000 0 0 1
-28.876554 -19.940417 33.548013 48.548376 0.604349 0.807894 0.083888 -0.026350 42249.000000 0 0 1
-30.068754 -19.127517 33.044913 48.599982 0.566560 0.823120 0.084804 -0.024045 -552803.000000 0 0 1
-30.742654 -19.727217 31.998813 48.561280 0.570510 0.851392 0.088351 -0.024755 625585.000000 0 0 1
-32.072554 -19.187817 31.911613 49.144401 0.539141 0.864075 0.082201 -0.028125 774015.000000 0 0 1
-33.157554 -19.789917 31.012213 49.525969 0.538096 0.894151 0.064998 0.007339 -308044.000000 0 0 1
-33.050154 -19.349717 29.678013 48.451096 0.529664 0.911532 0.057047 -0.006499 -52642.000000 0 0 1
-34.045554 -19.888917 28.868213 48.867602 0.528710 0.938816 0.047313 -0.001481 -410586.000000 0 0 1
-34.370754 -18.897017 27.697613 48.016703 0.502689 0.955950 0.057665 0.000732 -291052.000000 0 0 1
-35.377354 -19.292317 26.813913 48.401825 0.499250 0.983652 0.039599 -0.000105 -102887.000000 0 0 1
-35.919554 -18.187317 26.133713 47.999624 0.468703 0.995055 0.066759 -0.001270 997355.000000 0 0 1
-37.270754 -18.525717 25.372613 48.745060 0.461291 1.023340 0.064018 -0.007142 1077000.000000 0 0 1
36.206379 -18.837617 26.061713 48.424897 -0.479743 1.002510 0.065112 -0.011673 -215255.000000 0 0 1
35.247579 -19.339617 25.174313 47.435838 -0.501829 1.011367 0.104808 -0.013106 927706.000000 0 0 1
33.905379 -19.741017 25.928013 47.027060 -0.527257 0.986824 0.088031 -0.011469 950975.000000 0 0 1
33.132879 -18.711517 26.509513 46.375240 -0.514091 0.962304 0.072726 -0.016153 -609968.000000 0 0 1
31.951179 -19.270417 26.941013 46.022223 -0.542711 0.945434 0.062817 -0.003783 -807802.000000 0 0 1
-29.729641 -5.280917 33.746651 45.283287 0.175798 0.729910 0.088004 -0.031027 116188.000000 0 0 1
-30.894181 -5.297017 32.926397 45.460493 0.169806 0.760798 0.094099 -0.021051 594798.000000 0 0 1
-30.863621 -4.253017 31.962393 44.634580 0.136938 0.772611 0.105024 -0.027854 -253701.000000 0 0 1
-31.727411 -4.513617 30.699018 44.378272 0.141314 0.806876 0.084868 -0.029917 89915.000000 0 0 1
-31.299621 -5.547817 29.764128 43.547076 0.175427 0.818259 0.086759 -0.030426 717051.000000 0 0 1
-29.991611 -5.333017 29.206958 42.201708 0.175978 0.806430 0.084045 -0.029776 518254.000000 0 0 1
-29.730911 -6.213417 28.001528 41.311247 0.206023 0.826005 0.077453 -0.036240 -53190.700000 0 0 1
-30.464841 -5.830317 26.831568 41.012585 0.189092 0.857635 0.095539 -0.031949 144015.000000 0 0 1
-30.155021 -6.718517 25.775048 40.234523 0.219219 0.875491 0.106491 -0.025024 -245.852000 0 0 1
-30.869251 -6.287317 24.495178 39.905573 0.200927 0.909895 0.104921 -0.019989 139802.000000 0 0 1
-30.281161 -5.108517 23.884038 38.903636 0.167129 0.909769 0.111757 -0.017117 439281.000000 0 0 1
-31.000681 -4.695217 22.708838 38.714062 0.150313 0.943969 0.117259 -0.018380 291132.000000 0 0 1
-30.340871 -3.501217 21.990738 37.635349 0.114888 0.946766 0.114394 -0.021935 78133.500000 0 0 1
-29.208801 -3.884017 21.250238 36.329220 0.132199 0.945996 0.134958 -0.023957 355628.000000 0 0 1
-28.379621 -2.750417 20.876338 35.338211 0.096614 0.938798 0.140855 -0.018777 265035.000000 0 0 1
-27.015611 -3.086717 20.284438 33.923877 0.113763 0.929868 0.135149 -0.011104 -344674.000000 0 0 1
-27.116071 -3.700117 19.006538 33.319973 0.135617 0.963773 0.136829 -0.016567 -273065.000000 0 0 1
-25.867291 -3.638717 18.379938 31.940243 0.139752 0.957645 0.111626 -0.008021 -283932.000000 0 0 1
-25.860021 -4.316217 16.967838 31.229440 0.165382 0.996400 0.110588 -0.006000 -446599.000000 0 0 1
-26.688741 -3.660917 16.090438 31.378231 0.136320 1.032365 0.121132 -0.011221 -348706.000000 0 0 1
-26.778091 -4.312717 14.852538 30.923511 0.159683 1.069801 0.123148 -0.009791 -324614.000000 0 0 1
-28.175171 -4.257617 14.230538 31.850836 0.149978 1.107626 0.147714 -0.019106 -269659.000000 0 0 1
-28.426801 -2.953917 13.666138 31.679204 0.103542 1.124762 0.144017 -0.024190 196701.000000 0 0 1
-29.638011 -3.031517 12.927238 32.476380 0.101930 1.161406 0.154009 -0.026693 133396.000000 0 0 1
-29.847761 -1.780317 12.115538 32.262123 0.059576 1.185823 0.147440 -0.014201 -190990.000000 0 0 1
-29.035791 -1.679517 10.961138 31.081256 0.057779 1.210383 0.161508 -0.016656 69981.600000 0 0 1
-29.274481 -0.529417 10.203538 31.006252 0.018083 1.235467 0.162577 -0.015970 495155.000000 0 0 1
-30.611511 -0.415317 9.364338 32.014495 0.013567 1.273953 0.151609 -0.015689 761704.000000 0 0 1
-30.692851 -1.349417 8.285538 31.820153 0.043937 1.307374 0.160377 -0.024525 -675829.000000 0 0 1
-31.965451 -1.480117 7.741438 32.922798 0.046271 1.333435 0.144287 -0.027855 -629189.000000 0 0 1
-32.026321 -2.195217 6.357038 32.724855 0.068437 1.375296 0.171221 -0.037088 -659043.000000 0 0 1
-31.634261 -1.509317 5.176038 32.090432 0.047675 1.408793 0.179583 -0.052516 -14627.100000 0 0 1
-32.370691 -0.382217 4.813438 32.728839 0.011807 1.423191 0.185223 -0.042031 -581243.000000 0 0 1
-31.908541 0.253783 3.505538 32.101529 -0.007953 1.461377 0.178443 -0.033169 -196895.000000 0 0 1
-32.200961 -0.623917 2.397338 32.296104 0.019373 1.496498 0.164613 -0.045033 278703.000000 0 0 1
-32.139151 -0.021017 1.129938 32.159014 0.000654 1.535653 0.183466 -0.055489 -322718.000000 0 0 1
-32.876611 -0.831017 0.053238 32.887155 0.025271 1.569178 0.183277 -0.053159 1320320.000000 0 0 1
-34.311360 -0.591317 0.164038 34.316847 0.017232 1.566016 0.178869 -0.051582 1439450.000000 0 0 1
-35.019250 -1.364317 -0.777762 35.054446 0.038939 1.592985 0.172287 -0.048616 -427496.000000 0 0 1
-36.538671 -1.432417 -0.689662 36.573240 0.039183 1.589654 0.161515 -0.046718 -583768.000000 0 0 1
-37.049041 -2.213817 0.355038 37.116822 0.059683 1.561231 0.148372 -0.043427 -58434.900000 0 0 1
36.210533 -2.202417 0.300138 36.278691 -0.060748 1.562523 0.135504 -0.036405 27732.200000 0 0 1
35.508323 -3.368917 1.069038 35.683798 -0.094594 1.540833 0.137593 -0.040275 -236185.000000 0 0 1
35.531833 -3.228217 2.452438 35.762369 -0.090605 1.502167 0.145614 -0.039143 214073.000000 0 0 1
35.085413 -4.453117 3.056838 35.498743 -0.126247 1.484578 0.133085 -0.022088 4866.030000 0 0 1
35.169833 -4.336117 4.579738 35.730842 -0.122672 1.442270 0.127882 -0.010828 125880.000000 0 0 1
34.249643 -3.331617 4.949138 34.765381 -0.096969 1.427953 0.149716 -0.027972 184250.000000 0 0 1
34.234613 -3.315817 6.344738 34.975121 -0.096555 1.388379 0.140788 -0.036725 -168155.000000 0 0 1
33.500263 -2.115617 6.899638 34.268768 -0.063069 1.368072 0.158912 -0.039049 -846790.000000 0 0 1
32.113083 -2.194317 6.894238 32.918014 -0.068225 1.359798 0.164641 -0.044809 -811818.000000 0 0 1
31.566433 -0.973017 7.265738 32.406441 -0.030815 1.344668 0.174883 -0.037342 -599001.000000 0 0 1
30.070023 -0.813017 7.485838 30.998469 -0.027031 1.326895 0.171435 -0.034830 -1239440.000000 0 0 1
29.254813 -0.949417 6.369338 29.955199 -0.032442 1.356532 0.186072 -0.041600 -561682.000000 0 0 1
27.918813 -0.844717 6.765638 28.739303 -0.030247 1.333152 0.190515 -0.030989 -583204.000000 0 0 1
27.250513 -2.244117 6.882838 28.195744 -0.082166 1.324195 0.220396 -0.046903 -451869.000000 0 0 1
27.763613 -3.121417 7.931738 29.042623 -0.111958 1.294175 0.185061 -0.053348 706067.000000 0 0 1
27.261513 -4.437617 7.691438 28.671253 -0.161364 1.299207 0.204226 -0.061619 -114617.000000 0 0 1
27.568113 -5.358217 8.871838 29.452010 -0.191969 1.264814 0.164798 -0.049503 -29001.300000 0 0 1
26.594913 -5.414717 9.905938 28.891801 -0.200854 1.220833 0.157682 -0.044428 662575.000000 0 0 1
26.998913 -6.464117 10.833638 29.800903 -0.234998 1.198738 0.132567 -0.033612 358965.000000 0 0 1
25.963713 -6.611017 12.003938 29.358380 -0.249327 1.149574 0.110491 -0.034549 631824.000000 0 0 1
24.831513 -7.364417 11.588038 28.374660 -0.288312 1.150102 0.134952 -0.042167 -386270.000000 0 0 1
23.721013 -7.055517 12.386838 27.674908 -0.289104 1.106735 0.136788 -0.044550 -309824.000000 0 0 1
22.803413 -8.277717 12.463138 27.273541 -0.348212 1.096213 0.132301 -0.036423 -21705.600000 0 0 1
23.208213 -9.291217 13.401238 28.364433 -0.380801 1.078709 0.105839 -0.035793 531882.000000 0 0 1
22.103913 -10.181217 13.543438 27.850761 -0.431640 1.062962 0.149853 -0.053191 215825.000000 0 0 1
22.369313 -11.266217 14.582538 28.982136 -0.466560 1.043549 0.102820 -0.043540 -252378.000000 0 0 1
22.470913 -10.774317 15.948838 29.587046 -0.447096 1.001490 0.087839 -0.034916 366490.000000 0 0 1
22.886313 -11.850917 16.833038 30.782767 -0.477799 0.992219 0.082331 -0.035191 7472.540000 0 0 1
22.555113 -11.366517 18.244738 31.157685 -0.466798 0.945224 0.090806 -0.027431 -84118.400000 0 0 1
21.165413 -11.178317 18.414038 30.199442 -0.485906 0.915054 0.086349 -0.031306 -67831.300000 0 0 1
20.681813 -11.523617 19.726338 30.816547 -0.508344 0.876140 0.083246 -0.025347 315432.000000 0 0 1
21.156213 -10.608517 20.917838 31.586103 -0.464797 0.846981 0.085675 -0.022235 -181232.000000 0 0 1
20.534013 -9.324817 21.064038 30.859222 -0.426271 0.819503 0.085056 -0.020166 96086.100000 0 0 1
20.801313 -8.305517 20.042438 30.056207 -0.379884 0.840847 0.092758 -0.016526 -792486.000000 0 0 1
21.914913 -7.283317 20.445538 30.843640 -0.320861 0.846142 0.085359 -0.011280 636413.000000 0 0 1
23.213913 -7.811517 20.639538 32.029613 -0.324599 0.870572 0.103295 -0.011706 317811.000000 0 0 1
23.843613 -8.229017 19.409038 31.826803 -0.332325 0.914946 0.105081 -0.014010 -1123760.000000 0 0 1
25.218313 -8.879117 19.580038 33.138798 -0.338536 0.938685 0.112680 -0.017306 -473620.000000 0 0 1
25.241413 -10.119317 20.282338 33.924958 -0.381283 0.929969 0.085728 -0.029115 -81153.400000 0 0 1
26.497513 -10.754617 20.176738 34.998296 -0.385559 0.956350 0.085231 -0.033455 126972.000000 0 0 1
26.380913 -12.236217 20.483438 35.570336 -0.434294 0.957144 0.061713 -0.032159 316439.000000 0 0 1
25.561213 -12.857317 19.473338 34.610650 -0.466046 0.973221 0.087238 -0.030985 455164.000000 0 0 1
25.481313 -14.224817 19.624538 35.167673 -0.509151 0.978789 0.065626 -0.028295 -248800.000000 0 0 1
24.590113 -14.953717 18.615038 34.275457 -0.546368 0.996670 0.078316 -0.020939 -457257.000000 0 0 1
25.025013 -15.030917 17.282538 33.924414 -0.540887 1.036260 0.078574 -0.031228 293333.000000 0 0 1
23.987613 -15.364117 16.361438 32.850545 -0.569669 1.049440 0.050132 -0.030199 -147352.000000 0 0 1
23.503913 -16.813817 16.305738 33.181553 -0.620962 1.057089 0.039190 -0.025556 -553005.000000 0 0 1
24.531513 -17.683317 15.945638 34.187106 -0.624577 1.085554 0.058655 -0.028450 -260289.000000 0 0 1
24.195413 -19.020717 16.235438 34.796482 -0.666226 1.085373 0.042778 -0.018126 -187549.000000 0 0 1
25.373213 -19.987017 16.054338 36.069691 -0.667209 1.109519 0.034745 -0.013331 -242368.000000 0 0 1
25.781613 -20.035117 14.727438 35.818919 -0.660626 1.147066 0.040592 -0.023681 80677.400000 0 0 1
26.634513 -21.134917 14.439738 36.940331 -0.670775 1.169194 0.044619 -0.026730 -221353.000000 0 0 1
27.102813 -21.054917 12.991638 36.696794 -0.660467 1.208923 0.047087 -0.039430 137133.000000 0 0 1
25.995713 -21.166917 12.076738 35.632332 -0.683368 1.225021 0.045306 -0.034893 753272.000000 0 0 1
26.298713 -20.861217 10.744738 35.245739 -0.670606 1.261013 0.067698 -0.035226 -85634.200000 0 0 1
25.033613 -20.893317 9.841738 34.059834 -0.695492 1.277662 0.030883 -0.025768 168046.000000 0 0 1
24.683713 -22.184217 9.473038 34.513239 -0.732118 1.292752 0.021600 -0.024033 -341048.000000 0 0 1
23.287313 -22.219017 9.681038 33.611102 -0.761927 1.278626 0.009653 -0.006830 -236106.000000 0 0 1
22.746913 -23.290117 8.718138 33.702486 -0.797197 1.309142 0.018769 -0.010829 -397673.000000 0 0 1
23.019213 -24.658517 9.088438 34.936032 -0.819768 1.307624 0.020969 -0.010342 15949.100000 0 0 1
22.888213 -25.581767 7.999738 35.246176 -0.840913 1.341834 0.032513 -0.004604 -49729.400000 0 0 1
21.470913 -26.069087 7.631938 34.624325 -0.881820 1.348550 0.039009 -0.000825 -80305.300000 0 0 1
20.536813 -25.141627 7.196138 33.251264 -0.885868 1.352653 0.031821 -0.005142 -632904.000000 0 0 1
19.242613 -25.701707 7.163538 32.896386 -0.928134 1.351277 0.039151 -0.024159 151120.000000 0 0 1
18.143713 -24.625817 7.264738 31.438855 -0.935812 1.337614 0.031596 -0.019802 -400680.000000 0 0 1
17.764213 -24.047117 6.059538 30.504903 -0.934550 1.370825 0.040400 -0.020678 90096.900000 0 0 1
16.912713 -22.935017 6.299838 29.184634 -0.935396 1.353222 0.052370 -0.010105 -115493.000000 0 0 1
16.558113 -22.240917 4.975238 28.170597 -0.930832 1.393254 0.065233 -0.007552 -473978.000000 0 0 1
15.747613 -21.085217 5.065238 26.799820 -0.929311 1.380650 0.084537 -0.008996 -107091.000000 0 0 1
15.462213 -20.444717 3.840138 25.919359 -0.923279 1.422092 0.087869 -0.011437 -223547.000000 0 0 1
14.607313 -19.178017 3.997338 24.436625 -0.919868 1.406478 0.087123 -0.004056 -24753.200000 0 1 0
15.255913 -18.016917 4.490838 24.031642 -0.868189 1.382819 0.059457 -0.005057 -80753.700000 0 1 0
14.419613 -16.909817 4.395938 22.653729 -0.864716 1.375508 0.030742 0.000536 354473.000000 0 1 0
15.345413 -15.635117 4.385038 22.342049 -0.794749 1.373246 0.022664 -0.006076 186915.000000 0 1 0
15.917913 -15.439717 5.674838 22.890361 -0.770150 1.320270 0.042002 -0.015293 110933.000000 0 1 0
16.882313 -14.404417 5.747838 22.924602 -0.706364 1.317364 0.044778 -0.022241 157201.000000 0 1 0
18.317213 -14.943917 5.541438 24.280620 -0.684325 1.340542 0.064234 -0.026060 -224964.000000 0 1 0
19.288913 -13.927717 5.419738 24.401169 -0.625377 1.346819 0.090639 -0.031365 764525.000000 0 1 0
20.617613 -14.468317 5.409938 25.762096 -0.611896 1.359225 0.107182 -0.025935 579254.000000 0 0 1
21.759313 -13.462217 5.250138 26.120164 -0.554047 1.368418 0.105731 -0.030953 -293798.000000 0 0 1
21.906713 -12.553817 6.336138 26.031693 -0.520374 1.324926 0.122763 -0.036539 432285.000000 0 0 1
22.930613 -11.580417 6.084338 26.399588 -0.467656 1.338235 0.135043 -0.046397 228892.000000 0 0 1
23.201613 -10.804217 7.323438 26.621020 -0.435806 1.292103 0.142315 -0.050211 54489.700000 0 0 1
23.886013 -11.598317 8.306138 27.821835 -0.452037 1.267626 0.139097 -0.029716 401315.000000 0 0 1
24.025013 -10.962517 9.587938 28.094601 -0.428077 1.222525 0.151125 -0.047534 -64932.400000 0 0 1
24.453613 -11.955317 10.678038 29.239174 -0.454726 1.196953 0.116954 -0.044392 -249106.000000 0 0 1
23.463513 -12.856217 11.133638 28.978900 -0.501248 1.176457 0.121622 -0.048030 250677.000000 0 0 1
23.985613 -13.764017 12.087338 30.180483 -0.520966 1.158732 0.117310 -0.049025 143330.000000 0 0 1
22.981713 -14.896117 12.466138 30.090830 -0.575090 1.143641 0.092276 -0.048302 1515230.000000 0 0 1
21.844213 -14.480017 13.296038 29.387500 -0.585374 1.101298 0.079515 -0.041720 1543160.000000 0 0 1
20.930413 -15.563217 13.580238 29.406101 -0.639373 1.090754 0.051620 -0.038719 357760.000000 0 0 1
19.573713 -15.133717 14.158438 28.506508 -0.658163 1.051034 0.060191 -0.038768 -377840.000000 0 0 1
19.524713 -14.629617 15.461238 28.884079 -0.643045 1.005950 0.061327 -0.037825 -24637.200000 0 0 1
19.342013 -13.275117 15.431238 28.079625 -0.601496 0.988967 0.083296 -0.047337 1175060.000000 0 0 1
17.846113 -12.698717 15.541438 26.856609 -0.618447 0.953685 0.107714 -0.044283 1335330.000000 0 0 1
17.145713 -12.995917 14.303638 25.835313 -0.648582 0.984059 0.119216 -0.056783 1460600.000000 0 0 1
15.704013 -12.896317 14.418538 24.916365 -0.687542 0.953690 0.146057 -0.049145 1147390.000000 0 1 0
15.155413 -11.515017 14.191838 23.742166 -0.649741 0.930107 0.122492 -0.044161 -743039.000000 0 1 0
15.459013 -10.560717 15.156938 24.088225 -0.599323 0.890239 0.111853 -0.033146 85623.700000 0 1 0
15.136713 -9.225717 14.772738 23.075262 -0.547370 0.876040 0.114706 -0.033203 -611752.000000 0 1 0
15.804113 -8.164717 15.650438 23.693223 -0.476855 0.849252 0.131298 -0.034057 125608.000000 0 1 0
17.207513 -8.024217 15.502738 24.511660 -0.436343 0.886066 0.133002 -0.038994 267763.000000 0 1 0
17.870913 -8.827817 16.465238 25.853509 -0.458817 0.880369 0.127282 -0.037085 719546.000000 0 0 1
19.452613 -8.825317 16.386938 26.922521 -0.425912 0.916413 0.100834 -0.027968 1172950.000000 0 0 1
20.085113 -7.587517 16.625938 27.155184 -0.361195 0.911885 0.095493 -0.028524 -1437180.000000 0 0 1
21.398313 -7.681717 16.288138 27.967839 -0.344659 0.949133 0.085613 -0.015486 -1644780.000000 0 0 1
22.111413 -6.332617 16.404038 28.250825 -0.278930 0.951261 0.075126 -0.001453 -286217.000000 0 0 1
22.434413 -5.894717 17.722438 29.191358 -0.256945 0.918375 0.090842 -0.007810 88598.000000 0 0 1
23.265313 -4.776117 17.714338 29.629105 -0.202476 0.929956 0.098400 -0.011851 -171054.000000 0 0 1
-5.903921 -32.902442 -6.617287 34.076611 1.393249 1.766226 0.067180 -0.016142 -213902.000000 0 0 1
-6.463521 -31.617842 -6.632287 32.946202 1.369148 1.773488 0.054301 -0.024095 -182717.000000 0 0 1
-5.947421 -30.789042 -5.638687 31.861131 1.379980 1.748710 0.062238 -0.028884 -489724.000000 0 0 1
-6.742621 -29.431442 -5.610887 30.710825 1.345587 1.754529 0.060694 -0.025558 638768.000000 0 0 1
-8.093221 -29.539242 -5.198487 31.065918 1.303377 1.738925 0.041363 -0.024260 442991.000000 0 0 1
-8.984221 -29.965642 -6.250587 31.901814 1.279507 1.768004 0.032825 -0.020148 -1375020.000000 0 0 1
-10.404421 -30.100742 -5.780687 32.368549 1.237999 1.750349 0.063783 -0.015021 -1080740.000000 0 0 1
-11.234421 -30.661042 -6.753487 33.345483 1.219580 1.774738 0.045558 -0.015331 -1109780.000000 0 0 1
-12.558321 -30.541842 -6.363787 33.630541 1.180686 1.761171 0.048777 -0.016285 -789656.000000 0 0 1
-13.661621 -30.964042 -7.322387 34.627000 1.155277 1.783870 0.062019 -0.026535 -219619.000000 0 0 1
-13.823721 -30.068442 -8.391687 34.141278 1.139871 1.819134 0.089436 -0.038970 -442036.000000 0 0 1
-14.921121 -30.505742 -9.125787 35.164188 1.115887 1.833321 0.093143 -0.035769 -227195.000000 0 0 1
-15.217721 -29.593142 -10.377087 34.857094 1.095829 1.873083 0.113870 -0.029517 -442564.000000 0 0 1
-15.715121 -28.317942 -10.142587 33.937338 1.064159 1.874296 0.117140 -0.033841 -149621.000000 0 0 1
-14.780221 -27.289242 -9.869287 32.566247 1.074415 1.878691 0.101020 -0.032805 -320919.000000 0 0 1
-15.378121 -25.863942 -9.588387 31.581121 1.034373 1.879277 0.093302 -0.018452 -70798.600000 0 0 1
-15.727521 -25.173242 -10.751587 31.569663 1.012361 1.918316 0.099772 -0.030991 157615.000000 0 0 1
-16.117621 -23.871642 -10.395787 30.621975 0.976924 1.917169 0.065211 -0.007147 -126329.000000 0 0 1
-16.649521 -23.040142 -11.610987 30.706183 0.945043 1.958574 0.089444 -0.009601 207098.000000 0 0 1
-17.926121 -23.502442 -12.027187 31.911813 0.919195 1.957231 0.098620 -0.021088 -51512.400000 0 0 1
-18.428021 -22.824442 -13.149787 32.147534 0.891571 1.992204 0.113684 -0.029628 1335130.000000 0 0 1
-19.999521 -23.042742 -13.397587 33.323327 0.855984 1.984549 0.107526 -0.011619 1659630.000000 0 0 1
-20.255921 -24.394842 -13.633387 34.514922 0.877829 1.976864 0.142338 -0.022532 57074.400000 0 0 1
-20.328121 -25.204642 -12.478487 34.701860 0.892091 1.938626 0.152620 -0.027978 -1513570.000000 0 0 1
-20.428921 -26.712242 -12.610787 35.915409 0.917905 1.929568 0.152936 -0.034118 501717.000000 0 0 1
-19.380021 -27.374842 -13.315987 36.087154 0.954755 1.948724 0.157321 -0.036040 218643.000000 0 0 1
-18.064921 -27.233742 -12.829687 35.108673 0.985108 1.944889 0.153940 -0.037371 -436549.000000 0 0 1
-17.123521 -28.334242 -13.373887 35.705813 1.027192 1.954716 0.133866 -0.038857 -107445.000000 0 0 1
-17.037221 -28.438942 -14.776787 36.295919 1.031053 1.990095 0.144185 -0.047244 -172786.000000 0 0 1
-16.235821 -29.522742 -15.227087 36.973752 1.067997 1.995263 0.157293 -0.049209 25937.700000 0 0 1
-16.813921 -30.967042 -15.195487 38.374059 1.073373 1.977935 0.151163 -0.053328 -142966.000000 0 0 1
-17.089521 -31.320242 -13.841487 38.270041 1.071308 1.940865 0.145041 -0.047631 117949.000000 0 0 1
-17.443621 -32.673542 -13.650687 39.473807 1.080417 1.923905 0.120916 -0.036445 -693293.000000 0 0 1
-17.987921 -33.088942 -12.243687 39.602414 1.072862 1.885111 0.134082 -0.037098 682458.000000 0 0 1
-19.349221 -32.732542 -11.953687 39.858528 1.036924 1.875387 0.144612 -0.034646 872823.000000 0 0 1
-19.744421 -31.346642 -11.953487 38.927367 1.008700 1.882911 0.153820 -0.039771 -509671.000000 0 0 1
-19.037921 -30.403642 -10.964687 37.510641 1.011354 1.867436 0.165762 -0.040320 -433187.000000 0 0 1
-19.198321 -30.790042 -9.630287 37.541239 1.013259 1.830222 0.159791 -0.042120 22085.700000 0 0 1
-18.827221 -29.820442 -8.718487 36.328157 1.007642 1.813154 0.152193 -0.034935 -78082.900000 0 0 1
-19.209521 -30.146342 -7.244587 36.473163 1.003466 1.770754 0.155588 -0.036045 -83346.000000 0 0 1
-18.444321 -31.203642 -6.780387 36.875925 1.036950 1.755719 0.156839 -0.035168 -57437.000000 0 0 1
-18.730221 -31.438542 -5.403287 36.991872 1.033491 1.717388 0.155291 -0.042908 -632968.000000 0 0 1
-17.995321 -32.656342 -4.764487 37.589474 1.067146 1.697889 0.151596 -0.034003 415758.000000 0 0 1
-16.600521 -32.435042 -4.590187 36.724366 1.097747 1.696114 0.126390 -0.022867 392057.000000 0 0 1
-16.357121 -31.717742 -3.405587 35.849248 1.094661 1.665937 0.113205 -0.030587 -109963.000000 0 0 1
-14.908321 -31.167342 -3.287087 34.705420 1.124633 1.665652 0.102328 -0.028231 -285313.000000 0 0 1
-13.846621 -32.025442 -3.156087 35.033109 1.162706 1.661007 0.062568 -0.020341 -666648.000000 0 0 1
-12.724421 -31.263242 -2.728087 33.863603 1.184262 1.651445 0.066286 -0.012321 671887.000000 0 0 1
-11.448821 -32.132042 -2.467187 34.199863 1.228515 1.642999 0.059466 -0.016504 19874.900000 0 0 1
-11.642121 -33.058742 -1.424087 35.077734 1.232194 1.611406 0.062771 -0.006013 397858.000000 0 0 1
-10.412521 -33.684642 -1.034187 35.272443 1.270996 1.600120 0.089067 -0.009964 521979.000000 0 0 1
-9.442921 -32.853442 -0.187487 34.184098 1.290915 1.576281 0.088081 -0.016788 -481605.000000 0 0 1
-9.835321 -32.682142 1.171913 34.150100 1.278479 1.536473 0.102457 -0.010770 15533.300000 0 0 1
-8.812121 -31.950842 1.841713 33.194904 1.301684 1.515286 0.086289 -0.017031 52695.000000 0 0 1
-7.788421 -32.875642 2.442613 33.873790 1.338179 1.498624 0.106573 -0.025993 -978263.000000 0 0 1
-8.328721 -33.743142 3.439513 34.925599 1.328806 1.472155 0.121804 -0.036544 607468.000000 0 0 1
-7.354521 33.377283 4.245613 34.440633 -1.353917 1.447209 0.128170 -0.028443 293617.000000 0 0 1
-6.508121 -33.837242 5.325413 34.866525 1.380781 1.417459 0.136232 -0.021906 -26775.300000 0 0 1
-5.471221 -33.044542 4.790713 33.835291 1.406714 1.428730 0.159384 -0.033619 -278257.000000 0 0 1
-4.545821 -32.628342 5.762113 33.443611 1.432366 1.397639 0.163103 -0.042145 217800.000000 0 0 1
-3.331821 -31.803242 5.229613 32.402100 1.466414 1.408690 0.175347 -0.046052 122376.000000 0 0 1
-3.583321 -30.588142 4.566613 31.134042 1.454180 1.423589 0.167537 -0.044525 -53245.100000 0 0 1
-4.036721 -30.849742 3.271413 31.284242 1.440685 1.466034 0.149150 -0.042153 -313611.000000 0 0 1
-3.901321 -29.640842 2.355813 29.989159 1.439929 1.492160 0.131884 -0.035215 -584984.000000 0 0 1
-2.607321 -29.217342 2.084913 29.407449 1.481793 1.499839 0.103968 -0.035262 -987112.000000 0 0 1
-2.559121 -27.821142 1.670013 27.988461 1.479070 1.511093 0.095625 -0.029387 -217422.000000 0 0 1
-2.930021 -26.670242 2.664613 26.962696 1.461374 1.471809 0.099397 -0.034817 -169475.000000 0 0 1
-3.010021 -25.406542 2.017813 25.663674 1.452872 1.492090 0.092479 -0.032798 -197896.000000 0 0 1
-3.120921 -24.205342 2.794113 24.565133 1.442569 1.456807 0.080067 -0.025589 613957.000000 0 1 0
-4.511021 -24.066042 3.526013 24.737753 1.385503 1.427774 0.087786 -0.022526 501150.000000 0 1 0
-4.716321 -25.026842 4.510613 25.863722 1.384530 1.395501 0.120322 -0.023898 -110185.000000 0 0 1
-5.604821 -24.578642 5.509613 25.804641 1.346594 1.355627 0.092799 -0.023917 -156412.000000 0 0 1
-6.041021 -25.602342 6.614613 27.124287 1.339079 1.324449 0.109290 -0.035672 -72904.700000 0 0 1
-5.147221 -25.887442 7.664713 27.484566 1.374525 1.288176 0.103810 -0.035684 176035.000000 0 0 1
-5.795721 -26.813742 8.545013 28.732984 1.357924 1.268834 0.106365 -0.034603 506089.000000 0 0 1
-4.928221 -27.062642 9.781513 29.195067 1.390666 1.229149 0.102394 -0.026769 259601.000000 0 0 1
-4.545921 -26.073442 10.705013 28.549730 1.398181 1.186442 0.095328 -0.032462 670133.000000 0 0 1
-5.706421 -25.378742 11.190713 28.317412 1.349624 1.164523 0.091725 -0.032015 830842.000000 0 0 1
-5.256321 -24.369442 12.233213 27.769589 1.358358 1.114612 0.067696 -0.030724 457761.000000 0 0 1
-4.655221 -25.020242 13.373013 28.749279 1.386842 1.086981 0.073457 -0.028936 -89225.200000 0 0 1
-3.873521 -24.107042 14.116413 28.203311 1.411478 1.046593 0.064389 -0.031240 1324460.000000 0 0 1
-2.702521 -24.846742 14.946913 29.121717 1.462455 1.031821 0.066280 -0.030664 1318160.000000 0 0 1
-3.198221 -25.297842 16.186013 30.202590 1.445041 1.005205 0.071494 -0.032351 91409.600000 0 0 1
-2.199221 -26.040042 16.857113 31.097952 1.486541 0.997904 0.080647 -0.034058 142680.000000 0 0 1
-2.621321 -26.513342 18.261413 32.300276 1.472249 0.969922 0.089105 -0.038645 86634.700000 0 0 1
-2.754421 -25.477742 19.163913 31.999339 1.463104 0.928689 0.101041 -0.035916 -89214.700000 0 0 1
-3.466621 -25.863642 20.317713 33.071965 1.437556 0.909236 0.146051 -0.042961 -171269.000000 0 0 1
-3.384021 -24.959342 21.544713 33.145060 1.436037 0.863195 0.149366 -0.044792 -46209.500000 0 0 1
-2.351821 -25.354342 22.465313 33.956796 1.478303 0.847866 0.112718 -0.048712 577795.000000 0 0 1
-1.855421 -24.359142 23.338513 33.786041 1.494774 0.808238 0.101113 -0.048633 101498.000000 0 0 1
-0.979321 -23.242042 22.726313 32.521330 1.528685 0.797060 0.107320 -0.041511 -388603.000000 0 0 1
-1.714321 -22.261042 22.033813 31.368484 1.493938 0.792006 0.136217 -0.037517 -40060.200000 0 0 1
-0.865621 -21.172342 21.708713 30.336209 1.529935 0.773308 0.145500 -0.042319 505691.000000 0 0 1
-1.718421 -19.934942 21.173013 29.131621 1.484807 0.757137 0.128042 -0.019592 126789.000000 0 0 1
-2.540021 -19.308042 22.107113 29.461443 1.439995 0.722168 0.127340 -0.034637 -104312.000000 0 0 1
-3.818721 -19.842342 22.346813 30.127748 1.380668 0.735142 0.145704 -0.042391 523212.000000 0 0 1
-4.978421 -19.582642 21.294613 29.355154 1.321844 0.759162 0.136873 -0.040473 406661.000000 0 0 1
-4.778321 -20.327342 20.122913 28.999393 1.339919 0.803894 0.142634 -0.040166 -27041.900000 0 0 1
-5.747621 -21.369842 20.037813 29.853295 1.308055 0.834957 0.135815 -0.038859 419397.000000 0 0 1
-5.447221 -22.318942 18.828313 29.703750 1.331413 0.884250 0.125024 -0.032529 235546.000000 0 0 1
-6.244621 -23.487342 18.935113 30.808911 1.310936 0.908919 0.117598 -0.039103 -141184.000000 0 0 1
-6.098121 -24.228642 17.750413 30.647860 1.324227 0.953082 0.107552 -0.032807 614618.000000 0 0 1
-6.961021 -25.565442 17.765013 31.900522 1.304958 0.980162 0.088916 -0.040037 1282720.000000 0 0 1
-8.371821 -25.362942 17.809813 32.102268 1.251976 0.982693 0.105627 -0.034012 219351.000000 0 0 1
-9.117821 -26.483242 17.349113 32.946752 1.239221 1.016223 0.087324 -0.033493 655941.000000 0 0 1
-10.649421 -26.331542 17.528713 33.376879 1.186472 1.017875 0.102251 -0.032752 194828.000000 0 0 1
-11.397721 -25.530042 16.585813 32.508157 1.150904 1.035374 0.110864 -0.034443 413644.000000 0 0 1
-12.801321 -25.630542 16.726213 33.174760 1.107584 1.042358 0.106072 -0.032912 539988.000000 0 0 1
-13.441021 -24.861842 17.943913 33.477697 1.075177 1.005109 0.104192 -0.032374 -639966.000000 0 0 1
-13.585721 -23.459942 17.661713 32.355475 1.045884 0.993375 0.096130 -0.027779 -172860.000000 0 0 1
-13.481621 -22.558642 18.747213 32.281642 1.032125 0.951160 0.077342 -0.027359 -206952.000000 0 0 1
-12.076221 -22.136342 19.220913 31.706407 1.071385 0.919503 0.076229 -0.026527 12527.400000 0 0 1
-11.445421 -23.279142 19.813613 32.641926 1.113843 0.918518 0.092209 -0.027753 -29516.400000 0 0 1
-10.040921 -23.131942 19.745313 32.027866 1.161267 0.906501 0.123449 -0.039248 512076.000000 0 0 1
-9.147721 -24.041042 20.646813 32.983987 1.207209 0.894428 0.122390 -0.042802 341427.000000 0 0 1
-9.062021 -23.566842 21.978813 33.475132 1.203702 0.854532 0.120584 -0.034932 162359.000000 0 0 1
-8.118621 -24.318142 22.724513 34.259123 1.248581 0.845559 0.138656 -0.039037 283627.000000 0 0 1
-8.200821 -23.968742 24.193213 35.029496 1.241135 0.808405 0.139383 -0.038345 18388.500000 0 0 1
-7.168721 -24.547642 24.945013 35.724375 1.286665 0.797828 0.154200 -0.043241 -279837.000000 0 0 1
-7.072821 -23.940242 26.216513 36.200353 1.283531 0.760914 0.141850 -0.035400 -297752.000000 0 0 1
-5.888021 -24.477542 26.991613 36.910243 1.334733 0.750604 0.142273 -0.031140 -1305.020000 0 0 1
-4.604521 -24.345942 26.390013 36.198885 1.383875 0.753895 0.151672 -0.030450 252347.000000 0 0 1
-3.620121 -24.442442 27.418013 36.909154 1.423757 0.733477 0.138543 -0.030470 502393.000000 0 0 1
-2.242821 -23.891342 26.944213 36.080702 1.477195 0.727595 0.138987 -0.039025 -225763.000000 0 0 1
-2.255321 -22.472142 26.681213 34.956698 1.470771 0.702445 0.139718 -0.039304 798754.000000 0 0 1
-1.015921 -21.713942 26.546613 34.311077 1.524044 0.686130 0.139246 -0.050024 1204600.000000 0 0 1
-0.071221 -21.661642 27.765413 35.215763 1.567508 0.662532 0.141772 -0.042503 -114074.000000 0 0 1
0.561479 -22.866042 28.116113 36.244820 -1.546246 0.682929 0.133841 -0.035828 78859.000000 0 0 1
1.486679 -22.655242 29.165713 36.960912 -1.505268 0.661460 0.113078 -0.048428 294801.000000 0 0 1
2.190979 -23.966842 29.758513 38.272431 -1.479633 0.680045 0.135714 -0.053514 -336184.000000 0 0 1
3.256879 -24.376342 28.938113 37.976673 -1.437975 0.704405 0.115245 -0.054890 -15162.500000 0 0 1
4.040079 -25.370342 29.535113 39.144596 -1.412878 0.715884 0.107251 -0.043696 -973496.000000 0 0 1
5.258779 -24.952242 30.337313 39.631070 -1.363082 0.698989 0.078420 -0.037721 -191108.000000 0 0 1
6.421779 -24.559242 29.612113 39.003498 -1.315041 0.708687 0.083300 -0.039077 901357.000000 0 0 1
7.176979 -25.477342 28.786113 39.105553 -1.296211 0.743486 0.077535 -0.029555 -493257.000000 0 0 1
8.481679 -24.874942 28.294513 38.617109 -1.242186 0.748525 0.067425 -0.028944 -604161.000000 0 0 1
8.317379 -23.946742 27.215213 37.192648 -1.236504 0.749930 0.076270 -0.039804 -534271.000000 0 0 1
9.495479 -23.590142 26.570813 36.778622 -1.188120 0.763453 0.056866 -0.028213 -547580.000000 0 0 1
9.367279 -22.391642 25.624513 35.295144 -1.174582 0.758299 0.078007 -0.032252 225149.000000 0 0 1
8.499479 -22.619342 24.517113 34.423315 -1.211358 0.778135 0.065886 -0.027857 153255.000000 0 0 1
8.164679 -21.422842 23.768013 33.023001 -1.206671 0.767367 0.066275 -0.018032 -333010.000000 0 0 1
7.399679 -21.621142 22.451013 32.035559 -1.241049 0.794256 0.049536 -0.012420 -131558.000000 0 0 1
8.114079 -22.418742 21.505513 32.108026 -1.223531 0.836875 0.047089 -0.008582 18988.000000 0 0 1
7.505779 -22.654542 20.262113 31.306840 -1.250864 0.866877 0.057363 -0.011232 -129960.000000 0 0 1
8.356979 -23.660242 19.442413 31.743560 -1.231267 0.911598 0.100415 -0.025248 309738.000000 0 0 1
9.465079 -23.092242 18.778713 31.232666 -1.181801 0.925729 0.111047 -0.023861 -115814.000000 0 0 1
10.320679 -24.065042 18.219213 31.899567 -1.165656 0.962899 0.118442 -0.028641 -282633.000000 0 0 1
11.727279 -23.543842 17.929513 31.832515 -1.108667 0.972488 0.100143 -0.023193 -313328.000000 0 0 1
11.876179 -22.683342 16.794413 30.620744 -1.088476 0.990269 0.108751 -0.016741 -84004.200000 0 0 1
13.234179 -22.363342 16.566513 30.817396 -1.036443 1.003243 0.099287 -0.019141 135393.000000 0 0 1
-12.483721 22.291283 11.244713 27.913942 -1.060287 1.156184 0.053002 -0.015420 -128092.000000 0 0 1
-13.595621 21.684883 10.591513 27.699371 -1.010787 1.178432 0.037471 -0.017519 383728.000000 0 0 1
-13.208421 20.409383 10.076313 26.316105 -0.996410 1.177868 0.069941 -0.025122 215471.000000 0 0 1
-14.258921 19.671483 9.184313 25.973749 -0.943585 1.209380 0.078978 -0.022998 -326556.000000 0 0 1
-14.568021 20.481483 8.112513 26.410816 -0.952542 1.258582 0.085284 -0.021749 164788.000000 0 0 1
-15.284821 19.913583 7.010413 26.063814 -0.916153 1.298472 0.091854 -0.020358 -79996.200000 0 0 1
-16.798721 19.758783 7.203513 26.916484 -0.866192 1.299869 0.088246 -0.029347 -525450.000000 0 0 1
-17.263021 18.695483 8.071813 26.696200 -0.825214 1.263631 0.082288 -0.028753 -754623.000000 0 0 1
-18.529321 18.938983 8.538913 27.837633 -0.796331 1.259030 0.086671 -0.022825 -1057440.000000 0 0 1
-18.978521 17.900083 9.624713 27.807055 -0.756164 1.217359 0.074176 -0.022636 -134316.000000 0 0 1
-19.227121 16.679883 8.979413 26.991304 -0.714577 1.231654 0.079497 -0.022726 -91619.900000 0 0 1
-19.645321 15.644283 9.846613 26.974766 -0.672503 1.197131 0.082358 -0.027807 -514208.000000 0 0 1
-18.675221 14.870183 10.748613 26.180506 -0.672451 1.147731 0.074980 -0.019487 -452710.000000 0 0 1
-17.626621 14.140083 10.148913 24.771761 -0.676081 1.148675 0.052733 -0.000680 60919.500000 0 1 0
-16.902721 13.259983 10.977613 24.125445 -0.665211 1.098399 0.071209 -0.011695 40441.200000 0 1 0
-17.610621 12.150683 11.828913 24.447827 -0.603958 1.065756 0.056949 -0.013647 152375.000000 0 1 0
-18.430821 11.221783 11.070613 24.252464 -0.546908 1.096768 0.050233 -0.013346 359914.000000 0 1 0
-19.083821 10.306483 11.885913 24.732382 -0.495183 1.069479 0.051616 -0.016108 -164206.000000 0 1 0
-20.027921 9.409883 11.019113 24.720120 -0.439228 1.108779 0.049111 -0.025062 -111552.000000 0 1 0
-19.318221 8.566383 10.137613 23.438169 -0.417381 1.123504 0.030638 -0.017382 134028.000000 0 1 0
-19.046821 9.065783 8.846113 22.874079 -0.444242 1.173712 0.054810 -0.015015 261485.000000 0 1 0
-20.220621 9.392983 7.816513 23.626246 -0.434867 1.233602 0.073330 -0.016461 433304.000000 0 1 0
-20.884021 8.216883 7.485313 23.657755 -0.374850 1.248864 0.068878 -0.018030 134601.000000 0 1 0
-21.657121 8.335283 6.308313 24.047923 -0.367400 1.305368 0.082572 -0.021507 -18647.900000 0 1 0
-21.734921 6.937683 5.635313 23.500957 -0.308973 1.328646 0.086096 -0.021031 -105489.000000 0 1 0
-22.551321 6.021783 6.345513 24.188623 -0.260938 1.305356 0.116084 -0.024668 675671.000000 0 1 0
-22.173521 4.716183 5.923713 23.430701 -0.209571 1.315204 0.123464 -0.038223 -158853.000000 0 1 0
-23.357721 3.763083 6.139013 24.442410 -0.159734 1.316915 0.154014 -0.031178 -380262.000000 0 1 0
-24.401621 3.895283 5.230913 25.258162 -0.158297 1.362189 0.175096 -0.040996 -516537.000000 0 0 1
-25.337061 2.879783 5.359013 26.057222 -0.113173 1.363655 0.200610 -0.045190 255054.000000 0 0 1
-26.557531 3.007783 4.362913 27.081067 -0.112775 1.408985 0.211625 -0.048519 210814.000000 0 0 1
-26.209901 2.834683 3.000313 26.532927 -0.107734 1.457475 0.209816 -0.040007 144886.000000 0 0 1
-27.292331 2.802783 2.101513 27.516236 -0.102336 1.494348 0.201290 -0.038375 -1588.210000 0 0 1
-26.782231 2.946483 0.605513 26.950627 -0.109576 1.548327 0.209386 -0.040079 -33261.700000 0 0 1
-26.360991 4.195783 0.147413 26.693223 -0.157842 1.565274 0.200452 -0.043810 265306.000000 0 0 1
-26.303761 4.285883 -1.229887 26.679004 -0.161519 1.616912 0.213469 -0.037496 466320.000000 0 0 1
-27.668911 4.765783 -1.846087 28.136974 -0.170570 1.636454 0.209281 -0.054202 523964.000000 0 0 1
-28.664121 3.791283 -1.721887 28.964988 -0.131502 1.630279 0.206803 -0.052275 -1318640.000000 0 0 1
-29.932391 4.273783 -1.921887 30.296978 -0.141823 1.634274 0.190572 -0.042071 -1228980.000000 0 0 1
-30.957781 3.113683 -1.823887 31.167383 -0.100241 1.629349 0.200336 -0.044897 -316471.000000 0 0 1
-31.325611 2.555283 -3.064487 31.578702 -0.081391 1.667992 0.196556 -0.049760 163115.000000 0 0 1
-32.053361 1.381683 -3.003287 32.223387 -0.043079 1.664134 0.204380 -0.055332 -496216.000000 0 0 1
-32.473101 0.926083 -4.468287 32.792156 -0.028511 1.707482 0.201832 -0.055364 -551552.000000 0 0 1
-31.431331 0.502983 -5.314287 31.881392 -0.016001 1.738267 0.227674 -0.052112 -186245.000000 0 0 1
-31.694411 -0.091117 -6.542487 32.362758 0.002875 1.774360 0.233799 -0.048862 -400000.000000 0 0 1
-32.373611 0.734683 -7.675787 33.279245 -0.022690 1.803540 0.218063 -0.046925 -243213.000000 0 0 1
-33.715681 1.074283 -7.429687 34.541301 -0.031852 1.787586 0.216303 -0.047461 -83747.700000 0 0 1
-34.186156 1.885583 -8.480187 35.272684 -0.055100 1.813593 0.186997 -0.040396 348881.000000 0 0 1
-35.734881 2.079683 -8.445387 36.778137 -0.058132 1.802494 0.185523 -0.041343 528053.000000 0 0 1
-36.098101 2.956883 -7.399087 36.967046 -0.081730 1.772311 0.172723 -0.036200 -327139.000000 0 0 1
37.191833 2.924483 -7.184887 37.992205 0.078471 1.761057 0.168145 -0.031131 -801515.000000 0 0 1
36.649633 3.748783 -6.086587 37.340267 0.101933 1.734530 0.183905 -0.034081 73748.700000 0 0 1
35.245343 3.548883 -5.963387 35.922010 0.100353 1.737578 0.167770 -0.037327 271264.000000 0 0 1
34.723403 4.286283 -4.910787 35.329913 0.122819 1.710246 0.174808 -0.036050 -524770.000000 0 0 1
33.249843 3.906883 -4.730387 33.811128 0.116964 1.711163 0.169550 -0.039818 -484473.000000 0 0 1
33.119113 2.865883 -3.864887 33.466794 0.086318 1.686539 0.160190 -0.036432 -80062.000000 0 0 1
32.016323 2.024983 -4.140887 32.346444 0.063164 1.699165 0.132628 -0.031390 -304404.000000 0 0 1
32.095273 0.572983 -3.728987 32.316253 0.017851 1.686444 0.170642 -0.030405 -525689.000000 0 0 1
33.020063 -0.261117 -4.365987 33.308476 -0.007908 1.702252 0.099808 -0.034566 -195289.000000 0 0 1
33.045253 -1.515117 -3.791187 33.296508 -0.045818 1.684905 0.108156 -0.026019 319828.000000 0 0 1
34.440003 -2.170217 -3.533987 34.688798 -0.062931 1.672850 0.098234 -0.027756 342278.000000 0 0 1
34.303643 -3.492617 -3.118287 34.621699 -0.101465 1.660986 0.072181 -0.027127 428649.000000 0 0 1
35.612373 -4.052417 -3.096187 35.975681 -0.113305 1.656966 0.105751 -0.018535 284688.000000 0 0 1
35.647933 -5.493617 -2.588387 36.161509 -0.152905 1.642436 0.103448 -0.018875 69560.600000 0 0 1
35.132343 -5.660417 -1.246887 35.607255 -0.159744 1.605821 0.109836 -0.015600 200538.000000 0 0 1
34.833993 -7.006017 -1.038487 35.546727 -0.198478 1.600015 0.142964 -0.021968 -120496.000000 0 0 1
34.164803 -7.419417 0.312013 34.962535 -0.213845 1.561872 0.146951 -0.020827 -496590.000000 0 0 1
32.771643 -7.257117 0.243913 33.566439 -0.217928 1.563530 0.134619 -0.017755 -510154.000000 0 0 1
32.206443 -7.295417 1.528913 33.057763 -0.222761 1.524530 0.179616 -0.032246 -531997.000000 0 0 1
32.028943 -8.688317 2.237413 33.261781 -0.264890 1.503479 0.162280 -0.029071 -334359.000000 0 0 1
31.014223 -9.550217 1.796313 32.501007 -0.298716 1.515499 0.151883 -0.031154 -282484.000000 0 0 1
29.700283 -9.257017 2.175113 31.185418 -0.302139 1.500992 0.153017 -0.032226 -990973.000000 0 0 1
28.714113 -10.444717 2.041813 30.622891 -0.348870 1.504071 0.153916 -0.034998 -113451.000000 0 0 1
27.414013 -10.276617 2.577913 29.390179 -0.358654 1.482970 0.171786 -0.041130 1299390.000000 0 0 1
26.484213 -9.288317 2.033113 28.139295 -0.337309 1.498482 0.182717 -0.044286 52891.400000 0 0 1
25.867913 -9.661317 0.675813 27.621490 -0.357443 1.546327 0.162739 -0.040217 -728128.000000 0 0 1
26.814413 -9.765417 -0.407587 28.540187 -0.349256 1.585078 0.148481 -0.045907 622464.000000 0 0 1
26.296213 -9.988517 -1.747487 28.183595 -0.363013 1.632840 0.148192 -0.039910 -212651.000000 0 0 1
25.490213 -11.273817 -2.032287 27.946022 -0.416416 1.643582 0.132152 -0.035160 -744952.000000 0 0 1
24.237313 -11.222417 -1.443487 26.748339 -0.433630 1.624788 0.149037 -0.020770 -769181.000000 0 0 1
23.627613 -12.476017 -1.517287 26.762236 -0.485817 1.627522 0.122316 -0.018406 468614.000000 0 0 1
22.094413 -12.704517 -1.292687 25.519383 -0.521842 1.621473 0.126068 -0.017674 522896.000000 0 0 1
21.285613 -12.174917 -2.318087 24.630864 -0.519561 1.665049 0.126681 -0.011822 -110574.000000 0 1 0
19.949713 -12.258317 -1.902687 23.492076 -0.550985 1.651878 0.127597 -0.018569 -146405.000000 0 1 0
18.843513 -11.792217 -2.877487 22.414600 -0.559172 1.699527 0.114771 -0.014036 130976.000000 0 1 0
18.713813 -12.535217 -4.087887 22.892123 -0.590195 1.750331 0.113838 -0.020861 -58927.500000 0 1 0
17.719613 -11.944617 -4.855787 21.914316 -0.593124 1.794231 0.101433 -0.017081 -701525.000000 0 1 0
17.698813 -12.476917 -6.284087 22.547976 -0.614046 1.853235 0.111250 -0.023324 -351306.000000 0 1 0
17.172213 -13.757517 -6.601087 22.972343 -0.675442 1.862255 0.109409 -0.024455 252742.000000 0 1 0
17.536513 -14.050517 -7.960187 23.839272 -0.675481 1.911246 0.118489 -0.029506 -223156.000000 0 1 0
16.787513 -15.183717 -8.707287 24.252479 -0.735276 1.938021 0.111649 -0.027403 498071.000000 0 1 0
15.548213 -14.701417 -9.267687 23.318847 -0.757412 1.979514 0.120041 -0.014562 562587.000000 0 1 0
14.967513 -15.765017 -9.933187 23.900427 -0.811342 1.999406 0.105906 -0.014085 -369832.000000 0 1 0
14.306713 -15.367217 -11.262987 23.826210 -0.821122 2.063165 0.109200 -0.035780 1564.990000 0 1 0
13.094213 -14.623917 -11.146787 22.573618 -0.840530 2.087247 0.082946 -0.031169 426198.000000 0 1 0
13.244913 -13.209217 -11.071087 21.736608 -0.784049 2.105201 0.078238 -0.019500 -480924.000000 0 1 0
13.511213 -12.536717 -12.446187 22.240273 -0.748004 2.164728 0.095502 -0.015131 140475.000000 0 1 0
14.789113 -12.716117 -13.035587 23.459413 -0.710173 2.159960 0.106876 -0.021910 270824.000000 0 1 0
14.749013 -11.991417 -14.266587 23.766846 -0.682637 2.214638 0.121917 -0.023748 930399.000000 0 1 0
16.182013 -11.617217 -14.823387 24.830427 -0.622645 2.210534 0.128449 -0.041824 699474.000000 0 1 0
16.927213 -12.736817 -15.157887 26.048390 -0.645065 2.191875 0.121362 -0.036576 -351882.000000 0 0 1
18.074613 -12.381317 -15.888987 27.063787 -0.600596 2.198261 0.118161 -0.031214 -856633.000000 0 0 1
19.113913 -13.428917 -16.115887 28.379558 -0.612451 2.174712 0.100677 -0.024855 -984549.000000 0 0 1
20.008113 -13.499217 -15.018987 28.427512 -0.593535 2.127424 0.097608 -0.039399 -727367.000000 0 0 1
20.888913 -14.551717 -15.243387 29.672547 -0.608457 2.110312 0.074296 -0.029640 -484265.000000 0 0 1
22.028213 -14.459517 -14.190687 29.928171 -0.580867 2.064804 0.069411 -0.036420 -166392.000000 0 0 1
22.733813 -13.243517 -14.252887 29.922597 -0.527488 2.067267 0.073054 -0.033591 -309090.000000 0 0 1
23.745813 -13.263017 -13.270487 30.263461 -0.509377 2.024724 0.076356 -0.029150 217562.000000 0 0 1
24.592613 -11.952817 -13.299487 30.406296 -0.452412 2.023493 0.087597 -0.030052 -292684.000000 0 0 1
23.853613 -10.828817 -12.875387 29.189617 -0.426150 2.027614 0.085154 -0.018637 325833.000000 0 0 1
24.578413 -9.592117 -12.965987 29.397686 -0.372087 2.027570 0.108765 -0.027460 309124.000000 0 0 1
25.555013 -9.365317 -11.774187 29.654668 -0.351277 1.979089 0.115921 -0.029153 -143374.000000 0 0 1
26.746113 -10.099117 -11.807387 30.931556 -0.361041 1.962460 0.106239 -0.033234 585534.000000 0 0 1
27.716213 -9.524917 -10.880987 31.261932 -0.331014 1.926296 0.114003 -0.036690 358052.000000 0 0 1
29.112113 -10.148117 -10.969587 32.723558 -0.335416 1.912635 0.119750 -0.035259 -205114.000000 0 0 1
29.776223 -9.928517 -12.195787 33.673968 -0.321845 1.941394 0.099482 -0.035436 144973.000000 0 0 1
30.985163 -10.616917 -12.428487 35.032364 -0.330108 1.933466 0.087349 -0.031010 -2982.090000 0 0 1
31.744993 -10.083917 -13.640787 35.993069 -0.307573 1.959494 0.062107 -0.023982 -242050.000000 0 0 1
31.319283 -10.694817 -14.827087 36.264571 -0.329062 1.991999 0.063936 -0.026039 111300.000000 0 0 1
31.823653 -10.060717 -15.947787 36.990470 -0.306197 2.016544 0.031530 -0.024933 -408359.000000 0 0 1
31.468603 -10.857217 -17.235487 37.486186 -0.332229 2.048546 0.010872 -0.007641 53708.800000 0 0 1
30.131393 -10.607717 -17.594387 36.468986 -0.338499 2.074244 0.030361 -0.019040 33396.100000 0 0 1
30.105753 -9.518517 -18.528487 36.609608 -0.306224 2.101465 0.026899 -0.007446 -816643.000000 0 0 1
28.693313 -9.071517 -18.890387 35.530907 -0.306211 2.131356 0.006442 -0.013129 -637818.000000 0 0 1
28.148113 -9.783217 -19.958887 35.866207 -0.334501 2.160942 0.017615 -0.001170 1056490.000000 0 0 1
26.915713 -9.180017 -20.432687 35.017467 -0.328693 2.193828 0.059475 -0.000055 966848.000000 0 0 1
26.503613 -9.813317 -21.793587 35.688978 -0.354612 2.227681 0.080571 -0.009611 9777.150000 0 0 1
26.142913 -11.208417 -21.847687 35.866446 -0.405031 2.225772 0.080271 -0.017231 624020.000000 0 0 1
25.584813 -11.532317 -23.150587 36.380306 -0.423476 2.260553 0.095242 -0.019777 -88806.600000 0 0 1
26.024113 -13.008217 -23.543787 37.426970 -0.463530 2.251139 0.099484 -0.009623 896359.000000 0 0 1
27.282513 -13.210317 -24.179187 38.774748 -0.450932 2.244111 0.089787 -0.007591 1021760.000000 0 0 1
28.457313 -13.136417 -23.355487 39.087887 -0.432474 2.211191 0.062075 -0.004775 1592820.000000 0 0 1
29.818183 -13.598217 -24.038387 40.643322 -0.427864 2.203649 0.057751 -0.000967 1056160.000000 0 0 1
30.194263 -12.812517 -25.146207 41.330205 -0.401308 2.224867 0.051243 -0.012994 397617.000000 0 0 1
31.555643 -13.108717 -25.440817 42.600848 -0.393725 2.210790 0.028512 -0.010447 434640.000000 0 0 1
32.211963 -12.509817 -26.695227 43.666248 -0.370431 2.228558 0.055075 -0.018951 164453.000000 0 0 1
31.614443 -13.113217 -27.843257 44.121156 -0.393187 2.253720 0.061614 -0.019603 533039.000000 0 0 1
32.342583 -12.698117 -28.979597 45.244910 -0.374122 2.265952 0.054651 -0.022811 216440.000000 0 0 1
32.081853 -13.700417 -30.145977 46.105603 -0.403602 2.283453 0.062725 -0.027506 165654.000000 0 0 1
32.522383 -15.051317 -29.893317 46.667526 -0.433446 2.266023 0.071035 -0.026802 -71620.000000 0 0 1
32.849383 -15.729017 -31.078037 47.878266 -0.446562 2.277204 0.046083 -0.022997 374392.000000 0 0 1
31.686773 -16.376817 -31.915047 47.862532 -0.477024 2.300712 0.045835 -0.014724 909795.000000 0 0 1
30.883033 -15.427117 -32.650487 47.516439 -0.463275 2.328343 0.043302 -0.020832 2007040.000000 0 0 1
29.682493 -16.028717 -33.288427 47.392927 -0.495138 2.349549 0.030041 -0.007410 2463570.000000 0 0 1
28.708113 -15.001417 33.806103 46.819343 -0.481524 0.764029 0.036953 -0.001158 620049.000000 0 0 1
27.999313 -14.054317 -33.296567 45.718123 -0.465208 2.386636 0.032364 -0.014645 139663.000000 0 0 1
28.807913 -13.033117 -32.725607 45.505201 -0.424860 2.373392 0.043083 -0.021842 98361.200000 0 0 1
27.976013 -11.755617 -32.398577 44.390535 -0.397801 2.388904 0.054296 -0.031217 217574.000000 0 0 1
27.429813 -11.191017 -33.536977 44.747763 -0.387373 2.418053 0.051680 -0.017292 -224429.000000 0 0 1
26.888313 -9.913717 -33.267707 43.909037 -0.353236 2.430502 0.029566 -0.026285 16287.200000 0 0 1
21.093279 -29.565742 9.314913 37.494361 -0.951109 1.319732 0.059920 -0.027270 -77468.000000 0 0 1
21.646179 -29.196942 8.098913 37.237224 -0.932832 1.351549 0.064103 -0.028630 201777.000000 0 0 1
22.837279 -29.937942 7.852813 38.464118 -0.919140 1.365191 0.075274 -0.026392 379090.000000 0 0 1
23.472679 -29.674942 6.438013 38.379902 -0.901571 1.402255 0.071722 -0.022197 171839.000000 0 0 1
23.841079 -28.274742 6.289913 37.515611 -0.870267 1.402339 0.067419 -0.017263 156266.000000 0 0 1
24.496879 -28.048842 5.061013 37.582555 -0.852893 1.435722 0.069830 -0.013732 8151.100000 0 0 1
24.349879 -26.593042 4.532613 36.340763 -0.829403 1.445745 0.072879 -0.017334 -105889.000000 0 0 1
25.119579 -25.746642 5.339513 36.364725 -0.797725 1.423431 0.057668 -0.013778 -13.396600 0 0 1
25.152879 -24.344342 4.894913 35.345077 -0.769065 1.431861 0.050527 -0.004488 39535.700000 0 0 1
26.050179 -23.516542 5.839913 35.577299 -0.734327 1.405903 0.041329 -0.002759 245813.000000 0 0 1
27.449179 -23.530142 5.585613 36.583112 -0.708674 1.417514 0.056606 -0.005024 710735.000000 0 0 1
28.254779 -22.727442 6.483513 36.836193 -0.677403 1.393865 0.066119 -0.010039 390359.000000 0 0 1
27.959679 -21.202142 6.557413 35.696977 -0.648799 1.386051 0.062733 -0.005736 -458027.000000 0 0 1
28.054879 -20.420742 5.340113 35.108400 -0.629197 1.418100 0.070534 -0.002034 108209.000000 0 0 1
27.543479 -19.126242 5.654013 34.006238 -0.606959 1.403757 0.083621 -0.010916 66225.600000 0 0 1
27.424479 -18.090042 4.462413 33.155163 -0.583116 1.435795 0.082354 -0.005215 -458266.000000 0 0 1
28.679479 -17.715142 4.010013 33.947297 -0.553328 1.452395 0.128013 -0.008753 -411079.000000 0 0 1
28.531779 -16.897642 2.890813 33.285876 -0.534694 1.483839 0.126622 0.000321 306329.000000 0 0 1
29.724679 -15.920942 2.730813 33.830316 -0.491731 1.489988 0.146355 -0.023880 179632.000000 0 0 1
29.539979 -14.839342 3.587713 33.251889 -0.465524 1.462691 0.140490 -0.027662 -198849.000000 0 0 1
30.716879 -14.222742 4.016213 34.087286 -0.433634 1.452701 0.169400 -0.036757 -305898.000000 0 0 1
30.470379 -13.105442 5.076213 33.555395 -0.406186 1.418935 0.172270 -0.037161 141029.000000 0 0 1
30.031879 -13.634242 6.317313 33.581465 -0.426169 1.381550 0.153321 -0.044441 53169.900000 0 0 1
29.716079 -12.567742 7.162513 33.049888 -0.400114 1.352345 0.149066 -0.035726 -107702.000000 0 0 1
29.541279 -12.807342 8.689013 33.349875 -0.409082 1.307214 0.148941 -0.033941 -495806.000000 0 0 1
28.271979 -13.342742 8.900013 32.504520 -0.440951 1.293446 0.134385 -0.022626 -289588.000000 0 0 1
27.734879 -13.694242 10.184413 32.564982 -0.458639 1.252719 0.119557 -0.028103 359712.000000 0 0 1
28.604579 -14.679342 11.062413 34.001206 -0.474137 1.239411 0.119336 -0.029517 -955656.000000 0 0 1
29.732379 -14.278342 11.707413 34.999271 -0.447706 1.229717 0.127430 -0.024771 -692234.000000 0 0 1
30.366279 -15.445442 12.284313 36.215700 -0.470534 1.224732 0.117564 -0.023641 350026.000000 0 0 1
31.391679 -15.175742 13.407213 37.356312 -0.450306 1.203706 0.111579 -0.021906 808460.000000 0 0 1
32.676279 -14.661042 13.036513 38.113463 -0.421752 1.221704 0.115586 -0.020208 181725.000000 0 0 1
33.608879 -14.935342 14.022013 39.360362 -0.418176 1.206548 0.111394 -0.017454 -849126.000000 0 0 1
35.040879 -14.738942 13.549513 40.357019 -0.398156 1.228404 0.106165 -0.016097 -596683.000000 0 0 1
35.461679 -13.387242 13.470913 40.227036 -0.360972 1.229327 0.116546 -0.021607 239341.000000 0 0 1
36.823379 -13.270142 13.114413 41.280089 -0.345886 1.247500 0.104960 -0.018727 -246481.000000 0 0 1
-37.228954 -11.911442 13.367413 41.310595 0.309659 1.241282 0.102768 -0.024673 522991.000000 0 0 1
-35.900254 -11.890942 12.812513 39.929729 0.319849 1.244142 0.117834 -0.024631 1137320.000000 0 0 1
-35.167854 -10.654542 12.969513 38.968006 0.294172 1.231499 0.108663 -0.029290 537391.000000 0 0 1
-33.913454 -10.563242 12.058313 37.511430 0.301952 1.243529 0.126563 -0.027305 596778.000000 0 0 1
-32.917154 -11.552242 12.358213 37.009712 0.337520 1.230339 0.117784 -0.025041 444728.000000 0 0 1
-33.033654 -12.746542 11.598413 37.258822 0.368262 1.254243 0.103763 -0.024346 -189573.000000 0 0 1
-32.074754 -13.938342 11.918113 36.947377 0.409938 1.242353 0.083913 -0.023427 -417306.000000 0 0 1
-30.762654 -13.757942 11.514313 35.611814 0.420547 1.241552 0.107169 -0.025304 -734904.000000 0 0 1
-30.089454 -15.005742 11.523313 35.543414 0.462611 1.240626 0.110832 -0.020077 193703.000000 0 0 1
-28.626354 -15.053342 11.022113 34.169551 0.484118 1.242352 0.125327 -0.017116 210353.000000 0 0 1
-28.575054 -15.152942 9.626913 33.746449 0.487582 1.281506 0.119384 -0.027687 278232.000000 0 0 1
-27.256954 -14.906542 9.160313 32.389163 0.500452 1.284063 0.126844 -0.028648 236860.000000 0 0 1
-27.140254 -14.810242 7.635413 31.847075 0.499530 1.328686 0.149311 -0.023506 -138548.000000 0 0 1
-27.517054 -15.943742 6.925613 32.547739 0.525145 1.356374 0.144566 -0.007082 161275.000000 0 0 1
-27.573054 -15.699142 5.528013 32.207069 0.517589 1.398302 0.147970 -0.007661 -318639.000000 0 0 1
-28.119254 -16.856642 4.691513 33.118713 0.540030 1.428661 0.121993 -0.002991 498218.000000 0 0 1
-29.547154 -16.813842 4.731813 34.323893 0.517352 1.432498 0.075802 -0.014719 204076.000000 0 0 1
-30.064654 -17.868542 3.961713 35.197491 0.536245 1.458001 0.078127 -0.004664 211521.000000 0 0 1
-31.598154 -17.987942 4.198113 36.601005 0.517519 1.455844 0.092913 -0.024899 179062.000000 0 0 1
-32.325354 -17.055542 3.418513 36.708395 0.485500 1.477535 0.123768 -0.032739 -1218630.000000 0 0 1
-33.648154 -17.165842 3.781613 37.962679 0.471740 1.471017 0.130500 -0.033820 -1527650.000000 0 0 1
-34.623454 -16.407942 2.916213 38.425362 0.442548 1.494830 0.113618 -0.041525 -281252.000000 0 0 1
-34.807254 -17.005842 1.639813 38.774123 0.454463 1.528492 0.118996 -0.037356 93425.200000 0 0 1
-35.745754 -16.244642 0.886313 39.273819 0.426548 1.548227 0.165207 -0.041273 230887.000000 0 0 1
-36.050754 -16.953542 -0.455587 39.840771 0.439581 1.582232 0.149688 -0.036981 537781.000000 0 0 1
-34.850454 -17.074442 -1.230487 38.827887 0.455563 1.602492 0.134301 -0.029484 676676.000000 0 0 1
-35.125854 -17.718042 -2.418687 39.415792 0.467174 1.632198 0.118374 -0.027743 339634.000000 0 0 1
-33.921154 -18.346642 -3.215887 38.698655 0.495800 1.653993 0.107224 -0.013180 167614.000000 0 0 1
-34.321754 -19.295542 -4.186387 39.595790 0.512158 1.676722 0.106076 -0.028427 -87878.500000 0 0 1
-33.296754 -20.018542 -4.797787 39.146323 0.541313 1.693666 0.097236 -0.020783 -422680.000000 0 0 1
-33.925754 -21.067242 -5.763687 40.348551 0.555704 1.714134 0.105816 -0.024622 106755.000000 0 0 1
-34.497454 -22.181242 -5.171387 41.337938 0.571426 1.696225 0.106118 -0.033026 50745.300000 0 0 1
-35.111654 -23.106142 -6.086287 42.470754 0.582032 1.714597 0.095508 -0.030182 217863.000000 0 0 1
-35.762654 -24.338942 -5.406687 43.595685 0.597565 1.695135 0.087201 -0.026154 -50787.700000 0 0 1
-34.781654 -25.157642 -4.842887 43.198657 0.626194 1.683140 0.090990 -0.023162 -257533.000000 0 0 1
-35.320954 -26.418842 -4.496287 44.336685 0.642198 1.672383 0.068245 -0.021167 144930.000000 0 0 1
-34.293454 -27.360242 -3.845487 44.038751 0.673414 1.658228 0.074983 -0.016439 -285323.000000 0 0 1
-33.236254 -27.762842 -4.703187 43.560807 0.695908 1.678976 0.071973 -0.014654 449657.000000 0 0 1
-32.528354 -28.943442 -4.345987 43.757334 0.727146 1.670281 0.064137 -0.009160 239792.000000 0 0 1
-31.473054 -28.882242 -3.212487 42.837567 0.742498 1.645859 0.081697 -0.014768 -472856.000000 0 0 1
-32.096154 -28.539242 -2.013687 42.996586 0.726805 1.617647 0.075219 -0.014014 7157.550000 0 0 1
-31.179254 -28.436442 -0.932187 42.209550 0.739422 1.592883 0.079173 -0.017304 437907.000000 0 0 1
-31.873654 -28.121242 0.487513 42.508490 0.722934 1.559327 0.068149 -0.011986 531213.000000 0 0 1
-32.468254 -29.308942 1.071813 43.753290 0.734302 1.546297 0.060340 -0.008888 337274.000000 0 0 1
-33.353054 -28.955342 2.115813 44.218941 0.714935 1.522929 0.069327 -0.008774 -62757.100000 0 0 1
-33.697554 -30.210442 2.856313 45.347045 0.730888 1.507767 0.058176 -0.005411 -664488.000000 0 0 1
-34.691654 -30.082042 3.855913 46.079368 0.714353 1.487019 0.055384 -0.007604 272771.000000 0 0 1
-35.267054 -31.296842 4.253113 47.342860 0.725824 1.480839 0.051648 -0.006412 234560.000000 0 0 1
-36.197254 -32.088042 3.225013 48.479731 0.725294 1.504224 0.037505 -0.000355 103864.000000 0 0 1
-36.835654 -33.220042 3.825913 49.750118 0.733833 1.493818 0.051351 -0.008910 317495.000000 0 0 1
36.856979 -33.764942 2.951413 50.072139 -0.741643 1.511819 0.047176 0.000468 -105565.000000 0 0 1
35.806079 33.067383 3.600013 48.872152 0.745655 1.497068 0.044024 -0.003847 1008500.000000 0 0 1
34.823879 33.648683 4.512413 48.634332 0.768237 1.477880 0.032938 -0.008039 1121660.000000 0 0 1
34.202379 -32.897042 4.362613 47.655540 -0.765947 1.479123 0.034188 -0.008575 -614319.000000 0 0 1
33.214179 -32.800442 3.196313 46.789605 -0.779131 1.502431 0.047012 -0.006728 -609168.000000 0 0 1
33.746179 -33.068442 1.899413 47.285666 -0.775255 1.530617 0.044705 -0.002746 149326.000000 0 0 1
32.734879 -32.988942 0.876113 46.482364 -0.789264 1.551947 0.052458 0.001142 -426103.000000 0 0 1
33.130479 -33.789542 -0.372287 47.323360 -0.795246 1.578663 0.061186 -0.004406 34683.300000 0 0 1
34.110279 -33.286842 -1.223287 47.676214 -0.773181 1.596457 0.040597 0.009747 -1025300.000000 0 0 1
35.378879 -33.121442 -0.664387 48.467891 -0.752455 1.584505 0.029940 0.011160 -1340700.000000 0 0 1
36.402679 -32.825542 -1.774787 49.049170 -0.733772 1.606988 0.024322 0.001405 -172566.000000 0 0 1
36.909779 33.804483 -2.393587 50.107925 0.741513 1.618583 0.016325 -0.001420 128822.000000 0 0 1
-36.863554 -33.666842 -3.410287 50.040063 0.740105 1.639000 0.017275 -0.001507 -610454.000000 0 0 1
-36.341054 32.923083 -4.179387 49.214519 -0.736091 1.655821 0.024009 -0.008637 -145108.000000 0 0 1
-35.366454 32.238083 -3.426387 47.977288 -0.739157 1.642274 0.021225 -0.001891 94773.100000 0 0 1
-34.646954 31.249283 -4.110687 46.838305 -0.733883 1.658673 0.042485 -0.012975 174154.000000 0 0 1
-33.404154 30.615483 -3.441687 45.442167 -0.741866 1.646607 0.046421 -0.015737 564212.000000 0 0 1
-32.360854 31.550883 -3.121287 45.303703 -0.772726 1.639748 0.040136 -0.021639 1235560.000000 0 0 1
-31.044754 30.948183 -3.128987 43.947211 -0.783840 1.642055 0.089434 -0.022586 1343340.000000 0 0 1
-30.531754 30.752683 -1.652487 43.366418 -0.789003 1.608911 0.078745 -0.011955 -444191.000000 0 0 1
-31.411354 30.014583 -0.885987 43.454957 -0.762663 1.591186 0.049615 -0.006584 -438666.000000 0 0 1
-31.023654 29.939383 0.508113 43.117188 -0.767614 1.559012 0.050448 -0.008513 33835.000000 0 0 1
-32.160754 29.331483 1.362513 43.548897 -0.739420 1.539504 0.048401 -0.013570 80168.000000 0 0 1
-32.467054 27.966483 1.084713 42.865025 -0.711064 1.545488 0.050879 -0.021615 334946.000000 0 0 1
-33.524254 27.834583 0.135013 43.573591 -0.692935 1.567698 0.057187 -0.017105 -116720.000000 0 0 1
-33.641654 26.431183 -0.423087 42.784896 -0.665941 1.580685 0.066145 -0.011424 -28535.200000 0 0 1
-33.992754 25.413583 0.479113 42.445107 -0.641975 1.559508 0.074273 -0.018620 170235.000000 0 0 1
-34.386754 24.234083 -0.266087 42.069115 -0.613907 1.577121 0.073106 -0.007233 -206851.000000 0 0 1
-34.465754 22.940983 0.525613 41.405956 -0.587275 1.558102 0.088463 -0.017582 -571964.000000 0 0 1
-33.270054 22.390983 0.973313 40.114835 -0.592379 1.546531 0.101937 -0.027571 -478248.000000 0 0 1
-32.815554 22.987483 2.178213 40.125174 -0.611065 1.516484 0.090395 -0.032766 403910.000000 0 0 1
-31.256554 22.867983 2.435413 38.805258 -0.631635 1.507995 0.086060 -0.044156 1009880.000000 0 0 1
-30.465554 23.711783 1.666113 38.641617 -0.661377 1.527666 0.084131 -0.037601 -336337.000000 0 0 1
-30.334854 25.041683 2.149813 39.394301 -0.690103 1.516198 0.054976 -0.032440 -496845.000000 0 0 1
-29.820454 26.063083 1.175213 39.622278 -0.718263 1.541132 0.044761 -0.022255 139137.000000 0 0 1
-28.542454 25.743983 0.653113 38.442826 -0.733894 1.553806 0.043490 -0.023509 -325719.000000 0 0 1
-28.082054 26.725683 -0.208987 38.767352 -0.760655 1.576187 0.041610 -0.021516 56492.500000 0 0 1
-26.807654 26.190483 -0.889687 37.488442 -0.773754 1.594531 0.039208 -0.022518 -431493.000000 0 0 1
-27.144554 25.155683 -1.801887 37.052422 -0.747389 1.619446 0.056533 -0.028405 -530396.000000 0 0 1
-26.092354 24.663383 -2.579387 35.996481 -0.757252 1.642514 0.063509 -0.021094 209108.000000 0 0 1
-25.099854 23.740783 -1.790887 34.595299 -0.757579 1.622586 0.065521 -0.025863 339182.000000 0 0 1
-25.672654 22.449083 -1.546187 34.138500 -0.718510 1.616103 0.057903 -0.025529 -17259.000000 0 0 1
-24.711954 21.605383 -0.966087 32.839101 -0.718427 1.600219 0.067774 -0.042964 -691279.000000 0 0 1
-25.274254 20.212283 -0.667887 32.369281 -0.674569 1.591431 0.105516 -0.045228 379749.000000 0 0 1
-26.192354 20.146383 0.452513 33.047253 -0.655658 1.557103 0.073337 -0.041020 1734380.000000 0 0 1
-27.522354 20.696883 0.299113 34.437340 -0.644782 1.562110 0.065198 -0.035731 1127260.000000 0 0 1
-28.538654 20.047083 -0.689587 34.882887 -0.612371 1.590566 0.087267 -0.038273 -176005.000000 0 0 1
-28.815954 18.666483 -0.391487 34.335842 -0.574815 1.582198 0.127773 -0.045833 154081.000000 0 0 1
-29.646754 18.138083 -1.400187 34.783338 -0.549056 1.611062 0.147693 -0.038382 -93007.800000 0 0 1
-29.834954 16.620783 -1.397887 34.180828 -0.508271 1.611705 0.168524 -0.040943 275635.000000 0 0 1
-30.689354 16.246683 -0.295787 34.725764 -0.486883 1.579314 0.177331 -0.046972 499977.000000 0 0 1
-30.625954 14.847783 0.024413 34.035369 -0.451422 1.570079 0.184281 -0.044607 277865.000000 0 0 1
-29.265154 14.295883 0.545713 32.574826 -0.454401 1.554043 0.203637 -0.044974 -304765.000000 0 0 1
-29.164554 14.447583 1.955113 32.605618 -0.459946 1.510798 0.223576 -0.049949 331313.000000 0 0 1
-27.869654 14.269283 2.508613 31.410559 -0.473202 1.490846 0.221252 -0.049822 316564.000000 0 0 1
-27.333754 12.788683 2.482513 30.279488 -0.437616 1.488718 0.221746 -0.049297 -402799.000000 0 0 1
-27.103354 12.289283 1.193513 29.783263 -0.425697 1.530712 0.202721 -0.051010 160776.000000 0 0 1
-26.752554 10.937583 1.293813 28.931018 -0.388106 1.526061 0.213904 -0.045808 -58654.000000 0 0 1
-26.707354 10.208783 -0.079587 28.592103 -0.365108 1.573580 0.192828 -0.040082 181863.000000 0 0 1
-28.007154 9.979683 -0.598287 29.738068 -0.342299 1.590916 0.194920 -0.045426 450573.000000 0 0 1
-27.849454 9.187183 -1.720287 29.376110 -0.318646 1.629391 0.193964 -0.041857 642346.000000 0 0 1
-29.180154 8.929183 -2.524687 30.620022 -0.296954 1.653342 0.189351 -0.049496 528255.000000 0 0 1
-29.127354 7.903883 -3.495587 30.382450 -0.264975 1.686105 0.183694 -0.042494 -615488.000000 0 0 1
-30.324354 7.806383 -4.174087 31.590015 -0.251959 1.703317 0.170773 -0.041877 -892053.000000 0 0 1
-12.320721 18.073583 -19.645787 29.400875 -0.972460 2.302589 0.113031 -0.026065 150218.000000 0 0 1
-12.339321 17.051783 -20.642387 29.481015 -0.944381 2.346463 0.095545 -0.036562 1363770.000000 0 0 1
-11.049321 17.077283 -21.353687 29.490693 -0.996520 2.380499 0.086924 -0.033841 1673110.000000 0 0 1
-10.817621 15.939483 -22.415987 29.556124 -0.974531 2.431683 0.084124 -0.027546 -112779.000000 0 0 1
-10.365921 14.703983 -21.910587 28.350189 -0.956740 2.454124 0.103752 -0.038902 -168975.000000 0 0 1
-10.365221 13.725983 -22.952487 28.681999 -0.924005 2.498492 0.109837 -0.038850 -86045.500000 0 0 1
-9.513421 12.453483 -22.705087 27.588319 -0.918448 2.537462 0.092088 -0.034343 334229.000000 0 0 1
-8.109721 12.669983 -22.764887 27.286189 -1.001431 2.557659 0.088018 -0.032351 -120008.000000 0 0 1
-7.438521 11.518183 -22.362887 26.231638 -0.997375 2.591576 0.078239 -0.025666 -795064.000000 0 0 1
-5.936921 11.632083 -22.251587 25.800881 -1.098870 2.610857 0.059738 -0.023325 -429646.000000 0 0 1
-5.216821 11.378483 -23.463887 26.593967 -1.140912 2.651525 0.044921 -0.026727 -844873.000000 0 0 1
-3.856321 11.221183 -23.263687 26.114848 -1.239777 2.669948 0.046627 -0.026309 -272889.000000 0 0 1
-3.025121 11.011083 -24.588487 27.110680 -1.302677 2.706822 0.064424 -0.036527 218934.000000 0 0 1
-3.409121 9.855483 -25.292137 27.357720 -1.237769 2.750511 0.068526 -0.029895 -290402.000000 0 0 1
-2.645721 9.728783 -26.438307 28.295461 -1.305270 2.777271 0.067576 -0.029008 -491109.000000 0 0 1
-2.405521 8.212783 -26.882507 28.211797 -1.285866 2.833395 0.072408 -0.015311 714831.000000 0 0 1
-1.344921 7.455883 -26.240787 27.312596 -1.392332 2.860517 0.061958 -0.018193 609821.000000 0 0 1
-1.571521 7.137683 -24.893387 25.944111 -1.354082 2.856020 0.072008 -0.030444 -231550.000000 0 0 1
-0.667121 6.072083 -24.231387 24.989505 -1.461368 2.894643 -0.006303 -0.021246 1207610.000000 0 1 0
0.705979 6.521383 -24.008487 24.888437 1.462960 2.874886 0.035308 -0.012095 1510360.000000 0 1 0
1.462679 5.585983 -23.249487 23.955819 1.314698 2.898155 0.031344 -0.002560 196297.000000 0 1 0
1.813679 6.056983 -21.850487 22.746873 1.279857 2.859924 0.049748 -0.012648 -121086.000000 0 1 0
2.501479 7.286283 -21.850987 23.169224 1.240091 2.802642 0.048903 -0.023971 39632.200000 0 1 0
2.499679 7.957283 -20.608787 22.232607 1.266420 2.757029 0.063748 -0.025056 -738164.000000 0 1 0
3.135679 9.283383 -20.625387 22.834628 1.245055 2.698081 0.051419 -0.034899 -708807.000000 0 1 0
2.738879 10.231383 -19.657687 22.329516 1.309235 2.647386 0.051326 -0.031162 117926.000000 0 1 0
3.350879 11.533983 -19.772187 23.134401 1.288057 2.595704 0.047842 -0.031620 20561.500000 0 1 0
4.611679 11.691583 -18.895687 22.693780 1.195088 2.554649 0.047483 -0.025760 183910.000000 0 1 0
5.689579 10.896583 -19.363387 22.935727 1.089591 2.575952 0.057017 -0.027946 -629666.000000 0 1 0
6.734779 10.880483 -18.429287 22.436149 1.016539 2.534676 0.063452 -0.012635 -183164.000000 0 1 0
7.865079 9.946283 -18.871187 22.735648 0.901718 2.549951 0.101537 -0.024748 -255902.000000 0 1 0
7.445179 8.588683 -18.926887 22.077663 0.856596 2.600772 0.085356 -0.025079 351504.000000 0 1 0
7.000079 8.216383 -20.237487 22.936127 0.865162 2.651610 0.070134 -0.016230 53608.000000 0 1 0
6.537479 6.786683 -20.371787 22.445654 0.804099 2.708340 0.082865 -0.022761 1187750.000000 0 1 0
7.710379 5.924083 -20.198087 22.416677 0.655127 2.692933 0.083940 -0.026242 1481450.000000 0 1 0
7.463279 4.576583 -20.633387 22.413886 0.550079 2.740315 0.077837 -0.017569 1987.530000 0 1 0
7.594479 4.217683 -22.107787 23.753299 0.506950 2.767186 0.100134 -0.027582 188028.000000 0 1 0
6.473379 4.637783 -22.880887 24.227023 0.621674 2.806673 0.095369 -0.030361 184944.000000 0 1 0
6.615079 4.326383 -24.244387 25.500336 0.579195 2.826436 0.100687 -0.031690 254508.000000 0 0 1
5.728679 5.171883 -25.246997 26.400322 0.734363 2.844918 0.083318 -0.027749 162473.000000 0 0 1
5.952879 6.571483 -25.246127 26.757953 0.834750 2.803834 0.078529 -0.039578 144415.000000 0 0 1
5.531179 7.270483 -24.049087 25.725715 0.920437 2.778567 0.093719 -0.043745 -860717.000000 0 0 1
5.520179 8.825983 -24.251587 26.391472 1.011876 2.736124 0.094678 -0.050921 138141.000000 0 0 1
4.352679 9.331083 -24.851887 26.900394 1.134330 2.748812 0.081587 -0.052482 234973.000000 0 0 1
3.154179 9.219383 -24.077387 25.974341 1.241154 2.757045 0.074894 -0.050210 -966205.000000 0 0 1
1.941179 9.530083 -24.892787 26.725297 1.369856 2.769124 0.086331 -0.037307 -1009330.000000 0 0 1
1.867879 10.911083 -25.337447 27.650080 1.401249 2.729690 0.097073 -0.047646 -56670.900000 0 0 1
0.656279 11.073583 -26.047387 28.311151 1.511600 2.738978 0.115154 -0.051793 -154917.000000 0 0 1
0.239979 12.480983 -26.509197 29.301366 1.551571 2.701492 0.101021 -0.050612 33782.900000 0 0 1
-0.220621 13.246183 -25.394107 28.642114 -1.554142 2.660739 0.089849 -0.052042 11431.800000 0 0 1
-0.354121 14.628683 -25.729457 29.599471 -1.546594 2.624487 0.095094 -0.055579 -146202.000000 0 0 1
-0.922321 15.453383 -24.521887 28.999666 -1.511183 2.578470 0.095229 -0.049497 1493750.000000 0 0 1
-2.317621 15.086383 -24.278087 28.677444 -1.418365 2.580345 0.094148 -0.040421 1262830.000000 0 0 1
-2.640421 15.541183 -22.986687 27.872710 -1.402505 2.540472 0.089565 -0.044274 -845857.000000 0 0 1
-3.912521 14.968483 -22.426087 27.245048 -1.315132 2.537689 0.098601 -0.037920 385099.000000 0 0 1
-5.212421 15.352383 -22.912787 28.068858 -1.243489 2.525784 0.100639 -0.035343 865472.000000 0 0 1
-5.573521 14.904283 -24.230787 28.988494 -1.212943 2.560523 0.095583 -0.037290 -160841.000000 0 0 1
-7.053721 15.021283 -24.672787 29.734497 -1.131778 2.549491 0.070624 -0.032709 152407.000000 0 0 1
-7.448221 16.347583 -24.850987 30.664165 -1.143282 2.515672 0.069921 -0.034176 -160507.000000 0 0 1
-8.807021 16.362683 -25.247137 31.348348 -1.077028 2.507102 0.079375 -0.031195 -81560.200000 0 0 1
-9.249121 17.739383 -25.715427 32.580901 -1.090184 2.480431 0.090133 -0.032612 -236309.000000 0 0 1
-9.418121 18.723483 -24.700287 32.394042 -1.104743 2.437957 0.087674 -0.036422 -202665.000000 0 0 1
-10.627521 19.381383 -25.008587 33.376812 -1.069231 2.417771 0.071224 -0.024734 -12653.900000 0 0 1
-11.203821 20.044383 -23.782687 33.059326 -1.061107 2.373726 0.053990 -0.023417 -145014.000000 0 0 1
-10.670521 21.361983 -23.511687 33.511098 -1.107541 2.348449 0.081996 -0.022222 36159.000000 0 0 1
-11.292021 22.518683 -24.068387 34.840896 -1.105988 2.333403 0.063041 -0.024168 -151684.000000 0 0 1
-11.064121 22.782083 -25.549877 35.975467 -1.118694 2.360583 0.064602 -0.022447 -377438.000000 0 0 1
-11.635021 21.937383 -26.475117 36.298130 -1.083146 2.388211 0.067782 -0.026586 -212351.000000 0 0 1
-11.664021 22.566983 -27.757747 37.627258 -1.093750 2.400458 0.077821 -0.014455 49600.100000 0 0 1
-12.432321 21.683683 -28.769027 38.110387 -1.050204 2.426278 0.085295 -0.018077 -183856.000000 0 0 1
-11.645621 20.710383 -29.350837 37.762575 -1.058552 2.461074 0.093801 -0.026194 -438205.000000 0 0 1
-11.395221 19.538983 -28.633037 36.489364 -1.042818 2.473001 0.094989 -0.026537 -52424.800000 0 0 1
-10.204121 18.761783 -29.259597 36.225027 -1.072665 2.511067 0.082716 -0.033199 -705920.000000 0 0 1
-8.941221 19.281883 -28.929617 35.897899 -1.136599 2.507967 0.077043 -0.033569 192940.000000 0 0 1
-7.862021 18.506283 -29.509097 35.708271 -1.169070 2.543469 0.077436 -0.037656 822060.000000 0 0 1
-7.544821 17.047283 -28.990047 34.466752 -1.154128 2.570113 0.087742 -0.040784 -848635.000000 0 0 1
-8.593521 16.140883 -29.176287 34.433013 -1.081560 2.581742 0.071012 -0.033757 -94707.400000 0 0 1
-8.283521 14.854983 -28.590777 33.267397 -1.062117 2.604937 0.059796 -0.029779 24643.800000 0 0 1
-9.609521 14.119383 -28.403877 33.143326 -0.973216 2.600219 0.059054 -0.014028 66601.100000 0 0 1
-10.482121 14.435983 -27.351047 32.655049 -0.942761 2.563625 0.077010 -0.016791 -518237.000000 0 0 1
-11.596721 13.615683 -27.193887 32.548091 -0.865306 2.559836 0.112313 -0.021818 -224228.000000 0 0 1
-12.490321 14.240483 -26.117197 32.263097 -0.850778 2.514108 0.105728 -0.022557 -137152.000000 0 0 1
-13.039521 15.506583 -26.451507 33.319145 -0.871608 2.487965 0.093752 -0.023434 -300710.000000 0 0 1
-14.008221 15.855783 -25.491607 33.127905 -0.847185 2.448839 0.096862 -0.028305 32159.300000 0 0 1
-14.996321 16.948783 -25.920927 34.409959 -0.846442 2.423858 0.078361 -0.023909 -26969.800000 0 0 1
-14.500021 18.265383 -25.927877 34.873050 -0.899815 2.409075 0.073305 -0.026427 -236029.000000 0 0 1
-15.541921 19.134283 -26.256207 36.014726 -0.888627 2.387716 0.067601 -0.021780 -241356.000000 0 0 1
-15.187521 20.626583 -26.022047 36.513882 -0.936116 2.364082 0.068120 -0.021087 -368904.000000 0 0 1
-16.142421 21.502283 -26.524217 37.768505 -0.926828 2.349397 0.043406 -0.014827 -252260.000000 0 0 1
-15.706621 22.863283 -26.750557 38.535956 -0.968862 2.338064 0.046032 -0.015416 -166016.000000 0 0 1
-15.123821 23.710283 -25.607187 38.034661 -1.003003 2.309404 0.024011 -0.009451 34817.300000 0 0 1
-14.891621 25.043483 -26.000057 39.050472 -1.034334 2.299371 0.038345 -0.013639 81993.900000 0 0 1
-14.393621 25.794483 -24.906787 38.637801 -1.061823 2.271325 0.023709 -0.009955 -497252.000000 0 0 1
-13.995821 27.218583 -25.248947 39.676738 -1.095853 2.260575 0.052069 -0.019303 -824387.000000 0 0 1
-14.997221 28.129483 -25.502537 40.823569 -1.080982 2.245545 0.051721 -0.019775 -773079.000000 0 0 1
-15.543721 28.688783 -24.316887 40.693543 -1.074267 2.211253 0.041703 -0.019092 441006.000000 0 0 1
-16.868721 29.522383 -24.531887 41.927774 -1.051681 2.195798 0.036765 -0.024959 1147900.000000 0 0 1
-17.895221 28.575383 -24.867787 41.895086 -1.011301 2.206288 0.023808 -0.019867 -789006.000000 0 0 1
-19.087921 29.184383 -25.247057 43.052187 -0.991582 2.197440 0.027933 -0.021316 -275245.000000 0 0 1
-20.212221 28.119983 -25.306517 42.891573 -0.947574 2.201869 0.037673 -0.008992 -308329.000000 0 0 1
-20.562621 27.710583 -24.017987 42.042377 -0.932403 2.178861 0.044493 -0.011380 207135.000000 0 0 1
-21.680321 26.819383 -23.996687 42.013766 -0.890965 2.178718 0.046351 -0.023768 41122.900000 0 0 1
-22.102221 26.478083 -22.581087 41.225023 -0.875231 2.150471 0.061337 -0.018681 -492087.000000 0 0 1
-22.984521 27.454183 -22.159287 42.107651 -0.873783 2.124985 0.072780 -0.017904 -491650.000000 0 0 1
-23.402121 27.225883 -20.826887 41.505025 -0.860782 2.096465 0.067231 -0.011619 -119710.000000 0 0 1
-24.552221 28.174783 -20.386487 42.570398 -0.853994 2.070185 0.057986 -0.006299 927914.000000 0 0 1
-25.819991 27.727883 -20.904087 43.272257 -0.821013 2.074969 0.098623 -0.018564 407113.000000 0 0 1
-26.863681 28.620183 -20.582887 44.321862 -0.817045 2.053749 0.100542 -0.017629 373356.000000 0 0 1
-28.264221 27.984283 -20.805287 44.887038 -0.780421 2.052741 0.106794 -0.016642 216192.000000 0 0 1
-28.562181 27.820983 -22.170887 45.621853 -0.772253 2.078270 0.104737 -0.025914 53999.900000 0 0 1
-29.955751 27.617883 -22.328487 46.461336 -0.744814 2.072115 0.109312 -0.027366 243663.000000 0 0 1
-30.331331 27.107083 -23.784587 47.122077 -0.729323 2.099882 0.099497 -0.030073 -55798.500000 0 0 1
-30.064651 25.745583 -23.931287 46.253916 -0.708164 2.114594 0.106152 -0.021598 -48632.500000 0 0 1
-30.331541 25.435883 -25.265667 46.961052 -0.697836 2.138875 0.097914 -0.021894 -88827.700000 0 0 1
-30.456111 23.903583 -25.480307 46.348700 -0.665437 2.152864 0.080634 -0.029391 574172.000000 0 0 1
-29.241261 23.125783 -25.575387 45.210104 -0.669144 2.172079 0.094561 -0.026358 708650.000000 0 0 1
-29.505081 21.912183 -26.287307 45.185352 -0.638786 2.191695 0.084289 -0.027449 17004.200000 0 0 1
-28.257801 20.995583 -26.345677 43.970586 -0.639007 2.213255 0.093104 -0.021964 186988.000000 0 0 1
-27.974691 20.383283 -25.085477 42.747429 -0.629685 2.197935 0.093308 -0.020706 197863.000000 0 0 1
-27.332921 19.129283 -25.164437 41.788358 -0.610634 2.217035 0.077869 -0.020177 -96018.600000 0 0 1
-28.336191 17.968483 -25.042327 41.867937 -0.565129 2.211958 0.075450 -0.008514 15217.700000 0 0 1
-29.138001 17.762483 -26.191197 43.017527 -0.547447 2.225406 0.076088 -0.017564 11431.600000 0 0 1
-29.874581 16.592283 -26.139917 43.024291 -0.506978 2.223784 0.051549 -0.004616 -448898.000000 0 0 1
-30.630901 16.215783 -27.409617 44.186998 -0.486885 2.239934 0.036837 -0.010843 412747.000000 0 0 1
-31.956131 16.757983 -27.485977 45.359709 -0.482981 2.221763 0.034577 -0.018930 419366.000000 0 0 1
-32.575721 16.106983 -28.604907 46.247737 -0.459196 2.237647 0.032410 -0.009482 -105199.000000 0 0 1
-33.976491 16.664283 -28.887747 47.608845 -0.455991 2.222790 0.027569 -0.012427 90257.900000 0 0 1
-34.989550 16.253883 -27.965417 47.649993 -0.434876 2.198012 0.006999 -0.009839 -197529.000000 0 0 1
-36.235631 16.605783 -28.499647 49.000029 -0.429712 2.191521 0.018131 -0.015018 -379545.000000 0 0 1
37.228943 16.242883 -27.625977 49.122500 0.411400 2.168069 0.035091 -0.007427 -295234.000000 0 0 1
36.920913 17.180183 -26.604117 48.642487 0.435524 2.149491 0.032505 -0.015575 -466993.000000 0 0 1
35.888863 16.639283 -25.826167 47.242641 0.434134 2.149179 0.051159 -0.014798 -22631.600000 0 0 1
35.257613 17.757383 -24.874387 46.660037 0.466561 2.133055 0.063399 -0.008466 107608.000000 0 0 1
34.475023 18.709983 -25.556697 46.815974 0.497230 2.148256 0.062409 -0.026408 163742.000000 0 0 1
34.171003 19.849283 -24.758887 46.633185 0.526243 2.130492 0.070606 -0.015807 -229560.000000 0 0 1
33.544363 21.101283 -25.491617 47.120176 0.561511 2.142412 0.083761 -0.017016 469850.000000 0 0 1
32.197163 20.998483 -25.897967 46.349739 0.577909 2.163675 0.095575 -0.027024 -276259.000000 0 0 1
31.212113 21.471583 -25.026787 45.404459 0.602576 2.154594 0.093655 -0.012129 -416551.000000 0 0 1
29.880493 21.616683 -25.775437 44.994422 0.626284 2.180785 0.062761 -0.019985 -163613.000000 0 0 1
29.389913 20.317483 -26.109907 44.252619 0.604869 2.201879 0.081873 -0.033790 -37674.600000 0 0 1
28.188713 20.403683 -26.868147 43.963748 0.626537 2.228300 0.093255 -0.042817 266022.000000 0 0 1
27.497813 19.000383 -27.164067 43.070068 0.604645 2.253244 0.106622 -0.028832 -429691.000000 0 0 1
28.157713 18.068983 -27.962247 43.603121 0.570523 2.266975 0.112838 -0.041514 -766825.000000 0 0 1
29.310813 17.572583 -27.383017 43.792112 0.540071 2.246307 0.111761 -0.035817 -676382.000000 0 0 1
30.182823 16.640383 -28.270757 44.577358 0.503856 2.257764 0.094460 -0.031981 -37155.500000 0 0 1
29.675313 15.356583 -28.701907 44.048250 0.477539 2.280490 0.103893 -0.039980 -6837.200000 0 0 1
29.251013 14.400983 -27.698797 42.781227 0.457488 2.275033 0.108699 -0.031244 -2482.500000 0 0 1
30.246143 13.779783 -26.670107 42.614624 0.427491 2.247010 0.091489 -0.018698 14191.400000 0 0 1
30.784683 14.687783 -25.713477 42.715460 0.445171 2.216764 0.085292 -0.026801 -423232.000000 0 0 1
31.867433 14.118983 -25.071847 42.935725 0.417062 2.194369 0.060844 -0.017410 -521846.000000 0 0 1
-14.936821 -31.418642 -24.069387 42.303369 1.127011 2.176050 0.139789 -0.025891 -23294.900000 0 0 1
-14.286121 -30.262742 -24.497387 41.473470 1.129742 2.202693 0.138117 -0.030486 63035.500000 0 0 1
-14.728221 -29.925742 -25.797697 42.166238 1.113441 2.229142 0.114957 -0.028887 209904.000000 0 0 1
-14.014521 -28.629342 -26.325057 41.340714 1.115571 2.261115 0.120153 -0.033848 64586.600000 0 0 1
-14.403421 -27.398742 -25.810777 40.303173 1.086804 2.265835 0.124131 -0.026651 227413.000000 0 0 1
-13.732521 -26.292642 -26.474157 39.758849 1.089472 2.299453 0.102618 -0.022206 40098.400000 0 0 1
-14.235421 -24.933642 -25.971917 38.715296 1.052024 2.306142 0.073215 -0.019715 -109861.000000 0 0 1
-13.895921 -24.546242 -24.676687 37.477373 1.055667 2.289544 0.092053 -0.028606 -121400.000000 0 0 1
-14.206221 -23.176942 -24.426987 36.546751 1.020912 2.302820 0.070473 -0.025210 -114812.000000 0 0 1
-13.774621 -22.560942 -23.083387 35.093860 1.022654 2.288639 0.079457 -0.012908 622988.000000 0 0 1
-12.351021 -22.546242 -22.966087 34.472045 1.069637 2.299930 0.108441 -0.026228 296184.000000 0 0 1
-11.978321 -21.839042 -21.818887 33.113256 1.069119 2.290174 0.078486 -0.021964 -181883.000000 0 0 1
-10.506921 -21.430042 -21.723487 32.273084 1.114947 2.309209 0.089157 -0.026043 -222628.000000 0 0 1
-9.986121 -20.486242 -22.648687 32.130542 1.117235 2.353073 0.106813 -0.037569 -247490.000000 0 0 1
-8.652921 -20.155942 -22.377487 31.335075 1.165290 2.366185 0.143296 -0.040830 -264979.000000 0 0 1
-7.966521 -19.128542 -23.288887 31.172725 1.176170 2.414472 0.147816 -0.046855 -57081.300000 0 0 1
-8.365321 -17.833742 -22.892687 30.200928 1.132195 2.431057 0.111111 -0.048599 -329271.000000 0 0 1
-8.380021 -16.783642 -23.839087 30.335086 1.107711 2.474880 0.101944 -0.040732 303959.000000 0 0 1
-7.079721 -16.380942 -24.626287 30.412361 1.162849 2.514515 0.116624 -0.042888 456765.000000 0 0 1
-6.804921 -17.153742 -25.784977 31.708403 1.193136 2.520410 0.119911 -0.043821 -61556.200000 0 0 1
-5.820421 -16.483942 -26.563167 31.799363 1.231366 2.559541 0.091213 -0.036584 108505.000000 0 0 1
-5.540521 -17.214342 -27.864077 33.218033 1.259412 2.565915 0.092951 -0.027166 -254216.000000 0 0 1
-6.653121 -17.116342 -28.702747 34.074636 1.200069 2.572424 0.105803 -0.023917 -268162.000000 0 0 1
-6.491821 -17.932842 -29.850537 35.422946 1.223465 2.573055 0.102820 -0.026066 606295.000000 0 0 1
-7.582421 -17.688642 -30.984997 36.475350 1.165829 2.585791 0.112464 -0.022199 715079.000000 0 0 1
-7.383121 -16.651242 -31.897867 36.732114 1.153447 2.622746 0.082737 -0.023356 -252808.000000 0 0 1
-7.343821 -15.338242 -31.317707 35.636949 1.124259 2.644135 0.075348 -0.016032 -124102.000000 0 0 1
-7.850921 -14.261042 -32.218427 36.097663 1.067558 2.673732 0.057680 -0.022787 -15903.300000 0 0 1
-7.018021 -14.038342 -33.370867 36.877397 1.107214 2.701974 0.089767 -0.036098 160883.000000 0 0 1
-7.569921 -13.083342 33.589987 36.834287 1.046267 0.422853 0.082506 -0.028050 -205745.000000 0 0 1
-7.505921 -11.581642 -33.852307 36.557516 0.995767 2.754476 0.060905 -0.018757 343871.000000 0 0 1
-6.220821 -10.981342 -33.921797 36.193601 1.055381 2.785402 0.074504 -0.014207 140796.000000 0 0 1
-6.039321 -10.339042 32.763301 34.882704 1.042129 0.350381 0.068863 -0.020173 280287.000000 0 0 1
-4.769021 -9.435442 32.752011 34.416063 1.102809 0.312236 0.061627 -0.019836 167741.000000 0 0 1
-4.813321 -8.673242 31.545538 33.068325 1.064151 0.304656 0.046996 -0.012112 230079.000000 0 0 1
-3.916621 -7.560442 31.648928 32.774301 1.092820 0.262813 0.051064 -0.018525 -232128.000000 0 0 1
-4.149821 -6.476242 30.547198 31.500698 1.000933 0.246670 0.043788 -0.015417 542583.000000 0 0 1
-5.295721 -5.653542 30.641018 31.605049 0.818066 0.247624 0.021303 -0.010509 223316.000000 0 0 1
-6.569421 -6.222142 30.403988 31.721835 0.758256 0.289257 0.030603 -0.011194 -347301.000000 0 0 1
-7.737821 -5.267742 30.275548 31.689616 0.597709 0.299861 0.020560 -0.012352 500086.000000 0 0 1
-8.906221 -5.882542 29.706708 31.566019 0.583720 0.344934 0.019774 -0.010173 652355.000000 0 0 1
-10.051721 -5.030642 29.645418 31.704814 0.464028 0.362411 0.030380 -0.019226 667335.000000 0 0 1
-11.107021 -5.560542 28.628278 31.206791 0.464154 0.409366 0.040023 -0.019973 -49591.000000 0 0 1
-10.703221 -5.360342 27.318718 29.826239 0.464300 0.412980 0.029990 -0.015474 -81424.100000 0 0 1
-11.397121 -6.175142 26.438618 29.445326 0.496538 0.455847 0.046700 -0.024614 -315649.000000 0 0 1
-10.946721 -6.045242 24.973878 27.929737 0.504563 0.464227 0.038942 -0.023474 565589.000000 0 0 1
-9.880121 -6.968242 24.645668 27.451450 0.614260 0.456068 0.025276 -0.016840 814585.000000 0 0 1
-9.196721 -6.668942 23.384438 25.997815 0.627402 0.452225 0.024841 -0.025810 21167.700000 0 0 1
-10.007121 -6.747542 22.083438 25.166446 0.593251 0.500182 0.043147 -0.029887 -431654.000000 0 0 1
-10.979221 -5.735042 22.045938 25.287494 0.481371 0.511907 0.042539 -0.029201 -127164.000000 0 0 1
-11.802821 -5.893442 20.888738 24.705841 0.463107 0.563299 0.060105 -0.030311 185303.000000 0 1 0
-13.018021 -4.956242 20.771438 25.009714 0.363777 0.590729 0.073044 -0.020039 -17383.600000 0 0 1
-12.646921 -3.660142 20.452138 24.323470 0.281713 0.571964 0.039737 -0.014891 223751.000000 0 1 0
-13.669521 -2.764642 20.873538 25.103856 0.199557 0.589017 0.055376 -0.007363 335578.000000 0 0 1
-13.442621 -1.315642 20.289638 24.374256 0.097560 0.587334 0.037370 -0.002346 -78933.700000 0 1 0
-12.450721 -0.518642 20.879738 24.315692 0.041631 0.538081 0.044250 -0.004020 -204598.000000 0 1 0
-12.718921 0.861358 20.688838 24.301047 -0.067619 0.552232 0.059598 -0.016806 -367351.000000 0 1 0
-12.505321 1.356358 19.255738 23.000134 -0.108040 0.578651 0.056306 -0.025091 -149677.000000 0 1 0
-13.309121 0.893358 18.162238 22.534366 -0.067023 0.633468 0.074770 -0.018292 -843483.000000 0 1 0
-14.554921 1.500358 18.245838 23.388189 -0.102720 0.675922 0.079559 -0.014294 -695910.000000 0 1 0
-15.675121 0.733358 17.477238 23.488317 -0.046751 0.731636 0.092624 -0.009067 144902.000000 0 1 0
-16.075621 -0.461642 18.107038 24.217834 0.028709 0.726244 0.089511 -0.005521 289355.000000 0 1 0
-16.947521 -1.256642 17.321138 24.265601 0.074014 0.775866 0.091467 -0.003195 92508.400000 0 1 0
-16.948021 -2.747642 17.672338 24.639327 0.160723 0.770961 0.086954 0.000056 25579.100000 0 1 0
-17.665921 -3.108442 18.830338 26.006322 0.174174 0.761115 0.104487 -0.002241 -58173.800000 0 0 1
-17.697721 -4.519242 19.015238 26.366875 0.250014 0.765294 0.111781 0.004181 522790.000000 0 0 1
-18.621121 -4.935342 20.239538 27.941772 0.259083 0.760710 0.097277 0.011871 -93491.800000 0 0 1
-18.092321 -4.401242 21.439938 28.396724 0.238631 0.715120 0.098417 0.004340 144968.000000 0 0 1
-18.953921 -4.622842 22.526238 29.800221 0.239228 0.713756 0.100154 -0.008223 -385113.000000 0 0 1
-18.767621 -6.104742 23.093698 30.377793 0.314486 0.707150 0.102734 -0.006538 2049960.000000 0 0 1
-17.406421 -6.385142 23.588318 30.002704 0.351586 0.666150 0.085718 -0.022805 1779950.000000 0 0 1
-16.468121 -6.771742 22.630538 28.795776 0.390127 0.666650 0.106655 -0.019203 353766.000000 0 0 1
-15.017021 -7.072942 23.157888 28.492546 0.440176 0.621905 0.114597 -0.027610 721320.000000 0 0 1
-14.870321 -8.370742 23.740928 29.237431 0.512705 0.623218 0.113611 -0.034689 2394.820000 0 0 1
-15.049021 -8.490142 25.137038 30.502888 0.513654 0.602208 0.088858 -0.032370 331505.000000 0 0 1
-16.061821 -9.584442 25.631028 31.730004 0.538006 0.630411 0.072493 -0.019494 147670.000000 0 0 1
-15.720221 -10.965942 25.491038 31.893106 0.609093 0.644725 0.075112 -0.027846 -181064.000000 0 0 1
-14.992321 -11.400942 26.631998 32.619234 0.650157 0.615559 0.063956 -0.018569 84959.800000 0 0 1
-14.925921 -12.927142 26.663668 33.178988 0.713759 0.637425 0.054805 -0.023935 53787.800000 0 0 1
-16.226921 -13.433942 26.923998 34.186041 0.691511 0.663936 0.057392 -0.021780 297991.000000 0 0 1
-16.411921 -14.811242 26.643298 34.620649 0.734177 0.692616 0.066283 -0.019637 22450.500000 0 0 1
-15.622921 -15.826242 27.529608 35.389615 0.791863 0.679478 0.053293 -0.016821 818431.000000 0 0 1
-14.249021 -15.939242 27.134008 34.544875 0.841329 0.667339 0.046164 -0.024021 853933.000000 0 0 1
-13.479021 -16.866242 27.905358 35.282617 0.896561 0.658502 0.057679 -0.023783 216173.000000 0 0 1
-12.117921 -17.171042 27.244518 34.408610 0.956243 0.657056 0.055039 -0.033953 47967.100000 0 0 1
-11.311221 -18.082242 27.981038 35.183087 1.011807 0.651297 0.055269 -0.028543 456112.000000 0 0 1
-10.177621 -18.514642 27.235498 34.469526 1.068178 0.659771 0.064350 -0.031273 329069.000000 0 0 1
-9.041721 -19.154342 28.043008 35.143304 1.129761 0.646891 0.077371 -0.030084 98714.500000 0 0 1
-9.530721 -20.355842 28.588158 36.365886 1.132906 0.666281 0.086782 -0.023436 68375.200000 0 0 1
-8.484821 -20.982542 29.286178 37.012693 1.186524 0.657951 0.100503 -0.024028 -132500.000000 0 0 1
-8.776221 -22.280642 30.083148 38.450550 1.195564 0.672310 0.118185 -0.033179 -88850.600000 0 0 1
-8.816821 -23.442242 29.211618 38.478483 1.211054 0.708763 0.133661 -0.037205 152945.000000 0 0 1
-9.314421 -24.553842 29.945418 39.829356 1.208220 0.719944 0.121560 -0.035780 -33863.500000 0 0 1
-9.598721 -25.782142 29.039368 40.001739 1.214394 0.758378 0.121265 -0.031174 142100.000000 0 0 1
-10.808221 -25.750242 28.292688 39.753852 1.173396 0.778886 0.107410 -0.027464 194496.000000 0 0 1
-10.826621 -26.798542 27.334568 39.781354 1.186846 0.813279 0.108108 -0.022135 -324797.000000 0 0 1
-12.168021 -27.063342 26.625918 39.867589 1.148265 0.839468 0.093812 -0.017088 -135912.000000 0 0 1
-12.527621 -26.268442 25.532638 38.715474 1.125793 0.850650 0.097483 -0.018774 137276.000000 0 0 1
-12.879521 -24.894742 25.734878 38.051467 1.093358 0.828044 0.078784 -0.013535 -304335.000000 0 0 1
-13.172421 -24.208742 24.388958 36.802134 1.072480 0.846371 0.077307 -0.022742 -159659.000000 0 0 1
-14.182521 -24.800042 23.616808 37.066691 1.051314 0.880010 0.060517 -0.013494 -116419.000000 0 0 1
-14.205021 -24.101442 22.380738 35.826799 1.038219 0.896058 0.071884 -0.020668 218231.000000 0 0 1
-15.556421 -24.322742 21.657238 36.092020 1.001779 0.927225 0.060701 -0.023661 -63164.500000 0 0 1
-15.677221 -25.680442 21.092138 36.744232 1.022712 0.959382 0.077965 -0.019907 75541.300000 0 0 1
-16.762521 -25.857342 20.200538 36.846247 0.995639 0.990540 0.075977 -0.022374 77797.200000 0 0 1
-16.930621 -27.343142 19.772838 37.752595 1.016385 1.019552 0.082854 -0.027935 102428.000000 0 0 1
-16.114121 -27.651842 18.661438 37.047786 1.043157 1.042905 0.086724 -0.032020 80842.800000 0 0 1
-15.940221 -29.038142 18.637338 38.008613 1.068767 1.058311 0.113993 -0.026989 -151311.000000 0 0 1
-14.869221 -29.456142 17.635638 37.413550 1.103323 1.079952 0.102266 -0.037226 -516533.000000 0 0 1
-15.296521 -29.261642 16.334938 36.838260 1.089115 1.111382 0.098944 -0.039188 -308224.000000 0 0 1
-14.282821 -29.401242 15.377738 36.123494 1.118581 1.131062 0.087854 -0.036683 -210459.000000 0 0 1
-14.639121 -28.724942 14.008438 35.151991 1.099474 1.160904 0.077667 -0.031811 -4575.210000 0 0 1
-14.411221 -27.304042 13.862338 33.843144 1.085153 1.148775 0.080932 -0.026701 -160597.000000 0 0 1
-14.901321 -26.745842 12.673238 33.136088 1.062484 1.178339 0.072030 -0.018318 -479696.000000 0 0 1
-14.067621 -26.933742 11.456438 32.474211 1.089465 1.210250 0.070324 -0.012163 -317057.000000 0 0 1
-14.485921 -26.123842 10.405438 31.631790 1.064497 1.235599 0.061088 -0.012729 115302.000000 0 0 1
-13.515921 -26.181042 9.370238 30.918092 1.094235 1.262887 0.071408 -0.013052 476721.000000 0 0 1
-14.040921 -25.493442 8.054538 30.198321 1.067365 1.300807 0.086170 -0.019319 66543.800000 0 0 1
-14.858921 -26.240742 7.203738 31.004159 1.055560 1.336306 0.078343 -0.018388 -160717.000000 0 0 1
-15.142621 -25.560842 6.020938 30.313483 1.035973 1.370844 0.078027 -0.017404 -146980.000000 0 0 1
-16.015421 -26.315042 5.010938 31.210329 1.024075 1.409545 0.065699 -0.020043 104199.000000 0 0 1
-15.303521 -27.345642 4.384538 31.641840 1.060588 1.431781 0.068049 -0.016977 891883.000000 0 0 1
-16.214121 -27.926042 3.397838 32.470091 1.044757 1.465959 0.099329 -0.016595 884665.000000 0 0 1
-15.610421 -29.138442 2.611138 33.159494 1.078973 1.491970 0.100995 -0.019872 -158804.000000 0 0 1
-14.486121 -28.710942 1.882938 32.213527 1.103515 1.512311 0.073625 -0.002193 -484889.000000 0 0 1
-13.880621 -29.804942 1.303538 32.904489 1.134951 1.531170 0.064297 -0.008606 -587465.000000 0 0 1
-12.521721 -29.617742 0.627538 32.162057 1.170809 1.551283 0.066486 -0.007332 -346205.000000 0 0 1
-12.338621 -28.760342 -0.507162 31.299457 1.165530 1.587001 0.070852 -0.006724 -178997.000000 0 0 1
-12.537721 -27.355342 -0.262662 30.092826 1.141038 1.579525 0.060729 -0.010625 -297575.000000 0 0 1
-12.345021 -26.478342 -1.520862 29.254318 1.134527 1.622807 0.059902 -0.013115 437936.000000 0 0 1
-11.043821 -26.711342 -2.046562 28.976718 1.178749 1.641483 0.066493 -0.014444 -192266.000000 0 0 1
-10.756021 -25.887142 -3.120762 28.205943 1.177003 1.681665 0.081778 -0.019617 702173.000000 0 0 1
-9.397421 -26.414142 -3.693562 28.278274 1.228988 1.701785 0.063591 -0.018303 522487.000000 0 0 1
-8.959821 -25.778942 -4.826762 27.715156 1.236294 1.745845 0.066325 -0.019854 151883.000000 0 0 1
-7.619821 -26.168542 -5.153262 27.738247 1.287449 1.757664 0.075970 -0.011027 627665.000000 0 0 1
-6.816121 -25.003742 -5.693862 26.534255 1.304659 1.787064 0.066774 -0.018308 -393926.000000 0 0 1
-7.209821 -24.613142 -7.000262 26.585559 1.285842 1.837249 0.074306 -0.021440 267270.000000 0 0 1
-6.400421 -23.554542 -7.551862 25.550195 1.305475 1.870848 0.066750 -0.019105 -313437.000000 0 0 1
-6.699021 -23.328642 -8.975962 25.877989 1.291162 1.925014 0.067753 -0.025468 -615.203000 0 0 1
-6.173221 -24.339142 -9.869362 26.979748 1.322401 1.945295 0.055735 -0.026667 105659.000000 0 0 1
-6.489921 -24.172442 -11.230262 27.432550 1.308498 1.992568 0.043155 -0.019347 605886.000000 0 0 1
-7.851221 -24.850742 -11.632562 28.539754 1.264785 1.990611 0.046393 -0.014293 492043.000000 0 0 1
-8.050121 -24.902842 -13.054662 29.246883 1.258138 2.033491 0.058055 -0.008754 -319460.000000 0 0 1
-9.015621 -25.821342 -13.451462 30.478926 1.234876 2.027884 0.077879 -0.012738 -1003180.000000 0 0 1
-9.211721 -25.836642 -14.956262 31.242241 1.228310 2.069992 0.090661 -0.020904 -117305.000000 0 0 1
-8.215221 -26.504642 -15.708562 31.886436 1.270233 2.085918 0.084103 -0.025806 595266.000000 0 0 1
-7.058521 -25.654742 -15.832662 30.962262 1.302304 2.107555 0.076813 -0.025885 183368.000000 0 0 1
-5.804921 -26.317642 -16.479262 31.589262 1.353701 2.119607 0.083370 -0.017185 113994.000000 0 0 1
-5.813121 -26.586942 -17.849362 32.546238 1.355538 2.151283 0.124505 -0.020592 -60726.500000 0 0 1
-4.616321 -27.243642 -18.177862 33.075083 1.402945 2.152674 0.117561 -0.029480 -19772.400000 0 0 1
-25.783641 14.080383 -5.265887 29.845986 -0.499842 1.748160 0.140394 -0.047226 63999.200000 0 0 1
-25.512761 12.905583 -4.444187 28.934509 -0.468315 1.725001 0.143351 -0.043459 202262.000000 0 0 1
-24.203921 12.419683 -4.661487 27.600865 -0.474094 1.740499 0.145221 -0.038375 -336634.000000 0 0 1
-24.020321 10.988383 -4.104287 26.731358 -0.429042 1.724944 0.149722 -0.049506 -4382.310000 0 0 1
-24.604621 9.973683 -4.886587 26.995193 -0.385117 1.752817 0.141454 -0.038242 785587.000000 0 0 1
-26.030691 9.958183 -5.027487 28.320273 -0.365378 1.749265 0.162020 -0.042334 240284.000000 0 0 1
-26.518291 9.420383 -6.360287 28.851631 -0.341336 1.793070 0.171615 -0.033470 -213171.000000 0 0 1
-26.325871 10.276883 -7.456687 29.227863 -0.372179 1.828771 0.195563 -0.031373 66670.700000 0 0 1
-26.402551 9.641183 -8.724387 29.430630 -0.350117 1.871758 0.175444 -0.030856 -225634.000000 0 0 1
-26.762401 10.539183 -9.965387 30.440259 -0.375155 1.904321 0.174316 -0.025688 292353.000000 0 0 1
-25.713261 11.429383 -10.374787 29.990644 -0.418265 1.924031 0.161692 -0.030240 533841.000000 0 0 1
-26.005461 12.120183 -11.571487 30.936744 -0.436131 1.954155 0.165336 -0.033374 -337307.000000 0 0 1
-24.974221 13.200383 -11.935687 30.666307 -0.486234 1.970572 0.141966 -0.026519 -188747.000000 0 0 1
-24.899821 14.314183 -11.102287 30.792169 -0.521737 1.939660 0.131637 -0.025263 -21030.700000 0 0 1
-24.191621 15.297583 -11.801387 30.960027 -0.563868 1.961870 0.112467 -0.025395 -221912.000000 0 0 1
-24.317121 16.701783 -11.195187 31.553195 -0.601834 1.933500 0.109942 -0.030025 111694.000000 0 0 1
-23.496021 16.974183 -10.042287 30.676267 -0.625620 1.904308 0.092180 -0.017858 517487.000000 0 0 1
-23.921321 18.167283 -9.398987 31.474127 -0.649528 1.874049 0.066432 -0.006548 -44414.000000 0 0 1
-22.874321 18.545983 -8.359587 30.611611 -0.681278 1.847395 0.067325 -0.010045 -249624.000000 0 0 1
-22.815621 17.753383 -7.214187 29.795631 -0.661259 1.815349 0.094300 -0.028067 -16730.700000 0 0 1
-23.886521 18.024883 -6.341087 30.588750 -0.646442 1.779612 0.099646 -0.032203 -180109.000000 0 0 1
-23.972121 17.222983 -4.988987 29.936327 -0.623007 1.738231 0.110800 -0.020793 -378468.000000 0 0 1
-22.929321 17.535083 -4.119787 29.158284 -0.652871 1.712561 0.104721 -0.037022 -144947.000000 0 0 1
-23.196921 17.092283 -2.809787 28.950616 -0.635022 1.668004 0.106750 -0.035264 -244598.000000 0 0 1
-21.937821 17.029483 -1.932987 27.838960 -0.660098 1.640287 0.111501 -0.051857 -529507.000000 0 0 1
-21.355821 18.263083 -1.668787 28.149531 -0.707494 1.630114 0.102898 -0.052386 35096.200000 0 0 1
-20.403521 18.145383 -0.635187 27.312305 -0.726886 1.594055 0.154966 -0.064671 19220.400000 0 0 1
-19.878421 19.506583 -0.246087 27.851731 -0.775957 1.579632 0.129799 -0.061406 -667525.000000 0 0 1
-20.762221 19.934483 0.699713 28.791370 -0.765062 1.546491 0.116838 -0.048617 -163199.000000 0 0 1
-20.646921 21.288483 1.039813 29.674501 -0.800696 1.535749 0.137124 -0.051215 -825037.000000 0 0 1
-21.892021 21.696083 1.762713 30.872119 -0.780903 1.513668 0.100543 -0.049594 -812310.000000 0 0 1
-21.697321 21.492883 3.115713 30.698948 -0.780665 1.469129 0.119904 -0.044222 101731.000000 0 0 1
-22.891521 21.452483 3.835113 31.605993 -0.752958 1.449155 0.091963 -0.034600 -308151.000000 0 0 1
-22.496721 21.025183 5.292913 31.243810 -0.751600 1.400569 0.091345 -0.031796 -21001.300000 0 0 1
-21.848921 22.086283 5.979613 31.637556 -0.790801 1.380649 0.090298 -0.027366 487133.000000 0 0 1
-21.028921 21.745183 7.098613 31.071832 -0.802142 1.340303 0.078489 -0.025498 297793.000000 0 0 1
-21.793621 21.567983 8.444913 31.803401 -0.780195 1.302038 0.062446 -0.031556 -607426.000000 0 0 1
-22.614221 20.422483 8.485113 31.630332 -0.734515 1.299211 0.083485 -0.033932 595822.000000 0 0 1
-23.154421 20.053183 9.771613 32.151854 -0.713746 1.261991 0.105601 -0.032945 -97428.100000 0 0 1
-23.874921 21.094683 10.641813 33.589368 -0.723652 1.248421 0.106730 -0.034373 -1221320.000000 0 0 1
-25.131971 21.427683 10.127413 34.544551 -0.706005 1.273256 0.131434 -0.036905 61685.900000 0 0 1
-25.767601 22.445083 10.957113 35.886060 -0.716593 1.260511 0.138363 -0.035921 192184.000000 0 0 1
-27.261721 22.673583 10.579313 37.002900 -0.693774 1.280846 0.137057 -0.036937 200165.000000 0 0 1
-27.959941 23.552283 11.469213 38.314633 -0.700041 1.266792 0.135921 -0.035615 46592.700000 0 0 1
-27.484721 24.871783 11.528413 38.819064 -0.735533 1.269270 0.114585 -0.032832 -530368.000000 0 0 1
-27.785031 25.584383 12.879313 39.905454 -0.744187 1.242167 0.116907 -0.033414 79530.800000 0 0 1
-26.874751 25.307383 13.920713 39.452529 -0.755371 1.210184 0.096355 -0.035751 -77113.000000 0 0 1
-27.330041 25.839083 15.142313 40.544777 -0.757364 1.188048 0.117443 -0.029353 737199.000000 0 0 1
-26.166731 25.896783 16.210913 40.226047 -0.780213 1.156009 0.096179 -0.032782 628754.000000 0 0 1
-25.840871 24.656283 16.800713 39.470835 -0.761944 1.131118 0.108705 -0.036830 -49239.000000 0 0 1
-24.837421 24.794083 17.774913 39.339440 -0.784525 1.101976 0.084658 -0.030729 -188242.000000 0 0 1
-24.402421 23.512383 18.470513 38.593654 -0.766825 1.071749 0.092941 -0.031622 430122.000000 0 0 1
-23.163121 23.662983 19.190013 38.271706 -0.796073 1.045563 0.097820 -0.039590 912414.000000 0 0 1
-22.754521 22.414883 19.660813 37.506569 -0.777879 1.019025 0.098428 -0.040708 131052.000000 0 0 1
-21.263621 22.366283 20.113313 36.836633 -0.810666 0.993197 0.069494 -0.036371 -524159.000000 0 0 1
-20.391021 22.458383 19.000913 35.793957 -0.833608 1.011203 0.069945 -0.040025 179140.000000 0 0 1
-19.030421 22.262683 19.374013 35.116041 -0.863515 0.986378 0.061627 -0.035381 472074.000000 0 0 1
-18.671521 20.747783 19.585713 34.098333 -0.838021 0.958939 0.054507 -0.024691 -777176.000000 0 0 1
-19.254621 20.112083 20.734113 34.715122 -0.807176 0.930710 0.074567 -0.023164 225687.000000 0 0 1
-18.513921 20.408783 21.908313 35.203094 -0.834042 0.899067 0.063584 -0.021414 -49194.800000 0 0 1
-19.391921 20.076583 23.123813 36.246744 -0.802743 0.878956 0.068271 -0.020484 -832840.000000 0 0 1
-20.443621 20.954583 23.163313 37.330621 -0.797740 0.901428 0.057681 -0.016074 -1050650.000000 0 0 1
-21.178621 20.684183 24.333613 38.320936 -0.773588 0.882794 0.063301 -0.012136 853655.000000 0 0 1
-22.442821 21.600283 24.602913 39.693271 -0.766271 0.902276 0.062903 -0.018535 325329.000000 0 0 1
-22.017321 22.912983 24.775713 40.293959 -0.805330 0.908570 0.083124 -0.028341 -574342.000000 0 0 1
-22.985321 23.873183 24.932313 41.471364 -0.804344 0.925803 0.080425 -0.037466 -885876.000000 0 0 1
-23.795521 24.253383 23.686413 41.418589 -0.794927 0.962002 0.063538 -0.032177 -554194.000000 0 0 1
-24.809021 23.393983 23.292613 41.295420 -0.756051 0.971516 0.049212 -0.031484 -500122.000000 0 0 1
-25.403111 23.878183 22.119913 41.288935 -0.754465 1.005419 0.054938 -0.034330 -538053.000000 0 0 1
-26.433331 22.892183 21.607213 41.105287 -0.713730 1.017311 0.063630 -0.034426 -980060.000000 0 0 1
-27.645001 22.976583 22.281013 42.291996 -0.693436 1.015921 0.069023 -0.035281 -498934.000000 0 0 1
-28.512141 21.943783 21.867713 42.103072 -0.655946 1.024665 0.087815 -0.037817 229803.000000 0 0 1
-30.010251 22.091083 22.226713 43.389605 -0.634557 1.032983 0.090305 -0.033089 -415279.000000 0 0 1
-30.636871 23.177383 21.559413 44.052437 -0.647660 1.059391 0.111406 -0.031844 989910.000000 0 0 1
-32.058451 23.226083 21.774113 45.180827 -0.626975 1.067937 0.126152 -0.034325 787648.000000 0 0 1
-32.966351 22.332183 20.949313 44.993115 -0.595413 1.086471 0.136728 -0.048587 -1472920.000000 0 0 1
-32.922921 20.932283 21.391513 44.493550 -0.566326 1.069255 0.119217 -0.044359 907069.000000 0 0 1
-33.774211 20.082883 20.573213 44.353992 -0.536456 1.088470 0.125954 -0.040555 -238254.000000 0 0 1
-35.271463 20.300183 20.628613 45.625795 -0.522241 1.101649 0.152077 -0.046945 -1054030.000000 0 0 1
-36.030712 19.605583 19.641413 45.479404 -0.498329 1.124226 0.136102 -0.036424 -227289.000000 0 0 1
37.254603 19.708383 19.836813 46.581380 0.486592 1.130892 0.169967 -0.046897 -311653.000000 0 0 1
36.469083 18.926183 18.782713 45.177259 0.478704 1.142023 0.157990 -0.056101 -113530.000000 0 0 1
36.610513 17.552783 18.915213 44.790793 0.447070 1.134814 0.174289 -0.060647 104989.000000 0 0 1
35.747133 16.940583 18.002413 43.461796 0.442551 1.143719 0.192755 -0.073215 -57992.900000 0 0 1
35.861233 15.389183 18.123813 43.027057 0.405365 1.136007 0.194062 -0.080641 90163.700000 0 0 1
35.061923 14.718083 17.171013 41.722945 0.397436 1.146644 0.208904 -0.069990 179274.000000 0 0 1
35.609213 13.450983 16.966513 41.675023 0.361170 1.151503 0.189679 -0.054532 345033.000000 0 0 1
34.756233 12.654983 15.922513 40.269973 0.349186 1.164299 0.174260 -0.060223 147022.000000 0 0 1
34.698583 13.147483 14.644113 39.891077 0.362190 1.194904 0.168947 -0.048344 228107.000000 0 0 1
33.876183 12.327183 13.826813 38.610050 0.348994 1.204549 0.174546 -0.039904 -42483.500000 0 0 1
33.822623 12.840383 12.346913 38.226843 0.362831 1.241909 0.173884 -0.039553 83516.500000 0 0 1
35.057163 12.611783 11.679913 39.044617 0.345333 1.267002 0.149860 -0.035750 392042.000000 0 0 1
34.849923 12.324983 10.343113 38.384923 0.339931 1.297966 0.132417 -0.025093 -409585.000000 0 0 1
36.100203 12.207383 9.436413 39.259276 0.326082 1.328058 0.082245 -0.012910 -685228.000000 0 0 1
36.801263 11.014983 9.797213 39.644018 0.290824 1.321079 0.101722 -0.023917 -294951.000000 0 0 1
-36.487951 11.160983 9.600113 39.345905 -0.296844 1.324315 0.131416 -0.023119 -278785.000000 0 0 1
-35.962901 11.026383 8.164413 38.491154 -0.297505 1.357061 0.112689 -0.037517 -745781.000000 0 0 1
-36.332691 12.053883 7.235013 38.957745 -0.320338 1.383997 0.113300 -0.043445 140159.000000 0 0 1
-35.757538 11.774983 5.955113 38.114500 -0.318117 1.413911 0.152866 -0.055815 -291555.000000 0 0 1
-36.522091 12.468483 4.838813 38.893962 -0.328989 1.446063 0.162741 -0.051096 258209.000000 0 0 1
36.809963 11.974983 4.789913 39.004062 0.314520 1.447680 0.151089 -0.052171 -415241.000000 0 0 1
35.791953 12.872683 4.653113 38.319986 0.345248 1.449068 0.119165 -0.040965 -414310.000000 0 0 1
35.224763 13.587983 5.907913 38.214142 0.368163 1.415574 0.120241 -0.028063 -926371.000000 0 0 1
34.326553 14.635783 5.625413 37.738093 0.403030 1.421174 0.097748 -0.013522 144043.000000 0 0 1
33.775003 15.320783 6.765413 37.699443 0.425854 1.390362 0.076737 -0.008673 132391.000000 0 0 1
32.579923 14.577983 7.387813 36.449263 0.420734 1.366695 0.123283 -0.023675 -665421.000000 0 0 1
32.926963 13.393983 8.033313 36.443351 0.386336 1.348538 0.145312 -0.022139 204482.000000 0 0 1
31.775963 12.565583 8.171213 35.133665 0.376572 1.336072 0.173941 -0.024031 -19777.900000 0 0 1
31.616073 11.560683 7.028613 34.389342 0.350556 1.364962 0.171661 -0.024458 -247079.000000 0 0 1
31.302493 12.153383 5.766613 34.070583 0.370341 1.400723 0.144089 -0.033441 188991.000000 0 0 1
31.582803 11.214983 4.778113 33.853798 0.341209 1.429184 0.146375 -0.045735 -210793.000000 0 0 1
30.987773 11.526883 3.414613 33.238091 0.356122 1.467883 0.122686 -0.052730 255828.000000 0 0 1
29.585013 11.322183 3.316913 31.850694 0.365504 1.466468 0.132816 -0.043389 338593.000000 0 0 1
29.093613 11.679183 2.042113 31.416745 0.381742 1.505750 0.151649 -0.045282 593661.000000 0 0 1
27.582713 11.307583 1.859313 29.868454 0.389056 1.508506 0.163169 -0.033968 639920.000000 0 0 1
27.464813 9.956183 1.538613 29.254211 0.347773 1.518177 0.141656 -0.030994 354195.000000 0 0 1
26.124313 9.477083 1.593013 27.835814 0.348004 1.513536 0.150629 -0.031986 228994.000000 0 0 1
26.011613 7.933183 1.558513 27.239096 0.296025 1.513549 0.151874 -0.026756 84397.300000 0 0 1
26.571313 7.070983 2.528113 27.612042 0.260086 1.479110 0.172536 -0.020280 398106.000000 0 0 1
27.989813 6.992283 2.480513 28.956426 0.244805 1.485028 0.202976 -0.034183 -9179.330000 0 0 1
28.548913 6.298983 3.745413 29.474493 0.217159 1.443379 0.214205 -0.032624 1380170.000000 0 0 1
29.981453 6.523983 3.939413 30.934913 0.214261 1.443104 0.240812 -0.026129 1663310.000000 0 0 1
30.369693 5.750783 5.030813 31.316112 0.187143 1.409451 0.224086 -0.022076 -422215.000000 0 0 1
31.864873 5.814083 5.364713 32.832208 0.180475 1.406662 0.194931 -0.028941 -173848.000000 0 0 1
32.317763 6.982183 6.006913 33.604638 0.212777 1.391078 0.185777 -0.037812 -433164.000000 0 0 1
33.614453 6.869483 6.515013 34.922295 0.201585 1.383139 0.128365 -0.026803 -657085.000000 0 0 1
34.085163 7.979183 7.389813 35.778136 0.229955 1.362753 0.111100 -0.034031 -168115.000000 0 0 1
33.552983 7.915983 8.717413 35.559229 0.231688 1.323120 0.131756 -0.034795 271696.000000 0 0 1
34.135073 8.808383 9.636913 36.546695 0.252536 1.303953 0.125246 -0.038563 -424974.000000 0 0 1
33.461773 8.619483 10.968913 36.253314 0.252111 1.263416 0.143614 -0.033815 -347794.000000 0 0 1
32.205673 9.252583 11.019213 35.273768 0.279762 1.253087 0.163239 -0.036868 86037.700000 0 0 1
31.576513 9.005883 12.270913 35.053636 0.277832 1.213160 0.163272 -0.036467 90508.200000 0 0 1
30.130763 9.538683 12.457213 33.971039 0.306594 1.195336 0.161917 -0.042790 -12728.300000 0 0 1
29.925273 10.929783 12.590613 34.256469 0.350183 1.194434 0.181704 -0.049884 135787.000000 0 0 1
29.968413 11.665183 11.382613 34.113724 0.371204 1.230606 0.177312 -0.055345 -74624.500000 0 0 1
28.799513 11.559583 10.349813 32.713217 0.381696 1.248885 0.145204 -0.044600 -60622.800000 0 0 1
28.759713 12.575483 9.372913 32.758440 0.412209 1.280619 0.131308 -0.023862 1091010.000000 0 0 1
27.542513 12.684783 8.573413 31.511857 0.431595 1.295253 0.125602 -0.022144 1080640.000000 0 0 1
27.524613 13.988983 7.772713 31.838829 0.470214 1.324177 0.121301 -0.025965 -13333.700000 0 0 1
27.459113 15.146983 8.580413 32.512420 0.504086 1.303721 0.113369 -0.018428 144213.000000 0 0 1
27.824213 16.310383 7.902213 33.206331 0.530206 1.330518 0.119188 -0.014456 -1058460.000000 0 0 1
27.376013 17.602283 8.641413 33.674330 0.571426 1.311276 0.127125 -0.025284 1376020.000000 0 0 1
25.986613 18.007783 8.495013 32.737586 0.605988 1.308304 0.133356 -0.032048 1414490.000000 0 0 1
25.036913 17.079883 9.011213 31.619162 0.598671 1.281798 0.143035 -0.030106 -949747.000000 0 0 1
23.656613 17.733683 9.182713 30.958699 0.643264 1.269654 0.136210 -0.039833 -478923.000000 0 0 1
23.094013 18.088283 7.942313 30.390784 0.664441 1.306387 0.141675 -0.038041 31288.000000 0 0 1
22.072513 19.038683 8.182513 30.275746 0.711736 1.297127 0.192005 -0.045960 205713.000000 0 0 1
21.145913 19.374683 6.980913 29.517133 0.741714 1.332030 0.159377 -0.037861 187344.000000 0 0 1
21.704613 20.376883 6.177713 30.405126 0.753857 1.366192 0.115396 -0.013812 133192.000000 0 0 1
20.844613 20.618983 5.089813 29.758134 0.779957 1.398912 0.127398 -0.018648 -195340.000000 0 0 1
19.263579 17.327083 32.823637 41.817513 0.732524 0.668220 0.097831 -0.026117 315432.000000 0 0 1
18.161479 18.046283 32.259460 41.184711 0.782217 0.670860 0.115498 -0.027661 -2566.740000 0 0 1
17.304379 17.159883 31.664818 39.957024 0.781206 0.655945 0.123243 -0.034961 -648171.000000 0 0 1
16.806979 17.738483 30.279458 38.909817 0.812356 0.679008 0.123284 -0.032035 500231.000000 0 0 1
17.781279 17.757983 29.205038 38.528614 0.784743 0.710541 0.113193 -0.020144 570383.000000 0 0 1
17.238079 18.102183 27.935328 37.486303 0.809844 0.729940 0.106978 -0.027059 -271747.000000 0 0 1
18.365279 18.245583 26.931888 37.356543 0.782129 0.765636 0.092692 -0.027394 -414574.000000 0 0 1
19.030879 19.463583 26.981068 38.327320 0.796638 0.789832 0.083348 -0.027770 138519.000000 0 0 1
19.966179 19.759183 25.964138 38.251929 0.780188 0.824714 0.070366 -0.019922 -175233.000000 0 0 1
20.824579 21.021583 26.146798 39.487024 0.790106 0.847096 0.083471 -0.019155 -3918.260000 0 0 1
20.054879 22.192483 25.996048 39.629521 0.835952 0.855320 0.069199 -0.022030 293017.000000 0 0 1
20.794079 23.270183 26.504288 40.943527 0.841532 0.866710 0.077904 -0.024713 54444.800000 0 0 1
20.046779 24.638783 26.299378 41.238334 0.887801 0.879234 0.089616 -0.029283 243559.000000 0 0 1
19.881679 25.089683 24.964918 40.595818 0.900692 0.908458 0.086918 -0.032688 -502695.000000 0 0 1
18.935779 26.066183 24.975278 40.764864 0.942538 0.911366 0.089713 -0.039949 -842631.000000 0 0 1
18.880979 26.848983 23.652748 40.457530 0.957907 0.946371 0.074366 -0.034917 -361402.000000 0 0 1
20.007279 27.665283 23.469508 41.430386 0.944675 0.968568 0.096936 -0.036343 -289497.000000 0 0 1
19.884579 28.547383 22.398938 41.377070 0.962392 0.998770 0.100628 -0.028756 -152649.000000 0 0 1
21.025079 29.575983 22.224938 42.552797 0.952803 1.021261 0.112217 -0.025970 -58126.700000 0 0 1
22.217879 28.971683 21.768238 42.507043 0.916578 1.033158 0.120169 -0.031618 -101078.000000 0 0 1
23.224679 29.910783 21.410338 43.502221 0.910572 1.056219 0.132008 -0.041381 263135.000000 0 0 1
23.392179 30.095483 19.889138 42.994301 0.910072 1.089871 0.139636 -0.038249 -207189.000000 0 0 1
22.403279 30.872883 19.268238 42.735311 0.943054 1.103052 0.108160 -0.032723 100573.000000 0 0 1
22.780579 30.851383 17.902138 42.323151 0.934762 1.134057 0.101023 -0.013852 -29832.300000 0 0 1
22.271379 32.085883 17.131438 42.649787 0.964029 1.157449 0.104926 -0.021023 -753110.000000 0 0 1
22.897679 33.295783 17.503738 44.037412 0.968370 1.162034 0.114181 -0.024306 259521.000000 0 0 1
23.409179 -33.763142 16.415238 44.242507 -0.964557 1.190680 0.103378 -0.026967 156971.000000 0 0 1
24.548679 33.493983 15.539838 44.339272 0.938311 1.212717 0.087829 -0.029830 -572664.000000 0 0 1
24.121579 32.430483 14.688638 43.003987 0.931279 1.222215 0.101820 -0.038771 43626.100000 0 0 1
23.390079 32.941183 13.583338 42.623050 0.953353 1.246454 0.079619 -0.038942 -191995.000000 0 0 1
22.868979 31.860283 12.610038 41.195641 0.948231 1.259701 0.084198 -0.041813 -158885.000000 0 0 1
23.822279 31.082283 11.893638 40.927593 0.916865 1.275940 0.112659 -0.064473 -134601.000000 0 0 1
23.203879 30.101683 11.075338 39.587806 0.914084 1.287246 0.112217 -0.063588 -502942.000000 0 0 1
24.209679 29.380583 10.110238 39.389645 0.881590 1.311219 0.118077 -0.063148 1193110.000000 0 0 1
25.358279 28.727183 10.693238 39.782392 0.847606 1.298656 0.125996 -0.058165 531361.000000 0 0 1
26.321779 29.635883 11.155138 41.177162 0.844554 1.296462 0.120606 -0.058971 -2092100.000000 0 0 1
27.652079 28.957383 11.381038 41.625659 0.808452 1.293856 0.119702 -0.057171 -649480.000000 0 0 1
27.713779 28.098783 12.538638 41.410296 0.792296 1.263177 0.119149 -0.045039 -326511.000000 0 0 1
29.063079 27.892883 12.885138 42.293052 0.764855 1.261212 0.103549 -0.031444 30257.700000 0 0 1
29.352379 26.930283 14.056638 42.242057 0.742390 1.231563 0.092233 -0.033317 563191.000000 0 0 1
30.727279 26.929383 14.438738 43.333988 0.719622 1.231104 0.080442 -0.036304 514008.000000 0 0 1
31.095079 25.798283 15.191638 43.165278 0.692565 1.211152 0.084229 -0.030437 -145905.000000 0 0 1
32.179979 26.058283 16.256438 44.484345 0.680668 1.196689 0.090339 -0.037610 -584004.000000 0 0 1
33.442879 26.126583 15.657038 45.234581 0.663191 1.217354 0.091739 -0.027162 -876172.000000 0 0 1
34.350979 26.226283 16.744438 46.348505 0.652073 1.201164 0.079834 -0.025677 563986.000000 0 0 1
35.844279 26.239883 16.272538 47.308977 0.631915 1.219662 0.106190 -0.032021 586007.000000 0 0 1
36.142879 27.378483 15.542438 47.931789 0.648288 1.240565 0.114928 -0.027902 25552.300000 0 0 1
-37.130654 27.676383 15.509238 48.838551 -0.640537 1.247640 0.127219 -0.025767 666871.000000 0 0 1
-36.929554 28.964583 14.648138 49.166116 -0.665106 1.268271 0.102385 -0.029950 120435.000000 0 0 1
37.007379 30.112383 15.040938 50.025309 0.683030 1.265405 0.105303 -0.036985 -44603.100000 0 0 1
37.080179 31.155383 14.138838 50.452991 0.698787 1.286754 0.092745 -0.019370 834690.000000 0 0 1
36.033179 32.294483 14.546438 50.526453 0.730735 1.278766 0.090678 -0.028577 191123.000000 0 0 1
36.095879 33.464883 13.749838 51.106447 0.747593 1.298397 0.061612 -0.035370 514757.000000 0 0 1
35.041879 -33.432542 13.957538 50.403185 -0.761900 1.290211 0.061175 -0.026757 1022800.000000 0 0 1
33.583379 -33.694042 13.439038 49.434194 -0.787043 1.295474 0.089744 -0.025266 750960.000000 0 0 1
32.900179 33.122883 14.158338 48.785302 0.788771 1.276342 0.093856 -0.031643 -221595.000000 0 0 1
31.802379 32.644283 13.428738 47.511804 0.798461 1.284251 0.101939 -0.028512 -458552.000000 0 0 1
31.273479 31.259283 13.943838 46.363821 0.785171 1.265319 0.110729 -0.034915 -78094.000000 0 0 1
30.529879 31.462283 15.136438 46.379527 0.800438 1.238346 0.113060 -0.026980 184769.000000 0 0 1
30.383879 30.328683 15.947638 45.796684 0.784489 1.215117 0.109770 -0.035724 406481.000000 0 0 1
29.193179 30.460183 16.967138 45.474698 0.806634 1.188436 0.101565 -0.033098 359998.000000 0 0 1
29.157479 29.422883 18.045938 45.183188 0.789929 1.159940 0.093079 -0.027531 3108.300000 0 0 1
29.971479 29.726483 19.187738 46.369415 0.781294 1.144170 0.084906 -0.026282 127250.000000 0 0 1
29.918079 28.661583 20.307838 46.140937 0.763952 1.115057 0.078649 -0.021490 -38588.000000 0 0 1
28.796279 28.755983 21.167038 45.871295 0.784698 1.091174 0.102559 -0.029906 -23482.800000 0 0 1
28.796179 27.729883 22.143538 45.700138 0.766537 1.064959 0.081700 -0.022643 -266389.000000 0 0 1
27.583179 27.676683 23.077118 45.380435 0.787090 1.037325 0.098342 -0.027788 -404764.000000 0 0 1
26.369579 27.322083 22.456538 44.115156 0.803137 1.036723 0.136565 -0.026770 976052.000000 0 0 1
25.191679 27.226583 23.311608 43.810256 0.824199 1.009713 0.139942 -0.033290 1212320.000000 0 0 1
25.117279 26.059883 24.307248 43.598595 0.803815 0.979397 0.114075 -0.033045 -488498.000000 0 0 1
26.108879 26.025183 25.306678 44.714781 0.783793 0.969202 0.097637 -0.028433 -132929.000000 0 0 1
25.683879 25.088483 26.255898 44.479948 0.773672 0.939383 0.123803 -0.032398 -315477.000000 0 0 1
26.667779 24.855183 27.419318 45.615453 0.750232 0.925923 0.120733 -0.028654 182395.000000 0 0 1
27.132779 25.906683 28.267218 46.972114 0.762286 0.925059 0.132345 -0.031973 519482.000000 0 0 1
27.672379 27.058183 27.572638 47.520061 0.774176 0.951783 0.102321 -0.020740 -752636.000000 0 0 1
28.130679 28.144583 28.495848 48.943498 0.785645 0.949341 0.063109 -0.016254 103610.000000 0 0 1
29.360879 27.942483 29.189428 49.948636 0.760651 0.946670 0.055715 -0.011774 286304.000000 0 0 1
29.695879 29.053883 29.962898 51.222540 0.774471 0.945971 0.049482 -0.018989 798734.000000 0 0 1
31.236679 29.348483 30.028378 52.333231 0.754242 0.959668 0.033462 -0.018359 766079.000000 0 0 1
31.760679 29.710383 28.768668 52.144835 0.752057 0.986387 0.019933 -0.015191 97407.500000 0 0 1
33.181779 29.627383 28.753348 52.967606 0.728868 0.996972 0.032903 -0.017973 605490.000000 0 0 1
33.762779 30.098083 27.359348 52.861647 0.728075 1.026793 0.037813 -0.014754 -170354.000000 0 0 1
33.417579 31.455683 27.116498 53.305713 0.755165 1.037125 0.013340 -0.011486 190989.000000 0 0 1
33.718679 31.847383 25.797488 53.072738 0.756865 1.063200 0.021810 -0.012800 -245517.000000 0 0 1
33.396379 33.338283 25.578428 53.675089 0.784528 1.074079 0.020578 -0.011790 -117755.000000 0 0 1
34.246179 -33.586942 26.273508 54.691687 -0.775680 1.069693 0.022782 -0.016992 329987.000000 0 0 1
33.948779 -32.249042 25.860338 53.490909 -0.759727 1.066201 0.021208 -0.015085 -325912.000000 0 0 1
34.948479 -31.274142 26.475308 53.855455 -0.729970 1.056871 0.013470 -0.016352 -163121.000000 0 0 1
34.642179 -30.986542 27.832588 54.174711 -0.729754 1.031239 0.016348 -0.021015 646625.000000 0 0 1
35.641979 -30.145042 28.411328 54.646846 -0.702035 1.024053 0.023867 -0.027114 42387.300000 0 0 1
35.459079 -29.919542 29.924348 55.208621 -0.700870 0.997954 0.031847 -0.027396 -481895.000000 0 0 1
35.392379 -31.086542 30.723978 56.240167 -0.720719 0.992856 0.041291 -0.025674 391090.000000 0 0 1
34.190779 -31.840042 30.731848 55.921768 -0.749813 0.988970 0.032487 -0.036089 -490797.000000 0 0 1
34.225479 -32.800942 31.883121 57.129840 -0.764148 0.978724 0.041784 -0.032716 -347580.000000 0 0 1
34.120779 -32.080442 33.090439 57.344219 -0.754588 0.955685 0.040945 -0.033233 124966.000000 0 0 1
34.385079 -32.795142 -33.584687 58.187509 -0.761736 2.186068 0.054123 -0.037471 -97266.300000 0 0 1
33.534579 33.776883 -33.174197 58.017007 0.788998 2.179496 0.038403 -0.024815 310509.000000 0 0 1
33.934179 32.715883 33.868128 58.042291 0.767121 0.947755 0.046634 -0.034253 465875.000000 0 0 1
32.996679 31.654183 -33.797787 56.859990 0.764636 2.207320 0.065103 -0.030989 394343.000000 0 0 1
33.096779 30.489083 33.052258 55.833974 0.744410 0.937290 0.050387 -0.028609 -897286.000000 0 0 1
34.353879 29.935283 33.128838 56.336756 0.716776 0.942150 0.052572 -0.032087 -898106.000000 0 0 1
34.584979 28.937083 32.169399 55.392651 0.696719 0.951144 0.044642 -0.029054 -187818.000000 0 0 1
36.032179 28.417083 32.062861 55.981029 0.667787 0.960946 0.045033 -0.020292 -128461.000000 0 0 1
36.181079 27.522683 33.129452 56.250592 0.650309 0.941023 0.039909 -0.013279 509952.000000 0 0 1
-37.117154 27.140083 33.166802 56.694832 -0.631360 0.945909 0.049592 -0.020992 396108.000000 0 0 1
-36.949954 25.846283 -33.881817 56.403076 -0.610386 2.215184 0.059321 -0.025635 32549.100000 0 0 1
-37.291554 24.720783 33.200792 55.714178 -0.585394 0.932394 0.044728 -0.017134 34578.200000 0 0 1
-37.173654 23.516883 -33.916677 55.545165 -0.564062 2.227633 0.041520 -0.015834 274895.000000 0 0 1
36.964079 22.306083 33.078556 54.388375 0.542955 0.917016 0.033056 -0.015226 -225721.000000 0 0 1
-36.703954 21.892783 32.211270 53.516727 -0.537819 0.924929 0.042856 -0.004586 -271462.000000 0 0 1
-36.993254 20.610083 31.671058 52.880358 -0.508301 0.928646 0.046639 -0.006157 667215.000000 0 0 1
-35.729054 19.898883 31.025228 51.333182 -0.508155 0.921797 0.042021 -0.005800 785043.000000 0 0 1
-35.208654 20.667783 29.945498 50.631407 -0.530812 0.937951 0.041299 0.002108 -424554.000000 0 0 1
-34.358754 19.905883 29.116898 49.239840 -0.525100 0.938092 0.064593 -0.005717 -278287.000000 0 0 1
-34.985954 18.986383 28.042218 48.691536 -0.497210 0.957073 0.081447 -0.005843 -13983.100000 0 0 1
-35.726554 17.940683 28.713928 49.221382 -0.465379 0.947933 0.080969 -0.012778 361647.000000 0 0 1
-36.285854 17.024383 27.788538 48.771874 -0.438684 0.964576 0.089559 -0.022769 35465.600000 0 0 1
-36.922954 15.842983 28.558308 49.293829 -0.405323 0.952867 0.075166 -0.017361 282009.000000 0 0 1
-35.965154 14.821483 28.869758 48.442043 -0.390899 0.932330 0.082377 -0.021579 354097.000000 0 0 1
-36.395354 13.916583 29.828568 49.071749 -0.365219 0.917438 0.081802 -0.037145 -463723.000000 0 0 1
-35.481654 12.700483 29.982078 48.157814 -0.343735 0.898761 0.084773 -0.025522 232316.000000 0 0 1
-34.181454 13.040983 30.452358 47.600264 -0.364476 0.876621 0.096337 -0.020353 401640.000000 0 0 1
-33.364454 11.882383 30.551268 46.773473 -0.342133 0.859026 0.067697 -0.022831 23708.900000 0 0 1
-31.876454 12.243283 30.732958 45.940407 -0.366712 0.837968 0.080598 -0.019507 -430373.000000 0 0 1
-31.166554 12.273383 29.465698 44.611852 -0.375150 0.849325 0.066139 -0.016824 1236220.000000 0 0 1
-29.798654 12.734383 29.579548 43.875665 -0.403857 0.830959 0.056487 -0.015583 1238290.000000 0 0 1
-28.840254 11.587083 29.959188 43.169129 -0.382029 0.803772 0.060984 -0.014454 -647070.000000 0 0 1
-28.795854 10.527683 29.034608 42.226079 -0.350502 0.812619 0.072146 -0.018771 -300354.000000 0 0 1
-27.807054 9.634383 29.451818 41.634879 -0.333529 0.785007 0.050366 -0.012036 -616226.000000 0 0 1
-27.582254 8.467183 28.380978 40.471642 -0.297848 0.793639 0.054831 -0.018468 86419.300000 0 0 1
-28.507854 7.391083 28.384808 40.902606 -0.253679 0.803821 0.053571 -0.023440 1097960.000000 0 0 1
-29.809054 7.723483 27.835688 41.509727 -0.253523 0.835803 0.068595 -0.028657 718336.000000 0 0 1
-30.863954 6.605083 27.857838 42.098336 -0.210826 0.847669 0.067049 -0.024785 -87271.800000 0 0 1
-31.296754 6.169283 29.154758 43.215122 -0.194627 0.830316 0.068240 -0.021825 -133319.000000 0 0 1
-31.644654 4.847783 29.096858 43.260979 -0.152013 0.833095 0.074127 -0.020693 -548517.000000 0 0 1
-32.383254 4.515883 30.354268 44.614459 -0.138558 0.822531 0.070650 -0.015164 669904.000000 0 0 1
-33.651654 5.211583 30.489598 45.707877 -0.153648 0.840550 0.077271 -0.023798 555271.000000 0 0 1
-34.249854 4.937183 31.680458 46.915666 -0.143166 0.829474 0.078089 -0.020184 -330331.000000 0 0 1
-35.700554 5.423383 31.821448 48.130522 -0.150760 0.848447 0.090092 -0.012528 43889.400000 0 0 1
-35.777254 6.814183 32.084041 48.536900 -0.188207 0.848614 0.085534 -0.018561 92157.300000 0 0 1
-37.160654 7.029283 32.318548 49.747498 -0.186950 0.863670 0.088325 -0.021436 488599.000000 0 0 1
37.042579 8.406883 32.876708 50.236503 0.223171 0.857356 0.075388 -0.015374 -176529.000000 0 0 1
-37.330554 8.601483 -33.684827 51.011992 -0.226462 2.292056 0.077398 -0.016609 78781.400000 0 0 1
36.907679 9.878583 -33.195757 50.613451 0.261526 2.286129 0.075710 -0.019527 33011.000000 0 0 1
36.852379 10.073683 -31.658547 49.616938 0.266834 2.262771 0.073473 -0.024847 228832.000000 0 0 1
35.779579 9.274783 -31.154387 48.340415 0.253637 2.271138 0.095401 -0.022282 255393.000000 0 0 1
35.690279 9.417883 -29.792657 47.435166 0.257997 2.249868 0.084925 -0.019178 -125544.000000 0 0 1
34.461979 8.767783 -29.136907 45.972398 0.249133 2.257241 0.099515 -0.019711 -447782.000000 0 0 1
34.502579 7.358083 -28.992617 45.663346 0.210114 2.258703 0.101620 -0.022588 -251980.000000 0 0 1
33.290079 6.720183 -28.694847 44.461044 0.199191 2.272334 0.114840 -0.022097 -491465.000000 0 0 1
35.895253 5.713083 -19.874887 41.426074 0.157836 2.071186 0.089129 -0.021190 -415361.000000 0 0 1
35.397793 6.386183 -18.743387 40.559853 0.178492 2.051177 0.077473 -0.027760 392880.000000 0 0 1
35.952333 7.693283 -18.560087 41.185358 0.210806 2.038287 0.059889 -0.011209 1062390.000000 0 0 1
-37.246751 7.786983 -17.942287 42.069980 -0.206096 2.011401 0.078265 -0.022280 1356400.000000 0 0 1
-36.138871 7.376683 -18.705487 41.356120 -0.201354 2.040142 0.087078 -0.029737 230567.000000 0 0 1
-35.633762 8.277283 -19.678687 41.539488 -0.228240 2.064323 0.079747 -0.015301 672932.000000 0 0 1
-34.492533 7.758583 -20.685887 40.961400 -0.221253 2.100189 0.079336 -0.006716 917810.000000 0 0 1
-34.824353 6.674383 -21.543487 41.489815 -0.189362 2.116767 0.071670 -0.011168 100083.000000 0 0 1
-35.453155 7.011483 -22.769887 42.714808 -0.195248 2.133019 0.072242 -0.012077 175973.000000 0 0 1
-35.535241 5.945983 -23.875087 43.221844 -0.165790 2.156019 0.099358 -0.020705 396734.000000 0 0 1
-34.282141 5.899783 -24.536087 42.568676 -0.170426 2.185098 0.083044 -0.024524 206891.000000 0 0 1
-34.163963 4.652383 -25.017687 42.599362 -0.135346 2.198489 0.081035 -0.025440 -73770.000000 0 0 1
-32.832751 4.432383 -25.764947 41.969846 -0.134188 2.231778 0.082859 -0.017673 -78258.800000 0 0 1
-31.696101 4.468983 -24.936287 40.576261 -0.140071 2.232616 0.087243 -0.013258 -193066.000000 0 0 1
-30.548461 4.183983 -25.719437 40.152255 -0.136115 2.266008 0.085418 -0.012086 17873.400000 0 0 1
-29.207421 4.500683 -25.046877 38.738554 -0.152891 2.273865 0.060886 -0.010554 -251984.000000 0 0 1
-28.985531 5.891383 -25.077707 38.778354 -0.200521 2.274038 0.048805 -0.003239 142121.000000 0 0 1
-27.683461 6.290683 -24.689887 37.623625 -0.223442 2.286613 0.063824 0.003140 301143.000000 0 0 1
-27.395631 7.805883 -24.909187 37.840718 -0.277576 2.289307 0.063771 -0.000810 -2733.150000 0 0 1
-27.762451 8.574983 -23.791787 37.554402 -0.299574 2.256902 0.058125 0.003275 -126450.000000 0 0 1
-27.438301 9.943183 -23.877287 37.707453 -0.347664 2.256509 0.052393 0.000394 100499.000000 0 0 1
-26.045861 10.314183 -23.326687 36.454129 -0.377054 2.265153 0.060624 0.005739 119243.000000 0 0 1
-26.135711 10.441683 -21.900387 35.661338 -0.380091 2.232068 0.050135 0.007210 -55190.000000 0 0 1
-24.838921 10.658683 -21.414487 34.484195 -0.405349 2.240807 0.069526 -0.006827 -743712.000000 0 0 1
-24.726121 11.016583 -19.902287 33.598321 -0.419142 2.204781 0.088342 -0.013760 -1727960.000000 0 0 1
-25.090251 12.331883 -19.534287 34.105489 -0.456825 2.180666 0.091670 -0.022239 1251810.000000 0 0 1
-26.495361 12.637983 -19.580387 35.286177 -0.445070 2.159042 0.080551 -0.003923 746122.000000 0 0 1
-27.521771 11.712983 -18.892387 35.377452 -0.402370 2.134149 0.078590 -0.001244 -1266250.000000 0 0 1
-27.279841 11.761583 -17.496787 34.476979 -0.407064 2.103068 0.099128 -0.015392 611848.000000 0 0 1
-28.194351 10.949383 -16.727687 34.563360 -0.370426 2.075984 0.124281 -0.017419 -687893.000000 0 0 1
-27.717551 10.574883 -15.322087 33.389476 -0.364477 2.047541 0.149537 -0.028083 -49595.500000 0 0 1
-26.713931 9.596683 -15.245687 32.220512 -0.344882 2.063679 0.156723 -0.026423 276978.000000 0 0 1
-25.429931 9.981783 -15.684587 31.501168 -0.374042 2.091978 0.127328 -0.020483 -1186350.000000 0 0 1
-24.474621 8.793283 -15.732387 30.394685 -0.344920 2.114844 0.096966 -0.019000 -929770.000000 0 0 1
-23.154321 9.134383 -15.479387 29.311617 -0.375756 2.127155 0.091201 -0.016387 -191119.000000 0 0 1
-22.322121 8.000183 -15.171787 28.150721 -0.344136 2.139985 0.103347 -0.017140 872265.000000 0 0 1
-20.794321 8.314083 -15.154487 27.040455 -0.380355 2.165710 0.134872 -0.029767 227143.000000 0 0 1
-20.233421 8.590683 -16.379887 27.413351 -0.401514 2.211195 0.139744 -0.043964 180239.000000 0 0 1
-18.822321 8.708183 -16.264987 26.356441 -0.433325 2.235869 0.133949 -0.042872 -71841.700000 0 0 1
-18.066021 9.318283 -17.479987 26.809726 -0.476200 2.281018 0.100049 -0.037086 -95775.000000 0 0 1
-17.952821 8.523283 -18.603687 27.222183 -0.443253 2.323208 0.139348 -0.054054 654905.000000 0 0 1
-16.777821 7.702483 -18.524487 26.153013 -0.430385 2.357900 0.140603 -0.047314 33191.000000 0 0 1
-16.452421 7.072083 -19.972387 26.825226 -0.405972 2.410638 0.110492 -0.037226 483769.000000 0 0 1
-17.371921 6.046483 -20.395987 27.465248 -0.334946 2.407756 0.093847 -0.030195 580603.000000 0 0 1
-18.602021 6.568683 -20.881887 28.726920 -0.339449 2.384608 0.085601 -0.025670 36407.400000 0 0 1
-19.453221 5.496483 -21.587187 29.574410 -0.275371 2.389013 0.079764 -0.006584 -214958.000000 0 0 1
-19.813221 4.410783 -20.756987 29.032244 -0.219046 2.367368 0.116693 -0.009169 707483.000000 0 0 1
-20.742321 3.548283 -21.456687 30.053678 -0.169425 2.365913 0.076917 0.000116 -208114.000000 0 0 1
-21.677321 2.848283 -20.491187 29.965108 -0.130646 2.323802 0.097253 -0.000180 -462292.000000 0 0 1
-22.466621 1.828083 -21.099087 30.874948 -0.081190 2.323168 0.101109 0.000701 448499.000000 0 0 1
-23.206521 1.225083 -20.038087 30.684986 -0.052741 2.282369 0.103940 -0.008742 -37153.400000 0 0 1
-23.879721 -0.134817 -20.392687 31.402562 0.005646 2.277586 0.111689 -0.002058 -315739.000000 0 0 1
-22.980921 -1.189817 -20.543487 30.847581 0.051728 2.299586 0.092329 -0.017234 -33750.700000 0 0 1
-23.604121 -2.474717 -20.709687 31.498728 0.104461 2.288262 0.106845 -0.024288 -351126.000000 0 0 1
-24.219221 -2.685617 -22.133187 32.919009 0.110437 2.308179 0.102571 -0.022822 327977.000000 0 0 1
-23.297021 -2.571017 -23.223987 32.995679 0.109913 2.351598 0.066925 -0.016992 -52609.800000 0 0 1
-22.280421 -3.544317 -23.191087 32.354379 0.157756 2.369975 0.053322 -0.030213 -539360.000000 0 0 1
-21.314821 -3.282117 -24.335587 32.516375 0.152783 2.416458 0.052315 -0.026102 -60029.200000 0 0 1
-21.963821 -3.564417 -25.558717 33.887498 0.160883 2.425266 0.052264 -0.023965 73012.500000 0 0 1
-21.001821 -3.673417 -26.538167 34.041809 0.173158 2.464784 0.052685 -0.026271 -128268.000000 0 0 1
-21.758521 -3.729217 -27.886817 35.567047 0.169742 2.471982 0.054011 -0.031289 288846.000000 0 0 1
-22.513121 -4.923017 -27.998447 36.262787 0.215284 2.452933 0.077202 -0.029532 35792.700000 0 0 1
-23.185521 -5.000317 -29.218567 37.633711 0.212412 2.459719 0.055725 -0.026418 -509825.000000 0 0 1
-22.844521 -6.238117 -30.136747 38.327663 0.266570 2.475581 0.084523 -0.028050 -423185.000000 0 0 1
-21.603921 -5.927917 -30.713027 38.015255 0.267800 2.511399 0.065521 -0.030146 -281166.000000 0 0 1
-20.988221 -7.138617 -31.128427 38.215759 0.327851 2.522739 0.073392 -0.023242 -27357.100000 0 0 1
-19.482421 -6.968217 -31.475997 37.667747 0.343489 2.560060 0.070228 -0.029260 81531.200000 0 0 1
-19.216721 -6.624217 -32.803677 38.590722 0.331955 2.586859 0.069613 -0.040278 320680.000000 0 0 1
-19.425921 -7.653617 -33.790637 39.720919 0.375315 2.588114 0.069207 -0.038910 -723614.000000 0 0 1
-19.484321 -7.136517 32.601367 38.644763 0.351095 0.566813 0.068249 -0.039986 -303912.000000 0 0 1
-18.263821 -6.886017 31.962397 37.451024 0.360550 0.548236 0.078741 -0.042396 -250746.000000 0 0 1
-17.548921 -5.751917 32.345565 37.246271 0.316730 0.518781 0.055435 -0.041159 180070.000000 0 0 1
-16.210921 -5.428217 31.611428 35.938028 0.323114 0.495756 0.045402 -0.039950 223369.000000 0 0 1
-16.358621 -5.363017 30.226988 34.785589 0.316799 0.517717 0.053723 -0.040547 -56634.500000 0 0 1
-15.230521 -4.908117 29.513578 33.572454 0.311748 0.496824 0.054331 -0.032358 -45253.000000 0 0 1
-15.420321 -4.992817 27.973018 32.329618 0.313130 0.525159 0.077794 -0.028492 502761.000000 0 0 1
-16.425121 -4.062817 27.530028 32.313983 0.242487 0.551091 0.073147 -0.030466 580969.000000 0 0 1
-16.900821 -4.223417 26.162348 31.431567 0.244879 0.587446 0.102585 -0.028646 570388.000000 0 0 1
-15.882721 -3.718417 25.070238 29.909936 0.229975 0.576839 0.094814 -0.023671 371328.000000 0 0 1
-15.694421 -2.309317 25.018698 29.624028 0.146094 0.565089 0.085001 -0.016673 71176.900000 0 0 1
-14.603621 -1.918717 24.212718 28.340835 0.130638 0.546516 0.087158 -0.017946 42876.500000 0 0 1
-14.422021 -0.397517 24.195808 28.170726 0.027556 0.537680 0.082740 -0.012916 -251952.000000 0 0 1
-15.329621 0.279183 23.368718 27.949457 -0.018210 0.580650 0.090761 -0.019200 8524.960000 0 0 1
-15.597221 1.542183 23.920348 28.597808 -0.098555 0.580042 0.060620 -0.010175 -268388.000000 0 0 1
-16.427021 2.443783 22.999058 28.368569 -0.147683 0.625410 0.072461 -0.016738 -270152.000000 0 0 1
-15.633521 3.063583 22.025738 27.183186 -0.193510 0.626183 0.062545 -0.009261 418312.000000 0 0 1
-16.332621 4.114083 21.359838 27.201523 -0.246760 0.667706 0.069542 -0.007830 317694.000000 0 0 1
-15.355021 4.850783 20.411538 25.998800 -0.305987 0.667946 0.075283 -0.003515 708181.000000 0 0 1
-14.377821 5.661483 21.053238 26.115377 -0.375120 0.633159 0.056542 -0.006597 219064.000000 0 0 1
-13.237821 5.935283 20.294838 24.946902 -0.421488 0.620614 0.049983 -0.003703 -57041.300000 0 1 0
-12.280321 6.987783 20.815038 25.157527 -0.517331 0.596355 0.049527 -0.005505 -72081.800000 0 0 1
-12.762721 8.274183 20.513238 25.537072 -0.575185 0.638026 0.051044 -0.006957 -164952.000000 0 0 1
-11.765621 9.223783 20.618638 25.468337 -0.664884 0.627361 0.055935 -0.010252 -360834.000000 0 0 1
-12.379521 10.632383 20.615038 26.292202 -0.709620 0.669593 0.044343 0.000658 -97644.700000 0 0 1
-12.885621 11.093583 19.382138 25.783213 -0.710804 0.720108 0.050868 -0.001691 592327.000000 0 0 1
-13.556021 12.374283 19.475638 26.761708 -0.739856 0.755771 0.038473 0.006697 -171505.000000 0 0 1
-13.855421 13.010283 18.105638 26.249843 -0.753951 0.809663 0.037611 0.006865 -354814.000000 0 0 1
-12.769321 13.616583 17.447438 25.551516 -0.817498 0.819162 0.031643 -0.000465 -318439.000000 0 0 1
-12.479621 14.992383 17.807838 26.412716 -0.876611 0.830896 0.042880 -0.005836 -100202.000000 0 0 1
-13.540421 16.112183 17.471038 27.352926 -0.871911 0.877954 0.034411 0.001002 386244.000000 0 0 1
-13.835721 16.507483 16.116038 26.900759 -0.873223 0.928429 0.040292 -0.008599 -24718.000000 0 0 1
-13.971321 15.459583 15.157938 25.767413 -0.835923 0.941891 0.067831 -0.011559 -384858.000000 0 0 1
-14.624721 15.948683 13.862738 25.698607 -0.828675 1.001030 0.066466 -0.015564 1571050.000000 0 0 1
-15.881521 16.704283 14.041538 26.989267 -0.810642 1.023637 0.054810 -0.011082 1397700.000000 0 0 1
-16.481521 16.930583 12.760738 26.853707 -0.798837 1.075611 0.066561 -0.011821 -318419.000000 0 0 1
-17.636421 17.909583 12.937338 28.269616 -0.793083 1.095456 0.057449 -0.019624 -1164680.000000 0 0 1
-18.814621 17.343183 13.353038 28.863117 -0.744726 1.089833 0.065628 -0.018539 -464904.000000 0 0 1
-19.897521 18.280883 13.377638 30.150675 -0.743079 1.111081 0.075094 -0.024662 623171.000000 0 0 1
-21.311221 17.677283 13.455038 30.784614 -0.692461 1.118458 0.092708 -0.029150 283650.000000 0 0 1
-21.817821 17.095083 12.242638 30.300847 -0.664622 1.154871 0.102946 -0.030918 144238.000000 0 0 1
-23.102521 16.533283 12.414938 31.003331 -0.621151 1.158801 0.108343 -0.036296 -258052.000000 0 0 1
-23.606521 15.741583 11.194238 30.502069 -0.588117 1.195015 0.117209 -0.031672 -333042.000000 0 0 1
-22.869121 14.605983 10.922238 29.251097 -0.568374 1.188129 0.085878 -0.025860 200549.000000 0 0 1
-23.261621 14.064483 9.628638 28.837880 -0.543811 1.230370 0.095745 -0.021376 466576.000000 0 0 1
-22.379121 12.753483 9.420638 27.426716 -0.517980 1.220172 0.110621 -0.024682 18828.800000 0 0 1
-22.654821 11.594583 10.185738 27.412123 -0.473038 1.190088 0.104298 -0.024144 -108290.000000 0 0 1
-23.965621 11.089383 10.139838 28.286776 -0.433382 1.204173 0.139702 -0.017802 -237226.000000 0 0 1
-24.380221 10.378383 8.816838 27.925662 -0.402454 1.249575 0.146954 -0.017471 -369528.000000 0 0 1
-24.573821 11.283483 7.746238 28.128168 -0.430451 1.291800 0.134273 -0.021332 1142940.000000 0 0 1
-25.980951 11.283883 7.401338 29.276537 -0.409733 1.315215 0.197608 -0.032747 694981.000000 0 0 1
-26.420891 12.567483 6.762238 30.028868 -0.443990 1.343657 0.195027 -0.028335 -820676.000000 0 0 1
-25.996421 12.815183 5.440138 29.489623 -0.457999 1.385257 0.193791 -0.040408 722833.000000 0 0 1
-24.687221 13.388783 5.318038 28.583210 -0.496941 1.383651 0.180142 -0.037022 283914.000000 0 0 1
-24.470721 14.796883 6.022138 29.223792 -0.543851 1.363240 0.164714 -0.042612 -355614.000000 0 0 1
-23.186021 15.398583 5.868638 28.445541 -0.586246 1.362993 0.123590 -0.045557 680680.000000 0 0 1
-23.142421 16.629283 6.616438 29.255460 -0.623076 1.342662 0.117568 -0.045766 818357.000000 0 0 1
-21.743021 17.338883 6.472338 28.553230 -0.673182 1.342133 0.097230 -0.035288 698912.000000 0 0 1
-21.373821 17.843683 5.217338 28.327686 -0.695626 1.385561 0.126796 -0.051257 1479290.000000 0 0 1
-19.950121 18.114683 5.242738 27.452419 -0.737217 1.378641 0.124151 -0.043463 956349.000000 0 0 1
-19.423321 18.929083 4.055538 27.423037 -0.772512 1.422364 0.106985 -0.041263 -203017.000000 0 0 1
-18.012421 19.050683 4.016438 26.523717 -0.813404 1.418783 0.099254 -0.044884 311382.000000 0 0 1
-17.589421 20.125683 3.216638 26.921693 -0.852545 1.451029 0.115377 -0.042811 -193356.000000 0 0 1
-17.737321 21.592983 3.751738 28.194768 -0.883119 1.437335 0.126529 -0.048569 -477086.000000 0 0 1
-17.133321 21.916683 4.981038 28.261323 -0.907284 1.393622 0.113934 -0.046474 51629.700000 0 0 1
-17.363821 23.289783 5.300238 29.529794 -0.930146 1.390331 0.095298 -0.040266 -440250.000000 0 0 1
-16.586421 23.801883 6.531738 29.737225 -0.962185 1.349342 0.077349 -0.022038 94087.200000 0 0 1
-17.142221 23.255683 7.766238 29.916499 -0.935590 1.308191 0.072012 -0.016056 393591.000000 0 0 1
-16.287121 23.273183 8.883638 29.762902 -0.960189 1.267696 0.064515 -0.018806 -85343.900000 0 0 1
-16.896421 22.344083 9.949738 29.727838 -0.923344 1.229516 0.042542 -0.012043 881981.000000 0 0 1
-17.961521 23.061183 10.636138 31.105655 -0.909077 1.221820 0.044576 -0.010915 397510.000000 0 0 1
-18.870621 22.138983 11.181538 31.165071 -0.864928 1.203831 0.042792 -0.016561 -463647.000000 0 0 1
-19.993921 22.777283 12.013238 32.601830 -0.850382 1.193419 0.051777 -0.021807 -146541.000000 0 0 1
-20.990021 23.412583 11.199238 33.378929 -0.839903 1.228641 0.067240 -0.014875 306249.000000 0 0 1
-20.700321 24.653983 10.618338 33.897953 -0.872351 1.252189 0.033423 -0.006041 62818.100000 0 0 1
-22.016521 25.268383 10.008538 34.976980 -0.854062 1.280594 0.052365 -0.006896 705236.000000 0 0 1
-22.858421 25.847183 10.965838 36.205439 -0.846685 1.263085 0.070717 -0.024818 -7151.990000 0 0 1
-23.789121 26.727783 10.349238 37.247863 -0.843505 1.289243 0.065390 -0.017914 -61664.200000 0 0 1
-24.603221 27.497783 11.397238 38.617917 -0.840898 1.271207 0.077326 -0.030175 -526770.000000 0 0 1
-23.837321 28.495783 12.004238 39.042659 -0.874180 1.258269 0.069762 -0.026895 154929.000000 0 0 1
-24.557621 29.227383 12.943138 40.309322 -0.872004 1.243910 0.069872 -0.023818 -166885.000000 0 0 1
9.929479 -32.501842 28.347928 44.255726 -1.274297 0.875584 0.072624 -0.036815 -636771.000000 0 0 1
11.215579 -32.650642 27.808088 44.329938 -1.239922 0.892717 0.056113 -0.043989 -58467.600000 0 0 1
11.299679 -32.316642 26.453008 43.264416 -1.234429 0.912934 0.066057 -0.036295 345495.000000 0 0 1
12.733979 -32.405942 25.851638 43.365960 -1.196381 0.932127 0.027573 -0.017150 403196.000000 0 0 1
13.325879 -33.679642 25.676598 44.398029 -1.194032 0.954119 0.037446 -0.025928 934465.000000 0 0 1
14.730379 -33.561542 25.393758 44.589282 -1.157206 0.964894 0.039226 -0.017322 1301650.000000 0 0 1
15.492079 32.913583 25.032618 44.158129 1.130871 0.968076 0.065932 -0.012867 278791.000000 0 0 1
15.283779 32.542683 23.700568 43.062013 1.131719 0.987974 0.044268 -0.023585 350124.000000 0 0 1
16.117179 31.424883 23.416818 42.374923 1.096898 0.985303 0.046744 -0.025317 -18924.400000 0 0 1
15.962579 30.715183 22.037038 41.034832 1.091516 1.003881 0.043612 -0.031005 134737.000000 0 0 1
14.938579 29.736683 21.790938 39.777838 1.105261 0.991045 0.041657 -0.016346 201474.000000 0 0 1
15.307979 28.385383 22.033938 39.058400 1.076212 0.971420 0.048936 -0.013294 -64762.500000 0 0 1
15.119379 27.882383 23.498438 39.474035 1.073918 0.933172 0.059746 -0.032633 -636478.000000 0 0 1
15.907079 28.444083 24.473918 40.756271 1.060886 0.926677 0.064824 -0.031688 -636708.000000 0 0 1
15.615479 28.068783 25.809558 41.204769 1.063107 0.893905 0.056748 -0.037120 -894016.000000 0 0 1
16.444879 28.472883 27.009418 42.551707 1.047038 0.883120 0.065438 -0.041086 -473176.000000 0 0 1
16.589979 29.855683 27.343608 43.752281 1.063609 0.895711 0.071469 -0.044866 -99033.200000 0 0 1
17.147579 30.007383 28.593938 44.856390 1.051638 0.879605 0.082784 -0.044878 -145920.000000 0 0 1
16.986979 31.497183 29.024348 46.076488 1.076192 0.889350 0.086915 -0.044657 -40170.700000 0 0 1
17.698479 32.372883 28.201478 46.438810 1.070485 0.918161 0.082253 -0.030900 -194472.000000 0 0 1
17.566679 33.696183 28.677558 47.606966 1.090234 0.924315 0.082838 -0.015716 -22052.600000 0 0 1
18.230879 -32.960242 27.883698 46.864092 -1.065563 0.933542 0.065154 -0.014561 -635819.000000 0 0 1
17.906779 -32.796742 26.515638 45.818752 -1.071035 0.953654 0.068885 -0.013913 -129638.000000 0 0 1
18.313679 -31.578342 25.921308 44.771606 -1.045254 0.953334 0.072175 -0.018109 1298640.000000 0 0 1
19.859179 -31.178242 25.868918 45.118407 -1.003645 0.960200 0.106241 -0.017879 1184280.000000 0 0 1
20.368279 -30.688942 27.068238 45.709599 -0.984850 0.937037 0.098661 -0.017412 -88835.400000 0 0 1
21.178379 -29.549342 26.905328 45.228133 -0.948942 0.933680 0.112123 -0.015099 -66614.500000 0 0 1
21.370079 -28.718542 28.181408 45.559046 -0.931068 0.903876 0.102150 -0.013183 -29108.400000 0 0 1
20.177679 -28.072642 28.581288 44.856460 -0.947586 0.879973 0.102497 -0.016709 153069.000000 0 0 1
20.359179 -27.197942 29.678448 45.111356 -0.928220 0.852779 0.108383 -0.016895 -491028.000000 0 0 1
18.989979 -26.724842 30.132608 44.528761 -0.953009 0.827525 0.111283 -0.019980 -714649.000000 0 0 1
18.442179 -25.861142 29.196428 43.143296 -0.951317 0.827482 0.103990 -0.018100 362083.000000 0 0 1
17.153079 -25.471542 29.695308 42.718133 -0.978132 0.802174 0.096151 -0.014011 521693.000000 0 0 1
16.294679 -24.815642 28.544298 41.183851 -0.989775 0.805023 0.085031 -0.011104 -910119.000000 0 0 1
15.992279 -25.669942 27.494128 40.873292 -1.013639 0.832989 0.075722 -0.012886 199273.000000 0 0 1
15.419079 -25.063342 26.330988 39.487213 -1.019272 0.840859 0.076436 -0.022335 -1033800.000000 0 0 1
13.978379 -24.624342 26.561788 38.823728 -1.054492 0.817340 0.050807 -0.015087 -1202570.000000 0 0 1
13.057079 -25.648942 26.848638 39.359940 -1.099920 0.820123 0.042650 -0.010590 163983.000000 0 0 1
12.607179 -26.417342 25.743288 38.981198 -1.125529 0.849441 0.046480 -0.017805 -874134.000000 0 0 1
11.702779 -27.599242 25.991108 39.676326 -1.169751 0.856510 0.045292 -0.019567 -839316.000000 0 0 1
10.346079 -27.338242 26.154018 39.223124 -1.209007 0.840888 0.046667 -0.027952 -563500.000000 0 0 1
9.598079 -28.517142 26.286788 39.954295 -1.246134 0.852741 0.052873 -0.032569 758343.000000 0 0 1
8.102279 -28.374342 26.789538 39.855107 -1.292649 0.833656 0.052365 -0.037733 1003420.000000 0 0 1
7.124079 -27.985642 25.836198 38.748648 -1.321529 0.840938 0.066345 -0.040942 160789.000000 0 0 1
7.304979 -26.682142 25.184768 37.410853 -1.303567 0.832276 0.085237 -0.041977 -406796.000000 0 0 1
5.992879 -26.364242 24.394748 36.415540 -1.347283 0.836723 0.082773 -0.041836 168173.000000 0 0 1
5.925479 -27.268042 23.306768 36.357431 -1.356818 0.874937 0.073945 -0.036680 38828.700000 0 0 1
5.246179 -28.520042 23.493598 37.321097 -1.388883 0.889888 0.078763 -0.036501 -773332.000000 0 0 1
3.750479 -28.527742 23.744738 37.305639 -1.440078 0.880855 0.102796 -0.045882 -1352860.000000 0 0 1
2.892479 -28.253342 22.675238 36.342594 -1.468775 0.897035 0.096257 -0.042212 -404368.000000 0 0 1
1.574179 -27.960542 23.022568 36.253394 -1.514556 0.882728 0.122175 -0.045897 -315160.000000 0 0 1
1.289479 -26.464642 23.417238 35.361095 -1.522110 0.847003 0.112695 -0.044466 -605060.000000 0 0 1
1.876279 -26.083142 24.626588 35.921018 -1.498985 0.815402 0.100373 -0.042686 14008.000000 0 0 1
1.710979 -24.693842 24.839208 35.067071 -1.501619 0.783661 0.115754 -0.047608 -142322.000000 0 0 1
2.762879 -24.222942 25.903188 35.571892 -1.457227 0.755115 0.118791 -0.046558 -355639.000000 0 0 1
4.003179 -24.080142 25.274688 35.138135 -1.406059 0.768009 0.100452 -0.043527 -361969.000000 0 0 1
5.004279 -23.399242 26.035958 35.361539 -1.360105 0.743241 0.091189 -0.044643 461758.000000 0 0 1
4.832079 -21.890642 26.320728 34.573543 -1.353543 0.705486 0.088369 -0.034493 -517607.000000 0 0 1
4.854879 -21.246442 25.040418 33.196440 -1.346150 0.716193 0.067195 -0.036232 182201.000000 0 0 1
4.138479 -20.053442 25.300548 32.548199 -1.367281 0.680393 0.101134 -0.039768 -650.376000 0 0 1
4.031579 -19.104242 24.117188 31.030057 -1.362817 0.680560 0.093633 -0.038547 131441.000000 0 0 1
5.219579 -18.382342 23.861548 30.570050 -1.294133 0.675246 0.070159 -0.027024 16993.700000 0 0 1
5.273879 -18.093242 22.507638 29.355970 -1.287171 0.697089 0.068110 -0.025251 -565001.000000 0 0 1
6.516779 -17.280542 22.168538 28.853589 -1.210171 0.694598 0.063161 -0.018494 -283343.000000 0 0 1
7.707379 -17.980842 22.418138 29.753777 -1.165843 0.717495 0.061818 -0.024257 -776824.000000 0 0 1
8.832979 -17.249742 22.011838 29.327395 -1.097544 0.721894 0.063308 -0.023155 -145553.000000 0 0 1
10.048479 -17.580342 22.888918 30.560479 -1.051540 0.724288 0.077262 -0.022926 -229732.000000 0 0 1
10.098779 -16.860742 24.098948 31.097094 -1.031148 0.684147 0.080892 -0.021951 -91699.200000 0 0 1
11.353879 -16.992342 24.734618 32.085068 -0.981749 0.690532 0.092306 -0.016733 193495.000000 0 0 1
11.487479 -16.084942 25.955238 32.624560 -0.950619 0.650843 0.110944 -0.020178 -134853.000000 0 0 1
11.444979 -14.703342 25.608958 31.670089 -0.909370 0.629000 0.129945 -0.024522 216242.000000 0 0 1
10.968679 -13.816442 26.624578 31.938599 -0.899795 0.585171 0.128556 -0.029398 -181532.000000 0 0 1
11.240579 -12.324142 26.318998 31.159665 -0.831348 0.564886 0.128678 -0.025763 -198260.000000 0 0 1
10.201979 -11.721542 25.615878 29.960776 -0.854599 0.545283 0.139504 -0.021461 -106817.000000 0 0 1
10.548979 -10.379442 25.356958 29.359650 -0.777298 0.528297 0.135058 -0.017759 984106.000000 0 0 1
9.374479 -9.580442 24.632548 28.043326 -0.796264 0.498345 0.136575 -0.015042 1193100.000000 0 0 1
8.217379 -9.234642 25.392988 28.241950 -0.843621 0.453035 0.123731 -0.022811 -428944.000000 0 0 1
7.213279 -8.896242 24.508128 27.052224 -0.889491 0.437164 0.127954 -0.020944 -1152350.000000 0 0 1
5.858279 -9.040242 25.180388 27.387905 -0.995813 0.404249 0.097650 -0.023440 -1592750.000000 0 0 1
5.419179 -8.031842 26.131338 27.869783 -0.977245 0.355069 0.109389 -0.021726 1102310.000000 0 0 1
4.062379 -8.150942 26.615378 28.130395 -1.108434 0.329689 0.096479 -0.022569 1846590.000000 0 0 1
2.914879 -8.257842 25.553788 27.012674 -1.231466 0.330154 0.077839 -0.018873 -506307.000000 0 0 1
2.784979 -7.067842 24.791818 25.929611 -1.195442 0.297337 0.098142 -0.023811 -456267.000000 0 0 1
1.543079 -7.030042 24.150458 25.200143 -1.354725 0.289642 0.065607 -0.023037 -142181.000000 0 0 1
1.335279 -5.735842 23.401048 24.130725 -1.342074 0.246545 0.050021 -0.027222 15439.100000 0 1 0
1.202379 -4.558542 24.197458 24.652444 -1.312906 0.192422 0.054296 -0.027101 -159889.000000 0 1 0
1.695079 -3.366942 23.620948 23.919840 -1.104394 0.158251 0.058736 -0.024885 -1028210.000000 0 1 0
0.911679 -2.697642 22.412238 22.592406 -1.244893 0.126375 0.037670 -0.029025 1120980.000000 0 1 0
-0.289721 -1.954642 22.678738 22.764659 1.423646 0.086910 0.030816 -0.039369 502546.000000 0 1 0
-1.294721 -2.644642 23.387118 23.571756 1.115533 0.125246 0.030379 -0.029362 -402738.000000 0 1 0
-2.339521 -1.631642 23.994628 24.163563 0.608996 0.118317 0.031050 -0.033447 180729.000000 0 1 0
-1.737721 -0.757642 24.863358 24.935522 0.411149 0.076098 0.058398 -0.042332 218001.000000 0 1 0
-2.665521 0.237358 25.332618 25.473572 -0.088813 0.105247 0.059868 -0.042167 232677.000000 0 0 1
-2.121621 1.120358 26.525308 26.633596 -0.485848 0.090206 0.097530 -0.049096 44659.800000 0 0 1
-2.106821 0.588358 27.826168 27.912013 -0.272326 0.078449 0.121758 -0.044985 -220650.000000 0 0 1
-1.360721 -0.563642 28.019718 28.058400 0.392707 0.052516 0.123022 -0.046015 -440119.000000 0 0 1
-0.006421 -0.371642 28.760608 28.763009 1.553522 0.012923 0.146723 -0.043691 806962.000000 0 0 1
1.065979 0.337358 28.095028 28.117267 0.306504 0.039776 0.124739 -0.044287 771299.000000 0 0 1
1.792179 -0.302642 27.072498 27.133441 -0.167290 0.067036 0.121014 -0.046465 164090.000000 0 0 1
2.841179 -1.411642 27.413628 27.596594 -0.461125 0.115216 0.123086 -0.049534 -255417.000000 0 0 1
2.268179 -2.530642 28.040398 28.245578 -0.840037 0.120607 0.130327 -0.047535 -342151.000000 0 0 1
3.107779 -3.633642 28.296838 28.697956 -0.863245 0.167391 0.136158 -0.037269 134795.000000 0 0 1
3.794279 -4.394042 27.083848 27.699079 -0.858514 0.211159 0.134994 -0.038395 923058.000000 0 0 1
4.856179 -3.631442 26.484788 27.170091 -0.642090 0.225075 0.134192 -0.031137 125733.000000 0 0 1
5.427779 -4.320542 25.421048 26.350665 -0.672300 0.266414 0.126707 -0.030376 -192560.000000 0 0 1
6.731079 -3.748842 24.825998 25.994065 -0.508160 0.300920 0.116754 -0.033477 507648.000000 0 0 1
7.852479 -3.734242 25.774778 27.201933 -0.443896 0.325363 0.112343 -0.031804 1364200.000000 0 0 1
8.782779 -4.818742 25.687628 27.571937 -0.501812 0.371845 0.135457 -0.025778 687999.000000 0 0 1
9.633879 -4.940142 24.384098 26.679596 -0.473826 0.417857 0.118787 -0.022126 -553953.000000 0 0 1
8.883979 -5.459242 23.354148 25.576251 -0.551016 0.419928 0.114879 -0.025869 344072.000000 0 0 1
9.669079 -5.466442 22.099338 24.733657 -0.514554 0.465733 0.122871 -0.023911 908981.000000 0 1 0
9.817679 -4.044342 21.423238 23.910220 -0.390761 0.460148 0.131869 -0.027705 61560.500000 0 1 0
8.548679 -3.696042 20.946038 22.923288 -0.408082 0.418388 0.115393 -0.035913 -481078.000000 0 1 0
8.462179 -2.420642 20.391138 22.209603 -0.278614 0.407480 0.100931 -0.027942 -625171.000000 0 1 0
7.051179 -1.900642 20.200138 21.479691 -0.263292 0.346905 0.093510 -0.021093 -319980.000000 0 1 0
6.384879 -1.624642 21.438938 22.428424 -0.249164 0.298147 0.096140 -0.016289 339444.000000 0 1 0
5.144879 -0.947642 21.295438 21.928599 -0.182150 0.240889 0.048991 -0.010664 244368.000000 0 1 0
4.413979 -0.701642 22.620438 23.057747 -0.157640 0.195070 0.052421 -0.025278 307835.000000 0 1 0
3.188879 0.026358 22.512438 22.737183 0.008266 0.140718 0.049043 -0.024130 276432.000000 0 1 0
2.704379 0.476358 23.753188 23.911389 0.174355 0.115095 0.070428 -0.025691 -1176370.000000 0 1 0
1.291079 0.919358 23.517678 23.571026 0.618791 0.067293 0.063583 -0.040392 -1207090.000000 0 1 0
1.098479 2.292358 23.226218 23.364904 1.123933 0.109010 0.061423 -0.025736 280060.000000 0 1 0
-0.301521 2.436358 23.053998 23.184339 -1.447664 0.106087 0.049927 -0.030109 217860.000000 0 1 0
-0.677821 3.896358 22.637938 22.980802 -1.398557 0.172956 0.049307 -0.026167 -155208.000000 0 1 0
-0.581321 4.896358 23.677338 24.185297 -1.452624 0.205313 0.057031 -0.026676 -271050.000000 0 1 0
-1.235121 6.035358 23.188648 23.993008 -1.368936 0.259668 0.049473 -0.026977 -196830.000000 0 1 0
-1.099221 7.309358 24.021028 25.132544 -1.421530 0.298517 0.061580 -0.018899 731531.000000 0 0 1
0.000779 8.164358 23.634308 25.004744 1.570701 0.332611 0.049033 -0.016505 504288.000000 0 0 1
-0.069221 9.370358 24.322748 26.065388 -1.563409 0.367736 0.049693 -0.008494 -1155430.000000 0 0 1
0.543879 10.509358 23.442488 25.696160 1.519091 0.421942 0.036715 -0.009500 -112050.000000 0 0 1
1.933679 10.604358 23.290268 25.663751 1.390430 0.433464 0.035781 -0.010758 -787834.000000 0 0 1
2.602379 10.766358 24.469228 26.859448 1.333631 0.425070 0.058838 -0.017461 -673579.000000 0 0 1
3.999379 11.488358 24.308028 27.181936 1.235793 0.463996 0.060210 -0.024681 378321.000000 0 0 1
5.086879 10.841358 23.735108 26.585085 1.132082 0.467278 0.057833 -0.021359 -242617.000000 0 0 1
4.985679 10.415358 22.380738 25.184005 1.124345 0.476319 0.052123 -0.023805 -1807080.000000 0 0 1
6.322779 10.051358 21.815938 24.838327 1.009292 0.498465 0.071398 -0.026284 -664504.000000 0 1 0
7.126179 11.191358 21.461238 25.231204 1.003787 0.553703 0.067734 -0.030793 303961.000000 0 0 1
8.434379 10.723358 21.169038 25.184466 0.904315 0.572481 0.084246 -0.030546 340782.000000 0 0 1
9.333279 11.860358 20.591838 25.530413 0.904075 0.632485 0.080672 -0.043456 -429421.000000 0 0 1
9.018079 12.228358 19.263738 24.534671 0.935361 0.667836 0.081582 -0.043046 616815.000000 0 1 0
9.915079 13.146358 18.558438 24.810303 0.924608 0.725733 0.100456 -0.041102 645300.000000 0 1 0
11.352579 12.665358 18.280438 24.969316 0.840002 0.749373 0.079853 -0.041760 336853.000000 0 1 0
12.264079 12.714358 19.411038 26.245970 0.803423 0.738348 0.082919 -0.039956 927514.000000 0 0 1
13.553179 12.262358 19.000238 26.364050 0.735438 0.766003 0.081429 -0.036680 707721.000000 0 0 1
14.667579 12.305358 20.093938 27.754748 0.698044 0.761239 0.073499 -0.028650 384862.000000 0 0 1
15.095979 13.609358 20.441838 28.826584 0.733655 0.782531 0.075109 -0.029490 134736.000000 0 0 1
16.317779 13.544358 21.154738 29.954006 0.692790 0.786622 0.073435 -0.026390 397675.000000 0 0 1
17.053579 14.884358 21.455238 31.188073 0.717582 0.812162 0.073345 -0.023889 257038.000000 0 0 1
16.568679 15.627358 22.607638 32.091132 0.756169 0.789103 0.082985 -0.017605 1128590.000000 0 0 1
17.676079 16.405358 23.112728 33.403259 0.748131 0.806637 0.073595 -0.016414 590867.000000 0 0 1
-21.615321 12.630983 -24.074687 34.732612 -0.528835 2.336638 0.046942 0.005464 11359.100000 0 0 1
-21.542721 12.633583 -25.464817 35.667255 -0.530392 2.365927 0.049818 -0.010582 63501.700000 0 0 1
-22.486921 13.542083 -25.983027 36.934635 -0.542051 2.351088 0.061476 -0.015758 98471.900000 0 0 1
-22.251121 13.738583 -27.524947 37.966876 -0.553140 2.381791 0.061752 -0.006101 352286.000000 0 0 1
-21.066821 14.413183 -27.919567 37.829261 -0.600019 2.400960 0.081368 -0.000557 -6531.120000 0 0 1
-21.032521 14.658183 -29.358347 38.976169 -0.608662 2.423768 0.076888 -0.006047 -287350.000000 0 0 1
-19.720121 15.324483 -29.780297 38.866296 -0.660620 2.443741 0.070760 -0.011106 -301868.000000 0 0 1
-18.630721 14.470883 -29.584717 37.838679 -0.660385 2.468447 0.067630 -0.005754 -882786.000000 0 0 1
-17.374121 15.052883 -29.839257 37.667368 -0.713937 2.485166 0.053405 -0.001859 506039.000000 0 0 1
-16.285221 14.225183 -29.060577 36.222663 -0.717981 2.501895 0.083560 0.004034 331832.000000 0 0 1
-16.452721 14.433083 -27.641187 35.256788 -0.720101 2.471874 0.089879 -0.003291 -225557.000000 0 0 1
-17.004721 13.355783 -26.948487 34.550809 -0.665785 2.465409 0.111497 0.000921 -137006.000000 0 0 1
-17.695821 13.718883 -25.616767 34.023059 -0.659473 2.423290 0.095353 -0.007002 235734.000000 0 0 1
-16.808421 13.989883 -24.536787 32.867822 -0.694136 2.413626 0.145092 -0.031081 311852.000000 0 0 1
-17.561721 14.346683 -23.396987 32.583129 -0.684979 2.371822 0.119744 -0.036340 -87335.700000 0 0 1
-16.740621 15.145583 -22.374287 31.784363 -0.735417 2.351726 0.125789 -0.038417 4604.040000 0 0 1
-16.429721 16.383883 -22.973387 32.651858 -0.784001 2.351228 0.113458 -0.035734 -203942.000000 0 0 1
-15.675821 17.125783 -22.040087 32.012329 -0.829573 2.330198 0.106459 -0.034577 -773742.000000 0 0 1
-15.516921 18.649483 -22.368087 32.998626 -0.876828 2.315629 0.083077 -0.030502 449421.000000 0 0 1
-16.668321 19.492883 -22.260787 33.960978 -0.863350 2.285616 0.069405 -0.021920 198548.000000 0 0 1
-17.718221 19.116583 -23.099787 34.827851 -0.823343 2.295958 0.065704 -0.022223 -1295660.000000 0 0 1
-18.927021 20.043883 -23.120087 35.979546 -0.814049 2.268670 0.049210 -0.016329 -417057.000000 0 0 1
-18.705721 21.336683 -23.702387 36.972438 -0.851008 2.266704 0.038745 -0.014560 386943.000000 0 0 1
-19.913721 22.098583 -23.666487 38.013237 -0.837357 2.242839 0.049739 -0.022327 413029.000000 0 0 1
-19.668321 23.599983 -23.967087 38.964384 -0.876016 2.233312 0.035127 -0.022224 30681.800000 0 0 1
-18.949221 24.215483 -22.924287 38.353428 -0.906802 2.211440 0.032240 -0.017739 -350625.000000 0 0 1
-18.134921 25.241583 -23.396387 38.902490 -0.947792 2.216062 0.022700 -0.014609 -219969.000000 0 0 1
-16.926721 25.394083 -22.421087 37.869228 -0.982866 2.204417 0.009267 -0.009125 73314.800000 0 0 1
-15.882221 24.438983 -22.458487 36.795277 -0.994511 2.227315 0.021711 -0.015959 151658.000000 0 0 1
-16.175121 23.236683 -21.744087 35.698505 -0.962691 2.225726 0.040546 -0.011696 277248.000000 0 0 1
-14.944121 22.248583 -21.613087 34.430389 -0.979325 2.249434 0.054293 -0.019541 413380.000000 0 0 1
-14.018921 22.650083 -20.676187 33.720336 -1.016571 2.230859 0.074989 -0.027077 -474145.000000 0 0 1
-13.062721 21.621783 -20.408787 32.475448 -1.027334 2.250339 0.083878 -0.028763 178933.000000 0 0 1
-12.381721 21.792983 -19.030187 31.470448 -1.054124 2.220186 0.071716 -0.025791 -152302.000000 0 0 1
-13.136021 21.597583 -17.848387 30.944717 -1.024357 2.185581 0.076773 -0.024579 -23591.900000 0 0 1
-13.926621 22.743283 -17.492287 31.893381 -1.021353 2.151319 0.088297 -0.030309 209181.000000 0 0 1
-14.602721 22.562683 -16.120687 31.339921 -0.996387 2.111083 0.098913 -0.029455 36825.500000 0 0 1
-13.719921 22.941883 -15.096787 30.699824 -1.031827 2.084900 0.122514 -0.041115 28925.300000 0 0 1
-14.415121 23.205683 -13.885287 30.644748 -1.014942 2.041042 0.144211 -0.044732 241946.000000 0 0 1
-13.484621 23.624583 -12.712187 30.025915 -1.052133 2.007962 0.191880 -0.053455 -13000.200000 0 0 1
-12.891221 24.874783 -12.905687 30.846315 -1.092660 2.002465 0.184344 -0.058239 -13161.300000 0 0 1
-11.885621 25.082083 -11.940787 30.215248 -1.128271 1.977072 0.136698 -0.047882 139731.000000 0 0 1
-11.303821 26.523483 -11.922687 31.199711 -1.167925 1.962908 0.166216 -0.046715 408487.000000 0 0 1
-10.410721 26.880183 -12.974687 31.611229 -1.201285 1.993739 0.162720 -0.046804 -6018.530000 0 0 1
-10.569621 28.232483 -13.355187 32.971972 -1.212571 1.987826 0.134740 -0.023541 -432988.000000 0 0 1
-9.800321 28.612083 -14.661687 33.610454 -1.240797 2.022194 0.162618 -0.049056 1484720.000000 0 0 1
-8.377621 28.375183 -14.731987 33.050975 -1.283708 2.032792 0.128441 -0.058775 916019.000000 0 0 1
-7.873021 27.062083 -14.625487 31.752884 -1.287686 2.049471 0.141407 -0.060729 -1516650.000000 0 0 1
-6.387221 26.964483 -14.813687 31.421732 -1.338208 2.061727 0.139589 -0.067316 -667835.000000 0 0 1
-5.596321 27.860183 -14.047887 31.699396 -1.372563 2.029916 0.126859 -0.064761 -91533.600000 0 0 1
-4.236521 27.721483 -14.451387 31.547920 -1.419145 2.046627 0.140502 -0.066471 281260.000000 0 0 1
-3.333521 28.764983 -13.756387 32.058926 -1.455423 2.014289 0.109482 -0.052912 -351389.000000 0 0 1
-3.375921 30.176883 -14.125687 33.489940 -1.459388 2.006214 0.107928 -0.046683 -268240.000000 0 0 1
-4.494121 30.899083 -13.678187 34.088755 -1.426364 1.983680 0.097262 -0.051099 -222344.000000 0 0 1
-4.421721 32.414883 -14.066187 35.610867 -1.435223 1.976861 0.095209 -0.049563 152607.000000 0 0 1
-3.542721 33.191083 -13.246387 35.911914 -1.464462 1.948576 0.073214 -0.050785 274422.000000 0 0 1
-3.665821 -33.235042 -13.563387 36.082845 1.460941 1.956160 0.078037 -0.042163 678266.000000 0 0 1
-2.686021 -32.487942 -12.590587 34.945728 1.488306 1.939375 0.081455 -0.044885 655714.000000 0 0 1
-3.218421 -32.496442 -11.281087 34.549094 1.472079 1.903419 0.079136 -0.045117 1229210.000000 0 0 1
-2.339621 -31.617542 -10.464187 33.386254 1.496933 1.889597 0.072162 -0.044425 854868.000000 0 0 1
-2.770121 -31.504042 -9.008287 32.883544 1.483093 1.848289 0.067023 -0.024233 -494627.000000 0 0 1
-1.901621 -30.766542 -8.212687 31.900540 1.509067 1.831175 0.084512 -0.035745 -458265.000000 0 0 1
-2.015521 -31.070842 -6.826187 31.875639 1.506019 1.786618 0.067623 -0.036595 213144.000000 0 0 1
-0.770921 -30.619142 -6.010287 31.212973 1.545624 1.764564 0.079097 -0.036179 91728.200000 0 0 1
-0.881121 -30.811242 -4.622987 31.168590 1.542207 1.719668 0.080339 -0.043757 -470679.000000 0 0 1
0.288379 -30.305442 -4.054987 30.576885 -1.561281 1.703804 0.081040 -0.032072 -331115.000000 0 0 1
0.369379 -30.513642 -2.525987 30.620245 -1.558692 1.653384 0.074758 -0.021990 -490484.000000 0 0 1
0.372579 -31.791742 -1.967887 31.854768 -1.559077 1.632613 0.077965 -0.036890 151296.000000 0 0 1
1.464779 -32.676542 -2.215187 32.784280 -1.526000 1.638416 0.078963 -0.037361 -186048.000000 0 0 1
2.836879 -32.340242 -1.675787 32.507651 -1.483300 1.622370 0.079226 -0.028575 -1313160.000000 0 0 1
2.874579 -32.314942 -0.242387 32.443449 -1.482075 1.578267 0.060461 -0.021457 801571.000000 0 0 1
4.137279 -31.874242 0.307613 32.143102 -1.441718 1.561226 0.049720 -0.016354 914202.000000 0 0 1
4.519479 -30.402742 0.237713 30.737744 -1.423223 1.563063 0.026133 -0.015544 -538237.000000 0 0 1
4.523179 -29.801942 -1.065087 30.162051 -1.420171 1.606116 0.056120 -0.031391 133049.000000 0 0 1
4.557979 -28.382342 -0.936487 28.761250 -1.411564 1.603363 0.064036 -0.021029 -347596.000000 0 0 1
4.131479 -27.623542 -2.194987 28.016908 -1.422333 1.649222 0.065002 -0.015841 1033010.000000 0 0 1
2.757779 -27.860142 -2.590687 28.115912 -1.472131 1.663070 0.066717 -0.021664 826183.000000 0 0 1
2.173679 -27.024542 -3.574587 27.346451 -1.490536 1.701886 0.065805 -0.024028 122455.000000 0 0 1
2.688279 -27.016542 -5.010787 27.608483 -1.471618 1.753302 0.070177 -0.022178 -90374.500000 0 0 1
2.350479 -28.277542 -5.515987 28.906232 -1.487865 1.762797 0.068775 -0.032152 -45926.600000 0 0 1
2.918879 -28.489442 -6.781287 29.430494 -1.468698 1.803303 0.085690 -0.044772 -143728.000000 0 0 1
1.899479 -29.105442 -7.792887 30.190459 -1.505627 1.831876 0.085211 -0.036754 -128076.000000 0 0 1
0.791879 -28.250642 -7.983887 29.367810 -1.542773 1.846120 0.084400 -0.037191 -257514.000000 0 0 1
0.380179 -28.253742 -9.376687 29.771475 -1.557341 1.891206 0.093236 -0.034214 -716504.000000 0 0 1
-1.014321 -27.701942 -9.548187 29.318838 1.534197 1.902514 0.081957 -0.034163 -1664840.000000 0 0 1
-1.209321 -26.389042 -9.140987 27.953562 1.525002 1.903930 0.082837 -0.035799 314970.000000 0 0 1
-2.486221 -25.823242 -9.467787 27.616301 1.474814 1.920728 0.089126 -0.032569 1361410.000000 0 0 1
-3.772421 -26.388642 -8.785987 28.067510 1.428802 1.889179 0.085620 -0.030761 -345877.000000 0 0 1
-3.856021 -26.370942 -7.328287 27.640536 1.425603 1.839133 0.090813 -0.030558 -504162.000000 0 0 1
-3.235321 -27.502842 -6.834387 28.523367 1.453699 1.812757 0.109682 -0.026404 -184994.000000 0 0 1
-2.609021 -27.432542 -5.431087 28.086439 1.475975 1.765393 0.089328 -0.016431 -85149.500000 0 0 1
-3.512221 -27.621642 -4.399487 28.189471 1.444320 1.727505 0.089091 -0.026991 -463455.000000 0 0 1
-2.821421 -27.708442 -3.197387 28.034647 1.469321 1.685096 0.081062 -0.003419 -150394.000000 0 0 1
-3.761521 -27.746942 -1.989987 28.071371 1.436053 1.641746 0.098089 -0.013855 -181561.000000 0 0 1
-4.524621 -26.570942 -1.948787 27.023784 1.402130 1.642973 0.077190 -0.007197 -38657.600000 0 0 1
-5.283621 -26.485242 -0.725887 27.016876 1.373888 1.597667 0.087071 -0.020561 118104.000000 0 0 1
-6.210421 -25.234142 -0.607187 25.994228 1.329480 1.594157 0.076297 -0.010634 -41642.200000 0 0 1
-5.653721 -23.952142 -0.409587 24.613765 1.338997 1.587438 0.054398 -0.009105 -364538.000000 0 1 0
-6.600621 -23.096242 0.189213 24.021665 1.292429 1.562919 0.090030 -0.014450 -167436.000000 0 1 0
-6.074121 -21.753642 0.595213 22.593586 1.298508 1.544449 0.065243 -0.012086 -156105.000000 0 1 0
-5.030921 -21.776342 1.531013 22.402304 1.343753 1.502401 0.059140 -0.010745 -362081.000000 0 1 0
-4.494421 -20.478242 1.739713 21.037700 1.354749 1.488007 0.039990 -0.007893 471891.000000 0 1 0
-3.407021 -20.380742 2.864713 20.861184 1.405159 1.433038 0.038361 -0.003288 467624.000000 0 1 0
-3.896521 -20.790442 4.151713 21.556021 1.385527 1.376984 0.037696 0.014619 475971.000000 0 1 0
-2.981121 -20.359342 5.185613 21.219813 1.425404 1.323920 0.049493 0.001082 1276210.000000 0 1 0
-1.812621 -21.345442 5.570813 22.134756 1.486081 1.316383 0.046832 -0.014172 688818.000000 0 1 0
-0.986721 -21.651242 4.461013 22.128048 1.525254 1.367805 0.060117 -0.018115 -461583.000000 0 1 0
-0.301121 -22.858142 4.671813 23.332620 1.557624 1.369207 0.062811 -0.015599 -1725350.000000 0 1 0
0.643879 -23.150942 3.547713 23.430044 -1.542991 1.418794 0.061470 -0.026407 58916.900000 0 1 0
1.788579 -22.294542 3.432913 22.628091 -1.490743 1.418498 0.030875 -0.031109 -135912.000000 0 1 0
2.768279 -22.770742 4.301113 23.338158 -1.449818 1.385441 0.059356 -0.031169 -1929250.000000 0 1 0
3.955479 -21.829042 4.431913 22.622881 -1.391539 1.373617 0.066366 -0.027641 -201783.000000 0 1 0
4.947079 -21.994142 3.448613 22.805894 -1.349551 1.418998 0.043836 -0.017172 -632776.000000 0 1 0
6.079779 -21.201142 3.661413 22.357506 -1.291524 1.406289 0.060210 -0.015284 -29757.000000 0 1 0
6.756779 -20.777942 2.389513 21.979233 -1.256393 1.461864 0.066512 -0.014259 -308569.000000 0 1 0
7.401279 -21.821842 1.722113 23.107085 -1.243803 1.496200 0.073633 -0.012643 -324123.000000 0 1 0
7.195579 -21.704942 0.350013 22.869267 -1.250680 1.555491 0.066399 -0.020378 -316574.000000 0 1 0
8.137479 -22.529942 -0.519487 23.960107 -1.224192 1.592479 0.066790 -0.013871 69697.000000 0 1 0
9.420679 -21.939142 -0.604787 23.883905 -1.165204 1.596121 0.062533 -0.010681 -486788.000000 0 1 0
10.275079 -22.676842 -1.434187 24.937388 -1.145360 1.628340 0.060925 -0.009805 -43649.600000 0 1 0
11.554679 -21.934542 -1.838087 24.859873 -1.085955 1.644802 0.070265 -0.012237 169599.000000 0 1 0
11.277179 -20.766742 -2.613087 23.775209 -1.073312 1.680927 0.065606 -0.011983 -787525.000000 0 1 0
12.424379 -20.555342 -3.345487 24.250352 -1.027122 1.709194 0.067248 -0.010142 -757329.000000 0 1 0
12.475979 -19.380242 -4.381387 23.461466 -0.998829 1.758647 0.059912 -0.019003 -576693.000000 0 1 0
12.581479 -18.134142 -3.770487 22.391009 -0.964243 1.739995 0.064461 -0.015458 307646.000000 0 1 0
12.804479 -16.995642 -4.580987 21.766763 -0.925124 1.782840 0.071326 -0.025450 -1473070.000000 0 1 0
13.390879 -15.850242 -3.732687 21.082665 -0.869307 1.748785 0.081540 -0.021880 1272340.000000 0 1 0
14.742479 -16.028542 -3.224287 22.014788 -0.827168 1.717785 0.078599 -0.015216 1244030.000000 0 1 0
15.690679 -16.043742 -4.259487 22.841679 -0.796523 1.758373 0.087463 -0.018184 -1119660.000000 0 1 0
17.118979 -15.540342 -3.989487 23.462261 -0.737099 1.741665 0.097843 -0.015400 618804.000000 0 1 0
17.962879 -16.430342 -3.240987 24.558607 -0.740868 1.703152 0.107464 -0.023784 1095960.000000 0 1 0
19.368779 -16.335042 -3.446687 25.570742 -0.700632 1.705998 0.093159 -0.009769 330537.000000 0 0 1
20.184879 -17.048642 -2.398287 26.529933 -0.701365 1.661319 0.092388 -0.023416 -107616.000000 0 0 1
21.588879 -16.933642 -2.561887 27.557054 -0.665137 1.663897 0.082428 -0.021525 93235.700000 0 0 1
22.201679 -17.521442 -1.456187 28.320240 -0.668117 1.622238 0.069795 -0.018499 436468.000000 0 0 1
23.764079 -17.496742 -1.576687 29.552553 -0.634655 1.624174 0.072949 -0.023643 664287.000000 0 0 1
24.404779 -16.213442 -1.426687 29.334355 -0.586401 1.619451 0.080964 -0.027174 1167120.000000 0 0 1
25.701179 -16.485742 -0.843587 30.545735 -0.570333 1.598417 0.115379 -0.022428 419782.000000 0 0 1
26.433979 -15.317542 -0.306987 30.552849 -0.525183 1.580844 0.104242 -0.021447 -532002.000000 0 0 1
25.693679 -14.520942 0.602313 29.519243 -0.514405 1.550391 0.092982 -0.022121 743045.000000 0 0 1
26.512079 -13.577742 1.357213 29.817570 -0.473308 1.525263 0.090105 -0.021843 495096.000000 0 0 1
25.606079 -12.846442 2.364713 28.745334 -0.465003 1.488439 0.102974 -0.030570 -93659.400000 0 0 1
25.154879 -13.561742 3.519113 28.793627 -0.494459 1.448272 0.112620 -0.024525 -59330.100000 0 0 1
26.098079 -14.049242 4.439113 29.969929 -0.493835 1.422130 0.124373 -0.020003 -310287.000000 0 0 1
25.419779 -14.665642 5.660213 29.887861 -0.523290 1.380264 0.109166 -0.013390 403865.000000 0 0 1
24.627479 -15.850442 5.383313 29.778000 -0.571869 1.389015 0.114816 -0.017336 369048.000000 0 0 1
24.022179 -16.264542 6.580113 29.747240 -0.595166 1.347751 0.096303 -0.015555 -404992.000000 0 0 1
23.367079 -17.585842 6.470713 29.952502 -0.645157 1.353047 0.085901 -0.013444 -104148.000000 0 0 1
24.358579 -18.592342 6.359413 31.296289 -0.651944 1.366171 0.085303 -0.012798 102558.000000 0 0 1
23.774279 -19.866142 6.310113 31.617993 -0.696083 1.369874 0.052090 0.000223 67299.400000 0 0 1
1.878079 23.619983 -3.281687 23.920707 1.491451 1.708421 0.048932 -0.011241 20344.300000 0 1 0
2.799279 24.546883 -2.765987 24.860332 1.457249 1.682288 0.055443 -0.016111 -151913.000000 0 1 0
3.789779 24.803383 -3.734887 25.367688 1.419176 1.718564 0.067340 -0.017243 -105885.000000 0 0 1
4.890979 25.826583 -3.399787 26.504577 1.383635 1.699422 0.051797 -0.013130 -18101.100000 0 0 1
5.769379 25.277583 -2.423887 26.040682 1.346399 1.664012 0.034482 -0.009806 -636218.000000 0 0 1
6.471279 26.303583 -1.848587 27.150933 1.329564 1.638935 0.022304 -0.015069 -1250840.000000 0 0 1
7.648179 25.794183 -1.055687 26.924876 1.282546 1.610015 0.003920 -0.025141 -635125.000000 0 0 1
8.762879 25.562983 -1.918287 27.091215 1.240554 1.641664 0.011607 -0.029231 -288113.000000 0 0 1
9.556379 24.560483 -1.292387 26.385829 1.199725 1.619796 0.002520 -0.019859 -442286.000000 0 0 1
10.662479 24.223283 -2.280587 26.564204 1.156143 1.656754 0.026999 -0.020531 85580.600000 0 0 1
11.801179 25.147783 -2.272287 27.871887 1.132031 1.652413 0.034360 -0.013987 964896.000000 0 0 1
12.586079 24.972283 -3.439887 28.175470 1.103952 1.693190 0.055849 -0.021999 493159.000000 0 0 1
13.615379 23.793783 -3.568387 27.645181 1.051051 1.700236 0.057021 -0.020202 -237760.000000 0 0 1
13.090479 22.521983 -3.874487 26.336514 1.044292 1.718447 0.063206 -0.021159 -252488.000000 0 0 1
12.830379 22.356283 -5.275987 26.310797 1.049785 1.772691 0.084053 -0.029289 -225600.000000 0 0 1
11.889179 21.129783 -5.370887 24.832775 1.058275 1.788801 0.087294 -0.030685 17073.800000 0 1 0
10.580079 21.404883 -4.927487 24.380057 1.111732 1.774310 0.071801 -0.024379 -513940.000000 0 1 0
9.802279 20.244183 -5.030887 23.048241 1.119867 1.790844 0.050076 -0.018661 16771.100000 0 1 0
8.302579 20.482283 -4.744087 22.604492 1.185683 1.782242 0.036476 -0.013628 -447.011000 0 1 0
7.977479 21.049983 -3.504987 22.782161 1.208543 1.725258 0.039612 -0.013343 482081.000000 0 1 0
6.555579 21.207683 -3.451387 22.464494 1.271000 1.725045 0.035463 -0.014649 880755.000000 0 1 0
6.154079 22.191183 -2.245687 23.137943 1.300274 1.668006 0.027993 -0.008555 105292.000000 0 1 0
5.945779 21.441883 -1.059287 22.276191 1.300295 1.618367 0.026004 -0.003573 -57068.900000 0 1 0
5.235979 22.172083 -0.087587 22.782107 1.338893 1.574641 0.043123 -0.003618 287266.000000 0 1 0
4.579779 21.220583 0.969613 21.730800 1.358239 1.526162 0.016155 -0.004767 121627.000000 0 1 0
3.659379 21.861283 1.815913 22.239700 1.404943 1.489053 0.021219 -0.006749 237027.000000 0 1 0
3.161779 20.965883 2.811213 21.388502 1.421118 1.438979 0.022562 -0.010415 -480409.000000 0 1 0
2.228579 21.511883 3.832313 21.963931 1.467567 1.395417 0.016601 -0.007720 -1107080.000000 0 1 0
0.927479 21.708483 3.389613 21.991087 1.528098 1.416044 0.023531 -0.006045 -585792.000000 0 1 0
0.048579 22.003983 4.473613 22.454194 1.568589 1.370221 0.029345 -0.016960 -485861.000000 0 1 0
-1.281721 22.483883 3.948413 22.863896 -1.513852 1.397234 0.038447 -0.003266 -71414.300000 0 1 0
-2.315121 22.535283 4.976513 23.194060 -1.468422 1.354555 0.052906 -0.013027 644764.000000 0 1 0
-3.550521 22.770883 4.312513 23.446046 -1.416118 1.385810 0.058369 -0.012419 630954.000000 0 1 0
-4.801821 22.878383 5.230213 23.954812 -1.363915 1.350687 0.075568 -0.024556 318758.000000 0 1 0
-5.110021 24.084383 5.839213 25.303482 -1.361725 1.337930 0.094108 -0.017294 683227.000000 0 0 1
-6.397921 24.178383 6.485613 25.837778 -1.312112 1.317070 0.108539 -0.020876 944164.000000 0 0 1
-6.714121 25.629783 6.865113 27.369599 -1.314588 1.317259 0.118906 -0.023087 12613.400000 0 0 1
-5.891621 26.230283 7.907213 28.022543 -1.349852 1.284738 0.095246 -0.024743 350294.000000 0 0 1
-6.414721 27.404983 8.521913 29.407562 -1.340865 1.276793 0.113142 -0.023518 -103586.000000 0 0 1
-6.491221 28.727783 7.730913 30.449769 -1.348572 1.314096 0.132226 -0.030353 58709.000000 0 0 1
-7.513721 28.733083 6.772813 30.461731 -1.315023 1.346584 0.133679 -0.037480 -635546.000000 0 0 1
-7.617121 30.001083 6.174913 31.562874 -1.322155 1.373888 0.146470 -0.034985 -1134420.000000 0 0 1
-8.966321 30.187583 5.520913 31.971323 -1.282076 1.397243 0.127947 -0.041469 -551962.000000 0 0 1
-10.022821 30.554683 6.361113 32.779709 -1.253827 1.375501 0.115597 -0.035169 -359534.000000 0 0 1
-10.627321 29.464483 7.027013 32.101006 -1.224637 1.350106 0.107675 -0.037443 -332901.000000 0 0 1
-11.776521 29.855783 7.996913 33.075743 -1.195086 1.326601 0.076315 -0.036802 371085.000000 0 0 1
-11.278121 30.442683 9.223113 33.749352 -1.216002 1.293992 0.078196 -0.031366 1659090.000000 0 0 1
-12.417021 30.684783 10.114513 34.612738 -1.186276 1.274250 0.091505 -0.026747 1230950.000000 0 0 1
-11.785621 31.004383 11.461913 35.093419 -1.207538 1.238080 0.076230 -0.033028 29463.100000 0 0 1
-10.920621 32.136683 11.455913 35.822678 -1.243221 1.245283 0.072906 -0.034531 662158.000000 0 0 1
-10.350121 32.391383 12.775913 36.325619 -1.261517 1.211404 0.059696 -0.036341 188266.000000 0 0 1
-9.813721 33.834183 12.845113 37.497439 -1.288490 1.221156 0.063147 -0.046060 496848.000000 0 0 1
-10.825221 -33.016742 13.069213 37.122702 1.253970 1.211031 0.056513 -0.030444 641660.000000 0 0 1
-10.172221 -31.748942 13.052713 35.802831 1.260735 1.197623 0.069203 -0.028841 304886.000000 0 0 1
-11.092121 -30.610142 13.602013 35.284992 1.223146 1.175057 0.057253 -0.023748 167702.000000 0 0 1
-11.188321 -30.509142 15.036313 35.806102 1.219304 1.137420 0.053704 -0.022066 -383833.000000 0 0 1
-10.028421 -30.056742 15.679213 35.352718 1.248761 1.111287 0.077353 -0.025668 -31756.800000 0 0 1
-10.046521 -30.422542 17.181113 36.354563 1.251839 1.078559 0.069466 -0.034038 -120773.000000 0 0 1
-10.632021 -29.499242 18.010613 36.161130 1.224872 1.049430 0.094770 -0.033498 -363702.000000 0 0 1
-11.454421 -30.033642 18.994013 37.336255 1.206438 1.037089 0.077179 -0.029999 -251935.000000 0 0 1
-11.731621 -29.007542 20.179113 37.232580 1.186474 0.998011 0.091745 -0.044138 400345.000000 0 0 1
-10.641621 -28.972142 21.106313 37.391250 1.218789 0.971003 0.089093 -0.036834 604925.000000 0 0 1
-10.977621 -28.367242 22.339813 37.739579 1.201562 0.937324 0.081233 -0.027898 153371.000000 0 0 1
-9.761921 -28.318342 23.294813 37.945644 1.238832 0.909805 0.109646 -0.038074 121419.000000 0 0 1
-9.723421 -29.401842 24.181613 39.290757 1.251411 0.907836 0.114379 -0.026763 383590.000000 0 0 1
-8.500221 -29.439842 24.913713 39.492419 1.289709 0.888151 0.128345 -0.038310 333122.000000 0 0 1
-8.453121 -30.614142 25.880813 40.969469 1.301391 0.887040 0.123625 -0.038144 -148115.000000 0 0 1
-8.342221 -31.879142 25.216113 41.493670 1.314853 0.917623 0.137000 -0.034272 189646.000000 0 0 1
-8.614421 -32.921242 26.102113 42.887489 1.314867 0.916478 0.141786 -0.031532 -473552.000000 0 0 1
-8.383021 33.534283 25.396413 42.892901 -1.325833 0.937148 0.134511 -0.025834 -613099.000000 0 0 1
-7.065121 33.420683 24.944613 42.297656 -1.362464 0.940060 0.117338 -0.021731 -346952.000000 0 0 1
-6.714221 32.169083 24.369913 40.912386 -1.365034 0.932708 0.113679 -0.013433 -83048.400000 0 0 1
-7.489421 31.796483 23.070313 39.991838 -1.339470 0.955898 0.111908 -0.015038 142242.000000 0 0 1
-8.585521 30.946283 23.349513 39.706213 -1.300170 0.942142 0.099770 -0.020861 367420.000000 0 0 1
-9.520521 30.801983 22.294413 39.197491 -1.271023 0.965785 0.088098 -0.021284 536432.000000 0 0 1
-10.463321 29.570183 22.430813 38.561874 -1.230698 0.949999 0.088540 -0.029874 359390.000000 0 0 1
-9.705121 28.397083 22.255313 37.361513 -1.241477 0.932691 0.078191 -0.029719 -38712.400000 0 0 1
-10.328721 27.272483 22.813213 37.025849 -1.208766 0.906960 0.062329 -0.028955 -671056.000000 0 0 1
-9.733321 25.872283 22.466013 35.620700 -1.210968 0.888340 0.049801 -0.025202 52174.700000 0 0 1
-8.462921 25.760583 23.083813 35.610266 -1.253382 0.865532 0.050178 -0.038127 255963.000000 0 0 1
-7.832021 24.507683 22.995113 34.507134 -1.261480 0.841444 0.054002 -0.035814 -320584.000000 0 0 1
-6.504521 24.369783 23.738213 34.636655 -1.309967 0.815713 0.055079 -0.032912 -217191.000000 0 0 1
-5.467221 24.940083 22.965513 34.341127 -1.354996 0.838275 0.063321 -0.027617 -83422.800000 0 0 1
-4.215921 24.886783 23.643113 34.585007 -1.402985 0.818081 0.092849 -0.024885 346654.000000 0 0 1
-3.069921 25.276783 22.682413 34.100323 -1.449936 0.843079 0.093362 -0.025017 -132609.000000 0 0 1
-2.739521 24.354583 21.638713 32.693800 -1.458782 0.847499 0.090974 -0.024439 220934.000000 0 0 1
-1.927521 24.898883 20.598113 32.372086 -1.493536 0.881114 0.102193 -0.018559 245774.000000 0 0 1
-1.341721 23.837183 19.656113 30.925301 -1.514569 0.882011 0.081688 -0.015766 -1189060.000000 0 0 1
-0.246621 23.180683 20.120013 30.695599 -1.560158 0.855993 0.091303 -0.028437 -1130340.000000 0 0 1
0.269379 22.338783 19.104513 29.395173 1.558738 0.863317 0.077566 -0.022700 -105357.000000 0 0 1
1.464179 21.540983 19.653413 29.196137 1.502929 0.832335 0.065233 -0.026097 104832.000000 0 0 1
2.730579 22.179083 19.576913 29.708977 1.448298 0.851366 0.069692 -0.028312 -336371.000000 0 0 1
3.712479 21.202983 19.803013 29.249074 1.397461 0.827053 0.084345 -0.033751 -334999.000000 0 0 1
5.070779 21.674983 19.251713 29.430361 1.340983 0.857745 0.079967 -0.036152 -376973.000000 0 0 1
5.987479 20.633583 19.061613 28.721764 1.288372 0.845089 0.088984 -0.037055 175815.000000 0 0 1
7.222379 21.187083 18.587713 29.095675 1.242264 0.877796 0.098896 -0.038190 -109741.000000 0 0 1
8.367779 20.272683 18.208713 28.505414 1.179337 0.877884 0.097853 -0.026896 -258967.000000 0 0 1
9.014279 19.638183 19.346413 29.003433 1.140468 0.840569 0.111385 -0.034110 399087.000000 0 0 1
9.947779 18.638983 18.948013 28.379521 1.080547 0.839728 0.090095 -0.030177 149771.000000 0 0 1
10.461879 17.899783 20.200613 28.946812 1.041874 0.798401 0.118708 -0.038973 -238844.000000 0 0 1
9.443379 17.179583 20.842713 28.613531 1.068194 0.754781 0.127640 -0.043115 -241869.000000 0 0 1
9.979679 16.432583 21.913713 29.151923 1.025019 0.720149 0.119581 -0.045129 -386396.000000 0 0 1
9.112779 15.265883 22.291813 28.513415 1.032632 0.673248 0.097667 -0.034295 691213.000000 0 0 1
7.845879 15.753883 22.813013 28.812779 1.108727 0.657100 0.096653 -0.022056 903855.000000 0 0 1
6.774379 14.860783 23.013613 28.219877 1.143083 0.617185 0.084461 -0.014936 201247.000000 0 0 1
6.993779 13.682783 23.987413 28.487321 1.098279 0.569746 0.081220 -0.012237 -665045.000000 0 0 1
7.255879 14.256783 25.288213 29.923191 1.100021 0.564036 0.087760 -0.020146 141906.000000 0 0 1
7.695679 13.292983 26.175813 30.349630 1.046015 0.530655 0.095298 -0.025641 -392962.000000 0 0 1
8.771179 13.710783 27.226713 31.720862 1.001676 0.538806 0.076879 -0.016203 37091.100000 0 0 1
10.109579 13.870983 26.851913 31.868997 0.940983 0.568756 0.107646 -0.018023 -181244.000000 0 0 1
10.388979 14.945083 26.036813 31.767940 0.963337 0.610094 0.102169 -0.017663 -405293.000000 0 0 1
11.836479 14.800883 25.477213 31.753059 0.896230 0.639566 0.119527 -0.029550 251077.000000 0 0 1
11.931179 13.832483 24.487513 30.550432 0.859062 0.640923 0.119040 -0.033274 119607.000000 0 0 1
13.247779 13.344783 24.343413 30.760180 0.789046 0.657711 0.122852 -0.038369 -422038.000000 0 0 1
13.262579 12.069683 23.421413 29.498065 0.738343 0.653438 0.106604 -0.041172 52618.200000 0 0 1
12.682779 10.838083 23.889713 29.138211 0.707130 0.609602 0.105544 -0.033071 199800.000000 0 0 1
11.273479 10.883683 23.934313 28.607643 0.767808 0.579675 0.115575 -0.034857 -265732.000000 0 0 1
10.648179 9.572583 24.507913 28.384078 0.732256 0.528749 0.102389 -0.029999 23800.500000 0 0 1
10.934979 8.494883 23.662313 27.416088 0.660467 0.529457 0.100650 -0.024457 269823.000000 0 0 1
10.504879 7.275483 24.225313 27.388883 0.605730 0.485387 0.104076 -0.029466 -53310.000000 0 0 1
10.852079 6.139183 23.308913 26.434119 0.514828 0.491187 0.117562 -0.043217 5883.110000 0 0 1
12.248079 5.931283 23.161013 26.863136 0.450978 0.531228 0.124628 -0.030573 351557.000000 0 0 1
12.589679 4.770483 22.410213 26.143358 0.362203 0.540979 0.138308 -0.031997 92564.800000 0 0 1
12.435379 3.409483 23.205113 26.546949 0.267600 0.507183 0.135306 -0.029668 -147483.000000 0 0 1
13.511079 3.298683 24.111713 27.835324 0.239462 0.523195 0.140714 -0.026920 82463.300000 0 0 1
13.546179 2.021783 24.756513 28.292606 0.148157 0.505325 0.137253 -0.019248 1029160.000000 0 0 1
15.005079 1.824083 25.360713 29.523642 0.120971 0.537489 0.138326 -0.016087 992289.000000 0 0 1
15.857779 1.221083 24.447913 29.166088 0.076850 0.576766 0.139519 -0.022468 -765640.000000 0 0 1
17.176979 1.662883 24.533713 29.995281 0.096508 0.613012 0.135205 -0.024037 -538891.000000 0 0 1
18.089879 0.801783 23.635313 29.774395 0.044293 0.653742 0.117427 -0.032447 -175649.000000 0 0 1
18.011179 -0.506917 24.127313 30.112901 -0.028137 0.641451 0.113735 -0.033970 -88112.300000 0 0 1
18.850079 -1.319617 23.368013 30.052137 -0.069892 0.679985 0.095329 -0.019792 -173675.000000 0 0 1
18.973679 -2.805417 23.771213 30.544090 -0.146795 0.678908 0.086978 -0.015679 -247922.000000 0 0 1
17.970479 -3.602217 23.213513 29.576702 -0.197830 0.668329 0.076807 -0.011723 -171521.000000 0 0 1
18.106479 -4.978717 23.590013 30.151633 -0.268337 0.672319 0.082159 -0.010300 -53523.000000 0 0 1
17.061779 -5.924317 22.988813 29.235037 -0.334203 0.665927 0.085382 -0.014206 -223112.000000 0 0 1
17.265579 -6.146817 21.602513 28.329352 -0.342024 0.703552 0.084369 -0.013469 421119.000000 0 0 1
16.518179 -7.313517 21.085913 27.766050 -0.416813 0.708385 0.101962 -0.026275 235423.000000 0 0 1
16.932979 -8.743917 21.348013 28.616771 -0.476669 0.728766 0.103933 -0.026745 -154944.000000 0 0 1
16.674579 -9.244717 22.616913 29.580926 -0.506230 0.700411 0.086008 -0.012243 536663.000000 0 0 1
17.678979 -10.237717 22.897913 30.686668 -0.524902 0.728484 0.072220 -0.013272 480086.000000 0 0 1
17.126279 -11.194317 23.923413 31.479388 -0.578926 0.707528 0.089521 -0.032061 710823.000000 0 0 1
16.024979 -11.981917 23.413213 30.798456 -0.642029 0.707164 0.095250 -0.025668 910927.000000 0 0 1
15.374879 -12.750117 24.435213 31.559976 -0.692343 0.685272 0.118020 -0.021191 -8783.930000 0 0 1
14.327179 -13.707217 23.864813 31.027169 -0.763287 0.693273 0.132654 -0.030314 -553243.000000 0 0 1
14.829379 -14.776317 23.113813 31.184907 -0.783606 0.735961 0.134009 -0.035548 -234722.000000 0 0 1
13.793979 -15.461517 22.481113 30.573401 -0.842336 0.744663 0.146492 -0.029588 -418546.000000 0 0 1
14.261079 -16.362217 21.312013 30.418785 -0.853903 0.794530 0.115620 -0.027215 -54657.600000 0 0 1
15.110379 -17.424717 21.718513 31.680249 -0.856412 0.815432 0.137667 -0.036946 272604.000000 0 0 1
15.614079 -18.046717 20.524913 31.476270 -0.857542 0.860477 0.115738 -0.030947 -356347.000000 0 0 1
-25.143541 -31.923242 26.121628 48.307664 0.903647 0.999486 0.071638 -0.035736 -647153.000000 0 0 1
-25.138001 -33.306242 25.790108 49.054607 0.924260 1.017208 0.082197 -0.021048 491107.000000 0 0 1
-26.265411 33.793383 26.294738 50.232238 -0.910091 1.019886 0.069753 -0.028903 132746.000000 0 0 1
-26.577801 33.764883 27.837268 51.199221 -0.903944 0.995951 0.052486 -0.021440 -566820.000000 0 0 1
-27.626791 -33.268342 28.307098 51.684755 0.877778 0.991198 0.069328 -0.022650 -71318.200000 0 0 1
-27.925231 -33.520542 29.698518 52.777336 0.876209 0.973132 0.057734 -0.023562 37402.900000 0 0 1
-29.234041 -32.964642 30.301798 53.474252 0.845305 0.968348 0.048967 -0.030002 -265818.000000 0 0 1
-29.267331 -31.578342 30.105628 52.536817 0.823361 0.960587 0.037199 -0.021639 159724.000000 0 0 1
-29.958381 -30.884842 31.143428 53.115827 0.800624 0.944275 0.051116 -0.005962 -119867.000000 0 0 1
-30.157141 -29.371342 30.874588 52.205067 0.772199 0.937990 0.033948 -0.011800 148160.000000 0 0 1
-31.096671 -29.242642 29.793958 52.055883 0.754681 0.961433 0.020007 0.008030 449239.000000 0 0 1
-31.260611 -27.842642 29.641978 51.294106 0.727632 0.954664 0.014479 0.016611 26349.900000 0 0 1
-31.883711 -27.517942 28.283498 50.732281 0.712034 0.979419 0.005378 0.005035 13763.500000 0 0 1
-30.947211 -27.555342 27.213888 49.574413 0.727485 0.989688 0.022978 0.002843 370173.000000 0 0 1
-30.269871 -26.295742 27.083258 48.386299 0.715256 0.976737 0.007478 0.013326 -24160.100000 0 0 1
-29.182361 -26.312542 25.980798 47.105858 0.733731 0.986586 0.024491 0.019407 -410375.000000 0 0 1
-29.573131 -26.297942 24.640808 46.618893 0.726845 1.013895 0.014169 0.004630 151921.000000 0 0 1
-28.540581 -26.028942 23.682378 45.309222 0.739404 1.020801 0.016373 0.015272 -41852.400000 0 0 1
-28.934921 -26.388042 22.247638 45.039047 0.739394 1.054154 0.013468 0.017693 580679.000000 0 0 1
-29.977591 -25.532442 21.698838 44.959994 0.705490 1.067146 0.012409 0.007435 721947.000000 0 0 1
-30.001031 -25.511842 20.267338 44.290867 0.704706 1.095506 0.027969 0.008773 -20056.600000 0 0 1
-30.797661 -24.320442 19.722138 43.919728 0.668419 1.105095 0.037599 -0.003411 -522187.000000 0 0 1
-32.161471 -24.183942 19.935438 44.907070 0.644750 1.110820 0.060187 -0.008513 -395354.000000 0 0 1
-32.769581 -23.122842 19.199538 44.464969 0.614487 1.124320 0.086478 -0.013972 -1006900.000000 0 0 1
-34.192498 -22.893542 19.620138 45.587180 0.589995 1.125875 0.098134 -0.008870 -998077.000000 0 0 1
-35.062898 -23.858442 19.054338 46.494084 0.597482 1.148536 0.097977 -0.019999 802400.000000 0 0 1
-36.395591 -23.351442 18.835438 47.166753 0.570448 1.160003 0.103017 -0.024604 882683.000000 0 0 1
-37.214911 -24.407342 18.052638 48.026718 0.580476 1.185442 0.120404 -0.030423 -129938.000000 0 0 1
36.673873 -25.267342 18.830638 48.352916 -0.603288 1.170771 0.110123 -0.036042 -168778.000000 0 0 1
36.113133 -26.313342 18.092638 48.206783 -0.629688 1.186062 0.113661 -0.031133 -80709.700000 0 0 1
35.691773 -27.625342 18.849338 48.911754 -0.658683 1.175183 0.092769 -0.023005 -351833.000000 0 0 1
34.500153 -27.621642 19.586238 48.340835 -0.675121 1.153632 0.080699 -0.019262 -339785.000000 0 0 1
34.527753 -26.784642 20.742638 48.371890 -0.659774 1.127615 0.069026 -0.019955 -451889.000000 0 0 1
33.202393 -26.734242 21.504838 47.744912 -0.677898 1.103571 0.050401 -0.017220 -1073630.000000 0 0 1
32.186843 -26.050742 20.893638 46.380795 -0.680422 1.103493 0.061259 -0.014832 -383102.000000 0 0 1
31.100603 -25.872642 21.830538 45.969702 -0.693893 1.075958 0.063181 -0.011976 678641.000000 0 0 1
30.086103 -24.811742 21.276038 44.423709 -0.689616 1.071356 0.064970 -0.001452 142593.000000 0 0 1
30.714153 -23.592242 20.892438 44.005080 -0.654999 1.076090 0.080245 -0.004633 -103968.000000 0 0 1
31.532353 -22.886442 21.773238 44.633534 -0.627838 1.061203 0.097444 -0.011249 71432.600000 0 0 1
32.398403 -21.764242 21.095138 44.366018 -0.591527 1.075287 0.104190 -0.012832 375024.000000 0 0 1
31.693593 -20.538942 20.959938 43.193182 -0.575001 1.064135 0.103154 -0.021079 56480.800000 0 0 1
32.471623 -19.474442 20.448238 43.032437 -0.540226 1.075626 0.108981 -0.015168 -116412.000000 0 0 1
31.726663 -18.133442 20.628138 41.963352 -0.519239 1.056899 0.088906 -0.013063 306333.000000 0 0 1
31.382563 -17.736142 22.009438 42.235664 -0.514407 1.022645 0.094184 -0.017331 -76033.300000 0 0 1
30.201063 -18.304342 22.501738 41.874591 -0.544880 1.003492 0.088525 -0.011720 -569393.000000 0 0 1
29.972323 -17.928842 23.954318 42.350831 -0.539080 0.969616 0.067869 -0.002475 -141202.000000 0 0 1
29.752673 -16.548242 24.107698 41.716267 -0.507586 0.954647 0.071483 -0.012324 61609.700000 0 0 1
29.892643 -16.151442 25.455828 42.455133 -0.495377 0.927803 0.067748 -0.008975 -57465.800000 0 0 1
29.538813 -14.691842 25.699418 41.819275 -0.461545 0.909000 0.051669 -0.018726 -47926.000000 0 0 1
28.209413 -14.253642 25.528738 40.628238 -0.467862 0.891366 0.070994 -0.022121 44230.000000 0 0 1
28.077113 -12.904442 26.102108 40.449585 -0.430814 0.869381 0.055270 -0.019495 294971.000000 0 0 1
28.933213 -11.761842 25.429968 40.275985 -0.386112 0.887448 0.070697 -0.027003 -118962.000000 0 0 1
28.407713 -11.443942 24.171948 39.015959 -0.382958 0.902640 0.069308 -0.017837 -169618.000000 0 0 1
29.232713 -10.761642 23.271598 38.883566 -0.352740 0.929176 0.072122 -0.014341 208726.000000 0 0 1
30.333573 -11.582742 22.516938 39.513264 -0.364759 0.964464 0.076793 -0.029863 -50371.400000 0 0 1
29.781723 -12.415342 21.572338 38.813110 -0.394971 0.981471 0.076017 -0.033004 4931.230000 0 0 1
29.978213 -13.787942 21.934438 39.622218 -0.431083 0.984128 0.078589 -0.029049 -37839.400000 0 0 1
29.364713 -14.813042 20.956838 38.998739 -0.467202 1.003478 0.082013 -0.022930 -33012.800000 0 0 1
29.903313 -14.764342 19.667638 38.717049 -0.458624 1.037954 0.085364 -0.025180 -342194.000000 0 0 1
29.334213 -15.758242 18.933138 38.305116 -0.492960 1.053799 0.083161 -0.030059 -411600.000000 0 0 1
29.726893 -15.638542 17.450738 37.852086 -0.484288 1.091647 0.092222 -0.030532 -96047.400000 0 0 1
29.207113 -16.585542 16.572138 37.453590 -0.516452 1.112444 0.093850 -0.031791 461823.000000 0 0 1
27.822513 -16.437642 16.225738 36.160239 -0.533630 1.105466 0.080445 -0.036115 249129.000000 0 0 1
27.382913 -15.519642 15.100138 34.909846 -0.515622 1.123481 0.097711 -0.037527 -765692.000000 0 0 1
27.451913 -15.994642 13.780938 34.631638 -0.527559 1.161538 0.109311 -0.037946 43201.100000 0 0 1
26.662313 -17.113342 13.484338 34.432147 -0.570628 1.168404 0.098326 -0.043865 -471371.000000 0 0 1
26.629513 -17.544142 12.020538 34.079630 -0.582553 1.210321 0.088303 -0.030567 -48412.000000 0 0 1
26.012313 -16.581642 11.119638 32.790816 -0.567505 1.224827 0.102279 -0.034805 100240.000000 0 0 1
25.871113 -17.077242 9.791738 32.508842 -0.583435 1.264843 0.093340 -0.036490 182504.000000 0 0 1
27.174113 -17.199942 8.926338 33.375888 -0.564298 1.300052 0.099369 -0.032659 388876.000000 0 0 1
27.894813 -18.305542 9.438138 34.674081 -0.580746 1.295122 0.102233 -0.032936 -1508640.000000 0 0 1
29.221913 -18.215142 9.082338 35.611802 -0.557404 1.312910 0.116435 -0.026854 -1143040.000000 0 0 1
30.141863 -19.014142 10.030238 37.022631 -0.562775 1.296446 0.122983 -0.036133 -138706.000000 0 0 1
30.161393 -18.582142 11.361038 37.203210 -0.552167 1.260461 0.131340 -0.044795 132615.000000 0 0 1
30.561973 -19.575542 12.287138 38.317226 -0.569682 1.244361 0.120722 -0.035351 -199780.000000 0 0 1
30.465303 -19.069342 13.722838 38.471948 -0.559272 1.206066 0.120565 -0.030371 28868.800000 0 0 1
30.419893 -20.162642 14.578138 39.299162 -0.585329 1.190761 0.109982 -0.030982 31246.200000 0 0 1
30.483993 -19.737742 15.945838 39.662602 -0.574601 1.157056 0.115701 -0.034258 85950.500000 0 0 1
30.189803 -20.953042 16.880538 40.440162 -0.606717 1.140192 0.095278 -0.024787 421158.000000 0 0 1
28.831513 -21.358842 16.914338 39.668011 -0.637597 1.130290 0.041584 -0.008582 -28728.500000 0 0 1
28.661413 -22.542742 17.651238 40.511949 -0.666467 1.119976 0.064443 -0.006970 93841.500000 0 0 1
27.201713 -23.043642 17.703938 39.804171 -0.702831 1.109872 0.029987 0.003215 451604.000000 0 0 1
26.253313 -22.085042 18.206438 38.838897 -0.699380 1.082901 0.038496 -0.000189 370844.000000 0 0 1
25.005113 -22.711942 18.408038 38.470038 -0.737377 1.071847 0.048217 -0.008044 -506576.000000 0 0 1
24.009313 -22.024942 19.269838 37.853293 -0.742318 1.036697 0.031880 -0.010427 -696731.000000 0 0 1
23.477213 -20.789842 18.851038 36.589051 -0.724764 1.029544 0.034923 -0.015489 -186485.000000 0 0 1
22.412313 -20.299542 19.633238 36.053394 -0.735973 0.994932 0.044777 -0.011359 97237.900000 0 0 1
22.693913 -19.863742 21.110038 36.813253 -0.718994 0.960103 0.027189 -0.007117 -178539.000000 0 0 1
22.951913 -20.964742 21.993738 38.079328 -0.740180 0.955039 0.052133 -0.004862 -201818.000000 0 0 1
23.411613 -20.591342 23.225478 38.878398 -0.721393 0.930557 0.041666 -0.009988 -85265.900000 0 0 1
23.478913 -21.851642 24.139548 40.143136 -0.749516 0.925623 0.064856 -0.012816 -332563.000000 0 0 1
22.236213 -22.391542 24.487738 39.943455 -0.788879 0.910868 0.092038 -0.015464 -26370.400000 0 0 1
22.478013 -23.484142 25.398678 41.253592 -0.807285 0.907558 0.093469 -0.005973 502290.000000 0 0 1
21.120513 -24.036942 25.964758 41.207030 -0.849892 0.889108 0.122320 -0.017839 354307.000000 0 0 1
20.614213 -25.027242 25.125918 41.019756 -0.881788 0.911536 0.110509 -0.018672 -100222.000000 0 0 1
19.569913 -25.691242 25.799078 41.335382 -0.919827 0.896766 0.104374 -0.013599 3915.790000 0 0 1
18.771913 -26.739142 24.944928 41.104937 -0.958703 0.918693 0.108017 -0.022228 -33632.700000 0 0 1
17.936713 -26.100642 24.015568 39.745650 -0.968704 0.921995 0.110870 -0.027703 204552.000000 0 0 1
17.114413 -27.056242 23.344958 39.622347 -1.006787 0.940744 0.093141 -0.031213 -296345.000000 0 0 1
16.229413 -26.368642 22.279838 38.145646 -1.019071 0.947059 0.092517 -0.028881 -171264.000000 0 0 1
15.100713 -25.778142 22.877558 37.628802 -1.040887 0.917283 0.076567 -0.026220 -79779.600000 0 0 1
14.370513 -25.028442 21.900638 36.229442 -1.049588 0.921660 0.055567 -0.029378 519633.000000 0 0 1
12.956113 -24.529642 22.306438 35.596929 -1.084858 0.893563 0.068330 -0.025887 -10715.600000 0 0 1
11.989813 -25.517442 22.395338 36.006202 -1.131544 0.899520 0.063860 -0.023506 -986073.000000 0 0 1
10.718613 -24.952342 22.458738 35.240643 -1.165067 0.879811 0.064198 -0.020839 -697087.000000 0 0 1
9.570813 -25.938842 22.473338 35.629691 -1.217317 0.888280 0.058892 -0.024595 -522680.000000 0 0 1
9.531913 -26.784642 21.345138 35.551221 -1.228900 0.926789 0.076584 -0.031091 457416.000000 0 0 1
8.239313 -27.370942 21.238138 35.610577 -1.278400 0.931788 0.090158 -0.027702 170928.000000 0 0 1
8.074013 -28.174142 19.920838 35.437434 -1.291701 0.973824 0.116895 -0.031144 54138.300000 0 0 1
8.762913 -29.414142 19.796138 36.522150 -1.281253 0.997944 0.110427 -0.033624 333993.000000 0 0 1
8.295413 -30.151742 18.683038 36.427974 -1.302317 1.032265 0.108969 -0.028905 57197.100000 0 0 1
9.063613 -31.461942 18.561838 37.637012 -1.290309 1.055054 0.097718 -0.023668 -171087.000000 0 0 1
8.649513 -32.375942 19.563538 38.803965 -1.309735 1.042383 0.106165 -0.027088 341893.000000 0 0 1
9.482713 -33.516142 19.712138 40.022768 -1.295073 1.055810 0.082033 -0.026346 -184309.000000 0 0 1
8.935313 33.319083 20.707038 40.234096 1.308787 1.030181 0.097300 -0.033725 -5811.520000 0 0 1
7.933413 32.454683 20.197038 39.040566 1.331052 1.027063 0.087307 -0.032846 145715.000000 0 0 1
7.871113 31.318083 21.055838 38.550292 1.324568 0.992986 0.096009 -0.043442 54744.900000 0 0 1
6.921013 30.176683 20.549038 37.159057 1.345346 0.984833 0.096037 -0.040921 380817.000000 0 0 1
5.578513 30.405683 20.940538 37.338070 1.389345 0.975401 0.110762 -0.044050 -308497.000000 0 0 1
4.799313 29.288983 20.566138 36.108779 1.408379 0.964825 0.125656 -0.037669 -253347.000000 0 0 1
3.350313 29.402383 21.039538 36.309597 1.457339 0.952745 0.130062 -0.030910 -324174.000000 0 0 1
3.160313 29.151883 22.395138 36.896640 1.462809 0.918554 0.116238 -0.036281 -687500.000000 0 0 1
1.839813 29.199683 22.846708 37.121132 1.507872 0.907822 0.116155 -0.026383 -373496.000000 0 0 1
1.480413 28.560383 24.222358 37.478123 1.519008 0.868062 0.119630 -0.020215 -22287.500000 0 0 1
1.816613 29.362883 25.370458 38.847639 1.509007 0.859157 0.131533 -0.029331 376456.000000 0 0 1
1.375813 28.654483 26.519658 39.067435 1.522819 0.824645 0.117841 -0.030067 1019360.000000 0 0 1
2.581413 27.858783 27.210848 39.028268 1.478400 0.799300 0.094456 -0.031293 877689.000000 0 0 1
2.921013 26.668683 26.489088 37.701760 1.461701 0.791758 0.097178 -0.029953 466534.000000 0 0 1
3.843613 25.917383 27.287268 37.829606 1.423567 0.765089 0.059437 -0.015192 316716.000000 0 0 1
4.373213 24.659983 26.602888 36.537014 1.395281 0.755239 0.063394 -0.008356 -13790.300000 0 0 1
3.441513 23.619383 26.764218 35.861436 1.426107 0.728276 0.076275 -0.008712 -283057.000000 0 0 1
3.945113 22.371683 26.375048 34.809470 1.396247 0.711019 0.072491 -0.006954 348003.000000 0 0 1
2.903413 21.180883 26.232328 33.840724 1.434568 0.683812 0.065795 -0.007152 477468.000000 0 0 1
3.448913 19.863783 26.289758 33.130291 1.398882 0.654214 0.071737 -0.009077 -223654.000000 0 0 1
4.074013 19.366783 25.144698 31.998839 1.363459 0.666807 0.075951 -0.011161 -410072.000000 0 0 1
4.531013 17.872283 25.396048 31.383241 1.322506 0.627968 0.074051 -0.015432 -894307.000000 0 0 1
5.652713 17.718483 26.151428 32.090418 1.261974 0.618189 0.064461 -0.010913 -385835.000000 0 0 1
6.876113 17.840283 25.404858 31.795651 1.202916 0.645159 0.093953 -0.017175 798168.000000 0 0 1
8.211013 17.686683 26.262788 32.710449 1.136157 0.638674 0.086915 -0.018272 873166.000000 0 0 1
8.581313 18.771383 27.048628 34.023991 1.142013 0.651810 0.086692 -0.017948 -13710.500000 0 0 1
9.019013 19.928383 26.337458 34.236599 1.145806 0.693086 0.083387 -0.019717 -395138.000000 0 0 1
9.474413 21.070983 27.211848 35.696435 1.148240 0.703917 0.072917 -0.014872 -466222.000000 0 0 1
10.667113 20.817283 27.875428 36.389367 1.097265 0.698151 0.087790 -0.030497 -560657.000000 0 0 1
11.041213 21.884783 28.764138 37.791900 1.103543 0.705760 0.104365 -0.039369 -367273.000000 0 0 1
12.196113 21.467783 29.654548 38.587602 1.054154 0.694304 0.120528 -0.038494 139327.000000 0 0 1
13.469413 21.597283 29.006858 38.591003 1.013159 0.720239 0.107820 -0.036624 209347.000000 0 0 1
14.476713 21.360183 29.973098 39.550211 0.975165 0.710786 0.102537 -0.027588 441259.000000 0 0 1
15.905013 21.410483 29.351868 39.659934 0.931880 0.737594 0.081469 -0.030022 403346.000000 0 0 1
16.349313 22.740183 29.088568 40.380202 0.947458 0.766465 0.071663 -0.036585 470100.000000 0 0 1
17.719613 22.745283 28.678808 40.667021 0.908964 0.788076 0.095827 -0.027007 520493.000000 0 0 1
-8.662421 16.755083 4.233013 19.331030 -1.093639 1.350032 0.029101 -0.020015 -150384.000000 0 1 0
-8.617421 17.975283 4.865313 20.519308 -1.123761 1.331407 0.043100 -0.025320 406439.000000 0 1 0
-7.260621 18.333083 5.104113 20.368370 -1.193709 1.317507 0.042123 -0.016756 226845.000000 0 1 0
-7.169221 19.795083 5.628413 21.792706 -1.223319 1.309565 0.051683 -0.016967 17008.100000 0 1 0
-7.357221 20.935783 4.845213 22.713691 -1.232858 1.355828 0.059235 -0.023210 245587.000000 0 1 0
-8.648021 20.997883 4.239413 23.101341 -1.180115 1.386237 0.062823 -0.035640 328603.000000 0 1 0
-8.896221 22.239083 3.257113 24.172884 -1.190267 1.435643 0.103796 -0.038941 93035.400000 0 1 0
-8.251221 22.205783 1.988413 23.772530 -1.215028 1.487055 0.075492 -0.035252 -37954.000000 0 1 0
-8.606221 21.111883 1.130613 22.826671 -1.183714 1.521246 0.075054 -0.035584 -1462340.000000 0 1 0
-7.899421 20.951483 -0.220387 22.392276 -1.210244 1.580639 0.047806 -0.022637 -121315.000000 0 1 0
-6.582121 20.458883 -0.275187 21.493392 -1.259530 1.583600 0.047129 -0.020678 -226310.000000 0 1 0
-5.671721 21.447383 0.185813 22.185427 -1.312266 1.562421 0.055268 -0.027255 -1262790.000000 0 1 0
-4.271721 21.279983 -0.391487 21.708029 -1.372690 1.588831 0.047010 -0.016620 -554990.000000 0 1 0
-4.233821 21.511883 -1.763787 21.995392 -1.376467 1.651071 0.043021 -0.016448 296288.000000 0 1 0
-2.914421 21.551583 -2.294887 21.868495 -1.436382 1.675930 0.040965 -0.007457 290971.000000 0 1 0
-2.941421 21.811283 -3.824887 22.338616 -1.436747 1.742867 0.039940 -0.004528 -811381.000000 0 1 0
-1.694321 22.153383 -4.295887 22.629576 -1.494464 1.761790 0.057939 -0.003534 -798511.000000 0 1 0
-1.771721 22.529883 -5.651687 23.295411 -1.492319 1.815851 0.061678 -0.009528 956319.000000 0 1 0
-0.393721 23.094783 -6.159687 23.905350 -1.553750 1.831406 0.056605 -0.015908 530307.000000 0 1 0
0.666579 22.187283 -6.219387 23.052128 1.540762 1.843978 0.054123 -0.003874 -377293.000000 0 1 0
1.859379 22.835683 -6.645387 23.855541 1.489551 1.853099 0.052699 -0.001624 -287801.000000 0 1 0
2.974679 21.814883 -6.649487 22.998989 1.435272 1.864105 0.039418 0.002595 -683324.000000 0 1 0
2.833479 20.838783 -7.643387 22.376435 1.435654 1.919396 0.039778 -0.006816 255922.000000 0 1 0
3.820279 19.809183 -7.447387 21.504925 1.380281 1.924432 0.032992 -0.008918 684673.000000 0 1 0
3.874379 18.802983 -8.601287 21.036756 1.367589 1.992011 0.029696 -0.008905 137362.000000 0 1 0
4.205179 19.323483 -9.850287 22.093181 1.356517 2.032922 0.025942 -0.008561 -510129.000000 0 1 0
3.254179 18.860483 -10.731487 21.942477 1.399939 2.081824 0.025093 -0.016324 -778266.000000 0 1 0
3.521979 19.165583 -12.196187 22.988494 1.389058 2.130027 0.024569 -0.021750 -113974.000000 0 1 0
3.442479 20.507683 -12.680287 24.355808 1.404484 2.118381 0.052428 -0.026551 -76597.400000 0 1 0
3.776179 20.465283 -14.042087 25.105129 1.388332 2.164375 0.069441 -0.030216 -47213.800000 0 0 1
4.232479 21.835183 -14.638787 26.626738 1.379333 2.152894 0.067434 -0.027704 394687.000000 0 0 1
3.275179 22.899283 -14.602187 27.355581 1.428734 2.133875 0.088582 -0.036376 -188206.000000 0 0 1
3.773779 23.976983 -15.272387 28.677219 1.414685 2.132421 0.076271 -0.035676 -15136.500000 0 0 1
2.678679 25.030683 -15.584887 29.607416 1.464186 2.125139 0.085140 -0.034868 217234.000000 0 0 1
1.958379 25.487683 -14.441787 29.360218 1.494111 2.085047 0.098126 -0.045357 -7766.420000 0 0 1
1.865879 26.894683 -14.416787 30.572033 1.501530 2.061864 0.074238 -0.040739 -925696.000000 0 0 1
0.943779 27.367383 -13.267587 30.428493 1.536324 2.021973 0.077079 -0.040237 779095.000000 0 0 1
-0.480121 27.224983 -13.376387 30.337401 -1.553163 2.027420 0.082943 -0.054417 745334.000000 0 0 1
-0.985421 25.887483 -13.492287 29.209153 -1.532749 2.050955 0.075700 -0.050088 -710182.000000 0 0 1
-1.083721 25.131983 -12.158387 27.939530 -1.527702 2.021021 0.093586 -0.045165 -297714.000000 0 0 1
-2.155521 25.505283 -11.310787 27.983917 -1.486484 1.986888 0.092514 -0.040604 -64783.100000 0 0 1
-2.498421 24.385283 -10.522587 26.675999 -1.468697 1.976275 0.105253 -0.027663 241301.000000 0 0 1
-3.633721 24.615283 -9.494787 26.632068 -1.424234 1.935334 0.083747 -0.020432 -313732.000000 0 0 1
-3.268821 24.964183 -8.167187 26.468822 -1.440597 1.884474 0.096829 -0.018325 -239675.000000 0 0 1
-2.652421 26.225183 -8.028887 27.554647 -1.469999 1.866466 0.092590 -0.030218 18062.000000 0 0 1
-2.427421 26.679583 -6.604287 27.591830 -1.480062 1.812499 0.085842 -0.025870 741460.000000 0 0 1
-1.340821 25.955083 -5.988987 26.670809 -1.519183 1.797280 0.087372 -0.024671 385594.000000 0 0 1
-1.046421 26.389283 -4.675487 26.820690 -1.531164 1.746015 0.093346 -0.035179 -553296.000000 0 0 1
-1.809821 25.781283 -3.505587 26.081394 -1.500712 1.705614 0.087647 -0.023675 -101492.000000 0 0 1
-3.189221 26.078983 -3.546787 26.511585 -1.449110 1.704981 0.077877 -0.020350 140821.000000 0 0 1
-3.892121 25.612183 -2.375287 26.014890 -1.419987 1.662229 0.064182 -0.017979 703064.000000 0 0 1
-5.099021 24.668883 -2.660887 25.330497 -1.366968 1.676037 0.063989 -0.018755 861387.000000 0 0 1
-6.344821 25.241483 -3.099787 26.210644 -1.324534 1.689338 0.049613 -0.016393 89442.200000 0 0 1
-7.176221 24.250183 -3.597687 25.544331 -1.283083 1.712107 0.027259 -0.020669 -623592.000000 0 0 1
-8.505721 24.898483 -3.973487 26.609591 -1.241610 1.720682 0.044557 -0.013716 -319965.000000 0 0 1
-9.258521 25.353883 -2.870287 27.143657 -1.220670 1.676739 0.077963 -0.022943 -742313.000000 0 0 1
-10.528021 25.833183 -3.195687 28.078550 -1.183808 1.684856 0.102607 -0.026712 20425.400000 0 0 1
-11.478121 26.171683 -2.009187 28.648578 -1.157488 1.640986 0.115079 -0.031279 279069.000000 0 0 1
-11.991021 25.005883 -1.324987 27.763903 -1.123660 1.618538 0.118572 -0.030550 434208.000000 0 0 1
-11.013221 24.357183 -0.505487 26.736097 -1.146152 1.589704 0.118030 -0.038837 134623.000000 0 0 1
-11.485921 23.031183 0.039913 25.736420 -1.108180 1.569245 0.096303 -0.038407 -305978.000000 0 0 1
-12.414621 23.131983 1.092213 26.275547 -1.078232 1.529217 0.120197 -0.042605 -63932.200000 0 0 1
-12.887921 21.833783 1.369213 25.390693 -1.037559 1.516844 0.125678 -0.050319 76604.200000 0 0 1
-13.988021 21.777783 2.466713 26.000408 -0.999848 1.475781 0.141660 -0.058349 72175.600000 0 0 1
-13.490721 21.808383 3.786613 25.921874 -1.016811 1.424194 0.133324 -0.056189 66544.600000 0 0 1
-13.131521 23.031583 4.307513 26.859734 -1.052612 1.409730 0.129838 -0.050959 -31547.200000 0 0 1
-12.566521 22.797683 5.744913 26.658128 -1.067018 1.353589 0.124685 -0.045041 -29578.600000 0 0 1
-11.229721 22.445383 6.010313 25.807473 -1.106898 1.335748 0.114189 -0.034879 -98612.100000 0 0 1
-11.169921 21.788783 7.234213 25.531393 -1.097084 1.283515 0.082462 -0.037045 -891177.000000 0 0 1
-9.853621 21.858783 7.949113 25.260416 -1.147289 1.250670 0.075849 -0.024824 -972021.000000 0 0 1
-9.494421 23.120483 8.453013 26.384734 -1.181143 1.244671 0.085644 -0.027339 153986.000000 0 0 1
-8.515021 23.094183 9.505713 26.385705 -1.217553 1.202250 0.093575 -0.025697 141000.000000 0 0 1
-8.918321 22.637383 10.883713 26.654132 -1.195504 1.150171 0.077578 -0.031051 -565214.000000 0 0 1
-9.293121 21.258583 10.872113 25.622105 -1.158682 1.132579 0.091037 -0.032492 -97653.500000 0 0 1
-9.138921 20.713283 12.146713 25.692462 -1.155276 1.078361 0.066870 -0.025364 -1430.200000 0 0 1
-10.166621 19.596383 12.555913 25.397428 -1.092221 1.053678 0.061526 -0.019671 155146.000000 0 0 1
-10.104721 18.405483 11.803213 24.086988 -1.068717 1.058679 0.081838 -0.036694 43657.000000 0 1 0
-10.774721 17.344983 12.486413 23.934359 -1.014934 1.021961 0.076079 -0.034884 -13082.600000 0 1 0
-10.896021 16.105283 11.558813 22.620998 -0.975983 1.034475 0.074898 -0.039442 115558.000000 0 1 0
-11.499821 15.023083 12.317913 22.575869 -0.917463 0.993664 0.068708 -0.031682 148551.000000 0 1 0
-11.778321 14.008883 11.449813 21.588790 -0.871682 1.011772 0.065540 -0.016531 20985.300000 0 1 0
-12.160221 12.677583 12.173713 21.372678 -0.806225 0.964787 0.055409 -0.026539 34878.300000 0 1 0
-13.330921 12.812983 12.941713 22.569313 -0.765590 0.960121 0.077015 -0.018552 -165915.000000 0 1 0
-13.663621 11.566983 13.524613 22.436684 -0.702490 0.923803 0.054623 -0.006325 95722.400000 0 1 0
-14.576521 11.649183 14.774213 23.800332 -0.674237 0.901089 0.056927 -0.012520 -955287.000000 0 1 0
-15.815321 12.120883 14.435613 24.605428 -0.653916 0.943838 0.086264 -0.020783 -1320240.000000 0 1 0
-16.658821 12.374883 15.531613 25.920745 -0.638905 0.928300 0.072771 -0.012632 -851165.000000 0 0 1
-17.602321 13.468983 15.212213 26.882459 -0.653147 0.969298 0.070664 -0.014209 -441657.000000 0 0 1
-18.810921 13.065783 14.566313 27.143008 -0.607082 1.004334 0.069613 -0.016758 147167.000000 0 0 1
-19.639521 14.178783 14.417613 28.188938 -0.625307 1.033909 0.089594 -0.019240 -802497.000000 0 0 1
-20.938021 13.911583 13.701113 28.629588 -0.586444 1.071777 0.084761 -0.018435 -194230.000000 0 0 1
-21.826721 12.915283 14.253213 29.092342 -0.534308 1.058787 0.077444 -0.013544 759473.000000 0 0 1
-23.005421 12.655683 13.509913 29.528519 -0.502933 1.095591 0.076995 -0.014734 555745.000000 0 0 1
-23.924521 11.629883 14.272513 30.188433 -0.452472 1.078352 0.080026 -0.020381 367896.000000 0 0 1
-24.648821 12.195483 15.367513 31.503248 -0.459454 1.061220 0.081289 -0.020469 401791.000000 0 0 1
-25.567001 11.234883 15.893813 32.132653 -0.414028 1.053386 0.082842 -0.022084 -50755.100000 0 0 1
-26.418001 11.801183 17.066813 33.592481 -0.420115 1.037872 0.077740 -0.017569 -763444.000000 0 0 1
-27.500801 12.496483 16.562313 34.449475 -0.426511 1.069262 0.089792 -0.010682 -686382.000000 0 0 1
-28.197431 13.069683 17.622513 35.727646 -0.434029 1.054979 0.081492 -0.000630 -431156.000000 0 0 1
-29.259141 14.106583 17.240313 36.773923 -0.449246 1.082843 0.081969 -0.012247 -239441.000000 0 0 1
-28.785251 15.373683 16.883013 36.742032 -0.490540 1.093363 0.075609 -0.015534 -352784.000000 0 0 1
-29.817071 16.257583 16.527313 37.769283 -0.499185 1.117884 0.084177 -0.019112 -211454.000000 0 0 1
-29.303811 17.691583 16.331113 37.926385 -0.543157 1.125639 0.088948 -0.017204 -162757.000000 0 0 1
-28.660541 18.252283 17.481513 38.212246 -0.567071 1.095632 0.097139 -0.024432 52529.100000 0 0 1
-29.513261 18.646083 18.538513 39.527021 -0.563465 1.082628 0.099565 -0.038065 -8152.240000 0 0 1
-28.661841 18.956483 19.878413 39.698875 -0.584336 1.046355 0.083530 -0.038673 1042510.000000 0 0 1
-28.101761 17.853283 20.623013 39.163214 -0.565978 1.016210 0.079885 -0.026174 343508.000000 0 0 1
-27.253611 16.974983 19.891713 37.770221 -0.557054 1.016141 0.089019 -0.014936 -190001.000000 0 0 1
-26.767621 15.735683 20.751413 37.346196 -0.531447 0.981652 0.082647 -0.008203 555332.000000 0 0 1
-27.852161 14.869383 21.007313 37.922930 -0.490374 0.983698 0.067802 -0.013241 606624.000000 0 0 1
-27.265711 13.643583 21.350713 37.221221 -0.463962 0.959882 0.071754 -0.008467 367950.000000 0 0 1
-28.384131 12.616883 21.665413 37.871292 -0.418275 0.961757 0.081301 -0.017203 -68783.700000 0 0 1
-29.258611 12.422683 20.608113 37.882498 -0.401517 0.995598 0.087067 -0.017490 46716.900000 0 0 1
-30.341141 11.539083 20.913213 38.614735 -0.363419 0.998473 0.131274 -0.019035 527013.000000 0 0 1
-31.172851 11.316783 19.587113 38.515856 -0.348238 1.037300 0.137537 -0.019227 4918.400000 0 0 1
-30.346671 10.785383 18.558013 37.170482 -0.341483 1.048043 0.154982 -0.020181 523570.000000 0 0 1
-29.838451 9.464283 18.756613 36.492689 -0.307147 1.030975 0.159737 -0.014992 177786.000000 0 0 1
-28.979761 9.033483 17.517113 35.046820 -0.302171 1.047405 0.163203 -0.020951 405120.000000 0 0 1
-29.777351 8.633083 16.368213 35.059080 -0.282185 1.085042 0.168107 -0.019771 1061090.000000 0 0 1
-30.471491 9.637083 15.569713 35.549980 -0.306312 1.117460 0.166508 -0.017342 231403.000000 0 0 1
-29.578041 10.677783 14.836113 34.770473 -0.346444 1.129970 0.141735 -0.012029 -446854.000000 0 0 1
-28.975591 10.101783 13.716713 33.612186 -0.335454 1.150438 0.161729 -0.023155 -123263.000000 0 0 1
-28.065731 11.069083 13.259313 32.954806 -0.375668 1.156716 0.112785 -0.013153 -480892.000000 0 0 1
-27.752301 11.003083 11.783213 32.095204 -0.377464 1.194871 0.161567 -0.014359 -231618.000000 0 0 1
-27.061581 9.881183 11.268913 30.934694 -0.350096 1.197936 0.159947 -0.020508 419438.000000 0 0 1
-27.808311 8.688283 11.205113 31.214467 -0.302825 1.203630 0.179063 -0.025092 -79766.200000 0 0 1
-26.995971 7.530183 10.546413 29.945165 -0.272023 1.210885 0.185670 -0.035076 22655.700000 0 0 1
-26.581771 7.780183 9.215813 29.189947 -0.284736 1.249582 0.184844 -0.027415 317635.000000 0 0 1
-25.996981 6.666883 8.577213 28.175502 -0.251038 1.261466 0.216066 -0.048150 -396729.000000 0 0 1
-25.477161 7.016783 7.183313 27.384684 -0.268752 1.305380 0.189367 -0.033140 -120135.000000 0 0 1
-26.458071 7.591483 6.320113 28.241883 -0.279419 1.345100 0.204752 -0.038836 729312.000000 0 0 1
-25.777321 8.025783 5.134013 27.481658 -0.301837 1.382876 0.190531 -0.035086 112051.000000 0 0 1
-26.742751 8.498783 4.040913 28.350185 -0.307704 1.427774 0.194638 -0.036948 -39003.900000 0 0 1
-27.560921 7.542983 3.373413 28.772919 -0.267142 1.453283 0.214198 -0.039491 648576.000000 0 0 1
-26.837151 6.568583 2.630513 27.754252 -0.240038 1.475875 0.213399 -0.039035 354034.000000 0 0 1
-25.938811 7.026483 1.426213 26.911474 -0.264538 1.517775 0.207831 -0.028383 425122.000000 0 0 1
-24.832821 7.877283 1.646013 26.104213 -0.307172 1.507699 0.182165 -0.035156 127245.000000 0 0 1
-23.848221 7.790283 0.619913 25.096024 -0.315733 1.546092 0.178447 -0.019269 -1120080.000000 0 0 1
-22.587221 8.168983 1.330713 24.055885 -0.347028 1.515451 0.143558 -0.021688 -1549620.000000 0 1 0
-22.702021 9.479683 1.839413 24.670419 -0.395561 1.496168 0.127736 -0.027760 -253272.000000 0 1 0
-21.594921 9.879983 2.553613 23.884631 -0.429085 1.463677 0.123031 -0.033888 -807506.000000 0 1 0
-21.811321 11.277383 3.100713 24.749293 -0.477189 1.445181 0.118876 -0.044821 -155959.000000 0 1 0
-20.923221 12.321883 2.701813 24.431736 -0.532225 1.459983 0.121385 -0.042554 406710.000000 0 1 0
-21.303621 13.575083 3.199213 25.462955 -0.567338 1.444822 0.127403 -0.046913 -122026.000000 0 0 1
-20.213421 14.314983 4.027013 25.094181 -0.616203 1.409623 0.092606 -0.036936 79700.100000 0 0 1
-19.893321 13.454783 5.155013 24.563174 -0.594674 1.359357 0.094738 -0.037033 -245899.000000 0 1 0
-19.145321 14.189783 6.060113 24.588985 -0.637821 1.321774 0.097075 -0.031505 -309625.000000 0 1 0
-18.515821 13.257883 7.131513 23.863477 -0.621404 1.267313 0.074528 -0.028145 -4406.140000 0 1 0
-17.417521 12.536583 6.617113 22.457117 -0.623871 1.271701 0.062830 -0.017268 -214931.000000 0 1 0
-16.784721 11.804383 7.556113 21.866987 -0.612925 1.217973 0.053215 -0.014844 -446902.000000 0 1 0
11.204879 -32.506042 -14.439987 37.292161 -1.238850 1.968403 0.050517 -0.029714 -821080.000000 0 0 1
12.098079 -32.103942 -13.465087 36.855599 -1.210413 1.944802 0.042378 -0.027457 -661926.000000 0 0 1
12.910779 -31.072342 -13.931787 36.418036 -1.176994 1.963353 0.049776 -0.041550 -1282410.000000 0 0 1
14.139579 -30.901542 -13.093187 36.417915 -1.141666 1.938556 0.079678 -0.034648 -1114350.000000 0 0 1
15.293679 -31.526442 -13.561487 37.572957 -1.119134 1.940069 0.070529 -0.024841 -951290.000000 0 0 1
16.454679 -31.125342 -12.922287 37.503718 -1.084486 1.922567 0.066697 -0.016604 -466392.000000 0 0 1
17.705879 -31.771342 -13.531187 38.807336 -1.062373 1.926954 0.071409 -0.017733 -89667.400000 0 0 1
17.892279 -33.076642 -13.022487 39.796772 -1.074940 1.904161 0.071129 -0.023331 -495161.000000 0 0 1
18.942179 -33.742942 -13.674887 41.041379 -1.059268 1.910489 0.048917 -0.000297 -15556.500000 0 0 1
19.178679 32.675683 -13.240487 40.135177 1.040035 1.906991 0.046688 -0.009067 -229571.000000 0 0 1
19.630779 32.492683 -11.926087 39.791626 1.027324 1.875189 0.053196 -0.014773 -111340.000000 0 0 1
19.514179 31.144383 -11.500887 38.510338 1.011068 1.874068 0.037353 -0.015495 -39605.600000 0 0 1
20.302079 30.804183 -10.208087 38.278938 0.988072 1.840739 0.051939 -0.018285 -382687.000000 0 0 1
21.470279 30.124883 -10.525187 38.461162 0.951592 1.847990 0.048675 -0.016081 -792394.000000 0 0 1
22.314479 29.982683 -9.426187 38.545431 0.930988 1.817849 0.053068 -0.015000 -310103.000000 0 0 1
23.627679 29.231083 -9.654187 38.806272 0.891011 1.822216 0.045211 -0.003577 -52189.300000 0 0 1
24.615679 29.996583 -10.317987 40.152055 0.883610 1.830685 0.055180 -0.011927 -604598.000000 0 0 1
25.822179 29.301383 -10.325787 40.397745 0.848431 1.829268 0.047749 0.004051 557067.000000 0 0 1
26.931479 30.029683 -11.233387 41.872131 0.839736 1.842402 0.041780 0.004419 973738.000000 0 0 1
27.654579 31.121883 -10.655887 42.975519 0.844321 1.821362 0.044326 -0.011621 698993.000000 0 0 1
28.756779 31.410083 -11.542287 44.122217 0.829469 1.835474 0.045252 -0.006925 534600.000000 0 0 1
29.288279 32.809183 -11.169587 45.376265 0.842037 1.819507 0.042102 -0.008639 -217281.000000 0 0 1
28.473179 33.812283 -11.733987 45.734876 0.870909 1.830263 0.061122 -0.003010 462080.000000 0 0 1
29.011379 -32.805442 -11.253787 45.216201 -0.846697 1.822329 0.084371 -0.005375 377417.000000 0 0 1
27.979779 -31.718942 -11.651887 43.871697 -0.847950 1.839612 0.063757 -0.013035 400227.000000 0 0 1
26.687179 -31.955142 -11.110487 43.090365 -0.874990 1.831584 0.061368 -0.017467 393162.000000 0 0 1
25.655979 -30.984442 -11.300187 41.784676 -0.879197 1.844645 0.057139 -0.026726 582730.000000 0 0 1
25.951879 -29.532342 -10.895987 40.796835 -0.849840 1.841157 0.052798 -0.030544 -362211.000000 0 0 1
26.915779 -28.873942 -11.733387 41.180530 -0.820483 1.859725 0.040197 -0.019159 168746.000000 0 0 1
27.269279 -27.639742 -11.182287 40.405599 -0.792145 1.851208 0.054009 -0.012648 -143104.000000 0 0 1
27.989679 -26.779342 -12.232587 40.622549 -0.763303 1.876672 0.046154 -0.014239 683755.000000 0 0 1
29.266479 -27.272542 -12.682387 41.966192 -0.750146 1.877801 0.036765 -0.004536 607948.000000 0 0 1
29.274879 -28.286542 -13.672587 42.942830 -0.768230 1.894827 0.043585 -0.006001 -961485.000000 0 0 1
30.644479 -28.866042 -13.984587 44.361032 -0.755523 1.891511 0.055059 0.000780 -492054.000000 0 0 1
30.974379 -29.937042 -13.094887 45.023491 -0.768370 1.865907 0.055548 -0.017273 516625.000000 0 0 1
32.156279 -30.631942 -13.516887 46.422499 -0.761125 1.866247 0.050838 -0.012550 246699.000000 0 0 1
32.631279 -31.685442 -12.559687 47.185944 -0.770693 1.840218 0.044578 -0.008337 -16488.600000 0 0 1
33.669979 -32.423442 -13.190087 48.568771 -0.766540 1.845826 0.041016 -0.007797 129166.000000 0 0 1
34.573679 -33.135042 -12.347687 49.454380 -0.764154 1.823144 0.042970 -0.008465 185869.000000 0 0 1
34.093679 33.518283 -11.458187 49.164462 0.776888 1.806018 0.031300 -0.005545 -169412.000000 0 0 1
33.254979 33.875883 -10.372387 48.590693 0.794647 1.785916 0.031536 -0.010064 129726.000000 0 0 1
32.716179 32.742483 -9.652387 47.281996 0.785800 1.776387 0.040730 -0.009731 52010.400000 0 0 1
31.918579 33.111683 -8.356387 46.744074 0.803743 1.750531 0.027403 -0.013534 597086.000000 0 0 1
30.706179 33.822583 -8.590687 46.482647 0.833655 1.756680 0.030842 -0.012546 52099.000000 0 0 1
29.922979 -33.852042 -7.403887 45.783872 -0.846929 1.733223 0.043494 -0.013572 818703.000000 0 0 1
29.086679 -32.504042 -7.511687 44.260288 -0.840826 1.741338 0.052231 -0.016717 228196.000000 0 0 1
29.905179 -31.328542 -7.504887 43.955894 -0.808639 1.742374 0.034565 -0.016185 652325.000000 0 0 1
29.226579 -30.069542 -7.853787 42.662070 -0.799613 1.755945 0.044211 -0.016099 377384.000000 0 0 1
28.042479 -29.599042 -6.988287 41.368105 -0.812396 1.740540 0.061051 -0.017132 -316129.000000 0 0 1
27.262879 -28.647842 -7.594587 40.269606 -0.810164 1.760526 0.062672 -0.026418 -1356060.000000 0 0 1
26.173279 -28.418042 -6.800287 39.228428 -0.826494 1.745027 0.072516 -0.036434 -1230460.000000 0 0 1
25.222579 -27.415942 -7.450187 37.991021 -0.827042 1.768179 0.114830 -0.041990 -259469.000000 0 0 1
24.388279 -28.012242 -8.452987 38.091034 -0.854447 1.794575 0.132307 -0.040717 87391.300000 0 0 1
23.663479 -27.137142 -9.210787 37.164813 -0.853670 1.821242 0.142667 -0.042071 -527476.000000 0 0 1
22.361179 -27.760942 -9.752487 36.956775 -0.892716 1.837848 0.128863 -0.038896 -87202.000000 0 0 1
22.574579 -28.809842 -10.664287 38.122770 -0.906153 1.854315 0.129463 -0.042714 -91536.100000 0 0 1
21.328179 -29.330642 -11.054587 37.912817 -0.942071 1.866674 0.112382 -0.041445 153919.000000 0 0 1
20.977979 -30.759242 -10.503987 38.685143 -0.972249 1.845774 0.109118 -0.042303 264095.000000 0 0 1
21.988979 -31.700142 -10.806787 40.064958 -0.964341 1.843911 0.091506 -0.034727 82023.000000 0 0 1
21.648479 -32.917242 -10.161887 40.687411 -0.989052 1.823224 0.073523 -0.035768 1178820.000000 0 0 1
22.819679 33.835583 -10.315487 42.095055 0.977439 1.818370 0.073177 -0.025006 1296990.000000 0 0 1
23.880979 -33.878442 -9.376187 42.496622 -0.956788 1.793260 0.079660 -0.019091 -809920.000000 0 0 1
24.938979 33.165583 -9.739887 42.623631 0.926046 1.801342 0.066578 -0.013871 -612347.000000 0 0 1
26.256079 33.492583 -8.981887 43.494932 0.905927 1.778797 0.063144 -0.012578 -246113.000000 0 0 1
26.204479 33.260483 -7.606487 43.020845 0.903504 1.748540 0.064069 -0.023732 99110.400000 0 0 1
26.381079 31.882283 -7.268387 42.015125 0.879539 1.744666 0.057606 -0.012808 -274830.000000 0 0 1
26.445679 31.772983 -5.728887 41.733877 0.876649 1.708503 0.056938 -0.014434 43119.600000 0 0 1
27.683479 32.216483 -5.176087 42.790988 0.860930 1.692055 0.049147 -0.015172 447203.000000 0 0 1
28.560579 31.181383 -4.734787 42.548837 0.829239 1.682306 0.060942 -0.012033 104540.000000 0 0 1
28.051679 30.298883 -3.593587 41.446747 0.823891 1.657609 0.072299 -0.001416 -892663.000000 0 0 1
27.863879 30.942183 -2.345487 41.705105 0.837697 1.627066 0.074108 -0.011732 111835.000000 0 0 1
27.637879 30.116383 -1.194687 40.893473 0.828286 1.600015 0.066116 -0.003373 -265639.000000 0 0 1
26.422679 29.166283 -1.278487 39.375939 0.834713 1.603271 0.054293 0.003066 -679379.000000 0 0 1
25.195679 29.789983 -1.052787 39.030420 0.868759 1.597773 0.040619 0.003280 -919660.000000 0 0 1
24.153379 28.946583 -1.444087 37.727653 0.875422 1.609082 0.038087 0.008054 -590805.000000 0 0 1
22.797679 29.405383 -0.923287 37.219124 0.911306 1.595606 0.075711 -0.007342 -406106.000000 0 0 1
22.469779 29.007183 0.415413 36.694416 0.911719 1.559475 0.077718 -0.009864 -324553.000000 0 0 1
21.463979 29.882483 0.880813 36.802731 0.947907 1.546861 0.067220 -0.013035 -442904.000000 0 0 1
20.741479 29.237283 2.065213 35.906723 0.953777 1.513249 0.080834 -0.026260 -194751.000000 0 0 1
19.908079 28.153583 1.632813 34.519877 0.955305 1.523478 0.095370 -0.018196 512738.000000 0 0 1
19.461879 27.295483 2.676813 33.629949 0.951394 1.491116 0.113316 -0.019735 61359.000000 0 0 1
18.794779 25.932283 2.310713 32.110223 0.943643 1.498772 0.106488 -0.007126 272994.000000 0 0 1
19.696179 24.942983 1.849713 31.835724 0.902399 1.512662 0.108886 -0.009252 582756.000000 0 0 1
20.578479 24.364383 2.842713 32.018400 0.869438 1.481896 0.107328 -0.001357 -114806.000000 0 0 1
21.514579 23.351083 2.162713 31.824951 0.826309 1.502787 0.083896 0.006018 -807210.000000 0 0 1
20.942479 22.369383 1.389513 30.674215 0.818331 1.525482 0.080413 0.005112 244851.000000 0 0 1
21.923179 21.422183 0.955113 30.666724 0.773840 1.539646 0.048147 0.002829 293084.000000 0 0 1
21.504079 20.651683 -0.307387 29.816303 0.765181 1.581106 0.086753 -0.006009 -72779.500000 0 0 1
21.759279 21.440883 -1.461187 30.582883 0.778028 1.618592 0.043355 0.002327 312140.000000 0 0 1
21.955979 20.487783 -2.566987 30.139736 0.750820 1.656069 0.078729 -0.005106 75066.500000 0 0 1
21.897679 21.130583 -3.942887 30.684788 0.767572 1.699649 0.056344 -0.011842 -38201.000000 0 0 1
22.881879 22.121783 -4.099987 32.089929 0.768510 1.698912 0.067159 -0.003161 164984.000000 0 0 1
22.619979 22.913983 -5.235687 32.620952 0.791855 1.731994 0.045762 -0.004299 218728.000000 0 0 1
23.588979 24.157083 -5.326587 34.181532 0.797296 1.727266 0.050024 0.000721 74895.100000 0 0 1
23.274079 25.337983 -4.581987 34.708655 0.827829 1.703196 0.041778 -0.000058 -227990.000000 0 0 1
23.558479 25.302083 -3.191487 34.718625 0.821068 1.662851 0.038338 0.004796 177717.000000 0 0 1
22.421279 24.856983 -2.220387 33.548673 0.836871 1.637029 0.033986 0.004290 -635073.000000 0 0 1
21.285579 25.700283 -2.169487 33.440800 0.879081 1.635717 0.052228 -0.002126 512084.000000 0 0 1
20.262979 25.216083 -1.320387 32.375648 0.893880 1.611591 0.061220 0.011908 -157839.000000 0 0 1
19.466179 24.018783 -1.813087 30.969684 0.889712 1.629374 0.091088 -0.008894 -1475940.000000 0 0 1
18.870679 24.327083 -3.018987 30.935801 0.911045 1.668541 0.079240 -0.012518 111675.000000 0 0 1
18.031279 23.290683 -3.533087 29.665900 0.911996 1.690176 0.086798 -0.025061 376952.000000 0 0 1
17.785679 23.647783 -5.041787 30.016123 0.925948 1.739566 0.084844 -0.028459 -608813.000000 0 0 1
16.905679 22.789383 -5.632887 28.929006 0.932549 1.766762 0.080703 -0.032487 -553057.000000 0 0 1
16.670979 23.207883 -6.924187 29.401900 0.947872 1.808531 0.076305 -0.029584 32033.500000 0 0 1
15.738579 22.271783 -7.707887 28.339843 0.955614 1.846247 0.100139 -0.029692 -235912.000000 0 0 1
16.321479 20.979783 -7.933687 27.739599 0.909638 1.860852 0.098405 -0.032860 295490.000000 0 0 1
15.637679 20.238783 -8.932787 27.091327 0.912950 1.906812 0.127134 -0.037486 -368392.000000 0 0 1
16.279579 18.912083 -9.363187 26.652595 0.860064 1.929761 0.115999 -0.039890 -533674.000000 0 0 1
17.591479 19.115883 -9.811887 27.769592 0.826903 1.931927 0.123276 -0.033329 -104321.000000 0 0 1
18.221579 17.867683 -10.078387 27.438184 0.775592 1.946914 0.121867 -0.032372 -104143.000000 0 0 1
19.721379 17.928583 -10.402287 28.610740 0.737817 1.942904 0.104187 -0.030679 -244569.000000 0 0 1
19.949679 18.476883 -11.677087 29.592892 0.747089 1.976419 0.114657 -0.026013 -551371.000000 0 0 1
21.310879 18.525183 -11.951087 30.662101 0.715583 1.971175 0.114903 -0.012128 -610365.000000 0 0 1
21.599979 18.943583 -13.421887 31.710652 0.719972 2.007838 0.120759 -0.016935 -11150.300000 0 0 1
21.544879 17.863183 -14.268387 31.414359 0.692244 2.042270 0.107658 -0.014829 146612.000000 0 0 1
21.663179 18.271083 -15.625487 32.361731 0.700660 2.074689 0.104818 -0.015754 55066.300000 0 0 1
21.883379 17.064683 -16.550187 32.310902 0.662303 2.108560 0.091590 -0.013810 -268887.000000 0 0 1
23.079879 16.326983 -16.493987 32.730762 0.615683 2.098938 0.112477 -0.019551 -157541.000000 0 0 1
23.318979 15.476383 -17.604387 33.063691 0.585933 2.132275 0.101881 -0.023352 -380367.000000 0 0 1
24.007979 16.115083 -18.803687 34.491413 0.591161 2.147388 0.093183 -0.019363 -1321450.000000 0 0 1
25.362479 16.237983 -18.533787 35.361401 0.569481 2.122483 0.103320 -0.019441 -493037.000000 0 0 1
26.147479 16.515683 -19.688187 36.661740 0.563357 2.137700 0.118999 -0.019893 -66569.300000 0 0 1
27.617579 16.777783 -19.317987 37.648497 0.545919 2.109606 0.090623 -0.013065 -124881.000000 0 0 1
27.886879 17.969683 -18.589687 38.028463 0.572413 2.081551 0.081520 -0.013587 -1165070.000000 0 0 1
29.221379 18.050983 -18.268787 38.903413 0.553356 2.059627 0.073054 -0.022637 -997963.000000 0 0 1
29.532079 19.186183 -17.226287 39.204570 0.576145 2.025721 0.084314 -0.020622 168401.000000 0 0 1
29.049579 18.953283 -15.878487 38.147494 0.578093 2.000102 0.077980 -0.016904 1031810.000000 0 0 1
27.734479 19.547383 -15.720587 37.395700 0.613943 2.004666 0.065746 -0.006051 1309060.000000 0 0 1
26.801579 18.911983 -14.635087 35.918985 0.614494 1.990453 0.070098 -0.003185 363621.000000 0 0 1
27.183679 19.187183 -13.261187 35.818424 0.614631 1.950057 0.059382 -0.007066 -242617.000000 0 0 1
26.099079 18.982683 -12.425287 34.581670 0.628835 1.938317 0.080458 -0.012416 -352720.000000 0 0 1
26.370979 19.507383 -11.000687 34.597422 0.636895 1.894376 0.062199 -0.010990 12627.300000 0 0 1
26.486279 20.914883 -11.090587 35.524026 0.668398 1.888304 0.063192 -0.003576 70481.200000 0 0 1
26.941479 21.591883 -9.917587 35.922294 0.675616 1.850514 0.051059 0.000340 181465.000000 0 0 1
26.037479 21.509783 -8.641187 34.861027 0.690459 1.821283 0.062262 -0.009253 -279659.000000 0 0 1
25.997679 20.222683 -7.995087 33.893327 0.661097 1.808930 0.073937 -0.018090 118713.000000 0 0 1
25.215679 20.213983 -6.800587 33.025499 0.675742 1.778199 0.090552 -0.023212 499970.000000 0 0 1
23.746779 19.756383 -7.112987 31.698876 0.693928 1.797116 0.104942 -0.026402 329480.000000 0 0 1
22.944279 20.793883 -7.621187 31.888995 0.736272 1.812123 0.078500 -0.019324 -193601.000000 0 0 1
21.702879 20.339383 -8.092587 30.825240 0.752978 1.836441 0.055494 -0.018158 843244.000000 0 0 1
20.489179 21.378783 -8.027887 30.680707 0.806643 1.835537 0.088060 -0.028652 653097.000000 0 0 1
20.621879 22.497683 -8.878687 31.784253 0.828873 1.853905 0.102620 -0.027355 33173.900000 0 0 1
20.130179 22.450283 -10.195687 31.830667 0.839832 1.896853 0.113704 -0.014062 867212.000000 0 0 1
18.600479 22.809183 -10.371287 31.205772 0.886686 1.909592 0.097873 -0.021598 681972.000000 0 0 1
18.348579 24.152983 -10.008687 31.940738 0.921128 1.889517 0.095796 -0.037133 -72601.600000 0 0 1
17.072079 24.478783 -10.506987 31.639587 0.961802 1.909308 0.085091 -0.027421 -110459.000000 0 0 1
16.828879 25.912683 -9.968687 32.466183 0.994811 1.882886 0.081143 -0.031531 5609.600000 0 0 1
17.703579 26.893283 -10.508387 33.868740 0.988615 1.886271 0.105583 -0.016238 137764.000000 0 0 1
17.413079 28.210583 -10.053187 34.642732 1.017787 1.865228 0.097197 -0.036986 -54481.100000 0 0 1
21.009979 28.976883 33.449740 48.989428 0.943449 0.819215 0.055685 -0.006141 1252750.000000 0 0 1
19.595179 29.226483 33.346609 48.478394 0.980172 0.812252 0.073819 -0.024431 841612.000000 0 0 1
18.766779 28.081283 33.454483 47.538961 0.981662 0.790166 0.061472 -0.025340 117395.000000 0 0 1
17.279279 28.420383 33.623992 47.295501 1.024523 0.779971 0.090890 -0.039621 67596.700000 0 0 1
16.601579 28.855083 32.423765 46.470730 1.048704 0.798580 0.084388 -0.041428 -185846.000000 0 0 1
15.308879 29.326383 32.729117 46.535939 1.089690 0.790756 0.112616 -0.049015 -71670.400000 0 0 1
14.519379 29.587083 31.421398 45.535833 1.114589 0.809257 0.110581 -0.053278 -152941.000000 0 0 1
14.243579 28.350083 30.766798 44.195051 1.105217 0.800763 0.110468 -0.052096 654615.000000 0 0 1
12.866979 28.298283 30.363668 43.454623 1.144048 0.797156 0.110414 -0.030628 422212.000000 0 0 1
12.197079 26.910083 30.109098 42.183872 1.145240 0.775946 0.099944 -0.035806 217960.000000 0 0 1
12.688579 26.077383 29.003068 41.014727 1.117947 0.785354 0.100123 -0.034188 148204.000000 0 0 1
14.059579 25.750183 29.015898 41.263373 1.071030 0.790925 0.087239 -0.041579 -260100.000000 0 0 1
14.181979 24.756783 27.856718 39.875099 1.050578 0.797358 0.084664 -0.027232 -377955.000000 0 0 1
14.199879 25.379883 26.582258 39.400399 1.060694 0.830279 0.065471 -0.032239 171788.000000 0 0 1
14.105679 24.427483 25.480618 38.012287 1.047122 0.836149 0.080137 -0.031202 84595.600000 0 0 1
12.715479 23.777083 25.232258 36.928307 1.079714 0.818555 0.090200 -0.032524 3663.700000 0 0 1
12.633579 23.134283 23.938888 35.607200 1.070954 0.833479 0.107026 -0.038731 -205472.000000 0 0 1
11.541279 22.271083 23.825428 34.595567 1.092681 0.811123 0.124109 -0.043068 -263040.000000 0 0 1
11.637879 21.735283 22.377038 33.295564 1.079202 0.833792 0.143034 -0.044574 190757.000000 0 0 1
11.086679 22.657583 21.384438 33.069241 1.115734 0.867603 0.131850 -0.051180 243372.000000 0 0 1
11.105379 22.162683 20.054938 31.885960 1.106281 0.890584 0.134633 -0.034095 -595703.000000 0 0 1
10.576979 23.161483 18.992938 31.765680 1.142416 0.929908 0.107891 -0.034399 214917.000000 0 0 1
9.197979 23.482983 19.019538 31.587911 1.197477 0.924650 0.106986 -0.038750 78625.400000 0 0 1
8.734279 24.286883 20.088738 32.706233 1.225569 0.909402 0.103917 -0.033361 628960.000000 0 0 1
7.333979 25.006483 19.936138 32.810989 1.285513 0.917754 0.106036 -0.035386 1273570.000000 0 0 1
7.522679 26.014683 18.948238 33.051326 1.289304 0.960272 0.099337 -0.040423 304896.000000 0 0 1
6.277379 26.620983 18.654438 33.106952 1.339221 0.972229 0.096049 -0.041670 252412.000000 0 0 1
6.498679 27.748683 17.631738 33.512690 1.340745 1.016763 0.107683 -0.031824 131415.000000 0 0 1
6.801579 27.415783 16.312138 32.618591 1.327616 1.047097 0.098514 -0.024613 -257441.000000 0 0 1
7.429479 28.477283 15.689138 33.351189 1.315593 1.081027 0.096904 -0.022380 -227090.000000 0 0 1
7.923479 28.129083 14.213538 32.496945 1.296228 1.118112 0.091802 -0.025578 -410500.000000 0 0 1
6.951979 28.014483 13.243138 31.757234 1.327553 1.140641 0.083897 -0.019660 -660583.000000 0 0 1
6.930679 26.748583 12.695738 30.408925 1.317267 1.140104 0.074862 -0.027973 -75500.200000 0 0 1
6.379879 26.792783 11.252438 29.751864 1.337030 1.182935 0.070585 -0.030220 22855.800000 0 0 1
7.086979 27.495183 10.201538 30.170875 1.318534 1.225872 0.061003 -0.027956 176781.000000 0 0 1
7.055979 28.915883 10.312538 31.500215 1.331456 1.237267 0.064058 -0.028693 -293437.000000 0 0 1
6.993679 29.651783 8.971938 31.759021 1.339169 1.284397 0.055232 -0.022519 -80379.800000 0 0 1
5.827179 29.481683 8.203038 31.151492 1.375657 1.304327 0.044387 -0.025052 -319248.000000 0 0 1
5.667879 28.226783 7.584038 29.772365 1.372634 1.313224 0.029237 -0.015382 -256997.000000 0 0 1
4.211379 27.918883 7.186738 29.135012 1.421082 1.321554 0.047115 -0.020933 -15447.200000 0 0 1
3.715679 28.797783 6.225838 29.696458 1.442479 1.359580 0.054321 -0.013352 -251513.000000 0 0 1
2.325779 28.692883 5.997638 29.405143 1.489915 1.365389 0.061491 -0.014267 302738.000000 0 0 1
1.794979 29.827883 5.029938 30.302224 1.510691 1.404032 0.075618 -0.015844 -28066.000000 0 0 1
2.382779 29.721583 3.723138 30.048492 1.490797 1.446573 0.048921 -0.020193 146024.000000 0 0 1
1.757979 30.537483 2.760938 30.712393 1.513292 1.480778 0.044394 -0.023226 629982.000000 0 0 1
0.410079 30.006683 2.171538 30.087950 1.557131 1.498561 0.097718 -0.019904 301175.000000 0 0 1
0.632579 28.900483 1.301538 28.936690 1.548912 1.525802 0.093711 -0.029492 -1055350.000000 0 0 1
-0.394221 28.005283 1.112638 28.030148 -1.556721 1.531092 0.096399 -0.028071 -507049.000000 0 0 1
-0.968721 28.031483 -0.350862 28.050411 -1.536252 1.583305 0.095127 -0.032873 -266023.000000 0 0 1
-1.744921 29.133683 -0.574162 29.191538 -1.510974 1.590466 0.093846 -0.029139 -587573.000000 0 0 1
-1.348421 29.852083 -1.702262 29.930967 -1.525657 1.627700 0.094536 -0.031228 144415.000000 0 0 1
-2.573921 30.713683 -2.100962 30.892870 -1.487188 1.638857 0.124149 -0.023064 850920.000000 0 0 1
-3.776621 30.159483 -2.627462 30.508373 -1.446223 1.657026 0.091654 -0.020398 737337.000000 0 0 1
-3.547321 29.479683 -3.864462 29.942766 -1.451041 1.700219 0.079265 -0.021473 -927759.000000 0 0 1
-4.871221 29.073383 -4.494562 29.819313 -1.404789 1.722100 0.073766 -0.013487 -381870.000000 0 0 1
-5.500821 30.149283 -5.159062 31.078195 -1.390329 1.737571 0.077927 -0.007947 476645.000000 0 0 1
-6.554621 29.683683 -6.011562 30.987464 -1.353468 1.766034 0.072634 -0.015996 269736.000000 0 0 1
-7.219921 30.681783 -6.976962 32.282767 -1.339685 1.788635 0.076264 -0.010780 -201269.000000 0 0 1
-8.223221 31.383583 -6.283762 33.045972 -1.314534 1.762113 0.067085 -0.000665 -94239.300000 0 0 1
-8.589321 32.552783 -7.007462 34.388437 -1.312818 1.776007 0.060791 -0.015557 -438646.000000 0 0 1
-9.616821 33.464483 -6.362662 35.395456 -1.290963 1.751538 0.064168 -0.012814 -966936.000000 0 0 1
-10.911721 32.994383 -6.447162 35.344884 -1.251405 1.754231 0.070219 -0.008650 -662089.000000 0 0 1
-11.812421 33.727083 -5.587162 36.169957 -1.233912 1.725887 0.065919 -0.012500 563075.000000 0 0 1
-13.275821 33.236983 -5.674062 36.237265 -1.190782 1.728024 0.093463 -0.017992 175098.000000 0 0 1
-13.816821 33.564083 -6.934462 36.953199 -1.180283 1.759571 0.084497 -0.019853 -582544.000000 0 0 1
-15.184421 33.271583 -7.013762 37.239196 -1.142651 1.760272 0.105072 -0.031963 -469965.000000 0 0 1
-15.702221 33.489183 -8.486162 37.948650 -1.132358 1.796326 0.140031 -0.029847 805110.000000 0 0 1
-17.021921 33.018483 -8.833262 38.183668 -1.094804 1.804247 0.164826 -0.033007 849474.000000 0 0 1
-17.941021 -33.736642 -8.722362 39.193377 1.082036 1.795222 0.155994 -0.037793 -385970.000000 0 0 1
-19.427221 33.746983 -9.055862 39.978549 -1.048457 1.799298 0.145491 -0.036858 431019.000000 0 0 1
-19.999121 32.835183 -8.122962 39.294994 -1.023730 1.779015 0.133538 -0.038459 229749.000000 0 0 1
-20.434621 33.494583 -6.922762 39.842006 -1.022993 1.745438 0.136383 -0.033557 -490792.000000 0 0 1
-20.957021 32.542083 -5.786162 39.136473 -0.998652 1.719186 0.127941 -0.033400 -228071.000000 0 0 1
-20.963721 33.219683 -4.487762 39.536880 -1.007849 1.684550 0.129287 -0.037720 571725.000000 0 0 1
-22.123321 32.793383 -3.758562 39.736306 -0.977303 1.665526 0.121257 -0.035186 1212400.000000 0 0 1
-23.327321 33.816283 -3.964962 41.272579 -0.966932 1.667012 0.133464 -0.036688 480630.000000 0 0 1
-23.940521 33.660783 -5.231562 41.636115 -0.952574 1.696779 0.137116 -0.039204 168674.000000 0 0 1
-25.102201 -33.383142 -5.423162 42.118468 0.926053 1.699915 0.133332 -0.043302 288013.000000 0 0 1
-25.506391 -33.276042 -6.964162 42.501417 0.916813 1.735396 0.163435 -0.041195 820693.000000 0 0 1
-24.551621 -32.481142 -7.759662 41.448993 0.923547 1.759117 0.178246 -0.035858 946536.000000 0 0 1
-24.904621 -32.389342 -9.164662 41.872433 0.915300 1.791454 0.138321 -0.031744 432276.000000 0 0 1
-26.179311 -31.602342 -9.574462 42.139466 0.878978 1.800007 0.121052 -0.023197 -685284.000000 0 0 1
-27.390701 -32.040842 -9.066962 43.117002 0.863483 1.782665 0.132186 -0.017959 144790.000000 0 0 1
-28.617061 -31.609042 -9.681762 43.724183 0.835036 1.794075 0.060263 -0.007007 1148300.000000 0 0 1
-28.934811 -30.070142 -9.454162 42.788058 0.804637 1.793588 0.030931 0.004701 -222303.000000 0 0 1
-27.975121 -29.176142 -10.051762 41.652041 0.806410 1.814529 0.055221 0.006815 476101.000000 0 0 1
-28.294271 -29.073342 -11.411562 42.143193 0.798978 1.845000 0.052700 0.002051 -84067.300000 0 0 1
-27.250581 -28.163742 -12.099762 41.014567 0.801875 1.870264 0.095229 0.000378 -440868.000000 0 0 1
-26.031781 -28.822842 -12.244462 40.722680 0.836235 1.876201 0.087411 -0.009857 -1299640.000000 0 0 1
-25.178971 -28.080742 -13.003962 39.895008 0.839828 1.902818 0.079908 -0.016142 200697.000000 0 0 1
-23.752821 -28.725242 -13.236262 39.554199 0.879868 1.912015 0.102314 -0.027295 733979.000000 0 0 1
-23.671821 -29.874042 -14.004662 40.607192 0.900714 1.922909 0.118803 -0.030845 -343305.000000 0 0 1
-24.194221 -31.002142 -13.421262 41.552658 0.908118 1.899688 0.110703 -0.034188 -430544.000000 0 0 1
-24.214121 -32.256042 -14.323062 42.801004 0.926857 1.912023 0.117576 -0.028478 -80110.500000 0 0 1
-24.579121 -33.388342 -13.537162 43.613866 0.936213 1.886396 0.107972 -0.034877 -23926.300000 0 0 1
-24.498121 33.186783 -14.233262 43.636065 -0.934897 1.903057 0.106220 -0.026298 -164728.000000 0 0 1
-25.096881 31.935083 -13.440962 42.782735 -0.904730 1.890376 0.092099 -0.023153 523869.000000 0 0 1
-24.350421 31.353883 -12.311662 41.564239 -0.910468 1.871516 0.092952 -0.022088 528365.000000 0 0 1
-24.151221 32.219483 -11.191862 41.792754 -0.927561 1.841899 0.128984 -0.029913 -200388.000000 0 0 1
-23.288021 31.692083 -10.056762 40.593823 -0.937081 1.821144 0.128680 -0.029323 46230.100000 0 0 1
-24.010721 30.700883 -9.301962 40.069757 -0.907075 1.805078 0.123155 -0.028150 562053.000000 0 0 1
-23.309521 30.350683 -8.089462 39.114410 -0.915870 1.779115 0.124869 -0.025353 9512.680000 0 0 1
-23.980121 29.310283 -7.182162 38.545068 -0.885088 1.758223 0.118339 -0.026804 -163278.000000 0 0 1
-24.385321 28.147383 -7.833562 38.056323 -0.856890 1.778120 0.113779 -0.006912 217843.000000 0 0 1
-24.967121 27.075183 -7.102362 37.508215 -0.825883 1.761301 0.105165 -0.017405 -587847.000000 0 0 1
-23.989121 26.330583 -6.226762 36.160062 -0.831896 1.743859 0.097575 -0.019144 -480071.000000 0 0 1
-23.604921 27.055283 -5.083462 36.263234 -0.853401 1.711442 0.110411 -0.019605 2708.410000 0 0 1
-22.679921 26.358883 -4.277162 35.035177 -0.860279 1.693184 0.096867 -0.021230 -210093.000000 0 0 1
-21.299721 27.034683 -4.325762 34.688101 -0.903498 1.695826 0.086954 -0.033125 -824.782000 0 0 1
-20.513721 26.876683 -5.530862 34.260170 -0.918867 1.732943 0.094519 -0.038678 1314690.000000 0 0 1
-19.251921 27.575283 -5.438662 34.067752 -0.961307 1.731125 0.104333 -0.034166 1132160.000000 0 0 1
-18.241321 27.340583 -6.608862 33.525070 -0.982433 1.769228 0.122098 -0.029520 -123349.000000 0 0 1
-18.600621 27.851683 -7.862862 34.402382 -0.981978 1.801390 0.121377 -0.025824 -23091.400000 0 0 1
-18.483721 29.263683 -7.894862 35.501266 -1.007446 1.795054 0.115876 -0.032259 -247349.000000 0 0 1
-18.703621 29.817083 -9.311262 36.408563 -1.010560 1.829413 0.112572 -0.026380 -318850.000000 0 0 1
-17.622221 29.681483 -10.213062 35.997774 -1.035014 1.858461 0.134377 -0.024530 87699.400000 0 0 1
-17.774121 30.592483 -11.314062 37.146027 -1.044467 1.880297 0.120611 -0.025223 -58584.300000 0 0 1
-16.453321 31.256683 -11.807462 37.243901 -1.086257 1.893393 0.134755 -0.026995 81407.600000 0 0 1
-16.405021 31.953883 -13.088062 38.229212 -1.096489 1.920221 0.136167 -0.027670 -266720.000000 0 0 1
-16.429021 30.978483 -14.115162 37.799694 -1.083175 1.953489 0.133979 -0.034455 -18744.700000 0 0 1
-15.854321 31.489083 -15.469162 38.499569 -1.104364 1.984279 0.181588 -0.042254 256371.000000 0 0 1
-14.444921 31.604183 -15.515562 38.055391 -1.142089 1.990741 0.162764 -0.048034 -82060.700000 0 0 1
-14.083221 31.830383 -16.861962 38.676041 -1.154242 2.021923 0.143010 -0.058537 -423285.000000 0 0 1
-12.572821 31.926283 -17.083462 38.330249 -1.195639 2.032743 0.162578 -0.061396 -903055.000000 0 0 1
-11.907921 30.672183 -17.102962 37.082242 -1.200476 2.050163 0.163795 -0.070294 433867.000000 0 0 1
-10.596021 30.656783 -17.660362 36.932403 -1.238016 2.069378 0.159452 -0.063367 666607.000000 0 0 1
-10.511921 31.093983 -19.098562 37.974877 -1.244789 2.097777 0.166527 -0.072858 -839662.000000 0 0 1
-11.259621 30.190883 -19.861962 37.851895 -1.213826 2.123192 0.119272 -0.062723 105840.000000 0 0 1
-10.907921 30.342783 -21.225962 38.603221 -1.225692 2.152980 0.124443 -0.074223 -558128.000000 0 0 1
-11.928021 29.680183 -22.202062 38.937418 -1.188666 2.177544 0.101674 -0.053869 252812.000000 0 0 1
-13.106521 30.416783 -22.424662 39.997838 -1.163941 2.165963 0.103482 -0.054023 646086.000000 0 0 1
-14.119521 30.342983 -21.377262 39.712023 -1.135267 2.139223 0.092903 -0.052308 276713.000000 0 0 1
-15.031921 31.601383 -21.380762 41.009060 -1.126799 2.119248 0.129778 -0.054449 -153850.000000 0 0 1
-15.743121 31.684483 -22.573662 41.968113 -1.109655 2.138713 0.103229 -0.046237 -534534.000000 0 0 1
-16.384821 32.917683 -22.671262 43.197480 -1.108949 2.123310 0.111292 -0.049444 207946.000000 0 0 1
-17.235621 33.098183 -23.950362 44.341585 -1.090693 2.141392 0.084602 -0.036295 208890.000000 0 0 1
-16.377021 32.912683 -25.075662 44.499891 -1.109079 2.169412 0.106432 -0.043418 144250.000000 0 0 1
-16.993121 32.967583 -26.343662 45.493035 -1.094866 2.188384 0.118206 -0.031310 -37057.400000 0 0 1
-17.358821 -33.486842 -26.918562 46.339036 1.092555 2.190636 0.100001 -0.024040 39662.600000 0 0 1
-18.525521 -32.907142 -26.385962 46.068361 1.058055 2.180661 0.094608 -0.018262 -311317.000000 0 0 1
-18.989221 -31.924542 -27.289962 46.092395 1.034197 2.204422 0.074829 -0.003770 180372.000000 0 0 1
-20.500021 -31.617342 -27.120362 46.426514 0.995561 2.194637 0.046681 -0.010922 40206.600000 0 0 1
-21.263221 -32.751842 -27.335162 47.665698 0.994968 2.181540 0.045488 -0.009200 -666972.000000 0 0 1
-22.650521 -32.497242 -27.169462 48.034326 0.962088 2.171988 0.035331 -0.001209 316151.000000 0 0 1
-23.392421 -33.808242 -27.412062 49.412789 0.965517 2.158867 0.012889 0.010165 -246367.000000 0 0 1
-23.502721 33.289383 -26.187262 48.438967 -0.956047 2.141975 0.037826 -0.005533 -199734.000000 0 0 1
-24.487921 32.262483 -26.317762 48.302698 -0.921546 2.147007 0.014820 -0.001304 206186.000000 0 0 1
-24.107121 30.931083 -27.052462 47.641587 -0.908755 2.174667 0.016441 -0.003425 -32011.100000 0 0 1
-23.077021 30.202583 -26.414862 46.287037 -0.918348 2.178124 0.016905 -0.023892 -189.447000 0 0 1
-23.611621 29.411883 -25.389262 45.466274 -0.894355 2.163276 0.029072 -0.018503 -227609.000000 0 0 1
32.041363 10.254983 -27.039687 43.162000 0.309752 2.247812 0.081156 -0.020048 -152679.000000 0 0 1
31.692413 9.009383 -26.466757 42.261889 0.276969 2.247538 0.061933 -0.013217 242801.000000 0 0 1
30.290643 8.804383 -26.385227 41.124450 0.282869 2.267372 0.072130 -0.017373 351404.000000 0 0 1
29.917943 7.407083 -25.861757 40.234049 0.242700 2.268922 0.064087 -0.012127 -112114.000000 0 0 1
30.278583 7.200283 -24.527387 39.626120 0.233465 2.238227 0.041483 0.003092 91412.200000 0 0 1
29.642813 6.026183 -24.093887 38.672039 0.200560 2.243408 0.033592 0.006511 57475.300000 0 0 1
29.738813 5.913183 -22.539387 37.780772 0.196277 2.210034 0.035407 0.009994 -27325.200000 0 0 1
30.992173 5.392883 -22.166087 38.482897 0.172283 2.184621 0.072073 -0.009684 117212.000000 0 0 1
30.877913 4.992783 -20.804087 37.565721 0.160307 2.157724 0.049332 -0.005449 677014.000000 0 0 1
32.238183 4.626283 -20.100487 38.271824 0.142530 2.123750 0.053355 -0.008932 492250.000000 0 0 1
32.672483 3.265483 -20.128887 38.513980 0.099615 2.120739 0.076266 -0.010182 145134.000000 0 0 1
33.512003 3.066483 -19.015787 38.653044 0.091250 2.085137 0.088281 -0.015584 -453729.000000 0 0 1
34.226783 1.716283 -19.001187 39.184990 0.050102 2.077056 0.099649 -0.018934 -592819.000000 0 0 1
33.344173 0.668283 -18.873487 38.320869 0.020039 2.085770 0.094190 -0.007098 -5958.330000 0 0 1
34.062793 -0.538417 -18.644687 38.835398 -0.015805 2.071560 0.109921 -0.007104 198555.000000 0 0 1
33.121103 -1.699117 -18.245787 37.852387 -0.051255 2.073760 0.082421 -0.004005 330349.000000 0 0 1
32.687763 -1.762317 -16.862687 36.823170 -0.053862 2.046469 0.085232 -0.005118 -586660.000000 0 0 1
31.312193 -1.722317 -16.714387 35.535764 -0.054949 2.060488 0.076461 -0.010590 -804681.000000 0 0 1
30.714103 -2.028417 -15.316087 34.381000 -0.065946 2.032508 0.098026 -0.014971 -135706.000000 0 0 1
30.825553 -3.365417 -14.865887 34.388012 -0.108746 2.017837 0.086689 -0.021258 575115.000000 0 0 1
30.017203 -3.479217 -13.692087 33.175453 -0.115393 1.996232 0.099049 -0.025644 112572.000000 0 0 1
29.849623 -4.918617 -13.273987 33.036215 -0.163312 1.984279 0.094080 -0.027140 52858.500000 0 0 1
29.011013 -5.733217 -14.081787 32.753708 -0.195108 2.015211 0.069575 -0.027643 577975.000000 0 0 1
28.695713 -6.989917 -13.553987 32.496361 -0.238934 2.001040 0.079982 -0.032904 -127568.000000 0 0 1
28.087013 -8.000117 -14.560087 32.632473 -0.277485 2.033293 0.059328 -0.025947 801673.000000 0 0 1
26.715913 -7.759317 -14.927387 31.571726 -0.282661 2.063272 0.077462 -0.026284 883216.000000 0 0 1
26.338413 -8.431217 -16.115487 32.007911 -0.309804 2.098423 0.077248 -0.027662 -107343.000000 0 0 1
24.887713 -8.389717 -16.636487 31.089521 -0.325139 2.135441 0.064034 -0.025145 -247281.000000 0 0 1
24.557813 -7.048217 -16.992887 30.684227 -0.279493 2.157716 0.065558 -0.020373 360814.000000 0 0 1
23.306613 -6.873717 -17.656587 30.036665 -0.286795 2.199176 0.084990 -0.020896 362896.000000 0 0 1
23.123013 -7.282517 -19.154387 30.896591 -0.305112 2.239477 0.067455 -0.013550 -375322.000000 0 0 1
23.891613 -6.541917 -20.053287 31.870679 -0.267266 2.251330 0.067339 -0.014946 87955.400000 0 0 1
23.496013 -6.812817 -21.344987 32.466684 -0.282217 2.288216 0.085140 -0.019935 -165505.000000 0 0 1
24.188913 -5.904717 -22.379787 33.478711 -0.239426 2.302957 0.081143 -0.023215 -241351.000000 0 0 1
24.007213 -6.148917 -23.790187 34.352998 -0.250738 2.335775 0.092726 -0.026405 183603.000000 0 0 1
24.382613 -5.076917 -24.681987 35.064047 -0.205286 2.351686 0.080091 -0.026395 -26457.400000 0 0 1
24.504513 -5.581417 -26.154897 36.272607 -0.223950 2.376134 0.096937 -0.032970 -19075.300000 0 0 1
23.298213 -6.169717 -26.622097 35.911115 -0.258873 2.405851 0.101850 -0.030189 88249.200000 0 0 1
23.136513 -6.201117 -28.012377 36.857094 -0.261868 2.434151 0.097291 -0.035262 618973.000000 0 0 1
21.748713 -6.754717 -28.480457 36.466000 -0.301135 2.467084 0.076448 -0.040252 636750.000000 0 0 1
21.679713 -8.141417 -28.257197 36.534392 -0.359237 2.455048 0.069406 -0.032458 108024.000000 0 0 1
20.384413 -8.676017 -28.414417 36.030219 -0.402396 2.479370 0.068772 -0.043482 -85306.200000 0 0 1
20.336813 -10.165117 -28.074007 36.125690 -0.463518 2.460873 0.088274 -0.029252 -524822.000000 0 0 1
19.046413 -10.701217 -28.073937 35.572853 -0.511895 2.480294 0.100789 -0.026622 -190008.000000 0 0 1
19.008213 -12.056617 -27.558567 35.582985 -0.565248 2.456700 0.099971 -0.031511 -167462.000000 0 0 1
19.051313 -13.194417 -28.636797 36.838992 -0.605724 2.461239 0.090139 -0.023608 869568.000000 0 0 1
17.744113 -13.507917 -29.173627 36.720810 -0.650670 2.488933 0.097383 -0.020928 946592.000000 0 0 1
17.831113 -14.489617 -30.148357 37.905422 -0.682379 2.490393 0.069693 -0.020435 -150388.000000 0 0 1
16.512413 -14.936517 -30.803837 38.008364 -0.735330 2.515714 0.073620 -0.019955 128247.000000 0 0 1
15.667513 -15.804717 -30.036997 37.382900 -0.789758 2.503940 0.059371 -0.023735 762092.000000 0 0 1
14.497213 -16.182717 -30.735797 37.639590 -0.840281 2.526260 0.061584 -0.029237 -101696.000000 0 0 1
13.302213 -16.755617 -30.000537 36.847412 -0.899789 2.522117 0.072964 -0.038811 -93915.100000 0 0 1
13.629013 -17.997917 -29.391747 37.061433 -0.922668 2.486604 0.066612 -0.028603 -347247.000000 0 0 1
12.698513 -18.146817 -28.391647 36.008955 -0.960228 2.479099 0.072443 -0.033638 -281280.000000 0 0 1
12.953013 -19.453617 -27.582377 36.152611 -0.983366 2.438650 0.070287 -0.039080 162099.000000 0 0 1
14.125213 -19.400217 -26.791217 35.967477 -0.941462 2.411141 0.075465 -0.039071 18216.000000 0 0 1
14.270113 -20.514617 -25.995957 36.059332 -0.963025 2.375928 0.071535 -0.031195 116403.000000 0 0 1
15.411113 -20.366317 -24.927587 35.688568 -0.923023 2.344061 0.065612 -0.021160 -84731.100000 0 0 1
16.685813 -20.508317 -25.507687 36.737577 -0.887810 2.338273 0.073327 -0.023751 -396664.000000 0 0 1
17.547713 -20.628317 -24.402787 36.454708 -0.865918 2.304197 0.073367 -0.015096 142835.000000 0 0 1
19.048513 -20.929717 -24.729287 37.582397 -0.832419 2.288958 0.062641 -0.012741 642626.000000 0 0 1
19.457713 -22.266817 -25.144677 38.815828 -0.852622 2.275482 0.073313 -0.025464 270990.000000 0 0 1
19.035613 -23.347817 -24.328887 38.721698 -0.886792 2.250164 0.068149 -0.029079 -615182.000000 0 0 1
19.853713 -24.669317 -24.522687 40.051309 -0.893139 2.229740 0.062180 -0.025561 -157896.000000 0 0 1
21.161513 -24.412417 -24.045387 40.273520 -0.856610 2.210618 0.068412 -0.026162 -199321.000000 0 0 1
21.759813 -25.533627 -23.493187 40.955896 -0.865025 2.181717 0.077715 -0.037241 -455419.000000 0 0 1
21.582613 -25.691057 -21.982387 40.113152 -0.872088 2.150779 0.082862 -0.027926 -180933.000000 0 0 1
20.273513 -26.086217 -21.563287 39.452268 -0.910130 2.149055 0.073908 -0.026287 676589.000000 0 0 1
20.045413 -25.857057 -20.190387 38.445516 -0.911337 2.123710 0.070751 -0.024212 -365401.000000 0 0 1
18.768413 -26.496107 -19.658987 37.957513 -0.954491 2.115215 0.061791 -0.023747 -1490750.000000 0 0 1
18.739013 -27.912017 -19.680087 38.955579 -0.979551 2.100402 0.061595 -0.019365 -522916.000000 0 0 1
17.650513 -28.481137 -19.035687 38.536647 -1.015998 2.087438 0.051733 -0.012772 -131928.000000 0 0 1
16.257913 -28.170557 -19.642087 37.996205 -1.047367 2.114079 0.067812 -0.014850 -287821.000000 0 0 1
15.447613 -27.291327 -18.829387 36.578561 -1.055732 2.111531 0.068423 -0.019879 521357.000000 0 0 1
14.245013 -26.843697 -19.442287 36.076405 -1.082919 2.139950 0.056204 -0.008108 573621.000000 0 0 1
13.323413 -25.997097 -18.527187 34.592182 -1.097202 2.136001 0.049127 -0.017197 -213690.000000 0 0 1
12.448913 -26.675697 -17.674587 34.335977 -1.134161 2.111517 0.047743 -0.015434 -177516.000000 0 0 1
11.628313 -25.766477 -16.984887 32.979015 -1.146865 2.111829 0.069215 -0.025960 1074.190000 0 0 1
10.109113 -25.853817 -17.234987 32.675049 -1.198063 2.126412 0.076262 -0.014926 -438801.000000 0 0 1
9.491613 -26.919037 -16.532487 32.985579 -1.231808 2.095785 0.083954 -0.014887 -130705.000000 0 0 1
8.084513 -26.881907 -16.513987 32.568513 -1.278659 2.102559 0.084393 -0.004988 4251.850000 0 0 1
7.359713 -27.462147 -17.703787 33.492671 -1.308954 2.127731 0.084420 -0.004273 -678025.000000 0 0 1
7.449513 -26.811397 -18.943787 33.663234 -1.299784 2.168498 0.089025 -0.006599 -235074.000000 0 0 1
6.990013 -27.651407 -19.925187 34.791862 -1.323193 2.180588 0.085084 -0.007257 -197785.000000 0 0 1
6.852213 -27.077727 -21.336887 35.148526 -1.322942 2.223138 0.069747 -0.007792 -570337.000000 0 0 1
5.869213 -26.125077 -21.560187 34.377449 -1.349807 2.248699 0.083554 -0.010739 -355632.000000 0 0 1
5.950313 -25.597257 -22.868787 34.836866 -1.342394 2.286904 0.062008 -0.010593 240089.000000 0 0 1
4.676313 -24.747317 -23.172487 34.223702 -1.384036 2.314596 0.044344 -0.011194 666691.000000 0 0 1
3.523513 -25.561557 -23.358287 34.805430 -1.433815 2.306502 0.047087 -0.004143 -207021.000000 0 0 1
2.388313 -24.844417 -23.803787 34.490135 -1.474960 2.332509 0.043897 -0.003777 204468.000000 0 0 1
1.466913 -25.981687 -24.302187 35.606126 -1.514397 2.322013 0.025483 -0.006342 -333558.000000 0 0 1
2.125813 -26.716037 -25.301087 36.856624 -1.491393 2.327424 0.027461 -0.006147 134960.000000 0 0 1
1.278013 -27.672407 -25.916617 37.935030 -1.524645 2.322911 0.037937 -0.010208 -152069.000000 0 0 1
1.940113 -28.420227 -27.071517 39.298097 -1.502637 2.330734 0.031606 -0.015718 -568488.000000 0 0 1
2.244113 -27.647677 -28.221827 39.571475 -1.489806 2.364829 0.030055 -0.017657 -35047.100000 0 0 1
2.830113 -28.452747 -29.209107 40.874690 -1.471655 2.366850 0.023857 -0.015728 741811.000000 0 0 1
4.336313 -28.895087 -29.186327 41.298564 -1.421837 2.355641 0.026188 -0.013079 403129.000000 0 0 1
4.720413 -29.730627 -28.112187 41.188440 -1.413338 2.322010 0.025276 -0.023501 379565.000000 0 0 1
5.890213 -30.514647 -28.435357 42.123721 -1.380113 2.311820 0.048417 -0.024088 900779.000000 0 0 1
6.199713 -31.681007 -27.449047 42.374200 -1.377547 2.275460 0.064547 -0.030234 -148200.000000 0 0 1
5.301913 -32.751367 -27.583387 43.146328 -1.410305 2.264382 0.061345 -0.039382 -63172.300000 0 0 1
5.685813 33.880227 -26.975057 43.678964 1.404525 2.236453 0.071781 -0.047580 182600.000000 0 0 1
4.385313 33.097747 -26.647757 42.717616 1.439068 2.244407 0.083770 -0.046402 365443.000000 0 0 1
3.799613 32.351867 -27.703657 42.761816 1.453885 2.275568 0.079322 -0.044016 1351470.000000 0 0 1
2.451213 31.984122 -27.318447 42.134191 1.494307 2.276235 0.053955 -0.040719 1342760.000000 0 0 1
1.254113 32.078968 -28.295807 42.793523 1.531722 2.293236 0.070857 -0.028907 16241.000000 0 0 1
1.207713 31.160147 -29.339397 42.816043 1.532057 2.325734 0.090627 -0.039336 593092.000000 0 0 1
0.143613 31.546347 -30.236427 43.697072 1.566244 2.334990 0.092673 -0.038193 717420.000000 0 0 1
-0.097787 30.393347 -31.236967 43.583405 -1.567579 2.369879 0.090652 -0.036807 512233.000000 0 0 1
1.096613 30.202787 -31.992547 44.010612 1.534504 2.384634 0.093366 -0.037777 462420.000000 0 0 1
0.716313 29.394037 -33.100117 44.273471 1.546432 2.415281 0.114343 -0.039497 -189550.000000 0 0 1
1.772813 28.943317 33.752195 44.497967 1.509622 0.709771 0.100078 -0.034314 -358383.000000 0 0 1
2.377413 30.055937 33.140133 44.802676 1.491861 0.738185 0.099611 -0.036363 -216678.000000 0 0 1
3.427413 29.731727 32.249167 43.996949 1.456025 0.748094 0.086372 -0.038487 -165450.000000 0 0 1
3.159513 28.922897 30.963988 42.488646 1.461989 0.754288 0.093829 -0.030180 -523935.000000 0 0 1
2.866413 27.542407 31.164378 41.689554 1.467097 0.726454 0.094693 -0.030723 -563360.000000 0 0 1
4.004313 26.762367 31.337308 41.403933 1.422273 0.712289 0.083237 -0.022333 -666127.000000 0 0 1
3.742413 25.316447 31.695458 40.737331 1.424034 0.679249 0.076443 -0.023732 -335249.000000 0 0 1
3.053313 24.681047 30.674518 39.489275 1.447711 0.681258 0.078777 -0.013156 -75783.100000 0 0 1
3.085213 23.273507 30.788878 38.718596 1.439001 0.651465 0.069549 -0.010246 1793.540000 0 0 1
2.203513 22.609807 29.706838 37.397260 1.473645 0.652845 0.068224 -0.003815 164098.000000 0 0 1
0.823913 22.548707 29.991098 37.531173 1.534273 0.645002 0.069166 -0.002777 -579233.000000 0 0 1
0.110413 21.925007 28.981998 36.341083 1.565760 0.647657 0.078062 -0.002156 -539205.000000 0 0 1
-1.210787 21.445607 29.571528 36.549354 -1.514398 0.628203 0.074092 -0.002545 -708177.000000 0 0 1
-2.109587 22.449207 29.953448 37.491683 -1.477100 0.645273 0.082818 -0.006564 -497547.000000 0 0 1
-3.362287 21.906607 30.204138 37.463240 -1.418502 0.633038 0.065576 -0.008807 -533211.000000 0 0 1
-4.534787 22.829927 30.557438 38.412587 -1.374715 0.650954 0.048114 -0.017885 -172532.000000 0 0 1
-4.468487 23.427807 31.799208 39.749454 -1.382326 0.643516 0.059654 -0.017285 -183937.000000 0 0 1
-5.461987 24.405157 31.919687 40.550109 -1.350620 0.664595 0.044134 -0.019319 -139888.000000 0 0 1
-5.549187 25.012787 33.358700 42.062285 -1.352478 0.654950 0.070248 -0.018704 225619.000000 0 0 1
-6.647187 25.889877 33.595626 42.931770 -1.319476 0.672069 0.065377 -0.017824 161656.000000 0 0 1
-6.862287 25.900367 -32.868507 42.405881 -1.311798 2.457659 0.073368 -0.018278 31999.100000 0 0 1
-8.287787 26.338217 -32.458097 42.613579 -1.265938 2.436705 0.098928 -0.007187 22520.500000 0 0 1
-8.540887 27.679067 -32.924147 43.852901 -1.271497 2.420048 0.101321 -0.015349 -515048.000000 0 0 1
-9.739887 28.254727 -32.490277 44.145363 -1.238836 2.397915 0.100714 -0.012807 -225947.000000 0 0 1
-9.917387 28.752957 -31.046957 43.462635 -1.238657 2.366472 0.100781 -0.017578 -16104.700000 0 0 1
-9.170787 29.926147 -30.779777 43.898431 -1.273435 2.347818 0.113752 -0.020481 97953.200000 0 0 1
-9.356687 30.267187 -29.399837 43.220372 -1.270979 2.318874 0.133178 -0.029805 -213585.000000 0 0 1
-8.537787 31.451037 -28.889037 43.550407 -1.305722 2.296079 0.123761 -0.037385 -437869.000000 0 0 1
-7.156187 31.257517 -28.828647 43.119998 -1.345732 2.303078 0.101524 -0.038330 -371210.000000 0 0 1
-6.515987 32.497815 -28.499847 43.712782 -1.372915 2.280989 0.116856 -0.037993 -88448.700000 0 0 1
-5.000087 32.435272 -28.242427 43.297603 -1.417844 2.281393 0.116237 -0.041448 57304.300000 0 0 1
-4.375987 33.721398 -27.930567 44.004528 -1.441749 2.258443 0.117660 -0.046172 272810.000000 0 0 1
-4.082187 -33.165197 -28.976087 44.229042 1.448326 2.285160 0.123634 -0.045632 -368386.000000 0 0 1
-3.169387 -33.507367 -30.164437 45.196039 1.476489 2.301526 0.118051 -0.045448 -106918.000000 0 0 1
-3.694687 33.374850 -31.159617 45.808875 -1.460543 2.318844 0.110311 -0.036979 944813.000000 0 0 1
-4.662387 33.844577 -32.160457 46.920019 -1.433899 2.325992 0.119874 -0.031557 608440.000000 0 0 1
-4.224687 -32.945057 -33.204977 46.965895 1.443258 2.356046 0.087764 -0.034902 -423731.000000 0 0 1
-3.949287 -31.661647 -32.621127 45.631072 1.446703 2.367261 0.092404 -0.038403 392811.000000 0 0 1
-3.573787 -30.708197 -33.667777 45.708692 1.454939 2.398785 0.068369 -0.041197 78969.300000 0 0 1
33.560133 18.336283 12.767638 40.317668 0.500053 1.248573 0.120999 -0.033468 277956.000000 0 0 1
34.850873 17.993283 13.238638 41.395689 0.476597 1.245270 0.114138 -0.037910 230824.000000 0 0 1
34.887703 16.674983 13.780738 41.050160 0.445862 1.228443 0.122413 -0.019771 922516.000000 0 0 1
36.354803 16.400683 14.361238 42.389848 0.423792 1.225166 0.108349 -0.038505 1916140.000000 0 0 1
-37.286251 15.975783 13.451638 42.736830 -0.404800 1.250598 0.095262 -0.010191 469323.000000 0 0 1
37.088533 14.739283 12.780038 41.906266 0.378270 1.260892 0.128574 -0.031629 -611647.000000 0 0 1
-36.281011 13.939883 12.461438 40.815677 -0.366829 1.260532 0.141511 -0.021699 353558.000000 0 0 1
-35.701839 13.266183 13.564238 40.430204 -0.355771 1.228663 0.136159 -0.025431 -35404.200000 0 0 1
-36.477281 12.199683 14.117738 40.972366 -0.322752 1.219019 0.133075 -0.021495 -227862.000000 0 0 1
-35.755158 11.469683 15.262338 40.532997 -0.310414 1.184737 0.176215 -0.034368 -68736.500000 0 0 1
-35.471502 12.317383 16.329638 40.946336 -0.334220 1.160582 0.174868 -0.030702 41303.400000 0 0 1
-34.922824 11.567483 17.364638 40.680965 -0.319856 1.129791 0.168065 -0.020448 -157287.000000 0 0 1
-34.807234 12.466883 18.602738 41.388749 -0.343934 1.104632 0.162777 -0.029354 641822.000000 0 0 1
-36.079491 12.816283 19.160038 42.814644 -0.341321 1.106816 0.169453 -0.042206 807152.000000 0 0 1
-35.836509 13.443383 20.393738 43.369164 -0.358885 1.081238 0.170151 -0.043075 -216145.000000 0 0 1
-37.145241 13.646583 21.159938 44.874726 -0.352077 1.079767 0.179327 -0.058714 14932.500000 0 0 1
36.941033 12.368783 21.526938 44.508828 0.323092 1.065970 0.146337 -0.037381 -458637.000000 0 0 1
35.776593 12.443483 22.249938 43.930224 0.334723 1.039695 0.156934 -0.036737 -581019.000000 0 0 1
35.404153 11.132383 22.996298 43.660207 0.304649 1.016070 0.127121 -0.026176 532229.000000 0 0 1
36.343143 10.931183 24.076538 44.944349 0.292170 1.005464 0.119676 -0.017215 547043.000000 0 0 1
35.987953 11.729683 25.189098 45.466569 0.315076 0.983619 0.108757 -0.012861 -1177000.000000 0 0 1
37.102303 11.700283 26.238988 46.925068 0.305481 0.977415 0.100181 -0.011591 84998.400000 0 0 1
-36.406751 12.441383 25.963208 46.414735 -0.329291 0.977166 0.142141 -0.025877 191066.000000 0 0 1
-35.493437 11.752583 25.077318 45.019763 -0.319757 0.979992 0.132836 -0.032055 -304053.000000 0 0 1
-34.236082 12.502483 24.550368 43.944760 -0.350138 0.978022 0.139633 -0.042712 983188.000000 0 0 1
-33.282151 12.988483 25.529088 43.910552 -0.372076 0.950362 0.120627 -0.037265 412741.000000 0 0 1
-33.801431 13.826083 26.546768 45.148955 -0.388274 0.942235 0.112398 -0.029085 -156160.000000 0 0 1
-32.677661 14.630483 27.339908 45.048319 -0.420957 0.918640 0.105744 -0.013881 1098060.000000 0 0 1
-31.932671 15.542983 26.503428 44.313784 -0.452985 0.929686 0.108462 -0.026641 251991.000000 0 0 1
-31.243381 16.511583 27.259928 44.630537 -0.486173 0.913737 0.094308 -0.016485 -14476.100000 0 0 1
-30.598441 17.626083 26.413268 44.097665 -0.522619 0.928580 0.085838 -0.004032 -164225.000000 0 0 1
-31.555371 18.487783 25.800428 44.757140 -0.529975 0.956414 0.081552 -0.030023 730847.000000 0 0 1
-30.887651 19.593183 25.211638 44.424840 -0.565285 0.967315 0.076423 -0.033557 -19232.200000 0 0 1
-31.924531 20.617483 24.766528 45.361185 -0.573431 0.993232 0.085369 -0.016468 -264295.000000 0 0 1
-32.478811 21.365383 25.840328 46.680566 -0.581857 0.984168 0.082635 -0.024319 40256.200000 0 0 1
-33.626251 22.046383 25.420678 47.570774 -0.580323 1.007027 0.090640 -0.019639 -384692.000000 0 0 1
-33.461691 23.570783 25.520438 48.234420 -0.613680 1.013266 0.097185 -0.022445 -501419.000000 0 0 1
-34.509496 24.215283 24.874458 48.949196 -0.611865 1.037739 0.120421 -0.021907 -278753.000000 0 0 1
-34.394818 25.619383 24.955428 49.619851 -0.640204 1.043808 0.108819 -0.022667 -35154.900000 0 0 1
-35.506485 26.168483 24.070028 50.248046 -0.635133 1.071254 0.120795 -0.020030 -264800.000000 0 0 1
-35.309743 25.935583 22.679438 49.333450 -0.633518 1.093120 0.128332 -0.025017 1055050.000000 0 0 1
-36.461531 26.394583 21.893938 50.054587 -0.626588 1.118090 0.129554 -0.025697 1217290.000000 0 0 1
-36.282051 26.186183 20.342138 49.151866 -0.625168 1.144103 0.152902 -0.035370 127984.000000 0 0 1
-36.334381 24.810683 19.970438 48.317446 -0.599118 1.144702 0.151093 -0.036433 19280.700000 0 0 1
-35.940074 24.587983 18.611438 47.356556 -0.600001 1.166897 0.155964 -0.038910 -133532.000000 0 0 1
-36.268971 23.238683 17.943238 46.662987 -0.569832 1.176100 0.154263 -0.036757 331816.000000 0 0 1
37.111373 23.178283 17.352838 47.070243 0.558283 1.193231 0.137384 -0.037533 -30884.600000 0 0 1
37.152133 22.265483 16.258638 46.264198 0.539909 1.211698 0.125247 -0.038032 615615.000000 0 0 1
35.786173 22.205083 15.499638 44.877106 0.555352 1.218153 0.116206 -0.029341 647153.000000 0 0 1
34.777573 21.438683 16.122938 43.920904 0.552428 1.194917 0.137998 -0.042391 -95452.300000 0 0 1
33.717653 21.202783 15.210838 42.635756 0.561351 1.205996 0.137148 -0.034883 483613.000000 0 0 1
32.547533 20.320483 15.834338 41.508917 0.558119 1.179412 0.126400 -0.032821 1264540.000000 0 0 1
31.789233 20.922683 16.910938 41.644853 0.582096 1.152641 0.120336 -0.031281 516711.000000 0 0 1
30.796643 21.854783 16.484338 41.204346 0.617172 1.159211 0.111448 -0.022584 1189.880000 0 0 1
29.861703 22.405783 17.543838 41.249565 0.643705 1.131492 0.096641 -0.016714 45280.800000 0 0 1
30.553413 23.418483 18.234338 42.596097 0.653963 1.128434 0.057484 -0.012337 -67964.500000 0 0 1
29.757153 24.053983 19.197738 42.809291 0.679807 1.105768 0.032263 0.003156 -71268.800000 0 0 1
30.665023 24.600283 20.300238 44.244968 0.676097 1.094136 0.039002 -0.005918 839925.000000 0 0 1
31.578233 25.617083 19.766038 45.211901 0.681549 1.118328 0.063925 -0.011027 505956.000000 0 0 1
32.434813 26.026283 20.795838 46.495713 0.676214 1.107093 0.065696 -0.013666 100769.000000 0 0 1
33.619653 26.979983 20.388538 47.685354 0.676267 1.129000 0.084460 -0.018304 995993.000000 0 0 1
34.645293 27.291683 21.334038 48.992586 0.667224 1.120253 0.078683 -0.010936 887746.000000 0 0 1
34.213833 28.330983 22.258038 49.685523 0.691616 1.106294 0.043687 0.000080 307406.000000 0 0 1
35.110283 28.417883 23.564058 50.946765 0.680440 1.089957 0.029944 -0.010734 616900.000000 0 0 1
36.216313 29.281083 23.371198 52.107735 0.679906 1.105691 0.075557 -0.015885 -146133.000000 0 0 1
36.978033 29.394683 24.559828 53.241031 0.671637 1.091342 0.081639 -0.015285 525843.000000 0 0 1
-36.434731 30.310083 24.419108 53.314946 -0.693892 1.095034 0.089014 -0.017081 467289.000000 0 0 1
-35.251674 29.751583 23.909008 51.956499 -0.700987 1.092606 0.089000 -0.012909 582089.000000 0 0 1
-34.129639 30.608083 24.183298 51.831639 -0.731054 1.085383 0.095958 -0.011117 165460.000000 0 0 1
-32.687581 30.178883 24.027228 50.562343 -0.745514 1.075605 0.112548 -0.020225 -636427.000000 0 0 1
-32.151641 29.963883 22.760438 49.493432 -0.750192 1.092950 0.094272 -0.015637 333148.000000 0 0 1
-32.744861 28.909183 21.919938 48.871775 -0.723265 1.105688 0.116448 -0.013946 -81385.300000 0 0 1
-32.316231 27.447483 22.249038 47.882384 -0.704111 1.087546 0.109157 -0.015791 -1340600.000000 0 0 1
-31.005931 27.156483 21.909038 46.678134 -0.719310 1.082226 0.085795 -0.021636 -263586.000000 0 0 1
-30.333531 26.146983 22.721738 46.044165 -0.711410 1.054713 0.072569 -0.020995 343073.000000 0 0 1
-29.982511 26.722283 24.155138 46.866854 -0.727967 1.029323 0.064521 -0.014073 -938336.000000 0 0 1
-31.048221 26.815983 25.049898 48.068558 -0.712387 1.022624 0.065105 -0.011485 -264304.000000 0 0 1
-30.592851 27.247283 26.320498 48.693999 -0.727621 0.999731 0.075164 -0.015522 593352.000000 0 0 1
-31.756401 27.476783 27.383748 50.132945 -0.713273 0.992948 0.076129 -0.011959 976333.000000 0 0 1
-32.453071 26.322983 27.887258 50.237440 -0.681478 0.982302 0.066977 -0.009498 391176.000000 0 0 1
-33.368171 26.704583 28.916708 51.601798 -0.674924 0.975950 0.068694 -0.000314 387475.000000 0 0 1
-34.012181 25.408183 29.529088 51.714323 -0.641599 0.963068 0.057334 0.002040 221546.000000 0 0 1
-33.191031 24.756683 30.503788 51.429747 -0.640862 0.935873 0.050382 0.001997 27969.300000 0 0 1
-33.717551 23.532083 30.958378 51.468954 -0.609327 0.925424 0.047378 -0.002158 -254562.000000 0 0 1
-32.859261 22.806383 31.977544 51.209622 -0.606730 0.896377 0.042769 -0.007975 -531778.000000 0 0 1
-31.733891 22.125783 31.443358 49.852531 -0.608864 0.888306 0.042367 -0.004018 832490.000000 0 0 1
-30.830761 21.489783 32.394808 49.616228 -0.608726 0.859380 0.046270 -0.008734 878378.000000 0 0 1
-30.031191 22.413383 33.368396 50.176508 -0.641153 0.843275 0.054359 -0.005321 -731452.000000 0 0 1
-30.821261 23.030983 -33.518217 51.027905 -0.641735 2.287444 0.057328 -0.020274 201470.000000 0 0 1
-30.894041 22.352683 -32.229337 49.928091 -0.626342 2.272494 0.050748 -0.011338 78335.600000 0 0 1
-29.697221 22.665683 -31.258057 48.710617 -0.651912 2.267521 0.068611 -0.020441 335932.000000 0 0 1
-29.452901 24.015283 -30.934147 49.001312 -0.684048 2.254015 0.070758 -0.021182 -144013.000000 0 0 1
-28.355221 24.132683 -30.081567 47.867584 -0.705123 2.250333 0.074967 -0.020229 -297694.000000 0 0 1
-28.460001 25.453683 -29.251217 48.098807 -0.729694 2.224522 0.079451 -0.016075 101716.000000 0 0 1
-28.401431 26.701083 -29.906337 49.132251 -0.754550 2.225205 0.064415 -0.014435 -250309.000000 0 0 1
-29.573201 27.045383 -30.595567 50.419397 -0.740781 2.222852 0.076771 -0.011951 -371728.000000 0 0 1
-29.523541 28.446283 -31.251577 51.550863 -0.766817 2.222105 0.068966 -0.013758 -98289.500000 0 0 1
-29.937441 29.491683 -30.433367 51.886410 -0.777898 2.197574 0.062507 -0.019624 -15625.800000 0 0 1
-29.812971 30.738883 -31.088477 52.916779 -0.800688 2.198759 0.068287 -0.032159 44774.400000 0 0 1
-30.051821 32.083283 -30.284607 53.381704 -0.818081 2.174046 0.070153 -0.029937 336202.000000 0 0 1
-29.070511 32.257783 -29.273597 52.369863 -0.837322 2.163949 0.047066 -0.017554 129591.000000 0 0 1
-29.393361 33.338683 -28.491057 52.793728 -0.848207 2.140838 0.031566 -0.012166 84998.100000 0 0 1
-28.426751 33.458883 -27.266247 51.681962 -0.866533 2.126543 0.031048 -0.010493 214885.000000 0 0 1
-27.126871 -33.865342 -27.372257 51.302718 0.895433 2.133582 0.018077 -0.014330 -279601.000000 0 0 1
-27.050311 -32.447342 -27.591187 50.456148 0.875861 2.149376 0.026544 0.001648 -578081.000000 0 0 1
-27.454211 -31.495642 -26.414097 49.430898 0.853848 2.134552 0.028616 0.002276 558073.000000 0 0 1
-28.872091 -31.364342 -26.310247 50.095395 0.826749 2.123750 0.033855 -0.009889 202125.000000 0 0 1
-29.353871 -30.565042 -25.237747 49.323578 0.805609 2.107932 0.027502 -0.010690 -848479.000000 0 0 1
-30.844891 -30.554942 -25.036787 50.118384 0.780676 2.093879 0.027522 -0.015934 -668395.000000 0 0 1
-31.482041 -29.918942 -26.173367 50.708057 0.759946 2.113155 0.034282 -0.007263 -17731.400000 0 0 1
-32.873721 -29.803042 -26.052657 51.455259 0.736445 2.101704 0.037930 -0.005542 -293979.000000 0 0 1
-33.506411 -28.759242 -27.001757 51.757786 0.709305 2.119632 0.053350 -0.013692 -654940.000000 0 0 1
-34.898437 -28.790742 -26.944697 52.657615 0.689792 2.107954 0.057081 -0.015573 -526401.000000 0 0 1
-35.448951 -27.887142 -27.899697 53.035025 0.666569 2.124759 0.063360 -0.019824 -204852.000000 0 0 1
-36.941831 -28.046942 -28.165287 54.264290 0.649375 2.116523 0.055758 -0.026240 -80677.200000 0 0 1
36.812413 -27.446542 -27.251967 53.396031 -0.640665 2.106416 0.058954 -0.021740 -490279.000000 0 0 1
35.534013 -27.532942 -27.810007 52.859488 -0.659206 2.124818 0.057065 -0.023964 59512.500000 0 0 1
34.397363 -27.028542 -26.838637 51.322832 -0.666006 2.121090 0.076873 -0.019515 419897.000000 0 0 1
34.081613 -27.924442 -25.752817 51.034678 -0.686423 2.099731 0.070093 -0.020047 -287605.000000 0 0 1
33.321163 -27.231642 -24.854787 49.695298 -0.685170 2.094561 0.072201 -0.014382 -388070.000000 0 0 1
33.313333 -27.976742 -23.502687 49.445450 -0.698546 2.066130 0.061338 -0.015800 484691.000000 0 0 1
32.516683 -29.189542 -23.505587 49.617302 -0.731531 2.064326 0.068861 -0.025214 459372.000000 0 0 1
31.943673 -29.548242 -22.226787 48.862326 -0.746463 2.043040 0.075551 -0.028118 196324.000000 0 0 1
32.939793 -29.773742 -21.051187 49.139171 -0.734957 2.013517 0.072497 -0.019641 -671706.000000 0 0 1
34.062403 -30.537242 -21.420687 50.513526 -0.730883 2.008718 0.060485 -0.018387 -97696.600000 0 0 1
35.080633 -30.544942 -20.442987 50.809054 -0.716393 1.984878 0.044344 -0.009862 484526.000000 0 0 1
36.059893 -29.350442 -20.403587 50.774705 -0.683181 1.984328 0.042086 -0.005600 -227343.000000 0 0 1
35.401343 -28.179442 -19.947887 49.449512 -0.672297 1.986025 0.041059 0.006682 415945.000000 0 0 1
36.070253 -27.030842 -20.518687 49.525206 -0.643113 1.997979 0.021328 0.008027 594127.000000 0 0 1
35.157253 -25.780542 -20.342887 48.109270 -0.632722 2.007382 0.030616 0.015194 101243.000000 0 0 1
34.062373 -25.792242 -21.209187 47.700258 -0.648097 2.031563 0.045992 0.005212 -5230.220000 0 0 1
32.994133 -25.012642 -20.659787 46.271718 -0.648661 2.033633 0.059307 -0.001777 575163.000000 0 0 1
31.731293 -24.990442 -21.561587 45.785360 -0.667112 2.061138 0.082409 -0.013264 468753.000000 0 0 1
30.948233 -26.177142 -21.667587 45.962161 -0.702072 2.061699 0.094907 -0.019603 774247.000000 0 0 1
29.621213 -25.978042 -22.170087 45.208270 -0.719966 2.083344 0.099711 -0.026096 910822.000000 0 0 1
28.919113 -27.291542 -22.601087 45.737867 -0.756451 2.087646 0.089907 -0.029080 -40198.300000 0 0 1
28.459313 -28.095742 -21.529887 45.418490 -0.778970 2.064662 0.082421 -0.024771 -113785.000000 0 0 1
27.942013 -29.318742 -21.978787 46.080492 -0.809437 2.067995 0.074031 -0.027477 -97310.900000 0 0 1
27.106513 -30.062542 -20.904287 45.557751 -0.837059 2.047500 0.072500 -0.019779 39964.200000 0 0 1
27.825213 -30.508742 -19.738387 45.767125 -0.831369 2.016706 0.085957 -0.020692 51545.000000 0 0 1
28.583813 -31.685042 -19.966387 47.112980 -0.836809 2.008431 0.091710 -0.014322 205922.000000 0 0 1
29.581013 -31.945742 -18.803587 47.425116 -0.823813 1.978487 0.073592 -0.014600 -41059.800000 0 0 1
29.021913 -32.363342 -17.530487 46.871903 -0.839778 1.954124 0.078433 -0.014400 95469.900000 0 0 1
28.359613 -31.352042 -16.793187 45.488782 -0.835471 1.948914 0.055456 -0.013057 -129992.000000 0 0 1
27.846213 -31.883542 -15.431387 45.056626 -0.852889 1.920361 0.055931 -0.004861 -182345.000000 0 0 1
26.718013 -32.694942 -15.708387 45.050692 -0.885661 1.926961 0.051956 0.001673 -70339.400000 0 0 1
26.245813 -33.300642 -14.525687 44.819315 -0.903324 1.900851 0.045497 -0.003141 -152100.000000 0 0 1
24.741913 -33.640642 -14.515487 44.210343 -0.936655 1.905329 0.048474 -0.004522 187810.000000 0 0 1
23.948913 -32.463342 -14.497787 42.867293 -0.935200 1.915802 0.056543 -0.000270 -262661.000000 0 0 1
22.710613 -32.705442 -13.875387 42.165676 -0.963840 1.906113 0.064590 -0.008944 -244661.000000 0 0 1
-0.450521 -7.239117 -29.019517 29.912207 1.508642 2.896671 0.094180 -0.019319 122795.000000 0 0 1
-0.327821 -8.598417 -28.648257 29.912587 1.532689 2.849810 0.082348 -0.019765 -175379.000000 0 0 1
-0.490921 -9.362317 -29.798267 31.238289 1.518409 2.836776 0.076790 -0.021671 -93682.300000 0 0 1
-0.162121 -10.857717 -29.614757 31.542830 1.555866 2.790142 0.090790 -0.013477 221776.000000 0 0 1
1.189879 -11.109117 -29.274837 31.334396 -1.464095 2.777007 0.057677 -0.023932 33132.100000 0 0 1
1.373779 -12.480617 -29.093457 31.687258 -1.461165 2.734166 0.078020 -0.022860 14908.400000 0 0 1
2.833679 -12.770317 -28.696737 31.537493 -1.352438 2.713898 0.064778 -0.023102 -333467.000000 0 0 1
3.760179 -12.552217 -29.792897 32.547101 -1.279741 2.727242 0.093950 -0.035904 1524290.000000 0 0 1
5.160079 -12.527817 -29.440197 32.408299 -1.180082 2.710274 0.097570 -0.036150 1472280.000000 0 0 1
5.810579 -13.813817 -28.826367 32.489134 -1.172628 2.662171 0.088126 -0.039965 -1000280.000000 0 0 1
5.272979 -14.161317 -27.560807 31.431597 -1.214350 2.640068 0.078442 -0.030519 -304765.000000 0 0 1
5.815679 -15.337117 -27.057147 31.640773 -1.208357 2.596608 0.085026 -0.030943 -54339.300000 0 0 1
5.346279 -16.704017 -27.675157 32.764633 -1.261039 2.576736 0.041380 -0.029464 205312.000000 0 0 1
5.915379 -16.901017 -28.957287 34.046447 -1.234120 2.587775 0.071199 -0.041842 411405.000000 0 0 1
5.246979 -18.051717 -29.462867 34.949332 -1.287927 2.573663 0.040556 -0.031643 127884.000000 0 0 1
5.825679 -18.528817 -30.808017 36.419631 -1.266171 2.579080 0.070505 -0.054251 -383487.000000 0 0 1
7.204979 -18.749917 -30.845507 36.809189 -1.203926 2.564374 0.072104 -0.049348 -529045.000000 0 0 1
7.428479 -19.603817 -31.967547 38.228471 -1.208584 2.561156 0.083119 -0.051755 407899.000000 0 0 1
8.893479 -19.752217 -32.491527 39.050523 -1.147733 2.553568 0.087076 -0.040539 382712.000000 0 0 1
9.433679 -18.518217 -32.856767 38.877832 -1.099636 2.577602 0.084623 -0.042074 18104.500000 0 0 1
10.597579 -18.570817 -33.661127 39.878007 -1.052232 2.575685 0.083279 -0.038073 51055.500000 0 0 1
10.776679 -17.112617 33.706238 39.307620 -1.008788 0.540408 0.073156 -0.029052 -108092.000000 0 0 1
9.782779 -16.757117 32.774269 38.087484 -1.042375 0.534547 0.080992 -0.031065 -301564.000000 0 0 1
9.811379 -15.384017 32.454820 37.232331 -1.003071 0.512169 0.084056 -0.027672 104713.000000 0 0 1
8.793579 -14.858817 31.401218 35.835010 -1.036422 0.502727 0.116830 -0.037548 112112.000000 0 0 1
9.065479 -15.465717 30.147418 35.074751 -1.040611 0.536468 0.130128 -0.036045 374002.000000 0 0 1
8.159479 -15.001017 29.137178 33.772515 -1.072627 0.530116 0.125932 -0.030376 -34850.800000 0 0 1
8.174579 -15.876017 27.791558 33.033958 -1.095299 0.571108 0.096674 -0.030991 -655956.000000 0 0 1
7.584979 -17.147117 27.926938 33.637321 -1.154325 0.591264 0.103344 -0.032375 306342.000000 0 0 1
7.877679 -17.994117 26.854348 33.271641 -1.158141 0.631532 0.081401 -0.030149 -60278.400000 0 0 1
7.462179 -19.407017 27.210878 34.245413 -1.203715 0.652473 0.088725 -0.039559 -138257.000000 0 0 1
8.199779 -19.946317 28.323658 35.599460 -1.180764 0.650765 0.100444 -0.042296 508048.000000 0 0 1
7.653079 -21.108217 28.872398 36.575153 -1.222973 0.660967 0.094814 -0.040337 -292884.000000 0 0 1
8.155479 -21.282717 30.359798 37.962919 -1.204858 0.643964 0.094306 -0.036839 -167277.000000 0 0 1
7.629779 -20.476417 31.419028 38.270779 -1.214120 0.607695 0.120533 -0.046883 187406.000000 0 0 1
7.700179 -19.028817 31.217338 37.361890 -1.186280 0.581682 0.107534 -0.044577 -140746.000000 0 0 1
7.096879 -18.166217 32.402212 37.819049 -1.198364 0.541824 0.113754 -0.037466 209547.000000 0 0 1
5.725679 -18.443717 32.642405 37.927308 -1.269789 0.534238 0.123133 -0.049383 408312.000000 0 0 1
5.011779 -17.481017 33.436758 38.062063 -1.291587 0.498125 0.134194 -0.043047 793914.000000 0 0 1
3.512379 -17.712717 33.751825 38.278752 -1.375039 0.491263 0.136125 -0.057571 302512.000000 0 0 1
3.303079 -18.722717 -33.165937 38.228652 -1.396172 2.621086 0.126056 -0.060075 -335525.000000 0 0 1
1.945579 -18.898917 -32.861067 37.957925 -1.468211 2.617390 0.128061 -0.068155 -271964.000000 0 0 1
1.706979 -20.047917 -31.856687 37.678658 -1.485856 2.578266 0.055752 -0.033957 -606198.000000 0 0 1
0.616079 -20.897417 -32.146297 38.346656 -1.541324 2.564968 0.066409 -0.043455 156753.000000 0 0 1
-0.037221 -21.558617 -31.070887 37.817660 1.569070 2.535004 0.057752 -0.036443 263362.000000 0 0 1
-0.752421 -20.587717 -30.082707 36.460794 1.534266 2.541122 0.061668 -0.036465 -824828.000000 0 0 1
-1.988721 -20.107117 -30.541527 36.620159 1.472211 2.557130 0.079842 -0.045960 -365535.000000 0 0 1
-2.535221 -18.984017 -29.842707 35.459941 1.438037 2.571015 0.105706 -0.034599 181378.000000 0 0 1
-2.027821 -17.580117 -30.274937 35.067711 1.455956 2.612624 0.086974 -0.024400 -273886.000000 0 0 1
-2.599821 -16.566217 -29.475387 33.911606 1.415131 2.624344 0.091750 -0.022628 -130312.000000 0 0 1
-2.460921 -15.284317 -30.039827 33.794344 1.411157 2.665737 0.093580 -0.018407 167778.000000 0 0 1
-3.302421 -14.159617 -29.348427 32.752571 1.341664 2.681620 0.092893 -0.009728 238458.000000 0 0 1
-2.975321 -13.951117 -28.009017 31.432328 1.360677 2.670537 0.080669 -0.019428 -422200.000000 0 0 1
-3.786221 -12.965917 -27.515307 30.651959 1.286683 2.685247 0.060187 -0.016572 -407684.000000 0 0 1
-3.900821 -12.807817 -25.983977 29.230526 1.275156 2.665807 0.070432 -0.019133 -65717.600000 0 0 1
-4.574421 -13.929617 -25.369557 29.301433 1.253497 2.617569 0.084750 -0.018122 278317.000000 0 0 1
-4.637221 -13.699117 -23.963487 27.989611 1.244398 2.598581 0.079610 -0.018377 -227829.000000 0 0 1
-5.709021 -12.751717 -23.385687 27.241321 1.149852 2.603063 0.067098 -0.022397 -784867.000000 0 0 1
-7.023521 -13.171417 -23.447387 27.795612 1.080912 2.574683 0.070117 -0.024741 -1280640.000000 0 0 1
-7.920621 -12.233417 -22.979187 27.210949 0.996210 2.576396 0.051562 -0.023972 453453.000000 0 0 1
-9.428921 -12.577817 -23.216187 28.037428 0.927521 2.546404 0.070802 -0.027341 633260.000000 0 0 1
-10.006421 -13.537917 -22.379387 28.004296 0.934282 2.496662 0.055891 -0.030828 -532503.000000 0 0 1
-11.169021 -14.039517 -22.978587 29.152539 0.898780 2.478706 0.051619 -0.028395 -427595.000000 0 0 1
-11.733021 -15.210517 -22.108787 29.288600 0.913755 2.426237 0.056458 -0.032526 -582485.000000 0 0 1
-11.004021 -16.388717 -22.110987 29.640753 0.979497 2.412780 0.065127 -0.034801 -1019580.000000 0 0 1
-11.691421 -17.580217 -21.869887 30.398114 0.983926 2.373805 0.072705 -0.036347 -273754.000000 0 0 1
-12.351621 -18.256317 -23.084087 31.917561 0.975971 2.379280 0.073471 -0.028332 287176.000000 0 0 1
-13.422221 -17.491817 -23.622987 32.313545 0.916288 2.390664 0.052072 -0.019901 40331.800000 0 0 1
-14.200521 -18.334717 -24.480487 33.721075 0.911789 2.383240 0.038516 -0.024498 636850.000000 0 0 1
-15.479821 -17.709217 -25.103487 34.400963 0.852470 2.388726 0.048636 -0.030895 220925.000000 0 0 1
-16.597921 -17.518517 -24.283787 34.235825 0.812376 2.359314 0.062686 -0.028554 -37380.600000 0 0 1
-17.713321 -17.027117 -24.994287 35.048521 0.765648 2.364755 0.071592 -0.033545 265996.000000 0 0 1
-18.417421 -15.757117 -24.425987 34.411001 0.707710 2.360054 0.077909 -0.030102 -70881.900000 0 0 1
-19.111521 -15.874717 -23.209187 33.998871 0.693144 2.322174 0.081224 -0.027559 133001.000000 0 0 1
-19.494521 -14.592417 -22.803487 33.361265 0.642566 2.323387 0.087190 -0.033365 -550266.000000 0 0 1
-20.185321 -14.503717 -21.504087 32.866864 0.623053 2.284025 0.087268 -0.035088 -483802.000000 0 0 1
-19.406121 -14.633717 -20.339287 31.692740 0.646106 2.267594 0.081733 -0.030239 492653.000000 0 0 1
-20.245121 -14.578117 -19.154387 31.452773 0.624076 2.225581 0.078579 -0.035877 577016.000000 0 0 1
-20.885721 -13.210817 -18.718087 31.001706 0.563995 2.219026 0.089976 -0.042430 -120499.000000 0 0 1
-21.930821 -12.720517 -19.541787 32.010215 0.525606 2.227470 0.085470 -0.046666 134103.000000 0 0 1
-22.607721 -11.854417 -18.629387 31.602062 0.482939 2.201235 0.083816 -0.043453 177933.000000 0 0 1
-24.154021 -11.771417 -18.776587 32.780226 0.453475 2.180717 0.087593 -0.039595 303868.000000 0 0 1
-24.480721 -11.016917 -19.918787 33.428075 0.422874 2.209145 0.080716 -0.042978 -1283780.000000 0 0 1
-25.822301 -11.022217 -20.173487 34.572389 0.403436 2.193846 0.095247 -0.037872 -1349900.000000 0 0 1
-26.410611 -9.942217 -21.158287 35.270967 0.360039 2.214145 0.100065 -0.031035 -139750.000000 0 0 1
-26.334711 -10.221817 -22.562087 36.153151 0.370249 2.244737 0.081723 -0.031709 332261.000000 0 0 1
-27.007651 -9.222917 -23.304887 36.845531 0.329076 2.255576 0.058896 -0.029545 -265564.000000 0 0 1
-27.259041 -9.585617 -24.798687 38.077739 0.338143 2.280046 0.063707 -0.020694 92808.700000 0 0 1
-26.155381 -9.568717 -25.671997 37.877641 0.350717 2.315510 0.051475 -0.028327 314556.000000 0 0 1
-25.271611 -10.696817 -25.770617 37.645729 0.400408 2.324791 0.057013 -0.020523 652562.000000 0 0 1
-24.214621 -10.516117 -26.924187 37.707405 0.409711 2.366033 0.069164 -0.025182 416625.000000 0 0 1
-24.759021 -10.382317 -28.235337 38.961980 0.397062 2.381380 0.068935 -0.013281 -123256.000000 0 0 1
-23.733521 -10.316417 -29.201097 39.018105 0.410039 2.416441 0.074265 -0.006309 108848.000000 0 0 1
-24.074521 -10.924517 -30.582797 40.425674 0.425992 2.428770 0.086148 -0.008888 548265.000000 0 0 1
-25.056851 -10.162117 -31.315177 41.373357 0.385292 2.429341 0.080823 -0.018924 515027.000000 0 0 1
-24.496821 -9.084317 -32.009557 41.318649 0.355116 2.457037 0.077217 -0.022777 2175.090000 0 0 1
-25.596011 -8.015717 -32.341697 42.016578 0.303489 2.449225 0.072549 -0.025630 35379.500000 0 0 1
-26.563411 -8.348817 -33.325377 43.426930 0.304522 2.445556 0.092020 -0.029752 1169410.000000 0 0 1
-27.723061 -9.100217 -32.966357 44.024570 0.317173 2.417072 0.099277 -0.029573 34893.800000 0 0 1
-28.788951 -8.360617 -32.150607 43.958675 0.282636 2.391143 0.082233 -0.017706 -751265.000000 0 0 1
-30.051721 -8.986517 -32.200007 44.952240 0.290571 2.369305 0.087490 -0.021573 19052.700000 0 0 1
-30.966371 -8.418517 -31.304967 44.830665 0.265445 2.343807 0.082626 -0.012659 447527.000000 0 0 1
-32.474281 -8.780517 -31.403297 46.020033 0.264069 2.321814 0.086871 -0.016353 483922.000000 0 0 1
-32.677511 -10.138417 -31.026407 46.187067 0.300840 2.307372 0.082042 -0.017406 -281089.000000 0 0 1
-34.019121 -10.530217 -30.948867 47.180699 0.300184 2.286256 0.067260 -0.016797 -536295.000000 0 0 1
-34.304516 -12.043717 -30.954437 47.749640 0.337639 2.276100 0.079336 -0.023310 -598921.000000 0 0 1
-35.627570 -12.484817 -30.934517 48.807158 0.337054 2.257267 0.061822 -0.022703 -553019.000000 0 0 1
-35.715189 -13.928417 -31.021887 49.314632 0.371844 2.251140 0.060152 -0.021169 51607.800000 0 0 1
-37.088621 -14.445017 -30.579567 50.192970 0.371399 2.225898 0.055251 -0.028944 -69418.700000 0 0 1
-37.144061 -14.528517 -29.156627 49.405141 0.372845 2.202046 0.053986 -0.027509 13389.200000 0 0 1
37.165003 -15.756017 -28.591827 49.466980 -0.400979 2.187070 0.046933 -0.028369 -100831.000000 0 0 1
37.288743 -15.747617 -27.055587 48.687191 -0.399595 2.160004 0.079116 -0.036041 584804.000000 0 0 1
-35.988200 -15.565317 -26.774717 47.479628 0.408216 2.169921 0.067475 -0.039858 531055.000000 0 0 1
-35.809018 -15.455217 -25.373317 46.529074 0.407449 2.147569 0.107652 -0.045996 -705017.000000 0 0 1
-34.422110 -15.205317 -24.828287 45.083557 0.415956 2.154019 0.106486 -0.042045 -693738.000000 0 0 1
-33.455321 -16.223517 -25.010187 44.810383 0.451520 2.162931 0.097720 -0.038416 -62987.900000 0 0 1
-32.288901 -15.881617 -24.299887 43.419850 0.457114 2.164759 0.105981 -0.020823 313655.000000 0 0 1
-31.058331 -16.804217 -24.566487 43.017600 0.495949 2.178617 0.084299 -0.025911 364763.000000 0 0 1
-30.990371 -17.992317 -23.803487 43.020141 0.526016 2.157129 0.093909 -0.038214 33752.300000 0 0 1
-31.481991 -19.115717 -24.532387 44.253411 0.545693 2.158392 0.084295 -0.038176 -70035.700000 0 0 1
-31.254911 -20.475717 -23.840287 44.322497 0.579966 2.138719 0.077595 -0.040325 226987.000000 0 0 1
-29.891741 -20.837717 -23.724887 43.480994 0.608781 2.147947 0.080615 -0.028087 -44092.100000 0 0 1
-29.814961 -22.071917 -23.073387 43.686183 0.637262 2.127231 0.079198 -0.030319 216825.000000 0 0 1
-28.400741 -22.744117 -23.085187 43.090867 0.675246 2.136172 0.066026 -0.025209 1292450.000000 0 0 1
-27.321061 -21.983117 -22.446287 41.635725 0.677553 2.140178 0.054500 -0.027462 747831.000000 0 0 1
-27.426791 -21.566617 -21.052087 40.749702 0.666352 2.113694 0.078316 -0.038615 -720944.000000 0 0 1
-27.218551 -22.699717 -20.038187 40.714317 0.695120 2.085372 0.062742 -0.027714 -32391.100000 0 0 1
-27.392881 -22.258417 -18.690687 39.939314 0.682354 2.057797 0.082622 -0.030812 -31784.200000 0 0 1
-27.311341 -23.375817 -17.789287 40.109810 0.707910 2.030313 0.065531 0.001300 -85049.800000 0 0 1
-27.661071 -22.984617 -16.344387 39.504005 0.693323 1.997355 0.076606 -0.004648 346493.000000 0 0 1
-28.982661 -22.532017 -16.099687 40.085987 0.660827 1.984091 0.089808 -0.019322 270037.000000 0 0 1
-28.833081 -21.322517 -15.388387 39.023054 0.636757 1.976147 0.088768 -0.026777 1151680.000000 0 0 1
-30.263951 -20.783917 -15.000887 39.659860 0.601781 1.958689 0.087809 -0.017016 1032070.000000 0 0 1
-31.054411 -20.240717 -16.036587 40.388553 0.577627 1.979105 0.090665 -0.019773 -541975.000000 0 0 1
-32.220921 -19.669717 -15.556687 40.830087 0.548078 1.961685 0.101268 -0.017650 -739732.000000 0 0 1
-33.047711 -18.931617 -16.620187 41.554638 0.520222 1.982269 0.093044 -0.034484 -512402.000000 0 0 1
-33.978501 -19.801917 -17.223387 42.933664 0.527660 1.983582 0.059172 -0.022918 -614402.000000 0 0 1
-34.633021 -19.114317 -18.269487 43.572668 0.504309 2.003457 0.062067 -0.022128 -28752.100000 0 0 1
-35.838413 -19.945117 -18.811687 45.122933 0.507842 2.000827 0.040110 -0.016236 441726.000000 0 0 1
-36.943671 -20.085417 -17.931187 45.714180 0.497976 1.973868 0.032753 -0.005200 137415.000000 0 0 1
-36.763461 -20.998717 -16.818387 45.556079 0.518962 1.948923 0.052695 -0.006740 -542295.000000 0 0 1
37.213583 -22.396017 -17.015287 46.647105 -0.541759 1.944178 0.028339 0.026181 -962287.000000 0 0 1
35.839413 -22.367317 -17.033387 45.551034 -0.557951 1.954051 0.031976 0.010718 -1267510.000000 0 0 1
35.420393 -23.694617 -17.043387 45.896799 -0.589585 1.951250 0.029761 0.009424 -90509.300000 0 0 1
33.987263 -23.878617 -16.509987 44.697898 -0.612452 1.949125 0.030582 0.004391 71833.900000 0 0 1
32.950993 -23.665417 -17.453587 44.163872 -0.622837 1.977082 0.028974 -0.001695 -367839.000000 0 0 1
31.724833 -23.946917 -16.852887 43.173368 -0.646586 1.971812 0.048161 -0.007765 -184052.000000 0 0 1
30.474543 -23.724417 -17.740887 42.500410 -0.661493 2.001410 0.065420 -0.014341 284049.000000 0 0 1
30.221243 -22.308617 -17.972887 41.641597 -0.635891 2.017072 0.052130 -0.010064 763936.000000 0 0 1
28.860113 -22.188117 -18.404687 40.791558 -0.655435 2.038893 0.081167 -0.025694 587446.000000 0 0 1
34.961633 29.804983 -18.894387 49.675453 0.705947 1.960978 0.078530 -0.004999 -381353.000000 0 0 1
33.829363 29.610083 -19.683287 49.077638 0.718987 1.983475 0.062078 -0.019130 -397669.000000 0 0 1
33.993173 28.783083 -20.810187 49.163661 0.702593 2.007863 0.070169 -0.007569 -498836.000000 0 0 1
32.922473 28.927983 -21.869987 48.979728 0.720905 2.033659 0.079880 -0.016626 -696927.000000 0 0 1
31.703723 28.269983 -21.589287 47.648875 0.728206 2.041026 0.066860 -0.000946 844507.000000 0 0 1
30.638363 28.647283 -22.500987 47.599060 0.751826 2.063170 0.092646 0.007958 933460.000000 0 0 1
29.855263 29.966283 -22.306087 47.821296 0.787254 2.056066 0.066850 0.002459 -795460.000000 0 0 1
30.632113 31.120183 -22.452787 49.101118 0.793302 2.045727 0.096233 -0.006297 -144326.000000 0 0 1
29.849573 32.299883 -22.713887 49.499496 0.824804 2.047521 0.082755 -0.009964 -349714.000000 0 0 1
30.622473 33.621983 -22.597187 50.781950 0.832053 2.031953 0.082111 -0.012488 95984.600000 0 0 1
31.092993 33.874583 -21.275387 50.664619 0.828187 2.004160 0.083925 -0.017523 504719.000000 0 0 1
32.384363 33.288683 -21.071987 50.999137 0.799167 1.996743 0.082948 -0.015680 27641.200000 0 0 1
32.786553 33.329383 -19.569087 50.682886 0.793608 1.967205 0.076597 -0.017869 -120593.000000 0 0 1
32.946973 -33.199242 -19.001687 50.485214 -0.789212 1.956684 0.071945 -0.012226 172952.000000 0 0 1
32.848623 -33.192842 -17.610087 49.909037 -0.790610 1.931405 0.052941 -0.017616 -709380.000000 0 0 1
33.053223 -31.810642 -17.020587 48.929877 -0.766244 1.926080 0.048367 0.001980 1598060.000000 0 0 1
34.380033 -31.186042 -17.132887 49.478194 -0.736723 1.924390 0.063269 -0.012542 1285870.000000 0 0 1
35.310633 -31.720842 -16.240587 50.167811 -0.731895 1.900460 0.066221 -0.015591 -56902.400000 0 0 1
36.715273 -31.063942 -16.135387 50.728005 -0.702212 1.894496 0.060860 -0.009704 643827.000000 0 0 1
-37.124131 -31.303942 -17.273287 51.541287 0.700547 1.912545 0.060325 -0.015457 -682732.000000 0 0 1
-35.889799 -30.673042 -17.085887 50.207974 0.707185 1.918035 0.053454 -0.005163 201994.000000 0 0 1
-34.842421 -31.174742 -18.153787 50.153951 0.729899 1.941167 0.069283 -0.016174 -714256.000000 0 0 1
-34.670250 -32.589342 -18.079387 50.901430 0.754470 1.933907 0.068445 -0.023930 240234.000000 0 0 1
-33.732601 -33.126542 -19.011387 50.957717 0.776334 1.953125 0.088554 -0.022264 629226.000000 0 0 1
-32.292971 -32.562942 -19.093587 49.676415 0.789561 1.965310 0.071918 -0.026717 -1584360.000000 0 0 1
-32.170301 -31.313442 -19.792087 49.063088 0.771902 1.986027 0.068776 -0.019778 280934.000000 0 0 1
-30.836091 -30.937342 -20.142287 48.100887 0.787037 2.002866 0.075006 -0.017289 971423.000000 0 0 1
-30.015871 -32.010042 -20.997987 48.646795 0.817538 2.017108 0.070089 -0.013020 -642464.000000 0 0 1
-30.599011 -32.411342 -22.157987 49.777213 0.814153 2.032130 0.065594 -0.007564 -202591.000000 0 0 1
-29.769331 -33.438142 -22.678287 50.185925 0.843377 2.039674 0.065672 -0.010453 -23483.700000 0 0 1
-30.356701 33.654783 -23.914287 51.245163 -0.836876 2.056312 0.061377 -0.019287 -595475.000000 0 0 1
-31.533731 33.061883 -23.493687 51.375262 -0.809051 2.045748 0.071274 -0.036257 -273237.000000 0 0 1
-32.370891 32.277783 -24.370187 51.803820 -0.783958 2.060577 0.076104 -0.032597 1390780.000000 0 0 1
-33.294241 33.039683 -25.422717 53.352053 -0.781561 2.067476 0.071346 -0.037276 241634.000000 0 0 1
-32.568191 33.532583 -26.511797 53.740083 -0.799987 2.086715 0.051290 -0.030165 -379809.000000 0 0 1
-33.354891 -33.364442 -27.165957 54.440095 0.785541 2.093248 0.060189 -0.030814 34342.800000 0 0 1
-32.751131 -32.852942 -28.513497 54.451555 0.786950 2.121925 0.050573 -0.030096 -50818.800000 0 0 1
-32.698881 -33.714842 -29.626587 55.530550 0.800694 2.133552 0.055719 -0.026178 533101.000000 0 0 1
-33.834621 -33.605642 -30.501557 56.608000 0.782003 2.139833 0.060370 -0.026659 424600.000000 0 0 1
-33.797671 33.269583 -31.679567 57.032820 -0.777524 2.159715 0.077184 -0.029402 144557.000000 0 0 1
-32.961631 33.780783 -32.714777 57.427058 -0.797671 2.176907 0.083567 -0.036208 -3638.900000 0 0 1
-33.230121 33.233283 33.885198 57.938749 -0.785446 0.946107 0.074214 -0.047276 -453833.000000 0 0 1
-32.256821 33.698283 32.746202 56.994653 -0.807250 0.958744 0.095024 -0.043486 657837.000000 0 0 1
-30.901681 33.303183 32.888676 56.086369 -0.822784 0.944197 0.091238 -0.040825 259643.000000 0 0 1
-30.666601 31.892883 32.586339 54.949666 -0.804998 0.935990 0.092792 -0.044574 -35345.700000 0 0 1
-29.139761 31.538783 32.693274 53.969163 -0.824914 0.920054 0.095376 -0.037454 482601.000000 0 0 1
-28.661051 31.543183 -33.843857 54.422742 -0.833234 2.241924 0.095153 -0.042730 1258390.000000 0 0 1
-27.239461 31.289783 -33.728967 53.466643 -0.854490 2.253433 0.091395 -0.041792 1321500.000000 0 0 1
-26.519031 29.992383 33.671969 52.312555 -0.846784 0.871514 0.086513 -0.035380 -387674.000000 0 0 1
-26.689371 29.013683 -33.262937 51.580415 -0.827101 2.271656 0.086691 -0.027703 107192.000000 0 0 1
-26.208811 27.824483 -33.746977 50.989823 -0.815291 2.294064 0.067117 -0.021736 -363106.000000 0 0 1
-26.139861 26.698583 -32.673067 49.635027 -0.795972 2.289310 0.078581 -0.031968 -683165.000000 0 0 1
-25.095841 26.781283 -31.759477 48.535581 -0.817876 2.284125 0.077002 -0.028833 -472837.000000 0 0 1
-25.145611 27.732083 -30.754277 48.447865 -0.834273 2.258535 0.064738 -0.025836 -351535.000000 0 0 1
-23.871421 27.782383 -29.907337 47.287993 -0.860969 2.255510 0.067936 -0.022878 -526489.000000 0 0 1
-22.719621 28.206383 -30.585607 47.405279 -0.892724 2.272074 0.063762 -0.026977 -996138.000000 0 0 1
-21.583021 28.000283 -29.825317 46.253563 -0.914107 2.271587 0.046326 -0.026503 -343257.000000 0 0 1
-21.127721 29.240883 -28.969917 46.267330 -0.945102 2.247392 0.029739 -0.012755 -494396.000000 0 0 1
-20.800221 30.408983 -29.693387 47.318629 -0.970879 2.249160 0.033323 -0.012210 -58968.100000 0 0 1
-20.363121 31.341783 -28.756727 47.158386 -0.994624 2.226592 0.038870 -0.019954 -392216.000000 0 0 1
-20.014421 32.738483 -29.402847 48.341625 -1.022079 2.224626 0.050825 -0.012099 570891.000000 0 0 1
-18.805921 32.714683 -30.173227 48.314974 -1.049077 2.245301 0.061053 -0.012843 86870.400000 0 0 1
-18.623121 -33.819642 -30.771557 49.370816 1.067447 2.243719 0.060919 -0.004404 -295470.000000 0 0 1
-17.193921 -33.642942 -31.313247 49.071355 1.098331 2.262846 0.071523 -0.005339 -785380.000000 0 0 1
-16.329721 -33.493642 -30.221547 47.977346 1.117161 2.252237 0.096249 -0.020517 -880936.000000 0 0 1
-14.992321 -33.318042 -30.586617 47.648743 1.147962 2.267794 0.118582 -0.022419 -107024.000000 0 0 1
-14.210421 33.174683 -30.792617 47.441341 -1.166090 2.277154 0.127024 -0.026977 -559778.000000 0 0 1
-14.071321 32.571883 -29.512767 46.151197 -1.163005 2.264618 0.132995 -0.035726 69598.000000 0 0 1
-13.385321 31.317683 -29.599567 45.123147 -1.166891 2.286267 0.115029 -0.034075 226180.000000 0 0 1
-13.381921 30.623383 -28.262387 43.767909 -1.158819 2.272779 0.097441 -0.039409 -138044.000000 0 0 1
-12.330621 31.103083 -27.476947 43.294671 -1.193359 2.258351 0.119016 -0.038802 -503449.000000 0 0 1
-12.284421 30.634983 -26.118827 42.090406 -1.189434 2.240229 0.090615 -0.037732 -415082.000000 0 0 1
-11.080421 31.064583 -25.307917 41.572523 -1.228174 2.225300 0.124206 -0.049607 -270011.000000 0 0 1
-9.885021 30.409183 -25.637177 40.984105 -1.256504 2.246619 0.137620 -0.041855 123453.000000 0 0 1
-8.757321 30.884083 -24.875387 40.611600 -1.294495 2.230040 0.151121 -0.047184 518897.000000 0 0 1
-7.404021 30.321383 -25.317597 40.189382 -1.331298 2.252295 0.126091 -0.043348 -391177.000000 0 0 1
-7.154521 28.997483 -25.009287 38.955174 -1.328899 2.267902 0.124887 -0.058200 -509508.000000 0 0 1
-5.924521 28.631783 -25.569687 38.841830 -1.366755 2.289358 0.118540 -0.063601 -343595.000000 0 0 1
-5.528221 27.279783 -24.895787 37.343647 -1.370855 2.300525 0.138069 -0.041981 -616872.000000 0 0 1
-6.377921 26.216483 -25.109167 36.857185 -1.332153 2.320273 0.140760 -0.037623 -561260.000000 0 0 1
-5.918121 25.080983 -24.461187 35.530684 -1.339074 2.330150 0.139463 -0.048659 -151986.000000 0 0 1
-6.787621 23.808883 -24.628587 34.921368 -1.293076 2.353584 0.117843 -0.045229 50643.800000 0 0 1
-6.585021 23.076283 -25.831357 35.258138 -1.292825 2.392982 0.127586 -0.038039 -139099.000000 0 0 1
-7.374721 21.948283 -25.745087 34.625469 -1.246644 2.409131 0.106787 -0.041867 -498496.000000 0 0 1
-7.102621 20.989483 -26.933817 34.877444 -1.244502 2.453158 0.096232 -0.037030 -157557.000000 0 0 1
-5.843021 20.372683 -26.937467 34.275563 -1.291487 2.474961 0.110950 -0.052146 -834493.000000 0 0 1
-5.792521 19.184483 -26.065347 32.878564 -1.277563 2.486147 0.101233 -0.045576 456740.000000 0 0 1
-4.483121 18.311183 -26.143647 32.231786 -1.330690 2.516850 0.101864 -0.052953 664655.000000 0 0 1
-4.285621 17.741383 -27.419347 32.938485 -1.333776 2.554295 0.099083 -0.054474 640762.000000 0 0 1
-3.202121 16.775283 -27.477327 32.352236 -1.382182 2.585488 0.094380 -0.050065 511355.000000 0 0 1
-3.044621 16.361783 -28.996117 33.432805 -1.386819 2.620539 0.101154 -0.041472 24271.400000 0 0 1
-2.255421 17.381183 -29.597727 34.397934 -1.441755 2.606950 0.102107 -0.045740 232132.000000 0 0 1
-1.878921 17.192583 -30.926577 35.434000 -1.461942 2.631694 0.096336 -0.046285 43827.000000 0 0 1
-0.894021 18.287083 -31.449437 36.390709 -1.521947 2.614387 0.099295 -0.032963 -418872.000000 0 0 1
0.352779 18.302883 -30.818347 35.845369 1.551524 2.605592 0.103121 -0.041441 -788094.000000 0 0 1
1.132479 19.299283 -31.396107 36.870860 1.512184 2.589665 0.093130 -0.017908 -148564.000000 0 0 1
0.905879 20.743983 -30.776587 37.125890 1.527155 2.548076 0.100957 -0.022500 -15575.600000 0 0 1
1.433779 20.854683 -29.439697 36.106360 1.502153 2.524148 0.117742 -0.054194 -212815.000000 0 0 1
1.389679 22.163483 -29.080407 36.589906 1.508177 2.489418 0.120365 -0.055412 83253.200000 0 0 1
2.531679 22.423683 -28.063517 36.010997 1.458370 2.464351 0.132621 -0.057043 339831.000000 0 0 1
3.781679 22.521383 -28.743817 36.711317 1.404433 2.470220 0.109427 -0.052158 782440.000000 0 0 1
4.889479 22.731883 -27.810247 36.249901 1.358931 2.445231 0.095456 -0.049303 778472.000000 0 0 1
5.120879 24.234283 -27.450327 36.973562 1.362552 2.407489 0.108655 -0.049658 -559431.000000 0 0 1
5.945579 24.700883 -28.505567 38.184432 1.334587 2.413618 0.087319 -0.047120 210338.000000 0 0 1
6.085779 26.096883 -28.526267 39.138624 1.341691 2.387440 0.084978 -0.054413 -516595.000000 0 0 1
7.067679 26.487583 -29.630757 40.367386 1.310042 2.395029 0.089315 -0.041403 -678869.000000 0 0 1
8.401479 26.156983 -29.369787 40.216377 1.260010 2.389549 0.072444 -0.038445 -435831.000000 0 0 1
9.244579 26.860483 -30.254227 41.500193 1.239324 2.387677 0.082534 -0.038754 154776.000000 0 0 1
10.736079 26.854783 -29.843317 41.557987 1.190477 2.371883 0.088735 -0.038510 64046.300000 0 0 1
11.573379 27.563583 -30.722377 42.866754 1.173271 2.369848 0.107001 -0.043356 -34770.800000 0 0 1
12.872679 27.657083 -30.166547 42.902688 1.135178 2.350599 0.102318 -0.046441 168797.000000 0 0 1
13.833679 28.629983 -30.868997 44.316380 1.120688 2.341388 0.106406 -0.045682 -669563.000000 0 0 1
13.452679 29.940283 -30.722347 44.958400 1.148510 2.323138 0.099629 -0.043101 469530.000000 0 0 1
14.267779 30.867583 -31.462647 46.327911 1.137822 2.317372 0.127733 -0.046445 267872.000000 0 0 1
13.604179 32.282583 -31.430237 47.064834 1.171971 2.302055 0.128134 -0.053161 12783.100000 0 0 1
12.543579 32.344883 -32.340957 47.428581 1.200845 2.321136 0.099414 -0.052697 508969.000000 0 0 1
11.538679 33.289583 -31.890527 47.522028 1.237140 2.306445 0.103451 -0.042421 1025760.000000 0 0 1
10.411679 33.574683 -32.950417 48.180830 1.270095 2.323878 0.084933 -0.042512 574536.000000 0 0 1
10.821079 -33.282442 -33.920947 48.738561 -1.256448 2.340577 0.077118 -0.029510 101369.000000 0 0 1
9.715779 -32.997942 33.151848 47.773481 -1.284452 0.803852 0.079991 -0.032045 -213645.000000 0 0 1
10.032679 -32.066242 31.948853 46.364078 -1.267571 0.810569 0.085798 -0.029649 -62060.800000 0 0 1
9.956279 -30.642042 32.107150 45.485506 -1.256635 0.787137 0.071145 -0.029886 -87165.600000 0 0 1
10.375779 -29.991442 30.906178 44.298253 -1.237727 0.798637 0.089886 -0.025974 -751074.000000 0 0 1
9.689079 -28.616142 30.790058 43.136869 -1.244324 0.775922 0.084652 -0.036344 1400030.000000 0 0 1
8.260679 -28.684542 30.529498 42.697681 -1.290400 0.774150 0.059435 -0.026796 1117680.000000 0 0 1
7.528579 -28.881642 31.722628 43.556329 -1.315801 0.754940 0.054071 -0.016208 -548384.000000 0 0 1
6.005679 -28.597242 31.581278 43.026126 -1.363795 0.746600 0.067554 -0.019836 456972.000000 0 0 1
5.128779 -29.502742 30.918748 43.042829 -1.398676 0.769404 0.085407 -0.032019 149046.000000 0 0 1
5.385379 -29.946242 29.581918 42.436653 -1.392863 0.799474 0.087051 -0.043712 -502567.000000 0 0 1
4.934879 -28.946742 28.422248 40.866747 -1.401938 0.801700 0.076626 -0.046656 437553.000000 0 0 1
3.504279 -28.902942 28.391928 40.666467 -1.450142 0.797964 0.116279 -0.046637 783498.000000 0 0 1
3.122579 -28.360442 27.110998 39.358244 -1.461135 0.810927 0.129903 -0.051300 -302339.000000 0 0 1
1.655879 -28.657542 26.758368 39.242921 -1.513079 0.820487 0.121273 -0.052737 -200246.000000 0 0 1
1.542679 -29.951442 26.168178 39.802541 -1.519336 0.853367 0.133770 -0.058127 -55413.600000 0 0 1
0.895379 -30.765842 27.070428 40.989593 -1.541702 0.849416 0.173767 -0.059562 -807106.000000 0 0 1
1.260479 -32.273442 26.832538 41.989867 -1.531760 0.877567 0.171329 -0.055200 647689.000000 0 0 1
2.636679 -32.652142 26.931238 42.407617 -1.490221 0.882715 0.153782 -0.054281 742937.000000 0 0 1
3.358879 -32.388142 25.734578 41.503521 -1.467459 0.901980 0.144538 -0.062482 -642950.000000 0 0 1
4.859279 -32.184342 25.958338 41.632676 -1.420945 0.897574 0.139148 -0.041827 -75479.600000 0 0 1
5.562879 -31.903142 24.745978 40.756834 -1.398164 0.918313 0.128642 -0.058116 -486550.000000 0 0 1
6.884279 -31.531042 24.973138 40.807567 -1.355836 0.912243 0.096760 -0.052130 -359536.000000 0 0 1
7.786179 -31.459542 23.703828 40.152195 -1.328174 0.939305 0.090412 -0.047804 1005050.000000 0 0 1
9.077379 -30.837942 23.850628 40.027864 -1.284524 0.932472 0.081429 -0.022740 1161140.000000 0 0 1
9.797279 -30.670142 22.630538 39.354612 -1.261601 0.958141 0.070616 -0.014707 -61330.800000 0 0 1
10.982179 -29.712242 22.763838 39.007921 -1.216752 0.947679 0.041030 -0.014050 -587274.000000 0 0 1
12.132079 -30.300042 23.301548 40.102893 -1.189947 0.950785 0.050243 -0.015732 -296241.000000 0 0 1
13.190679 -29.351042 23.271028 39.711691 -1.148432 0.944683 0.047820 -0.016531 -245786.000000 0 0 1
14.420979 -29.844142 24.017958 40.932869 -1.120671 0.943739 0.058364 -0.012599 -694471.000000 0 0 1
14.362179 -29.580242 25.412508 41.557893 -1.118789 0.912846 0.054405 -0.012738 467534.000000 0 0 1
15.481079 -28.898742 25.975038 41.827069 -1.078998 0.900765 0.063172 -0.015187 -82537.200000 0 0 1
-11.332821 -13.706317 25.547518 31.128309 0.879907 0.608132 0.069396 -0.038013 -301086.000000 0 0 1
-9.991421 -13.767817 25.140358 30.354882 0.943024 0.594882 0.063669 -0.033888 -712424.000000 0 0 1
-9.236821 -14.355317 26.125598 31.208025 0.999045 0.578756 0.066525 -0.036237 -238509.000000 0 0 1
-7.707621 -14.358317 25.871738 30.576388 1.078140 0.562106 0.099316 -0.034323 162421.000000 0 0 1
-7.295321 -15.551917 25.262088 30.549254 1.132177 0.597171 0.106220 -0.031064 -34681.400000 0 0 1
-7.166321 -15.357617 23.831158 29.242719 1.134200 0.618165 0.112124 -0.030988 -41182.900000 0 0 1
-6.348421 -16.484517 23.107048 29.085691 1.203188 0.652699 0.119055 -0.027640 457695.000000 0 0 1
-7.030321 -17.778617 22.998008 29.906738 1.194230 0.693535 0.131463 -0.036280 65402.500000 0 0 1
-7.427721 -18.433717 24.191918 31.308495 1.187756 0.687720 0.131850 -0.038330 -364312.000000 0 0 1
-8.249021 -19.686617 23.917838 32.057327 1.174005 0.728617 0.123928 -0.037262 -463535.000000 0 0 1
-9.559421 -19.419217 23.510118 31.956442 1.113355 0.744108 0.110351 -0.037129 -295335.000000 0 0 1
-10.260621 -20.687317 23.316478 32.816209 1.110365 0.780564 0.095170 -0.033752 1094810.000000 0 0 1
-11.825121 -20.587217 23.396928 33.332915 1.049420 0.792711 0.080962 -0.030126 702285.000000 0 0 1
-12.180121 -20.397717 24.765668 34.318516 1.032489 0.764626 0.075863 -0.031776 674775.000000 0 0 1
-13.599321 -20.198817 24.854648 34.794931 0.978234 0.775147 0.057134 -0.015140 784222.000000 0 0 1
-14.130321 -20.191417 26.312698 36.051593 0.960192 0.752676 0.057913 -0.011638 -456671.000000 0 0 1
-13.961321 -21.457017 26.919228 37.147906 0.993954 0.760270 0.053704 -0.014797 919018.000000 0 0 1
-12.939921 -21.381317 27.971538 37.510121 1.026564 0.729202 0.061402 -0.017159 909953.000000 0 0 1
-12.628121 -22.752817 28.642498 38.698227 1.064112 0.737503 0.072802 -0.017168 636177.000000 0 0 1
-13.744321 -23.320117 29.361748 39.935529 1.038225 0.744792 0.054033 -0.015760 540073.000000 0 0 1
-13.351421 -24.496217 30.012528 40.976541 1.071769 0.748909 0.072829 -0.015456 618820.000000 0 0 1
-14.441321 -25.055977 31.029258 42.416607 1.047939 0.750225 0.063894 -0.027301 758036.000000 0 0 1
-14.505021 -24.342517 32.244160 42.925978 1.033418 0.720983 0.109807 -0.033793 -122008.000000 0 0 1
-15.574221 -24.891317 32.975260 44.153163 1.011702 0.727502 0.085511 -0.034662 -310352.000000 0 0 1
-15.560921 -24.296817 -33.468757 44.188633 1.001163 2.430128 0.095117 -0.040704 68725.600000 0 0 1
-15.623821 -22.890117 -33.322507 43.341097 0.971873 2.447826 0.111301 -0.041118 -127112.000000 0 0 1
-16.898721 -22.327317 -33.528627 43.683460 0.922917 2.445785 0.092351 -0.042755 -998288.000000 0 0 1
-17.159021 -20.869817 -33.262707 42.853109 0.882669 2.459417 0.096994 -0.038454 -462225.000000 0 0 1
-17.222221 -20.557717 -31.885187 41.664010 0.873457 2.442293 0.090320 -0.034979 211563.000000 0 0 1
-17.240721 -19.168917 -31.717087 40.873750 0.838307 2.459059 0.064659 -0.033805 -134953.000000 0 0 1
-16.977021 -18.843017 -30.255957 39.480393 0.837445 2.443943 0.068725 -0.034066 -134645.000000 0 0 1
-18.005321 -19.341817 -29.433657 39.555501 0.821169 2.409998 0.085582 -0.033553 -81228.600000 0 0 1
-17.770621 -19.207517 -28.043557 38.355766 0.824237 2.390792 0.073959 -0.028958 -31007.800000 0 0 1
-16.797721 -20.226017 -27.407077 37.978982 0.877732 2.376962 0.071408 -0.027509 1003670.000000 0 0 1
-15.401221 -19.987517 -27.665737 37.444511 0.914277 2.402153 0.075263 -0.029720 902286.000000 0 0 1
-14.623621 -21.077317 -27.126117 37.335369 0.964238 2.384088 0.070705 -0.033474 207576.000000 0 0 1
-13.111921 -21.018417 -27.382737 36.925745 1.013039 2.406192 0.115550 -0.035848 -412921.000000 0 0 1
-12.505621 -20.010117 -26.564827 35.531470 1.012222 2.415301 0.116208 -0.041915 437771.000000 0 0 1
-11.085721 -20.130817 -26.535777 35.103995 1.067428 2.427853 0.103549 -0.048420 508085.000000 0 0 1
-10.448421 -21.125917 -25.562407 34.769391 1.111495 2.396756 0.130641 -0.046535 -624674.000000 0 0 1
-10.473721 -22.514717 -25.907867 35.886333 1.135379 2.377402 0.133462 -0.043059 176002.000000 0 0 1
-9.809921 -23.343717 -24.938287 35.539863 1.172966 2.348576 0.158844 -0.035889 359562.000000 0 0 1
-10.038021 -24.852317 -25.221367 36.803762 1.186927 2.325803 0.153896 -0.032681 150764.000000 0 0 1
-9.362021 -25.284857 -26.408467 37.740940 1.216186 2.345816 0.154516 -0.034384 197345.000000 0 0 1
-9.955321 -26.375427 -27.160607 39.146777 1.209882 2.337569 0.156156 -0.032965 -152045.000000 0 0 1
-9.719821 -27.771687 -26.531817 39.619173 1.234130 2.304562 0.177327 -0.027063 -199954.000000 0 0 1
-10.432321 -27.960967 -25.310547 39.131481 1.213690 2.274188 0.134649 -0.033085 51322.700000 0 0 1
-10.222921 -29.251067 -24.749587 39.656968 1.234577 2.244765 0.164860 -0.041348 135930.000000 0 0 1
-11.060821 -29.421917 -23.408587 39.191235 1.211203 2.210916 0.166638 -0.043438 299871.000000 0 0 1
-11.047521 -28.328787 -22.426087 37.782235 1.198962 2.206274 0.133441 -0.045681 199548.000000 0 0 1
-11.973121 -27.289517 -22.780787 37.510500 1.157342 2.223476 0.123006 -0.033139 -19349.200000 0 0 1
-11.987221 -26.089667 -21.826987 36.066349 1.140101 2.220801 0.128131 -0.028798 70626.100000 0 0 1
-12.293821 -26.400317 -20.439187 35.579139 1.134988 2.182754 0.104463 -0.026831 158384.000000 0 0 1
-12.229821 -25.235607 -19.658887 34.247281 1.119524 2.182213 0.099721 -0.019143 -157880.000000 0 0 1
-12.863821 -25.421737 -18.254087 33.837173 1.102347 2.140602 0.117755 -0.023024 361161.000000 0 0 1
-14.255421 -25.702077 -18.301687 34.623194 1.064397 2.127742 0.131179 -0.026962 30221.700000 0 0 1
-14.715121 -26.121937 -17.070387 34.500558 1.057781 2.088385 0.128636 -0.029783 922168.000000 0 0 1
-16.274521 -26.373817 -17.012887 35.353594 1.017919 2.072843 0.131053 -0.035922 631996.000000 0 0 1
-16.992221 -25.120767 -16.923387 34.730240 0.976071 2.079770 0.113982 -0.024014 706938.000000 0 0 1
-18.375021 -25.208367 -16.575287 35.324826 0.940920 2.059209 0.130829 -0.023735 1064760.000000 0 0 1
-19.336521 -25.844147 -17.667987 36.796450 0.928450 2.071627 0.120648 -0.020820 -526842.000000 0 0 1
-19.337121 -27.241267 -17.974387 37.935333 0.953492 2.064416 0.132500 -0.034500 38122.500000 0 0 1
-19.718621 -28.115377 -16.864087 38.258278 0.959167 2.027281 0.124876 -0.038057 -74880.300000 0 0 1
-21.209721 -28.473887 -16.662487 39.220568 0.930578 2.009582 0.103806 -0.026666 125098.000000 0 0 1
-21.745121 -29.383727 -17.570387 40.558257 0.933700 2.018852 0.087983 -0.022506 -5296.940000 0 0 1
-23.081321 -29.717067 -17.219487 41.380698 0.910423 1.999974 0.080978 -0.016992 203691.000000 0 0 1
-23.711621 -30.580677 -18.266087 42.790989 0.911249 2.011822 0.065037 -0.018558 -338547.000000 0 0 1
-23.111421 -31.853597 -18.297287 43.400232 0.943127 2.005999 0.062523 -0.022987 -194722.000000 0 0 1
-23.726621 -32.656307 -19.232087 44.713086 0.942469 2.015424 0.044469 -0.001328 -372845.000000 0 0 1
-23.177221 33.754355 -19.325687 45.277171 -0.969091 2.011782 0.027843 -0.008754 -186122.000000 0 0 1
-23.528321 32.984350 -18.202687 44.417193 -0.951188 1.993044 0.052353 -0.010607 -138648.000000 0 0 1
-22.836121 31.764637 -18.105287 43.107795 -0.947487 2.004242 0.042767 -0.013478 -449503.000000 0 0 1
-23.695621 30.577157 -17.726587 42.552048 -0.911521 2.000483 0.068967 -0.016280 -146782.000000 0 0 1
-24.097521 30.558237 -16.329387 42.203616 -0.903060 1.968084 0.069113 -0.013754 -104384.000000 0 0 1
-24.753821 29.373567 -15.963487 41.597968 -0.870541 1.964657 0.075026 -0.009262 316658.000000 0 0 1
-23.833021 28.082137 -15.823387 40.087390 -0.867063 1.976562 0.080983 -0.014210 603235.000000 0 0 1
-23.226721 27.547567 -17.030887 39.854737 -0.870293 2.012327 0.056197 -0.007949 253005.000000 0 0 1
-22.724221 26.253127 -16.839187 38.589831 -0.857326 2.022349 0.061865 -0.012340 11936.500000 0 0 1
-21.905421 25.700317 -18.027987 38.280047 -0.864945 2.061164 0.051621 -0.009593 -251933.000000 0 0 1
-21.464821 24.331147 -18.053687 37.130565 -0.847906 2.078557 0.078899 -0.019618 700509.000000 0 0 1
-20.683021 23.916287 -19.196987 36.990545 -0.857767 2.116442 0.060784 -0.013184 430609.000000 0 0 1
-19.233221 24.429497 -19.397287 36.646580 -0.903850 2.128580 0.042275 -0.015988 -466013.000000 0 0 1
-18.356321 23.741537 -18.517587 35.263523 -0.912629 2.123653 0.050121 -0.018524 43016.500000 0 0 1
-17.218721 24.529207 -18.195487 35.060548 -0.958751 2.116446 0.069966 -0.026668 -126611.000000 0 0 1
-17.256721 25.748157 -17.218387 35.457507 -0.980343 2.077853 0.085434 -0.030705 -654203.000000 0 0 1
-18.074621 26.779617 -17.733087 36.855151 -0.977088 2.072770 0.044595 -0.019932 49682.600000 0 0 1
-17.776521 28.005647 -17.103387 37.320862 -1.005218 2.046855 0.065879 -0.031136 -60957.100000 0 0 1
-18.917621 29.088297 -17.213487 38.733829 -0.994174 2.031306 0.046524 -0.020085 423535.000000 0 0 1
-19.072821 29.689697 -18.452787 39.821551 -0.999779 2.052610 0.018365 -0.021090 233845.000000 0 0 1
-19.711421 28.839417 -19.398487 39.956894 -0.971238 2.077715 0.019500 -0.007967 -511139.000000 0 0 1
-19.826321 29.471177 -20.753987 41.138318 -0.978604 2.099591 0.031355 -0.019316 106667.000000 0 0 1
-21.000621 30.239607 -20.933287 42.351651 -0.963789 2.087795 0.036695 -0.016908 299111.000000 0 0 1
-21.146021 30.365707 -22.312487 43.209691 -0.962505 2.113411 0.038203 -0.014769 294227.000000 0 0 1
-21.913821 31.673147 -22.729787 44.721885 -0.965545 2.103945 0.034076 -0.017253 -246289.000000 0 0 1
-21.077221 32.770726 -22.768087 45.128211 -0.999236 2.099622 0.020542 -0.015391 -323659.000000 0 0 1
-21.507621 33.794349 -23.601987 46.493973 -1.004022 2.103234 0.037075 -0.009433 76595.400000 0 0 1
-20.513521 -32.810777 -23.555187 45.301197 1.012048 2.117610 0.055412 -0.009807 393127.000000 0 0 1
-20.644221 -32.006087 -22.389987 44.180142 0.997938 2.102252 0.058548 -0.016362 272748.000000 0 0 1
-19.889921 -32.565357 -21.310587 43.706436 1.022496 2.080117 0.068997 -0.027786 -140522.000000 0 0 1
-19.516921 -31.535517 -20.254187 42.256729 1.016605 2.070668 0.102810 -0.034271 207296.000000 0 0 1
-18.513121 -30.603117 -20.669387 41.309926 1.026751 2.094798 0.129052 -0.040807 360234.000000 0 0 1
-18.254421 -29.650447 -19.642087 39.977300 1.018946 2.084414 0.121158 -0.035562 -567958.000000 0 0 1
-16.916021 -28.977297 -19.841887 38.981226 1.042398 2.104832 0.141813 -0.038803 -850876.000000 0 0 1
-15.737121 -29.680687 -19.671687 38.930392 1.083271 2.100531 0.140298 -0.045267 -900299.000000 0 0 1
-14.619921 -28.864797 -19.827187 37.947806 1.101965 2.120560 0.124694 -0.043284 -861491.000000 0 0 1
-13.348621 -29.479597 -20.428087 38.269297 1.145609 2.133882 0.156800 -0.050247 -385935.000000 0 0 1
-12.568421 -30.186217 -19.526387 38.084809 1.176264 2.109132 0.151053 -0.045748 512485.000000 0 0 1
-11.683221 -29.377347 -18.680387 36.721697 1.192279 2.104472 0.124917 -0.037070 470597.000000 0 0 1
-10.784221 -30.192357 -17.681787 36.613159 1.227736 2.074800 0.124766 -0.019833 172645.000000 0 0 1
-11.467021 -30.643087 -16.506487 36.646357 1.212716 2.038039 0.148886 -0.043489 35051.300000 0 0 1
-12.107821 -31.885657 -16.598887 37.931748 1.207889 2.023723 0.164459 -0.047737 -267854.000000 0 0 1
-13.145221 -32.138497 -15.516487 38.032108 1.182540 1.991041 0.157965 -0.052428 -310483.000000 0 0 1
-12.575821 -32.454167 -14.254087 37.611212 1.201117 1.959496 0.145259 -0.041895 430202.000000 0 0 1
-13.608121 -32.902717 -13.353587 38.027464 1.178633 1.929602 0.142359 -0.027018 255315.000000 0 0 1
-13.159621 -33.659547 -12.103487 38.113451 1.198105 1.893956 0.118606 -0.027342 -37834.700000 0 0 1
-12.542721 -32.649807 -11.301787 36.756770 1.204020 1.883335 0.093913 -0.016653 -56223.400000 0 0 1
-12.378021 -33.275137 -10.036587 36.894217 1.214667 1.846305 0.084521 -0.021006 -4187.740000 0 0 1
-11.091921 -32.743387 -9.311987 35.803257 1.244176 1.833909 0.076911 -0.024822 757448.000000 0 0 1
-9.962621 -33.199557 -10.043887 36.088005 1.279263 1.852837 0.069629 -0.024580 131050.000000 0 0 1
-8.708421 -32.598327 -9.812687 35.139385 1.309749 1.853810 0.055040 -0.027887 14571.800000 0 0 1
-7.486921 -33.207267 -10.450187 35.608749 1.349044 1.868654 0.066400 -0.036930 -387656.000000 0 0 1
-7.072521 33.449950 -9.823387 35.572723 -1.362429 1.850582 0.062816 -0.019888 784975.000000 0 0 1
-5.831821 32.972198 -10.419687 35.067732 -1.395736 1.872482 0.072776 -0.019142 1375670.000000 0 0 1
-4.982421 32.008650 -9.522987 33.764855 -1.416377 1.856714 0.083572 -0.022737 -39762.500000 0 0 1
-4.272421 32.669442 -8.530387 34.034005 -1.440757 1.824141 0.091397 -0.023987 21393.000000 0 0 1
-3.367821 31.791357 -7.872087 32.924191 -1.465255 1.812232 0.087710 -0.027433 311619.000000 0 0 1
-2.880721 32.163750 -6.459187 32.932149 -1.481470 1.768212 0.094365 -0.023466 232424.000000 0 0 1
-2.031921 33.341204 -6.303387 33.992606 -1.509928 1.757310 0.078973 -0.020561 542318.000000 0 0 1
-1.697721 33.603349 -4.970187 34.011322 -1.520317 1.717455 0.084546 -0.025502 270774.000000 0 0 1
-0.658721 32.673028 -4.276787 32.958331 -1.550638 1.700927 0.084772 -0.039843 -53112.700000 0 0 1
0.686679 32.912242 -4.638687 33.244618 1.549935 1.710785 0.084791 -0.029967 -72199.700000 0 0 1
1.614079 32.139777 -3.929587 32.419318 1.520618 1.692306 0.077497 -0.033399 76615.400000 0 0 1
3.065779 32.166538 -4.432487 32.614906 1.475774 1.707122 0.061917 -0.021566 267061.000000 0 0 1
3.818579 33.302116 -3.998287 33.757944 1.456630 1.689515 0.063526 -0.017561 -339324.000000 0 0 1
5.204679 33.125167 -4.147387 33.787071 1.414949 1.693857 0.069208 -0.015125 55857.100000 0 0 1
5.936479 -33.415427 -3.670287 34.136543 -1.394974 1.678522 0.062886 -0.011200 31571.100000 0 0 1
5.589679 -32.229757 -4.410787 33.006921 -1.399072 1.704829 0.060572 -0.015242 -220792.000000 0 0 1
6.127879 -31.061897 -3.884587 31.898000 -1.376018 1.692881 0.055393 -0.023306 -115651.000000 0 0 1
6.062379 -29.773167 -4.728187 30.749792 -1.369923 1.725172 0.055989 -0.023409 -260985.000000 0 0 1
6.838779 -29.621467 -5.887887 30.965585 -1.343900 1.762104 0.063152 -0.023476 -333003.000000 0 0 1
6.603779 -28.473317 -6.709387 29.989258 -1.342897 1.796432 0.073062 -0.017473 30886.900000 0 0 1
7.186279 -27.115947 -6.172487 28.723106 -1.311732 1.787382 0.064911 -0.019575 801531.000000 0 0 1
6.424579 -26.659737 -5.018287 27.878307 -1.334321 1.751790 0.057257 -0.024894 162238.000000 0 0 1
6.826779 -25.365157 -4.637287 26.673968 -1.307886 1.745535 0.056221 -0.024121 -247493.000000 0 0 1
6.011679 -24.753017 -3.475687 25.708609 -1.332543 1.706407 0.059550 -0.023630 -273008.000000 0 0 1
4.824279 -24.178517 -3.928687 24.966156 -1.373855 1.728814 0.067872 -0.029849 -511058.000000 0 1 0
4.065479 -23.632517 -2.844487 24.147777 -1.400435 1.688865 0.059967 -0.027818 369825.000000 0 1 0
2.753279 -22.957317 -3.291387 23.354918 -1.451436 1.712196 0.068696 -0.028023 455716.000000 0 1 0
1.745379 -23.841617 -3.796987 24.205086 -1.497719 1.728314 0.071079 -0.023869 -84995.600000 0 1 0
0.703179 -23.053917 -4.332487 23.468021 -1.540304 1.756474 0.065024 -0.024065 17037.600000 0 1 0
-15.229121 23.184683 18.352538 33.260656 -0.989613 0.986300 0.005117 -0.016325 -148919.000000 0 0 1
-15.573621 22.587583 19.610538 33.724023 -0.967168 0.950224 0.001350 -0.016431 303506.000000 0 0 1
-15.378721 23.541883 20.692238 34.912662 -0.992140 0.936407 0.011178 -0.019224 -1082510.000000 0 0 1
-15.462221 22.856183 22.088038 35.346382 -0.976016 0.895790 0.033465 -0.019167 247068.000000 0 0 1
-14.338621 21.987783 22.370038 34.488798 -0.992934 0.865030 0.024982 -0.016691 2361550.000000 0 0 1
-12.992621 22.561383 22.344538 34.308928 -1.048302 0.861533 0.023092 -0.020159 876196.000000 0 0 1
-12.660921 23.753283 23.268698 35.580186 -1.081085 0.857964 0.046447 -0.021914 -1039030.000000 0 0 1
-12.474321 23.396183 24.618648 36.181043 -1.080960 0.822448 0.041876 -0.016117 92093.800000 0 0 1
-12.257521 24.499183 25.463788 37.401353 -1.106890 0.821908 0.085548 -0.028551 172474.000000 0 0 1
-11.669521 23.995783 26.857708 37.859104 -1.118156 0.782133 0.083787 -0.028060 1158760.000000 0 0 1
-10.311621 23.514483 26.817478 37.127315 -1.157528 0.763658 0.055269 -0.022906 734203.000000 0 0 1
-9.970621 22.950183 28.035138 37.577827 -1.160952 0.728678 0.042343 -0.024203 -443805.000000 0 0 1
-8.536521 22.344083 28.090778 36.894742 -1.205861 0.705363 0.034047 -0.026096 1457780.000000 0 0 1
-7.473021 23.267083 28.477738 37.525787 -1.260020 0.709198 0.038788 -0.017897 913820.000000 0 0 1
-7.175321 24.241983 27.448838 37.317524 -1.283025 0.744321 0.039042 -0.015677 -1612670.000000 0 0 1
-6.134521 25.221383 27.863908 38.080807 -1.332202 0.749977 0.041838 -0.019169 -784509.000000 0 0 1
-4.820521 24.731783 27.868758 37.570815 -1.378298 0.735096 0.050526 -0.017721 -753357.000000 0 0 1
-3.922721 25.730383 28.219938 38.390171 -1.419506 0.745008 0.068909 -0.015978 761593.000000 0 0 1
-2.407021 25.293883 28.177668 37.941471 -1.475920 0.733760 0.075253 -0.019214 603274.000000 0 0 1
-1.854921 25.221683 26.922778 36.937920 -1.497384 0.754133 0.073122 -0.026262 -354776.000000 0 0 1
-0.509421 24.820983 27.067798 36.728822 -1.550275 0.742229 0.086617 -0.015806 165511.000000 0 0 1
0.154779 24.643083 25.690488 35.599250 1.564516 0.764602 0.089597 -0.027759 238053.000000 0 0 1
-0.346021 23.407783 25.057228 34.291525 -1.556015 0.751432 0.084267 -0.021430 496902.000000 0 0 1
0.167879 23.231383 23.710158 33.194832 1.563570 0.775212 0.090603 -0.023318 229718.000000 0 0 1
-0.290521 21.875383 23.084528 31.804279 -1.557516 0.758555 0.069064 -0.022378 573589.000000 0 0 1
0.554279 20.750683 23.409628 31.287517 1.544091 0.725437 0.078263 -0.024141 166419.000000 0 0 1
0.104179 19.653183 22.674238 30.006324 1.565495 0.714152 0.067274 -0.020960 147864.000000 0 0 1
1.057479 18.416883 22.557038 29.139660 1.513440 0.685503 0.064363 -0.013182 736809.000000 0 0 1
2.224779 18.676983 21.761138 28.763283 1.452236 0.712761 0.069558 -0.020086 627942.000000 0 0 1
3.167479 17.593483 21.944938 28.304484 1.392667 0.683580 0.062601 -0.016926 375394.000000 0 0 1
4.504779 17.891683 21.221038 28.120060 1.324142 0.715663 0.083065 -0.021618 275507.000000 0 0 1
5.501779 18.341683 22.127838 29.263084 1.279376 0.713358 0.085297 -0.018732 211899.000000 0 0 1
6.653979 18.833783 21.406138 29.278141 1.231184 0.750819 0.093782 -0.034895 875425.000000 0 0 1
7.778879 19.382983 22.339238 30.581898 1.189148 0.751783 0.117204 -0.041263 62064.900000 0 0 1
7.287679 20.408583 23.256768 31.788327 1.227820 0.750111 0.099054 -0.034462 266381.000000 0 0 1
7.065179 21.682683 22.699538 32.176459 1.255801 0.787710 0.104277 -0.041937 886338.000000 0 0 1
5.645379 22.290983 23.030838 32.545010 1.322753 0.784614 0.083788 -0.028667 859238.000000 0 0 1
5.634179 23.677083 22.733138 33.303810 1.337182 0.819484 0.077512 -0.034477 183502.000000 0 0 1
4.381379 24.179783 23.167658 33.772751 1.391541 0.814837 0.077133 -0.024228 10216.900000 0 0 1
4.054679 25.588483 22.595538 34.376870 1.413646 0.853580 0.081551 -0.023018 -7759.100000 0 0 1
3.865179 25.722483 21.180438 33.543951 1.421648 0.887409 0.078153 -0.030365 -92093.400000 0 0 1
2.786979 25.001583 20.624738 32.530389 1.459783 0.884063 0.101727 -0.037376 -204988.000000 0 0 1
2.355379 25.450083 19.211738 31.974136 1.478510 0.926229 0.096229 -0.030652 -401376.000000 0 0 1
1.681879 26.659183 19.181238 32.885568 1.507792 0.948045 0.107769 -0.034371 -176267.000000 0 0 1
1.359579 27.099783 17.867738 32.488501 1.520669 0.988467 0.115523 -0.025803 353237.000000 0 0 1
0.221979 28.147983 17.938938 33.379090 1.562910 1.003409 0.103261 -0.015265 129785.000000 0 0 1
0.765279 29.357483 18.408238 34.659929 1.544735 1.010886 0.112727 -0.015498 -132000.000000 0 0 1
-0.112421 30.442083 18.340438 35.540184 -1.567103 1.028566 0.094596 -0.013016 -212623.000000 0 0 1
0.403779 31.808383 18.965238 37.035341 1.558103 1.033186 0.093403 -0.007653 41549.300000 0 0 1
0.546279 31.613283 20.359238 37.605806 1.553518 0.998712 0.116260 -0.015281 86467.700000 0 0 1
1.223679 32.750983 20.888438 38.864522 1.533451 1.003365 0.113817 -0.022372 37472.200000 0 0 1
1.695379 32.615083 22.347638 39.573158 1.518862 0.970706 0.129574 -0.038847 526220.000000 0 0 1
0.596879 32.486483 23.267628 39.963862 1.552425 0.949344 0.132369 -0.029178 494751.000000 0 0 1
1.015479 32.442983 24.633828 40.748052 1.539506 0.921608 0.142514 -0.037478 287771.000000 0 0 1
-0.148621 32.057183 25.597048 41.023090 -1.566160 0.896988 0.136839 -0.032036 348114.000000 0 0 1
-1.211121 32.980183 25.741598 41.854380 -1.534090 0.908375 0.137014 -0.029822 836095.000000 0 0 1
-2.143921 32.699883 26.824338 42.348835 -1.505326 0.884839 0.139010 -0.031428 640667.000000 0 0 1
-1.618721 33.085083 28.265738 43.545320 -1.521909 0.864381 0.153092 -0.037415 296045.000000 0 0 1
-0.519421 32.234083 28.655858 43.133097 -1.554684 0.844161 0.162222 -0.037575 741675.000000 0 0 1
0.089479 32.788983 29.821538 44.322111 1.568067 0.832760 0.152790 -0.041788 -281559.000000 0 0 1
1.354479 32.010383 30.255868 44.067184 1.528508 0.814015 0.135248 -0.038674 -43029.200000 0 0 1
2.586179 32.298083 29.645418 43.917027 1.490895 0.829788 0.125401 -0.045735 53170.700000 0 0 1
2.764679 31.801383 28.351438 42.693974 1.484079 0.844558 0.123097 -0.044244 -1625940.000000 0 0 1
4.178279 31.555783 27.907218 42.332472 1.439153 0.850990 0.090744 -0.039473 -1012690.000000 0 0 1
4.736079 30.434083 28.538358 41.989304 1.416417 0.823500 0.088390 -0.041776 746751.000000 0 0 1
6.045079 30.113283 28.028068 41.580348 1.372685 0.831091 0.090856 -0.049506 843483.000000 0 0 1
6.840679 29.038683 28.787578 41.457986 1.339443 0.803239 0.086235 -0.035850 33507.200000 0 0 1
7.246279 29.404783 30.076768 42.682101 1.329179 0.788839 0.086215 -0.040580 -36331.600000 0 0 1
7.845479 28.340083 30.748278 42.546074 1.300726 0.763088 0.078734 -0.032491 -125495.000000 0 0 1
7.831479 28.408583 32.312941 43.732205 1.301805 0.739387 0.094793 -0.043731 -509053.000000 0 0 1
6.529579 28.364883 32.841984 43.883914 1.344539 0.725175 0.095535 -0.045617 -190775.000000 0 0 1
6.437879 28.130583 -33.644507 44.325261 1.345814 2.432629 0.109875 -0.047540 -92896.700000 0 0 1
6.413879 26.600983 -33.306257 43.105184 1.334198 2.453839 0.097113 -0.041077 -383526.000000 0 0 1
7.615579 25.921883 -33.561777 43.085194 1.285047 2.463807 0.087077 -0.038969 -150081.000000 0 0 1
7.544479 24.566383 -33.244567 42.019371 1.272833 2.483520 0.082724 -0.033963 -423443.000000 0 0 1
8.947479 23.972483 -33.325937 42.016132 1.213570 2.486793 0.094344 -0.032523 -681737.000000 0 0 1
9.351879 23.809683 33.174430 41.891543 1.196533 0.656862 0.082406 -0.026070 -407169.000000 0 0 1
10.579679 23.140683 33.122507 41.767466 1.141980 0.655043 0.085719 -0.036396 -632083.000000 0 0 1
10.710679 21.651683 33.483210 41.287278 1.111413 0.624969 0.092513 -0.036989 -1475660.000000 0 0 1
10.303279 20.860783 32.401709 39.889855 1.112035 0.622747 0.090189 -0.038174 59760.500000 0 0 1
9.922779 19.532483 32.789864 39.435449 1.100758 0.589026 0.085615 -0.034297 282840.000000 0 0 1
8.611679 19.451883 33.624193 39.788479 1.154015 0.564094 0.095960 -0.041135 -359609.000000 0 0 1
8.700579 20.004383 -32.966427 39.530503 1.160542 2.557022 0.095991 -0.031991 689039.000000 0 0 1
7.358779 20.118483 -32.453937 38.886540 1.220140 2.558167 0.098527 -0.035014 871564.000000 0 0 1
7.501579 20.680483 -31.008817 38.019768 1.222820 2.524557 0.108746 -0.038244 -58125.300000 0 0 1
7.751579 22.067583 -31.107507 38.919689 1.232995 2.496883 0.108404 -0.038624 -52298.200000 0 0 1
7.999279 22.640783 -29.832957 38.296198 1.231173 2.463875 0.078830 -0.034890 -604520.000000 0 0 1
9.462979 22.772883 -29.429507 38.395938 1.176968 2.444130 0.083590 -0.031901 -392060.000000 0 0 1
10.161879 21.584183 -29.174737 37.686947 1.130779 2.456142 0.102004 -0.037344 -207410.000000 0 0 1
11.528279 21.823483 -28.880197 37.989885 1.084804 2.434429 0.115468 -0.034826 898437.000000 0 0 1
12.321179 20.421583 -28.768637 37.369599 1.027924 2.449388 0.121620 -0.041275 463111.000000 0 0 1
12.396279 19.581983 -29.911587 37.839461 1.006433 2.482399 0.124859 -0.036696 711096.000000 0 0 1
11.147079 18.949483 -30.260247 37.403513 1.039060 2.513282 0.130631 -0.035048 586056.000000 0 0 1
11.270779 17.860483 -31.402787 37.843921 1.007861 2.549541 0.134918 -0.046447 -135152.000000 0 0 1
12.036079 16.670083 -31.111587 37.291952 0.945446 2.557605 0.131823 -0.037270 296853.000000 0 0 1
12.250979 15.784883 -32.212947 37.906767 0.910786 2.586391 0.115287 -0.030426 251006.000000 0 0 1
13.382579 16.204883 -33.218757 39.308745 0.880499 2.577498 0.097345 -0.016388 -59764.300000 0 0 1
13.163979 17.475983 -33.922227 40.366047 0.925211 2.568753 0.103210 -0.023034 179113.000000 0 0 1
13.708879 17.638683 32.648212 39.559603 0.910110 0.600078 0.113271 -0.025316 -221604.000000 0 0 1
12.675079 17.120183 31.650708 38.151351 0.933494 0.592389 0.116530 -0.032647 -764700.000000 0 0 1
13.022779 17.503083 30.317378 37.350958 0.931128 0.623758 0.117567 -0.030533 805452.000000 0 0 1
12.084679 17.193583 29.240898 36.009566 0.958154 0.623172 0.104627 -0.031395 964006.000000 0 0 1
10.586879 17.580883 29.329068 35.796140 1.028774 0.610544 0.074108 -0.029350 -121218.000000 0 0 1
9.884579 16.828283 30.276028 36.021297 1.039709 0.572584 0.086052 -0.022264 -475310.000000 0 0 1
8.507679 17.117983 30.162878 35.710014 1.109550 0.564864 0.076735 -0.023289 -337118.000000 0 0 1
7.710579 16.354083 31.177768 36.041119 1.130226 0.525524 0.078441 -0.022990 -659944.000000 0 0 1
7.951079 16.608183 32.568336 37.413205 1.124297 0.514571 0.082489 -0.019745 77686.700000 0 0 1
7.400579 15.680283 33.520915 37.739787 1.129825 0.477359 0.100771 -0.024443 -165420.000000 0 0 1
7.730879 15.978883 -32.899947 37.383120 1.120177 2.646816 0.106741 -0.030494 -59887.600000 0 0 1
6.728979 16.752783 -32.260587 36.968640 1.188857 2.631394 0.093597 -0.027924 268649.000000 0 0 1
6.699179 16.569283 -30.844927 35.648698 1.186577 2.616439 0.103270 -0.038605 -438891.000000 0 0 1
5.594479 17.489183 -30.326957 35.452701 1.261200 2.597158 0.093554 -0.040309 -999018.000000 0 0 1
5.515679 17.560283 -28.932397 34.290958 1.266455 2.574996 0.099281 -0.042415 198529.000000 0 0 1
4.613179 18.575583 -28.532337 34.357356 1.327375 2.550725 0.095069 -0.046017 -404440.000000 0 0 1
3.138579 18.241683 -28.594787 34.062758 1.400409 2.567110 0.112066 -0.049600 -2473080.000000 0 0 1
2.615579 17.339583 -27.593477 32.694072 1.421081 2.575476 0.116874 -0.053903 1084940.000000 0 0 1
1.210579 17.061783 -27.812537 32.651296 1.499962 2.590218 0.122926 -0.052667 1329110.000000 0 0 1
0.253079 18.273483 -27.622467 33.120762 1.556948 2.557101 0.130378 -0.059924 -1351590.000000 0 0 1
0.018979 18.578983 -26.260817 32.168454 1.569775 2.525864 0.136880 -0.064677 -35184.900000 0 0 1
-0.540321 19.898583 -26.210867 32.912840 -1.543649 2.492069 0.156875 -0.053583 -170049.000000 0 0 1
-0.987821 20.181283 -24.723287 31.929624 -1.521888 2.456413 0.146743 -0.051800 -496592.000000 0 0 1
-2.177421 19.526683 -24.408387 31.333717 -1.459745 2.463836 0.136166 -0.044612 -614604.000000 0 0 1
-2.513521 19.829083 -23.045687 30.505966 -1.444709 2.427135 0.131640 -0.042844 320555.000000 0 0 1
-3.662721 18.940083 -22.498187 29.636306 -1.379770 2.432791 0.114088 -0.034769 250449.000000 0 0 1
-4.975321 19.307983 -22.862187 30.335319 -1.318601 2.424393 0.119525 -0.029503 -186927.000000 0 0 1
-5.868121 18.368483 -22.290887 29.474050 -1.261577 2.428418 0.109378 -0.037994 1324870.000000 0 0 1
-7.406021 18.770683 -22.250987 30.038210 -1.194995 2.404991 0.116506 -0.026652 1314670.000000 0 0 1
-7.810321 19.659083 -21.234887 29.973339 -1.192630 2.358109 0.078378 -0.018335 61915.300000 0 0 1
-7.775121 21.031383 -21.673487 31.185118 -1.216688 2.339209 0.096900 -0.026630 -83445.800000 0 0 1
-8.181521 22.097283 -20.662287 31.339388 -1.216196 2.290693 0.093981 -0.025501 -232405.000000 0 0 1
-7.243821 22.334983 -19.663387 30.626347 -1.257174 2.267954 0.115652 -0.031465 -268364.000000 0 0 1
-7.719421 23.269883 -18.718587 30.845784 -1.250486 2.222880 0.123880 -0.032939 -80843.300000 0 0 1
-6.931521 23.323883 -17.382487 29.903182 -1.281924 2.191112 0.140870 -0.040679 293448.000000 0 0 1
-5.619421 23.806683 -17.616387 30.144205 -1.338995 2.194941 0.142741 -0.042308 10249.600000 0 0 1
-4.812821 23.484983 -16.455587 29.077379 -1.368663 2.172350 0.117113 -0.043726 -70045.000000 0 0 1
-3.339721 23.853783 -16.576287 29.239185 -1.431693 2.173559 0.111120 -0.039516 -352243.000000 0 0 1
-3.035321 25.249583 -16.533087 30.333110 -1.451158 2.147246 0.091133 -0.047542 -51213.100000 0 0 1
-1.742521 25.477883 -17.061987 30.712705 -1.502509 2.159803 0.091868 -0.050221 189655.000000 0 0 1
-1.330421 26.945783 -17.182987 31.985938 -1.521462 2.137915 0.086089 -0.067238 237762.000000 0 0 1
-2.184621 27.723083 -18.021787 33.137994 -1.492157 2.145803 0.099864 -0.069077 149711.000000 0 0 1
-1.642421 28.987883 -18.125487 34.227593 -1.514198 2.128875 0.107426 -0.059133 -368910.000000 0 0 1
-2.650821 29.895183 -18.891887 35.463392 -1.482357 2.132602 0.148348 -0.060046 825111.000000 0 0 1
-3.749021 30.416183 -18.152387 35.618934 -1.448157 2.105548 0.130352 -0.058070 -567582.000000 0 0 1
-4.790921 29.535083 -17.992587 34.914284 -1.409986 2.112196 0.100538 -0.058892 -1453630.000000 0 0 1
-5.957421 30.170183 -17.221287 35.246326 -1.375844 2.081279 0.124508 -0.045759 -308817.000000 0 0 1
-6.543821 31.217883 -17.891887 36.571811 -1.364170 2.081999 0.161814 -0.051306 -250838.000000 0 0 1
-6.201221 32.455583 -17.380587 37.335034 -1.382004 2.055030 0.160039 -0.069544 -328229.000000 0 0 1
-6.797721 33.710483 -18.141287 38.880740 -1.371815 2.056226 0.150540 -0.061192 -535088.000000 0 0 1
-8.188521 33.670583 -18.112387 39.100109 -1.332232 2.052434 0.164516 -0.068487 -658751.000000 0 0 1
-8.605221 -32.784842 -18.245987 38.494307 1.314111 2.064615 0.203887 -0.069168 -245566.000000 0 0 1
29.317779 -20.102517 -26.511277 44.345137 -0.601048 2.211600 0.085221 -0.002669 161319.000000 0 0 1
28.996879 -21.278617 -25.841417 44.287441 -0.633068 2.193820 0.085228 -0.009361 -955561.000000 0 0 1
27.644579 -21.575317 -25.900897 43.595568 -0.662708 2.206965 0.073973 -0.015602 -1011040.000000 0 0 1
27.468079 -23.007417 -25.253357 43.835701 -0.697254 2.184735 0.090811 -0.014822 14903.800000 0 0 1
28.003579 -24.117617 -25.958207 45.162910 -0.710980 2.183117 0.083947 -0.004063 786933.000000 0 0 1
29.399379 -24.356117 -25.672797 46.006918 -0.691853 2.162795 0.076533 -0.005540 962421.000000 0 0 1
29.869279 -25.688177 -26.294897 47.365366 -0.710283 2.159340 0.070271 -0.015532 34419.700000 0 0 1
29.427079 -26.892377 -25.568647 47.359357 -0.740423 2.141098 0.077600 -0.024611 -52176.100000 0 0 1
29.574879 -28.066407 -26.322467 48.531114 -0.759234 2.144068 0.065656 -0.019182 228001.000000 0 0 1
28.453079 -28.355007 -27.355507 48.599464 -0.783672 2.168658 0.068305 -0.022321 -419888.000000 0 0 1
28.488379 -27.600527 -28.605307 48.904401 -0.769570 2.195581 0.047063 -0.020089 197210.000000 0 0 1
29.571879 -27.841347 -29.522307 50.211585 -0.755266 2.199328 0.025915 -0.019379 228443.000000 0 0 1
29.790579 -29.298417 -30.068587 51.478110 -0.777069 2.194572 0.029412 -0.017441 -769636.000000 0 0 1
30.390579 -30.255717 -29.171747 51.865080 -0.783174 2.168148 0.037586 -0.015980 1198190.000000 0 0 1
31.764879 -30.096207 -28.738917 52.351835 -0.758430 2.151912 0.047569 -0.014005 1540390.000000 0 0 1
32.860979 -30.015257 -29.857907 53.593416 -0.740170 2.161709 0.051102 -0.012204 -277103.000000 0 0 1
32.712079 -28.756747 -30.510537 53.178224 -0.721140 2.181863 0.050599 -0.019664 -34745.000000 0 0 1
33.851379 -28.491157 -31.321687 54.209870 -0.699629 2.186809 0.054934 -0.019154 302335.000000 0 0 1
33.800279 -27.059427 -31.935837 53.801201 -0.675087 2.206308 0.044729 -0.013187 166581.000000 0 0 1
33.827279 -25.876447 -31.135617 52.757009 -0.653006 2.202066 0.047815 -0.002852 -513726.000000 0 0 1
32.614479 -25.741377 -30.473727 51.526409 -0.668159 2.203614 0.054500 -0.012924 -720398.000000 0 0 1
32.523379 -24.428017 -29.675467 50.350090 -0.644199 2.201091 0.063990 -0.015038 -372105.000000 0 0 1
33.414179 -24.429517 -28.574767 50.297376 -0.631303 2.175012 0.069003 -0.012786 294735.000000 0 0 1
33.247279 -23.247217 -27.763727 49.159325 -0.610203 2.170951 0.065285 -0.012868 -74742.200000 0 0 1
34.386679 -23.203617 -26.734517 49.351656 -0.593602 2.143272 0.067920 -0.018060 -581542.000000 0 0 1
34.151579 -23.965117 -25.563647 48.930126 -0.611885 2.120521 0.079433 -0.022886 189401.000000 0 0 1
33.306579 -23.363717 -24.583187 47.534457 -0.611715 2.114332 0.091806 -0.007218 84806.000000 0 0 1
33.895579 -22.137217 -23.793587 46.958508 -0.578552 2.102142 0.088358 -0.005134 -160525.000000 0 0 1
33.938979 -20.889817 -24.537287 46.800825 -0.551747 2.122680 0.090812 -0.016814 6903.650000 0 0 1
34.055379 -19.727717 -23.763387 45.974452 -0.525047 2.114001 0.069601 -0.025781 12930.100000 0 0 1
34.202379 -18.525317 -24.694187 46.073778 -0.496401 2.136453 0.055303 -0.030984 -777249.000000 0 0 1
33.109179 -18.265117 -25.474737 45.593799 -0.504119 2.163653 0.066009 -0.021838 -786244.000000 0 0 1
33.174879 -17.020817 -26.148997 45.541749 -0.474044 2.182394 0.058941 -0.014211 -483429.000000 0 0 1
32.069079 -16.751417 -27.157047 45.238712 -0.481371 2.214679 0.061839 -0.003672 -364988.000000 0 0 1
30.796479 -16.541617 -26.590597 43.921613 -0.492906 2.221078 0.074595 0.000520 -260189.000000 0 0 1
29.866379 -16.132317 -27.535587 43.708819 -0.495249 2.252321 0.068963 -0.002362 165694.000000 0 0 1
28.449779 -15.822417 -26.957187 42.266166 -0.507555 2.262429 0.069839 -0.003017 339705.000000 0 0 1
27.775079 -16.915817 -26.431467 41.907307 -0.547032 2.253267 0.076217 0.008064 -186363.000000 0 0 1
27.643779 -16.917817 -25.014287 40.940269 -0.549192 2.228113 0.097688 0.000828 -86593.400000 0 0 1
26.605079 -17.879917 -24.396987 40.283181 -0.591720 2.221363 0.105065 -0.004324 17773.100000 0 0 1
26.755179 -17.840717 -22.978587 39.523996 -0.588104 2.191224 0.108671 -0.002266 -108199.000000 0 0 1
25.901279 -18.713017 -22.303487 38.967920 -0.625651 2.180171 0.111866 -0.005753 -194215.000000 0 0 1
25.844279 -18.411117 -20.775087 37.927566 -0.618991 2.150477 0.107148 -0.011522 -95723.500000 0 0 1
24.997079 -17.346317 -20.380887 36.621432 -0.606643 2.160998 0.101586 -0.016810 100529.000000 0 0 1
25.385879 -16.040217 -20.766587 36.510034 -0.563514 2.175832 0.113509 -0.020737 304904.000000 0 0 1
26.742479 -15.395017 -20.334487 36.954812 -0.522343 2.153463 0.086088 -0.017692 490076.000000 0 0 1
26.571679 -14.572917 -19.231987 35.892804 -0.501643 2.136272 0.077415 -0.027086 224880.000000 0 0 1
27.533679 -13.528917 -19.297887 36.242841 -0.456711 2.132301 0.053386 -0.020610 35860.400000 0 0 1
27.407779 -12.534817 -18.164387 35.188819 -0.428945 2.113202 0.058191 -0.022019 -41427.100000 0 0 1
27.755579 -13.135717 -16.872087 35.036932 -0.442031 2.073220 0.052606 -0.019120 374405.000000 0 0 1
27.477579 -12.178517 -15.826987 33.968032 -0.417198 2.055490 0.048708 -0.025708 -124001.000000 0 0 1
28.281479 -12.486517 -14.569587 34.176425 -0.415770 2.011201 0.063007 -0.023848 -424356.000000 0 0 1
27.857379 -13.625117 -13.842687 33.960233 -0.454892 1.990637 0.095581 -0.034770 201524.000000 0 0 1
28.247179 -13.661717 -12.503087 33.776809 -0.450481 1.949986 0.108807 -0.033105 -390216.000000 0 0 1
27.811679 -14.962417 -11.740087 33.692627 -0.493576 1.926710 0.108001 -0.040275 778250.000000 0 0 1
26.381179 -14.990317 -11.625287 32.493438 -0.516724 1.936679 0.097264 -0.043780 1069870.000000 0 0 1
25.887679 -16.248717 -11.198887 32.551618 -0.560511 1.922007 0.078789 -0.047330 262448.000000 0 0 1
24.398779 -16.319017 -10.764487 31.264756 -0.589510 1.922290 0.092554 -0.049232 207577.000000 0 0 1
24.209179 -16.034417 -9.374587 30.513436 -0.584993 1.883075 0.092336 -0.031725 503662.000000 0 0 1
22.818179 -15.919417 -9.117687 29.278480 -0.609156 1.887475 0.109591 -0.036528 -14338.400000 0 0 1
22.560579 -15.595017 -7.617287 28.464142 -0.604830 1.841708 0.091523 -0.029830 -589478.000000 0 0 1
22.776479 -14.204317 -7.349387 27.830633 -0.557621 1.838042 0.110459 -0.018439 389553.000000 0 0 1
22.511579 -13.814117 -6.016187 27.088661 -0.550392 1.794756 0.119578 -0.011648 -376964.000000 0 0 1
23.432379 -14.302917 -4.884087 27.883762 -0.548025 1.746863 0.106924 -0.019302 173698.000000 0 0 1
24.791379 -13.872717 -4.982287 28.842468 -0.510167 1.744409 0.108610 -0.026599 567908.000000 0 0 1
25.535979 -14.491117 -3.991287 29.631218 -0.516163 1.705906 0.115472 -0.040218 -1480120.000000 0 0 1
27.022979 -14.309017 -4.037387 30.842988 -0.486978 1.702074 0.111885 -0.033879 -1137290.000000 0 0 1
27.541079 -13.086617 -3.538287 30.696744 -0.443585 1.686319 0.124394 -0.031883 1403920.000000 0 0 1
28.893279 -12.848417 -4.033587 31.877472 -0.418425 1.697671 0.131873 -0.032390 1473800.000000 0 0 1
29.591479 -11.600717 -3.380187 31.963385 -0.373616 1.676746 0.149030 -0.042775 -857490.000000 0 0 1
30.046279 -11.836117 -2.045687 32.358267 -0.375262 1.634058 0.153206 -0.047430 643039.000000 0 0 1
30.717279 -10.758317 -1.347187 32.574646 -0.336886 1.612165 0.164043 -0.036797 -267203.000000 0 0 1
32.096879 -10.403017 -1.876687 33.792816 -0.313429 1.626360 0.168008 -0.029670 -1233740.000000 0 0 1
32.093079 -9.936017 -3.208487 33.748846 -0.300241 1.666010 0.170371 -0.034406 -303989.000000 0 0 1
33.221779 -10.279117 -3.975487 35.002163 -0.300066 1.684620 0.180836 -0.037680 -260131.000000 0 0 1
32.940179 -9.945817 -5.454787 34.838619 -0.293232 1.728016 0.161619 -0.049181 -459126.000000 0 0 1
31.924879 -10.789717 -5.906387 34.212590 -0.325920 1.744303 0.157163 -0.056130 -111799.000000 0 0 1
31.763679 -10.790917 -7.284487 34.328399 -0.327492 1.784622 0.147822 -0.050106 -318271.000000 0 0 1
30.578479 -11.605917 -7.787187 33.621139 -0.362750 1.804535 0.140567 -0.050604 -272794.000000 0 0 1
30.719479 -12.965417 -7.396487 34.154011 -0.399377 1.789089 0.123118 -0.043965 68656.900000 0 0 1
29.536679 -13.683017 -7.636487 33.435854 -0.433822 1.801222 0.115101 -0.037390 -51958.000000 0 0 1
29.777479 -15.166217 -7.489287 34.246195 -0.471074 1.791268 0.119092 -0.042368 -181797.000000 0 0 1
30.648279 -15.715517 -8.431287 35.459570 -0.473811 1.810868 0.126566 -0.047394 99951.800000 0 0 1
30.599679 -17.169517 -8.356587 36.068896 -0.511326 1.804605 0.117125 -0.035726 -20225.500000 0 0 1
30.703479 -17.821017 -9.699787 36.801877 -0.525901 1.837515 0.105122 -0.046798 -571304.000000 0 0 1
31.863079 -17.523317 -10.408587 37.824082 -0.502810 1.849578 0.116679 -0.042447 -298357.000000 0 0 1
31.933579 -17.948417 -11.786387 38.481399 -0.512051 1.882087 0.093766 -0.026858 -346956.000000 0 0 1
31.314279 -17.135917 -12.921987 37.963160 -0.500709 1.918120 0.085452 -0.029631 108989.000000 0 0 1
32.079079 -15.996217 -13.305687 38.235947 -0.462567 1.926221 0.076475 -0.024216 987872.000000 0 0 1
31.271679 -15.222617 -14.239987 37.582220 -0.453021 1.959406 0.062170 -0.028487 156463.000000 0 0 1
32.119179 -14.189617 -15.018487 38.190861 -0.415997 1.974958 0.050151 -0.021430 828479.000000 0 0 1
33.165979 -14.657117 -15.876787 39.583906 -0.416125 1.983505 0.024795 -0.021884 707554.000000 0 0 1
34.385779 -15.078417 -15.305887 40.546401 -0.413256 1.957881 0.044899 -0.019648 4587.390000 0 0 1
35.441979 -15.326817 -16.453687 41.973433 -0.408162 1.973604 0.047370 -0.022912 -448068.000000 0 0 1
36.755679 -15.447617 -16.011287 42.964755 -0.397865 1.952671 0.061163 -0.029345 -510921.000000 0 0 1
-37.129354 -15.848517 -17.120787 43.850722 0.403433 1.971899 0.071142 -0.033096 616910.000000 0 0 1
-35.574054 -15.803117 -16.894087 42.434208 0.418047 1.980267 0.107106 -0.031211 833121.000000 0 0 1
-34.950754 -16.672417 -15.925287 41.870509 0.445100 1.960967 0.093091 -0.032254 335828.000000 0 0 1
-35.352954 -16.546717 -14.531887 41.650942 0.437757 1.927190 0.071484 -0.031625 158908.000000 0 0 1
-34.419854 -17.421017 -13.563087 40.892243 0.468542 1.908879 0.071125 -0.026787 567095.000000 0 0 1
-33.093954 -16.950917 -13.416787 39.529149 0.473365 1.917091 0.100027 -0.034136 39860.000000 0 0 1
-32.454254 -17.735617 -12.418387 39.013422 0.500137 1.894743 0.093476 -0.017118 -534593.000000 0 0 1
-31.008354 -17.311117 -12.184287 37.545302 0.509172 1.901303 0.134479 -0.025818 -530786.000000 0 0 1
-30.857554 -15.955517 -11.766187 36.677109 0.477210 1.897375 0.137111 -0.036818 -297797.000000 0 0 1
-29.694554 -15.843617 -10.997487 35.408071 0.490128 1.886613 0.147999 -0.038068 -318170.000000 0 0 1
-29.922254 -15.515517 -9.491687 35.016635 0.478360 1.845293 0.139179 -0.032409 -118085.000000 0 0 1
-30.260754 -16.710717 -8.807387 35.672558 0.504549 1.820271 0.111556 -0.025926 -165989.000000 0 0 1
-30.451354 -16.551417 -7.417687 35.443709 0.497867 1.781636 0.138866 -0.028695 -210229.000000 0 0 1
-30.814254 -17.977617 -6.822087 36.321535 0.528138 1.759743 0.131424 -0.025843 1219680.000000 0 0 1
-32.080954 -18.550617 -7.243687 37.759556 0.524269 1.763830 0.101934 -0.023773 953425.000000 0 0 1
-32.023954 -19.025317 -8.580187 38.224547 0.536067 1.797193 0.093393 -0.019511 -750857.000000 0 0 1
-33.255354 -19.828417 -8.972687 39.744104 0.537656 1.798521 0.077331 -0.016805 -429916.000000 0 0 1
-34.463854 -19.112817 -9.126987 40.451934 0.506349 1.798381 0.080022 -0.015732 -351221.000000 0 0 1
-35.306754 -19.967617 -9.773787 41.722890 0.514701 1.807248 0.061180 -0.020891 -1441490.000000 0 0 1
-36.699154 -19.552517 -10.182387 42.811329 0.489525 1.810941 0.063476 -0.031653 -725717.000000 0 0 1
-36.856054 -18.893317 -11.419787 42.962050 0.473696 1.839841 0.053332 -0.038832 1215150.000000 0 0 1
36.402579 -18.629917 -11.608087 42.508461 -0.473023 1.847387 0.070533 -0.043399 976556.000000 0 0 1
35.998579 -18.310517 -13.051287 42.444185 -0.470540 1.883354 0.056810 -0.030553 -76820.100000 0 0 1
36.142579 -19.277917 -14.068587 43.311076 -0.489998 1.901625 0.052431 -0.023014 68274.800000 0 0 1
35.354979 -18.810917 -15.122087 42.807741 -0.488964 1.931845 0.042410 -0.014730 203464.000000 0 0 1
34.165379 -19.746417 -15.496287 42.394918 -0.524060 1.944990 0.054713 -0.019758 -319812.000000 0 0 1
33.092279 -19.627817 -14.576087 41.143802 -0.535348 1.932932 0.067243 -0.024370 483140.000000 0 0 1
32.018779 -20.537417 -14.851587 40.835737 -0.570318 1.943023 0.073108 -0.023210 1132490.000000 0 0 1
31.076979 -20.149517 -16.073287 40.374896 -0.575232 1.980242 0.068266 -0.022138 -230753.000000 0 0 1
30.350179 -18.932917 -15.914287 39.151670 -0.557747 1.989392 0.068282 -0.021043 373773.000000 0 0 1
29.529679 -18.630717 -17.013687 38.840329 -0.562841 2.024216 0.062742 -0.022763 157297.000000 0 0 1
28.688779 -17.308417 -16.917387 37.534322 -0.542855 2.038366 0.066705 -0.017733 -161054.000000 0 0 1
27.593379 -17.442817 -16.066587 36.383811 -0.563716 2.028162 0.088820 -0.032546 -590606.000000 0 0 1
26.955979 -16.248917 -15.965887 35.292516 -0.542472 2.040237 0.070330 -0.023747 -1311530.000000 0 0 1
25.579879 -16.237917 -15.276887 33.932042 -0.565610 2.037808 0.067041 -0.028686 152106.000000 0 0 1
24.437779 -16.660917 -15.993387 33.624093 -0.598385 2.066502 0.075374 -0.028055 132420.000000 0 0 1
24.059779 -15.851817 -17.051387 33.479888 -0.582572 2.105170 0.079902 -0.027293 -963531.000000 0 0 1
22.974179 -16.433817 -17.990287 33.489307 -0.620932 2.137904 0.070667 -0.026678 -24713.400000 0 0 1
21.680879 -16.571217 -17.477987 32.405953 -0.652606 2.140455 0.065233 -0.022709 -101936.000000 0 0 1
20.841979 -17.373117 -18.326587 32.742588 -0.694874 2.164841 0.064223 -0.019764 1331130.000000 0 0 1
19.387479 -17.670117 -17.804587 31.703481 -0.739088 2.167111 0.059955 -0.016616 807354.000000 0 0 1
18.637179 -16.485717 -17.612587 30.484858 -0.724219 2.186764 0.066662 -0.020916 -249512.000000 0 0 1
17.338779 -16.903517 -17.265887 29.740091 -0.772688 2.190212 0.075062 -0.025639 -19946.500000 0 0 1
16.301079 -15.779517 -17.042987 28.375725 -0.769142 2.215071 0.085438 -0.016410 -77835.100000 0 0 1
15.699979 -15.191417 -18.169387 28.414699 -0.768937 2.264561 0.082873 -0.004850 362237.000000 0 0 1
14.422379 -14.645917 -17.894987 27.253229 -0.793088 2.287123 0.096284 -0.005680 220989.000000 0 0 1
13.620479 -14.177817 -19.095587 27.407470 -0.805445 2.341624 0.086368 -0.010939 -132843.000000 0 0 1
13.933679 -12.864817 -19.550387 27.237264 -0.745534 2.371406 0.085671 -0.021808 96565.700000 0 0 1
13.186679 -12.446017 -20.678687 27.502726 -0.756511 2.421702 0.091472 -0.017351 26673.700000 0 0 1
13.453179 -10.997317 -21.130687 27.357539 -0.685292 2.453392 0.084156 -0.011329 -1363080.000000 0 0 1
14.621679 -10.824217 -21.816287 28.406118 -0.637255 2.446530 0.066343 -0.002364 -1094860.000000 0 0 1
14.731679 -9.521817 -22.372287 28.428975 -0.573805 2.476652 0.052820 -0.008881 366676.000000 0 0 1
16.144879 -9.298617 -22.990787 29.592190 -0.522547 2.460556 0.052157 -0.005557 479395.000000 0 0 1
16.178679 -9.668917 -24.346787 30.789668 -0.538677 2.482822 0.082736 -0.013686 1009370.000000 0 0 1
17.558279 -9.702817 -24.741887 31.852768 -0.504842 2.460298 0.075140 -0.023714 76422.200000 0 0 1
22.063779 4.529583 -7.015787 23.591285 0.202482 1.872753 0.135158 0.003343 -198784.000000 0 1 0
22.060679 5.880083 -7.365887 23.989690 0.260485 1.882882 0.135797 0.006028 647426.000000 0 1 0
21.660679 6.609183 -6.229487 23.487717 0.296151 1.839232 0.127689 0.002269 -348920.000000 0 1 0
21.563979 8.157583 -6.444487 23.939147 0.361658 1.843362 0.112321 0.007353 -881209.000000 0 1 0
20.375779 8.546583 -7.057187 23.195266 0.397159 1.879949 0.072815 -0.004410 50891.500000 0 1 0
20.208379 9.938583 -7.019687 23.588769 0.457070 1.872959 0.080784 -0.006263 85362.400000 0 1 0
19.551079 10.567583 -5.772887 22.961810 0.495529 1.824936 0.098071 -0.012509 -272817.000000 0 1 0
20.490479 10.724083 -4.739687 23.607845 0.482168 1.772938 0.105371 -0.009007 150203.000000 0 1 0
20.433579 12.101183 -4.285287 24.131587 0.534680 1.749323 0.133991 -0.014377 298451.000000 0 1 0
21.396679 12.530883 -3.119287 24.991416 0.529798 1.695937 0.129234 -0.029409 -477388.000000 0 1 0
22.711879 12.630483 -3.574387 26.232324 0.507528 1.707480 0.120091 -0.037171 -205077.000000 0 0 1
23.546079 13.233483 -2.575287 27.132545 0.512028 1.665854 0.124276 -0.037897 293087.000000 0 0 1
24.476579 12.278383 -1.766087 27.440493 0.464957 1.635201 0.123067 -0.034862 -584959.000000 0 0 1
25.552279 11.819483 -2.544387 28.268234 0.433250 1.660927 0.112729 -0.032148 -332291.000000 0 0 1
26.243379 10.852883 -1.799687 28.455911 0.392130 1.634083 0.132369 -0.035092 -279421.000000 0 0 1
27.636779 10.560083 -2.391687 29.682100 0.364983 1.651461 0.135998 -0.033942 493588.000000 0 0 1
28.566479 11.657683 -2.154487 30.928743 0.387461 1.640512 0.120461 -0.041590 444392.000000 0 0 1
29.905679 11.206683 -2.202387 32.012340 0.358538 1.639649 0.105256 -0.038026 -165207.000000 0 0 1
30.883379 12.340183 -1.888187 33.311086 0.380139 1.627510 0.083215 -0.040108 -841780.000000 0 0 1
30.859279 12.796883 -0.540987 33.411794 0.393101 1.586989 0.119622 -0.042370 385284.000000 0 0 1
31.841979 13.740683 -0.131787 34.680475 0.407386 1.574596 0.104768 -0.044533 1148360.000000 0 0 1
33.335979 13.189683 -0.040487 35.850480 0.376759 1.571926 0.111715 -0.046208 588931.000000 0 0 1
34.266079 14.164383 0.326813 37.079654 0.391974 1.561982 0.107198 -0.048640 158459.000000 0 0 1
35.207879 14.440983 -0.724287 38.061284 0.389237 1.589827 0.124812 -0.032837 49760.800000 0 0 1
34.771379 15.554083 -1.739087 38.131388 0.420627 1.616420 0.080900 -0.012120 268780.000000 0 0 1
33.579679 15.182683 -2.439087 36.933154 0.424631 1.636885 0.090651 -0.012588 263596.000000 0 0 1
33.221479 16.129083 -3.441987 37.089908 0.451982 1.663731 0.067887 -0.001057 -331018.000000 0 0 1
31.823879 15.889583 -4.018887 35.796502 0.463085 1.683304 0.065083 -0.017827 -956219.000000 0 0 1
31.796379 14.820083 -4.959687 35.429410 0.436156 1.711245 0.047539 -0.018062 315610.000000 0 0 1
30.603079 14.787683 -5.722987 34.467036 0.450125 1.737611 0.043310 -0.031390 -73189.100000 0 0 1
29.405079 14.168083 -5.010287 33.022662 0.449002 1.723107 0.057455 -0.034847 -585122.000000 0 0 1
28.246879 13.854883 -5.761887 31.985048 0.456013 1.751928 0.079191 -0.039627 724877.000000 0 0 1
27.188979 13.304683 -4.952587 30.672191 0.455084 1.732975 0.080137 -0.023099 -56752.700000 0 0 1
25.968079 13.067683 -5.800587 29.643756 0.466221 1.767744 0.074089 -0.022813 -991698.000000 0 0 1
26.294679 12.091883 -6.783587 29.726097 0.431024 1.801028 0.070101 -0.014558 568207.000000 0 0 1
25.441479 11.867783 -7.950887 29.177555 0.436469 1.846787 0.086247 -0.013980 294249.000000 0 0 1
25.193779 12.999583 -8.967487 29.734349 0.476353 1.877153 0.100810 -0.015203 91594.400000 0 0 1
24.359379 14.036083 -8.437487 29.352720 0.522742 1.862361 0.093165 -0.024897 188903.000000 0 0 1
24.241879 15.119483 -9.330387 30.055342 0.557659 1.886452 0.107935 -0.029835 -892127.000000 0 0 1
23.216179 16.196883 -8.893887 29.672061 0.609150 1.875216 0.100090 -0.017827 117042.000000 0 0 1
21.895579 15.734483 -9.065087 28.445846 0.623110 1.895132 0.118588 -0.024844 31258.800000 0 0 1
21.387579 14.958883 -7.987087 27.294510 0.610336 1.867768 0.127550 -0.031865 78344.000000 0 0 1
19.888579 14.549783 -8.247987 25.986170 0.631598 1.893782 0.139472 -0.022029 663151.000000 0 0 1
19.036779 14.541883 -7.138587 24.996495 0.652328 1.860412 0.179423 -0.057388 -517914.000000 0 1 0
17.703079 14.471883 -7.562587 24.083752 0.685308 1.890212 0.180944 -0.054017 -785875.000000 0 1 0
16.748679 14.908983 -6.471187 23.338215 0.727351 1.851757 0.167265 -0.036041 -483637.000000 0 1 0
16.709979 13.990683 -5.409287 22.454910 0.697054 1.814085 0.133944 -0.033298 307557.000000 0 1 0
15.890779 14.512883 -4.383287 21.962555 0.740109 1.771726 0.098263 -0.022054 -128619.000000 0 1 0
15.753679 13.538083 -3.149987 21.009058 0.709903 1.721299 0.076713 -0.012904 -755638.000000 0 1 0
16.940079 13.292783 -2.468387 21.673885 0.665338 1.684932 0.071925 -0.007891 -176844.000000 0 1 0
16.781479 12.464183 -1.329487 20.946156 0.638835 1.634311 0.063795 -0.010738 -55162.600000 0 1 0
16.696479 13.277483 -0.012687 21.332232 0.671823 1.571391 0.058900 -0.013902 -698137.000000 0 1 0
15.630579 14.159183 -0.109887 21.090508 0.736046 1.576007 0.056519 -0.017169 -180437.000000 0 1 0
15.625379 15.054383 1.019813 21.721578 0.766789 1.523830 0.046109 -0.012733 -933076.000000 0 1 0
14.434779 15.957583 1.171313 21.549461 0.835461 1.516415 0.051790 -0.008795 -976238.000000 0 1 0
14.377479 16.928883 0.188113 22.211132 0.866716 1.562327 0.056451 -0.010904 642923.000000 0 1 0
13.536379 18.023283 0.655613 22.549991 0.926624 1.541718 0.048130 -0.012267 301415.000000 0 1 0
13.527879 19.270883 -0.249387 23.546393 0.958739 1.581388 0.040939 -0.011476 281580.000000 0 1 0
12.666579 19.166083 -1.423887 23.017567 0.986807 1.632697 0.028228 -0.021942 624145.000000 0 1 0
12.028579 20.389683 -1.731187 23.736531 1.037811 1.643795 0.036250 -0.021504 489981.000000 0 1 0
10.539679 20.498283 -1.282487 23.084826 1.095874 1.626380 0.026746 -0.021276 382607.000000 0 1 0
10.341879 20.455483 0.136613 22.921603 1.102695 1.564836 0.016773 -0.024622 627131.000000 0 1 0
8.960379 20.275383 0.468813 22.172039 1.154670 1.549650 0.011359 -0.026270 722062.000000 0 1 0
8.736079 20.460383 1.980313 22.335353 1.167254 1.482017 0.006415 -0.014696 -122993.000000 0 1 0
8.367979 21.753583 2.410413 23.431848 1.203574 1.467745 -0.002511 -0.003798 175925.000000 0 1 0
7.529279 21.726583 3.542513 23.265507 1.237201 1.417937 0.000140 -0.005666 73614.100000 0 1 0
6.976679 23.096283 3.984613 24.453823 1.277442 1.407122 0.000556 -0.001921 141800.000000 0 1 0
7.835779 23.740683 4.926413 25.481150 1.251997 1.376236 0.018107 -0.013742 245738.000000 0 0 1
7.376579 24.944183 5.460513 26.579002 1.283268 1.363878 0.019279 -0.008040 -203901.000000 0 0 1
7.953379 25.094183 6.884413 27.209730 1.263871 1.315003 0.031327 -0.019417 179652.000000 0 0 1
7.424879 24.170083 7.819613 26.466357 1.272754 1.270865 0.041208 -0.022014 -140972.000000 0 0 1
8.081979 24.338183 9.003813 27.179665 1.250183 1.233147 0.049478 -0.025813 -421224.000000 0 0 1
7.521979 23.449483 10.121413 26.625203 1.260392 1.180844 0.053578 -0.026250 -138746.000000 0 0 1
6.295479 23.801483 10.708613 26.848054 1.312218 1.160523 0.051070 -0.022087 -136539.000000 0 0 1
5.643879 22.713883 11.292013 25.986216 1.327252 1.121270 0.048451 -0.022944 434256.000000 0 0 1
4.221179 22.964583 11.864613 26.190828 1.389013 1.100662 0.045431 -0.028051 617447.000000 0 0 1
3.207779 23.274783 10.938813 25.916462 1.433837 1.135058 0.040511 -0.020079 754066.000000 0 0 1
1.891979 23.378583 11.521313 26.131941 1.490044 1.114206 0.054855 -0.026357 1489340.000000 0 0 1
0.787879 23.599283 10.431713 25.814096 1.537423 1.154792 0.061594 -0.021718 -41089.300000 0 0 1
0.923879 24.898583 9.861513 26.796313 1.533708 1.193920 0.053155 -0.016016 -232172.000000 0 0 1
-0.072221 25.213883 8.938113 26.751354 -1.567932 1.230127 0.053665 -0.009729 732696.000000 0 0 1
-1.403921 25.780383 9.573513 27.536363 -1.516393 1.215713 0.071726 -0.021940 521481.000000 0 0 1
-2.190021 24.852483 10.283713 26.985122 -1.482903 1.179823 0.077724 -0.023929 448495.000000 0 0 1
-3.505221 25.416183 10.361313 27.669942 -1.433748 1.186981 0.083436 -0.028834 924270.000000 0 0 1
-4.695221 24.570983 10.946313 27.305678 -1.381984 1.158319 0.084293 -0.033213 574152.000000 0 0 1
-4.878821 24.524583 12.363613 27.894748 -1.374424 1.111605 0.071007 -0.028571 611897.000000 0 0 1
-5.726721 25.665583 12.710913 29.207615 -1.351264 1.120545 0.080826 -0.029668 321540.000000 0 0 1
-6.395121 25.468783 14.092713 29.802030 -1.324786 1.078243 0.059172 -0.037337 -280788.000000 0 0 1
-7.475621 24.590083 14.180213 29.353629 -1.275665 1.066625 0.056782 -0.034213 -160026.000000 0 0 1
-7.873921 24.404383 15.579113 30.004688 -1.258697 1.024855 0.037221 -0.023311 408991.000000 0 0 1
-9.158121 23.536283 15.713113 29.744406 -1.199716 1.014233 0.033063 -0.026941 1779200.000000 0 0 1
-10.384521 24.217483 15.274713 30.457209 -1.165709 1.045449 0.022604 -0.020799 1346810.000000 0 0 1
-11.515021 23.350283 15.279913 30.187864 -1.112650 1.040069 0.023867 -0.016399 1077140.000000 0 0 1
-12.880621 24.106883 15.062513 31.207875 -1.080077 1.067117 0.025882 -0.018963 601974.000000 0 0 1
-13.192321 24.988983 16.140213 32.542173 -1.085059 1.051835 0.016296 -0.023960 -103517.000000 0 0 1
-14.003721 26.039383 15.668713 33.461354 -1.077376 1.083472 0.012417 -0.015093 -533577.000000 0 0 1
-14.722421 26.892083 16.704713 34.913911 -1.069903 1.071903 0.020369 -0.014605 -226488.000000 0 0 1
-15.940621 26.354483 17.166513 35.261187 -1.026815 1.062329 0.018790 -0.021250 -239072.000000 0 0 1
-16.391221 27.082283 18.270213 36.550278 -1.026534 1.047353 0.046236 -0.024085 113706.000000 0 0 1
-17.677521 26.452383 18.877413 36.994324 -0.981680 1.035288 0.037804 -0.026325 567796.000000 0 0 1
-18.843021 26.727283 18.109313 37.381202 -0.956715 1.065062 0.033581 -0.023215 18349.800000 0 0 1
-19.953421 26.021283 18.626513 37.711976 -0.916622 1.054210 0.036728 -0.018562 -173848.000000 0 0 1
-21.204021 26.181583 17.767413 38.088932 -0.890058 1.085499 0.051945 -0.025403 -282332.000000 0 0 1
-21.868521 27.459383 17.897413 39.402630 -0.898257 1.099301 0.043860 -0.026193 352355.000000 0 0 1
-22.592721 27.753183 16.722013 39.500581 -0.887542 1.133672 0.054837 -0.029318 -495672.000000 0 0 1
-23.497121 28.998383 16.801613 40.930613 -0.889812 1.147805 0.051662 -0.027607 -181362.000000 0 0 1
-24.716821 28.631583 17.431713 41.647969 -0.858648 1.138949 0.051965 -0.029352 -213395.000000 0 0 1
-25.579031 29.748683 17.300113 42.878489 -0.860619 1.155492 0.053421 -0.030211 -286226.000000 0 0 1
-27.000511 29.419583 17.786213 43.713714 -0.828248 1.151761 0.068654 -0.027691 -501060.000000 0 0 1
-27.828731 28.618783 16.949913 43.367874 -0.799393 1.169252 0.088266 -0.021886 -162974.000000 0 0 1
-29.112471 28.579283 17.523613 44.400319 -0.776156 1.165084 0.126390 -0.025033 -182901.000000 0 0 1
-29.437661 27.396983 18.461813 44.249396 -0.749508 1.140410 0.110080 -0.023928 -639751.000000 0 0 1
-29.620851 26.163383 17.848313 43.364498 -0.723498 1.146600 0.120084 -0.025630 173641.000000 0 0 1
-29.814481 25.157283 18.831213 43.317510 -0.700880 1.121063 0.116669 -0.019146 -81919.800000 0 0 1
-30.109661 23.747883 18.238913 42.464238 -0.667821 1.126844 0.117892 -0.026870 -989434.000000 0 0 1
-31.369551 23.746583 17.681313 43.134415 -0.647963 1.148439 0.143545 -0.028222 -820711.000000 0 0 1
-31.411501 22.821083 16.640813 42.242169 -0.628304 1.165884 0.145134 -0.035429 -257330.000000 0 0 1
-31.775361 21.364883 16.912113 41.858707 -0.591942 1.154880 0.137556 -0.035089 755302.000000 0 0 1
-33.186771 21.081083 16.967813 42.821495 -0.565919 1.163373 0.146423 -0.028014 885423.000000 0 0 1
-33.384191 19.716883 16.649713 42.195647 -0.533483 1.165182 0.128146 -0.030557 -295860.000000 0 0 1
-34.768341 19.394083 16.093913 42.941611 -0.508819 1.186630 0.126103 -0.042624 -410320.000000 0 0 1
-35.021180 19.853283 14.797913 42.890723 -0.515721 1.218542 0.098900 -0.034359 267351.000000 0 0 1
-36.235771 19.336183 14.267613 43.479694 -0.490182 1.236458 0.113988 -0.035750 188897.000000 0 0 1
-36.407331 19.765583 12.822313 43.365697 -0.497377 1.270630 0.094038 -0.026696 -42397.700000 0 0 1
-36.582871 21.168683 12.690913 44.130248 -0.524573 1.279099 0.072954 -0.032688 -87990.500000 0 0 1
-36.665431 21.614983 11.307113 44.038757 -0.532678 1.311135 0.046492 -0.025300 233817.000000 0 0 1
-35.490583 21.326283 10.310913 42.669740 -0.541081 1.326736 0.072936 -0.031310 161118.000000 0 0 1
-35.598791 20.023383 9.749613 41.991245 -0.512369 1.336476 0.076865 -0.023002 -540916.000000 0 0 1
-34.414320 19.568883 9.187213 40.641007 -0.517031 1.342768 0.094586 -0.022131 -714184.000000 0 0 1
-33.709171 18.470683 9.947713 39.704298 -0.501262 1.317553 0.084276 -0.031770 -148690.000000 0 0 1
-33.132921 18.868183 11.195013 39.738232 -0.517668 1.285211 0.098558 -0.037842 253473.000000 0 0 1
-32.543981 17.795583 11.896613 38.952828 -0.500396 1.260427 0.114256 -0.044037 -35403.800000 0 0 1
-32.067971 18.275783 13.320913 39.240358 -0.517999 1.224443 0.090741 -0.024983 -127017.000000 0 0 1
-30.800161 18.877783 13.283513 38.489898 -0.549859 1.218433 0.116242 -0.028788 -480338.000000 0 0 1
-30.830461 20.277583 13.195613 39.189563 -0.581778 1.227373 0.121233 -0.029151 -587545.000000 0 0 1
-29.504061 21.014883 13.218313 38.559547 -0.618914 1.220898 0.136345 -0.041196 -671356.000000 0 0 1
-28.860781 21.024883 14.445513 38.518349 -0.629594 1.186368 0.130606 -0.033536 -259894.000000 0 0 1
-27.774851 21.920083 14.472413 38.228041 -0.668125 1.182534 0.139312 -0.037046 -202853.000000 0 0 1
-27.133501 21.927383 15.889213 38.334111 -0.679678 1.143411 0.116525 -0.039233 -130569.000000 0 0 1
-26.422691 20.700483 16.102713 37.228563 -0.664559 1.123492 0.133373 -0.040722 104499.000000 0 0 1
-25.934381 20.598383 17.412813 37.417797 -0.671225 1.086753 0.106110 -0.031006 169848.000000 0 0 1
-25.009921 19.331183 17.607813 36.183226 -0.658022 1.062569 0.116022 -0.034217 748721.000000 0 0 1
-24.308321 19.382683 18.873213 36.370056 -0.673134 1.025207 0.109516 -0.033736 458483.000000 0 0 1
-23.394821 18.320283 19.059513 35.301777 -0.664345 1.000475 0.100591 -0.032341 104285.000000 0 0 1
-22.827621 18.288683 20.497013 35.716995 -0.675451 0.959569 0.097005 -0.027244 528226.000000 0 0 1
-23.754221 17.785283 21.472313 36.628398 -0.642682 0.944411 0.099934 -0.013857 223413.000000 0 0 1
-23.153821 17.761883 22.694613 36.967950 -0.654372 0.909805 0.105321 -0.016461 -340200.000000 0 0 1
-23.984221 17.060383 23.761413 37.827295 -0.618281 0.891616 0.123213 -0.021710 -362030.000000 0 0 1
-24.052621 15.724383 23.415513 37.068464 -0.579006 0.887074 0.105484 -0.028521 186575.000000 0 0 1
-24.787921 14.937583 24.342413 37.817000 -0.542340 0.871486 0.117099 -0.026684 -36624.600000 0 0 1
21.349679 24.831583 33.593739 46.914343 0.860652 0.772647 0.097004 -0.026090 -113786.000000 0 0 1
22.311279 23.986483 33.043442 46.529706 0.821566 0.781074 0.103463 -0.039755 -314587.000000 0 0 1
22.229179 22.684183 33.578471 46.219284 0.795529 0.757577 0.109889 -0.041699 434047.000000 0 0 1
21.140379 21.752783 32.923084 44.766378 0.799675 0.744477 0.110558 -0.043670 565984.000000 0 0 1
21.589279 21.242183 31.669588 43.821115 0.777295 0.763093 0.117271 -0.037017 41872.000000 0 0 1
20.683479 20.287683 31.138568 42.532420 0.775738 0.749377 0.111858 -0.029573 -275115.000000 0 0 1
20.907779 19.668683 29.765398 41.351798 0.754870 0.767269 0.111025 -0.024013 -471548.000000 0 0 1
21.998179 18.787683 29.799258 41.531827 0.706844 0.770584 0.098706 -0.028269 -328445.000000 0 0 1
22.275679 18.022283 28.620538 40.498688 0.680239 0.785969 0.084358 -0.029150 -107143.000000 0 0 1
23.466179 17.077183 28.796238 40.884166 0.629099 0.789307 0.110928 -0.032727 494142.000000 0 0 1
24.772079 17.659683 28.813718 41.901678 0.619322 0.812548 0.118384 -0.029978 310045.000000 0 0 1
25.706379 16.707383 29.299948 42.408036 0.576327 0.808055 0.100036 -0.019980 558435.000000 0 0 1
27.118479 17.377783 29.384858 43.598958 0.569887 0.831212 0.090208 -0.027583 492825.000000 0 0 1
27.965679 17.299783 28.234008 43.341907 0.553989 0.861335 0.080487 -0.017530 -211933.000000 0 0 1
29.220879 17.807583 28.553248 44.567452 0.547312 0.875419 0.077328 -0.011281 270390.000000 0 0 1
30.311579 17.645783 27.404388 44.510290 0.527189 0.907539 0.064409 0.005343 643096.000000 0 0 1
30.106779 18.393883 26.250418 43.975419 0.548436 0.931122 0.081868 -0.005906 -181807.000000 0 0 1
31.174479 18.230383 25.358058 44.127385 0.529157 0.958613 0.074545 0.000175 -408765.000000 0 0 1
31.537579 19.541483 24.675518 44.557487 0.554725 0.983887 0.097998 -0.007978 -268931.000000 0 0 1
30.531579 20.069083 23.826148 43.619155 0.581505 0.992938 0.081589 -0.008929 67065.600000 0 0 1
30.982079 21.038983 22.871698 43.882144 0.596540 1.022531 0.077024 -0.016367 -185203.000000 0 0 1
31.589979 20.337983 21.604738 43.339647 0.572012 1.048931 0.098220 -0.022048 -191142.000000 0 0 1
30.672279 19.626783 20.789038 41.930698 0.569233 1.052046 0.108676 -0.024335 36697.800000 0 0 1
31.167479 18.955283 19.646638 41.433137 0.546409 1.076767 0.126826 -0.035723 61202.000000 0 0 1
32.222879 17.809783 19.671838 41.743065 0.504918 1.080077 0.150602 -0.050683 522339.000000 0 0 1
31.608179 16.624983 20.202938 41.032009 0.484208 1.055986 0.153826 -0.049267 257811.000000 0 0 1
32.475279 15.530683 20.108938 41.233666 0.446081 1.061363 0.139525 -0.052130 -802805.000000 0 0 1
31.775679 14.114583 20.141438 40.181995 0.418016 1.045747 0.140749 -0.040735 202961.000000 0 0 1
31.223679 13.689683 21.373438 40.238656 0.413198 1.010819 0.108248 -0.046990 -19030.300000 0 0 1
30.065479 14.410483 21.722238 39.792596 0.446954 0.993350 0.110024 -0.036927 -745087.000000 0 0 1
29.353179 13.757483 22.936558 39.710995 0.438286 0.955027 0.075150 -0.022246 24497.400000 0 0 1
28.794779 12.485283 22.708938 38.739095 0.409128 0.944433 0.080099 -0.020963 -137560.000000 0 0 1
28.332179 11.862183 23.836428 38.879288 0.396507 0.910833 0.065011 -0.014158 139659.000000 0 0 1
27.514279 10.588983 23.414028 37.648092 0.367382 0.899607 0.081794 -0.011909 6674.110000 0 0 1
26.270179 10.672683 22.779838 36.372373 0.385896 0.894005 0.064150 0.000482 -178810.000000 0 0 1
26.062479 9.462883 22.086838 35.448940 0.348284 0.898147 0.079925 0.000588 -203861.000000 0 0 1
24.826979 9.417383 21.160438 33.953352 0.362553 0.897942 0.073369 -0.000454 333824.000000 0 0 1
23.614279 9.199583 21.869838 33.474711 0.371489 0.858829 0.061142 0.002587 846455.000000 0 0 1
22.487379 8.960683 21.013938 32.055602 0.379192 0.855890 0.047473 0.007533 -132651.000000 0 0 1
21.145179 9.184983 21.664238 31.635766 0.409786 0.816464 0.048688 0.002443 -774554.000000 0 0 1
20.927779 8.240183 22.690738 31.949055 0.375101 0.780991 0.074862 0.001190 -39543.700000 0 0 1
19.581579 8.288683 23.099198 31.396074 0.400421 0.744045 0.065585 -0.001006 -13338.000000 0 0 1
19.405279 7.590183 24.501038 32.163280 0.372845 0.704755 0.082957 0.000812 79511.900000 0 0 1
19.743479 6.176983 24.500088 32.065782 0.303215 0.701218 0.087630 -0.005114 320853.000000 0 0 1
19.473179 5.588883 25.743178 32.758991 0.279492 0.666750 0.114213 -0.026243 111448.000000 0 0 1
20.012279 4.093183 25.803118 32.909670 0.201751 0.669618 0.114930 -0.029408 243961.000000 0 0 1
21.425279 4.103983 25.828398 33.808156 0.189256 0.701354 0.122413 -0.020648 170816.000000 0 0 1
21.979279 2.793683 25.600308 33.856597 0.126427 0.713403 0.095205 -0.019507 846272.000000 0 0 1
23.523279 2.750983 25.364758 34.702788 0.116418 0.751136 0.095890 -0.023123 1223400.000000 0 0 1
24.360079 3.023083 26.531838 36.145413 0.123469 0.746558 0.106760 -0.032387 1955110.000000 0 0 1
25.761179 3.099383 26.131178 36.825032 0.119737 0.781861 0.108999 -0.034298 1634530.000000 0 0 1
26.774379 3.257183 27.286078 38.366739 0.121058 0.779605 0.076707 -0.035770 -1093610.000000 0 0 1
26.685779 2.194083 28.223268 38.903697 0.082035 0.759087 0.064947 -0.033361 222644.000000 0 0 1
27.592079 2.350483 29.320558 40.330419 0.084982 0.756841 0.074529 -0.020117 451532.000000 0 0 1
29.101479 2.387083 29.000728 41.153815 0.081843 0.788809 0.078315 -0.027964 -1168620.000000 0 0 1
29.502479 3.670483 28.466518 41.160799 0.123777 0.807104 0.065453 -0.015168 -314790.000000 0 0 1
30.819379 3.811383 27.985848 41.803929 0.123044 0.837321 0.052162 -0.013252 -154119.000000 0 0 1
31.152179 2.934183 26.756168 41.169895 0.093912 0.863348 0.050974 -0.008361 -1082000.000000 0 0 1
30.559679 3.354983 25.573948 39.989708 0.109347 0.876931 0.038006 -0.003736 -155834.000000 0 0 1
30.668379 2.404683 24.567238 39.368530 0.078249 0.896904 0.046269 0.012371 -404893.000000 0 0 1
30.196479 2.752183 23.135678 38.140024 0.090891 0.919021 0.051270 0.006136 -273582.000000 0 0 1
30.965979 3.711483 22.477938 38.443786 0.119288 0.946291 0.052007 0.002371 -155641.000000 0 0 1
32.200979 3.082183 22.097438 39.175243 0.095426 0.971494 0.048669 0.002027 113406.000000 0 0 1
33.166179 4.152083 21.523438 39.755422 0.124542 0.998699 0.066349 -0.005293 -693792.000000 0 0 1
32.910279 4.504983 20.177538 38.865337 0.136041 1.024922 0.066736 -0.008910 -223021.000000 0 0 1
33.451679 5.701583 19.684338 39.230040 0.168820 1.045156 0.078025 -0.000368 271153.000000 0 0 1
34.999879 5.893983 19.648838 40.568552 0.166835 1.065192 0.072321 -0.002194 229118.000000 0 0 1
35.702779 5.842483 20.921838 41.791702 0.162205 1.046479 0.076082 -0.006205 205657.000000 0 0 1
35.522679 6.978283 21.799338 42.258352 0.193976 1.028787 0.083907 -0.018147 -405547.000000 0 0 1
36.196479 6.896183 23.180688 43.532594 0.188265 1.009256 0.074368 -0.005489 8651.280000 0 0 1
35.633379 5.851083 23.950788 43.331433 0.162750 0.985154 0.064937 0.004222 72177.400000 0 0 1
36.249579 5.697483 25.191568 44.509644 0.155898 0.969175 0.075502 -0.002288 -132648.000000 0 0 1
35.445679 4.699183 26.009958 44.215341 0.131806 0.941895 0.071317 0.002330 34555.500000 0 0 1
35.370979 3.454283 25.403018 43.684683 0.097350 0.950215 0.072659 -0.002980 40928.000000 0 0 1
34.665779 2.549383 26.222118 43.540959 0.073410 0.924492 0.062870 -0.007962 -328963.000000 0 0 1
34.841079 1.105383 25.702098 43.309589 0.031716 0.935457 0.057676 -0.001761 676724.000000 0 0 1
33.894279 0.762983 24.649808 41.916791 0.022507 0.942132 0.065610 -0.002804 513859.000000 0 0 1
33.951479 -0.607817 24.270598 41.738882 -0.017901 0.950242 0.060469 -0.004338 -439109.000000 0 0 1
32.850779 -1.053417 23.324418 40.302752 -0.032056 0.953626 0.067181 0.004158 -192262.000000 0 0 1
31.574679 -1.138817 23.936438 39.638496 -0.036052 0.922451 0.057547 0.006736 -588798.000000 0 0 1
30.778479 -1.873417 23.052228 38.499736 -0.060793 0.928840 0.073156 0.002182 453534.000000 0 0 1
29.244179 -1.785617 23.341568 37.459835 -0.060983 0.898085 0.038940 0.013032 479791.000000 0 0 1
28.728079 -0.487617 23.196498 36.927196 -0.016972 0.891599 0.041308 0.014053 -1089210.000000 0 0 1
27.344779 -0.608817 23.280828 35.918026 -0.022261 0.865623 0.054090 0.005792 -491978.000000 0 0 1
26.652479 0.780383 23.131268 35.298997 0.029272 0.856223 0.050280 0.009638 -22838.200000 0 0 1
26.833879 1.320083 21.852438 34.631326 0.049155 0.887952 0.045834 -0.001868 113452.000000 0 0 1
25.967379 2.414083 21.597538 33.861279 0.092700 0.879127 0.070692 -0.004292 -211979.000000 0 0 1
26.343279 3.272383 20.320138 33.430298 0.123588 0.917464 0.074523 -0.005582 -286995.000000 0 0 1
26.012479 2.701683 19.060638 32.361336 0.103490 0.940983 0.070548 -0.003886 372261.000000 0 0 1
25.207379 3.615083 18.324638 31.373128 0.142442 0.947041 0.081351 -0.012476 50047.700000 0 0 1
24.720379 3.031983 16.994738 30.151471 0.122042 0.972004 0.084809 -0.015403 347208.000000 0 0 1
25.793779 2.813583 16.055038 30.512285 0.108650 1.016691 0.090401 -0.021308 742756.000000 0 0 1
25.415879 2.795083 14.685638 29.486393 0.109534 1.049450 0.102839 -0.031471 279407.000000 0 0 1
24.439379 1.684183 14.088238 28.259479 0.068804 1.048893 0.108496 -0.006794 688748.000000 0 0 1
23.051279 1.926283 14.253738 27.170592 0.083371 1.018549 0.108340 -0.006646 308944.000000 0 0 1
22.424479 0.791483 13.723238 26.302300 0.035281 1.021895 0.125853 -0.014543 -761609.000000 0 0 1
20.899779 0.614783 13.949638 25.135058 0.029407 0.982449 0.110856 -0.026145 142473.000000 0 0 1
20.043879 1.449583 13.165238 24.024610 0.072195 0.990837 0.131091 -0.027215 725338.000000 0 1 0
20.045879 1.211483 11.780238 23.282589 0.060362 1.040293 0.138864 -0.017154 -1211400.000000 0 1 0
19.692779 -0.203617 11.221838 22.666642 -0.010339 1.052868 0.128549 -0.010989 508433.000000 0 1 0
20.745979 -1.225117 11.226538 23.620578 -0.058985 1.075507 0.148544 -0.031454 1369430.000000 0 1 0
21.777579 -0.914917 10.288238 24.102860 -0.041987 1.129793 0.158355 -0.029771 -644592.000000 0 1 0
22.887079 -1.947617 10.386438 25.208921 -0.084892 1.146133 0.187215 -0.049473 -785995.000000 0 0 1
23.568079 -1.872517 11.584038 26.327754 -0.079285 1.115205 0.171805 -0.048197 491300.000000 0 0 1
24.776879 -2.649717 11.515638 27.450404 -0.106538 1.137894 0.126417 -0.040195 683213.000000 0 0 1
25.439379 -2.772717 12.915138 28.664451 -0.108565 1.103401 0.129531 -0.026927 129419.000000 0 0 1
26.099379 -1.623317 13.432838 29.398195 -0.062118 1.096259 0.116651 -0.024711 192056.000000 0 0 1
26.439179 -1.722917 14.803538 30.350344 -0.065073 1.061280 0.093608 -0.016097 121287.000000 0 0 1
27.440979 -0.648717 15.275838 31.413045 -0.023636 1.062958 0.122237 -0.018332 -585161.000000 0 0 1
28.785879 -0.965817 15.355638 32.639780 -0.033539 1.080987 0.124618 -0.019282 -652390.000000 0 0 1
29.571879 0.187583 15.468038 33.373514 0.006343 1.088875 0.103143 -0.019673 1078670.000000 0 0 1
31.107579 -0.030017 15.803538 34.891750 -0.000965 1.100747 0.101296 -0.019365 1219670.000000 0 0 1
31.785179 -0.630417 14.691338 35.021857 -0.019831 1.137912 0.131258 -0.023016 1253650.000000 0 0 1
33.192079 -0.785217 14.996338 36.431042 -0.023652 1.146548 0.121084 -0.029338 1281320.000000 0 0 1
33.962179 -1.741717 14.025238 36.785466 -0.051239 1.179625 0.120817 -0.042323 51043.400000 0 0 1
34.035779 -1.271417 12.705638 36.352222 -0.037338 1.213743 0.123284 -0.043053 266503.000000 0 0 1
34.770379 -2.068717 11.793338 36.774199 -0.059426 1.244332 0.121976 -0.044200 -63694.000000 0 0 1
34.570079 -1.697917 10.312038 36.115252 -0.049076 1.281235 0.158455 -0.034214 20106.500000 0 0 1
35.207779 -0.526217 9.805438 36.551488 -0.014945 1.299206 0.129531 -0.029245 500995.000000 0 0 1
34.229879 0.485083 9.617838 35.558723 0.014170 1.296907 0.131340 -0.035488 -232590.000000 0 0 1
34.694479 1.857283 9.057638 35.905392 0.053481 1.315777 0.127602 -0.033689 -266766.000000 0 0 1
34.964279 2.000783 7.698538 35.857655 0.057161 1.354415 0.127057 -0.024553 204227.000000 0 0 1
35.128179 3.374683 7.437538 36.065142 0.095774 1.363081 0.119859 -0.017946 194840.000000 0 0 1
35.794679 3.624283 5.989038 36.472772 0.100908 1.405844 0.119397 -0.015471 199947.000000 0 0 1
36.043479 4.922783 5.642438 36.813086 0.135739 1.416917 0.094520 -0.006777 120498.000000 0 0 1
36.678579 4.855883 4.375938 37.256498 0.131625 1.453070 0.142974 -0.012907 -50520.000000 0 0 1
37.109479 6.273783 3.858938 37.833388 0.167478 1.468620 0.149072 -0.028650 -239462.000000 0 0 1
36.027079 7.133183 3.582938 36.900816 0.195467 1.473547 0.154548 -0.035414 -215280.000000 0 0 1
36.326179 8.466583 3.145238 37.432163 0.228983 1.486672 0.144846 -0.037053 -1185550.000000 0 0 1
35.145579 9.402583 3.362338 36.536634 0.261411 1.478639 0.169832 -0.041203 213881.000000 0 0 1
33.957779 9.370383 2.586738 35.321751 0.269242 1.497497 0.184605 -0.052708 369525.000000 0 0 1
33.232579 8.167283 2.732838 34.330413 0.240985 1.491108 0.203359 -0.043715 -1155110.000000 0 0 1
31.966579 8.202483 1.856438 33.054338 0.251177 1.514604 0.214940 -0.052524 -16142.600000 0 0 1
32.253979 8.182283 0.436538 33.278514 0.248442 1.557678 0.217355 -0.048493 565923.000000 0 0 1
31.042479 7.920283 -0.259162 32.038002 0.249814 1.578886 0.204960 -0.041270 393690.000000 0 0 1
31.298179 7.804083 -1.757462 32.304310 0.244363 1.625227 0.155985 -0.036732 309671.000000 0 0 1
30.144779 7.143583 -2.283162 31.063666 0.232684 1.644362 0.176868 -0.030861 1067930.000000 0 0 1
30.468379 6.710583 -3.606862 31.406425 0.216786 1.685895 0.149255 -0.032149 -376962.000000 0 0 1
29.366779 5.961083 -4.356662 30.280732 0.200266 1.715173 0.176017 -0.023775 -452244.000000 0 0 1
29.431179 4.572683 -4.119062 30.067764 0.154136 1.708221 0.172703 -0.023338 1576260.000000 0 0 1
28.285579 3.958683 -4.776362 28.957880 0.139051 1.736495 0.150758 -0.012234 691330.000000 0 0 1
28.290379 2.419883 -4.835362 28.802467 0.085330 1.739475 0.176899 -0.012137 -376867.000000 0 0 1
28.021279 1.786683 -3.614462 28.309869 0.063675 1.698821 0.191772 -0.019778 414472.000000 0 0 1
27.823479 0.350583 -3.770762 28.080021 0.012600 1.705490 0.179575 -0.028372 -142814.000000 0 0 1
27.992779 -0.287617 -2.401062 28.097038 -0.010274 1.656357 0.184066 -0.023174 379847.000000 0 0 1
29.309679 0.079383 -1.993362 29.377493 0.002708 1.638702 0.169744 -0.026163 577751.000000 0 0 1
29.325479 -0.059317 -0.597162 29.331619 -0.002023 1.591157 0.187244 -0.022275 -226838.000000 0 0 1
30.623179 0.436283 0.044038 30.626319 0.014246 1.569358 0.209795 -0.024393 -478330.000000 0 0 1
31.765179 -0.267717 -0.325462 31.767975 -0.008428 1.581041 0.172176 -0.025269 -587185.000000 0 0 1
32.944579 0.302183 0.151738 32.946315 0.009172 1.566191 0.140736 -0.027953 -229075.000000 0 0 1
-3.133121 -21.160317 -8.413887 22.986278 1.423798 1.945546 0.060010 -0.008811 164271.000000 0 1 0
-3.448521 -21.688817 -7.154587 23.097299 1.413116 1.885735 0.060651 -0.011017 -427652.000000 0 1 0
-2.912521 -22.949617 -7.023587 24.176404 1.444562 1.865560 0.060306 -0.006660 -422112.000000 0 1 0
-3.274721 -23.692817 -5.726987 24.594141 1.433451 1.805814 0.061419 -0.003284 -284286.000000 0 1 0
-2.862021 -22.988817 -4.559087 23.610637 1.446937 1.765111 0.054373 -0.005793 -76881.200000 0 1 0
-3.048921 -23.810417 -3.382287 24.241942 1.443440 1.710775 0.060583 -0.007307 62695.400000 0 1 0
-2.829621 -23.055017 -2.060487 23.319224 1.448674 1.659272 0.056120 -0.007066 -278878.000000 0 1 0
-1.473021 -22.823717 -1.827187 22.944073 1.506347 1.650517 0.059132 -0.013130 -850269.000000 0 1 0
-1.292521 -22.512017 -0.494887 22.554522 1.513445 1.592740 0.052799 -0.018742 1050260.000000 0 1 0
0.237179 -22.400617 -0.160187 22.402446 -1.560209 1.577947 0.055615 -0.022218 999484.000000 0 1 0
0.985479 -21.353317 -0.762887 21.389655 -1.524678 1.606470 0.038803 -0.018713 757258.000000 0 1 0
2.204479 -21.091917 -0.029087 21.206828 -1.466657 1.572168 0.034324 -0.021679 731866.000000 0 1 0
3.060879 -19.945517 -0.563487 20.186881 -1.418522 1.598713 0.034294 -0.025571 222823.000000 0 1 0
3.826879 -20.393217 -1.669887 20.816264 -1.385299 1.651103 0.032283 -0.022315 -136760.000000 0 1 0
4.602179 -19.400317 -2.329387 20.074322 -1.337880 1.687096 0.039512 -0.020178 -647458.000000 0 1 0
5.425579 -19.889717 -3.459487 20.904684 -1.304492 1.737050 0.036815 -0.015988 -422325.000000 0 1 0
6.615279 -20.524617 -2.951987 21.765479 -1.259000 1.706843 0.049186 -0.030312 381830.000000 0 1 0
7.184479 -21.387517 -3.954487 22.905908 -1.246720 1.744306 0.044991 -0.021245 662040.000000 0 1 0
8.524679 -20.803717 -4.505387 22.929530 -1.181898 1.768572 0.060128 -0.017202 173901.000000 0 1 0
8.221379 -19.637717 -5.277687 21.933650 -1.174314 1.813801 0.045220 -0.015868 -443132.000000 0 1 0
9.358279 -19.197617 -5.942387 22.168398 -1.117222 1.842172 0.058124 -0.012700 -1130520.000000 0 1 0
9.184879 -17.940317 -6.782787 21.265540 -1.097620 1.895425 0.049689 -0.009557 428966.000000 0 1 0
10.162379 -17.693117 -7.834487 21.856339 -1.049436 1.937407 0.058613 -0.002990 838665.000000 0 1 0
9.930179 -16.432717 -8.443287 20.974550 -1.027226 1.985096 0.054095 -0.007307 99879.400000 0 1 0
10.617579 -16.449217 -9.829087 21.907092 -0.997608 2.036075 0.063127 -0.008793 110291.000000 0 1 0
10.001379 -17.227717 -10.852287 22.684664 -1.044809 2.069625 0.069183 -0.010465 491073.000000 0 1 0
9.053479 -16.417417 -11.581887 22.037177 -1.066836 2.124171 0.047556 -0.019158 480028.000000 0 1 0
8.444979 -17.077617 -12.852087 22.981271 -1.111554 2.164267 0.061341 -0.024454 -647534.000000 0 1 0
7.497779 -18.052317 -12.638787 23.277495 -1.177139 2.144756 0.059144 -0.015781 -612773.000000 0 1 0
7.017979 -18.468017 -13.866587 24.137148 -1.207643 2.182779 0.075028 -0.014101 1001840.000000 0 1 0
5.685079 -19.304317 -13.575887 24.275121 -1.284395 2.164278 0.078374 -0.008382 1122450.000000 0 1 0
5.986779 -20.527017 -12.996787 25.022319 -1.287014 2.116954 0.084144 -0.010622 261377.000000 0 0 1
4.779979 -21.208717 -12.670287 25.163348 -1.349122 2.098466 0.116450 -0.019055 500364.000000 0 0 1
4.967679 -22.709817 -12.403587 26.348864 -1.355443 2.060931 0.081794 -0.012359 -175937.000000 0 0 1
5.397579 -23.565317 -13.444587 27.662519 -1.345633 2.078328 0.099729 -0.015835 -40432.100000 0 0 1
5.057179 -24.940617 -13.190387 28.663492 -1.370740 2.048995 0.076834 -0.022305 417298.000000 0 0 1
3.595179 -25.313997 -13.564687 28.943471 -1.429716 2.058571 0.097953 -0.028510 -106833.000000 0 0 1
2.622079 -24.652017 -12.748087 27.876710 -1.464831 2.045756 0.113127 -0.028829 595972.000000 0 0 1
1.280379 -24.897917 -13.195987 28.207796 -1.519416 2.057612 0.102835 -0.036455 904758.000000 0 0 1
0.650179 -26.313267 -12.908387 29.316160 -1.546092 2.026747 0.096043 -0.027231 -916873.000000 0 0 1
1.181379 -27.388397 -13.673787 30.634824 -1.527689 2.033476 0.084128 -0.022525 217080.000000 0 0 1
0.578779 -28.626357 -13.347787 31.590612 -1.550581 2.007024 0.082686 -0.020896 1409100.000000 0 0 1
-0.954121 -28.896587 -13.641187 31.968814 1.537790 2.011640 0.078361 -0.025037 1802110.000000 0 0 1
-2.000921 -28.278947 -12.860087 31.130120 1.500158 1.996660 0.083763 -0.025854 -1189.430000 0 0 1
-3.234121 -28.781257 -13.256487 31.852076 1.458897 2.000046 0.086569 -0.023307 -724163.000000 0 0 1
-4.470221 -27.968697 -12.811787 31.086537 1.412307 1.995590 0.064381 -0.017538 313619.000000 0 0 1
-4.906321 -28.193837 -11.454287 30.824749 1.398501 1.951522 0.056672 -0.029253 39825.300000 0 0 1
-5.584721 -29.402527 -11.212487 31.959624 1.383092 1.929257 0.061173 -0.027723 -639767.000000 0 0 1
-5.978821 -29.455627 -9.707587 31.585084 1.370540 1.883200 0.050922 -0.030559 208938.000000 0 0 1
-7.222621 -28.928097 -9.264887 31.222415 1.326124 1.872072 0.045461 -0.023289 -25048.000000 0 0 1
-7.289621 -27.494007 -9.327387 29.934247 1.311625 1.887668 0.050809 -0.025474 -320851.000000 0 0 1
-8.716421 -26.994717 -8.883787 29.725619 1.258471 1.874294 0.037583 -0.021727 666429.000000 0 0 1
-9.816621 -27.241767 -9.691887 30.535432 1.224929 1.893781 0.058425 -0.018874 -403499.000000 0 0 1
-10.156321 -28.592647 -9.912787 31.921054 1.229490 1.886558 0.073335 -0.032059 -1044830.000000 0 0 1
-11.440421 -28.791787 -10.737187 32.789288 1.192576 1.904411 0.079289 -0.029591 -153994.000000 0 0 1
-11.220821 -28.339717 -12.039787 32.771983 1.193795 1.946987 0.096111 -0.033572 223300.000000 0 0 1
-12.020621 -29.115327 -12.928587 34.049170 1.179251 1.960272 0.101590 -0.033947 84152.100000 0 0 1
-12.334921 -28.347537 -14.269187 34.049124 1.160375 2.003224 0.110607 -0.031470 -315235.000000 0 0 1
-13.366321 -27.412617 -14.259387 33.666604 1.117120 2.008154 0.092996 -0.047695 -512165.000000 0 0 1
-13.100221 -26.229237 -13.544087 32.295990 1.107588 2.003552 0.096470 -0.033066 -279318.000000 0 0 1
-14.107421 -25.090857 -13.715387 31.885456 1.058594 2.015450 0.123463 -0.031544 -143419.000000 0 0 1
-13.755021 -24.227217 -14.760587 31.528298 1.054427 2.058014 0.113477 -0.027915 38671.600000 0 0 1
-14.766721 -23.251817 -14.888387 31.310815 1.004983 2.066332 0.131444 -0.031148 -381766.000000 0 0 1
-14.683321 -22.460417 -16.216187 31.353388 0.991795 2.114380 0.125908 -0.030190 49721.100000 0 0 1
-14.030421 -21.188717 -16.138987 30.104507 0.985917 2.136605 0.098380 -0.025090 317136.000000 0 0 1
-13.898921 -20.585217 -17.407087 30.330477 0.976917 2.182074 0.084103 -0.013731 -63039.500000 0 0 1
-13.872321 -18.989917 -17.427187 29.270550 0.939886 2.208539 0.080561 -0.020953 504129.000000 0 0 1
-12.518221 -18.546017 -17.390187 28.338652 0.977059 2.231479 0.074038 -0.016279 484547.000000 0 0 1
-12.474021 -17.247417 -17.850087 27.779492 0.944643 2.268635 0.076761 -0.014550 -526711.000000 0 0 1
-11.093021 -16.632117 -17.958987 26.873921 0.982588 2.302675 0.075415 -0.024863 -603933.000000 0 0 1
-10.570221 -16.319217 -16.645287 25.595156 0.996028 2.278815 0.079851 -0.015910 1362090.000000 0 0 1
-9.257821 -15.709317 -16.885387 24.851684 1.038267 2.317804 0.071677 -0.016736 774128.000000 0 1 0
-8.644321 -14.923317 -15.667187 23.300009 1.045774 2.308258 0.059592 -0.012270 -115727.000000 0 1 0
-8.082121 -15.636017 -14.612487 22.876418 1.093727 2.263679 0.051474 -0.009140 -206626.000000 0 1 0
-7.040721 -16.508517 -14.925787 23.342708 1.167664 2.264540 0.050035 -0.003823 -979900.000000 0 1 0
-6.647421 -17.365517 -13.701687 23.097308 1.205210 2.205844 0.045216 -0.007144 -744691.000000 0 1 0
-6.001321 -16.644817 -12.670787 21.762689 1.224752 2.192259 0.040239 -0.009031 343448.000000 0 1 0
-5.725221 -17.485117 -11.547787 21.722313 1.254365 2.131296 0.040038 -0.010999 168945.000000 0 1 0
-4.681521 -18.654217 -11.726987 22.525956 1.324911 2.118349 0.054859 -0.015265 -535816.000000 0 1 0
-3.392821 -18.161717 -11.962287 22.010350 1.386113 2.145379 0.042290 -0.002357 -933751.000000 0 1 0
-2.464421 -19.173217 -11.606887 22.547848 1.442963 2.111532 0.045757 -0.002967 168156.000000 0 1 0
-1.042621 -18.612217 -11.839587 22.083422 1.514837 2.136642 0.035232 0.001870 -699429.000000 0 1 0
-0.756221 -18.319517 -13.214987 22.601161 1.529540 2.195311 0.045876 -0.001287 -204570.000000 0 1 0
0.465379 -17.634017 -13.442587 22.178329 -1.544411 2.221962 0.052258 -0.009363 966356.000000 0 1 0
1.735779 -18.592917 -13.400487 22.984398 -1.477709 2.193244 0.069001 -0.020830 -47791.300000 0 1 0
1.908379 -19.579317 -14.409687 24.385050 -1.473634 2.202999 0.094366 -0.016094 278983.000000 0 1 0
1.028179 -20.721417 -14.472987 25.296277 -1.521218 2.179908 0.086954 -0.015599 -795539.000000 0 0 1
1.055479 -21.457817 -15.854987 26.700797 -1.521647 2.206572 0.105747 -0.023259 448419.000000 0 0 1
2.124079 -22.351217 -16.203787 27.688469 -1.476049 2.195945 0.136879 -0.021276 563446.000000 0 0 1
3.406479 -21.751817 -16.105087 27.278554 -1.415451 2.202343 0.125538 -0.036254 -1287240.000000 0 0 1
4.582179 -22.586917 -16.471987 28.328282 -1.370644 2.191328 0.116206 -0.023566 -751867.000000 0 0 1
4.801979 -22.821817 -17.848487 29.367718 -1.363410 2.224032 0.102659 -0.017138 -75671.900000 0 0 1
6.069479 -23.415717 -17.964587 30.130728 -1.317173 2.209583 0.104678 -0.017431 -4361.910000 0 0 1
6.679879 -23.412317 -19.395687 31.127963 -1.292866 2.243490 0.088596 -0.012111 113039.000000 0 0 1
7.060779 -22.079417 -19.745687 30.450738 -1.261284 2.276339 0.100296 -0.021274 221924.000000 0 0 1
7.727979 -21.995617 -21.016787 31.388440 -1.232927 2.304427 0.060024 -0.010158 -253152.000000 0 0 1
8.006879 -20.580517 -21.519387 30.834264 -1.199764 2.343264 0.060523 -0.012748 -240962.000000 0 0 1
6.789779 -19.927217 -21.731287 30.256304 -1.242405 2.372066 0.093573 -0.017644 -375236.000000 0 0 1
6.930979 -18.577917 -22.175087 29.747470 -1.213713 2.411998 0.097390 -0.017870 -504403.000000 0 0 1
5.633179 -17.869117 -22.511887 29.288618 -1.265411 2.447481 0.086189 -0.018947 -1330560.000000 0 0 1
4.924579 -18.375017 -23.631387 30.337027 -1.308946 2.463805 0.069227 -0.013899 305146.000000 0 0 1
3.977279 -17.415617 -24.118687 30.013889 -1.346273 2.504089 0.084382 -0.015906 936307.000000 0 0 1
2.648879 -17.154417 -23.349487 29.094486 -1.417592 2.502337 0.082931 -0.009969 -140489.000000 0 0 1
2.906279 -16.517017 -22.105287 27.747109 -1.396623 2.492562 0.085925 -0.017796 -77760.200000 0 0 1
1.689679 -16.165717 -21.432287 26.898482 -1.466652 2.492751 0.071353 -0.013631 759642.000000 0 0 1
1.820879 -15.329117 -20.134887 25.371463 -1.452565 2.487506 0.075548 -0.024201 38202.700000 0 0 1
2.482179 -14.116517 -20.390587 24.924151 -1.396740 2.528905 0.078428 -0.021170 -177691.000000 0 1 0
2.715879 -13.464217 -19.130987 23.551132 -1.371756 2.518910 0.075966 -0.021826 -196016.000000 0 1 0
3.761579 -12.340117 -19.266087 23.186420 -1.274919 2.551558 0.075935 -0.023820 559245.000000 0 1 0
5.106779 -12.903217 -19.320387 23.787593 -1.193937 2.518717 0.083706 -0.026059 1367460.000000 0 1 0
6.158879 -11.954017 -19.507587 23.693380 -1.095052 2.538058 0.084888 -0.021017 358843.000000 0 1 0
6.355579 -10.805817 -18.488287 22.337767 -1.039126 2.545738 0.089588 -0.019363 -948898.000000 0 1 0
5.352379 -9.783417 -18.334987 21.460078 -1.070192 2.595146 0.053708 -0.011573 479636.000000 0 1 0
5.259379 -8.698817 -19.271887 21.788440 -1.026995 2.656219 0.063298 -0.014261 -364197.000000 0 1 0
4.717479 -8.979017 -20.688087 23.040710 -1.087044 2.685755 0.072727 -0.023382 131113.000000 0 1 0
3.301179 -9.148017 -20.604987 22.784852 -1.224477 2.700600 0.065667 -0.025751 106999.000000 0 1 0
2.859579 -9.309817 -21.923087 23.988990 -1.272786 2.723540 0.065501 -0.024471 -842314.000000 0 1 0
1.364879 -9.164517 -22.079587 23.944925 -1.422952 2.744266 0.056949 -0.021471 -711202.000000 0 1 0
0.910779 -7.833217 -21.829887 23.210618 -1.455045 2.794933 0.059617 -0.025207 403965.000000 0 1 0
-0.505121 -7.635317 -21.877587 23.177188 1.504737 2.805127 0.056940 -0.027471 924101.000000 0 1 0
-1.028821 -6.632117 -22.985187 23.944984 1.416896 2.857501 0.060218 -0.020540 6804.370000 0 1 0
-0.745721 -7.149717 -24.266287 25.308639 1.466871 2.853594 0.054429 -0.023165 -192751.000000 0 0 1
-1.295121 -6.395917 -25.389997 26.215206 1.371006 2.890018 0.071156 -0.024981 17434.800000 0 0 1
-0.907021 -4.883817 -25.610737 26.088009 1.387169 2.950016 0.077928 -0.021570 120607.000000 0 0 1
-1.536921 -4.370617 -26.775627 27.173491 1.232654 2.970260 0.084286 -0.019799 -68226.800000 0 0 1
-1.149121 -3.032317 -27.127097 27.320227 1.208560 3.022618 0.069602 -0.023769 -529720.000000 0 0 1
-1.569021 -1.839517 -26.229767 26.340963 0.864591 3.049676 0.067849 -0.025749 629523.000000 0 0 1
-2.977621 -1.670517 -26.024307 26.247312 0.511268 3.011144 0.059447 -0.029373 427393.000000 0 0 1
-3.560121 -1.005017 -27.119927 27.371060 0.275139 3.006026 0.072757 -0.022687 -535732.000000 0 0 1
-5.098321 -1.141717 -27.133027 27.631459 0.220305 2.951366 0.083432 -0.029532 107.855000 0 0 1
-5.671921 -0.322417 -26.137887 26.748154 0.056783 2.927571 0.084878 -0.027818 -923692.000000 0 0 1
-7.045921 -0.438317 -26.081137 27.019675 0.062129 2.877251 0.097796 -0.036155 -941306.000000 0 0 1
-7.890021 0.744183 -25.576147 26.775838 -0.094041 2.841114 0.099453 -0.029031 -1043570.000000 0 0 1
-7.863621 1.908883 -26.442077 27.652555 -0.238142 2.844616 0.092333 -0.029148 784970.000000 0 0 1
-8.962221 2.098283 -27.362007 28.868731 -0.229983 2.817085 0.112425 -0.036989 1387220.000000 0 0 1
-10.426021 1.791783 -26.867737 28.875382 -0.170194 2.766496 0.113089 -0.035869 -281873.000000 0 0 1
-11.421321 2.422083 -27.617577 29.984056 -0.208971 2.741630 0.123284 -0.042190 454189.000000 0 0 1
-12.712721 1.827283 -27.483297 30.336180 -0.142759 2.704433 0.070074 -0.020797 862858.000000 0 0 1
-13.904921 2.573683 -28.155307 31.507014 -0.183020 2.676144 0.043532 -0.003750 340236.000000 0 0 1
-15.077521 1.731183 -28.141967 31.973409 -0.114318 2.647012 0.024107 0.000886 687988.000000 0 0 1
-16.233021 2.345583 -28.670547 33.030485 -0.143501 2.621962 0.021433 0.001850 357540.000000 0 0 1
-17.004721 3.442083 -27.878267 32.836050 -0.199721 2.584913 0.019644 0.009161 -609448.000000 0 0 1
-16.343121 4.688483 -27.730437 32.527782 -0.279375 2.591575 0.047408 0.000305 -73227.900000 0 0 1
-16.117921 5.533883 -28.901237 33.551344 -0.330727 2.608822 0.045621 0.010860 -509594.000000 0 0 1
-17.268821 6.151683 -29.708417 34.909102 -0.342215 2.588725 0.037727 0.013829 -559572.000000 0 0 1
-18.002521 7.063283 -28.970357 34.831915 -0.373894 2.552993 0.035962 0.017038 -67068.500000 0 0 1
-18.896921 7.796483 -29.787627 36.127295 -0.391304 2.540147 0.045693 0.010442 -89501.700000 0 0 1
-19.699721 8.922183 -29.124527 36.275645 -0.425270 2.502886 0.045680 0.014019 -632194.000000 0 0 1
-18.880321 9.883683 -28.543537 35.621443 -0.482264 2.500265 0.052121 0.014918 -34313.400000 0 0 1
-19.522821 10.852483 -27.704617 35.587395 -0.507352 2.463061 0.063136 0.010644 -188977.000000 0 0 1
-9.185421 25.452483 30.524848 40.791753 -1.224457 0.725287 0.063313 -0.017799 -1054500.000000 0 0 1
-9.702221 26.736083 30.711728 41.858827 -1.222686 0.747048 0.072493 -0.011714 -203372.000000 0 0 1
-8.988621 27.612583 31.525258 42.861310 -1.256089 0.744366 0.080335 -0.021102 515771.000000 0 0 1
-7.567021 28.069683 31.041478 42.529286 -1.307476 0.752643 0.076392 -0.014886 709765.000000 0 0 1
-7.756521 28.978983 29.957898 42.395998 -1.309267 0.786085 0.095122 -0.016884 430312.000000 0 0 1
-6.459621 29.300383 29.494518 42.073337 -1.353805 0.793961 0.095283 -0.013081 140372.000000 0 0 1
-6.402721 30.533983 28.582028 42.311360 -1.364099 0.829131 0.114992 -0.010227 -204642.000000 0 0 1
-6.504321 31.666683 29.433568 43.719788 -1.368214 0.832225 0.119001 -0.017986 361238.000000 0 0 1
-6.206321 32.899183 28.818818 44.174641 -1.384341 0.860071 0.129251 -0.027271 -6734.690000 0 0 1
-6.734121 -33.786342 29.756958 45.522981 1.374060 0.858374 0.124600 -0.027849 196595.000000 0 0 1
-6.014721 -33.701342 31.001098 46.184687 1.394185 0.834913 0.127876 -0.026953 404738.000000 0 0 1
-6.857421 -33.139942 31.964745 46.551314 1.366753 0.813917 0.125413 -0.036561 -41710.300000 0 0 1
-7.902021 -33.912542 32.783772 47.825497 1.341869 0.815524 0.088503 -0.036970 -174426.000000 0 0 1
-7.441421 33.001683 33.733959 47.775158 -1.349019 0.786823 0.104894 -0.029441 -12771.000000 0 0 1
-6.981621 31.787883 33.124138 46.437280 -1.354598 0.776588 0.104564 -0.021251 -219378.000000 0 0 1
-6.755621 30.746883 -33.637357 46.070391 -1.354516 2.389308 0.096928 -0.021146 280312.000000 0 0 1
-5.432921 30.608083 -33.125927 45.427947 -1.395126 2.387944 0.089087 -0.022679 80924.700000 0 0 1
-5.437021 30.295883 -31.747067 44.218525 -1.393223 2.371661 0.114039 -0.025450 -94349.200000 0 0 1
-4.060121 29.969983 -31.110217 43.388132 -1.436143 2.370316 0.102237 -0.029527 634863.000000 0 0 1
-3.370621 28.720583 -31.360987 42.658463 -1.453972 2.396706 0.098875 -0.020538 455538.000000 0 0 1
-3.112221 28.417483 -32.719757 43.449070 -1.461713 2.423497 0.091561 -0.020572 -703933.000000 0 0 1
-2.428721 27.056183 -32.938407 42.695132 -1.481270 2.451959 0.089294 -0.025621 -533592.000000 0 0 1
-1.215821 26.912983 -32.240077 42.014395 -1.525651 2.445507 0.108883 -0.030016 87608.000000 0 0 1
-0.468821 25.734983 -32.475857 41.438996 -1.552581 2.471401 0.118812 -0.030622 456238.000000 0 0 1
0.169179 25.431683 -33.902957 42.381713 1.564144 2.497997 0.096822 -0.018789 -185239.000000 0 0 1
-0.838421 25.118583 33.025756 41.501165 -1.537430 0.650503 0.099741 -0.016808 49380.700000 0 0 1
-0.484921 25.152783 31.660288 40.438489 -1.551520 0.671443 0.106426 -0.014703 32876.400000 0 0 1
-0.140821 26.522783 31.042478 40.830298 -1.565487 0.707052 0.091733 -0.019632 591622.000000 0 0 1
-1.331621 27.307183 30.854948 41.224789 -1.522070 0.725065 0.090955 -0.021141 629357.000000 0 0 1
-1.065421 28.555183 30.222688 41.592600 -1.533503 0.757383 0.087348 -0.019803 -916436.000000 0 0 1
-2.187321 29.523283 30.305638 42.365555 -1.496843 0.773690 0.099230 -0.024670 -918172.000000 0 0 1
-2.388121 29.939383 31.639708 43.625002 -1.491200 0.759376 0.108022 -0.027193 298371.000000 0 0 1
-3.230821 31.107683 31.635278 44.485019 -1.467308 0.779672 0.113900 -0.025274 323081.000000 0 0 1
-2.918121 31.969683 32.918617 45.980554 -1.479771 0.772849 0.115646 -0.025914 -213566.000000 0 0 1
-1.616621 32.460183 32.791255 46.168640 -1.521034 0.780944 0.145801 -0.036205 -560143.000000 0 0 1
-0.984121 32.959283 -33.936207 47.317533 -1.540947 2.370574 0.122152 -0.030899 1143880.000000 0 0 1
0.532179 33.270083 33.572816 47.268547 1.554802 0.780933 0.128795 -0.042821 1113050.000000 0 0 1
0.706279 -33.264542 32.992493 46.856516 -1.549567 0.789617 0.145328 -0.039040 426903.000000 0 0 1
2.082579 -32.991542 32.784429 46.557467 -1.507755 0.789541 0.128569 -0.040049 241353.000000 0 0 1
2.446679 -31.532542 32.260772 45.177924 -1.493359 0.775483 0.134102 -0.040151 -21805.600000 0 0 1
2.120779 -30.569342 33.238196 45.207964 -1.501531 0.744792 0.127798 -0.023041 156450.000000 0 0 1
2.294379 -29.217642 32.830103 44.008527 -1.492430 0.728770 0.094652 -0.025475 -202687.000000 0 0 1
1.806279 -28.233742 33.879778 44.138941 -1.506907 0.695753 0.089188 -0.014871 757953.000000 0 0 1
0.380879 -28.098842 -33.881037 44.018344 -1.557242 2.449172 0.079966 -0.021515 783054.000000 0 0 1
0.077679 -27.502342 -32.662577 42.699283 -1.567972 2.441751 0.074268 -0.022649 -726373.000000 0 0 1
-1.387021 -27.209442 -32.409157 42.339473 1.519865 2.442552 0.123272 -0.034528 -665725.000000 0 0 1
-1.646621 -26.592742 -31.143027 40.985039 1.508955 2.433899 0.123307 -0.027839 -205122.000000 0 0 1
-2.954421 -26.103142 -31.021427 40.650111 1.458093 2.438943 0.126984 -0.035013 -400763.000000 0 0 1
-3.433221 -25.557442 -29.688917 39.324313 1.437262 2.426414 0.129032 -0.035881 -190099.000000 0 0 1
-3.686121 -26.627042 -28.777217 39.379119 1.433235 2.390251 0.125220 -0.035988 2641.220000 0 0 1
-3.975721 -26.261442 -27.467427 38.209020 1.420547 2.372976 0.134804 -0.028617 167645.000000 0 0 1
-2.755321 -25.805542 -26.612417 37.171743 1.464427 2.368754 0.127321 -0.028326 205882.000000 0 0 1
-2.256521 -24.544742 -27.033137 36.583148 1.479119 2.402308 0.125931 -0.029308 128743.000000 0 0 1
-1.172421 -24.127442 -26.235217 35.662229 1.522242 2.397434 0.088400 -0.024419 -1196400.000000 0 0 1
-0.342021 -22.934142 -26.698797 35.198261 1.555884 2.431845 0.051040 -0.019756 342320.000000 0 0 1
0.429779 -23.143742 -27.883697 36.239730 -1.552228 2.448734 0.013544 -0.021572 395743.000000 0 0 1
1.371779 -24.215142 -27.899457 36.968021 -1.514207 2.425980 0.008092 -0.014337 -477128.000000 0 0 1
2.142979 -24.280742 -29.252037 38.076613 -1.482766 2.446886 0.001754 -0.020922 100980.000000 0 0 1
3.165379 -23.321742 -29.427837 37.681837 -1.435894 2.466990 0.026268 -0.022664 -42817.900000 0 0 1
3.719879 -23.570642 -30.685447 38.871703 -1.414269 2.480633 0.039649 -0.018586 -797909.000000 0 0 1
4.814579 -22.576542 -31.127247 38.752882 -1.360688 2.503484 0.059386 -0.032121 240830.000000 0 0 1
5.991779 -22.563642 -30.279407 38.234302 -1.311237 2.484782 0.042090 -0.031442 1697390.000000 0 0 1
6.919679 -23.679842 -30.235937 39.023438 -1.286494 2.457218 0.046875 -0.017450 209734.000000 0 0 1
7.650179 -23.878242 -31.574217 40.319063 -1.260746 2.470446 0.062579 -0.013459 -971633.000000 0 0 1
6.878179 -24.617642 -32.512187 41.356740 -1.298344 2.475335 0.036849 -0.015233 74351.700000 0 0 1
7.144979 -24.440242 -33.911147 42.406863 -1.286377 2.497528 0.063555 -0.017271 -79776.600000 0 0 1
6.639279 -23.109642 33.353693 41.116960 -1.291036 0.624611 0.091979 -0.028514 205232.000000 0 0 1
5.244779 -22.858042 33.361905 40.780074 -1.345250 0.612709 0.095779 -0.031360 96073.000000 0 0 1
4.870579 -21.916942 32.380414 39.402615 -1.352121 0.606263 0.111876 -0.055940 380089.000000 0 0 1
3.463679 -21.228142 32.628700 39.080214 -1.409057 0.582816 0.116511 -0.068183 1708960.000000 0 0 1
2.327879 -22.105442 32.510853 39.383056 -1.465875 0.599703 0.104384 -0.050202 537696.000000 0 0 1
2.156679 -23.010842 33.626763 40.803300 -1.477345 0.602152 0.095742 -0.045002 81353.000000 0 0 1
0.816579 -23.854042 33.587086 41.204058 -1.536577 0.617825 0.098919 -0.039035 925333.000000 0 0 1
0.675379 -24.810842 32.594307 40.968559 -1.543582 0.650810 0.105441 -0.035898 -543063.000000 0 0 1
-0.644121 -25.112242 32.264540 40.890587 1.545152 0.661542 0.128251 -0.041232 -695709.000000 0 0 1
-0.767021 -26.094942 31.084608 40.592944 1.541411 0.698568 0.128942 -0.038120 541383.000000 0 0 1
-2.067121 -26.261242 30.496088 40.298104 1.492245 0.712450 0.135052 -0.045635 521808.000000 0 0 1
-2.038521 -27.348842 29.560168 40.322676 1.496396 0.747942 0.143014 -0.053637 1216670.000000 0 0 1
-3.443221 -27.698642 28.899888 40.178029 1.447121 0.768008 0.156773 -0.043449 1154310.000000 0 0 1
-4.496821 -28.064942 29.768858 41.158805 1.411918 0.762273 0.165340 -0.039243 632720.000000 0 0 1
-5.616921 -28.465942 28.957418 40.992581 1.375978 0.786388 0.163342 -0.034562 396769.000000 0 0 1
-6.921421 -28.774742 29.704978 41.931820 1.334743 0.783552 0.132694 -0.028291 -331700.000000 0 0 1
-8.019221 -29.158042 28.899438 41.829138 1.302406 0.808073 0.143825 -0.028170 381558.000000 0 0 1
-9.263321 -29.307042 29.559968 42.643915 1.264655 0.804903 0.117644 -0.027627 303922.000000 0 0 1
-9.390821 -30.584342 30.447568 44.166094 1.272887 0.810153 0.088814 -0.028051 -678057.000000 0 0 1
-9.505721 -31.892642 29.895698 44.735356 1.281126 0.838903 0.108178 -0.026930 79146.500000 0 0 1
-10.670521 -32.216342 29.166778 44.748783 1.250954 0.860855 0.093089 -0.024290 -176371.000000 0 0 1
-10.802121 -33.706442 28.805388 45.635078 1.260661 0.887682 0.122260 -0.019753 -248022.000000 0 0 1
-10.896121 33.329583 29.946798 46.112875 -1.254828 0.863970 0.116992 -0.014568 377961.000000 0 0 1
-10.376421 32.017883 29.728788 44.906745 -1.257395 0.847297 0.119995 -0.017471 -84533.400000 0 0 1
-10.799921 30.940383 30.728448 44.924192 -1.234963 0.817555 0.101407 -0.005100 446593.000000 0 0 1
-12.205821 30.727083 30.547948 45.014584 -1.192677 0.824910 0.101810 -0.003092 730299.000000 0 0 1
-12.702221 29.485983 31.108758 44.704858 -1.164033 0.801166 0.095440 -0.006247 226568.000000 0 0 1
-12.896821 29.420083 32.640064 45.795666 -1.157658 0.777410 0.104166 -0.019629 -1084840.000000 0 0 1
-13.894321 30.189783 33.162652 46.949298 -1.139466 0.786467 0.099628 -0.013386 -613502.000000 0 0 1
-14.091521 30.030183 -33.320177 47.017199 -1.132054 2.358423 0.101366 -0.024247 -350174.000000 0 0 1
-15.495521 30.406983 -32.847897 47.367500 -1.099495 2.337089 0.089912 -0.023901 -480181.000000 0 0 1
-15.819421 30.026383 -31.538117 46.330233 -1.085900 2.319547 0.064511 -0.020467 105730.000000 0 0 1
-17.139321 30.321483 -31.100917 46.694921 -1.056318 2.299690 0.080146 -0.024084 283551.000000 0 0 1
-17.322421 29.843183 -29.664117 45.504303 -1.044877 2.280880 0.075108 -0.027552 -450101.000000 0 0 1
-17.469121 28.446183 -29.617347 44.626704 -1.020065 2.296509 0.062300 -0.031353 126245.000000 0 0 1
-17.250921 28.068983 -28.256377 43.403743 -1.019718 2.279714 0.051587 -0.023396 -110915.000000 0 0 1
-17.659621 26.593483 -27.987277 42.454248 -0.984602 2.290596 0.040093 -0.027412 796030.000000 0 0 1
-19.070221 26.424283 -28.192517 43.089837 -0.945659 2.284017 0.052281 -0.024265 700857.000000 0 0 1
-19.538821 25.138583 -27.775067 42.251251 -0.910086 2.288131 0.037741 -0.026520 1122610.000000 0 0 1
-21.072521 24.799283 -27.904197 42.868400 -0.866463 2.279601 0.029195 -0.023975 799376.000000 0 0 1
-21.944921 25.360983 -26.965147 43.033453 -0.857485 2.247991 0.031796 -0.019962 412763.000000 0 0 1
-23.246121 24.811183 -27.197997 43.539728 -0.817953 2.245506 0.050417 -0.026517 885400.000000 0 0 1
-24.301421 25.018883 -26.057087 43.537057 -0.799944 2.212428 0.062773 -0.027156 -15127.900000 0 0 1
-24.988621 26.279983 -26.089677 44.673704 -0.810581 2.194450 0.045104 -0.018219 423567.000000 0 0 1
-26.102401 26.322883 -25.188607 44.818471 -0.789604 2.167615 0.062369 -0.018214 415820.000000 0 0 1
-25.921621 25.881583 -23.684887 43.620644 -0.784625 2.144771 0.068075 -0.018746 -884172.000000 0 0 1
-25.752571 24.487583 -23.520087 42.614916 -0.760225 2.155463 0.082679 -0.014116 97992.800000 0 0 1
-26.935041 23.676083 -23.487987 42.868856 -0.721095 2.150652 0.097263 -0.023074 32217.200000 0 0 1
-27.651611 23.648783 -22.132487 42.587832 -0.707529 2.117285 0.097298 -0.020546 382347.000000 0 0 1
-26.847681 23.103883 -21.035687 41.195721 -0.710589 2.106711 0.101648 -0.017155 1102210.000000 0 0 1
-25.819921 23.931983 -20.477787 40.727728 -0.747469 2.097628 0.093183 -0.007916 339695.000000 0 0 1
-25.092931 23.320483 -19.277187 39.307887 -0.748804 2.083362 0.084636 -0.009940 33226.000000 0 0 1
-25.796991 23.489583 -18.059787 39.286144 -0.738616 2.048452 0.095321 -0.011668 -270116.000000 0 0 1
-24.952521 23.297783 -17.005687 38.139328 -0.751117 2.032957 0.101406 -0.021292 -581078.000000 0 0 1
-25.593541 23.346383 -15.585587 37.986753 -0.739514 1.993568 0.094421 -0.017644 -22995.400000 0 0 1
-25.807211 24.620483 -15.023287 38.702447 -0.761869 1.969446 0.094391 -0.019343 -109650.000000 0 0 1
-26.374581 24.545283 -13.749587 38.563461 -0.749489 1.935363 0.065676 -0.016471 49991.600000 0 0 1
-26.552551 25.912383 -13.072987 39.336910 -0.773197 1.909573 0.077303 -0.011767 299369.000000 0 0 1
-25.298751 26.522483 -12.819987 38.830670 -0.809008 1.907260 0.083823 -0.016644 22690.100000 0 0 1
-25.348131 27.422483 -11.695787 39.131978 -0.824687 1.874316 0.088320 -0.014112 687851.000000 0 0 1
-23.897721 27.913783 -11.358387 38.461581 -0.862756 1.870584 0.084711 -0.016444 1118220.000000 0 0 1
-23.043321 26.950683 -10.714687 37.042387 -0.863396 1.864245 0.072776 -0.025368 672833.000000 0 0 1
-21.934921 27.527883 -10.037887 36.601697 -0.897994 1.848602 0.054637 -0.027780 412548.000000 0 0 1
-20.858121 26.580283 -9.460887 35.086764 -0.905441 1.843818 0.109852 -0.032291 71639.500000 0 0 1
-20.076521 25.920183 -10.433387 34.406076 -0.911766 1.878890 0.096482 -0.027153 -13019.800000 0 0 1
-19.198021 24.983183 -9.891387 33.023672 -0.915599 1.874990 0.107773 -0.029810 -479458.000000 0 0 1
-18.794721 23.781683 -10.739087 32.158015 -0.901997 1.911285 0.109134 -0.035803 -244828.000000 0 0 1
-18.425321 22.599483 -10.088787 30.854702 -0.886796 1.903900 0.084665 -0.030220 273405.000000 0 0 1
-17.777121 21.714483 -10.974487 30.132775 -0.884771 1.943575 0.101122 -0.024093 135084.000000 0 0 1
-17.400721 20.269883 -10.510887 28.707698 -0.861416 1.945648 0.085102 -0.017844 239022.000000 0 0 1
-18.509021 19.388383 -10.443787 28.767445 -0.808598 1.942327 0.072542 -0.010161 196458.000000 0 0 1
-18.076921 18.114483 -9.969987 27.464708 -0.786436 1.942293 0.101165 -0.028667 73329.500000 0 0 1
-19.210321 17.032583 -10.069687 27.577960 -0.725383 1.944574 0.078367 -0.010304 666955.000000 0 0 1
-19.700621 16.678983 -11.356887 28.200741 -0.702530 1.985278 0.063102 -0.007173 297549.000000 0 0 1
-20.550921 17.622783 -12.013887 29.618175 -0.708842 1.988459 0.075650 -0.004169 -232532.000000 0 0 1
-21.196021 17.167483 -13.382087 30.382133 -0.680772 2.026906 0.083838 -0.011795 -409343.000000 0 0 1
-20.336221 16.767783 -14.384587 30.027266 -0.689519 2.070369 0.073513 -0.015979 -236915.000000 0 0 1
-21.086621 16.549383 -15.585087 31.006815 -0.665421 2.097440 0.081801 -0.017573 522409.000000 0 0 1
-20.258921 16.379683 -16.912987 31.060698 -0.679913 2.146606 0.094198 -0.023411 409218.000000 0 0 1
-19.399621 17.462983 -17.281587 31.304221 -0.732910 2.155621 0.074163 -0.026414 557275.000000 0 0 1
-18.664321 17.299083 -18.456187 31.436379 -0.747455 2.198264 0.067779 -0.022294 -694234.000000 0 0 1
-17.649821 18.391283 -18.743087 31.639512 -0.805968 2.204825 0.061312 -0.018704 -293153.000000 0 0 1
-16.444021 18.172283 -18.038787 30.430831 -0.835283 2.205303 0.083308 -0.023998 210913.000000 0 0 1
-15.578521 19.287683 -17.952287 30.610286 -0.891382 2.197501 0.084693 -0.012872 159368.000000 0 0 1
34.168353 29.977083 2.426613 45.519120 0.720151 1.517461 0.079006 -0.021279 -390810.000000 0 0 1
35.297953 29.961283 1.615113 46.327449 0.703803 1.535926 0.096020 -0.024755 -152126.000000 0 0 1
35.124343 30.878883 0.520513 46.770673 0.721165 1.559667 0.084512 -0.016257 11158.900000 0 0 1
36.412203 31.042383 -0.315687 47.849532 0.705959 1.577394 0.062334 -0.012895 467649.000000 0 0 1
-37.133731 31.490983 0.441713 48.690770 -0.703357 1.561724 0.047854 -0.005601 770063.000000 0 0 1
-35.961858 31.567483 -0.364287 47.852835 -0.720416 1.578409 0.037066 -0.004324 361564.000000 0 0 1
-34.861142 32.513583 0.123113 47.670194 -0.750569 1.568214 0.017759 -0.003823 129474.000000 0 0 1
-34.152232 32.263883 1.332613 47.001158 -0.756974 1.542440 0.023628 -0.008221 172552.000000 0 0 1
-33.554121 33.421083 1.826713 47.393930 -0.783412 1.532244 0.024997 -0.012484 -536971.000000 0 0 1
-32.761701 33.179883 3.102113 46.731753 -0.791740 1.504366 0.049913 -0.012447 -412131.000000 0 0 1
-32.494241 -33.407742 3.714413 46.752003 0.799259 1.491263 0.049135 -0.007649 381671.000000 0 0 1
-31.824541 -33.526942 5.001313 46.495917 0.811442 1.463023 0.059872 -0.019775 -464669.000000 0 0 1
-31.749741 -32.205742 5.750813 45.588679 0.792528 1.444314 0.074686 -0.020564 243736.000000 0 0 1
-32.936491 -31.615642 6.272113 46.083626 0.764939 1.434270 0.076400 -0.020887 189882.000000 0 0 1
-33.570671 -32.374442 7.296513 47.205227 0.767260 1.415604 0.071136 -0.037470 -530529.000000 0 0 1
-34.625868 -31.532342 8.130513 47.532563 0.738673 1.398900 0.108516 -0.033842 1616110.000000 0 0 1
-35.975416 -31.393742 7.666313 48.358762 0.717494 1.411595 0.077038 -0.028081 1014420.000000 0 0 1
-36.725341 -32.576342 7.345013 49.637868 0.725601 1.422279 0.069106 -0.025851 -1222540.000000 0 0 1
36.455463 -32.348042 7.165113 49.261907 -0.725771 1.424829 0.066782 -0.022833 -878427.000000 0 0 1
35.808673 -32.045642 8.363513 48.776353 -0.729997 1.398478 0.063962 -0.024557 745092.000000 0 0 1
34.396173 -31.900842 8.157313 47.616197 -0.747777 1.398633 0.039679 -0.014761 485905.000000 0 0 1
33.519383 -31.853542 9.391513 47.184719 -0.759922 1.370421 0.052668 -0.034926 -433677.000000 0 0 1
32.134713 -31.777542 9.109913 46.102521 -0.779810 1.371886 0.053050 -0.041987 437727.000000 0 0 1
31.259913 -31.969842 10.211313 45.864189 -0.796625 1.346272 0.060238 -0.037171 226271.000000 0 0 1
31.089013 -30.751742 11.131513 45.123242 -0.779944 1.321532 0.073763 -0.031778 -837568.000000 0 0 1
30.472293 -29.634442 10.523013 43.789206 -0.771460 1.328110 0.055647 -0.036306 -332649.000000 0 0 1
31.153313 -28.955342 9.542913 43.589080 -0.748848 1.350080 0.061019 -0.034151 -1131160.000000 0 0 1
30.495443 -27.701542 9.165213 42.206026 -0.737427 1.351898 0.057354 -0.033301 -678887.000000 0 0 1
31.099953 -27.184742 8.009213 42.075703 -0.718325 1.379275 0.065663 -0.032121 -188804.000000 0 0 1
30.404973 -26.036942 7.597613 40.744429 -0.708162 1.383228 0.065086 -0.038574 -10795.100000 0 0 1
30.616913 -25.632942 6.134513 40.398952 -0.697025 1.418358 0.061199 -0.032030 502798.000000 0 0 1
31.949483 -25.213042 5.870513 41.120918 -0.668092 1.427545 0.075127 -0.028095 -168769.000000 0 0 1
32.130643 -24.826042 4.495213 40.852387 -0.657846 1.460538 0.071795 -0.019840 -318625.000000 0 0 1
33.545193 -24.294942 4.213813 41.632684 -0.626813 1.469409 0.089621 -0.021637 -221314.000000 0 0 1
34.364503 -25.367442 3.804513 42.882403 -0.635898 1.481960 0.076696 -0.015068 -1227680.000000 0 0 1
35.668873 -24.907142 3.734913 43.664446 -0.609576 1.485155 0.078683 -0.017001 -795085.000000 0 0 1
36.730833 -26.001642 3.622113 45.148191 -0.616006 1.490483 0.073535 -0.015679 -302542.000000 0 0 1
36.696593 -26.842542 4.771913 45.715787 -0.631538 1.466224 0.061316 -0.013837 -255335.000000 0 0 1
37.278363 -28.104242 4.592213 46.910694 -0.645994 1.472747 0.056375 -0.015881 -819325.000000 0 0 1
36.694003 -29.150342 5.547713 47.190777 -0.671327 1.452965 0.060874 -0.018728 1471890.000000 0 0 1
35.309213 -29.581142 5.571313 46.398535 -0.697353 1.450431 0.045605 -0.012773 975260.000000 0 0 1
34.340023 -28.571642 5.682013 45.031780 -0.693964 1.444281 0.045716 -0.017405 -1333630.000000 0 0 1
33.049583 -29.134042 6.301113 44.505858 -0.722514 1.428740 0.062705 -0.019233 212087.000000 0 0 1
32.248613 -29.974642 5.419613 44.360167 -0.748869 1.448317 0.030218 -0.019121 182036.000000 0 0 1
31.409253 -29.293042 4.544713 43.188863 -0.750550 1.465372 0.054230 -0.020634 -950970.000000 0 0 1
30.023493 -29.905942 4.394413 42.603830 -0.783437 1.467467 0.057432 -0.026745 -210373.000000 0 0 1
30.087223 -31.124642 3.663213 43.444257 -0.802345 1.486376 0.063882 -0.015825 -462229.000000 0 0 1
28.837113 -31.762742 3.673113 43.057434 -0.833639 1.485385 0.079650 -0.015292 -301376.000000 0 0 1
28.781313 -33.107542 2.914513 43.965528 -0.855188 1.504457 0.079098 -0.016787 -144592.000000 0 0 1
28.699313 -33.025642 1.516713 43.779493 -0.855374 1.536145 0.077815 -0.018729 231685.000000 0 0 1
28.815313 33.546283 0.889713 44.231967 0.861117 1.550680 0.070797 -0.012298 -210562.000000 0 0 1
28.649613 33.654083 -0.621287 44.201624 0.865550 1.584853 0.067156 -0.009779 -639332.000000 0 0 1
29.645193 -33.528542 -1.325987 44.774533 -0.846792 1.600415 0.062445 -0.006285 -189745.000000 0 0 1
29.229513 -33.372942 -2.675787 44.444094 -0.851488 1.631038 0.064190 -0.005846 -85878.400000 0 0 1
30.441923 -32.867742 -3.452387 44.932373 -0.823696 1.647707 0.061323 -0.009153 -133982.000000 0 0 1
30.685333 -31.523242 -3.189787 44.107586 -0.798867 1.643178 0.051173 -0.011788 -369462.000000 0 0 1
31.481963 -31.087642 -4.226987 44.445730 -0.779096 1.666045 0.049894 -0.011662 -679833.000000 0 0 1
31.917403 -29.676742 -4.037187 43.769036 -0.749036 1.663166 0.035701 -0.011241 -314530.000000 0 0 1
30.947563 -28.682642 -4.382787 42.422334 -0.747434 1.674294 0.046644 -0.025302 665746.000000 0 0 1
31.501573 -27.342342 -4.297787 41.933563 -0.714833 1.673467 0.045408 -0.031050 595869.000000 0 0 1
32.538993 -26.930542 -5.392287 42.580711 -0.691368 1.697774 0.061895 -0.031357 911777.000000 0 0 1
33.828753 -27.562642 -5.272987 43.953250 -0.683682 1.691054 0.052591 -0.029417 76516.500000 0 0 1
34.781283 -27.020642 -6.106487 44.465064 -0.660479 1.708564 0.062991 -0.037000 -560009.000000 0 0 1
34.879733 -27.730642 -7.469987 45.181689 -0.671707 1.736891 0.060127 -0.014791 -842657.000000 0 0 1
33.797733 -27.544342 -8.364687 44.395332 -0.683806 1.760343 0.050479 -0.015243 35989.800000 0 0 1
33.499323 -28.649742 -9.209087 45.031318 -0.707525 1.776753 0.044069 -0.005666 238900.000000 0 0 1
33.273423 -30.054842 -8.552587 45.646040 -0.734618 1.759278 0.037320 -0.000188 -753447.000000 0 0 1
34.480493 -30.631642 -8.198687 46.844641 -0.726356 1.746721 0.040269 -0.005865 -873118.000000 0 0 1
34.167513 -31.854642 -7.613887 47.329784 -0.750381 1.732367 0.032060 -0.006183 -203852.000000 0 0 1
35.346423 -32.607642 -7.026187 48.600362 -0.745117 1.715875 0.022916 -0.006171 -505723.000000 0 0 1
35.109383 -33.906642 -6.504187 49.240569 -0.767973 1.703273 0.021438 -0.012335 47139.700000 0 0 1
34.399063 -33.900242 -5.241787 48.579813 -0.778095 1.678907 0.031463 -0.011212 300286.000000 0 0 1
34.410923 32.508183 -4.629187 47.563883 0.756972 1.668276 0.029050 -0.014745 -682332.000000 0 0 1
33.391033 31.813983 -5.233287 46.416354 0.761217 1.683783 0.056725 -0.026976 -584047.000000 0 0 1
33.362813 30.444583 -4.757287 45.415655 0.739695 1.675739 0.052077 -0.013924 157970.000000 0 0 1
32.099343 29.673283 -5.201387 44.021880 0.746144 1.689228 0.070007 -0.022498 150448.000000 0 0 1
32.079403 29.474283 -6.590587 44.059701 0.743101 1.720943 0.052796 -0.009834 -101871.000000 0 0 1
30.783763 29.046283 -6.943387 42.889827 0.756366 1.733401 0.036284 -0.002515 -69332.700000 0 0 1
30.652193 28.974283 -8.546187 43.036070 0.757265 1.770707 0.036303 -0.002702 -155497.000000 0 0 1
31.397213 27.899683 -9.105887 42.977837 0.726483 1.784288 0.046333 -0.008567 -32613.800000 0 0 1
31.510923 27.941983 -10.516187 43.408327 0.725440 1.815493 0.038783 -0.004626 77704.400000 0 0 1
32.612823 28.913383 -11.016687 44.954948 0.725343 1.818379 0.062255 -0.012024 569952.000000 0 0 1
33.921003 28.330283 -10.779987 45.491180 0.695830 1.810041 0.061240 -0.021365 644489.000000 0 0 1
35.041973 29.083683 -11.103787 46.873175 0.692748 1.809960 0.065457 -0.016571 -172786.000000 0 0 1
35.325463 30.367883 -10.228687 47.694053 0.710075 1.786940 0.060048 -0.023331 -1049140.000000 0 0 1
35.925383 30.062583 -9.001187 47.701293 0.696784 1.760634 0.056494 -0.024057 -2315.810000 0 0 1
35.938553 31.258183 -8.228287 48.335890 0.715859 1.741861 0.039650 -0.024254 -304017.000000 0 0 1
36.938583 31.124483 -7.034387 48.812651 0.700183 1.715410 0.045796 -0.019802 -68201.400000 0 0 1
-36.389741 31.277983 -7.383287 48.549339 -0.709999 1.723467 0.044892 -0.017531 -680111.000000 0 0 1
-35.646163 30.140683 -7.716587 47.314431 -0.701906 1.734620 0.056953 -0.013161 -215032.000000 0 0 1
-34.179498 30.461783 -8.060487 46.487952 -0.727948 1.745066 0.081288 -0.012308 -150019.000000 0 0 1
-33.327321 30.943683 -6.997887 46.012957 -0.748328 1.723474 0.066443 -0.014047 1103470.000000 0 0 1
-31.947161 31.089583 -7.349387 45.179605 -0.771795 1.734193 0.097860 -0.017437 811375.000000 0 0 1
-31.567081 32.142783 -8.418587 45.831339 -0.794434 1.755532 0.076881 -0.021717 -727780.000000 0 0 1
-31.621391 33.546983 -7.976287 46.786040 -0.814938 1.742118 0.057392 -0.012373 -65628.400000 0 0 1
-30.590201 -33.856142 -7.107387 46.179147 0.836032 1.725320 0.077694 -0.014902 52716.200000 0 0 1
-30.959711 -32.497542 -6.343587 45.330288 0.809628 1.711199 0.052305 -0.007501 7049.530000 0 0 1
-31.938451 -32.518942 -5.318287 45.889327 0.794404 1.686951 0.045533 -0.008126 -150596.000000 0 0 1
-31.744881 -33.299842 -4.212087 46.199119 0.809300 1.662096 0.054939 -0.005786 -107640.000000 0 0 1
-32.969511 -33.102842 -3.281187 46.835381 0.787416 1.640912 0.045188 -0.010094 42404.400000 0 0 1
-33.208001 -31.806642 -2.751487 46.065219 0.763847 1.630562 0.047361 -0.009796 -242484.000000 0 0 1
-34.124845 -31.831742 -1.700487 46.697499 0.750645 1.607219 0.050266 -0.009599 -456266.000000 0 0 1
-34.662671 -30.442442 -1.456087 46.155857 0.720667 1.602349 0.063583 -0.008459 397195.000000 0 0 1
-35.936963 -30.472842 -0.806987 47.124416 0.703304 1.587922 0.044373 0.003037 436509.000000 0 0 1
-36.379861 -29.166442 -0.480187 46.630528 0.675789 1.581094 0.054352 -0.005537 428265.000000 0 0 1
37.250163 -29.128742 0.718313 47.292433 -0.663654 1.555607 0.056144 -0.004682 464230.000000 0 0 1
36.037843 -29.789042 0.348813 46.757190 -0.690754 1.563336 0.028123 -0.004209 303643.000000 0 0 1
34.969003 -29.656842 1.252413 45.868595 -0.703384 1.543489 0.034171 -0.009059 300810.000000 0 0 1
34.277223 -28.266842 1.433113 44.452179 -0.689594 1.538551 0.023784 -0.002219 -49835.900000 0 0 1
33.120263 -28.068942 0.600213 43.418632 -0.703032 1.556972 0.029145 -0.002801 427694.000000 0 0 1
32.613123 -26.774642 0.721313 42.202103 -0.687402 1.553704 0.035310 -0.004271 287879.000000 0 0 1
31.231753 -26.675742 0.011613 41.073322 -0.706882 1.570514 0.038109 -0.017005 1172900.000000 0 0 1
30.040173 -27.334442 0.524013 40.618448 -0.738274 1.557895 0.048662 -0.008523 1101310.000000 0 0 1
29.941143 -28.755542 0.352513 41.514787 -0.765202 1.562305 0.050936 -0.008662 -553162.000000 0 0 1
29.520313 -29.125342 -1.066987 41.483405 -0.778663 1.596520 0.054503 -0.008639 -1114900.000000 0 0 1
28.174513 -28.836242 -1.239187 40.334447 -0.797005 1.601524 0.071354 -0.004589 -759570.000000 0 0 1
27.992513 -28.887642 -2.674887 40.314162 -0.801134 1.637196 0.074534 -0.003179 -396489.000000 0 0 1
26.695413 -29.561342 -3.106287 39.952059 -0.836298 1.648625 0.095751 -0.013275 -337660.000000 0 0 1
25.592713 -28.684742 -3.163787 38.572152 -0.842304 1.652911 0.108216 -0.017466 -672332.000000 0 0 1
24.420113 -29.384642 -3.391987 38.357589 -0.877407 1.659343 0.088949 -0.019738 -663015.000000 0 0 1
23.133813 -28.545342 -3.443887 36.903526 -0.889732 1.664254 0.087223 -0.022591 -57732.400000 0 0 1
23.029313 -27.765342 -4.596287 36.364671 -0.878368 1.697530 0.090874 -0.024792 5602.730000 0 0 1
22.208113 -26.639542 -4.390787 34.959183 -0.875870 1.696726 0.095888 -0.032992 -181276.000000 0 0 1
21.763113 -25.767242 -5.606987 34.190966 -0.869443 1.735531 0.095940 -0.044516 -511281.000000 0 0 1
20.513913 -26.177942 -6.055387 33.804925 -0.906115 1.750896 0.112788 -0.040919 -935736.000000 0 0 1
20.169913 -25.567042 -7.260187 33.364792 -0.902859 1.790151 0.122625 -0.039003 -537712.000000 0 0 1
18.705213 -25.691342 -7.640687 32.685014 -0.941476 1.806747 0.121173 -0.036580 -413521.000000 0 0 1
17.849913 -24.908042 -6.804887 31.390069 -0.948995 1.789316 0.116285 -0.036946 215694.000000 0 0 1
16.517713 -25.395142 -6.942087 31.079586 -0.994120 1.796061 0.106203 -0.036042 661492.000000 0 0 1
15.474613 -24.566442 -6.120087 29.672027 -1.008675 1.778545 0.087394 -0.024168 260393.000000 0 0 1
15.538913 -24.940142 -4.727087 29.762625 -1.013602 1.730298 0.067777 -0.016252 114984.000000 0 0 1
14.904213 -23.991042 -3.880887 28.509068 -1.014905 1.707348 0.064660 -0.018296 93090.800000 0 0 1
14.700013 -24.407642 -2.420587 28.595150 -1.028709 1.655548 0.068191 -0.016040 180036.000000 0 0 1
13.922613 -25.613742 -2.319487 29.245221 -1.072911 1.650191 0.069709 -0.015410 249926.000000 0 0 1
14.685113 -26.795742 -2.240287 30.637937 -1.069460 1.643983 0.076897 -0.021744 -224943.000000 0 0 1
13.784213 -28.025142 -2.421087 31.325305 -1.113689 1.648162 0.077027 -0.012895 -205809.000000 0 0 1
12.896513 -28.162742 -1.346187 31.004391 -1.141369 1.614229 0.092964 -0.029406 -456437.000000 0 0 1
12.269413 -29.422842 -1.307287 31.905346 -1.175719 1.611782 0.088569 -0.027622 -262176.000000 0 0 1
13.111113 -30.625142 -0.773687 33.322653 -1.166289 1.594016 0.092378 -0.029161 -708360.000000 0 0 1
14.080813 -30.977242 -1.691887 34.069360 -1.144162 1.620477 0.089527 -0.026780 -932234.000000 0 0 1
14.666713 -32.177542 -1.261387 35.384993 -1.143125 1.606451 0.080252 -0.027133 -1293740.000000 0 0 1
16.046213 -32.405042 -1.832987 36.206733 -1.111015 1.621444 0.071487 -0.027458 -1280280.000000 0 0 1
16.884613 -31.496242 -1.200987 35.756758 -1.078700 1.604390 0.071045 -0.022103 -942342.000000 0 0 1
18.186913 -31.486242 -1.711887 36.401618 -1.046999 1.617841 0.087427 -0.023447 -416404.000000 0 0 1
19.000413 -30.388142 -0.996187 35.853134 -1.012012 1.598585 0.085347 -0.022210 -227478.000000 0 0 1
18.681013 -29.133542 -1.495087 34.640710 -1.000618 1.613970 0.083214 -0.020525 209961.000000 0 0 1
19.492013 -28.180542 -0.837287 34.275101 -0.965674 1.595227 0.067413 -0.016655 -55042.700000 0 0 1
19.180913 -26.723742 -1.168187 32.915505 -0.948258 1.606294 0.066854 -0.008609 -118242.000000 0 0 1
19.574513 -26.313442 -2.476887 32.889113 -0.931212 1.646178 0.084838 -0.018697 -127259.000000 0 0 1
18.566713 -26.461942 -3.441187 32.508445 -0.958972 1.676850 0.100281 -0.022026 -362634.000000 0 0 1
32.882943 -28.887342 13.822013 45.900049 -0.720803 1.264916 0.076421 -0.044904 19405.000000 0 0 1
33.801193 -29.576142 14.651813 47.243459 -0.718832 1.255462 0.103709 -0.041449 -67884.400000 0 0 1
33.234413 -30.107542 15.833013 47.557067 -0.736073 1.231391 0.078831 -0.031569 -527441.000000 0 0 1
34.229813 -30.594742 16.857413 48.906960 -0.729381 1.218895 0.081659 -0.027273 -932938.000000 0 0 1
33.615953 -31.037442 18.014013 49.171738 -0.745537 1.195714 0.056377 -0.024615 218127.000000 0 0 1
34.558493 -31.268342 19.050713 50.348072 -0.735458 1.182751 0.043196 -0.026860 256888.000000 0 0 1
35.397713 -32.591742 18.908313 51.698588 -0.744151 1.196367 0.043719 -0.019103 -5625.830000 0 0 1
36.347403 -32.605742 17.853413 51.990504 -0.731188 1.220264 0.062447 -0.021161 26406.800000 0 0 1
37.044923 -33.839842 17.919313 53.278166 -0.740214 1.227774 0.060425 -0.011222 -637703.000000 0 0 1
-36.523571 -33.910542 16.890113 52.622922 0.748316 1.244048 0.071497 -0.018776 -940307.000000 0 0 1
-35.417378 -33.105542 17.172313 51.432051 0.751673 1.230376 0.079116 -0.022757 265755.000000 0 0 1
-34.540627 -32.926242 16.045313 50.345252 0.761474 1.246433 0.100686 -0.016959 -366093.000000 0 0 1
-33.360631 -32.021842 16.356013 49.049457 0.764925 1.230825 0.079253 -0.019481 -1167130.000000 0 0 1
-32.349211 -32.181442 15.448713 48.174468 0.782798 1.244346 0.097538 -0.028973 -750847.000000 0 0 1
-32.376621 -31.165142 14.428113 47.198327 0.766335 1.260132 0.116118 -0.030122 -67186.300000 0 0 1
-30.995121 -31.062342 13.722213 45.976795 0.786481 1.267718 0.102759 -0.034713 22899.200000 0 0 1
-29.957211 -30.627342 14.541513 45.242946 0.796459 1.243579 0.097101 -0.042569 -851029.000000 0 0 1
-28.819511 -30.417542 13.746913 44.099531 0.812369 1.253789 0.079184 -0.031164 -148929.000000 0 0 1
-27.527361 -30.275442 14.575713 43.437419 0.832905 1.228600 0.068138 -0.036146 511072.000000 0 0 1
-26.359401 -30.184042 13.782913 42.377625 0.852936 1.239530 0.059736 -0.026458 -382022.000000 0 0 1
-25.194871 -29.738442 14.423313 41.559456 0.867921 1.216370 0.032553 -0.025672 228571.000000 0 0 1
-23.949321 -29.830942 13.500913 40.567594 0.894329 1.231525 0.034234 -0.016799 83505.400000 0 0 1
-23.529521 -31.134242 13.177713 41.190187 0.923629 1.245147 0.042833 -0.024659 415273.000000 0 0 1
-22.269521 -31.056342 12.501313 40.208342 0.948707 1.254642 0.036548 -0.029219 641615.000000 0 0 1
-21.724421 -32.509242 12.237413 40.970179 0.981696 1.267476 0.036369 -0.027952 -150464.000000 0 0 1
-22.428521 -33.165542 11.231213 41.582831 0.976182 1.297307 0.039962 -0.025170 45036.800000 0 0 1
-22.226721 33.219783 11.275713 41.529782 -0.981124 1.295836 0.056733 -0.016776 162558.000000 0 0 1
-23.250321 32.543883 10.329413 41.308334 -0.950451 1.318058 0.041911 -0.005870 -97150.400000 0 0 1
-23.035421 32.759283 8.928513 41.030715 -0.957944 1.351436 0.030136 -0.001399 90061.700000 0 0 1
-24.150821 32.377083 8.146913 41.205701 -0.929909 1.371772 0.032785 -0.011285 -387319.000000 0 0 1
-24.020321 32.605483 6.634413 41.037894 -0.935864 1.408418 0.033048 -0.007907 61826.100000 0 0 1
-23.165321 31.739883 5.802413 39.720526 -0.940317 1.424191 0.024829 -0.007642 1088980.000000 0 0 1
-21.757121 31.866483 5.951713 39.041874 -0.971736 1.417755 0.040622 -0.010534 13155.200000 0 0 1
-21.084321 33.162083 5.491413 39.679061 -1.004471 1.431955 0.048451 -0.015901 -891066.000000 0 0 1
-21.169721 -33.506742 6.384713 40.145029 1.007319 1.411077 0.040822 -0.017674 368692.000000 0 0 1
-20.336521 -33.587842 7.547113 39.983448 1.026363 1.380901 0.041775 -0.017812 -41285.100000 0 0 1
-20.394321 -32.373842 8.488913 39.192545 1.008636 1.352471 0.036707 -0.017546 -627581.000000 0 0 1
-19.666821 -31.278342 8.005913 37.804935 1.009492 1.357412 0.042874 -0.029508 -267049.000000 0 0 1
-19.809021 -30.217642 8.915313 37.215400 0.990533 1.328884 0.046763 -0.026154 268627.000000 0 0 1
-19.038121 -30.306242 10.277313 37.236293 1.009905 1.291164 0.034622 -0.017406 146226.000000 0 0 1
-17.658121 -30.601642 10.203813 36.774822 1.047436 1.289639 0.044542 -0.030623 -424011.000000 0 0 1
-17.154521 -30.625942 11.499513 36.938661 1.060209 1.254221 0.069507 -0.030531 280898.000000 0 0 1
-15.742921 -31.276142 11.487813 36.851139 1.104470 1.253777 0.061710 -0.039044 578256.000000 0 0 1
-14.674421 -30.524142 10.919513 35.585076 1.122669 1.258908 0.062556 -0.032160 -525589.000000 0 0 1
-13.635021 -31.365242 10.578813 35.799490 1.160724 1.270816 0.065745 -0.027655 -443266.000000 0 0 1
-12.580921 -30.625942 9.718313 34.506137 1.181020 1.285293 0.078512 -0.026140 210447.000000 0 0 1
-11.867621 -29.618142 10.470813 33.581433 1.189697 1.253706 0.094221 -0.030014 -349064.000000 0 0 1
-10.826121 -29.137742 9.684513 32.557682 1.215054 1.268768 0.103472 -0.032458 279922.000000 0 0 1
-9.634221 -28.448642 10.434213 31.796481 1.244266 1.236445 0.123248 -0.027806 548126.000000 0 0 1
-9.975221 -27.261442 11.042713 31.058537 1.220019 1.207299 0.095468 -0.022935 -522362.000000 0 0 1
-9.342721 -27.172942 12.283913 31.249795 1.239634 1.166809 0.093914 -0.017564 1585.930000 0 0 1
-9.649221 -25.849542 13.085613 30.537510 1.213531 1.127954 0.080541 -0.023053 142065.000000 0 0 1
-9.166721 -24.650042 12.576213 29.151577 1.214769 1.124744 0.080720 -0.025636 250539.000000 0 0 1
-9.875321 -24.272942 11.345213 28.555411 1.184403 1.162218 0.075137 -0.024759 542436.000000 0 0 1
-9.367421 -22.963942 10.727213 27.021552 1.183482 1.162564 0.073697 -0.023399 1176100.000000 0 0 1
-8.118721 -23.049642 9.985713 26.399130 1.232138 1.182881 0.055848 -0.027872 719752.000000 0 0 1
-7.543721 -21.787942 9.816113 25.059493 1.237481 1.168304 0.062421 -0.019831 354586.000000 0 0 1
-6.309821 -21.738442 8.848613 24.303737 1.288298 1.198147 0.072945 -0.031317 559111.000000 0 1 0
-5.165021 -22.222742 9.494313 24.711731 1.342430 1.176452 0.064703 -0.033547 29161.000000 0 1 0
-4.064921 -22.544042 8.630113 24.479302 1.392403 1.210504 0.062452 -0.034160 74778.400000 0 1 0
-2.909821 -23.306142 9.206813 25.227142 1.446587 1.197210 0.078271 -0.031850 -599105.000000 0 0 1
-2.181521 -22.474242 10.079513 24.727458 1.474032 1.150945 0.069874 -0.028714 -767355.000000 0 1 0
-1.248121 -23.293942 10.726613 25.675392 1.517266 1.139798 0.077346 -0.034101 12151.000000 0 0 1
-0.396521 -22.605842 11.802513 25.504522 1.553258 1.089688 0.070336 -0.031651 145409.000000 0 0 1
-1.164321 -22.199242 12.929113 25.716219 1.518396 1.044006 0.069549 -0.031284 -391684.000000 0 0 1
-0.352221 -21.959042 14.014313 26.052342 1.554758 1.002818 0.101458 -0.031758 87098.700000 0 0 1
0.607579 -20.728542 14.008113 25.025364 -1.541493 0.976704 0.083275 -0.029729 1033540.000000 0 0 1
1.845679 -20.888042 13.285613 24.823866 -1.482665 1.006058 0.088655 -0.028180 685315.000000 0 1 0
2.638079 -19.685442 13.303413 23.905164 -1.437578 0.980620 0.073693 -0.014823 -343603.000000 0 1 0
4.081279 -19.964142 12.957513 24.147897 -1.369144 1.004406 0.084152 -0.002136 -635881.000000 0 1 0
4.239279 -20.430642 11.632013 23.889042 -1.366203 1.062238 0.081461 -0.000544 -1428740.000000 0 1 0
5.581679 -20.527442 11.336013 24.104693 -1.305302 1.081186 0.102862 -0.005541 -661937.000000 0 1 0
5.958479 -21.124842 9.975213 24.109486 -1.295878 1.144231 0.108166 -0.022363 -354006.000000 0 1 0
5.880779 -20.330942 8.817313 22.927620 -1.289228 1.176053 0.087992 -0.023583 -537449.000000 0 1 0
6.065379 -21.107342 7.661113 23.259436 -1.290977 1.235153 0.085205 -0.030102 208892.000000 0 1 0
7.512679 -21.694442 7.383313 24.116436 -1.237426 1.259647 0.079598 -0.018636 488527.000000 0 1 0
8.410679 -20.779742 6.800313 23.426085 -1.186199 1.276268 0.073809 -0.028133 -131641.000000 0 1 0
8.851479 -19.706342 7.675913 22.926147 -1.148634 1.229392 0.071951 -0.011271 -560532.000000 0 1 0
9.831479 -20.004942 8.831713 23.976131 -1.114010 1.193558 0.065678 -0.000896 -242741.000000 0 1 0
9.268779 -20.357642 10.064513 24.528316 -1.143546 1.147989 0.090230 -0.003087 -281680.000000 0 1 0
10.190479 -20.054942 11.130913 25.098681 -1.100667 1.111312 0.089936 0.009422 516358.000000 0 0 1
9.613279 -20.126242 12.541813 25.588627 -1.125189 1.058555 0.105843 -0.002407 -48792.300000 0 0 1
9.356979 -21.442142 12.945713 26.737801 -1.159324 1.065379 0.099007 -0.012019 -82083.400000 0 0 1
8.758979 -21.459442 14.240413 27.203248 -1.183272 1.019864 0.137246 -0.022347 212962.000000 0 0 1
8.935479 -22.831242 14.883013 28.681222 -1.197751 1.025219 0.135271 -0.025974 188862.000000 0 0 1
8.383979 -23.916342 14.163413 29.032478 -1.233628 1.061174 0.150187 -0.028533 4289.750000 0 0 1
8.609379 -25.098842 14.892813 30.428098 -1.240354 1.059346 0.155956 -0.038126 167347.000000 0 0 1
8.341779 -26.338842 13.952213 30.951319 -1.264080 1.103158 0.171007 -0.048933 494485.000000 0 0 1
9.366479 -26.514542 12.960213 30.963188 -1.231222 1.138928 0.147861 -0.039541 438678.000000 0 0 1
9.169979 -27.662342 12.179513 31.585348 -1.250700 1.174931 0.134439 -0.042374 525414.000000 0 0 1
10.508379 -28.032242 11.432313 32.045755 -1.212142 1.206010 0.104294 -0.038280 946033.000000 0 0 1
11.390579 -28.788142 12.273713 33.303850 -1.194029 1.193361 0.091822 -0.037189 -842992.000000 0 0 1
12.608579 -28.899642 11.665813 33.619292 -1.159403 1.216428 0.098909 -0.035940 -881538.000000 0 0 1
13.687679 -29.839242 12.287713 35.053114 -1.140719 1.212643 0.079284 -0.038298 46229.900000 0 0 1
14.430079 -29.124142 13.282913 35.112371 -1.110781 1.182840 0.068446 -0.027263 902749.000000 0 0 1
15.413379 -29.890942 14.036913 36.442771 -1.094704 1.175397 0.062693 -0.025135 1221410.000000 0 0 1
16.830479 -30.017142 13.404913 36.932175 -1.059779 1.199353 0.057491 -0.020719 -285804.000000 0 0 1
17.505079 -28.828542 13.478013 36.320373 -1.025090 1.190617 0.054175 -0.027999 -1610750.000000 0 0 1
18.773079 -28.886742 12.993813 36.819988 -0.994501 1.210126 0.057632 -0.023863 -1312410.000000 0 0 1
19.683779 -27.651642 13.226813 36.428190 -0.952163 1.199211 0.043302 -0.020541 662944.000000 0 0 1
20.946479 -27.881342 12.574613 37.070812 -0.926481 1.224724 0.037895 -0.021968 565877.000000 0 0 1
21.627979 -26.663842 12.328213 36.478964 -0.889302 1.226054 0.023409 -0.021364 -589490.000000 0 0 1
22.876479 -26.842342 11.471113 37.086804 -0.864995 1.256335 0.027188 -0.018268 -317017.000000 0 0 1
23.855479 -27.497642 12.272713 38.416451 -0.856203 1.245631 0.027482 -0.020916 -222550.000000 0 0 1
24.971279 -27.879342 11.499713 39.154385 -0.840367 1.272699 0.021720 -0.030792 -448714.000000 0 0 1
26.140279 -28.410342 12.358013 40.536184 -0.826988 1.261001 0.041615 -0.029550 -226940.000000 0 0 1
27.025879 -27.431442 12.880813 40.605388 -0.792845 1.248000 0.022156 -0.024073 -170191.000000 0 0 1
28.221479 -27.568842 12.144513 41.279319 -0.773701 1.272174 0.013305 -0.024389 -161386.000000 0 0 1
29.492679 -26.903642 12.784113 41.917271 -0.739522 1.260874 0.053776 -0.040412 335311.000000 0 0 1
29.433479 -25.515442 13.085413 41.092524 -0.714215 1.246715 0.069993 -0.033795 -200946.000000 0 0 1
28.817579 -25.139442 14.264513 40.815692 -0.717336 1.213774 0.060602 -0.026477 -605177.000000 0 0 1
29.777779 -25.050442 15.516613 41.892793 -0.699390 1.191369 0.060490 -0.012587 84311.400000 0 0 1
30.130079 -26.343742 16.032513 43.114451 -0.718452 1.189785 0.065813 -0.017738 298891.000000 0 0 1
30.791079 -26.186442 17.298513 43.966565 -0.704758 1.166418 0.073947 -0.006448 561847.000000 0 0 1
31.483179 -27.470142 17.858913 45.439411 -0.717432 1.166875 0.061770 0.003331 126370.000000 0 0 1
30.435179 -28.253842 18.360313 45.405736 -0.748248 1.154516 0.049833 -0.002823 244818.000000 0 0 1
30.934079 -29.362542 19.050813 46.711986 -0.759341 1.150714 0.065768 -0.010969 -168096.000000 0 0 1
29.760879 -30.177742 19.602513 46.697586 -0.792353 1.137598 0.073945 -0.011257 -954343.000000 0 0 1
29.135579 -29.534242 20.715613 46.371220 -0.792193 1.107685 0.070122 -0.007357 756826.000000 0 0 1
28.057679 -30.282442 21.298713 46.453147 -0.823514 1.094491 0.060249 -0.008475 732191.000000 0 0 1
26.781079 -30.496442 20.460713 45.452172 -0.850173 1.103853 0.099671 -0.012241 -840469.000000 0 0 1
26.903879 -31.659442 19.666313 45.966323 -0.866424 1.128693 0.107729 -0.012678 -201224.000000 0 0 1
25.933979 -31.793442 18.665013 45.075236 -0.886554 1.143858 0.109757 -0.006684 -407991.000000 0 0 1
26.127979 -30.796642 17.464613 44.001331 -0.867230 1.162647 0.090877 -0.006646 250252.000000 0 0 1
27.308379 -31.045442 16.705913 44.594333 -0.849352 1.186810 0.086721 -0.020457 305061.000000 0 0 1
27.657179 -30.010642 15.814313 43.768147 -0.826186 1.201113 0.070412 -0.036473 497338.000000 0 0 1
28.970179 -30.303242 15.003213 44.527005 -0.807884 1.227125 0.070080 -0.037100 416140.000000 0 0 1
28.818279 -31.335842 13.964013 44.804262 -0.827226 1.253849 0.089333 -0.032072 182277.000000 0 0 1
28.860779 -32.592442 14.482313 45.879726 -0.846047 1.249646 0.060738 -0.037281 -234881.000000 0 0 1
28.066279 -33.642542 13.683713 45.899680 -0.875518 1.268072 0.097265 -0.036957 -98589.500000 0 0 1
28.720379 33.885283 12.483213 46.140039 0.867711 1.296831 0.108190 -0.036811 403904.000000 0 0 1
28.166179 32.723583 11.888013 44.782713 0.860106 1.302115 0.108604 -0.040494 -384441.000000 0 0 1
28.873279 32.455983 10.548313 44.702617 0.843749 1.332583 0.113875 -0.045561 -414762.000000 0 0 1
30.201879 32.064883 10.784813 45.349999 0.815309 1.330683 0.102796 -0.045898 -266131.000000 0 0 1
30.617079 31.427483 9.623513 44.918863 0.798459 1.354880 0.103659 -0.054129 191918.000000 0 0 1
32.149879 31.155883 9.516913 45.769809 0.769698 1.361338 0.089510 -0.048650 502735.000000 0 0 1
32.593579 30.148783 10.418313 45.605172 0.746452 1.340315 0.071192 -0.035467 220671.000000 0 0 1
33.960879 29.822483 10.238813 46.341721 0.720607 1.348017 0.093903 -0.028300 131854.000000 0 0 1
34.444279 28.940483 11.441113 46.420459 0.698784 1.321763 0.091541 -0.025208 -15951.800000 0 0 1
33.981279 27.584983 11.393713 45.226931 0.681877 1.316129 0.076518 -0.031927 246407.000000 0 0 1
34.159979 26.899783 12.626913 45.276279 0.667051 1.288163 0.080915 -0.030714 -209393.000000 0 0 1
33.958179 25.393283 12.611013 44.238156 0.642079 1.281716 0.061558 -0.030400 208612.000000 0 0 1
34.962779 24.713083 11.841913 44.422554 0.615302 1.300959 0.054897 -0.023722 267940.000000 0 0 1
34.810379 23.307183 11.889913 43.547185 0.589994 1.294250 0.066414 -0.027509 -769990.000000 0 0 1
33.558379 22.702983 11.280613 42.057609 0.594795 1.299253 0.068413 -0.027823 -1154000.000000 0 0 1
32.448879 22.812283 12.091513 41.467273 0.612751 1.274906 0.099932 -0.041749 -1104780.000000 0 0 1
31.330379 22.451483 11.327213 40.174214 0.621783 1.284968 0.100196 -0.035445 -123705.000000 0 0 1
30.050279 22.087983 12.118413 39.214209 0.633854 1.256622 0.092846 -0.032265 45673.200000 0 0 1
29.601079 23.095583 12.942213 39.713105 0.662568 1.238840 0.098066 -0.023640 -468097.000000 0 0 1
28.427779 22.686883 13.590613 38.827027 0.673553 1.213194 0.124513 -0.032058 -208681.000000 0 0 1
24.823979 9.495983 25.712108 36.979942 0.365358 0.801961 0.059495 -0.006586 -309131.000000 0 0 1
24.728479 8.336083 26.379638 37.106243 0.325141 0.779988 0.065088 -0.013673 562536.000000 0 0 1
23.369379 7.915283 26.342668 36.093154 0.326576 0.752691 0.075235 -0.012111 279181.000000 0 0 1
23.152179 6.579083 27.147648 36.280884 0.276868 0.725356 0.100264 -0.013346 -152651.000000 0 0 1
23.398579 6.562483 28.523998 37.472365 0.273440 0.705633 0.103863 -0.017331 522095.000000 0 0 1
24.770579 6.559383 28.906108 38.628618 0.258864 0.725288 0.095014 -0.022968 274221.000000 0 0 1
24.818279 6.480083 30.434098 39.801668 0.255399 0.700308 0.095105 -0.034635 -45482.200000 0 0 1
24.499079 7.713483 31.132728 40.360246 0.305022 0.689803 0.121395 -0.036844 205876.000000 0 0 1
24.386279 7.499283 32.530998 41.342420 0.298342 0.665080 0.109457 -0.036935 105735.000000 0 0 1
24.432779 8.758983 33.385754 42.288167 0.344221 0.660831 0.132527 -0.033162 -466365.000000 0 0 1
25.738079 9.240683 33.344103 43.123870 0.344695 0.686898 0.109113 -0.033294 -648357.000000 0 0 1
26.076879 10.094583 -33.456407 43.603158 0.369344 2.445406 0.120327 -0.028745 325138.000000 0 0 1
27.312879 11.032283 -33.545817 44.643325 0.383883 2.421005 0.099324 -0.031386 201613.000000 0 0 1
27.185579 12.237383 33.543156 44.877083 0.422972 0.726588 0.097818 -0.035933 239806.000000 0 0 1
26.809379 13.361883 -33.498477 44.938076 0.462369 2.411986 0.090861 -0.033743 -373961.000000 0 0 1
26.613779 14.655383 33.472956 45.205224 0.503357 0.737032 0.084390 -0.032987 -476136.000000 0 0 1
27.799279 15.278183 33.033297 45.797614 0.502528 0.765135 0.080910 -0.029614 131815.000000 0 0 1
27.567379 16.688383 32.984165 46.113096 0.544357 0.773760 0.088428 -0.037987 191290.000000 0 0 1
27.922279 17.417383 -33.557487 47.001317 0.557722 2.365947 0.086491 -0.044286 -615018.000000 0 0 1
27.036579 17.092783 -32.549307 45.635482 0.563767 2.364914 0.081938 -0.039670 -173465.000000 0 0 1
27.673779 16.616783 -31.417467 45.044564 0.540752 2.342665 0.087638 -0.039051 -549622.000000 0 0 1
26.616079 16.122883 -30.457477 43.543322 0.544642 2.345459 0.074034 -0.032025 -199747.000000 0 0 1
26.027479 14.859683 -30.746787 42.937219 0.518765 2.368977 0.087980 -0.022826 377350.000000 0 0 1
25.183379 14.483083 -29.634017 41.498641 0.521913 2.366128 0.103845 -0.029789 313662.000000 0 0 1
24.475079 13.142883 -29.979957 40.872517 0.492800 2.394252 0.083992 -0.024832 -109352.000000 0 0 1
23.579979 13.079383 -31.078647 41.145692 0.506430 2.426956 0.094868 -0.030554 761507.000000 0 0 1
22.939479 11.825383 -31.463767 40.694324 0.475973 2.454626 0.086384 -0.025811 840304.000000 0 0 1
21.988479 11.078783 -30.404977 39.124101 0.466719 2.460908 0.087163 -0.029726 -353857.000000 0 0 1
20.901979 11.905383 -30.203357 38.611833 0.517753 2.469035 0.107907 -0.027482 -1108740.000000 0 0 1
20.209279 11.488083 -29.084557 37.233083 0.516902 2.467299 0.092311 -0.012234 859138.000000 0 0 1
18.889879 12.319483 -28.749447 36.539402 0.577902 2.476414 0.078657 -0.002936 954895.000000 0 0 1
17.875879 12.305683 -29.722057 36.801869 0.602895 2.510907 0.056165 -0.004031 -242337.000000 0 0 1
16.806779 13.070883 -29.194307 36.133410 0.661004 2.511476 0.053022 -0.007460 -466699.000000 0 0 1
15.646279 13.193183 -30.207707 36.487966 0.700542 2.546116 0.058405 -0.015639 -273243.000000 0 0 1
15.025979 11.982783 -30.468737 36.023757 0.673197 2.578851 0.061117 -0.010327 -241250.000000 0 0 1
13.679779 11.962683 -30.026397 35.097388 0.718535 2.597344 0.068734 -0.017698 393438.000000 0 0 1
12.734779 11.337683 -31.114957 35.480392 0.727426 2.640300 0.070927 -0.016796 214959.000000 0 0 1
12.465279 12.163983 -32.248537 36.651245 0.773165 2.646397 0.078988 -0.014206 -124076.000000 0 0 1
11.357979 11.713383 -32.982507 36.797456 0.800801 2.682208 0.079450 -0.008587 -211679.000000 0 0 1
10.873979 12.717883 33.854318 37.763776 0.863398 0.459045 0.089774 -0.007685 -233764.000000 0 0 1
11.736079 12.898883 32.788684 37.137777 0.832564 0.488808 0.076381 -0.001884 355686.000000 0 0 1
10.983979 13.545883 31.745448 36.220328 0.889461 0.502349 0.087509 -0.007902 456068.000000 0 0 1
11.733879 13.341283 30.422168 35.230413 0.849414 0.528588 0.099136 -0.016042 771.593000 0 0 1
11.996979 11.995383 30.115538 34.565334 0.785332 0.513024 0.091313 -0.016716 275748.000000 0 0 1
11.844079 11.728483 28.669438 33.162873 0.780494 0.526634 0.115961 -0.016162 -294071.000000 0 0 1
12.527179 10.483083 28.161748 32.556248 0.696797 0.525610 0.112031 -0.014304 -343406.000000 0 0 1
11.902679 9.323183 28.595238 32.346300 0.664465 0.486372 0.097301 -0.019148 -95141.800000 0 0 1
12.623279 8.202783 28.182278 31.951113 0.576244 0.490614 0.089322 -0.024989 -360344.000000 0 0 1
11.874079 6.833183 28.282508 31.425887 0.522188 0.451085 0.074979 -0.021581 -646715.000000 0 0 1
10.646279 6.982683 27.644858 30.435822 0.580498 0.431594 0.075332 -0.030007 -674808.000000 0 0 1
9.619279 6.067283 27.943028 30.168779 0.562718 0.386528 0.066666 -0.034737 78775.600000 0 0 1
9.734779 4.660583 27.252618 29.311979 0.446508 0.377081 0.082700 -0.025466 -270597.000000 0 0 1
10.758479 3.922183 27.879498 30.139588 0.349592 0.389728 0.083776 -0.019601 65026.300000 0 0 1
10.836779 2.612583 27.413128 29.592920 0.236570 0.386217 0.098547 -0.022585 -41731.300000 0 0 1
11.525179 1.695483 28.408258 30.703966 0.146063 0.389153 0.059091 -0.019349 75892.200000 0 0 1
10.591079 1.516683 29.443448 31.327111 0.142237 0.348544 0.045545 -0.013749 183303.000000 0 0 1
10.812079 0.288183 30.124518 32.007353 0.026647 0.344706 0.049857 -0.009626 355211.000000 0 0 1
9.755979 0.145283 31.267368 32.754366 0.014891 0.302477 0.069344 -0.005589 326029.000000 0 0 1
10.062479 1.043983 32.334829 33.880445 0.103380 0.303219 0.042304 -0.010783 801899.000000 0 0 1
8.887979 1.402983 33.095704 34.297086 0.156560 0.265462 0.063000 -0.018764 576079.000000 0 0 1
9.125479 2.692283 33.936228 35.244720 0.286890 0.273342 0.058598 -0.025156 -81401.800000 0 0 1
9.127679 3.996083 33.328326 34.785924 0.412661 0.290510 0.048397 -0.020531 -634351.000000 0 0 1
10.048279 4.212083 32.344060 34.129866 0.396935 0.324920 0.043397 -0.011932 -817823.000000 0 0 1
9.992179 5.546083 31.649238 33.649323 0.506706 0.346518 0.039296 -0.020695 -42594.100000 0 0 1
10.315779 6.648183 32.439174 34.683045 0.572476 0.361681 0.040753 -0.022365 8171.150000 0 0 1
10.415179 7.817683 31.611478 34.188853 0.643888 0.390776 0.044664 -0.014082 -84942.200000 0 0 1
10.587179 9.139583 32.426817 35.314569 0.712147 0.407214 0.071974 -0.022255 662831.000000 0 0 1
9.372379 9.557783 33.061429 35.668624 0.795192 0.384716 0.077047 -0.025023 382756.000000 0 0 1
8.932479 8.802483 -33.686217 35.944876 0.778068 2.785205 0.077119 -0.027537 -502764.000000 0 0 1
7.464079 9.074483 -33.338167 35.348155 0.882465 2.802742 0.081412 -0.028989 -296050.000000 0 0 1
6.991879 8.424883 -32.203677 34.013847 0.878083 2.813881 0.088877 -0.029942 180485.000000 0 0 1
5.585379 8.575983 -32.030987 33.626300 0.993521 2.832328 0.092542 -0.032385 574340.000000 0 0 1
5.172179 7.822083 -30.742197 32.140614 0.986568 2.845523 0.084073 -0.031134 -406259.000000 0 0 1
5.734179 8.347983 -29.566587 31.253043 0.968921 2.811581 0.094904 -0.039422 149555.000000 0 0 1
5.221979 7.698583 -28.422377 29.905998 0.974780 2.825285 0.086088 -0.034967 1843110.000000 0 0 1
3.686979 7.937083 -27.979867 29.316617 1.135929 2.838450 0.080565 -0.029101 1806910.000000 0 0 1
2.817179 7.193083 -28.844187 29.860744 1.197508 2.879913 0.073384 -0.021899 -976463.000000 0 0 1
1.525779 7.403883 -28.368537 29.358463 1.367563 2.881171 0.077032 -0.009305 -478065.000000 0 0 1
0.469179 6.731483 -29.301757 30.068687 1.501210 2.915252 0.084961 -0.020772 -28412.200000 0 0 1
0.209079 7.500483 -30.442587 31.353661 1.542928 2.899933 0.093748 -0.021487 -137752.000000 0 0 1
-0.280621 6.736783 -31.489077 32.202872 -1.529165 2.930652 0.108259 -0.028073 -533309.000000 0 0 1
-0.145321 7.472383 -32.830577 33.670527 -1.551351 2.917760 0.123420 -0.034543 621447.000000 0 0 1
1.218579 7.734183 -33.198667 34.109441 1.414523 2.909984 0.105298 -0.023707 728201.000000 0 0 1
1.881679 6.653283 -33.898737 34.596694 1.295175 2.940385 0.105392 -0.035040 -156359.000000 0 0 1
1.598379 6.323483 32.515514 33.163231 1.323213 0.197965 0.119713 -0.036556 -60887.100000 0 0 1
0.389079 5.606583 32.304543 32.789764 1.501511 0.172247 0.126327 -0.039387 -229977.000000 0 0 1
0.141179 5.402883 30.934798 31.403388 1.544672 0.172968 0.140035 -0.040404 229265.000000 0 0 1
1.073179 4.493883 30.016698 30.370196 1.336378 0.152724 0.149302 -0.049981 263912.000000 0 0 1
0.689779 4.396683 28.643118 28.986804 1.415178 0.154144 0.134365 -0.044968 -63462.500000 0 0 1
1.502479 3.562583 27.843958 28.111126 1.171691 0.137979 0.130177 -0.043634 -10444.600000 0 0 1
1.481279 3.889483 26.360658 26.687198 1.206914 0.156594 0.114580 -0.039451 37058.200000 0 0 1
2.325079 4.975083 26.075068 26.647075 1.133612 0.207573 0.109299 -0.030509 -28413.000000 0 0 1
2.323979 5.253683 24.658538 25.318877 1.154320 0.228889 0.084018 -0.030228 -812369.000000 0 0 1
2.845779 6.707783 24.479618 25.541035 1.169561 0.289304 0.063756 -0.018870 -169793.000000 0 0 1
4.209179 6.936383 24.734838 26.031573 1.025373 0.316964 0.056603 -0.011819 -157899.000000 0 0 1
4.962479 6.670883 23.536438 24.961786 0.931210 0.339568 0.053818 -0.024409 603329.000000 0 1 0
6.537679 6.724483 23.642258 25.434549 0.799483 0.377651 0.068944 -0.024063 1152970.000000 0 0 1
7.290579 5.830783 24.440198 26.162451 0.674600 0.364868 0.075867 -0.026326 -17.540100 0 0 1
7.028179 4.449583 24.456468 25.832400 0.564407 0.327852 0.088098 -0.026376 -793886.000000 0 0 1
7.190379 3.677783 23.118628 24.488744 0.472795 0.336091 0.089636 -0.027824 98067.700000 0 1 0
6.204279 3.933683 22.133138 23.320436 0.565065 0.320469 0.060938 -0.024737 69887.100000 0 1 0
5.038879 3.113183 22.294838 23.068203 0.553428 0.259670 0.064822 -0.021370 325521.000000 0 1 0
3.909979 3.534383 21.330538 21.972065 0.734987 0.242242 0.039771 -0.015724 -256326.000000 0 1 0
3.409779 4.819783 21.595738 22.388229 0.955084 0.266865 0.027301 -0.011551 285164.000000 0 1 0
2.345979 5.029683 20.646238 21.379159 1.134366 0.262601 0.025566 -0.017806 279111.000000 0 1 0
1.744379 6.438583 20.722738 21.769935 1.306222 0.311428 0.023216 -0.021115 187376.000000 0 1 0
2.491179 7.452283 20.032338 21.518295 1.248190 0.373806 0.016707 -0.014264 489820.000000 0 1 0
1.811279 8.722083 20.205538 22.082102 1.366041 0.415242 0.018104 -0.014724 386423.000000 0 1 0
2.687979 9.830983 19.663538 22.147870 1.303900 0.478189 0.020271 -0.020434 -499826.000000 0 1 0
2.877079 9.802983 18.255238 20.919602 1.285322 0.510218 0.013192 -0.018464 -605.888000 0 1 0
3.636279 10.926783 17.720038 21.133311 1.249539 0.576293 0.021037 -0.026290 1472610.000000 0 1 0
5.207379 10.738083 17.851538 21.473253 1.119265 0.589285 0.037900 -0.026692 872723.000000 0 1 0
5.551179 9.563783 17.198238 20.446538 1.044885 0.571423 0.036522 -0.022586 -746222.000000 0 1 0
6.923479 9.350483 17.386638 20.920355 0.933441 0.589737 0.035598 -0.020321 -317029.000000 0 1 0
7.109379 7.978083 18.001138 20.934040 0.842912 0.535727 0.047843 -0.019581 -321107.000000 0 1 0
6.872979 7.878983 19.382538 22.022692 0.853487 0.494689 0.056573 -0.018887 -161877.000000 0 1 0
7.000779 6.525683 19.833338 22.021733 0.750289 0.449589 0.059259 -0.025810 1051980.000000 0 1 0
8.496279 6.129983 20.146238 22.707583 0.625004 0.479549 0.090933 -0.024212 873560.000000 0 1 0
9.343779 6.081083 19.001038 22.030098 0.576949 0.530600 0.093935 -0.021479 143267.000000 0 1 0
10.568179 5.376883 19.246338 22.605725 0.470647 0.552163 0.108183 -0.021957 453576.000000 0 1 0
10.585079 3.847583 19.174938 22.237941 0.348643 0.531077 0.117282 -0.020968 -310798.000000 0 1 0
9.883779 3.237183 20.233338 22.749866 0.316514 0.474803 0.127412 -0.025387 32699.500000 0 1 0
9.935279 1.844783 20.070938 22.471216 0.183589 0.466419 0.137730 -0.037618 240781.000000 0 1 0
9.149879 1.115883 21.241338 23.155127 0.121357 0.409427 0.129623 -0.033141 162156.000000 0 1 0
9.566879 1.278083 22.560238 24.538195 0.132808 0.404263 0.139415 -0.026063 -223531.000000 0 1 0
9.030879 0.231883 23.306048 24.995648 0.025671 0.369787 0.135585 -0.030935 -593539.000000 0 1 0
9.612879 0.167783 24.749298 26.551146 0.017452 0.370527 0.120797 -0.027305 475468.000000 0 0 1
10.992179 -0.124317 24.950908 27.265202 -0.011309 0.414993 0.119168 -0.029383 410914.000000 0 0 1
11.283379 -1.456817 24.611058 27.113486 -0.128401 0.433013 0.112881 -0.031161 -552775.000000 0 0 1
12.678979 -2.006817 24.955208 28.063254 -0.156977 0.475097 0.107317 -0.027133 -54975.400000 0 0 1
12.630679 -3.426417 24.968748 28.190650 -0.264902 0.482775 0.117285 -0.019236 298971.000000 0 0 1
13.860679 -4.033617 25.343398 29.166356 -0.283190 0.517769 0.107726 -0.022047 191833.000000 0 0 1
13.844379 -5.578717 25.262058 29.342128 -0.383055 0.533665 0.102572 -0.018841 -91982.800000 0 0 1
13.571979 -6.103817 24.016328 28.253127 -0.422635 0.554732 0.116103 -0.022850 42679.000000 0 0 1
13.189879 -7.447417 24.080808 28.448589 -0.514007 0.561481 0.109669 -0.029801 40519.600000 0 0 1
12.947179 -8.196517 22.713438 27.399135 -0.564384 0.593508 0.118948 -0.027817 -57346.500000 0 0 1
12.427279 -9.409717 22.999518 27.784130 -0.648082 0.595633 0.121342 -0.019383 -540649.000000 0 0 1
12.747679 -10.338117 21.930438 27.392044 -0.681401 0.642478 0.112739 -0.016054 146380.000000 0 0 1
12.161279 -11.752217 22.081138 27.813449 -0.768294 0.653598 0.130364 -0.016169 -362190.000000 0 0 1
10.767279 -11.718517 21.983238 27.138915 -0.827677 0.626599 0.130066 -0.012203 -594987.000000 0 0 1
10.085979 -12.900417 22.323538 27.685521 -0.907231 0.632884 0.113330 -0.012209 -194919.000000 0 0 1
8.592179 -12.757117 22.611638 27.346951 -0.978064 0.597325 0.083079 -0.008684 -172950.000000 0 0 1
7.786279 -12.395617 21.518238 26.025219 -1.009937 0.597362 0.070745 -0.015895 -280794.000000 0 0 1
6.467879 -12.098017 21.891538 25.834762 -1.079835 0.559788 0.048006 -0.014701 -160203.000000 0 0 1
5.727279 -10.941717 21.214738 24.547668 -1.088577 0.527186 0.034795 -0.013479 -4248.960000 0 1 0
6.053379 -9.664017 21.752338 24.560147 -1.011203 0.482848 0.057513 -0.012363 -565010.000000 0 1 0
5.180179 -8.684517 21.300038 23.578522 -1.032966 0.443242 0.040801 -0.009743 -321519.000000 0 1 0
5.425879 -7.237217 21.786338 23.589447 -0.927475 0.393526 0.060984 -0.021919 78240.200000 0 1 0
4.618279 -6.232917 21.211038 22.585081 -0.933113 0.350616 0.040882 -0.021970 -173395.000000 0 1 0
5.102779 -5.025917 21.720638 22.871036 -0.777810 0.318518 0.077274 -0.034280 396509.000000 0 1 0
-8.115421 -15.640417 -20.664487 27.157020 1.092163 2.435536 0.061385 -0.018100 -111572.000000 0 0 1
-7.536021 -15.066917 -19.553887 25.810039 1.107013 2.430437 0.040920 -0.009130 -259943.000000 0 0 1
-6.772321 -13.933017 -19.891287 25.212231 1.118361 2.479901 0.047634 -0.016439 231885.000000 0 0 1
-5.972221 -13.335817 -18.671787 23.709641 1.149746 2.477569 0.029328 -0.016141 -250413.000000 0 1 0
-4.996821 -14.176517 -18.191387 23.598060 1.231921 2.451025 0.028106 -0.007371 -615328.000000 0 1 0
-4.231021 -13.506517 -17.198487 22.273650 1.267221 2.453006 0.026348 -0.006999 22935.100000 0 1 0
-3.220921 -14.467517 -16.582487 22.241004 1.351738 2.412204 0.034894 -0.002117 -1379890.000000 0 1 0
-2.216721 -14.951217 -17.351287 23.011300 1.423605 2.424977 0.041557 0.004939 -1432340.000000 0 1 0
-1.541121 -15.798217 -16.466487 22.871465 1.473554 2.374538 0.043712 0.003534 998836.000000 0 1 0
-0.150121 -16.345317 -17.049287 23.619274 1.561612 2.377251 0.058895 0.000968 1359160.000000 0 1 0
-0.287621 -17.118317 -18.222987 25.003935 1.553996 2.387371 0.082217 -0.014847 -201863.000000 0 0 1
-0.589321 -18.527217 -18.113287 25.917103 1.538999 2.344645 0.080554 -0.009641 -130929.000000 0 0 1
-1.115121 -19.081917 -19.459987 27.277356 1.512424 2.365151 0.087023 -0.017191 284780.000000 0 0 1
-2.396121 -18.534117 -19.758787 27.196775 1.442228 2.384029 0.103072 -0.032802 64765.000000 0 0 1
-2.586821 -18.813617 -21.112787 28.397070 1.434156 2.409062 0.086725 -0.036920 294361.000000 0 0 1
-3.782521 -18.014417 -21.721587 28.471987 1.363831 2.438600 0.098282 -0.041812 425078.000000 0 0 1
-3.520321 -16.639217 -21.989287 27.799010 1.362303 2.483254 0.081911 -0.037819 -335436.000000 0 0 1
-3.625821 -15.806717 -20.864987 26.426248 1.345312 2.480881 0.075782 -0.026706 40226.400000 0 0 1
-2.489721 -14.748917 -20.709287 25.546112 1.403566 2.516080 0.074385 -0.016338 202319.000000 0 0 1
-2.362021 -13.881917 -21.764887 25.922906 1.402260 2.567344 0.059730 -0.015021 -271785.000000 0 0 1
-1.578021 -12.801917 -21.316387 24.915208 1.448151 2.597423 0.041713 -0.007472 12890.900000 0 1 0
-1.489021 -11.668217 -22.340387 25.247918 1.443869 2.656948 0.046080 -0.012094 -241647.000000 0 0 1
-2.671621 -10.972117 -22.593687 25.258654 1.331952 2.678092 0.049154 -0.013874 -272773.000000 0 0 1
-2.437321 -10.210917 -23.736487 25.954271 1.336483 2.725191 0.052313 -0.017814 641467.000000 0 0 1
-3.494921 -9.032317 -23.893187 25.781420 1.201603 2.756490 0.038380 -0.015774 1355390.000000 0 0 1
-4.855621 -9.490517 -23.734587 26.018793 1.097889 2.719441 0.064345 -0.022594 1880610.000000 0 0 1
-5.780921 -8.337817 -23.781287 25.855132 0.964556 2.738341 0.050985 -0.017218 475037.000000 0 0 1
-7.259421 -8.631717 -23.468387 26.037875 0.871541 2.693597 0.053120 -0.020334 477137.000000 0 0 1
-8.146021 -8.907117 -24.563087 27.368588 0.829999 2.684846 0.058341 -0.020264 785002.000000 0 0 1
-8.666821 -7.720517 -25.251937 27.791734 0.727716 2.710748 0.057991 -0.020213 80594.600000 0 0 1
-9.264621 -8.016017 -26.655657 29.336219 0.713269 2.710779 0.051431 -0.024979 514268.000000 0 0 1
-9.938021 -6.909917 -27.318667 29.880107 0.607565 2.724514 0.060664 -0.033425 376342.000000 0 0 1
-10.475121 -7.240617 -28.575307 31.284227 0.604809 2.722379 0.058376 -0.027362 -559148.000000 0 0 1
-11.481721 -6.253817 -29.156657 31.953885 0.498746 2.720054 0.066535 -0.036381 -316444.000000 0 0 1
-10.955821 -5.109317 -29.750807 32.113013 0.436372 2.755642 0.036680 -0.022658 -11937.400000 0 0 1
-11.779421 -4.748717 -30.856617 33.368186 0.383208 2.751126 0.054796 -0.026008 21550.800000 0 0 1
-11.223421 -3.610817 -31.723697 33.843701 0.311264 2.785766 0.037163 -0.027380 -443534.000000 0 0 1
-10.065421 -4.006117 -32.394977 34.158398 0.378788 2.818869 0.035152 -0.015308 -392168.000000 0 0 1
-9.588421 -2.925117 -33.157797 34.640058 0.296100 2.847997 0.041659 -0.016979 37076.000000 0 0 1
-8.477921 -3.354017 33.703906 34.915295 0.376723 0.264188 0.041335 -0.019244 219887.000000 0 0 1
-7.213321 -3.500217 -33.551487 34.496171 0.451773 2.907025 0.047659 -0.019682 -347737.000000 0 0 1
-6.294121 -3.905717 33.335233 34.148328 0.555382 0.218659 0.047735 -0.015515 244370.000000 0 0 1
-4.822921 -3.552917 33.699458 34.227726 0.634917 0.175919 0.076630 -0.022192 355227.000000 0 0 1
-4.724521 -2.143017 33.827902 34.223392 0.425839 0.152174 0.107288 -0.042718 -1061200.000000 0 0 1
-3.447121 -1.744817 -33.721767 33.942371 0.468569 3.027519 0.101717 -0.044775 -952495.000000 0 0 1
-3.368521 -0.229317 -33.266557 33.437454 0.067972 3.040446 0.107535 -0.047786 -279712.000000 0 0 1
-3.806221 -0.220917 -31.899387 32.126422 0.057976 3.022637 0.105132 -0.042507 47998.100000 0 0 1
-4.137321 1.067083 -31.439677 31.728684 -0.252415 3.006518 0.123458 -0.042926 -434368.000000 0 0 1
-4.778121 0.973683 -29.989017 30.382884 -0.201027 2.980400 0.108791 -0.050176 998551.000000 0 0 1
-5.935121 0.122983 -29.923457 30.506623 -0.020718 2.945750 0.105623 -0.049137 950015.000000 0 0 1
-7.159021 0.676583 -30.424647 31.262893 -0.094228 2.909500 0.116300 -0.051030 -85881.800000 0 0 1
-8.241721 -0.413317 -30.409827 31.509591 0.050107 2.876612 0.099789 -0.052830 -245621.000000 0 0 1
-8.490221 -0.883717 -29.130137 30.355060 0.103713 2.856540 0.091608 -0.041457 105295.000000 0 0 1
-9.470721 -1.907217 -29.092657 30.654766 0.198723 2.820978 0.054568 -0.021361 57799.400000 0 0 1
-9.602921 -2.607717 -27.711717 29.444108 0.265160 2.796853 0.057328 -0.015724 -168539.000000 0 0 1
-10.244421 -1.737317 -26.801977 28.745650 0.167988 2.771749 0.051004 -0.012461 44684.400000 0 0 1
-10.588121 -2.477217 -25.652967 27.862513 0.229828 2.740662 0.045244 -0.021008 -273666.000000 0 0 1
-11.660621 -1.686117 -24.893987 27.541308 0.143604 2.699546 0.060337 -0.021949 -492040.000000 0 0 1
-11.285021 -0.423617 -24.520587 26.996117 0.037520 2.710000 0.074041 -0.022798 432065.000000 0 0 1
-12.311821 0.350683 -23.849287 26.841989 -0.028476 2.664877 0.086919 -0.029547 565815.000000 0 0 1
-11.734921 1.586883 -23.151787 26.004457 -0.134412 2.668801 0.115728 -0.031449 212302.000000 0 0 1
-11.238621 2.574883 -24.073087 26.691761 -0.225223 2.694926 0.081827 -0.032114 134168.000000 0 0 1
-10.410421 3.494983 -23.391487 25.840925 -0.323897 2.702672 0.083400 -0.030152 -352877.000000 0 0 1
-10.272721 4.818683 -24.181787 26.711557 -0.438603 2.702865 0.108815 -0.038587 -162187.000000 0 0 1
-11.491421 5.503583 -24.319187 27.454781 -0.446650 2.658991 0.110227 -0.036268 -317897.000000 0 0 1
-12.208921 5.039883 -25.436817 28.661643 -0.391495 2.662658 0.099891 -0.033037 -122123.000000 0 0 1
-13.651821 5.603883 -25.560397 29.514566 -0.389513 2.617996 0.084827 -0.018726 180528.000000 0 0 1
-13.683921 7.001383 -25.633747 29.889095 -0.472924 2.601437 0.089246 -0.020755 415219.000000 0 0 1
-15.021821 7.465583 -25.807847 30.780432 -0.461231 2.565229 0.083907 -0.016806 118410.000000 0 0 1
-15.089121 9.031183 -25.787457 31.212766 -0.539333 2.543095 0.094314 -0.012847 -305833.000000 0 0 1
-14.932421 9.529583 -24.490187 30.225145 -0.568021 2.515390 0.137302 -0.034969 241714.000000 0 0 1
-15.033521 10.980283 -24.439087 30.722017 -0.630830 2.490614 0.124343 -0.020266 -155918.000000 0 0 1
-14.802521 11.611083 -23.025087 29.733592 -0.665155 2.456530 0.122878 -0.040749 25523.400000 0 0 1
-15.795921 11.332983 -22.062087 29.405497 -0.622350 2.419268 0.139041 -0.044910 38351.200000 0 0 1
-15.432421 11.881483 -20.799687 28.494845 -0.656118 2.389039 0.115571 -0.039635 -182074.000000 0 0 1
-16.633321 11.970683 -19.855387 28.534207 -0.623813 2.340392 0.115069 -0.044466 -89557.300000 0 0 1
-17.736821 12.748983 -20.283187 29.808372 -0.623223 2.319177 0.111779 -0.041453 132382.000000 0 0 1
-18.443021 13.147083 -19.136887 29.651496 -0.619297 2.272335 0.102841 -0.033873 109993.000000 0 0 1
-19.961621 13.440683 -19.304087 30.850705 -0.592599 2.246858 0.100731 -0.036693 295558.000000 0 0 1
-20.264021 14.662183 -19.949287 31.993502 -0.626362 2.244061 0.073690 -0.034160 747783.000000 0 0 1
-21.687621 14.782583 -20.066187 33.038303 -0.598279 2.223531 0.077086 -0.028552 817036.000000 0 0 1
-22.062021 16.207183 -20.708587 34.325662 -0.633584 2.218426 0.075075 -0.016645 -213327.000000 0 0 1
-21.940421 16.137783 -22.113387 35.082930 -0.634174 2.252759 0.072253 -0.012588 102574.000000 0 0 1
-21.777921 17.440783 -22.650287 35.937365 -0.675257 2.252699 0.060943 0.004402 -188437.000000 0 0 1
-21.414821 17.495983 -24.152687 36.715885 -0.685023 2.288726 0.054634 0.001061 -376357.000000 0 0 1
-20.081821 17.120183 -24.406687 35.945327 -0.705956 2.317189 0.059805 -0.001883 91336.100000 0 0 1
-19.611421 17.098983 -25.769707 36.620497 -0.717065 2.351383 0.047232 -0.006838 -1113.760000 0 0 1
-19.390121 18.453683 -26.487037 37.657380 -0.760658 2.350922 0.034127 -0.011315 -730167.000000 0 0 1
-20.531621 19.121183 -26.951327 38.904255 -0.749843 2.336106 0.035972 -0.011290 -202227.000000 0 0 1
-20.253521 20.409483 -27.437517 39.743797 -0.789234 2.332782 0.026336 -0.008758 -393189.000000 0 0 1
-21.518621 21.206083 -27.865247 41.100133 -0.778083 2.315813 0.047600 -0.009033 498174.000000 0 0 1
-22.331821 21.834083 -26.854777 41.190004 -0.774129 2.280980 0.053638 -0.007165 631210.000000 0 0 1
-23.165621 20.912883 -26.171417 40.730059 -0.734335 2.268628 0.080126 -0.021879 -303261.000000 0 0 1
-23.772121 21.549283 -24.877387 40.600119 -0.736391 2.230322 0.096592 -0.012760 534611.000000 0 0 1
-23.030921 21.183783 -23.700987 39.254461 -0.743646 2.219029 0.074055 -0.014250 275971.000000 0 0 1
-23.810521 21.480283 -22.575987 39.217580 -0.733993 2.184207 0.073411 -0.023605 88551.800000 0 0 1
-23.207621 20.830483 -21.334887 37.784654 -0.731471 2.170798 0.062534 -0.015844 674399.000000 0 0 1
-21.998221 21.356483 -20.763487 37.028954 -0.770597 2.166071 0.073052 -0.017737 271947.000000 0 0 1
-21.356121 20.479083 -19.870787 35.641617 -0.764437 2.162187 0.063398 -0.017606 -307233.000000 0 0 1
-22.016521 19.826383 -18.599187 34.982029 -0.733104 2.131377 0.075199 -0.020235 -581170.000000 0 0 1
-22.891221 18.776783 -19.013787 35.186640 -0.686974 2.141673 0.097341 -0.023559 682204.000000 0 0 1
-23.777921 18.178683 -18.057287 34.955967 -0.652729 2.113639 0.088855 -0.024097 358628.000000 0 0 1
-24.931921 19.035683 -17.528787 35.933497 -0.652089 2.080378 0.070764 -0.021060 -846840.000000 0 0 1
-26.008161 19.314983 -18.388187 37.250750 -0.638781 2.087058 0.073516 -0.011583 -207605.000000 0 0 1
-26.933181 20.114783 -17.699487 37.990427 -0.641476 2.055440 0.078333 -0.017067 -310199.000000 0 0 1
-28.354031 20.012883 -18.351587 39.258722 -0.614622 2.057203 0.073148 0.002457 469220.000000 0 0 1
-29.139891 18.895083 -17.990787 39.112987 -0.575268 2.048757 0.066384 -0.002556 332253.000000 0 0 1
-29.761011 18.947383 -16.696287 39.031872 -0.566934 2.012810 0.072480 -0.011904 -639978.000000 0 0 1
-30.456411 17.604583 -16.391987 38.809941 -0.524105 2.006850 0.057395 -0.008291 -261650.000000 0 0 1
-29.616011 16.483983 -16.234687 37.581842 -0.507889 2.017486 0.074155 -0.016755 -107034.000000 0 0 1
-30.305151 15.268683 -16.314787 37.652451 -0.466708 2.018947 0.070465 -0.004362 -22142.100000 0 0 1
-29.485421 14.170283 -15.647187 36.263224 -0.447996 2.016939 0.104255 -0.012759 -146269.000000 0 0 1
-29.067081 14.350983 -14.271187 35.419100 -0.458611 1.985505 0.121378 -0.016268 387916.000000 0 0 1
-30.100531 14.443283 -13.300787 35.938298 -0.447386 1.949914 0.092214 -0.006639 497621.000000 0 0 1
-29.432681 15.078383 -12.027687 35.189566 -0.473440 1.919625 0.114180 -0.025385 593707.000000 0 0 1
-29.177811 16.455283 -12.149587 35.633319 -0.513502 1.918736 0.106431 -0.016310 920416.000000 0 0 1
-30.251371 17.233583 -11.525787 36.674045 -0.517827 1.890491 0.072068 -0.012893 957795.000000 0 0 1
-30.061221 18.761183 -11.735787 37.328108 -0.557951 1.890616 0.129369 -0.014122 -161931.000000 0 0 1
-28.898851 19.246383 -11.128287 36.461014 -0.587535 1.880956 0.075947 -0.029099 -539448.000000 0 0 1
-28.754281 20.633683 -11.275187 37.144143 -0.622432 1.879215 0.040018 -0.028439 311745.000000 0 0 1
-27.456401 21.303683 -10.739487 36.373581 -0.659878 1.870519 0.074784 -0.020001 478294.000000 0 0 1
-27.782681 22.306083 -9.773687 36.945414 -0.676493 1.838527 0.076989 -0.022413 -154230.000000 0 0 1
-26.737931 23.241583 -9.558987 36.694173 -0.715556 1.834341 0.088975 -0.015551 -250859.000000 0 0 1
-27.015641 24.523683 -8.743487 37.519387 -0.737085 1.805998 0.117645 -0.003305 -167996.000000 0 0 1
-27.087751 24.302683 -7.338987 37.124484 -0.731257 1.769793 0.085568 -0.009808 58258.900000 0 0 1
-28.413041 24.362683 -6.842787 38.048192 -0.708802 1.751625 0.111084 -0.013511 105009.000000 0 0 1
-28.633031 23.651683 -5.418287 37.531458 -0.690411 1.715669 0.099429 -0.010308 -195043.000000 0 0 1
-28.569601 22.227083 -5.603487 36.628736 -0.661180 1.724380 0.108627 -0.017100 -97113.200000 0 0 1
-28.373871 21.531683 -4.350687 35.883399 -0.649145 1.692340 0.096825 -0.008763 31950.400000 0 0 1
-28.066641 20.007383 -4.496687 34.759917 -0.619300 1.700524 0.126884 -0.015003 392346.000000 0 0 1
-26.920151 19.705183 -5.293887 33.778898 -0.631872 1.728167 0.117435 -0.023189 272031.000000 0 0 1
-27.032371 19.939883 -6.689487 34.250507 -0.635537 1.767370 0.093676 -0.017285 -1109520.000000 0 0 1
-27.846891 18.967583 -7.469287 34.510995 -0.597955 1.788955 0.120363 -0.020008 -440472.000000 0 0 1
-27.375581 17.619783 -7.407987 33.387983 -0.571885 1.794534 0.113164 -0.023352 147934.000000 0 0 1
-27.895681 16.924783 -8.520187 33.722557 -0.545344 1.826220 0.087772 -0.024443 -149342.000000 0 0 1
-27.584481 15.415083 -8.674887 32.768613 -0.509599 1.838722 0.124898 -0.032781 230380.000000 0 0 1
-28.333121 14.591183 -7.775087 32.804273 -0.475565 1.810088 0.111916 -0.022106 105377.000000 0 0 1
-28.367571 13.253683 -8.258287 32.381761 -0.437075 1.828674 0.117558 -0.035488 -73623.100000 0 0 1
-29.127921 12.231683 -7.413287 32.450064 -0.397568 1.801284 0.114621 -0.033314 182871.000000 0 0 1
-30.542541 12.405383 -7.421087 33.790721 -0.385812 1.792220 0.143989 -0.027218 511953.000000 0 0 1
-31.248331 11.531783 -6.534287 33.943145 -0.353532 1.764512 0.166334 -0.035358 -12082.900000 0 0 1
-31.737141 10.194883 -7.128787 34.088140 -0.310817 1.781480 0.144077 -0.024174 -815897.000000 0 0 1
-30.704581 9.335883 -7.464687 32.949226 -0.295173 1.799332 0.135491 -0.019265 -253835.000000 0 0 1
-31.222011 8.246083 -8.196687 33.316625 -0.258215 1.819372 0.126926 -0.022529 131477.000000 0 0 1
-30.116151 7.234183 -8.610687 32.147470 -0.235743 1.841957 0.159270 -0.020415 -107.798000 0 0 1
-29.506321 7.530283 -9.834187 32.000615 -0.249875 1.883164 0.156810 -0.034675 -592910.000000 0 0 1
-28.526021 6.582083 -9.983687 30.931079 -0.226771 1.899453 0.168293 -0.039910 -703171.000000 0 0 1
-27.787571 6.576483 -11.363887 30.733323 -0.232394 1.949545 0.136903 -0.024787 -237770.000000 0 0 1
-26.969161 7.674983 -11.597287 30.343666 -0.277254 1.962970 0.163549 -0.028099 171927.000000 0 0 1
-26.248081 7.485583 -12.806587 30.149699 -0.277811 2.009500 0.146527 -0.008544 -140961.000000 0 0 1
-33.134311 25.678883 -32.691217 53.160166 -0.659306 2.233128 0.050831 -0.010098 66740.200000 0 0 1
-33.419611 27.021583 -33.058537 54.220874 -0.679935 2.226480 0.058998 -0.018131 73531.100000 0 0 1
-33.050201 27.244683 33.508291 54.381927 -0.689409 0.906931 0.058350 -0.017997 -115360.000000 0 0 1
-33.219431 28.698983 33.106542 54.983682 -0.712521 0.924648 0.071080 -0.024411 -54435.700000 0 0 1
-33.177211 28.851583 31.707688 54.208104 -0.715775 0.946008 0.086313 -0.022221 158072.000000 0 0 1
-33.480511 30.189183 31.389178 54.932793 -0.733750 0.962573 0.082875 -0.029225 -301532.000000 0 0 1
-33.319131 30.581583 29.927208 54.231314 -0.742584 0.986223 0.090576 -0.030744 112406.000000 0 0 1
-31.991171 30.919783 29.568358 53.420555 -0.768370 0.984234 0.086542 -0.025886 173848.000000 0 0 1
-31.850411 31.383783 28.232308 52.881506 -0.778019 1.007615 0.079004 -0.023745 971226.000000 0 0 1
-30.404391 31.491283 27.588208 51.742024 -0.802956 1.008432 0.082345 -0.019636 415422.000000 0 0 1
-29.834561 30.245383 27.239088 50.466346 -0.792236 1.000659 0.102815 -0.017057 364944.000000 0 0 1
-28.633131 30.362783 26.492978 49.433112 -0.814708 1.005180 0.077917 -0.012389 -98.563100 0 0 1
-28.842241 30.963783 25.049528 49.174277 -0.820857 1.036305 0.080077 -0.017635 -459707.000000 0 0 1
-28.826821 32.317383 25.097568 50.052839 -0.842424 1.045555 0.069185 -0.023176 193283.000000 0 0 1
-29.728171 32.897983 24.161938 50.495946 -0.835970 1.071859 0.073914 -0.022170 178411.000000 0 0 1
-30.262991 -33.538942 24.626058 51.450480 0.836699 1.071696 0.081828 -0.024066 80800.100000 0 0 1
-31.040121 -33.604142 25.804178 52.522214 0.825041 1.057214 0.074656 -0.031124 148706.000000 0 0 1
-31.272391 -32.339442 26.388028 52.154865 0.802171 1.040307 0.058560 -0.029225 -51546.600000 0 0 1
-31.769971 -32.345542 27.856218 53.212160 0.794375 1.019850 0.081075 -0.033076 -419003.000000 0 0 1
-33.095081 -32.772342 28.003988 54.346426 0.780498 1.029454 0.065288 -0.033952 -416159.000000 0 0 1
-33.352211 -32.951642 29.438878 55.360890 0.779357 1.010115 0.074132 -0.034804 -682496.000000 0 0 1
-34.813350 -33.139742 29.776208 56.540555 0.760774 1.016160 0.086614 -0.038675 -795938.000000 0 0 1
-35.069577 -33.256442 31.139718 57.493897 0.758868 0.998436 0.074799 -0.044288 -910782.000000 0 0 1
-36.432401 -33.397442 31.334598 58.519791 0.741963 1.005752 0.049310 -0.040809 -890385.000000 0 0 1
-36.867291 -33.799242 32.794369 59.808498 0.742010 0.990439 0.049692 -0.039068 -147108.000000 0 0 1
-36.474261 32.731183 33.202866 59.195712 -0.731364 0.975324 0.047691 -0.038111 250724.000000 0 0 1
37.297083 32.249083 -33.642957 59.690236 0.712940 2.169565 0.049176 -0.035157 495656.000000 0 0 1
-37.005421 30.889583 -33.015077 58.425703 -0.695563 2.171324 0.047160 -0.033818 1201930.000000 0 0 1
-35.783913 30.850183 -32.221697 57.187935 -0.711491 2.169334 0.048264 -0.036349 611976.000000 0 0 1
-35.446294 29.498483 -32.001807 56.131238 -0.694070 2.177454 0.059834 -0.028451 890125.000000 0 0 1
-34.265651 29.310583 -30.949147 54.690902 -0.707616 2.172311 0.059294 -0.026228 929528.000000 0 0 1
-34.650855 29.528983 -29.600937 54.303388 -0.705762 2.147308 0.072614 -0.032617 -291760.000000 0 0 1
-34.427938 30.830683 -29.212607 54.673488 -0.730331 2.134488 0.062077 -0.027302 134836.000000 0 0 1
-35.561900 31.318483 -28.290837 55.189378 -0.722035 2.109023 0.067183 -0.023753 251825.000000 0 0 1
-35.504941 30.704583 -27.009247 54.155993 -0.713022 2.092930 0.074966 -0.038495 358745.000000 0 0 1
-36.691011 30.962083 -26.241717 54.712965 -0.700919 2.071024 0.121091 -0.035084 619174.000000 0 0 1
-36.546631 30.656283 -24.731087 53.731653 -0.697971 2.049096 0.109252 -0.035558 -311309.000000 0 0 1
-35.840798 31.587783 -23.961187 53.446134 -0.722407 2.035686 0.124590 -0.038552 -211663.000000 0 0 1
-36.051991 31.490283 -22.529487 52.905214 -0.717962 2.010693 0.110384 -0.040102 1063040.000000 0 0 1
37.160743 31.351583 -21.881087 53.316269 0.700810 1.993691 0.094419 -0.030380 1552890.000000 0 0 1
36.320653 32.523283 -21.861887 53.431225 0.730295 1.992329 0.097449 -0.034526 324824.000000 0 0 1
36.745643 33.652783 -21.060387 54.095212 0.741493 1.970690 0.099432 -0.037662 -248732.000000 0 0 1
36.831643 33.388583 -19.494387 53.398488 0.736405 1.944508 0.097495 -0.033235 67144.300000 0 0 1
-36.762461 32.526883 -19.172487 52.697826 -0.724345 1.943161 0.088922 -0.037499 65701.600000 0 0 1
-36.563071 32.453383 -17.767287 52.016888 -0.725922 1.919381 0.075320 -0.019940 -52923.500000 0 0 1
-35.480148 31.436283 -17.378287 50.488470 -0.725040 1.922186 0.095356 -0.020641 -45700.100000 0 0 1
-35.035280 31.469183 -16.042487 49.750796 -0.731828 1.899120 0.060750 -0.004554 -345001.000000 0 0 1
-33.977321 30.590483 -15.864187 48.393268 -0.732992 1.904789 0.086239 -0.006340 -253524.000000 0 0 1
-33.437201 30.505983 -14.415587 47.502321 -0.739589 1.879130 0.088398 -0.009251 879815.000000 0 0 1
-34.473936 29.891883 -13.584087 47.607817 -0.714330 1.860150 0.064298 -0.001915 768473.000000 0 0 1
-33.936521 29.380583 -12.448087 46.581766 -0.713568 1.841315 0.090695 -0.002933 -89811.300000 0 0 1
-34.954534 28.538783 -11.642187 46.602812 -0.684694 1.823288 0.088843 -0.015526 161798.000000 0 0 1
-34.359163 27.891583 -10.523287 45.488812 -0.681874 1.804249 0.103244 -0.017936 288557.000000 0 0 1
-35.205096 26.930783 -9.911287 45.419152 -0.653012 1.790785 0.113288 -0.024425 -40495.100000 0 0 1
-34.347841 26.073783 -9.013187 44.055123 -0.649306 1.776840 0.132834 -0.013815 -7646.870000 0 0 1
-33.978341 26.889783 -7.891787 44.043936 -0.669463 1.750949 0.123107 -0.015602 -1154300.000000 0 0 1
-32.819491 26.463883 -7.339387 42.793956 -0.678599 1.743154 0.121317 -0.018404 -1401950.000000 0 0 1
-32.480801 27.245383 -6.061487 42.825867 -0.697965 1.712811 0.109193 -0.021889 -142432.000000 0 0 1
-31.399541 26.653283 -5.387687 41.537402 -0.703822 1.700870 0.115146 -0.016099 81721.300000 0 0 1
-31.462891 27.062183 -4.034087 41.695912 -0.710346 1.667698 0.098572 -0.016553 220701.000000 0 0 1
-30.563911 26.216083 -3.084887 40.385048 -0.708974 1.647258 0.100551 -0.018987 55316.100000 0 0 1
-31.177871 25.053783 -2.577987 40.079891 -0.676918 1.635162 0.088185 -0.011162 168601.000000 0 0 1
-30.264681 24.188983 -1.908387 38.790459 -0.674282 1.620014 0.091477 -0.013123 95600.300000 0 0 1
-30.955151 22.903083 -1.466187 38.534689 -0.636992 1.608854 0.096113 -0.021195 -86130.300000 0 0 1
-31.341151 22.025183 -2.517387 38.388978 -0.612573 1.636419 0.104887 -0.017925 237601.000000 0 0 1
-32.426541 21.199283 -2.118287 38.799191 -0.579016 1.625420 0.117334 -0.023613 60217.300000 0 0 1
-32.882561 20.291983 -3.240987 38.775396 -0.552902 1.654478 0.161324 -0.017597 -196528.000000 0 0 1
-31.935841 19.312983 -3.620787 37.496657 -0.543900 1.667510 0.143874 -0.018569 -185821.000000 0 0 1
-32.238471 18.515783 -4.781087 37.483489 -0.521337 1.698697 0.144429 -0.013410 23974.800000 0 0 1
-31.057831 17.743683 -5.446987 36.181442 -0.519058 1.721917 0.141307 -0.020616 25064.000000 0 0 1
-30.715111 16.589583 -4.669787 35.219869 -0.495220 1.703777 0.187541 -0.019343 -401685.000000 0 0 1
-30.147651 15.601083 -5.377287 34.368442 -0.477541 1.727902 0.177026 -0.033963 -717848.000000 0 0 1
-29.858621 14.375083 -4.468487 33.438714 -0.448688 1.704829 0.185146 -0.032063 473823.000000 0 0 1
-31.040471 13.709383 -4.013487 34.169666 -0.415898 1.688526 0.195368 -0.030726 618487.000000 0 0 1
-30.670511 12.702883 -3.074987 33.339151 -0.392664 1.663161 0.184109 -0.043394 630064.000000 0 0 1
-31.922641 12.049283 -2.392287 34.204725 -0.360919 1.640794 0.183794 -0.049548 821420.000000 0 0 1
-32.806831 11.312583 -3.255187 34.854826 -0.332056 1.664325 0.177356 -0.029566 548849.000000 0 0 1
-33.575621 10.335983 -2.579387 35.225106 -0.298636 1.644088 0.174325 -0.026711 -457310.000000 0 0 1
-34.706347 9.785483 -3.392587 36.218722 -0.274817 1.664603 0.152734 -0.020883 -405922.000000 0 0 1
-34.131735 8.881083 -4.344787 35.534858 -0.254556 1.693371 0.153425 -0.030687 215411.000000 0 0 1
-35.089807 8.339683 -5.185487 36.438086 -0.233338 1.713591 0.144407 -0.022095 -484133.000000 0 0 1
-34.503874 7.442783 -6.297987 35.854943 -0.212453 1.747364 0.154746 -0.032429 -365049.000000 0 0 1
-33.833931 6.312783 -5.852287 34.911822 -0.184460 1.739222 0.158395 -0.035576 74003.700000 0 0 1
-33.449461 5.510883 -6.919287 34.599317 -0.163286 1.772137 0.167585 -0.038672 386824.000000 0 0 1
-32.327621 4.466583 -6.461387 33.268227 -0.137297 1.766260 0.179342 -0.042513 1104090.000000 0 0 1
-31.016461 5.024683 -6.491187 32.084323 -0.160605 1.774519 0.166095 -0.043079 87279.000000 0 0 1
-30.096101 4.256483 -5.780087 30.940302 -0.140498 1.758715 0.166792 -0.043380 -10127.700000 0 0 1
-28.697081 4.950783 -5.751387 29.683516 -0.170837 1.765787 0.164249 -0.048296 -56659.000000 0 0 1
-28.039891 4.808383 -6.962987 29.288892 -0.169832 1.810829 0.166002 -0.033161 -322037.000000 0 0 1
-26.696391 4.458983 -6.751387 27.895538 -0.165498 1.815248 0.187936 -0.043666 38261.900000 0 0 1
-25.731821 4.538283 -7.991087 27.323617 -0.174573 1.867595 0.169231 -0.028000 231020.000000 0 0 1
-26.076061 3.714683 -9.101787 27.867586 -0.141504 1.903509 0.164136 -0.043385 385047.000000 0 0 1
-25.050491 3.724083 -10.070287 27.254477 -0.147582 1.949258 0.171222 -0.043178 -170190.000000 0 0 1
-25.461671 2.996783 -11.332087 28.030226 -0.117159 1.986989 0.141520 -0.047483 274576.000000 0 0 1
-26.476181 3.677483 -12.082187 29.334131 -0.138015 1.995314 0.144512 -0.027894 418431.000000 0 0 1
-26.809401 3.017483 -13.240687 30.052703 -0.112081 2.027043 0.140893 -0.036469 -163644.000000 0 0 1
-27.881451 3.810783 -13.986087 31.424640 -0.135836 2.032046 0.130396 -0.028246 -480868.000000 0 0 1
-27.272241 4.925683 -14.630387 31.338246 -0.178685 2.056526 0.110852 -0.014640 142684.000000 0 0 1
-28.076721 5.832183 -15.345487 32.523846 -0.204810 2.062153 0.161680 -0.022239 -424759.000000 0 0 1
-28.725771 5.209183 -16.623087 33.595126 -0.179392 2.088408 0.099272 0.001469 86530.400000 0 0 1
-29.938621 4.539383 -16.353387 34.414535 -0.150477 2.065974 0.112949 -0.015747 -291780.000000 0 0 1
-30.544121 3.992783 -17.493987 35.424923 -0.129985 2.087288 0.118923 -0.013301 1496400.000000 0 0 1
-32.054541 3.524583 -17.201687 36.548793 -0.109516 2.060824 0.119655 -0.016828 1514160.000000 0 0 1
-32.217631 2.451983 -16.266887 36.174570 -0.075960 2.037200 0.129675 -0.027411 294164.000000 0 0 1
-31.742301 1.176483 -16.737687 35.904149 -0.037047 2.055761 0.150844 -0.036355 -140018.000000 0 0 1
-32.198411 0.046683 -15.819687 35.874814 -0.001450 2.027475 0.154281 -0.030106 -143519.000000 0 0 1
-31.594761 -1.224417 -16.069187 35.467547 0.038734 2.040999 0.168251 -0.021373 420917.000000 0 0 1
-31.958221 -2.110917 -15.028087 35.378344 0.065957 2.009517 0.174905 -0.032849 -75514.200000 0 0 1
-31.701121 -3.535417 -15.545087 35.483939 0.111064 2.024267 0.169353 -0.028122 -55677.500000 0 0 1
-32.577141 -3.748417 -16.628687 36.767294 0.114559 2.040103 0.187312 -0.037031 222588.000000 0 0 1
-32.260121 -4.842217 -17.497087 37.017705 0.148987 2.063112 0.185999 -0.028662 -159641.000000 0 0 1
-33.102091 -4.892117 -18.788187 38.375476 0.146727 2.082414 0.196611 -0.021458 -191562.000000 0 0 1
-32.978841 -6.050417 -19.595987 38.835733 0.181446 2.099699 0.193905 -0.019386 357855.000000 0 0 1
-33.768081 -5.941717 -20.777287 40.090933 0.174174 2.115604 0.180771 -0.019343 -16168.600000 0 0 1
-33.556981 -7.146017 -21.757787 40.626811 0.209818 2.135958 0.177405 -0.012014 -362676.000000 0 0 1
-32.310591 -7.147817 -22.385187 39.951998 0.217716 2.165547 0.163510 -0.018935 -342834.000000 0 0 1
-32.315081 -8.076917 -23.434487 40.726849 0.244925 2.183897 0.144339 -0.007383 -948232.000000 0 0 1
-31.069761 -7.975417 -24.247187 40.210240 0.251269 2.218066 0.124701 -0.009161 -1260570.000000 0 0 1
-30.774801 -6.731617 -24.842487 40.119224 0.215346 2.238541 0.123655 -0.011561 -13576.800000 0 0 1
-30.760791 -6.814917 -26.296477 41.038689 0.218024 2.266301 0.095916 -0.007248 149539.000000 0 0 1
-32.152611 -6.827517 -26.999317 42.536672 0.209239 2.258456 0.109820 -0.009958 105157.000000 0 0 1
-32.816791 -8.031117 -26.727427 43.078950 0.240009 2.240086 0.103878 -0.017095 -667871.000000 0 0 1
-34.028511 -8.155617 -27.411957 44.450748 0.235233 2.235317 0.096549 -0.017192 -196183.000000 0 0 1
-34.984282 -9.208117 -26.839787 45.045128 0.257370 2.209110 0.090067 -0.021187 -725697.000000 0 0 1
-34.624924 -10.526517 -27.114317 45.220339 0.295137 2.213803 0.092790 -0.010018 -647719.000000 0 0 1
-35.543332 -11.512817 -26.822177 45.992418 0.313245 2.193443 0.087780 -0.011012 -970572.000000 0 0 1
-36.717771 -11.611417 -27.799787 47.495766 0.306283 2.196060 0.071472 -0.010625 -297521.000000 0 0 1
36.959293 -10.628517 -27.425917 47.234899 -0.280018 2.190296 0.063899 -0.016179 332216.000000 0 0 1
36.100913 -10.442017 -28.554537 47.198233 -0.281561 2.220552 0.064227 -0.023148 -18812.800000 0 0 1
35.081103 -9.314917 -28.336107 46.047654 -0.259536 2.233645 0.063970 -0.021317 658773.000000 0 0 1
33.920183 -9.611417 -27.539407 44.736753 -0.276116 2.233928 0.050050 -0.018279 1196850.000000 0 0 1
32.981553 -8.504117 -27.429197 43.731724 -0.252348 2.248769 0.029861 -0.011599 1331700.000000 0 0 1
31.736643 -8.904517 -26.529467 42.312144 -0.273542 2.248485 0.019464 -0.005765 620663.000000 0 0 1
32.013853 -9.153917 -25.163857 41.736084 -0.278505 2.217963 0.005080 0.008019 557230.000000 0 0 1
30.830423 -9.591417 -24.470787 40.513327 -0.301611 2.219330 -0.002256 0.007106 381543.000000 0 0 1
30.979773 -9.766917 -22.953587 39.774441 -0.305404 2.185962 -0.010090 0.005045 5251.690000 0 0 1
31.689153 -10.947717 -22.572187 40.417305 -0.332635 2.163347 -0.024841 0.005472 325655.000000 0 0 1
31.778983 -11.076717 -21.170387 39.759058 -0.335387 2.132309 -0.025728 0.004612 37756.200000 0 0 1
32.766393 -12.173617 -20.688687 40.618410 -0.355723 2.105217 0.001263 0.007315 244402.000000 0 0 1
34.136733 -11.961117 -20.949387 41.800259 -0.337021 2.095756 0.022392 0.003633 806437.000000 0 0 1
35.019353 -12.795217 -20.157987 42.384161 -0.350306 2.066444 0.073978 0.004945 1079900.000000 0 0 1
36.510313 -12.774217 -20.637187 43.841500 -0.336568 2.060906 0.114209 -0.014198 474298.000000 0 0 1
37.224913 -11.532417 -20.477287 44.022836 -0.300427 2.054602 0.149382 -0.010857 521136.000000 0 0 1
37.140553 -10.572017 -21.560687 44.227271 -0.277314 2.080018 0.150364 -0.000839 -434103.000000 0 0 1
-36.884931 -11.098117 -22.908087 44.815698 0.292268 2.107333 0.115923 -0.004511 39748.900000 0 0 1
37.198983 -12.195517 -23.643687 45.733127 -0.316803 2.114130 0.101613 -0.003636 1148180.000000 0 0 1
35.890363 -11.920917 -24.202087 44.899526 -0.320684 2.140079 0.109018 -0.002817 739887.000000 0 0 1
35.498303 -13.115217 -25.093357 45.407213 -0.353905 2.156312 0.077255 -0.024935 -483668.000000 0 0 1
35.480533 -14.409217 -24.492687 45.457513 -0.385768 2.139813 0.073862 -0.034946 592444.000000 0 0 1
34.564823 -14.609017 -23.412787 44.230182 -0.399883 2.128618 0.042112 -0.022957 -58389.100000 0 0 1
-29.916511 8.227683 -19.276287 36.527628 -0.268386 2.126708 0.091744 0.001187 104403.000000 0 0 1
-28.680671 7.556383 -19.407487 35.444750 -0.257612 2.150220 0.092569 0.005005 -244929.000000 0 0 1
-27.863221 8.239383 -20.314187 35.452964 -0.287515 2.180946 0.102852 -0.000639 501046.000000 0 0 1
-26.540801 7.413583 -20.605887 34.408979 -0.272385 2.212863 0.089067 -0.003211 -57299.000000 0 0 1
-25.577131 7.587583 -19.643887 33.130700 -0.288385 2.205478 0.091556 -0.002924 -834935.000000 0 0 1
-24.542921 6.640383 -19.861987 32.263728 -0.264236 2.233961 0.098715 -0.012409 -661832.000000 0 0 1
-23.264921 7.220983 -19.291887 31.073719 -0.300953 2.240613 0.077274 -0.009892 -767618.000000 0 0 1
-22.725721 8.259083 -20.106187 31.447251 -0.348584 2.264465 0.069963 -0.005899 403609.000000 0 0 1
-21.708721 9.031483 -19.428187 30.500667 -0.394249 2.261365 0.060801 -0.008456 391057.000000 0 0 1
-21.008121 10.022283 -20.381987 30.938854 -0.445134 2.289996 0.061153 -0.017367 -14991.600000 0 0 1
-20.178221 9.400983 -21.360587 30.851478 -0.435995 2.335563 0.091593 -0.016614 133384.000000 0 0 1
-19.511221 10.366683 -22.141787 31.279619 -0.488388 2.357269 0.092887 -0.016522 -199975.000000 0 0 1
-18.633821 9.707383 -23.199187 31.299438 -0.480271 2.405655 0.102495 -0.018956 -120251.000000 0 0 1
-19.383421 8.945183 -24.126287 32.215074 -0.432365 2.417216 0.087508 -0.011834 229545.000000 0 0 1
-18.509721 8.070683 -24.842087 32.013668 -0.411171 2.459070 0.076197 -0.004765 -549324.000000 0 0 1
-19.091921 7.152483 -25.915977 32.974191 -0.358450 2.475023 0.056761 0.006280 -467831.000000 0 0 1
-19.592121 5.970983 -25.337677 32.580695 -0.295822 2.461779 0.067615 0.000234 222423.000000 0 0 1
-20.175221 5.027083 -26.226717 33.468668 -0.244198 2.471268 0.065648 0.005816 -328751.000000 0 0 1
-20.692921 3.704683 -25.519027 33.062703 -0.177155 2.452522 0.060343 0.008185 27189.100000 0 0 1
-19.792821 2.671883 -25.179127 32.138499 -0.134181 2.471005 0.046764 0.009369 369811.000000 0 0 1
-18.667821 3.014683 -24.381487 30.855028 -0.160109 2.481923 0.038532 0.001215 33626.700000 0 0 1
-17.741321 1.849283 -23.935987 29.851395 -0.103861 2.501161 0.035516 -0.002793 -56013.900000 0 0 1
-18.086521 1.040683 -22.811787 29.130446 -0.057476 2.470417 0.037719 -0.000419 128886.000000 0 0 1
-19.334621 0.368583 -22.794287 29.892188 -0.019061 2.438042 0.039807 0.002872 80050.000000 0 0 1
-19.631421 -0.489217 -21.513287 29.128225 0.024915 2.401746 0.071972 -0.004261 105421.000000 0 0 1
-19.073121 -1.806417 -21.466887 28.772805 0.094428 2.412955 0.062413 -0.015172 84148.300000 0 0 1
-19.718021 -2.511017 -20.459887 28.525647 0.126665 2.370637 0.083153 -0.019712 -457188.000000 0 0 1
-19.196121 -3.912917 -20.162587 28.112842 0.201084 2.370575 0.067343 -0.031827 -208105.000000 0 0 1
-19.101421 -4.753117 -21.271887 28.981883 0.243883 2.394948 0.060699 -0.036072 250458.000000 0 0 1
-19.207721 -6.088117 -20.846587 28.992790 0.306945 2.373197 0.080922 -0.025471 -215255.000000 0 0 1
-19.194921 -7.023917 -22.050287 30.066519 0.350792 2.394082 0.060564 -0.038240 572542.000000 0 0 1
-17.879821 -7.032217 -22.613087 29.673081 0.374721 2.437307 0.062462 -0.038481 506796.000000 0 0 1
-17.917221 -7.794417 -23.827587 30.814504 0.410330 2.454761 0.089112 -0.040905 -77067.500000 0 0 1
-16.531521 -7.811617 -24.469287 30.546007 0.441430 2.499866 0.078568 -0.045048 -1046810.000000 0 0 1
-16.400421 -8.476817 -25.734517 31.671684 0.477049 2.519293 0.087532 -0.059053 683199.000000 0 0 1
-15.116721 -8.490017 -26.392887 31.578159 0.511729 2.560377 0.103845 -0.053861 976811.000000 0 0 1
-14.021821 -9.327217 -25.672027 30.702791 0.586982 2.561016 0.094229 -0.050036 -442848.000000 0 0 1
-13.420821 -8.763417 -24.525287 29.298560 0.578462 2.562723 0.087149 -0.041602 201529.000000 0 0 1
-12.306821 -9.557017 -24.153687 28.743608 0.660286 2.568660 0.059581 -0.030992 316050.000000 0 0 1
-11.536021 -8.939917 -22.939287 27.188468 0.659283 2.574961 0.051404 -0.026466 -267682.000000 0 0 1
-12.230621 -8.997417 -21.757587 26.531758 0.634252 2.532309 0.048804 -0.034010 115674.000000 0 0 1
-11.543621 -8.187017 -20.766087 25.129918 0.616890 2.543390 0.054289 -0.034017 -69165.700000 0 0 1
-12.351221 -7.972317 -19.472787 24.398769 0.573183 2.494940 0.054003 -0.035743 691717.000000 0 1 0
-13.491921 -7.100817 -19.522087 24.770252 0.484467 2.478555 0.050688 -0.023035 1069900.000000 0 1 0
-14.765321 -7.727517 -19.726987 25.824082 0.482157 2.440130 0.052428 -0.040836 464174.000000 0 0 1
-15.847021 -6.683917 -19.345787 25.885561 0.399138 2.414873 0.057538 -0.028966 -482209.000000 0 0 1
-15.801821 -6.214317 -18.015887 24.756564 0.374688 2.385791 0.055170 -0.027295 229845.000000 0 1 0
-15.451921 -4.857417 -17.982387 24.201706 0.304576 2.408370 0.047393 -0.022380 -322513.000000 0 1 0
-15.109721 -4.246517 -16.566087 22.820425 0.273978 2.383186 0.070017 -0.012763 -302159.000000 0 1 0
-16.233121 -4.154417 -15.729387 22.982319 0.250545 2.324594 0.101204 -0.022482 47378.000000 0 1 0
-16.665721 -2.788717 -15.723987 23.081745 0.165796 2.320238 0.064045 -0.032824 -560574.000000 0 1 0
-17.802321 -2.430517 -14.786287 23.269386 0.135689 2.259374 0.062413 -0.036444 -663734.000000 0 1 0
-17.618321 -2.499717 -13.379887 22.263764 0.140941 2.215512 0.093227 -0.042077 412480.000000 0 1 0
-18.667621 -1.889817 -12.656487 22.632678 0.100891 2.164232 0.101478 -0.044034 36281.600000 0 1 0
-18.188321 -0.562717 -12.001187 21.798168 0.030929 2.153831 0.095466 -0.039480 54701.500000 0 1 0
-17.923621 0.463283 -12.919087 22.099177 -0.025842 2.195178 0.118941 -0.042163 417652.000000 0 1 0
-17.205321 1.545883 -12.379287 21.252283 -0.089608 2.192588 0.120529 -0.030759 -816208.000000 0 1 0
-16.786421 2.504583 -13.515187 21.696016 -0.148110 2.243284 0.131136 -0.022770 437711.000000 0 1 0
-15.835621 2.057183 -14.504887 21.572914 -0.129185 2.308196 0.105484 -0.032234 991047.000000 0 1 0
-14.521821 1.749383 -14.058387 20.287480 -0.119888 2.336381 0.090584 -0.031092 -87571.600000 0 1 0
-13.812521 0.743183 -15.011287 20.412662 -0.053753 2.397040 0.078051 -0.035416 -45808.900000 0 1 0
-13.330221 1.169383 -16.282487 21.075616 -0.087500 2.453683 0.077968 -0.034174 433234.000000 0 1 0
-12.942421 0.064883 -17.156387 21.490744 -0.005013 2.495289 0.042251 -0.020907 -103585.000000 0 1 0
-12.308821 0.504383 -18.454487 22.188500 -0.040954 2.552984 0.062284 -0.027411 679705.000000 0 1 0
-11.005821 1.103883 -18.285387 21.370588 -0.099966 2.597570 0.031904 -0.014455 571721.000000 0 1 0
-10.634021 1.661083 -19.531987 22.301123 -0.154952 2.637949 0.039413 -0.010037 855581.000000 0 1 0
-9.236021 2.386983 -19.550887 21.754056 -0.252909 2.687647 0.028361 -0.005816 -518725.000000 0 1 0
-8.175321 1.478283 -19.557387 21.248825 -0.178890 2.739895 0.030111 -0.005264 453742.000000 0 1 0
-6.851321 1.973783 -19.316687 20.590551 -0.280493 2.787997 0.035226 -0.001621 1139580.000000 0 1 0
-6.385021 3.098783 -20.246887 21.454775 -0.451835 2.804441 0.042668 0.000935 -1417960.000000 0 1 0
-6.648021 2.793183 -21.581687 22.754500 -0.397758 2.819130 0.045468 0.000063 405352.000000 0 1 0
-6.029021 3.781483 -22.396287 23.499837 -0.560189 2.833917 0.040761 -0.002161 -202902.000000 0 1 0
-5.556921 3.242083 -23.732387 24.588954 -0.528148 2.876868 0.060297 -0.016653 200478.000000 0 1 0
-4.398421 2.431483 -23.495787 24.027280 -0.504997 2.930868 0.068897 -0.024248 195736.000000 0 1 0
-3.852421 2.007883 -24.726587 25.105315 -0.480464 2.967675 0.096398 -0.027609 -656162.000000 0 0 1
-2.411221 1.548083 -24.650787 24.816765 -0.570754 3.025872 0.068288 -0.021396 -1463830.000000 0 1 0
-1.513321 2.562783 -24.266087 24.447923 -1.037392 3.019552 0.060539 -0.021731 -285085.000000 0 1 0
-0.164321 2.179083 -24.345287 24.443167 -1.495531 3.052071 0.064726 -0.014686 -25482.900000 0 1 0
0.435479 1.065783 -23.460387 23.488620 1.182898 3.092557 0.063192 -0.020094 -973164.000000 0 1 0
0.033879 -0.310417 -23.760187 23.762239 -1.462085 3.128451 0.059784 -0.016597 18406.000000 0 1 0
0.688779 -1.275917 -22.947987 22.993749 -1.075794 3.078492 0.058776 -0.009340 -378287.000000 0 1 0
-0.005621 -2.636817 -22.925987 23.077125 1.568665 3.027081 0.066907 -0.016834 -127091.000000 0 1 0
-1.166321 -2.624217 -22.130887 22.316428 1.152571 3.012553 0.056999 -0.017721 -543748.000000 0 1 0
-2.337021 -2.908117 -22.844687 23.147322 0.893852 2.979711 0.067592 -0.020123 -190131.000000 0 1 0
-3.399421 -1.792717 -22.871187 23.191832 0.485295 2.975113 0.085481 -0.020847 -660018.000000 0 1 0
-3.941021 -1.483717 -21.616587 22.022940 0.360068 2.949195 0.066489 -0.017361 -35768.900000 0 1 0
-4.794621 -0.369217 -21.525487 22.056094 0.076855 2.921801 0.043233 -0.019999 248148.000000 0 1 0
-6.198221 -0.370917 -22.165687 23.018975 0.059771 2.868462 0.053028 -0.015814 -31709.700000 0 1 0
-7.048321 -1.338717 -21.540787 22.704107 0.187698 2.820090 0.072218 -0.012568 234962.000000 0 1 0
-8.373321 -1.255517 -22.028687 23.599828 0.148834 2.774642 0.053607 -0.000723 550669.000000 0 1 0
-9.271221 -2.500817 -21.662787 23.695695 0.263469 2.724345 0.054725 -0.010117 139351.000000 0 1 0
-9.223121 -3.557417 -22.587687 24.656130 0.368124 2.729060 0.085301 -0.013948 -109065.000000 0 1 0
-9.748221 -4.783817 -22.141987 24.661312 0.456210 2.685642 0.066910 -0.010051 -340286.000000 0 1 0
-10.913121 -5.188217 -23.066387 26.039816 0.443784 2.659038 0.063684 -0.021501 -327835.000000 0 0 1
-12.182221 -5.040917 -22.498387 26.076709 0.392340 2.611533 0.054805 -0.028417 -456968.000000 0 0 1
-13.167821 -5.575817 -23.347787 27.378831 0.400551 2.592058 0.051189 -0.034430 -181787.000000 0 0 1
-14.632621 -5.337617 -22.958087 27.743062 0.349776 2.545482 0.032730 -0.036470 -244683.000000 0 0 1
-15.086221 -4.063017 -23.291687 28.046476 0.263078 2.550743 0.059193 -0.029960 1047940.000000 0 0 1
-16.538221 -3.988117 -23.270587 28.825996 0.236628 2.510321 0.095875 -0.029911 1435470.000000 0 0 1
-17.006921 -2.590817 -23.739487 29.317417 0.151177 2.514505 0.063537 -0.025981 -335615.000000 0 0 1
-16.829921 -2.541217 -25.125957 30.348274 0.149862 2.546186 0.048482 -0.024093 142009.000000 0 0 1
-16.912821 -1.300817 -25.779407 30.859576 0.076762 2.559616 0.039150 -0.012679 -1245360.000000 0 0 1
-18.253721 -0.944217 -26.351157 32.069820 0.051681 2.535150 0.045795 -0.008120 -1033250.000000 0 0 1
-18.651121 -1.471617 -27.613907 33.355027 0.078739 2.546111 0.057414 -0.020106 -113054.000000 0 0 1
-17.930221 -1.046417 -28.735567 33.886879 0.058294 2.582968 0.059381 -0.014187 -457963.000000 0 0 1
-18.197821 -1.927417 -29.943747 35.092785 0.105521 2.593027 0.061449 -0.016662 856274.000000 0 0 1
-19.514921 -1.967717 -30.526117 36.284264 0.100492 2.570488 0.047929 -0.022460 837069.000000 0 0 1
-19.467721 -2.676417 -31.777917 37.362968 0.136623 2.587768 0.060132 -0.028097 508230.000000 0 0 1
-20.887621 -3.265217 -32.171377 38.496127 0.155068 2.560210 0.037996 -0.024988 1566220.000000 0 0 1
-21.928821 -2.348317 -32.556157 39.322908 0.106682 2.546182 0.044166 -0.023751 802136.000000 0 0 1
-22.571121 -1.770417 -31.432897 38.737796 0.078277 2.517386 0.035853 -0.010498 529553.000000 0 0 1
-23.835021 -0.856817 -31.757907 39.716583 0.035932 2.497447 0.042810 -0.006922 1000070.000000 0 0 1
-23.428021 0.311583 -32.430997 40.009234 -0.013299 2.515951 0.037238 -0.002845 610120.000000 0 0 1
-24.527921 1.217683 -32.605657 40.819487 -0.049604 2.496056 0.040376 -0.008117 287039.000000 0 0 1
-24.179021 2.586983 -33.244237 41.188552 -0.106587 2.510059 0.039966 -0.006841 -315704.000000 0 0 1
-23.541721 3.649883 -32.456867 40.261426 -0.153814 2.508418 0.036460 -0.002640 664212.000000 0 0 1
-24.262421 4.127783 -31.295927 39.813800 -0.168517 2.475201 0.035199 -0.006875 280631.000000 0 0 1
-25.564761 4.921983 -31.646827 40.979318 -0.190203 2.453192 0.028463 -0.015347 -361753.000000 0 0 1
-26.517551 4.087083 -32.226697 41.933814 -0.152924 2.447311 0.048449 -0.021281 -836903.000000 0 0 1
-27.524141 4.910183 -32.794497 43.094863 -0.176538 2.435625 0.060241 -0.030703 -952789.000000 0 0 1
-28.635691 4.054583 -33.317197 44.118908 -0.140657 2.426707 0.072428 -0.028108 -1107410.000000 0 0 1
-28.273291 3.315583 33.412331 43.894828 -0.116736 0.705649 0.084812 -0.023643 493001.000000 0 0 1
-29.364361 2.960483 32.553740 43.940597 -0.100479 0.736450 0.083244 -0.028704 273222.000000 0 0 1
-29.633951 1.488683 32.341285 43.890157 -0.050194 0.742370 0.096828 -0.009548 -89871.000000 0 0 1
-29.809921 0.833883 33.592086 44.919427 -0.027966 0.726009 0.110101 -0.007292 104690.000000 0 0 1
-29.916491 -0.556017 33.333482 44.793153 0.018584 0.731513 0.112853 -0.009875 -706048.000000 0 0 1
-29.916051 -1.323817 -33.212087 44.718735 0.044222 2.407873 0.080566 -0.014276 -335089.000000 0 0 1
-28.657091 -1.517017 -32.640127 43.461570 0.052888 2.420389 0.094898 -0.019957 87127.000000 0 0 1
-27.959751 -0.347817 -32.189217 42.638179 0.012439 2.426357 0.083790 -0.012952 -643277.000000 0 0 1
-27.896171 -0.059617 -30.674407 41.462261 0.002137 2.403592 0.088748 -0.006257 -335161.000000 0 0 1
-27.017561 -0.900417 -29.974097 40.363422 0.033315 2.407749 0.071608 -0.011125 204873.000000 0 0 1
-27.246151 -0.683717 -28.581327 39.493195 0.025089 2.379949 0.082004 -0.013819 -485623.000000 0 0 1
-26.195871 -1.146317 -27.592517 38.064218 0.043732 2.381677 0.075379 -0.013786 -412540.000000 0 0 1
-26.274471 -2.515317 -27.356677 38.013976 0.095442 2.374091 0.060452 -0.006721 -80049.900000 0 0 1
-25.239451 -2.840717 -26.493677 36.701695 0.112079 2.377290 0.080699 -0.012809 -447476.000000 0 0 1
-25.489011 -4.266717 -25.912247 36.596982 0.165857 2.357520 0.080118 -0.019647 1902.630000 0 0 1
-26.629021 -4.278417 -25.092897 36.838337 0.159306 2.320146 0.080238 -0.008999 -218368.000000 0 0 1
-26.893731 -5.473317 -24.413387 36.732049 0.200774 2.297801 0.073975 -0.012590 342147.000000 0 0 1
-28.021431 -5.243117 -23.363787 36.858613 0.184972 2.257351 0.083794 -0.014070 341057.000000 0 0 1
-28.156531 -6.335217 -22.429387 36.551369 0.221314 2.231459 0.100249 -0.014059 882581.000000 0 0 1
-29.260521 -5.962317 -21.541287 36.820569 0.201015 2.195718 0.138472 -0.009615 969113.000000 0 0 1
-29.562381 -7.013517 -20.460787 36.630146 0.232938 2.163467 0.156498 -0.024262 -632908.000000 0 0 1
-28.469941 -7.342717 -19.690787 35.386157 0.252411 2.160909 0.152721 -0.029072 -436411.000000 0 0 1
-28.871251 -8.365217 -18.743987 35.424046 0.282020 2.128373 0.172330 -0.020011 277938.000000 0 0 1
-29.522491 -7.829017 -17.416587 35.159756 0.259222 2.089041 0.175854 -0.026597 32319.700000 0 0 1
-28.606351 -7.373517 -16.454787 33.814968 0.252267 2.079004 0.152433 -0.036294 100460.000000 0 0 1
-29.245831 -6.674317 -15.418887 33.728433 0.224372 2.045582 0.157416 -0.034695 -276179.000000 0 0 1
-28.273061 -5.973117 -14.444987 32.306373 0.208204 2.034345 0.168178 -0.035685 20442.000000 0 0 1
-27.638241 -4.817017 -14.990587 31.808705 0.172555 2.061530 0.174770 -0.034715 200675.000000 0 0 1
-26.998981 -4.142517 -13.954787 30.673139 0.152245 2.043114 0.148905 -0.043294 -518563.000000 0 0 1
-14.293421 21.218283 -5.132587 26.093310 -0.977984 1.768789 0.105168 -0.047330 -110357.000000 0 0 1
-14.151721 20.414383 -6.290587 25.624006 -0.964633 1.818827 0.128415 -0.048839 85856.700000 0 0 1
-15.144821 19.421583 -6.216687 25.400997 -0.908499 1.818050 0.116127 -0.062883 112633.000000 0 0 1
-15.415921 18.659583 -7.538087 25.350609 -0.880303 1.872716 0.138853 -0.066248 28862.900000 0 0 1
-14.232421 17.958683 -7.911787 24.241956 -0.900640 1.903254 0.124518 -0.057080 364723.000000 0 1 0
-14.441921 16.853483 -8.803287 23.876909 -0.862304 1.948401 0.106164 -0.058824 -196308.000000 0 1 0
-15.013521 15.556583 -8.148787 23.104454 -0.803161 1.931244 0.104128 -0.056447 -695705.000000 0 1 0
-16.352621 15.658883 -7.819887 23.953276 -0.763730 1.903357 0.118657 -0.044377 -682133.000000 0 1 0
-16.652221 14.839483 -6.658287 23.277446 -0.727899 1.860888 0.106670 -0.031503 68045.400000 0 1 0
-18.102321 15.110683 -6.193887 24.380135 -0.695566 1.827666 0.120871 -0.041128 656366.000000 0 1 0
-19.114621 14.628483 -7.101387 25.095635 -0.653224 1.857689 0.118109 -0.040519 269197.000000 0 0 1
-20.328821 15.314183 -6.879187 26.364907 -0.645625 1.834774 0.091758 -0.027882 54192.300000 0 0 1
-21.484321 14.770083 -7.740187 27.196357 -0.602275 1.859389 0.089401 -0.013362 -53722.200000 0 0 1
-21.862321 13.418483 -7.441487 26.709408 -0.550485 1.853142 0.126377 -0.031897 -81206.400000 0 0 1
-22.825021 12.921483 -8.332687 27.520537 -0.515128 1.878405 0.146002 -0.032496 -99825.700000 0 0 1
-23.271021 11.481183 -8.090987 27.181281 -0.458328 1.873045 0.147902 -0.024529 -290162.000000 0 0 1
-22.221421 10.524283 -8.088787 25.883982 -0.442313 1.888622 0.151299 -0.017365 -150556.000000 0 0 1
-22.564121 9.296883 -7.506687 25.532761 -0.390826 1.869208 0.157768 -0.030606 -792983.000000 0 0 1
-21.400021 8.404983 -7.142687 24.075352 -0.374246 1.872011 0.133463 -0.018819 -859927.000000 0 1 0
-20.997221 7.480783 -8.102787 23.717094 -0.342254 1.919461 0.123383 -0.016767 729190.000000 0 1 0
-20.006021 6.635083 -7.476687 22.364392 -0.320239 1.911672 0.099513 -0.011330 261778.000000 0 1 0
-19.688921 5.365783 -8.342987 22.046556 -0.266067 1.958891 0.087580 -0.024912 275964.000000 0 1 0
-20.750221 4.388583 -8.351687 22.794341 -0.208424 1.945926 0.121207 -0.031115 849403.000000 0 1 0
-20.516221 3.330383 -9.312487 22.775627 -0.160926 1.992022 0.121097 -0.031016 -358121.000000 0 1 0
-21.530421 2.193983 -9.268087 23.542940 -0.101551 1.975414 0.129996 -0.035766 -373244.000000 0 1 0
-21.509121 1.382583 -8.144387 23.040938 -0.064191 1.932079 0.135002 -0.033752 961194.000000 0 1 0
-22.494021 0.288983 -8.111287 23.913541 -0.012846 1.916854 0.145798 -0.031439 329508.000000 0 1 0
-22.201421 -0.913017 -9.070487 24.000217 0.041101 1.958360 0.124492 -0.048860 485641.000000 0 1 0
-20.986521 -1.567117 -8.644987 22.751389 0.074534 1.960567 0.102627 -0.034792 1054410.000000 0 1 0
-20.809421 -2.890617 -9.181087 22.927713 0.138026 1.982789 0.078851 -0.027540 -39021.000000 0 1 0
-21.720621 -4.024217 -8.644887 23.721588 0.183195 1.943818 0.078286 -0.026418 10932.400000 0 1 0
-21.497221 -4.342817 -7.225187 23.090991 0.199335 1.889042 0.075300 -0.022837 364060.000000 0 1 0
-22.585421 -5.070417 -6.653987 24.084972 0.220838 1.850709 0.110553 -0.025921 -24621.900000 0 1 0
-22.483521 -6.568617 -6.928587 24.426640 0.284242 1.858393 0.108429 -0.032042 -222064.000000 0 1 0
-21.355721 -7.251517 -6.424287 23.450432 0.327343 1.848296 0.080000 -0.028133 478109.000000 0 1 0
-21.576621 -8.654117 -6.309387 24.088434 0.381444 1.835814 0.090290 -0.028592 -458187.000000 0 1 0
-20.410821 -9.377917 -5.650187 23.161855 0.430691 1.817227 0.082661 -0.031178 646088.000000 0 1 0
-19.262321 -9.630917 -6.498687 22.494988 0.463638 1.863869 0.068084 -0.018065 716523.000000 0 1 0
-18.342621 -10.467117 -5.880087 21.922311 0.518555 1.842345 0.069599 -0.009564 164147.000000 0 1 0
-17.445921 -11.351417 -6.865487 21.916882 0.576841 1.889411 0.052351 -0.003676 -792328.000000 0 1 0
-16.337221 -10.743817 -7.343287 20.886796 0.581719 1.930050 0.067185 -0.023434 -973744.000000 0 1 0
-16.562521 -10.291517 -8.646087 21.330430 0.555988 1.988148 0.058996 -0.026494 -65503.000000 0 1 0
-15.650421 -10.843417 -9.770887 21.400598 0.605912 2.044933 0.070550 -0.014255 126788.000000 0 1 0
-15.892521 -12.176517 -10.063087 22.407711 0.653776 2.036543 0.093038 -0.018237 304832.000000 0 1 0
-14.911321 -12.615817 -10.989487 22.411496 0.702200 2.083288 0.097062 -0.006418 141756.000000 0 1 0
-15.212521 -13.891217 -11.675987 23.679429 0.740030 2.086429 0.106928 -0.012194 456820.000000 0 1 0
-16.261821 -13.902517 -12.661587 24.860462 0.707342 2.105175 0.111099 -0.014936 760060.000000 0 1 0
-16.280421 -15.142317 -13.359687 25.938834 0.749195 2.111857 0.089837 -0.013710 -256288.000000 0 0 1
-16.881221 -15.022417 -14.718387 26.968121 0.727201 2.148104 0.103183 -0.016672 -259115.000000 0 0 1
-17.090521 -16.268217 -15.428587 28.191880 0.760753 2.149896 0.092663 -0.009196 332704.000000 0 0 1
-17.586421 -15.998317 -16.705087 29.056639 0.738147 2.183296 0.092370 -0.010653 -380525.000000 0 0 1
-17.845221 -17.208517 -17.617287 30.413053 0.767237 2.188626 0.097236 -0.026747 -26565.300000 0 0 1
-19.021021 -17.927717 -17.272887 31.329776 0.755817 2.154748 0.066359 -0.016483 -129303.000000 0 0 1
-19.915121 -17.921917 -18.362287 32.480467 0.732768 2.171633 0.063542 -0.018733 146365.000000 0 0 1
-21.402921 -17.787017 -17.932887 33.106667 0.693393 2.143219 0.055826 -0.025644 114878.000000 0 0 1
-21.815121 -16.603017 -17.328287 32.431916 0.650554 2.134473 0.057219 -0.016776 126725.000000 0 0 1
-21.587221 -16.659917 -15.955687 31.593431 0.657276 2.100215 0.061521 -0.020127 -531670.000000 0 0 1
-21.660221 -15.411517 -15.142587 30.593757 0.618411 2.088581 0.076077 -0.021423 -720838.000000 0 0 1
-22.886621 -14.775917 -15.100687 31.147325 0.573286 2.076948 0.084612 -0.025140 -376895.000000 0 0 1
-22.732521 -13.510917 -14.495787 30.156927 0.536250 2.072225 0.092710 -0.020589 -211258.000000 0 0 1
-24.078121 -12.806517 -14.240287 30.766029 0.488820 2.052012 0.100557 -0.025692 -131776.000000 0 0 1
-24.835921 -13.340817 -13.164087 31.114202 0.492930 2.007648 0.118398 -0.027076 296042.000000 0 0 1
-25.721491 -12.384617 -12.641787 31.221605 0.448730 1.987671 0.139988 -0.024972 -455121.000000 0 0 1
-26.660871 -13.031917 -11.600187 31.862160 0.454650 1.943435 0.144393 -0.027977 25486.100000 0 0 1
-27.533031 -12.055517 -11.029387 32.016412 0.412710 1.922494 0.132262 -0.032645 85246.100000 0 0 1
-28.267711 -12.424417 -9.924087 32.433272 0.414110 1.881769 0.129674 -0.028635 155980.000000 0 0 1
-29.279981 -11.302417 -9.475987 32.785000 0.368390 1.864014 0.135884 -0.032620 558554.000000 0 0 1
-28.582581 -10.332517 -8.675487 31.606786 0.346880 1.848847 0.148461 -0.040603 684862.000000 0 0 1
-29.399551 -9.303317 -8.158587 31.897458 0.306474 1.829446 0.168539 -0.043431 196550.000000 0 0 1
-28.446081 -8.295217 -7.481587 30.560829 0.283744 1.818120 0.172773 -0.041783 350774.000000 0 0 1
-27.703911 -8.826817 -6.401587 29.772465 0.308444 1.787506 0.158104 -0.049604 192713.000000 0 0 1
-26.814671 -7.990817 -5.675287 28.549757 0.289622 1.770915 0.147035 -0.045053 7702.910000 0 0 1
-27.362451 -6.660717 -5.108787 28.621121 0.238781 1.750255 0.183231 -0.051209 -108613.000000 0 0 1
-28.306321 -6.698417 -4.022387 29.364880 0.232366 1.708208 0.189734 -0.053255 500221.000000 0 0 1
-27.829571 -7.067217 -2.755187 28.844785 0.248689 1.666460 0.185515 -0.042557 -507376.000000 0 0 1
-27.228251 -5.977917 -1.844187 27.937683 0.216119 1.636855 0.184138 -0.044287 -86777.200000 0 0 1
-28.163641 -4.973017 -1.536087 28.640550 0.174774 1.624455 0.201141 -0.044958 69291.700000 0 0 1
-27.584051 -3.991417 -0.732887 27.880968 0.143703 1.597086 0.189468 -0.052950 -609013.000000 0 0 1
-28.569821 -2.994117 -0.161887 28.726740 0.104419 1.576432 0.193214 -0.052930 -814953.000000 0 0 1
-29.478181 -3.444017 0.772513 29.688738 0.116305 1.544773 0.185076 -0.041532 -478308.000000 0 0 1
-28.990041 -3.685317 2.110713 29.299473 0.126445 1.498695 0.168217 -0.042327 -659267.000000 0 0 1
-29.971301 -4.075717 3.204013 30.416378 0.135158 1.465262 0.159209 -0.043960 -625395.000000 0 0 1
-30.436381 -5.413817 3.149813 31.074169 0.176032 1.469258 0.164026 -0.039749 70293.800000 0 0 1
-31.370071 -5.618417 4.189413 32.143415 0.177222 1.440089 0.168523 -0.042490 -449300.000000 0 0 1
-32.205641 -6.843417 4.039113 33.171525 0.209377 1.448729 0.161989 -0.035155 -313540.000000 0 0 1
-31.358451 -7.996617 4.150213 32.627022 0.249685 1.443249 0.155062 -0.030385 412536.000000 0 0 1
-32.013211 -9.213817 3.937413 33.544646 0.280239 1.453147 0.159401 -0.030748 -414436.000000 0 0 1
-31.280611 -10.367017 4.627313 33.277074 0.320027 1.431290 0.145501 -0.024080 142494.000000 0 0 1
-31.542881 -10.456717 6.025013 33.772726 0.320107 1.391437 0.139410 -0.023124 -177908.000000 0 0 1
-30.626381 -11.290517 6.646413 33.311046 0.353195 1.369922 0.148638 -0.026969 -492610.000000 0 0 1
-30.718351 -11.349517 8.177813 33.753596 0.353914 1.326081 0.143894 -0.025951 195192.000000 0 0 1
-30.117851 -10.211517 8.868813 33.015388 0.326888 1.298829 0.146522 -0.020192 543881.000000 0 0 1
-30.187701 -10.311717 10.274713 33.514154 0.329160 1.259200 0.154736 -0.022763 -255151.000000 0 0 1
-29.904151 -8.999117 11.037513 33.122032 0.292312 1.231061 0.143052 -0.019124 255513.000000 0 0 1
-28.578221 -8.514817 10.889413 31.745805 0.289573 1.220667 0.138863 -0.034624 390236.000000 0 0 1
-28.358261 -7.430617 11.786513 31.596312 0.256265 1.188519 0.158751 -0.026226 106699.000000 0 0 1
-27.265511 -6.400617 11.399313 30.237730 0.230576 1.184252 0.164419 -0.026572 -246318.000000 0 0 1
-27.597811 -5.706217 10.226613 29.979721 0.203890 1.222691 0.182489 -0.027677 280250.000000 0 0 1
-27.014071 -4.438717 10.216213 29.220425 0.162856 1.213625 0.156908 -0.026793 28949.000000 0 0 1
-27.497381 -3.691017 8.875413 29.129066 0.133434 1.261181 0.163781 -0.027755 497561.000000 0 0 1
-26.780341 -4.249917 7.754213 28.202416 0.157383 1.292260 0.139468 -0.021687 681933.000000 0 0 1
-27.136981 -3.636817 6.508813 28.142615 0.133223 1.337404 0.147397 -0.037373 221409.000000 0 0 1
-26.248451 -4.142717 5.278213 27.092486 0.156536 1.374720 0.142279 -0.029509 611344.000000 0 0 1
-24.877921 -3.779917 5.411413 25.738728 0.150785 1.358972 0.158884 -0.042324 1021990.000000 0 0 1
-24.160321 -4.091517 4.195813 24.860942 0.167757 1.401213 0.161703 -0.044318 1352050.000000 0 1 0
-22.617221 -3.723017 4.208813 23.304799 0.163147 1.389201 0.154284 -0.035191 1312650.000000 0 1 0
-22.426721 -2.323617 4.173313 22.929752 0.103241 1.387772 0.134270 -0.032226 1265150.000000 0 1 0
-21.030921 -2.021617 4.400813 21.581328 0.095832 1.365438 0.112065 -0.027911 950804.000000 0 1 0
-20.680721 -0.503417 4.758113 21.226994 0.024338 1.344722 0.096787 -0.032603 -213237.000000 0 1 0
-20.815121 0.459983 3.727813 21.151298 -0.022095 1.393626 0.099058 -0.026374 1495440.000000 0 1 0
-22.179621 0.879383 3.475713 22.467520 -0.039627 1.415473 0.114754 -0.037106 960996.000000 0 1 0
-22.263321 2.028483 2.465613 22.491097 -0.090862 1.460949 0.136027 -0.025544 -323859.000000 0 1 0
-21.754721 3.131683 3.114713 22.198575 -0.142972 1.430020 0.118845 -0.031510 38091.600000 0 1 0
-21.702621 4.354583 2.348013 22.259364 -0.198018 1.465115 0.116969 -0.016393 533950.000000 0 1 0
-20.562721 4.539383 1.255713 21.095220 -0.217273 1.511235 0.081572 -0.005409 84165.400000 0 1 0
-20.884921 5.184383 0.063513 21.518870 -0.243317 1.567845 0.099082 -0.000287 1259530.000000 0 1 0
-21.868821 4.622183 -0.879587 22.369255 -0.208294 1.610128 0.130666 -0.013391 902388.000000 0 1 0
-21.313321 3.405983 -1.711087 21.651470 -0.158465 1.649907 0.113890 -0.011514 -24012.000000 0 1 0
-21.133821 2.244683 -0.918087 21.272514 -0.105816 1.613968 0.079896 -0.007963 376680.000000 0 1 0
-20.600721 1.168983 -1.639987 20.698931 -0.056684 1.650110 0.066926 -0.007928 -195833.000000 0 1 0
-19.825421 0.125583 -0.842487 19.843711 -0.006334 1.613265 0.068020 -0.009831 -336121.000000 0 1 0
-20.701021 -0.740117 -0.186187 20.715084 0.035737 1.579784 0.091507 -0.015411 927322.000000 0 1 0
-20.003421 -1.517117 0.815313 20.077430 0.075698 1.530177 0.079556 -0.014528 191847.000000 0 1 0
-18.960021 -2.538617 0.301813 19.131598 0.133102 1.555020 0.031197 -0.013915 -327341.000000 0 1 0
-18.185021 -3.123617 1.307613 18.497616 0.170109 1.500046 0.028261 -0.014253 697215.000000 0 1 0
-17.541321 -4.380917 0.979213 18.106607 0.244742 1.516689 0.021445 -0.009806 350823.000000 0 1 0
-18.580521 -5.536017 0.790913 19.403834 0.289573 1.530024 0.030921 -0.011164 37340.600000 0 1 0
-19.199121 -6.019617 1.958013 20.215733 0.303829 1.473788 0.053469 -0.021027 -604090.000000 0 1 0
-20.250621 -6.789517 1.554213 21.414966 0.323497 1.498156 0.074532 -0.031609 -1183410.000000 0 1 0
-21.033521 -7.114317 2.842113 22.385265 0.326157 1.443489 0.097782 -0.030737 -325177.000000 0 1 0
-20.359921 -8.112817 3.566413 22.205033 0.379187 1.409485 0.092024 -0.028284 939630.000000 0 1 0
-21.098321 -8.489917 4.723813 23.227833 0.382572 1.365999 0.101389 -0.032722 637871.000000 0 1 0
-20.131521 -9.323617 5.647413 22.893258 0.433723 1.321539 0.080251 -0.029903 377192.000000 0 1 0
-19.662021 -10.551117 5.166913 22.904544 0.492516 1.343253 0.091274 -0.020144 815620.000000 0 1 0
-18.575521 -11.035017 5.980713 22.418530 0.536042 1.300751 0.083899 -0.033405 465060.000000 0 1 0
-18.059621 -12.449817 5.478013 22.608770 0.603558 1.326065 0.068575 -0.023437 -365510.000000 0 1 0
-19.022921 -13.474317 5.559413 23.965304 0.616288 1.336686 0.100824 -0.025134 -35781.700000 0 1 0
-18.654021 -14.622917 4.822913 24.188069 0.664848 1.370059 0.094511 -0.019565 108996.000000 0 1 0
-19.473221 -15.920217 5.128213 25.670181 0.685347 1.369670 0.108714 -0.024566 420090.000000 0 0 1
-18.919621 -17.115417 4.497913 25.905999 0.735372 1.396288 0.106258 -0.023670 260246.000000 0 0 1
-19.590021 -18.268917 4.964713 27.242809 0.750517 1.387533 0.102672 -0.020971 -289315.000000 0 0 1
-18.816821 -19.570717 4.896013 27.587255 0.805035 1.392377 0.104907 -0.028427 -553850.000000 0 0 1
-18.562921 -19.959117 3.521513 27.483621 0.821626 1.442312 0.098665 -0.025156 -284522.000000 0 0 1
-17.863721 -21.091117 3.276713 27.833156 0.868059 1.452796 0.089265 -0.019478 666700.000000 0 0 1
-16.292121 -20.904817 3.292813 26.707437 0.908776 1.447190 0.095161 -0.020032 1246910.000000 0 0 1
-15.547021 -22.134517 3.412413 27.263369 0.958469 1.445302 0.086052 -0.025284 451560.000000 0 0 1
-14.154521 -21.830717 3.489513 26.250855 0.995563 1.437472 0.094005 -0.023793 418556.000000 0 0 1
-13.317721 -23.055017 3.959213 26.917854 1.046973 1.423176 0.104525 -0.018797 -147769.000000 0 0 1
-13.362221 -24.153917 3.045513 27.771133 1.065491 1.460911 0.104558 -0.023096 -212870.000000 0 0 1
-12.746521 -25.299967 3.450313 28.538865 1.104101 1.449601 0.097225 -0.025834 -580346.000000 0 0 1
19.623579 18.884183 -24.520387 36.646236 0.766199 2.303808 0.062059 0.000926 915850.000000 0 0 1
18.672279 19.183483 -25.600857 37.041381 0.798901 2.333864 0.055714 -0.008869 700905.000000 0 0 1
19.353279 19.208883 -26.805377 38.236878 0.781654 2.347644 0.074879 -0.010717 -509711.000000 0 0 1
18.452679 19.542483 -27.965527 38.787636 0.814073 2.376027 0.077789 -0.013961 -290259.000000 0 0 1
17.974179 20.853983 -27.987987 39.259230 0.859431 2.364424 0.074326 -0.013170 670391.000000 0 0 1
16.911979 20.934383 -28.963507 39.536668 0.891283 2.392891 0.074707 -0.015227 358036.000000 0 0 1
16.432479 22.326383 -29.286867 40.326347 0.936308 2.383642 0.087062 -0.026161 -49019.500000 0 0 1
15.574079 22.908683 -28.317667 39.613759 0.973734 2.367198 0.080041 -0.021914 259803.000000 0 0 1
15.278179 24.240683 -28.615077 40.495136 1.008416 2.355520 0.076843 -0.022012 -351510.000000 0 0 1
14.380879 24.907183 -27.597217 39.859551 1.047176 2.335553 0.076969 -0.023980 651560.000000 0 0 1
13.020579 24.408583 -27.615697 39.088887 1.080754 2.355315 0.079141 -0.035192 664928.000000 0 0 1
12.363579 25.136383 -26.569377 38.608647 1.113682 2.329762 0.063263 -0.026835 853630.000000 0 0 1
10.780279 24.945883 -26.593367 38.022607 1.162888 2.345367 0.069187 -0.032252 1436250.000000 0 0 1
10.069479 25.773383 -25.756077 37.802608 1.198339 2.320375 0.060285 -0.024292 -305238.000000 0 0 1
9.930679 27.096683 -26.287927 39.037209 1.219507 2.309604 0.062858 -0.028552 -666348.000000 0 0 1
9.353479 28.097783 -25.265777 38.927271 1.249445 2.277132 0.075927 -0.028781 -302076.000000 0 0 1
10.233179 28.444883 -24.210787 38.729724 1.225458 2.246084 0.069436 -0.022941 -167798.000000 0 0 1
9.553879 29.003783 -23.165887 38.329549 1.252589 2.219793 0.090553 -0.029840 -332307.000000 0 0 1
10.468779 29.540983 -22.010487 38.297866 1.230223 2.183056 0.070470 -0.023356 83643.000000 0 0 1
11.374479 30.516283 -22.464487 39.563562 1.214013 2.174636 0.049151 -0.028172 -37308.100000 0 0 1
12.346779 30.697083 -21.469087 39.442053 1.188383 2.146374 0.044283 -0.020220 -260478.000000 0 0 1
13.477279 31.685783 -21.789887 40.748313 1.168636 2.135000 0.049869 -0.003604 847594.000000 0 0 1
14.668279 31.075183 -22.329087 40.980648 1.129778 2.147029 0.048545 -0.004168 206771.000000 0 0 1
15.634779 32.004083 -22.691587 42.232875 1.116371 2.138025 0.059253 -0.004188 363861.000000 0 0 1
16.960279 31.352283 -23.237387 42.551062 1.074921 2.148505 0.035528 0.001105 587186.000000 0 0 1
17.731979 30.780283 -22.207787 41.893134 1.048149 2.129521 0.034249 0.006196 35584.100000 0 0 1
19.016679 30.509183 -22.751487 42.544970 1.013413 2.135024 0.025802 0.002131 93689.000000 0 0 1
20.002279 29.641983 -21.924087 41.945249 0.977187 2.120792 0.013807 0.001775 105137.000000 0 0 1
20.727879 30.208283 -20.882687 42.169562 0.969416 2.088870 0.018387 0.003051 -76852.000000 0 0 1
21.731979 29.316483 -20.443387 41.829023 0.932894 2.081438 0.026215 0.005726 154486.000000 0 0 1
22.530879 29.850383 -19.228487 42.052593 0.924234 2.045695 0.033096 0.004394 -184007.000000 0 0 1
23.421779 30.911683 -19.480687 43.400565 0.922385 2.036283 0.030782 0.000412 -115909.000000 0 0 1
23.916479 31.365383 -18.260387 43.465238 0.919336 2.004368 0.038615 -0.004836 -521697.000000 0 0 1
25.138779 32.273683 -18.342987 44.833179 0.909039 1.992306 0.047509 -0.004804 -65330.300000 0 0 1
26.316679 31.725183 -18.899587 45.345884 0.878313 2.000704 0.048420 -0.003060 45086.700000 0 0 1
27.406279 32.554583 -18.532987 46.415263 0.871049 1.981535 0.053314 -0.002323 207290.000000 0 0 1
28.816979 32.027483 -18.860087 47.030637 0.838115 1.983423 0.063939 -0.005617 97643.300000 0 0 1
29.190679 30.825683 -18.248487 46.209585 0.812634 1.976763 0.052231 -0.000579 391654.000000 0 0 1
30.430879 30.313383 -18.745087 46.864889 0.783464 1.982293 0.048916 0.002549 356661.000000 0 0 1
30.950279 29.045283 -18.067887 46.130215 0.753657 1.973244 0.054201 -0.005364 -319033.000000 0 0 1
31.407079 29.319583 -16.706787 46.099450 0.751036 1.941646 0.053495 -0.000304 200510.000000 0 0 1
31.789979 28.101583 -16.050487 45.364302 0.723891 1.932441 0.057986 -0.003698 -314442.000000 0 0 1
32.358279 28.254983 -14.630087 45.381072 0.717805 1.899042 0.064955 0.007307 387864.000000 0 0 1
33.593379 28.966783 -14.659287 46.717067 0.711578 1.889977 0.045714 0.012502 226031.000000 0 0 1
33.470079 30.416783 -14.617887 47.530090 0.737642 1.883414 0.051070 0.002729 336736.000000 0 0 1
34.881579 31.073783 -14.739687 48.985334 0.727729 1.876433 0.058933 -0.006851 1015250.000000 0 0 1
35.709479 31.148883 -13.569587 49.290501 0.717291 1.849696 0.051541 -0.004939 -195399.000000 0 0 1
36.864079 31.896183 -13.826887 50.670599 0.713274 1.847180 0.057542 -0.018106 -405488.000000 0 0 1
-36.832954 31.960683 -12.650487 50.380418 -0.714692 1.824612 0.058231 -0.013196 -652869.000000 0 0 1
-37.164754 32.750083 -11.549487 50.864305 -0.722338 1.799859 0.054815 -0.018446 416591.000000 0 0 1
-36.073854 32.983483 -10.650487 50.026652 -0.740677 1.785335 0.042252 -0.015938 353863.000000 0 0 1
-36.423654 -33.654342 -9.702987 50.531626 0.745901 1.764014 0.031629 -0.015375 -316246.000000 0 0 1
-35.298154 -33.143242 -9.071187 49.261756 0.753923 1.755996 0.030651 -0.009193 -482223.000000 0 0 1
-35.122954 -33.687642 -7.796087 49.287504 0.764542 1.729639 0.036304 -0.010057 -10881.700000 0 0 1
-34.766354 -32.668742 -6.719887 48.177826 0.754303 1.710734 0.045026 -0.009127 -799714.000000 0 0 1
-35.832854 -31.835242 -6.449987 48.364020 0.726390 1.704558 0.034890 -0.006511 -447294.000000 0 0 1
-35.437954 -30.800242 -5.554087 47.279503 0.715497 1.688542 0.047896 -0.006906 560456.000000 0 0 1
-36.718554 -30.004142 -5.117687 47.693726 0.685104 1.678306 0.027672 -0.011555 842783.000000 0 0 1
36.961879 -30.878342 -4.545087 48.376754 -0.695963 1.664887 0.019999 -0.007127 807022.000000 0 0 1
35.723579 -30.205842 -4.272787 46.976842 -0.701901 1.661877 0.024468 -0.006550 403474.000000 0 0 1
35.545979 -29.359142 -2.966887 46.198250 -0.690364 1.635061 0.020959 -0.000612 -634031.000000 0 0 1
36.085579 -28.085942 -2.976087 45.824079 -0.661378 1.635788 0.039710 -0.017325 388066.000000 0 0 1
35.223079 -27.270742 -2.178487 44.599378 -0.658828 1.619661 0.047243 -0.017878 108802.000000 0 0 1
35.271879 -25.774942 -2.394587 43.751424 -0.631067 1.625555 0.076636 -0.033329 -425429.000000 0 0 1
34.722979 -25.227542 -3.592187 43.069920 -0.628315 1.654297 0.085566 -0.040968 440646.000000 0 0 1
34.902979 -23.862942 -3.702687 42.442524 -0.599698 1.658147 0.089394 -0.044638 -316316.000000 0 0 1
34.732379 -23.209342 -5.115387 42.085376 -0.589087 1.692645 0.098162 -0.045498 180124.000000 0 0 1
35.825279 -23.486342 -6.006587 43.256652 -0.580288 1.710106 0.088744 -0.045233 495891.000000 0 0 1
35.507879 -23.148042 -7.347787 43.018965 -0.577719 1.742441 0.068231 -0.041556 -327156.000000 0 0 1
36.681779 -22.932742 -8.318487 44.052932 -0.558729 1.760766 0.063407 -0.035872 -280940.000000 0 0 1
-37.234854 -24.083942 -8.630587 45.176959 0.574131 1.763017 0.046474 -0.022347 287169.000000 0 0 1
-36.215254 -23.846242 -9.602387 44.411639 0.582298 1.788731 0.073938 -0.013464 222623.000000 0 0 1
-35.529454 -25.053142 -10.168287 44.647465 0.614165 1.800559 0.063090 -0.011093 -140851.000000 0 0 1
-34.782754 -25.892042 -9.288187 44.345329 0.639903 1.781810 0.063742 -0.009790 269594.000000 0 0 1
-35.597154 -26.888942 -8.703787 45.452486 0.646928 1.763478 0.051478 -0.007179 47800.500000 0 0 1
-34.789554 -28.147442 -8.306687 45.514752 0.680251 1.754330 0.042778 0.000533 -91563.100000 0 0 1
-34.461154 -28.969442 -9.416187 45.994177 0.699035 1.776980 0.048200 -0.001805 81363.300000 0 0 1
-33.698354 -30.088642 -9.043087 46.072583 0.728868 1.768358 0.041445 -0.006003 -146209.000000 0 0 1
-33.185054 -30.975242 -10.186487 46.523950 0.750970 1.791536 0.046920 -0.003592 -525454.000000 0 0 1
-32.053854 -30.495742 -10.845687 45.552923 0.760493 1.811195 0.032943 0.009720 -273149.000000 0 0 1
-31.875354 -31.262542 -12.021687 46.237492 0.775693 1.833817 0.035248 0.001148 -148115.000000 0 0 1
-32.044554 -30.348842 -13.249287 46.080899 0.758227 1.862435 0.026927 0.010808 259056.000000 0 0 1
-31.028954 -29.352942 -13.419387 44.771320 0.757648 1.875208 0.024195 0.007002 331443.000000 0 0 1
-31.332154 -28.575442 -14.566187 44.837859 0.739415 1.901664 0.019985 0.014728 892935.000000 0 0 1
-30.160954 -27.580242 -14.936187 43.513706 0.740733 1.921174 0.038191 -0.000787 1287560.000000 0 0 1
-28.939754 -28.146542 -15.416387 43.213449 0.771504 1.935583 0.058856 -0.005967 407059.000000 0 0 1
-28.045854 -27.154242 -15.893487 42.148852 0.769247 1.957438 0.075703 0.003384 375211.000000 0 0 1
-26.682054 -27.747542 -16.352987 41.824374 0.804971 1.972505 0.086503 -0.006001 17924.300000 0 0 1
-26.701154 -28.677542 -17.469987 42.901672 0.821072 1.990193 0.077281 -0.006290 -354800.000000 0 0 1
-26.856654 -28.115642 -18.745787 43.164496 0.808296 2.020043 0.060732 -0.002025 229939.000000 0 0 1
-25.646454 -27.324342 -19.336087 42.169237 0.817063 2.047143 0.059889 -0.007005 274370.000000 0 0 1
-25.324954 -26.088242 -18.661787 40.868227 0.800243 2.045003 0.075887 -0.011702 -109913.000000 0 0 1
-23.917354 -25.962142 -18.746487 39.968780 0.826370 2.058986 0.075768 -0.021443 191600.000000 0 0 1
-23.405554 -24.828142 -17.871587 38.518180 0.814883 2.053277 0.091122 -0.023095 -159553.000000 0 0 1
-23.677854 -25.151642 -16.501387 38.282393 0.815571 2.016446 0.103681 -0.021764 142546.000000 0 0 1
-23.369754 -24.131342 -15.573787 37.027151 0.801430 2.004908 0.114906 -0.024504 -293320.000000 0 0 1
-23.909054 -24.371742 -14.198587 36.976000 0.794981 1.964915 0.097373 -0.023044 -791566.000000 0 0 1
-25.264254 -24.091942 -14.082487 37.643335 0.761651 1.954226 0.073608 -0.010109 -674108.000000 0 0 1
-25.656554 -24.014242 -12.708687 37.369149 0.752346 1.917804 0.073068 -0.009514 -176718.000000 0 0 1
-27.169854 -23.825142 -12.505287 38.238993 0.719903 1.903955 0.063855 0.007775 -1215270.000000 0 0 1
-27.844254 -25.005042 -12.896887 39.583889 0.731727 1.902666 0.072252 0.003619 52950.200000 0 0 1
-29.110354 -25.094042 -12.275487 40.346143 0.711438 1.879952 0.055455 0.009827 -201693.000000 0 0 1
-30.243554 -24.192542 -12.824787 40.797387 0.674695 1.890572 0.062839 0.009924 -1589490.000000 0 0 1
-30.374954 -22.888042 -12.236887 39.952994 0.645748 1.882081 0.064023 0.007420 268632.000000 0 0 1
-30.970354 -22.805742 -10.939387 39.986684 0.634723 1.847905 0.075621 0.004210 216919.000000 0 0 1
-32.475754 -23.208142 -10.853887 41.365436 0.620477 1.836295 0.065141 0.004330 178310.000000 0 0 1
-33.510154 -22.411442 -11.432387 41.903492 0.589475 1.847126 0.086438 -0.008975 646198.000000 0 0 1
-33.596454 -22.397242 -12.825887 42.365806 0.587994 1.878364 0.075825 -0.002296 -36085.600000 0 0 1
-35.043354 -21.956542 -13.220787 43.415615 0.559716 1.880227 0.040636 -0.007370 809929.000000 0 0 1
-36.054054 -22.927842 -13.003187 44.661657 0.566420 1.866224 0.046191 0.000453 313410.000000 0 0 1
37.304879 -22.427342 -13.200387 45.485051 -0.541294 1.865247 0.058728 -0.013791 1107530.000000 0 0 1
36.157479 -23.476342 -12.815887 44.974981 -0.575869 1.859757 0.052010 0.003745 699450.000000 0 0 1
36.048079 -24.642642 -13.624987 45.742366 -0.599638 1.873250 0.037383 0.011282 187765.000000 0 0 1
35.064879 -25.541042 -13.106087 45.317327 -0.629529 1.864195 0.040247 -0.000308 430983.000000 0 0 1
35.024579 -26.831242 -13.969887 46.279525 -0.653706 1.877438 0.048388 -0.007238 459407.000000 0 0 1
34.167379 -26.723642 -15.109087 45.933075 -0.663755 1.905974 0.048284 -0.007707 93858.300000 0 0 1
34.137479 -27.908242 -15.995087 46.905013 -0.685336 1.918788 0.043644 0.002296 87664.800000 0 0 1
33.291679 -27.733242 -17.281787 46.648995 -0.694564 1.950305 0.047110 -0.005696 1303150.000000 0 0 1
31.864779 -27.688142 -17.068387 45.533803 -0.715380 1.955032 0.073387 -0.008737 1086590.000000 0 0 1
31.108079 -27.510342 -18.266487 45.367346 -0.724100 1.985190 0.072102 -0.013740 848434.000000 0 0 1
29.572779 -27.711842 -18.079687 44.377590 -0.752924 1.990408 0.070553 -0.016807 564070.000000 0 0 1
29.078779 -26.871842 -17.045187 43.106956 -0.745974 1.977317 0.063915 -0.020437 60865.300000 0 0 1
27.665479 -26.883542 -16.957087 42.138419 -0.771065 1.984949 0.084370 -0.021939 115718.000000 0 0 1
27.114379 -25.930742 -15.922087 40.756666 -0.763088 1.972147 0.075486 -0.026769 -162603.000000 0 0 1
27.117279 -24.558142 -16.297287 40.050602 -0.735915 1.989873 0.084732 -0.031159 56524.300000 0 0 1
26.703279 -23.941242 -15.123387 38.922551 -0.730914 1.969855 0.078618 -0.023765 -193477.000000 0 0 1
26.641779 -22.395742 -15.183787 37.972372 -0.699026 1.982165 0.081291 -0.024746 -406625.000000 0 0 1
25.562479 -21.948242 -15.931387 37.268952 -0.709472 2.012489 0.100983 -0.028523 -401265.000000 0 0 1
25.513279 -20.539942 -15.891687 36.405526 -0.677824 2.022522 0.095298 -0.035565 85773.500000 0 0 1
24.091279 -19.961042 -16.124387 35.197000 -0.691914 2.046673 0.088860 -0.029555 148660.000000 0 0 1
23.365979 -20.034842 -14.902087 34.197018 -0.708795 2.021692 0.090596 -0.035450 -151981.000000 0 0 1
22.080179 -19.488042 -15.049387 33.072680 -0.723120 2.043213 0.080396 -0.038622 -80785.200000 0 0 1
21.758179 -18.331442 -14.085687 31.746916 -0.700128 2.030505 0.066158 -0.027518 -82754.100000 0 0 1
21.369679 -18.632642 -12.766687 31.093839 -0.717083 1.993893 0.064061 -0.037239 108862.000000 0 0 1
20.733479 -17.594742 -12.065987 29.749624 -0.703689 1.988415 0.074934 -0.048762 -209661.000000 0 0 1
19.901279 -17.936442 -10.793987 28.884027 -0.733517 1.953792 0.088906 -0.031083 7516.830000 0 0 1
20.563179 -18.489642 -9.674787 29.296974 -0.732352 1.907345 0.100884 -0.048168 459037.000000 0 0 1
19.592679 -18.577642 -8.610787 28.339857 -0.758812 1.879517 0.093681 -0.046244 888249.000000 0 0 1
20.205979 -19.108942 -7.235087 28.736384 -0.757502 1.825310 0.089714 -0.042744 89903.900000 0 0 1
21.280679 -18.388442 -6.697987 28.911332 -0.712618 1.804594 0.089424 -0.042563 179464.000000 0 0 1
21.932179 -19.115342 -5.612287 29.629623 -0.716882 1.761362 0.098334 -0.040231 885871.000000 0 0 1
23.272979 -18.364642 -5.211987 30.100771 -0.668057 1.744825 0.090151 -0.036914 479457.000000 0 0 1
24.237579 -18.580142 -6.202887 31.163404 -0.654031 1.771179 0.082610 -0.050387 698993.000000 0 0 1
25.267779 -17.547042 -6.149387 31.371553 -0.606987 1.768092 0.092935 -0.050080 241452.000000 0 0 1
26.258179 -17.518442 -7.323587 32.404054 -0.588345 1.798774 0.096136 -0.058877 -55625.000000 0 0 1
27.298179 -18.474642 -7.228587 33.745451 -0.594966 1.786679 0.104758 -0.067499 267743.000000 0 0 1
26.971579 -19.728142 -7.834987 34.322772 -0.631518 1.801101 0.102399 -0.074387 -717534.000000 0 0 1
27.916979 -20.909542 -7.573687 35.692120 -0.642854 1.784617 0.103652 -0.076402 626958.000000 0 0 1
29.217879 -20.581242 -8.070987 36.638952 -0.613677 1.792902 0.114088 -0.057267 62329.100000 0 0 1
30.260879 -21.447742 -7.799387 37.901938 -0.616582 1.778055 0.114808 -0.060828 -197221.000000 0 0 1
-30.126931 29.464183 4.689613 42.400029 -0.774277 1.459966 0.051851 -0.021760 30506.200000 0 0 1
-29.814531 30.323883 3.638013 42.681134 -0.793868 1.485456 0.050944 -0.021134 238524.000000 0 0 1
-28.851331 31.296983 4.063413 42.759931 -0.826036 1.475624 0.049014 -0.005836 336263.000000 0 0 1
-28.598061 32.346883 2.989513 43.279407 -0.846832 1.501667 0.052488 0.000083 -949596.000000 0 0 1
-27.869871 31.862183 1.898113 42.373709 -0.852136 1.525987 0.054093 -0.006137 76405.600000 0 0 1
-27.287681 32.878383 1.085013 42.740880 -0.878053 1.545408 0.061317 -0.020466 9843.990000 0 0 1
-26.161881 33.728083 1.778513 42.722250 -0.911067 1.529155 0.067389 -0.012125 -1161890.000000 0 0 1
-24.962721 33.031483 1.755913 41.440312 -0.923641 1.528412 0.052920 -0.020076 -944992.000000 0 0 1
-23.980921 33.746983 2.485413 41.474337 -0.952985 1.510834 0.049258 -0.017112 -370163.000000 0 0 1
-22.573521 33.240783 2.210213 40.241751 -0.974241 1.515845 0.056158 -0.027106 -625531.000000 0 0 1
-22.060821 33.661783 0.971713 40.258411 -0.990657 1.546657 0.083352 -0.029653 -640662.000000 0 0 1
-20.692321 33.381683 0.919013 39.285537 -1.015894 1.547401 0.095862 -0.036196 -744295.000000 0 0 1
-20.084821 -33.761842 -0.344587 39.285884 1.034137 1.579568 0.106829 -0.034178 -89802.000000 0 0 1
-19.964921 -32.330242 -0.466887 38.000797 1.017586 1.583083 0.105358 -0.033248 442022.000000 0 0 1
-18.985021 -31.817542 0.437013 37.053717 1.032819 1.559002 0.109667 -0.028193 11786.800000 0 0 1
-18.539521 -30.344942 0.328813 35.561741 1.022358 1.561550 0.113301 -0.035314 243631.000000 0 0 1
-17.524421 -30.026442 -0.635287 34.772059 1.042498 1.589067 0.111438 -0.024976 529215.000000 0 0 1
-17.375321 -28.613542 -0.576387 33.480871 1.025069 1.588013 0.094407 -0.025343 308474.000000 0 0 1
-16.282221 -28.075342 -1.564287 32.492807 1.045252 1.618957 0.086717 -0.025282 40302.900000 0 0 1
-16.605621 -28.180142 -2.944887 32.841123 1.038306 1.660588 0.074605 -0.021126 -226692.000000 0 0 1
-15.687221 -27.611042 -3.857287 31.989642 1.054125 1.691670 0.068929 -0.012839 -307107.000000 0 0 1
-16.235221 -27.546842 -5.273387 32.407090 1.038231 1.734246 0.081873 -0.019900 31837.600000 0 0 1
-17.301621 -26.615442 -5.381587 32.197660 0.994379 1.738727 0.077846 -0.012267 -194174.000000 0 0 1
-17.835121 -26.600242 -6.689787 32.717238 0.980153 1.776721 0.082548 -0.019677 56863.900000 0 0 1
-18.645821 -25.320842 -6.896987 32.192858 0.936068 1.786710 0.052171 -0.013167 -291829.000000 0 0 1
-17.821321 -24.215842 -6.660287 30.795550 0.936357 1.788793 0.040367 0.001069 56647.400000 0 0 1
-18.398421 -23.012742 -7.119587 30.311329 0.896367 1.807894 0.023969 -0.001523 -245892.000000 0 0 1
-17.370821 -21.897842 -6.866087 28.782009 0.900175 1.811674 0.032757 0.002138 -173720.000000 0 0 1
-16.341921 -21.961942 -7.817287 28.469198 0.931081 1.848957 0.051151 -0.002217 -602956.000000 0 0 1
-15.404221 -20.953942 -7.468587 27.058039 0.936869 1.850448 0.089675 -0.022598 873857.000000 0 0 1
-14.247721 -20.801742 -8.557687 26.626002 0.970257 1.898007 0.098650 -0.020984 806086.000000 0 0 1
-14.644621 -20.118942 -9.736487 26.721450 0.941588 1.943752 0.097908 -0.018221 -111106.000000 0 0 1
-13.595621 -20.113842 -10.686587 26.525660 0.976406 1.985455 0.093884 -0.016561 294483.000000 0 0 1
-14.014921 -19.317642 -11.987687 26.707563 0.943161 2.036274 0.107094 -0.016560 229946.000000 0 0 1
-15.156821 -19.882942 -12.617587 28.004715 0.919468 2.038180 0.089922 0.000663 39515.900000 0 0 1
-15.395221 -19.088142 -13.787687 28.133082 0.892084 2.082987 0.095349 -0.017929 -181132.000000 0 0 1
-16.609421 -19.508242 -14.645287 29.511502 0.865487 2.090078 0.105410 -0.019935 -88751.200000 0 0 1
-17.771321 -19.104342 -13.956087 29.589999 0.821532 2.061956 0.105149 -0.016169 -373713.000000 0 0 1
-18.948221 -19.449842 -14.618087 30.838610 0.798461 2.064646 0.085504 -0.008823 -410222.000000 0 0 1
-20.297921 -19.251342 -13.912987 31.244054 0.758942 2.032306 0.063078 -0.000700 1126760.000000 0 0 1
-21.344121 -20.050142 -14.601387 32.722777 0.754148 2.033328 0.080027 -0.018757 685084.000000 0 0 1
-22.610021 -19.758442 -14.060187 33.155662 0.718195 2.008727 0.077173 -0.020487 -313749.000000 0 0 1
-23.738721 -20.472042 -14.816287 34.672088 0.711643 2.012329 0.089209 -0.028656 -371082.000000 0 0 1
-23.800221 -20.013342 -16.175387 35.051783 0.699181 2.050449 0.083466 -0.038577 481867.000000 0 0 1
-24.698321 -20.723042 -17.042787 36.467905 0.698101 2.057072 0.096563 -0.047297 72475.000000 0 0 1
-24.959321 -19.959342 -18.355587 36.854722 0.674543 2.092148 0.094154 -0.038314 -312709.000000 0 0 1
-23.844321 -19.905842 -19.206887 36.519839 0.695618 2.124605 0.079257 -0.035962 -232687.000000 0 0 1
-24.105821 -19.382942 -20.485387 37.100405 0.677222 2.155750 0.077525 -0.042205 348194.000000 0 0 1
-22.885821 -18.658542 -21.202887 36.351951 0.683994 2.193541 0.058440 -0.031580 249974.000000 0 0 1
-21.782021 -19.458542 -21.498087 36.266500 0.729118 2.205304 0.055540 -0.025669 74965.200000 0 0 1
-20.890921 -18.607542 -22.289587 35.770055 0.727653 2.243542 0.066728 -0.029296 555538.000000 0 0 1
-19.508621 -19.200242 -22.648487 35.527307 0.777432 2.262039 0.074171 -0.026383 -131166.000000 0 0 1
-19.509821 -20.398842 -23.410687 36.671598 0.807671 2.263198 0.056561 -0.020370 525776.000000 0 0 1
-18.210021 -20.994642 -23.536387 36.418969 0.856307 2.273479 0.066466 -0.015796 439381.000000 0 0 1
-18.123821 -22.410542 -24.095887 37.567499 0.890762 2.267121 0.068198 -0.013897 -176315.000000 0 0 1
-18.397621 -22.471742 -25.508437 38.654003 0.884756 2.291505 0.077105 -0.023589 194623.000000 0 0 1
-18.380121 -23.801542 -26.065597 39.796452 0.913223 2.284943 0.086363 -0.027500 -14410.400000 0 0 1
-18.256021 -23.793142 -27.654397 40.794136 0.916327 2.315700 0.085601 -0.017831 311144.000000 0 0 1
-16.893621 -23.601342 -28.002167 40.330374 0.949551 2.338270 0.074578 -0.021865 192350.000000 0 0 1
-16.737621 -23.462742 -29.428257 41.190660 0.951153 2.366620 0.102740 -0.027347 291360.000000 0 0 1
-15.258921 -23.203742 -29.831567 40.757461 0.989093 2.391945 0.069431 -0.031483 441565.000000 0 0 1
-14.390421 -24.282442 -29.476227 40.811385 1.035816 2.377854 0.082242 -0.035111 -187932.000000 0 0 1
-13.267821 -24.256942 -30.324327 41.036558 1.070282 2.402320 0.108542 -0.037980 -293141.000000 0 0 1
-12.324021 -25.382542 -29.924407 41.129369 1.118790 2.385566 0.111170 -0.035749 -1069850.000000 0 0 1
-12.854721 -26.631142 -30.345447 42.371071 1.121088 2.369114 0.103595 -0.033640 637740.000000 0 0 1
-11.989721 -27.747442 -30.096647 42.655387 1.162926 2.354033 0.120044 -0.036406 532005.000000 0 0 1
-10.580721 -27.825942 -30.748567 42.798470 1.207434 2.372368 0.122989 -0.041796 103442.000000 0 0 1
-9.683121 -26.894042 -30.152627 41.547963 1.225199 2.382892 0.139085 -0.050738 -439361.000000 0 0 1
-8.619121 -26.674042 -31.033917 41.819825 1.258259 2.406974 0.124098 -0.039730 -173470.000000 0 0 1
-7.470021 -25.737642 -30.567087 40.651866 1.288320 2.421771 0.158949 -0.039019 219272.000000 0 0 1
-7.813121 -24.335042 -30.498947 39.792271 1.260128 2.444098 0.173544 -0.042624 506153.000000 0 0 1
-8.792621 -23.965642 -29.497947 39.010140 1.219160 2.428223 0.169103 -0.034305 321167.000000 0 0 1
-9.146521 -22.450942 -29.490457 38.175786 1.183927 2.453551 0.169795 -0.036927 215128.000000 0 0 1
-10.058621 -21.991842 -30.505547 38.928207 1.141822 2.471294 0.150282 -0.032763 474428.000000 0 0 1
-10.352021 -20.616542 -30.347427 38.120499 1.105453 2.491606 0.141972 -0.034088 79936.500000 0 0 1
-11.052621 -20.005842 -31.578927 38.982339 1.066059 2.515090 0.101557 -0.023665 306194.000000 0 0 1
-11.727421 -18.753342 -31.359257 38.374773 1.011945 2.527305 0.096470 -0.026313 186882.000000 0 0 1
-12.280721 -18.256542 -32.531557 39.273650 0.978646 2.546917 0.092228 -0.019601 -620628.000000 0 0 1
-13.233421 -17.089042 -32.280087 38.847944 0.911873 2.551581 0.081043 -0.018759 -492606.000000 0 0 1
-12.823721 -15.775142 -32.276847 38.145743 0.888235 2.579507 0.083762 -0.019381 -550523.000000 0 0 1
-11.964821 -15.276042 -31.289477 36.817737 0.906358 2.586493 0.074384 -0.011081 -25557.100000 0 0 1
-11.670621 -13.814242 -31.568377 36.381301 0.869314 2.621371 0.061135 -0.009428 339187.000000 0 0 1
-10.835921 -13.369942 -32.676797 36.931634 0.889704 2.656843 0.053322 -0.013748 347979.000000 0 0 1
-11.449321 -13.440242 33.925218 38.244574 0.865218 0.479860 0.057832 -0.016076 -229576.000000 0 0 1
-11.926721 -12.090242 33.339754 37.416036 0.792207 0.471132 0.050664 -0.009386 565665.000000 0 0 1
-13.214421 -11.618642 33.739569 38.052230 0.721226 0.480715 0.037843 -0.004932 69276.000000 0 0 1
-13.753121 -10.704542 32.841122 37.178957 0.661391 0.487887 0.038709 -0.022947 694605.000000 0 0 1
-14.970721 -9.962042 33.491854 38.014063 0.587149 0.492743 0.055510 -0.022311 356867.000000 0 0 1
-14.539121 -8.856442 -33.658627 37.719037 0.547117 2.673324 0.055939 -0.022178 -197881.000000 0 0 1
-15.392521 -8.410642 -32.648397 37.061926 0.500084 2.648588 0.060394 -0.025539 -458638.000000 0 0 1
-14.684421 -7.311242 -31.894557 35.865711 0.461959 2.666559 0.060756 -0.040894 -640170.000000 0 0 1
-14.717321 -5.971742 -32.412617 36.094860 0.385464 2.685963 0.063826 -0.049061 351374.000000 0 0 1
-15.913421 -5.259942 -32.126257 36.235346 0.319230 2.660738 0.067467 -0.040284 188071.000000 0 0 1
-16.081721 -4.869342 -30.641347 34.946021 0.294012 2.640003 0.070731 -0.043531 -367582.000000 0 0 1
-16.396521 -6.003142 -29.791117 34.531062 0.350965 2.611448 0.063522 -0.047345 -33692.200000 0 0 1
-16.890221 -5.617442 -28.534847 33.631424 0.321077 2.583861 0.080307 -0.050331 -62339.400000 0 0 1
-15.889321 -4.954642 -27.533997 32.173591 0.302267 2.597882 0.076836 -0.047563 175085.000000 0 0 1
-15.641521 -3.641242 -27.965587 32.248874 0.228720 2.620308 0.066741 -0.034411 -736745.000000 0 0 1
-14.318321 -3.271542 -27.764787 31.410200 0.224630 2.655022 0.054986 -0.026965 -656192.000000 0 0 1
-13.919121 -1.933642 -28.428047 31.711744 0.138036 2.682493 0.042916 -0.006351 -91493.900000 0 0 1
-13.901721 -2.063642 -29.828937 32.973958 0.147369 2.701286 0.043599 -0.013334 210243.000000 0 0 1
-13.753121 -0.849642 -30.473187 33.443764 0.061700 2.716928 0.047127 -0.019875 -68072.700000 0 0 1
-13.909821 -0.915642 -31.999797 34.904276 0.065732 2.730757 0.042005 -0.021910 -318995.000000 0 0 1
-15.267121 -1.024642 -32.338727 35.776083 0.067014 2.699645 0.036574 -0.025021 -117276.000000 0 0 1
-15.395821 -1.462642 -33.688707 37.068849 0.094718 2.711230 0.037362 -0.025382 -1320570.000000 0 0 1
-16.751721 -1.806642 33.674418 37.654356 0.107433 0.463924 0.027562 -0.023758 -1246770.000000 0 0 1
-16.708121 -2.044642 32.263295 36.390411 0.121769 0.480881 0.043891 -0.036752 603149.000000 0 0 1
-18.013921 -1.855642 31.720508 36.525817 0.102649 0.518748 0.044398 -0.029362 470004.000000 0 0 1
-18.025321 -1.939642 30.180148 35.206756 0.107194 0.540938 0.063796 -0.024499 100639.000000 0 0 1
-17.424421 -0.749642 29.648698 34.397931 0.042996 0.531727 0.063497 -0.009337 103614.000000 0 0 1
-17.374221 -0.851642 28.226608 33.156149 0.048978 0.552294 0.068819 -0.020064 -16557.700000 0 0 1
-16.728021 0.419358 27.574468 32.254516 -0.025064 0.545433 0.069684 -0.017827 158582.000000 0 0 1
-17.272521 1.680358 28.017008 32.956278 -0.096980 0.554571 0.067383 -0.016865 251896.000000 0 0 1
-18.607821 2.033358 27.679628 33.414777 -0.108843 0.594614 0.076360 -0.022605 369547.000000 0 0 1
-18.724621 2.677358 26.326558 32.417083 -0.142023 0.623020 0.080292 -0.025593 -333057.000000 0 0 1
-18.662221 4.093358 26.411478 32.597549 -0.215920 0.626254 0.083764 -0.023299 93586.400000 0 0 1
-19.024021 4.814358 25.241778 31.972468 -0.247863 0.660827 0.092752 -0.020674 -337140.000000 0 0 1
-18.836021 6.371358 25.491788 32.329880 -0.326173 0.662446 0.086229 -0.016180 921029.000000 0 0 1
-17.478921 6.829358 25.589048 31.732509 -0.372481 0.632760 0.068835 -0.016141 855967.000000 0 0 1
-16.745521 6.961358 24.371318 30.378184 -0.393980 0.639719 0.055723 -0.009301 45335.000000 0 0 1
-15.631921 8.032358 24.390598 30.062884 -0.474661 0.624391 0.053144 -0.009703 -702994.000000 0 0 1
-14.433921 7.622358 24.948368 29.813746 -0.485864 0.579370 0.045336 -0.012661 -516990.000000 0 0 1
-13.424021 8.204358 24.112848 28.791409 -0.548592 0.578102 0.062229 -0.012776 359655.000000 0 0 1
-11.973321 8.074358 24.644628 28.564197 -0.593312 0.530053 0.048039 -0.009878 1299.370000 0 0 1
-10.962321 8.595358 23.796038 27.573612 -0.664959 0.529617 0.046026 -0.023202 1372870.000000 0 0 1
-9.701121 8.802358 24.504058 27.785645 -0.736864 0.490927 0.053535 -0.018436 1047190.000000 0 0 1
-9.636021 10.197358 25.101598 28.756377 -0.813693 0.509670 0.069375 -0.029114 -1010830.000000 0 0 1
-10.509321 10.383358 26.188758 30.068438 -0.779369 0.513620 0.051933 -0.021368 133438.000000 0 0 1
-10.462121 11.722358 26.733728 31.009061 -0.842144 0.531345 0.057576 -0.020276 -731990.000000 0 0 1
-11.142821 12.853358 25.925838 31.008391 -0.856562 0.580678 0.052124 -0.027667 -537527.000000 0 0 1
-12.537021 12.849358 25.883058 31.499453 -0.797701 0.606411 0.055752 -0.027106 -472300.000000 0 0 1
-13.027521 11.886358 24.929798 30.536808 -0.739626 0.615673 0.054714 -0.019976 165049.000000 0 0 1
-14.589821 11.741358 24.827258 31.098474 -0.677639 0.646257 0.027135 -0.018391 707848.000000 0 0 1
-15.233321 12.937358 24.391938 31.534044 -0.704076 0.686434 0.032963 -0.018686 1412220.000000 0 0 1
-16.591221 12.736358 23.891498 31.753537 -0.654706 0.719092 0.044389 -0.004002 1477100.000000 0 0 1
-16.631421 12.166358 22.433638 30.461328 -0.631574 0.742970 0.034020 0.006154 -313333.000000 0 0 1
-16.268121 10.760358 22.272138 29.605492 -0.584374 0.719254 0.042873 0.002246 140673.000000 0 0 1
-16.168421 10.391358 20.909738 28.400973 -0.571223 0.743309 0.057158 -0.007202 -381250.000000 0 0 1
-16.526021 8.913358 20.655238 27.914085 -0.494632 0.737789 0.063835 -0.006585 1304560.000000 0 0 1
-17.950621 8.694358 20.762638 28.790689 -0.451048 0.765324 0.060981 0.005549 732957.000000 0 0 1
-18.340221 7.348358 20.887538 28.751544 -0.381083 0.757605 0.053553 0.004643 -832049.000000 0 0 1
-19.827821 7.073358 20.912638 29.673444 -0.342666 0.788712 0.086549 -0.008137 -739815.000000 0 0 1
-20.305221 7.466358 22.165438 30.973458 -0.352361 0.773275 0.082677 -0.019206 -23849.200000 0 0 1
-21.712721 7.504358 22.288738 32.008522 -0.332768 0.800514 0.090770 -0.021938 -200362.000000 0 0 1
-22.064621 8.356358 23.540618 33.329220 -0.362030 0.786530 0.105627 -0.027473 -738599.000000 0 0 1
-21.865321 9.808358 23.621518 33.649253 -0.421673 0.792605 0.101448 -0.018162 1348550.000000 0 0 1
-20.521621 10.355358 23.507458 32.878122 -0.467327 0.774190 0.094875 -0.010988 995121.000000 0 0 1
-19.601521 9.997358 24.674918 33.060828 -0.471639 0.728237 0.097995 -0.024695 -705053.000000 0 0 1
-19.912521 10.672358 25.876948 34.351479 -0.492002 0.717732 0.105093 -0.022289 170162.000000 0 0 1
-19.446421 9.856358 26.931838 34.650180 -0.469110 0.680514 0.097115 -0.023154 233923.000000 0 0 1
-31.840961 -14.377917 20.900938 40.711429 0.424146 1.031663 0.086949 -0.018044 -114862.000000 0 0 1
-30.956101 -15.459917 21.047238 40.500314 0.463179 1.024319 0.079154 -0.004452 222762.000000 0 0 1
-31.370501 -16.505717 20.172738 40.785860 0.484351 1.053420 0.079559 -0.002367 6666.990000 0 0 1
-31.031561 -16.343917 18.658738 39.726941 0.484769 1.081874 0.083564 -0.009794 -57082.700000 0 0 1
-31.584731 -15.231517 17.913938 39.376433 0.449341 1.098491 0.089645 -0.022881 -11869.600000 0 0 1
-31.182321 -15.134717 16.548338 38.408909 0.451869 1.125366 0.093928 -0.021204 -581979.000000 0 0 1
-31.973251 -14.005117 15.690538 38.270420 0.412852 1.148352 0.097148 -0.020045 635975.000000 0 0 1
-33.337191 -14.238317 15.390238 39.382196 0.403648 1.169305 0.103330 -0.011376 941158.000000 0 0 1
-34.214032 -14.221717 16.560538 40.584586 0.393941 1.150479 0.104822 -0.014115 -581777.000000 0 0 1
-35.014897 -12.965617 16.742438 40.920159 0.354634 1.149275 0.096788 -0.017822 -458815.000000 0 0 1
-36.107771 -13.125117 17.627038 42.269992 0.348649 1.140642 0.090699 -0.023121 152480.000000 0 0 1
-36.777501 -11.873317 17.784038 42.542123 0.312279 1.139517 0.083161 -0.018624 457322.000000 0 0 1
36.752323 -11.884117 18.848438 42.979403 -0.312745 1.116816 0.078218 -0.010557 341115.000000 0 0 1
37.257753 -12.231817 20.141838 44.084591 -0.317216 1.096300 0.075346 -0.015507 62863.500000 0 0 1
36.487153 -11.640017 21.151038 43.751214 -0.308811 1.066217 0.065877 -0.021332 -532628.000000 0 0 1
37.040883 -12.090217 22.553838 45.020839 -0.315499 1.046084 0.065025 -0.026543 129211.000000 0 0 1
-36.327141 -11.651017 22.870808 44.480121 0.310360 1.030745 0.069481 -0.023072 -198116.000000 0 0 1
-35.317625 -12.547917 22.458138 43.693853 0.341378 1.030968 0.071953 -0.026523 156553.000000 0 0 1
-33.883641 -11.930217 22.511538 42.393402 0.338539 1.010998 0.092747 -0.017804 312803.000000 0 0 1
-33.750191 -10.895017 21.555238 41.501868 0.312253 1.024671 0.109452 -0.023095 445398.000000 0 0 1
-32.480291 -10.225017 21.600538 40.324973 0.304985 1.005505 0.118759 -0.030296 261132.000000 0 0 1
-32.530561 -8.765517 21.037638 39.719691 0.263204 1.012605 0.135803 -0.015606 74795.800000 0 0 1
-32.849191 -8.713717 19.634338 39.249273 0.259293 1.046912 0.123733 -0.015200 1126370.000000 0 0 1
-34.259906 -8.756417 19.324538 40.297069 0.250231 1.070652 0.112484 -0.022334 752083.000000 0 0 1
-34.550909 -8.720317 17.828438 39.845482 0.247227 1.106896 0.109150 -0.024485 218004.000000 0 0 1
-35.932452 -8.564917 17.532838 40.888865 0.233995 1.127641 0.059788 -0.019577 363924.000000 0 0 1
-36.197041 -8.572817 16.115138 40.539075 0.232553 1.161983 0.087664 -0.022135 275821.000000 0 0 1
36.990563 -8.348017 15.718738 41.049603 -0.221961 1.177841 0.075712 -0.022888 180984.000000 0 0 1
36.180913 -9.488217 15.824438 40.614007 -0.256469 1.170566 0.080449 -0.008510 -187161.000000 0 0 1
34.821313 -9.143317 15.626238 39.246699 -0.256781 1.161293 0.064358 -0.009701 80446.100000 0 0 1
33.975813 -10.427717 15.641538 38.829768 -0.297790 1.156197 0.074318 -0.014410 -195687.000000 0 0 1
33.901163 -11.129517 16.851938 39.460649 -0.317207 1.129561 0.066149 -0.016826 -266369.000000 0 0 1
32.825933 -12.013117 16.717738 38.747124 -0.350825 1.124689 0.078135 -0.015816 42806.900000 0 0 1
32.337973 -12.484317 18.131138 39.119571 -0.368430 1.088878 0.071327 -0.020373 -298023.000000 0 0 1
33.225023 -13.390817 18.660738 40.391079 -0.383119 1.090546 0.078100 -0.016083 -431705.000000 0 0 1
33.168633 -13.280217 20.040738 40.965273 -0.380838 1.059609 0.076840 -0.016912 61115.000000 0 0 1
33.965523 -14.467217 20.677938 42.314705 -0.402665 1.060231 0.074248 -0.016914 315903.000000 0 0 1
34.054153 -14.474217 22.094038 43.096808 -0.401901 1.032516 0.069679 -0.023600 -322060.000000 0 0 1
34.667673 -15.690317 22.414938 44.164047 -0.425007 1.038471 0.066669 -0.004507 -48327.800000 0 0 1
35.012353 -15.700717 23.911578 45.212177 -0.421551 1.013522 0.077857 -0.009733 261520.000000 0 0 1
36.099143 -14.822417 24.172848 45.904017 -0.389613 1.016206 0.079809 -0.017767 106469.000000 0 0 1
36.472393 -15.032617 25.525958 46.987121 -0.390949 0.996488 0.075665 -0.013635 -140782.000000 0 0 1
-36.995731 -14.140917 25.954028 47.352520 0.365095 0.990703 0.078184 -0.018467 210688.000000 0 0 1
-35.739909 -14.670617 25.544208 46.314950 0.389510 0.986596 0.048187 -0.011281 -90608.900000 0 0 1
-34.757798 -13.728317 25.912058 45.475333 0.376163 0.964528 0.057205 -0.017283 798214.000000 0 0 1
-33.262441 -14.208917 25.887938 44.479980 0.403712 0.949594 0.065280 -0.013030 691662.000000 0 0 1
-32.775321 -14.571817 24.579808 43.482484 0.418352 0.970023 0.060566 -0.012388 126614.000000 0 0 1
-31.398091 -14.855017 24.484538 42.497108 0.441912 0.956791 0.070837 -0.021327 66038.300000 0 0 1
-30.876701 -16.211517 25.008308 42.913860 0.483479 0.948680 0.070468 -0.014179 -449312.000000 0 0 1
-30.995841 -16.349817 26.352548 43.846498 0.485392 0.926022 0.070954 -0.013969 244919.000000 0 0 1
-30.569061 -17.686917 26.696568 44.271901 0.524527 0.923523 0.054188 -0.008739 -6982.800000 0 0 1
-30.292021 -17.908817 28.183678 45.084941 0.533928 0.895506 0.067926 -0.011346 -299989.000000 0 0 1
-29.134001 -17.236317 28.577728 44.300871 0.534236 0.869665 0.070915 -0.012029 -420047.000000 0 0 1
-28.671941 -17.634117 29.837698 44.981446 0.551398 0.845532 0.096586 -0.018835 111484.000000 0 0 1
-27.399001 -16.888217 30.283788 44.193041 0.552377 0.815834 0.096794 -0.029106 107279.000000 0 0 1
-27.723591 -15.537217 30.507458 44.053463 0.510818 0.805834 0.116688 -0.031893 499755.000000 0 0 1
-26.562621 -14.801717 30.130238 42.807650 0.508384 0.789991 0.115088 -0.033211 253128.000000 0 0 1
-26.244861 -13.468417 30.907498 42.725454 0.474138 0.762085 0.123835 -0.030450 10242.700000 0 0 1
-25.629831 -13.570117 32.204235 43.337617 0.486941 0.733103 0.128531 -0.033672 309586.000000 0 0 1
-25.342191 -12.320217 32.817943 43.255424 0.452510 0.709479 0.117706 -0.022066 290860.000000 0 0 1
-24.432821 -12.545317 -33.806647 43.557285 0.474359 2.459321 0.127234 -0.023285 418302.000000 0 0 1
-23.069121 -12.921317 -33.906267 42.997438 0.510574 2.479268 0.077855 -0.017148 290188.000000 0 0 1
-22.853921 -14.307117 -33.632767 43.106360 0.559336 2.465826 0.092079 -0.023822 90995.600000 0 0 1
-22.965221 -14.805817 -32.181677 42.216986 0.572645 2.437644 0.098092 -0.022783 -320130.000000 0 0 1
-21.825221 -14.461217 -31.430137 40.906241 0.585176 2.447049 0.061786 -0.010378 -84977.300000 0 0 1
-21.822121 -15.293317 -30.240957 40.306401 0.611274 2.419277 0.069383 -0.015363 459439.000000 0 0 1
-20.433721 -15.346917 -29.521947 39.046257 0.644178 2.428093 0.074305 -0.020715 550953.000000 0 0 1
-20.033321 -14.223517 -28.779297 37.840326 0.617401 2.434949 0.071628 -0.015522 6662.170000 0 0 1
-20.716921 -14.063317 -27.557597 37.234243 0.596378 2.404037 0.081847 -0.022721 -183687.000000 0 0 1
-20.261921 -12.796217 -26.807457 35.957313 0.563289 2.412134 0.089321 -0.020094 69239.600000 0 0 1
-18.933121 -12.892117 -26.339217 34.905932 0.597812 2.425806 0.080936 -0.026720 -204370.000000 0 0 1
-18.552721 -11.679017 -25.718197 33.793913 0.561832 2.435696 0.099696 -0.031998 63502.400000 0 0 1
-17.143921 -11.873617 -25.130577 32.656434 0.605732 2.448924 0.098029 -0.041362 -486290.000000 0 0 1
-17.148421 -12.679617 -23.974887 32.087945 0.636685 2.414578 0.100092 -0.043921 846533.000000 0 0 1
-15.861421 -12.719617 -23.327687 30.944374 0.675912 2.424712 0.107729 -0.045818 1651060.000000 0 0 1
-14.664521 -13.567617 -23.950087 31.188701 0.746565 2.446367 0.076762 -0.033962 375349.000000 0 0 1
-14.015221 -12.767017 -24.951887 31.337195 0.738826 2.491849 0.072069 -0.036154 -81746.300000 0 0 1
-13.445021 -13.536817 -25.972787 32.227312 0.788800 2.508032 0.067433 -0.030228 -562598.000000 0 0 1
-12.607521 -12.675517 -26.903727 32.302149 0.788088 2.555083 0.069770 -0.022180 -25807.100000 0 0 1
-13.335321 -11.675517 -27.613977 32.812805 0.719132 2.570963 0.080424 -0.026113 8636.650000 0 0 1
-12.521021 -11.117917 -28.615757 33.154873 0.726112 2.612160 0.076841 -0.029377 11116.300000 0 0 1
-13.244721 -9.938317 -29.360117 33.707703 0.643732 2.628073 0.047331 -0.019562 21008.400000 0 0 1
-12.583621 -9.137517 -30.336867 34.090574 0.628057 2.667901 0.044473 -0.013134 -157281.000000 0 0 1
-11.985521 -9.921217 -31.381147 35.026556 0.691444 2.681304 0.064314 -0.012497 5555.590000 0 0 1
-11.257721 -8.964117 -32.377697 35.431722 0.672459 2.723353 0.057549 -0.017921 489731.000000 0 0 1
-9.926321 -8.603217 -31.989367 34.581307 0.714114 2.751958 0.048507 -0.017925 388598.000000 0 0 1
-9.612821 -7.352817 -32.463197 34.645770 0.652967 2.784746 0.043083 -0.018884 252658.000000 0 0 1
-8.128021 -6.838717 -32.484667 34.177278 0.699466 2.825559 0.047797 -0.016174 693915.000000 0 0 1
-7.415221 -7.051217 -31.285357 32.916238 0.760242 2.825488 0.038091 -0.011754 -15510.700000 0 0 1
-7.614221 -6.060917 -30.278637 31.804197 0.672297 2.830608 0.041124 -0.010326 -560561.000000 0 0 1
-6.981221 -4.620917 -30.448857 31.578841 0.584700 2.873270 0.042803 -0.014441 53501.400000 0 0 1
-5.591321 -4.650217 -30.187587 31.051212 0.693765 2.905191 0.056873 -0.013333 -146541.000000 0 0 1
-5.121021 -3.376717 -30.549617 31.159367 0.582944 2.943437 0.076687 -0.029284 -378199.000000 0 0 1
-3.624721 -3.181017 -30.268877 30.650650 0.720295 2.983595 0.084485 -0.023482 -1227630.000000 0 0 1
-2.813621 -4.038117 -31.070327 31.457719 0.962245 2.984494 0.095933 -0.024835 239669.000000 0 0 1
-1.433221 -3.779717 -30.808297 31.072360 1.208360 3.011129 0.108467 -0.024996 624793.000000 0 0 1
-0.871121 -2.380617 -31.284657 31.387194 1.220008 3.060739 0.103776 -0.029351 -596942.000000 0 0 1
0.553079 -2.381917 -31.073267 31.169333 -1.342640 3.063060 0.097931 -0.020837 792906.000000 0 0 1
1.072079 -1.132317 -31.520917 31.559463 -0.812718 3.092163 0.066740 -0.018056 104713.000000 0 0 1
1.358479 0.006883 -30.500057 30.530296 0.005066 3.097081 0.068764 -0.023996 -639923.000000 0 0 1
0.202379 0.506683 -29.919257 29.924231 1.190790 3.123359 0.080339 -0.022661 -955160.000000 0 0 1
0.394879 1.583683 -29.060057 29.105856 1.326437 3.085486 0.094676 -0.034350 -146600.000000 0 0 1
-0.766821 1.654683 -28.028027 28.087297 -1.136835 3.076616 0.080042 -0.029403 933699.000000 0 0 1
-1.887921 2.389483 -28.562057 28.723944 -0.902124 3.035373 0.066405 -0.041398 222851.000000 0 0 1
-2.017021 3.768583 -28.164277 28.486788 -1.079371 2.990975 0.097628 -0.037584 -292094.000000 0 0 1
-3.233821 4.363583 -28.886847 29.392999 -0.933020 2.955744 0.120471 -0.037223 -168489.000000 0 0 1
-3.172121 4.450183 -30.284637 30.773783 -0.951527 2.963059 0.126797 -0.042787 -325530.000000 0 0 1
-4.317421 5.038783 -30.832537 31.538465 -0.862346 2.929616 0.129853 -0.029080 -456916.000000 0 0 1
-3.979021 5.638883 -32.216437 32.947358 -0.956295 2.930562 0.136311 -0.027509 -27923.600000 0 0 1
-3.817221 4.820683 -33.381787 33.943392 -0.901049 2.959432 0.160301 -0.038457 154217.000000 0 0 1
-2.739821 3.904183 -33.405997 33.744776 -0.958886 2.999774 0.158113 -0.046805 -369454.000000 0 0 1
-2.378021 3.516783 33.013695 33.285534 -0.976228 0.127891 0.128130 -0.044272 -454284.000000 0 0 1
-3.240121 2.562283 32.414911 32.677058 -0.669105 0.126753 0.129456 -0.047714 -36650.400000 0 0 1
-2.955421 2.051783 31.078868 31.286424 -0.606852 0.115251 0.126156 -0.040578 -49095.000000 0 0 1
-2.972921 3.167583 29.972508 30.285690 -0.817089 0.143936 0.122884 -0.039775 28536.100000 0 0 1
-4.232521 3.767583 29.783238 30.317489 -0.727347 0.188010 0.099207 -0.038429 -180362.000000 0 0 1
-4.118021 4.784883 28.796798 29.480650 -0.860162 0.215810 0.096928 -0.038389 319686.000000 0 0 1
-5.440821 5.515083 28.454888 29.490664 -0.792176 0.265819 0.099827 -0.025908 209239.000000 0 0 1
-5.222721 6.421283 27.355718 28.580500 -0.887971 0.293814 0.091694 -0.020732 -834591.000000 0 0 1
-6.378021 7.092883 27.017008 28.651472 -0.838416 0.339403 0.082735 -0.017623 -980632.000000 0 0 1
-6.250521 7.788683 25.637728 27.514099 -0.894525 0.371447 0.082397 -0.019707 -87268.000000 0 0 1
-5.265021 8.789083 25.699138 27.666118 -1.031082 0.379357 0.073820 -0.017285 -2012.970000 0 0 1
-5.359021 9.543483 24.537828 26.868237 -1.059139 0.419567 0.080103 -0.018323 -71382.900000 0 0 1
-4.359821 10.698383 24.602048 27.179481 -1.183823 0.439017 0.074606 -0.020198 -586593.000000 0 0 1
-4.553821 11.600983 23.482978 26.585152 -1.196740 0.487916 0.076654 -0.023339 477765.000000 0 0 1
-3.826921 12.840883 23.575818 27.117389 -1.281151 0.516813 0.059270 -0.017899 209881.000000 0 0 1
-2.265121 12.872583 23.608508 26.985103 -1.396615 0.505625 0.039333 -0.007947 186693.000000 0 0 1
-1.600521 12.516083 24.853848 27.873423 -1.443609 0.469779 0.046713 -0.006416 289575.000000 0 0 1
-1.978721 13.219283 26.083208 29.308676 -1.422215 0.473564 0.065008 -0.012305 -416732.000000 0 0 1
-1.167021 12.693683 27.324048 30.151204 -1.479117 0.436507 0.073919 -0.011912 823202.000000 0 0 1
0.222879 13.003183 27.227958 30.174395 1.553658 0.445598 0.067093 -0.012808 -149697.000000 0 0 1
0.880379 12.496883 28.365848 31.009167 1.500465 0.415891 0.065661 -0.014805 -953478.000000 0 0 1
2.359379 12.717183 28.164558 30.992511 1.387355 0.430508 0.063196 -0.010680 -1133320.000000 0 0 1
2.869679 13.986683 28.186428 31.596472 1.368432 0.468880 0.065488 -0.015155 -1346380.000000 0 0 1
4.243279 13.899683 28.099268 31.635035 1.274504 0.477313 0.071200 -0.011165 -1048610.000000 0 0 1
4.944879 15.247683 28.338908 32.558215 1.257194 0.514767 0.073326 -0.016800 -349411.000000 0 0 1
4.846579 15.858783 29.617878 33.944204 1.274202 0.510407 0.075846 -0.012544 326462.000000 0 0 1
3.651579 16.593383 29.858918 34.354466 1.354187 0.517331 0.059453 -0.008366 192057.000000 0 0 1
3.679979 18.057383 29.347018 34.653409 1.369756 0.560720 0.066152 -0.011131 -92190.800000 0 0 1
4.631279 18.855983 30.016278 35.748759 1.329951 0.574166 0.081852 -0.008254 -2732.770000 0 0 1
5.056979 19.888483 29.156208 35.654021 1.321806 0.613299 0.063992 -0.007948 801011.000000 0 0 1
6.323079 20.723783 29.627848 36.705120 1.274656 0.631427 0.062390 -0.006259 741721.000000 0 0 1
6.090779 21.482783 30.795648 38.039183 1.294527 0.627365 0.062771 -0.017951 654899.000000 0 0 1
7.268279 22.224383 31.171448 38.966783 1.254720 0.643586 0.066117 -0.017927 576758.000000 0 0 1
7.438879 23.605483 30.540088 39.309702 1.265514 0.681054 0.079042 -0.013038 -162578.000000 0 0 1
7.827979 23.530283 29.179378 38.293440 1.249637 0.704409 0.062189 -0.014481 154456.000000 0 0 1
7.962379 24.816283 28.671938 38.746966 1.260320 0.737757 0.064854 -0.019155 44021.500000 0 0 1
8.671379 24.910983 27.310138 37.968322 1.235820 0.768020 0.087729 -0.023552 138375.000000 0 0 1
7.835679 24.416583 26.285608 36.721935 1.260262 0.773025 0.081469 -0.020853 495513.000000 0 0 1
8.578979 24.477883 25.108878 36.100157 1.233695 0.801634 0.097559 -0.033060 -35965.200000 0 0 1
28.888313 2.991383 6.941113 29.860711 0.103182 1.336201 0.174326 -0.016987 -106490.000000 0 0 1
29.626693 3.828983 7.776713 30.868744 0.128529 1.316124 0.171701 -0.033244 76861.600000 0 0 1
29.216613 3.734983 9.137513 30.839175 0.127148 1.269985 0.172564 -0.018557 11536.600000 0 0 1
29.833093 4.838783 10.042113 31.847626 0.160795 1.250005 0.170249 -0.021240 -242601.000000 0 0 1
29.391413 6.150983 9.853613 31.603535 0.206301 1.253722 0.162209 -0.016504 141476.000000 0 0 1
30.104313 6.793383 8.767813 32.082616 0.221944 1.293986 0.168856 -0.030994 259970.000000 0 0 1
29.624323 8.250183 8.412713 31.881653 0.271611 1.303761 0.183809 -0.033591 -578619.000000 0 0 1
28.475613 8.286483 7.662213 30.630636 0.283182 1.317963 0.179153 -0.034235 -876514.000000 0 0 1
28.387013 9.471583 6.926513 30.716608 0.322044 1.343343 0.189314 -0.061845 -286558.000000 0 0 1
27.383413 9.529083 5.753313 29.559353 0.334881 1.374910 0.182228 -0.049834 1013580.000000 0 0 1
26.039313 9.739883 6.241413 28.493269 0.357933 1.349957 0.182633 -0.042451 353444.000000 0 0 1
25.127813 9.904483 5.212013 27.507651 0.375465 1.380169 0.194700 -0.040116 -174727.000000 0 0 1
23.827413 10.560083 5.721813 26.683330 0.417177 1.354684 0.128773 -0.034157 -135516.000000 0 0 1
23.984813 11.954183 5.990413 27.460131 0.462372 1.350878 0.120588 -0.030006 471491.000000 0 0 1
22.799513 12.588783 6.487813 26.840026 0.504493 1.326657 0.111188 -0.016435 419866.000000 0 0 1
22.718213 14.141583 6.395613 27.513732 0.556784 1.336199 0.099716 -0.000757 -95709.100000 0 0 1
22.431413 14.709083 5.129013 27.309928 0.580397 1.381867 0.096195 -0.016398 291474.000000 0 0 1
22.368613 16.089583 5.350813 28.068857 0.623557 1.378991 0.109831 -0.014197 -159961.000000 0 0 1
21.967013 16.890183 4.077613 28.008121 0.655481 1.424690 0.114740 -0.032009 419752.000000 0 0 1
20.570913 16.799883 3.800713 26.829908 0.684830 1.428659 0.111388 -0.012314 640509.000000 0 0 1
20.183613 17.627983 2.754213 26.939000 0.717912 1.468378 0.124804 -0.018959 1475430.000000 0 0 1
18.601013 17.716183 2.564113 25.815412 0.761039 1.471307 0.089785 -0.012153 1447800.000000 0 0 1
17.871113 18.349083 3.607513 25.866574 0.798594 1.430874 0.091696 -0.015852 117195.000000 0 0 1
16.539913 17.906083 3.509213 24.627446 0.825039 1.427818 0.069053 -0.027865 -481827.000000 0 1 0
15.553513 18.867283 4.207713 24.811106 0.881375 1.400383 0.095347 -0.034401 -471616.000000 0 1 0
14.213113 18.558283 3.949113 23.706917 0.917220 1.403436 0.099720 -0.041910 -497019.000000 0 1 0
13.451213 19.725683 3.861313 24.185686 0.972312 1.410457 0.073193 -0.034561 -123492.000000 0 1 0
11.952313 19.339683 3.783213 23.047642 1.017232 1.405903 0.046532 -0.031976 -33914.600000 0 1 0
11.449713 18.830583 5.022513 22.603372 1.024487 1.346724 0.037548 -0.035196 -163541.000000 0 1 0
10.049213 18.797383 5.001513 21.893913 1.079848 1.340318 0.028235 -0.028921 -386180.000000 0 1 0
9.390313 18.431383 6.338413 21.634910 1.099598 1.273463 0.022171 -0.018039 -824244.000000 0 1 0
9.196113 19.451983 7.272113 22.711930 1.129177 1.244867 0.039111 -0.023451 -131478.000000 0 1 0
8.673713 18.865683 8.423213 22.407539 1.139855 1.185418 0.044039 -0.018364 -351660.000000 0 1 0
7.741813 19.819183 9.259013 23.204848 1.198400 1.160357 0.046410 -0.015055 1547100.000000 0 1 0
6.432213 20.017183 8.659413 22.738654 1.259883 1.180110 0.036456 -0.019704 953797.000000 0 1 0
6.438413 20.973983 7.605513 23.220787 1.272956 1.237108 0.037526 -0.024401 -222862.000000 0 1 0
5.161513 20.957883 6.660213 22.588327 1.329322 1.271496 0.021849 -0.019783 1905390.000000 0 1 0
3.944713 21.441783 7.308313 22.993961 1.388858 1.247350 0.019542 -0.006789 902346.000000 0 1 0
3.878813 22.786883 7.821613 24.402148 1.402191 1.244508 0.029630 -0.011027 -624344.000000 0 1 0
3.991013 23.909683 6.816813 25.180748 1.405401 1.296660 0.034113 -0.015347 -337606.000000 0 0 1
2.922413 23.959583 5.917413 24.851919 1.449423 1.330380 0.038898 -0.007748 -80223.100000 0 1 0
3.107113 25.040283 5.006013 25.724115 1.447343 1.374943 0.050210 -0.006789 506940.000000 0 0 1
1.752613 25.362983 4.288413 25.782611 1.501805 1.403690 0.054696 -0.011722 700187.000000 0 0 1
0.717913 25.850983 5.154213 26.369577 1.543032 1.374069 0.070950 -0.016188 83413.000000 0 0 1
-0.419487 26.044683 4.342813 26.407603 -1.554691 1.405593 0.081806 -0.018430 -51926.700000 0 0 1
-1.687887 26.443083 5.117713 26.986600 -1.507052 1.380002 0.089134 -0.018105 137962.000000 0 0 1
-2.850487 26.597183 4.346213 27.100276 -1.464031 1.409726 0.114810 -0.023074 -274404.000000 0 0 1
-3.893187 27.232783 5.031213 27.965952 -1.428799 1.389906 0.114578 -0.017757 -627470.000000 0 0 1
-4.947487 27.844983 4.140913 28.582649 -1.394952 1.425410 0.122406 -0.024418 -603844.000000 0 0 1
-4.612987 29.009983 3.484013 29.580350 -1.413103 1.452741 0.120466 -0.024536 -171522.000000 0 0 1
-5.559987 29.360883 2.508113 29.987756 -1.383645 1.487061 0.137008 -0.039484 -67752.400000 0 0 1
-4.859287 30.202883 1.394113 30.623036 -1.411275 1.525256 0.121612 -0.025024 298192.000000 0 0 1
-4.465387 31.557683 1.555113 31.909957 -1.430230 1.522043 0.123436 -0.023510 39117.100000 0 0 1
-3.200987 31.562783 2.198013 31.800736 -1.469725 1.501623 0.124930 -0.028568 -395020.000000 0 0 1
-2.621687 32.956083 2.155813 33.130411 -1.491413 1.505680 0.125105 -0.033769 -772015.000000 0 0 1
-2.177887 33.333783 0.847313 33.415598 -1.505553 1.545437 0.109449 -0.024593 524583.000000 0 0 1
-1.212587 -33.437842 0.791813 33.469189 1.534548 1.547136 0.104975 -0.031094 1246620.000000 0 0 1
0.231813 -33.668442 1.361913 33.696773 -1.563911 1.530369 0.085376 -0.025174 260131.000000 0 0 1
0.210313 -33.640942 2.794713 33.757482 -1.564545 1.487914 0.071698 -0.023859 714299.000000 0 0 1
1.512613 -33.798542 3.391013 34.001888 -1.526072 1.470900 0.050229 -0.019456 854814.000000 0 0 1
1.396813 -33.782342 4.935913 34.169591 -1.529472 1.425836 0.042788 -0.016076 531499.000000 0 0 1
0.585613 32.998583 5.533813 33.464496 1.553052 1.404670 0.078179 -0.023779 214249.000000 0 0 1
0.104413 33.441383 6.781413 34.122200 1.567674 1.370725 0.105745 -0.024035 11244.100000 0 0 1
1.079213 33.369183 7.989613 34.329302 1.538466 1.335908 0.080703 -0.019276 25060.300000 0 0 1
1.107813 32.066683 8.480113 33.187523 1.536263 1.312410 0.086769 -0.023166 571393.000000 0 0 1
2.123313 32.089083 9.505313 33.534589 1.504723 1.283409 0.089745 -0.023841 701979.000000 0 0 1
2.905913 30.750683 9.649013 32.359732 1.476577 1.268011 0.085568 -0.025698 1276180.000000 0 0 1
1.979313 29.736783 10.192713 31.497386 1.504333 1.241259 0.106554 -0.027164 1191350.000000 0 0 1
2.690713 28.543583 10.253113 30.448356 1.476807 1.227346 0.090583 -0.031363 37.706900 0 0 1
2.303513 27.549583 11.433313 29.916656 1.487377 1.178651 0.091855 -0.031282 -274324.000000 0 0 1
2.523613 28.160783 12.687413 30.989817 1.481421 1.148994 0.104646 -0.028995 73196.000000 0 0 1
2.278913 27.317483 13.808513 30.693865 1.487566 1.104167 0.111572 -0.024432 118093.000000 0 0 1
0.790113 26.925083 14.085313 30.397046 1.541460 1.088993 0.087373 -0.030546 328550.000000 0 0 1
-0.058687 27.888083 14.716913 31.533096 -1.568692 1.085226 0.096812 -0.031048 371143.000000 0 0 1
-0.473887 28.999283 13.909713 32.166179 -1.554456 1.123607 0.116380 -0.030707 -445885.000000 0 0 1
-0.956387 30.199183 14.761513 33.627482 -1.539138 1.116342 0.094987 -0.027049 328350.000000 0 0 1
-2.156087 29.803383 15.414613 33.622918 -1.498578 1.094540 0.078770 -0.022407 -113628.000000 0 0 1
-2.931187 30.909783 15.747413 34.813611 -1.476249 1.101415 0.073998 -0.019323 -9201.350000 0 0 1
-4.238187 30.457483 16.480513 34.888792 -1.432533 1.078815 0.054016 -0.010470 607873.000000 0 0 1
-5.042987 29.534183 15.734313 33.841812 -1.401677 1.087233 0.054085 -0.023400 -924708.000000 0 0 1
-6.280987 29.441383 16.307313 34.237031 -1.360609 1.074347 0.050284 -0.018697 -1883120.000000 0 0 1
-7.286887 28.731683 15.426813 33.415488 -1.322415 1.090923 0.050883 -0.027425 -389051.000000 0 0 1
-8.569987 28.617683 16.022113 33.898739 -1.279831 1.078505 0.052278 -0.031898 -202753.000000 0 0 1
-9.369987 27.852383 15.164713 33.068420 -1.246274 1.094393 0.044967 -0.029159 436404.000000 0 0 1
-10.690887 27.342983 15.878113 33.377361 -1.198080 1.075020 0.037722 -0.022745 552713.000000 0 0 1
-11.566187 28.372483 16.334613 34.721665 -1.183708 1.081002 0.035720 -0.026211 226565.000000 0 0 1
-11.255187 28.954583 17.531213 35.670583 -1.200053 1.057013 0.048544 -0.033771 -1165070.000000 0 0 1
-12.287787 29.958483 17.988713 37.041790 -1.181562 1.063709 0.051100 -0.028655 -890577.000000 0 0 1
-13.461787 29.407083 18.536613 37.277369 -1.141497 1.050356 0.055962 -0.022481 -363302.000000 0 0 1
-14.262587 30.555583 18.621613 38.520507 -1.134080 1.066238 0.072993 -0.010650 219607.000000 0 0 1
-15.410687 30.585383 19.708813 39.514456 -1.104067 1.048612 0.085388 -0.017955 831689.000000 0 0 1
-14.910887 30.504283 21.037113 39.942533 -1.116138 1.016101 0.082958 -0.019234 259957.000000 0 0 1
-16.030687 30.437783 21.899513 40.780267 -1.086041 1.003905 0.075917 -0.016843 143981.000000 0 0 1
-15.738287 30.418483 23.431213 41.496982 -1.093332 0.970789 0.081375 -0.014508 -560683.000000 0 0 1
-14.532187 29.718983 23.620513 40.648875 -1.115998 0.950733 0.068716 -0.015664 280078.000000 0 0 1
-14.094587 29.428483 24.966913 41.085760 -1.124135 0.917663 0.086896 -0.017283 97802.900000 0 0 1
-13.609087 30.665983 25.823813 42.337679 -1.153123 0.914800 0.091851 -0.015253 -21084.600000 0 0 1
-14.631887 31.483383 26.378213 43.601670 -1.135745 0.921053 0.084059 -0.015043 409348.000000 0 0 1
-14.097587 32.723483 26.653913 44.497184 -1.164015 0.928542 0.085908 -0.014789 143559.000000 0 0 1
-15.199587 33.628083 27.274613 45.888777 -1.146288 0.934322 0.093799 -0.014381 80375.800000 0 0 1
-15.861887 33.120083 28.387613 46.415471 -1.124154 0.912717 0.055441 -0.017118 -54477.700000 0 0 1
-15.160187 33.278483 29.603913 47.049764 -1.143332 0.890267 0.089445 -0.012504 -259100.000000 0 0 1
-15.759287 32.443283 30.741313 47.391455 -1.118615 0.864964 0.074958 -0.016070 165113.000000 0 0 1
-17.029187 32.942383 31.142313 48.425587 -1.093690 0.872262 0.070460 -0.011723 2009.160000 0 0 1
-17.369687 32.308483 32.349313 48.908303 -1.077508 0.848075 0.061996 -0.009491 -747948.000000 0 0 1
-18.820987 32.492483 32.728413 49.811043 -1.045780 0.853896 0.058297 -0.010021 -771063.000000 0 0 1
-19.079887 33.807183 33.107913 51.020600 -1.056985 0.864642 0.069828 -0.011774 781956.000000 0 0 1
-20.508787 -33.831442 33.136613 51.606317 1.025827 0.873557 0.076098 -0.015055 986472.000000 0 0 1
-20.907087 -32.322242 33.133313 50.790255 0.996651 0.860108 0.088979 -0.006793 -34986.900000 0 0 1
-20.589287 -31.659842 -33.489411 50.475786 0.994190 2.296250 0.072417 -0.010619 134933.000000 0 0 1
-21.598287 -31.808342 -32.506611 50.348152 0.974295 2.272653 0.054860 -0.007434 68557.300000 0 0 1
-21.244987 -31.045742 -31.214411 48.882788 0.970677 2.263417 0.058786 -0.011345 -120349.000000 0 0 1
-21.384287 -29.663442 -31.327111 48.151795 0.946183 2.279158 0.076016 -0.014087 87858.800000 0 0 1
-20.841587 -29.094642 -30.159711 46.802544 0.949189 2.271039 0.083825 -0.012760 40092.000000 0 0 1
-20.938387 -27.600542 -30.220611 45.972723 0.921800 2.288106 0.081715 -0.023127 467627.000000 0 0 1
-22.234587 -27.209142 -29.779311 46.059978 0.885671 2.273828 0.077940 -0.014901 337391.000000 0 0 1
-22.464587 -25.767342 -29.776411 45.334846 0.853768 2.287378 0.073251 -0.015106 -10692.500000 0 0 1
-23.735887 -25.433542 -28.976511 45.275772 0.819911 2.265295 0.084720 -0.014386 -75207.000000 0 0 1
-23.675887 -25.649642 -27.575611 44.484447 0.825392 2.239403 0.076663 -0.017808 554243.000000 0 0 1
-22.729887 -24.831142 -26.835411 43.050815 0.829550 2.243807 0.088740 -0.028336 538629.000000 0 0 1
-22.868987 -25.174242 -25.379511 42.436454 0.833344 2.211874 0.086686 -0.015130 104121.000000 0 0 1
-24.061587 -24.746042 -24.751911 42.473329 0.799421 2.192922 0.073013 -0.019803 -78832.200000 0 0 1
-24.107187 -25.238942 -23.450411 42.048572 0.808329 2.162406 0.073022 -0.014422 573004.000000 0 0 1
-25.445687 -25.005842 -22.620911 42.243114 0.776680 2.135888 0.069123 -0.015285 1370040.000000 0 0 1
-26.563287 -25.826542 -23.005411 43.610405 0.771336 2.126476 0.055305 -0.011271 31013.900000 0 0 1
-26.545687 -27.235542 -22.760311 44.322455 0.798225 2.110074 0.053485 -0.000751 -1554840.000000 0 0 1
-27.895987 -27.929442 -22.942411 45.657354 0.785997 2.097274 0.041014 -0.003000 366825.000000 0 0 1
-28.804287 -27.728842 -21.836111 45.556463 0.766377 2.070676 0.050936 0.000423 60153.600000 0 0 1
-29.546987 -26.550742 -22.014011 45.415669 0.732038 2.076843 0.051978 0.004159 -667429.000000 0 0 1
-30.242187 -26.168742 -20.661411 45.014296 0.713313 2.047662 0.055034 0.009063 477984.000000 0 0 1
-31.161287 -27.135342 -20.132211 45.963665 0.716448 2.024172 0.067832 0.006969 310992.000000 0 0 1
-31.613787 -26.720842 -18.911111 45.508955 0.701717 1.999340 0.078347 0.010296 -281631.000000 0 0 1
-32.459287 -27.801742 -18.099011 46.412459 0.708262 1.971385 0.065094 0.007562 1280710.000000 0 0 1
-33.745387 -28.218942 -18.652611 47.780537 0.696446 1.971842 0.064887 0.011222 2119140.000000 0 0 1
-34.832887 -27.267742 -18.733711 48.039688 0.664175 1.971388 0.049578 0.019227 454264.000000 0 0 1
-35.331587 -26.757242 -17.337111 47.590403 0.648168 1.943676 0.044430 0.023587 -1414560.000000 0 0 1
-34.572287 -25.804642 -16.695411 46.258613 0.641191 1.940045 0.043639 0.024531 -334743.000000 0 0 1
-35.042687 -25.304142 -15.433011 45.896267 0.625401 1.913738 0.037935 0.020509 -55704.100000 0 0 1
-34.717787 -26.146942 -14.159211 45.710727 0.645500 1.885734 0.049644 0.021369 -33220.800000 0 0 1
-35.400087 -27.376942 -14.103311 46.920853 0.658283 1.876093 0.058605 0.012483 112291.000000 0 0 1
-35.248487 -27.933142 -12.808011 46.762820 0.670129 1.848235 0.041379 0.012733 -127418.000000 0 0 1
-36.085487 -29.191042 -12.532711 48.076482 0.680169 1.834526 0.052798 0.005816 -82945.500000 0 0 1
-35.755687 -30.255842 -13.404211 48.719175 0.702274 1.849523 0.046772 0.004552 230517.000000 0 0 1
-36.074887 -31.458042 -12.786311 49.542866 0.717140 1.831837 0.038462 -0.005019 -139850.000000 0 0 1
-35.544187 -32.549242 -13.746911 50.118060 0.741444 1.848648 0.040559 -0.001212 2362180.000000 0 0 1
-34.069087 -32.685742 -13.855111 49.203907 0.764678 1.856242 0.038176 -0.005643 2168770.000000 0 0 1
-33.627287 -33.092442 -15.103811 49.538159 0.777382 1.880622 0.075983 -0.022389 64837.300000 0 0 1
-32.160487 -33.581242 -14.975111 48.849265 0.807006 1.882371 0.075468 -0.021461 275843.000000 0 0 1
-31.727387 33.771983 -16.208911 49.090760 -0.816604 1.907293 0.098659 -0.024492 -492245.000000 0 0 1
-30.440887 33.207383 -16.078011 47.831792 -0.828836 1.913608 0.099375 -0.025363 -79588.000000 0 0 1
9.265979 19.223583 -9.242687 23.255790 1.121643 1.979517 0.055816 -0.030255 -615148.000000 0 1 0
8.064679 19.935883 -9.436187 23.484465 1.186390 1.984284 0.050085 -0.015834 86448.000000 0 1 0
7.621479 20.038083 -10.803387 24.006767 1.207344 2.037578 0.060098 -0.016386 383424.000000 0 1 0
7.446079 18.761483 -11.631587 23.296591 1.192981 2.093567 0.052903 -0.012188 -1300630.000000 0 1 0
8.710079 18.370383 -12.054087 23.635512 1.128052 2.105980 0.086688 -0.021160 -472380.000000 0 1 0
8.700179 17.258883 -12.921187 23.249069 1.103875 2.160088 0.083835 -0.024416 -696251.000000 0 1 0
10.100579 16.811183 -13.332287 23.714709 1.029770 2.167834 0.099596 -0.024446 -283555.000000 0 1 0
10.137679 15.640683 -14.145687 23.398802 0.995715 2.219994 0.114955 -0.031486 -427257.000000 0 1 0
11.430979 15.372583 -14.627087 24.102598 0.931407 2.222910 0.145393 -0.039607 -506316.000000 0 1 0
11.553879 14.153683 -15.559687 23.998390 0.886185 2.276230 0.130896 -0.036076 -563482.000000 0 1 0
11.315779 12.907283 -14.919187 22.742624 0.851006 2.286305 0.130444 -0.033921 -169877.000000 0 1 0
12.350579 12.292583 -14.217687 22.489709 0.783045 2.255168 0.149835 -0.039774 -83619.400000 0 1 0
13.442179 11.603183 -15.123087 23.324532 0.712103 2.276247 0.172466 -0.043599 746016.000000 0 1 0
14.221879 12.535783 -15.910387 24.749709 0.722468 2.269011 0.163642 -0.039727 1930690.000000 0 1 0
15.460279 11.886883 -16.396187 25.478484 0.655466 2.269898 0.184437 -0.051126 1632490.000000 0 0 1
16.110079 12.575083 -17.621887 26.985149 0.662782 2.282364 0.140875 -0.038286 -182410.000000 0 0 1
17.021979 13.564983 -17.224087 27.756543 0.672854 2.240229 0.103444 -0.029419 -168780.000000 0 0 1
17.645779 14.073783 -18.403987 29.123043 0.673259 2.254849 0.069853 -0.017383 388416.000000 0 0 1
18.852879 15.024183 -18.081887 30.134893 0.672858 2.214337 0.063961 -0.009721 198056.000000 0 0 1
18.566279 16.372483 -17.624887 30.387523 0.722691 2.189530 0.068553 -0.010780 125730.000000 0 0 1
17.898979 17.226883 -18.521387 30.986783 0.766267 2.211449 0.056440 0.001861 -58219.100000 0 0 1
17.514079 18.592083 -17.903887 31.192269 0.815246 2.182160 0.052223 0.009889 1013810.000000 0 0 1
18.700479 19.414983 -17.722387 32.260385 0.804142 2.152388 0.070250 0.009235 997747.000000 0 0 1
18.391779 20.702983 -17.220387 32.610010 0.844447 2.127123 0.049125 0.014666 -160764.000000 0 0 1
19.417479 21.835783 -17.496287 34.058185 0.843952 2.110309 0.065145 0.006273 284250.000000 0 0 1
20.588279 21.800283 -16.708387 34.326371 0.813983 2.079163 0.084374 -0.001282 -314627.000000 0 0 1
20.402879 22.408683 -15.435687 34.010101 0.832216 2.041884 0.080445 -0.002348 -260019.000000 0 0 1
21.662979 22.939583 -14.739987 34.824938 0.814012 2.007836 0.079753 -0.009035 94878.200000 0 0 1
22.541979 21.988183 -14.109887 34.506665 0.772962 1.992048 0.097162 -0.012901 107746.000000 0 0 1
23.573879 22.713983 -13.453087 35.392631 0.766823 1.960711 0.080685 -0.014284 223936.000000 0 0 1
24.973779 22.258083 -13.939187 36.241038 0.727964 1.965597 0.075221 -0.005518 10901.500000 0 0 1
25.334779 22.658883 -15.268787 37.261399 0.729701 1.993004 0.083583 -0.005714 577232.000000 0 0 1
26.385979 23.647983 -15.278387 38.585957 0.730730 1.977906 0.062193 -0.002276 65191.700000 0 0 1
26.746279 24.167383 -16.664887 39.713276 0.734789 2.003834 0.058300 -0.007899 -881987.000000 0 0 1
27.451979 23.206083 -17.354887 39.916482 0.701779 2.020590 0.059196 -0.011204 -352023.000000 0 0 1
27.181879 23.233583 -18.708387 40.356631 0.707242 2.052824 0.043193 -0.008326 -1290500.000000 0 0 1
28.063079 22.270183 -19.511787 40.794697 0.670811 2.069505 0.042912 -0.007889 825402.000000 0 0 1
29.427679 22.659783 -19.756087 42.068480 0.656189 2.059654 0.036950 -0.007530 698425.000000 0 0 1
30.004779 21.759683 -20.713387 42.459569 0.627444 2.080408 0.047385 -0.003141 376912.000000 0 0 1
31.491779 22.134083 -20.963787 43.830699 0.612638 2.069503 0.088456 -0.010371 231898.000000 0 0 1
31.640679 23.289083 -21.773387 44.917639 0.634512 2.076862 0.063458 -0.008869 198943.000000 0 0 1
32.939479 23.819283 -21.586387 46.025424 0.626077 2.058966 0.082658 0.004278 129748.000000 0 0 1
33.030679 25.215383 -22.195787 47.111509 0.652018 2.061371 0.089337 0.002577 -210029.000000 0 0 1
33.239979 25.389783 -23.592087 48.022118 0.652295 2.084350 0.076910 0.005500 534345.000000 0 0 1
32.066279 25.245283 -24.401687 47.550109 0.666939 2.109680 0.067864 0.003270 406338.000000 0 0 1
32.385679 25.682883 -25.880187 48.767066 0.670478 2.130211 0.086183 -0.012021 -339437.000000 0 0 1
32.133579 27.050083 -26.090277 49.446703 0.699715 2.126621 0.102619 -0.017340 540018.000000 0 0 1
30.869079 27.371883 -26.695377 49.140240 0.725423 2.145098 0.080019 -0.006386 643794.000000 0 0 1
30.509979 26.889883 -28.114717 49.440489 0.722414 2.175669 0.092958 -0.002373 -325049.000000 0 0 1
30.374379 25.478783 -28.111097 48.600463 0.697970 2.187577 0.081889 -0.016768 -58354.400000 0 0 1
30.109879 25.041883 -29.482857 49.019787 0.693764 2.216109 0.088453 -0.027072 -130993.000000 0 0 1
29.280179 23.742283 -29.529077 47.885188 0.681331 2.235294 0.104512 -0.034696 419657.000000 0 0 1
27.980579 23.939283 -28.981507 46.860749 0.707718 2.237578 0.098336 -0.031320 659303.000000 0 0 1
27.107479 22.807883 -29.168597 45.889236 0.699473 2.259621 0.108945 -0.043872 -91805.200000 0 0 1
25.659779 22.996983 -28.752267 44.877370 0.730727 2.266187 0.088016 -0.033339 -585009.000000 0 0 1
25.586179 23.148683 -27.301737 43.998851 0.735424 2.240189 0.064952 -0.015935 825700.000000 0 0 1
24.262379 23.053983 -26.750667 42.845622 0.759865 2.245096 0.037461 -0.011008 590171.000000 0 0 1
24.333279 23.134583 -25.175067 41.965478 0.760151 2.214172 0.040939 -0.003154 -85605.300000 0 0 1
24.592179 21.824483 -24.606487 41.067780 0.725841 2.213257 0.052115 -0.011804 312164.000000 0 0 1
25.029279 21.852583 -23.245587 40.550678 0.717742 2.181260 0.054941 -0.004553 125534.000000 0 0 1
25.720779 20.575083 -22.680887 39.991438 0.674704 2.173830 0.064078 0.001881 4539.420000 0 0 1
26.862379 20.117083 -23.349787 40.883945 0.642793 2.178670 0.047478 0.008389 -255602.000000 0 0 1
27.569979 19.215283 -22.587987 40.491332 0.608685 2.162586 0.077451 -0.005258 -549938.000000 0 0 1
28.796979 18.568283 -23.213887 41.387579 0.572711 2.166257 0.102407 -0.015406 -277591.000000 0 0 1
29.821979 18.379983 -22.281387 41.516676 0.552336 2.137300 0.120763 -0.023961 545519.000000 0 0 1
31.041179 17.898483 -22.893787 42.521006 0.523039 2.139347 0.097063 -0.019295 929246.000000 0 0 1
32.244679 17.714983 -21.968287 42.850269 0.502377 2.109095 0.083771 -0.010272 81096.800000 0 0 1
32.942779 18.902983 -21.583987 43.685443 0.520941 2.087570 0.080795 -0.012691 353429.000000 0 0 1
34.159979 18.575983 -20.931187 44.159777 0.498066 2.064610 0.089164 -0.014746 245626.000000 0 0 1
34.624179 19.666383 -19.963687 44.543790 0.516554 2.035526 0.068664 -0.017831 -45530.200000 0 0 1
33.834979 19.744083 -18.804887 43.454095 0.528229 2.018341 0.088820 -0.016057 183102.000000 0 0 1
34.281779 20.790883 -17.993087 43.946017 0.545164 1.992632 0.071476 -0.000136 -136427.000000 0 0 1
33.506379 20.709883 -16.676687 42.774859 0.553613 1.971288 0.080545 -0.017347 428328.000000 0 0 1
34.105379 19.673483 -15.841787 42.440370 0.523219 1.953329 0.080808 -0.028583 565840.000000 0 0 1
33.517479 19.625083 -14.578487 41.486113 0.529703 1.929869 0.074991 -0.025789 -176879.000000 0 0 1
34.035279 18.382183 -13.817687 41.075946 0.495204 1.913881 0.077513 -0.022162 719440.000000 0 0 1
35.481379 18.375483 -13.724687 42.248712 0.477858 1.901654 0.075156 -0.022037 1280150.000000 0 0 1
36.033979 17.314483 -12.946287 42.021962 0.447930 1.883975 0.068549 -0.002364 124723.000000 0 0 1
35.928479 17.579383 -11.417987 41.596403 0.455042 1.848860 0.085931 -0.007586 48773.000000 0 0 1
36.909179 18.534683 -10.924387 42.721941 0.465382 1.829377 0.074797 -0.008598 728578.000000 0 0 1
36.647379 19.075983 -9.652087 42.427424 0.479935 1.800302 0.086168 -0.009586 599630.000000 0 0 1
35.385479 20.034883 -9.587687 41.778612 0.515188 1.802348 0.079633 -0.013779 1447700.000000 0 0 1
34.141379 19.380583 -9.853687 40.476362 0.516298 1.816710 0.090677 -0.029376 -570388.000000 0 0 1
33.056279 20.223083 -9.879287 39.991136 0.549034 1.820418 0.054796 -0.012099 -1108670.000000 0 0 1
31.746079 19.465783 -9.982487 38.553603 0.550048 1.832705 0.030672 -0.004989 -538217.000000 0 0 1
31.670479 19.021283 -11.312987 38.636927 0.540860 1.867953 0.058334 -0.017322 178209.000000 0 0 1
30.447779 18.328983 -11.533087 37.363498 0.541875 1.884593 0.039498 -0.015328 312635.000000 0 0 1
30.281379 17.856983 -13.006587 37.483397 0.532813 1.925162 0.077047 -0.020475 -38290.500000 0 0 1
31.240179 16.831683 -13.281787 37.890107 0.494191 1.928938 0.067355 -0.024579 175894.000000 0 0 1
31.007779 16.080883 -14.448487 37.799946 0.478423 1.963011 0.046760 -0.025822 -83209.900000 0 0 1
32.296779 15.515883 -15.082887 38.875674 0.447858 1.969233 0.073929 -0.031382 420026.000000 0 0 1
33.158579 14.733783 -14.255787 38.984653 0.418140 1.945156 0.059835 -0.025584 -9024.670000 0 0 1
34.289079 14.216383 -14.865287 39.985288 0.393032 1.951710 0.077028 -0.024579 -496717.000000 0 0 1
35.106379 13.225783 -14.001787 40.042842 0.360290 1.928015 0.062471 -0.028456 -401629.000000 0 0 1
35.810279 13.891083 -12.980787 40.544286 0.370039 1.896698 0.074009 -0.009993 -33245.100000 0 0 1
36.384679 12.987283 -12.089587 40.480520 0.342847 1.874076 0.067604 -0.006042 275833.000000 0 0 1
-37.231154 13.625683 -11.114387 41.174600 -0.350835 1.844120 0.099696 0.001125 285742.000000 0 0 1
-36.043854 14.051683 -11.733887 40.426394 -0.371726 1.865288 0.077368 0.000214 -178078.000000 0 0 1
-35.100854 14.380483 -10.731287 39.421172 -0.388832 1.846497 0.070168 0.006303 159652.000000 0 0 1
-33.604654 14.537583 -11.163287 38.278363 -0.408296 1.866731 0.117891 -0.010801 921973.000000 0 0 1
-32.858854 13.406383 -11.640587 37.348878 -0.387383 1.887748 0.112516 -0.018891 278829.000000 0 0 1
-32.867854 12.270083 -10.689187 36.675734 -0.357293 1.866540 0.134958 -0.013012 -185432.000000 0 0 1
-31.751754 11.166283 -10.943787 35.392460 -0.338166 1.885161 0.145073 -0.020951 562190.000000 0 0 1
-31.770454 10.490383 -12.183987 35.607014 -0.318922 1.920032 0.136348 -0.011955 -332782.000000 0 0 1
-31.035654 9.341183 -12.075287 34.587311 -0.292358 1.927433 0.145008 -0.023453 -455596.000000 0 0 1
-31.028654 8.559983 -13.416787 34.872064 -0.269178 1.965726 0.150503 -0.025659 292818.000000 0 0 1
-32.315154 8.118083 -13.822587 36.072654 -0.246123 1.964041 0.123656 -0.022652 425488.000000 0 0 1
-32.191254 7.330583 -14.979787 36.254769 -0.223902 1.996741 0.139065 -0.025382 732738.000000 0 0 1
-33.542254 7.008583 -15.758387 37.716440 -0.205984 2.001832 0.126177 -0.030603 521885.000000 0 0 1
-34.252154 6.100483 -14.982887 37.880244 -0.176257 1.977444 0.141520 -0.038672 -737595.000000 0 0 1
-35.393954 5.695083 -15.663487 39.121743 -0.159538 1.982726 0.113680 -0.043574 -737366.000000 0 0 1
-36.349554 4.937983 -14.737487 39.533116 -0.135021 1.952809 0.111908 -0.042449 -38149.400000 0 0 1
37.070579 4.527483 -15.261987 40.344197 0.121530 1.958749 0.108085 -0.035897 259792.000000 0 0 1
36.119179 4.202083 -14.266687 39.061374 0.115819 1.944684 0.116644 -0.035748 -557299.000000 0 0 1
35.132579 3.212283 -14.748787 38.237986 0.091180 1.966774 0.103367 -0.028429 -1199400.000000 0 0 1
35.603579 1.903283 -14.929687 38.654015 0.053407 1.967347 0.119722 -0.031404 370323.000000 0 0 1
34.596179 0.879883 -14.842187 37.655814 0.025427 1.975943 0.104555 -0.011575 404373.000000 0 0 1
34.115579 0.568483 -13.444387 36.673525 0.016662 1.946145 0.104456 -0.023431 -123917.000000 0 0 1
35.240379 0.157083 -12.681487 37.453026 0.004457 1.916222 0.124854 -0.023135 422097.000000 0 0 1
35.081679 0.227883 -11.340387 36.869778 0.006496 1.883444 0.116792 -0.012884 -271033.000000 0 0 1
35.150979 1.640183 -10.696887 36.779137 0.046627 1.865902 0.119096 -0.028223 -128268.000000 0 0 1
34.105079 2.487883 -11.135087 35.962983 0.072819 1.885596 0.107649 -0.018817 414870.000000 0 0 1
34.207579 3.767083 -10.634587 36.020048 0.109682 1.870504 0.126687 -0.031811 717333.000000 0 0 1
33.009179 4.628483 -11.257487 35.181810 0.139310 1.896505 0.120592 -0.027248 1079310.000000 0 0 1
33.193279 4.873383 -12.628987 35.847384 0.145777 1.930822 0.107593 -0.028434 591531.000000 0 0 1
32.108379 5.707983 -13.017487 35.113873 0.175934 1.950583 0.108753 -0.028194 157033.000000 0 0 1
32.325379 6.486683 -14.360187 35.961398 0.198038 1.981574 0.076784 -0.025139 -276028.000000 0 0 1
32.389579 5.605683 -15.420787 36.308528 0.171373 2.009444 0.066137 -0.010453 23053.400000 0 0 1
32.644779 6.245783 -16.646287 37.172440 0.189041 2.035114 0.058652 -0.015161 -367879.000000 0 0 1
31.592379 7.198983 -17.341987 36.751167 0.224045 2.062213 0.067440 -0.015769 1522220.000000 0 0 1
30.342979 6.734083 -17.912887 35.873608 0.218393 2.093625 0.041865 -0.016532 1599980.000000 0 0 1
29.484779 5.990583 -17.047987 34.581399 0.200447 2.086310 0.025268 -0.006682 -516594.000000 0 0 1
28.030679 5.871083 -17.547587 33.587295 0.206467 2.120515 0.018581 -0.003242 -160571.000000 0 0 1
27.901379 4.933983 -18.609087 33.898809 0.175027 2.151916 0.035621 -0.004982 -15756.700000 0 0 1
26.805979 5.214283 -19.443087 33.522871 0.192120 2.189518 0.027040 -0.001907 -229679.000000 0 0 1
26.400579 3.974383 -20.246487 33.506813 0.149419 2.219620 0.045200 0.001054 83055.400000 0 0 1
25.661879 3.033583 -19.456187 32.346219 0.117667 2.216171 0.055279 -0.007328 363996.000000 0 0 1
25.573179 1.776383 -20.064587 32.553505 0.069351 2.234905 0.050904 -0.008032 -125172.000000 0 0 1
24.532879 0.939683 -19.252587 31.199476 0.038284 2.235823 0.058809 -0.011900 313158.000000 0 0 1
23.235879 1.495083 -19.274487 30.226598 0.064255 2.262261 0.066119 -0.022693 182988.000000 0 0 1
22.240479 0.654483 -18.748687 29.096057 0.029419 2.270998 0.074335 -0.024964 940773.000000 0 0 1
20.838679 1.358783 -18.538187 27.924205 0.065113 2.296785 0.085249 -0.034379 423492.000000 0 0 1
20.017279 1.572183 -19.732087 28.151705 0.078380 2.347483 0.086907 -0.036782 1412700.000000 0 0 1
18.922879 2.474283 -19.445387 27.245559 0.130018 2.365575 0.074216 -0.027519 752819.000000 0 0 1
17.726479 1.948283 -18.650887 25.804640 0.109469 2.378602 0.111807 -0.035825 -1006820.000000 0 0 1
18.057879 2.146483 -17.293887 25.095277 0.118312 2.331083 0.125997 -0.038813 541057.000000 0 0 1
16.976879 1.962683 -16.386787 23.676852 0.115098 2.335193 0.103708 -0.028229 251831.000000 0 1 0
15.933679 3.072083 -16.187887 22.920897 0.190467 2.354984 0.115330 -0.037288 -49189.600000 0 1 0
15.228879 3.398983 -17.365887 23.346218 0.219594 2.409596 0.106142 -0.029396 880450.000000 0 1 0
14.128579 4.280083 -17.049787 22.552851 0.294150 2.427965 0.115662 -0.033879 570672.000000 0 1 0
-20.605221 -21.998417 -17.313587 34.760118 0.818088 2.092188 0.100493 -0.032418 2605.640000 0 0 1
-20.323421 -22.365417 -18.633487 35.502960 0.833196 2.123327 0.102760 -0.032919 375362.000000 0 0 1
-21.394021 -22.016117 -19.493587 36.365003 0.799728 2.136552 0.110211 -0.025503 74796.900000 0 0 1
-21.224921 -22.753817 -20.826887 37.443193 0.820149 2.160634 0.088626 -0.015409 117859.000000 0 0 1
-21.224121 -24.149917 -20.564987 38.165436 0.849791 2.139853 0.075770 -0.015058 163519.000000 0 0 1
-20.573321 -24.850917 -21.584287 38.816376 0.879291 2.160436 0.069340 -0.017068 -179734.000000 0 0 1
-20.631221 -26.387337 -21.323787 39.706961 0.907214 2.137707 0.075410 0.001357 -228042.000000 0 0 1
-21.861521 -27.065707 -21.369887 40.830756 0.891366 2.121606 0.070737 0.009860 -109781.000000 0 0 1
-21.664021 -28.454127 -21.241187 41.595134 0.920060 2.106755 0.105304 -0.015224 520359.000000 0 0 1
-23.075721 -29.092527 -21.443887 42.880116 0.900225 2.094498 0.083911 -0.011998 624290.000000 0 0 1
-23.720121 -28.990927 -22.704487 43.801960 0.885061 2.115710 0.053052 -0.011384 -153141.000000 0 0 1
-23.207521 -29.766997 -23.735787 44.587562 0.908594 2.132160 0.052945 -0.012925 -386065.000000 0 0 1
-23.493421 -29.135807 -25.150537 45.093077 0.892200 2.162465 0.040669 -0.006230 32691.900000 0 0 1
-24.812621 -29.343477 -25.604847 46.176985 0.868867 2.158551 0.032125 0.001123 -51621.200000 0 0 1
-25.153841 -28.563957 -26.730787 46.509680 0.848795 2.183078 0.036486 0.006885 -234297.000000 0 0 1
-24.598121 -29.000917 -28.094997 47.280541 0.867357 2.207091 0.043673 -0.011156 -462365.000000 0 0 1
-25.084781 -30.185867 -28.635447 48.584171 0.877430 2.201111 0.029621 0.002865 -4452.030000 0 0 1
-24.690521 -30.321897 -29.994507 49.281941 0.887408 2.225130 0.058988 -0.004490 -279143.000000 0 0 1
-25.393551 -31.476777 -30.718557 50.786314 0.891960 2.220385 0.050516 -0.005896 -160006.000000 0 0 1
-24.951021 -32.744457 -30.322377 51.129243 0.919664 2.205642 0.044254 -0.017754 136703.000000 0 0 1
-25.804071 -33.776247 -30.818017 52.501763 0.918414 2.198132 0.058679 -0.014301 229138.000000 0 0 1
-25.168811 32.590660 -30.775677 51.407805 -0.913194 2.212621 0.054018 -0.016917 525597.000000 0 0 1
-24.141221 32.472350 -31.748117 51.431459 -0.931507 2.236090 0.057254 -0.032066 31346.200000 0 0 1
-23.342321 31.320527 -31.601707 50.244474 -0.930328 2.251010 0.059227 -0.024354 385635.000000 0 0 1
-22.143121 31.260777 -32.599897 50.302159 -0.954498 2.275859 0.056071 -0.019985 370122.000000 0 0 1
-22.490221 30.934627 -33.913037 51.116095 -0.942163 2.296218 0.067844 -0.017575 417829.000000 0 0 1
-21.747021 29.739777 33.653208 49.899154 -0.939408 0.830611 0.066532 -0.014653 353501.000000 0 0 1
-21.727521 29.365527 32.152115 48.663927 -0.933791 0.849049 0.057493 -0.010856 -171639.000000 0 0 1
-21.200521 30.421027 31.392948 48.584134 -0.962152 0.868259 0.059529 -0.005105 259896.000000 0 0 1
-21.244921 30.238357 29.977518 47.585254 -0.958340 0.889275 0.070279 -0.001479 -397364.000000 0 0 1
-20.738021 31.486077 29.285968 47.739988 -0.988371 0.910378 0.062624 -0.011802 -220440.000000 0 0 1
-21.685621 32.530736 29.060928 48.713986 -0.982826 0.931585 0.056639 -0.004024 157991.000000 0 0 1
-21.134021 33.832767 28.757978 49.176460 -1.012441 0.946173 0.064416 -0.022536 -244731.000000 0 0 1
-22.120821 -32.830337 28.831898 48.973871 0.977877 0.941322 0.085609 -0.035024 -118717.000000 0 0 1
-22.285921 -32.387937 30.184778 49.565730 0.968106 0.916016 0.075300 -0.022642 -81722.500000 0 0 1
-23.316921 -31.456107 30.481648 49.621531 0.932917 0.909320 0.108027 -0.025378 -10637.700000 0 0 1
-23.321421 -30.012687 29.934078 48.380772 0.910205 0.903686 0.097769 -0.025228 -311155.000000 0 0 1
-23.965821 -29.971447 28.700208 47.920248 0.896286 0.928649 0.056065 -0.018897 -214371.000000 0 0 1
-24.010721 -28.669707 28.308538 46.902453 0.873607 0.922835 0.063246 -0.029219 384545.000000 0 0 1
-25.385281 -28.324507 27.645608 47.020951 0.840068 0.942284 0.081888 -0.026691 -79101.500000 0 0 1
-26.542351 -28.312907 28.482108 48.138836 0.817664 0.937673 0.115144 -0.021823 666163.000000 0 0 1
-27.332501 -29.491607 28.405398 49.230957 0.823376 0.955767 0.096480 -0.026329 -20961.500000 0 0 1
-28.088941 -29.691427 27.027958 49.000816 0.813125 0.986537 0.081022 -0.007029 -689106.000000 0 0 1
-27.292861 -29.876137 25.847568 48.016462 0.830554 1.002370 0.063880 -0.016552 265296.000000 0 0 1
-28.132521 -29.937887 24.696398 47.933578 0.816477 1.029531 0.049693 -0.007273 355034.000000 0 0 1
-27.232341 -29.960387 23.418868 46.772519 0.833061 1.046392 0.037800 -0.008109 -165577.000000 0 0 1
-26.547891 -28.750887 23.109908 45.447463 0.825215 1.037358 0.027288 -0.016571 668377.000000 0 0 1
-25.694701 -28.678337 21.963438 44.328966 0.840217 1.052427 0.040738 -0.020633 548.769000 0 0 1
-24.501421 -29.634537 21.893338 44.247527 0.879935 1.053200 0.058446 -0.032707 -1349880.000000 0 0 1
-24.763921 -30.972607 21.591038 45.152266 0.896334 1.072212 0.054600 -0.039816 22286.700000 0 0 1
-23.593621 -31.747977 21.458738 45.000783 0.931691 1.073726 0.057447 -0.023876 18781.100000 0 0 1
-22.953121 -32.266007 22.778238 45.681387 0.952479 1.048776 0.075501 -0.029025 -134937.000000 0 0 1
-22.150021 -31.351747 23.476878 44.996881 0.955721 1.021902 0.098372 -0.041529 -338843.000000 0 0 1
-21.560021 -32.045837 24.521128 45.749928 0.978569 1.005126 0.090960 -0.044954 -383656.000000 0 0 1
-20.592721 -31.189227 25.354508 45.162807 0.987248 0.974717 0.079002 -0.030734 -1237910.000000 0 0 1
-19.434521 -30.854977 24.645088 44.012618 1.008705 0.976465 0.095426 -0.029132 275440.000000 0 0 1
-18.416021 -30.185987 25.424278 43.551550 1.022994 0.947427 0.106532 -0.027855 539602.000000 0 0 1
-17.730021 -31.021777 26.548528 44.514364 1.051570 0.931783 0.079463 -0.036182 -1198790.000000 0 0 1
-18.559221 -31.304007 27.654348 45.707204 1.035636 0.920990 0.085201 -0.032039 217081.000000 0 0 1
-17.853421 -32.051207 28.606328 46.522538 1.062573 0.908548 0.087127 -0.024132 -430957.000000 0 0 1
-18.152421 -31.489557 30.043068 47.156002 1.047867 0.880067 0.097807 -0.022109 157091.000000 0 0 1
-17.770821 -30.107607 30.160978 46.173095 1.037582 0.858973 0.096357 -0.019005 391811.000000 0 0 1
-18.251021 -29.668937 31.392538 46.891759 1.019307 0.837304 0.091767 -0.019898 14386.500000 0 0 1
-17.902321 -28.122367 31.423698 45.812765 1.003908 0.814935 0.093798 -0.021907 217639.000000 0 0 1
-18.858821 -27.277007 30.778788 45.244050 0.965878 0.822647 0.094027 -0.023603 365166.000000 0 0 1
-19.028721 -27.312137 29.394358 44.408032 0.962280 0.847425 0.093450 -0.021497 -77212.500000 0 0 1
-17.836921 -26.760827 28.551898 43.005912 0.982888 0.844766 0.072703 -0.020785 267851.000000 0 0 1
-17.748721 -25.411837 28.391738 42.034145 0.961116 0.829229 0.061863 -0.014556 -220258.000000 0 0 1
-16.579121 -25.110007 27.677278 40.882899 0.987243 0.827132 0.053129 -0.010910 -223365.000000 0 0 1
-16.492321 -23.750417 26.973088 39.542716 0.963838 0.820131 0.035619 -0.011739 -336617.000000 0 0 1
-17.229221 -23.626417 25.773528 38.978563 0.940718 0.848348 0.061051 -0.005666 -7911.330000 0 0 1
-17.043921 -22.482217 24.976128 37.679600 0.922127 0.846170 0.057362 -0.013141 54371.900000 0 0 1
-17.669521 -21.138017 25.521328 37.554839 0.874538 0.823613 0.057417 -0.011174 -221975.000000 0 0 1
-17.184621 -20.102317 24.703578 36.189516 0.863489 0.819459 0.057463 -0.010584 51866.200000 0 0 1
-17.570921 -18.830817 25.135218 35.987722 0.819995 0.797583 0.072417 -0.008258 -111462.000000 0 0 1
-17.061121 -17.769717 24.138428 34.489250 0.805739 0.795563 0.055949 -0.022712 1494000.000000 0 0 1
-15.598421 -17.664217 24.084338 33.695558 0.847424 0.774511 0.051262 -0.020635 1484880.000000 0 0 1
-15.171721 -16.544817 23.367628 32.403057 0.828664 0.765328 0.066359 -0.018487 -420238.000000 0 0 1
-13.728121 -16.181717 23.677748 31.795361 0.867248 0.730723 0.056594 -0.026917 -563317.000000 0 0 1
-12.708621 -16.966117 23.095508 31.349014 0.927898 0.742587 0.059103 -0.027653 -674074.000000 0 0 1
-11.442121 -16.484617 23.369368 30.802469 0.964035 0.709504 0.061420 -0.028983 -866914.000000 0 0 1
-10.807821 -15.645317 22.205138 29.234450 0.966270 0.708169 0.078836 -0.035442 -312242.000000 0 0 1
-10.502021 -16.291017 20.967538 28.553937 0.998191 0.746142 0.095992 -0.032589 112516.000000 0 0 1
-9.306221 -17.034117 21.094638 28.666193 1.070776 0.743843 0.096899 -0.029465 -642059.000000 0 0 1
-9.350921 -18.358217 20.418338 29.006420 1.099690 0.789888 0.098155 -0.026153 -13086.500000 0 0 1
-9.325721 -18.220617 19.031638 27.949297 1.097736 0.821759 0.090668 -0.022245 -246259.000000 0 0 1
-8.917921 -19.357417 18.349738 28.123865 1.139082 0.859968 0.101858 -0.026579 -96417.900000 0 0 1
-8.492021 -19.055017 16.913238 26.856391 1.151559 0.889545 0.100556 -0.028176 -224736.000000 0 0 1
-7.342721 -18.236917 16.857638 25.897503 1.188025 0.861978 0.097855 -0.023377 -334050.000000 0 0 1
-7.058121 -17.974317 15.503038 24.763629 1.196618 0.894331 0.100147 -0.019108 -2779.930000 0 1 0
-6.056221 -16.831517 15.327938 23.556813 1.225405 0.862317 0.080807 -0.019202 -82352.600000 0 1 0
-6.464121 -15.541617 15.745938 23.049106 1.176639 0.818732 0.086121 -0.028668 104507.000000 0 1 0
-5.356521 -14.653217 15.667538 22.110650 1.220334 0.783289 0.061255 -0.014403 300210.000000 0 1 0
-5.460221 -13.554817 16.791038 22.259515 1.187857 0.716162 0.037754 -0.006169 -145397.000000 0 1 0
-5.179921 -13.837917 18.171838 23.420829 1.212615 0.682682 0.055070 -0.010581 311187.000000 0 1 0
-6.072221 -14.745017 18.838238 24.681301 1.180146 0.702453 0.089569 -0.024401 843658.000000 0 1 0
-7.443821 -14.202717 19.313138 25.102289 1.088045 0.692930 0.094633 -0.036675 268117.000000 0 0 1
-7.100321 -13.304217 20.333838 25.315642 1.080562 0.638128 0.092273 -0.039038 -610037.000000 0 0 1
-8.192221 -12.646317 20.889538 25.756836 0.995973 0.624888 0.086019 -0.032310 -423675.000000 0 0 1
-8.019121 -11.772717 22.134538 26.321872 0.972826 0.571819 0.078450 -0.025486 -413689.000000 0 0 1
-7.506221 -10.450617 21.872138 25.376153 0.947923 0.531758 0.053286 -0.021838 286676.000000 0 0 1
-6.920821 -9.846017 23.033498 25.988148 0.958123 0.481486 0.037194 -0.011940 657818.000000 0 0 1
-5.479221 -10.271017 23.445058 26.176065 1.080737 0.460866 0.036101 -0.006487 167594.000000 0 0 1
-5.373421 -11.564117 23.918068 27.104915 1.135816 0.489803 0.060066 -0.007865 -147412.000000 0 0 1
-4.065421 -11.817517 24.391468 27.406661 1.239462 0.473488 0.053787 0.001999 -290621.000000 0 0 1
-3.983121 -12.949017 25.443478 28.825559 1.272382 0.489282 0.077965 -0.010294 242191.000000 0 0 1
-2.673521 -13.411117 25.766258 29.170290 1.374025 0.487931 0.075852 -0.010562 322391.000000 0 0 1
-2.647621 -14.498617 26.693618 30.492114 1.390175 0.504478 0.086260 -0.015898 -82799.400000 0 0 1
-2.695521 -15.917717 26.016558 30.618635 1.403047 0.555386 0.092470 -0.032022 509020.000000 0 0 1
-1.460421 -16.355217 25.427228 30.268298 1.481739 0.573400 0.092582 -0.033400 616267.000000 0 0 1
-1.610521 -17.644617 24.906438 30.565617 1.479773 0.618323 0.112903 -0.031446 -19164.800000 0 0 1
-0.219621 -18.344217 24.802838 30.850272 1.558825 0.636847 0.109815 -0.038623 560718.000000 0 0 1
0.374679 -18.679517 26.024148 32.036245 -1.550741 0.622652 0.123000 -0.039303 61664.300000 0 0 1
0.921479 -17.627717 26.850998 32.133497 -1.518569 0.581558 0.117367 -0.039579 -63109.800000 0 0 1
1.539879 -18.357717 28.155088 33.646485 -1.487110 0.579400 0.111840 -0.041703 -277021.000000 0 0 1
2.662079 -19.204517 27.964808 34.028380 -1.433057 0.606219 0.107986 -0.051830 662195.000000 0 0 1
3.515479 -19.308417 29.136998 35.130303 -1.390699 0.592767 0.113484 -0.052862 574755.000000 0 0 1
4.440279 -18.107317 29.363278 34.782080 -1.330321 0.565712 0.119153 -0.046211 -1045390.000000 0 0 1
3.774779 -16.947317 29.771338 34.464374 -1.351638 0.527974 0.113448 -0.046604 -413744.000000 0 0 1
4.698379 -15.968717 30.093708 34.390492 -1.284647 0.505239 0.133955 -0.064795 -637608.000000 0 0 1
4.020279 -14.726917 30.646308 34.238004 -1.304301 0.462149 0.149356 -0.051251 -181019.000000 0 0 1
3.432879 -15.069517 31.856911 35.408160 -1.346816 0.451702 0.119584 -0.055861 -262825.000000 0 0 1
2.644379 -14.035617 32.378370 35.388559 -1.384574 0.415440 0.121570 -0.041902 -101619.000000 0 0 1
1.683679 -14.449217 33.547808 36.565969 -1.454796 0.409149 0.103262 -0.040525 -24295.500000 0 0 1
2.274079 -14.851917 -33.137617 36.384784 -1.418859 2.715905 0.119640 -0.042246 19460.800000 0 0 1
1.284979 -15.242417 -32.177857 35.628597 -1.486692 2.697840 0.120518 -0.045205 513595.000000 0 0 1
1.902079 -15.656617 -30.843887 34.642357 -1.449902 2.668914 0.119937 -0.031399 -281979.000000 0 0 1
0.997579 -16.367617 -30.070807 34.251241 -1.509923 2.642355 0.098738 -0.024296 -621490.000000 0 0 1
1.314279 -16.367317 -28.675907 33.044274 -1.490669 2.621559 0.087309 -0.023145 134523.000000 0 0 1
1.048079 -17.719417 -27.957137 33.116125 -1.511717 2.575896 0.075842 -0.027808 71964.700000 0 0 1
2.019979 -18.675017 -28.329407 33.991056 -1.463050 2.556095 0.063541 -0.016154 47097.100000 0 0 1
2.045179 -19.768917 -27.480857 33.914456 -1.467709 2.515459 0.053694 -0.019617 -225432.000000 0 0 1
3.180879 -20.826817 -27.773897 34.860632 -1.419238 2.492632 0.033823 -0.011960 260055.000000 0 0 1
4.497879 -20.407117 -27.537507 34.568709 -1.353857 2.492450 0.058821 -0.010157 -143410.000000 0 0 1
4.823479 -20.427417 -26.142527 33.525767 -1.338916 2.465101 0.074636 -0.020812 -848169.000000 0 0 1
6.047879 -21.275917 -25.724977 33.926626 -1.293842 2.431426 0.039590 -0.017368 -339660.000000 0 0 1
5.981679 -22.726117 -25.700057 34.824558 -1.313426 2.400878 0.043405 -0.017239 32317.400000 0 0 1
5.853679 -23.365617 -26.940627 36.138830 -1.325323 2.412045 0.036081 -0.012149 -493375.000000 0 0 1
5.371679 -24.809417 -26.847877 36.948215 -1.357570 2.384208 0.032887 0.003633 -257620.000000 0 0 1
6.133679 -25.748887 -26.146907 37.206021 -1.336943 2.350066 0.034096 0.003458 -501954.000000 0 0 1
5.495079 -26.976217 -26.205247 38.008251 -1.369845 2.331542 0.044677 0.000645 -118307.000000 0 0 1
6.224379 -28.063557 -25.364477 38.336182 -1.352534 2.293791 0.052916 0.000552 -141652.000000 0 0 1
7.530479 -28.280507 -25.825247 39.031252 -1.310557 2.293821 0.065763 -0.010619 -405473.000000 0 0 1
8.181179 -29.271397 -25.007687 39.358999 -1.298257 2.259289 0.075022 -0.014545 -802233.000000 0 0 1
9.554079 -29.550137 -25.541537 40.210212 -1.258087 2.259064 0.098423 -0.025919 -963997.000000 0 0 1
9.403279 -30.145397 -26.815957 41.427795 -1.268430 2.274825 0.088314 -0.018873 160653.000000 0 0 1
10.517979 -29.858597 -27.637717 42.023888 -1.232110 2.288514 0.104805 -0.032368 253399.000000 0 0 1
10.177079 -30.006807 -29.156477 43.059048 -1.243812 2.314649 0.104341 -0.020040 85416.900000 0 0 1
9.922479 -31.293317 -29.649887 44.236219 -1.263745 2.305359 0.093941 -0.034881 145839.000000 0 0 1
9.938879 -31.263897 -31.070457 45.183912 -1.262997 2.329036 0.102019 -0.036152 -451790.000000 0 0 1
-36.131651 -4.638117 -5.155887 36.791187 0.127669 1.711398 0.172292 -0.036979 -150801.000000 0 0 1
-35.786530 -3.957217 -3.950887 36.220778 0.110131 1.680092 0.181330 -0.042188 44569.200000 0 0 1
-35.242965 -2.635217 -4.144987 35.583589 0.074634 1.687547 0.198884 -0.046316 -133728.000000 0 0 1
-36.062151 -1.419617 -4.654287 36.388960 0.039346 1.699051 0.152937 -0.028619 -329839.000000 0 0 1
-36.952341 -0.835117 -3.738987 37.150409 0.022596 1.671612 0.148716 -0.037299 263237.000000 0 0 1
37.001333 0.230983 -4.367487 37.258918 0.006242 1.688286 0.157777 -0.033500 134130.000000 0 0 1
36.065753 1.026583 -3.449787 36.244909 0.028457 1.666121 0.162061 -0.036706 -48543.600000 0 0 1
36.827003 1.822783 -2.538987 36.959399 0.049455 1.639547 0.193506 -0.044381 213960.000000 0 0 1
36.040433 2.872983 -1.981887 36.209042 0.079547 1.625558 0.170537 -0.045979 -644615.000000 0 0 1
36.910533 4.014583 -1.370787 37.153511 0.108339 1.607700 0.173832 -0.050336 826121.000000 0 0 1
-36.850361 4.692283 -2.292987 37.218603 -0.126652 1.632444 0.203658 -0.048064 1102180.000000 0 0 1
-35.721021 3.859483 -2.603187 36.023097 -0.107628 1.643124 0.185163 -0.038427 -524183.000000 0 0 1
-34.430043 4.692983 -2.845187 34.864696 -0.135470 1.652494 0.177108 -0.050765 -105269.000000 0 0 1
-33.812961 5.216283 -1.720987 34.256207 -0.153062 1.621056 0.180431 -0.058315 28461.300000 0 0 1
-32.960601 6.273483 -2.091687 33.617450 -0.188083 1.633057 0.183103 -0.069183 -618570.000000 0 0 1
-32.481111 7.133983 -0.936987 33.268517 -0.216202 1.598964 0.175157 -0.063957 -926160.000000 0 0 1
-31.272561 6.732283 -0.372387 31.991176 -0.212042 1.582437 0.194614 -0.057360 -244702.000000 0 0 1
-30.916561 7.170283 0.935013 31.750920 -0.227895 1.541344 0.195824 -0.049094 -4889.300000 0 0 1
-30.829391 8.664583 1.204313 32.046477 -0.273982 1.533207 0.210591 -0.053306 -389391.000000 0 0 1
-32.089981 9.289283 1.201413 33.429044 -0.281774 1.534849 0.203993 -0.058612 -256080.000000 0 0 1
-32.058871 10.624783 1.674913 33.815123 -0.320023 1.521245 0.211007 -0.047317 -697196.000000 0 0 1
-33.433131 11.247083 1.695513 35.314952 -0.324513 1.522767 0.209549 -0.049569 -1128900.000000 0 0 1
-33.905011 11.666783 0.405913 35.858448 -0.331411 1.559476 0.185473 -0.046951 1292110.000000 0 0 1
-35.055047 12.563183 0.349713 37.239927 -0.344125 1.561405 0.173205 -0.037995 1934940.000000 0 0 1
-36.475681 12.025883 0.767713 38.414665 -0.318473 1.550810 0.178333 -0.049495 474621.000000 0 0 1
-37.059981 11.126883 -0.102887 38.694447 -0.291677 1.573455 0.175310 -0.050194 1431830.000000 0 0 1
36.269703 10.660783 0.279313 37.805048 0.285879 1.563408 0.179938 -0.058572 1621000.000000 0 0 1
35.699993 9.539283 -0.554287 36.956659 0.261107 1.585795 0.188704 -0.054726 70991.400000 0 0 1
35.360933 9.807383 -1.917387 36.745840 0.270550 1.623000 0.183430 -0.047547 25252.700000 0 0 1
35.063633 8.699183 -2.642387 36.223147 0.243187 1.643809 0.181730 -0.060448 -186083.000000 0 0 1
34.429003 8.929483 -4.026087 35.795269 0.253768 1.683510 0.147459 -0.037207 682064.000000 0 0 1
33.026633 9.222483 -3.948687 34.516732 0.272307 1.685447 0.162046 -0.039547 785116.000000 0 0 1
32.501193 9.466283 -5.220087 34.251823 0.283419 1.723796 0.129263 -0.022775 -82396.100000 0 0 1
31.130083 10.152983 -5.390787 33.184721 0.315269 1.733967 0.143249 -0.033342 -625555.000000 0 0 1
30.025303 9.333983 -5.262887 31.880088 0.301400 1.736639 0.126500 -0.024581 -263725.000000 0 0 1
28.936613 9.980183 -5.882987 31.169555 0.332122 1.760677 0.142996 -0.017717 -125191.000000 0 0 1
27.660013 9.143883 -6.128887 29.769954 0.319272 1.778154 0.154778 -0.003124 16974.500000 0 0 1
27.842913 8.156883 -7.117387 29.873395 0.284986 1.811362 0.144246 -0.007316 1302620.000000 0 0 1
26.632813 7.360683 -7.283687 28.575137 0.269645 1.828536 0.158053 -0.006504 955321.000000 0 0 1
26.841713 6.221383 -8.317487 28.781309 0.227759 1.863967 0.148172 -0.015395 -418919.000000 0 0 1
27.745413 5.193483 -8.091687 29.364189 0.185042 1.849972 0.145577 -0.016835 83186.600000 0 0 1
27.724313 4.190483 -9.080587 29.472949 0.150013 1.883991 0.121767 -0.015182 -340537.000000 0 0 1
28.717313 3.028683 -8.861687 30.205736 0.105077 1.868554 0.118659 -0.013062 252796.000000 0 0 1
30.093573 3.331683 -9.173487 31.636626 0.110262 1.864986 0.114321 -0.010419 1444120.000000 0 0 1
31.077173 2.981083 -8.220387 32.283933 0.095633 1.828259 0.086062 -0.015707 222696.000000 0 0 1
31.363743 1.447883 -7.975187 32.394203 0.046131 1.819545 0.073321 -0.016159 11020.500000 0 0 1
30.240483 0.821883 -7.293887 31.118533 0.027172 1.807388 0.103808 -0.020138 1110690.000000 0 0 1
30.397963 -0.526917 -6.933487 31.183121 -0.017332 1.795018 0.097489 -0.025605 -237838.000000 0 0 1
30.342673 -1.483617 -8.076987 31.434323 -0.048857 1.830659 0.094060 -0.026549 181265.000000 0 0 1
31.515573 -1.497417 -8.885787 32.778512 -0.047478 1.845317 0.096034 -0.026314 478002.000000 0 0 1
31.398783 -2.592217 -9.733487 32.974899 -0.082371 1.870439 0.095762 -0.039674 194264.000000 0 0 1
32.502623 -2.749317 -10.818387 34.365924 -0.084387 1.891042 0.105152 -0.030061 558282.000000 0 0 1
33.812733 -3.125917 -10.397587 35.513126 -0.092186 1.867931 0.106561 -0.023163 485780.000000 0 0 1
34.571333 -3.513217 -11.517087 36.608238 -0.101275 1.890835 0.119809 -0.031741 35894.500000 0 0 1
35.977553 -4.001317 -11.060787 37.851498 -0.110762 1.867339 0.135988 -0.020058 -26312.000000 0 0 1
36.023683 -5.160717 -10.249187 37.807203 -0.142291 1.845322 0.124213 -0.027135 415218.000000 0 0 1
-37.325071 -5.257717 -9.742487 38.932256 0.139942 1.823727 0.142353 -0.028893 63544.700000 0 0 1
-37.079871 -6.546917 -8.919087 38.695336 0.174761 1.803383 0.138780 -0.037665 -193295.000000 0 0 1
36.970813 -6.507617 -7.652087 38.311154 -0.174236 1.771884 0.144331 -0.035476 293893.000000 0 0 1
36.753363 -7.810417 -7.148587 38.248067 -0.209394 1.758803 0.141944 -0.030365 -339428.000000 0 0 1
36.275383 -7.831017 -5.693287 37.545196 -0.212614 1.723022 0.140512 -0.028914 -642411.000000 0 0 1
37.183263 -7.506917 -4.659787 38.218614 -0.199212 1.693025 0.152785 -0.022633 108303.000000 0 0 1
37.291343 -8.538917 -3.684487 38.433486 -0.225098 1.666810 0.164907 -0.022640 -135967.000000 0 0 1
-36.623111 -9.852217 -4.005787 38.136134 0.262795 1.676030 0.164144 -0.025869 -685.674000 0 0 1
37.297723 -10.646717 -4.947087 39.101744 -0.278057 1.697655 0.149507 -0.026662 467650.000000 0 0 1
-36.568201 -11.600617 -5.540887 38.762212 0.307190 1.714233 0.134905 -0.023710 -184566.000000 0 0 1
-37.271441 -12.069717 -6.841987 39.769978 0.313176 1.743695 0.127525 -0.029157 220628.000000 0 0 1
37.291553 -11.138017 -7.861787 39.705454 -0.290240 1.770116 0.135991 -0.030450 110347.000000 0 0 1
36.825863 -11.762217 -9.032887 39.699962 -0.309159 1.800336 0.129761 -0.022065 -134110.000000 0 0 1
37.028613 -11.027317 -10.365187 40.001963 -0.289442 1.832904 0.108345 -0.029378 -468893.000000 0 0 1
36.303543 -9.811817 -10.365087 39.008384 -0.263965 1.839741 0.105849 -0.031525 310776.000000 0 0 1
36.382633 -9.160317 -11.589687 39.267394 -0.246651 1.870407 0.099245 -0.029847 -407541.000000 0 0 1
35.244133 -8.201117 -12.007887 38.126062 -0.228626 1.891203 0.100227 -0.028743 -289064.000000 0 0 1
35.500203 -7.484217 -13.201587 38.607769 -0.207779 1.919778 0.101882 -0.026933 486194.000000 0 0 1
34.352213 -6.780317 -13.602787 37.564386 -0.194872 1.941337 0.087638 -0.028720 -37296.300000 0 0 1
34.556713 -6.361617 -15.066387 38.231304 -0.182054 1.975868 0.081244 -0.021101 211911.000000 0 0 1
35.518643 -5.313217 -15.198387 38.997375 -0.148488 1.971133 0.088202 -0.023087 506650.000000 0 0 1
34.960643 -4.099317 -15.621187 38.510680 -0.116722 1.988467 0.102234 -0.022719 1244170.000000 0 0 1
36.095713 -2.952417 -15.752587 39.493813 -0.081612 1.981072 0.115351 -0.024709 1109460.000000 0 0 1
37.103633 -2.992717 -16.722987 40.808017 -0.080484 1.993027 0.115074 -0.021615 1395890.000000 0 0 1
-36.324421 -2.285217 -16.383387 39.913671 0.062829 1.993766 0.158542 -0.019692 1199160.000000 0 0 1
-36.306311 -0.729717 -16.205787 39.765666 0.020096 1.990546 0.147046 -0.012879 -553215.000000 0 0 1
-36.377801 -0.044817 -17.437287 40.341112 0.001232 2.017778 0.120157 -0.017137 315503.000000 0 0 1
-36.391671 1.319083 -17.150787 40.252244 -0.036231 2.010955 0.127837 -0.031216 -120066.000000 0 0 1
-36.507291 2.264083 -18.382787 40.936966 -0.061938 2.036499 0.103570 -0.027932 -477255.000000 0 0 1
-35.493253 2.278683 -19.341187 40.485119 -0.064112 2.068872 0.113657 -0.021764 -65673.400000 0 0 1
-35.455323 3.505283 -19.995387 40.855629 -0.098545 2.082216 0.106313 -0.023728 -206547.000000 0 0 1
-34.352020 3.591283 -21.070487 40.458917 -0.104165 2.118569 0.100334 -0.013879 -929084.000000 0 0 1
-33.070841 3.825983 -20.605487 39.152327 -0.115178 2.125028 0.103131 -0.010429 -644858.000000 0 0 1
-32.306681 4.394183 -21.648887 39.137000 -0.135185 2.156945 0.090207 -0.006648 -244030.000000 0 0 1
-30.865101 4.766183 -21.265087 37.783261 -0.153210 2.168587 0.108729 -0.005531 -76584.700000 0 0 1
-30.051151 3.653083 -20.984387 36.834239 -0.120969 2.176934 0.104959 0.005792 667573.000000 0 0 1
-28.685011 4.016383 -20.749087 35.629844 -0.139112 2.192414 0.089353 0.013256 968479.000000 0 0 1
-27.798641 2.848583 -20.184587 34.471675 -0.102116 2.196344 0.113870 0.005736 158060.000000 0 0 1
-27.683781 2.918283 -18.835587 33.610823 -0.105027 2.165668 0.123391 0.004581 -151649.000000 0 0 1
-27.078701 1.792883 -18.322487 32.744220 -0.066114 2.164656 0.124061 -0.006292 -479612.000000 0 0 1
-26.159131 2.079283 -17.146987 31.347132 -0.079319 2.149577 0.114100 -0.016311 1002750.000000 0 0 1
-25.006221 2.936783 -17.445387 30.631312 -0.116907 2.176728 0.110499 -0.009218 1882180.000000 0 0 1
-24.064021 3.025783 -16.350987 29.250422 -0.125082 2.163976 0.120879 -0.021926 448907.000000 0 0 1
-23.048221 4.173883 -16.401287 28.594475 -0.179152 2.181669 0.125675 -0.021992 -275561.000000 0 0 1
-21.915421 3.821883 -17.142287 28.084701 -0.172656 2.227334 0.141151 -0.032854 -354397.000000 0 0 1
-20.886321 4.799183 -17.035487 27.376602 -0.225856 2.242428 0.121433 -0.027163 100956.000000 0 0 1
-19.566721 4.219483 -17.582487 26.642155 -0.212393 2.291548 0.146178 -0.034730 -133031.000000 0 0 1
-18.995121 3.146583 -16.832087 25.574103 -0.164161 2.289181 0.174693 -0.040372 -96947.000000 0 0 1
-17.858021 2.592083 -17.422087 25.083000 -0.144143 2.338629 0.135322 -0.045318 -871067.000000 0 0 1
-17.582521 1.124783 -17.061887 24.525867 -0.063885 2.340147 0.140691 -0.041695 37980.800000 0 1 0
-18.413021 0.144383 -17.662087 25.514887 -0.007841 2.335366 0.114757 -0.039879 240849.000000 0 0 1
-19.730821 0.186883 -17.168287 26.155119 -0.009471 2.286837 0.126929 -0.045744 -116343.000000 0 0 1
-20.810521 -0.839617 -17.644987 27.297038 0.040324 2.273662 0.108026 -0.043627 304601.000000 0 0 1
-20.724821 -2.048517 -16.973187 26.866404 0.098524 2.254621 0.094928 -0.043142 397330.000000 0 0 1
-21.754321 -2.939217 -17.346387 27.978324 0.134296 2.239531 0.105157 -0.034840 -120987.000000 0 0 1
-21.974021 -4.011517 -16.294287 27.648755 0.180569 2.201028 0.119374 -0.041208 -8267.370000 0 0 1
-22.348221 -3.565617 -14.987587 27.143772 0.158215 2.155744 0.110360 -0.038387 743981.000000 0 0 1
-23.018221 -4.613717 -14.212487 27.443025 0.197816 2.115180 0.117853 -0.045871 436305.000000 0 0 1
-23.369621 -4.134417 -12.731087 26.931638 0.175102 2.063170 0.129581 -0.047010 -86427.000000 0 0 1
-24.281221 -3.049717 -12.666287 27.555640 0.124946 2.048411 0.114711 -0.047195 275329.000000 0 0 1
-24.453221 -2.494017 -11.362787 27.079384 0.101640 2.003812 0.132703 -0.052392 -732647.000000 0 0 1
-25.597991 -1.512817 -11.149287 27.961622 0.059030 1.980934 0.175942 -0.065708 -570195.000000 0 0 1
-25.672781 -1.259817 -9.765587 27.496281 0.049033 1.933882 0.170134 -0.061416 364478.000000 0 0 1
-26.493511 -0.177417 -9.421587 28.119457 0.006697 1.912461 0.173703 -0.061901 -325790.000000 0 0 1
-26.735591 -0.152217 -7.914487 27.882863 0.005693 1.858601 0.184599 -0.051457 -194068.000000 0 0 1
-25.560101 0.297083 -7.295187 26.582452 -0.011622 1.848800 0.175336 -0.049149 153977.000000 0 0 1
-25.733161 0.332183 -5.905087 26.404090 -0.012908 1.796347 0.182873 -0.057868 -99525.800000 0 0 1
-24.446921 0.897683 -5.284587 25.027677 -0.036703 1.783547 0.127008 -0.044486 -283978.000000 0 0 1
-24.247221 2.289283 -5.578287 24.985712 -0.094135 1.795953 0.157290 -0.041270 518011.000000 0 1 0
-22.953021 2.722883 -5.184987 23.688380 -0.118077 1.791466 0.139996 -0.025422 149036.000000 0 1 0
-22.610421 4.180583 -5.512487 23.645209 -0.182831 1.806095 0.142999 -0.026358 -95391.800000 0 1 0
-23.210721 5.104783 -4.569887 24.200831 -0.216486 1.760769 0.154318 -0.026787 876884.000000 0 1 0
-22.841821 6.504983 -4.724287 24.215335 -0.277439 1.767150 0.152557 -0.030247 -529561.000000 0 1 0
-23.187721 7.442383 -3.510587 24.604546 -0.310576 1.713965 0.139923 -0.027187 -166852.000000 0 1 0
-22.397721 7.352583 -2.340287 23.689561 -0.317190 1.669748 0.116361 -0.028023 1702280.000000 0 1 0
-20.970421 7.618583 -2.367687 22.436739 -0.348475 1.676520 0.119436 -0.029194 1107670.000000 0 1 0
-20.574921 9.130083 -2.446187 22.642208 -0.417643 1.679044 0.110781 -0.033766 -604792.000000 0 1 0
-20.424121 9.614183 -3.795787 22.890723 -0.439956 1.737388 0.090681 -0.027984 539476.000000 0 1 0
-20.020321 10.966783 -3.999187 23.174923 -0.501139 1.744230 0.103426 -0.020195 -228077.000000 0 1 0
-19.815121 11.443683 -5.497887 23.533458 -0.523728 1.806595 0.094554 -0.025746 -1087720.000000 0 1 0
-18.724021 10.937883 -6.127187 22.533722 -0.528693 1.846176 0.070091 -0.024175 -900308.000000 0 1 0
-18.822721 11.239383 -7.513487 23.174793 -0.538298 1.900972 0.082237 -0.020075 324974.000000 0 1 0
-17.468421 11.069683 -8.260087 22.269096 -0.564829 1.950797 0.067767 -0.011209 146337.000000 0 1 0
-17.126121 9.738383 -8.560787 21.480856 -0.517032 1.980711 0.054013 -0.004860 452422.000000 0 1 0
-17.873121 9.010183 -9.564287 22.183494 -0.466938 2.016557 0.061053 -0.002953 -117272.000000 0 1 0
-18.015721 9.580583 -11.015487 23.188245 -0.488755 2.065813 0.068938 -0.008019 -370407.000000 0 1 0
-16.832321 9.607283 -11.761987 22.670933 -0.518645 2.116259 0.070341 -0.005455 -365703.000000 0 1 0
-16.970421 10.224683 -13.051487 23.725105 -0.542256 2.153296 0.086536 -0.007213 498670.000000 0 1 0
-15.905421 9.714783 -14.106787 23.374363 -0.548311 2.218699 0.064287 -0.005509 65223.200000 0 1 0
-16.085321 8.406383 -14.651687 23.325452 -0.481573 2.249959 0.085266 -0.030426 -578.631000 0 1 0
-15.589721 7.401283 -13.833387 22.117436 -0.443248 2.246507 0.065373 -0.018818 -334390.000000 0 1 0
-15.630221 6.015983 -14.538087 22.177732 -0.367417 2.285676 0.078725 -0.024418 -718172.000000 0 1 0
-14.683321 5.907983 -15.546187 22.185312 -0.382539 2.347234 0.090443 -0.026665 49701.300000 0 1 0
-14.799621 4.703483 -16.299287 22.512625 -0.307716 2.380389 0.096777 -0.030727 -44118.500000 0 1 0
33.192333 -15.240917 28.150528 46.113650 -0.430453 0.914155 0.061412 -0.004092 24489.300000 0 0 1
32.319053 -14.255917 28.678598 45.499608 -0.415428 0.888851 0.064432 -0.007124 370381.000000 0 0 1
31.277783 -14.705817 29.543768 45.468616 -0.439499 0.863525 0.059506 0.000057 568892.000000 0 0 1
31.709403 -14.908717 31.030038 46.804053 -0.439498 0.846007 0.062931 -0.016583 32575.700000 0 0 1
32.068453 -13.598917 31.486548 46.954435 -0.401073 0.835810 0.060390 -0.018498 36998.700000 0 0 1
32.324983 -13.471017 32.884309 48.039053 -0.394851 0.816834 0.050479 -0.025979 -217569.000000 0 0 1
32.474943 -11.939517 33.240750 47.980428 -0.352314 0.805434 0.070607 -0.026449 -34761.800000 0 0 1
32.423853 -11.724117 -33.243207 47.894384 -0.346962 2.337957 0.052373 -0.040729 41314.300000 0 0 1
32.781193 -10.407817 -32.866547 47.572463 -0.307428 2.333493 0.045601 -0.030432 -106337.000000 0 0 1
32.286553 -10.022417 -31.469787 46.186771 -0.300990 2.320414 0.061205 -0.034142 -298598.000000 0 0 1
30.928233 -9.727417 -31.312767 45.074024 -0.304720 2.338794 0.085544 -0.038216 -290639.000000 0 0 1
30.609203 -9.599717 -29.944087 43.883097 -0.303907 2.321783 0.079082 -0.033682 -167374.000000 0 0 1
29.066713 -9.567217 -29.795997 42.710735 -0.317978 2.342871 0.075958 -0.015798 52648.000000 0 0 1
28.703713 -9.467417 -28.466717 41.519744 -0.318597 2.326250 0.072513 -0.025833 -18657.900000 0 0 1
27.784513 -10.457917 -28.093337 40.872763 -0.359992 2.328612 0.106714 -0.027187 -1061360.000000 0 0 1
27.375413 -10.492717 -26.592967 39.581514 -0.366019 2.307504 0.105547 -0.019148 -42507.600000 0 0 1
26.420113 -9.501817 -26.178087 38.387487 -0.345240 2.321213 0.097781 -0.021777 1060540.000000 0 0 1
25.145913 -9.460317 -26.827847 37.967722 -0.359837 2.355473 0.094541 -0.025615 -189674.000000 0 0 1
24.139713 -10.565717 -26.573277 37.423244 -0.412570 2.360400 0.106152 -0.015894 -1037110.000000 0 0 1
24.583613 -11.834717 -27.107907 38.461061 -0.448663 2.352958 0.099925 -0.017098 507997.000000 0 0 1
23.714913 -12.959917 -26.840277 38.088804 -0.500143 2.352763 0.107662 -0.025439 477216.000000 0 0 1
24.328113 -14.205617 -27.505447 39.372659 -0.528510 2.344225 0.104596 -0.005489 262218.000000 0 0 1
24.483013 -14.065417 -28.930617 40.425666 -0.521456 2.368350 0.104194 -0.017489 -118455.000000 0 0 1
25.610413 -14.730217 -29.425087 41.697821 -0.521958 2.354171 0.087355 -0.016748 -317036.000000 0 0 1
25.622313 -14.691117 -30.941657 42.775203 -0.520610 2.379445 0.089403 -0.019504 532275.000000 0 0 1
24.481813 -15.359417 -31.549107 42.785710 -0.560309 2.399972 0.093994 -0.011565 681366.000000 0 0 1
24.490013 -15.667817 -32.953217 43.944917 -0.569145 2.418670 0.080450 -0.011042 -10307.500000 0 0 1
24.819313 -14.626117 33.833552 44.436818 -0.532518 0.705349 0.047768 -0.006013 -4402.260000 0 0 1
23.811313 -13.641917 33.784721 43.525715 -0.520268 0.682178 0.065611 -0.012168 33904.200000 0 0 1
24.146813 -12.639117 32.811163 42.654288 -0.482214 0.693154 0.042421 -0.002888 -724099.000000 0 0 1
23.296513 -11.359217 32.848680 41.842504 -0.453673 0.668011 0.069837 -0.015291 263828.000000 0 0 1
21.892913 -11.527217 32.755564 41.050010 -0.484644 0.646922 0.055912 -0.012057 380541.000000 0 0 1
21.421213 -11.812217 31.452638 39.845518 -0.503937 0.661023 0.049337 -0.002709 -1070460.000000 0 0 1
19.922513 -12.020917 31.222968 38.939475 -0.542904 0.640439 0.061692 -0.003907 -79717.600000 0 0 1
19.139713 -10.849117 31.269638 38.233784 -0.515679 0.613125 0.068124 -0.018277 89897.200000 0 0 1
18.190713 -10.855317 32.324403 38.647212 -0.538027 0.580120 0.049585 -0.004813 481183.000000 0 0 1
17.316113 -9.511217 32.440361 37.982733 -0.502282 0.547013 0.058788 -0.011876 411053.000000 0 0 1
16.263313 -9.452517 31.489768 36.680389 -0.526494 0.538477 0.098299 -0.022166 746475.000000 0 0 1
15.357613 -8.304817 31.645458 36.142237 -0.495723 0.504159 0.111344 -0.023834 408842.000000 0 0 1
14.174513 -8.487317 32.557942 36.509875 -0.539517 0.469583 0.119367 -0.028951 -1342670.000000 0 0 1
13.368013 -9.618817 32.272831 36.232044 -0.623720 0.471856 0.119104 -0.025332 78679.700000 0 0 1
12.199713 -9.778517 33.036937 36.549851 -0.675677 0.442026 0.115804 -0.026762 -54983.400000 0 0 1
10.985613 -9.005917 32.516310 35.483808 -0.686693 0.411879 0.127674 -0.028780 -868292.000000 0 0 1
11.125913 -7.604917 32.815459 35.474992 -0.599588 0.389680 0.133883 -0.030070 199425.000000 0 0 1
10.177013 -6.824917 32.115247 34.373539 -0.590735 0.364502 0.138499 -0.023831 6764.480000 0 0 1
10.534213 -5.298917 32.149365 34.243683 -0.466061 0.351548 0.122552 -0.025046 116647.000000 0 0 1
10.494413 -4.724417 33.463527 35.387292 -0.423007 0.331249 0.098304 -0.031765 345224.000000 0 0 1
11.055413 -3.397617 33.369373 35.316866 -0.298164 0.333640 0.072699 -0.023239 13755.100000 0 0 1
10.894413 -2.580317 -33.226847 35.062368 -0.232562 2.816590 0.065812 -0.030236 -263345.000000 0 0 1
9.622913 -2.002517 -33.069827 34.499623 -0.205171 2.852687 0.068833 -0.012928 -248556.000000 0 0 1
9.548213 -1.100417 -31.946697 33.361216 -0.114742 2.849349 0.072994 -0.014108 656240.000000 0 0 1
8.082413 -0.796217 -31.492177 32.522555 -0.098196 2.889201 0.085877 -0.014922 962479.000000 0 0 1
7.317113 0.101983 -32.316107 33.134292 0.013937 2.918903 0.076013 -0.011479 973133.000000 0 0 1
5.899113 0.032483 -32.090317 32.628040 0.005506 2.959791 0.092682 -0.015873 743883.000000 0 0 1
5.142413 0.970783 -32.987257 33.399790 0.186584 2.984259 0.105668 -0.020392 -85560.900000 0 0 1
5.634613 2.315683 -32.904247 33.463423 0.389931 2.958525 0.086196 -0.025203 -25800.900000 0 0 1
5.032313 3.049483 -33.919897 34.426486 0.544805 2.969829 0.091806 -0.027721 10916.000000 0 0 1
5.618913 4.455383 -33.913267 34.663126 0.670413 2.933212 0.081297 -0.030215 49965.300000 0 0 1
5.390313 5.188283 32.803089 33.645452 0.766302 0.224239 0.097929 -0.036657 -197188.000000 0 0 1
6.251713 6.291083 32.740549 33.920572 0.788537 0.264543 0.090460 -0.039972 -130208.000000 0 0 1
5.725513 7.454483 31.823858 33.182958 0.915835 0.287195 0.110100 -0.039716 22395.000000 0 0 1
4.475213 7.955583 32.298557 33.563605 1.058388 0.275428 0.120751 -0.042392 224222.000000 0 0 1
4.042413 9.118483 31.636748 33.171850 1.153511 0.305413 0.129425 -0.036962 22418.600000 0 0 1
3.799013 9.150183 30.132278 31.719276 1.177269 0.317665 0.114812 -0.031290 102462.000000 0 0 1
2.553313 8.537383 29.811538 31.114853 1.280189 0.290458 0.125257 -0.039321 187948.000000 0 0 1
2.326813 8.602883 28.373258 29.739963 1.306647 0.304340 0.101211 -0.025585 -230607.000000 0 0 1
1.074013 7.895583 27.880378 28.996710 1.435599 0.278382 0.107147 -0.025744 684120.000000 0 0 1
-0.169987 8.495683 28.296728 29.545056 -1.550790 0.291728 0.104452 -0.021162 885387.000000 0 0 1
-1.281287 8.069183 27.519138 28.706381 -1.413323 0.288605 0.094834 -0.020086 2721760.000000 0 0 1
-2.762587 8.427983 28.084448 29.451638 -1.254045 0.305893 0.082864 -0.018138 2081630.000000 0 0 1
-2.991487 9.811283 28.328748 30.128528 -1.274848 0.347394 0.090039 -0.017389 -523409.000000 0 0 1
-4.321287 9.929483 28.749588 30.721441 -1.160320 0.360232 0.070547 -0.008074 -449719.000000 0 0 1
-4.566287 11.244683 29.501758 31.900589 -1.185056 0.390279 0.069515 -0.010718 -409663.000000 0 0 1
-4.478887 12.516583 28.851058 31.766473 -1.227158 0.431777 0.057552 -0.020442 154925.000000 0 0 1
-5.545087 12.647083 27.942658 31.168715 -1.157591 0.458998 0.042038 -0.023037 -188105.000000 0 0 1
-5.775987 14.149983 27.645188 31.588612 -1.183243 0.505024 0.031069 -0.019518 -263222.000000 0 0 1
-4.802087 14.723883 26.827878 30.977214 -1.255531 0.523546 0.024167 -0.012263 -163616.000000 0 0 1
-5.230087 16.002483 26.355448 31.273677 -1.254910 0.568451 0.035273 -0.008511 -146814.000000 0 0 1
-4.075587 16.706183 25.671538 30.898783 -1.331513 0.590205 0.055405 -0.013996 -540992.000000 0 0 1
-3.914887 16.175483 24.348808 29.492999 -1.333337 0.599568 0.034679 0.001703 157758.000000 0 0 1
-2.884287 16.847683 23.620198 29.156084 -1.401242 0.626424 0.038744 -0.005331 198567.000000 0 0 1
-2.915887 16.613683 22.139338 27.832842 -1.397055 0.651064 0.047326 -0.011955 -268927.000000 0 0 1
-2.376887 15.397483 21.680638 26.697979 -1.417637 0.623105 0.034427 -0.013435 -10102.400000 0 0 1
-2.497487 15.229683 20.302638 25.502505 -1.408255 0.649967 0.039721 -0.015123 -159357.000000 0 0 1
-1.460587 14.243583 19.771238 24.411366 -1.468610 0.626782 0.034874 -0.011415 -258469.000000 0 1 0
-1.840887 12.850583 19.984338 23.830654 -1.428511 0.576092 0.037719 -0.010093 -133756.000000 0 1 0
-1.028087 11.942583 19.308938 22.727017 -1.484922 0.555565 0.039632 -0.009260 -630505.000000 0 1 0
-1.675487 10.585483 19.064038 21.870007 -1.413817 0.512140 0.020112 -0.013723 -754702.000000 0 1 0
-1.681787 9.704983 20.190438 22.464836 -1.399209 0.453869 0.029855 -0.023557 442529.000000 0 1 0
-2.702587 9.956883 21.158538 23.539907 -1.305753 0.453688 0.050661 -0.018559 1602610.000000 0 1 0
-4.251587 9.974183 20.812938 23.467822 -1.167860 0.480268 0.046341 -0.017480 902150.000000 0 1 0
-4.946387 8.760483 20.728638 23.041033 -1.056794 0.451852 0.051009 -0.027380 -274679.000000 0 1 0
-6.319187 9.024383 20.900138 23.625989 -0.959913 0.485107 0.051705 -0.022005 -175411.000000 0 1 0
-7.201187 7.790083 20.790438 23.340625 -0.824661 0.471825 0.060327 -0.024702 -216721.000000 0 1 0
-7.085387 6.991283 21.940138 24.092538 -0.778713 0.425915 0.059788 -0.030158 -120692.000000 0 1 0
-7.776687 5.797983 21.760838 23.824935 -0.640653 0.419325 0.052055 -0.030163 -15596.100000 0 1 0
-7.905187 4.968083 23.089878 24.906149 -0.561083 0.384262 0.052196 -0.036012 -132774.000000 0 1 0
-8.732487 5.614983 24.035108 26.181496 -0.571438 0.407741 0.041469 -0.020717 33436.900000 0 0 1
-8.835287 4.756383 25.109098 27.039827 -0.493847 0.380183 0.037928 -0.009020 6861.010000 0 0 1
-9.863187 5.230783 26.167328 28.449474 -0.487619 0.403271 0.035993 -0.004463 -53504.700000 0 0 1
-9.430087 6.392583 26.872008 29.187265 -0.595734 0.400988 0.036476 -0.002366 624275.000000 0 0 1
-10.430287 6.911783 27.800578 30.486648 -0.585227 0.422922 0.044687 -0.005024 791951.000000 0 0 1
-9.882087 8.105683 28.629278 31.352723 -0.686961 0.419886 0.049469 -0.008321 13606.300000 0 0 1
-8.924887 7.720783 29.583988 31.850846 -0.713187 0.379557 0.055581 -0.010865 -88382.600000 0 0 1
-8.754487 8.868183 30.422968 32.876172 -0.791850 0.388758 0.050896 -0.011370 260005.000000 0 0 1
-7.667887 8.614383 31.529488 33.572499 -0.843463 0.350660 0.061645 -0.011303 966503.000000 0 0 1
-6.348687 8.327483 31.071128 32.788226 -0.919420 0.325063 0.064857 -0.009374 259995.000000 0 0 1
-5.662487 7.426283 31.948957 33.285872 -0.919348 0.284382 0.103103 -0.010930 830220.000000 0 0 1
-4.123787 7.366283 31.688538 32.793767 -1.060446 0.260359 0.080887 -0.012939 768676.000000 0 0 1
-3.464287 8.633483 31.824298 33.156059 -1.189203 0.284388 0.069440 -0.017290 620786.000000 0 0 1
-2.037087 8.416083 31.770538 32.929428 -1.333317 0.266088 0.091108 -0.027267 1376110.000000 0 0 1
-1.298487 9.722483 31.249728 32.752988 -1.438027 0.304146 0.098416 -0.028126 151717.000000 0 0 1
-1.318987 10.838383 32.106042 33.911770 -1.449696 0.327802 0.103133 -0.038812 -44006.100000 0 0 1
-1.569987 12.026283 31.383608 33.645611 -1.440984 0.368775 0.085522 -0.031686 -242808.000000 0 0 1
-1.787087 13.264183 32.245539 34.912848 -1.436873 0.393427 0.087287 -0.044521 55598.100000 0 0 1
-0.631287 13.658083 32.968871 35.691570 -1.524608 0.393126 0.119556 -0.038588 40753.000000 0 0 1
-0.940387 14.663983 33.925558 36.971072 -1.506755 0.408735 0.117005 -0.038779 -128351.000000 0 0 1
0.261813 15.182983 -33.149577 36.462117 1.553554 2.712038 0.085208 -0.035842 -530050.000000 0 0 1
1.234313 15.746983 33.909068 37.407430 1.492572 0.435926 0.088126 -0.034027 511317.000000 0 0 1
2.440613 16.047983 -33.230477 36.983225 1.419871 2.687201 0.104505 -0.034068 1139890.000000 0 0 1
3.538513 16.828483 33.864738 37.980776 1.363546 0.469867 0.104898 -0.024510 512426.000000 0 0 1
3.234213 18.203783 33.875468 38.592553 1.394964 0.499604 0.078929 -0.018603 573364.000000 0 0 1
4.360513 18.865583 33.272200 38.496280 1.343649 0.527046 0.055937 0.000347 750378.000000 0 0 1
4.205913 20.436183 33.217149 39.226346 1.367823 0.560843 0.053631 -0.014036 -81068.700000 0 0 1
4.289713 20.987983 -33.381277 39.663670 1.369184 2.571051 0.073956 -0.033978 92567.700000 0 0 1
4.015413 22.422483 -33.382177 40.413624 1.393595 2.542793 0.066515 -0.027977 143679.000000 0 0 1
3.911613 23.070583 -32.024737 39.662782 1.402844 2.510571 0.082834 -0.028495 555.228000 0 0 1
3.721013 24.475883 -32.098827 40.537013 1.419924 2.484612 0.090181 -0.035096 125664.000000 0 0 1
3.379613 24.888083 -30.810937 39.751129 1.435829 2.457663 0.102842 -0.041885 -461851.000000 0 0 1
2.999013 26.321583 -30.819897 40.640938 1.457348 2.431568 0.107418 -0.050025 48665.600000 0 0 1
4.040113 27.294583 -30.981907 41.487291 1.423844 2.414005 0.102182 -0.051304 211372.000000 0 0 1
3.552313 28.543983 -30.565587 41.971812 1.446982 2.386548 0.093939 -0.050154 -674754.000000 0 0 1
4.565613 29.639883 -30.284007 42.620283 1.417961 2.361081 0.112771 -0.051082 -186279.000000 0 0 1
5.353313 29.232083 -29.153027 41.630176 1.389672 2.346594 0.099248 -0.055624 212981.000000 0 0 1
6.126513 30.317083 -28.628457 42.145560 1.371400 2.317572 0.103441 -0.054758 -816078.000000 0 0 1
7.250813 29.847983 -27.713157 41.370224 1.332488 2.304846 0.103832 -0.056559 138280.000000 0 0 1
8.452013 29.384283 -28.346717 41.694231 1.290720 2.318384 0.103473 -0.051104 968993.000000 0 0 1
9.548113 30.267783 -28.572767 42.704896 1.265222 2.303759 0.104893 -0.047973 222064.000000 0 0 1
9.348013 31.494983 -29.483717 44.143050 1.282269 2.302197 0.123305 -0.054245 -1028500.000000 0 0 1
8.720113 32.546183 -28.722607 44.275078 1.309014 2.276712 0.116166 -0.050177 352619.000000 0 0 1
8.432313 33.763083 -29.511027 45.628394 1.326053 2.274137 0.110024 -0.044658 -724756.000000 0 0 1
7.249513 33.787083 -30.464587 46.067488 1.359436 2.293351 0.090641 -0.035628 -592212.000000 0 0 1
7.388313 32.915483 -31.558307 46.194620 1.349993 2.322877 0.082644 -0.035275 -373289.000000 0 0 1
6.271413 33.117083 -32.348927 46.717500 1.383642 2.335658 0.083733 -0.031058 -646128.000000 0 0 1
6.337813 32.316883 -33.668207 47.096676 1.377139 2.367241 0.094624 -0.040006 118643.000000 0 0 1
7.090813 32.865083 33.125719 47.198586 1.358298 0.792823 0.104058 -0.041275 289013.000000 0 0 1
7.058813 31.991483 32.038018 45.822662 1.353629 0.796555 0.102917 -0.038785 -543402.000000 0 0 1
6.493013 32.632583 30.751108 45.306460 1.374388 0.824757 0.099861 -0.041975 -44451.000000 0 0 1
7.281713 33.655483 30.155068 45.771639 1.357720 0.851553 0.105370 -0.040372 143731.000000 0 0 1
6.647213 -33.512142 29.066518 44.856566 -1.374986 0.865856 0.086375 -0.049807 -358231.000000 0 0 1
18.047679 -21.817217 29.076638 40.585226 -0.879676 0.772119 0.098223 -0.010679 -393815.000000 0 0 1
17.215879 -20.746017 29.507928 39.968757 -0.878123 0.740287 0.105852 -0.009750 670056.000000 0 0 1
15.848879 -21.113817 29.721418 39.753527 -0.926886 0.726292 0.123273 -0.007574 579903.000000 0 0 1
15.563879 -21.724317 31.121568 41.021120 -0.949131 0.709524 0.112754 -0.018064 -770654.000000 0 0 1
16.405479 -22.787317 31.455588 42.164625 -0.946813 0.728733 0.112228 -0.024722 -41042.700000 0 0 1
16.196079 -23.180617 32.787055 43.297171 -0.960950 0.711694 0.099806 -0.029541 -331460.000000 0 0 1
17.196879 -24.200317 33.301059 44.613322 -0.952988 0.728104 0.100589 -0.033006 -346947.000000 0 0 1
16.923979 -25.568417 33.061848 45.091583 -0.986094 0.747758 0.112617 -0.038351 -5710.830000 0 0 1
17.903579 -26.281997 33.785853 46.397903 -0.972792 0.755139 0.120688 -0.042349 29006.900000 0 0 1
17.638879 -27.783137 33.773666 47.156052 -1.005126 0.772439 0.113780 -0.031517 -10269.000000 0 0 1
18.026179 -28.414077 32.582570 46.839372 -1.005459 0.801509 0.106575 -0.033472 42657.600000 0 0 1
17.535279 -29.720917 32.493447 47.398766 -1.037764 0.815460 0.109939 -0.039667 -73557.200000 0 0 1
18.022079 -30.460407 31.214148 47.190622 -1.036535 0.848048 0.110305 -0.034393 1448370.000000 0 0 1
19.378279 -30.942487 31.419418 48.167780 -1.011286 0.860193 0.117910 -0.041120 1076580.000000 0 0 1
20.026679 -31.402517 30.235718 47.972749 -1.003087 0.888897 0.088439 -0.032201 276094.000000 0 0 1
21.485079 -31.912647 30.417328 49.043241 -0.978252 0.901780 0.082202 -0.030919 440049.000000 0 0 1
22.481679 -30.947297 30.730398 49.066470 -0.942538 0.893997 0.082998 -0.030280 975240.000000 0 0 1
23.778979 -31.556207 30.562568 49.953024 -0.925031 0.912429 0.066043 -0.024902 519252.000000 0 0 1
24.903979 -30.514377 30.689798 49.931945 -0.886292 0.908876 0.063349 -0.026404 12327.000000 0 0 1
26.104379 -30.877627 30.023038 50.361188 -0.868971 0.932094 0.072264 -0.022380 -112455.000000 0 0 1
26.864979 -29.706687 29.908668 49.987426 -0.835588 0.929389 0.066660 -0.012795 -540529.000000 0 0 1
27.984079 -29.700107 28.892058 49.999561 -0.815138 0.954709 0.052917 -0.010912 -736920.000000 0 0 1
29.059179 -30.504177 29.264858 51.296907 -0.809653 0.963682 0.031867 -0.013181 -307513.000000 0 0 1
30.044879 -30.522517 28.228658 51.294990 -0.793284 0.988049 0.023074 -0.021752 327536.000000 0 0 1
31.183479 -31.472587 28.627468 52.749076 -0.790012 0.997136 0.018386 -0.028875 156193.000000 0 0 1
30.577979 -32.794607 28.745388 53.261585 -0.820362 1.000713 0.012754 -0.019598 1079100.000000 0 0 1
31.527879 -33.692947 29.367678 54.696274 -0.818582 1.004011 0.019982 -0.013829 -194799.000000 0 0 1
30.786979 32.877884 29.931498 54.080384 0.818229 0.984280 0.015853 -0.015371 412.167000 0 0 1
30.009479 33.135688 31.083178 54.449119 0.834866 0.963236 0.018569 -0.015400 1632170.000000 0 0 1
28.831679 -33.790907 31.048268 54.194890 -0.864426 0.960756 0.009850 -0.005743 803021.000000 0 0 1
27.659879 33.620237 30.178188 52.972750 0.882357 0.964664 0.030231 -0.015071 -1018460.000000 0 0 1
27.048979 32.450653 30.646318 52.190889 0.875935 0.943205 0.034294 -0.010114 1300070.000000 0 0 1
25.659879 32.482153 30.164058 51.219040 0.902202 0.941071 0.044810 -0.011080 1961420.000000 0 0 1
25.084779 31.016257 30.107238 49.976996 0.890735 0.924264 0.063789 -0.022294 95561.400000 0 0 1
25.298179 30.315277 28.919688 48.942438 0.875368 0.938632 0.069347 -0.027754 39121.900000 0 0 1
24.540279 29.128247 28.932058 47.830367 0.870678 0.921170 0.098582 -0.041357 -287042.000000 0 0 1
23.999379 28.600557 27.605128 46.432802 0.872651 0.934130 0.104310 -0.039532 -744173.000000 0 0 1
22.766679 29.186427 27.354598 46.026549 0.908343 0.934374 0.121884 -0.042919 -710469.000000 0 0 1
22.341079 28.866007 26.000628 44.815207 0.912138 0.951854 0.121596 -0.039547 -50561.400000 0 0 1
20.918779 29.386907 25.756668 44.323713 0.952168 0.950712 0.107851 -0.039752 -233015.000000 0 0 1
20.874479 30.763487 25.507668 45.086330 0.974614 0.969452 0.122251 -0.037480 -417537.000000 0 0 1
19.524979 31.135737 25.484508 44.722691 1.010694 0.964493 0.101384 -0.028063 -429505.000000 0 0 1
19.409579 32.667530 25.073428 45.525554 1.034686 0.987528 0.105063 -0.023807 -223287.000000 0 0 1
19.795379 32.939627 23.707028 45.154172 1.029672 1.018053 0.106393 -0.023907 846857.000000 0 0 1
21.182879 33.257516 23.530208 45.917833 1.003660 1.032771 0.115920 -0.025812 704467.000000 0 0 1
21.672179 33.651902 22.061338 45.703791 0.998643 1.067058 0.122980 -0.030385 93834.900000 0 0 1
21.333379 -32.876377 21.510938 44.706708 -0.995197 1.068822 0.102911 -0.022124 229471.000000 0 0 1
21.681679 -32.782037 20.150938 44.168060 -0.986456 1.097039 0.108413 -0.022816 -180045.000000 0 0 1
21.377979 -31.401197 19.521538 42.709995 -0.973072 1.096096 0.121839 -0.019659 -171212.000000 0 0 1
22.002079 -30.302927 20.193738 42.545810 -0.942786 1.076247 0.122233 -0.015867 236547.000000 0 0 1
21.977479 -29.091307 19.482638 41.338686 -0.923806 1.080040 0.114424 -0.025809 -545994.000000 0 0 1
22.866579 -28.867357 18.269438 41.109331 -0.900875 1.110280 0.092215 -0.023548 -787577.000000 0 0 1
22.498579 -29.450647 17.019338 40.782160 -0.918432 1.140299 0.066709 -0.025947 169306.000000 0 0 1
23.144979 -28.856697 15.926338 40.274648 -0.894797 1.164246 0.059377 -0.019524 -406533.000000 0 0 1
22.778879 -29.477867 14.609438 40.015718 -0.912897 1.197064 0.037365 -0.024593 -436730.000000 0 0 1
23.419379 -30.707097 14.440238 41.230009 -0.919236 1.212973 0.070513 -0.024071 -51901.500000 0 0 1
23.571979 -31.159127 13.072738 41.199829 -0.923146 1.247915 0.071603 -0.027878 625082.000000 0 0 1
22.292479 -31.521627 12.213938 40.493801 -0.955246 1.264400 0.061778 -0.027209 702419.000000 0 0 1
21.453479 -32.580817 12.619638 41.000204 -0.988490 1.257922 0.059996 -0.031802 -495351.000000 0 0 1
20.242479 -32.590887 11.963138 40.187568 -1.015000 1.268532 0.071035 -0.021388 -546548.000000 0 0 1
19.103679 -33.369347 12.672738 40.485333 -1.050849 1.252425 0.078611 -0.020169 157855.000000 0 0 1
18.558379 -32.705437 13.781238 40.049739 -1.054662 1.219513 0.065022 -0.015419 416196.000000 0 0 1
19.150879 -33.216457 14.981938 41.164884 -1.047800 1.198292 0.056000 -0.020684 -492409.000000 0 0 1
18.907179 -32.159327 16.067738 40.618665 -1.039305 1.164102 0.057871 -0.022151 151036.000000 0 0 1
17.615379 -31.734117 16.496738 39.868511 -1.064052 1.144196 0.050423 -0.027862 105898.000000 0 0 1
16.800179 -32.718387 17.070238 40.547897 -1.096424 1.136260 0.054197 -0.015593 -953945.000000 0 0 1
17.187079 -33.375257 18.420538 41.816501 -1.095249 1.114631 0.044773 -0.019561 -596963.000000 0 0 1
17.937379 33.285806 18.256938 41.988215 1.076523 1.120968 0.050481 -0.013834 -202950.000000 0 0 1
18.222479 32.780114 19.534438 42.286983 1.063434 1.090605 0.045632 -0.016277 111875.000000 0 0 1
19.151979 31.540207 19.443238 41.708781 1.025082 1.085844 0.068985 -0.018198 -70926.300000 0 0 1
18.498079 30.334397 19.075638 40.326598 1.023198 1.078071 0.046699 -0.017300 -389855.000000 0 0 1
19.376879 29.246707 18.909438 39.854738 0.985662 1.076447 0.054698 -0.023127 -276296.000000 0 0 1
18.739979 27.858917 18.654838 38.409752 0.978646 1.063656 0.054716 -0.017655 38987.800000 0 0 1
18.193879 27.217067 19.791738 38.255703 0.981544 1.027040 0.063826 -0.027742 45947.400000 0 0 1
17.921379 25.852037 19.510738 37.015842 0.964629 1.015622 0.061417 -0.027180 -641424.000000 0 0 1
17.681579 24.935777 20.747638 36.944495 0.953999 0.974491 0.068170 -0.021802 -316506.000000 0 0 1
16.432279 25.006787 21.383238 36.777738 0.989437 0.950326 0.077124 -0.023715 -702178.000000 0 0 1
15.564379 24.098637 20.770138 35.417408 0.997336 0.944141 0.070296 -0.025816 291810.000000 0 0 1
14.142079 24.227247 21.462138 35.321116 1.042429 0.917724 0.096955 -0.040019 834634.000000 0 0 1
13.456479 25.436197 21.119438 35.694644 1.084196 0.937668 0.085744 -0.035763 116872.000000 0 0 1
12.214379 25.666767 21.759638 35.797427 1.126628 0.917440 0.087824 -0.041662 355958.000000 0 0 1
11.419379 26.718357 20.895738 35.789728 1.166896 0.947337 0.066557 -0.036636 -184526.000000 0 0 1
11.786179 28.039457 21.213538 37.082871 1.172877 0.961784 0.052675 -0.035669 -138516.000000 0 0 1
11.449079 29.033087 20.202438 37.177144 1.195174 0.996302 0.053867 -0.036690 21772.500000 0 0 1
12.029379 30.505127 20.280338 38.555944 1.195179 1.016909 0.046926 -0.031363 -110280.000000 0 0 1
11.403979 31.310007 21.244038 39.518052 1.221503 1.003234 0.048453 -0.030537 -147920.000000 0 0 1
11.983079 31.113377 22.524738 40.236802 1.203164 0.976647 0.040660 -0.023197 -108415.000000 0 0 1
11.462579 32.016330 23.663528 41.429442 1.226992 0.962858 0.045690 -0.020816 522397.000000 0 0 1
10.167579 31.642307 24.135258 41.074638 1.259889 0.942713 0.050969 -0.028254 211996.000000 0 0 1
9.833279 32.460378 25.200888 42.254636 1.276652 0.931781 0.047025 -0.027289 -747536.000000 0 0 1
8.491479 32.053067 25.844508 42.040967 1.311826 0.908733 0.125222 -0.053404 82857.400000 0 0 1
7.340879 32.802523 25.431158 42.150182 1.350634 0.923106 0.122818 -0.053624 684916.000000 0 0 1
6.820579 32.435026 24.111838 40.986972 1.363532 0.941865 0.123294 -0.055565 167317.000000 0 0 1
5.907379 31.116987 24.140298 39.823586 1.383185 0.919546 0.127876 -0.057800 116806.000000 0 0 1
6.602079 29.965867 24.574938 39.312443 1.353941 0.895513 0.091180 -0.049929 -439460.000000 0 0 1
5.932379 28.761077 24.197228 38.051261 1.367385 0.881608 0.092110 -0.047922 -948479.000000 0 0 1
6.846879 27.555557 24.325948 37.389038 1.327253 0.862400 0.084640 -0.045725 -110150.000000 0 0 1
7.859279 27.445377 23.311778 36.857237 1.291899 0.886035 0.070383 -0.045533 293618.000000 0 0 1
8.913179 28.385467 23.308098 37.794800 1.266541 0.906251 0.087516 -0.044783 -672607.000000 0 0 1
10.099579 27.905837 24.187048 38.285121 1.223545 0.886973 0.084364 -0.051994 -755456.000000 0 0 1
9.844779 28.028427 25.576308 39.200254 1.233015 0.859980 0.085009 -0.046103 241850.000000 0 0 1
10.912079 27.652667 26.443488 39.786951 1.194943 0.843802 0.080321 -0.028166 543058.000000 0 0 1
12.017179 28.705477 26.732058 41.024626 1.174327 0.861091 0.063253 -0.028489 115306.000000 0 0 1
11.474579 29.776317 27.426878 42.077650 1.202975 0.860820 0.066042 -0.035930 529797.000000 0 0 1
12.480379 30.790907 27.455188 43.100199 1.185706 0.880185 0.056736 -0.025798 497263.000000 0 0 1
11.976279 32.050275 28.292178 44.397057 1.213191 0.879867 0.056542 -0.033461 151315.000000 0 0 1
11.871479 31.914661 29.676658 45.168369 1.214680 0.853933 0.067285 -0.047747 832021.000000 0 0 1
10.567879 31.424777 30.037408 44.737485 1.246386 0.834680 0.097874 -0.048296 551240.000000 0 0 1
10.463079 31.214717 31.606008 45.637422 1.247369 0.805784 0.129142 -0.049880 -587675.000000 0 0 1
11.041079 30.022387 32.054817 45.285322 1.218387 0.784359 0.106014 -0.049791 28639.200000 0 0 1
11.221479 29.976607 33.461753 46.305588 1.212603 0.763198 0.122078 -0.045165 -236886.000000 0 0 1
11.367479 28.532127 -33.876787 45.726781 1.191662 2.405135 0.118519 -0.046222 59561.000000 0 0 1
12.489979 27.811987 33.509638 45.303444 1.148703 0.738215 0.122017 -0.042189 163651.000000 0 0 1
12.362579 26.476547 33.931208 44.779099 1.133956 0.710943 0.121094 -0.039578 -599117.000000 0 0 1
13.546179 25.692597 33.402491 44.264375 1.085594 0.715732 0.122011 -0.037190 -434451.000000 0 0 1
13.696779 24.370487 33.879128 43.923999 1.058769 0.689896 0.104752 -0.029037 -17451.300000 0 0 1
13.875479 24.194927 -32.642927 42.935813 1.050100 2.434529 0.107763 -0.033944 -421413.000000 0 0 1
13.792079 22.694807 -32.341197 41.847685 1.024720 2.454087 0.093233 -0.046752 1513680.000000 0 0 1
15.045379 22.033307 -32.749337 42.241557 0.971675 2.457966 0.098952 -0.034931 1634530.000000 0 0 1
14.927579 20.626507 -32.703277 41.446227 0.944335 2.480063 0.104413 -0.032958 1252590.000000 0 0 1
16.363079 20.000207 -32.952127 41.876023 0.885089 2.476561 0.129782 -0.044246 1270970.000000 0 0 1
17.357879 20.339407 -32.019537 41.716162 0.864325 2.445818 0.109301 -0.043983 -379269.000000 0 0 1
18.606279 19.835507 -32.406147 42.306020 0.817364 2.443382 0.109427 -0.037989 -358668.000000 0 0 1
19.737579 20.187807 -31.432857 42.250965 0.796674 2.409767 0.078409 -0.034105 -370170.000000 0 0 1
20.369379 21.415607 -31.721097 43.356289 0.810431 2.391518 0.070244 -0.039225 190808.000000 0 0 1
21.395779 21.777907 -30.787647 43.358226 0.794249 2.360403 0.050812 -0.027669 385146.000000 0 0 1
20.999279 22.328707 -29.379027 42.457839 0.816071 2.334994 0.054343 -0.036651 -318188.000000 0 0 1
20.148779 23.425407 -29.373197 42.632238 0.860453 2.330891 0.043039 -0.021077 -445024.000000 0 0 1
19.848679 23.909567 -28.100117 41.895752 0.877936 2.305969 0.044701 -0.008299 273124.000000 0 0 1
20.932279 24.710317 -27.277037 42.341431 0.867984 2.270794 0.042503 -0.016741 310896.000000 0 0 1
21.586779 25.749387 -27.993177 43.733716 0.873110 2.265402 0.031610 -0.001473 -300137.000000 0 0 1
20.792279 26.879487 -28.311067 44.230557 0.912401 2.265398 0.040364 -0.002237 -492848.000000 0 0 1
21.485279 27.820517 -29.323047 45.775970 0.913187 2.266046 0.038174 0.000038 -537092.000000 0 0 1
21.613079 27.556097 -30.692027 46.566771 0.905683 2.290414 0.049578 -0.002144 112981.000000 0 0 1
22.258579 26.350087 -31.080237 46.430082 0.869373 2.304195 0.058253 -0.002793 783246.000000 0 0 1
23.674679 26.030017 -30.476887 46.549896 0.832749 2.284601 0.068857 -0.014330 128820.000000 0 0 1
24.748979 26.889307 -30.811407 47.800519 0.826823 2.271274 0.063693 -0.013744 368913.000000 0 0 1
25.899479 26.652777 -29.984287 47.751555 0.799731 2.249678 0.097390 -0.032604 -221169.000000 0 0 1
27.074279 27.375507 -30.579877 49.168728 0.790930 2.242011 0.087946 -0.020993 -995543.000000 0 0 1
27.188979 28.717617 -30.207977 49.764083 0.812734 2.223106 0.059786 -0.009471 788384.000000 0 0 1
28.459279 29.335707 -30.513447 51.005732 0.800561 2.212094 0.058935 -0.013413 944477.000000 0 0 1
28.641579 30.635977 -29.710097 51.396430 0.819031 2.187143 0.045273 0.005808 100398.000000 0 0 1
29.150079 30.448497 -28.401887 50.828194 0.807181 2.163713 0.066152 0.000333 261671.000000 0 0 1
28.785679 31.578957 -27.594937 50.865768 0.831639 2.144213 0.047813 0.001404 -531550.000000 0 0 1
29.197079 31.409497 -26.119317 50.211997 0.821887 2.117859 0.061710 0.003125 242169.000000 0 0 1
28.507679 30.467537 -25.286567 48.789026 0.818618 2.115639 0.042845 0.006583 -22610.800000 0 0 1
27.103779 30.432727 -25.310187 47.972610 0.843192 2.126565 0.032773 0.009133 -508009.000000 0 0 1
26.449479 29.917897 -24.004987 46.592863 0.846853 2.112046 0.029044 0.014527 -152517.000000 0 0 1
26.343979 31.012317 -23.088887 46.785315 0.866611 2.086914 0.058272 -0.000345 234829.000000 0 0 1
25.708879 30.563757 -21.888287 45.543241 0.871459 2.072140 0.032477 0.002749 255412.000000 0 0 1
3.525879 -26.013707 -19.476087 32.687349 -1.436078 2.209094 0.085791 -0.016774 -264203.000000 0 0 1
3.372379 -27.144787 -18.669787 33.117569 -1.447193 2.169707 0.092389 -0.016184 228416.000000 0 0 1
3.429579 -26.739107 -17.300387 32.031941 -1.443232 2.141350 0.106744 -0.019011 -107655.000000 0 0 1
3.323679 -27.888097 -16.211987 32.428712 -1.452177 2.094311 0.091360 -0.018247 233616.000000 0 0 1
4.433079 -28.772217 -16.262787 33.346228 -1.417923 2.080244 0.087626 -0.022264 119626.000000 0 0 1
4.436779 -29.540307 -15.027787 33.438737 -1.421717 2.036904 0.088019 -0.028680 258495.000000 0 0 1
5.831979 -30.153667 -14.736887 34.065106 -1.379747 2.018181 0.111220 -0.032846 660538.000000 0 0 1
6.810179 -29.138277 -14.374387 33.196999 -1.341198 2.018618 0.092852 -0.028520 998312.000000 0 0 1
8.148779 -29.660717 -14.305787 33.923684 -1.302678 2.006121 0.087312 -0.029392 985017.000000 0 0 1
8.526979 -30.350997 -12.933287 34.075832 -1.296911 1.960100 0.075142 -0.037907 -855222.000000 0 0 1
8.698079 -29.475347 -11.850087 32.937475 -1.283844 1.938823 0.075829 -0.033528 80474.800000 0 0 1
8.973579 -30.121417 -10.605087 33.170662 -1.281255 1.896223 0.084948 -0.031136 622129.000000 0 0 1
10.368479 -30.809847 -10.432787 34.140813 -1.246170 1.881345 0.068748 -0.029330 929422.000000 0 0 1
11.462079 -30.266337 -9.664387 33.776187 -1.208779 1.860982 0.076541 -0.031033 219606.000000 0 0 1
12.424479 -31.270457 -9.650087 35.004762 -1.192600 1.850093 0.075433 -0.029486 -1085690.000000 0 0 1
13.683379 -30.875477 -8.890887 34.922455 -1.153629 1.828219 0.089070 -0.030581 -727334.000000 0 0 1
14.589879 -30.163087 -9.710487 34.885097 -1.120274 1.852879 0.092222 -0.039998 -578908.000000 0 0 1
15.680279 -29.863507 -8.929187 34.891698 -1.087298 1.829587 0.091938 -0.034068 -798305.000000 0 0 1
16.797079 -29.026367 -9.594287 34.881546 -1.046198 1.849442 0.098552 -0.040871 -20552.600000 0 0 1
16.580179 -27.612087 -9.671687 33.628429 -1.030033 1.862521 0.103407 -0.041385 120488.000000 0 0 1
15.866679 -27.186237 -10.811587 33.282630 -1.042501 1.901641 0.089880 -0.040706 -383155.000000 0 0 1
15.498579 -25.691747 -10.791987 31.886342 -1.027990 1.916067 0.089862 -0.040939 -583966.000000 0 0 1
14.388779 -25.304857 -9.988087 30.775553 -1.053772 1.901328 0.074492 -0.035210 353821.000000 0 0 1
13.937679 -24.008917 -10.243987 29.590983 -1.044823 1.924299 0.066264 -0.019785 194484.000000 0 0 1
13.417079 -23.642817 -11.674687 29.585455 -1.054624 1.976439 0.048289 -0.016648 59267.100000 0 0 1
14.508279 -23.416317 -12.585087 30.285285 -1.016104 1.999345 0.052774 -0.020313 244937.000000 0 0 1
14.034879 -23.354617 -13.892587 30.584636 -1.029681 2.042309 0.065420 -0.022488 271483.000000 0 0 1
14.937879 -22.707717 -15.016287 31.052690 -0.988934 2.075530 0.057841 -0.028493 202772.000000 0 0 1
15.952379 -23.510617 -15.557687 32.392424 -0.974634 2.071779 0.059185 -0.030367 -18255.700000 0 0 1
16.490479 -22.997317 -16.755087 32.886858 -0.948712 2.105373 0.069464 -0.030244 -869704.000000 0 0 1
17.395579 -24.019917 -17.454087 34.412320 -0.944003 2.102734 0.072070 -0.024507 1182590.000000 0 0 1
18.670779 -24.254617 -16.814187 34.922791 -0.914754 2.073125 0.083583 -0.023401 1093930.000000 0 0 1
19.681279 -23.255217 -16.863987 34.821717 -0.868444 2.076354 0.087605 -0.026504 -699179.000000 0 0 1
21.046879 -23.674317 -16.363887 35.654190 -0.844082 2.047622 0.075314 -0.022399 -273685.000000 0 0 1
21.787079 -24.485817 -17.258187 37.041559 -0.843654 2.055464 0.088297 -0.022999 665575.000000 0 0 1
23.114479 -24.861317 -16.852987 37.899702 -0.821793 2.031606 0.099225 -0.015641 927848.000000 0 0 1
23.703379 -25.822887 -17.903787 39.360098 -0.828168 2.043024 0.078581 -0.011268 -325628.000000 0 0 1
24.049179 -25.247957 -19.127287 39.770284 -0.809711 2.072528 0.095539 -0.012888 -2092.140000 0 0 1
24.402979 -26.237307 -20.079587 41.074220 -0.821605 2.081580 0.083245 -0.014336 7646.080000 0 0 1
25.911779 -26.128267 -20.474287 42.110605 -0.789558 2.078535 0.084622 -0.026812 426266.000000 0 0 1
26.149279 -25.103587 -21.406487 42.097655 -0.764998 2.104233 0.097014 -0.034832 -145178.000000 0 0 1
26.484879 -23.840717 -20.820187 41.271162 -0.732905 2.099568 0.107210 -0.028484 -1116580.000000 0 0 1
25.404979 -22.759417 -20.706187 39.901757 -0.730526 2.116394 0.118138 -0.021807 -373336.000000 0 0 1
24.980579 -22.078217 -21.908587 39.893147 -0.723801 2.152181 0.126918 -0.020759 168306.000000 0 0 1
24.461779 -22.901417 -22.934887 40.606189 -0.752465 2.171002 0.096477 -0.025495 -604176.000000 0 0 1
23.672579 -22.188917 -24.066687 40.397333 -0.753059 2.208995 0.088044 -0.022588 76336.000000 0 0 1
24.473579 -21.386617 -24.915787 40.952899 -0.718187 2.224841 0.089518 -0.013555 -796503.000000 0 0 1
23.730279 -20.639917 -25.781927 40.667433 -0.715861 2.257472 0.081147 -0.010464 -396494.000000 0 0 1
24.462079 -20.022517 -26.998107 41.571532 -0.685928 2.277641 0.081537 -0.010776 -603825.000000 0 0 1
23.540279 -19.294117 -27.699117 41.153965 -0.686591 2.309136 0.071936 -0.009500 -120226.000000 0 0 1
24.150479 -18.587817 -28.756577 41.900994 -0.655969 2.327183 0.077457 -0.004003 -192285.000000 0 0 1
23.177779 -17.588717 -29.365357 41.338803 -0.649148 2.360803 0.110374 -0.008795 223602.000000 0 0 1
21.979179 -18.169117 -29.901857 41.319756 -0.690782 2.379901 0.105822 -0.010063 423664.000000 0 0 1
21.160279 -17.146917 -30.363307 40.788535 -0.681011 2.410444 0.104145 -0.014288 89574.100000 0 0 1
19.948079 -17.582217 -31.242467 41.026235 -0.722443 2.436458 0.084991 -0.008168 215035.000000 0 0 1
20.342379 -18.204017 -32.446307 42.402376 -0.729980 2.442149 0.089315 -0.008561 -30343.900000 0 0 1
19.253579 -18.645317 -33.216757 42.681391 -0.769350 2.462669 0.094821 -0.013959 -269988.000000 0 0 1
19.608379 -19.515917 33.388502 43.360715 -0.783035 0.691928 0.104270 -0.016654 -56992.700000 0 0 1
20.028479 -20.857317 33.709586 44.412879 -0.805667 0.709013 0.111303 -0.016229 152891.000000 0 0 1
20.117279 -21.673217 32.545754 43.973394 -0.822613 0.737542 0.099252 -0.018145 193825.000000 0 0 1
21.057379 -22.905417 32.771143 45.188707 -0.827410 0.759462 0.090432 -0.011532 151335.000000 0 0 1
20.573279 -23.857917 33.661933 46.104075 -0.859190 0.752285 0.102305 -0.024966 4698.850000 0 0 1
21.113379 -23.622217 -32.927037 45.694351 -0.841421 2.375454 0.106795 -0.035161 36333.700000 0 0 1
20.202879 -24.223317 -31.847567 44.824022 -0.875649 2.361008 0.104591 -0.036405 -39098.600000 0 0 1
20.181679 -25.636937 -31.911187 45.638543 -0.903902 2.345096 0.119063 -0.048737 -396872.000000 0 0 1
21.063279 -26.181407 -30.998807 45.717107 -0.893310 2.315912 0.100983 -0.052984 -301927.000000 0 0 1
21.151379 -27.704437 -30.990177 46.640195 -0.918733 2.297557 0.101997 -0.056272 143695.000000 0 0 1
19.928779 -28.182837 -30.466147 46.039273 -0.955305 2.293937 0.113013 -0.056687 72846.400000 0 0 1
19.928879 -29.597477 -30.503257 46.942727 -0.978195 2.278114 0.108284 -0.051866 -1283990.000000 0 0 1
18.704979 -30.189257 -29.845147 46.389657 -1.016096 2.269673 0.149828 -0.053023 -1050740.000000 0 0 1
17.486079 -30.231167 -30.477637 46.352700 -1.046401 2.288313 0.161782 -0.053750 -815933.000000 0 0 1
17.544079 -30.964407 -31.688977 47.652707 -1.055306 2.298288 0.157287 -0.055222 -935555.000000 0 0 1
16.190179 -31.561557 -32.151777 47.874738 -1.096825 2.307137 0.152924 -0.059213 364483.000000 0 0 1
15.295879 -30.704677 -32.846397 47.493441 -1.108621 2.334496 0.151404 -0.053712 -394824.000000 0 0 1
14.189779 -31.392867 -33.310187 47.921086 -1.146275 2.339362 0.114099 -0.043471 -424917.000000 0 0 1
13.126279 -30.527267 33.846658 47.432157 -1.164711 0.776201 0.108000 -0.031626 286463.000000 0 0 1
12.385779 -29.697187 -33.083697 46.150422 -1.175662 2.370094 0.128026 -0.032361 414358.000000 0 0 1
11.661479 -28.740257 -33.858187 45.916983 -1.185339 2.399977 0.103504 -0.027493 199916.000000 0 0 1
10.613079 -27.855847 -33.128657 44.565610 -1.206776 2.408888 0.110049 -0.027463 180905.000000 0 0 1
9.452379 -28.521707 -32.707817 44.414373 -1.250778 2.398566 0.105995 -0.014249 -35311.300000 0 0 1
8.465079 -27.575067 -32.288187 43.296292 -1.272945 2.412455 0.050663 -0.007358 215766.000000 0 0 1
7.290779 -28.210627 -31.548967 42.945690 -1.317889 2.395910 0.034399 -0.005918 -53481.300000 0 0 1
6.367379 -29.048667 -32.238367 43.859787 -1.355012 2.396511 0.032174 -0.006038 447508.000000 0 0 1
6.772079 -30.384847 -32.363897 44.905699 -1.351504 2.375619 0.038249 -0.003440 -1121350.000000 0 0 1
5.537879 -31.134247 -32.784237 45.550144 -1.394766 2.374223 0.067863 -0.022214 -740346.000000 0 0 1
4.669279 -31.272727 -31.723097 44.789960 -1.422583 2.357832 0.074805 -0.029107 -1038180.000000 0 0 1
3.532379 -31.977397 -32.063637 45.421454 -1.460777 2.354509 0.099532 -0.043147 -1585810.000000 0 0 1
2.709579 -32.464367 -30.801117 44.832865 -1.487526 2.328178 0.079908 -0.045404 -277253.000000 0 0 1
1.763079 -31.576277 -30.374697 43.849652 -1.515019 2.336024 0.072384 -0.037194 -22669.800000 0 0 1
0.590779 -31.471927 -31.207207 44.325173 -1.552027 2.351883 0.068540 -0.004874 196979.000000 0 0 1
-0.428321 -30.482167 -30.531277 43.145160 1.556746 2.356950 0.064285 -0.007552 157331.000000 0 0 1
-1.191021 -30.821317 -29.402337 42.613021 1.532173 2.332264 0.063238 -0.016433 35864.500000 0 0 1
-1.959521 -29.687787 -29.052687 41.584409 1.504888 2.344296 0.104386 -0.019461 -104795.000000 0 0 1
-2.615521 -29.820567 -27.698917 40.784031 1.483312 2.317415 0.104018 -0.023574 -284227.000000 0 0 1
-1.669421 -29.948047 -26.675037 40.140131 1.515110 2.297685 0.083905 -0.019624 -137712.000000 0 0 1
-2.322121 -30.072027 -25.433927 39.453817 1.493731 2.271362 0.095050 -0.022829 589952.000000 0 0 1
-1.302521 -30.115997 -24.209487 38.662244 1.527573 2.247439 0.065925 -0.023488 421737.000000 0 0 1
-1.786021 -30.273237 -22.904487 38.003609 1.511868 2.217667 0.094012 -0.031797 170585.000000 0 0 1
-0.733021 -30.607777 -21.975187 37.686632 1.546852 2.193339 0.088484 -0.024889 738923.000000 0 0 1
-1.221521 -30.428577 -20.501187 36.710885 1.530674 2.163312 0.050271 -0.011472 207636.000000 0 0 1
-1.298421 -29.097467 -20.042887 35.356270 1.526203 2.173514 0.043275 -0.015416 381986.000000 0 0 1
-0.076021 -28.554957 -19.541587 34.601517 1.568134 2.170940 0.065459 -0.027163 48661.500000 0 0 1
-0.351121 -27.250777 -18.786687 33.100872 1.557912 2.174334 0.061416 -0.024275 155823.000000 0 0 1
-1.084421 -27.419687 -17.562587 32.580050 1.531268 2.140116 0.065695 -0.022519 320511.000000 0 0 1
-0.898021 -26.241097 -16.809087 31.176065 1.536588 2.140243 0.075723 -0.020659 286246.000000 0 0 1
-1.994521 -26.082607 -15.715587 30.516556 1.494475 2.111787 0.070148 -0.021841 26298.400000 0 0 1
-1.871621 -24.780917 -15.155687 29.108275 1.495413 2.118427 0.061201 -0.018264 951570.000000 0 0 1
-3.005621 -24.448917 -14.316887 28.491342 1.448475 2.097284 0.068313 -0.019726 806106.000000 0 0 1
-2.647921 -23.264517 -13.335687 26.946053 1.457466 2.088520 0.066219 -0.022987 149173.000000 0 0 1
-1.655021 -23.568217 -12.378187 26.672448 1.500689 2.053394 0.085251 -0.030020 -192734.000000 0 0 1
-1.451121 -22.531717 -11.472587 25.325961 1.506482 2.040921 0.083190 -0.022924 26440.600000 0 0 1
-0.169221 -22.534317 -10.609287 24.907450 1.563287 2.010806 0.082361 -0.025575 78568.700000 0 1 0
0.097779 -21.266117 -10.076287 23.532719 -1.566198 2.013276 0.067865 -0.022418 465122.000000 0 1 0
1.474079 -21.289617 -9.688387 23.436842 -1.501667 1.996962 0.064530 -0.019214 623868.000000 0 1 0
2.095279 -19.957117 -9.362987 22.143673 -1.466190 2.007361 0.052965 -0.014276 -1132050.000000 0 1 0
2.484379 -19.207217 -10.505187 22.032891 -1.442164 2.067802 0.049890 -0.005768 677902.000000 0 1 0
3.584179 -18.307817 -10.307487 21.313536 -1.377468 2.075573 0.040849 -0.001985 611013.000000 0 1 0
4.971479 -18.779317 -9.836487 21.774638 -1.312001 2.039512 0.059757 -0.015178 -440064.000000 0 1 0
4.894379 -19.169817 -8.462187 21.518491 -1.320820 1.974962 0.053413 -0.018209 -181096.000000 0 1 0
6.053679 -19.865017 -8.069887 22.279790 -1.274996 1.941430 0.053850 -0.020045 -247080.000000 0 1 0
5.680279 -20.965617 -7.105587 22.854147 -1.306215 1.886947 0.053737 -0.017809 -406567.000000 0 1 0
4.826479 -21.840517 -7.765787 23.677216 -1.353304 1.904967 0.063543 -0.028506 -109809.000000 0 1 0
4.610779 -22.988817 -6.876487 24.434220 -1.372856 1.856079 0.077775 -0.026462 298915.000000 0 1 0
3.621179 -24.080217 -7.394687 25.448992 -1.421535 1.865618 0.088994 -0.021967 420948.000000 0 0 1
4.191879 -24.824017 -8.480087 26.565308 -1.403511 1.895699 0.096440 -0.024065 373882.000000 0 0 1
3.260279 -25.739617 -9.042687 27.475944 -1.444803 1.906160 0.094607 -0.025762 293219.000000 0 0 1
3.909079 -26.586837 -10.162587 28.730106 -1.424812 1.932348 0.083757 -0.022304 276100.000000 0 0 1
4.618179 -27.755947 -9.705787 29.764450 -1.405922 1.902957 0.098854 -0.030562 395153.000000 0 0 1
5.364779 -28.272687 -10.815487 30.742486 -1.383274 1.930299 0.105826 -0.016400 238153.000000 0 0 1
5.230279 -29.804137 -10.899187 32.162629 -1.397077 1.916520 0.090625 -0.031357 397553.000000 0 0 1
3.923879 -30.160467 -11.363687 32.468200 -1.441423 1.928361 0.091460 -0.035145 474778.000000 0 0 1
3.729579 -31.582257 -11.290587 33.746498 -1.453250 1.911946 0.095602 -0.037405 -55911.500000 0 0 1
2.275279 -31.977457 -11.616487 34.098056 -1.499763 1.918435 0.088111 -0.052394 -46022.600000 0 0 1
1.887079 -31.589267 -12.941087 34.189393 -1.511129 1.958984 0.093871 -0.055215 149699.000000 0 0 1
1.330179 -32.640167 -13.644287 35.402210 -1.530066 1.966446 0.092136 -0.045735 -403842.000000 0 0 1
0.931379 -32.312577 -15.103587 35.680365 -1.541980 2.007884 0.091278 -0.041289 100404.000000 0 0 1
-0.249821 -31.536887 -15.206487 35.012497 1.562875 2.020075 0.099668 -0.038674 -36287.700000 0 0 1
-0.545521 -31.472987 -16.557487 35.566795 1.553465 2.055032 0.074146 -0.034470 686225.000000 0 0 1
-1.920121 -30.798167 -16.934687 35.199398 1.508532 2.072714 0.076989 -0.027627 1775110.000000 0 0 1
-3.069521 -31.477247 -16.328587 35.593002 1.473588 2.047394 0.079618 -0.032001 409806.000000 0 0 1
-4.215821 -31.052247 -17.013387 35.657686 1.435856 2.068184 0.082458 -0.019688 463033.000000 0 0 1
-5.549621 -31.217487 -16.198587 35.605112 1.394862 2.043114 0.094448 -0.024848 91737.100000 0 0 1
-5.777121 -30.085197 -15.360287 34.269996 1.381080 2.035563 0.073488 -0.013357 1050000.000000 0 0 1
-7.186321 -29.764737 -15.322787 34.239898 1.333893 2.034778 0.079769 -0.014496 1589250.000000 0 0 1
-8.113221 -30.657267 -14.416287 34.835639 1.312085 1.997462 0.076971 -0.025627 -26102.700000 0 0 1
-8.389521 -31.955597 -14.887487 36.237847 1.314054 1.994157 0.094154 -0.030345 285362.000000 0 0 1
-9.260821 -32.683817 -13.972887 36.731952 1.294688 1.961027 0.087162 -0.023623 449127.000000 0 0 1
-9.285121 33.622142 -14.147787 37.640693 -1.301351 1.956125 0.138850 -0.038566 325362.000000 0 0 1
-7.958121 33.134996 -14.138987 36.894045 -1.335088 1.964089 0.136397 -0.045545 185507.000000 0 0 1
-8.073021 31.799847 -14.598287 35.909802 -1.322179 1.989445 0.153363 -0.051465 -425468.000000 0 0 1
-8.137021 -21.695817 -3.460487 23.428499 1.211982 1.719043 0.088743 -0.017828 35889.900000 0 1 0
-7.547221 -20.710017 -4.278887 22.453825 1.221330 1.762533 0.068958 -0.017871 362556.000000 0 1 0
-6.308821 -20.975717 -4.915287 22.448652 1.278635 1.791542 0.055584 -0.008904 549656.000000 0 1 0
-6.127921 -20.029317 -6.165987 21.834476 1.273892 1.857088 0.061350 -0.012569 364071.000000 0 1 0
-7.090821 -20.343517 -7.180987 22.709139 1.235410 1.892534 0.070360 -0.019454 340616.000000 0 1 0
-7.059021 -19.261617 -8.062687 22.041928 1.219515 1.945276 0.048515 -0.017876 54930.200000 0 1 0
-8.196621 -19.339217 -9.094187 22.888734 1.169914 1.979393 0.061612 -0.027105 115339.000000 0 1 0
-7.803221 -20.234917 -10.099587 23.923708 1.202738 2.006621 0.074234 -0.023964 267966.000000 0 1 0
-8.615221 -20.110417 -11.276487 24.613209 1.166053 2.046707 0.078266 -0.033567 202082.000000 0 1 0
-8.125321 -21.094117 -12.353587 25.760313 1.203119 2.070948 0.066119 -0.025211 -221132.000000 0 0 1
-7.003821 -20.675017 -13.105487 25.461022 1.244172 2.111486 0.068800 -0.014786 -54229.900000 0 0 1
-6.839121 -21.419017 -14.260487 26.625352 1.261727 2.136012 0.058526 -0.012241 88882.200000 0 0 1
-5.730821 -20.836717 -15.175587 26.406619 1.302398 2.183020 0.047232 -0.006639 -160716.000000 0 0 1
-4.464321 -20.755117 -14.568087 25.747509 1.358929 2.172206 0.041681 -0.012008 -330688.000000 0 0 1
-3.436321 -20.191217 -15.318487 25.576348 1.402223 2.212963 0.044425 -0.004626 -124701.000000 0 0 1
-3.425621 -18.624417 -15.344387 24.373223 1.388898 2.251782 0.050026 0.000257 -1032750.000000 0 1 0
-4.471121 -18.023917 -16.052287 24.546455 1.327639 2.283597 0.049590 -0.001365 -365668.000000 0 1 0
-4.421421 -18.105317 -17.507987 25.571099 1.331279 2.324959 0.074016 -0.017857 -1117500.000000 0 0 1
-5.780321 -17.904917 -18.162787 26.151195 1.258525 2.338563 0.061875 -0.013323 -120867.000000 0 0 1
-6.665721 -18.963817 -17.763287 26.825222 1.232789 2.294529 0.047571 -0.016018 -162915.000000 0 0 1
-7.935521 -18.880117 -18.365687 27.508722 1.172904 2.301819 0.044953 -0.019678 -486523.000000 0 0 1
-8.797421 -19.903117 -17.658787 28.024301 1.154605 2.252509 0.062683 -0.024941 -405369.000000 0 0 1
-8.364421 -21.229617 -17.874187 28.985285 1.195475 2.235295 0.066793 -0.020381 349022.000000 0 0 1
-9.465821 -22.082717 -17.676287 29.827827 1.165836 2.205092 0.079409 -0.015024 180154.000000 0 0 1
-9.165121 -23.517917 -18.211587 31.124810 1.199194 2.195818 0.093063 -0.020493 -561252.000000 0 0 1
-9.072221 -23.429917 -19.609687 31.871712 1.201367 2.233524 0.096200 -0.023609 260198.000000 0 0 1
-8.312721 -24.422117 -20.283187 32.816898 1.242720 2.237083 0.115152 -0.031736 814692.000000 0 0 1
-6.752921 -24.267717 -20.175487 32.273430 1.299395 2.246110 0.101383 -0.024381 -20991.900000 0 0 1
-6.225021 -23.190017 -20.868187 31.812089 1.308543 2.286280 0.133277 -0.040134 -12224.800000 0 0 1
-5.968821 -21.984717 -20.136687 30.404618 1.305688 2.294668 0.100832 -0.041256 -401320.000000 0 0 1
-4.960121 -22.056417 -18.995487 29.528238 1.349593 2.269596 0.105465 -0.029815 -725758.000000 0 0 1
-3.683421 -22.550017 -19.264087 29.886049 1.408882 2.271276 0.094088 -0.036016 -714063.000000 0 0 1
-2.942621 -22.605817 -18.108687 29.113683 1.441353 2.242090 0.052606 -0.030895 499292.000000 0 0 1
-1.494221 -23.199117 -18.274187 29.569877 1.506477 2.236993 0.087986 -0.032621 1038860.000000 0 0 1
-0.634921 -22.358217 -19.020287 29.360932 1.542406 2.275502 0.119202 -0.033048 954170.000000 0 0 1
0.722379 -22.843217 -19.184487 29.839218 -1.539183 2.269112 0.085488 -0.028380 1858030.000000 0 0 1
1.671779 -21.810717 -19.925887 29.589579 -1.494296 2.309607 0.080074 -0.023138 522345.000000 0 0 1
1.408279 -21.720817 -21.289887 30.447273 -1.506051 2.345127 0.077127 -0.031216 -696442.000000 0 0 1
2.419979 -21.073217 -21.972987 30.540939 -1.456460 2.373821 0.059100 -0.026052 -591982.000000 0 0 1
2.154279 -20.890217 -23.488387 31.507879 -1.468036 2.412046 0.084566 -0.028688 322130.000000 0 0 1
1.254379 -19.908117 -23.952887 31.171259 -1.507871 2.447178 0.070878 -0.020143 -385863.000000 0 0 1
-0.136821 -20.096017 -23.798887 31.148927 1.563988 2.440341 0.089332 -0.028641 -78906.300000 0 0 1
-0.826421 -19.019917 -24.654687 31.149540 1.527373 2.484047 0.098134 -0.033939 -315504.000000 0 0 1
-0.560621 -17.724317 -24.272087 30.059939 1.539177 2.510624 0.063770 -0.025266 -402847.000000 0 0 1
-1.199921 -16.730217 -25.039277 30.138105 1.499197 2.551372 0.082464 -0.038900 -37924.000000 0 0 1
-0.860921 -15.252117 -24.687787 29.031967 1.514410 2.587476 0.069630 -0.019599 61772.200000 0 0 1
0.452479 -14.941317 -25.087307 29.203093 -1.540522 2.604233 0.071849 -0.028721 -409889.000000 0 0 1
0.966679 -13.673517 -24.668487 28.221159 -1.500217 2.634403 0.064976 -0.026911 293031.000000 0 0 1
0.515879 -12.438017 -25.486197 28.364002 -1.529344 2.687228 0.057987 -0.017566 30521.000000 0 0 1
1.178079 -11.220317 -25.135317 27.551180 -1.466184 2.719695 0.043841 -0.017262 68803.500000 0 0 1
0.835579 -10.184117 -26.014597 27.949485 -1.488932 2.767315 0.041799 -0.015325 -1092200.000000 0 0 1
1.601279 -8.882517 -25.837157 27.368264 -1.392439 2.805515 0.051985 -0.026427 1948660.000000 0 0 1
3.027879 -8.948617 -26.219027 27.869036 -1.244526 2.795762 0.060958 -0.027808 1827680.000000 0 0 1
3.374979 -9.316517 -27.552947 29.280588 -1.223244 2.796361 0.068101 -0.029851 -1219450.000000 0 0 1
4.747579 -8.910617 -28.037837 29.800317 -1.081254 2.795947 0.098686 -0.035945 -1349900.000000 0 0 1
4.803879 -7.512217 -28.227217 29.602136 -1.001855 2.835617 0.093114 -0.028269 710707.000000 0 0 1
6.062879 -6.868117 -28.476757 29.914131 -0.847590 2.830338 0.098266 -0.027820 -169504.000000 0 0 1
7.158279 -6.797817 -27.380777 29.105983 -0.759576 2.795563 0.109480 -0.029503 227702.000000 0 0 1
7.622879 -8.125717 -26.990287 29.199506 -0.817316 2.750100 0.080783 -0.035858 25090.400000 0 0 1
8.356179 -8.813917 -27.942637 30.468046 -0.812051 2.731573 0.087594 -0.044522 -1392850.000000 0 0 1
8.884879 -10.179117 -27.419727 30.567907 -0.853183 2.683755 0.092502 -0.034668 46716.100000 0 0 1
7.894579 -11.202117 -27.225277 30.479953 -0.956896 2.675251 0.102537 -0.045479 321696.000000 0 0 1
8.284779 -12.272817 -26.411467 30.279121 -0.977012 2.630615 0.099579 -0.037908 -206648.000000 0 0 1
9.308279 -13.259717 -27.036637 31.518945 -0.958731 2.601751 0.099610 -0.049003 -16346.300000 0 0 1
8.875779 -13.914117 -28.227547 32.698265 -1.002976 2.612516 0.115410 -0.059239 103953.000000 0 0 1
9.901479 -14.774517 -28.718827 33.780122 -0.980370 2.587103 0.099542 -0.057779 430606.000000 0 0 1
9.371979 -15.619817 -29.925117 35.033203 -1.030373 2.594793 0.099372 -0.055676 81569.600000 0 0 1
9.120779 -14.851117 -31.095467 35.646492 -1.020039 2.630742 0.101980 -0.050153 536627.000000 0 0 1
8.179879 -15.572517 -31.894977 36.423938 -1.087132 2.637597 0.116961 -0.047849 781527.000000 0 0 1
6.861879 -14.804517 -32.231077 36.126188 -1.136773 2.672946 0.129995 -0.041944 912208.000000 0 0 1
7.272379 -13.775517 -33.179717 36.654413 -1.085063 2.702656 0.134053 -0.041705 779860.000000 0 0 1
6.079979 -13.127717 -33.583317 36.566956 -1.137069 2.734829 0.109623 -0.045127 432874.000000 0 0 1
6.429979 -11.871517 33.420454 36.044476 -1.074401 0.383928 0.138085 -0.037182 -49166.100000 0 0 1
6.870579 -12.199317 32.128093 35.046291 -1.057880 0.410972 0.138568 -0.031345 242487.000000 0 0 1
7.116879 -11.016317 31.393308 34.022772 -0.997217 0.395732 0.142369 -0.035908 -161574.000000 0 0 1
7.638779 -11.271217 29.968258 32.916375 -0.975177 0.426459 0.150031 -0.030068 89704.100000 0 0 1
6.614479 -11.570817 29.019068 31.933391 -1.051482 0.430547 0.132703 -0.018772 209179.000000 0 0 1
7.059479 -11.682417 27.701198 30.881572 -1.027234 0.457830 0.121063 -0.023220 -528443.000000 0 0 1
6.168979 -12.362117 26.672138 30.037996 -1.107931 0.477935 0.098721 -0.027601 -341233.000000 0 0 1
6.092979 -13.775317 26.858378 30.793769 -1.154355 0.511111 0.090299 -0.024371 -105607.000000 0 0 1
5.623979 -14.473617 25.739408 30.060470 -1.200184 0.542822 0.052953 -0.022432 -187787.000000 0 0 1
4.147979 -14.932317 25.818858 30.113008 -1.299842 0.540602 0.057850 -0.033950 200172.000000 0 0 1
3.255679 -13.861417 25.568188 29.265518 -1.340104 0.508116 0.056437 -0.037574 -57317.400000 0 0 1
1.963779 -14.320517 25.193968 29.045992 -1.434516 0.520879 0.056002 -0.030690 706058.000000 0 0 1
1.032079 -13.096717 24.834048 28.094824 -1.492154 0.486581 0.055755 -0.027767 -235311.000000 0 0 1
1.455179 -12.304717 23.734308 26.773886 -1.453081 0.481131 0.032774 -0.018820 -393456.000000 0 0 1
0.608279 -11.253717 23.391028 25.964521 -1.516797 0.448994 0.033695 -0.008964 1493160.000000 0 0 1
-0.866821 -11.603417 22.865298 25.655653 1.496231 0.470728 0.043870 -0.010438 995884.000000 0 0 1
-0.853321 -12.128217 21.594538 24.781967 1.500554 0.512786 0.046451 -0.011974 -695371.000000 0 1 0
-2.076621 -12.729617 21.383938 24.972551 1.409088 0.542738 0.070322 -0.020823 -537505.000000 0 1 0
-1.958021 -13.547817 20.033638 24.263632 1.427264 0.599416 0.088864 -0.027240 571935.000000 0 1 0
-1.049121 -14.668117 20.102638 24.907235 1.499394 0.631572 0.111798 -0.026021 228829.000000 0 1 0
-1.102121 -15.517317 18.977438 24.538642 1.499890 0.686657 0.117765 -0.026177 -42875.500000 0 1 0
-2.327421 -16.445817 18.907038 25.166602 1.430209 0.720805 0.108177 -0.032039 67802.900000 0 0 1
-2.276721 -17.315217 17.788838 24.928758 1.440060 0.776191 0.090227 -0.030482 -12869.400000 0 1 0
-3.246721 -18.352317 17.964538 25.885775 1.395697 0.803777 0.100801 -0.020791 214389.000000 0 0 1
-3.035721 -19.633017 17.166038 26.255358 1.417388 0.858186 0.098811 -0.023442 356491.000000 0 0 1
-1.849821 -20.323917 17.565338 26.926280 1.480029 0.860116 0.096397 -0.026728 70232.800000 0 0 1
-1.924021 -21.725417 17.492938 27.958871 1.482466 0.894810 0.096723 -0.041045 -40955.200000 0 0 1
-0.730421 -22.478217 18.124238 28.884109 1.538313 0.892482 0.101983 -0.036908 695637.000000 0 0 1
0.488479 -22.412117 17.380938 28.366153 -1.549004 0.911279 0.119087 -0.043348 -233606.000000 0 0 1
1.389579 -23.364617 17.892038 29.461183 -1.511393 0.918127 0.117153 -0.037259 -50628.800000 0 0 1
2.744579 -23.233117 17.154138 29.009910 -1.453209 0.938102 0.118504 -0.044687 103863.000000 0 0 1
3.322379 -21.963317 17.401238 28.217523 -1.420665 0.906276 0.116605 -0.038855 484525.000000 0 0 1
4.579879 -21.741217 16.733238 27.814692 -1.363178 0.925297 0.110708 -0.034454 1086430.000000 0 0 1
5.285879 -20.410917 17.112738 27.154960 -1.317390 0.889001 0.101033 -0.030073 -808192.000000 0 0 1
5.958479 -20.479117 18.366138 28.146274 -1.287659 0.859885 0.086446 -0.021753 227367.000000 0 0 1
6.760879 -19.361917 18.750038 27.787718 -1.234848 0.830157 0.084238 -0.008165 1328120.000000 0 0 1
7.769479 -18.727617 17.672838 26.896425 -1.177539 0.853871 0.079982 -0.015887 98704.800000 0 0 1
7.083879 -18.038717 16.623338 25.532568 -1.196595 0.861811 0.068093 -0.012150 390703.000000 0 0 1
8.058979 -17.512917 15.728438 24.880377 -1.139514 0.886456 0.094388 -0.013942 195888.000000 0 1 0
7.463079 -16.657117 14.615438 23.383074 -1.149572 0.895609 0.068840 -0.005289 -158411.000000 0 1 0
6.642479 -17.352317 13.705838 23.088427 -1.205204 0.935242 0.069946 -0.005621 332409.000000 0 1 0
5.910279 -16.507717 12.821438 21.721542 -1.226985 0.939411 0.051177 -0.006659 255988.000000 0 1 0
6.421479 -16.707817 11.389238 21.215591 -1.203863 1.004117 0.048508 -0.004205 -158118.000000 0 1 0
7.696679 -16.153017 11.210038 21.114540 -1.126137 1.011116 0.050521 -0.006312 -436884.000000 0 1 0
8.178379 -16.485317 9.920438 20.906139 -1.110273 1.076375 0.050469 -0.003798 -368240.000000 0 1 0
9.536579 -15.814717 9.781338 20.897995 -1.028160 1.083712 0.043311 -0.004320 -387484.000000 0 1 0
10.236979 -16.233617 8.627538 21.041875 -1.008178 1.148323 0.041325 -0.008955 -165411.000000 0 1 0
11.619579 -15.953917 8.820438 21.618100 -0.941314 1.150521 0.040836 -0.002834 210400.000000 0 1 0
12.457079 -16.850717 7.919738 22.401959 -0.934204 1.209455 0.036557 -0.010015 -231931.000000 0 1 0
12.832279 -18.109517 8.510738 23.770879 -0.954326 1.204637 0.054784 -0.008977 293501.000000 0 1 0
13.674879 -18.846117 7.607438 24.495950 -0.943090 1.255015 0.051949 -0.013066 315306.000000 0 1 0
14.373479 -20.088417 8.156738 26.012954 -0.949736 1.251852 0.060051 -0.014831 195522.000000 0 0 1
13.466979 -21.030017 8.763538 26.465464 -1.001221 1.233294 0.066821 -0.015004 592293.000000 0 0 1
14.159779 -22.188217 9.285238 27.911144 -1.002785 1.231661 0.059420 -0.008551 490798.000000 0 0 1
13.115779 -23.128617 9.933038 28.383479 -1.054934 1.213270 0.079084 -0.012585 351372.000000 0 0 1
12.711779 -22.609017 11.221138 28.260767 -1.058602 1.162488 0.078790 -0.013867 -374223.000000 0 0 1
11.827479 -23.325617 12.029138 28.786696 -1.101517 1.139695 0.101531 -0.014081 -323423.000000 0 0 1
12.301379 -24.710917 12.441238 30.277678 -1.108901 1.147350 0.083001 -0.021234 -505329.000000 0 0 1
13.495479 -24.733717 13.152438 31.094555 -1.071314 1.134063 0.047492 -0.019269 -494609.000000 0 0 1
13.678279 -25.989537 13.798438 32.449164 -1.086331 1.131578 0.066565 -0.034351 1147820.000000 0 0 1
14.934479 -26.158887 14.790338 33.557118 -1.052038 1.114361 0.053205 -0.025289 1030710.000000 0 0 1
14.857379 -25.432607 16.003738 33.521320 -1.042086 1.073081 0.066801 -0.023841 -367932.000000 0 0 1
15.680579 -25.883357 17.000138 34.710711 -1.026111 1.058975 0.075392 -0.025639 -1025710.000000 0 0 1
15.361979 -25.336037 18.409838 34.883052 -1.025736 1.014837 0.085935 -0.023136 -211853.000000 0 0 1
15.814179 -24.028117 18.774838 34.350156 -0.988711 0.992531 0.069279 -0.019674 -270956.000000 0 0 1
17.171179 -23.957217 19.108538 35.127395 -0.948921 0.995625 0.077899 -0.024683 -475260.000000 0 0 1
17.710479 -22.574117 19.497038 34.689859 -0.905549 0.973948 0.076724 -0.027583 -174855.000000 0 0 1
17.835379 -21.664417 18.416038 33.564836 -0.882034 0.990023 0.066115 -0.024087 252916.000000 0 0 1
16.637979 -20.951617 18.144338 32.326609 -0.899655 0.974863 0.079072 -0.025077 -326500.000000 0 0 1
16.736379 -20.044517 16.869338 31.087998 -0.875099 0.997229 0.057749 -0.020164 -290495.000000 0 0 1
17.569879 -18.927117 16.903138 30.865069 -0.822569 0.991248 0.053356 -0.017488 -144288.000000 0 0 1
18.937479 -19.196617 16.645838 31.689465 -0.792194 1.017752 0.055510 -0.022809 -184777.000000 0 0 1
19.816979 -17.967317 16.904138 31.643120 -0.736484 1.007221 0.065870 -0.022105 -382991.000000 0 0 1
20.007979 -17.698217 18.293138 32.375686 -0.724218 0.970330 0.064931 -0.024813 191330.000000 0 0 1
20.281279 -16.347517 18.524738 31.964629 -0.678413 0.952634 0.066692 -0.024806 -321973.000000 0 0 1
20.613979 -16.052217 20.042738 32.929032 -0.661621 0.916420 0.062130 -0.017801 126567.000000 0 0 1
21.918179 -16.494617 20.371538 34.168385 -0.645134 0.932024 0.052349 -0.019581 79032.700000 0 0 1
22.189979 -16.107617 21.704038 34.970213 -0.627895 0.901233 0.045337 -0.013878 197364.000000 0 0 1
34.611163 -1.052317 -7.593887 35.450065 -0.030395 1.786683 0.121574 -0.017672 -464616.000000 0 0 1
35.930653 -0.756317 -7.945987 36.806556 -0.021046 1.788395 0.148639 -0.027038 -395191.000000 0 0 1
36.701753 -1.938117 -7.947487 37.602361 -0.052758 1.783758 0.167169 -0.031062 147073.000000 0 0 1
-36.499481 -1.662017 -8.356487 37.480732 0.045504 1.795640 0.162079 -0.034893 380983.000000 0 0 1
-35.648948 -2.789317 -8.323487 36.713869 0.078085 1.799497 0.171713 -0.024870 76764.200000 0 0 1
-34.296023 -2.570717 -8.642687 35.461554 0.074817 1.816996 0.251595 -0.038177 -34798.500000 0 0 1
-33.318991 -3.711417 -8.334287 34.545479 0.110933 1.814456 0.248729 -0.036562 24069.400000 0 0 1
-32.875081 -3.670117 -6.948487 33.801215 0.111178 1.777842 0.237927 -0.042945 66524.500000 0 0 1
-31.786401 -4.526817 -6.763987 32.811871 0.141462 1.778430 0.233431 -0.049942 -146315.000000 0 0 1
-31.153591 -4.361317 -5.339487 31.907325 0.139090 1.738931 0.216448 -0.064821 -111227.000000 0 0 1
-30.584071 -3.143717 -5.115187 31.167827 0.102430 1.735660 0.225648 -0.057213 93050.800000 0 0 1
-30.155551 -3.002717 -3.768787 30.538129 0.099247 1.694524 0.225156 -0.057728 -147458.000000 0 0 1
-29.796591 -1.534117 -3.370487 30.025831 0.051441 1.683286 0.251449 -0.049509 -1538600.000000 0 0 1
-28.511051 -1.095717 -3.523287 28.748811 0.038412 1.693659 0.221784 -0.043169 -804809.000000 0 0 1
-28.333931 0.067283 -2.733287 28.465541 -0.002375 1.666965 0.240782 -0.058406 -138633.000000 0 0 1
-26.862111 0.313683 -2.339987 26.965662 -0.011677 1.657682 0.226012 -0.034885 -34847.500000 0 0 1
-26.324381 -0.509117 -1.326887 26.362717 0.019338 1.621150 0.210404 -0.040146 672827.000000 0 0 1
-24.946121 -0.333917 -1.045887 24.970269 0.013385 1.612694 0.175015 -0.035359 221578.000000 0 1 0
-24.326621 -1.228617 0.004213 24.357627 0.050462 1.570623 0.159397 -0.038832 -103539.000000 0 1 0
-24.405921 -2.578317 -0.278587 24.543315 0.105253 1.582147 0.158646 -0.035682 291638.000000 0 1 0
-23.519621 -3.182617 0.613013 23.741891 0.134501 1.544974 0.133584 -0.032772 -349576.000000 0 1 0
-23.707321 -4.664617 0.571713 24.168628 0.194277 1.547139 0.129151 -0.034437 954504.000000 0 1 0
-24.947921 -5.068617 1.214313 25.486549 0.200440 1.523133 0.145781 -0.039618 1257120.000000 0 0 1
-25.308421 -6.415217 1.245013 26.138501 0.248253 1.523147 0.137343 -0.041427 -194535.000000 0 0 1
-26.627821 -6.696017 1.999513 27.529539 0.246359 1.498101 0.153780 -0.038707 -140227.000000 0 0 1
-26.586421 -6.897517 3.436713 27.680761 0.253841 1.446320 0.151736 -0.036752 -396237.000000 0 0 1
-27.832321 -7.306617 3.912013 29.040120 0.256730 1.435675 0.148225 -0.023636 -482863.000000 0 0 1
-27.977111 -7.540517 5.435513 29.480891 0.263269 1.385361 0.154626 -0.023348 29298.900000 0 0 1
-27.184901 -8.654917 5.918313 29.136795 0.308226 1.366251 0.141131 -0.008287 351344.000000 0 0 1
-26.910241 -8.690917 7.323013 29.211635 0.312385 1.317405 0.132352 -0.019161 -178711.000000 0 0 1
-26.065021 -7.559217 7.911413 28.268667 0.282270 1.287143 0.143795 -0.018616 -486111.000000 0 0 1
-24.734021 -7.555117 7.441513 26.911479 0.296453 1.290627 0.148435 -0.031213 40917.600000 0 0 1
-24.100221 -6.363917 7.879513 26.142051 0.258168 1.264624 0.143157 -0.037446 52587.200000 0 0 1
-22.690521 -6.178117 7.258013 24.611128 0.265833 1.271437 0.119297 -0.036037 -10614.700000 0 1 0
-21.691921 -6.649117 8.118413 24.096863 0.297432 1.227166 0.114202 -0.047520 351301.000000 0 1 0
-20.396621 -6.231417 7.648313 22.657215 0.296506 1.226466 0.102100 -0.042222 592154.000000 0 1 0
-19.253321 -6.580617 8.601413 22.090251 0.329343 1.170842 0.102057 -0.040150 -264186.000000 0 1 0
-19.295021 -5.717117 9.754313 22.363584 0.288059 1.119459 0.101649 -0.029385 307525.000000 0 1 0
-18.229621 -5.957417 10.647913 21.935997 0.315858 1.063966 0.099674 -0.036368 -99733.100000 0 1 0
-17.997921 -4.753517 11.537613 21.900630 0.258218 1.015946 0.100732 -0.025754 88841.500000 0 1 0
-19.035121 -4.798917 12.494413 23.269632 0.246962 1.003990 0.116396 -0.022668 214843.000000 0 1 0
-19.209821 -3.540917 13.062313 23.498496 0.182282 0.981377 0.119567 -0.013934 -356689.000000 0 1 0
-20.473121 -3.488817 13.914513 24.998684 0.168788 0.980497 0.117188 -0.014778 -739047.000000 0 1 0
-20.409421 -4.197517 15.131313 25.751121 0.202837 0.942709 0.121238 -0.013310 -807162.000000 0 0 1
-21.544621 -4.127117 15.892913 27.088530 0.189269 0.943815 0.093648 0.001137 -904795.000000 0 0 1
-21.300021 -4.901717 17.243813 27.840022 0.226189 0.902832 0.093139 0.010217 -147643.000000 0 0 1
-22.281321 -4.670017 18.217013 29.156918 0.206603 0.895931 0.067497 0.008996 402573.000000 0 0 1
-21.927521 -5.337417 19.397513 29.758490 0.238768 0.860800 0.079547 0.018133 -619957.000000 0 0 1
-22.932921 -4.980417 20.506413 31.164666 0.213852 0.852634 0.080075 0.003896 -283128.000000 0 0 1
-22.830321 -3.603917 20.901413 31.162170 0.156565 0.835603 0.085282 -0.004510 316075.000000 0 0 1
-23.414221 -3.411917 22.178313 32.430610 0.144701 0.817743 0.076984 -0.004869 -75192.600000 0 0 1
-23.668121 -1.904617 22.540013 32.739268 0.080299 0.811419 0.074347 -0.008820 449274.000000 0 0 1
-24.688921 -1.275717 21.742313 32.922613 0.051626 0.849436 0.078984 -0.017878 513784.000000 0 0 1
-24.620621 0.137683 21.813313 32.893990 -0.005592 0.845791 0.079584 -0.017781 885475.000000 0 0 1
-25.992281 0.795483 21.357513 33.650777 -0.030595 0.883201 0.093625 -0.023486 1258010.000000 0 0 1
-26.998821 0.649983 22.348613 35.054519 -0.024070 0.879497 0.102741 -0.023176 -92918.700000 0 0 1
-28.263321 1.086183 21.920313 35.784008 -0.038412 0.911485 0.100916 -0.023243 -124627.000000 0 0 1
-29.349041 1.171483 22.987713 37.298438 -0.039894 0.906737 0.090439 -0.016781 -349979.000000 0 0 1
-28.921381 1.830883 24.136713 37.714444 -0.063221 0.876316 0.080387 -0.018295 4854.520000 0 0 1
-29.832081 1.562683 25.184113 39.072171 -0.052335 0.870357 0.073945 -0.014622 -240039.000000 0 0 1
-29.642641 2.610083 26.311213 39.721261 -0.087825 0.846784 0.088894 -0.020530 1029830.000000 0 0 1
-28.446711 2.369283 27.094513 39.356594 -0.083097 0.811465 0.067817 -0.025847 1031640.000000 0 0 1
-27.982931 3.394383 27.952613 39.697794 -0.120712 0.789592 0.061952 -0.031025 1057080.000000 0 0 1
-26.774211 2.822283 28.864313 39.471157 -0.105023 0.750605 0.073597 -0.032208 962787.000000 0 0 1
-27.059831 2.029483 29.965213 40.426071 -0.074860 0.735888 0.072616 -0.027980 376911.000000 0 0 1
-25.847411 1.607083 30.581713 40.073838 -0.062096 0.702647 0.070577 -0.031305 377780.000000 0 0 1
-25.965151 0.298383 31.362413 40.717061 -0.011491 0.691560 0.062545 -0.038097 -329494.000000 0 0 1
-26.216911 -0.838117 30.588213 40.294759 0.031958 0.708849 0.049454 -0.034849 -244132.000000 0 0 1
-26.591391 -1.881717 31.438213 41.218978 0.070646 0.703300 0.067981 -0.032697 -461690.000000 0 0 1
-27.588271 -2.838617 30.686613 41.362285 0.102531 0.734899 0.072518 -0.031355 783499.000000 0 0 1
-28.924401 -2.356017 30.486913 42.090660 0.081275 0.760755 0.082393 -0.032948 654578.000000 0 0 1
-29.035061 -1.228817 29.610313 41.488738 0.042297 0.776037 0.077367 -0.023547 -925974.000000 0 0 1
-30.530931 -0.991417 29.291913 42.321824 0.032461 0.806370 0.084850 -0.026788 332854.000000 0 0 1
-31.319721 -0.643417 30.422413 43.667632 0.020541 0.800036 0.105995 -0.015151 -719266.000000 0 0 1
-32.657711 -0.716317 30.008113 44.356804 0.021931 0.827774 0.094593 -0.020090 -515759.000000 0 0 1
-33.581821 -0.445017 31.200313 45.840989 0.013251 0.822187 0.100048 -0.017353 -368694.000000 0 0 1
-33.737911 -1.622917 31.993613 46.523884 0.048067 0.812506 0.114934 -0.020984 94088.500000 0 0 1
-34.516736 -1.291717 33.133413 47.863312 0.037405 0.806193 0.129820 -0.016250 53630.100000 0 0 1
-34.918048 -2.556317 33.880413 48.720501 0.073079 0.801815 0.128237 -0.020503 -163896.000000 0 0 1
-35.966632 -3.193117 33.198013 49.050002 0.088548 0.827362 0.083734 -0.019791 -218888.000000 0 0 1
-36.087171 -4.589917 33.555113 49.490371 0.126510 0.825740 0.083971 -0.022417 -170407.000000 0 0 1
37.262103 -5.228117 33.086613 50.105105 -0.139397 0.849519 0.080997 -0.015923 -839483.000000 0 0 1
36.183733 -4.733717 33.768813 49.719246 -0.130086 0.824138 0.077696 -0.024395 -604600.000000 0 0 1
34.959113 -5.233117 33.225713 48.512608 -0.148589 0.816346 0.080927 -0.029242 -31296.000000 0 0 1
33.679733 -4.657717 33.865713 47.988595 -0.137423 0.787381 0.095269 -0.030285 -473361.000000 0 0 1
33.404363 -5.069017 -32.673011 47.000767 -0.150598 2.339438 0.077553 -0.031310 -144160.000000 0 0 1
33.026383 -6.415617 -32.508611 46.783672 -0.191868 2.339037 0.086259 -0.034898 -1179820.000000 0 0 1
31.649913 -6.793517 -33.023611 46.243138 -0.211437 2.366177 0.064855 -0.026919 -1643010.000000 0 0 1
30.641843 -6.275617 -32.252611 44.928130 -0.202012 2.371536 0.064781 -0.037813 -204799.000000 0 0 1
29.369513 -6.809217 -32.639911 44.433068 -0.227821 2.395853 0.065251 -0.031702 140362.000000 0 0 1
28.185013 -6.215817 -31.875411 43.000851 -0.217062 2.405763 0.067947 -0.048196 -218158.000000 0 0 1
26.952813 -6.814117 -32.224511 42.559434 -0.247628 2.429758 0.048826 -0.039645 -168482.000000 0 0 1
25.939113 -6.423617 -31.318711 41.169918 -0.242758 2.435215 0.050811 -0.039717 -445125.000000 0 0 1
24.546113 -6.879417 -31.786011 40.745412 -0.273254 2.465642 0.046991 -0.040671 -278158.000000 0 0 1
24.249413 -8.303917 -31.854111 40.886104 -0.329922 2.464015 0.049814 -0.041534 123423.000000 0 0 1
24.182613 -8.876417 -30.569211 39.975821 -0.351790 2.441360 0.063698 -0.046350 -466346.000000 0 0 1
24.023813 -10.433917 -30.487211 40.193038 -0.409735 2.431835 0.078064 -0.035047 517581.000000 0 0 1
22.793813 -10.927517 -31.033611 40.025662 -0.447038 2.458054 0.072412 -0.035753 513397.000000 0 0 1
22.704013 -12.345717 -31.052711 40.399998 -0.498046 2.447495 0.075548 -0.024206 -369021.000000 0 0 1
21.536113 -12.792417 -31.978711 40.621276 -0.535995 2.477117 0.063268 -0.017054 1066330.000000 0 0 1
20.230213 -12.366217 -31.547911 39.464611 -0.548669 2.497088 0.064731 -0.012705 505788.000000 0 0 1
19.878113 -11.058217 -31.999111 39.260243 -0.507668 2.523614 0.062827 -0.025315 -1399040.000000 0 0 1
18.534113 -10.616817 -31.486211 38.047492 -0.520199 2.545526 0.047418 -0.032367 -924665.000000 0 0 1
17.462413 -11.189217 -32.180711 38.284888 -0.569852 2.569111 0.044917 -0.018456 216036.000000 0 0 1
16.228013 -11.027517 -31.459811 37.076600 -0.596859 2.583957 0.090339 -0.030126 1838960.000000 0 0 1
14.897113 -11.319817 -32.278511 37.309041 -0.649786 2.616277 0.089671 -0.020869 290877.000000 0 0 1
14.731213 -12.680917 -32.653511 38.000870 -0.710742 2.604663 0.102616 -0.020678 754139.000000 0 0 1
13.471613 -12.931717 -33.293311 38.172742 -0.764953 2.630427 0.089442 -0.022120 1213140.000000 0 0 1
12.189813 -13.027617 -32.396011 36.983941 -0.818609 2.638194 0.076000 -0.026086 55053.200000 0 0 1
11.969813 -11.904517 -31.629011 35.852313 -0.782663 2.651316 0.143360 -0.021007 -451462.000000 0 0 1
10.921613 -12.031117 -30.698611 34.733761 -0.833699 2.654775 0.141991 -0.039218 981371.000000 0 0 1
9.502813 -11.486817 -31.129911 34.515530 -0.879641 2.694968 0.123891 -0.027873 824950.000000 0 0 1
9.612013 -10.103117 -31.455311 34.407853 -0.810303 2.724301 0.127762 -0.034184 8709.940000 0 0 1
8.379613 -9.628817 -31.923311 34.380661 -0.854655 2.761217 0.118533 -0.029135 -179274.000000 0 0 1
8.476613 -8.107517 -32.295311 34.359452 -0.763146 2.793207 0.130023 -0.037471 -92152.400000 0 0 1
8.605913 -7.267617 -31.206711 33.177384 -0.701287 2.795195 0.108785 -0.038308 134244.000000 0 0 1
9.136613 -6.056917 -31.665811 33.509514 -0.585410 2.808329 0.092265 -0.014335 -114214.000000 0 0 1
9.292913 -5.098417 -30.531311 32.318927 -0.501795 2.807439 0.089089 -0.023632 -627465.000000 0 0 1
8.085413 -4.541317 -30.123811 31.518907 -0.511757 2.842954 0.100060 -0.025770 -484952.000000 0 0 1
8.254413 -3.612117 -29.068011 30.432417 -0.412493 2.841016 0.108361 -0.024933 193637.000000 0 0 1
6.910613 -3.016517 -28.582911 29.560764 -0.411575 2.883665 0.099367 -0.024106 -1274580.000000 0 0 1
6.223913 -2.284717 -29.514111 30.249625 -0.351815 2.920622 0.086956 -0.017242 -520258.000000 0 0 1
4.982413 -1.838417 -29.030811 29.512577 -0.353484 2.960658 0.095684 -0.019598 -232813.000000 0 0 1
3.838213 -2.831817 -29.015311 29.404751 -0.635645 2.978661 0.078959 -0.024254 -1248320.000000 0 0 1
3.927713 -3.649417 -27.837511 28.349113 -0.748686 2.951324 0.075292 -0.024575 878743.000000 0 0 1
2.845613 -4.640217 -27.798611 28.326523 -1.020691 2.948229 0.083839 -0.024293 1081370.000000 0 0 1
2.966113 -5.549817 -26.584611 27.319221 -1.079968 2.909165 0.067520 -0.030083 -129174.000000 0 0 1
2.547813 -4.990017 -25.342811 25.954763 -1.098719 2.924011 0.062912 -0.032355 106020.000000 0 0 1
2.783813 -5.866017 -24.243211 25.097670 -1.127702 2.879905 0.070320 -0.040694 -96487.400000 0 0 1
2.869913 -5.199217 -22.884511 23.642528 -1.066427 2.887686 0.088383 -0.049928 102771.000000 0 1 0
4.012613 -4.387017 -22.708111 23.473502 -0.829943 2.885525 0.087514 -0.044084 107087.000000 0 1 0
3.979613 -3.801417 -21.459411 22.153881 -0.762501 2.890544 0.082407 -0.036714 -271642.000000 0 1 0
4.899713 -2.607117 -21.321611 22.032144 -0.488993 2.886937 0.087246 -0.032308 644993.000000 0 1 0
6.261113 -2.985817 -21.023711 22.138498 -0.444983 2.822897 0.083318 -0.035030 655118.000000 0 1 0
6.978813 -1.837517 -20.604911 21.832148 -0.257456 2.804704 0.087508 -0.027179 -331180.000000 0 1 0
8.414613 -2.251717 -20.268811 22.061293 -0.261470 2.735699 0.099003 -0.035580 -804025.000000 0 1 0
9.276413 -2.451717 -21.381411 23.435603 -0.258388 2.719778 0.112020 -0.048010 678180.000000 0 1 0
10.488413 -3.176217 -21.154311 23.824358 -0.294052 2.663617 0.099516 -0.049458 1192030.000000 0 1 0
11.608013 -2.383117 -20.393411 23.586361 -0.202486 2.615204 0.089988 -0.043940 -430797.000000 0 1 0
11.362513 -2.365317 -19.001411 22.265558 -0.205237 2.593269 0.081971 -0.035490 764328.000000 0 1 0
12.512113 -1.968117 -18.241011 22.207227 -0.156019 2.534657 0.078804 -0.043342 302293.000000 0 1 0
12.958913 -0.486017 -18.148711 22.305725 -0.037487 2.521173 0.078820 -0.040249 -38572.600000 0 1 0
13.454713 0.010883 -19.382211 23.594481 0.000809 2.534784 0.093720 -0.047763 258559.000000 0 1 0
13.447813 1.455083 -19.439911 23.682717 0.107783 2.533691 0.112503 -0.054422 -8872.790000 0 1 0
13.941313 2.200283 -20.714611 25.065845 0.156533 2.543494 0.109513 -0.044469 22512.200000 0 0 1
15.288313 2.100383 -21.137911 26.171653 0.136530 2.510977 0.103949 -0.040765 322348.000000 0 0 1
15.577613 3.229383 -21.926311 27.089741 0.204414 2.513918 0.107334 -0.044888 10164.700000 0 0 1
16.992213 3.047783 -22.519811 28.375450 0.177476 2.487561 0.084516 -0.034103 40665.300000 0 0 1
16.968913 2.255883 -23.655011 29.199188 0.132167 2.515163 0.071341 -0.033411 295135.000000 0 0 1
18.084713 1.375083 -23.647811 29.802125 0.075890 2.487325 0.072210 -0.030897 169383.000000 0 0 1
9.840579 26.665783 3.079313 28.589913 1.217266 1.462881 0.014682 -0.004057 -38821.900000 0 0 1
9.708679 27.092983 4.427513 29.118568 1.226705 1.418153 0.025744 -0.007950 -89770.700000 0 0 1
10.881779 27.592383 5.036513 30.085198 1.195147 1.402596 0.043709 -0.009832 -453654.000000 0 0 1
10.748279 28.167483 6.439713 30.828599 1.206265 1.360359 0.044769 -0.017628 -167651.000000 0 0 1
10.596279 27.200183 7.408813 30.116799 1.199317 1.322242 0.041157 -0.027058 78533.800000 0 0 1
10.594179 27.755283 8.732813 30.965374 1.206165 1.284899 0.045135 -0.024001 -337721.000000 0 0 1
10.634479 26.704083 9.917213 30.406435 1.191813 1.238563 0.054908 -0.021541 1182700.000000 0 0 1
11.897579 26.044583 10.242613 30.410258 1.142289 1.227265 0.060910 -0.025204 1258460.000000 0 0 1
12.443379 25.210183 9.220913 29.587434 1.112294 1.253868 0.069113 -0.027431 100559.000000 0 0 1
13.743679 24.501883 9.725013 29.728889 1.059605 1.237539 0.077066 -0.028462 162848.000000 0 0 1
14.830879 25.403383 9.797413 31.004453 1.042362 1.249286 0.076534 -0.029144 -325798.000000 0 0 1
15.875579 24.784883 10.501113 31.250565 1.001104 1.228098 0.084211 -0.031531 -65399.100000 0 0 1
17.064079 25.735283 10.774313 32.704333 0.985294 1.235080 0.076294 -0.032066 -584247.000000 0 0 1
17.825179 26.228383 9.705613 33.164198 0.973884 1.273796 0.078118 -0.036845 1517150.000000 0 0 1
19.259379 26.008783 9.858413 33.831476 0.933406 1.275109 0.096647 -0.052073 1659310.000000 0 0 1
19.945579 27.036983 10.839413 35.303221 0.935204 1.258718 0.087606 -0.046859 -718133.000000 0 0 1
20.004279 28.359983 10.452513 36.245204 0.956475 1.278258 0.085153 -0.052731 -428003.000000 0 0 1
18.847079 29.056483 10.791313 36.275943 0.995381 1.268746 0.069458 -0.038194 -572001.000000 0 0 1
18.964179 30.607883 11.103513 37.679843 1.016101 1.271675 0.063305 -0.020497 -813079.000000 0 0 1
19.190079 31.489883 10.021613 38.213932 1.023490 1.305443 0.089563 -0.045570 578417.000000 0 0 1
18.210979 31.605683 8.964013 37.562115 1.048066 1.329826 0.087160 -0.045431 -323236.000000 0 0 1
16.794579 32.013283 9.310613 37.330894 1.087653 1.318728 0.081751 -0.041225 -1123710.000000 0 0 1
16.760579 33.306383 9.910513 38.580441 1.104573 1.311005 0.086402 -0.038594 695853.000000 0 0 1
15.427179 33.816483 9.999113 38.490708 1.142796 1.308002 0.085277 -0.031481 797332.000000 0 0 1
15.567279 -32.439542 10.209113 37.401739 -1.123369 1.294330 0.080976 -0.034179 25209.800000 0 0 1
16.304079 -31.852842 9.165413 36.938210 -1.097709 1.320049 0.094080 -0.034968 628.281000 0 0 1
16.399679 -30.496142 9.296313 35.852274 -1.077397 1.308504 0.085400 -0.029590 63538.700000 0 0 1
17.165579 -29.888342 8.059913 35.396784 -1.049471 1.341079 0.071196 -0.028410 -58183.200000 0 0 1
16.492879 -29.986242 6.868913 34.905182 -1.067942 1.372716 0.074039 -0.034442 -284008.000000 0 0 1
17.159079 -29.217842 5.906113 34.394745 -1.039782 1.398225 0.060814 -0.021725 -189118.000000 0 0 1
16.574779 -29.325142 4.545213 33.990384 -1.056353 1.436674 0.072939 -0.025444 -215429.000000 0 0 1
16.879779 -30.581342 4.020713 35.161222 -1.066447 1.456195 0.078070 -0.028758 -90506.300000 0 0 1
16.790979 -30.582042 2.619813 34.986593 -1.068685 1.495846 0.079104 -0.027672 -24062.100000 0 0 1
17.145879 -31.990942 2.009413 36.351606 -1.078796 1.515491 0.081978 -0.032660 -443457.000000 0 0 1
18.511079 -32.284042 1.964013 37.266295 -1.050179 1.518070 0.086748 -0.028565 -432207.000000 0 0 1
18.737879 -33.571342 1.495213 38.475691 -1.061717 1.531925 0.106837 -0.032351 399608.000000 0 0 1
20.176879 33.675483 1.655713 39.292314 1.030997 1.528645 0.112052 -0.032852 345291.000000 0 0 1
20.502979 33.323883 2.965613 39.238351 1.019229 1.495145 0.107483 -0.048400 303595.000000 0 0 1
21.873379 32.943483 3.043913 39.660852 0.984665 1.493972 0.096306 -0.040504 270264.000000 0 0 1
22.305979 32.378683 4.391013 39.562821 0.967553 1.459579 0.095019 -0.040272 -89598.400000 0 0 1
21.650279 31.202183 4.855713 38.286927 0.964196 1.443630 0.093242 -0.047030 168674.000000 0 0 1
22.364779 30.607383 5.927513 38.368355 0.939763 1.415685 0.079185 -0.047638 347879.000000 0 0 1
21.415279 29.830983 6.880713 37.361021 0.948166 1.385571 0.088141 -0.050251 -359268.000000 0 0 1
20.820279 28.786183 6.162613 36.056985 0.944621 1.399040 0.100738 -0.046864 339775.000000 0 0 1
19.737679 28.288483 6.993113 35.195424 0.961597 1.370771 0.100931 -0.050426 1146950.000000 0 0 1
18.341179 28.587183 6.349113 34.553395 1.000358 1.385998 0.104653 -0.047214 133828.000000 0 0 1
17.987379 29.985283 6.286513 35.527218 1.030470 1.392910 0.101640 -0.050620 290874.000000 0 0 1
18.366979 30.564283 5.044613 36.013462 1.029694 1.430258 0.115646 -0.052128 -515328.000000 0 0 1
18.168179 32.075083 5.028913 37.204618 1.055429 1.435212 0.115747 -0.048663 -437492.000000 0 0 1
16.892579 32.619383 5.142713 37.092194 1.092956 1.431701 0.103647 -0.044268 -601970.000000 0 0 1
16.997879 -33.811242 5.307613 38.213855 -1.104968 1.431453 0.102929 -0.049085 209450.000000 0 0 1
15.661179 -33.028542 5.533513 36.969946 -1.128025 1.420556 0.083170 -0.042775 562679.000000 0 0 1
14.824979 -33.111742 4.383913 36.542936 -1.149835 1.450541 0.092972 -0.037377 172691.000000 0 0 1
13.565379 -32.492042 4.606713 35.510197 -1.175297 1.440700 0.087633 -0.033968 223152.000000 0 0 1
12.753979 -32.267642 3.349513 34.858054 -1.194386 1.474558 0.082623 -0.025873 -546296.000000 0 0 1
11.517979 -31.643042 3.482713 33.853733 -1.221707 1.467739 0.088342 -0.034150 -316709.000000 0 0 1
10.973979 -31.201142 2.259513 33.151846 -1.232592 1.502587 0.081093 -0.022569 -585600.000000 0 0 1
9.942379 -30.102342 2.311013 31.785888 -1.251791 1.498026 0.084299 -0.024626 -271582.000000 0 0 1
9.203079 -29.583742 1.217913 31.006092 -1.269200 1.531506 0.092287 -0.010541 1011130.000000 0 0 1
8.195779 -30.521042 0.682113 31.609651 -1.308456 1.549215 0.075017 -0.014216 432724.000000 0 0 1
8.435779 -31.047242 -0.790987 32.182592 -1.305493 1.595377 0.085358 -0.016259 -1445150.000000 0 0 1
9.697979 -31.522942 -0.910787 32.993578 -1.272338 1.598405 0.085967 -0.027206 -1634730.000000 0 0 1
9.753979 -32.375242 -2.067887 33.875840 -1.278167 1.631877 0.074909 -0.013585 183785.000000 0 0 1
10.978779 -33.329942 -2.081887 35.153277 -1.252593 1.630054 0.073222 -0.014291 105656.000000 0 0 1
11.029479 33.694383 -0.934587 35.465959 1.254451 1.597151 0.066883 -0.011409 419419.000000 0 0 1
12.186379 32.852883 -0.941687 35.052910 1.215592 1.597664 0.079235 -0.018664 -195419.000000 0 0 1
12.442379 31.851683 0.204413 34.196261 1.198389 1.564819 0.071876 -0.023480 -34594.800000 0 0 1
12.897779 32.495683 1.436313 34.991214 1.192959 1.529737 0.079472 -0.027347 1022590.000000 0 0 1
14.259679 32.947483 1.343913 35.926051 1.162337 1.533380 0.090115 -0.026133 927863.000000 0 0 1
15.440179 31.966083 1.668413 35.538897 1.120827 1.523833 0.098621 -0.030993 -38459.300000 0 0 1
16.079679 31.509783 0.524113 35.379333 1.098937 1.555982 0.096773 -0.032741 -93554.600000 0 0 1
17.042579 30.521983 0.888513 34.968992 1.061549 1.545385 0.098383 -0.027207 555082.000000 0 0 1
17.815379 30.054483 -0.434487 34.940642 1.035710 1.583232 0.094818 -0.025246 876742.000000 0 0 1
18.830779 30.937483 -0.957787 36.230421 1.024025 1.597235 0.086848 -0.021499 801114.000000 0 0 1
18.317879 32.055583 -1.698687 36.959310 1.051641 1.616774 0.085063 -0.026047 386019.000000 0 0 1
19.522179 32.754883 -2.414287 38.207677 1.033317 1.634027 0.095677 -0.024306 848881.000000 0 0 1
20.441679 33.296883 -1.454787 39.098095 1.020203 1.608014 0.093060 -0.025398 285678.000000 0 0 1
21.330079 -33.638542 -2.100687 39.886547 -1.005682 1.623487 0.092580 -0.026129 -1004060.000000 0 0 1
22.370379 -32.910842 -1.156987 39.810752 -0.973807 1.599863 0.095246 -0.021531 -46734.700000 0 0 1
23.318479 -33.705442 -0.490287 40.988397 -0.965574 1.582758 0.090427 -0.022220 507052.000000 0 0 1
24.093479 33.166883 -1.233387 41.012914 0.942550 1.600874 0.088864 -0.012888 -158077.000000 0 0 1
24.903179 33.637583 -2.515987 41.928338 0.933508 1.630839 0.070844 -0.012934 -282694.000000 0 0 1
24.106279 -33.698342 -3.599187 41.589002 -0.949839 1.657447 0.082028 -0.023095 143868.000000 0 0 1
24.936279 -33.003242 -4.497587 41.608416 -0.923740 1.679101 0.074427 -0.019290 25107.000000 0 0 1
24.143879 -32.646642 -5.755987 41.010505 -0.934016 1.711615 0.077282 -0.024677 62372.000000 0 0 1
23.142379 -31.653242 -5.607687 39.609893 -0.939487 1.712846 0.098774 -0.026250 190206.000000 0 0 1
22.796879 -31.259142 -6.906987 39.300612 -0.940684 1.747461 0.101875 -0.030587 -854997.000000 0 0 1
21.793479 -30.150242 -6.971187 37.849574 -0.944912 1.756035 0.114346 -0.034625 -128316.000000 0 0 1
20.552779 -30.515342 -6.358787 37.336805 -0.978062 1.741939 0.113616 -0.032454 -606159.000000 0 0 1
19.755279 -29.406342 -6.421287 36.003290 -0.979246 1.750108 0.128331 -0.040577 110147.000000 0 0 1
18.646079 -29.450442 -5.294187 35.256676 -1.006369 1.721528 0.099479 -0.033736 1295080.000000 0 0 1
17.425779 -30.127842 -5.632587 35.257207 -1.046415 1.731241 0.103456 -0.038039 483192.000000 0 0 1
16.433579 -29.980842 -4.636387 34.502311 -1.069385 1.705583 0.073644 -0.028671 789950.000000 0 0 1
15.073879 -30.690242 -4.939787 34.547276 -1.114244 1.714274 0.064176 -0.022949 530699.000000 0 0 1
15.157879 -32.121342 -4.866487 35.850029 -1.129885 1.706962 0.060941 -0.014184 -315156.000000 0 0 1
13.885079 -32.699542 -5.005587 35.876334 -1.169242 1.710776 0.065643 -0.009796 -86823.800000 0 0 1
14.047079 33.551283 -5.100887 36.729117 1.174295 1.710125 0.059716 -0.010457 2537.890000 0 0 1
14.162279 32.987783 -3.782887 36.098119 1.165273 1.675784 0.069858 -0.016293 -74640.800000 0 0 1
14.713779 31.698783 -3.857987 35.159525 1.136217 1.680746 0.074997 -0.019889 532886.000000 0 0 1
13.764479 30.508483 -4.416887 33.759995 1.146971 1.702004 0.068663 -0.018459 948570.000000 0 0 1
12.687679 30.118083 -3.587987 32.877800 1.172094 1.680145 0.062905 -0.017019 193388.000000 0 0 1
13.152579 29.281883 -2.564587 32.202424 1.148632 1.650520 0.066985 -0.023044 -193098.000000 0 0 1
11.976979 28.459583 -2.010887 30.942520 1.172453 1.635830 0.053393 -0.018288 488426.000000 0 0 1
11.037279 29.267783 -1.291887 31.306447 1.210174 1.612074 0.050103 -0.022306 -864160.000000 0 0 1
10.099679 28.460283 -0.721087 30.207800 1.229790 1.594669 0.030462 -0.010659 -1014270.000000 0 0 1
9.060779 29.284883 0.037813 30.654584 1.270737 1.569563 0.019645 -0.003271 -84557.000000 0 0 1
8.175579 28.493883 0.795213 29.654238 1.291379 1.543977 0.012204 -0.006872 189365.000000 0 0 1
7.020579 29.243483 1.212613 30.098841 1.335182 1.530498 0.028610 -0.007940 389564.000000 0 0 1
6.000679 28.395583 1.978813 29.090084 1.362536 1.502720 0.016813 -0.011451 -3785.900000 0 0 1
5.317779 27.558783 1.062513 28.087261 1.380178 1.532958 0.026502 -0.016373 281070.000000 0 0 1
4.126379 26.996983 1.619213 27.358471 1.419124 1.511577 0.030996 -0.017555 529424.000000 0 0 1
3.629479 25.800083 0.821913 26.067085 1.431036 1.539260 0.035830 -0.023223 1101470.000000 0 0 1
2.256879 25.496983 1.185813 25.624125 1.482511 1.524503 0.061896 -0.023143 1076900.000000 0 0 1
1.754079 24.577883 0.210513 24.641295 1.499549 1.562253 0.055441 -0.019794 -21898.100000 0 1 0
0.431779 23.894683 0.610513 23.906380 1.552728 1.545256 0.062375 -0.019650 -261582.000000 0 1 0
-0.604021 24.807783 0.729613 24.825858 -1.546453 1.541403 0.073907 -0.028457 -765454.000000 0 1 0
-1.871021 24.234083 0.518713 24.311737 -1.493743 1.549459 0.064889 -0.018652 -457647.000000 0 1 0
-2.999721 24.928283 1.250113 25.139220 -1.451038 1.521048 0.084835 -0.032489 -384462.000000 0 0 1
-4.282421 24.600583 0.742213 24.981567 -1.398445 1.541082 0.075915 -0.019353 -301026.000000 0 1 0
-5.252721 24.982883 1.668513 25.583577 -1.363562 1.505532 0.070486 -0.023434 -980810.000000 0 0 1
-6.605821 25.182383 1.032213 26.054841 -1.314257 1.531169 0.081938 -0.030159 -869187.000000 0 0 1
-6.732921 26.458683 0.448113 27.305584 -1.321616 1.554385 0.104931 -0.027028 311038.000000 0 0 1
-7.796221 26.579283 -0.497587 27.703554 -1.285480 1.588758 0.098888 -0.019984 1345.680000 0 0 1
-7.633221 27.775383 -1.439087 28.841097 -1.302598 1.620714 0.094091 -0.011268 2144.770000 0 0 1
-7.570221 28.998183 -0.765687 29.979812 -1.315437 1.596339 0.120238 -0.029920 -39105.300000 0 0 1
-7.535221 30.052783 -1.739287 31.031829 -1.325128 1.626874 0.108310 -0.025607 121964.000000 0 0 1
-7.268121 31.455083 -1.121487 32.303336 -1.343718 1.605521 0.089372 -0.020087 -624030.000000 0 0 1
-7.649621 32.569283 -1.871987 33.507897 -1.340105 1.626692 0.081704 -0.001918 -76858.500000 0 0 1
-7.012421 32.854083 -3.154287 33.741878 -1.360510 1.664416 0.077775 -0.005386 521670.000000 0 0 1
-5.463221 33.063383 -3.198087 33.663954 -1.407041 1.665940 0.104914 -0.011556 412798.000000 0 0 1
-5.002821 -33.596842 -2.484587 34.058026 1.422975 1.643813 0.109325 -0.021256 109358.000000 0 0 1
-4.950121 -33.726642 -1.068487 34.104717 1.425065 1.602131 0.127015 -0.033891 -627479.000000 0 0 1
-4.804321 -32.447542 -0.272587 32.802420 1.423800 1.579106 0.126044 -0.035942 278380.000000 0 0 1
-5.968721 -31.627242 -0.250287 32.186498 1.384269 1.578573 0.105115 -0.026976 272000.000000 0 0 1
-5.874321 -30.644242 -1.250487 31.227246 1.381400 1.610852 0.106058 -0.027137 335835.000000 0 0 1
-7.195921 -29.823742 -1.367187 30.710032 1.334040 1.615330 0.119501 -0.031564 424058.000000 0 0 1
-7.414521 -29.097442 -0.163387 30.027703 1.321289 1.576238 0.110016 -0.025082 380801.000000 0 0 1
-8.626421 -28.329942 -0.153787 29.614597 1.275218 1.575989 0.076633 -0.013396 599395.000000 0 0 1
-8.763721 -27.748442 1.249213 29.126266 1.264883 1.527894 0.082369 -0.012473 -124281.000000 0 0 1
-7.725621 -26.838442 1.467013 27.966753 1.290517 1.518317 0.100144 -0.019154 -507233.000000 0 0 1
-7.625721 -26.446642 2.790913 27.665243 1.290067 1.469743 0.110113 -0.020514 148606.000000 0 0 1
-8.596421 -25.323642 3.274913 26.942723 1.243540 1.448944 0.097410 -0.015554 192894.000000 0 0 1
-8.355321 -24.010942 2.824813 25.579607 1.235922 1.460138 0.102167 -0.019411 -90009.300000 0 0 1
-9.361921 -23.088642 3.276313 25.128971 1.185577 1.440044 0.099070 -0.028711 309988.000000 0 0 1
-8.791021 -21.761042 3.681513 23.756652 1.186864 1.415202 0.073324 -0.007774 394767.000000 0 1 0
-7.865821 -21.787842 4.773913 23.651034 1.224339 1.367552 0.081731 -0.013364 -83228.300000 0 1 0
-7.249921 -20.556042 5.105913 22.387107 1.231727 1.340697 0.056994 -0.012597 86401.700000 0 1 0
-8.124621 -19.476042 5.784913 21.881291 1.175585 1.303238 0.060460 -0.014387 -142089.000000 0 1 0
-8.572821 -19.914242 7.046713 22.797510 1.164287 1.256550 0.070197 -0.016505 -74982.100000 0 1 0
-9.211521 -18.838742 7.711513 22.343181 1.116014 1.218409 0.049156 -0.015733 -216334.000000 0 1 0
-28.152561 28.337283 -5.681087 40.346536 -0.788668 1.712073 0.136684 -0.013004 4742.770000 0 0 1
-27.572251 29.331783 -4.808087 40.542572 -0.816309 1.689670 0.119336 -0.022395 62418.600000 0 0 1
-26.654451 28.619783 -4.000287 39.313534 -0.820939 1.672726 0.102431 -0.020219 278111.000000 0 0 1
-25.620241 29.548183 -3.284787 39.246422 -0.856477 1.654591 0.086616 -0.020742 -178236.000000 0 0 1
-26.193711 30.278483 -2.232987 40.098419 -0.857605 1.626513 0.066532 -0.024489 36835.300000 0 0 1
-25.332651 31.191783 -1.563587 40.213372 -0.888686 1.609688 0.056136 -0.024517 630178.000000 0 0 1
-24.111121 30.629283 -0.732087 38.987627 -0.903914 1.589575 0.045723 -0.019390 610852.000000 0 0 1
-22.999321 30.356583 -1.556687 38.117111 -0.922424 1.611647 0.086022 -0.029967 -190989.000000 0 0 1
-21.853321 30.133283 -0.778787 37.231557 -0.943343 1.591715 0.083139 -0.026927 -411242.000000 0 0 1
-20.651821 29.563283 -1.506187 36.093683 -0.961035 1.612538 0.090817 -0.029623 -518626.000000 0 0 1
-19.429021 29.541383 -0.814387 35.367264 -0.989035 1.593825 0.096361 -0.030144 -173392.000000 0 0 1
-18.448421 28.914483 -1.624087 34.336994 -1.002879 1.618112 0.105875 -0.029089 390268.000000 0 0 1
-17.014321 29.233583 -1.091687 33.842004 -1.043708 1.603060 0.118604 -0.033272 252864.000000 0 0 1
-16.629821 28.571583 0.082913 33.058934 -1.043687 1.568288 0.123234 -0.037964 731317.000000 0 0 1
-15.349421 29.093783 0.503513 32.898426 -1.085326 1.555491 0.131577 -0.041611 1019600.000000 0 0 1
-14.720021 28.101783 1.537913 31.760894 -1.088282 1.522356 0.132290 -0.043579 59032.100000 0 0 1
-15.426121 28.167083 2.760613 32.233069 -1.069748 1.485046 0.128033 -0.047883 417181.000000 0 0 1
-14.672921 27.572083 3.835713 31.467873 -1.081748 1.448599 0.132589 -0.051957 366547.000000 0 0 1
-13.615821 28.441183 4.549513 31.858900 -1.124304 1.427505 0.118428 -0.040117 -31515.500000 0 0 1
-13.972421 29.569483 5.358013 33.140476 -1.129367 1.408408 0.097891 -0.029604 -216547.000000 0 0 1
-14.431221 30.777483 4.692413 34.315190 -1.132346 1.433622 0.100600 -0.036785 -61434.100000 0 0 1
-14.263721 32.005383 5.564213 35.478990 -1.151552 1.413315 0.102236 -0.037821 -169693.000000 0 0 1
-15.254621 32.300283 6.513313 36.310260 -1.129574 1.390441 0.111229 -0.046581 18210.500000 0 0 1
-14.857021 33.515783 7.111113 37.344433 -1.153541 1.379207 0.085368 -0.038982 405101.000000 0 0 1
-15.978721 -33.775442 8.040013 38.219652 1.128910 1.358850 0.066010 -0.032637 320194.000000 0 0 1
-16.100221 33.300283 9.248313 38.126857 -1.120447 1.325785 0.048172 -0.038119 -202615.000000 0 0 1
-17.257821 33.613283 9.974513 39.079100 -1.096468 1.312701 0.051480 -0.039222 -689270.000000 0 0 1
-17.313821 32.859883 11.328613 38.831401 -1.085862 1.274752 0.042645 -0.026818 173559.000000 0 0 1
-16.373921 33.224883 12.303513 39.030431 -1.112908 1.250099 0.054399 -0.033262 65839.300000 0 0 1
-15.040221 32.763383 12.152513 38.043804 -1.140437 1.245663 0.065819 -0.033622 234918.000000 0 0 1
-14.115321 33.121983 13.391713 38.414138 -1.167942 1.214704 0.075178 -0.033146 33992.300000 0 0 1
-14.372721 32.458483 14.650313 38.402602 -1.153943 1.179386 0.059354 -0.025504 17135.000000 0 0 1
-13.830821 31.155383 14.797213 37.160557 -1.153001 1.161246 0.035300 -0.023403 -237943.000000 0 0 1
-14.684321 29.995383 14.230413 36.302299 -1.115541 1.167994 0.032350 -0.027729 -45788.600000 0 0 1
-14.734321 29.951083 12.811613 35.753391 -1.113613 1.204315 0.037403 -0.023695 -277369.000000 0 0 1
-15.890821 29.353183 12.322013 35.580325 -1.074606 1.217156 0.028871 -0.021552 -554368.000000 0 0 1
-15.968121 29.252983 10.778213 35.026957 -1.071135 1.258009 0.038224 -0.016113 355763.000000 0 0 1
-15.076121 28.255783 10.233013 33.621321 -1.080664 1.261529 0.038825 -0.016229 585228.000000 0 0 1
-15.246021 28.220083 8.794313 33.258896 -1.075466 1.303194 0.059468 -0.019513 -140763.000000 0 0 1
-14.589021 26.930583 8.293013 31.731213 -1.074327 1.306374 0.064968 -0.023052 1157150.000000 0 0 1
-13.162421 27.125383 8.154013 31.233374 -1.119023 1.306669 0.079791 -0.027408 889613.000000 0 0 1
-12.486421 25.919783 8.056613 29.877330 -1.121869 1.297760 0.081589 -0.028381 650380.000000 0 0 1
-11.122221 25.935783 7.258713 29.138592 -1.165680 1.319035 0.114670 -0.034912 816775.000000 0 0 1
-11.243021 26.133083 5.877413 29.049742 -1.164511 1.367068 0.122151 -0.037944 502146.000000 0 0 1
-9.974421 25.982383 5.244513 28.320985 -1.204253 1.384540 0.118784 -0.030279 181319.000000 0 0 1
-9.987821 26.350983 3.728313 28.425889 -1.208497 1.439258 0.127588 -0.034919 33425.300000 0 0 1
-10.021821 27.736283 3.470813 29.694861 -1.224068 1.453646 0.129591 -0.029695 -25701.000000 0 0 1
-10.100521 27.922883 2.077713 29.766168 -1.223711 1.500938 0.128611 -0.036368 65303.100000 0 0 1
-10.048721 29.469083 1.638013 31.178305 -1.242169 1.518235 0.141990 -0.038146 932386.000000 0 0 1
-11.175121 30.261583 2.064413 32.325044 -1.217046 1.506889 0.139130 -0.038459 532242.000000 0 0 1
-10.796021 31.632083 2.055213 33.486812 -1.241893 1.509384 0.125029 -0.035301 -166725.000000 0 0 1
-11.735621 32.538083 2.845113 34.706574 -1.224645 1.488728 0.126860 -0.032034 248105.000000 0 0 1
-13.068321 32.618083 2.353013 35.217282 -1.189733 1.503932 0.130616 -0.035690 163837.000000 0 0 1
-13.321621 33.552383 1.276913 36.122825 -1.192845 1.535440 0.109489 -0.025689 -1440850.000000 0 0 1
-14.768021 33.827283 0.957913 36.922853 -1.159166 1.544850 0.115299 -0.025185 -980669.000000 0 0 1
-15.370821 32.765083 0.252813 36.192218 -1.132155 1.563811 0.107107 -0.021214 -145893.000000 0 0 1
-15.402321 33.016983 -1.153487 36.451106 -1.134309 1.602446 0.110555 -0.028462 500584.000000 0 0 1
-14.077621 32.773883 -1.974287 35.724006 -1.165088 1.626089 0.111613 -0.022181 567036.000000 0 0 1
-13.703621 31.406383 -2.201187 34.336501 -1.159366 1.634947 0.114983 -0.022095 538590.000000 0 0 1
-12.292821 31.228483 -2.269187 33.637490 -1.195784 1.638308 0.105318 -0.014467 475638.000000 0 0 1
-11.762121 29.753883 -2.436987 32.087068 -1.194336 1.646819 0.073813 -0.015306 186722.000000 0 0 1
-11.910221 29.182683 -3.761787 31.743241 -1.183304 1.689582 0.089673 -0.025073 -1068190.000000 0 0 1
-10.803221 29.362283 -4.544087 31.614900 -1.218240 1.715028 0.069826 -0.014275 -843143.000000 0 0 1
-10.867821 28.816483 -5.984987 31.373863 -1.210152 1.762736 0.068418 -0.007657 -95038.900000 0 0 1
-10.985721 27.415183 -6.046787 30.147005 -1.189672 1.772743 0.079978 -0.004998 -23296.200000 0 0 1
-10.789321 26.916883 -7.348887 29.915450 -1.189567 1.818992 0.075536 -0.001926 227660.000000 0 0 1
-11.381621 25.495383 -7.575387 28.929955 -1.150924 1.835738 0.088770 -0.021286 231344.000000 0 0 1
-10.596721 24.577483 -6.878187 27.634265 -1.163723 1.822341 0.050871 -0.011350 -16266.100000 0 0 1
-11.143321 23.268083 -6.926187 26.712344 -1.124163 1.833081 0.114898 -0.036090 -12651.300000 0 0 1
-10.613921 22.303683 -5.840687 25.381552 -1.126629 1.802993 0.083477 -0.032612 138644.000000 0 0 1
-9.251121 21.943383 -6.051987 24.570751 -1.171817 1.819666 0.068378 -0.026759 290644.000000 0 1 0
-8.844621 20.670883 -5.492687 23.144812 -1.166490 1.810401 0.059209 -0.020441 -168356.000000 0 1 0
-8.630921 20.517883 -3.909387 22.599991 -1.172613 1.744653 0.052633 -0.036031 743103.000000 0 1 0
-9.845621 20.621583 -3.142587 23.066464 -1.125357 1.707462 0.074330 -0.036928 646834.000000 0 1 0
-10.692121 19.491283 -3.173587 22.456696 -1.069060 1.712591 0.075600 -0.031856 357019.000000 0 1 0
-11.933821 19.592483 -2.226387 23.048606 -1.023711 1.667542 0.073538 -0.030015 133245.000000 0 1 0
-11.685321 19.539883 -0.837587 22.782785 -1.031831 1.607569 0.060973 -0.032323 48716.900000 0 1 0
-11.214821 18.331383 -0.345087 21.492577 -1.021758 1.586853 0.052941 -0.024853 -338029.000000 0 1 0
-11.076621 18.416883 1.223313 21.526021 -1.029320 1.513936 0.052783 -0.025643 -32829.000000 0 1 0
-12.245921 18.319883 2.015613 22.127887 -0.981560 1.479581 0.079397 -0.037757 347025.000000 0 1 0
-11.882921 18.464183 3.401413 22.219349 -0.998957 1.417109 0.075541 -0.029762 -26412.200000 0 1 0
-13.177021 18.508683 4.233513 23.111206 -0.952104 1.386576 0.093631 -0.031588 -263890.000000 0 1 0
-13.773221 17.256283 4.141513 22.464038 -0.897180 1.385374 0.065136 -0.024229 259866.000000 0 1 0
-15.023621 17.335783 4.829113 23.442672 -0.856729 1.363314 0.087494 -0.033904 183742.000000 0 1 0
-15.434621 15.942683 5.335313 22.822406 -0.801589 1.334838 0.057871 -0.022142 -534041.000000 0 1 0
-14.693021 15.308183 6.331413 22.142992 -0.805900 1.280816 0.058919 -0.020059 -230437.000000 0 1 0
-15.082921 15.643083 7.663213 23.041818 -0.803627 1.231760 0.062350 -0.015053 -481061.000000 0 1 0
-13.890221 15.712583 8.632813 22.679262 -0.846881 1.180300 0.064621 -0.011887 23197.900000 0 1 0
-12.941621 16.701683 8.349213 22.718739 -0.911568 1.194473 0.065223 -0.028246 66370.000000 0 1 0
-11.877121 16.247583 7.510413 21.481532 -0.939561 1.213629 0.061529 -0.021277 -67748.800000 0 1 0
-10.743121 17.296883 7.350613 21.647824 -1.015005 1.224353 0.073252 -0.028891 721764.000000 0 1 0
-9.849921 17.262483 8.492813 21.613471 -1.052277 1.166969 0.067578 -0.022581 697561.000000 0 1 0
-8.956021 18.373283 8.609513 22.179079 -1.117241 1.172139 0.058153 -0.025229 -8052.530000 0 1 0
-7.816821 18.300883 9.611113 22.099739 -1.167125 1.120872 0.055844 -0.024683 496018.000000 0 1 0
-6.691421 17.567983 9.058413 20.867773 -1.206874 1.121773 0.045626 -0.019444 678562.000000 0 1 0
-5.434921 17.656783 9.698813 20.865457 -1.272191 1.087358 0.044460 -0.023073 660537.000000 0 1 0
-4.530921 18.820083 9.177513 21.423153 -1.334543 1.128084 0.033069 -0.018287 -538178.000000 0 1 0
-4.774321 20.115683 9.648713 22.815181 -1.337765 1.134145 0.038583 -0.019473 -45724.900000 0 1 0
-4.300021 21.100283 8.739113 23.239712 -1.369759 1.185275 0.045093 -0.017756 -147963.000000 0 1 0
-2.875021 21.668683 8.801513 23.564044 -1.438886 1.188001 0.056333 -0.014340 331838.000000 0 1 0
-1.892221 20.648283 8.517913 22.416220 -1.479411 1.181012 0.039855 -0.000950 -385208.000000 0 1 0
-0.668021 21.227683 8.213913 22.771235 -1.539337 1.201763 0.032272 -0.010580 -545529.000000 0 1 0
0.526379 20.277483 8.157213 21.863062 1.544843 1.188443 0.015461 -0.011747 203857.000000 0 1 0
1.029879 19.909383 9.416713 22.048099 1.519114 1.129515 0.018165 -0.007883 -1223010.000000 0 1 0
2.274379 19.307083 9.329713 21.563390 1.453536 1.123350 0.010257 -0.016294 -751159.000000 0 1 0
2.782679 18.822083 10.631113 21.795290 1.424018 1.061262 0.009022 -0.031706 691589.000000 0 1 0
4.110179 18.244283 10.620013 21.506559 1.349210 1.054338 0.026500 -0.022353 952949.000000 0 1 0
4.583779 18.213483 11.974213 22.273836 1.324247 1.003219 0.026529 -0.020695 156890.000000 0 1 0
6.135579 18.251483 12.007513 22.692341 1.246496 1.013205 0.035472 -0.025966 259528.000000 0 1 0
6.746179 17.108183 11.353213 21.612411 1.195192 1.017717 0.026975 -0.025510 -153567.000000 0 1 0
7.766779 16.671783 12.223613 22.083657 1.134829 0.984219 0.034957 -0.013914 -493691.000000 0 1 0
8.864179 15.910483 11.437013 21.506334 1.062497 1.010075 0.040793 -0.023779 -19203.600000 0 1 0
9.896479 16.813183 11.049713 22.421409 1.038791 1.055469 0.059413 -0.030706 -894224.000000 0 1 0
10.843279 16.233383 10.273313 22.059927 0.981898 1.086371 0.054798 -0.029850 -1381520.000000 0 1 0
12.099179 17.107683 10.298913 23.348031 0.955230 1.113968 0.063564 -0.027030 -864176.000000 0 1 0
12.873079 16.813383 9.187113 23.082657 0.917357 1.161450 0.061799 -0.019272 103118.000000 0 1 0
13.934079 17.800483 9.074813 24.359146 0.906636 1.189049 0.081913 -0.017319 970479.000000 0 1 0
14.823179 17.575283 7.797713 24.278005 0.870140 1.243817 0.090871 -0.017079 -227323.000000 0 1 0
15.653079 16.456483 7.834013 24.025122 0.810414 1.238647 0.101308 -0.034049 -450497.000000 0 1 0
16.510879 16.565083 6.754913 24.344197 0.787037 1.289631 0.083187 -0.024686 -127549.000000 0 1 0
18.013379 16.652983 7.136613 25.548677 0.746176 1.287696 0.104035 -0.022565 222310.000000 0 0 1
18.639379 15.507183 7.740313 25.452144 0.693926 1.261790 0.120719 -0.028996 1129750.000000 0 0 1
19.827379 15.899183 8.463213 26.786843 0.675886 1.249342 0.117333 -0.029710 761023.000000 0 0 1
20.263679 14.855183 9.543613 26.877011 0.632593 1.207792 0.116872 -0.032635 45532.200000 0 0 1
20.470879 13.548483 9.148613 26.197622 0.584655 1.214063 0.099688 -0.029905 368471.000000 0 0 1
20.504979 12.710283 10.267413 26.218796 0.554897 1.168421 0.098842 -0.028927 71350.200000 0 0 1
21.493779 11.554183 9.945913 26.351525 0.493242 1.183775 0.094464 -0.022872 905520.000000 0 0 1
22.901479 11.753383 10.197713 27.687779 0.474164 1.193605 0.104433 -0.033491 2137150.000000 0 0 1
23.805179 10.804083 9.556713 27.834251 0.426055 1.220322 0.138289 -0.028494 571276.000000 0 0 1
23.820279 9.310683 9.967313 27.448895 0.372613 1.199179 0.147283 -0.035123 -330568.000000 0 0 1
22.708879 8.579283 9.433313 26.043899 0.361218 1.200160 0.148609 -0.035218 875805.000000 0 0 1
22.729479 7.177883 9.606513 25.698956 0.305885 1.187683 0.144945 -0.039075 -162.840000 0 0 1
23.948479 6.404783 8.993213 26.370984 0.261324 1.222787 0.179534 -0.038561 282588.000000 0 0 1
23.808079 6.247183 7.579413 25.754600 0.256613 1.272080 0.158036 -0.025171 -173036.000000 0 0 1
24.940579 5.767883 6.942413 26.523538 0.227269 1.305966 0.177531 -0.027595 -598221.000000 0 0 1
24.636379 5.408083 5.458713 25.806900 0.216089 1.357665 0.169183 -0.032882 746149.000000 0 0 1
23.596379 4.378883 5.401213 24.599529 0.183487 1.349427 0.144519 -0.021845 1278420.000000 0 1 0
23.185579 4.093683 4.092513 23.897238 0.174760 1.398693 0.140555 -0.029090 -105803.000000 0 1 0
22.219079 2.894083 4.109313 22.780467 0.129523 1.389416 0.112063 -0.019655 127437.000000 0 1 0
22.902579 1.619883 4.230513 23.346293 0.070612 1.388583 0.155303 -0.023657 1457260.000000 0 1 0
21.941879 0.537383 4.040613 22.317289 0.024486 1.388739 0.125898 -0.018151 825410.000000 0 1 0
22.698979 -0.857817 4.021613 23.068439 -0.037773 1.395567 0.158261 -0.023340 -272762.000000 0 1 0
23.113679 -1.337817 5.283213 23.747511 -0.057815 1.346445 0.176589 -0.030364 638387.000000 0 1 0
22.907579 -2.732317 5.392113 23.691721 -0.118715 1.341189 0.152906 -0.032560 -376184.000000 0 1 0
22.987779 -3.365217 6.795813 24.206317 -0.145359 1.286226 0.187798 -0.037401 -77738.400000 0 1 0
22.644279 -4.688917 6.974013 24.153389 -0.204183 1.277887 0.151886 -0.038979 395703.000000 0 1 0
22.853979 -5.082617 8.330713 24.850315 -0.218834 1.228941 0.196250 -0.042091 37789.900000 0 1 0
22.484079 -6.580517 8.585013 24.950741 -0.284723 1.219539 0.177302 -0.045725 202262.000000 0 1 0
21.079079 -6.735517 8.613913 23.746458 -0.309282 1.199584 0.159177 -0.043397 464180.000000 0 1 0
20.788579 -8.080117 9.085513 24.083187 -0.370710 1.183965 0.146466 -0.042730 -77495.300000 0 1 0
-27.524371 -32.583442 5.010513 42.946209 0.869367 1.453861 0.036716 -0.018015 228223.000000 0 0 1
-28.472811 -33.463242 5.589713 44.291471 0.865798 1.444256 0.046354 -0.021785 34016.100000 0 0 1
-28.098041 -33.881742 6.888613 44.552500 0.878445 1.415556 0.047512 -0.009102 -257430.000000 0 0 1
-28.835831 32.713383 7.431113 44.236772 -0.848314 1.402011 0.061104 -0.018439 351018.000000 0 0 1
-30.227741 32.991583 7.538913 45.376161 -0.829089 1.403880 0.064941 -0.018508 154899.000000 0 0 1
-30.953431 31.817583 7.900113 45.087528 -0.799164 1.394670 0.075331 -0.024223 -511742.000000 0 0 1
-32.454961 32.010783 7.930713 46.269978 -0.778508 1.398545 0.081165 -0.024531 -769120.000000 0 0 1
-33.051491 32.166383 6.664513 46.599280 -0.771827 1.427287 0.066130 -0.027330 736920.000000 0 0 1
-34.482392 32.136083 6.726813 47.613161 -0.750193 1.429042 0.066866 -0.029106 485347.000000 0 0 1
-35.251319 32.050783 5.419413 47.950789 -0.737879 1.457534 0.054653 -0.025171 -514176.000000 0 0 1
-35.380869 30.711483 4.997413 47.116612 -0.714866 1.464532 0.054862 -0.026141 234667.000000 0 0 1
-35.854064 30.543383 3.677713 47.243388 -0.705585 1.492871 0.062682 -0.012307 -332695.000000 0 0 1
-35.472822 29.197583 3.131413 46.050251 -0.688667 1.502744 0.070119 -0.018757 -374417.000000 0 0 1
-36.017479 28.089183 3.740613 45.828519 -0.662349 1.489083 0.103374 -0.029548 -13066.900000 0 0 1
-35.435319 26.894883 3.192313 44.600307 -0.649227 1.499159 0.087307 -0.025323 -62329.500000 0 0 1
-35.948167 25.585683 3.854613 44.291713 -0.618561 1.483658 0.101329 -0.026812 1194550.000000 0 0 1
-37.313261 25.217683 3.522913 45.173243 -0.594324 1.492730 0.117008 -0.025270 661522.000000 0 0 1
36.852773 24.465583 4.554913 44.468403 0.586066 1.468186 0.115348 -0.023372 -90017.500000 0 0 1
35.367603 24.080483 4.343113 43.006972 0.597766 1.469638 0.134810 -0.029268 -126247.000000 0 0 1
35.136273 23.216983 3.250113 42.239190 0.583909 1.493775 0.122847 -0.032932 202277.000000 0 0 1
35.734023 21.924083 3.324313 42.055165 0.550312 1.491667 0.107747 -0.028278 -713060.000000 0 0 1
35.128523 20.901083 2.315813 40.941805 0.536727 1.514203 0.117837 -0.020018 723348.000000 0 0 1
33.716053 20.662783 2.277313 39.609456 0.549812 1.513270 0.120035 -0.021709 900672.000000 0 0 1
33.071083 20.129583 3.391613 38.863861 0.546775 1.483416 0.105095 -0.020662 -531366.000000 0 0 1
33.072813 18.620783 3.464713 38.112318 0.512787 1.479763 0.112281 -0.024102 -434517.000000 0 0 1
32.229043 18.064683 2.472513 37.029141 0.510876 1.503975 0.099019 -0.031069 302293.000000 0 0 1
32.366033 16.678283 2.258413 36.480483 0.475814 1.508849 0.101984 -0.030294 -99113.500000 0 0 1
31.679423 15.697183 3.324513 35.511122 0.460042 1.477040 0.122042 -0.032764 -287640.000000 0 0 1
30.295073 15.816483 3.166213 34.321677 0.481156 1.478414 0.104356 -0.025620 -690367.000000 0 0 1
29.625433 14.865583 3.954813 33.381018 0.465074 1.452042 0.092681 -0.031633 -1001380.000000 0 0 1
28.148713 15.179983 3.899413 32.217811 0.494574 1.449466 0.094148 -0.029346 -936734.000000 0 0 1
27.440813 14.683883 2.770113 31.245610 0.491340 1.482024 0.099663 -0.029344 697677.000000 0 0 1
26.071013 15.102983 2.776313 30.257325 0.525061 1.478910 0.077769 -0.016606 457885.000000 0 0 1
25.398113 14.677783 1.407813 29.368068 0.524017 1.522841 0.089102 -0.023841 -277341.000000 0 0 1
25.810213 15.092383 0.103113 29.899126 0.529127 1.567348 0.099485 -0.024754 -190338.000000 0 0 1
26.993413 14.457683 -0.310087 30.622950 0.491721 1.580922 0.106727 -0.024591 -923823.000000 0 0 1
27.674513 15.112483 -1.523087 31.568744 0.499828 1.619062 0.123528 -0.030892 215619.000000 0 0 1
28.313113 16.395583 -1.413587 32.748217 0.524896 1.613975 0.095141 -0.030104 1144940.000000 0 0 1
29.273313 16.565883 -0.341387 33.637358 0.514971 1.580946 0.110171 -0.032378 -94940.100000 0 0 1
29.705723 18.030883 -0.113887 34.749902 0.545539 1.574074 0.116019 -0.027506 191863.000000 0 0 1
30.659813 18.407383 -1.106387 35.778205 0.540695 1.601725 0.095541 -0.023031 226205.000000 0 0 1
31.207683 19.688283 -0.872287 36.909468 0.562816 1.594432 0.103296 -0.012249 -257024.000000 0 0 1
32.407613 19.949283 -1.766787 38.096572 0.551792 1.617189 0.094381 -0.014777 -574589.000000 0 0 1
33.022953 21.184083 -1.891887 39.279257 0.570374 1.618980 0.056471 -0.008356 383417.000000 0 0 1
32.240993 22.138783 -2.618087 39.197726 0.601721 1.637638 0.091099 -0.008729 -14397.700000 0 0 1
32.901133 23.554783 -2.686287 40.552786 0.621335 1.637087 0.107167 -0.013564 -41997.800000 0 0 1
32.924953 24.210383 -1.412587 40.892427 0.634040 1.605347 0.124808 -0.011156 371868.000000 0 0 1
34.011523 23.887983 -0.549087 41.565862 0.612301 1.584007 0.145375 -0.005988 -248856.000000 0 0 1
34.384003 24.933083 0.500713 42.475511 0.627397 1.559008 0.155932 -0.021935 8256.230000 0 0 1
35.049983 26.084783 -0.065587 43.691206 0.639790 1.572297 0.167440 -0.013315 815535.000000 0 0 1
36.361143 26.177983 0.515113 44.807196 0.623986 1.559300 0.142879 -0.013642 620721.000000 0 0 1
37.194223 27.391783 0.039013 46.192224 0.634774 1.569952 0.102809 -0.023741 -243376.000000 0 0 1
-37.088151 27.281083 -1.329587 46.060354 -0.634204 1.599667 0.089932 -0.022374 -123539.000000 0 0 1
36.624893 27.691683 -2.253087 45.970518 0.647387 1.619828 0.081679 -0.017375 -315881.000000 0 0 1
36.925943 27.040883 -3.633987 45.912313 0.632077 1.650030 0.075746 -0.014257 407658.000000 0 0 1
-36.812191 27.659183 -4.540987 46.268654 -0.644371 1.669098 0.076652 -0.009755 423728.000000 0 0 1
-36.736501 26.989383 -5.810187 45.953841 -0.633621 1.697571 0.079117 -0.010340 -704810.000000 0 0 1
36.847543 27.227383 -6.837487 46.323029 0.636372 1.718942 0.067507 0.000530 -68430.100000 0 0 1
35.573323 26.751683 -6.390087 44.966066 0.644790 1.713388 0.077681 -0.003735 178879.000000 0 0 1
34.629443 26.959883 -7.446387 44.513844 0.661508 1.738869 0.066074 -0.005488 -1305.820000 0 0 1
33.353073 26.141283 -7.184687 42.981553 0.664769 1.738742 0.076027 0.002860 -775398.000000 0 0 1
33.469643 24.733683 -7.308487 42.253829 0.636416 1.744637 0.072307 -0.004714 -195488.000000 0 0 1
34.136733 24.135383 -6.196987 42.263884 0.615422 1.717953 0.079486 -0.006589 27160.500000 0 0 1
34.217853 22.639483 -6.469687 41.536303 0.584506 1.727193 0.085281 -0.003153 477640.000000 0 0 1
33.020803 21.952283 -6.134687 40.123690 0.586710 1.724293 0.063763 0.000326 415055.000000 0 0 1
33.309823 20.540583 -6.145787 39.613515 0.552574 1.726569 0.066032 -0.004138 426666.000000 0 0 1
32.191323 19.697483 -5.469687 38.133838 0.549115 1.714727 0.068333 -0.006280 670088.000000 0 0 1
30.997543 19.519483 -6.221987 37.156036 0.561980 1.739045 0.064917 -0.011810 844916.000000 0 0 1
30.031753 18.734383 -5.484087 35.818410 0.557750 1.724509 0.076294 -0.023796 65390.700000 0 0 1
28.778213 18.337483 -6.235487 34.689049 0.567324 1.751532 0.046717 -0.021827 -702094.000000 0 0 1
28.981913 17.259083 -7.189287 34.489318 0.537113 1.780786 0.039403 -0.025069 -141830.000000 0 0 1
27.926413 17.142983 -8.098387 33.754263 0.550550 1.813082 0.060716 -0.026576 -195922.000000 0 0 1
28.286013 16.097983 -9.168787 33.812871 0.517400 1.845397 0.053089 -0.025014 -153822.000000 0 0 1
27.469513 16.208983 -10.326187 33.525146 0.533087 1.883900 0.065780 -0.026513 177349.000000 0 0 1
27.703213 15.155883 -11.152687 33.489569 0.500599 1.910301 0.068410 -0.020796 -295284.000000 0 0 1
27.023513 15.279483 -12.520287 33.473728 0.514601 1.954150 0.082104 -0.020781 105436.000000 0 0 1
25.604313 15.410483 -12.447687 32.372963 0.541794 1.965472 0.079507 -0.019132 691824.000000 0 0 1
24.916713 15.415383 -13.700487 32.344705 0.554039 2.008187 0.077816 -0.024434 -97089.200000 0 0 1
24.819913 14.007883 -14.433587 31.946475 0.513817 2.039584 0.065742 -0.029175 -368870.000000 0 0 1
26.041713 13.439783 -14.907487 32.879047 0.476434 2.041377 0.078121 -0.031135 508352.000000 0 0 1
26.520613 14.081183 -16.108487 34.075005 0.488102 2.063190 0.082051 -0.034465 101526.000000 0 0 1
28.019413 13.773183 -16.398987 35.266341 0.456872 2.054435 0.088690 -0.031512 382049.000000 0 0 1
28.137413 12.450183 -16.871287 35.090759 0.416581 2.072352 0.071283 -0.030615 -654288.000000 0 0 1
29.427613 12.226483 -17.313387 36.266026 0.393777 2.068489 0.068301 -0.015472 -688308.000000 0 0 1
29.470813 10.787983 -17.875987 36.117313 0.350907 2.088565 0.042350 -0.014042 -174943.000000 0 0 1
28.573113 10.590083 -18.955487 35.887089 0.354935 2.127273 0.043009 -0.014052 54106.600000 0 0 1
28.681213 9.359183 -19.641487 35.999921 0.315423 2.147899 0.025973 0.002107 -1023480.000000 0 0 1
29.933813 9.105783 -20.426687 37.365733 0.295303 2.149177 0.031289 0.002245 -1741960.000000 0 0 1
30.254373 10.090183 -21.462187 38.441701 0.321911 2.163137 0.046458 -0.005809 660811.000000 0 0 1
31.107033 9.564983 -22.486587 39.557338 0.298311 2.175424 0.042849 -0.006623 156818.000000 0 0 1
32.365393 8.708183 -22.219787 40.212809 0.262834 2.156223 0.053053 -0.005739 -829506.000000 0 0 1
33.458823 9.515283 -21.864387 41.086310 0.277073 2.131943 0.071497 -0.014589 39265.300000 0 0 1
34.691303 8.818683 -21.847987 41.935548 0.248932 2.118806 0.067563 -0.012465 37475.200000 0 0 1
35.955663 9.667683 -21.923487 43.207790 0.262666 2.102957 0.092093 -0.021302 -362259.000000 0 0 1
36.209213 10.366083 -20.724487 42.989151 0.278825 2.073831 0.068704 -0.014171 -60994.200000 0 0 1
37.224273 11.318183 -20.739187 44.089246 0.295172 2.060530 0.042122 0.002441 -327434.000000 0 0 1
37.023673 12.199083 -19.437787 43.559127 0.318291 2.033355 0.032609 -0.002688 23430.800000 0 0 1
-37.290341 11.400183 -18.297787 43.073689 -0.296691 2.009539 0.047957 -0.007896 367270.000000 0 0 1
-37.243681 12.101283 -17.060987 42.715454 -0.314161 1.981670 0.048541 -0.003848 -230874.000000 0 0 1
-36.826991 11.190683 -15.884487 41.638630 -0.295005 1.962198 0.052931 -0.005340 118289.000000 0 0 1
36.832743 10.227283 -15.518287 41.256097 0.270845 1.956429 0.037198 -0.010589 539032.000000 0 0 1
37.283163 9.359383 -14.539887 41.097939 0.245953 1.932412 0.042114 -0.021085 -201945.000000 0 0 1
36.446713 8.062683 -14.304187 39.974736 0.217712 1.936740 0.092120 -0.015685 -1246370.000000 0 0 1
35.237633 8.299983 -13.734487 38.719719 0.231327 1.933406 0.102835 -0.022059 -812990.000000 0 0 1
35.271023 8.021683 -12.339687 38.218586 0.223626 1.899558 0.105802 -0.024504 -486478.000000 0 0 1
34.084383 8.654883 -11.590387 37.026872 0.248670 1.889174 0.115691 -0.021474 -279865.000000 0 0 1
34.158693 10.065683 -11.502087 37.422350 0.286564 1.883213 0.122071 -0.024373 567002.000000 0 0 1
33.197303 10.585783 -10.571187 36.412494 0.308682 1.865355 0.095295 -0.016759 10828.400000 0 0 1
33.523613 10.273283 -9.102487 36.224691 0.297363 1.824797 0.114648 -0.016952 302334.000000 0 0 1
34.724103 10.860983 -8.567387 37.378127 0.303139 1.802061 0.121231 -0.014478 649053.000000 0 0 1
34.717813 12.241283 -8.284587 37.733406 0.338984 1.792155 0.116870 -0.015919 -227147.000000 0 0 1
34.284183 12.714083 -6.904487 37.211894 0.355122 1.757423 0.112571 -0.022759 441912.000000 0 0 1
35.257453 12.308883 -5.918987 37.810462 0.335886 1.727986 0.138193 -0.020662 664651.000000 0 0 1
34.832233 12.538683 -4.600087 37.305011 0.345532 1.694421 0.127641 -0.020552 -899242.000000 0 0 1
35.972553 12.345483 -3.645087 38.206311 0.330597 1.666347 0.163907 -0.010749 -503505.000000 0 0 1
36.899133 13.415483 -3.841287 39.449673 0.348714 1.668323 0.160445 -0.003253 -419196.000000 0 0 1
-36.695121 13.261483 -2.966387 39.130528 -0.346791 1.646677 0.155231 -0.022160 -761087.000000 0 0 1
-35.802981 14.478483 -2.982787 38.734699 -0.384288 1.647878 0.145144 -0.022321 -143041.000000 0 0 1
-36.241141 15.455383 -2.034787 39.451609 -0.403106 1.622396 0.139809 -0.022440 662855.000000 0 0 1
-35.250957 16.495783 -1.995287 38.970783 -0.437683 1.622018 0.179380 -0.025473 505084.000000 0 0 1
-35.433259 17.675083 -0.990287 39.609406 -0.462709 1.595800 0.150623 -0.019531 55316.100000 0 0 1
-36.309621 18.658983 -1.527387 40.851917 -0.474694 1.608193 0.126895 -0.012194 195961.000000 0 0 1
-36.852471 19.472783 -0.519787 41.684098 -0.486107 1.583266 0.114626 -0.012884 94639.300000 0 0 1
36.867123 20.517183 -1.150087 42.207372 0.507833 1.598048 0.112861 -0.014080 -77563.700000 0 0 1
-37.086751 21.607983 -1.649887 42.954093 -0.527552 1.609216 0.104475 -0.006711 119655.000000 0 0 1
36.902733 22.301883 -2.680287 43.201500 0.543606 1.632878 0.098423 -0.006845 -33331.700000 0 0 1
-36.862021 23.440383 -3.237287 43.803426 -0.566396 1.644769 0.104022 -0.008315 -80765.700000 0 0 1
-35.820111 22.882083 -3.997287 42.692486 -0.568465 1.664563 0.113920 -0.006087 -521066.000000 0 0 1
-34.943558 23.883083 -4.388787 42.552500 -0.599550 1.674118 0.121465 -0.012878 60687.200000 0 0 1
-33.504461 23.460983 -4.812887 41.184104 -0.610883 1.687927 0.123590 -0.022902 435012.000000 0 0 1
-33.351541 22.746383 -6.029287 40.817588 -0.598556 1.719052 0.123863 -0.017654 -1333760.000000 0 0 1
-32.027571 22.744683 -6.405487 39.800956 -0.617512 1.732437 0.125465 -0.012028 -1099110.000000 0 0 1
-31.707851 22.097083 -7.735887 39.414627 -0.608640 1.768348 0.127005 -0.020360 273560.000000 0 0 1
-32.491551 22.660983 -8.785187 40.575861 -0.609007 1.789037 0.120460 -0.027395 241240.000000 0 0 1
-32.051131 22.190483 -10.048887 40.257578 -0.605571 1.823079 0.078848 -0.019679 148082.000000 0 0 1
-33.170661 22.290683 -11.118387 41.482355 -0.591686 1.842141 0.071570 -0.012368 76192.500000 0 0 1
-33.667651 23.585583 -11.352787 42.645940 -0.611089 1.840256 0.076593 -0.013189 62572.700000 0 0 1
-34.372493 23.582183 -12.595287 43.545710 -0.601321 1.864232 0.062475 -0.007367 -484999.000000 0 0 1
-34.360336 25.040783 -13.189587 44.515600 -0.629775 1.871604 0.063203 -0.004763 1157230.000000 0 0 1
-33.094401 25.747783 -13.324587 43.996957 -0.661188 1.878481 0.065949 -0.004096 583273.000000 0 0 1
-32.284571 25.337383 -14.415887 43.498210 -0.665412 1.908598 0.070676 -0.004049 -794472.000000 0 0 1
-30.897021 25.927183 -14.168887 42.750462 -0.698160 1.908618 0.091614 -0.002300 -272243.000000 0 0 1
-30.010161 25.184883 -13.292887 41.371353 -0.698198 1.897905 0.089651 -0.009791 409251.000000 0 0 1
-30.373851 24.956983 -11.891487 41.071027 -0.687810 1.864537 0.095677 -0.007887 -407288.000000 0 0 1
-30.675231 26.187483 -11.019387 41.811253 -0.706639 1.837498 0.108411 -0.007112 610709.000000 0 0 1
-29.481621 26.785683 -10.515387 41.197234 -0.737522 1.828897 0.123775 -0.006926 336351.000000 0 0 1
-29.731261 28.191983 -10.183187 42.218870 -0.758830 1.814398 0.106141 -0.007190 121323.000000 0 0 1
-28.450081 28.823683 -9.629587 41.628604 -0.791921 1.804232 0.126234 -0.010875 -45796.000000 0 0 1
-28.420571 30.196383 -9.479087 42.537083 -0.815684 1.795526 0.111432 -0.023816 203755.000000 0 0 1
-27.168781 30.680383 -8.987587 41.954800 -0.846026 1.786690 0.140743 -0.022660 320480.000000 0 0 1
35.822383 -24.589317 33.848948 55.078389 -0.601556 0.908969 0.029022 -0.018331 -206616.000000 0 0 1
35.290123 -23.297117 -33.866357 54.176366 -0.583484 2.246073 0.030712 -0.018941 -388064.000000 0 0 1
34.209163 -23.311217 -33.000417 52.940601 -0.598155 2.243813 0.032871 -0.010440 -312934.000000 0 0 1
33.601403 -21.887117 -32.699727 51.743331 -0.577341 2.254876 0.031069 -0.002198 256118.000000 0 0 1
33.149933 -21.265217 -33.902137 51.966166 -0.570367 2.281528 0.021533 -0.002121 39707.000000 0 0 1
32.590703 -20.003117 -33.588517 50.896632 -0.550481 2.291530 0.017371 0.003229 47754.100000 0 0 1
32.287003 -19.187317 33.026966 50.013840 -0.536198 0.849503 0.020316 0.006069 -270618.000000 0 0 1
33.402133 -18.689517 32.335733 50.105890 -0.510131 0.869318 0.040940 -0.004507 -57577.200000 0 0 1
33.101963 -18.261817 31.013998 48.898896 -0.504135 0.883762 0.051342 0.006169 -30331.600000 0 0 1
34.419763 -18.153617 30.202538 49.259184 -0.485341 0.910773 0.042587 0.005718 -34026.700000 0 0 1
35.105463 -16.977817 30.533978 49.527403 -0.450461 0.906498 0.048886 -0.009200 637113.000000 0 0 1
36.266693 -16.895717 29.681578 49.817009 -0.435976 0.932520 0.068436 -0.014161 750983.000000 0 0 1
-37.245901 -15.979817 30.164838 50.522560 0.405284 0.930969 0.059244 -0.019203 1205330.000000 0 0 1
-35.964218 -16.188017 29.511558 49.258592 0.422949 0.928401 0.064792 -0.013168 1114250.000000 0 0 1
-35.029616 -15.328117 30.133868 48.683417 0.412474 0.903358 0.073413 -0.019326 165970.000000 0 0 1
-33.571701 -15.861617 30.215248 47.870776 0.441382 0.887718 0.086745 -0.021201 202610.000000 0 0 1
-32.769321 -14.814117 30.701678 47.285087 0.424576 0.864147 0.095824 -0.022340 -610266.000000 0 0 1
-31.455431 -15.206617 30.961808 46.683175 0.450307 0.845666 0.106735 -0.029764 -216807.000000 0 0 1
-30.562521 -14.036017 31.459398 46.051831 0.430524 0.818756 0.112378 -0.034548 157153.000000 0 0 1
-30.963461 -13.594217 32.777567 47.094665 0.413703 0.800994 0.122632 -0.036094 -36797.600000 0 0 1
-29.967551 -12.835317 33.386952 46.663562 0.404669 0.773482 0.118825 -0.037644 -252867.000000 0 0 1
-30.330421 -12.234617 -33.065427 46.507448 0.383415 2.361674 0.101945 -0.021515 -77059.900000 0 0 1
-30.217371 -13.264517 -32.079337 46.023046 0.413644 2.342040 0.113227 -0.019184 339884.000000 0 0 1
-30.495801 -12.651317 -30.801007 45.152538 0.393246 2.321501 0.109808 -0.010849 -256351.000000 0 0 1
-30.577181 -13.608217 -29.571037 44.660875 0.418726 2.294446 0.104324 -0.012272 106889.000000 0 0 1
-31.758251 -14.364017 -29.735447 45.816026 0.424759 2.277090 0.094085 -0.017037 -3852.450000 0 0 1
-32.003091 -15.076617 -28.529977 45.447352 0.440260 2.249467 0.093275 -0.019056 248816.000000 0 0 1
-33.285561 -15.926617 -28.561487 46.662021 0.446287 2.229501 0.090440 -0.026671 8197.250000 0 0 1
-33.019601 -17.145717 -29.260067 47.333087 0.478936 2.237213 0.082509 -0.018882 182579.000000 0 0 1
-34.207256 -17.881317 -29.441867 48.545869 0.481669 2.222416 0.064921 -0.020121 -101722.000000 0 0 1
-33.983921 -19.330417 -30.064007 49.319534 0.517170 2.226322 0.053253 -0.012386 366360.000000 0 0 1
-35.234200 -19.975917 -30.288047 50.575210 0.515761 2.212887 0.027128 -0.019433 311911.000000 0 0 1
-35.017717 -21.240417 -30.896647 51.303008 0.545231 2.217099 0.024633 -0.015324 -36302.800000 0 0 1
-36.259341 -22.085817 -31.284357 52.737407 0.547089 2.205837 0.030650 -0.017758 -131047.000000 0 0 1
-36.887131 -22.531217 -30.138007 52.693601 0.548334 2.179675 0.031893 -0.017265 -248347.000000 0 0 1
36.865573 -23.607417 -30.296077 53.237514 -0.569572 2.176175 0.047708 -0.017942 16822.600000 0 0 1
-37.185571 -24.982717 -30.539317 54.217642 0.591575 2.169138 0.044512 -0.017899 1073.520000 0 0 1
-36.581831 -25.159277 -31.805787 54.615269 0.602459 2.192426 0.050185 -0.018481 -799396.000000 0 0 1
-35.872532 -26.306927 -31.933437 54.759815 0.632756 2.193403 0.054078 -0.019649 -686043.000000 0 0 1
-36.202001 -27.273907 -33.050767 56.096382 0.645662 2.200838 0.053422 -0.019578 -558117.000000 0 0 1
37.141993 -27.708057 -33.079937 56.934579 -0.640938 2.190774 0.073200 -0.017600 -726723.000000 0 0 1
36.735303 -28.757287 33.930678 57.686697 -0.664180 0.941979 0.051006 -0.014701 -89921.400000 0 0 1
37.180223 -30.189137 -33.555137 58.478203 -0.681996 2.181942 0.047718 -0.010421 -15276.700000 0 0 1
36.662353 -30.589767 -32.306167 57.650242 -0.695347 2.165643 0.057657 -0.020858 382121.000000 0 0 1
-37.157271 -31.614377 -31.698217 58.179967 0.704973 2.146983 0.050362 -0.024624 424265.000000 0 0 1
37.097233 -32.187197 -30.364007 57.742474 -0.714649 2.124513 0.049313 -0.030395 -506172.000000 0 0 1
36.184863 -33.240037 -30.423377 57.791230 -0.743006 2.125199 0.060779 -0.026294 -214465.000000 0 0 1
35.700843 -33.393237 -29.101317 56.890642 -0.752013 2.107762 0.055506 -0.020308 -371965.000000 0 0 1
34.389583 33.671053 -28.948397 56.163982 0.774841 2.112301 0.066487 -0.025716 100447.000000 0 0 1
33.293623 -33.612247 -29.694057 55.856831 -0.790160 2.131297 0.065954 -0.024562 489396.000000 0 0 1
32.068203 33.652260 -29.247657 54.920576 0.809496 2.132400 0.071229 -0.023795 789686.000000 0 0 1
30.805093 -33.752317 -30.058297 54.696196 -0.831019 2.152622 0.040928 -0.021266 454262.000000 0 0 1
30.756533 33.604567 -31.399267 55.327617 0.829620 2.174281 0.037366 -0.018843 204655.000000 0 0 1
29.456213 33.845697 -31.932067 55.071377 0.854629 2.189317 0.037264 -0.004000 415110.000000 0 0 1
29.296713 33.034464 -33.272557 55.286854 0.845292 2.216570 0.031081 -0.007384 2559.210000 0 0 1
29.060613 31.675817 -33.036087 54.214939 0.828430 2.226042 0.027560 -0.006010 -146673.000000 0 0 1
28.893813 31.106037 33.582879 54.131762 0.822252 0.901555 0.035475 -0.010455 34496.500000 0 0 1
28.948013 29.540837 33.725470 53.367179 0.795533 0.886728 0.042286 -0.026018 144480.000000 0 0 1
30.237393 28.996607 33.910618 53.898359 0.764454 0.890326 0.044497 -0.028526 -304062.000000 0 0 1
30.116483 27.644957 -33.550447 52.885524 0.742636 2.258025 0.059165 -0.037159 -602711.000000 0 0 1
31.445823 26.949357 -33.440857 53.229677 0.708549 2.250082 0.071321 -0.038891 -462922.000000 0 0 1
32.131843 27.358757 -32.230987 53.101727 0.705337 2.223035 0.064611 -0.036671 510946.000000 0 0 1
33.350193 26.626947 -32.012437 53.348156 0.673767 2.214380 0.079342 -0.031483 546968.000000 0 0 1
34.110713 27.079037 -30.766127 53.323255 0.670984 2.185815 0.081567 -0.039262 -568319.000000 0 0 1
34.878583 28.313487 -30.853287 54.498572 0.681878 2.172600 0.076852 -0.035987 206673.000000 0 0 1
34.287143 29.593597 -31.134587 54.961365 0.712056 2.173026 0.078661 -0.027357 327752.000000 0 0 1
33.138383 29.923597 -30.107937 53.852223 0.734464 2.164077 0.095584 -0.020358 914339.000000 0 0 1
33.741783 30.193137 -28.832567 53.679143 0.729951 2.137825 0.094438 -0.017542 373171.000000 0 0 1
32.722883 30.280197 -27.856977 52.570796 0.746647 2.129273 0.087365 -0.018273 7757.900000 0 0 1
33.256593 30.588527 -26.452907 52.358526 0.743633 2.100441 0.105065 -0.022819 110072.000000 0 0 1
33.845243 31.890402 -26.316267 53.432613 0.755669 2.085771 0.094700 -0.025406 227389.000000 0 0 1
33.943553 32.300105 -24.964587 53.091357 0.760594 2.060336 0.090688 -0.029662 217178.000000 0 0 1
34.382263 33.768429 -24.833187 54.213780 0.776391 2.046608 0.092846 -0.026069 518001.000000 0 0 1
33.303923 -33.209827 -25.234157 53.374213 -0.783983 2.063237 0.088101 -0.016558 422449.000000 0 0 1
33.565143 -31.779547 -24.909387 52.507485 -0.758079 2.065075 0.077537 -0.025825 -951557.000000 0 0 1
34.281023 -31.115677 -26.105667 53.149598 -0.737034 2.084233 0.068925 -0.023862 52045.500000 0 0 1
35.621163 -31.522657 -26.302777 54.354220 -0.724433 2.075918 0.075014 -0.022146 -165253.000000 0 0 1
36.567563 -30.825387 -25.544767 54.221087 -0.700399 2.061359 0.075136 -0.026676 -369823.000000 0 0 1
-36.615631 -31.157937 -25.857337 54.590506 0.705043 2.064238 0.073886 -0.020914 268030.000000 0 0 1
-36.132851 -32.450697 -25.350417 54.783887 0.731761 2.051874 0.068026 -0.022875 29848.200000 0 0 1
-36.097131 -32.717587 -23.971287 54.296095 0.736327 2.028057 0.065978 -0.020932 -26778.900000 0 0 1
-34.864791 -32.097687 -23.251287 52.786717 0.744098 2.026925 0.064086 -0.019608 298598.000000 0 0 1
-35.074528 -30.686427 -23.063487 51.998113 0.718769 2.030346 0.024184 -0.012058 37706.900000 0 0 1
-34.426086 -30.256527 -21.845987 50.772630 0.721025 2.015589 0.055268 -0.015921 58400.900000 0 0 1
-34.090910 -28.735407 -21.947287 49.695042 0.700361 2.028221 0.064198 -0.005089 915443.000000 0 0 1
-35.239883 -27.904857 -22.250987 50.156124 0.669754 2.030446 0.043063 0.000375 568484.000000 0 0 1
-35.692434 -27.882127 -23.592487 51.068271 0.663158 2.051022 0.047359 -0.009422 -142381.000000 0 0 1
-36.844671 -26.941657 -23.891287 51.518698 0.631375 2.053008 0.048778 -0.005465 -9785.170000 0 0 1
-36.372641 -25.619547 -23.788487 50.450196 0.613648 2.061815 0.043731 -0.000639 -287928.000000 0 0 1
-37.329951 -24.719217 -24.260887 50.923036 0.584891 2.067378 0.046414 -0.004199 -214535.000000 0 0 1
-37.089541 -24.028417 -25.653437 51.098901 0.574862 2.096747 0.061916 -0.009423 -409498.000000 0 0 1
-36.053391 -23.068417 -25.565647 49.855804 0.569200 2.109230 0.042121 -0.007055 -130390.000000 0 0 1
-35.647119 -22.611617 -26.863107 50.036275 0.565272 2.137522 0.041915 -0.020004 894571.000000 0 0 1
-34.322308 -21.753217 -26.630647 48.584098 0.564897 2.150929 0.043781 -0.025889 417378.000000 0 0 1
-34.401797 -20.620517 -25.723047 47.648342 0.539980 2.141057 0.049980 -0.026590 -33330.800000 0 0 1
-35.181473 -19.552417 -26.231017 48.042682 0.507254 2.148371 0.054820 -0.025836 -449090.000000 0 0 1
-36.374761 -19.180717 -25.366117 48.316281 0.485255 2.123513 0.063299 -0.025078 -494992.000000 0 0 1
-36.088421 -18.608317 -24.083087 47.208459 0.476074 2.106148 0.058754 -0.037119 -98733.300000 0 0 1
-35.385780 -19.455317 -23.155987 46.549570 0.502694 2.091451 0.034637 -0.028442 -86043.200000 0 0 1
-36.018125 -20.813017 -22.737687 47.407693 0.523972 2.071018 0.064068 -0.015401 320970.000000 0 0 1
-37.189581 -20.622417 -21.960787 47.860476 0.506308 2.047497 0.050413 -0.016010 91179.600000 0 0 1
36.893423 -21.834317 -21.504887 47.961675 -0.534384 2.035744 0.045456 0.005767 329338.000000 0 0 1
35.789813 -21.650117 -20.421387 46.547517 -0.544032 2.024972 0.022550 0.000858 -248307.000000 0 0 1
34.546183 -21.238817 -20.901687 45.622436 -0.551227 2.046703 0.056698 -0.003851 -750631.000000 0 0 1
33.628393 -21.273917 -19.823687 44.457024 -0.564058 2.032983 0.063805 -0.001480 86372.500000 0 0 1
32.240063 -20.767817 -20.274287 43.379380 -0.572260 2.057112 0.069586 -0.004603 -836953.000000 0 0 1
31.693903 -21.458717 -21.342787 43.823448 -0.595164 2.079468 0.067839 -0.003953 609606.000000 0 0 1
30.332613 -21.101517 -21.612987 42.807273 -0.607815 2.100051 0.101111 -0.009463 700274.000000 0 0 1
30.163503 -19.800417 -22.389487 42.463897 -0.580887 2.126168 0.094707 -0.011183 -636227.000000 0 0 1
30.615463 -18.655317 -21.729387 41.922473 -0.547261 2.115685 0.090345 -0.011961 -33160.800000 0 0 1
30.490273 -17.465917 -22.499887 41.724812 -0.520206 2.140336 0.077539 -0.011049 50034.700000 0 0 1
31.029283 -16.199517 -21.731287 41.200602 -0.481149 2.126393 0.055088 -0.015411 -568407.000000 0 0 1
30.362583 -15.874217 -20.554687 39.954629 -0.481738 2.111163 0.035567 -0.017479 -219897.000000 0 0 1
31.114683 -15.149217 -19.639187 39.790953 -0.453099 2.086974 0.017980 -0.019101 43639.600000 0 0 1
32.233863 -15.929817 -18.818587 40.582265 -0.458993 2.052980 0.036674 -0.019277 259976.000000 0 0 1
33.245533 -16.228817 -19.740487 41.932408 -0.454123 2.060959 0.035226 -0.019145 -446153.000000 0 0 1
34.145973 -17.233617 -19.284587 42.835036 -0.467404 2.037792 0.034771 -0.016561 571245.000000 0 0 1
35.265363 -17.575617 -20.317487 44.332251 -0.462352 2.046878 0.042154 -0.028703 -320507.000000 0 0 1
36.290943 -16.684917 -20.442487 44.869971 -0.430936 2.043836 0.043424 -0.034417 -788519.000000 0 0 1
37.175943 -17.049117 -21.463287 46.188698 -0.429988 2.054077 0.058915 -0.030965 -285122.000000 0 0 1
-36.381821 -15.986817 -21.663887 45.260791 0.414019 2.069908 0.093372 -0.036929 -790972.000000 0 0 1
-35.376829 -15.986817 -20.724687 44.006942 0.424434 2.061154 0.118340 -0.049913 -947830.000000 0 0 1
-34.616763 -14.848717 -20.982987 43.117171 0.405208 2.079048 0.134377 -0.047999 -902234.000000 0 0 1
-33.338301 -14.680917 -20.151387 41.629917 0.414810 2.076085 0.144527 -0.041804 1786.000000 0 0 1
-32.231011 -15.495717 -20.450587 41.196866 0.448146 2.090256 0.149713 -0.060248 204769.000000 0 0 1
-32.453281 -16.828717 -20.062487 41.700414 0.478379 2.072717 0.129195 -0.060097 -863924.000000 0 0 1
-31.181131 -17.695417 -20.064687 41.085062 0.516183 2.081016 0.103471 -0.066290 -180957.000000 0 0 1
-31.448091 -18.919817 -19.483387 41.551706 0.541610 2.058836 0.106426 -0.066465 -412507.000000 0 0 1
-30.422591 -19.848417 -19.567987 41.260148 0.578077 2.064918 0.107026 -0.059504 -674880.000000 0 0 1
-30.893051 -21.261817 -19.184287 42.124605 0.602789 2.043638 0.088679 -0.034566 2699.430000 0 0 1
-31.881671 -21.734817 -20.073087 43.494506 0.598361 2.050491 0.066541 -0.028620 120699.000000 0 0 1
-32.357701 -23.004417 -19.768387 44.351022 0.618031 2.032781 0.064229 -0.011890 -104197.000000 0 0 1
-33.288251 -23.645117 -20.790787 45.819821 0.617615 2.041766 0.047559 -0.002030 -143766.000000 0 0 1
-32.561151 -23.964417 -21.962687 46.009580 0.634469 2.068433 0.050343 -0.011971 185067.000000 0 0 1
-33.357001 -24.637817 -22.908687 47.376360 0.636172 2.075499 0.050980 -0.007396 -201001.000000 0 0 1
-32.797261 -24.714317 -24.336487 47.735965 0.645768 2.105765 0.052403 0.000214 636824.000000 0 0 1
-31.550001 -25.408897 -24.470687 47.326833 0.677997 2.114206 0.036282 -0.011915 294259.000000 0 0 1
-31.289691 -25.962577 -25.741777 48.122128 0.692619 2.135216 0.039700 -0.008250 -460757.000000 0 0 1
-29.812661 -26.342957 -25.883527 47.462649 0.723689 2.147597 0.052200 -0.017759 -194641.000000 0 0 1
-29.028451 -25.167167 -25.740957 46.245369 0.714271 2.161104 0.060457 -0.020101 101004.000000 0 0 1
-27.639701 -25.417767 -25.928877 45.632473 0.743545 2.175127 0.052276 -0.008876 662466.000000 0 0 1
-26.751731 -24.207717 -26.252037 44.618809 0.735517 2.199829 0.061488 -0.011574 -241013.000000 0 0 1
-27.098911 -23.704217 -27.500707 45.304854 0.718677 2.223095 0.063124 -0.018606 346235.000000 0 0 1
-26.337331 -22.518017 -27.794897 44.421531 0.707381 2.246835 0.072435 -0.006342 371031.000000 0 0 1
-26.287131 -22.132217 -29.254867 45.129763 0.699797 2.276066 0.068177 -0.008291 -33169.800000 0 0 1
-25.770481 -23.116217 -30.165997 45.918020 0.731157 2.287567 0.087237 -0.019713 366437.000000 0 0 1
-25.250181 -22.582717 -31.363407 46.165074 0.729690 2.317707 0.096029 -0.016332 -84318.400000 0 0 1
-24.818421 -23.639517 -32.405787 47.169013 0.761075 2.328168 0.075292 -0.019952 -196479.000000 0 0 1
-25.760131 -23.832217 -33.397727 48.445506 0.746543 2.331440 0.055122 -0.016551 -80023.000000 0 0 1
-25.375661 -25.046017 33.800800 49.129637 0.778861 0.812078 0.069933 -0.023797 299794.000000 0 0 1
-19.809521 -14.047217 -11.651287 26.934994 0.616817 2.018138 0.072661 0.009177 176917.000000 0 0 1
-20.451821 -13.768917 -10.425787 26.768584 0.592537 1.970862 0.078558 0.004984 -28696.500000 0 0 1
-19.693521 -14.230017 -9.345387 26.031988 0.625716 1.937989 0.065758 -0.008896 -136400.000000 0 0 1
-20.161621 -13.706117 -7.943587 25.640772 0.597048 1.885782 0.090685 -0.028089 -246177.000000 0 0 1
-21.265421 -14.312117 -7.320287 26.657858 0.592390 1.848972 0.126531 -0.027767 39714.400000 0 0 1
-21.454821 -13.780617 -6.042287 26.205419 0.570949 1.803464 0.116438 -0.034728 -15887.200000 0 0 1
-22.712121 -14.311517 -5.313987 27.366008 0.562278 1.766220 0.126919 -0.034434 -230814.000000 0 0 1
-22.751721 -15.679717 -4.982387 28.077010 0.603418 1.749195 0.107058 -0.030849 227986.000000 0 0 1
-22.170721 -16.020617 -3.746487 27.608644 0.625735 1.706916 0.106406 -0.027523 -57651.900000 0 0 1
-21.795921 -17.504517 -3.637487 28.190452 0.676634 1.700190 0.073828 -0.013657 889213.000000 0 0 1
-23.003721 -18.289517 -3.464787 29.591931 0.671726 1.688151 0.082171 -0.009980 1125670.000000 0 0 1
-22.868921 -19.273117 -2.467287 30.008800 0.700279 1.653108 0.069068 -0.004350 -907797.000000 0 0 1
-23.978521 -20.259017 -2.368887 31.480293 0.701515 1.646117 0.090573 -0.019748 -970918.000000 0 0 1
-24.114621 -21.102817 -3.479887 32.232801 0.718889 1.678968 0.075199 -0.033080 -650323.000000 0 0 1
-25.129711 -22.013017 -3.276187 33.567971 0.719382 1.668551 0.088650 -0.028046 -568615.000000 0 0 1
-25.007921 -23.290017 -4.183687 34.428538 0.749844 1.692615 0.086152 -0.030247 -871656.000000 0 0 1
-23.901621 -24.001217 -3.750487 34.079496 0.787477 1.681071 0.086038 -0.029854 -882964.000000 0 0 1
-23.421421 -24.855817 -4.720787 34.476955 0.815101 1.708154 0.081429 -0.031579 -93479.700000 0 0 1
-22.035621 -24.473517 -5.279687 33.352612 0.837768 1.729764 0.055380 -0.024741 -427662.000000 0 0 1
-21.983121 -23.263317 -5.950087 32.555231 0.813684 1.754598 0.032808 -0.013655 134025.000000 0 0 1
-21.535821 -22.219417 -5.062387 31.354774 0.801020 1.732961 0.024295 -0.010868 -629113.000000 0 0 1
-21.613721 -20.867717 -5.827587 30.603518 0.767839 1.762388 0.031439 0.001847 -351334.000000 0 0 1
-20.485921 -20.408917 -6.521187 29.643258 0.783515 1.792599 0.018590 0.010481 -366085.000000 0 0 1
-20.754521 -19.351817 -7.406987 29.327571 0.750438 1.826122 0.015490 0.008368 488159.000000 0 0 1
-19.502721 -19.052117 -8.296487 28.498614 0.773711 1.866193 0.033209 0.001180 251167.000000 0 0 1
-19.203021 -19.937117 -9.404187 29.234968 0.804152 1.898295 0.038495 0.003373 244015.000000 0 0 1
-18.014421 -19.707317 -10.155887 28.566409 0.830247 1.934265 0.050256 0.004095 210113.000000 0 0 1
-17.732821 -18.261417 -10.745387 27.629615 0.800083 1.970243 0.058157 0.002004 -333140.000000 0 0 1
-17.432821 -17.182017 -9.836887 26.379714 0.778153 1.952924 0.078148 -0.006279 1737370.000000 0 0 1
-16.028121 -17.205017 -9.420287 25.330912 0.820797 1.951839 0.090396 -0.008047 1434300.000000 0 0 1
-15.638121 -15.947817 -8.612987 23.938823 0.795203 1.938841 0.076664 -0.006929 -59116.200000 0 1 0
-16.381121 -15.986117 -7.424487 24.062836 0.773195 1.884460 0.059834 -0.008798 151760.000000 0 1 0
-16.417221 -14.742517 -6.754387 23.075717 0.731704 1.867851 0.063439 -0.011223 108521.000000 0 1 0
-17.341021 -14.846417 -5.498987 23.481183 0.708050 1.807179 0.077564 -0.024835 136536.000000 0 1 0
-17.750921 -13.624717 -4.834987 22.893344 0.654639 1.783595 0.080855 -0.018800 279980.000000 0 1 0
-18.032721 -13.982717 -3.490887 23.084230 0.659565 1.722603 0.064556 -0.015490 -531046.000000 0 1 0
-18.791521 -13.016717 -2.623087 23.009493 0.605804 1.685045 0.067991 -0.017484 -754749.000000 0 1 0
-20.127821 -12.903917 -3.026787 24.099827 0.570092 1.696723 0.105308 -0.029594 -202140.000000 0 1 0
-20.728021 -11.930017 -2.188187 24.015918 0.522248 1.662037 0.105081 -0.023369 801358.000000 0 1 0
-22.295221 -11.849117 -2.347787 25.357258 0.488501 1.663517 0.106961 -0.026734 902239.000000 0 0 1
-22.762521 -11.397217 -3.590987 25.708444 0.464208 1.710936 0.123529 -0.037396 195178.000000 0 0 1
-24.171621 -11.330217 -3.606587 26.937864 0.438329 1.705085 0.118714 -0.034525 44681.200000 0 0 1
-24.862621 -10.948017 -4.955587 27.614613 0.414792 1.751229 0.134977 -0.042958 -26815.600000 0 0 1
-24.486121 -11.652117 -6.113687 27.797826 0.444155 1.792543 0.138927 -0.047713 194392.000000 0 0 1
-25.244111 -11.243317 -7.237487 28.566738 0.419008 1.826942 0.153742 -0.047600 221977.000000 0 0 1
-24.532421 -11.628617 -8.607087 28.480631 0.442640 1.877805 0.160894 -0.046943 737449.000000 0 0 1
-23.356221 -10.818417 -8.748387 27.186126 0.433770 1.898422 0.155893 -0.045698 729657.000000 0 0 1
-22.546521 -11.247917 -9.861487 27.057534 0.462748 1.943853 0.114051 -0.031684 -118907.000000 0 0 1
-21.228821 -10.459217 -9.793987 25.612111 0.457782 1.963185 0.120980 -0.033442 -412476.000000 0 0 1
-21.340921 -9.133817 -10.280087 25.387826 0.404405 1.987690 0.111247 -0.028545 313015.000000 0 0 1
-20.132121 -8.472117 -10.010187 24.026712 0.398330 2.000529 0.118708 -0.022503 -225827.000000 0 1 0
-19.998621 -7.078917 -10.721887 23.770039 0.340207 2.038757 0.123615 -0.025480 -140606.000000 0 1 0
-19.711821 -7.018317 -12.129987 24.185724 0.342051 2.096168 0.139347 -0.022557 484790.000000 0 1 0
-19.492321 -5.709317 -12.624987 23.915208 0.284931 2.126930 0.128715 -0.038341 -53998.300000 0 1 0
-18.653321 -5.750917 -13.937387 23.984790 0.299059 2.190867 0.131656 -0.031172 130421.000000 0 1 0
-19.357421 -6.387117 -15.013787 25.316374 0.318709 2.205634 0.134294 -0.040959 803574.000000 0 0 1
-18.703721 -6.229817 -16.313487 25.588467 0.321522 2.262088 0.135140 -0.049672 -272140.000000 0 0 1
-19.228721 -7.188217 -17.344887 26.874882 0.357742 2.272335 0.126626 -0.041607 425017.000000 0 0 1
-20.573521 -6.834417 -17.716487 27.997373 0.320726 2.255949 0.110577 -0.048971 1263690.000000 0 0 1
-21.220221 -7.967317 -18.351787 29.164430 0.359173 2.251387 0.106856 -0.044966 -282697.000000 0 0 1
-22.649421 -7.828917 -18.866887 30.499961 0.332800 2.237740 0.092286 -0.036718 -991144.000000 0 0 1
-22.783921 -6.877717 -19.905487 31.026415 0.293169 2.267334 0.100106 -0.039815 943566.000000 0 0 1
-24.043421 -6.761717 -20.591087 32.369735 0.274148 2.260258 0.083614 -0.034867 1454860.000000 0 0 1
-25.352661 -6.411217 -19.801387 32.801769 0.247689 2.218891 0.116698 -0.033010 101313.000000 0 0 1
-25.499751 -5.029617 -19.431587 32.451824 0.194742 2.212777 0.120075 -0.033508 36722.100000 0 0 1
-26.568301 -4.822417 -18.537287 32.753035 0.179555 2.172408 0.137600 -0.026919 -734531.000000 0 0 1
-26.678571 -3.434417 -17.874487 32.296109 0.128029 2.157305 0.122993 -0.027883 -1371.810000 0 0 1
-27.200791 -2.359617 -18.651787 33.065691 0.086531 2.170118 0.133097 -0.026838 718539.000000 0 0 1
-28.518821 -2.497917 -19.184087 34.461455 0.087365 2.161183 0.151178 -0.013536 78313.600000 0 0 1
-28.900241 -1.226317 -19.918987 35.121130 0.042407 2.173839 0.142199 -0.016972 -354233.000000 0 0 1
-28.230091 -0.968217 -21.115787 35.266867 0.034284 2.212727 0.122948 -0.007897 -29987.100000 0 0 1
-28.786041 -1.614017 -22.258587 36.423699 0.056011 2.228248 0.116578 0.001914 13180.200000 0 0 1
-27.954081 -1.380217 -23.548387 36.576798 0.049334 2.270259 0.109931 -0.001576 -309327.000000 0 0 1
-28.042671 -0.106417 -24.231687 37.061804 0.003795 2.283416 0.107746 -0.001795 161659.000000 0 0 1
-27.476821 1.087283 -23.623087 36.252008 -0.039550 2.280535 0.090412 0.002071 780170.000000 0 0 1
-25.928131 1.054083 -23.375387 34.925460 -0.040632 2.304054 0.091054 -0.002235 195812.000000 0 0 1
-25.198281 0.864083 -24.554987 35.194422 -0.034278 2.342972 0.083434 0.003712 -839468.000000 0 0 1
-23.841721 0.948883 -24.212587 33.993784 -0.039778 2.363516 0.070211 0.005582 -279205.000000 0 0 1
-22.975821 0.291583 -25.336967 34.204316 -0.012690 2.404988 0.061829 0.002161 -29750.200000 0 0 1
-23.023121 0.950783 -26.604347 35.196013 -0.041273 2.427810 0.038749 0.005841 253150.000000 0 0 1
-21.955421 0.496983 -27.424007 35.133512 -0.022632 2.466366 0.023331 0.001505 192839.000000 0 0 1
-21.702821 1.207583 -28.779947 36.065995 -0.055584 2.494733 0.021671 0.017262 720932.000000 0 0 1
-20.748121 2.332383 -28.650357 35.450916 -0.111944 2.511834 0.030406 0.017909 1133490.000000 0 0 1
-20.721421 3.228583 -29.734747 36.386209 -0.154566 2.527329 0.027987 0.016719 -846.342000 0 0 1
-20.208821 2.624783 -31.100787 37.182588 -0.129160 2.561541 0.022399 0.018757 -284147.000000 0 0 1
-18.809221 2.563383 -31.159197 36.486343 -0.135449 2.594415 0.016217 0.024922 -445429.000000 0 0 1
-18.394821 2.000883 -32.370357 37.285560 -0.108348 2.622307 0.013381 0.021127 410348.000000 0 0 1
-16.844021 1.967483 -32.470057 36.631907 -0.116279 2.660278 0.025831 0.004833 105020.000000 0 0 1
-16.231121 3.208483 -32.501437 36.470358 -0.195159 2.670723 0.033855 0.007883 -1103020.000000 0 0 1
-14.874321 2.985883 -32.717477 36.063752 -0.198108 2.707405 0.047042 -0.002073 -350836.000000 0 0 1
-14.097621 4.282683 -33.153217 36.279747 -0.294928 2.723393 0.062920 0.002829 -170222.000000 0 0 1
-13.776721 5.194983 -32.103167 35.318539 -0.360597 2.711581 0.079806 -0.003067 279069.000000 0 0 1
-13.194221 6.402383 -32.634247 35.778094 -0.451771 2.719245 0.100901 -0.004393 41941.600000 0 0 1
-12.874821 7.450883 -31.519537 34.853376 -0.524624 2.700643 0.096818 -0.005781 -300483.000000 0 0 1
-11.793221 7.186183 -30.655867 33.622960 -0.547265 2.718331 0.128318 -0.027870 -185483.000000 0 0 1
-12.032121 6.208483 -29.668297 32.611731 -0.476360 2.713461 0.123839 -0.031244 -518009.000000 0 0 1
-10.792021 5.430183 -29.191227 31.592441 -0.466178 2.749193 0.141861 -0.042941 -190559.000000 0 0 1
-10.109121 4.729583 -30.171947 32.170012 -0.437601 2.787295 0.117752 -0.038580 420008.000000 0 0 1
-10.907521 3.601983 -30.632217 32.715149 -0.318954 2.782828 0.124191 -0.035778 237729.000000 0 0 1
-10.648821 3.183883 -32.103847 33.973393 -0.290529 2.808300 0.103562 -0.033080 -102067.000000 0 0 1
-11.419521 2.051783 -32.483247 34.493138 -0.177776 2.798535 0.110880 -0.033475 -162158.000000 0 0 1
-10.875821 1.260483 -33.523197 35.265805 -0.115383 2.825916 0.095283 -0.028704 -186217.000000 0 0 1
-11.380721 1.535283 32.940904 34.885255 -0.134093 0.335444 0.096409 -0.023966 743195.000000 0 0 1
-12.769821 1.213683 32.798500 35.217651 -0.094758 0.372807 0.053834 -0.018244 302346.000000 0 0 1
-13.254921 1.294283 31.502728 34.202192 -0.097337 0.399968 0.051030 -0.019779 -339713.000000 0 0 1
-14.762221 1.012983 31.414518 34.724936 -0.068513 0.440198 0.072224 -0.008532 -144139.000000 0 0 1
-15.534521 2.184883 31.592438 35.272895 -0.139730 0.460889 0.070910 0.003888 -284201.000000 0 0 1
-16.880821 1.866583 31.321098 35.629446 -0.110127 0.496870 0.064520 0.001953 -73539.900000 0 0 1
-17.757921 3.128283 31.129038 35.974253 -0.174374 0.525019 0.068922 0.001897 -226568.000000 0 0 1
-18.094721 3.848683 32.287352 37.211616 -0.209573 0.520303 0.061336 0.001421 -194364.000000 0 0 1
-17.305121 4.973983 32.495562 37.150629 -0.279884 0.505985 0.070754 0.005367 -794197.000000 0 0 1
-17.718621 5.871683 33.691099 38.516442 -0.319996 0.505939 0.063742 0.007593 132534.000000 0 0 1
-19.033621 6.370183 33.542142 39.088786 -0.322963 0.539236 0.062229 0.005687 -541267.000000 0 0 1
-19.943121 5.651983 -33.564677 39.449468 -0.276163 2.588354 0.044996 0.009707 -450992.000000 0 0 1
-21.361121 6.264583 -33.603687 40.308191 -0.285271 2.556515 0.038455 0.007167 -19790.400000 0 0 1
-21.416221 7.602483 -33.096167 40.147335 -0.341111 2.539881 0.048269 0.004296 145262.000000 0 0 1
-21.214021 8.646283 33.845988 40.869839 -0.387019 0.595013 0.054256 0.001471 -396260.000000 0 0 1
-21.072021 10.018083 -33.378187 40.724629 -0.443792 2.531521 0.056035 -0.003807 78325.400000 0 0 1
-19.904021 10.196083 -32.562247 39.502279 -0.473409 2.539784 0.064279 -0.000949 622303.000000 0 0 1
-19.726721 11.493383 -32.107827 39.397384 -0.527550 2.523480 0.063530 -0.003717 -206133.000000 0 0 1
-19.170821 12.553783 -33.022207 40.194327 -0.579769 2.534945 0.062810 -0.018533 -404753.000000 0 0 1
-19.991421 12.801983 33.701719 41.223215 -0.569578 0.613666 0.074541 -0.021851 -123902.000000 0 0 1
-19.314021 12.865183 32.494558 39.930447 -0.587614 0.620171 0.061971 -0.023764 -429158.000000 0 0 1
-20.022421 12.176183 31.255918 39.065191 -0.546374 0.643340 0.080694 -0.034881 -397478.000000 0 0 1
-20.043521 10.739583 31.219788 38.623264 -0.491886 0.629511 0.078037 -0.027266 9884.580000 0 0 1
-18.793021 10.098483 31.087918 37.704318 -0.493081 0.601445 0.081374 -0.028637 -38475.800000 0 0 1
-18.943321 8.586583 31.018838 37.346313 -0.425576 0.590661 0.103266 -0.020471 -23809.800000 0 0 1
-19.550021 8.071183 29.843508 36.578440 -0.391533 0.616552 0.104870 -0.024415 208675.000000 0 0 1
-19.682021 6.667183 29.967658 36.467708 -0.326613 0.606306 0.090936 -0.019456 71073.100000 0 0 1
-20.326021 6.006083 28.699718 35.677639 -0.287312 0.636102 0.086896 -0.019949 395470.000000 0 0 1
-21.714321 6.139483 28.448698 36.311615 -0.275547 0.670582 0.098587 -0.031922 107997.000000 0 0 1
-22.228821 5.142883 27.626738 35.830243 -0.227361 0.690315 0.092591 -0.031942 -728423.000000 0 0 1
-23.737821 5.065583 27.502608 36.681571 -0.210244 0.723087 0.085644 -0.028195 -574144.000000 0 0 1
-24.231921 5.959583 26.504008 36.402816 -0.241153 0.755286 0.093056 -0.035872 266960.000000 0 0 1
-25.637791 6.073283 26.417978 37.310730 -0.232600 0.784059 0.090139 -0.034086 -365780.000000 0 0 1
-26.136361 6.796683 25.153098 36.905048 -0.254412 0.820901 0.084945 -0.031833 -173986.000000 0 0 1
-26.073321 5.977583 24.009278 35.944331 -0.225366 0.839336 0.085293 -0.027605 101515.000000 0 0 1
-27.121211 5.055183 23.931018 36.521344 -0.184278 0.856268 0.075296 -0.019611 -592297.000000 0 0 1
-27.380511 4.493383 22.491538 35.717672 -0.162659 0.889625 0.083873 -0.020112 -10256.400000 0 0 1
-27.881151 5.398683 21.507938 35.624370 -0.191265 0.922609 0.083014 -0.013087 68010.600000 0 0 1
-28.007901 4.734183 20.289338 34.907194 -0.167447 0.950549 0.105178 -0.012469 -233203.000000 0 0 1
-28.712331 5.520483 19.155838 34.954539 -0.189951 0.990799 0.114556 -0.017575 704367.000000 0 0 1
-30.101321 5.600583 19.497138 36.298683 -0.183954 1.003765 0.125692 -0.015670 271054.000000 0 0 1
-30.937461 5.809883 18.394138 36.458545 -0.185632 1.041968 0.135875 -0.011212 650887.000000 0 0 1
-32.447971 5.700583 18.818038 37.940558 -0.173909 1.051825 0.142518 -0.012443 691865.000000 0 0 1
-32.932351 6.712683 19.656238 38.935427 -0.201078 1.041597 0.132759 -0.013183 750561.000000 0 0 1
-34.254679 6.392683 20.143138 40.249166 -0.184500 1.046665 0.125804 -0.005191 995695.000000 0 0 1
-34.877834 7.590383 20.927738 41.376894 -0.214286 1.040507 0.118920 -0.007922 -4478.230000 0 0 1
-34.543462 7.627083 22.278738 41.806283 -0.217310 1.008767 0.106667 -0.009026 97438.000000 0 0 1
-35.117110 8.749683 22.906918 42.831008 -0.244185 1.006501 0.108278 -0.005513 78743.900000 0 0 1
-0.831521 32.668183 11.973913 34.803393 -1.545348 1.219575 0.114915 -0.033019 -82635.100000 0 0 1
-1.184221 32.817083 13.300113 35.429596 -1.534726 1.185973 0.097233 -0.028955 157541.000000 0 0 1
-0.509421 -33.851642 13.835213 36.573300 1.555749 1.182851 0.087864 -0.031926 287358.000000 0 0 1
-0.592921 -33.867342 15.343613 37.185681 1.553291 1.145466 0.076845 -0.022020 59887.800000 0 0 1
-1.859021 -33.595642 15.888013 37.209570 1.515518 1.129638 0.076175 -0.014464 -95715.900000 0 0 1
-1.664421 -33.536342 17.260313 37.754138 1.521207 1.095978 0.060745 -0.018738 -522370.000000 0 0 1
-2.886321 -33.316042 18.136813 38.042522 1.484378 1.073841 0.060287 -0.018055 -839393.000000 0 0 1
-3.635321 33.376083 18.389313 38.279829 -1.462304 1.069695 0.058395 -0.011605 -610962.000000 0 0 1
-4.595621 33.671083 19.354413 39.108245 -1.435149 1.053084 0.048351 -0.014123 -418482.000000 0 0 1
-5.614421 32.548983 19.643313 38.429386 -1.399986 1.034270 0.045470 -0.010724 -174698.000000 0 0 1
-6.641721 32.614283 18.699213 38.176753 -1.369899 1.058929 0.047068 -0.013697 -603518.000000 0 0 1
-7.638721 31.647683 18.890713 37.640203 -1.333959 1.045030 0.048423 -0.023856 -671533.000000 0 0 1
-8.703221 31.726283 17.835513 37.422033 -1.303060 1.074008 0.026783 -0.026917 -949721.000000 0 0 1
-9.500821 32.879883 17.813013 38.583101 -1.289503 1.090909 0.049923 -0.026051 -264795.000000 0 0 1
-10.220021 32.890883 16.607913 38.237178 -1.269529 1.121492 0.048144 -0.024046 85749.600000 0 0 1
-11.209421 -33.746142 16.410013 39.163015 1.250094 1.138433 0.083653 -0.030220 231216.000000 0 0 1
-12.395421 -33.901942 17.157313 39.967005 1.220269 1.127093 0.081145 -0.028163 -100922.000000 0 0 1
-13.367921 -32.920142 16.800613 39.302642 1.185067 1.129106 0.061444 -0.028528 614801.000000 0 0 1
-14.765621 -33.300142 17.367113 40.355168 1.153436 1.125909 0.095119 -0.031498 249365.000000 0 0 1
-14.755321 -33.165642 18.740713 40.852094 1.152193 1.094213 0.087210 -0.021902 465627.000000 0 0 1
-16.067121 -33.369342 19.280913 41.754269 1.122063 1.090805 0.088434 -0.027192 789758.000000 0 0 1
-16.122021 -33.058042 20.763213 42.235822 1.117046 1.056868 0.085204 -0.038080 -79905.700000 0 0 1
-15.945621 -31.659242 20.957713 41.180045 1.104222 1.036856 0.084587 -0.033885 34779.400000 0 0 1
-15.847121 -31.299142 22.328613 41.585267 1.102112 1.003996 0.069172 -0.016301 218090.000000 0 0 1
-15.702621 -29.791242 22.585713 40.548795 1.085714 0.980026 0.083727 -0.024654 21822.500000 0 0 1
-15.709121 -29.469142 23.949413 41.094783 1.081044 0.948645 0.089635 -0.029660 -396422.000000 0 0 1
-15.544621 -28.119242 24.232713 40.243650 1.065798 0.924605 0.071388 0.000074 713301.000000 0 0 1
-16.699621 -27.054242 23.892813 39.770288 1.017779 0.926332 0.086905 -0.003608 991679.000000 0 0 1
-17.836221 -27.133042 24.737013 40.819757 0.989263 0.919767 0.092701 -0.007638 16438.100000 0 0 1
-18.846921 -26.285642 24.245113 40.422356 0.948749 0.927552 0.080446 -0.004851 69097.400000 0 0 1
-19.967321 -25.909242 25.294313 41.349546 0.914201 0.912564 0.085740 -0.008776 640161.000000 0 0 1
-20.744221 -26.939742 25.887813 42.734661 0.914603 0.920050 0.109933 -0.016830 282570.000000 0 0 1
-21.536321 -27.748942 25.027813 43.130132 0.910791 0.951716 0.092476 -0.021041 -231975.000000 0 0 1
-23.004521 -27.249842 25.048613 43.579753 0.869675 0.958465 0.062859 -0.010181 -235230.000000 0 0 1
-23.154521 -26.064742 24.295813 42.494578 0.844457 0.962172 0.073511 -0.014915 -768214.000000 0 0 1
-24.410021 -25.958242 23.731713 42.812073 0.816127 0.983247 0.062018 -0.014260 -976796.000000 0 0 1
-24.854521 -24.563542 23.264013 41.980103 0.779510 0.983434 0.051488 0.005514 -150851.000000 0 0 1
-25.229061 -23.761542 24.346813 42.354264 0.755452 0.958391 0.045621 0.004121 62046.100000 0 0 1
-25.605141 -22.482942 23.862213 41.599412 0.720562 0.959879 0.038862 0.022528 -191480.000000 0 0 1
-26.151481 -21.634742 24.979813 42.142058 0.691158 0.936324 0.050385 0.019045 -264648.000000 0 0 1
-27.391811 -22.033542 25.503313 43.430487 0.677409 0.943175 0.044965 0.022226 43267.700000 0 0 1
-27.881811 -21.137942 26.469513 43.873034 0.648682 0.923138 0.037856 0.017131 -650231.000000 0 0 1
-28.948081 -21.687342 27.439713 45.401212 0.642977 0.921805 0.032083 0.018359 -337764.000000 0 0 1
-30.281891 -21.656842 27.033213 46.008763 0.620838 0.942748 0.026081 0.015982 -67230.000000 0 0 1
-30.685871 -22.495742 25.938213 46.048583 0.632596 0.972447 0.011921 0.024546 -1251080.000000 0 0 1
-32.193161 -22.666542 25.755613 47.048096 0.613459 0.991504 0.021974 0.017872 -246450.000000 0 0 1
-32.689511 -23.127942 24.456213 46.921340 0.615744 1.022520 0.025113 0.006779 330840.000000 0 0 1
-32.277121 -24.443842 24.087313 47.111703 0.648164 1.034122 0.011004 0.009430 -388994.000000 0 0 1
-32.908991 -25.067042 22.769913 47.221046 0.650952 1.067634 0.038157 -0.002552 3045.570000 0 0 1
-34.249876 -25.499842 22.852813 48.430847 0.639987 1.079392 0.056770 -0.006434 -88156.200000 0 0 1
-34.709656 -25.913642 21.585013 48.396176 0.641311 1.108498 0.066891 -0.011738 852614.000000 0 0 1
-36.135141 -26.592542 21.634913 49.809448 0.634428 1.121476 0.074539 -0.017131 618243.000000 0 0 1
-36.316591 -27.803542 22.294813 50.882122 0.653403 1.117239 0.063157 -0.019841 -135955.000000 0 0 1
-35.437791 -28.865042 21.989313 50.720386 0.683536 1.122379 0.050721 -0.015943 -552294.000000 0 0 1
-35.817569 -29.839042 20.918213 51.096363 0.694591 1.149014 0.074455 -0.017854 -344915.000000 0 0 1
-35.849707 -29.218442 19.631413 50.242524 0.683836 1.169369 0.076487 -0.020592 446531.000000 0 0 1
-36.261241 -30.167442 18.619313 50.711251 0.693920 1.194839 0.070056 -0.019103 -150540.000000 0 0 1
-36.636031 -29.587942 17.257813 50.154533 0.679369 1.219524 0.081099 -0.014609 -502041.000000 0 0 1
-35.455432 -29.353542 16.530813 48.907932 0.691523 1.226007 0.112789 -0.025993 206749.000000 0 0 1
-35.661508 -28.815342 15.249713 48.317914 0.679614 1.249695 0.110559 -0.025028 260679.000000 0 0 1
-36.424831 -29.722742 14.189513 49.107555 0.684422 1.277669 0.119920 -0.035889 23290.100000 0 0 1
-35.605420 -30.763342 13.725713 49.015552 0.712570 1.286973 0.120452 -0.044305 -223318.000000 0 0 1
-36.125131 -31.716542 12.791613 49.745245 0.720506 1.310732 0.123298 -0.039350 -79849.300000 0 0 1
-36.575961 -31.178242 11.365313 49.386780 0.705900 1.338586 0.126662 -0.043000 591177.000000 0 0 1
36.980923 -30.286542 11.501813 49.164571 -0.686206 1.334663 0.129122 -0.047881 447238.000000 0 0 1
36.636673 -29.531842 10.335613 48.178838 -0.678433 1.354590 0.104481 -0.034165 631435.000000 0 0 1
35.446073 -28.497342 10.467513 46.670027 -0.677153 1.344584 0.136366 -0.023243 668070.000000 0 0 1
35.403813 -27.519042 9.451413 45.826377 -0.660739 1.363062 0.145382 -0.055976 -184915.000000 0 0 1
34.379303 -26.622742 9.750713 44.562128 -0.658924 1.350200 0.108776 -0.045576 -433900.000000 0 0 1
34.343143 -25.495042 8.643813 43.636729 -0.638595 1.371392 0.101499 -0.042199 34438.900000 0 0 1
35.397423 -24.561542 8.673313 43.948530 -0.606606 1.372141 0.124342 -0.047253 -49525.200000 0 0 1
35.580043 -24.063542 7.385613 43.583722 -0.594657 1.400517 0.113062 -0.042478 120002.000000 0 0 1
36.176023 -22.665642 7.328813 43.314518 -0.559704 1.400778 0.126993 -0.042987 -197597.000000 0 0 1
35.314723 -21.834542 8.053713 42.293489 -0.553756 1.379202 0.105131 -0.039689 -60812.600000 0 0 1
35.582573 -20.455642 7.803513 41.778554 -0.521743 1.382910 0.123997 -0.032762 -112246.000000 0 0 1
34.866393 -19.417442 8.690213 40.843876 -0.508133 1.356391 0.126564 -0.025649 -114816.000000 0 0 1
35.337403 -19.337442 10.027913 41.511779 -0.500709 1.326815 0.113855 -0.036248 -216903.000000 0 0 1
34.535153 -18.554542 10.877613 40.685013 -0.493014 1.300142 0.118484 -0.029279 16978.000000 0 0 1
35.107813 -18.597042 12.315713 41.594294 -0.487134 1.270198 0.102386 -0.033956 -153916.000000 0 0 1
36.361633 -18.032942 12.552113 42.484243 -0.460389 1.270866 0.085335 -0.023069 -225928.000000 0 0 1
36.824953 -18.265242 13.869213 43.382615 -0.460444 1.245389 0.087909 -0.017256 -75847.600000 0 0 1
-36.587291 -17.454042 14.254913 42.970641 0.445121 1.232653 0.107407 -0.019507 -897974.000000 0 0 1
-35.415879 -17.776042 13.635213 41.906934 0.465185 1.239394 0.096849 -0.016979 -1201570.000000 0 0 1
-34.330808 -17.208342 14.291913 40.975482 0.464648 1.214515 0.079699 -0.014129 300473.000000 0 0 1
-32.975671 -17.323442 13.492213 39.617374 0.483714 1.223281 0.087844 -0.014756 641588.000000 0 0 1
-32.529201 -18.654942 13.364713 39.809186 0.520693 1.228428 0.086192 -0.021972 -12026.700000 0 0 1
-31.251971 -18.700242 12.776113 38.595515 0.539220 1.233406 0.096524 -0.027217 188712.000000 0 0 1
-30.611071 -20.134342 12.620213 38.751763 0.581802 1.239078 0.087206 -0.035778 188350.000000 0 0 1
-31.209581 -20.855242 11.583213 39.282946 0.589086 1.271481 0.094203 -0.031169 -2814.040000 0 0 1
-30.219291 -21.562842 10.857013 38.678630 0.619759 1.286275 0.086471 -0.029454 -262763.000000 0 0 1
-30.767881 -22.439442 9.722513 39.302904 0.630130 1.320827 0.098820 -0.029522 245079.000000 0 0 1
-31.536221 -23.546142 10.176413 40.651118 0.641346 1.317770 0.110395 -0.027060 97809.100000 0 0 1
-32.913811 -23.282242 10.270413 41.603643 0.615655 1.321354 0.130682 -0.034575 -451843.000000 0 0 1
-33.922321 -24.440742 10.345413 43.070886 0.624347 1.328230 0.168445 -0.041121 -147455.000000 0 0 1
-33.851481 -25.371242 9.259913 43.305527 0.643173 1.355305 0.156685 -0.034101 -145074.000000 0 0 1
-34.590096 -26.573842 9.359713 44.612196 0.655079 1.359424 0.160810 -0.033684 -111067.000000 0 0 1
-34.611235 -27.325642 7.995213 44.816868 0.668307 1.391439 0.142339 -0.028603 416693.000000 0 0 1
-33.289461 -27.555342 7.535513 43.866491 0.691434 1.398157 0.143412 -0.030626 144632.000000 0 0 1
-33.369591 -28.280742 6.347613 44.199798 0.703041 1.426686 0.117615 -0.031000 512984.000000 0 0 1
-31.983141 -28.466842 5.656713 43.188896 0.727295 1.439443 0.117234 -0.024874 574061.000000 0 0 1
-31.376111 -27.289042 5.139113 41.899434 0.715843 1.447833 0.105613 -0.014072 -235784.000000 0 0 1
-30.212251 -27.627542 4.434713 41.179216 0.740740 1.462894 0.098434 -0.017509 80273.800000 0 0 1
-29.556781 -26.492242 3.540413 39.849425 0.730777 1.481834 0.082047 -0.008494 451682.000000 0 0 1
-30.393221 -25.966642 2.524613 40.054813 0.707018 1.507726 0.088248 -0.010500 -49228.600000 0 0 1
-29.720391 -24.854842 2.032713 38.796864 0.696480 1.518379 0.087609 -0.025124 -75794.500000 0 0 1
-30.256201 -24.323542 0.700513 38.827350 0.677126 1.552754 0.101333 -0.020712 -212961.000000 0 0 1
-29.921981 -25.239542 -0.353487 39.146958 0.700715 1.579826 0.099718 -0.022773 -47559.900000 0 0 1
-30.124601 -24.865242 -1.703987 39.098278 0.690046 1.614392 0.111641 -0.027698 -157673.000000 0 0 1
-31.593061 -24.740342 -2.143287 40.184570 0.664347 1.624158 0.126937 -0.024226 -56196.000000 0 0 1
-32.256651 -23.604742 -1.579487 40.002126 0.631737 1.610292 0.110101 -0.018440 -348992.000000 0 0 1
-33.544351 -23.432542 -2.109487 40.972642 0.609755 1.622304 0.112667 -0.023606 -307282.000000 0 0 1
-34.095759 -22.015442 -1.778687 40.624674 0.573343 1.614594 0.117001 -0.021953 -263618.000000 0 0 1
-34.388806 -21.883342 -0.410787 40.763211 0.566720 1.580874 0.113591 -0.033949 193468.000000 0 0 1
-34.983186 -20.610942 -0.189387 40.603819 0.532416 1.575461 0.118924 -0.030864 -312825.000000 0 0 1
-35.068219 -20.415942 1.339113 40.600294 0.527212 1.537807 0.101173 -0.035249 -1233460.000000 0 0 1
-36.035197 -21.133942 1.954213 41.821021 0.530419 1.524051 0.094602 -0.041383 -732121.000000 0 0 1
-36.178261 -20.780442 3.327513 41.854099 0.521376 1.491210 0.097348 -0.045645 -701415.000000 0 0 1
37.319633 -21.556542 3.955313 43.279141 -0.523801 1.479278 0.120705 -0.035991 982994.000000 0 0 1
36.005653 -21.396942 3.391413 42.020684 -0.536193 1.490000 0.105307 -0.034708 733916.000000 0 0 1
35.368673 -20.146042 3.614213 40.864025 -0.517768 1.482236 0.111487 -0.042686 -1094200.000000 0 0 1
34.128653 -19.921842 2.777113 39.615112 -0.528369 1.500636 0.098626 -0.030122 108508.000000 0 0 1
33.068673 -20.742242 3.304913 39.175250 -0.560214 1.486334 0.087379 -0.027865 1146990.000000 0 0 1
31.788473 -20.466442 2.676013 37.901759 -0.572027 1.500134 0.112377 -0.033822 1937020.000000 0 0 1
30.554223 -21.345342 3.070713 37.398041 -0.609789 1.488595 0.100901 -0.015579 805008.000000 0 0 1
30.604933 -22.568442 2.438113 38.104342 -0.635396 1.506767 0.077452 -0.014886 312547.000000 0 0 1
29.309613 -23.126542 2.639213 37.428008 -0.668024 1.500223 0.075007 -0.013295 505714.000000 0 0 1
28.929713 -24.268242 1.668213 37.797603 -0.697996 1.526647 0.061385 -0.011984 -136193.000000 0 0 1
28.476113 -23.795942 0.417113 37.112125 -0.696101 1.559557 0.059181 -0.016347 24583.600000 0 0 1
27.872313 -24.835242 -0.300187 37.332897 -0.727841 1.578837 0.057584 -0.020903 420168.000000 0 0 1
26.842813 -24.319042 -1.393787 36.247690 -0.736109 1.609258 0.071525 -0.032779 631818.000000 0 0 1
27.485513 -23.680842 -2.511287 36.366774 -0.711176 1.639906 0.058501 -0.045242 343456.000000 0 0 1
28.181513 -24.505342 -3.429787 37.502972 -0.715737 1.662378 0.060010 -0.047747 -327385.000000 0 0 1
27.231313 -25.216542 -4.458387 37.380417 -0.747002 1.690352 0.068122 -0.047484 538991.000000 0 0 1
26.615013 -24.268842 -5.369087 36.416517 -0.739322 1.718771 0.072991 -0.057606 1245500.000000 0 0 1
25.401513 -23.686342 -4.838087 35.066890 -0.750472 1.709205 0.067530 -0.055143 55490.200000 0 0 1
24.807913 -22.585942 -5.721387 34.033683 -0.738549 1.739708 0.076077 -0.059148 -172605.000000 0 0 1
24.266013 -23.218242 -6.917687 34.289656 -0.763336 1.773933 0.087725 -0.057974 713026.000000 0 0 1
23.171413 -22.514842 -7.509887 33.169728 -0.771028 1.799184 0.083402 -0.057943 261583.000000 0 0 1
23.388913 -21.098942 -8.125587 32.530474 -0.733969 1.823253 0.077676 -0.052632 -1119890.000000 0 0 1
24.084113 -21.123742 -9.265087 33.348145 -0.720008 1.852330 0.083217 -0.048734 -201882.000000 0 0 1
23.702613 -19.957142 -9.921987 32.535322 -0.699820 1.880693 0.078646 -0.043946 -129364.000000 0 0 1
24.322013 -19.941542 -11.315987 33.425693 -0.686756 1.916163 0.075196 -0.036586 496878.000000 0 0 1
25.746213 -19.942642 -11.253887 34.456152 -0.659051 1.903516 0.088127 -0.039897 408664.000000 0 0 1
26.398013 -19.494142 -12.423187 35.088634 -0.636081 1.932696 0.077174 -0.040513 -228207.000000 0 0 1
27.913213 -19.689942 -12.292787 36.303635 -0.614340 1.916236 0.071291 -0.032379 -464609.000000 0 0 1
28.315813 -20.988842 -12.496887 37.396376 -0.637872 1.911525 0.056263 -0.031179 -230759.000000 0 0 1
29.454413 -21.327742 -11.758387 38.219036 -0.626714 1.883527 0.064530 -0.040186 -304119.000000 0 0 1
29.850173 -22.838142 -11.956587 39.440760 -0.653091 1.878796 0.056234 -0.024370 -604963.000000 0 0 1
30.763833 -23.139842 -12.953987 40.616148 -0.644893 1.895404 0.053291 -0.027651 -40240.000000 0 0 1
30.748773 -24.492842 -13.273087 41.491700 -0.672632 1.896418 0.064988 -0.017530 -101581.000000 0 0 1
-3.551521 -8.728117 -27.535637 29.103344 1.184351 2.811873 0.040004 -0.005184 -44672.300000 0 0 1
-3.707121 -7.485317 -26.899227 28.166312 1.110954 2.840504 0.046098 -0.005531 -504780.000000 0 0 1
-4.672421 -6.706617 -27.533957 28.721577 0.962297 2.853018 0.050398 -0.010979 -278274.000000 0 0 1
-4.791021 -5.361817 -26.817237 27.764494 0.841559 2.879626 0.049758 -0.020435 -187160.000000 0 0 1
-5.452921 -5.548717 -25.588047 26.744546 0.794105 2.846439 0.049287 -0.015416 191151.000000 0 0 1
-5.519521 -4.349517 -24.821687 25.797278 0.667396 2.865700 0.067317 -0.022653 84907.600000 0 0 1
-6.281921 -4.517817 -23.486587 24.728384 0.623481 2.823336 0.054421 -0.020633 -272115.000000 0 1 0
-5.552721 -5.369417 -22.617087 23.899706 0.768617 2.812492 0.059511 -0.026989 521658.000000 0 1 0
-5.764821 -5.060617 -21.257687 22.599386 0.720439 2.795281 0.049282 -0.030118 -205356.000000 0 1 0
-5.044821 -6.074517 -20.372987 21.849681 0.877739 2.771837 0.045950 -0.032508 -320937.000000 0 1 0
-5.558421 -7.378817 -20.489787 22.476084 0.925190 2.718020 0.046956 -0.030825 378368.000000 0 1 0
-4.744121 -8.287817 -19.768487 21.954218 1.050902 2.691580 0.042058 -0.030431 -748814.000000 0 1 0
-5.354821 -9.739317 -19.750287 22.662794 1.068095 2.629019 0.050912 -0.029021 163901.000000 0 1 0
-6.511121 -9.923117 -18.979187 22.384648 0.990105 2.582744 0.057657 -0.026058 -388604.000000 0 1 0
-7.699021 -9.256617 -19.310387 22.756338 0.877004 2.584076 0.054805 -0.027693 -1193370.000000 0 1 0
-8.763021 -9.653317 -18.273487 22.447659 0.833703 2.521886 0.047521 -0.024098 -497030.000000 0 1 0
-9.240721 -10.969817 -18.506187 23.413816 0.870745 2.482252 0.057410 -0.017419 215417.000000 0 1 0
-9.897521 -11.453717 -17.306887 22.992975 0.858155 2.422955 0.053634 -0.021066 -323944.000000 0 1 0
-10.817921 -12.606617 -17.625787 24.220293 0.861610 2.385800 0.070013 -0.015545 373711.000000 0 1 0
-12.056621 -12.305517 -18.320987 25.148487 0.795614 2.386944 0.085481 -0.031686 1005190.000000 0 0 1
-11.931021 -12.130517 -19.692587 26.024924 0.793689 2.429019 0.077640 -0.032282 -1034770.000000 0 0 1
-13.271521 -11.610217 -20.242087 26.845344 0.718729 2.424966 0.072841 -0.032502 -136128.000000 0 0 1
-14.300121 -12.536217 -20.344287 27.848522 0.719764 2.389900 0.074904 -0.032540 -318759.000000 0 0 1
-14.971321 -12.911717 -19.162787 27.532985 0.711666 2.340599 0.078625 -0.027735 -1192650.000000 0 0 1
-16.026921 -13.968517 -19.395787 28.778086 0.716882 2.310376 0.082741 -0.023159 -264233.000000 0 0 1
-15.517621 -15.275017 -19.563887 29.272314 0.777520 2.302773 0.089528 -0.024216 229739.000000 0 0 1
-16.130821 -15.797317 -20.762587 30.673174 0.774953 2.314335 0.103246 -0.024426 436592.000000 0 0 1
-15.717521 -17.316717 -21.078387 31.483449 0.833771 2.304341 0.059236 -0.019338 120218.000000 0 0 1
-16.380121 -18.290617 -20.304387 31.860997 0.840447 2.261760 0.068485 -0.007739 145170.000000 0 0 1
-16.105821 -19.558617 -20.845087 32.809368 0.881911 2.259244 0.062460 -0.007084 -96855.800000 0 0 1
-16.779421 -20.697917 -20.048087 33.344843 0.889576 2.215842 0.069369 -0.012082 -148956.000000 0 0 1
-16.505221 -21.940217 -20.629587 34.342034 0.925837 2.215185 0.077250 -0.012807 139276.000000 0 0 1
-17.095121 -22.997217 -19.914787 34.895757 0.931561 2.178147 0.086795 -0.005116 61836.300000 0 0 1
-16.469221 -24.311517 -20.389687 35.749468 0.975383 2.177727 0.096160 -0.002313 124357.000000 0 0 1
-16.896021 -24.725217 -21.677887 36.969483 0.971331 2.197370 0.080140 -0.011101 22945.100000 0 0 1
-16.292721 -25.927857 -22.043887 37.731147 1.009765 2.194734 0.088782 -0.012361 -148836.000000 0 0 1
-16.587121 -26.281897 -23.524787 38.978023 1.007806 2.218730 0.089421 -0.020951 552816.000000 0 0 1
-17.824821 -26.958337 -23.781187 40.125067 0.986589 2.205174 0.109563 -0.013900 432104.000000 0 0 1
-17.619421 -28.330957 -23.750987 40.953590 1.014419 2.189462 0.104687 -0.007479 11706.300000 0 0 1
-18.793621 -29.135197 -24.381787 42.385510 0.997910 2.183692 0.103066 -0.013828 302866.000000 0 0 1
-19.135021 -29.091587 -25.782107 43.326510 0.988992 2.208143 0.107100 -0.010915 65881.900000 0 0 1
-19.238221 -27.748907 -26.340187 42.824251 0.964584 2.233279 0.119074 -0.026241 -66522.100000 0 0 1
-17.991221 -27.289217 -27.150177 42.491382 0.987925 2.263938 0.117951 -0.033690 258527.000000 0 0 1
-17.893321 -27.696867 -28.455527 43.554614 0.997209 2.282771 0.113345 -0.024978 -79797.200000 0 0 1
-16.716821 -27.218457 -29.067467 43.188125 1.020021 2.309112 0.085605 -0.024949 -60071.500000 0 0 1
-16.665021 -27.358317 -30.589127 44.293285 1.023684 2.333120 0.098188 -0.027006 31674.100000 0 0 1
-16.589221 -28.729537 -31.022697 45.420219 1.047140 2.322679 0.076769 -0.024746 295053.000000 0 0 1
-17.390221 -28.956287 -32.170867 46.646018 1.029959 2.331845 0.076845 -0.018617 72786.800000 0 0 1
-17.379721 -30.373397 -32.700597 47.894958 1.051067 2.322325 0.072578 -0.021038 271497.000000 0 0 1
-16.143921 -30.690377 -33.326367 48.095448 1.086546 2.336329 0.089285 -0.017695 -22400.500000 0 0 1
-16.168321 -31.799267 33.683576 49.063136 1.100412 0.814083 0.084630 -0.015682 222646.000000 0 0 1
-14.904721 -32.265087 32.872770 48.412866 1.138053 0.824384 0.074880 -0.020781 671339.000000 0 0 1
-13.961021 -32.933297 33.707038 49.149533 1.169842 0.815086 0.093252 -0.018852 756402.000000 0 0 1
-12.940321 -33.625577 32.941545 48.818815 1.203431 0.830141 0.099769 -0.020048 650750.000000 0 0 1
-12.099821 33.254438 33.833595 48.958916 -1.221832 0.807840 0.112516 -0.021832 317996.000000 0 0 1
-11.253721 -33.849187 -33.106097 48.666491 1.249826 2.318920 0.117917 -0.025214 588029.000000 0 0 1
-10.451321 32.995852 -32.407137 47.414964 -1.264047 2.323314 0.117269 -0.028894 11838.600000 0 0 1
-9.581221 33.722670 -31.398647 47.062652 -1.293973 2.301195 0.104247 -0.035693 -225416.000000 0 0 1
-10.361621 -33.336147 -30.481867 46.344429 1.269441 2.288590 0.118741 -0.040732 -400414.000000 0 0 1
-9.609421 -32.394647 -29.796327 45.050807 1.282429 2.293472 0.119352 -0.045865 -412924.000000 0 0 1
-10.373421 -31.429947 -28.802117 43.874952 1.252005 2.286912 0.130959 -0.040304 238451.000000 0 0 1
-10.527621 -31.738767 -27.423607 43.246206 1.250520 2.257676 0.160073 -0.044345 -191025.000000 0 0 1
-11.293021 -32.900447 -27.159557 44.131772 1.240149 2.233715 0.155302 -0.046087 -112683.000000 0 0 1
-11.630821 -33.077297 -25.662787 43.450687 1.232674 2.202622 0.154610 -0.049082 105887.000000 0 0 1
-10.485721 -33.119717 -24.840987 42.707618 1.264180 2.191555 0.173892 -0.063767 -90551.700000 0 0 1
-10.865021 -33.491597 -23.520387 42.343174 1.257098 2.159725 0.164352 -0.065753 21998.300000 0 0 1
-9.655221 -33.583997 -22.599587 41.615496 1.290851 2.144870 0.173977 -0.069084 -159819.000000 0 0 1
-8.814521 33.146221 -22.756887 41.161191 -1.310883 2.156604 0.158844 -0.068355 -208351.000000 0 0 1
-7.911821 33.040638 -21.671487 40.298064 -1.335765 2.138598 0.169449 -0.068600 -92613.300000 0 0 1
-7.216821 31.647077 -21.474987 38.920368 -1.346590 2.155278 0.172799 -0.072661 -132870.000000 0 0 1
-6.110721 31.514137 -22.332687 39.105378 -1.379269 2.178629 0.150832 -0.077187 -391044.000000 0 0 1
-5.561721 30.272457 -22.297887 38.007238 -1.389100 2.197743 0.134458 -0.064192 -425813.000000 0 0 1
-4.038721 30.255807 -22.537987 37.943194 -1.438095 2.206809 0.134122 -0.066143 -67387.800000 0 0 1
-3.774421 30.615407 -23.870187 39.004297 -1.448130 2.229369 0.144173 -0.061406 844552.000000 0 0 1
-2.405621 31.033437 -24.059987 39.341380 -1.493434 2.228839 0.120210 -0.066756 996395.000000 0 0 1
-1.942821 31.292097 -25.559397 40.450620 -1.508789 2.254755 0.122843 -0.040034 25209.000000 0 0 1
-1.000821 32.316025 -25.782527 41.352942 -1.539836 2.243976 0.119792 -0.057055 70749.100000 0 0 1
-1.618521 33.570278 -25.913177 42.439084 -1.522621 2.227611 0.111750 -0.046287 -95158.100000 0 0 1
-0.762021 -33.277167 -26.743377 42.698463 1.547901 2.247634 0.058858 -0.021718 282449.000000 0 0 1
0.488279 -33.029047 -26.093587 42.095506 -1.556014 2.239369 0.073055 -0.023336 22915.300000 0 0 1
1.108679 -31.951357 -26.764057 41.694522 -1.536111 2.267781 0.050048 -0.009140 -247180.000000 0 0 1
2.393879 -31.665927 -25.974127 41.025808 -1.495342 2.256369 0.052729 -0.010439 -349237.000000 0 0 1
2.129179 -30.962807 -24.759587 39.702216 -1.502139 2.244177 0.058776 -0.015405 977467.000000 0 0 1
3.360579 -30.416157 -24.243487 39.040784 -1.460756 2.240787 0.038741 -0.012025 603099.000000 0 0 1
3.214279 -29.725647 -22.903387 37.663123 -1.463083 2.224476 0.052905 -0.016843 -165981.000000 0 0 1
3.097679 -30.526097 -21.790387 37.633219 -1.469666 2.188323 0.065536 -0.019295 418895.000000 0 0 1
3.123979 -29.700327 -20.611587 36.286447 -1.465998 2.174900 0.070350 -0.016733 -502426.000000 0 0 1
3.304279 -30.576707 -19.280387 36.298576 -1.463149 2.130767 0.068482 -0.013786 366487.000000 0 0 1
2.182279 -31.371547 -18.834687 36.656265 -1.501346 2.110427 0.075733 -0.020807 709504.000000 0 0 1
2.192479 -32.667967 -19.322687 38.018013 -1.503783 2.103949 0.064683 -0.012351 -522784.000000 0 0 1
2.768679 -33.736987 -18.402587 38.529276 -1.488913 2.068747 0.056491 -0.026923 631362.000000 0 0 1
4.195779 -33.745237 -18.525987 38.724124 -1.447094 2.069639 0.053678 -0.021274 476665.000000 0 0 1
4.768879 33.114399 -17.627987 37.816022 1.427767 2.055732 0.057390 -0.037902 741508.000000 0 0 1
5.842379 32.203539 -18.386187 37.540021 1.391328 2.082629 0.066310 -0.032224 965521.000000 0 0 1
6.962479 33.000489 -18.763287 38.594939 1.362865 2.078486 0.095947 -0.030897 -194049.000000 0 0 1
7.932279 32.257804 -19.451487 38.494770 1.329678 2.100528 0.080724 -0.029890 804463.000000 0 0 1
9.330179 32.953913 -19.657087 39.489412 1.294889 2.091835 0.067628 -0.030952 762060.000000 0 0 1
10.061679 33.072454 -18.462387 39.190360 1.275462 2.061328 0.057067 -0.030235 1131590.000000 0 0 1
11.440579 33.462677 -18.698587 40.003434 1.241364 2.057172 0.059772 -0.020067 1382080.000000 0 0 1
12.213379 33.711314 -17.376487 39.844217 1.223212 2.022068 0.041231 -0.015392 -76478.600000 0 0 1
12.524979 32.530188 -16.609887 38.613166 1.203265 2.015468 0.046004 -0.014517 -234459.000000 0 0 1
13.362579 32.902806 -15.564187 38.773665 1.185023 1.983854 0.046886 -0.025425 -382182.000000 0 0 1
14.654579 32.081242 -15.436487 38.499973 1.142305 1.983348 0.048877 -0.017676 75712.900000 0 0 1
14.495879 30.967207 -14.666487 37.204895 1.132989 1.976003 0.062775 -0.022467 780718.000000 0 0 1
15.730079 30.201247 -14.727687 37.100613 1.090614 1.979005 0.046616 -0.013696 1225670.000000 0 0 1
15.547679 28.792497 -14.032687 35.604136 1.075670 1.975918 0.065501 -0.019236 -291909.000000 0 0 1
15.550479 28.872977 -12.631987 35.143040 1.076761 1.938469 0.066017 -0.024392 545666.000000 0 0 1
14.254079 29.044357 -12.015987 34.512858 1.114560 1.926404 0.069546 -0.023619 1043380.000000 0 0 1
13.549279 27.666687 -11.736987 32.966428 1.115396 1.934811 0.076230 -0.022224 -464405.000000 0 0 1
12.810779 27.083767 -12.800587 32.580692 1.128976 1.974567 0.066221 -0.024538 235976.000000 0 0 1
12.141079 25.868567 -12.557187 31.213322 1.131978 1.984826 0.083006 -0.026429 522248.000000 0 0 1
11.130079 25.783177 -11.361887 30.294279 1.163281 1.955248 0.079350 -0.022326 -192760.000000 0 0 1
9.997179 26.618717 -11.497787 30.670813 1.211526 1.955061 0.071863 -0.018726 55819.500000 0 0 1
9.344679 26.883687 -10.286187 30.263200 1.236264 1.917597 0.052285 -0.007413 199587.000000 0 0 1
8.215379 27.922147 -10.484187 30.936336 1.284647 1.916539 0.055135 -0.008748 57348.300000 0 0 1
8.746579 29.210537 -10.716487 32.320291 1.279860 1.908765 0.062291 -0.011027 -501936.000000 0 0 1
7.799579 30.206757 -10.963587 33.067837 1.318109 1.908741 0.042133 -0.002738 -224791.000000 0 0 1
8.366479 31.602487 -11.180287 34.550166 1.311992 1.900324 0.079403 -0.021471 -437078.000000 0 0 1
9.146779 32.130378 -10.117387 34.905390 1.293456 1.864868 0.072614 -0.021651 -31451.100000 0 0 1
9.803079 33.367203 -10.374487 36.291880 1.285043 1.860703 0.075689 -0.026741 150827.000000 0 0 1
10.933379 33.318886 -11.414187 36.877779 1.253724 1.885478 0.062697 -0.028220 190361.000000 0 0 1
12.181179 32.740427 -10.946787 36.608043 1.214612 1.874469 0.066899 -0.024735 653069.000000 0 0 1
13.174479 33.002763 -11.913687 37.479130 1.190986 1.894284 0.068627 -0.028886 518845.000000 0 0 1
14.641979 32.820034 -11.415887 37.707620 1.151166 1.878370 0.072276 -0.028257 559343.000000 0 0 1
14.982879 33.777756 -10.446687 38.399957 1.153300 1.846318 0.076713 -0.026674 307960.000000 0 0 1
16.410179 33.705691 -10.375787 38.897616 1.117710 1.840812 0.083363 -0.031357 593516.000000 0 0 1
16.962479 -33.133677 -9.341687 38.377512 -1.097642 1.816682 0.094122 -0.035916 -93524.500000 0 0 1
16.912979 -33.735217 -8.035087 38.583369 -1.106073 1.780584 0.086366 -0.033348 235150.000000 0 0 1
17.442779 -32.836917 -7.026687 37.840296 -1.082506 1.757574 0.082272 -0.031961 -730952.000000 0 0 1
17.861679 -33.568267 -5.700287 38.449466 -1.081800 1.719599 0.089038 -0.024922 320835.000000 0 0 1
18.901779 33.286472 -5.748387 38.708015 1.054351 1.719854 0.079024 -0.029270 -17076.000000 0 0 1
20.166379 33.838837 -6.038787 39.852436 1.033357 1.722911 0.092546 -0.026083 -792371.000000 0 0 1
21.057679 32.836366 -6.873387 39.609295 1.000568 1.745209 0.073779 -0.021951 307501.000000 0 0 1
21.401379 31.665937 -6.227787 38.723842 0.976464 1.732323 0.079306 -0.015601 -511947.000000 0 0 1
22.326779 31.775827 -5.197987 39.181722 0.958305 1.703852 0.080111 -0.014899 -868967.000000 0 0 1
22.725279 30.364927 -4.717687 38.219415 0.928316 1.694549 0.052605 -0.014043 -221158.000000 0 0 1
23.446579 29.693127 -5.710487 38.262691 0.902411 1.720600 0.047997 -0.008199 -283550.000000 0 0 1
23.745079 28.395527 -5.247187 37.385394 0.874353 1.711615 0.044317 -0.000178 -673441.000000 0 0 1
24.774179 27.736297 -6.138987 37.692828 0.841748 1.734394 0.035610 0.002531 -27746.000000 0 0 1
26.004879 28.530167 -6.108687 39.083759 0.831671 1.727737 0.055555 -0.000613 13623.800000 0 0 1
27.029179 27.962417 -6.801287 39.480765 0.802367 1.743928 0.037058 -0.000746 -851781.000000 0 0 1
27.713379 26.735287 -6.153287 38.995768 0.767437 1.729252 0.032076 0.014256 -1587140.000000 0 0 1
28.482479 27.196747 -5.108687 39.711627 0.762310 1.699798 0.054053 0.006041 -394258.000000 0 0 1
29.182779 26.063617 -4.582987 39.394803 0.728999 1.687395 0.073207 0.001853 505354.000000 0 0 1
30.395679 26.380717 -3.644787 40.411929 0.714800 1.661110 0.075216 -0.003597 437478.000000 0 0 1
30.019979 27.067307 -2.435887 40.494096 0.733722 1.630987 0.082425 -0.009406 433598.000000 0 0 1
31.161179 27.363197 -1.603987 41.501041 0.720593 1.609455 0.087908 -0.021052 800270.000000 0 0 1
31.134979 28.794877 -1.029587 42.421597 0.746371 1.595069 0.111469 -0.021042 -152226.000000 0 0 1
31.624579 29.693947 -1.969087 43.424898 0.753923 1.616157 0.087098 -0.017699 -92126.500000 0 0 1
31.526779 31.017187 -1.430187 44.249849 0.777251 1.603123 0.101879 -0.017984 -28676.700000 0 0 1
33.958913 22.049283 19.393438 44.894143 0.575878 1.124108 0.140041 -0.028570 124935.000000 0 0 1
34.444953 22.281283 20.702838 45.951255 0.574169 1.103427 0.131488 -0.035899 718247.000000 0 0 1
35.318253 23.446683 20.827638 47.232578 0.586063 1.114129 0.139324 -0.028971 532497.000000 0 0 1
35.485853 23.810783 22.326238 48.214728 0.590992 1.089354 0.112753 -0.013621 -388167.000000 0 0 1
34.296513 24.255083 22.898398 47.842413 0.615553 1.071713 0.083478 -0.007442 -356038.000000 0 0 1
34.470643 24.404483 24.260758 48.707170 0.616061 1.049397 0.076260 -0.013497 -47414.600000 0 0 1
33.224963 24.818983 25.070178 48.460230 0.641577 1.027062 0.072697 -0.014514 -80792.600000 0 0 1
32.871433 26.133483 24.901068 48.821647 0.671698 1.035563 0.042901 -0.014104 1238280.000000 0 0 1
31.484903 26.419783 25.222408 48.223168 0.698147 1.020388 0.038375 -0.009935 1268770.000000 0 0 1
31.068613 27.905283 25.365798 48.860897 0.731810 1.024948 0.032776 -0.005777 -94740.600000 0 0 1
31.138663 28.642983 24.185428 48.733681 0.743676 1.051491 0.034282 -0.014648 141945.000000 0 0 1
30.721043 29.997983 24.379078 49.376116 0.773490 1.054408 0.031403 -0.011015 -134067.000000 0 0 1
31.094583 30.952283 23.188248 49.624709 0.783105 1.084593 0.031395 -0.013697 -132676.000000 0 0 1
32.482183 31.094783 23.026628 50.519336 0.763579 1.097527 0.008277 -0.012653 -544261.000000 0 0 1
32.811923 31.854183 21.906938 50.707250 0.770589 1.124056 0.007566 -0.014442 326051.000000 0 0 1
34.314833 32.174483 21.714238 51.809393 0.753218 1.138323 -0.008566 -0.025304 261419.000000 0 0 1
34.672993 33.368783 22.410038 53.083914 0.766233 1.134967 0.001497 -0.008704 484207.000000 0 0 1
35.941953 33.885783 21.993138 54.071881 0.755960 1.151915 0.016925 -0.003339 484479.000000 0 0 1
36.403393 -32.718342 22.756738 53.977459 -0.732136 1.135590 0.024053 -0.006187 -476496.000000 0 0 1
35.813383 -31.519442 22.335538 52.677793 -0.721713 1.132936 0.011785 -0.002805 -80154.200000 0 0 1
36.007313 -30.437042 23.210948 52.551767 -0.701760 1.113328 0.018223 0.000299 -1405810.000000 0 0 1
34.915523 -29.367542 23.104838 51.140784 -0.699306 1.102027 0.015538 -0.013170 -122614.000000 0 0 1
33.638473 -29.869942 23.438088 50.725775 -0.726129 1.090486 0.010609 -0.011036 -336683.000000 0 0 1
32.951453 -30.278642 22.317838 50.006802 -0.743152 1.108174 0.024618 -0.007721 -1350130.000000 0 0 1
32.276003 -31.630342 22.470738 50.469327 -0.775295 1.109359 0.018525 -0.005417 46716.200000 0 0 1
31.165093 -31.591642 23.364088 50.151525 -0.792195 1.086179 0.033064 -0.009696 251746.000000 0 0 1
30.750083 -32.913142 23.677318 50.886716 -0.819362 1.086829 0.026939 -0.009930 -458935.000000 0 0 1
29.856053 -32.981742 24.888758 50.976754 -0.835099 1.060727 0.033931 -0.009028 -414721.000000 0 0 1
29.595513 33.498983 25.136128 51.282562 0.847186 1.058535 0.042057 -0.018218 330478.000000 0 0 1
28.755213 33.365883 26.297168 51.299955 0.859483 1.032568 0.054699 -0.016160 -30377.600000 0 0 1
28.307413 31.876483 26.547998 50.221668 0.844632 1.013827 0.059910 -0.015756 811765.000000 0 0 1
27.450913 31.301383 25.545058 48.845462 0.850842 1.020456 0.071737 -0.016740 847039.000000 0 0 1
26.109013 31.774683 25.406468 48.340455 0.882968 1.017407 0.070605 -0.022368 164796.000000 0 0 1
25.461913 31.260583 24.110588 46.977159 0.887273 1.031840 0.113894 -0.026688 -46226.400000 0 0 1
25.757113 31.980983 22.900548 47.017520 0.892778 1.062071 0.136529 -0.036366 745782.000000 0 0 1
27.128113 31.941883 22.472538 47.552427 0.866711 1.078575 0.103056 -0.028417 641902.000000 0 0 1
27.276413 32.717983 21.090238 47.531750 0.875852 1.111064 0.115682 -0.033093 618336.000000 0 0 1
28.624213 32.921383 20.656638 48.268620 0.855106 1.128571 0.110792 -0.032254 566708.000000 0 0 1
28.630413 33.533483 19.378738 48.163580 0.864108 1.156711 0.099990 -0.031266 -118629.000000 0 0 1
30.016623 -33.869242 18.843638 49.022504 -0.845630 1.176252 0.103604 -0.033291 199118.000000 0 0 1
30.940173 32.866683 18.748238 48.877495 0.815582 1.177131 0.093702 -0.044436 271888.000000 0 0 1
32.109433 33.436283 18.168438 49.790489 0.805639 1.197273 0.078135 -0.036713 341263.000000 0 0 1
33.147123 32.405583 17.592138 49.581618 0.774087 1.208084 0.069578 -0.027167 359322.000000 0 0 1
33.888293 31.719683 18.604438 50.006797 0.752356 1.189592 0.050120 -0.027175 40567.400000 0 0 1
34.756433 30.813283 17.962938 49.800955 0.725334 1.201784 0.064241 -0.026171 243095.000000 0 0 1
35.804743 30.162683 18.910838 50.491453 0.700078 1.186901 0.057533 -0.031269 -154251.000000 0 0 1
36.659663 31.037783 19.566338 51.866332 0.702544 1.183976 0.064925 -0.029217 -544164.000000 0 0 1
-36.981271 30.271583 20.162338 51.870058 -0.685959 1.171567 0.087493 -0.021176 117900.000000 0 0 1
-35.827541 31.225783 20.579838 51.789882 -0.716877 1.162145 0.094748 -0.022207 258288.000000 0 0 1
-35.070899 31.781683 19.481538 51.181770 -0.736237 1.180314 0.104098 -0.025524 463288.000000 0 0 1
-34.029011 32.714483 19.746438 51.167692 -0.765705 1.174596 0.093897 -0.011405 253172.000000 0 0 1
-34.316047 -33.864042 20.613038 52.433402 0.778769 1.166765 0.077883 -0.014576 -459433.000000 0 0 1
-34.372452 33.675883 22.015838 52.917177 -0.775162 1.141706 0.080974 -0.009769 114055.000000 0 0 1
-34.321784 -32.984942 22.781138 52.772829 0.765539 1.124438 0.065420 -0.010159 -87205.700000 0 0 1
-34.434601 -33.185342 24.255158 53.622022 0.766926 1.101414 0.068498 -0.008458 -792019.000000 0 0 1
-35.716382 -33.479242 24.662248 54.815563 0.753079 1.104128 0.061154 -0.000862 -1013200.000000 0 0 1
-35.602116 33.880783 26.029238 55.614200 -0.760630 1.083734 0.078290 -0.010892 1080340.000000 0 0 1
-37.041681 33.674683 26.613958 56.695441 -0.737821 1.082163 0.052032 -0.014123 784206.000000 0 0 1
-36.953651 33.079883 27.871548 56.891775 -0.730141 1.058816 0.075929 -0.019325 -508569.000000 0 0 1
36.474553 32.851983 28.501258 56.762377 0.733192 1.044753 0.067231 -0.027493 -394299.000000 0 0 1
36.393123 31.851283 29.718028 56.763763 0.718944 1.019797 0.067010 -0.021587 -403326.000000 0 0 1
36.394933 30.447483 29.353128 55.796474 0.696655 1.016818 0.062119 -0.020032 -164202.000000 0 0 1
-37.122271 29.840583 28.814128 55.666662 -0.677082 1.026730 0.064179 -0.016165 -480369.000000 0 0 1
-37.254701 28.297583 28.573488 54.818884 -0.649598 1.022500 0.071204 -0.013362 -642941.000000 0 0 1
36.213313 28.064683 27.886588 53.634804 0.659299 1.024022 0.066146 -0.003858 -43279.000000 0 0 1
35.959913 26.803283 27.323208 52.517511 0.640528 1.023631 0.080394 -0.014014 12953.800000 0 0 1
35.900113 25.573883 28.239288 52.347865 0.618975 1.001007 0.078865 -0.018253 323755.000000 0 0 1
37.254453 25.198283 28.497818 53.244468 0.594699 1.006021 0.059397 -0.005332 576204.000000 0 0 1
37.186873 23.869083 28.995958 52.852268 0.570638 0.990080 0.054202 0.000582 82055.000000 0 0 1
-37.178851 22.767583 27.892048 51.755155 -0.549473 1.001638 0.075542 0.003448 -292787.000000 0 0 1
36.663553 22.730183 26.741068 50.753936 0.554972 1.015875 0.079309 -0.003689 -321225.000000 0 0 1
36.985833 21.859983 25.692628 50.059183 0.533803 1.031835 0.082172 -0.019694 -297728.000000 0 0 1
36.617033 20.410083 25.971458 49.314249 0.508502 1.016139 0.075881 -0.011164 -874381.000000 0 0 1
35.241323 20.209383 25.986518 48.225192 0.520674 1.001716 0.094713 -0.007802 -336960.000000 0 0 1
34.707403 18.977883 26.431948 47.575327 0.500380 0.981735 0.083747 -0.001319 -413221.000000 0 0 1
34.767443 18.787783 27.985138 48.424413 0.495431 0.954626 0.061509 0.010013 345762.000000 0 0 1
33.749513 19.446083 28.798368 48.440951 0.522727 0.934147 0.061200 -0.006785 858183.000000 0 0 1
33.902263 20.845683 28.921078 49.196897 0.551286 0.942381 0.069273 -0.013651 -823705.000000 0 0 1
32.850853 21.531583 29.814838 49.312393 0.580186 0.921518 0.072841 -0.020997 262381.000000 0 0 1
31.491343 21.415583 29.407508 48.115833 0.597209 0.913244 0.100137 -0.028152 368318.000000 0 0 1
31.037733 22.021283 28.212138 47.373014 0.617074 0.932869 0.088313 -0.020636 -602528.000000 0 0 1
30.959233 23.565183 28.181678 48.041637 0.650610 0.943930 0.082075 -0.015459 -126068.000000 0 0 1
32.183483 24.261483 28.320938 49.259229 0.645960 0.958270 0.073077 -0.017484 36374.400000 0 0 1
31.913973 25.621783 28.825068 50.058585 0.676470 0.957181 0.045775 -0.010536 -9723.940000 0 0 1
32.131133 25.637283 30.402078 51.126963 0.673456 0.933980 0.049008 -0.018323 512099.000000 0 0 1
33.489223 25.251083 30.653958 51.950076 0.646060 0.939656 0.041959 -0.012756 576326.000000 0 0 1
33.946053 25.121783 31.977331 52.971579 0.637103 0.922700 0.056237 -0.018445 -98771.700000 0 0 1
33.296183 23.985783 32.801931 52.534943 0.624271 0.896455 0.071705 -0.023767 -383760.000000 0 0 1
33.726793 23.904983 -33.722167 53.349127 0.616596 2.255061 0.077935 -0.035543 19674.700000 0 0 1
33.366583 22.785083 -33.018967 52.179891 0.599137 2.255949 0.077761 -0.033949 -296795.000000 0 0 1
33.974723 22.728383 -31.599227 51.665969 0.589602 2.228886 0.069791 -0.040615 -322734.000000 0 0 1
33.347263 23.632283 -30.738127 51.140563 0.616523 2.215613 0.058426 -0.043755 79464.500000 0 0 1
33.504893 23.395583 -29.323617 50.297173 0.609566 2.193222 0.072308 -0.044230 -301817.000000 0 0 1
34.916533 23.707883 -28.796977 51.092992 0.596484 2.169557 0.078729 -0.021092 -224619.000000 0 0 1
35.136893 23.286483 -27.480097 50.319154 0.585276 2.148517 0.077266 -0.021009 -61329.300000 0 0 1
36.318173 23.829583 -26.913447 51.099827 0.580675 2.125491 0.086748 -0.012760 184515.000000 0 0 1
36.994343 22.960983 -25.832817 50.627291 0.555474 2.106277 0.068188 -0.007126 -838740.000000 0 0 1
-37.028491 21.842983 -26.410917 50.455540 -0.532957 2.121690 0.051773 -0.009524 -46073.100000 0 0 1
-37.004281 20.744883 -25.540437 49.517480 -0.510951 2.112722 0.035723 -0.003626 -550947.000000 0 0 1
-36.024534 19.649683 -25.994717 48.575738 -0.499345 2.135467 0.042324 0.004737 18293.400000 0 0 1
-34.694497 20.051183 -25.747207 47.630627 -0.524038 2.141899 0.046113 -0.003146 -216299.000000 0 0 1
-33.737251 19.005383 -25.822867 46.542745 -0.513024 2.158943 0.024136 -0.011821 376741.000000 0 0 1
-32.378261 19.412183 -25.214697 45.397858 -0.540084 2.159659 0.040997 -0.017955 -61265.700000 0 0 1
-32.422671 19.709483 -23.789887 44.784506 -0.546202 2.130822 0.045625 -0.010866 486377.000000 0 0 1
-31.098771 19.851383 -23.276487 43.623454 -0.568130 2.133621 0.066184 -0.017990 637722.000000 0 0 1
-31.178491 20.269583 -21.766587 43.089889 -0.576456 2.100345 0.058241 -0.019187 273831.000000 0 0 1
-31.878371 19.271883 -21.049287 42.786779 -0.543754 2.085133 0.043316 -0.008745 -4288.860000 0 0 1
-32.214491 19.732083 -19.757287 42.631900 -0.549576 2.052669 0.045302 -0.005287 -651080.000000 0 0 1
-33.038131 18.634883 -18.977187 42.413565 -0.513560 2.034688 0.043144 0.003579 590289.000000 0 0 1
-33.855591 19.051583 -17.895187 42.771504 -0.512565 2.002469 0.034177 -0.003442 408098.000000 0 0 1
-34.737665 20.150183 -18.139987 44.065795 -0.525634 1.995068 0.017923 -0.002038 -1290300.000000 0 0 1
-35.994984 20.074483 -17.296987 44.696862 -0.508737 1.968155 0.029817 -0.004165 -703323.000000 0 0 1
-35.848994 20.538383 -15.968687 44.294181 -0.520265 1.939616 0.040986 -0.013851 -225463.000000 0 0 1
-37.043611 20.388383 -15.243887 44.947651 -0.503142 1.916807 0.052782 -0.005631 -239904.000000 0 0 1
-36.886981 20.972883 -13.784487 44.615280 -0.516990 1.884899 0.066003 -0.014672 -31643.000000 0 0 1
-37.114271 22.393283 -13.577687 45.423361 -0.542887 1.874351 0.080190 -0.019808 -174889.000000 0 0 1
36.203993 22.768983 -13.715087 44.913910 0.561405 1.881117 0.077438 -0.013891 -279981.000000 0 0 1
35.946373 24.228283 -14.145687 45.598814 0.593071 1.886221 0.073193 -0.014651 -136607.000000 0 0 1
36.340483 25.233783 -13.248987 46.183440 0.606938 1.861762 0.078150 -0.014063 -77883.300000 0 0 1
36.036603 26.579283 -13.593987 46.796277 0.635494 1.865538 0.081819 -0.004479 249868.000000 0 0 1
37.064303 27.357683 -14.494287 48.293785 0.635851 1.875623 0.087939 0.007653 328399.000000 0 0 1
37.296683 26.805483 -15.708587 48.542107 0.623173 1.900336 0.088696 0.004996 157681.000000 0 0 1
-36.497421 27.670383 -16.433087 48.659615 -0.648694 1.915285 0.092558 0.004340 -556675.000000 0 0 1
-36.470471 27.435683 -17.960587 49.044822 -0.644953 1.945727 0.104585 -0.002330 -351510.000000 0 0 1
-35.849005 26.299883 -18.353087 48.100631 -0.632941 1.962275 0.099917 -0.010544 850334.000000 0 0 1
-34.414471 26.294583 -18.192087 46.975663 -0.652436 1.968461 0.112333 -0.000151 656687.000000 0 0 1
-33.701061 25.019283 -18.734187 45.964070 -0.638612 1.990602 0.091944 -0.000357 -32920.900000 0 0 1
-33.583591 24.909183 -20.103587 46.394818 -0.638172 2.018965 0.089002 -0.006620 315651.000000 0 0 1
-32.800361 23.861483 -20.646987 45.514086 -0.628929 2.041641 0.081714 -0.004986 -9904.920000 0 0 1
-32.885591 23.797883 -22.219387 46.276370 -0.626427 2.071617 0.085365 -0.016128 -403888.000000 0 0 1
-34.119315 23.270583 -22.635287 47.095688 -0.598567 2.072162 0.083028 -0.014661 -27602.900000 0 0 1
-34.209216 23.159083 -24.030587 47.792077 -0.595111 2.097649 0.071161 -0.017213 -106009.000000 0 0 1
-34.867748 24.403183 -24.700387 49.207563 -0.610644 2.096664 0.089538 -0.018343 -315419.000000 0 0 1
-33.966081 25.517383 -24.707087 49.145413 -0.644307 2.097555 0.093945 -0.021908 566988.000000 0 0 1
-34.635182 26.595983 -25.332167 50.484262 -0.654852 2.096456 0.095219 -0.024490 -93481.800000 0 0 1
-33.787731 27.837783 -25.384767 50.605724 -0.689146 2.096265 0.079688 -0.017337 -656685.000000 0 0 1
-32.697561 27.743083 -26.237087 50.271203 -0.703608 2.119886 0.069995 -0.030063 -821325.000000 0 0 1
-32.151701 29.036383 -26.551347 50.811587 -0.734528 2.120630 0.078027 -0.030276 91204.600000 0 0 1
-30.821851 28.901683 -27.308697 50.309628 -0.753258 2.144579 0.065339 -0.024122 293441.000000 0 0 1
-29.746361 28.361283 -26.480697 48.892081 -0.761566 2.143154 0.062393 -0.019426 217933.000000 0 0 1
-28.484781 28.421683 -27.064637 48.494013 -0.784289 2.162894 0.064379 -0.011564 -29492.000000 0 0 1
-27.798231 29.851383 -27.021497 48.928600 -0.820997 2.155874 0.047208 -0.016105 -708414.000000 0 0 1
-27.127021 30.379683 -25.905817 48.269159 -0.841899 2.137312 0.033616 -0.016597 -84900.700000 0 0 1
-27.908451 30.435083 -24.710387 48.122542 -0.828677 2.110042 0.051033 -0.018673 -44385.300000 0 0 1
-27.246941 30.969183 -23.395687 47.421980 -0.849250 2.086734 0.026935 -0.018192 -13885.100000 0 0 1
-27.223881 32.382483 -23.409587 48.350528 -0.871728 2.076204 0.034190 -0.018018 385694.000000 0 0 1
-25.959601 32.875583 -22.966887 47.772196 -0.902410 2.072316 0.026912 -0.000452 470576.000000 0 0 1
-25.935311 -33.413542 -23.091087 48.190283 0.910742 2.070499 0.014179 0.015965 -110794.000000 0 0 1
-26.335751 -32.743142 -21.914887 47.391427 0.893431 2.051522 0.007557 0.001292 66113.000000 0 0 1
-26.265661 -31.368042 -22.093487 46.496894 0.873699 2.065943 0.014619 0.003186 -29184.200000 0 0 1
17.369079 8.435583 -24.857187 31.475764 0.452115 2.481156 0.059368 -0.018472 -156968.000000 0 0 1
16.056679 7.928883 -24.889187 30.661959 0.458680 2.517902 0.060443 -0.021839 -85470.800000 0 0 1
16.117379 6.547583 -25.048037 30.496638 0.385877 2.534548 0.051673 -0.019226 302760.000000 0 0 1
14.717879 5.878183 -25.105497 29.689307 0.379981 2.578498 0.081956 -0.034934 273180.000000 0 0 1
14.059679 5.886483 -23.868087 28.319796 0.396504 2.573272 0.106738 -0.042472 24061.300000 0 0 1
12.677179 5.688183 -24.043387 27.769601 0.421768 2.617577 0.112464 -0.044053 491841.000000 0 0 1
11.727179 5.671983 -22.763387 26.227274 0.450491 2.621812 0.118375 -0.046731 419907.000000 0 0 1
12.096779 4.758083 -21.722287 25.314604 0.374747 2.602341 0.108781 -0.035558 372.694000 0 0 1
11.571079 5.070583 -20.477587 24.061011 0.413008 2.588815 0.124305 -0.033429 -286921.000000 0 1 0
12.093879 6.318383 -19.736587 23.994098 0.481442 2.536695 0.134033 -0.039188 -246599.000000 0 1 0
11.541979 6.419083 -18.436487 22.678756 0.507553 2.519981 0.111249 -0.033466 -261982.000000 0 1 0
11.584179 7.678783 -17.847587 22.620638 0.585368 2.479969 0.111890 -0.037912 38935.000000 0 1 0
12.974779 8.206383 -17.422387 23.221309 0.563965 2.419276 0.116514 -0.031522 -87075.800000 0 1 0
13.426479 7.644383 -16.224187 22.403820 0.517579 2.380627 0.132594 -0.037909 -163670.000000 0 1 0
14.639379 8.249883 -15.870187 23.113520 0.513179 2.327625 0.124991 -0.033495 -717097.000000 0 1 0
15.302079 7.543583 -14.667387 22.498700 0.458014 2.280912 0.125798 -0.035958 286979.000000 0 1 0
16.566079 8.207183 -14.589287 23.550799 0.459978 2.238879 0.113487 -0.037839 948135.000000 0 1 0
17.311879 8.028583 -13.378587 23.305491 0.434239 2.182243 0.121421 -0.039239 705450.000000 0 1 0
18.204279 9.280683 -13.027287 24.232975 0.471463 2.138367 0.157130 -0.042509 145799.000000 0 1 0
17.401779 10.340483 -12.621287 23.854651 0.536159 2.128326 0.205020 -0.045028 122807.000000 0 1 0
18.204279 11.338583 -12.108887 24.628934 0.557054 2.084783 0.225425 -0.066560 -893829.000000 0 1 0
17.459079 12.617883 -11.788687 24.556131 0.625807 2.071532 0.244848 -0.056503 -687252.000000 0 1 0
16.666779 12.477283 -10.604087 23.364734 0.642625 2.041878 0.270347 -0.044621 603771.000000 0 1 0
15.720879 13.490283 -10.309387 23.139084 0.709185 2.032574 0.145397 -0.033389 -58464.100000 0 1 0
14.437179 13.575483 -11.150887 22.739133 0.754647 2.083326 0.109632 -0.045915 165066.000000 0 1 0
13.427779 14.556583 -10.777987 22.546937 0.825713 2.069200 0.135595 -0.049678 779640.000000 0 1 0
13.844679 15.898683 -10.940987 23.751809 0.854346 2.049510 0.147615 -0.046072 -186880.000000 0 1 0
13.072279 16.923383 -10.042287 23.624836 0.913088 2.009839 0.130870 -0.037904 217274.000000 0 1 0
13.309179 16.705283 -8.672787 23.052504 0.898068 1.956508 0.140329 -0.031300 253638.000000 0 1 0
12.433679 17.474583 -7.888987 22.851554 0.952374 1.923278 0.118365 -0.011494 -110800.000000 0 1 0
12.729579 17.266283 -6.383987 22.381287 0.935505 1.860051 0.102435 -0.011518 -421145.000000 0 1 0
13.804079 17.982683 -5.905587 23.426597 0.916106 1.825635 0.131269 -0.015786 -436885.000000 0 1 0
14.013379 17.717383 -4.538587 23.040816 0.901604 1.769073 0.113077 -0.016693 18988.600000 0 1 0
15.118779 18.682683 -4.013487 24.366538 0.890446 1.736263 0.105222 -0.022183 130871.000000 0 1 0
16.395779 18.356883 -4.528487 25.026065 0.841769 1.752749 0.117605 -0.040956 323054.000000 0 0 1
17.082379 19.565483 -4.886487 26.429028 0.853051 1.756757 0.078673 -0.034119 -251997.000000 0 0 1
18.338279 19.428383 -5.722687 27.322220 0.814254 1.781811 0.079594 -0.020741 313933.000000 0 0 1
19.498479 18.793783 -5.161987 27.568879 0.766997 1.759148 0.082205 -0.031208 714066.000000 0 0 1
19.661479 17.437383 -5.490487 26.847375 0.725519 1.776757 0.109559 -0.044168 21252.800000 0 0 1
20.793979 16.772683 -4.650787 27.117195 0.678760 1.743155 0.120187 -0.045722 561681.000000 0 0 1
22.098579 17.109783 -5.119187 28.412989 0.658840 1.751956 0.091421 -0.046257 -102099.000000 0 0 1
23.029279 16.250683 -4.528087 28.547083 0.614510 1.730087 0.097508 -0.045077 -1564830.000000 0 0 1
24.405979 16.768583 -4.776087 29.994136 0.601994 1.730711 0.097330 -0.046414 -1306990.000000 0 0 1
24.711779 17.857183 -3.922687 30.739852 0.625745 1.698754 0.107415 -0.041604 -39386.500000 0 0 1
26.105379 17.939083 -3.731287 31.893950 0.602070 1.688055 0.082804 -0.033810 -27281.200000 0 0 1
26.649779 19.215483 -2.972787 32.989134 0.624706 1.661033 0.097464 -0.021334 52901.400000 0 0 1
26.740879 20.350183 -3.827687 33.820937 0.650513 1.684214 0.098911 -0.023315 116315.000000 0 0 1
27.014679 21.491583 -3.028487 34.653322 0.672023 1.658302 0.105276 -0.003014 -38685.400000 0 0 1
26.893179 22.782383 -3.847687 35.455391 0.702833 1.679532 0.071041 -0.001342 -167018.000000 0 0 1
28.004479 23.046583 -4.672587 36.568141 0.688585 1.698924 0.069443 0.006005 -23898.200000 0 0 1
28.184279 22.283383 -5.870287 36.405535 0.669002 1.732750 0.054702 0.005354 -568802.000000 0 0 1
29.383279 22.715283 -6.707987 37.740671 0.658102 1.749485 0.049432 0.007415 -373018.000000 0 0 1
29.249179 24.056983 -7.264587 38.561991 0.688301 1.760316 0.030793 0.013855 83658.900000 0 0 1
30.371779 24.446683 -8.038187 39.808262 0.677730 1.774117 0.040593 0.014201 -293064.000000 0 0 1
30.835479 23.662783 -9.315487 39.969143 0.654537 1.806027 0.036955 0.004006 1297.190000 0 0 1
30.112079 23.772783 -10.552887 39.790023 0.668291 1.839223 0.031196 0.009681 -12221.100000 0 0 1
30.614679 22.810883 -11.433487 39.853727 0.640355 1.861771 0.016065 -0.004456 -95840.900000 0 0 1
29.852479 22.594583 -12.764587 39.555282 0.647886 1.899380 0.054472 0.001198 -20252.800000 0 0 1
30.218079 23.510783 -13.783987 40.692598 0.661205 1.916368 0.039250 -0.005915 114416.000000 0 0 1
29.940379 23.026783 -15.109587 40.681183 0.655606 1.951329 0.065284 -0.012525 -526914.000000 0 0 1
30.436979 24.018583 -16.174087 42.010750 0.668075 1.966003 0.058941 -0.009744 -345865.000000 0 0 1
31.824879 23.968683 -16.400187 43.084647 0.645510 1.961296 0.054249 -0.003788 -267942.000000 0 0 1
32.164979 24.735083 -17.483787 44.182497 0.655555 1.977645 0.071667 -0.009445 -520005.000000 0 0 1
33.647879 25.072383 -17.570387 45.492006 0.640383 1.967337 0.084476 -0.009563 -397519.000000 0 0 1
34.472679 23.942683 -17.838187 45.605028 0.607053 1.972672 0.082270 0.001634 889955.000000 0 0 1
35.856079 24.358483 -17.734087 46.834730 0.596725 1.959136 0.098293 0.000606 1158560.000000 0 0 1
36.875179 23.200183 -17.950987 47.119691 0.561581 1.961637 0.083569 -0.015566 -153601.000000 0 0 1
36.783679 22.487083 -19.207587 47.197874 0.548711 1.989918 0.068832 -0.002901 -261169.000000 0 0 1
-36.897554 22.896183 -20.108787 47.854237 -0.555381 2.004472 0.078977 0.005295 -223396.000000 0 0 1
-36.858854 21.977183 -21.323487 47.919336 -0.537659 2.031956 0.069972 -0.000362 -71349.300000 0 0 1
-36.229254 20.747483 -21.054187 46.757841 -0.520083 2.037877 0.051685 0.000734 -782.656000 0 0 1
-35.983054 20.112383 -22.254987 46.846265 -0.509681 2.065833 0.043750 -0.000127 176935.000000 0 0 1
-35.617754 18.590883 -22.199187 45.902606 -0.481057 2.075576 0.029793 -0.003258 592086.000000 0 0 1
-36.713054 17.789283 -21.788887 46.250000 -0.451211 2.061346 0.039792 -0.006886 433670.000000 0 0 1
-36.299354 16.487383 -22.127987 45.597420 -0.426346 2.077492 0.023733 -0.014284 706110.000000 0 0 1
37.273479 15.392883 -21.820487 45.851791 0.391638 2.066774 0.023426 -0.002802 523790.000000 0 0 1
36.077979 15.559483 -22.560687 45.306762 0.407172 2.092034 0.068600 0.001981 131189.000000 0 0 1
35.128679 14.547083 -22.400687 44.129724 0.392609 2.103205 0.090220 -0.004378 -245049.000000 0 0 1
35.489979 13.259883 -23.247487 44.450070 0.357563 2.121166 0.063032 -0.012632 -445388.000000 0 0 1
35.471179 13.477383 -24.654587 45.251443 0.363106 2.146989 0.077957 -0.009321 421907.000000 0 0 1
35.938779 12.350383 -25.410097 45.714339 0.331007 2.160176 0.065595 -0.007207 -115394.000000 0 0 1
35.782079 12.603183 -26.906537 46.509775 0.338652 2.187702 0.074636 -0.011828 613029.000000 0 0 1
34.396079 12.584683 -27.282877 45.670777 0.350747 2.211028 0.075249 -0.009896 941580.000000 0 0 1
33.946879 13.730083 -27.993357 46.092665 0.384343 2.223489 0.083804 -0.011706 -229327.000000 0 0 1
34.375179 13.824083 -29.503837 47.362798 0.382361 2.243282 0.078748 -0.026914 -713155.000000 0 0 1
35.755479 13.932883 -29.667177 48.504854 0.371571 2.228920 0.066957 -0.015794 -684330.000000 0 0 1
36.082179 13.918683 -31.046897 49.593983 0.368161 2.247237 0.067773 -0.021584 558661.000000 0 0 1
-37.026654 13.984983 -31.242377 50.424587 -0.361136 2.239012 0.060727 -0.015182 864088.000000 0 0 1
-36.275554 12.843983 -30.899157 49.352220 -0.340294 2.247331 0.060422 -0.015952 34302.000000 0 0 1
-35.979054 12.716383 -29.526327 48.249380 -0.339735 2.229323 0.044439 -0.011519 -1459460.000000 0 0 1
-34.971254 11.742183 -29.090657 46.980143 -0.323939 2.238535 0.043961 -0.018087 -916467.000000 0 0 1
-35.289954 10.420783 -29.555817 47.196609 -0.287130 2.247501 0.052468 -0.020672 228852.000000 0 0 1
-34.188154 9.568683 -29.362507 46.071101 -0.272900 2.261825 0.050360 -0.014646 -12473.600000 0 0 1
-34.449054 8.143783 -29.886177 46.327552 -0.232139 2.271958 0.066629 -0.015774 -655729.000000 0 0 1
-34.568454 8.085683 -31.271577 47.310335 -0.229773 2.292931 0.063343 -0.015727 94260.400000 0 0 1
-34.852754 6.783783 -31.812927 47.673856 -0.192238 2.301379 0.071645 -0.017424 468069.000000 0 0 1
-36.209354 6.110883 -31.398567 48.314907 -0.167190 2.278214 0.093328 -0.018394 172191.000000 0 0 1
-36.166554 5.610883 -30.048167 47.353923 -0.153913 2.258215 0.107183 -0.027721 -944654.000000 0 0 1
37.317479 5.091083 -29.605997 47.906455 0.135589 2.236987 0.106865 -0.022620 -1120470.000000 0 0 1
-37.261254 4.374183 -28.227327 46.950149 -0.116857 2.215822 0.105788 -0.026988 -30914.500000 0 0 1
-36.369154 3.273483 -28.174417 46.121891 -0.089765 2.227954 0.116584 -0.022810 186111.000000 0 0 1
-36.613554 2.350183 -27.122377 45.625640 -0.064101 2.207384 0.116434 -0.027721 -834720.000000 0 0 1
-35.623754 1.243283 -27.027817 44.733662 -0.034886 2.219550 0.123374 -0.028338 -181526.000000 0 0 1
-34.284254 1.631783 -26.719787 43.497354 -0.047560 2.232276 0.124867 -0.023821 612986.000000 0 0 1
-33.397154 0.517383 -26.648637 42.729234 -0.015491 2.244216 0.120358 -0.023006 989154.000000 0 0 1
-32.283354 0.731783 -25.536047 41.168436 -0.022664 2.239899 0.113542 -0.017851 617053.000000 0 0 1
-32.882754 0.730483 -24.237587 40.856698 -0.022211 2.205867 0.114306 -0.012858 473932.000000 0 0 1
-31.989054 0.894383 -23.142687 39.492828 -0.027952 2.196906 0.125091 -0.002268 -175693.000000 0 0 1
-32.657154 0.460183 -21.881587 39.312916 -0.014090 2.161085 0.120863 0.002885 -778143.000000 0 0 1
-32.724054 -0.967617 -21.792287 39.328155 0.029560 2.158095 0.130180 -0.006569 357274.000000 0 0 1
-33.287954 -1.516317 -20.597487 39.174527 0.045520 2.124437 0.142562 -0.015350 41925.600000 0 0 1
-34.736154 -1.125917 -20.217787 40.207300 0.032402 2.097676 0.136807 -0.010717 -454900.000000 0 0 1
-35.698254 -2.060817 -20.679287 41.306721 0.057665 2.095120 0.134165 -0.017836 248362.000000 0 0 1
-36.974454 -1.760217 -20.150787 42.145733 0.047570 2.069311 0.122537 -0.009723 404477.000000 0 0 1
36.694079 -2.962917 -20.032287 41.910940 -0.080572 2.069142 0.107159 -0.015522 316733.000000 0 0 1
36.171879 -3.586117 -21.195887 42.077675 -0.098818 2.098710 0.101668 -0.012464 -48316.900000 0 0 1
37.145179 -4.322417 -21.840387 43.306468 -0.115844 2.099392 0.104175 -0.011638 -538591.000000 0 0 1
36.529579 -5.190917 -22.937287 43.445079 -0.141157 2.126994 0.092796 -0.009867 -588884.000000 0 0 1
35.728079 -6.230117 -22.449287 42.653025 -0.172640 2.125067 0.095084 -0.007219 94233.000000 0 0 1
35.382279 -7.117517 -23.508487 43.072192 -0.198511 2.148131 0.094350 -0.005670 -322284.000000 0 0 1
34.022379 -6.875017 -24.164487 42.293151 -0.199388 2.178955 0.069384 0.004313 -763489.000000 0 0 1
33.917079 -5.602317 -24.751787 42.360420 -0.163699 2.194831 0.079171 -0.007519 -847473.000000 0 0 1
32.638779 -5.447617 -25.247627 41.622219 -0.165382 2.222561 0.052817 0.000098 -736011.000000 0 0 1
32.376779 -4.214617 -26.070957 41.781738 -0.129446 2.244622 0.077818 -0.034210 107464.000000 0 0 1
32.807879 -4.455117 -27.415207 42.986028 -0.134969 2.262396 0.082304 -0.046809 329847.000000 0 0 1
32.228979 -3.455717 -28.249857 42.996552 -0.106816 2.287663 0.074891 -0.045157 133249.000000 0 0 1
32.518579 -3.559517 -29.717917 44.195959 -0.109027 2.308260 0.084663 -0.039260 236894.000000 0 0 1
31.773079 -2.549417 -30.415497 44.058263 -0.080067 2.332765 0.071290 -0.048671 274659.000000 0 0 1
31.109879 -3.098417 -31.563807 44.426329 -0.099269 2.360970 0.068725 -0.049215 -473638.000000 0 0 1
30.588779 -1.958717 -32.474077 44.655074 -0.063947 2.385060 0.080242 -0.041786 -668314.000000 0 0 1
29.645579 -1.060317 -31.904537 43.564712 -0.035751 2.392560 0.073154 -0.037909 927551.000000 0 0 1
28.326379 -1.540617 -31.589297 42.457519 -0.054335 2.409865 0.073457 -0.043549 947170.000000 0 0 1
27.453179 -2.029917 -32.816517 42.833648 -0.073807 2.443608 0.067783 -0.035944 -1015780.000000 0 0 1
27.973579 -3.108617 -33.541807 43.786270 -0.110673 2.443446 0.070961 -0.039309 132028.000000 0 0 1
27.160179 -3.453617 33.203262 43.035560 -0.126479 0.689552 0.069582 -0.032114 45819.200000 0 0 1
27.690779 -4.858317 32.771587 43.178229 -0.173681 0.709045 0.042414 -0.027994 1134740.000000 0 0 1
29.050179 -5.021117 32.296923 43.728889 -0.171152 0.739847 0.048332 -0.021772 1031350.000000 0 0 1
29.271379 -4.475617 30.989718 42.862657 -0.151726 0.762661 0.057260 -0.031028 -285228.000000 0 0 1
29.920979 -3.067817 30.950628 43.158057 -0.102174 0.771098 0.048878 -0.028205 -455055.000000 0 0 1
31.214479 -2.986917 31.493368 44.442070 -0.095400 0.783229 0.053904 -0.023406 -46749.700000 0 0 1
31.633879 -1.622417 31.678598 44.798082 -0.051242 0.785349 0.055158 -0.024227 320506.000000 0 0 1
33.062479 -1.504917 32.297914 46.244433 -0.045486 0.797613 0.051151 -0.020540 780959.000000 0 0 1
34.042779 -1.886817 31.343708 46.313053 -0.055368 0.827418 0.061361 -0.018152 717468.000000 0 0 1
35.411579 -1.820917 31.761318 47.603330 -0.051376 0.840342 0.070648 -0.013003 836506.000000 0 0 1
36.461679 -2.376917 30.800048 47.788563 -0.065097 0.870418 0.092931 -0.014507 -104940.000000 0 0 1
36.625579 -1.744417 29.546708 47.090169 -0.047592 0.892523 0.088873 -0.005608 6953.750000 0 0 1
-36.845754 -2.230217 28.989728 46.935997 0.060455 0.905053 0.097002 -0.008293 -3422.280000 0 0 1
-36.570754 -1.631317 27.657898 45.880721 0.044578 0.923763 0.096229 -0.011820 400385.000000 0 0 1
37.236179 -2.135917 26.646258 45.837956 -0.057299 0.950453 0.073159 -0.025101 246075.000000 0 0 1
-36.836254 -1.686817 25.428588 44.792500 0.045760 0.967090 0.087951 -0.018151 353758.000000 0 0 1
-27.529681 14.765183 11.978813 33.457225 -0.492293 1.204635 0.121087 -0.029807 327964.000000 0 0 1
-28.696541 14.051883 12.390013 34.270385 -0.455351 1.200880 0.089471 -0.015486 379506.000000 0 0 1
-29.645121 14.985083 12.872213 35.624146 -0.468024 1.201098 0.101878 -0.017342 -718478.000000 0 0 1
-30.942411 14.294583 13.261413 36.573665 -0.432767 1.199746 0.103070 -0.011175 -865500.000000 0 0 1
-31.848691 15.211583 13.789413 37.892997 -0.445584 1.198340 0.110290 -0.013182 -792801.000000 0 0 1
-32.860971 14.558583 14.498513 38.755678 -0.417047 1.187370 0.133195 -0.025042 343839.000000 0 0 1
-33.816391 15.499483 15.330913 40.234551 -0.429770 1.179877 0.126547 -0.028898 953060.000000 0 0 1
-33.080181 16.139483 16.379113 40.287177 -0.453913 1.152112 0.104451 -0.026438 561011.000000 0 0 1
-33.904261 16.026083 17.547113 41.403326 -0.441559 1.133149 0.121624 -0.045807 501311.000000 0 0 1
-33.129531 16.341083 18.829513 41.462602 -0.458232 1.099398 0.144722 -0.037850 151861.000000 0 0 1
-32.228421 15.319583 19.237513 40.539396 -0.443729 1.076356 0.145880 -0.035236 69610.600000 0 0 1
-31.303261 15.737283 20.244613 40.464806 -0.465834 1.046849 0.110109 -0.038878 305540.000000 0 0 1
-31.844551 15.936083 21.685413 41.692820 -0.463994 1.023801 0.132815 -0.043757 -157277.000000 0 0 1
-32.830751 16.970883 21.738113 42.876737 -0.477092 1.039106 0.128025 -0.046663 467100.000000 0 0 1
-33.330291 17.296783 23.056113 44.064400 -0.478693 1.020152 0.127305 -0.049053 -1152340.000000 0 0 1
-34.459088 16.393883 23.554913 44.844420 -0.444059 1.017777 0.127725 -0.054829 -313674.000000 0 0 1
-35.726189 16.482583 22.947313 45.547945 -0.432259 1.042798 0.148065 -0.046170 104062.000000 0 0 1
-36.390751 17.720883 23.109713 46.608746 -0.453162 1.052013 0.139599 -0.046471 -1106120.000000 0 0 1
36.749333 17.563783 22.978013 46.765255 0.445840 1.057160 0.120849 -0.045177 -33222.800000 0 0 1
36.068203 16.843083 23.968413 46.466004 0.436883 1.028824 0.118476 -0.042760 -354109.000000 0 0 1
34.856173 16.246783 23.631113 45.136906 0.436169 1.019792 0.113979 -0.038894 -74759.500000 0 0 1
34.392433 15.267383 24.794913 45.063512 0.417784 0.988167 0.076947 -0.016858 -112616.000000 0 0 1
33.721223 15.884983 25.874913 45.375816 0.440235 0.964004 0.087459 -0.020641 92324.700000 0 0 1
33.818353 15.229783 27.101213 45.935858 0.423137 0.939763 0.079166 -0.014563 -316336.000000 0 0 1
32.867473 14.057783 27.260413 44.955780 0.404165 0.919293 0.077560 -0.014065 -804448.000000 0 0 1
33.322663 12.858383 26.717413 44.604462 0.368271 0.928563 0.079815 -0.015495 -317755.000000 0 0 1
32.380723 11.841383 26.878213 43.716907 0.350586 0.908633 0.078749 -0.014706 -138672.000000 0 0 1
33.032203 10.442583 26.689913 43.732430 0.306192 0.914357 0.072482 -0.007473 245911.000000 0 0 1
33.931103 10.047183 27.724413 44.954518 0.287880 0.906225 0.075724 -0.010221 147687.000000 0 0 1
34.584283 8.832383 27.346013 44.965410 0.250042 0.917060 0.068031 -0.008669 43628.400000 0 0 1
35.554853 8.261083 28.365913 46.227893 0.228297 0.910172 0.066939 -0.009161 305755.000000 0 0 1
36.828933 8.887083 28.519613 47.420659 0.236781 0.925522 0.080178 -0.009021 411053.000000 0 0 1
-36.893761 7.852983 28.792413 47.453366 -0.209724 0.918829 0.087677 -0.013640 -473343.000000 0 0 1
-35.474960 8.324383 29.021813 46.583621 -0.230485 0.898218 0.088748 -0.017652 -651726.000000 0 0 1
-34.806807 8.763883 27.841413 45.425364 -0.246659 0.911065 0.078269 -0.013768 906121.000000 0 0 1
-33.485221 9.202183 28.243213 44.761806 -0.268193 0.887998 0.087156 -0.014037 867605.000000 0 0 1
-32.699741 9.890083 27.120213 43.618720 -0.293704 0.899813 0.096460 -0.021227 -247964.000000 0 0 1
-32.379071 9.072583 25.999313 42.505061 -0.273193 0.912619 0.088733 -0.015579 839857.000000 0 0 1
-31.502411 9.832483 25.095313 41.459068 -0.302537 0.920649 0.084593 -0.011940 621401.000000 0 0 1
-30.721171 8.882983 24.155013 40.076956 -0.281472 0.923896 0.099965 -0.015126 -22663.000000 0 0 1
-29.681001 9.486583 23.428113 38.985042 -0.309356 0.926106 0.091102 -0.022636 366151.000000 0 0 1
-28.919371 8.469583 22.727713 37.744043 -0.284902 0.924600 0.080144 -0.012279 554865.000000 0 0 1
-27.706841 8.984883 21.910313 36.448031 -0.313584 0.925871 0.084440 -0.013260 68495.300000 0 0 1
-26.581011 9.459283 22.665013 36.190205 -0.341891 0.894031 0.090312 -0.025532 2043620.000000 0 0 1
-25.452501 10.012383 21.904613 35.041257 -0.374782 0.895525 0.074415 -0.012631 1451870.000000 0 0 1
-24.734321 9.176583 20.812313 33.602807 -0.355265 0.902866 0.063017 -0.005556 -760079.000000 0 0 1
-25.407691 9.171683 19.547713 33.343419 -0.346423 0.944369 0.064618 -0.009898 271929.000000 0 0 1
-24.764421 8.460883 18.526913 32.064148 -0.329221 0.954756 0.067083 -0.015163 -284252.000000 0 0 1
-24.767921 6.926683 18.538513 31.703396 -0.272697 0.946226 0.061534 -0.005329 248154.000000 0 0 1
-23.761521 6.392883 19.426313 31.350605 -0.262820 0.902503 0.070616 -0.005095 845806.000000 0 0 1
-24.088821 5.139083 19.987113 31.720122 -0.210188 0.889104 0.093114 -0.007572 -128634.000000 0 0 1
-23.864821 3.854583 19.128113 30.826485 -0.160134 0.901405 0.067876 -0.009644 -195382.000000 0 0 1
-24.857321 3.833583 18.133213 31.006389 -0.153018 0.946136 0.089513 -0.010615 336345.000000 0 0 1
-24.606521 2.949383 17.072613 30.094083 -0.119293 0.967563 0.083778 -0.007390 -200304.000000 0 0 1
-24.501921 1.413083 17.353613 30.058091 -0.057609 0.955334 0.090745 -0.008727 -771977.000000 0 0 1
-23.307521 0.982583 17.910913 29.410998 -0.042132 0.916014 0.071843 -0.007538 -425576.000000 0 0 1
-23.394921 -0.306917 18.478613 29.814018 0.013118 0.902313 0.083555 -0.013728 -200843.000000 0 0 1
-22.064621 -1.057317 18.735313 28.965106 0.047883 0.867384 0.081994 -0.000301 -931351.000000 0 0 1
-21.223221 -0.462417 19.585613 28.883129 0.021785 0.825624 0.079129 -0.004416 -731610.000000 0 0 1
-20.205221 -1.385817 19.957913 28.433954 0.068480 0.792729 0.081945 0.001795 73180.100000 0 0 1
-19.250721 -0.853717 21.044313 28.533878 0.044318 0.741405 0.099537 -0.013336 4006.430000 0 0 1
-19.814821 -0.622017 22.311013 29.846195 0.031381 0.726456 0.101479 -0.022207 -178680.000000 0 0 1
-18.823221 -0.537117 23.315813 29.970473 0.028527 0.679385 0.096116 -0.023116 -402807.000000 0 0 1
-19.416521 -0.741117 24.724013 31.445625 0.038151 0.666085 0.103736 -0.017554 705766.000000 0 0 1
-20.281721 0.296983 25.248213 32.386859 -0.014642 0.676798 0.103253 -0.026655 -78750.300000 0 0 1
-21.589121 0.276283 24.744413 32.839800 -0.012797 0.717444 0.108301 -0.036620 -1167440.000000 0 0 1
-22.437121 1.263883 25.549613 34.026527 -0.056271 0.721413 0.109239 -0.042381 -387916.000000 0 0 1
-22.295821 2.619483 25.062613 33.646692 -0.116951 0.730447 0.104816 -0.035644 434433.000000 0 0 1
-23.446321 2.918283 24.294013 33.888721 -0.123830 0.771485 0.109415 -0.036172 -550909.000000 0 0 1
-23.121321 4.066183 23.285613 33.065830 -0.174083 0.789473 0.110256 -0.033300 362433.000000 0 0 1
-22.302621 3.603583 22.213313 31.683181 -0.160192 0.793847 0.108010 -0.024309 676915.000000 0 0 1
-20.919621 3.426083 22.443313 30.871846 -0.162333 0.756878 0.097530 -0.019846 -365549.000000 0 0 1
-20.141621 2.608883 21.357013 29.472244 -0.128810 0.760272 0.096362 -0.020351 22198.400000 0 0 1
-19.918021 3.358283 20.152813 28.533165 -0.167034 0.786546 0.088447 -0.008579 215822.000000 0 0 1
-19.516921 2.478383 19.110013 27.427088 -0.126310 0.799930 0.103845 -0.019404 67847.500000 0 0 1
-19.114921 3.292883 17.857713 26.365151 -0.170593 0.826679 0.090182 -0.012237 401544.000000 0 0 1
-17.781721 3.820283 17.879513 25.504140 -0.211626 0.793936 0.104736 -0.020906 528064.000000 0 0 1
-17.542921 4.363083 16.590113 24.536145 -0.243763 0.828272 0.108614 -0.018734 -218047.000000 0 1 0
-16.107521 4.913583 16.537013 23.602295 -0.296082 0.794484 0.114455 -0.012565 -73900.400000 0 1 0
-15.674121 6.110583 17.244613 24.091367 -0.371727 0.773027 0.103634 -0.020190 97011.200000 0 1 0
-16.319121 7.329983 16.940513 24.637843 -0.422160 0.812644 0.113031 -0.028545 -512043.000000 0 1 0
-15.899221 8.081383 15.631713 23.715911 -0.470256 0.851144 0.067193 -0.027851 22682.700000 0 1 0
-16.246021 7.494883 14.375113 22.951042 -0.432241 0.893949 0.119843 -0.031875 824921.000000 0 1 0
-17.643221 7.372883 14.110213 23.764275 -0.395831 0.935076 0.088436 -0.034466 362248.000000 0 1 0
-17.950521 6.352883 12.930913 23.017142 -0.340155 0.974242 0.096748 -0.035417 -32898.400000 0 1 0
-17.493521 5.060683 13.296713 22.548533 -0.281601 0.940118 0.089248 -0.025995 441101.000000 0 1 0
-17.648021 4.080383 12.287913 21.888238 -0.227216 0.974728 0.051797 -0.036890 94422.200000 0 1 0
-17.547021 2.637383 12.830713 21.897053 -0.149187 0.944737 0.076585 -0.006472 366341.000000 0 1 0
-18.650721 2.344983 13.709013 23.265540 -0.125075 0.940677 0.090162 -0.023724 918114.000000 0 1 0
-18.366721 1.119783 14.246213 23.271118 -0.060893 0.911976 0.086541 -0.007525 -109706.000000 0 1 0
-19.557121 0.553383 15.030213 24.671735 -0.028288 0.915735 0.112664 -0.012970 194381.000000 0 1 0
-20.674221 0.218283 14.215013 25.090589 -0.010558 0.968486 0.118752 -0.015829 -438782.000000 0 0 1
-21.857121 0.251383 14.917013 26.463450 -0.011501 0.971958 0.115582 -0.019601 -612521.000000 0 0 1
-23.061521 -0.141517 14.003713 26.980692 0.006136 1.025084 0.114883 -0.015446 171723.000000 0 0 1
-22.865721 -1.452317 13.446813 26.566279 0.063430 1.040069 0.124367 -0.029324 -153525.000000 0 0 1
-24.037821 -1.886017 12.846713 27.320540 0.078300 1.081254 0.131873 -0.017074 -630476.000000 0 0 1
-23.791921 -3.164517 11.988113 26.828800 0.132232 1.107569 0.131258 -0.028579 -220910.000000 0 0 1
-23.535521 -4.359917 12.788013 27.137850 0.183172 1.080118 0.105906 -0.022111 279586.000000 0 0 1
-23.203521 -5.506917 12.024713 26.708112 0.233020 1.103777 0.108665 -0.034477 -188368.000000 0 0 1
-23.433621 -6.797017 12.775113 27.541560 0.282307 1.088462 0.112694 -0.026179 -67833.000000 0 0 1
-24.774721 -6.891217 13.219713 28.914295 0.271297 1.095948 0.118736 -0.026005 192177.000000 0 0 1
-25.015021 -8.238317 13.637513 29.658100 0.318148 1.092999 0.128413 -0.041028 141225.000000 0 0 1
-25.925421 -8.418017 14.900413 31.064655 0.313962 1.070531 0.128384 -0.019097 1913710.000000 0 0 1
-27.306221 -7.976317 14.719113 32.029730 0.284199 1.093313 0.151935 -0.026964 1974780.000000 0 0 1
-28.193731 -8.260817 15.823313 33.369219 0.285024 1.076754 0.136049 -0.023038 270514.000000 0 0 1
-29.575081 -7.552717 15.670413 34.311671 0.250030 1.096505 0.142622 -0.033181 715594.000000 0 0 1
-30.562931 -8.055017 14.761113 34.883614 0.257695 1.133874 0.134549 -0.030605 815846.000000 0 0 1
-30.852141 -9.488717 14.611313 35.431354 0.298373 1.145727 0.132610 -0.033156 -453139.000000 0 0 1
-31.270651 -10.323017 15.857213 36.549548 0.318854 1.122029 0.121388 -0.027929 -160858.000000 0 0 1
-30.211951 -10.373817 16.801913 36.092691 0.330754 1.086573 0.123473 -0.018493 231969.000000 0 0 1
-30.420101 -11.352217 17.795913 37.026340 0.357175 1.069425 0.105440 -0.008614 311549.000000 0 0 1
-29.148261 -11.398217 18.695913 36.456517 0.372761 1.032321 0.110380 0.003786 1009610.000000 0 0 1
-28.054741 -12.082717 18.088413 35.500017 0.406675 1.036155 0.098046 -0.001607 -766729.000000 0 0 1
-26.927941 -12.188217 18.846413 35.055013 0.425033 1.003180 0.094164 -0.005136 -709100.000000 0 0 1
-25.832261 -13.080517 18.201213 34.200728 0.468726 1.009614 0.085786 0.002886 -74371.000000 0 0 1
-25.335641 -12.511217 17.029213 32.991201 0.458690 1.028418 0.084537 0.001036 -172325.000000 0 0 1
-24.331621 -13.313717 16.466713 32.255782 0.500674 1.035025 0.083743 -0.010048 -188690.000000 0 0 1
-23.935821 -12.793617 15.063913 31.040645 0.490863 1.064094 0.095480 -0.024130 -443567.000000 0 0 1
-22.825921 -11.967417 14.931313 29.785665 0.482891 1.045705 0.095822 -0.019974 -679261.000000 0 0 1
-22.342721 -12.015217 13.634613 28.800439 0.493404 1.077630 0.118860 -0.025366 -567950.000000 0 0 1
-21.186921 -11.108317 13.336413 27.388688 0.482899 1.062223 0.088602 -0.037208 -915388.000000 0 0 1
-21.541521 -9.737117 13.187313 27.069425 0.424529 1.061954 0.087844 -0.034278 643070.000000 0 0 1
-20.391421 -8.884617 13.121013 25.824551 0.410902 1.037839 0.088300 -0.044513 -131064.000000 0 0 1
-19.643721 -8.851717 11.813513 24.572093 0.423364 1.069264 0.093699 -0.044737 -345251.000000 0 1 0
-18.828921 -10.008017 11.498313 24.226016 0.488547 1.076257 0.083714 -0.053877 564795.000000 0 1 0
-18.397521 -9.841817 10.184813 23.217678 0.491218 1.116682 0.080693 -0.048788 -541370.000000 0 1 0
-17.670221 -11.024817 9.544813 22.910407 0.557823 1.141078 0.043462 -0.044349 1691530.000000 0 1 0
-16.235521 -11.187317 9.740913 21.991671 0.603349 1.111925 0.054433 -0.044375 1818400.000000 0 1 0
-15.786221 -11.474417 11.067713 22.435715 0.628528 1.054908 0.067116 -0.033097 -528118.000000 0 1 0
-14.358021 -12.021217 11.195113 21.817263 0.697044 1.031968 0.069089 -0.026390 -133564.000000 0 1 0
-14.310921 -13.400617 10.898713 22.431249 0.752561 1.063436 0.072754 -0.028051 883288.000000 0 1 0
-12.982621 -13.948117 10.955013 21.979780 0.821234 1.049029 0.078050 -0.016172 605968.000000 0 1 0
-12.720621 -15.426517 10.629513 22.644606 0.881238 1.082178 0.085163 -0.017268 -244322.000000 0 1 0
-12.889021 -15.826617 9.314213 22.435758 0.887343 1.142688 0.071057 -0.024478 218250.000000 0 1 0
-12.780221 -17.245217 9.256713 23.375592 0.933023 1.163641 0.068294 -0.018361 95775.200000 0 1 0
-13.247721 -17.975817 7.952713 23.703961 0.935684 1.228659 0.065582 -0.022175 -671119.000000 0 1 0
-12.489921 -17.721617 6.852213 22.737781 0.956867 1.264680 0.070973 -0.027625 -274627.000000 0 1 0
-13.057821 -18.342117 5.685913 23.222178 0.952126 1.323433 0.067491 -0.022371 32971.900000 0 1 0
-11.982921 -18.376717 4.578113 22.411007 0.992967 1.365069 0.058102 -0.014166 -74385.300000 0 1 0
-12.241621 -19.182617 3.430013 23.012933 1.002788 1.421192 0.074838 -0.015161 -151954.000000 0 1 0
-11.275421 -19.076017 2.420113 22.290951 1.036963 1.462013 0.090185 -0.026534 -104098.000000 0 1 0
-11.454821 -20.084617 1.227913 23.154104 1.052480 1.517739 0.088197 -0.021620 -51620.800000 0 1 0
-11.574921 -21.493717 1.519313 24.459497 1.076805 1.508641 0.091383 -0.028764 -268578.000000 0 1 0
-11.894521 -22.408417 0.476913 25.374086 1.082809 1.552000 0.086647 -0.023695 902793.000000 0 0 1
-10.767721 -22.550717 -0.661787 24.998332 1.125319 1.597273 0.094879 -0.014246 898585.000000 0 1 0
-10.716021 -21.502817 -1.664087 24.082638 1.108466 1.639950 0.092962 -0.029670 -748860.000000 0 1 0
-11.820721 -21.528817 -2.495087 24.686937 1.068671 1.672038 0.100256 -0.023541 -303351.000000 0 1 0
-12.738221 -20.267917 -2.532987 24.072116 1.009690 1.676216 0.090119 -0.024077 370603.000000 0 1 0
-13.441021 -20.106517 -1.318087 24.221281 0.981532 1.625242 0.076398 -0.031136 692147.000000 0 1 0
-14.518221 -19.146217 -1.359687 24.066681 0.922016 1.627323 0.087018 -0.019755 903260.000000 0 1 0
27.166879 -20.256417 -3.753487 34.094728 -0.640698 1.681110 0.101174 -0.044139 321826.000000 0 0 1
25.788879 -20.291717 -3.400487 32.990656 -0.666665 1.674054 0.093712 -0.040558 481549.000000 0 0 1
25.628179 -21.010517 -2.206187 33.213140 -0.686711 1.637270 0.070853 -0.040368 -305467.000000 0 0 1
24.161279 -21.151317 -1.759787 32.159641 -0.719069 1.625544 0.069918 -0.038972 296.151000 0 0 1
23.328179 -21.879417 -2.642487 32.091987 -0.753362 1.653231 0.087540 -0.044413 32865.100000 0 0 1
22.179179 -22.332717 -1.941187 31.534655 -0.788848 1.632393 0.079187 -0.036493 568273.000000 0 0 1
21.134579 -23.084817 -2.869687 31.429514 -0.829473 1.662229 0.091545 -0.039398 507043.000000 0 0 1
20.466679 -22.144717 -3.680387 30.377932 -0.824758 1.692248 0.096180 -0.046758 -263979.000000 0 0 1
19.577279 -22.780217 -4.573187 30.382926 -0.860871 1.721889 0.103830 -0.038589 -308444.000000 0 0 1
18.564779 -21.917117 -5.313387 29.210326 -0.868020 1.753716 0.091443 -0.019992 -1254010.000000 0 0 1
17.475279 -21.576617 -4.573587 28.139892 -0.890037 1.734051 0.090034 -0.015421 -974320.000000 0 0 1
17.649879 -20.376617 -3.842287 27.230276 -0.856982 1.712372 0.072881 -0.021508 -488110.000000 0 0 1
16.432579 -19.840317 -3.067387 25.943722 -0.879070 1.689306 0.062959 -0.002452 -131906.000000 0 0 1
16.007379 -20.689517 -2.013587 26.236365 -0.912302 1.647620 0.066389 -0.014184 49849.200000 0 0 1
15.211779 -19.986517 -1.096287 25.140823 -0.920228 1.614416 0.068319 -0.004014 -346206.000000 0 0 1
15.067279 -20.623017 0.334013 25.542970 -0.939824 1.557719 0.071802 -0.012838 -70591.300000 0 0 1
14.336079 -21.807617 0.259313 26.099092 -0.989245 1.560860 0.088038 -0.018206 -112077.000000 0 0 1
13.726379 -22.125517 1.509013 26.081203 -1.015521 1.512906 0.079228 -0.018937 -33847.800000 0 0 1
12.901779 -23.407517 1.593813 26.775138 -1.067047 1.511235 0.086742 -0.024446 29417.700000 0 0 1
13.678379 -24.566917 1.740613 28.171994 -1.062762 1.508972 0.071202 -0.024074 -324612.000000 0 0 1
13.005479 -25.597247 1.086313 28.732241 -1.100705 1.532979 0.057389 -0.023939 -25759.900000 0 0 1
13.095279 -27.033487 1.742913 30.088761 -1.119699 1.512838 0.074806 -0.026457 34728.700000 0 0 1
12.276679 -27.101577 2.880813 29.891662 -1.145461 1.474271 0.104300 -0.035844 -184237.000000 0 0 1
12.735579 -28.107407 3.720913 31.081611 -1.145364 1.450794 0.105513 -0.035875 -312509.000000 0 0 1
11.931079 -28.474057 4.969013 31.270013 -1.174005 1.411213 0.104193 -0.036703 -389232.000000 0 0 1
12.673479 -29.375977 5.767813 32.508965 -1.163498 1.392430 0.093648 -0.037291 1275.020000 0 0 1
12.066079 -29.698997 6.978413 32.807301 -1.184889 1.356450 0.082670 -0.038938 8045.780000 0 0 1
12.990779 -30.676677 7.854513 34.227361 -1.170219 1.339252 0.074550 -0.030268 457734.000000 0 0 1
12.541779 -31.009987 9.125513 34.672620 -1.186465 1.304468 0.064282 -0.025621 339352.000000 0 0 1
11.495879 -32.011697 9.225813 35.242299 -1.226024 1.305928 0.062104 -0.025545 662212.000000 0 0 1
11.324679 -32.226527 10.716113 35.799896 -1.232867 1.266802 0.061856 -0.018248 340242.000000 0 0 1
12.461979 -32.896167 11.296613 36.946884 -1.208674 1.260067 0.058865 -0.025871 524300.000000 0 0 1
12.393779 -33.222857 12.687113 37.660681 -1.213737 1.227196 0.059334 -0.021341 842574.000000 0 0 1
11.260179 33.529323 13.063013 37.704767 1.246800 1.217007 0.057773 -0.023625 1161450.000000 0 0 1
11.612579 32.238911 12.660313 36.530575 1.225060 1.216887 0.065701 -0.025990 318386.000000 0 0 1
10.488979 31.436037 12.959313 35.583520 1.248751 1.198029 0.058467 -0.012586 144774.000000 0 0 1
10.408079 30.206957 12.002713 34.129950 1.238977 1.211435 0.070174 -0.017558 -278237.000000 0 0 1
10.236979 30.524647 10.608713 33.898298 1.247216 1.252491 0.070590 -0.021516 966289.000000 0 0 1
11.270679 31.271897 9.909813 34.686656 1.224879 1.281064 0.051603 -0.017223 560956.000000 0 0 1
10.673679 31.459207 8.530513 34.298379 1.243698 1.319443 0.052123 -0.020211 462511.000000 0 0 1
9.642479 32.444986 8.562413 34.913743 1.281915 1.323024 0.055717 -0.016097 95797.200000 0 0 1
8.945179 32.562939 7.359113 34.561796 1.302705 1.356227 0.050432 -0.018123 -128267.000000 0 0 1
9.255579 33.863187 6.592713 35.718973 1.303990 1.385160 0.060979 -0.018069 41636.600000 0 0 1
8.682179 -32.857397 7.251213 34.750092 -1.312463 1.360584 0.061053 -0.020083 -27214.600000 0 0 1
9.040079 -31.721017 6.580213 33.633989 -1.293169 1.373884 0.081002 -0.035062 -447488.000000 0 0 1
8.289679 -30.441207 6.990613 32.314928 -1.304926 1.352745 0.074556 -0.027964 -317688.000000 0 0 1
8.562179 -29.855947 8.208113 32.125716 -1.291509 1.312432 0.078864 -0.028892 -97285.000000 0 0 1
8.039979 -28.523167 8.220013 30.753552 -1.296049 1.300220 0.085506 -0.022341 -303915.000000 0 0 1
8.944279 -27.446837 7.646813 29.863067 -1.255772 1.311850 0.118429 -0.033958 -599727.000000 0 0 1
10.061579 -27.040647 8.390413 30.047147 -1.214579 1.287792 0.112868 -0.032942 18268.800000 0 0 1
10.858779 -25.997857 7.784013 29.229994 -1.175142 1.301242 0.094138 -0.039422 17976.500000 0 0 1
10.238979 -24.752717 7.100613 27.711955 -1.178578 1.311677 0.102165 -0.039486 -607642.000000 0 0 1
9.807279 -25.153007 5.822913 27.618161 -1.199023 1.358366 0.110201 -0.040976 -506255.000000 0 0 1
8.977279 -24.243417 5.183613 26.366734 -1.216155 1.372911 0.096692 -0.036633 258929.000000 0 0 1
8.342079 -24.813217 3.841313 26.458302 -1.246472 1.425098 0.090963 -0.027737 1315480.000000 0 0 1
7.289279 -25.829817 3.860813 27.114921 -1.295745 1.427924 0.068373 -0.026822 866449.000000 0 0 1
7.812879 -27.182427 4.041313 28.570223 -1.290917 1.428868 0.075078 -0.025849 134425.000000 0 0 1
6.842579 -28.238767 3.531813 29.269824 -1.333067 1.449838 0.082819 -0.024360 215744.000000 0 0 1
5.675179 -28.472647 4.305513 29.350243 -1.374054 1.423571 0.065239 -0.019051 774813.000000 0 0 1
4.658879 -29.331447 3.715213 29.930616 -1.413277 1.446348 0.055865 -0.009709 810304.000000 0 0 1
4.816279 -30.825317 3.873913 31.438892 -1.415805 1.447262 0.056735 -0.007247 -159715.000000 0 0 1
5.902479 -31.393577 3.179213 32.101454 -1.384950 1.471597 0.060128 -0.015005 -27660.100000 0 0 1
5.840979 -32.742037 3.603713 33.453622 -1.394260 1.462864 0.048683 -0.014011 -87994.800000 0 0 1
7.035079 -33.434907 2.957913 34.294819 -1.363410 1.484439 0.050264 -0.015733 -155303.000000 0 0 1
6.817979 -33.701087 1.637513 34.422806 -1.371183 1.523208 0.055899 -0.012326 -139828.000000 0 0 1
7.935879 33.486841 1.056613 34.430555 1.338104 1.540103 0.054883 -0.013832 -148375.000000 0 0 1
7.573379 33.013039 -0.364287 33.872548 1.345292 1.581551 0.070544 -0.016197 804106.000000 0 0 1
6.520279 32.042738 -0.385487 32.701677 1.370050 1.582585 0.048613 -0.011885 82089.700000 0 0 1
5.202679 32.542981 -0.418787 32.958896 1.412267 1.583503 0.053445 -0.020927 -408424.000000 0 0 1
4.153679 31.481037 -0.102387 31.754042 1.439612 1.574021 0.050456 -0.021019 -222354.000000 0 0 1
3.918879 30.523507 -1.141487 30.795212 1.443106 1.607872 0.062807 -0.020487 502091.000000 0 0 1
2.950579 29.488927 -0.824287 29.647633 1.471071 1.598603 0.072131 -0.030829 660864.000000 0 0 1
2.711579 28.484557 -2.031787 28.685376 1.475888 1.641686 0.069699 -0.021879 -45233.700000 0 0 1
2.071779 29.037017 -3.150387 29.280805 1.499567 1.678597 0.081525 -0.031671 -6351.600000 0 0 1
2.017279 28.155087 -4.299787 28.552872 1.499270 1.721962 0.084623 -0.039910 -267699.000000 0 0 1
1.855379 28.938217 -5.618587 29.536949 1.506769 1.762185 0.085305 -0.043346 -383717.000000 0 0 1
0.604979 29.528157 -5.797287 30.097950 1.550311 1.764622 0.103615 -0.039076 -410781.000000 0 0 1
0.575279 30.341807 -6.920187 31.126278 1.551839 1.794996 0.096858 -0.037246 -24197.400000 0 0 1
0.570779 29.747787 -8.382787 30.911611 1.551611 1.845421 0.096586 -0.042442 -166814.000000 0 0 1
-0.690221 29.189297 -8.713387 30.469896 -1.547154 1.860812 0.111635 -0.044747 239678.000000 0 0 1
-0.772921 28.742877 -10.041587 30.456261 -1.543912 1.906788 0.103656 -0.042391 5340.430000 0 0 1
-0.956121 29.809807 -11.169987 31.848192 -1.538733 1.929142 0.087393 -0.042387 -809902.000000 0 0 1
0.170379 30.570707 -11.427687 32.637236 1.565223 1.928520 0.080905 -0.035157 -956325.000000 0 0 1
-0.125121 31.895572 -11.778487 34.001116 -1.566874 1.924543 0.079065 -0.043214 60255.300000 0 0 1
-0.431921 32.864954 -10.615887 34.539671 -1.557655 1.883207 0.080162 -0.044324 363991.000000 0 0 1
0.680079 32.900457 -9.747387 34.320754 1.550128 1.858769 0.079854 -0.052329 -195731.000000 0 0 1
0.396079 -33.892517 -8.838187 35.028177 -1.559111 1.825870 0.083995 -0.044133 68533.200000 0 0 1
1.422379 -33.630217 -7.695087 34.528670 -1.528527 1.795544 0.077470 -0.040167 377296.000000 0 0 1
2.509679 -32.850717 -8.181787 33.947161 -1.494548 1.814208 0.081432 -0.042578 -194177.000000 0 0 1
3.339279 -32.405407 -7.135187 33.349245 -1.468112 1.786417 0.084731 -0.040438 -296685.000000 0 0 1
4.592879 -31.657947 -7.670287 32.896101 -1.426723 1.806130 0.055606 -0.035580 542930.000000 0 0 1
5.557879 -32.363287 -8.461687 33.909771 -1.400721 1.822997 0.068158 -0.033599 459215.000000 0 0 1
6.405679 -33.219197 -7.737087 34.704615 -1.380304 1.795627 0.074121 -0.020884 -1152570.000000 0 0 1
6.607679 33.249941 -8.369387 34.917998 1.374625 1.812840 0.065450 -0.018814 -256512.000000 0 0 1
5.559579 32.320785 -8.503287 33.879905 1.400451 1.824492 0.055463 -0.024383 -491070.000000 0 0 1
4.531579 32.700817 -9.402787 34.326244 1.433096 1.848267 0.065927 -0.037115 4686.210000 0 0 1
3.648079 31.544297 -9.918187 33.267425 1.455658 1.873535 0.071252 -0.044704 136592.000000 0 0 1
4.308079 30.684787 -10.825187 32.822254 1.431310 1.906901 0.041419 -0.022403 194563.000000 0 0 1
3.545779 29.461567 -10.885787 31.607860 1.451020 1.922397 0.039222 -0.037405 376357.000000 0 0 1
4.299579 28.330447 -11.568387 30.901912 1.420180 1.954501 0.033260 -0.029000 -222803.000000 0 0 1
4.314879 28.639607 -12.938787 31.721561 1.421260 1.990934 0.042119 -0.027699 -323993.000000 0 0 1
5.441479 28.198157 -13.629487 31.788499 1.380167 2.013911 0.036352 -0.032251 -640406.000000 0 0 1
5.372179 28.748877 -15.074687 32.902954 1.386061 2.046716 0.049429 -0.030839 -158421.000000 0 0 1
4.318479 28.147077 -15.787887 32.560168 1.418558 2.077026 0.055702 -0.032363 -212050.000000 0 0 1
4.133379 28.704117 -17.093887 33.663216 1.427780 2.103415 0.095444 -0.032584 -39012.300000 0 0 1
2.907879 28.181037 -17.874387 33.498064 1.467975 2.133641 0.092927 -0.036312 81436.600000 0 0 1
2.985779 26.792577 -18.209487 32.532176 1.459814 2.164866 0.116785 -0.025666 261618.000000 0 0 1
2.013779 26.578877 -19.214787 32.858789 1.495175 2.195391 0.107147 -0.037406 454182.000000 0 0 1
2.620679 25.451867 -20.121387 32.550510 1.468192 2.237195 0.122927 -0.043926 402951.000000 0 0 1
2.958179 24.365137 -19.302387 31.224875 1.449977 2.237213 0.120120 -0.052836 -320139.000000 0 0 1
4.093879 23.683037 -19.750487 31.108324 1.399627 2.258668 0.126890 -0.046944 12465.700000 0 0 1
4.640179 22.596207 -18.816187 29.768586 1.368260 2.255033 0.119055 -0.037010 230203.000000 0 0 1
3.795079 21.462707 -18.819087 28.795979 1.395783 2.283037 0.126679 -0.030096 -127474.000000 0 0 1
4.461379 20.386807 -18.245587 27.720520 1.355356 2.289219 0.096104 -0.019648 -63094.800000 0 0 1
3.519979 19.195607 -17.999987 26.549220 1.389437 2.315815 0.079801 -0.023612 257639.000000 0 0 1
2.573379 19.294707 -16.938787 25.803691 1.438207 2.286897 0.077574 -0.022883 -253180.000000 0 0 1
1.778679 18.158707 -16.843887 24.831811 1.473156 2.316269 0.060478 -0.011000 -595616.000000 0 1 0
2.066479 17.021307 -15.830487 23.336656 1.449982 2.316315 0.050526 -0.003347 385182.000000 0 1 0
3.191479 16.144007 -16.040487 22.980681 1.375625 2.343395 0.058570 -0.017437 332125.000000 0 1 0
3.008179 15.042607 -16.946387 22.858460 1.373423 2.405893 0.064603 -0.023942 -470756.000000 0 1 0
3.142079 15.467907 -18.454587 24.283751 1.370388 2.434042 0.066813 -0.021030 267418.000000 0 1 0
4.475279 15.701207 -18.939887 25.005506 1.293132 2.430162 0.083128 -0.025044 519797.000000 0 0 1
4.442979 16.082007 -20.302887 26.278855 1.301250 2.453713 0.097062 -0.028244 -456597.000000 0 0 1
4.722279 15.021607 -21.388487 26.559668 1.266213 2.506977 0.098387 -0.041229 366014.000000 0 0 1
3.708079 14.061807 -21.694287 26.117548 1.312967 2.551053 0.076502 -0.037544 49133.500000 0 0 1
2.521079 14.555807 -22.269787 26.723973 1.399297 2.555894 0.083226 -0.041199 -48323.900000 0 0 1
1.630379 13.435007 -22.858087 26.564067 1.450034 2.607025 0.085658 -0.036744 -113313.000000 0 0 1
1.062479 12.559307 -21.886987 25.256786 1.486400 2.619101 0.080157 -0.029930 -377859.000000 0 0 1
0.282779 11.600607 -22.469987 25.289412 1.546425 2.664892 0.066760 -0.023390 -527826.000000 0 0 1
-0.401721 10.627607 -21.466487 23.956574 -1.533015 2.681606 0.044957 -0.024449 -876847.000000 0 1 0
-1.413921 11.245107 -20.754287 23.647241 -1.445716 2.641759 0.046997 -0.019073 -701709.000000 0 1 0
-1.776121 10.600307 -19.541387 22.302173 -1.404785 2.638737 0.033261 -0.012652 361009.000000 0 1 0
-2.867421 9.503707 -19.679587 22.041522 -1.277766 2.674412 0.029374 -0.019424 152041.000000 0 1 0
-2.399821 8.385507 -20.423487 22.207987 -1.292060 2.737975 0.031398 -0.021894 67352.700000 0 1 0
-3.498221 7.497607 -20.621287 22.219116 -1.134242 2.760040 0.035721 -0.013165 313312.000000 0 1 0
-3.162021 6.304507 -21.483187 22.611335 -1.105910 2.824375 0.037406 -0.017644 277108.000000 0 1 0
-2.362421 5.346607 -20.745387 21.553151 -1.154737 2.866950 0.039169 -0.017612 411654.000000 0 1 0
-2.267021 4.153307 -21.542487 22.056021 -1.071156 2.925379 0.046357 -0.017811 -161733.000000 0 1 0
-1.335321 3.089207 -20.916787 21.185803 -1.162798 2.982063 0.037450 -0.013050 391317.000000 0 1 0
0.068579 3.275907 -21.061187 21.314546 1.549865 2.987253 0.044745 -0.008296 456087.000000 0 1 0
0.752679 2.423507 -20.119987 20.279393 1.269667 3.016127 0.045725 -0.012567 -133936.000000 0 1 0
2.261879 2.294907 -20.046887 20.304196 0.792646 2.982222 0.043770 -0.019171 -259030.000000 0 1 0
2.907079 1.694507 -21.158187 21.424083 0.527743 2.983879 0.062218 -0.022615 -845278.000000 0 1 0
4.291179 1.758707 -21.048987 21.553819 0.388962 2.924733 0.075772 -0.021087 -413327.000000 0 1 0
4.931879 1.109707 -22.346587 22.911238 0.221321 2.919120 0.078828 -0.015553 100809.000000 0 1 0
6.336979 1.011107 -22.258587 23.165153 0.158223 2.860905 0.081346 -0.020636 33404.900000 0 1 0
6.920579 0.456407 -23.438487 24.443105 0.065854 2.853895 0.086435 -0.022328 -69238.400000 0 1 0
8.425779 0.195207 -23.188087 24.672236 0.023164 2.792974 0.088422 -0.031873 -28132.200000 0 1 0
9.068179 1.461007 -22.972187 24.740408 0.159741 2.761227 0.092230 -0.049470 -486104.000000 0 1 0
10.421579 1.162707 -22.775087 25.073208 0.111108 2.710102 0.110356 -0.041858 -558497.000000 0 0 1
13.509779 -20.014117 22.706938 33.146403 -0.977038 0.816124 0.094283 -0.016604 -979945.000000 0 0 1
12.725179 -21.151517 22.924978 33.687854 -1.029186 0.822336 0.077407 -0.013228 -974039.000000 0 0 1
11.423079 -21.134817 22.472638 32.896606 -1.075287 0.818757 0.073924 -0.018379 -1050960.000000 0 0 1
11.232479 -21.019017 20.947938 31.729856 -1.080012 0.849716 0.100830 -0.028693 -942031.000000 0 0 1
11.589979 -19.782217 20.413438 30.698081 -1.040825 0.843337 0.121925 -0.031898 -264951.000000 0 0 1
11.342279 -19.654417 19.072638 29.643025 -1.047396 0.871851 0.122981 -0.028787 -20225.900000 0 0 1
11.783879 -18.326417 18.476138 28.567202 -0.999358 0.867467 0.125775 -0.032102 166646.000000 0 0 1
10.890579 -17.298317 18.856338 27.810034 -1.008914 0.825702 0.145580 -0.037536 8142.780000 0 0 1
11.026379 -16.210117 18.030338 26.635353 -0.973472 0.827209 0.147149 -0.032446 -492845.000000 0 0 1
10.094379 -15.095017 18.445138 25.883955 -0.981372 0.777586 0.128914 -0.027209 -350060.000000 0 0 1
8.767379 -15.425017 18.128738 25.366301 -1.053946 0.774633 0.103372 -0.021583 -880841.000000 0 0 1
7.873579 -14.426817 18.504938 24.749930 -1.071214 0.726240 0.081363 -0.015540 130475.000000 0 1 0
6.396979 -14.813917 18.211838 24.331965 -1.163161 0.725039 0.038567 -0.008392 -16626.500000 0 1 0
6.081979 -14.909317 16.808638 23.276781 -1.183471 0.763934 0.026136 -0.016522 404964.000000 0 1 0
4.678279 -15.063417 16.597338 22.896822 -1.269669 0.759943 0.012583 -0.013664 395492.000000 0 1 0
4.088179 -16.471717 16.841138 23.909300 -1.327518 0.789253 0.001195 0.000606 508624.000000 0 1 0
2.718079 -16.498717 16.387838 23.412750 -1.407518 0.795464 0.022894 -0.003912 615666.000000 0 1 0
2.080279 -17.738117 16.573138 24.364672 -1.454052 0.822745 0.031109 -0.007748 464779.000000 0 1 0
0.573279 -17.697817 16.216238 24.010576 -1.538415 0.829318 0.040144 -0.001120 234483.000000 0 1 0
0.282679 -17.515017 14.847338 22.962996 -1.554658 0.867708 0.046308 -0.003485 -190415.000000 0 1 0
-1.117721 -17.524117 14.674538 22.884188 1.507101 0.874667 0.052915 -0.001634 -200494.000000 0 1 0
-1.638321 -17.776117 13.276738 22.247387 1.478892 0.931317 0.050739 -0.015371 -140511.000000 0 1 0
-2.989921 -18.179217 13.207838 22.668713 1.407787 0.948816 0.050624 -0.017343 3572.110000 0 1 0
-3.057421 -19.417117 12.515038 23.302327 1.414619 1.003834 0.068153 -0.025437 164561.000000 0 1 0
-4.494821 -19.955917 12.323938 23.881405 1.349256 1.028566 0.060080 -0.022243 482356.000000 0 1 0
-5.085621 -20.522517 13.500038 25.085619 1.327883 1.002546 0.059570 -0.021268 -224951.000000 0 0 1
-6.429021 -20.859517 13.252638 25.535939 1.271829 1.025139 0.057087 -0.025922 227264.000000 0 0 1
-7.194321 -21.648217 14.376038 26.964310 1.249950 1.008476 0.077640 -0.023460 -191259.000000 0 0 1
-8.571321 -21.466817 14.327638 27.195091 1.190909 1.015910 0.075972 -0.018941 -632415.000000 0 0 1
-9.265421 -22.279417 15.278438 28.559606 1.176681 1.006328 0.076056 -0.019877 1573390.000000 0 0 1
-10.787821 -21.866817 15.452938 28.867422 1.112489 1.005925 0.091321 -0.019593 1239500.000000 0 0 1
-10.937421 -20.574417 16.011438 28.271893 1.082187 0.968741 0.085499 -0.018400 -129478.000000 0 0 1
-12.268721 -20.070017 15.986238 28.440937 1.022112 0.973891 0.065454 -0.013751 381129.000000 0 0 1
-12.452621 -18.890717 16.939838 28.264555 0.987986 0.928131 0.073961 -0.014888 -259717.000000 0 0 1
-12.668021 -19.339817 18.288238 29.478245 0.990898 0.901547 0.072418 -0.019636 -117165.000000 0 0 1
-13.116421 -18.273117 19.097238 29.506809 0.948225 0.866871 0.074787 -0.023871 8004.290000 0 0 1
-13.618521 -18.847017 20.453738 30.968202 0.945075 0.849345 0.068282 -0.031671 874339.000000 0 0 1
-14.926621 -19.438217 20.315538 31.833463 0.915937 0.878662 0.058620 -0.021983 792216.000000 0 0 1
-15.399521 -20.087817 21.481038 33.197901 0.916749 0.867074 0.056670 -0.010101 153384.000000 0 0 1
-16.827221 -20.667317 21.327938 34.134649 0.887460 0.895898 0.069030 -0.019100 -266893.000000 0 0 1
-16.906421 -21.783217 20.496438 34.357526 0.910786 0.931584 0.076405 -0.023951 -78787.800000 0 0 1
-18.136321 -22.052017 19.874438 34.788085 0.882525 0.962707 0.055207 -0.011203 -227830.000000 0 0 1
-19.249921 -22.780217 20.628438 36.263345 0.869196 0.965688 0.053638 -0.016786 -882858.000000 0 0 1
-19.784521 -22.003217 21.628138 36.651674 0.838443 0.939614 0.067273 -0.017979 -513918.000000 0 0 1
-20.545821 -22.816517 22.457538 38.040310 0.837716 0.939290 0.056545 -0.006894 -455158.000000 0 0 1
-21.005821 -21.917017 23.596518 38.449913 0.806624 0.910064 0.056209 -0.004953 -112794.000000 0 0 1
-21.991821 -20.958917 23.256118 38.259161 0.761354 0.917437 0.060780 0.003833 245530.000000 0 0 1
-22.219321 -19.996817 24.262568 38.499910 0.732801 0.888988 0.066653 -0.003240 -118025.000000 0 0 1
-23.198421 -18.893817 23.846098 38.259370 0.683486 0.897873 0.071132 -0.005532 -116005.000000 0 0 1
-22.772121 -18.136117 22.695538 36.913083 0.672553 0.908617 0.075310 -0.006347 -244352.000000 0 0 1
-23.609221 -17.073417 22.415638 36.760817 0.626106 0.915026 0.067562 0.005394 -417723.000000 0 0 1
-23.209821 -16.443917 21.036738 35.378560 0.616401 0.934006 0.064337 0.001174 -13565.200000 0 0 1
-21.964521 -15.806217 20.946838 34.220559 0.623776 0.912067 0.076098 -0.002795 -484113.000000 0 0 1
-21.823321 -15.474817 19.584138 33.155177 0.616804 0.938894 0.073560 0.005663 291283.000000 0 0 1
-20.619621 -14.556317 19.253538 31.745139 0.614705 0.919141 0.076993 -0.016759 207353.000000 0 0 1
-20.567321 -14.291917 17.861738 30.762237 0.607285 0.951284 0.068343 -0.015733 358258.000000 0 0 1
-19.461221 -13.432117 17.556338 29.451416 0.604118 0.932147 0.082737 -0.025575 276927.000000 0 0 1
-19.187021 -13.333117 16.027538 28.333650 0.607297 0.969549 0.076669 -0.034167 236329.000000 0 0 1
-18.555321 -12.195417 15.469938 27.061912 0.581452 0.962281 0.076109 -0.027596 -61613.100000 0 0 1
-17.169321 -11.976517 15.585738 26.098616 0.609082 0.930808 0.093090 -0.039637 -165102.000000 0 0 1
-16.797121 -10.741417 14.712538 24.778621 0.568944 0.935073 0.092057 -0.038290 41579.500000 0 1 0
-17.353421 -9.534817 15.242038 24.987470 0.502420 0.914752 0.098785 -0.026411 44797.000000 0 1 0
-16.990421 -8.382117 14.524738 23.872626 0.458308 0.916720 0.091836 -0.018092 -661290.000000 0 1 0
-17.319521 -7.083417 15.338938 24.195529 0.388228 0.884137 0.103293 -0.005652 618741.000000 0 1 0
-16.456221 -6.840317 16.453038 24.254888 0.393940 0.825297 0.111846 -0.002407 -548306.000000 0 1 0
-15.127621 -6.583917 16.187138 23.113120 0.410499 0.794917 0.115159 -0.008858 -554766.000000 0 1 0
-14.169321 -6.325917 17.452338 23.353179 0.419899 0.726774 0.101469 -0.012877 833695.000000 0 1 0
-13.953421 -7.334117 18.426538 24.249217 0.483928 0.707665 0.092821 -0.023956 56352.200000 0 1 0
-13.404721 -8.569117 17.963538 23.995937 0.568789 0.724837 0.090845 -0.022879 -665561.000000 0 1 0
-13.337121 -9.591717 19.156638 25.236018 0.623479 0.708868 0.094133 -0.031691 1115490.000000 0 0 1
-14.626921 -10.184017 19.443038 26.375988 0.608206 0.741955 0.110992 -0.035991 647989.000000 0 0 1
-15.570821 -9.333017 19.993838 27.005726 0.539972 0.737197 0.102746 -0.030634 -1944300.000000 0 0 1
-16.956121 -9.903917 20.192338 28.166081 0.528640 0.771447 0.094404 -0.021934 -270562.000000 0 0 1
-17.794221 -10.318717 19.126638 28.088049 0.525503 0.821733 0.098848 -0.013469 130402.000000 0 0 1
-18.312621 -9.280617 18.346938 27.533471 0.469063 0.841493 0.087916 -0.006558 -910704.000000 0 0 1
-19.495921 -9.612117 17.461138 27.881446 0.458058 0.894045 0.102245 0.009056 636527.000000 0 0 1
-20.803421 -9.564217 18.097338 29.185102 0.430926 0.901941 0.093518 0.005488 1082600.000000 0 0 1
-21.814321 -9.438917 17.111838 29.287757 0.408369 0.946821 0.107182 -0.001933 970762.000000 0 0 1
-23.274521 -9.591017 17.680438 30.761807 0.390879 0.958494 0.105365 -0.005511 798232.000000 0 0 1
-23.777821 -8.547117 18.468738 31.297480 0.345075 0.939610 0.096596 0.006006 208434.000000 0 0 1
-25.167181 -8.593617 18.677738 32.497617 0.329048 0.958508 0.099766 0.013055 -23708.500000 0 0 1
-25.971391 -7.507817 19.392338 33.270756 0.281409 0.948547 0.108857 0.007166 -3015.880000 0 0 1
-25.821661 -7.533817 20.802138 34.003610 0.283883 0.912509 0.106752 -0.000993 127099.000000 0 0 1
-26.537021 -6.475617 21.403238 34.702243 0.239344 0.906166 0.102917 -0.005293 -649411.000000 0 0 1
-26.578731 -6.454317 22.920178 35.685034 0.238226 0.873313 0.096495 -0.002979 503123.000000 0 0 1
-25.385391 -6.059517 23.582898 35.175117 0.234316 0.835991 0.077559 -0.009531 1049610.000000 0 0 1
-24.227221 -6.913217 23.470798 34.432966 0.277962 0.820798 0.083511 -0.006272 -41777.700000 0 0 1
-23.230621 -6.712617 24.610548 34.502174 0.281294 0.776595 0.086802 -0.010028 -545539.000000 0 0 1
-22.475921 -5.557117 24.446258 33.669988 0.242386 0.758229 0.083811 -0.016138 77089.700000 0 0 1
-21.894921 -5.162117 25.698948 34.153637 0.231539 0.719020 0.084491 -0.028506 705926.000000 0 0 1
-20.963921 -3.872817 25.631878 33.338834 0.182678 0.693788 0.082632 -0.029816 206797.000000 0 0 1
-20.244121 -3.499317 26.800498 33.768866 0.171165 0.654019 0.088822 -0.033021 -15501.500000 0 0 1
-20.877621 -3.198017 28.085458 35.141077 0.151998 0.644800 0.086894 -0.034691 46701.500000 0 0 1
-21.771021 -1.945117 28.217688 35.693119 0.089108 0.659067 0.091289 -0.040261 1584530.000000 0 0 1
-23.076021 -1.972417 27.555168 35.995561 0.085268 0.698954 0.097602 -0.044893 1134870.000000 0 0 1
-23.893721 -1.007317 28.230698 36.998606 0.042133 0.702823 0.085963 -0.040102 -2035.590000 0 0 1
-25.274101 -0.864817 27.585788 37.423305 0.034204 0.741985 0.076700 -0.035696 -752550.000000 0 0 1
-25.204591 -0.305017 26.303408 36.431218 0.012101 0.764105 0.082989 -0.036920 190788.000000 0 0 1
-26.439251 -0.026917 25.653958 36.839656 0.001018 0.800472 0.089021 -0.034060 -241367.000000 0 0 1
-27.199541 -1.189717 25.052118 36.997825 0.043712 0.826949 0.082969 -0.029115 -575048.000000 0 0 1
-27.947031 -1.867017 26.039728 38.243819 0.066706 0.821823 0.081436 -0.026578 39216.100000 0 0 1
-28.384251 -3.165017 25.676768 38.405461 0.111047 0.838511 0.081219 -0.021586 99525.400000 0 0 1
-27.289651 -4.263617 25.778668 37.781519 0.154983 0.819880 0.087741 -0.028741 118601.000000 0 0 1
-26.986941 -4.488817 27.128058 38.527600 0.164824 0.789613 0.078069 -0.033873 -582841.000000 0 0 1
-25.972801 -5.435517 27.241258 38.029164 0.206300 0.772275 0.084174 -0.035574 -414019.000000 0 0 1
-25.717991 -5.690117 28.757628 38.997354 0.217743 0.741546 0.065823 -0.032011 379431.000000 0 0 1
-26.774301 -6.409017 29.434828 40.303198 0.234951 0.751984 0.089559 -0.034796 680528.000000 0 0 1
-26.375211 -6.943017 30.708938 41.071840 0.257401 0.726222 0.093292 -0.026178 -386978.000000 0 0 1
-27.576231 -7.383717 31.524388 42.529458 0.261620 0.735886 0.086632 -0.030074 -441567.000000 0 0 1
-28.280501 -8.498117 31.064388 42.860248 0.291910 0.760077 0.085121 -0.028761 -436701.000000 0 0 1
-29.591381 -8.529417 31.533708 44.076927 0.280633 0.773565 0.095076 -0.027772 -681605.000000 0 0 1
-30.637691 -8.956317 30.521698 44.163987 0.284405 0.807787 0.086277 -0.029179 -560756.000000 0 0 1
-30.569121 -10.350117 30.193998 44.195855 0.326466 0.818679 0.100352 -0.023729 445112.000000 0 0 1
-31.476221 -10.689917 29.139788 44.205814 0.327397 0.851063 0.079043 -0.029700 244470.000000 0 0 1
-31.033631 -12.051917 28.528248 43.842854 0.370423 0.862299 0.097423 -0.023103 -37658.300000 0 0 1
-29.901881 -11.921517 27.717878 42.479710 0.379375 0.859922 0.095511 -0.017874 -416652.000000 0 0 1
-29.144741 -13.099717 27.633368 42.244781 0.422414 0.857771 0.085185 -0.022100 -135573.000000 0 0 1
-27.736951 -12.865417 27.025668 40.807403 0.434301 0.846947 0.095685 -0.024727 672531.000000 0 0 1
-26.706331 -12.318417 27.884358 40.527878 0.432174 0.812027 0.088324 -0.026572 674610.000000 0 0 1
-26.912501 -10.999017 28.491258 40.706422 0.387980 0.795510 0.100736 -0.029073 -921880.000000 0 0 1
-26.771961 -9.701117 27.640978 39.684672 0.347644 0.800267 0.086801 -0.023972 424879.000000 0 0 1
-25.486411 -9.290417 27.162288 38.388264 0.349555 0.784746 0.085211 -0.026605 535964.000000 0 0 1
-24.941621 -10.093117 26.130058 37.506471 0.384525 0.800035 0.083997 -0.018778 123318.000000 0 0 1
-25.682511 -9.851317 24.742568 36.997763 0.366272 0.838259 0.093256 -0.009964 -682493.000000 0 0 1
-26.872131 -10.523917 24.575818 37.905607 0.373270 0.865391 0.092439 -0.013810 -963483.000000 0 0 1
-27.442831 -10.257817 23.315238 37.442383 0.357708 0.898612 0.092786 -0.010017 311658.000000 0 0 1
-28.746221 -11.073417 22.964028 38.422810 0.367694 0.930209 0.100298 -0.013623 1665500.000000 0 0 1
-29.995201 -10.542017 23.457998 39.511060 0.337972 0.935138 0.102879 -0.011925 632235.000000 0 0 1
-30.251091 -10.588917 24.844128 40.552242 0.336705 0.911393 0.106261 -0.016558 59855.500000 0 0 1
-31.790011 -10.595517 25.125848 41.882908 0.321718 0.927412 0.079098 -0.018899 -19281.000000 0 0 1
-32.350131 -9.331017 24.874148 41.860746 0.280816 0.934511 0.096202 -0.022884 -59982.300000 0 0 1
-33.760491 -9.194717 24.917608 42.955800 0.265902 0.951975 0.081487 -0.021068 486308.000000 0 0 1
-34.377666 -9.187417 26.339158 44.271704 0.261147 0.933601 0.070774 -0.017231 -557088.000000 0 0 1
-34.466103 -10.417317 27.015338 45.014011 0.293518 0.927103 0.068180 -0.031408 537704.000000 0 0 1
-35.149390 -10.107017 28.298698 46.243353 0.279991 0.912270 0.077829 -0.033361 -65680.500000 0 0 1
-35.754368 -11.357917 29.035448 47.438743 0.307584 0.912131 0.074695 -0.016323 290907.000000 0 0 1
-36.943201 -11.861117 28.456558 48.117168 0.310667 0.938001 0.061183 -0.019504 -100823.000000 0 0 1
36.539893 -11.262217 28.921308 47.942084 -0.298978 0.923220 0.066972 -0.017336 -749226.000000 0 0 1
35.336343 -11.962117 28.306088 46.829307 -0.326413 0.921718 0.063074 -0.018923 -455797.000000 0 0 1
35.155103 -11.708317 26.939268 45.811463 -0.321493 0.942155 0.065057 -0.018620 -408039.000000 0 0 1
34.120583 -12.386417 26.278758 44.813063 -0.348226 0.944179 0.069960 -0.009475 -300305.000000 0 0 1
33.957893 -11.989517 24.781008 43.714819 -0.339407 0.968084 0.072449 -0.014707 143701.000000 0 0 1
33.380673 -10.683217 24.595028 42.817238 -0.309741 0.958902 0.079461 -0.026749 166915.000000 0 0 1
33.576383 -10.194917 23.278808 42.109533 -0.294787 0.985057 0.072706 -0.030057 -610343.000000 0 0 1
33.103993 -8.798017 23.082038 41.304478 -0.259764 0.977826 0.079022 -0.012240 898341.000000 0 0 1
31.703003 -8.534717 23.333568 40.278744 -0.262974 0.952924 0.097792 -0.020244 693611.000000 0 0 1
31.333423 -7.267217 22.812838 39.433760 -0.227902 0.953895 0.089472 -0.004887 1128870.000000 0 0 1
29.770113 -7.058517 22.769438 38.138296 -0.232802 0.931011 0.083350 0.008822 1029120.000000 0 0 1
29.115913 -7.762317 21.733638 37.152940 -0.260541 0.945944 0.081796 0.016043 -90492.200000 0 0 1
27.881213 -7.197617 21.369838 35.858579 -0.252637 0.932351 0.094003 -0.013687 -233503.000000 0 0 1
15.498079 -16.938217 25.922348 34.627472 -0.829768 0.724839 0.103207 -0.021172 -473918.000000 0 0 1
14.875379 -18.139317 25.760328 34.841157 -0.883941 0.738670 0.108439 -0.021039 378291.000000 0 0 1
15.741179 -19.260417 26.071838 36.034555 -0.885606 0.761904 0.085556 -0.016633 -602309.000000 0 0 1
14.984079 -20.588317 26.065918 36.439450 -0.941658 0.773712 0.070393 -0.022867 374522.000000 0 0 1
14.085579 -20.855917 27.154868 37.023772 -0.976789 0.747421 0.064709 -0.018872 479049.000000 0 0 1
12.891379 -20.096917 27.116868 36.130296 -1.000448 0.721933 0.080837 -0.026974 -694435.000000 0 0 1
12.039679 -20.396117 28.404728 36.983564 -1.037545 0.695027 0.071879 -0.025531 -28415.200000 0 0 1
12.561479 -19.977517 29.647308 37.892675 -1.009483 0.672283 0.076075 -0.022702 -252440.000000 0 0 1
11.776879 -19.031417 30.327548 37.691509 -1.016659 0.635752 0.074604 -0.022551 25713.700000 0 0 1
11.574279 -17.629317 29.752878 36.469035 -0.989840 0.616617 0.085938 -0.022730 88326.400000 0 0 1
12.726379 -16.835117 29.891968 36.591142 -0.923503 0.614749 0.080455 -0.010841 -307208.000000 0 0 1
12.426979 -15.438417 29.672008 35.681964 -0.893051 0.588870 0.090252 -0.016011 -339469.000000 0 0 1
13.615079 -14.490717 29.734628 35.770090 -0.816543 0.589407 0.088400 -0.007054 -30964.900000 0 0 1
13.214179 -13.223117 29.228298 34.695227 -0.785736 0.569019 0.124690 -0.013271 678345.000000 0 0 1
14.308379 -12.347317 29.517828 35.049795 -0.711960 0.569504 0.116477 -0.008160 337214.000000 0 0 1
14.080279 -10.852817 29.331138 34.298011 -0.656669 0.544889 0.109819 -0.008817 -171771.000000 0 0 1
14.188879 -10.187017 28.057498 33.050307 -0.622677 0.556833 0.144767 -0.019494 1312860.000000 0 0 1
15.537779 -10.038117 27.522828 33.161611 -0.573590 0.591759 0.122226 -0.026478 1115690.000000 0 0 1
15.569279 -8.836417 26.617428 32.077596 -0.516221 0.592079 0.114553 -0.018490 85916.600000 0 0 1
15.922179 -7.512317 27.110338 32.325240 -0.440846 0.575952 0.121792 -0.027234 -760600.000000 0 0 1
17.144979 -7.347017 27.715568 33.407809 -0.404851 0.592381 0.116515 -0.032229 -1480960.000000 0 0 1
17.646379 -5.883117 27.659458 33.332437 -0.321801 0.592036 0.105086 -0.031994 -726933.000000 0 0 1
19.030979 -5.965917 27.801138 34.215108 -0.303782 0.622300 0.087080 -0.045647 -572396.000000 0 0 1
19.566479 -4.646317 27.515658 34.081473 -0.233145 0.631150 0.080575 -0.042520 288204.000000 0 0 1
21.099279 -4.515817 27.325598 34.817531 -0.210846 0.668386 0.084143 -0.042951 -574542.000000 0 0 1
21.446079 -5.235817 26.108628 34.190767 -0.239455 0.701901 0.092513 -0.039914 83437.400000 0 0 1
22.768179 -5.195417 25.620348 34.666765 -0.224346 0.739143 0.083305 -0.033472 470474.000000 0 0 1
23.918479 -5.654117 26.590838 36.209603 -0.232130 0.746075 0.071354 -0.032900 -474806.000000 0 0 1
24.300579 -4.602417 27.442738 36.943257 -0.187178 0.733501 0.081233 -0.034521 -351464.000000 0 0 1
25.253979 -5.011817 28.376148 38.315631 -0.195911 0.736849 0.086192 -0.044069 -417407.000000 0 0 1
25.931479 -3.803317 29.088068 39.153832 -0.145630 0.733378 0.088438 -0.040411 -41267.600000 0 0 1
26.742179 -3.085017 28.172728 38.966191 -0.114854 0.762655 0.072359 -0.028777 92205.100000 0 0 1
27.028779 -1.733717 28.531028 39.339296 -0.064056 0.759391 0.058310 -0.035805 -269376.000000 0 0 1
27.977579 -0.992217 27.590608 39.306120 -0.035450 0.792676 0.055542 -0.028449 134242.000000 0 0 1
29.332379 -1.390117 27.694828 40.364891 -0.047356 0.814665 0.073239 -0.030069 -685413.000000 0 0 1
30.112879 -0.805417 26.715258 40.263373 -0.026740 0.845292 0.060121 -0.011855 -918427.000000 0 0 1
31.525179 -0.810017 27.281218 41.698416 -0.025689 0.857605 0.054622 -0.009791 -838484.000000 0 0 1
31.758479 0.193983 28.266058 42.515981 0.006108 0.843525 0.039714 -0.011063 110017.000000 0 0 1
33.017479 0.000883 28.889788 43.872244 0.000027 0.851975 0.047732 -0.009883 241169.000000 0 0 1
33.442779 1.093883 29.877328 44.858341 0.032697 0.841913 0.062049 -0.012008 -35768.200000 0 0 1
33.546979 2.424483 29.365228 44.649687 0.072146 0.853061 0.045381 -0.007908 -53039.500000 0 0 1
33.944079 3.304883 30.404978 45.690102 0.097057 0.842685 0.040402 -0.003821 -36550.300000 0 0 1
34.402879 4.687383 29.800788 45.756055 0.135416 0.861504 0.050136 -0.002869 159202.000000 0 0 1
34.385079 5.820283 30.674598 46.445025 0.167678 0.849379 0.058491 -0.008466 1253340.000000 0 0 1
33.030679 6.257283 30.983588 45.718290 0.187220 0.826157 0.055390 -0.011792 1268040.000000 0 0 1
32.928479 7.270883 32.118320 46.569700 0.217321 0.809745 0.068155 -0.013673 48578.100000 0 0 1
33.453379 6.663883 33.280192 47.656134 0.196625 0.797720 0.067754 -0.010212 103335.000000 0 0 1
33.652379 7.603783 -33.551767 48.125058 0.222219 2.342251 0.080133 -0.022144 -264286.000000 0 0 1
33.841079 6.864983 -32.198597 47.213306 0.200144 2.321265 0.102951 -0.031880 -111104.000000 0 0 1
32.748679 6.161183 -31.637777 45.949811 0.185962 2.330255 0.088488 -0.027168 -184380.000000 0 0 1
32.595279 4.852183 -32.120957 46.019037 0.147776 2.343387 0.106612 -0.025426 120457.000000 0 0 1
33.244479 3.771783 -31.185327 45.737800 0.112973 2.321055 0.105824 -0.037236 76289.500000 0 0 1
33.188079 2.477083 -31.773507 46.012393 0.074500 2.333035 0.108399 -0.035411 132944.000000 0 0 1
33.476679 1.538383 -30.763227 45.490997 0.045922 2.313455 0.086282 -0.029221 20706.700000 0 0 1
33.574079 0.079683 -31.179797 45.819263 0.002373 2.319235 0.079462 -0.039716 -292034.000000 0 0 1
34.652679 -0.108917 -32.089967 47.229080 -0.003143 2.317814 0.081692 -0.035692 34064.600000 0 0 1
35.061179 -1.474517 -32.172317 47.607966 -0.042031 2.312813 0.075180 -0.036641 200123.000000 0 0 1
36.057879 -1.957717 -31.100757 47.657742 -0.054240 2.281788 0.087090 -0.040232 -183304.000000 0 0 1
35.549279 -1.860217 -29.775377 46.408886 -0.052280 2.267363 0.088349 -0.040143 37054.200000 0 0 1
36.462579 -1.073717 -29.001157 46.601928 -0.029439 2.242495 0.092853 -0.043086 5310.100000 0 0 1
35.938479 -0.600417 -27.637787 45.340733 -0.016705 2.226299 0.093739 -0.046099 -666284.000000 0 0 1
35.077379 0.491683 -27.687607 44.690803 0.014016 2.238949 0.104347 -0.039056 -84032.900000 0 0 1
34.172779 0.423083 -26.613317 43.315430 0.012380 2.232431 0.105193 -0.032477 268192.000000 0 0 1
33.312079 1.720983 -26.431797 42.559327 0.051617 2.240888 0.100744 -0.031691 498350.000000 0 0 1
32.285779 1.978383 -27.370807 42.372711 0.061201 2.273068 0.115839 -0.046275 437648.000000 0 0 1
31.633979 3.202483 -27.150487 41.810447 0.100892 2.277553 0.097933 -0.033962 -230023.000000 0 0 1
30.770379 3.688283 -28.289037 41.960568 0.119296 2.310652 0.105838 -0.037664 -9602.390000 0 0 1
29.684879 4.515983 -27.875707 40.971224 0.150973 2.319068 0.091785 -0.035126 225694.000000 0 0 1
28.924679 4.996283 -28.939537 41.220101 0.171046 2.349101 0.066978 -0.038997 -90077.400000 0 0 1
27.797179 5.849783 -28.264027 40.071915 0.207419 2.353689 0.062978 -0.027655 142752.000000 0 0 1
26.631979 5.085983 -27.963827 38.950034 0.188701 2.371636 0.074880 -0.031302 896494.000000 0 0 1
25.642479 5.914483 -27.307817 37.924065 0.226687 2.374693 0.076482 -0.031897 75425.100000 0 0 1
24.342079 5.159383 -27.032577 36.741207 0.208862 2.397579 0.098795 -0.021984 -690557.000000 0 0 1
23.601679 4.942183 -28.194297 37.099634 0.206417 2.434050 0.106413 -0.022910 -421996.000000 0 0 1
22.425679 4.235483 -27.927177 36.066295 0.186669 2.456450 0.093419 -0.016106 -619302.000000 0 0 1
21.436779 4.061683 -29.088157 36.361431 0.187253 2.498046 0.086840 -0.016608 -183994.000000 0 0 1
21.883379 3.130783 -30.076557 37.326711 0.142102 2.507762 0.083732 -0.023942 1077390.000000 0 0 1
20.838379 2.878583 -31.055607 37.509666 0.137270 2.546214 0.062602 -0.029663 929625.000000 0 0 1
21.177279 3.792683 -32.299927 38.809108 0.177213 2.553999 0.066723 -0.025759 289952.000000 0 0 1
22.421779 3.404683 -32.860747 39.926892 0.150696 2.537509 0.087152 -0.029735 67836.100000 0 0 1
22.646279 3.890983 33.698111 40.786718 0.170154 0.598462 0.088317 -0.035143 -76365.300000 0 0 1
24.030779 3.557283 33.098787 41.056818 0.146963 0.633146 0.099142 -0.029506 171621.000000 0 0 1
24.215479 2.145383 32.983758 40.974631 0.088365 0.635155 0.112795 -0.037096 185867.000000 0 0 1
25.469979 1.914883 32.348523 41.216666 0.075041 0.668357 0.102483 -0.033008 -4078.350000 0 0 1
25.793779 0.451883 31.981057 41.089065 0.017517 0.678787 0.082489 -0.037130 -315308.000000 0 0 1
25.176679 -0.126317 30.842548 39.813866 -0.005017 0.684606 0.081488 -0.037801 731590.000000 0 0 1
23.765079 -0.353717 30.884318 38.971081 -0.014883 0.655910 0.092784 -0.039683 373170.000000 0 0 1
23.220279 -1.546417 31.732688 39.351445 -0.066500 0.632771 0.090703 -0.045685 -592475.000000 0 0 1
23.451379 -2.858217 31.247538 39.173272 -0.121280 0.647366 0.074770 -0.046877 145184.000000 0 0 1
23.078879 -3.805417 32.242861 39.833628 -0.163417 0.627602 0.078925 -0.045654 -44464.900000 0 0 1
23.242379 -5.339517 31.911071 39.837609 -0.225814 0.641785 0.074310 -0.044597 492836.000000 0 0 1
24.615779 -5.762917 31.901552 40.704506 -0.229973 0.670139 0.058062 -0.040272 574899.000000 0 0 1
24.710279 -7.191817 31.759418 40.877631 -0.283222 0.681008 0.072625 -0.041719 1090350.000000 0 0 1
26.208579 -7.630717 31.475328 41.663098 -0.283321 0.714421 0.046272 -0.031122 1117670.000000 0 0 1
26.550379 -7.332117 30.126788 40.820411 -0.269443 0.740647 0.076931 -0.030262 -503511.000000 0 0 1
27.778279 -7.932817 29.823678 41.521249 -0.278172 0.769476 0.053436 -0.011031 -239239.000000 0 0 1
27.964679 -7.606717 28.312868 40.515478 -0.265586 0.797055 0.059658 -0.020446 -16094.200000 0 0 1
26.932879 -8.121017 27.498278 39.338101 -0.292858 0.796765 0.056006 -0.021577 -50096.100000 0 0 1
27.326979 -8.019517 26.115128 38.640346 -0.285451 0.828677 0.075023 -0.023233 717967.000000 0 0 1
26.425279 -8.848517 25.110318 37.511594 -0.323115 0.837393 0.053660 -0.015130 1412710.000000 0 0 1
25.106179 -8.348417 24.807008 36.268498 -0.321022 0.817589 0.059491 -0.012851 462868.000000 0 0 1
24.474379 -9.172217 23.858988 35.388926 -0.358567 0.830924 0.078575 -0.016526 626541.000000 0 0 1
23.003079 -8.679217 23.675028 34.131765 -0.360792 0.804271 0.066463 -0.024736 254708.000000 0 0 1
22.093979 -8.972217 24.680538 34.318706 -0.385748 0.768208 0.052889 -0.017254 -419393.000000 0 0 1
20.844679 -8.365317 24.427158 33.183810 -0.381641 0.743481 0.074116 -0.013157 269410.000000 0 0 1
19.945479 -8.281217 25.702838 33.571365 -0.393535 0.698795 0.067759 -0.020126 -196507.000000 0 0 1
19.334779 -9.534817 26.022368 33.792160 -0.458147 0.691844 0.085577 -0.016825 -169782.000000 0 0 1
20.105279 -10.445317 26.791078 35.086874 -0.479150 0.701982 0.071071 -0.018955 -400323.000000 0 0 1
19.390479 -11.522717 27.624448 35.663340 -0.536178 0.684731 0.071267 -0.016745 118039.000000 0 0 1
18.580079 -12.398817 26.829548 34.910953 -0.588453 0.694281 0.090096 -0.017541 763989.000000 0 0 1
17.789679 -13.387717 27.579168 35.444522 -0.645134 0.679171 0.084006 -0.016346 484893.000000 0 0 1
18.504279 -14.603317 28.265608 36.805024 -0.668112 0.695111 0.093433 -0.007040 33741.100000 0 0 1
17.582479 -15.652217 28.634198 37.068218 -0.727384 0.688070 0.087151 -0.002918 624912.000000 0 0 1
18.184779 -16.892117 29.061968 38.218161 -0.748563 0.706832 0.084999 0.005484 40326.600000 0 0 1
18.757579 -17.798117 27.917178 38.052445 -0.759158 0.747118 0.083637 -0.009055 982597.000000 0 0 1
20.051879 -17.416917 27.392498 38.154630 -0.715190 0.769967 0.088571 -0.008517 1124460.000000 0 0 1
20.365979 -18.252717 26.256388 37.912171 -0.730731 0.805767 0.081006 -0.001937 -620431.000000 0 0 1
21.537179 -17.674317 25.497728 37.767257 -0.687202 0.829658 0.074938 -0.013083 -607232.000000 0 0 1
22.765479 -17.856717 26.160098 39.006155 -0.665142 0.835690 0.064385 -0.005639 -207094.000000 0 0 1
23.775379 -17.047917 25.588118 38.867106 -0.622071 0.852173 0.048575 -0.007429 -690964.000000 0 0 1
25.021979 -17.018217 26.465608 40.201338 -0.597266 0.852203 0.065497 -0.009836 9361.500000 0 0 1
25.626079 -18.318517 26.772218 41.340243 -0.620616 0.866357 0.075201 -0.005657 168566.000000 0 0 1
26.637179 -18.683017 25.857138 41.559428 -0.611657 0.899282 0.053328 -0.007426 -404388.000000 0 0 1
27.254979 -20.037317 26.288218 42.841550 -0.633949 0.910166 0.037679 -0.008967 -302175.000000 0 0 1
27.941579 -19.844617 27.475168 43.925227 -0.617551 0.895026 0.043612 0.000111 -248388.000000 0 0 1
28.631179 -21.020217 27.898998 45.165784 -0.633294 0.904979 0.044116 -0.004179 254266.000000 0 0 1
27.791479 -22.130217 28.644978 45.636034 -0.672478 0.892223 0.059881 -0.003243 204309.000000 0 0 1
27.565579 -21.902617 30.036048 46.279045 -0.671418 0.864500 0.070151 -0.000096 -5382.100000 0 0 1
26.711279 -22.865317 30.612588 46.620229 -0.707977 0.854445 0.088292 -0.004472 -235750.000000 0 0 1
26.294679 -22.741117 32.099464 47.317483 -0.713056 0.825234 0.076565 -0.003526 165026.000000 0 0 1
25.694379 -23.976317 32.504043 47.870426 -0.750823 0.824396 0.080926 -0.012277 109581.000000 0 0 1
25.764779 -23.970117 33.887998 48.854752 -0.749329 0.804255 0.081389 -0.009605 -334143.000000 0 0 1
25.613379 -25.369327 -33.364247 49.120474 -0.780611 2.317513 0.078496 -0.020637 664647.000000 0 0 1
24.359979 -26.077177 -33.288757 48.801323 -0.819431 2.321465 0.099026 -0.030513 396406.000000 0 0 1
23.808479 -26.451997 33.348574 48.771705 -0.837946 0.817881 0.097549 -0.024313 683162.000000 0 0 1
22.460779 -27.261767 33.477000 48.666211 -0.881655 0.812218 0.112793 -0.028893 887164.000000 0 0 1
22.637879 -28.627147 33.866838 49.789054 -0.901700 0.822752 0.111071 -0.038450 968993.000000 0 0 1
21.357979 -29.300157 33.829227 49.589103 -0.940912 0.820042 0.131315 -0.043300 709668.000000 0 0 1
21.520279 -30.812207 33.920948 50.627515 -0.961122 0.836574 0.105667 -0.040115 -49008.900000 0 0 1
21.965679 -31.270967 -32.686897 50.287152 -0.958441 2.278387 0.093418 -0.046098 1100540.000000 0 0 1
23.359779 -31.621957 -32.806617 51.204508 -0.934553 2.266203 0.062066 -0.023174 597933.000000 0 0 1
24.014979 -32.339117 -31.613837 51.205199 -0.932049 2.236223 0.050528 -0.022364 686999.000000 0 0 1
25.371779 -32.770177 -31.840027 52.262788 -0.911965 2.225885 0.050529 -0.007690 1173970.000000 0 0 1
26.029279 -33.295267 -30.669777 52.218133 -0.907270 2.198564 0.045919 -0.006305 156148.000000 0 0 1
26.778079 -32.388517 -29.675677 51.446355 -0.879940 2.185636 0.045161 -0.022776 -282285.000000 0 0 1
26.939179 -32.970327 -28.439727 51.201367 -0.885731 2.159699 0.045382 -0.027121 -20476.400000 0 0 1
27.516279 -31.902997 -27.674627 50.406665 -0.859091 2.151996 0.043224 -0.020642 -553582.000000 0 0 1
27.876479 -32.279367 -26.286767 50.100397 -0.858459 2.123138 0.042747 -0.026213 74530.200000 0 0 1
28.998079 -33.112997 -26.150437 51.197701 -0.851552 2.106881 0.042210 -0.007617 -376833.000000 0 0 1
30.220879 -32.423087 -26.014507 51.393703 -0.820538 2.101547 0.052043 -0.023308 -540824.000000 0 0 1
-27.739071 -30.751542 9.650713 42.523518 0.836856 1.341851 0.058388 -0.020670 -447725.000000 0 0 1
-27.617451 -31.822042 10.484713 43.419985 0.856018 1.326914 0.066338 -0.021473 -157678.000000 0 0 1
-26.264641 -31.992842 10.860613 42.793997 0.883409 1.314202 0.052186 -0.018828 92486.800000 0 0 1
-25.960311 -33.104242 11.865613 43.710655 0.905765 1.295889 0.056317 -0.019060 -131991.000000 0 0 1
-26.101201 33.328883 11.413313 43.844621 -0.906420 1.307450 0.061740 -0.008388 -928612.000000 0 0 1
-27.415171 32.888583 11.434013 44.316894 -0.875914 1.309839 0.047513 -0.022252 -724764.000000 0 0 1
-27.685391 31.360883 11.157013 43.295089 -0.847566 1.310158 0.039769 -0.013316 133265.000000 0 0 1
-27.288331 30.944183 9.846713 42.416426 -0.848096 1.336515 0.070453 -0.022959 94798.900000 0 0 1
-27.456401 29.555283 9.664313 41.482136 -0.822196 1.335660 0.087606 -0.018572 -135484.000000 0 0 1
-26.849861 29.166183 8.298613 40.502447 -0.826726 1.364443 0.063390 -0.005459 -1232740.000000 0 0 1
-25.479021 29.083383 8.403613 39.568224 -0.851362 1.356784 0.045153 0.000424 -1311470.000000 0 0 1
-25.094811 29.003383 7.050413 38.995564 -0.857522 1.388996 0.045974 0.001303 192609.000000 0 0 1
-23.677121 28.358383 6.919713 37.585720 -0.875119 1.385635 0.044587 0.002577 254620.000000 0 0 1
-23.571021 26.946283 7.139913 36.505801 -0.852113 1.373944 0.061713 -0.010631 257579.000000 0 0 1
-24.031321 26.174083 6.032413 36.041323 -0.828052 1.402630 0.052268 -0.016026 -400592.000000 0 0 1
-24.233421 24.677783 6.245313 35.146203 -0.794483 1.392152 0.073010 -0.011961 -632396.000000 0 0 1
-25.347781 24.406283 7.052613 35.887546 -0.766477 1.372989 0.079442 -0.016620 -90501.900000 0 0 1
-25.471601 23.052483 7.436713 35.150023 -0.735585 1.357615 0.100596 -0.033192 -201709.000000 0 0 1
-25.870401 22.063783 6.297913 34.579645 -0.706151 1.387646 0.102638 -0.042016 -328828.000000 0 0 1
-27.178951 22.366483 5.833713 35.678945 -0.688569 1.406553 0.091786 -0.044976 264425.000000 0 0 1
-27.611071 21.938383 4.556213 35.558725 -0.671409 1.442311 0.088884 -0.043574 -38262.600000 0 0 1
-27.321891 22.942483 3.384113 35.837068 -0.698490 1.476225 0.069869 -0.039321 45504.900000 0 0 1
-25.981491 23.400583 3.315813 35.122923 -0.733182 1.476250 0.060639 -0.035740 300530.000000 0 0 1
-25.898531 24.287983 2.252113 35.576846 -0.753318 1.507451 0.046940 -0.031385 -230762.000000 0 0 1
-24.568321 25.035483 2.210713 35.146337 -0.794816 1.507855 0.042678 -0.024533 -205890.000000 0 0 1
-24.196321 25.523183 0.933513 35.181902 -0.812079 1.544259 0.035659 -0.024826 -285681.000000 0 0 1
-22.897021 26.059683 0.945013 34.702646 -0.849910 1.543561 0.057673 -0.027066 -836646.000000 0 0 1
-22.442121 26.574383 -0.418987 34.785372 -0.869503 1.582842 0.086318 -0.024808 -172703.000000 0 0 1
-22.125921 25.573483 -1.385587 33.844929 -0.857550 1.611747 0.086697 -0.031846 473782.000000 0 0 1
-21.052421 24.685883 -1.055487 32.460919 -0.864672 1.603318 0.096683 -0.046010 -17534.000000 0 0 1
-20.690021 23.651483 -2.118287 31.495344 -0.852087 1.638104 0.113237 -0.055382 -246470.000000 0 0 1
-21.819721 22.884283 -2.400787 31.710477 -0.809207 1.646578 0.088817 -0.047001 -229612.000000 0 0 1
-21.419421 21.784483 -3.155087 30.713349 -0.793848 1.673705 0.089800 -0.045009 14108.100000 0 0 1
-22.494421 21.212583 -4.102387 31.189777 -0.756079 1.702708 0.098211 -0.035408 -45512.500000 0 0 1
-22.640921 22.065583 -5.238787 32.046000 -0.772530 1.735010 0.086398 -0.036179 -188022.000000 0 0 1
-23.973921 21.987383 -5.673587 33.020955 -0.742203 1.743471 0.083909 -0.024412 -4338.660000 0 0 1
-24.067621 22.578383 -7.130687 33.762115 -0.753483 1.783603 0.083378 -0.021680 -268005.000000 0 0 1
-23.316021 21.886383 -8.072487 32.982050 -0.753781 1.818062 0.072402 -0.024467 41685.600000 0 0 1
-22.880421 22.709983 -9.151887 33.511401 -0.781660 1.847408 0.067224 -0.024159 -174490.000000 0 0 1
-22.170221 21.914683 -10.224787 32.807290 -0.779602 1.887738 0.064908 -0.022428 -357440.000000 0 0 1
-23.063021 21.420783 -11.187087 33.405146 -0.748497 1.912286 0.054574 -0.012977 371458.000000 0 0 1
-22.397421 20.865183 -12.327087 32.999354 -0.749996 1.953635 0.041861 -0.007481 -121535.000000 0 0 1
-23.438321 20.650583 -13.397087 33.989460 -0.722252 1.975944 0.040514 -0.017842 -150126.000000 0 0 1
-24.264121 19.529783 -13.187887 33.824256 -0.677711 1.971313 0.048720 -0.009240 -11515.000000 0 0 1
-25.520541 19.674883 -13.825087 35.064683 -0.656770 1.976074 0.065378 -0.022059 422925.000000 0 0 1
-26.230141 18.298283 -13.901287 34.872528 -0.609117 1.980820 0.114154 -0.027920 805051.000000 0 0 1
-25.490011 17.450283 -14.826387 34.264774 -0.600311 2.018282 0.100690 -0.027772 784916.000000 0 0 1
-26.267661 16.262183 -14.877087 34.289594 -0.554342 2.019576 0.136784 -0.037851 428754.000000 0 0 1
-25.832031 15.295683 -15.985687 34.011673 -0.534606 2.060094 0.134507 -0.030083 276195.000000 0 0 1
-24.679221 14.499683 -15.776087 32.683170 -0.531197 2.074529 0.125063 -0.024757 267555.000000 0 0 1
-24.178321 13.914983 -16.973687 32.654616 -0.522221 2.117407 0.122352 -0.039213 590560.000000 0 0 1
-23.121821 12.744183 -16.833087 31.311110 -0.503745 2.138393 0.119181 -0.030435 -133214.000000 0 0 1
-21.885121 13.150483 -16.381187 30.335408 -0.541071 2.141236 0.104837 -0.038760 -893343.000000 0 0 1
-21.093621 12.095883 -15.927487 29.067783 -0.520660 2.150699 0.099371 -0.042533 -479223.000000 0 0 1
-19.803621 12.526283 -15.240687 27.952990 -0.563992 2.147455 0.100501 -0.040748 -328054.000000 0 0 1
-18.822621 13.094683 -16.109287 28.022685 -0.607827 2.183237 0.086906 -0.038159 271679.000000 0 0 1
-17.749921 13.505083 -15.294187 27.043651 -0.650411 2.171881 0.087113 -0.018931 -597377.000000 0 0 1
-16.875021 14.573383 -15.859387 27.361834 -0.712341 2.189055 0.055560 -0.016466 -705011.000000 0 0 1
-16.024921 14.216683 -16.900787 27.286420 -0.725676 2.238755 0.083418 -0.030051 -199343.000000 0 0 1
-15.389621 15.360783 -17.381887 27.837458 -0.784460 2.245168 0.069478 -0.022737 -368238.000000 0 0 1
-14.513521 15.140883 -18.607887 28.038225 -0.806551 2.296499 0.081883 -0.031336 -269632.000000 0 0 1
-13.488721 14.214083 -18.460087 26.921377 -0.811576 2.326366 0.078795 -0.029183 -742005.000000 0 0 1
-12.587721 14.267683 -19.514887 27.255243 -0.847873 2.368859 0.096564 -0.035046 -163483.000000 0 0 1
-11.640721 13.039783 -19.588487 26.253592 -0.842024 2.413021 0.089985 -0.040290 -226716.000000 0 0 1
-12.210721 11.791083 -19.975187 26.213344 -0.767916 2.437229 0.107525 -0.040627 -636293.000000 0 0 1
-11.426421 10.648783 -19.855487 25.262621 -0.750186 2.475049 0.095876 -0.027248 -723780.000000 0 0 1
-11.665921 9.422583 -20.830087 25.666540 -0.679419 2.517623 0.112189 -0.032713 109530.000000 0 0 1
-11.190121 9.677483 -22.154287 26.639912 -0.713037 2.552815 0.119478 -0.033987 -83118.700000 0 0 1
-11.636921 8.708683 -23.032487 27.235171 -0.642455 2.578651 0.112142 -0.015223 -73938.500000 0 0 1
-11.299021 9.163883 -24.431487 28.434876 -0.681432 2.604517 0.102163 -0.029514 -135903.000000 0 0 1
-9.904621 9.052683 -24.611287 28.031554 -0.740489 2.642433 0.103445 -0.025006 -208360.000000 0 0 1
-9.511521 8.330283 -25.812477 28.742766 -0.719288 2.686116 0.072141 -0.029469 11752.900000 0 0 1
-9.375621 9.265883 -27.067527 30.106641 -0.779511 2.688403 0.116877 -0.031639 361612.000000 0 0 1
-8.124021 9.959883 -27.223757 30.105347 -0.886571 2.700494 0.110340 -0.034492 591437.000000 0 0 1
-8.008121 11.157883 -26.459487 29.811622 -0.948283 2.662809 0.082041 -0.026687 446879.000000 0 0 1
-6.534721 11.681483 -26.542907 29.726848 -1.060758 2.674527 0.073874 -0.027739 589935.000000 0 0 1
-6.138521 11.993983 -27.860917 30.947823 -1.097753 2.691150 0.076858 -0.035834 435705.000000 0 0 1
-4.893921 12.685683 -27.859747 31.000685 -1.202606 2.687551 0.088096 -0.034025 287110.000000 0 0 1
-4.180621 12.707883 -29.236777 32.152091 -1.252970 2.712461 0.092099 -0.032102 -349458.000000 0 0 1
-2.807321 12.944983 -29.156487 32.024277 -1.357238 2.715166 0.111111 -0.045486 -191097.000000 0 0 1
-2.112121 12.793483 -30.386487 33.037446 -1.407179 2.738262 0.117715 -0.041226 737293.000000 0 0 1
-0.569921 12.597383 -30.291137 32.811154 -1.525586 2.747112 0.129326 -0.049008 90763.300000 0 0 1
-0.214621 11.385583 -29.667037 31.777518 -1.551948 2.775088 0.102532 -0.024545 1137180.000000 0 0 1
1.189379 11.029583 -29.758337 31.758856 1.463376 2.784763 0.124010 -0.032173 1499670.000000 0 0 1
1.724579 10.452483 -31.116807 32.870720 1.407277 2.813448 0.128982 -0.038133 -218080.000000 0 0 1
1.777179 11.489783 -32.049657 34.093313 1.417338 2.793594 0.131274 -0.043494 126106.000000 0 0 1
2.050979 10.931983 -33.355027 35.160668 1.385339 2.819724 0.137122 -0.035285 69230.500000 0 0 1
2.324979 11.988883 33.412954 35.574771 1.379246 0.350411 0.129312 -0.040484 351900.000000 0 0 1
3.694479 12.320783 33.239372 35.641362 1.279470 0.369227 0.127485 -0.038918 -32934.700000 0 0 1
3.940979 13.030483 32.049837 34.821212 1.277100 0.401665 0.106303 -0.031582 -697368.000000 0 0 1
5.415579 13.191483 31.761898 34.816115 1.181240 0.421990 0.101103 -0.029026 -954088.000000 0 0 1
6.045079 12.053083 31.279848 34.062423 1.105919 0.407008 0.113271 -0.030386 1117090.000000 0 0 1
7.362679 12.292483 30.696958 33.876502 1.031143 0.436722 0.102512 -0.017906 1394310.000000 0 0 1
7.942979 11.019283 30.044168 32.972223 0.946230 0.424618 0.065684 -0.007158 46485.200000 0 0 1
7.312079 10.691183 28.826618 31.602876 0.970933 0.422293 0.069821 -0.019696 163612.000000 0 0 1
8.099179 9.760883 28.086318 30.817410 0.878171 0.424176 0.078017 -0.029658 73068.800000 0 0 1
7.308479 8.743783 27.285778 29.569939 0.874575 0.395630 0.063295 -0.013897 -189569.000000 0 0 1
6.733479 7.725583 28.065048 29.877605 0.853905 0.350113 0.060726 -0.013814 -127714.000000 0 0 1
5.847879 6.918283 27.315328 28.778246 0.869049 0.320221 0.071882 -0.023383 -92088.300000 0 0 1
5.188979 5.728883 28.020898 29.067444 0.834809 0.269155 0.088794 -0.037162 207439.000000 0 0 1
6.124179 4.775483 28.523428 29.561744 0.662286 0.265824 0.062700 -0.036107 83715.400000 0 0 1
5.569479 4.021983 29.561188 30.348958 0.625436 0.228343 0.074429 -0.039288 -356302.000000 0 0 1
6.488979 2.930883 30.085678 30.916742 0.424242 0.232388 0.099825 -0.027616 -85627.600000 0 0 1
6.379879 1.656883 29.476038 30.204055 0.254091 0.220003 0.099369 -0.023196 -13494.800000 0 0 1
7.365879 1.480483 28.465478 29.440303 0.198349 0.258055 0.101487 -0.023151 -102278.000000 0 0 1
7.481179 0.010383 27.963218 28.946670 0.001388 0.261414 0.104575 -0.022384 -79202.800000 0 0 1
7.928079 -0.907017 28.916338 29.997195 -0.113910 0.269260 0.084804 -0.028180 -68904.800000 0 0 1
8.174779 -2.249317 28.442058 29.678900 -0.268509 0.289713 0.103896 -0.030441 -545020.000000 0 0 1
8.809979 -3.153817 29.530598 30.977710 -0.343768 0.306865 0.081907 -0.018841 92354.400000 0 0 1
10.194779 -2.995017 29.724628 31.566709 -0.285740 0.343313 0.075760 -0.019300 -222256.000000 0 0 1
10.993279 -3.693217 28.785768 31.034053 -0.324106 0.382983 0.098207 -0.019878 584997.000000 0 0 1
12.540079 -3.475517 29.048928 31.830379 -0.270367 0.421157 0.088208 -0.017868 1416650.000000 0 0 1
13.490879 -4.369717 28.508728 31.840945 -0.313238 0.461584 0.106040 -0.026915 119099.000000 0 0 1
13.744279 -5.485217 29.323738 32.846224 -0.379722 0.467366 0.118169 -0.025117 -338372.000000 0 0 1
13.030179 -6.819317 28.969738 32.488988 -0.482151 0.469756 0.125471 -0.024809 -3275.160000 0 0 1
11.627079 -6.693317 28.848878 31.815833 -0.522335 0.435294 0.124869 -0.021275 -306717.000000 0 0 1
11.047079 -7.953817 28.676788 31.743650 -0.624018 0.443194 0.138709 -0.021410 -55839.100000 0 0 1
9.547379 -7.869717 28.336438 30.919874 -0.689372 0.411686 0.139464 -0.025085 -466336.000000 0 0 1
8.795779 -7.491717 29.417988 31.605531 -0.705503 0.374239 0.151941 -0.027172 -371172.000000 0 0 1
7.441779 -7.338717 28.978828 30.805995 -0.778425 0.346144 0.150607 -0.028755 562878.000000 0 0 1
6.621979 -6.806117 30.203988 31.661565 -0.799110 0.304611 0.124631 -0.031146 -121078.000000 0 0 1
6.551379 -7.679817 31.290378 32.878380 -0.864526 0.312068 0.124579 -0.034874 567817.000000 0 0 1
5.730079 -7.317917 32.437862 33.743156 -0.906495 0.279053 0.123026 -0.029917 564229.000000 0 0 1
6.288079 -6.139117 33.315244 34.454813 -0.773412 0.257908 0.118291 -0.022553 -24667.500000 0 0 1
6.561879 -4.903817 32.684104 33.695049 -0.641783 0.245577 0.127430 -0.024795 -85855.300000 0 0 1
6.883179 -3.885417 33.633829 34.550095 -0.513892 0.230816 0.101024 -0.009539 25911.500000 0 0 1
6.953179 -2.573717 32.907237 33.732136 -0.354512 0.221606 0.094504 -0.022389 545773.000000 0 0 1
5.683579 -2.130017 32.440283 33.003212 -0.358566 0.184962 0.104856 -0.033206 313672.000000 0 0 1
5.955579 -0.934117 31.762308 32.329332 -0.155580 0.187566 0.093707 -0.019961 927727.000000 0 0 1
4.623079 -0.439317 31.074958 31.420039 -0.094743 0.148344 0.121933 -0.039611 1048430.000000 0 0 1
3.651879 0.100283 31.957372 32.165508 0.027454 0.113822 0.116401 -0.035117 -1216140.000000 0 0 1
2.647679 0.705983 31.271788 31.391612 0.260579 0.087402 0.123747 -0.040202 -527107.000000 0 0 1
1.412279 0.980783 32.177716 32.223623 0.607003 0.053385 0.118395 -0.041878 109230.000000 0 0 1
1.766679 1.893383 33.213128 33.313930 0.820002 0.077812 0.104120 -0.034337 214620.000000 0 0 1
0.707979 2.104183 -33.729397 33.802382 1.246232 3.075867 0.081332 -0.038035 -175892.000000 0 0 1
1.006779 3.222083 -32.717007 32.890697 1.267946 3.038777 0.083226 -0.032527 47849.000000 0 0 1
2.033979 2.910583 -31.787577 31.985287 0.960861 3.030348 0.056953 -0.014029 -211220.000000 0 0 1
2.420379 4.018683 -31.111887 31.463591 1.028701 2.991933 0.052415 -0.020169 -367306.000000 0 0 1
3.603879 3.695883 -30.183627 30.621868 0.798001 2.972208 0.059547 -0.014914 -239314.000000 0 0 1
3.254079 2.851683 -29.120037 29.439729 0.719589 2.994087 0.062196 -0.011164 307727.000000 0 0 1
4.334779 2.767983 -28.192117 28.657416 0.568285 2.961145 0.082239 -0.016602 128256.000000 0 0 1
3.858279 2.089383 -26.870457 27.226334 0.496319 2.979731 0.059528 -0.017511 48260.800000 0 0 1
3.622679 0.699083 -26.850067 27.102373 0.190631 3.005036 0.079352 -0.017968 125871.000000 0 0 1
3.388279 0.314783 -25.535747 25.761481 0.092637 3.009114 0.081420 -0.019414 -231920.000000 0 0 1
3.745279 -1.202217 -25.300107 25.604059 -0.310606 2.987354 0.082391 -0.026972 444460.000000 0 0 1
5.144979 -1.437217 -25.178087 25.738540 -0.272400 2.932526 0.083528 -0.024814 338318.000000 0 0 1
5.334579 -2.844117 -25.142627 25.859204 -0.489813 2.905628 0.083925 -0.024054 153037.000000 0 0 1
6.730879 -3.262117 -24.622187 25.733213 -0.451292 2.846672 0.089957 -0.036238 346082.000000 0 0 1
7.838179 -3.051117 -25.463507 26.816721 -0.371217 2.822557 0.107081 -0.038352 -1066040.000000 0 0 1
9.007379 -3.332917 -24.787287 26.582904 -0.354398 2.771938 0.091754 -0.036200 -502895.000000 0 0 1
-30.594371 -3.402917 17.706138 35.512007 0.110772 1.048818 0.167752 -0.025089 1015440.000000 0 0 1
-31.989251 -3.747017 17.551938 36.680006 0.116602 1.071833 0.145143 -0.013492 730618.000000 0 0 1
-32.224131 -4.951817 18.228838 37.352451 0.152475 1.060974 0.131996 -0.022414 273010.000000 0 0 1
-33.626071 -5.170217 18.873738 38.905806 0.152561 1.064303 0.112924 -0.018498 509778.000000 0 0 1
-34.630423 -5.037917 17.878338 39.297350 0.144463 1.098480 0.104727 -0.017930 343470.000000 0 0 1
-35.949781 -5.049817 18.435938 40.715736 0.139556 1.100897 0.100715 -0.013488 363082.000000 0 0 1
-36.917801 -4.722417 17.269938 41.030184 0.127226 1.136350 0.075065 -0.012038 263307.000000 0 0 1
36.386073 -4.792617 17.663438 40.729750 -0.130962 1.122230 0.072036 -0.006463 593983.000000 0 0 1
35.459463 -4.448117 16.631138 39.417687 -0.124790 1.135234 0.054033 -0.013608 142888.000000 0 0 1
34.015143 -4.932617 16.753238 38.236523 -0.144009 1.117260 0.048280 -0.004383 -191747.000000 0 0 1
33.331523 -4.218117 17.774438 38.009388 -0.125881 1.084185 0.060375 -0.007664 -307228.000000 0 0 1
32.179793 -4.916617 18.132638 37.262646 -0.151613 1.062583 0.090580 -0.005144 -377090.000000 0 0 1
31.500593 -4.422717 19.455338 37.287504 -0.139489 1.021877 0.083469 0.006770 105444.000000 0 0 1
30.551183 -3.372717 19.320838 36.304887 -0.109950 1.009620 0.082559 0.010531 190039.000000 0 0 1
31.063953 -2.068917 19.164438 36.558519 -0.066504 1.019006 0.075437 0.004127 100173.000000 0 0 1
29.940683 -0.998817 19.291838 35.631687 -0.033348 0.998667 0.066169 0.007516 131080.000000 0 0 1
30.421243 0.326683 19.055038 35.897816 0.010738 1.011236 0.079166 0.001246 52245.600000 0 0 1
29.440913 1.306283 19.314838 35.235447 0.044341 0.990628 0.066440 0.001183 -896.587000 0 0 1
29.856673 2.699883 18.783838 35.377152 0.090183 1.011064 0.071014 -0.003125 -9990.530000 0 0 1
29.887093 2.755083 17.373038 34.679263 0.091923 1.046085 0.079641 -0.000959 -35777.600000 0 0 1
29.516413 3.988083 16.838038 34.214660 0.134301 1.056262 0.086842 -0.002662 70879.400000 0 0 1
29.294613 3.834783 15.304238 33.273106 0.130164 1.092848 0.101830 -0.010155 44942.000000 0 0 1
28.871813 5.040283 14.641238 32.762049 0.172833 1.107503 0.120275 -0.008077 296559.000000 0 0 1
28.408313 4.762283 13.357138 31.750980 0.166093 1.136597 0.126740 -0.012162 -372359.000000 0 0 1
27.665113 5.855683 12.608338 30.961552 0.208584 1.151382 0.146790 -0.015149 -285026.000000 0 0 1
26.538513 6.368683 13.281438 30.352090 0.235525 1.117892 0.121237 -0.016858 28746.200000 0 0 1
25.915713 7.439783 12.613838 29.767154 0.279558 1.133215 0.146552 -0.032672 -403238.000000 0 0 1
24.813113 8.036383 13.509838 29.373283 0.313215 1.092873 0.139729 -0.032697 2152430.000000 0 0 1
23.429613 7.505083 13.555838 28.089745 0.309997 1.067187 0.132999 -0.020058 2588520.000000 0 0 1
23.310913 6.123983 13.887338 27.816542 0.256904 1.048066 0.139382 -0.020327 -948984.000000 0 0 1
21.897513 5.552883 13.728838 26.435139 0.248350 1.024717 0.146468 -0.024495 -467212.000000 0 0 1
21.535513 5.557283 12.366238 25.447702 0.252543 1.063350 0.162251 -0.030511 1823740.000000 0 0 1
20.275413 4.819283 12.222638 24.160106 0.233361 1.040369 0.130418 -0.027525 1188090.000000 0 1 0
19.781213 4.680283 10.783938 23.010753 0.232330 1.083037 0.130108 -0.028671 -210367.000000 0 1 0
20.762313 3.999483 10.034438 23.404261 0.190301 1.127694 0.153019 -0.028654 545787.000000 0 1 0
20.529413 3.987883 8.625738 22.622187 0.191863 1.179599 0.165306 -0.033238 -221502.000000 0 1 0
21.734013 3.370383 7.904538 23.371104 0.153849 1.225773 0.165867 -0.027951 -870343.000000 0 1 0
22.009913 1.980183 8.171138 23.561089 0.089726 1.216632 0.165083 -0.029142 426558.000000 0 1 0
22.993713 1.399383 7.378038 24.188935 0.060784 1.260840 0.168354 -0.022715 205885.000000 0 1 0
24.498713 1.792783 7.522038 25.690116 0.073048 1.273644 0.176203 -0.028858 527071.000000 0 0 1
25.304813 1.174583 8.553238 26.737073 0.046384 1.245170 0.178527 -0.026412 841438.000000 0 0 1
25.178213 1.739883 9.855638 27.094339 0.068993 1.198503 0.172162 -0.030330 -149098.000000 0 0 1
26.179513 0.948783 10.730738 28.309289 0.036226 1.182023 0.137947 -0.018378 688618.000000 0 0 1
27.556513 1.146183 10.397638 29.475176 0.041570 1.210278 0.157360 -0.032507 645973.000000 0 0 1
28.350913 0.369783 11.259438 30.507146 0.013042 1.192782 0.131944 -0.017297 298999.000000 0 0 1
29.899643 0.441983 11.173738 31.922350 0.014781 1.213195 0.147048 -0.017360 456979.000000 0 0 1
30.476993 1.571583 11.742438 32.698652 0.051521 1.203481 0.138535 -0.010795 1292120.000000 0 0 1
31.755113 1.413183 12.429038 34.130123 0.044473 1.198059 0.125603 -0.022928 949093.000000 0 0 1
32.315253 2.774383 12.822538 34.876787 0.085644 1.194313 0.110484 -0.022557 -70589.800000 0 0 1
32.835353 3.502883 11.686938 35.028776 0.106278 1.230636 0.115148 -0.034094 457830.000000 0 0 1
33.540543 4.682283 11.988738 35.925223 0.138704 1.230556 0.102550 -0.029739 69220.600000 0 0 1
34.992253 4.681183 11.449638 37.114222 0.132988 1.257183 0.099207 -0.022377 256754.000000 0 0 1
35.872203 3.903583 12.277238 38.115397 0.108393 1.242842 0.100887 -0.033054 192756.000000 0 0 1
37.215433 4.110683 11.932738 39.297282 0.110010 1.262272 0.107854 -0.025991 -205393.000000 0 0 1
-36.444421 3.391383 12.859738 38.795233 -0.092789 1.232927 0.133974 -0.015952 -544407.000000 0 0 1
-36.210071 2.023383 12.444738 38.342337 -0.055821 1.240240 0.120632 -0.022250 678167.000000 0 0 1
-37.294231 1.096483 12.587638 39.376523 -0.029392 1.245411 0.112921 -0.019557 244712.000000 0 0 1
36.858143 0.804583 14.016538 39.441519 0.021826 1.207481 0.111745 -0.013038 -206426.000000 0 0 1
-37.007121 -0.088817 14.788238 39.852564 0.002400 1.190631 0.103384 -0.017044 332528.000000 0 0 1
37.221983 -0.189517 16.114638 40.560985 -0.005092 1.162230 0.100684 -0.026375 -363348.000000 0 0 1
-36.503251 -1.047817 16.949638 40.260097 0.028697 1.136245 0.112311 -0.025122 87626.500000 0 0 1
-35.240781 -0.434317 17.235238 39.232062 0.012324 1.115960 0.129276 -0.026219 531375.000000 0 0 1
-34.358519 -1.319817 17.887038 38.758171 0.038394 1.091107 0.117466 -0.018269 -79123.900000 0 0 1
-34.498286 -1.272117 19.413538 39.606002 0.036858 1.058516 0.117646 -0.016847 -269334.000000 0 0 1
-35.806580 -1.557717 19.896538 40.992802 0.043476 1.064014 0.111569 -0.025604 200001.000000 0 0 1
-35.886389 -1.561017 21.284738 41.752961 0.043471 1.035870 0.105864 -0.024262 -118705.000000 0 0 1
-36.192621 -2.904017 21.973338 42.440154 0.080066 1.026579 0.085187 -0.019561 -1072820.000000 0 0 1
-35.220079 -3.882917 21.956438 41.684723 0.109804 1.016052 0.104831 -0.023866 -664831.000000 0 0 1
-35.503299 -5.075617 22.641838 42.413428 0.142000 1.007665 0.100950 -0.024257 -79714.500000 0 0 1
-35.628034 -5.007817 24.184008 43.350908 0.139644 0.978984 0.100550 -0.027836 293335.000000 0 0 1
-34.364624 -4.701617 24.733868 42.600432 0.135971 0.951329 0.106675 -0.029136 -117132.000000 0 0 1
-34.383258 -4.836317 26.146308 43.465248 0.139742 0.925362 0.110884 -0.034389 131726.000000 0 0 1
-33.191241 -4.183017 26.882678 42.916599 0.125367 0.893878 0.100721 -0.031755 34829.500000 0 0 1
-33.234791 -2.762117 26.887808 42.838473 0.082919 0.892258 0.092466 -0.025586 -382303.000000 0 0 1
-32.541941 -2.154717 25.869148 41.627317 0.066117 0.900209 0.093622 -0.024915 -405148.000000 0 0 1
-32.617371 -0.602517 25.859168 41.628745 0.018470 0.900542 0.091239 -0.027793 -607323.000000 0 0 1
-33.794541 -0.101017 25.304168 42.218267 0.002989 0.928088 0.096349 -0.026575 -478347.000000 0 0 1
-33.797101 1.211683 24.839618 41.960920 -0.035836 0.937295 0.084021 -0.014462 956107.000000 0 0 1
-35.204055 1.755483 24.332618 42.830870 -0.049825 0.966590 0.083501 -0.013889 1228600.000000 0 0 1
-35.819076 1.176883 23.171248 42.676667 -0.032844 0.996852 0.091994 -0.010738 803786.000000 0 0 1
-36.995941 1.901383 22.734538 43.464630 -0.051349 1.020361 0.081978 -0.005651 1024730.000000 0 0 1
-36.708371 3.305583 22.066438 42.957642 -0.089808 1.031329 0.084310 -0.003824 59189.900000 0 0 1
-36.022565 3.250983 20.819538 41.733047 -0.090005 1.048497 0.088903 -0.014519 198543.000000 0 0 1
-36.929411 3.107283 19.751738 41.994853 -0.083943 1.081124 0.102855 -0.017454 154873.000000 0 0 1
-36.206751 2.522083 18.527238 40.749825 -0.069545 1.098808 0.124478 -0.016016 -189844.000000 0 0 1
-35.288215 3.348283 17.901338 39.710540 -0.094601 1.103140 0.134123 -0.021142 -211813.000000 0 0 1
-34.680748 2.676883 16.823738 38.638816 -0.077034 1.120302 0.152863 -0.019474 -81582.000000 0 0 1
-33.672911 3.528883 16.017538 37.455032 -0.104418 1.128908 0.156921 -0.021094 -49763.300000 0 0 1
-34.272104 4.664283 15.456938 37.884687 -0.135265 1.150534 0.162439 -0.027975 -77194.800000 0 0 1
-33.458841 5.212783 14.482238 36.829368 -0.154554 1.166660 0.171364 -0.024842 -238395.000000 0 0 1
-34.037971 6.544283 13.975438 37.372770 -0.189946 1.187535 0.193965 -0.034400 396543.000000 0 0 1
-33.136511 7.118783 13.030838 36.311267 -0.211616 1.203745 0.201363 -0.029142 473941.000000 0 0 1
-33.581741 8.385183 12.587638 36.830601 -0.244691 1.221995 0.185084 -0.030757 -83139.100000 0 0 1
-32.776361 9.006683 11.386238 35.847685 -0.268173 1.247569 0.199291 -0.033443 314916.000000 0 0 1
-33.033861 10.411483 11.250538 36.417160 -0.305321 1.256723 0.176218 -0.014992 40994.600000 0 0 1
-32.088691 11.022983 10.416738 35.492233 -0.330887 1.272917 0.176279 -0.028905 -69710.800000 0 0 1
-32.212281 12.593683 10.411638 36.119718 -0.372688 1.278394 0.159343 -0.022276 -183653.000000 0 0 1
-31.461051 13.236283 9.439138 35.413192 -0.398240 1.300992 0.163863 -0.021246 -168510.000000 0 0 1
-31.807241 14.597983 9.332138 36.220028 -0.430273 1.310206 0.143120 -0.019474 -259342.000000 0 0 1
-31.002821 15.246183 8.198438 35.508243 -0.457040 1.337806 0.149400 -0.024356 -1956670.000000 0 0 1
-29.685961 15.208483 8.510738 34.423638 -0.473449 1.320970 0.167781 -0.018691 -2090210.000000 0 0 1
-29.010821 16.118683 7.707938 34.071277 -0.507140 1.342591 0.153563 -0.039670 532421.000000 0 0 1
-27.484101 16.129883 8.114338 32.884516 -0.530717 1.321469 0.150537 -0.029181 798092.000000 0 0 1
-27.160121 16.656383 9.437338 33.229062 -0.550117 1.282824 0.126937 -0.030261 166533.000000 0 0 1
-27.202551 18.073083 9.620638 34.046611 -0.586424 1.284321 0.129169 -0.043693 -186799.000000 0 0 1
-27.012391 18.694183 11.017638 34.648666 -0.605377 1.247197 0.141940 -0.027212 298139.000000 0 0 1
-25.760081 18.545383 11.687038 33.824545 -0.623975 1.218004 0.126984 -0.027945 429165.000000 0 0 1
-25.691371 19.121983 12.982838 34.557934 -0.639840 1.185662 0.130968 -0.036574 -24982.600000 0 0 1
-26.362231 18.231983 14.063238 35.002100 -0.605063 1.157334 0.114153 -0.032099 248503.000000 0 0 1
-25.490001 17.153783 14.341438 33.906772 -0.592348 1.134079 0.117742 -0.034478 404977.000000 0 0 1
-26.057021 16.366483 15.395538 34.407160 -0.560827 1.106883 0.101737 -0.029547 -491057.000000 0 0 1
-25.097171 15.301583 15.891838 33.414920 -0.547517 1.075160 0.106583 -0.019438 -416696.000000 0 0 1
-24.021121 15.865183 16.605438 33.233399 -0.583699 1.047589 0.100001 -0.020509 -381772.000000 0 0 1
-22.968021 14.943983 16.788638 32.135820 -0.576827 1.021101 0.072803 -0.031894 -113545.000000 0 0 1
-23.034721 13.795083 17.808138 32.218510 -0.539597 0.985160 0.102795 -0.022671 -593310.000000 0 0 1
-22.873121 14.171283 19.152938 33.027866 -0.554678 0.952187 0.109528 -0.015845 131682.000000 0 0 1
-22.933421 12.986883 19.980838 33.073173 -0.515261 0.922110 0.113814 -0.019161 -725050.000000 0 0 1
-22.701021 13.222883 21.484638 33.937746 -0.527437 0.885296 0.107971 -0.014834 1175840.000000 0 0 1
-21.325821 13.507983 21.847238 33.384997 -0.564624 0.857404 0.110575 -0.011575 1092270.000000 0 0 1
-20.829021 14.766683 21.482738 33.367814 -0.616706 0.871321 0.108266 0.004269 -1097600.000000 0 0 1
-19.592721 15.119483 22.287838 33.304972 -0.657238 0.837659 0.094820 -0.002955 306983.000000 0 0 1
-18.311321 14.714183 21.812038 32.055836 -0.676906 0.822435 0.065418 -0.002439 287225.000000 0 0 1
-17.726921 15.709183 21.021438 31.668959 -0.725125 0.844926 0.059053 -0.015016 -209674.000000 0 0 1
-16.505321 15.183583 20.137538 30.141122 -0.743713 0.839133 0.060670 -0.004227 977833.000000 0 0 1
-15.337221 14.706683 20.734038 29.688671 -0.764414 0.797662 0.045185 0.008812 -153085.000000 0 0 1
-14.597821 15.692683 21.414438 30.297439 -0.821528 0.785822 0.045855 0.006238 -1498700.000000 0 0 1
-13.477121 15.199483 22.272238 30.144811 -0.845388 0.739447 0.018479 0.003765 -804557.000000 0 0 1
-12.334821 14.795383 21.568838 28.918262 -0.875845 0.728978 0.025019 0.003981 -30508.600000 0 0 1
-11.397121 14.191883 22.479538 28.924617 -0.894184 0.680630 0.029950 -0.006091 620975.000000 0 0 1
-10.156721 13.507283 21.850638 27.623469 -0.926052 0.658327 0.048742 -0.004363 -1204660.000000 0 0 1
-9.518921 12.711483 22.811438 27.794843 -0.928035 0.608148 0.044741 -0.012645 342147.000000 0 0 1
-8.222721 12.276683 22.418038 26.849553 -0.980639 0.582754 0.054262 0.001053 1024470.000000 0 0 1
-7.086521 13.349983 22.270138 26.914677 -1.082793 0.596272 0.067089 -0.001301 -897307.000000 0 0 1
-7.256321 14.170683 21.145638 26.468858 -1.097543 0.645353 0.050225 -0.002463 2554.390000 0 0 1
-6.365721 15.290983 21.242838 26.936865 -1.176313 0.662242 0.046038 -0.006325 226189.000000 0 0 1
-6.954221 16.544483 22.002838 28.393766 -1.172884 0.684211 0.048713 0.007313 1038850.000000 0 0 1
-8.140921 17.143383 21.430338 28.625679 -1.127452 0.724788 0.029369 -0.001354 389427.000000 0 0 1
-7.853521 18.088583 20.393338 28.368342 -1.161184 0.768611 0.017651 -0.001443 -1085710.000000 0 0 1
-8.971621 18.174783 19.350538 28.022420 -1.112258 0.808564 0.020823 -0.000143 651028.000000 0 0 1
-10.174121 18.892483 19.594738 29.058430 -1.076804 0.830750 0.008912 -0.001099 449783.000000 0 0 1
-10.994321 18.387183 20.656638 29.760044 -1.031897 0.803618 0.016777 0.007709 -1247100.000000 0 0 1
-12.339621 19.044783 20.785938 30.773774 -0.995880 0.829231 0.017621 0.004457 -664048.000000 0 0 1
-13.207821 18.784183 19.705938 30.259148 -0.957969 0.861580 0.016631 0.006413 -118563.000000 0 0 1
-14.398921 19.536883 19.797938 31.320553 -0.935659 0.886527 -0.005900 -0.002695 -282025.000000 0 0 1
-15.191421 19.554683 18.530238 30.927893 -0.910320 0.928366 0.018487 0.000874 -675061.000000 0 0 1
-15.944621 18.390583 18.315638 30.461566 -0.856516 0.925706 0.041210 0.001388 -112134.000000 0 0 1
-16.688721 18.606783 17.123938 30.297772 -0.839688 0.970135 0.065247 -0.013106 -840670.000000 0 0 1
-17.406621 17.314183 16.711338 29.699161 -0.782736 0.973163 0.071097 -0.022816 550612.000000 0 0 1
-18.488421 16.785883 17.473238 30.477887 -0.737170 0.960258 0.071485 -0.025121 -139434.000000 0 0 1
-19.640021 17.556383 17.558138 31.658256 -0.729439 0.982896 0.083603 -0.025788 -804918.000000 0 0 1
35.274093 -9.736617 11.583913 38.382944 -0.269321 1.264218 0.099010 -0.032507 -1121580.000000 0 0 1
33.903903 -9.882717 11.499813 37.140119 -0.283633 1.255989 0.098546 -0.032974 -770743.000000 0 0 1
33.429143 -10.968917 12.286013 37.266216 -0.317055 1.234829 0.117915 -0.029204 1020430.000000 0 0 1
31.914833 -11.394417 12.214913 36.022124 -0.342920 1.224842 0.111947 -0.029664 544831.000000 0 0 1
30.955663 -10.449517 12.635713 35.030084 -0.325553 1.201767 0.111553 -0.030173 241832.000000 0 0 1
29.613213 -10.880617 12.666113 33.996480 -0.352113 1.189018 0.104681 -0.028929 235494.000000 0 0 1
29.307013 -11.772417 13.887713 34.501586 -0.381965 1.156524 0.079889 -0.018880 -1145960.000000 0 0 1
29.219113 -11.009817 15.052313 34.663306 -0.360349 1.121598 0.088171 -0.021114 -5190.850000 0 0 1
28.528813 -11.637517 16.092313 34.760431 -0.387317 1.089477 0.094116 -0.025751 25160.100000 0 0 1
27.011513 -11.333417 16.123613 33.437092 -0.397269 1.067624 0.094122 -0.034316 -53746.000000 0 0 1
26.871513 -9.919017 16.289013 32.951435 -0.353612 1.053728 0.088778 -0.020560 -168953.000000 0 0 1
26.042113 -9.337217 15.297013 31.612876 -0.344265 1.065707 0.100118 -0.026923 144428.000000 0 0 1
25.951713 -7.801517 15.424513 31.181256 -0.292022 1.053338 0.125670 -0.031626 -1243360.000000 0 0 1
27.145013 -7.173817 15.283813 31.967333 -0.258371 1.072298 0.108119 -0.020579 -1327180.000000 0 0 1
27.070513 -5.824117 15.628713 31.796064 -0.211916 1.056951 0.092030 -0.011791 136123.000000 0 0 1
28.395313 -5.015317 15.509613 32.741340 -0.174822 1.077308 0.100902 -0.008859 55394.900000 0 0 1
28.678413 -4.726117 14.147313 32.325440 -0.163329 1.117810 0.115173 -0.016602 345999.000000 0 0 1
29.784563 -3.845917 14.046113 33.154254 -0.128414 1.133315 0.117148 -0.012437 77092.900000 0 0 1
30.082523 -3.260817 12.628513 32.788267 -0.107974 1.175422 0.126692 -0.027426 -17120.000000 0 0 1
30.468693 -4.211417 11.666213 32.896471 -0.137351 1.208274 0.125266 -0.043163 210430.000000 0 0 1
30.750603 -3.551917 10.456213 32.673355 -0.114998 1.245043 0.141809 -0.050017 -110290.000000 0 0 1
31.432073 -4.427917 9.394513 33.103452 -0.139952 1.283049 0.161641 -0.042230 488401.000000 0 0 1
32.776733 -4.801117 9.722313 34.523736 -0.145445 1.285322 0.146260 -0.053845 651004.000000 0 0 1
33.322663 -5.646717 8.733213 34.907797 -0.167861 1.317931 0.147701 -0.057522 172228.000000 0 0 1
34.742383 -6.162717 9.065513 36.430699 -0.175557 1.319311 0.129153 -0.049462 -96057.300000 0 0 1
35.795063 -5.283217 8.899213 37.261172 -0.146538 1.329632 0.138066 -0.050457 -666098.000000 0 0 1
37.046693 -5.927117 8.879613 38.554322 -0.158646 1.338396 0.146357 -0.050162 -169225.000000 0 0 1
-36.468321 -4.975817 8.599213 37.797402 0.135605 1.341278 0.144969 -0.052553 -451762.000000 0 0 1
-36.578021 -4.518417 7.269113 37.566044 0.122906 1.376066 0.146146 -0.044836 77424.400000 0 0 1
-35.429977 -3.789117 6.890513 36.292145 0.106542 1.379774 0.130787 -0.033908 -242840.000000 0 0 1
-35.370577 -3.226317 5.459113 35.934506 0.090963 1.418287 0.143232 -0.040460 -486795.000000 0 0 1
-34.985821 -4.090017 4.440713 35.502900 0.116377 1.445388 0.149291 -0.046068 102975.000000 0 0 1
-34.921604 -3.383917 3.226913 35.233255 0.096599 1.479081 0.160706 -0.036668 315408.000000 0 0 1
-34.247210 -4.235117 2.069613 34.570087 0.123038 1.510893 0.171114 -0.044123 232873.000000 0 0 1
-34.995049 -5.406217 1.860913 35.459042 0.153274 1.518292 0.158652 -0.027085 527093.000000 0 0 1
-36.123751 -5.302717 0.976713 36.523939 0.145752 1.544051 0.143032 -0.025872 84848.100000 0 0 1
-35.789565 -5.360117 -0.546887 36.192857 0.148663 1.585907 0.183851 -0.029554 -1259530.000000 0 0 1
-35.349922 -6.666217 -0.859287 35.983243 0.186389 1.594679 0.171416 -0.034796 -41946.200000 0 0 1
-34.535025 -6.739817 -1.988787 35.242706 0.192736 1.627257 0.163759 -0.033716 729495.000000 0 0 1
-33.071791 -6.198417 -1.713687 33.691252 0.185274 1.621683 0.167265 -0.040690 -2533.020000 0 0 1
-32.299851 -7.025017 -0.859587 33.066147 0.214159 1.596795 0.170582 -0.038268 -641203.000000 0 0 1
-31.182281 -6.324117 -0.428187 31.820000 0.200097 1.584253 0.178357 -0.050424 -506188.000000 0 0 1
-30.273581 -7.191317 0.479413 31.119681 0.233222 1.555390 0.163947 -0.041866 -213065.000000 0 0 1
-29.829501 -8.345417 -0.177587 30.975420 0.272796 1.576530 0.156185 -0.040817 391863.000000 0 0 1
-29.188271 -9.298217 0.674413 30.640934 0.308396 1.548784 0.154380 -0.035546 -72608.700000 0 0 1
-28.835441 -10.570017 -0.065387 30.711760 0.351354 1.572925 0.127009 -0.025579 -320441.000000 0 0 1
-27.758311 -10.321417 -0.958287 29.630622 0.355990 1.603143 0.141413 -0.037562 123843.000000 0 0 1
-27.191801 -11.511317 -1.447087 29.563466 0.400462 1.619764 0.124028 -0.014709 -163637.000000 0 0 1
-28.065251 -12.583817 -2.192887 30.835361 0.421504 1.641972 0.114156 -0.017303 -258224.000000 0 0 1
-29.096741 -13.233617 -1.498387 31.999908 0.426850 1.617638 0.127393 -0.023446 127361.000000 0 0 1
-29.362941 -14.390617 -2.201587 32.773757 0.455692 1.638022 0.114715 -0.016661 -94429.300000 0 0 1
-30.405171 -15.341117 -1.576387 34.092657 0.467286 1.617051 0.132235 -0.016218 244967.000000 0 0 1
-29.809381 -16.009617 -0.418587 33.839064 0.492859 1.583167 0.106064 -0.007778 670258.000000 0 0 1
-30.721551 -16.673317 0.443513 34.957258 0.497240 1.558109 0.105006 -0.005345 -154458.000000 0 0 1
-31.180511 -18.047617 -0.024387 36.026953 0.524694 1.571473 0.110056 -0.012506 -216249.000000 0 0 1
-30.217241 -19.086617 -0.031787 35.740476 0.563365 1.571686 0.127499 -0.015492 -76370.500000 0 0 1
-30.696361 -20.395017 -0.187787 36.854559 0.586440 1.575892 0.113868 -0.015985 -374318.000000 0 0 1
-31.484621 -20.971717 0.992313 37.842819 0.587606 1.544571 0.108042 -0.017329 3614.170000 0 0 1
-30.729601 -21.137617 2.223913 37.363793 0.602531 1.511241 0.110420 -0.021486 555394.000000 0 0 1
-31.664911 -21.622217 3.179613 38.474625 0.599119 1.488060 0.094825 -0.021154 405451.000000 0 0 1
-31.041561 -21.944317 4.547713 38.285941 0.615364 1.451732 0.095692 -0.020689 37567.400000 0 0 1
-30.661281 -20.752017 5.232013 37.391634 0.594996 1.430411 0.086135 -0.024576 -138538.000000 0 0 1
-30.149031 -20.985317 6.491313 37.302610 0.608072 1.395888 0.079095 -0.027200 -47366.300000 0 0 1
-29.816651 -19.640117 7.121913 36.407259 0.582464 1.373909 0.095602 -0.025970 -355410.000000 0 0 1
-28.962121 -19.774117 8.186213 36.011585 0.599060 1.341470 0.086141 -0.035058 -404111.000000 0 0 1
-28.393061 -18.579417 8.715213 35.033064 0.579437 1.319385 0.120677 -0.039227 92504.400000 0 0 1
-27.197921 -18.680817 9.672813 34.384054 0.601844 1.285630 0.122399 -0.035955 -474824.000000 0 0 1
-27.492781 -19.349117 10.893113 35.339797 0.613264 1.257455 0.118922 -0.037000 -503707.000000 0 0 1
-26.415551 -19.596317 11.727913 34.919062 0.638263 1.228278 0.097985 -0.018051 -455318.000000 0 0 1
-25.639941 -18.400817 12.349413 33.889595 0.622482 1.197806 0.097558 -0.023082 -559411.000000 0 0 1
-24.812521 -17.623817 11.448513 32.516589 0.617591 1.211001 0.108433 -0.030139 513719.000000 0 0 1
-24.193121 -16.508417 12.036313 31.665561 0.598789 1.180884 0.098112 -0.028116 376970.000000 0 0 1
-23.269621 -16.665417 13.279713 31.552530 0.621508 1.136385 0.069765 -0.008364 -735330.000000 0 0 1
-24.009121 -17.046017 14.418113 32.785463 0.617393 1.115452 0.080546 -0.019635 -157834.000000 0 0 1
-23.256521 -17.157817 15.614413 32.849145 0.635624 1.075449 0.074371 -0.016016 -137173.000000 0 0 1
-24.013921 -17.881217 16.777713 34.320518 0.640048 1.060021 0.048194 0.013567 225080.000000 0 0 1
-24.968721 -17.036917 17.393713 34.874558 0.598768 1.048639 0.061951 -0.003314 -20129.500000 0 0 1
-25.758491 -17.773517 18.290313 36.248218 0.603987 1.041895 0.052921 0.008990 -231164.000000 0 0 1
-26.923471 -17.014217 18.939713 37.054954 0.563580 1.034303 0.067101 0.009960 -262213.000000 0 0 1
-26.553291 -16.072217 19.955313 36.899972 0.544294 0.999415 0.071276 0.012076 -68156.600000 0 0 1
-27.644141 -15.351717 20.463913 37.664910 0.506929 0.996416 0.075584 0.004792 -353696.000000 0 0 1
-27.355521 -14.853217 21.909013 38.065042 0.497430 0.957498 0.077727 -0.000406 501436.000000 0 0 1
-26.188971 -14.022917 21.950313 36.936711 0.491605 0.934441 0.071975 0.003151 411061.000000 0 0 1
-25.695451 -14.020417 23.261813 37.389039 0.499488 0.899303 0.065629 0.003404 -281305.000000 0 0 1
-24.296321 -13.396717 23.433313 36.316710 0.503909 0.869447 0.069132 0.015092 -31567.500000 0 0 1
-24.296221 -12.007917 23.163113 35.651455 0.459021 0.863593 0.093872 -0.000634 114066.000000 0 0 1
-23.669621 -11.727317 21.897913 34.311799 0.460008 0.878634 0.113212 0.002205 -437273.000000 0 0 1
-23.272721 -10.247317 21.679013 33.415665 0.414770 0.864832 0.112735 -0.003372 277964.000000 0 0 1
-22.368221 -9.708217 22.622113 33.261792 0.409484 0.822866 0.095751 -0.008698 894166.000000 0 0 1
-20.974521 -10.014317 22.491313 32.343102 0.445447 0.801823 0.070877 -0.019071 577413.000000 0 0 1
-20.195321 -9.814817 23.801013 32.721092 0.452381 0.756285 0.085639 -0.014504 -37602.500000 0 0 1
-20.325421 -10.902317 24.610413 33.729152 0.492333 0.752989 0.101620 -0.017434 17438.100000 0 0 1
-19.647521 -10.675817 25.836013 34.168666 0.497737 0.713415 0.098506 -0.024328 -340644.000000 0 0 1
-19.588721 -11.936917 26.771213 35.254870 0.547286 0.708464 0.091098 -0.030307 1173480.000000 0 0 1
-20.793421 -12.293817 27.494413 36.598457 0.533950 0.720850 0.102309 -0.025790 1095690.000000 0 0 1
-21.868921 -12.860017 26.750013 36.867234 0.531586 0.758924 0.092231 -0.020481 719195.000000 0 0 1
-23.200221 -13.227117 27.462613 38.306683 0.518166 0.771430 0.086174 -0.017393 363214.000000 0 0 1
-23.250521 -14.410417 28.255213 39.326885 0.554843 0.769195 0.086643 -0.025462 -273913.000000 0 0 1
-22.511921 -14.260617 29.442013 39.711257 0.564667 0.735639 0.080636 -0.017479 -32505.700000 0 0 1
-22.889421 -15.174417 30.670613 41.168860 0.585421 0.730268 0.082217 -0.018438 -369026.000000 0 0 1
-22.743621 -16.523017 30.328813 41.353589 0.628284 0.747483 0.087307 -0.021571 -55114.200000 0 0 1
-22.784521 -17.292217 31.525313 42.567600 0.649202 0.736842 0.082191 -0.026924 221263.000000 0 0 1
-24.167621 -17.671017 32.137813 43.922406 0.631351 0.749991 0.103847 -0.025545 167438.000000 0 0 1
-24.793021 -16.653317 32.898213 44.433313 0.591475 0.737138 0.119756 -0.029054 -333411.000000 0 0 1
-25.960021 -17.199417 33.472313 45.718031 0.585137 0.749328 0.118077 -0.027428 -371974.000000 0 0 1
-26.803491 -16.168717 -33.625811 45.940719 0.542792 2.391960 0.111627 -0.021802 -179133.000000 0 0 1
-26.319981 -15.761217 -32.376411 44.602571 0.539559 2.383119 0.122485 -0.025982 -295294.000000 0 0 1
-27.016621 -14.656517 -31.847211 44.260097 0.497067 2.373946 0.130650 -0.026836 -195925.000000 0 0 1
-26.402911 -14.054517 -30.578511 42.774858 0.489160 2.367236 0.118953 -0.015980 -58312.200000 0 0 1
-26.808261 -14.753217 -29.396911 42.432519 0.503092 2.336150 0.116872 -0.004546 436172.000000 0 0 1
-26.211771 -14.155517 -28.239411 41.047533 0.495168 2.329482 0.114928 0.001203 -115749.000000 0 0 1
-26.380151 -15.019817 -26.931311 40.580818 0.517586 2.296479 0.095593 -0.002572 -39618.000000 0 0 1
-27.675201 -14.995117 -26.370411 41.062986 0.496545 2.268154 0.094063 -0.003553 155227.000000 0 0 1
-27.904821 -13.810117 -25.592811 40.303726 0.459560 2.258803 0.093234 -0.013607 -699231.000000 0 0 1
-27.115411 -13.665317 -24.279111 38.877521 0.466818 2.245291 0.095007 -0.022185 -531480.000000 0 0 1
-25.751681 -13.404217 -24.531211 38.007926 0.479927 2.272374 0.085500 -0.024305 169865.000000 0 0 1
-24.895321 -13.616717 -23.432311 36.800342 0.500505 2.261061 0.074494 -0.028559 -64189.400000 0 0 1
-24.214821 -14.985017 -23.322211 36.808067 0.554155 2.257016 0.068922 -0.041137 -547712.000000 0 0 1
-23.418221 -15.207017 -24.461411 37.121787 0.575930 2.290219 0.095508 -0.021847 -27645.700000 0 0 1
-23.005321 -16.540017 -24.537611 37.482147 0.623341 2.284513 0.110700 -0.015760 49194.500000 0 0 1
-22.115621 -16.981617 -25.739311 37.947176 0.654832 2.316234 0.096348 -0.009832 123096.000000 0 0 1
-22.677621 -16.936517 -27.031011 39.138161 0.641475 2.333192 0.091070 -0.006277 -110023.000000 0 0 1
-23.577421 -17.967617 -27.366811 40.344422 0.651181 2.316283 0.091596 -0.009654 -281684.000000 0 0 1
-24.207321 -17.907617 -28.732911 41.620395 0.636916 2.332778 0.100957 -0.012912 17456.400000 0 0 1
-23.514321 -18.522417 -29.862611 42.282133 0.667201 2.355012 0.094553 -0.009273 609172.000000 0 0 1
-24.341821 -18.568517 -31.041911 43.599476 0.651658 2.363109 0.090564 -0.008459 -5316.820000 0 0 1
-23.588721 -18.962617 -32.326811 44.283533 0.677105 2.389113 0.082981 -0.020439 -361388.000000 0 0 1
-22.582121 -18.051917 -32.755711 43.689364 0.674369 2.418467 0.089453 -0.019933 786249.000000 0 0 1
-21.220221 -18.413117 -32.513811 42.970787 0.714689 2.428969 0.087458 -0.029302 448936.000000 0 0 1
-20.642621 -19.513617 -33.376011 43.827585 0.757290 2.436466 0.093354 -0.035092 -1323250.000000 0 0 1
-20.237621 -19.056017 33.242613 43.333179 0.755336 0.696426 0.078185 -0.031901 -27777.000000 0 0 1
-19.913121 -20.162317 32.343913 43.002095 0.791616 0.719482 0.071410 -0.035128 -474490.000000 0 0 1
-21.115521 -20.869217 31.711613 43.439796 0.779532 0.752455 0.062597 -0.032718 -786986.000000 0 0 1
-21.794621 -21.586717 32.703713 44.838875 0.780606 0.753409 0.066504 -0.034602 -335057.000000 0 0 1
-23.038821 -22.082617 32.225813 45.353415 0.764210 0.780519 0.075576 -0.020365 124305.000000 0 0 1
-22.995321 -23.227217 31.167813 45.163270 0.790415 0.809150 0.070657 -0.017695 -715003.000000 0 0 1
-22.402721 -24.406717 31.666713 45.829581 0.828184 0.807971 0.069478 -0.016598 -407730.000000 0 0 1
-22.559621 -25.395457 30.715813 45.796582 0.844465 0.835643 0.097845 -0.007764 -163850.000000 0 0 1
-22.160221 -26.736957 31.352613 46.785966 0.878725 0.836414 0.095758 -0.018925 -859588.000000 0 0 1
-22.958421 -27.207487 32.322213 48.083905 0.869897 0.833614 0.089072 -0.018858 -837464.000000 0 0 1
-22.289521 -28.155147 33.112913 48.846700 0.901157 0.825901 0.095617 -0.021845 -485136.000000 0 0 1
-23.283921 -28.708937 -33.695911 50.017582 0.889364 2.309975 0.088567 -0.020878 -336350.000000 0 0 1
-24.175221 -29.687687 33.610313 50.945591 0.887386 0.850337 0.086060 -0.020893 644022.000000 0 0 1
-25.357061 -29.098687 33.038313 50.805947 0.854000 0.862838 0.070696 -0.017220 212080.000000 0 0 1
-26.407671 -28.754457 -33.714811 51.583645 0.827916 2.283121 0.067471 -0.013610 -337959.000000 0 0 1
-27.410601 -27.796877 33.819713 51.650561 0.792395 0.856906 0.054608 -0.012957 -92610.300000 0 0 1
-28.324481 -27.617947 -33.032711 51.538211 0.772769 2.266514 0.048054 -0.005638 -947043.000000 0 0 1
-29.546891 -26.821297 -33.424911 52.054063 0.737082 2.268056 0.027630 -0.007129 -578721.000000 0 0 1
-30.393411 -27.537027 33.538413 52.979925 0.736131 0.885322 0.027641 -0.003701 1031520.000000 0 0 1
-31.571671 -26.712777 33.298013 53.095203 0.702225 0.892923 0.020851 -0.010177 910315.000000 0 0 1
