# x y z rho theta phi s1 s2 stress_xx np intf bulk
-0.767744 -10.729243 -14.383412 17.960752 1.499362 2.499467 0.011152 0.000523 -635574.000000 1 0 0
2.129756 -13.453543 -12.951912 18.795896 -1.413795 2.331018 0.014024 -0.000859 605837.000000 1 0 0
2.067656 -11.127043 -14.615012 18.484720 -1.387069 2.482672 0.013991 0.000968 -1261270.000000 1 0 0
-5.488644 -6.318243 -16.559112 18.553964 0.855547 2.673618 0.010605 0.003517 -710914.000000 1 0 0
4.477656 -14.139643 -11.393212 18.702518 -1.264113 2.225823 0.007005 -0.001374 -676004.000000 1 0 0
14.114156 -10.516843 -7.903812 19.294653 -0.640375 1.992853 0.046439 -0.018856 521545.000000 1 0 0
7.178456 10.780957 -10.818712 16.876130 0.983362 2.266683 0.027763 -0.017545 -167625.000000 1 0 0
5.672456 -4.228343 -12.656612 14.499844 -0.640561 2.631869 0.002279 0.001159 1175450.000000 1 0 0
13.728056 0.551757 -10.056412 17.026314 0.040170 2.202647 0.016060 0.000109 1618560.000000 1 0 0
14.072456 5.049157 -10.436012 18.232892 0.344490 2.180193 -0.001707 0.001950 -1584370.000000 1 0 0
4.042456 4.365257 -13.413712 14.673942 0.823773 2.724123 0.009980 0.002437 2862110.000000 1 0 0
10.209056 -5.121143 -13.632712 17.784875 -0.464949 2.444223 0.022507 -0.008105 253913.000000 1 0 0
2.561156 -7.546943 -11.979712 14.388515 -1.243629 2.554561 -0.003556 0.005278 1532170.000000 1 0 0
-5.545644 -1.964743 -15.103612 16.209055 0.340488 2.770139 0.002050 -0.004384 -265190.000000 1 0 0
10.783356 0.065257 -9.670112 14.484339 0.006052 2.301811 0.014264 -0.000957 842521.000000 1 0 0
-1.612844 -9.532143 -16.992112 19.549805 1.403183 2.624319 0.025793 -0.005396 521943.000000 1 0 0
8.705556 1.542257 -17.869712 19.937198 0.175339 2.682151 0.026941 -0.000413 -583935.000000 1 0 0
16.625956 -5.783743 -8.889012 19.720259 -0.334780 2.038408 0.056978 -0.013075 -2261890.000000 1 0 0
10.143356 7.522057 -9.858712 16.020712 0.638087 2.233655 0.015384 -0.006378 135622.000000 1 0 0
13.914456 -2.283643 -10.675112 17.685732 -0.162670 2.218805 0.032575 -0.004498 -1518170.000000 1 0 0
7.221656 -1.919043 -13.609412 15.525821 -0.259732 2.639477 0.014418 -0.008153 899581.000000 1 0 0
-2.786744 6.654757 -13.725012 15.505730 -1.174223 2.657628 0.000652 -0.003683 2433750.000000 1 0 0
11.203056 1.798157 -13.976312 18.002198 0.159148 2.459677 0.013226 -0.001031 -312669.000000 1 0 0
-2.304344 10.751057 -12.941812 16.981923 -1.359654 2.437337 0.002516 0.002472 -892310.000000 1 0 0
2.856756 -1.094543 -15.188512 15.493546 -0.365890 2.942833 0.009683 -0.006789 774449.000000 1 0 0
-9.014044 0.467357 -15.170312 17.652472 -0.051801 2.604867 0.016585 -0.004818 -350002.000000 1 0 0
2.356756 -1.631943 -17.974512 18.201665 -0.605643 2.983442 0.024223 -0.012746 1010950.000000 1 0 0
1.050656 7.899457 -13.128212 15.357579 1.438569 2.596031 0.006691 -0.002127 -192662.000000 1 0 0
9.342056 -9.151743 -9.783812 16.332526 -0.775108 2.213096 0.025348 -0.004870 -1236510.000000 1 0 0
3.942756 7.304157 -13.548812 15.889189 1.075821 2.591941 0.007471 -0.001690 1383930.000000 1 0 0
-2.642944 9.073557 -15.451212 18.112275 -1.287359 2.592655 -0.001408 -0.001555 99413.300000 1 0 0
5.475456 -7.603443 -15.387012 18.015357 -0.946689 2.594624 0.008263 0.003117 503221.000000 1 0 0
4.295356 7.281557 -16.401412 18.452031 1.037840 2.665664 0.018597 0.002350 1026350.000000 1 0 0
-0.155344 5.068357 -13.432612 14.357835 -1.540156 2.780637 0.007303 -0.004906 2761610.000000 1 0 0
8.838956 4.175057 -16.589512 19.255392 0.441282 2.609114 0.022180 -0.003332 -71306.300000 1 0 0
5.351456 0.297957 -14.333712 15.303011 0.055620 2.783764 0.009843 -0.001749 -134096.000000 1 0 0
6.303356 7.920257 -11.608512 15.401958 0.898589 2.424476 0.009853 -0.007408 8203.980000 1 0 0
2.682156 -8.343343 -15.022412 17.391900 -1.259758 2.613479 0.004464 0.002661 85710.100000 1 0 0
3.991256 11.515857 -13.785412 18.400615 1.237165 2.417623 0.021638 -0.015739 -1594520.000000 1 0 0
0.543656 -4.492643 -13.680812 14.409858 -1.450372 2.822137 0.003750 -0.000528 715891.000000 1 0 0
8.593056 -0.097943 -11.676612 14.498050 -0.011397 2.507133 0.006197 -0.002285 -587960.000000 1 0 0
-0.874344 -5.132643 -16.214612 17.030036 1.402066 2.830888 0.007936 -0.006338 -849467.000000 1 0 0
4.518256 0.887457 -11.666212 12.542038 0.193947 2.765669 0.002894 -0.003267 568913.000000 1 0 0
-2.864344 -7.264143 -15.618612 17.461766 1.195202 2.677988 0.008531 0.000912 1731640.000000 1 0 0
11.454956 -3.771943 -11.377912 16.580122 -0.318103 2.327101 0.029952 -0.007818 957546.000000 1 0 0
6.398556 -7.029243 -12.654912 15.827147 -0.832332 2.497375 0.006345 0.003783 -907948.000000 1 0 0
3.353256 -3.969743 -14.730812 15.620499 -0.869385 2.802460 0.010757 -0.004094 4096150.000000 1 0 0
-0.629844 -1.459743 -18.224012 18.293227 1.163453 3.054575 0.023509 -0.017246 868009.000000 1 0 0
14.930956 2.894357 -8.533512 17.439368 0.191475 2.082111 0.005710 0.005370 -1129930.000000 1 0 0
6.912356 4.307657 -14.310712 16.466118 0.557291 2.624177 0.009712 0.002407 1578330.000000 1 0 0
10.083156 -9.728543 -13.852912 19.703242 -0.767501 2.350513 0.030978 -0.010048 -1475020.000000 1 0 0
8.982556 -3.284843 -15.440512 18.162762 -0.350585 2.587008 0.027622 -0.016194 -887407.000000 1 0 0
-5.295244 -2.086443 -17.976312 18.855785 0.375342 2.834968 -0.006408 -0.001395 -383917.000000 1 0 0
5.004956 -9.087343 -11.108312 15.199473 -1.067369 2.390341 -0.004069 0.007048 2219520.000000 1 0 0
-2.490444 4.046957 -17.168012 17.813500 -1.019140 2.871567 0.005075 0.001308 1335700.000000 1 0 0
9.649256 9.220857 -14.448512 19.669566 0.762700 2.395817 0.049159 -0.022517 1002550.000000 1 0 0
9.878056 9.969157 -11.606612 18.211906 0.789988 2.261797 0.028332 -0.015042 -42697.600000 1 0 0
12.060156 -5.912443 -9.743912 16.593618 -0.455814 2.198402 0.034292 -0.014406 164794.000000 1 0 0
8.158756 6.864157 -13.656612 17.325847 0.699436 2.478711 0.017645 -0.004317 122699.000000 1 0 0
3.960856 -4.071843 -17.664012 18.554935 -0.799214 2.830451 0.023091 -0.012015 -778453.000000 1 0 0
9.244856 -7.530743 -12.268312 17.108212 -0.683573 2.370430 0.025021 -0.007037 676339.000000 1 0 0
11.967756 -8.598743 -8.835712 17.182415 -0.623030 2.110906 0.034479 -0.017732 332413.000000 1 0 0
-2.890644 -2.481843 -13.782912 14.299791 0.709453 2.871905 0.000226 -0.003000 -3104570.000000 1 0 0
-0.380944 6.140457 -17.592412 18.637148 -1.508837 2.805175 0.013408 0.001499 1413060.000000 1 0 0
1.096356 -8.490743 -17.525412 19.504737 -1.442383 2.687184 0.022906 -0.003520 225306.000000 1 0 0
0.081556 8.567557 -15.988012 18.139079 1.561277 2.649641 0.007759 0.002366 1012140.000000 1 0 0
1.775156 3.343657 -14.935312 15.407620 1.082733 2.893350 0.015523 0.001000 767684.000000 1 0 0
-1.965044 -0.439543 -15.738712 15.866998 0.220059 3.014344 0.008181 -0.006344 1658080.000000 1 0 0
14.228856 -4.297643 -8.495212 17.120126 -0.293325 2.090027 0.033309 -0.010465 -428251.000000 1 0 0
0.552856 0.641857 -14.492612 14.517349 0.859756 3.083207 0.008145 -0.003580 2061410.000000 1 0 0
8.774456 2.715057 -12.604412 15.595955 0.300083 2.511859 0.006083 -0.000748 2698330.000000 1 0 0
5.955456 0.981457 -17.105212 18.138880 0.163331 2.802370 0.025838 -0.000358 -766216.000000 1 0 0
15.320056 1.624157 -12.386212 19.767656 0.105621 2.247966 0.020535 -0.006612 -522275.000000 1 0 0
8.677056 -11.297143 -11.899112 18.560862 -0.915827 2.266709 0.026905 -0.002451 1867180.000000 1 0 0
-4.622844 0.848657 -15.008312 15.727057 -0.181557 2.838101 0.005380 -0.003100 1018970.000000 1 0 0
2.380256 5.115057 -17.244812 18.144226 1.135257 2.825411 0.017642 -0.000463 1143640.000000 1 0 0
5.849456 -11.748943 -12.285612 17.977488 -1.108854 2.323191 0.007576 -0.000824 -952873.000000 1 0 0
12.829956 7.196857 -8.711312 17.096475 0.511205 2.105445 0.003404 -0.001420 529035.000000 1 0 0
-4.997644 3.679157 -15.722212 16.902680 -0.634596 2.765647 -0.001032 -0.001060 404854.000000 1 0 0
-0.595544 -4.351743 -18.998112 19.499246 1.434789 2.914388 0.022070 -0.018231 -1585370.000000 1 0 0
9.760656 4.316057 -10.242412 14.792084 0.416339 2.335641 0.004429 -0.002560 1247780.000000 1 0 0
13.373056 3.655357 -12.972712 18.986614 0.266820 2.323008 0.017946 -0.005786 -1048840.000000 1 0 0
-6.230844 5.967957 -17.186812 19.230871 -0.763851 2.676343 0.002305 0.004870 -51948.400000 1 0 0
-10.301244 3.112657 -15.331712 18.731408 -0.293440 2.529597 0.029079 -0.000182 608369.000000 1 0 0
10.899556 13.365557 -8.267512 19.125642 0.886678 2.017809 0.043256 -0.013923 365422.000000 1 0 0
7.375056 13.380357 -12.304512 19.616993 1.067044 2.248797 0.044334 -0.023297 -592239.000000 1 0 0
5.406356 15.142057 -11.162712 19.573367 1.227861 2.177669 0.030719 -0.019168 -1616810.000000 1 0 0
14.443756 9.360957 -9.867112 19.839594 0.575036 2.091331 0.040224 -0.007634 -1431110.000000 1 0 0
8.216256 -17.346843 -2.089312 19.307643 -1.128454 1.679220 0.022800 0.001883 -251964.000000 1 0 0
0.675956 -16.022443 0.026888 16.036718 -1.528633 1.569120 0.004293 -0.008509 2090900.000000 1 0 0
-9.125944 -11.717643 7.638688 16.701365 0.909104 1.095762 0.017552 -0.012651 101723.000000 1 0 0
1.952256 -15.921843 -2.629012 16.255095 -1.448790 1.733244 0.001641 -0.003526 2461870.000000 1 0 0
-1.363044 -11.020643 -9.491412 14.608195 1.447740 2.278028 0.002161 0.002745 157618.000000 1 0 0
-4.937644 -12.594243 -13.004412 18.764595 1.197157 2.336479 0.022998 -0.002943 -273057.000000 1 0 0
-8.254344 -18.015143 -1.588312 19.879696 1.141153 1.650778 0.016573 -0.004969 7621.040000 1 0 0
-11.358444 -7.160143 -8.796412 16.051753 0.562459 2.150772 0.021808 -0.006407 3201080.000000 1 0 0
-13.498344 -11.681543 -4.600212 18.434362 0.713370 1.823007 0.011667 -0.005786 -979194.000000 1 0 0
-5.783944 -13.365743 9.859188 17.586947 1.162385 0.975690 0.012927 -0.014243 206802.000000 1 0 0
0.003756 -13.998443 -3.664612 14.470170 -1.570528 1.826838 0.000726 0.001036 2039920.000000 1 0 0
-14.619544 -11.556343 1.969688 18.739259 0.668904 1.465492 0.008222 -0.010847 1337410.000000 1 0 0
-3.938344 -16.543343 -7.603312 18.628020 1.337084 1.991240 -0.001803 0.002772 890834.000000 1 0 0
0.445456 -15.286343 -9.345212 17.922157 -1.541664 2.119326 -0.000383 0.001912 1570330.000000 1 0 0
4.488856 -14.291643 -2.542012 15.194167 -1.266464 1.738889 0.002059 0.000500 439047.000000 1 0 0
-3.526544 -18.033643 -2.413312 18.533021 1.377680 1.701384 0.000803 -0.006499 1813500.000000 1 0 0
-0.912544 -13.490043 0.680288 13.537976 1.503253 1.520525 0.006761 -0.002312 3374670.000000 1 0 0
-8.543544 -11.319943 -10.535612 17.667268 0.924272 2.209724 0.021262 -0.003404 2188730.000000 1 0 0
-3.755844 -14.114443 -0.411312 14.611402 1.310724 1.598950 -0.000768 0.002542 4499170.000000 1 0 0
-1.552744 -14.909843 -7.313612 16.679429 1.467028 2.024704 -0.005776 0.004765 618755.000000 1 0 0
-14.155144 -8.036343 -1.797612 16.376273 0.516356 1.680787 0.011811 -0.005259 1954940.000000 1 0 0
-10.737844 -7.313243 -11.712812 17.492135 0.597909 2.304472 0.020184 -0.005916 -1308510.000000 1 0 0
-9.523344 -14.678043 6.869388 18.797009 0.995254 1.196679 0.006983 -0.007363 489677.000000 1 0 0
-2.606344 -14.262543 -12.392812 19.073410 1.390050 2.278042 0.014612 -0.003467 -470515.000000 1 0 0
2.251056 -17.819543 -4.760212 18.581254 -1.445137 1.829868 0.003072 -0.006246 -1231040.000000 1 0 0
-6.661144 -9.629843 -9.196512 14.888940 0.965650 2.236578 0.007933 -0.002381 232552.000000 1 0 0
-11.006644 -15.402043 0.336388 18.933629 0.950324 1.553029 0.009848 -0.010061 45171.600000 1 0 0
-12.552044 -11.087443 4.114288 17.245654 0.723522 1.329904 0.021472 -0.011251 91130.200000 1 0 0
-16.989944 -8.977743 -1.575512 19.280568 0.486120 1.652603 0.014848 -0.008672 398505.000000 1 0 0
-1.442344 -19.219543 -4.035712 19.691576 1.495891 1.777205 -0.005798 -0.000212 741257.000000 1 0 0
3.153156 -14.354443 -8.743412 17.100868 -1.354566 2.107475 -0.000514 -0.000549 -116469.000000 1 0 0
-4.450844 -8.086743 -13.190912 16.099863 1.067656 2.531017 0.010373 0.003520 1958650.000000 1 0 0
5.591056 -16.689843 1.339488 17.652337 -1.247549 1.494842 0.016418 -0.005047 3728160.000000 1 0 0
-2.959344 -13.724443 -3.257612 14.412845 1.358422 1.798788 -0.001744 0.003190 -1328400.000000 1 0 0
-0.398444 -13.938743 3.715488 14.430945 1.542219 1.310397 0.009175 -0.002421 -3726700.000000 1 0 0
1.245356 -15.953243 7.234288 17.561088 -1.492891 1.146203 0.016105 -0.014793 2752720.000000 1 0 0
-5.613644 -10.381343 -14.785112 18.917844 1.075088 2.467932 0.018763 0.002446 721085.000000 1 0 0
-0.354944 -17.255443 -5.982712 18.266613 1.550229 1.904476 -0.003261 -0.002034 1322440.000000 1 0 0
-6.633844 -13.469343 -1.284412 15.069201 1.113155 1.656134 0.003321 0.000924 2497220.000000 1 0 0
-1.695744 -17.824043 -0.140712 17.905080 1.475944 1.578655 0.002149 -0.001785 1943220.000000 1 0 0
-9.424144 -9.774743 -4.808612 14.404265 0.803658 1.911163 0.010080 -0.005223 2143730.000000 1 0 0
-0.705544 -16.586943 5.005888 17.340225 1.528286 1.277942 0.020473 -0.012850 1875780.000000 1 0 0
-6.772244 -9.902743 -6.307312 13.553959 0.970974 2.054824 0.008283 -0.002380 2075590.000000 1 0 0
-6.062844 -14.610043 -8.678712 18.042491 1.177445 2.072609 0.008674 -0.000385 986938.000000 1 0 0
-5.752344 -12.173143 -10.308512 16.957013 1.129354 2.224235 0.019169 -0.005349 1199400.000000 1 0 0
-10.788144 -12.136243 -8.865012 18.500294 0.844137 2.070519 0.031104 -0.013540 -555039.000000 1 0 0
4.013156 -16.968443 6.646288 18.660296 -1.338557 1.206628 0.028086 -0.016936 1895240.000000 1 0 0
-6.745444 -14.466043 -4.138912 16.489330 1.134474 1.824515 0.008040 -0.000431 -1514620.000000 1 0 0
-2.865844 -12.169343 -7.110912 14.383012 1.339513 2.087937 0.003817 0.000745 3219900.000000 1 0 0
-6.979444 -12.818043 4.561188 15.291152 1.072184 1.267896 -0.002355 -0.004818 1576500.000000 1 0 0
2.595256 -16.484343 2.336188 16.850125 -1.414640 1.431703 0.012559 -0.008282 2463240.000000 1 0 0
-6.235044 -11.933043 7.395088 15.361010 1.089309 1.068523 0.003481 -0.004578 283420.000000 1 0 0
-11.171244 -12.694243 -0.859412 16.931601 0.849128 1.621576 0.006218 -0.003797 836491.000000 1 0 0
-14.201144 -8.754643 4.605488 17.306842 0.552445 1.301443 0.017773 -0.010630 -432320.000000 1 0 0
-7.971844 -15.484243 4.458888 17.977591 1.095351 1.320156 0.001428 -0.007779 -665775.000000 1 0 0
-16.399444 -9.195843 1.203688 18.840227 0.511052 1.506864 0.000501 -0.004884 451942.000000 1 0 0
-6.648644 -17.036543 2.396888 18.444331 1.198717 1.440475 0.000816 -0.005434 1007090.000000 1 0 0
-11.626144 -14.985443 -4.627212 19.522854 0.910968 1.810089 0.035093 -0.002212 -1890130.000000 1 0 0
-10.149844 -9.994143 -12.592512 19.012459 0.777669 2.294720 0.021467 -0.000878 -1272580.000000 1 0 0
-4.346844 -15.996843 -4.592212 17.201234 1.305471 1.841044 -0.003327 -0.002008 -690855.000000 1 0 0
-11.745744 -8.383143 0.116188 14.430977 0.619873 1.562745 -0.000136 -0.001965 2806340.000000 1 0 0
-9.570244 -11.216143 3.618988 15.181848 0.864415 1.330103 0.000642 -0.001940 3105930.000000 1 0 0
-14.076444 -12.901043 -0.589512 19.103160 0.741856 1.601661 0.009613 -0.007937 -1299390.000000 1 0 0
5.496456 -14.933243 -7.083512 17.418063 -1.218116 1.989609 0.006596 -0.011410 1114030.000000 1 0 0
-7.392544 -10.697943 -1.228312 13.061564 0.966119 1.664976 0.001634 -0.004566 759754.000000 1 0 0
-11.613944 -8.273843 -6.026012 15.480730 0.619004 1.970623 0.016202 -0.005680 -199378.000000 1 0 0
-14.417144 -6.697743 -9.146112 18.340261 0.434902 2.092884 0.021182 -0.012019 1896310.000000 1 0 0
-3.848044 -16.403243 1.470988 16.912648 1.340373 1.483711 0.000891 -0.007164 1894170.000000 1 0 0
-8.076344 -15.632543 0.143888 17.596149 1.093928 1.562619 0.012646 -0.005007 1251050.000000 1 0 0
1.117356 -18.579943 3.897188 19.017120 -1.510731 1.364404 0.017095 -0.014458 -1380260.000000 1 0 0
-14.065744 -8.826043 -4.590412 17.228351 0.560384 1.840499 0.015618 -0.006349 -227786.000000 1 0 0
-3.315644 -14.518743 11.182688 18.623639 1.346277 0.926724 -0.001003 -0.011720 1420030.000000 1 0 0
-10.732244 -12.208343 -3.698712 16.670488 0.849654 1.794530 0.012192 -0.005897 3047310.000000 1 0 0
-9.839544 -10.734843 0.705588 14.579141 0.828886 1.522380 0.001352 -0.001095 936186.000000 1 0 0
-0.201344 -13.183943 -11.196512 17.297941 1.555526 2.274799 0.004659 -0.000890 -26725.600000 1 0 0
-5.913544 -12.659743 -6.366612 15.354897 1.133802 1.998333 -0.001999 -0.000346 1470330.000000 1 0 0
1.942256 -15.742743 10.104188 18.806939 -1.448042 1.003613 0.018165 -0.009776 1233410.000000 1 0 0
-9.069544 -15.794443 -5.433312 19.006366 1.049546 1.860708 0.028808 -0.002947 -344052.000000 1 0 0
-3.327644 -15.483043 5.874388 16.891012 1.359095 1.215592 0.005379 -0.003765 -1861540.000000 1 0 0
-17.431444 -5.593443 -6.537312 19.439092 0.310503 1.913779 0.015691 -0.003620 -1038750.000000 1 0 0
18.778456 5.660657 -2.772512 19.808086 0.292781 1.711226 0.006062 0.009992 -189100.000000 1 0 0
12.901256 -12.426043 -5.979112 18.883822 -0.766638 1.892967 0.044691 -0.007866 -323502.000000 1 0 0
10.942456 -13.521843 -1.637612 17.471673 -0.890445 1.664664 0.028005 -0.000743 2590750.000000 1 0 0
18.644556 -2.793943 4.378288 19.354457 -0.148746 1.342605 0.037634 -0.010968 -392665.000000 1 0 0
8.711756 -16.902243 5.020388 19.666846 -1.094889 1.312668 0.036990 -0.016105 -1952100.000000 1 0 0
18.120656 -0.959843 6.612188 19.313221 -0.052920 1.221363 0.050667 -0.012928 -325136.000000 1 0 0
17.967056 -4.096743 -5.112012 19.124097 -0.224182 1.841394 0.045179 -0.012618 494355.000000 1 0 0
5.563856 -11.743643 14.775388 19.676935 -1.128347 0.721374 0.009128 -0.001693 -748984.000000 1 0 0
15.844856 -8.870543 -0.818312 18.177339 -0.510365 1.615830 0.046716 -0.009800 -499647.000000 1 0 0
13.842456 -12.570643 -1.498912 18.758502 -0.737284 1.650787 0.045869 0.001704 1363360.000000 1 0 0
10.902956 -1.761443 13.641788 17.552080 -0.160173 0.680564 0.001732 -0.017082 605951.000000 1 0 0
16.934456 -6.168243 -1.479512 18.083473 -0.349306 1.652704 0.043084 -0.013227 -1466980.000000 1 0 0
17.746956 3.664257 -0.925712 18.144921 0.203611 1.621836 0.014372 0.001984 -136649.000000 1 0 0
9.581156 -10.934943 9.616888 17.431468 -0.851289 0.986399 0.007818 0.000594 -391114.000000 1 0 0
9.137856 -11.072743 4.288288 14.983173 -0.880844 1.280530 0.010074 -0.001797 -301020.000000 1 0 0
14.134856 -9.945043 6.834088 18.585016 -0.613127 1.194240 0.036373 -0.010978 446590.000000 1 0 0
16.272556 -0.505543 -4.776312 16.966579 -0.031057 1.856167 0.018743 -0.001934 -1088780.000000 1 0 0
15.762856 -0.446643 -1.820412 15.873910 -0.028328 1.685729 0.016028 -0.003677 744525.000000 1 0 0
12.850156 -5.171443 -0.283312 13.854624 -0.382610 1.591247 0.012071 -0.008758 726666.000000 1 0 0
14.293156 -7.485043 1.096888 16.171684 -0.482412 1.502916 0.035375 -0.008129 2135720.000000 1 0 0
15.414056 2.502357 3.655788 16.038070 0.160938 1.340830 0.018400 -0.005688 1555780.000000 1 0 0
15.919556 -6.959643 4.921888 18.058070 -0.412138 1.294745 0.040330 -0.013956 -723298.000000 1 0 0
13.786756 -12.045343 3.286788 18.600213 -0.718087 1.393157 0.038666 -0.003592 951078.000000 1 0 0
13.946656 -0.912843 9.207188 16.736631 -0.065359 0.988286 0.011441 -0.012908 2049360.000000 1 0 0
14.065156 -2.786343 -1.623712 14.430134 -0.195570 1.683557 0.007876 -0.006124 217492.000000 1 0 0
15.055356 1.891757 9.147688 17.717864 0.124998 1.028274 0.024272 -0.011006 -1356680.000000 1 0 0
14.270956 -10.080043 -3.031712 17.732985 -0.614963 1.742605 0.052029 -0.007344 -348061.000000 1 0 0
7.358756 -12.554743 6.120488 15.787123 -1.040635 1.172674 0.006749 -0.004569 -161711.000000 1 0 0
12.348456 -4.554143 6.862288 14.843032 -0.353326 1.090182 0.008108 -0.009406 3359320.000000 1 0 0
14.908656 -8.764843 -5.654312 18.195102 -0.531477 1.886789 0.057215 -0.015624 -340819.000000 1 0 0
14.244056 -4.458443 4.531488 15.598245 -0.303344 1.276034 0.019002 -0.010980 1227390.000000 1 0 0
17.158456 -4.125443 0.735088 17.662736 -0.235953 1.529166 0.037393 -0.013038 -1407540.000000 1 0 0
10.256656 -14.427543 1.162188 17.739890 -0.952787 1.505237 0.031353 -0.003894 791614.000000 1 0 0
16.383156 -2.419143 8.407988 18.572946 -0.146601 1.101004 0.038621 -0.014663 609119.000000 1 0 0
16.045856 -2.548043 3.023188 16.525789 -0.157483 1.386823 0.025758 -0.009456 2203440.000000 1 0 0
7.882356 -15.212143 2.747988 17.352011 -1.092725 1.411760 0.017641 -0.007754 2620270.000000 1 0 0
16.586456 -6.810343 7.766888 19.540109 -0.389608 1.162023 0.041606 -0.013713 -845586.000000 1 0 0
10.297856 -8.547343 5.180188 14.350515 -0.692775 1.201482 0.009288 -0.006801 -12026.500000 1 0 0
11.044656 -11.834343 2.232088 16.340696 -0.819900 1.433771 0.021490 -0.001721 783791.000000 1 0 0
12.404456 -7.218743 12.045388 18.736920 -0.527040 0.872558 0.010040 -0.004694 734697.000000 1 0 0
15.259156 -9.714443 4.255488 18.582826 -0.566919 1.339745 0.045038 -0.011796 288515.000000 1 0 0
7.282556 -10.196243 7.829588 14.775028 -0.950578 1.012290 0.007478 -0.000334 -410797.000000 1 0 0
15.226256 -3.309743 -4.372412 16.183673 -0.214041 1.844370 0.027758 -0.005647 1177100.000000 1 0 0
11.770556 -8.894343 9.764888 17.692043 -0.647103 0.986111 0.010739 -0.004017 -600871.000000 1 0 0
16.947956 -6.563743 2.306488 18.320367 -0.369500 1.444564 0.044579 -0.012958 98737.800000 1 0 0
17.462056 4.000057 2.038388 18.029944 0.225186 1.457498 0.020835 -0.002341 -182833.000000 1 0 0
14.659256 -4.781743 8.682688 17.695987 -0.315310 1.057951 0.028676 -0.012296 894408.000000 1 0 0
12.896956 -12.495043 6.117588 18.970569 -0.769571 1.242450 0.033770 -0.003948 966140.000000 1 0 0
18.188656 0.767757 -0.882112 18.226211 0.042186 1.619213 0.029811 -0.007631 860067.000000 1 0 0
11.664956 -2.068543 10.909488 16.104875 -0.175505 0.826570 0.005323 -0.009368 332404.000000 1 0 0
5.764756 -12.398943 10.566188 17.280352 -1.135589 0.912896 0.005949 -0.003615 -2307910.000000 1 0 0
10.837156 -4.974243 10.998988 16.222355 -0.430312 0.825739 0.005729 -0.005399 559268.000000 1 0 0
17.752856 1.436157 5.099588 18.526528 0.080721 1.291938 0.033123 -0.005239 -816346.000000 1 0 0
12.236056 -7.647543 7.112288 16.086971 -0.558600 1.112841 0.021048 -0.010565 -1469490.000000 1 0 0
10.669056 -7.732643 14.386588 19.508882 -0.627159 0.741527 0.012630 -0.003490 -510621.000000 1 0 0
14.123656 -0.287943 3.674988 14.596784 -0.020384 1.316291 0.008076 -0.005133 2051440.000000 1 0 0
11.640556 -7.761443 2.580788 14.226842 -0.588066 1.388384 0.010765 -0.005942 1540130.000000 1 0 0
9.266556 6.073957 3.516888 11.624565 0.580211 1.263441 -0.004122 -0.000226 774154.000000 1 0 0
-3.864444 14.713357 -9.965212 18.185770 -1.313949 2.150729 -0.004459 -0.000044 177111.000000 1 0 0
8.834156 -6.316343 9.182488 14.221695 -0.620716 0.868899 -0.002850 -0.005975 -1562250.000000 1 0 0
5.785856 -10.567643 -8.489212 14.738315 -1.069869 2.184618 0.000120 -0.002527 -1237540.000000 1 0 0
5.367656 0.976457 0.509788 5.479515 0.179947 1.477626 -0.000796 -0.000066 2689570.000000 1 0 0
-0.553744 9.981157 10.944188 14.822462 -1.515374 0.740173 -0.002460 0.002923 -641833.000000 1 0 0
-6.289744 -5.276943 1.044788 8.276388 0.698059 1.444221 0.004105 -0.002307 2173370.000000 1 0 0
-0.954444 3.941457 -10.857112 11.589776 -1.333215 2.784118 0.008942 -0.005778 946504.000000 1 0 0
10.847456 5.769057 1.213288 12.345906 0.488790 1.472363 -0.001401 -0.000277 1517260.000000 1 0 0
-10.002144 -1.792343 -13.530912 16.921612 0.177314 2.497464 0.020819 -0.009206 1072080.000000 1 0 0
7.438256 10.852557 -6.097712 14.501301 0.969942 2.004786 -0.000147 -0.006227 -450208.000000 1 0 0
-12.465744 -2.941743 -9.537712 15.969238 0.231746 2.210871 0.016955 -0.006086 68785.200000 1 0 0
-3.879044 -8.707543 2.445788 9.841249 1.151707 1.319640 0.002195 -0.001788 -2126270.000000 1 0 0
8.026356 -6.679143 -5.869212 11.978355 -0.694040 2.082869 0.001824 -0.006009 1738820.000000 1 0 0
14.273256 3.191857 -4.259312 15.233369 0.220005 1.854178 0.010508 0.001473 1133350.000000 1 0 0
-2.580144 -4.900043 9.792088 11.249558 1.086131 0.514697 0.003915 -0.002128 2015500.000000 1 0 0
3.495456 -1.972743 -4.513012 6.039636 -0.513812 2.414684 -0.001818 -0.002553 -2309490.000000 1 0 0
-3.985544 8.368157 -3.508912 9.910755 -1.126308 1.932695 0.001238 -0.007130 -1144890.000000 1 0 0
5.853756 0.046357 11.688588 13.072556 0.007919 0.464308 -0.003372 -0.006423 2901410.000000 1 0 0
7.190456 4.690457 12.481988 15.149359 0.578002 0.602488 0.005806 -0.005972 79369.400000 1 0 0
1.211156 -14.384843 12.637088 19.185584 -1.486798 0.851738 0.004783 -0.006925 -305412.000000 1 0 0
2.992356 8.608857 -9.130512 12.900886 1.236270 2.357095 0.004246 -0.004949 -188411.000000 1 0 0
-4.409444 -8.861643 -4.596112 10.913119 1.109081 2.005514 0.004926 -0.003136 1629800.000000 1 0 0
5.709756 -6.661243 -4.013612 9.647930 -0.862160 1.999847 -0.001360 -0.004931 3051090.000000 1 0 0
-3.144644 3.421857 8.634388 9.805639 -0.827589 0.493768 -0.000150 -0.000686 1720460.000000 1 0 0
-3.739144 3.173057 -11.091012 12.126831 -0.703684 2.725276 0.003512 -0.006792 71510.000000 1 0 0
3.048356 -6.071043 8.579888 10.943698 -1.105459 0.669708 0.002634 -0.001876 1012300.000000 1 0 0
-5.153544 -8.639843 10.477888 14.525566 1.032965 0.765059 0.003972 -0.006316 1765200.000000 1 0 0
-13.230544 -2.500343 6.492588 14.948335 0.186780 1.121496 0.011439 -0.006313 1331150.000000 1 0 0
4.000156 -5.914043 -8.267012 10.923399 -0.976097 2.429226 0.000526 -0.001113 2191480.000000 1 0 0
2.942556 -0.492643 12.326288 12.682221 -0.165882 0.237477 -0.001327 -0.002303 964812.000000 1 0 0
1.466656 -1.480043 -7.449912 7.735812 -0.789941 2.868873 0.000978 -0.003633 -232126.000000 1 0 0
3.599756 -3.579843 3.390888 6.105051 -0.782625 0.981924 -0.000670 -0.001195 1917890.000000 1 0 0
1.601656 0.432057 -11.778312 11.894562 0.263484 3.001669 0.004459 -0.004759 -935952.000000 1 0 0
4.089356 3.565357 -10.586212 11.895481 0.717050 2.668000 -0.002988 -0.002412 1227210.000000 1 0 0
2.845056 3.245157 3.341088 5.457862 0.851000 0.912006 -0.010460 0.001871 -645488.000000 1 0 0
-5.308744 0.841357 2.607588 5.974124 -0.157178 1.119113 0.002751 -0.005417 1284540.000000 1 0 0
-9.476244 -9.307143 5.745088 14.471633 0.776396 1.162562 0.004724 -0.006080 -1370330.000000 1 0 0
-3.010844 3.828857 -0.588412 4.906277 -0.904431 1.691016 0.000725 -0.007131 249867.000000 1 0 0
-15.820044 -6.564443 5.045088 17.855493 0.393323 1.284344 0.026940 -0.012833 207060.000000 1 0 0
1.009956 6.640957 -8.043912 10.479830 1.419873 2.445824 0.003765 -0.005185 582300.000000 1 0 0
-1.613844 6.497757 -9.444212 11.576634 -1.327353 2.524906 0.004991 -0.005472 67754.100000 1 0 0
2.055556 -0.341843 5.224288 5.624532 -0.164794 0.379528 -0.002941 -0.000106 1262340.000000 1 0 0
-3.430344 -0.603443 -6.301512 7.200031 0.174132 2.636658 0.006635 -0.008670 175864.000000 1 0 0
1.850356 -1.176243 -2.464712 3.298813 -0.566246 2.414562 0.001861 -0.001150 90099.500000 1 0 0
2.467256 -8.602943 -7.615912 11.751600 -1.291500 2.275850 -0.004519 0.001565 1790140.000000 1 0 0
-2.367944 13.954357 -5.624912 15.230589 -1.402705 1.949070 -0.003188 0.000163 1047040.000000 1 0 0
6.954456 -5.192043 -8.232112 11.962000 -0.641307 2.329786 0.000509 -0.002672 4192500.000000 1 0 0
-14.200244 -5.101543 -2.137412 15.239462 0.344898 1.711515 0.008078 -0.005779 908386.000000 1 0 0
-2.636644 6.877357 -6.759812 9.997248 -1.204699 2.313344 0.005474 -0.007278 -2554180.000000 1 0 0
-5.671544 -1.099743 -8.081712 9.934279 0.191529 2.520972 0.013344 -0.010338 976182.000000 1 0 0
-5.696944 -10.578943 3.565788 12.533318 1.076812 1.282307 -0.000892 -0.002756 -3890440.000000 1 0 0
8.138056 -7.478943 6.633388 12.890477 -0.743218 1.030260 0.004194 -0.005422 686694.000000 1 0 0
8.825356 -5.874643 13.091388 16.845854 -0.587302 0.680707 0.000152 0.000704 1060900.000000 1 0 0
-4.685944 9.482157 -0.759712 10.604081 -1.111811 1.642501 -0.000585 -0.003176 1621130.000000 1 0 0
2.794756 6.628357 12.107988 14.083649 1.171778 0.536076 0.001436 -0.002374 2197830.000000 1 0 0
6.081756 -2.791343 10.899488 12.789769 -0.430288 0.550614 -0.003007 -0.004943 735897.000000 1 0 0
-9.646344 -6.604143 -1.000812 11.733213 0.600334 1.656197 0.004948 -0.004319 142692.000000 1 0 0
0.860256 -13.276143 6.289788 14.715892 -1.506090 1.129165 0.008704 -0.004279 381247.000000 1 0 0
-0.477444 -3.198843 8.712088 9.293064 1.422635 0.355470 0.002665 -0.004100 19974.600000 1 0 0
4.222156 0.735957 3.388388 5.463461 0.172574 0.901810 -0.004812 0.002234 1462150.000000 1 0 0
-10.171044 5.579557 8.224788 14.220715 -0.501747 0.954071 -0.001989 -0.005893 1250260.000000 1 0 0
9.304956 7.907057 -0.043312 12.210881 0.704360 1.574343 -0.003325 0.002309 -910662.000000 1 0 0
4.287656 2.893057 8.186088 9.683275 0.593572 0.563512 -0.006452 -0.000342 3664640.000000 1 0 0
1.339356 2.644257 -9.722512 10.164310 1.101950 2.845673 0.004421 -0.006402 2920640.000000 1 0 0
-1.422244 -10.230743 3.082288 10.779211 1.432665 1.280801 0.003174 -0.002037 -2231750.000000 1 0 0
-9.946844 9.537957 9.018488 16.469531 -0.764416 0.991320 0.003254 -0.008727 1874320.000000 1 0 0
9.827556 -1.989743 -7.707112 12.646719 -0.199765 2.226120 0.011584 -0.004068 217572.000000 1 0 0
-5.172944 -1.799443 6.675688 8.634938 0.334764 0.687079 0.000760 -0.004170 1232280.000000 1 0 0
3.155856 -7.927643 -4.848512 9.814022 -1.191944 2.087526 -0.003694 -0.003152 1561720.000000 1 0 0
-5.098044 4.916057 -13.078612 14.873054 -0.767227 2.645291 -0.001652 -0.008107 2731450.000000 1 0 0
-5.672644 9.658857 5.297588 12.390998 -1.039768 1.129032 0.000551 0.000488 796018.000000 1 0 0
-0.467144 -1.772143 -9.283212 9.462385 1.313056 2.946680 0.004454 -0.005750 510779.000000 1 0 0
-16.756844 0.235457 6.388888 17.935026 -0.014050 1.206573 0.028865 -0.014574 -605735.000000 1 0 0
-5.968644 -2.911743 4.087288 7.798005 0.453872 1.019085 -0.002018 -0.002721 2210760.000000 1 0 0
1.014156 -5.775343 -5.074512 7.754597 -1.396968 2.284169 0.000848 -0.004076 1680080.000000 1 0 0
-6.936644 1.438357 -8.461212 11.035307 -0.204459 2.444544 0.009830 -0.005098 -243877.000000 1 0 0
7.994456 1.988257 4.751088 9.509855 0.243759 1.047664 -0.007145 0.000594 751990.000000 1 0 0
0.461456 -8.096043 -0.475112 8.123090 -1.513860 1.629319 -0.001012 -0.002273 636553.000000 1 0 0
5.457556 5.575557 -3.354612 8.492654 0.796093 1.976866 -0.006828 -0.000641 -1536420.000000 1 0 0
-0.765544 -0.326243 -1.231512 1.486309 0.402852 2.547346 0.000399 -0.003493 530008.000000 1 0 0
9.058256 6.346457 -6.291812 12.724638 0.611146 2.088009 0.000555 -0.001586 1327840.000000 1 0 0
-14.984744 -7.116643 2.470288 16.771747 0.443388 1.422970 0.006543 -0.010045 1337340.000000 1 0 0
-6.493944 6.886757 8.846388 12.955976 -0.814746 0.819203 -0.001389 0.000209 885760.000000 1 0 0
-9.457744 -3.215143 -9.564112 13.829617 0.327692 2.334453 0.016116 -0.006010 2327200.000000 1 0 0
14.917856 3.414157 -1.267112 15.355926 0.224989 1.653406 0.008616 -0.000376 1440560.000000 1 0 0
12.037656 1.595857 -5.756112 13.438182 0.131803 2.013451 0.005366 -0.000278 -262245.000000 1 0 0
1.667156 -9.361243 12.808688 15.952266 -1.394553 0.638587 -0.000429 -0.002881 1828890.000000 1 0 0
-3.617644 6.313457 7.839788 10.696231 -1.050462 0.748150 -0.001402 0.001287 2175660.000000 1 0 0
-4.044344 13.112757 -12.368012 18.473462 -1.271625 2.304334 -0.006098 -0.000823 2033430.000000 1 0 0
-10.245144 7.742257 6.469288 14.379054 -0.647139 1.104131 -0.004028 -0.005181 257447.000000 1 0 0
8.042356 -9.342043 -7.054312 14.202696 -0.860021 2.090575 0.008454 -0.003907 -182862.000000 1 0 0
5.812456 -3.897243 -0.323712 7.005565 -0.590651 1.617021 0.000630 -0.002650 -2299780.000000 1 0 0
-1.691844 -4.465543 4.179788 6.346184 1.208640 0.851799 -0.000120 -0.000208 635295.000000 1 0 0
9.874756 -2.072643 -2.646812 10.431312 -0.206890 1.827338 0.003201 -0.003611 -2345190.000000 1 0 0
13.435656 7.092757 1.507288 15.267481 0.485722 1.471910 -0.000018 0.002849 -779961.000000 1 0 0
5.376756 -3.748343 -3.244012 7.313221 -0.608803 2.030388 0.001381 -0.004888 -2999420.000000 1 0 0
-12.274044 -5.977543 1.895588 13.783194 0.453199 1.432830 0.001851 -0.003747 2695870.000000 1 0 0
3.676856 -5.814543 -0.275212 6.885051 -1.006925 1.610779 0.001850 -0.002190 -72457.000000 1 0 0
-5.142544 3.769757 -8.693912 10.781508 -0.632566 2.508789 0.006818 -0.008377 1534740.000000 1 0 0
-1.690144 -9.208143 7.285388 11.862688 1.389268 0.909497 0.004372 -0.003104 1692220.000000 1 0 0
-7.438444 -7.525843 2.535288 10.881014 0.791239 1.335634 0.003714 -0.003067 -3431020.000000 1 0 0
-5.685744 13.040057 -8.485812 16.564412 -1.159628 2.108647 0.000218 -0.003531 1137860.000000 1 0 0
9.185356 -13.951143 -4.163712 17.214577 -0.988542 1.815090 0.020148 0.000169 808735.000000 1 0 0
-6.518444 -5.227043 -6.769412 10.753466 0.675889 2.251718 0.011973 -0.005371 1668330.000000 1 0 0
3.437156 0.358557 -6.151512 7.055756 0.103942 2.629749 -0.000685 -0.005568 -240507.000000 1 0 0
-3.562744 5.632457 4.967088 8.312020 -1.006795 0.930318 0.000171 0.000265 2282930.000000 1 0 0
-2.648944 -10.774343 -2.872012 11.460883 1.329721 1.824089 0.003417 0.001088 1623720.000000 1 0 0
-12.540244 -0.508443 1.618888 12.654526 0.040523 1.442515 0.005647 -0.004159 863950.000000 1 0 0
8.322856 -12.033443 -5.989012 15.809553 -0.965701 1.959320 0.013935 -0.006690 -767410.000000 1 0 0
6.109556 3.932357 0.995688 7.333587 0.571891 1.434605 -0.005311 0.001519 -1550420.000000 1 0 0
3.412456 -4.837243 -10.912612 12.414865 -0.956419 2.644548 -0.000487 0.001257 1020630.000000 1 0 0
-7.616044 4.267357 8.584088 12.243408 -0.510725 0.793830 -0.002765 -0.000179 900180.000000 1 0 0
8.157056 8.778657 4.090588 12.662357 0.822085 1.241845 -0.003384 0.000710 2536400.000000 1 0 0
0.278656 10.523657 -6.327112 12.282399 1.544323 2.111963 0.001212 -0.001771 1884840.000000 1 0 0
5.380356 8.112557 3.252588 10.263583 0.985188 1.248331 -0.007163 0.000898 2206090.000000 1 0 0
8.053256 6.669157 -3.741512 11.105471 0.691661 1.914426 -0.002822 -0.000279 1301370.000000 1 0 0
10.452156 2.422957 -8.197812 13.502681 0.227791 2.223233 0.004698 -0.001300 1212500.000000 1 0 0
3.267756 -12.574943 -0.238312 12.994777 -1.316557 1.589136 0.001464 -0.003462 -257641.000000 1 0 0
0.666356 2.119257 5.274888 5.723611 1.266155 0.398610 -0.003628 0.000290 1439170.000000 1 0 0
-4.813244 13.400657 1.384888 14.306042 -1.225967 1.473840 -0.004574 0.001937 142315.000000 1 0 0
8.154956 4.032257 -8.030412 12.134657 0.459202 2.293980 -0.003180 0.000955 1599000.000000 1 0 0
-13.873944 -0.674343 -3.579112 14.344027 0.048567 1.822980 0.008858 -0.001843 -56457.000000 1 0 0
-8.607044 0.024657 -0.465912 8.619680 -0.002865 1.624875 0.001993 -0.003529 -56301.800000 1 0 0
1.759256 -3.861043 -1.147712 4.395439 -1.143260 1.834973 0.001978 -0.002705 -1814240.000000 1 0 0
8.117856 -5.620343 -0.270012 9.877285 -0.605569 1.598136 0.002777 -0.005110 2762720.000000 1 0 0
-2.243744 -1.174043 7.369688 7.792629 0.482076 0.330976 0.001507 -0.003916 1099550.000000 1 0 0
-5.802644 8.893857 -11.670412 15.778779 -0.992713 2.403312 -0.001946 -0.002332 -1536740.000000 1 0 0
-6.231744 9.147357 -8.797912 14.139024 -0.972757 2.242401 -0.004779 -0.001467 -259388.000000 1 0 0
-1.485744 13.923257 -8.389212 16.323093 -1.464489 2.110576 0.007256 -0.001761 47261.600000 1 0 0
-1.521844 7.265357 9.725788 12.234884 -1.364316 0.651916 -0.001796 0.001229 213657.000000 1 0 0
10.025456 2.296557 -4.001312 11.036052 0.225187 1.941818 0.001370 -0.001182 -1181170.000000 1 0 0
-2.993344 -7.474443 -6.954612 10.639269 1.189879 2.283225 0.005217 -0.003370 1353190.000000 1 0 0
-5.501744 -4.957143 -1.668412 7.591183 0.733375 1.792388 0.005478 -0.000964 -1060080.000000 1 0 0
5.696256 7.348057 -8.867912 12.848390 0.911358 2.332557 -0.000294 -0.002580 -530886.000000 1 0 0
-9.499344 5.229757 -7.436912 13.148975 -0.503257 2.171943 0.006849 -0.004074 1237330.000000 1 0 0
-0.417044 6.126257 -5.327812 8.129608 -1.502826 2.285454 0.002375 -0.006030 -1358430.000000 1 0 0
-8.210644 2.813657 -6.317612 10.735155 -0.330142 2.199995 0.008992 -0.004057 1032090.000000 1 0 0
3.637856 1.377457 -2.047312 4.395778 0.361963 2.055273 -0.004404 -0.002020 2691480.000000 1 0 0
-6.634844 12.397957 -3.532512 14.498590 -1.079421 1.816919 0.002492 -0.000556 1383100.000000 1 0 0
-6.555244 3.104157 -2.330912 7.618409 -0.442255 1.881741 0.004300 -0.004611 -1754920.000000 1 0 0
12.094756 3.977157 -0.769912 12.755143 0.317695 1.631194 -0.001129 -0.000778 528724.000000 1 0 0
2.364556 12.331057 -5.556212 13.730170 1.381340 1.987416 0.006281 -0.006937 372149.000000 1 0 0
-9.160644 -1.447543 -4.265912 10.208368 0.156722 2.001911 0.009761 -0.002202 -461493.000000 1 0 0
-1.026844 5.741157 3.477988 6.790559 -1.393811 1.033075 -0.003586 -0.001305 438072.000000 1 0 0
11.551856 2.581257 12.020888 16.870389 0.219838 0.777679 0.008188 -0.007363 553329.000000 1 0 0
-7.001244 -2.373943 -5.775612 9.381403 0.326909 2.234000 0.014461 -0.006304 -349034.000000 1 0 0
7.487156 -7.237343 10.828588 15.023148 -0.768434 0.765850 0.000852 -0.000684 -1103340.000000 1 0 0
-5.431644 -1.926343 -10.904312 12.333595 0.340813 2.655392 0.009075 -0.003264 -559295.000000 1 0 0
0.745956 -6.160843 4.464388 7.644816 -1.450303 0.947178 -0.001203 -0.001450 521854.000000 1 0 0
-4.800844 -9.329243 7.455488 12.871177 1.095536 0.953001 -0.001614 -0.002647 3208510.000000 1 0 0
-8.736144 9.320657 1.555488 12.869126 -0.817758 1.449630 0.002552 -0.003952 1469550.000000 1 0 0
-8.150144 7.255357 -9.112112 14.216034 -0.727381 2.266563 0.005185 -0.002458 -776456.000000 1 0 0
-1.280944 -10.630343 -0.064412 10.707435 1.450876 1.576812 0.002086 -0.001674 44376.000000 1 0 0
-4.043044 10.299557 7.684088 13.471165 -1.196733 0.963791 0.000586 0.001005 2566740.000000 1 0 0
-7.408944 12.003857 1.912688 14.235287 -1.017816 1.436026 -0.000594 -0.003071 1818860.000000 1 0 0
-8.127044 -8.255443 -2.776812 11.912677 0.793236 1.806058 0.010891 -0.004303 892479.000000 1 0 0
5.450956 4.657457 -7.972412 10.722135 0.707060 2.409156 -0.003388 0.000023 -1631200.000000 1 0 0
-8.936244 -0.182543 -10.082112 13.473632 0.020424 2.416269 0.019257 -0.008040 -784938.000000 1 0 0
-15.235444 -2.380843 -1.491312 15.492294 0.155016 1.667207 0.011209 -0.006315 -445413.000000 1 0 0
-7.208344 -5.659843 8.787188 12.696800 0.665638 0.806431 0.004865 -0.002973 -1867320.000000 1 0 0
8.117256 3.396957 -0.943212 8.849791 0.396340 1.677579 -0.004075 0.001511 904131.000000 1 0 0
11.853556 7.258957 -5.840712 15.076908 0.549477 1.968600 -0.000592 -0.001852 868778.000000 1 0 0
3.813656 13.354557 -9.523112 16.839769 1.292630 2.171852 0.009004 -0.011057 1913020.000000 1 0 0
-9.740444 5.401057 -0.519512 11.149778 -0.506290 1.617407 0.001555 -0.004084 950717.000000 1 0 0
11.268956 -1.312243 -5.166412 12.466081 -0.115926 1.998121 0.012782 -0.004654 -1505770.000000 1 0 0
10.539156 1.716557 -1.254512 10.751473 0.161456 1.687745 0.000926 -0.000616 -1329710.000000 1 0 0
14.535856 5.046757 4.825988 16.126098 0.334173 1.266873 0.008495 -0.005999 2593600.000000 1 0 0
0.825756 -0.763943 10.294688 10.355969 -0.746535 0.108842 0.002783 -0.002787 2144870.000000 1 0 0
-7.906944 1.405057 -12.435912 14.803575 -0.175863 2.568193 0.009311 -0.004986 -1037480.000000 1 0 0
3.065756 -11.568543 -7.893412 14.336527 -1.311743 2.153856 -0.006098 0.001869 158948.000000 1 0 0
2.899156 5.016357 -6.652612 8.821915 1.046755 2.425080 -0.003029 -0.002471 -1970330.000000 1 0 0
6.478156 7.958557 0.582988 10.278376 0.887585 1.514046 -0.007635 -0.001295 49927.200000 1 0 0
-9.080044 -5.404543 6.720688 12.522937 0.536891 1.004310 0.000166 -0.002207 -2129390.000000 1 0 0
-0.321844 -6.922543 -11.824612 13.705715 1.524338 2.611481 -0.000689 0.002860 1702870.000000 1 0 0
6.342756 -13.481943 -4.594612 15.591787 -1.131056 1.869919 0.005636 -0.002358 3013560.000000 1 0 0
-3.235944 -0.288043 10.017888 10.531495 0.088780 0.313593 0.001260 -0.001728 230737.000000 1 0 0
8.583056 8.531557 6.996988 13.979061 0.782389 1.046581 -0.002887 0.000462 -1679710.000000 1 0 0
-7.910644 5.602357 -2.652612 10.049927 -0.616211 1.837905 0.006043 -0.007547 46538.000000 1 0 0
-5.374944 5.803757 -6.464912 10.216100 -0.823739 2.255981 0.005159 -0.006765 -333938.000000 1 0 0
3.363556 -13.746643 2.599888 14.388994 -1.330829 1.389113 0.011338 -0.007551 -1454570.000000 1 0 0
-11.259944 -7.070243 6.485188 14.792983 0.560690 1.116983 0.008184 -0.007616 -1686680.000000 1 0 0
-12.978244 -3.796343 -6.705612 15.093451 0.284577 2.031159 0.019999 -0.004721 -531053.000000 1 0 0
6.015256 0.315257 -7.294912 9.460361 0.052362 2.451368 0.000948 -0.000738 408258.000000 1 0 0
-1.452344 2.191757 -2.492812 3.623149 -0.985587 2.329558 0.000854 -0.005552 2282240.000000 1 0 0
7.485356 0.949257 -4.948412 9.023216 0.126142 2.151257 -0.000137 -0.000361 -254202.000000 1 0 0
3.759756 -4.434543 10.858388 12.316880 -0.867561 0.491585 -0.000611 -0.002188 -169494.000000 1 0 0
5.977056 -2.594443 2.084588 6.841187 -0.409525 1.261161 0.000719 -0.001784 -495342.000000 1 0 0
-6.308644 7.663957 1.111888 9.988569 -0.882094 1.459249 0.000581 -0.003388 1615480.000000 1 0 0
6.060156 -3.424143 7.912688 10.538543 -0.514306 0.721474 -0.000760 -0.008257 1164170.000000 1 0 0
6.833356 -2.271343 -7.809612 10.622796 -0.320902 2.396721 0.001620 -0.003469 553058.000000 1 0 0
12.043256 -8.102543 -5.848712 15.649238 -0.592228 1.953832 0.027315 -0.011402 -442224.000000 1 0 0
5.611456 -9.528143 10.054488 14.945457 -1.038553 0.832883 0.000929 0.002161 2272940.000000 1 0 0
-6.613744 7.568457 -4.489912 11.008290 -0.852614 1.990912 0.004166 -0.007270 975539.000000 1 0 0
-1.270744 -7.517643 9.807588 12.422502 1.403344 0.660799 0.002796 -0.004197 -394397.000000 1 0 0
10.012956 -9.362343 0.811388 13.732120 -0.751831 1.511675 0.005650 -0.003942 209336.000000 1 0 0
11.062556 6.115857 9.804688 15.997367 0.505023 0.911079 0.002818 -0.003706 2047850.000000 1 0 0
-15.360244 -4.298243 -4.946712 16.699759 0.272850 1.871523 0.014108 -0.006228 1866610.000000 1 0 0
-4.755644 -4.606543 7.777788 10.214225 0.769474 0.705224 0.003668 -0.003029 -1585300.000000 1 0 0
3.052656 10.915057 -11.031712 15.816315 1.298090 2.342684 0.009125 -0.005751 -643106.000000 1 0 0
9.947456 -1.432943 1.479788 10.158493 -0.143067 1.424606 0.001209 -0.002653 740866.000000 1 0 0
-1.592744 -2.685543 0.671588 3.193745 1.035480 1.358933 -0.001515 -0.002996 -29899.200000 1 0 0
1.629556 2.960857 0.830988 3.480326 1.067672 1.329700 -0.010652 -0.000149 -303504.000000 1 0 0
-8.999244 -2.339043 4.257588 10.226660 0.254289 1.141399 -0.000452 -0.004373 3916160.000000 1 0 0
9.937756 4.840057 -2.688712 11.376041 0.453224 1.809403 -0.001793 0.001668 456736.000000 1 0 0
2.508356 8.431957 2.453588 9.132899 1.281651 1.298801 -0.008868 -0.001333 1233770.000000 1 0 0
-8.110344 -0.060643 2.486488 8.483159 0.007477 1.273319 -0.000648 -0.004859 1490360.000000 1 0 0
6.898956 2.045157 13.709688 15.483340 0.288192 0.483340 -0.003471 -0.004514 -1432650.000000 1 0 0
6.773556 4.390457 3.778388 8.912541 0.575092 1.133004 -0.007608 0.000946 423809.000000 1 0 0
-0.328044 3.315157 7.750388 8.436018 -1.472165 0.405954 -0.000868 -0.001719 -302160.000000 1 0 0
2.725856 -10.100243 9.287388 13.989310 -1.307196 0.844785 0.004268 -0.002460 948815.000000 1 0 0
1.326056 -4.538043 6.903488 8.367223 -1.286503 0.600482 -0.000686 -0.002945 -775097.000000 1 0 0
-0.117344 10.760557 -2.040212 10.952890 -1.559892 1.758162 -0.000041 -0.005711 813605.000000 1 0 0
8.764556 5.538657 7.994488 13.092212 0.563573 0.913941 -0.003515 -0.001161 -943551.000000 1 0 0
2.615756 11.415957 -2.935212 12.074010 1.345553 1.816358 0.001462 -0.007564 2168960.000000 1 0 0
1.505856 2.463057 -6.696412 7.292200 1.022053 2.734556 -0.001034 -0.005799 1344140.000000 1 0 0
-13.563344 -2.230843 3.565288 14.200431 0.163016 1.317012 0.006240 -0.005084 794467.000000 1 0 0
-0.930444 -10.661543 -5.307612 11.945919 1.483746 2.031193 0.001058 0.000654 -521142.000000 1 0 0
-5.649344 2.825257 0.439588 6.331698 -0.463730 1.501314 0.005767 -0.005824 1062530.000000 1 0 0
3.787256 7.291957 -4.997112 9.617019 1.091770 2.117192 -0.003710 -0.003624 -3719300.000000 1 0 0
2.981156 9.695457 -6.525212 12.060993 1.272492 2.142443 0.003116 -0.005195 1733000.000000 1 0 0
-12.123744 1.644057 -2.597412 12.507383 -0.134784 1.779989 0.007143 -0.002795 508402.000000 1 0 0
-2.479744 9.639957 -5.734212 11.487344 -1.319019 2.093444 0.001752 -0.003223 394998.000000 1 0 0
-1.294744 3.306057 1.717188 3.943996 -1.197528 1.120322 -0.004976 -0.002313 414248.000000 1 0 0
12.835356 3.823857 9.631588 16.496537 0.289544 0.947327 0.006574 -0.006987 1345290.000000 1 0 0
-2.550744 -9.511643 11.603488 15.219021 1.308790 0.703731 0.000397 -0.010128 2396890.000000 1 0 0
-0.459244 -8.898043 -7.540312 11.672291 1.519230 2.273130 0.003651 -0.001402 1400140.000000 1 0 0
2.384456 7.673657 -0.450012 8.048177 1.269522 1.626740 -0.008178 -0.001567 2399720.000000 1 0 0
-11.852844 -1.367743 -5.515212 13.144512 0.114886 2.003782 0.010230 0.001163 -277994.000000 1 0 0
-6.204044 -7.175943 -11.017312 14.538414 0.857909 2.430742 0.009633 0.001651 503080.000000 1 0 0
-4.610944 -2.290543 -1.420312 5.340850 0.461054 1.839969 0.003255 -0.003051 -1738360.000000 1 0 0
-10.483044 3.651357 4.504988 11.980047 -0.335169 1.185276 0.000064 -0.007557 3170980.000000 1 0 0
6.843156 9.385857 -3.620412 12.166777 0.940811 1.872938 -0.002177 -0.000795 687557.000000 1 0 0
1.272156 -2.684343 -11.441312 11.820647 -1.128232 2.887569 0.004580 -0.002996 -1021090.000000 1 0 0
1.241056 8.761057 7.558388 11.637249 1.430077 0.863870 -0.005709 0.004050 335044.000000 1 0 0
10.375656 0.430757 10.381588 14.683908 0.041492 0.785543 0.001099 -0.009265 -133894.000000 1 0 0
-5.315244 -0.790443 -3.891012 6.634500 0.147631 2.197504 0.005872 -0.004759 -127960.000000 1 0 0
11.663256 5.693057 5.418788 14.064342 0.454098 1.175279 -0.003622 -0.002103 2697460.000000 1 0 0
9.851356 -3.473943 3.623088 11.056413 -0.339021 1.236938 0.008351 -0.008012 -3414550.000000 1 0 0
7.347556 -1.746143 -3.478212 8.314659 -0.233321 2.002394 0.000854 -0.001329 -4330460.000000 1 0 0
2.360456 9.227257 10.428688 14.123440 1.320354 0.740108 -0.002744 0.002100 2860700.000000 1 0 0
2.460156 -10.784943 6.386388 12.773149 -1.346523 1.047214 0.000095 0.000167 2250360.000000 1 0 0
5.890656 -7.616943 -1.229812 9.707219 -0.912510 1.697828 0.000754 -0.005358 3188130.000000 1 0 0
-0.227944 -5.717743 -2.342312 6.183120 1.530951 1.959321 0.000442 -0.002611 509785.000000 1 0 0
7.786256 -5.111043 2.641988 9.681356 -0.580874 1.294396 0.003733 -0.006237 1823360.000000 1 0 0
-2.695444 -12.473643 4.747088 13.615875 1.357977 1.214673 0.005746 -0.003165 -1322150.000000 1 0 0
4.895056 -10.355643 -1.077412 11.504857 -1.129231 1.664582 0.003070 -0.004967 1181940.000000 1 0 0
0.981456 0.129757 1.102888 1.482044 0.131446 0.731510 -0.008472 0.000900 -2169210.000000 1 0 0
-1.550844 8.494057 2.368788 8.953506 -1.390206 1.303043 -0.002652 0.000312 705041.000000 1 0 0
-7.530144 0.640557 -2.974412 8.121607 -0.084861 1.945755 0.004323 -0.002674 -1089580.000000 1 0 0
4.451156 -6.335743 12.907388 15.051748 -0.958363 0.540339 0.004449 -0.001578 -948345.000000 1 0 0
-5.118444 13.029057 8.318588 16.283541 -1.196470 1.034613 0.005736 -0.008628 2044220.000000 1 0 0
0.641356 6.108257 8.281788 10.310682 1.466181 0.638108 -0.001548 0.003232 -345406.000000 1 0 0
7.932756 -0.563143 -0.776612 7.990549 -0.070871 1.668141 0.000133 -0.002356 3472850.000000 1 0 0
2.404756 -9.281443 -2.364312 9.875121 -1.317278 1.812566 -0.002580 -0.003531 878149.000000 1 0 0
-7.125044 12.147757 4.765288 14.867488 -1.040339 1.244521 -0.002355 -0.006233 -516608.000000 1 0 0
-15.009644 0.213957 0.179988 15.012248 -0.014254 1.558807 0.014993 -0.008755 768555.000000 1 0 0
6.833156 -0.552443 3.938188 7.906108 -0.080672 1.049367 -0.001956 0.000274 1717730.000000 1 0 0
-4.242344 -5.061543 5.084288 8.334668 0.873221 0.914714 0.001087 -0.002762 634065.000000 1 0 0
2.912156 5.059857 6.866288 9.012698 1.048555 0.704638 -0.006942 0.001381 447729.000000 1 0 0
2.045356 -7.203643 1.835388 7.710033 -1.294144 1.330437 0.000275 -0.002521 2018850.000000 1 0 0
-2.428744 6.431657 -1.741012 7.091976 -1.209728 1.818822 -0.000276 -0.004942 416590.000000 1 0 0
2.714556 -3.786243 -6.446312 7.953577 -0.948783 2.515788 -0.002185 -0.003335 -699461.000000 1 0 0
-5.067844 0.903557 -12.121412 13.169209 -0.176438 2.739990 0.004612 -0.002581 686463.000000 1 0 0
-7.410144 6.373757 -11.794412 15.318066 -0.710351 2.449586 0.004225 -0.007749 1575620.000000 1 0 0
-1.048344 11.128657 -8.994412 14.347315 -1.476871 2.248371 0.004214 -0.000164 507106.000000 1 0 0
4.614856 5.908257 -0.605712 7.521388 0.907695 1.651416 -0.008997 -0.001364 -1062980.000000 1 0 0
-2.627244 13.402857 3.457488 14.088761 -1.377229 1.322856 -0.003133 0.002791 735564.000000 1 0 0
1.425856 -7.842943 10.285088 13.012604 -1.390959 0.659344 -0.000059 -0.003493 -1614830.000000 1 0 0
12.941456 -0.254143 -1.141512 12.994188 -0.019635 1.658758 0.008556 -0.003317 733305.000000 1 0 0
-0.942144 3.076557 -5.388212 6.275799 -1.273631 2.603270 0.001441 -0.008526 -179275.000000 1 0 0
6.619656 1.120857 7.303788 9.920761 0.167732 0.743340 -0.003905 -0.000776 729425.000000 1 0 0
5.468756 -6.145543 6.838788 10.697851 -0.843604 0.877251 -0.000855 -0.003476 1814940.000000 1 0 0
12.106456 -4.913943 2.621088 13.326036 -0.385577 1.372816 0.010221 -0.007227 -1345160.000000 1 0 0
4.480856 -9.207843 13.909588 17.272496 -1.117898 0.634610 0.003794 -0.001138 791071.000000 1 0 0
-2.719144 -4.374843 -1.497012 5.364144 1.014688 1.853630 0.003450 -0.002885 2516600.000000 1 0 0
-9.303544 -5.297343 -7.515012 13.080259 0.517608 2.182827 0.015019 -0.003492 -100573.000000 1 0 0
-10.579244 -3.110943 7.784888 13.498254 0.285999 0.956072 0.001475 -0.001868 -1093060.000000 1 0 0
12.086956 -0.661643 1.595488 12.209745 -0.054686 1.439748 0.006119 -0.004910 758591.000000 1 0 0
-7.593344 4.648757 4.336588 9.903323 -0.549352 1.117543 0.000925 -0.006028 1779580.000000 1 0 0
-1.114744 10.504257 6.911288 12.623310 -1.465069 0.991420 -0.002525 0.004070 2828450.000000 1 0 0
7.324956 -10.117743 1.925688 12.638512 -0.944163 1.417834 0.004771 -0.006735 2789480.000000 1 0 0
-4.274044 -1.760343 1.698088 4.924405 0.390696 1.218737 0.000851 -0.001618 994966.000000 1 0 0
6.665756 -15.077343 -0.896412 16.509456 -1.154528 1.625120 0.014521 -0.004218 -2080030.000000 1 0 0
-10.474844 1.648857 2.343988 10.859805 -0.156130 1.353244 0.000807 -0.004403 787496.000000 1 0 0
-3.009444 8.334257 -11.315012 14.371711 -1.224273 2.477232 -0.003281 -0.001195 -602533.000000 1 0 0
-1.193244 -5.162443 -6.857212 8.665795 1.343646 2.483723 -0.000387 -0.004154 964783.000000 1 0 0
12.831056 -0.373843 6.423388 14.353943 -0.029128 1.106829 0.005194 -0.009468 2222910.000000 1 0 0
5.949156 -13.317643 3.842988 15.083788 -1.150680 1.313180 0.001514 -0.002165 1812540.000000 1 0 0
-5.555644 3.465957 -4.931312 8.197309 -0.557781 2.216270 0.005845 -0.007643 3628220.000000 1 0 0
-4.364644 7.925957 3.316688 9.636977 -1.067433 1.219449 -0.000084 -0.001057 -366714.000000 1 0 0
13.945756 6.142857 -3.964812 15.746064 0.414911 1.825333 0.007762 0.001020 1004520.000000 1 0 0
-6.720444 -8.431843 5.303888 12.016305 0.897868 1.113648 0.002313 -0.002943 1149180.000000 1 0 0
1.754856 11.334457 2.713188 11.786043 1.417191 1.338510 -0.004457 -0.002046 1665110.000000 1 0 0
-7.393344 7.270557 5.906788 11.933678 -0.777025 1.052998 -0.001256 -0.004076 534443.000000 1 0 0
-17.330744 -4.135443 5.142788 18.544672 0.234239 1.289794 0.021339 -0.012182 -843912.000000 1 0 0
7.403156 -13.080743 -8.516512 17.275519 -1.055784 2.086310 0.020908 -0.008064 -1141380.000000 1 0 0
-2.250144 12.753457 -2.792812 13.248154 -1.396160 1.783197 -0.005973 -0.000555 1770790.000000 1 0 0
-5.357444 13.879357 -5.766812 15.956029 -1.202416 1.940586 0.004224 0.000709 986516.000000 1 0 0
-5.675644 2.435257 7.417388 9.651998 -0.405314 0.694331 0.001525 -0.003066 767882.000000 1 0 0
-7.382944 5.007157 1.395388 9.029207 -0.595949 1.415633 0.002686 -0.003709 2659190.000000 1 0 0
10.777656 -5.709843 -5.045012 13.198952 -0.487191 1.963003 0.011436 -0.006451 2182430.000000 1 0 0
-9.517944 -0.720643 6.772388 11.703667 0.075570 0.953717 -0.001552 -0.003538 249688.000000 1 0 0
-11.281944 -4.683743 -2.484512 12.465653 0.393501 1.771449 0.007548 -0.002564 847265.000000 1 0 0
6.506256 -4.238243 13.570488 15.634968 -0.577366 0.519721 -0.003289 -0.004083 16796.000000 1 0 0
0.289956 10.278057 -11.592612 15.495521 1.542593 2.416031 0.005079 -0.000114 282399.000000 1 0 0
-11.787444 -3.230743 1.403188 12.302458 0.267514 1.456490 0.001260 -0.004608 3499610.000000 1 0 0
5.191256 6.018557 5.426188 9.623704 0.859066 0.971773 -0.010081 0.001813 -4076410.000000 1 0 0
-7.158744 0.015957 8.114488 10.820942 -0.002229 0.722904 -0.001691 -0.003169 179354.000000 1 0 0
1.718756 2.017457 9.588488 9.948033 0.865176 0.269674 0.000067 -0.002383 2157150.000000 1 0 0
10.507456 -4.908743 -2.076612 11.781966 -0.437038 1.747975 0.003590 -0.004765 2449280.000000 1 0 0
-9.639544 -2.451743 -1.609112 10.075768 0.249061 1.731184 0.005891 -0.002698 1059640.000000 1 0 0
-1.950944 -5.124343 -9.910512 11.326223 1.207020 2.636244 0.007959 -0.003429 832450.000000 1 0 0
7.576256 -1.581143 6.507788 10.111923 -0.205744 0.871635 -0.000850 -0.004710 365528.000000 1 0 0
1.494156 -11.881743 -2.577612 12.249588 -1.445701 1.782805 -0.002494 0.001505 -3090390.000000 1 0 0
-0.695144 -1.567143 4.804088 5.100826 1.153299 0.342775 -0.001115 -0.001146 1202650.000000 1 0 0
7.621156 1.576357 9.884088 12.580227 0.203963 0.666995 -0.001600 -0.004046 359298.000000 1 0 0
-3.831944 10.632957 -7.941312 13.813326 -1.224901 2.183281 0.000854 0.001554 3254140.000000 1 0 0
-9.543944 12.542957 6.340488 16.988656 -0.920355 1.188320 -0.002767 -0.012991 1020590.000000 1 0 0
-2.534044 -2.406543 -11.006212 11.547706 0.759597 2.834141 0.008130 -0.004715 -2113190.000000 1 0 0
1.200556 -11.810643 11.152588 16.288427 -1.469494 0.816613 -0.001285 -0.002487 2076390.000000 1 0 0
1.371956 3.462657 -1.941312 4.200112 1.193557 2.051276 -0.004605 -0.003261 2152970.000000 1 0 0
-1.994344 -9.408643 -12.076012 15.437941 1.361919 2.469033 0.003644 0.002905 1452690.000000 1 0 0
1.274756 -2.733243 1.519888 3.377230 -1.134397 1.103986 0.002132 -0.001172 2783770.000000 1 0 0
-1.083544 -2.250643 -6.534612 6.995757 1.122109 2.776476 0.002612 -0.008535 503584.000000 1 0 0
1.861356 5.848457 4.026388 7.340361 1.262668 0.990194 -0.011856 0.001864 -3084270.000000 1 0 0
-10.967844 8.629557 3.597288 14.411916 -0.666643 1.318524 -0.005299 -0.007621 2595620.000000 1 0 0
-16.323644 -1.499343 4.003388 16.874137 0.091594 1.331262 0.019459 -0.010457 -744717.000000 1 0 0
-12.223944 0.257457 6.762888 13.972392 -0.021059 1.065556 0.004451 -0.004401 190401.000000 1 0 0
-5.102444 2.958057 4.697288 7.539864 -0.525384 0.898232 0.001261 -0.003384 1534450.000000 1 0 0
5.198356 -6.075843 3.882188 8.888766 -0.863073 1.118811 -0.003141 -0.003860 2171140.000000 1 0 0
9.898856 3.470357 6.308288 12.240312 0.337193 1.029357 -0.006856 0.001940 461644.000000 1 0 0
-12.071444 5.859257 3.171488 13.788001 -0.451885 1.338700 0.004332 -0.006709 1764960.000000 1 0 0
-4.878644 12.249057 -1.320512 13.250823 -1.191767 1.670617 -0.007665 0.001711 1151940.000000 1 0 0
-1.676444 -12.206943 10.393988 16.120016 1.434315 0.870051 0.006626 -0.008872 1541140.000000 1 0 0
5.240156 6.353657 13.991488 16.235453 0.881147 0.532016 0.008938 -0.002546 1010150.000000 1 0 0
12.954556 -3.751643 -5.970512 14.749317 -0.281889 1.987556 0.014903 -0.007621 988056.000000 1 0 0
3.508856 -2.579143 6.397688 7.739152 -0.633857 0.597641 -0.003332 -0.001374 1301990.000000 1 0 0
7.242556 -11.937143 -0.595412 13.975140 -1.025447 1.613414 0.008094 0.000031 -341296.000000 1 0 0
-6.083144 -6.559543 -4.056412 9.822766 0.823062 1.996498 0.009878 -0.004279 -140410.000000 1 0 0
0.308056 -8.929343 5.036388 10.256378 -1.536311 1.057502 0.001869 -0.003853 1817480.000000 1 0 0
-10.253144 2.490757 -0.381512 10.558237 -0.238310 1.606938 0.002796 -0.001961 -719665.000000 1 0 0
-1.723944 8.969957 -0.415312 9.143554 -1.380921 1.616233 0.000842 -0.004259 1464570.000000 1 0 0
-3.467544 2.275757 -6.616212 7.808789 -0.580793 2.581635 0.008346 -0.011171 1462460.000000 1 0 0
-12.652544 3.041657 6.427088 14.513649 -0.235922 1.112043 0.003667 -0.007299 103801.000000 1 0 0
11.434756 1.673757 7.912688 14.005918 0.145342 0.970420 0.001577 -0.009206 -3646320.000000 1 0 0
5.927156 2.665857 -3.162912 7.227861 0.422663 2.023724 -0.006663 0.000577 1056140.000000 1 0 0
10.435056 -2.251043 6.322188 12.406759 -0.212464 1.036104 0.006762 -0.007833 3696360.000000 1 0 0
-0.970344 11.042457 4.028688 11.794395 -1.483148 1.222203 -0.001330 0.001305 2071910.000000 1 0 0
-1.652844 -12.188443 7.455588 14.383179 1.436011 1.025870 0.003544 -0.000763 -594600.000000 1 0 0
8.025056 8.636457 -7.857212 14.167769 0.822077 2.158659 0.002142 -0.004886 1348890.000000 1 0 0
-4.633444 -5.977943 -8.794912 11.599788 0.911430 2.431338 0.008393 -0.003792 137195.000000 1 0 0
-8.538844 -5.375643 -11.620312 15.389641 0.561866 2.426563 0.015659 0.001302 683356.000000 1 0 0
6.151756 -0.716243 -9.962912 11.731015 -0.115907 2.585416 0.002814 -0.000626 407969.000000 1 0 0
-11.146844 -5.500443 -5.304212 13.514498 0.458396 1.974126 0.009666 -0.005288 -965442.000000 1 0 0
3.957356 8.964157 -2.715112 10.168018 1.155063 1.841101 -0.002369 -0.003994 595845.000000 1 0 0
11.596256 -10.410843 -4.087212 16.110994 -0.731585 1.827290 0.026203 -0.005012 1244320.000000 1 0 0
3.891856 -11.333043 3.964188 12.621379 -1.240006 1.251303 0.000629 -0.003335 1656940.000000 1 0 0
-1.045644 0.850457 3.210888 3.482306 -0.682818 0.397431 -0.002569 -0.002385 -721304.000000 1 0 0
-10.653444 -5.080643 4.499188 12.631370 0.444999 1.206607 0.003600 -0.005016 3662660.000000 1 0 0
4.528356 -8.764643 2.808688 10.257374 -1.093908 1.293432 0.000440 -0.004128 4209850.000000 1 0 0
-3.699344 -5.761743 2.542188 7.303804 1.000028 1.215292 0.000845 -0.000854 748357.000000 1 0 0
10.031856 5.079557 12.369588 16.716661 0.468709 0.737792 0.011312 -0.003345 737049.000000 1 0 0
1.592756 -12.343643 -5.302212 13.528335 -1.442471 1.973529 -0.001657 -0.000023 1074930.000000 1 0 0
9.785756 -10.743443 -1.741812 14.636137 -0.832014 1.690087 0.006884 -0.002623 199276.000000 1 0 0
9.644556 -4.464343 -9.239912 14.082748 -0.433519 2.286456 0.015606 -0.010691 2116220.000000 1 0 0
-7.344244 -3.129043 -13.048112 15.296472 0.402763 2.592531 0.010710 0.000840 2627110.000000 1 0 0
0.451156 6.240857 -2.532712 6.750293 1.498631 1.955409 -0.002547 -0.005243 2394650.000000 1 0 0
-5.931244 -9.646043 1.013488 11.368948 1.019501 1.481533 0.001530 -0.002030 -399816.000000 1 0 0
-8.966444 -4.151743 0.581488 9.898092 0.433638 1.512015 0.000968 -0.003223 2663070.000000 1 0 0
1.872156 3.833657 12.039188 12.772782 1.116514 0.340566 0.000707 -0.002035 2082780.000000 1 0 0
6.622956 4.360057 9.630688 12.474927 0.582205 0.688809 -0.003862 0.002854 2171640.000000 1 0 0
-8.200744 9.842357 -3.619212 13.312508 -0.876131 1.846127 0.003714 -0.002737 2175640.000000 1 0 0
16.312856 2.200157 -6.056612 17.539456 0.134064 1.923369 0.006210 0.004238 -1980260.000000 1 0 0
-10.975344 2.642957 -5.187012 12.423706 -0.236309 2.001499 0.007234 -0.000232 785337.000000 1 0 0
-13.759444 3.971657 1.499088 14.399431 -0.281011 1.466500 0.010382 -0.002299 -830358.000000 1 0 0
-17.335344 10.522457 3.121988 20.517872 -0.545547 1.418044 0.044245 -0.013822 -980119.000000 1 0 0
-14.287244 2.831657 -1.213912 14.615649 -0.195659 1.653948 0.011502 -0.003703 1566150.000000 1 0 0
-14.297544 5.072357 5.053688 15.990257 -0.340919 1.249235 0.009434 -0.007631 860949.000000 1 0 0
-17.438544 7.534557 3.043988 19.238977 -0.407838 1.411909 0.038368 -0.010202 -2038950.000000 1 0 0
-14.917144 12.438657 -3.485212 19.732918 -0.695043 1.748347 0.050223 -0.015655 -603707.000000 1 0 0
-8.433244 12.505757 -9.652012 17.907397 -0.977494 2.140041 0.007852 -0.008879 479964.000000 1 0 0
-12.493844 8.879757 -9.846812 18.218285 -0.617891 2.141816 0.018854 -0.005465 -2530650.000000 1 0 0
-13.930644 -3.517743 -12.179712 18.835677 0.247347 2.273954 0.017831 -0.003283 -1036180.000000 1 0 0
-14.851844 5.666757 -7.721512 17.672327 -0.364503 2.022975 0.027660 0.000414 -466401.000000 1 0 0
-10.796344 13.605157 -8.450312 19.314997 -0.900002 2.023613 0.021083 -0.009222 1010300.000000 1 0 0
-10.863244 13.540257 3.857488 17.782824 -0.894659 1.352136 0.001937 -0.011644 -1364890.000000 1 0 0
-15.205944 3.237457 3.036788 15.840579 -0.209775 1.377893 0.015603 -0.004419 -24972.700000 1 0 0
-11.088044 9.438957 -12.441912 19.153062 -0.705233 2.277860 0.010445 -0.004400 -1800630.000000 1 0 0
-13.055044 11.646257 -9.055612 19.699583 -0.728427 2.048437 0.028001 -0.018074 -74749.300000 1 0 0
-8.789044 14.503957 -3.625912 17.342413 -1.025995 1.781428 0.010443 -0.008137 2065300.000000 1 0 0
-16.820444 8.134557 -3.940012 19.095079 -0.450451 1.778626 0.044392 -0.002267 -113597.000000 1 0 0
-16.924244 6.712457 0.278088 18.208911 -0.377587 1.555524 0.034862 -0.005086 -403193.000000 1 0 0
-10.440744 2.809957 -12.438712 16.481096 -0.262904 2.426033 0.019567 -0.008997 1282260.000000 1 0 0
-16.988444 0.902957 2.344088 17.173157 -0.053101 1.433872 0.030891 -0.011199 1091810.000000 1 0 0
-12.770944 1.172057 -6.916712 14.570917 -0.091519 2.065411 0.014767 -0.002663 1223220.000000 1 0 0
-12.293844 8.997857 -5.436912 16.175909 -0.631816 1.913582 0.019764 -0.003524 -467063.000000 1 0 0
-9.547044 13.892557 1.198888 16.899305 -0.968709 1.499794 0.010254 -0.006812 -60125.500000 1 0 0
-12.274744 11.140957 2.598288 16.779194 -0.737016 1.415319 0.007092 -0.008197 -555905.000000 1 0 0
-12.540244 6.802857 -3.647412 14.725494 -0.497053 1.821095 0.007038 -0.000576 -44232.900000 1 0 0
-15.870144 3.564557 -9.543812 18.858735 -0.220941 2.101417 0.022267 0.002135 -1804210.000000 1 0 0
-15.135744 5.888157 -4.738412 16.917851 -0.371008 1.854677 0.022796 0.002718 1509440.000000 1 0 0
-17.863244 5.319057 7.516688 20.096976 -0.289405 1.187456 0.033157 -0.013585 332974.000000 1 0 0
-15.747944 10.054857 -2.030912 18.794214 -0.568239 1.679068 0.036581 -0.009552 7489.300000 1 0 0
-8.834144 9.958157 -8.375412 15.727508 -0.845139 2.132386 0.009089 -0.002990 1078810.000000 1 0 0
-17.008344 4.149657 -1.327012 17.557459 -0.239303 1.646450 0.020505 -0.001582 672026.000000 1 0 0
-10.209444 5.333557 -4.542112 12.381856 -0.481418 1.946402 0.006380 -0.000805 185467.000000 1 0 0
-18.321944 2.708557 6.130388 19.509269 -0.146768 1.251151 0.046925 -0.017606 87271.300000 1 0 0
-10.306544 10.036457 -5.783912 15.505126 -0.772122 1.953071 0.008272 -0.007647 480878.000000 1 0 0
-15.412944 0.247757 -5.898412 16.504893 -0.016073 1.936251 0.011731 0.001181 257941.000000 1 0 0
-16.468144 -4.270043 -8.920212 19.209456 0.253704 2.053715 0.022740 -0.008462 -1276440.000000 1 0 0
-9.892444 9.626157 -1.120212 13.848401 -0.771756 1.651776 0.002623 -0.003662 1373520.000000 1 0 0
-17.410844 -3.101543 -3.201512 17.972388 0.176289 1.749887 0.017989 -0.008529 -449649.000000 1 0 0
-11.857944 5.162457 -11.520012 17.319713 -0.410612 2.298476 0.017746 -0.006135 571892.000000 1 0 0
-16.369644 7.039257 5.821188 18.745736 -0.406114 1.255042 0.029845 -0.009120 -164714.000000 1 0 0
-12.154344 6.018457 -8.783512 16.158588 -0.459775 2.145495 0.019192 0.000288 2477310.000000 1 0 0
-14.487644 8.276457 0.008888 16.685072 -0.519032 1.570264 0.024975 -0.006774 535407.000000 1 0 0
-14.887544 11.912557 3.717788 19.426011 -0.674844 1.378226 0.020095 -0.016112 317478.000000 1 0 0
-17.272144 3.940157 -4.126412 18.190081 -0.224284 1.799638 0.018455 0.003076 870876.000000 1 0 0
-13.826044 13.344957 -0.874612 19.235704 -0.767694 1.616280 0.037515 -0.010990 -652960.000000 1 0 0
-9.884944 6.930957 -13.041112 17.771350 -0.611506 2.394736 0.001325 -0.008332 -706300.000000 1 0 0
-15.917744 -1.262843 -8.385912 18.035877 0.079170 2.054383 0.009955 -0.001326 -559083.000000 1 0 0
-11.379444 11.940457 -0.158612 16.495193 -0.809451 1.580412 0.015500 -0.006130 444180.000000 1 0 0
-11.934944 7.413857 -0.970712 14.083694 -0.555854 1.639776 0.004208 -0.001276 1061370.000000 1 0 0
-11.457144 0.107457 -11.593112 16.299630 -0.009379 2.362071 0.021058 -0.008520 891908.000000 1 0 0
-19.153944 -1.317843 -4.730412 19.773393 0.068694 1.812370 0.014825 -0.004611 -1144840.000000 1 0 0
-17.974844 1.312257 -5.034512 18.712652 -0.072876 1.843196 0.006959 0.001049 -165632.000000 1 0 0
-13.387244 -0.191443 -9.487912 16.409614 0.014299 2.187308 0.019429 -0.006004 691834.000000 1 0 0
-6.066644 11.254357 -13.300112 18.448785 -1.076400 2.375926 -0.014294 0.001289 -2125110.000000 1 0 0
16.242056 5.818757 7.096388 18.655322 0.344008 1.180573 0.020704 -0.008967 -316311.000000 1 0 0
14.761956 10.150257 -5.407612 18.713239 0.602352 1.863950 0.022801 -0.005069 -251637.000000 1 0 0
2.384156 16.877357 4.314488 17.582496 1.430461 1.322879 0.012017 -0.011351 2500040.000000 1 0 0
-3.788744 18.213657 -5.943712 19.529966 -1.365704 1.880040 0.005420 -0.006254 1498000.000000 1 0 0
5.487156 14.554357 5.581488 16.525471 1.210264 1.226270 0.008753 -0.011399 -1243170.000000 1 0 0
9.934956 6.117557 15.097188 19.080172 0.551928 0.657946 0.031230 -0.001682 -1036340.000000 1 0 0
4.693156 12.720657 -1.211212 13.612783 1.217349 1.659890 -0.001284 -0.006212 836499.000000 1 0 0
3.497956 13.710357 12.915388 19.157683 1.320993 0.830966 0.008940 -0.008496 -757747.000000 1 0 0
-0.812044 12.388657 9.097288 15.391520 -1.505343 0.938426 -0.001470 0.000355 1012500.000000 1 0 0
-7.815844 13.802157 8.260688 17.883677 -1.055542 1.090646 0.009103 -0.017612 1368420.000000 1 0 0
11.413856 12.810857 -4.094212 17.639635 0.843003 1.805035 0.024206 -0.005649 -558281.000000 1 0 0
-5.741244 16.115857 0.664388 17.120868 -1.228566 1.531981 -0.002441 -0.000594 707887.000000 1 0 0
3.208356 10.589057 6.742488 12.956960 1.276601 1.023505 -0.006592 0.002641 2614710.000000 1 0 0
-1.212644 15.595657 2.347588 15.817907 -1.493197 1.421833 -0.001543 -0.002887 -1919520.000000 1 0 0
9.875156 8.855457 9.538588 16.337763 0.731012 0.947350 0.009961 -0.003011 2540130.000000 1 0 0
7.252156 12.272357 6.249988 15.564924 1.037069 1.157595 0.003997 -0.006826 -62629.900000 1 0 0
11.865556 13.982157 -1.459912 18.396289 0.867103 1.650239 0.017481 -0.001361 -164043.000000 1 0 0
9.720556 15.899357 -1.146812 18.670670 1.022051 1.632258 0.014532 -0.006369 438391.000000 1 0 0
10.091556 13.811557 3.044388 17.374317 0.939788 1.394664 0.007775 -0.003455 2730670.000000 1 0 0
-6.061344 14.513957 6.179888 16.899285 -1.175192 1.196423 -0.003615 -0.006055 737282.000000 1 0 0
-0.814944 18.198257 -6.219212 19.248877 -1.526045 1.899794 0.016758 -0.005706 658608.000000 1 0 0
-3.570744 15.785057 5.289488 17.026359 -1.348330 1.254904 -0.000242 -0.003253 3509120.000000 1 0 0
6.965156 12.295857 10.507188 17.609727 1.055401 0.931452 0.009484 -0.005643 4111360.000000 1 0 0
1.532856 14.645557 6.124488 15.948396 1.466512 1.176651 0.000588 -0.005298 -390948.000000 1 0 0
17.382856 7.813557 -1.348912 19.105887 0.422436 1.641457 0.021392 0.005743 -334693.000000 1 0 0
2.148256 16.147157 -3.338012 16.627928 1.438531 1.772917 0.004431 -0.011371 916966.000000 1 0 0
6.700656 11.164857 0.581688 13.034231 1.030262 1.526154 -0.000865 -0.003706 1249790.000000 1 0 0
12.581456 9.342757 3.297588 16.014188 0.638736 1.363396 0.004887 0.003641 -1172250.000000 1 0 0
6.111156 14.252357 -3.480312 15.893032 1.165727 1.791569 0.002186 -0.004959 214132.000000 1 0 0
3.055356 16.558057 1.527888 16.906770 1.388325 1.480301 0.010117 -0.015504 -744751.000000 1 0 0
2.778656 18.824857 -2.533412 19.196727 1.424249 1.703153 0.006788 -0.022008 -250770.000000 1 0 0
3.902256 11.908857 10.631388 16.433955 1.254145 0.867263 0.007212 -0.006349 770722.000000 1 0 0
7.923556 11.590257 3.408888 14.447744 0.971135 1.332604 -0.005156 -0.001660 1702140.000000 1 0 0
0.748056 12.482357 0.153288 12.505691 1.510939 1.558539 -0.000101 -0.005058 -1834680.000000 1 0 0
11.980256 9.834857 -4.486612 16.136314 0.687369 1.852554 0.011439 -0.001320 77455.900000 1 0 0
-1.261044 16.431057 9.802488 19.174426 -1.494199 1.034184 0.008649 -0.006194 -277409.000000 1 0 0
8.318156 14.676757 -8.016412 18.677841 1.055179 2.014396 0.021187 -0.010819 1204140.000000 1 0 0
14.492956 7.528257 -1.318412 16.384707 0.479080 1.651349 0.006866 0.001100 -470766.000000 1 0 0
12.406256 8.309457 6.091288 16.126564 0.590155 1.183466 0.003993 -0.002705 -1391370.000000 1 0 0
-3.058144 14.238457 10.075688 17.708907 -1.359230 0.965554 0.009892 -0.010921 731972.000000 1 0 0
-4.494344 17.102357 -3.198812 17.970034 -1.313816 1.749758 0.000983 -0.003030 1076660.000000 1 0 0
-7.097444 16.439557 -1.929312 18.009858 -1.163239 1.678128 0.008862 -0.000722 1004890.000000 1 0 0
8.344456 11.265357 -1.895112 14.146719 0.933262 1.705161 0.002675 -0.000701 -1541040.000000 1 0 0
8.588256 12.886657 -4.176912 16.039659 0.982947 1.834245 0.012858 -0.003708 1571330.000000 1 0 0
2.635856 14.829457 -7.314912 16.744206 1.394889 2.022904 0.001419 -0.008324 -797394.000000 1 0 0
11.375356 11.352957 9.803488 18.825428 0.784413 1.023058 0.027398 -0.005507 1023650.000000 1 0 0
8.585856 15.836357 1.462688 18.073366 1.073991 1.489777 0.000745 -0.005759 783809.000000 1 0 0
6.002256 9.975457 7.705288 13.960956 1.029126 0.986135 0.001638 0.004124 1912810.000000 1 0 0
14.328656 11.390557 2.671388 18.498418 0.671654 1.425878 0.022084 0.001272 1281610.000000 1 0 0
12.022856 12.623857 1.114388 17.468620 0.809778 1.506959 0.015927 0.000932 2135150.000000 1 0 0
5.169356 15.921957 8.090288 18.592571 1.256864 1.120608 0.016812 -0.008920 -482884.000000 1 0 0
11.643256 15.107957 5.116288 19.748219 0.914197 1.308731 0.023900 -0.004065 -665569.000000 1 0 0
5.971456 16.902457 1.806388 18.017058 1.231194 1.470368 0.003797 -0.015790 808406.000000 1 0 0
-0.591444 16.093657 -4.207312 16.645031 -1.534063 1.826335 0.001498 -0.008415 1325410.000000 1 0 0
15.976556 6.447557 2.564188 17.418278 0.383575 1.423047 0.009828 -0.001348 253339.000000 1 0 0
7.790056 16.632257 -3.237812 18.649406 1.132771 1.745295 0.009121 -0.011574 193768.000000 1 0 0
14.827056 8.198057 7.510888 18.532759 0.505076 1.153515 0.022213 -0.006138 -795959.000000 1 0 0
2.048656 12.909057 8.535988 15.611016 1.413410 0.992268 0.001727 -0.003462 389513.000000 1 0 0
15.887656 7.425357 -5.762112 18.459563 0.437202 1.888249 0.000961 0.006466 -400259.000000 1 0 0
-2.929044 16.982157 0.551788 17.241734 -1.399999 1.538788 -0.004852 -0.004453 1020530.000000 1 0 0
-2.942744 18.639057 4.495188 19.397961 -1.414208 1.336935 0.002533 -0.002783 538832.000000 1 0 0
-0.903444 19.075757 0.712688 19.110432 -1.523471 1.533495 0.003170 -0.013799 -1175860.000000 1 0 0
7.129456 16.698757 -6.112812 19.158394 1.167279 1.895541 0.012907 -0.009188 1723330.000000 1 0 0
10.868256 10.040357 0.879288 14.822311 0.745823 1.511440 0.003770 0.004246 -1497700.000000 1 0 0
9.105856 8.785057 14.222888 19.036396 0.767469 0.727045 0.029817 -0.005480 809148.000000 1 0 0
6.439056 12.357157 -8.409112 16.274948 1.090428 2.113777 0.021525 -0.013780 313783.000000 1 0 0
6.310656 9.037657 13.287588 17.264519 0.961237 0.692508 0.021280 -0.011351 2388150.000000 1 0 0
16.560256 9.454657 2.905888 19.289292 0.518766 1.419573 0.024205 0.000094 21252.100000 1 0 0
2.611856 14.742257 -0.786612 14.992487 1.395448 1.623287 0.003588 -0.008847 668435.000000 1 0 0
9.083256 12.960457 8.349488 17.893936 0.959504 1.085342 0.013990 -0.010236 1710590.000000 1 0 0
7.148256 9.394257 10.494588 15.795126 0.920344 0.844080 0.008390 -0.004837 231520.000000 1 0 0
4.435456 15.764557 -5.327712 17.221470 1.296530 1.885321 0.008167 -0.012351 2461510.000000 1 0 0
0.255456 16.268457 -8.151512 18.198216 1.555095 2.035244 0.006218 -0.005268 -74626.300000 1 0 0
-2.374644 15.553557 -2.053812 15.867268 -1.419291 1.700598 -0.012032 -0.001407 -395181.000000 1 0 0
13.211556 10.548057 7.696688 18.575406 0.673762 1.143570 0.024255 -0.007446 1722850.000000 1 0 0
-0.952144 15.872957 6.940988 17.350350 -1.510883 1.159226 0.005649 -0.006340 3211290.000000 1 0 0
13.247056 13.361457 6.776188 19.998244 0.789698 1.225114 0.029135 -0.009272 -894080.000000 1 0 0
5.299956 17.392657 4.478388 18.725651 1.275011 1.329298 0.007302 -0.016345 -351445.000000 1 0 0
10.756156 9.507057 -1.818212 14.470139 0.723832 1.696782 0.000480 0.004112 461550.000000 1 0 0
3.291456 12.698557 4.680388 13.928139 1.317178 1.228089 -0.001695 -0.001456 1226920.000000 1 0 0
-0.222944 18.070857 3.471388 18.402611 -1.558460 1.381024 0.002798 -0.009161 1370740.000000 1 0 0
-7.531544 15.926257 -5.917212 18.584488 -1.129062 1.894832 0.021986 -0.011320 1144830.000000 1 0 0
-12.485144 -9.138943 8.251388 17.535236 0.631872 1.080871 0.027355 -0.012847 -323735.000000 1 0 0
-13.274644 -11.819943 6.833888 19.042827 0.727494 1.203740 0.033792 -0.009187 202218.000000 1 0 0
-6.528844 -12.096643 12.396388 18.510133 1.075877 0.836981 0.019322 -0.013419 -955830.000000 1 0 0
-1.856544 -10.576043 14.422888 17.981078 1.397024 0.639968 0.002633 -0.015361 -56999.400000 1 0 0
-8.818044 2.849857 10.974888 14.364113 -0.312589 0.701230 0.002244 -0.000984 1884280.000000 1 0 0
0.438056 10.090557 15.169388 18.224203 1.527411 0.587415 0.000266 -0.009625 -96168.000000 1 0 0
0.998756 -6.640543 16.614188 17.919977 -1.421513 0.384110 0.006805 -0.008739 2368370.000000 1 0 0
6.051656 2.406357 17.716788 18.875849 0.378467 0.352259 0.008058 -0.007428 2776120.000000 1 0 0
-5.200244 -2.950343 17.693588 18.676459 0.516064 0.325866 0.019289 -0.007929 623538.000000 1 0 0
-4.267844 8.317157 13.065588 16.065466 -1.096694 0.621044 -0.002819 0.001690 1038730.000000 1 0 0
-0.010044 -4.846643 18.646388 19.265977 1.568724 0.254297 0.014470 -0.013378 -148406.000000 1 0 0
-11.590944 2.000157 11.087188 16.164045 -0.170879 0.814934 0.009744 -0.001489 473416.000000 1 0 0
-3.430744 -6.051843 14.430888 16.020155 1.055076 0.449198 0.009158 -0.006738 870393.000000 1 0 0
-7.517944 -2.185043 14.601488 16.567962 0.282851 0.492172 0.009076 -0.001370 1072970.000000 1 0 0
-6.143444 -1.125543 10.552388 12.262204 0.181201 0.534424 0.003660 -0.002326 2112120.000000 1 0 0
-3.959644 2.422157 11.148688 12.076377 -0.548986 0.394519 -0.001944 0.002832 -803480.000000 1 0 0
-6.447544 6.379557 13.551888 16.307153 -0.780098 0.589822 -0.005543 0.003022 734021.000000 1 0 0
-8.895144 5.463357 12.509688 16.293071 -0.550792 0.695409 -0.001806 -0.000865 -1192040.000000 1 0 0
-12.289344 -2.137643 15.703588 20.054929 0.172220 0.671276 0.028352 -0.005336 673096.000000 1 0 0
-3.504644 -7.687343 16.979888 18.965611 1.143049 0.461695 0.014166 -0.009347 -482662.000000 1 0 0
-0.530744 -5.284043 14.366088 15.316243 1.470689 0.354085 0.005594 -0.001382 2329800.000000 1 0 0
-14.293044 -2.287443 13.592988 19.856808 0.158693 0.816809 0.026485 -0.002039 -642566.000000 1 0 0
-6.421544 1.456757 12.123888 13.796631 -0.223079 0.497544 0.001128 0.001299 1611390.000000 1 0 0
2.243356 -2.253143 14.482688 14.827595 -0.787575 0.216110 0.004657 -0.002179 -586616.000000 1 0 0
-12.581044 3.983157 9.175188 16.072719 -0.306616 0.963250 0.006534 -0.003451 -807995.000000 1 0 0
-9.153544 -3.012643 12.571688 15.840162 0.317957 0.653996 0.003933 0.001667 1656130.000000 1 0 0
-7.127344 -7.260343 15.338788 18.406250 0.794642 0.585661 0.017778 -0.012210 326240.000000 1 0 0
-3.154944 6.201657 19.408888 20.618418 -1.100192 0.344225 0.013766 -0.006985 -147017.000000 1 0 0
0.661356 5.427957 16.100088 17.003322 1.449551 0.327408 0.006803 -0.007170 895762.000000 1 0 0
3.330456 1.550557 16.754588 17.152621 0.435725 0.215850 0.002573 -0.006328 1984730.000000 1 0 0
-11.778144 11.259257 7.612488 17.984591 -0.762878 1.133736 0.002278 -0.023466 -803792.000000 1 0 0
0.578956 -9.361343 15.503588 18.119912 -1.509030 0.544067 -0.003176 -0.002737 1331150.000000 1 0 0
-2.573544 -3.569043 18.846888 19.353718 0.946066 0.229359 0.022852 -0.017107 1732580.000000 1 0 0
-12.927444 2.384857 13.620588 18.929521 -0.182429 0.767654 0.017614 -0.005591 756690.000000 1 0 0
-5.409444 -0.530343 15.805288 16.713781 0.097728 0.331227 0.009418 0.003714 2161140.000000 1 0 0
-4.521744 -5.880443 11.662088 13.821364 0.915280 0.566522 0.004688 -0.001947 -1039990.000000 1 0 0
2.447256 1.833757 13.929588 14.261317 0.643060 0.216109 0.000280 -0.003230 489345.000000 1 0 0
0.045356 3.303457 14.159988 14.540294 1.557067 0.229217 0.005844 -0.001330 -429859.000000 1 0 0
-13.032244 7.169457 12.149588 19.205546 -0.502945 0.885880 0.013548 -0.003991 1055980.000000 1 0 0
0.868056 1.424657 18.355688 18.431345 1.023560 0.090637 0.013892 -0.002201 1033470.000000 1 0 0
-2.034444 6.487457 12.440488 14.177158 -1.266913 0.500167 -0.001840 0.002189 2261820.000000 1 0 0
-13.481244 -2.686243 10.828688 17.499152 0.196682 0.903567 0.021536 -0.004077 1029170.000000 1 0 0
-2.624244 3.680957 13.393888 14.136207 -0.951449 0.325509 -0.000466 0.002294 -627765.000000 1 0 0
3.475856 6.223157 16.302588 17.792797 1.061423 0.412188 0.004940 -0.003866 -257145.000000 1 0 0
-3.727144 12.386557 12.216888 17.792435 -1.278512 0.813948 0.010838 -0.008820 -185449.000000 1 0 0
3.701956 -1.485443 17.048788 17.509204 -0.381591 0.229833 0.008615 -0.002471 -1419390.000000 1 0 0
-15.815844 0.609057 9.105688 18.259941 -0.038490 1.048732 0.024669 -0.006246 -225635.000000 1 0 0
-4.697544 4.690057 15.204388 16.590268 -0.784601 0.411644 0.001310 -0.000579 2151310.000000 1 0 0
-8.049344 -8.075243 10.533288 15.522618 0.787004 0.824973 0.011832 -0.009028 2959770.000000 1 0 0
-2.638044 -0.360143 14.785288 15.023107 0.135680 0.178169 0.011410 0.003058 2818670.000000 1 0 0
-1.890344 1.055957 17.307488 17.442408 -0.509426 0.124460 0.014070 -0.002463 1690680.000000 1 0 0
-0.649344 -2.413443 14.434288 14.649063 1.307967 0.171448 0.010448 0.000576 88771.600000 1 0 0
5.078356 -8.321843 16.551688 19.209403 -1.022878 0.532294 0.009504 -0.000323 46369.800000 1 0 0
-4.597844 9.996657 10.588388 15.270471 -1.139709 0.804614 0.000138 -0.001186 -1114760.000000 1 0 0
-6.154844 2.132057 15.186388 16.524351 -0.333467 0.405181 0.002833 0.002414 476274.000000 1 0 0
-5.036444 6.913457 17.267388 19.269778 -0.941199 0.459923 0.007016 0.003336 1117590.000000 1 0 0
-4.129744 9.273757 15.818888 18.796132 -1.151845 0.570551 0.002573 0.001000 259111.000000 1 0 0
-4.431144 -9.917743 18.550888 21.497259 1.150615 0.529733 0.017151 -0.014000 -135442.000000 1 0 0
-6.855444 -4.062843 11.132888 13.691056 0.534994 0.621252 0.006207 -0.000258 1266320.000000 1 0 0
-2.521244 -0.734143 19.612788 19.787802 0.283348 0.133098 0.020967 -0.006268 -698029.000000 1 0 0
-5.760844 -4.517943 15.334988 16.992969 0.665063 0.445416 0.011166 -0.005187 2758290.000000 1 0 0
-12.923044 0.008057 9.696188 16.156150 -0.000623 0.927102 0.007775 -0.002004 1574850.000000 1 0 0
-14.456244 8.898357 10.417688 19.917128 -0.551766 1.020369 0.010481 -0.008463 -1652730.000000 1 0 0
-8.429544 10.478257 12.883988 18.623862 -0.893330 0.806817 0.008682 -0.010292 -1463100.000000 1 0 0
-10.461444 7.181157 10.754688 16.633525 -0.601567 0.867721 0.008045 -0.003450 -450499.000000 1 0 0
-9.882644 -6.519543 14.873588 19.010385 0.583161 0.672298 0.025934 -0.011548 -321283.000000 1 0 0
-0.831944 -13.407543 14.465888 19.741233 1.508825 0.748405 0.001071 -0.016660 -38660.500000 1 0 0
3.774856 -5.661443 17.001488 18.312621 -0.982725 0.380705 0.009643 -0.003723 1425500.000000 1 0 0
-7.370144 9.396057 10.370788 15.816389 -0.905648 0.855688 0.002208 -0.002406 651221.000000 1 0 0
-10.350844 -6.617143 11.876688 17.087489 0.568806 0.802305 0.023573 -0.013546 1173520.000000 1 0 0
-10.898144 -3.906443 10.622588 15.712073 0.344183 0.828369 0.014125 -0.001371 -432157.000000 1 0 0
-10.115044 -10.217243 9.823188 17.412674 0.790425 0.971405 0.025794 -0.015601 1877740.000000 1 0 0
-9.905644 -3.599143 15.231588 18.522335 0.348512 0.605291 0.022654 -0.011436 1983060.000000 1 0 0
5.610456 -3.373443 16.144688 17.421490 -0.541359 0.385232 0.001639 -0.001719 -92314.800000 1 0 0
-11.310144 0.632857 15.378388 19.100123 -0.055896 0.634875 0.015592 0.001214 369503.000000 1 0 0
-3.132944 3.319657 18.735888 19.283904 -0.814326 0.238973 0.014958 -0.009322 353153.000000 1 0 0
0.517756 7.332057 13.877288 15.703702 1.500298 0.487097 0.000144 -0.004612 617365.000000 1 0 0
-13.136844 -7.339943 12.074688 19.293769 0.509521 0.894597 0.026319 -0.019527 -359988.000000 1 0 0
-1.492644 -1.034543 12.173788 12.308509 0.606076 0.148090 0.005488 -0.001060 691929.000000 1 0 0
1.992556 -4.877743 13.054888 14.078095 -1.182984 0.383611 0.001501 -0.004306 1113800.000000 1 0 0
-14.658844 -4.127943 8.565788 17.472674 0.274493 1.058432 0.022767 -0.011738 -803102.000000 1 0 0
7.883056 0.898157 16.104688 17.953001 0.113446 0.457754 -0.002744 -0.009693 -656756.000000 1 0 0
-1.298244 11.417557 13.349388 17.613978 -1.457577 0.710730 -0.000654 -0.004421 231705.000000 1 0 0
2.736756 -12.230143 -13.724012 18.585337 -1.350652 2.401539 0.014799 0.002028 -918938.000000 1 0 0
0.738356 -10.701943 -13.938612 17.588680 -1.501913 2.485655 0.012642 0.002780 -3604660.000000 1 0 0
3.211556 -14.446443 -12.281512 19.231468 -1.352046 2.263494 0.013515 -0.003180 -1078760.000000 1 0 0
-5.104844 -10.239043 -16.288812 19.905347 1.108296 2.529267 0.020037 -0.005669 -635050.000000 1 0 0
-1.092944 -12.111043 -15.150612 19.427118 1.480797 2.465253 0.019628 -0.000524 -129691.000000 1 0 0
5.636956 -15.020143 -11.977412 20.020948 -1.211769 2.212104 0.018128 -0.004916 -976806.000000 1 0 0
1.921156 -11.894043 -16.050512 20.069331 -1.410657 2.497680 0.021581 0.001235 -878151.000000 1 0 0
1.233356 -14.345443 -13.922612 20.028780 -1.485032 2.339397 0.026055 -0.001887 -323683.000000 1 0 0
-0.998744 -10.566643 -15.939712 19.150087 1.476558 2.554143 0.019306 -0.006429 -393338.000000 1 0 0
-5.917844 -5.587643 -15.192912 17.235637 0.756707 2.649789 0.009954 0.004679 134933.000000 1 0 0
-6.250044 -7.677143 -16.857312 19.549182 0.887510 2.610596 0.008419 0.011713 144474.000000 1 0 0
4.858156 -12.557943 -11.342112 17.605315 -1.201669 2.270830 0.002798 0.002339 -430086.000000 1 0 0
-1.997744 -15.370043 -13.353712 20.458515 1.441544 2.281967 0.017367 -0.002462 -57816.800000 1 0 0
16.159956 -7.317143 -8.747012 19.778650 -0.425176 2.028897 0.052964 -0.011452 740513.000000 1 0 0
19.303456 -3.495943 -4.371412 20.098614 -0.179163 1.790047 0.039733 -0.016583 1824880.000000 1 0 0
15.042256 -11.389143 -8.928612 20.873480 -0.648057 2.012797 0.056890 -0.021905 840464.000000 1 0 0
17.871356 -3.362443 -6.536212 19.323909 -0.185973 1.915847 0.051008 -0.008560 440791.000000 1 0 0
9.650956 -9.178543 -15.302912 20.287083 -0.760314 2.425411 0.043953 -0.013216 314948.000000 1 0 0
1.294156 1.872257 -15.226912 15.396072 0.965982 2.993219 0.013108 -0.003474 69900.600000 1 0 0
4.799156 -4.362643 -14.033912 15.460117 -0.737789 2.708684 0.003260 -0.000228 1980930.000000 1 0 0
13.287056 -5.510143 -8.811712 16.868723 -0.393114 2.120424 0.035577 -0.010696 -880416.000000 1 0 0
3.012756 0.951357 -12.139512 12.543904 0.305867 2.886984 0.004476 -0.004451 -3912440.000000 1 0 0
0.743656 6.316257 -12.938312 14.416935 1.453599 2.684724 0.012478 -0.002575 139408.000000 1 0 0
3.148656 -1.053143 -16.734112 17.060294 -0.322777 2.945732 0.020995 -0.009692 -156274.000000 1 0 0
13.225956 4.285757 -11.507412 18.047552 0.313365 2.262196 0.006706 -0.002633 279229.000000 1 0 0
-3.893544 9.286357 -16.439512 19.278321 -1.173784 2.592017 -0.001361 -0.008336 -230109.000000 1 0 0
-0.292344 -5.250643 -17.710512 18.474765 1.515176 2.852955 0.016178 -0.009812 305821.000000 1 0 0
-0.463244 -8.629643 -17.666012 19.666553 1.517167 2.686629 0.024154 -0.002156 -1440080.000000 1 0 0
5.544256 -10.189443 -12.143812 16.793918 -1.072481 2.379087 0.003206 0.004310 400898.000000 1 0 0
1.725956 -9.874743 -18.007612 20.609793 -1.397759 2.633637 0.034638 -0.004793 -407381.000000 1 0 0
11.105456 8.529357 -14.328312 20.034510 0.654943 2.367680 0.056010 -0.032157 18993.700000 1 0 0
11.028056 -3.880343 -12.928312 17.430328 -0.338332 2.406418 0.028988 -0.008549 744664.000000 1 0 0
4.870356 7.540957 -12.245612 15.183590 0.997341 2.509010 0.001188 -0.004220 704661.000000 1 0 0
9.600256 -5.991743 -12.454112 16.827680 -0.557969 2.404011 0.021455 -0.010689 -1140450.000000 1 0 0
-3.344744 0.364857 -15.854712 16.207786 -0.108654 2.932481 0.009299 -0.004368 -1041350.000000 1 0 0
-0.721944 10.797557 -12.737112 16.713541 -1.504034 2.437321 0.004462 -0.000056 -562143.000000 1 0 0
6.611256 -5.469443 -12.443512 15.115042 -0.691163 2.537915 0.007543 -0.000782 -68701.500000 1 0 0
18.115456 -5.702543 -8.397212 20.765402 -0.304969 1.987102 0.052454 -0.013871 -937779.000000 1 0 0
13.249856 4.830957 -14.023312 19.888441 0.349626 2.353358 0.021256 -0.011184 316028.000000 1 0 0
14.157356 0.905657 -11.572112 18.307504 0.063884 2.255052 0.016049 0.000102 -33611.900000 1 0 0
15.031256 6.060257 -11.162412 19.679045 0.383242 2.173927 0.007768 -0.006966 -386322.000000 1 0 0
8.218156 1.453257 -11.859612 14.501739 0.175025 2.528385 0.000395 0.001521 413769.000000 1 0 0
9.902956 1.180957 -8.992912 13.428911 0.118692 2.304558 0.005367 -0.000013 323390.000000 1 0 0
-0.080844 -5.812043 -13.006312 14.246071 1.556888 2.721314 -0.001455 -0.000252 203484.000000 1 0 0
10.675156 -5.693543 -8.991712 15.074026 -0.489967 2.209934 0.021701 -0.012898 -357453.000000 1 0 0
10.302356 8.516357 -11.120712 17.387843 0.690776 2.264733 0.025862 -0.016934 967028.000000 1 0 0
8.452956 8.093257 -14.542512 18.666492 0.763662 2.463978 0.034109 -0.014375 1547690.000000 1 0 0
8.749156 10.603857 -10.674312 17.404897 0.880942 2.231020 0.031545 -0.015724 -1289990.000000 1 0 0
7.133456 1.725157 -17.851412 19.301172 0.237284 2.751536 0.031654 0.001636 -2252040.000000 1 0 0
12.189656 2.596257 -13.049612 18.044961 0.209853 2.379180 0.015961 -0.002933 -1102820.000000 1 0 0
2.647556 -0.635243 -19.168512 19.360912 -0.235484 3.000496 0.035249 -0.016544 -522366.000000 1 0 0
10.265256 -2.318943 -15.375412 18.632130 -0.222173 2.541369 0.029708 -0.014099 2247.370000 1 0 0
8.413156 -0.952543 -13.065412 15.568992 -0.112741 2.566597 0.013306 -0.003890 1066290.000000 1 0 0
0.601456 4.356157 -14.620612 15.267617 1.433593 2.849427 0.010521 -0.003065 -947817.000000 1 0 0
3.921556 -7.636443 -15.794612 17.976752 -1.096382 2.643747 0.011257 -0.000506 -95364.400000 1 0 0
11.254756 -5.961943 -14.481612 19.285523 -0.487145 2.420229 0.035679 -0.010969 -498192.000000 1 0 0
-5.857444 4.409457 -16.860512 18.385587 -0.645288 2.731416 0.000578 -0.001003 269838.000000 1 0 0
11.447056 7.893957 -9.094112 16.614828 0.603716 2.149990 0.017630 -0.007419 -1556480.000000 1 0 0
9.536456 6.132057 -13.401412 17.554029 0.571447 2.439416 0.018741 -0.002663 -1264530.000000 1 0 0
12.132156 0.702257 -10.137312 15.825532 0.057819 2.266033 0.011907 0.001935 -2139590.000000 1 0 0
5.445056 -7.315643 -13.837012 16.571969 -0.930951 2.558865 0.007787 0.003458 -1333500.000000 1 0 0
8.617656 -10.293943 -10.673212 17.150706 -0.873805 2.242498 0.024148 -0.003736 297366.000000 1 0 0
10.154856 4.778257 -15.901412 19.462984 0.439802 2.526999 0.033212 -0.003802 224989.000000 1 0 0
10.010456 -0.307943 -11.036112 14.903014 -0.030752 2.404653 0.010731 -0.001141 -1098680.000000 1 0 0
-1.695344 5.430457 -13.852812 14.975461 -1.268192 2.751922 0.004889 -0.003232 2242420.000000 1 0 0
1.350356 -0.740343 -14.819212 14.899013 -0.501505 3.038046 0.010859 -0.006807 -300896.000000 1 0 0
11.442656 -10.574243 -14.022212 20.961188 -0.745976 2.303606 0.045382 -0.013207 217520.000000 1 0 0
9.246956 -7.860543 -10.728312 16.198488 -0.704534 2.294685 0.027236 -0.007300 2709.320000 1 0 0
14.093456 -1.001643 -9.804612 17.197651 -0.070952 2.177440 0.020703 -0.000689 903160.000000 1 0 0
4.029056 11.213157 -12.216412 17.064844 1.225847 2.368683 0.019523 -0.012832 -1029820.000000 1 0 0
-1.372944 2.945857 -17.028212 17.335600 -1.134668 2.952996 0.009385 -0.004015 -368145.000000 1 0 0
6.087656 -0.542043 -17.643612 18.672182 -0.088806 2.808129 0.020301 -0.000971 -158550.000000 1 0 0
6.162756 -6.441243 -16.182512 18.475466 -0.807490 2.638078 0.007711 -0.002299 -276800.000000 1 0 0
-1.777344 -5.125843 -19.743212 20.475049 1.237027 2.873422 0.025351 -0.021998 -396030.000000 1 0 0
-0.058444 -4.282443 -15.176412 15.769154 1.557150 2.866541 0.003797 -0.004918 -694244.000000 1 0 0
0.582556 0.831357 -12.910412 12.950261 0.959581 3.063124 0.006233 -0.005782 266338.000000 1 0 0
15.772956 0.611557 -13.565312 20.812924 0.038753 2.280717 0.029598 -0.008277 583940.000000 1 0 0
0.004756 6.999557 -16.284812 17.725375 1.570117 2.735645 0.007654 0.000715 -515682.000000 1 0 0
-4.903944 -0.580043 -18.349612 19.002457 0.117734 2.878707 -0.002149 -0.000053 -133233.000000 1 0 0
10.386956 -8.468743 -12.913712 18.611083 -0.684016 2.337649 0.027775 -0.017479 855925.000000 1 0 0
4.320056 8.651057 -17.184412 19.718206 1.107655 2.629049 0.027920 -0.012602 -470978.000000 1 0 0
9.122456 0.173757 -17.052112 19.339698 0.019045 2.650283 0.019821 0.000533 -333256.000000 1 0 0
3.355356 4.840957 -18.497712 19.412846 0.964704 2.833321 0.028624 0.000327 -382232.000000 1 0 0
1.391956 -8.302743 -15.924812 18.013126 -1.404691 2.655290 0.010512 -0.002235 -631837.000000 1 0 0
4.565056 7.755757 -14.892512 17.400529 1.038800 2.598018 0.011555 -0.002809 394221.000000 1 0 0
-5.671244 -0.365943 -15.076912 16.112423 0.064437 2.781125 0.004263 -0.003837 -893007.000000 1 0 0
2.787156 3.398457 -13.705112 14.392631 0.883904 2.831257 0.010641 -0.001687 -187814.000000 1 0 0
-2.424644 -10.343743 -18.107212 20.993881 1.340547 2.610985 0.034703 -0.006252 93369.300000 1 0 0
6.095956 -9.017843 -15.697212 19.101954 -0.976368 2.535288 -0.000531 0.008087 -32141.400000 1 0 0
-1.774544 5.479857 -17.228612 18.165982 -1.257623 2.818946 0.006419 -0.004196 -92536.400000 1 0 0
9.964056 -12.283743 -11.732712 19.693382 -0.889289 2.209019 0.041485 -0.002853 532033.000000 1 0 0
10.834056 3.552557 -9.326612 14.730347 0.316858 2.256421 0.002300 -0.003173 -1229620.000000 1 0 0
4.881156 -0.484443 -10.915512 11.966986 -0.098924 2.719260 0.003375 -0.004109 551900.000000 1 0 0
6.468656 9.500257 -11.450212 16.223616 0.973009 2.354312 0.019519 -0.014797 225476.000000 1 0 0
10.817356 -9.532743 -9.405512 17.214878 -0.722356 2.148808 0.035091 -0.011960 -1834600.000000 1 0 0
3.357356 -2.417743 -14.463812 15.043908 -0.624111 2.862987 0.008587 -0.006284 90287.300000 1 0 0
9.036356 -4.595543 -14.588612 17.765200 -0.470473 2.534290 0.020142 -0.012255 295186.000000 1 0 0
-3.935544 -6.622343 -16.576312 18.278896 1.034591 2.706557 0.004941 -0.002754 -1736080.000000 1 0 0
5.877956 -7.728143 -11.316812 14.911230 -0.920551 2.432489 0.001688 0.002067 415409.000000 1 0 0
5.542056 6.412657 -16.960112 18.960009 0.858095 2.678153 0.026509 -0.001693 -77190.200000 1 0 0
9.095656 1.349957 -19.428512 21.494660 0.147342 2.699542 0.036321 -0.004435 331155.000000 1 0 0
13.037456 5.795157 -9.506212 17.144304 0.418271 2.158537 -0.006473 -0.002784 -9822.770000 1 0 0
-1.588344 -0.680843 -17.225412 17.311880 0.404958 3.041604 0.013402 -0.010769 159119.000000 1 0 0
-0.388244 -0.581843 -19.512612 19.525145 0.982379 3.105760 0.026211 -0.018215 -409805.000000 1 0 0
2.873356 6.510957 -16.540112 18.006222 1.155192 2.735263 0.019059 0.002579 132477.000000 1 0 0
7.634056 3.765957 -15.608112 17.778481 0.458281 2.642300 0.016459 0.001482 68212.400000 1 0 0
3.000256 -9.858543 -14.807112 18.040038 -1.275371 2.533592 0.014173 0.003357 23761.200000 1 0 0
8.907356 -10.594143 -13.319412 19.208946 -0.871679 2.336988 0.024672 -0.003906 -687246.000000 1 0 0
3.824856 0.050957 -14.671112 15.161584 0.013322 2.886541 0.011644 -0.004840 -1808400.000000 1 0 0
-1.134144 -2.850443 -18.749612 18.998927 1.192116 2.979411 0.024766 -0.013243 340517.000000 1 0 0
9.428656 10.067157 -13.128912 19.042466 0.818137 2.331532 0.045096 -0.021114 353384.000000 1 0 0
4.686656 2.097857 -10.640712 11.814842 0.420876 2.691996 -0.003510 -0.000224 235822.000000 1 0 0
-0.479544 7.159457 -18.880212 20.197776 -1.503916 2.778399 0.021482 0.000766 -281984.000000 1 0 0
0.820856 -1.676443 -17.599312 17.698023 -1.115470 3.035926 0.022988 -0.012396 -1999160.000000 1 0 0
-4.396244 -2.237243 -14.059112 14.899357 0.470741 2.804153 0.004725 -0.004205 -4021350.000000 1 0 0
10.148956 5.926057 -10.344212 15.656378 0.528503 2.292551 0.009955 -0.002673 -103292.000000 1 0 0
8.371856 5.193557 -17.705812 20.262200 0.555255 2.633830 0.048015 -0.009846 -84016.800000 1 0 0
11.479056 0.260957 -13.590112 17.791233 0.022729 2.440078 0.016476 0.002907 351204.000000 1 0 0
6.795556 12.010757 -11.793012 18.152492 1.055912 2.277938 0.038790 -0.023227 -435256.000000 1 0 0
-0.926344 0.589857 -15.064712 15.104687 -0.567010 3.068823 0.009952 -0.005279 -399060.000000 1 0 0
-4.384844 -3.034443 -18.915212 19.652479 0.605357 2.866812 0.000470 -0.002559 337191.000000 1 0 0
5.694456 -12.156143 -13.786612 19.242383 -1.132712 2.369527 0.008060 -0.001337 -12121.500000 1 0 0
2.104156 -4.677843 -14.012312 14.921614 -1.148098 2.790686 0.003561 -0.000831 -404311.000000 1 0 0
11.781756 2.012457 -15.495012 19.569240 0.169179 2.484554 0.030272 -0.002058 582552.000000 1 0 0
9.688656 2.212357 -13.853112 17.049143 0.224496 2.519293 0.011416 0.000981 -572744.000000 1 0 0
-2.137344 -4.200443 -16.379612 17.044167 1.100104 2.861428 0.000759 -0.006254 -2002710.000000 1 0 0
-2.780844 10.142357 -14.323412 17.769654 -1.303191 2.508261 0.000430 -0.001773 288691.000000 1 0 0
3.523956 5.807557 -13.635012 15.233500 1.025401 2.679379 0.008927 -0.000896 -574663.000000 1 0 0
-4.991544 -2.470843 -16.479412 17.395160 0.459644 2.815671 -0.001601 -0.004507 297459.000000 1 0 0
-4.320544 6.201157 -13.568012 15.531013 -0.962267 2.633363 -0.000116 -0.004229 -10741.600000 1 0 0
5.953956 -1.108443 -14.023212 15.275101 -0.184062 2.733914 0.010771 -0.004914 -1949910.000000 1 0 0
6.707756 -3.059443 -12.590612 14.590329 -0.427920 2.611860 0.007783 -0.003232 402319.000000 1 0 0
2.938956 -3.092643 -18.370712 18.859612 -0.810873 2.913400 0.026843 -0.013748 -212356.000000 1 0 0
7.312956 -12.151043 -11.911512 18.520564 -1.029027 2.269402 0.015994 -0.000445 -1745130.000000 1 0 0
-6.051044 -5.385343 -17.769312 19.528581 0.727255 2.713871 0.025439 0.002727 658679.000000 1 0 0
0.600056 8.722457 -11.859812 14.734193 1.502110 2.506333 0.006480 -0.000942 142178.000000 1 0 0
0.363556 8.584757 -14.410012 16.777326 1.528473 2.603910 0.004522 -0.002559 -335547.000000 1 0 0
7.682356 -2.533643 -15.005312 17.046915 -0.318567 2.647156 0.016428 -0.013774 -743992.000000 1 0 0
14.362456 1.470957 -8.930712 16.976498 0.102061 2.124761 0.009075 0.001247 186073.000000 1 0 0
2.742156 10.831957 -14.543212 18.340003 1.322851 2.486477 0.016589 -0.003211 257475.000000 1 0 0
6.092156 1.006957 -15.534812 16.717018 0.163806 2.763259 0.015852 0.000017 251190.000000 1 0 0
16.558256 -5.355143 -10.392612 20.269676 -0.312795 2.109143 0.050428 -0.020629 -57663.100000 1 0 0
4.883056 -4.246843 -11.223512 12.955583 -0.715826 2.618557 -0.000623 0.002332 -321323.000000 1 0 0
8.831056 -3.676043 -16.951012 19.463752 -0.394447 2.627830 0.018504 -0.015419 249441.000000 1 0 0
13.315556 -9.435443 -8.733212 18.509474 -0.616477 2.062155 0.045968 -0.021381 -422541.000000 1 0 0
2.331956 -7.724843 -13.594212 15.808663 -1.277618 2.605913 0.000513 0.004061 226591.000000 1 0 0
-6.836344 -2.280643 -18.394012 19.755419 0.321996 2.768177 0.004768 -0.000494 -450145.000000 1 0 0
-1.436344 -6.527943 -15.688512 17.053050 1.354217 2.738833 0.004361 -0.000128 509931.000000 1 0 0
1.811356 -7.316943 -18.364112 19.850926 -1.328119 2.752098 0.030207 -0.009449 -142930.000000 1 0 0
5.331156 10.945857 -14.469212 18.910079 1.117564 2.442084 0.033924 -0.022750 -53108.800000 1 0 0
5.355556 -3.389043 -17.354112 18.475194 -0.564195 2.791438 0.015847 -0.012348 -1069540.000000 1 0 0
4.000256 13.118857 -14.028812 19.619225 1.274828 2.367498 0.024745 -0.014672 312597.000000 1 0 0
9.634156 10.209657 -15.701312 21.061463 0.814392 2.412080 0.066457 -0.031824 250756.000000 1 0 0
2.513656 3.872657 -16.233312 16.877095 0.995070 2.864499 0.016923 0.000581 113459.000000 1 0 0
16.609656 1.961257 -11.485812 20.289186 0.117535 2.172570 0.017583 -0.001149 71432.300000 1 0 0
10.103856 -3.640143 -10.534312 15.043612 -0.345797 2.346546 0.021027 -0.007087 -190141.000000 1 0 0
14.848656 -2.213843 -11.980812 19.207382 -0.148004 2.244341 0.041376 -0.004331 363913.000000 1 0 0
-2.698544 -8.703243 -16.235612 18.617832 1.270134 2.630164 0.016443 0.004224 -701300.000000 1 0 0
14.113056 8.052457 -9.051312 18.599641 0.518497 2.079035 0.026466 -0.002605 158675.000000 1 0 0
-8.058144 0.160457 -16.455112 18.322940 -0.019910 2.686137 -0.005112 -0.004891 -34622.900000 1 0 0
-3.447644 3.985457 -15.882212 16.733641 -0.857626 2.821222 0.004422 -0.002105 -893229.000000 1 0 0
15.003156 3.979557 -9.682012 18.294068 0.259277 2.128505 0.000007 0.004906 362702.000000 1 0 0
5.449556 1.064157 -12.958612 14.098075 0.192847 2.736779 0.004294 -0.001712 204617.000000 1 0 0
7.817756 -7.730743 -12.929512 16.972153 -0.779802 2.436895 0.017658 -0.001443 -1657100.000000 1 0 0
3.194456 -6.095543 -11.826612 13.683163 -1.088083 2.614590 0.000528 0.002554 -914828.000000 1 0 0
-3.425244 3.777057 -18.478612 19.169182 -0.834207 2.872359 0.010401 -0.000374 -8360.400000 1 0 0
0.883356 5.172657 -17.759712 18.518749 1.401654 2.854293 0.015801 -0.005862 -826585.000000 1 0 0
6.392356 7.116257 -10.223512 14.000840 0.838935 2.389421 0.004979 -0.001554 -263185.000000 1 0 0
9.720656 3.629657 -11.659312 15.607854 0.357364 2.414358 0.011596 -0.002276 464803.000000 1 0 0
4.608056 1.720957 -17.527712 18.204850 0.357426 2.867993 0.026185 -0.001213 -877778.000000 1 0 0
2.619156 8.174157 -13.261912 15.797313 1.260713 2.567166 0.010312 -0.002764 -483876.000000 1 0 0
14.464556 -3.483743 -9.838912 17.837153 -0.236346 2.155073 0.034400 -0.008508 27896.000000 1 0 0
-1.324744 9.302457 -16.329612 18.840033 -1.429339 2.619446 0.007411 0.001886 -342196.000000 1 0 0
-5.203144 2.144857 -15.648712 16.629952 -0.390999 2.796357 0.002562 -0.004956 185013.000000 1 0 0
4.462456 4.282357 -11.931212 13.438970 0.764806 2.663354 0.003312 -0.001452 411027.000000 1 0 0
9.388256 2.806157 -17.234312 19.825119 0.290448 2.624615 0.031021 -0.010391 550991.000000 1 0 0
-4.278244 14.372557 -13.343712 20.073076 -1.281481 2.297964 -0.002380 -0.004018 -49133.200000 1 0 0
15.626656 -4.880343 -8.014412 18.227477 -0.302711 2.026048 0.040999 -0.009435 -61817.700000 1 0 0
1.248256 9.203957 -16.943512 19.322359 1.435997 2.640142 0.013015 0.006485 355759.000000 1 0 0
0.448356 -3.213343 -12.726412 13.133474 -1.432162 2.891970 0.003469 -0.001311 259163.000000 1 0 0
7.503756 3.606757 -13.076512 15.501942 0.448056 2.574638 0.002083 0.002534 340959.000000 1 0 0
-2.749444 7.605457 -14.949212 16.996510 -1.223905 2.645703 -0.006204 -0.001480 -145940.000000 1 0 0
12.247456 -5.120343 -11.098412 17.302972 -0.395990 2.267140 0.040362 -0.012185 -641721.000000 1 0 0
0.748256 -4.407443 -19.863012 20.359879 -1.402629 2.920214 0.035624 -0.020005 -684210.000000 1 0 0
3.314056 -4.441543 -16.233812 17.153627 -0.929764 2.812629 0.015064 -0.008491 627554.000000 1 0 0
-5.658044 4.219557 -14.381812 16.020444 -0.640784 2.685354 0.000201 -0.003350 733213.000000 1 0 0
12.171256 -7.464543 -9.940612 17.397547 -0.550136 2.178983 0.027896 -0.011735 -163345.000000 1 0 0
-2.072744 -1.841143 -14.967412 15.222007 0.726293 2.958441 0.006478 -0.002703 17123.600000 1 0 0
7.033656 5.871557 -14.266112 16.954924 0.695592 2.570691 0.012219 0.000211 632586.000000 1 0 0
4.259056 -5.381443 -18.516512 19.747422 -0.901301 2.786652 0.031718 -0.011467 298269.000000 1 0 0
7.611756 7.415857 -12.297712 16.253229 0.772363 2.428943 0.012507 -0.009823 -1082950.000000 1 0 0
12.410756 -2.523643 -11.096912 16.838560 -0.200608 2.290309 0.032133 -0.006245 -1135860.000000 1 0 0
7.590356 -0.642543 -10.628112 13.076052 -0.084451 2.519725 0.005464 -0.000708 -1547730.000000 1 0 0
5.350656 4.025957 -14.343812 15.829807 0.645050 2.704832 0.008079 0.001575 431926.000000 1 0 0
14.731056 2.912357 -13.089812 19.920567 0.195185 2.287762 0.018717 -0.009197 -1287200.000000 1 0 0
-6.456944 6.810057 -15.824512 18.397939 -0.812008 2.606309 0.000881 0.001320 291058.000000 1 0 0
-11.577044 3.646157 -16.121012 20.179431 -0.305113 2.496233 0.050210 -0.010798 -519256.000000 1 0 0
-4.922544 6.518757 -17.952112 19.723183 -0.924017 2.714572 -0.000514 0.007973 366759.000000 1 0 0
-10.128544 1.562557 -15.468212 18.555176 -0.153066 2.556450 0.028478 -0.007467 22674.600000 1 0 0
-7.588044 5.931057 -18.056412 20.464355 -0.663440 2.651597 0.000198 0.003462 -10310.500000 1 0 0
-8.981944 3.842157 -16.008112 18.753590 -0.404210 2.593659 0.013288 0.015078 713965.000000 1 0 0
8.942856 13.353957 -11.991912 20.052650 0.980712 2.211826 0.054373 -0.023892 -856639.000000 1 0 0
14.154156 9.039757 -11.422212 20.310693 0.568365 2.168051 0.030441 -0.006478 324035.000000 1 0 0
8.607256 15.758357 -9.178012 20.165479 1.070873 2.043320 0.038512 -0.017850 -123443.000000 1 0 0
7.195656 13.499657 -13.918112 20.681683 1.081079 2.309010 0.042093 -0.021221 -95289.000000 1 0 0
4.834656 16.010657 -12.376312 20.805963 1.277538 2.207868 0.036293 -0.019733 172852.000000 1 0 0
11.206956 10.841557 -11.423812 19.329736 0.768827 2.203090 0.045779 -0.019590 90212.600000 1 0 0
15.955456 9.717857 -9.563112 20.987292 0.547056 2.043912 0.037835 -0.001865 -712796.000000 1 0 0
13.475256 10.517757 -9.290312 19.455478 0.662752 2.068622 0.061359 -0.013964 158290.000000 1 0 0
10.536456 11.813657 -8.344112 17.894233 0.842481 2.055902 0.031790 -0.005660 326371.000000 1 0 0
5.579456 16.022557 -9.838112 19.612269 1.235704 2.096279 0.024119 -0.023569 -418256.000000 1 0 0
6.831356 14.616257 -11.516012 19.822233 1.133583 2.190709 0.038995 -0.012238 -1756160.000000 1 0 0
11.077356 13.938157 -9.761012 20.304122 0.899265 2.072295 0.055047 -0.009646 -164529.000000 1 0 0
8.103656 -18.716143 -1.268812 20.434607 -1.162189 1.632928 0.038383 0.001839 -291755.000000 1 0 0
7.277056 -17.429943 -3.392512 19.190300 -1.175293 1.748513 0.030375 -0.005263 -193120.000000 1 0 0
4.517956 -18.304143 5.897788 19.754430 -1.328806 1.267618 0.030853 -0.004098 183372.000000 1 0 0
9.766256 -17.258043 -2.505812 19.987469 -1.055831 1.696496 0.038674 -0.004739 -250497.000000 1 0 0
-9.705344 -12.266243 -10.018212 18.574687 0.901430 2.140458 0.026523 -0.003675 -769253.000000 1 0 0
-5.191244 -7.051543 -12.227012 15.039052 0.936195 2.520112 0.005690 0.003232 13141.300000 1 0 0
-10.822444 -9.519843 -5.500612 15.427555 0.721451 1.935363 0.013682 -0.005241 -1118270.000000 1 0 0
-4.717844 -11.476143 -14.129812 18.804561 1.180758 2.420983 0.022145 -0.001495 -166498.000000 1 0 0
-3.185744 -15.397743 7.471188 17.408565 1.366778 1.127226 0.009486 -0.005282 342336.000000 1 0 0
-4.807044 -11.919443 -11.560512 17.286591 1.187453 2.303331 0.015234 -0.003365 357901.000000 1 0 0
-14.433644 -12.880843 -4.194112 19.794867 0.728610 1.784293 0.029861 -0.011507 -637461.000000 1 0 0
-3.311644 -12.142843 -3.300612 13.011905 1.304547 1.827259 0.002720 0.001911 710450.000000 1 0 0
-2.364244 -17.376443 -1.529612 17.603129 1.435566 1.657800 -0.006093 -0.002376 -434430.000000 1 0 0
-5.729144 -12.103043 3.893488 13.945107 1.128684 1.287834 -0.003165 -0.003157 -256386.000000 1 0 0
-8.839844 -10.647743 -11.973012 18.299461 0.877905 2.284029 0.016589 0.000933 379074.000000 1 0 0
-10.124444 -11.857943 -7.461512 17.285524 0.864094 2.017131 0.027582 -0.012798 -176462.000000 1 0 0
-10.958144 -14.924543 6.171888 19.517047 0.937460 1.249043 0.024135 -0.017564 -31905.300000 1 0 0
-9.546944 -15.984643 0.613188 18.628713 1.032396 1.537874 0.014173 0.000429 -1925130.000000 1 0 0
-14.922044 -7.858243 -8.171812 18.740275 0.484716 2.022008 0.016385 -0.004668 -207249.000000 1 0 0
-2.293344 -16.488943 5.171788 17.432501 1.432599 1.269587 0.014538 -0.006886 -355590.000000 1 0 0
4.344756 -15.782243 5.654488 17.318469 -1.302157 1.238198 0.020224 -0.006666 -395884.000000 1 0 0
4.133056 -14.687543 -9.942012 18.211251 -1.296491 2.148291 0.002807 -0.004938 -618860.000000 1 0 0
-7.742444 -14.169643 -0.375012 16.151312 1.070713 1.594017 0.003144 0.002281 562882.000000 1 0 0
3.107656 -14.586243 9.955588 17.931251 -1.360881 0.982182 0.016579 -0.012120 369690.000000 1 0 0
2.707256 -17.122543 10.465488 20.249375 -1.413984 1.027652 0.030062 -0.013146 995.104000 1 0 0
-8.365944 -17.168543 -5.865912 19.978909 1.117374 1.868792 0.031791 -0.002299 -2644.770000 1 0 0
-6.571644 -9.112243 -7.690112 13.614599 0.945991 2.171039 0.006770 -0.001200 356206.000000 1 0 0
-6.202444 -13.143843 -4.848612 15.321226 1.129889 1.892796 0.001417 0.000658 222416.000000 1 0 0
2.110056 -19.423843 -4.908012 20.145139 -1.462588 1.816906 -0.003376 -0.005181 25830.300000 1 0 0
-5.413244 -12.780643 8.443988 16.246507 1.170154 1.024248 0.005003 -0.009363 1016650.000000 1 0 0
2.182056 -17.472843 3.528588 17.958635 -1.446557 1.373025 0.015501 -0.013908 -329803.000000 1 0 0
-17.541244 -10.214443 -2.390212 20.438767 0.527311 1.688010 0.026502 -0.013074 399434.000000 1 0 0
-3.389044 -15.333843 2.561888 15.911494 1.353276 1.409084 0.001142 -0.005198 -73338.200000 1 0 0
-10.372844 -10.472843 -14.115912 20.409196 0.790195 2.334560 0.024352 -0.002915 239321.000000 1 0 0
5.932156 -14.666143 -5.581212 16.776059 -1.186434 1.909950 0.002405 -0.006344 527470.000000 1 0 0
-7.287544 -12.272143 -10.776712 17.884387 1.034927 2.217522 0.016514 -0.006511 -1134410.000000 1 0 0
-7.030644 -14.309843 4.090688 16.460113 1.114121 1.319643 -0.005324 -0.003622 183766.000000 1 0 0
3.155056 -14.942743 -3.066812 15.577076 -1.362710 1.768971 0.001906 -0.002840 -844151.000000 1 0 0
-7.597744 -11.396543 7.954588 15.839267 0.982791 1.044647 0.008782 -0.014154 -2258500.000000 1 0 0
-12.712644 -12.264543 -0.976012 17.691324 0.767460 1.625993 0.008835 -0.004379 -1859490.000000 1 0 0
-1.858444 -13.610843 4.075088 14.328825 1.435094 1.282418 0.004684 -0.000610 -4133810.000000 1 0 0
-3.148144 -13.987543 5.248288 15.267833 1.349417 1.219891 0.000069 -0.002729 152878.000000 1 0 0
-14.307644 -10.366043 -4.327612 18.190430 0.626988 1.811006 0.009562 -0.007729 278623.000000 1 0 0
-6.162644 -8.619743 -10.343912 14.807926 0.950110 2.344150 0.009797 -0.000538 382278.000000 1 0 0
0.702156 -19.440943 2.644088 19.632486 -1.534695 1.435707 0.013074 -0.014445 180022.000000 1 0 0
6.203656 -14.007743 -8.123612 17.340568 -1.153885 2.058359 0.016194 -0.012152 -2700780.000000 1 0 0
-3.992544 -16.750043 -5.963312 18.222663 1.336802 1.904185 -0.002678 -0.000148 -79961.500000 1 0 0
-3.775544 -13.646143 -13.211212 19.365125 1.300874 2.321586 0.024157 -0.001891 -1984820.000000 1 0 0
-8.244744 -14.776243 -4.520412 17.514203 1.061852 1.831851 0.011994 -0.000147 -2077290.000000 1 0 0
-4.636144 -14.413743 10.263988 18.292055 1.259600 0.975061 0.012760 -0.007131 303621.000000 1 0 0
-0.357844 -12.142743 -10.044912 15.763075 1.541335 2.261712 0.004052 0.002241 837561.000000 1 0 0
2.424656 -17.029443 6.987188 18.566144 -1.429367 1.184953 0.019198 -0.016653 773919.000000 1 0 0
-2.903944 -19.209143 -3.312112 19.707718 1.420757 1.739659 -0.007972 -0.001279 1012830.000000 1 0 0
0.528456 -15.361143 -3.083312 15.676441 -1.536408 1.768771 -0.000972 -0.000962 -37712.000000 1 0 0
6.060756 -18.036143 0.600088 19.036684 -1.246617 1.539268 0.021042 -0.007643 -665287.000000 1 0 0
-7.150144 -16.691243 3.878488 18.567844 1.166069 1.360365 0.005350 -0.006161 81430.000000 1 0 0
-5.301344 -13.496343 -9.585712 17.382215 1.196513 2.154918 0.012608 -0.003483 187597.000000 1 0 0
5.569456 -15.361843 -2.020912 16.464785 -1.222984 1.693848 0.009189 -0.001055 -180737.000000 1 0 0
-8.758144 -10.377343 -0.414112 13.585501 0.869815 1.601283 0.000608 -0.002523 -259371.000000 1 0 0
-7.425844 -18.446543 -2.844812 20.087585 1.188085 1.712894 0.018412 -0.007937 -113738.000000 1 0 0
7.841856 -16.093343 -1.126512 17.937654 -1.117382 1.633639 0.017036 -0.000902 -697193.000000 1 0 0
-8.113944 -10.053843 -9.611812 16.102881 0.891772 2.210428 0.017718 -0.002865 -1484150.000000 1 0 0
-9.226144 -14.962043 -6.824512 18.856257 1.018234 1.941126 0.032379 -0.010895 -139887.000000 1 0 0
-11.508544 -10.426743 -11.930912 19.583417 0.736120 2.225892 0.023424 0.001932 -1028460.000000 1 0 0
6.639356 -16.267143 2.516888 17.749246 -1.183288 1.428514 0.021098 -0.009458 1347390.000000 1 0 0
-2.203744 -11.113743 -6.101312 12.868480 1.375046 2.064770 0.002857 0.000406 -1172060.000000 1 0 0
-12.439544 -15.351943 -3.325712 20.037085 0.889812 1.737546 0.021035 -0.008848 -540916.000000 1 0 0
-0.292844 -19.602343 -2.993912 19.831821 1.555858 1.722341 0.008285 -0.007290 -450769.000000 1 0 0
-5.896044 -15.708143 -4.656512 17.412415 1.211719 1.841516 0.003568 -0.000969 -2007780.000000 1 0 0
1.872756 -15.913043 -1.040712 16.056626 -1.453648 1.635657 0.003042 -0.007847 611889.000000 1 0 0
-13.185044 -12.021843 5.226788 18.592725 0.739285 1.285835 0.027361 -0.013317 18203.900000 1 0 0
2.024456 -15.383343 -9.067512 17.971239 -1.439948 2.099665 0.000472 0.001808 -1564570.000000 1 0 0
-11.836844 -16.670343 -0.172412 20.446050 0.953355 1.579229 0.026081 -0.018062 -49660.100000 1 0 0
-7.624044 -16.712843 -0.962812 18.394896 1.142816 1.623161 0.014298 -0.001594 507808.000000 1 0 0
-3.027444 -14.418043 -1.797312 14.841689 1.363827 1.692193 -0.000494 0.002039 546504.000000 1 0 0
-1.895444 -10.484343 -13.267712 17.016061 1.391940 2.465010 0.007420 0.002989 353041.000000 1 0 0
1.572656 -19.547743 5.066188 20.254723 -1.490517 1.317988 0.026773 -0.015487 -313138.000000 1 0 0
-17.367644 -9.373643 2.478388 19.890768 0.494916 1.445872 0.025984 -0.012372 -42526.200000 1 0 0
-2.672944 -15.688243 -8.126712 17.869221 1.402038 2.042931 -0.004721 0.004206 -478270.000000 1 0 0
-10.440744 -12.131343 0.428388 16.011313 0.860156 1.544038 0.001297 0.000576 144903.000000 1 0 0
-6.893144 -11.464943 -6.633012 14.931752 1.029468 2.031102 0.004391 -0.002407 11509.000000 1 0 0
-2.171044 -13.594243 -6.773312 15.342576 1.412430 2.028034 -0.004022 0.004422 583849.000000 1 0 0
-14.160344 -14.458443 -0.982312 20.261463 0.795814 1.619297 0.026842 -0.012082 -107816.000000 1 0 0
-9.499444 -11.323543 -4.371512 15.413377 0.872775 1.858361 0.008362 -0.005929 2336270.000000 1 0 0
9.412956 -15.138943 -5.194512 18.568099 -1.014522 1.854335 0.029272 -0.006770 388440.000000 1 0 0
-5.602644 -10.876843 -9.369312 15.410365 1.095143 2.224320 0.011816 -0.003992 750310.000000 1 0 0
-10.495044 -16.065243 -4.773012 19.774216 0.992121 1.814579 0.034059 -0.000829 -1242630.000000 1 0 0
2.093356 -17.374043 -3.250512 17.799027 -1.450887 1.754450 0.002903 -0.004541 354049.000000 1 0 0
-0.287144 -14.463043 -8.193812 16.625301 1.550945 2.086161 -0.002117 0.002603 240418.000000 1 0 0
-0.604844 -18.316043 -7.161812 19.675742 1.537786 1.943347 -0.005092 0.001023 -53684.200000 1 0 0
-1.918744 -10.009143 -10.598912 14.703791 1.381395 2.375793 0.005937 0.001746 390005.000000 1 0 0
-5.085744 -17.182043 2.140488 18.046304 1.283021 1.451906 0.006393 -0.006546 -867264.000000 1 0 0
0.194356 -12.812643 -2.627512 13.080727 -1.555628 1.773041 0.000905 -0.001063 -1045210.000000 1 0 0
2.652656 -15.066343 3.057088 15.600547 -1.396517 1.373560 0.014164 -0.005004 -787396.000000 1 0 0
-9.328944 -13.091243 6.893988 17.491053 0.951658 1.165660 0.005653 -0.011757 -1004710.000000 1 0 0
-1.083244 -17.816243 -4.690012 18.455031 1.510070 1.827746 -0.002937 -0.003408 -64201.900000 1 0 0
-9.809244 -17.746043 -2.020812 20.377120 1.065839 1.670130 0.033408 -0.008582 837009.000000 1 0 0
1.351356 -16.440543 1.380888 16.553685 -1.488784 1.487280 0.007767 -0.009405 -566060.000000 1 0 0
-0.250544 -17.983543 4.398488 18.515326 1.556865 1.330944 0.016946 -0.014453 -578644.000000 1 0 0
-17.394344 -9.133943 -0.049012 19.646743 0.483533 1.573291 0.012513 -0.010000 1121420.000000 1 0 0
-14.840944 -7.125843 -10.637712 19.600821 0.447640 2.144466 0.027882 -0.015448 716462.000000 1 0 0
2.774856 -12.809943 -8.862212 15.821924 -1.357475 2.165330 -0.005142 0.002483 319452.000000 1 0 0
-11.613344 -14.898043 1.715788 18.967482 0.908668 1.480213 0.013507 -0.004357 -109051.000000 1 0 0
-2.279144 -15.608943 10.557188 18.981250 1.425806 0.981002 0.013561 -0.002091 529488.000000 1 0 0
-7.090844 -15.848643 1.370588 17.416604 1.150098 1.492021 0.007918 -0.004370 -544779.000000 1 0 0
-12.564644 -15.024343 -5.911912 20.458540 0.874318 1.863947 0.028681 -0.006189 227684.000000 1 0 0
0.839656 -13.739743 -5.057112 14.664922 -1.509761 1.922869 -0.002076 0.001115 932986.000000 1 0 0
5.956656 -16.403643 -7.525712 19.005199 -1.222473 1.977933 0.024936 -0.020578 142357.000000 1 0 0
-6.613944 -12.810943 6.125488 15.664806 1.094215 1.169040 0.004935 -0.007722 -720611.000000 1 0 0
-2.564644 -13.531943 0.546588 13.783673 1.383493 1.531131 0.001950 -0.000412 3252480.000000 1 0 0
-4.234844 -15.517643 0.177988 16.086107 1.304379 1.559731 -0.001857 0.000478 491166.000000 1 0 0
-17.637844 -7.584543 -2.159512 19.320516 0.406111 1.682803 0.008314 -0.008539 751172.000000 1 0 0
1.193556 -12.868143 -11.791112 17.494113 -1.478308 2.310413 0.007119 0.002039 -1334800.000000 1 0 0
1.250556 -17.057143 -5.767512 18.049217 -1.497612 1.896044 0.001770 -0.003988 812413.000000 1 0 0
-12.827944 -6.497443 -8.939812 16.932015 0.468840 2.127020 0.018521 -0.007175 1151590.000000 1 0 0
-11.584444 -13.527543 -8.922112 19.919785 0.862622 2.035214 0.036923 -0.011076 287711.000000 1 0 0
-4.296944 -9.812943 3.603888 11.302460 1.158063 1.246271 0.002845 -0.002851 -4229080.000000 1 0 0
-7.128444 -14.210843 9.693288 18.620489 1.105854 1.023277 0.013860 -0.016814 -1112230.000000 1 0 0
-5.229144 -15.936043 -8.353412 18.737153 1.253733 2.032887 0.002741 0.005687 -44770.500000 1 0 0
-0.272144 -13.527243 2.155888 13.700665 1.550681 1.412783 0.006639 -0.003891 622799.000000 1 0 0
-10.924044 -13.589843 -4.464012 17.998499 0.893719 1.821434 0.025159 -0.001884 -1260800.000000 1 0 0
-9.739044 -10.532143 6.696688 15.831003 0.824503 1.134031 0.016698 -0.009558 -253790.000000 1 0 0
-15.468444 -8.131543 -4.955512 18.164577 0.483985 1.847111 0.019205 -0.005793 -232705.000000 1 0 0
-14.492444 -7.418543 5.454088 17.170114 0.473115 1.247546 0.022027 -0.011064 4668.430000 1 0 0
-1.596244 -19.417643 -0.022812 19.483157 1.488775 1.571967 0.008004 -0.003740 -489656.000000 1 0 0
-15.284344 -12.142943 -1.330012 19.566072 0.671360 1.638824 0.021188 -0.006533 436320.000000 1 0 0
-4.414644 -12.144843 -6.642512 14.529600 1.222146 2.045608 0.001935 0.000560 244603.000000 1 0 0
-7.391144 -18.368843 2.002488 19.901090 1.188245 1.470004 0.013974 -0.005611 -83126.800000 1 0 0
-2.540344 -11.661443 -8.584412 14.701521 1.356306 2.194337 0.003867 0.002945 614339.000000 1 0 0
-1.526544 -20.368143 -5.173412 21.070258 1.495989 1.818864 -0.007333 0.001039 -136466.000000 1 0 0
-5.510644 -9.034643 -13.972312 17.527620 1.023096 2.493372 0.016578 0.001215 781580.000000 1 0 0
-8.249344 -19.311943 -0.629012 21.009486 1.167095 1.600740 0.016166 0.003776 71761.800000 1 0 0
-17.035344 -7.351243 5.762388 19.428043 0.407388 1.269664 0.034214 -0.015484 97988.400000 1 0 0
-3.655644 -14.582943 -4.380312 15.659282 1.325178 1.854305 -0.003509 0.000805 -2731260.000000 1 0 0
-3.085444 -14.834043 -10.941612 18.689240 1.365723 2.196231 0.005943 -0.003245 -324759.000000 1 0 0
-0.094944 -16.434143 6.494888 17.671267 1.565019 1.194434 0.024215 -0.015704 -212279.000000 1 0 0
-11.106644 -11.659943 3.858188 16.558908 0.809697 1.335637 0.014231 -0.008930 -752618.000000 1 0 0
-0.248744 -14.730743 -0.059112 14.732962 1.553912 1.574809 -0.000009 -0.000641 465823.000000 1 0 0
-7.235744 -9.548743 -2.383412 12.215365 0.922341 1.767172 0.005772 -0.003182 132442.000000 1 0 0
-11.096544 -14.287643 -0.785612 18.107657 0.910454 1.614196 0.009540 -0.011170 -183848.000000 1 0 0
0.053656 -14.735243 -10.767612 18.250253 -1.567155 2.201853 0.000918 0.001916 -242755.000000 1 0 0
-1.570844 -13.927043 -3.942512 14.559309 1.458480 1.845010 -0.002123 0.002050 -2379950.000000 1 0 0
-11.244644 -8.186043 -7.558512 15.829859 0.629268 2.068586 0.019085 -0.008232 649919.000000 1 0 0
-0.208344 -17.307343 -0.296212 17.311132 1.558759 1.587908 0.002769 -0.005336 -917721.000000 1 0 0
-12.807844 -9.557443 4.667188 16.648370 0.641076 1.286649 0.020371 -0.010419 -378920.000000 1 0 0
4.034956 -16.872943 1.697688 17.431559 -1.336067 1.473250 0.010311 -0.010722 874720.000000 1 0 0
-3.713844 -17.979243 -8.245712 20.125546 1.367098 1.992937 0.005293 -0.000840 -14128.300000 1 0 0
-13.196144 -11.184243 2.652488 17.500320 0.703063 1.418642 0.004836 -0.010500 692412.000000 1 0 0
-8.472044 -12.248843 4.225688 15.481154 0.965689 1.294331 0.005098 -0.005830 1217680.000000 1 0 0
-8.233044 -9.432643 -5.867812 13.827111 0.853200 2.009062 0.010162 -0.003547 302929.000000 1 0 0
3.696456 -17.461343 -5.271312 18.610455 -1.362183 1.857972 -0.000045 -0.001388 -1451780.000000 1 0 0
-2.565544 -13.137043 11.357688 17.554515 1.377933 0.867159 0.004600 -0.009505 529681.000000 1 0 0
-0.111944 -16.808743 -9.420112 19.268754 1.564137 2.081602 -0.003149 -0.000063 -18513.000000 1 0 0
-7.117144 -11.047543 -14.929112 19.889201 0.998489 2.419787 0.024282 0.013639 863670.000000 1 0 0
-4.650444 -18.711343 -1.456212 19.335500 1.327196 1.646181 0.013944 -0.014840 -154628.000000 1 0 0
-2.560444 -17.311043 1.142988 17.536662 1.423953 1.505573 0.008427 -0.008660 939269.000000 1 0 0
3.911356 -14.745143 -7.359712 16.937630 -1.311504 2.020300 0.001388 -0.000686 902553.000000 1 0 0
-0.985344 -15.820143 -6.156812 17.004534 1.508593 1.941283 -0.005364 0.001258 -198400.000000 1 0 0
-9.507444 -15.300043 8.324588 19.843931 1.014790 1.137899 0.019562 -0.011101 -278248.000000 1 0 0
-7.305744 -12.133943 -1.822212 14.280299 1.028840 1.698748 -0.002067 -0.000250 513121.000000 1 0 0
-7.496044 -14.995943 -9.355812 19.198964 1.107252 2.079801 0.027551 -0.007045 908514.000000 1 0 0
-5.150644 -13.314643 -0.604512 14.288957 1.201686 1.613115 0.000977 0.000582 2607660.000000 1 0 0
-6.385344 -13.846943 -7.304212 16.907453 1.138719 2.017518 0.001418 -0.000133 667683.000000 1 0 0
5.751956 -15.448343 0.343188 16.487998 -1.214364 1.549980 0.010464 -0.004001 220745.000000 1 0 0
-14.256444 -12.739643 1.007688 19.145760 0.729271 1.518140 0.001162 -0.016348 1093300.000000 1 0 0
1.079956 -15.324243 11.378588 19.117296 -1.500439 0.933284 0.017725 -0.003462 116572.000000 1 0 0
-9.120744 -10.862643 2.114088 14.340654 0.872346 1.422838 0.001056 -0.001481 -116397.000000 1 0 0
-9.444544 -8.873543 -3.475012 13.416963 0.754237 1.832784 0.007781 -0.005918 156624.000000 1 0 0
-12.190344 -7.213443 -12.350612 18.792974 0.534320 2.287885 0.020627 -0.004259 -844920.000000 1 0 0
-13.210544 -8.552043 -0.593412 15.748272 0.574521 1.608486 0.004345 -0.005161 1098090.000000 1 0 0
-11.061244 -9.698943 0.695188 14.727658 0.719871 1.523576 -0.000944 -0.002446 642327.000000 1 0 0
-15.701844 -12.074143 3.042888 20.039761 0.655528 1.418364 0.029116 -0.010818 64715.000000 1 0 0
-10.349844 -12.425143 -2.202512 16.320371 0.876269 1.706164 0.011195 -0.006634 412081.000000 1 0 0
-3.507844 -8.924143 -12.200112 15.517346 1.196275 2.475471 0.007860 0.004825 -309714.000000 1 0 0
-0.172944 -15.501443 4.010688 16.012816 1.559640 1.317633 0.014790 -0.009935 -768554.000000 1 0 0
-15.640644 -7.781343 1.217288 17.511734 0.461652 1.501227 -0.000393 -0.007256 324957.000000 1 0 0
-6.278544 -13.407143 -13.364812 19.944668 1.132830 2.305132 0.024438 -0.003703 -361549.000000 1 0 0
-15.202644 -10.315343 1.126888 18.406427 0.596166 1.509535 0.005853 -0.009161 1526910.000000 1 0 0
-9.962644 -8.385143 -12.576712 18.103552 0.699631 2.338812 0.022035 -0.000134 775.029000 1 0 0
-13.135844 -11.751243 -6.104912 18.652401 0.729820 1.904240 0.017631 -0.007466 -239747.000000 1 0 0
-12.169744 -11.473843 -3.742812 17.139440 0.755974 1.790944 0.010133 -0.004632 -399420.000000 1 0 0
-11.838344 -10.937543 -9.123012 18.520410 0.745868 2.085862 0.027280 -0.011643 668402.000000 1 0 0
-13.159044 -8.491843 -5.829812 16.711031 0.573081 1.927151 0.012999 -0.007924 -2124910.000000 1 0 0
-13.485844 -8.162443 -3.232612 16.091714 0.544278 1.773059 0.013929 -0.009813 164439.000000 1 0 0
-4.238444 -16.910143 -3.291412 17.741216 1.325211 1.757401 -0.002703 -0.007930 365144.000000 1 0 0
-15.400144 -9.055043 -1.759112 17.951399 0.531538 1.668947 0.014932 -0.005688 -893713.000000 1 0 0
-9.295544 -15.412943 3.574888 18.350635 1.028101 1.374733 0.004951 -0.014273 -1355670.000000 1 0 0
4.949556 -16.786743 7.928788 19.213499 -1.284072 1.145416 0.035531 -0.040359 329966.000000 1 0 0
-8.373944 -15.479243 6.017688 18.599529 1.074905 1.241328 0.007947 -0.001299 688145.000000 1 0 0
0.982256 -15.843043 8.795388 18.147333 -1.508876 1.064815 0.012573 -0.011570 942256.000000 1 0 0
-10.841044 -7.799143 -10.174912 16.789392 0.623634 2.221859 0.019087 -0.005577 924943.000000 1 0 0
-4.767244 -15.994643 5.521888 17.579718 1.281127 1.251282 0.004734 -0.009463 -2091560.000000 1 0 0
-1.500044 -13.121343 -12.118712 17.924368 1.456970 2.313256 0.008737 -0.004696 133327.000000 1 0 0
-6.467544 -14.398443 -2.554712 15.989711 1.148622 1.731256 0.003898 0.001967 656218.000000 1 0 0
-17.561344 -7.056443 -7.276612 20.276668 0.382072 1.937849 0.021616 -0.008699 -104783.000000 1 0 0
-17.484944 -4.611743 -10.092812 20.708846 0.257882 2.079868 0.033020 -0.005935 452361.000000 1 0 0
-15.275144 -5.356843 -8.929112 18.486612 0.337290 2.074879 0.014394 -0.015812 -100681.000000 1 0 0
-16.096444 -5.534143 -5.674812 17.942289 0.331151 1.892603 0.014065 -0.002760 -193372.000000 1 0 0
-15.157244 -4.504043 -12.389612 20.088079 0.288844 2.235422 0.023176 -0.009378 -790663.000000 1 0 0
-18.719844 -5.339443 -5.617312 20.260711 0.277851 1.851729 0.022997 -0.008617 -358600.000000 1 0 0
-17.352544 -4.408743 -7.622312 19.458865 0.248805 1.973290 0.014849 -0.007275 649618.000000 1 0 0
12.156456 -7.708843 8.730988 16.835553 -0.565142 1.025579 0.017862 -0.006523 260402.000000 1 0 0
16.046756 -3.317143 1.584988 16.462503 -0.203846 1.474368 0.028807 -0.009913 331002.000000 1 0 0
11.870456 -2.201243 12.454488 17.345532 -0.183356 0.769839 0.000531 -0.010449 494652.000000 1 0 0
9.617756 -9.969543 5.259388 14.817361 -0.803356 1.207938 0.007922 -0.002900 -228608.000000 1 0 0
16.902756 -1.872343 7.015188 18.396242 -0.110322 1.179553 0.035161 -0.013499 -35346.900000 1 0 0
5.150256 -12.693843 9.078388 16.433987 -1.185361 0.985537 0.013003 -0.002746 -164229.000000 1 0 0
14.933756 -8.947043 -2.093812 17.534272 -0.539769 1.690494 0.039630 -0.009218 80708.700000 1 0 0
11.160556 -8.600943 6.479888 15.508810 -0.656590 1.139752 0.017530 -0.007996 -2719810.000000 1 0 0
19.850356 -3.064643 3.342388 20.361735 -0.153178 1.405900 0.049553 -0.014005 481966.000000 1 0 0
13.605056 -8.390143 6.829288 17.381923 -0.552603 1.167018 0.027118 -0.010183 -1415710.000000 1 0 0
8.223656 -10.916043 8.826888 16.269680 -0.925151 0.997343 0.008910 -0.001356 -2994480.000000 1 0 0
16.760456 0.073657 -0.748512 16.777323 0.004395 1.615426 0.023863 -0.006516 -1363920.000000 1 0 0
12.534056 -12.335643 2.342988 17.741484 -0.777420 1.438347 0.029650 -0.001713 -1503950.000000 1 0 0
10.489956 -11.623343 3.702088 16.088715 -0.836607 1.338611 0.015965 -0.001398 -601266.000000 1 0 0
16.227956 3.061857 2.409188 16.689090 0.186486 1.425933 0.015375 -0.004581 -718995.000000 1 0 0
18.346156 -3.185443 0.201788 18.621740 -0.171916 1.559960 0.038699 -0.010815 65497.500000 1 0 0
13.463856 -11.605443 -0.258412 17.777191 -0.711402 1.585333 0.043180 -0.000598 -151319.000000 1 0 0
16.847256 -7.646243 -0.879512 18.522112 -0.426057 1.618299 0.043005 -0.011897 -275950.000000 1 0 0
10.168256 -5.685843 9.727188 15.176971 -0.509861 0.875103 0.004562 -0.007144 -1092790.000000 1 0 0
11.464656 -13.221743 6.388088 18.629560 -0.856455 1.220793 0.036323 0.002002 266952.000000 1 0 0
13.081656 -1.665543 10.355388 16.767165 -0.126638 0.905110 0.010469 -0.010145 -392210.000000 1 0 0
15.455856 -2.006643 -1.543912 15.661857 -0.129108 1.669534 0.012140 -0.008567 -538317.000000 1 0 0
10.267856 -12.298743 9.385988 18.568380 -0.875152 1.040855 0.022022 -0.004363 -437632.000000 1 0 0
14.409256 1.274257 3.318388 14.841229 0.088204 1.345298 0.008626 -0.005651 1185110.000000 1 0 0
14.898556 -5.752843 5.174088 16.787894 -0.368496 1.257492 0.029165 -0.011663 -523778.000000 1 0 0
14.237256 -3.339943 -3.085412 14.945717 -0.230425 1.778733 0.012950 -0.007389 1549270.000000 1 0 0
14.044256 0.667557 9.485488 16.960579 0.047497 0.977295 0.014870 -0.013664 257426.000000 1 0 0
15.354556 -3.381943 4.186088 16.270319 -0.216795 1.310586 0.023750 -0.011930 -886648.000000 1 0 0
18.329356 4.830857 -4.094012 19.392354 0.257698 1.783512 -0.006231 -0.000593 304939.000000 1 0 0
18.367356 -5.639643 -5.291512 19.929010 -0.297909 1.839538 0.072552 -0.011298 802556.000000 1 0 0
17.317056 0.182957 5.892888 18.293169 0.010565 1.242811 0.039837 -0.005939 638184.000000 1 0 0
17.035656 -6.549643 3.881088 18.659428 -0.367044 1.361271 0.050176 -0.019520 280869.000000 1 0 0
9.691756 -6.499943 14.261388 18.427333 -0.590767 0.685779 -0.000439 0.000591 -547090.000000 1 0 0
8.645656 -12.259243 5.251488 15.893853 -0.956565 1.234058 0.012938 -0.003226 -958553.000000 1 0 0
16.701056 -10.199543 -0.652212 19.580126 -0.548259 1.604112 0.050781 -0.007284 -74447.100000 1 0 0
14.882156 -8.801843 0.466088 17.296481 -0.534099 1.543846 0.047405 -0.011109 96959.900000 1 0 0
10.036156 -12.910643 1.574588 16.428283 -0.910016 1.474803 0.018875 -0.002315 630568.000000 1 0 0
16.790756 -7.923943 8.913988 20.595571 -0.440935 1.123188 0.049894 -0.010376 400416.000000 1 0 0
19.076556 -0.137943 -1.901012 19.171538 -0.007231 1.670118 0.037085 -0.005059 -125293.000000 1 0 0
13.298456 -1.194643 7.763588 15.445045 -0.089593 1.044125 0.003605 -0.011994 -175244.000000 1 0 0
12.711956 -9.819243 -3.089212 16.357096 -0.657710 1.760798 0.027937 -0.004163 -1733230.000000 1 0 0
8.831056 -15.090443 1.480888 17.547138 -1.041324 1.486301 0.025376 -0.003400 -652101.000000 1 0 0
11.492356 -8.155843 11.159188 17.975526 -0.617190 0.901035 0.012340 -0.002090 -85077.500000 1 0 0
13.751256 -3.923343 -0.562312 14.311040 -0.277924 1.610099 0.013224 -0.010231 -653898.000000 1 0 0
7.084456 -13.273043 10.765588 18.500300 -1.080516 0.949716 0.013495 0.002854 -299671.000000 1 0 0
15.459556 -6.637243 1.798088 16.919929 -0.405532 1.464325 0.039489 -0.013234 -1789920.000000 1 0 0
15.921056 -6.139743 -2.702912 17.276638 -0.368063 1.727891 0.050903 -0.009857 -175548.000000 1 0 0
11.245456 -8.497243 3.901588 14.624836 -0.647085 1.300748 0.013010 -0.005205 311038.000000 1 0 0
10.738456 -14.488043 -0.367012 18.037531 -0.932955 1.591145 0.034473 -0.000686 699427.000000 1 0 0
13.445656 -12.807543 4.643888 19.141174 -0.761097 1.325738 0.032554 -0.002317 707940.000000 1 0 0
12.914956 -10.981643 6.651088 18.210699 -0.704671 1.196917 0.025455 -0.006177 278441.000000 1 0 0
10.934156 -10.526043 1.375288 15.239579 -0.766383 1.480429 0.012557 -0.003116 425992.000000 1 0 0
13.998756 -7.501943 11.835788 19.807327 -0.491954 0.930359 0.024282 -0.011259 989873.000000 1 0 0
15.372856 -1.804043 -4.986712 16.261813 -0.116818 1.882470 0.017597 -0.003853 -63673.300000 1 0 0
12.979956 -11.357443 -7.147112 18.669547 -0.718829 1.963645 0.044946 -0.013408 569361.000000 1 0 0
17.679056 -5.204743 1.777088 18.514762 -0.286313 1.474666 0.049568 -0.015865 542282.000000 1 0 0
10.563156 -9.770643 9.139588 17.046343 -0.746443 1.004913 0.007838 -0.002910 -500410.000000 1 0 0
16.373256 1.837957 10.051288 19.300000 0.111786 1.023018 0.033155 -0.008455 -199621.000000 1 0 0
18.134256 3.641257 0.646788 18.507521 0.198159 1.535842 0.016501 -0.003481 574226.000000 1 0 0
13.223856 -3.927443 5.629688 14.899281 -0.288699 1.183324 0.014970 -0.013882 -939869.000000 1 0 0
12.016056 -6.134043 6.601388 15.019668 -0.472002 1.115736 0.014705 -0.011141 -152374.000000 1 0 0
16.612356 -10.057343 3.444588 19.722721 -0.544390 1.395245 0.043134 -0.012299 -23566.900000 1 0 0
16.198556 -7.834443 -5.569912 18.836020 -0.450483 1.870990 0.058639 -0.018217 136553.000000 1 0 0
13.967656 -0.410443 5.279188 14.937661 -0.029377 1.209578 0.008933 -0.006643 391249.000000 1 0 0
18.154456 -4.147543 5.085988 19.304240 -0.224604 1.304184 0.047117 -0.013129 -149634.000000 1 0 0
13.866256 -13.382943 7.097688 20.536636 -0.767663 1.217906 0.052051 -0.005095 245180.000000 1 0 0
14.880356 -13.715043 -1.005112 20.261729 -0.744669 1.620423 0.045771 0.005238 687090.000000 1 0 0
17.851556 -5.752843 7.945488 20.369194 -0.311752 1.170085 0.058845 -0.011844 1279960.000000 1 0 0
14.334156 3.349757 9.243888 17.382128 0.229571 1.010067 0.013183 -0.012508 576802.000000 1 0 0
18.595356 3.933057 3.135888 19.263696 0.208436 1.407281 0.028541 -0.002508 -595233.000000 1 0 0
15.033256 -10.198143 8.167188 19.917427 -0.596063 1.148285 0.041545 -0.016218 -266692.000000 1 0 0
14.747256 -4.758543 10.258488 18.583915 -0.312126 0.986025 0.025115 -0.017553 71723.300000 1 0 0
17.819556 -7.790843 1.832588 19.534385 -0.412165 1.476845 0.065317 -0.014941 -174818.000000 1 0 0
18.400956 -5.831643 -2.028312 19.409207 -0.306907 1.675490 0.045345 -0.016240 -398782.000000 1 0 0
14.343156 -13.024643 -5.653912 20.182522 -0.737258 1.854735 0.053364 -0.010934 -896809.000000 1 0 0
15.474856 -1.470043 9.238488 18.082640 -0.094711 1.034561 0.031744 -0.015714 522815.000000 1 0 0
12.952356 -9.992043 9.961188 19.152800 -0.657086 1.023839 0.008993 -0.014554 -1369090.000000 1 0 0
16.403556 2.218857 4.868588 17.254076 0.134451 1.284741 0.025311 -0.004953 -1130400.000000 1 0 0
14.927056 2.305057 -0.097512 15.104297 0.153211 1.577252 0.007506 -0.003548 -1047600.000000 1 0 0
15.089056 -9.686943 -6.947712 19.229851 -0.570720 1.940456 0.055657 -0.019192 1051330.000000 1 0 0
16.209656 -0.027443 -3.310412 16.544260 -0.001693 1.772250 0.015952 -0.001041 201993.000000 1 0 0
12.255456 2.480457 13.466188 18.376265 0.199698 0.748364 0.028899 -0.012334 -72093.600000 1 0 0
17.642556 -2.967343 9.267788 20.148370 -0.166633 1.092827 0.043559 -0.024352 397280.000000 1 0 0
7.782256 -18.147543 4.568988 20.267523 -1.165684 1.343408 0.042298 -0.018774 305891.000000 1 0 0
6.758556 -11.202243 6.679288 14.689494 -1.027938 1.098763 0.005704 -0.002595 369961.000000 1 0 0
18.072556 2.207457 -1.562312 18.273778 0.121542 1.656396 0.032750 -0.001405 324684.000000 1 0 0
17.523456 -2.100743 3.462488 17.985368 -0.119312 1.377070 0.031179 -0.008734 -871741.000000 1 0 0
12.514156 -13.352043 -2.025912 18.411558 -0.817780 1.681054 0.038346 0.000579 1322280.000000 1 0 0
15.060456 -8.152243 4.304488 17.658002 -0.496140 1.324545 0.033933 -0.010800 -332936.000000 1 0 0
11.093456 -2.794543 14.813488 18.716669 -0.246775 0.657603 0.001415 -0.014334 151355.000000 1 0 0
12.040356 -13.639843 -6.646812 19.369967 -0.847603 1.921065 0.038621 -0.008568 252453.000000 1 0 0
10.592556 -12.016743 -1.218012 16.065115 -0.848306 1.646686 0.018649 -0.001724 -893750.000000 1 0 0
13.168856 -7.978743 2.160188 15.548168 -0.544732 1.431410 0.028335 -0.007532 -133807.000000 1 0 0
8.750756 -7.728643 9.985488 15.362866 -0.723454 0.863244 0.005769 -0.004131 -1031250.000000 1 0 0
15.535756 -3.661643 7.971388 17.841255 -0.231467 1.107616 0.034986 -0.014314 -932343.000000 1 0 0
10.150156 -17.352743 5.406388 20.817599 -1.041531 1.308082 0.046234 -0.016371 -1837640.000000 1 0 0
15.232856 -6.185543 8.182888 18.364654 -0.385725 1.108976 0.033340 -0.007533 -1689010.000000 1 0 0
16.603256 -4.881243 -0.535912 17.314210 -0.285937 1.601753 0.037201 -0.014924 -301257.000000 1 0 0
14.033956 -10.460543 3.496988 17.849477 -0.640534 1.373605 0.039522 -0.008807 673393.000000 1 0 0
14.836556 -9.862943 -4.487712 18.372278 -0.586691 1.817558 0.053668 -0.019816 74302.900000 1 0 0
13.675856 -6.518843 -0.014212 15.150068 -0.444808 1.571734 0.023722 -0.009692 -283271.000000 1 0 0
17.836656 -0.796243 -4.914512 18.518443 -0.044611 1.839399 0.026009 -0.004291 -384434.000000 1 0 0
14.342456 0.225057 -1.738012 14.449131 0.015690 1.691373 0.006585 -0.002376 -1734500.000000 1 0 0
4.811056 -12.726443 11.775988 17.993958 -1.209366 0.857353 0.005032 -0.002608 -838243.000000 1 0 0
11.979656 -7.429043 13.565388 19.563298 -0.555096 0.804585 0.007609 -0.005361 -571425.000000 1 0 0
12.150156 -5.722343 11.551088 17.714377 -0.440154 0.860479 0.011937 -0.005575 566729.000000 1 0 0
13.177356 -4.516743 8.191988 16.160209 -0.330215 1.039184 0.014415 -0.015360 -1787720.000000 1 0 0
15.347756 -1.113043 3.002388 15.678228 -0.072395 1.378106 0.021036 -0.006961 477338.000000 1 0 0
15.267456 -10.179843 5.769288 19.235621 -0.588072 1.266180 0.048699 -0.014201 44719.800000 1 0 0
13.609756 -7.851443 -5.790512 16.745168 -0.523260 1.923890 0.041695 -0.012187 -1644490.000000 1 0 0
9.318456 -1.856443 13.288988 16.336377 -0.196648 0.620720 -0.011038 -0.015711 543588.000000 1 0 0
9.874556 -9.011643 13.814488 19.223857 -0.739740 0.768992 0.013392 0.005008 17368.000000 1 0 0
20.232956 6.266057 -3.152612 21.414363 0.300328 1.718553 0.038595 0.005367 472806.000000 1 0 0
11.276256 -3.566043 10.401588 15.750037 -0.306292 0.849423 0.009383 -0.007287 921254.000000 1 0 0
10.142956 -14.115143 -2.892612 17.620557 -0.947705 1.735704 0.022644 -0.000716 299866.000000 1 0 0
15.038456 -12.728743 2.518988 19.862562 -0.702408 1.443633 0.046302 0.001141 339567.000000 1 0 0
11.322956 -0.321343 14.177988 18.147395 -0.028372 0.674101 0.021157 -0.014537 -39571.500000 1 0 0
19.044556 -1.773243 5.524188 19.908696 -0.092843 1.289630 0.058515 -0.015225 1201340.000000 1 0 0
19.004156 -0.471243 7.826888 20.558215 -0.024792 1.180223 0.058912 -0.011449 12556.300000 1 0 0
19.037556 0.731557 0.519088 19.058677 0.038408 1.543557 0.040968 -0.014193 653691.000000 1 0 0
18.472956 0.962657 3.729188 18.870179 0.052065 1.371863 0.034002 -0.010616 405937.000000 1 0 0
16.690856 -3.906143 -4.197612 17.648302 -0.229892 1.810946 0.032748 -0.011595 -835820.000000 1 0 0
10.977756 -8.008943 15.940088 20.946139 -0.630291 0.705938 0.018043 -0.007994 346892.000000 1 0 0
16.682256 -7.372243 6.283888 19.290798 -0.416115 1.238996 0.049516 -0.013859 710236.000000 1 0 0
18.782056 2.326157 5.925988 19.831641 0.123222 1.267346 0.038228 -0.005345 205340.000000 1 0 0
15.378756 1.673057 7.616088 17.242681 0.108364 1.113304 0.023234 -0.008252 19587.600000 1 0 0
8.824156 -15.790743 3.903488 18.505419 -1.061208 1.358262 0.027608 -0.010825 472414.000000 1 0 0
11.294956 -15.221843 2.153488 19.076637 -0.932420 1.457669 0.032121 0.004805 390225.000000 1 0 0
7.943656 -16.126643 6.165288 19.004765 -1.113103 1.240411 0.027367 -0.014221 -8690.620000 1 0 0
14.573856 -11.601143 -2.565912 18.803396 -0.672312 1.707683 0.050415 -0.004947 818441.000000 1 0 0
13.577256 -4.911643 3.145888 14.777102 -0.347109 1.356265 0.016380 -0.007502 -2349810.000000 1 0 0
-1.055144 10.238257 -5.545912 11.691551 -1.468100 2.065024 -0.000515 -0.002230 -2425800.000000 1 0 0
8.319256 -1.668743 -7.959712 11.634076 -0.197961 2.324264 0.002762 -0.002805 -3528620.000000 1 0 0
2.950356 -10.045943 7.691888 12.991949 -1.285142 0.937196 0.001680 -0.001447 482067.000000 1 0 0
-6.300144 1.292357 8.303588 10.502932 -0.202325 0.659013 -0.001572 -0.002034 -667429.000000 1 0 0
7.322156 -6.310143 -7.190712 12.047332 -0.711298 2.210393 0.000924 -0.003987 -397081.000000 1 0 0
-11.305444 -4.522043 -4.068212 12.837924 0.380496 1.893245 0.010013 -0.004665 238989.000000 1 0 0
2.114956 -3.256143 2.793688 4.783326 -0.994753 0.947090 0.000655 -0.000928 1350750.000000 1 0 0
-3.547044 -4.209543 8.697488 10.293108 0.870603 0.564265 0.002747 -0.003136 -2267640.000000 1 0 0
-4.924044 -1.069043 -2.363612 5.565584 0.213789 2.009409 0.001218 -0.002610 -608207.000000 1 0 0
5.019956 -5.268943 -3.585812 8.112938 -0.809593 2.028609 0.002169 -0.004725 -64256.900000 1 0 0
2.751256 14.336557 -8.828912 17.060362 1.381196 2.114735 0.007997 -0.010541 -224733.000000 1 0 0
5.441956 -5.441943 13.775288 15.779360 -0.785397 0.509488 -0.003455 0.000731 -201739.000000 1 0 0
-4.699644 -0.866643 9.848488 10.946709 0.182358 0.451770 0.003781 -0.001827 -1394240.000000 1 0 0
-0.924644 11.843957 -2.747612 12.193590 -1.492886 1.798081 -0.004299 -0.002651 -238284.000000 1 0 0
3.209856 9.425257 -10.478312 14.454537 1.242557 2.381707 0.005440 -0.004089 -186994.000000 1 0 0
-10.614744 2.673957 1.134088 11.004953 -0.246775 1.467561 -0.000785 -0.003417 961.865000 1 0 0
5.690756 -9.051143 -0.654212 10.711484 -1.009517 1.631910 0.000856 -0.005319 533479.000000 1 0 0
-7.009744 5.471357 9.340488 12.896394 -0.662759 0.760819 -0.000749 0.001059 -429403.000000 1 0 0
-5.418244 -1.887143 5.132888 7.698391 0.335154 0.840959 0.002131 -0.004649 650961.000000 1 0 0
6.748056 -3.813543 -7.446412 10.748415 -0.514387 2.336149 0.000962 -0.003821 371861.000000 1 0 0
6.294656 4.784757 11.132088 13.654303 0.649953 0.617583 0.002935 -0.000446 698236.000000 1 0 0
3.673856 -9.953943 3.293188 11.109604 -1.217221 1.269847 -0.000299 -0.002740 512898.000000 1 0 0
-6.563244 6.648357 -5.801712 10.997121 -0.791840 2.126530 0.003766 -0.007323 -344855.000000 1 0 0
-11.040044 8.372057 5.209788 14.802560 -0.648814 1.211141 -0.004289 -0.007525 47942.000000 1 0 0
-9.185444 -5.472843 5.098588 11.845674 0.537338 1.125841 0.001806 -0.003785 -311238.000000 1 0 0
3.292056 9.668257 -8.029312 12.991638 1.242608 2.237039 0.005210 -0.007439 651130.000000 1 0 0
-8.100344 -8.585643 6.126988 13.299204 0.814474 1.092009 0.002316 -0.003759 -590732.000000 1 0 0
-7.818144 -5.810243 -7.482512 12.282926 0.639118 2.225822 0.011425 -0.003837 -1641600.000000 1 0 0
9.133056 -1.409343 6.870888 11.515558 -0.153105 0.931462 -0.000450 -0.009630 1483840.000000 1 0 0
-4.064944 -0.381743 -4.829912 6.324361 0.093637 2.439821 0.007550 -0.007951 -15048.500000 1 0 0
8.956856 1.174257 -4.471512 10.079611 0.130358 2.030430 -0.000234 -0.000354 -2484810.000000 1 0 0
-1.862644 -10.656743 10.754888 15.254614 1.397759 0.788338 -0.002400 -0.007096 -165959.000000 1 0 0
-12.918844 0.246057 -2.722912 13.204973 -0.019044 1.778490 0.008980 -0.003861 -570622.000000 1 0 0
-9.763244 -5.320943 -5.992812 12.631198 0.498994 2.065130 0.013189 -0.003067 -1648490.000000 1 0 0
-5.523344 8.214657 -0.173712 9.900408 -0.978851 1.588343 -0.000436 -0.002878 961713.000000 1 0 0
6.328556 9.547857 0.555588 11.468255 0.985458 1.522332 -0.003363 -0.003122 191074.000000 1 0 0
-0.600744 -12.077243 -0.028512 12.092209 1.521095 1.573154 0.004783 -0.000273 -905266.000000 1 0 0
6.121356 4.739357 2.361888 8.093888 0.658831 1.274676 -0.006565 0.000201 450043.000000 1 0 0
3.500756 -7.466643 -8.150512 11.594693 -1.132376 2.350336 -0.002272 0.000021 741032.000000 1 0 0
-6.538644 -9.854943 4.674988 12.717283 0.984997 1.194360 0.002448 -0.001734 -2272470.000000 1 0 0
-0.073344 6.465857 -9.197512 11.243082 -1.559454 2.528825 0.004114 -0.004485 -2341900.000000 1 0 0
-17.125244 -2.773743 4.372888 17.891053 0.160574 1.323877 0.023116 -0.014001 -52094.500000 1 0 0
-8.291844 0.921457 -9.154412 12.385758 -0.110674 2.402541 0.013845 -0.005298 709532.000000 1 0 0
-10.042844 -5.843743 -11.752612 16.526704 0.526990 2.361899 0.020978 -0.001369 -825268.000000 1 0 0
2.172456 9.380557 6.405788 11.564970 1.343217 0.983760 -0.005832 0.002708 445773.000000 1 0 0
-11.314744 1.590457 -1.223912 11.491342 -0.139650 1.677506 0.006377 -0.003492 -1434220.000000 1 0 0
-6.079344 -5.271343 -3.133812 8.635176 0.714333 1.942188 0.010076 -0.003042 746786.000000 1 0 0
-6.909244 -8.423643 1.328988 10.975501 0.883847 1.449412 0.003210 -0.001824 -235661.000000 1 0 0
-0.022044 10.944857 -7.829212 13.456854 -1.568782 2.191738 0.006073 -0.001368 122737.000000 1 0 0
-2.885844 9.198057 -4.232612 10.528406 -1.266778 1.984516 0.001687 -0.006404 -873973.000000 1 0 0
3.441956 -4.717843 9.343788 11.018688 -0.940505 0.558606 0.000367 -0.005508 -722416.000000 1 0 0
-8.957544 1.546857 -0.386912 9.098355 -0.171001 1.613335 0.001562 -0.002833 -1712180.000000 1 0 0
2.504456 3.531657 -10.432112 11.294859 0.953959 2.748205 -0.000313 -0.003441 -341297.000000 1 0 0
-13.682144 0.403457 1.048388 13.728181 -0.029479 1.494354 0.008928 -0.006779 -677030.000000 1 0 0
9.423256 -12.622643 -5.017612 16.531948 -0.929516 1.879171 0.023573 -0.003627 -1271520.000000 1 0 0
-4.806144 9.344657 -8.128512 13.285117 -1.095758 2.229195 -0.003547 -0.001688 -540804.000000 1 0 0
-2.353544 7.192957 8.319288 11.246704 -1.254575 0.738158 -0.000709 0.003136 -313230.000000 1 0 0
-10.692844 -1.219043 -4.445412 11.644083 0.113515 1.962512 0.009579 -0.003439 -3002730.000000 1 0 0
2.666256 -7.053343 9.724188 12.305219 -1.209387 0.659581 0.002477 -0.001688 -1223330.000000 1 0 0
-16.168944 -6.646643 3.485788 17.825918 0.390017 1.373982 0.019759 -0.008594 217479.000000 1 0 0
-10.812844 -0.076543 6.134588 12.432081 0.007079 1.054746 0.000703 -0.005756 -1884060.000000 1 0 0
-8.479144 10.026957 9.399388 16.148815 -0.868842 0.949551 0.004829 -0.007523 -178791.000000 1 0 0
0.194156 -6.249143 -3.770212 7.300958 -1.539737 2.113438 -0.001490 -0.002255 210677.000000 1 0 0
4.819456 1.579657 -3.082212 5.934855 0.316732 2.116876 -0.004177 -0.000842 -1319490.000000 1 0 0
0.431256 5.316857 3.801688 6.550403 1.489862 0.951608 -0.004024 0.000275 -4860310.000000 1 0 0
6.015556 -11.420043 -1.499612 12.994350 -1.085975 1.686459 0.001182 -0.002361 -1409000.000000 1 0 0
6.195456 -13.404343 5.432988 15.734594 -1.137845 1.218249 0.004302 -0.004844 135973.000000 1 0 0
8.187556 -8.262743 -5.877212 13.032675 -0.789969 2.038637 0.002998 -0.005224 686983.000000 1 0 0
-13.134044 -1.488743 -4.651912 14.012842 0.112868 1.909193 0.009621 0.000404 -3575130.000000 1 0 0
-6.808844 -1.474343 -7.029912 9.897156 0.213242 2.360715 0.011800 -0.007002 -89336.500000 1 0 0
-5.485044 12.854157 -4.540212 14.694508 -1.167475 1.884910 -0.000007 0.000032 161644.000000 1 0 0
-4.225144 6.861757 -6.697012 10.477858 -1.018875 2.264200 0.003573 -0.006584 -1850610.000000 1 0 0
-9.407344 -3.800943 -8.088112 12.975471 0.383984 2.243801 0.012881 -0.003219 659559.000000 1 0 0
-2.277444 -6.401843 9.282988 11.504096 1.229010 0.631862 0.000793 -0.004114 -265385.000000 1 0 0
7.552656 -5.842743 10.033588 13.851107 -0.658436 0.760649 -0.003545 -0.003409 -208884.000000 1 0 0
9.807756 -4.963243 12.190388 16.414367 -0.468478 0.733754 0.006325 -0.001500 -361875.000000 1 0 0
-6.422244 2.836157 -9.054012 11.457056 -0.415859 2.482024 0.005571 -0.006818 445891.000000 1 0 0
7.445356 5.518757 8.874488 12.831467 0.637868 0.807068 -0.002366 -0.000076 -414493.000000 1 0 0
12.663556 3.317157 11.163388 17.204372 0.256189 0.864699 0.012586 -0.009404 -166750.000000 1 0 0
-7.483344 -7.303743 -3.872812 11.150954 0.773253 1.925495 0.011304 -0.005968 -705547.000000 1 0 0
2.316456 1.411557 -5.782712 6.387348 0.547274 2.702972 -0.001639 -0.004245 251211.000000 1 0 0
12.733856 6.992057 -7.155512 16.193866 0.502146 2.028474 -0.001471 -0.000021 463869.000000 1 0 0
0.793156 -7.852643 1.073488 7.965267 -1.470133 1.435614 0.000291 -0.002274 782396.000000 1 0 0
-10.220944 -6.065243 -8.533612 14.631384 0.535562 2.193508 0.015345 -0.003032 -200070.000000 1 0 0
-6.669444 0.216957 3.182188 7.392894 -0.032518 1.125817 0.002198 -0.006340 271201.000000 1 0 0
10.649856 -8.019243 1.339888 13.398619 -0.645412 1.470627 0.005904 -0.005232 341398.000000 1 0 0
6.311156 1.021857 10.515288 12.306347 0.160520 0.546285 -0.001886 -0.003572 -1311900.000000 1 0 0
-12.917144 5.282857 1.941788 14.090129 -0.388224 1.432544 0.005804 -0.004039 375099.000000 1 0 0
2.043256 7.351657 3.511988 8.399751 1.299707 1.139437 -0.009738 0.001136 -479137.000000 1 0 0
9.960256 -9.460643 -0.758312 13.758107 -0.759678 1.625942 0.003332 -0.002938 934420.000000 1 0 0
6.769956 -11.686643 -8.980812 16.219276 -1.045744 2.157612 0.008915 -0.005784 -559334.000000 1 0 0
10.250656 3.507157 12.142588 16.273246 0.329655 0.728508 0.004492 -0.005217 -1085420.000000 1 0 0
-11.057044 -3.190743 -1.904812 11.664792 0.280939 1.734827 0.005104 -0.001882 737974.000000 1 0 0
12.363256 1.154057 6.768988 14.142176 0.093076 1.071693 0.003717 -0.006811 -652909.000000 1 0 0
-9.519544 9.154757 3.012188 13.546386 -0.765866 1.346561 -0.003092 -0.006945 2011690.000000 1 0 0
-6.625644 7.612357 -8.896912 13.453704 -0.854589 2.293345 -0.000485 -0.004587 -1261460.000000 1 0 0
8.491356 5.467357 12.137888 15.789979 0.572056 0.693977 0.012276 -0.003347 -2583560.000000 1 0 0
1.345056 4.898857 -2.625312 5.718412 1.302834 2.047776 -0.004903 -0.004794 619365.000000 1 0 0
1.324456 0.475357 9.409088 9.513732 0.344588 0.148455 0.002776 -0.003402 605796.000000 1 0 0
2.628356 12.598657 -4.024612 13.484506 1.365124 1.873877 0.004884 -0.007386 345203.000000 1 0 0
2.091456 0.620257 13.031688 13.213017 0.288304 0.165861 -0.001532 -0.003709 -171584.000000 1 0 0
-12.203144 -1.814043 0.718088 12.358120 0.147573 1.512657 0.000750 -0.003622 93532.500000 1 0 0
3.415256 8.692157 -1.218712 9.418217 1.196415 1.700560 -0.004043 -0.002960 317726.000000 1 0 0
3.738556 -2.864743 -5.778812 7.455080 -0.653833 2.457750 -0.001274 -0.002760 -1682540.000000 1 0 0
-7.807144 -7.004143 9.321988 14.032426 0.731236 0.844216 0.005083 -0.005863 -255399.000000 1 0 0
-6.927244 10.827057 -3.655212 13.363100 -1.001619 1.847858 0.004226 -0.000204 588303.000000 1 0 0
0.340456 0.517457 2.496588 2.572280 0.988859 0.243193 -0.005653 0.000967 -1556110.000000 1 0 0
-7.105344 4.483557 -1.921912 8.618697 -0.562911 1.795680 0.006149 -0.005915 -1621010.000000 1 0 0
-6.765044 -3.904543 -5.959312 9.824697 0.523459 2.222528 0.012086 -0.005331 254645.000000 1 0 0
2.969656 -6.105843 13.390588 15.013595 -1.118118 0.469272 0.003722 -0.004127 -1501130.000000 1 0 0
-5.501044 -0.552743 -11.684112 12.926155 0.100144 2.699626 0.008109 -0.005156 -1048250.000000 1 0 0
11.729856 2.454657 -0.535312 11.995892 0.206289 1.615436 -0.001606 0.000257 -1062730.000000 1 0 0
6.168556 -10.835743 10.819388 16.508288 -1.053273 0.856096 0.007219 -0.002050 170389.000000 1 0 0
-8.216844 6.288857 -10.408312 14.676484 -0.653260 2.359135 0.006758 -0.004516 424956.000000 1 0 0
2.928156 7.867157 11.149288 13.956106 1.214483 0.645361 0.002316 -0.000549 1041170.000000 1 0 0
-6.157444 -10.332243 -0.349812 12.032944 1.033364 1.599872 0.003183 -0.004235 -772254.000000 1 0 0
11.268756 4.280657 5.996388 13.463490 0.363033 1.109196 -0.003576 -0.002768 848954.000000 1 0 0
-7.792544 10.587257 1.296788 13.209671 -0.936296 1.472468 -0.001290 -0.001977 649255.000000 1 0 0
4.307456 -2.662743 -3.425612 6.113853 -0.553673 2.165548 0.000778 -0.004342 -5619380.000000 1 0 0
6.508556 6.427657 6.150988 11.023191 0.779145 0.978817 -0.005307 0.002291 -5098350.000000 1 0 0
-0.330744 10.281257 -10.161112 14.458970 -1.538638 2.350059 0.001244 -0.001817 -80526.700000 1 0 0
14.077056 6.417857 -2.401212 15.656251 0.427757 1.724775 0.004440 0.002110 692730.000000 1 0 0
1.425056 9.419157 -6.189012 11.360245 1.420642 2.146942 0.001070 -0.005080 -8246.870000 1 0 0
0.632056 7.312857 7.222088 10.297375 1.484580 0.793503 -0.003944 0.003407 140685.000000 1 0 0
12.082256 6.417657 1.943688 13.818290 0.488267 1.429668 -0.002791 -0.001498 -2121530.000000 1 0 0
-6.848444 6.641157 -3.217112 10.067569 -0.770033 1.896053 0.004094 -0.008704 184716.000000 1 0 0
1.012356 9.843057 11.077588 14.853403 1.468307 0.729069 -0.003671 0.000454 -878740.000000 1 0 0
-3.464644 13.539357 -10.958212 17.759514 -1.320278 2.235764 -0.003856 0.003087 -23971.500000 1 0 0
-10.058944 -5.650643 -2.220512 11.749161 0.511822 1.760933 0.006422 -0.004124 -537187.000000 1 0 0
-4.010444 3.910057 -12.464812 13.665421 -0.772724 2.719278 0.000595 -0.007857 -184674.000000 1 0 0
-3.145944 8.343657 2.431188 9.242524 -1.210233 1.304621 -0.000344 -0.000343 -1878440.000000 1 0 0
7.053056 8.992357 7.110688 13.459939 0.905678 1.014217 0.001234 0.003427 -1156880.000000 1 0 0
-1.369044 -2.360343 -8.096212 8.543661 1.045198 2.816521 0.004586 -0.007154 -848154.000000 1 0 0
0.852956 -1.256143 4.760088 4.996386 -0.974285 0.308776 -0.000608 -0.001979 -2283610.000000 1 0 0
2.702856 -8.858243 -6.043212 11.058676 -1.274646 2.148937 -0.004196 -0.001373 358276.000000 1 0 0
5.227556 4.029257 8.913788 11.091342 0.656664 0.637358 -0.002098 0.001683 863276.000000 1 0 0
6.170456 -7.622243 -2.771112 10.190789 -0.890270 1.846187 0.000354 -0.004891 1016190.000000 1 0 0
1.824156 2.213757 -8.254812 8.739003 0.881586 2.807152 0.000121 -0.005727 215713.000000 1 0 0
-5.388544 10.895757 -0.661812 12.173410 -1.111515 1.625188 -0.001572 -0.001219 474916.000000 1 0 0
-5.405044 3.348257 -3.388812 7.204815 -0.554612 2.060488 0.003673 -0.004633 91012.800000 1 0 0
2.097156 13.611557 -6.436212 15.201887 1.417927 2.007972 0.002394 -0.007439 651368.000000 1 0 0
-5.337044 -2.549843 2.675288 6.491757 0.445700 1.146033 -0.002366 -0.003171 1059190.000000 1 0 0
10.425356 -3.377843 -1.891712 11.120991 -0.313330 1.741730 0.002509 -0.004462 -75382.500000 1 0 0
2.293156 -3.296443 7.062588 8.124362 -0.962999 0.516992 -0.000015 -0.003423 -2117930.000000 1 0 0
-2.858644 9.911057 -11.676912 15.580473 -1.289988 2.418039 -0.001118 0.000938 -2388960.000000 1 0 0
0.500956 -2.098843 9.318888 9.565447 -1.336498 0.227541 0.003141 -0.003410 -261977.000000 1 0 0
9.403656 2.741457 4.990088 10.992967 0.283669 1.099620 -0.007132 -0.002002 117919.000000 1 0 0
13.358556 2.088057 -5.012512 14.419996 0.155054 1.925816 0.006388 -0.000938 -1859800.000000 1 0 0
-6.457244 3.783557 7.625088 10.684253 -0.530017 0.776065 -0.002229 -0.001342 -702154.000000 1 0 0
10.605356 -0.023343 1.850588 10.765631 -0.002201 1.398040 -0.001891 -0.000002 1733470.000000 1 0 0
15.394656 6.510157 -4.559212 17.325241 0.400077 1.837087 0.009366 -0.001419 616919.000000 1 0 0
8.134456 -4.950243 -9.341112 13.339065 -0.546684 2.346589 0.008200 -0.004758 510286.000000 1 0 0
4.412056 5.651757 -2.164212 7.489486 0.907965 1.863944 -0.006701 -0.002421 19168.000000 1 0 0
-1.669644 -10.540043 1.486488 10.774501 1.413692 1.432391 0.001888 -0.001203 -1246070.000000 1 0 0
-2.836744 12.237357 -12.970512 18.056417 -1.343009 2.372199 0.001410 0.001568 427343.000000 1 0 0
8.277256 4.142857 -9.627012 13.354983 0.464056 2.375832 0.001802 -0.001112 -249858.000000 1 0 0
4.158356 7.553957 -9.168312 12.586188 1.067579 2.386842 0.000576 -0.004288 -1961830.000000 1 0 0
-1.692844 -5.148943 -2.498712 5.968325 1.253154 2.002768 0.001788 -0.004635 -480348.000000 1 0 0
-3.251544 -8.953643 7.224788 11.955661 1.222452 0.921911 0.001320 -0.000315 -843365.000000 1 0 0
1.115356 7.303957 -1.418912 7.523637 1.419261 1.760526 -0.003847 -0.004500 1352430.000000 1 0 0
0.334756 -0.758043 -2.313412 2.457349 -1.154945 2.797630 0.000807 -0.000937 -1093350.000000 1 0 0
4.183556 -6.751543 7.617988 11.005418 -1.016058 0.806259 0.000525 -0.002475 815441.000000 1 0 0
-13.814944 3.915457 5.958988 15.546479 -0.276179 1.177428 0.001169 -0.004114 -1889380.000000 1 0 0
4.273356 6.320157 12.707688 14.821987 0.976259 0.540690 0.004447 -0.000393 -25800.200000 1 0 0
8.285956 10.026057 -7.172712 14.853507 0.880139 2.074756 0.010363 -0.008933 -119143.000000 1 0 0
12.475256 5.378957 9.561888 16.613094 0.407085 0.957503 0.010679 -0.002910 91892.800000 1 0 0
7.522656 4.031857 0.371788 8.543094 0.492001 1.527263 -0.003862 0.002706 -2340870.000000 1 0 0
-10.784444 -7.731443 -0.926312 13.301786 0.621983 1.640491 0.006232 -0.003328 -1236390.000000 1 0 0
10.370656 6.781957 0.165088 12.392445 0.579151 1.557474 -0.000277 0.001409 -1379210.000000 1 0 0
14.471556 3.652657 4.108588 15.480579 0.247239 1.302175 0.009968 -0.006575 8356.700000 1 0 0
2.128956 5.577457 8.214788 10.154961 1.206158 0.628444 -0.005515 0.002065 -764459.000000 1 0 0
4.234056 0.100857 11.636988 12.383735 0.023816 0.349046 -0.002891 -0.004545 -201910.000000 1 0 0
-1.473044 -1.543843 -0.451512 2.181095 0.808862 1.779316 0.001382 -0.005479 -721838.000000 1 0 0
3.121456 -5.193843 -9.370712 11.159289 -1.029648 2.567569 -0.002076 0.000581 477471.000000 1 0 0
-3.991044 -5.361143 -1.435412 6.835985 0.930864 1.782350 0.002983 -0.003714 -1474170.000000 1 0 0
-1.121544 -8.586643 8.634988 12.229118 1.440917 0.786820 0.001759 -0.001974 -967176.000000 1 0 0
3.967256 8.508257 -5.995712 11.139035 1.134484 2.139169 0.001193 -0.003237 666997.000000 1 0 0
-14.246844 -1.874643 -2.611012 14.604939 0.130831 1.750539 0.007994 -0.004788 -657518.000000 1 0 0
8.788556 -10.583943 -6.465512 15.200705 -0.877811 2.010137 0.005655 -0.006708 116283.000000 1 0 0
14.643256 6.095957 1.745088 15.957160 0.394477 1.461216 0.001980 0.001525 -775334.000000 1 0 0
-5.729744 0.466257 -8.551412 10.304077 -0.081196 2.549735 0.011482 -0.009392 -1237670.000000 1 0 0
-7.966144 -4.628243 -12.891912 15.845551 0.526324 2.521110 0.010565 -0.001712 769732.000000 1 0 0
0.860556 -10.560943 12.104188 16.086810 -1.489491 0.719054 -0.001555 -0.004486 -382766.000000 1 0 0
0.360856 11.695957 3.362088 12.174944 1.539953 1.291012 -0.002350 0.000218 -302067.000000 1 0 0
5.095256 -13.260843 -3.600212 14.655140 -1.203955 1.818999 0.000257 -0.001644 657300.000000 1 0 0
-7.381744 1.620657 -6.964312 10.277077 -0.216120 2.315365 0.009715 -0.004212 593311.000000 1 0 0
1.478456 2.767957 4.051988 5.125039 1.080217 0.658966 -0.007429 0.000922 -1035990.000000 1 0 0
17.126056 5.561757 1.981888 18.115265 0.314009 1.461173 0.012736 -0.003943 -663154.000000 1 0 0
2.467456 -8.208243 -3.484712 9.252395 -1.278783 1.956950 -0.003936 -0.001987 165338.000000 1 0 0
-0.350744 -9.434043 -0.535712 9.455749 1.533635 1.627481 0.004006 -0.001078 -1403940.000000 1 0 0
0.864056 11.834657 -5.641712 13.139049 1.497915 2.014608 0.003872 -0.003816 -1195530.000000 1 0 0
6.027356 -4.993943 7.743488 11.010454 -0.691906 0.790788 0.000196 -0.006421 -1001480.000000 1 0 0
-6.014844 -1.878543 -9.429212 11.340957 0.302719 2.552473 0.012317 -0.007359 -469761.000000 1 0 0
2.092656 -1.248843 11.170288 11.433029 -0.538044 0.214800 -0.003223 -0.003131 47599.800000 1 0 0
17.830256 2.429957 -5.670512 18.867364 0.135448 1.876061 0.002134 0.005123 -1283910.000000 1 0 0
-8.864944 4.784957 7.732088 12.699143 -0.494949 0.916165 -0.001175 -0.004972 -767006.000000 1 0 0
11.434056 -7.126343 -4.750612 14.286032 -0.557344 1.909787 0.017095 -0.008660 199894.000000 1 0 0
10.882556 0.604057 8.904788 14.074451 0.055450 0.885772 0.001273 -0.009792 -390033.000000 1 0 0
-8.346544 -7.408343 -1.440612 11.252720 0.725919 1.699172 0.006804 -0.004667 -880923.000000 1 0 0
10.210356 -10.455643 -3.241412 14.969255 -0.797267 1.789063 0.014743 -0.002693 985675.000000 1 0 0
7.635456 -14.004143 -3.780412 16.392307 -1.071624 1.803512 0.012876 -0.002545 -727043.000000 1 0 0
1.828556 -1.176943 -11.609012 11.810926 -0.571896 2.956420 0.003238 -0.004910 562879.000000 1 0 0
-11.873744 -2.716443 -6.347512 13.735202 0.224907 2.051197 0.013791 -0.003730 272401.000000 1 0 0
2.684056 -12.147743 -6.451412 14.014012 -1.353339 2.049191 -0.001931 -0.000308 598946.000000 1 0 0
-5.521044 1.422257 1.159788 5.818062 -0.252125 1.370109 0.002468 -0.005506 356141.000000 1 0 0
0.185556 6.789757 -4.019112 7.892305 1.543474 2.105103 0.000788 -0.006594 824001.000000 1 0 0
5.423256 -11.798643 3.718088 13.507179 -1.139946 1.291928 -0.002882 -0.003800 -1470200.000000 1 0 0
-4.376244 -9.324743 1.074388 10.356479 1.131996 1.466869 0.002808 -0.001199 -909152.000000 1 0 0
7.156356 -6.242143 -4.612812 10.557264 -0.717271 2.022982 0.002668 -0.004042 765480.000000 1 0 0
-6.939144 -6.145743 2.153088 9.516179 0.724837 1.342565 0.001804 -0.002031 -223968.000000 1 0 0
-6.266544 -0.723343 7.037288 9.450726 0.114921 0.730817 -0.000573 -0.003104 -887199.000000 1 0 0
4.136156 -5.105143 3.167188 7.293926 -0.889870 1.121621 -0.002106 -0.001851 -737167.000000 1 0 0
-2.443444 10.413057 -8.735312 13.809701 -1.340314 2.255636 -0.001169 -0.000334 -113213.000000 1 0 0
-2.332944 -4.943443 2.750988 6.119493 1.129858 1.104540 -0.000880 0.000872 -166507.000000 1 0 0
15.019756 5.031357 6.356988 17.068067 0.323234 1.189150 0.013610 -0.009904 835012.000000 1 0 0
6.761456 0.233657 0.105788 6.766319 0.034543 1.555161 -0.000306 -0.001134 2994030.000000 1 0 0
-9.743844 9.113257 0.374888 13.346703 -0.751970 1.542704 -0.000141 -0.005389 -1925780.000000 1 0 0
7.228656 10.440657 -2.597112 12.961704 0.965219 1.772530 -0.001415 -0.000079 -1255280.000000 1 0 0
1.599156 -4.285343 -5.326612 7.020987 -1.213632 2.432065 0.000385 -0.003984 350593.000000 1 0 0
0.945256 -8.162743 -7.883212 11.387226 -1.455509 2.335448 -0.001615 0.000116 846251.000000 1 0 0
-10.427744 0.287457 -10.342812 14.689936 -0.027560 2.351916 0.017092 -0.008798 -2201520.000000 1 0 0
5.769556 -2.539443 0.503388 6.323761 -0.414629 1.491109 -0.000864 -0.001198 247009.000000 1 0 0
-3.260944 5.369857 -0.992212 6.360314 -1.025050 1.727437 0.003008 -0.006449 442560.000000 1 0 0
-0.324044 4.556557 -5.132312 6.870796 -1.499800 2.414297 0.001263 -0.006843 -1244650.000000 1 0 0
4.000256 -9.555943 10.134788 14.492482 -1.174347 0.796360 -0.001185 -0.000714 -542420.000000 1 0 0
7.303656 -13.551743 -0.720512 15.411433 -1.076480 1.617565 0.011505 -0.003000 834632.000000 1 0 0
13.007256 -0.137043 0.417188 13.014666 -0.010536 1.538736 0.002230 -0.004158 139337.000000 1 0 0
9.232256 2.313557 -0.602612 9.536783 0.245539 1.634027 -0.002109 0.000657 -899089.000000 1 0 0
-0.805044 -5.760443 4.511988 7.361307 1.431942 0.911029 -0.002681 0.000743 -93236.600000 1 0 0
11.348656 -3.739343 3.328388 12.403744 -0.318294 1.299130 0.009467 -0.008287 -3238880.000000 1 0 0
1.722456 -8.154443 11.786688 14.435644 -1.362627 0.615476 -0.000148 -0.002847 139828.000000 1 0 0
9.448556 -5.930943 -5.878212 12.609706 -0.560545 2.055748 0.004537 -0.007768 -803296.000000 1 0 0
3.212556 6.323657 -0.141112 7.094298 1.100752 1.590688 -0.009189 -0.001170 -2135660.000000 1 0 0
6.501556 -1.367243 11.388888 13.185081 -0.207275 0.528090 -0.005657 -0.005577 407029.000000 1 0 0
-4.891244 -7.551043 -3.817112 9.773068 0.995999 1.972052 0.007105 -0.003861 -558163.000000 1 0 0
-3.388744 -8.503843 -5.800912 10.837413 1.191588 2.135620 0.006879 -0.001103 -247621.000000 1 0 0
9.682356 5.313057 2.211688 11.263576 0.501872 1.373155 -0.002871 -0.000471 -200000.000000 1 0 0
8.813556 -1.425543 0.285088 8.932649 -0.160356 1.538876 0.000689 -0.002296 1560190.000000 1 0 0
-4.090244 9.604957 9.132388 13.870321 -1.168208 0.852089 0.000340 0.001813 171796.000000 1 0 0
-14.427644 -3.684543 -6.086512 16.086590 0.250037 1.958820 0.011449 -0.002687 -1136970.000000 1 0 0
10.564956 6.286157 -5.835312 13.608267 0.536735 2.013967 -0.002875 -0.002383 -1488060.000000 1 0 0
-1.676444 4.580457 2.601788 5.528142 -1.219940 1.080775 -0.004164 -0.001205 390167.000000 1 0 0
6.940856 -3.741743 2.612188 8.306603 -0.494428 1.250897 0.000785 -0.004299 -1716260.000000 1 0 0
8.289556 -11.212343 -1.612112 14.036819 -0.934163 1.685899 0.009269 -0.002779 -1855130.000000 1 0 0
4.497756 0.414857 1.794488 4.860258 0.091976 1.192630 -0.002408 0.000781 160596.000000 1 0 0
-10.915444 2.326157 3.719788 11.764130 -0.209966 1.249078 0.001746 -0.005929 -55230.700000 1 0 0
-0.824444 -3.155843 4.436788 5.506737 1.315264 0.633937 -0.001138 -0.000756 185524.000000 1 0 0
8.557556 -8.811543 -8.455012 14.911817 -0.800020 2.173656 0.014990 -0.005265 -850070.000000 1 0 0
11.968256 -4.816143 1.022488 12.941402 -0.382582 1.491705 0.008345 -0.007834 642705.000000 1 0 0
2.913556 4.827457 3.404188 6.586474 1.027779 1.027635 -0.010672 0.000117 -701474.000000 1 0 0
6.034656 7.462157 2.015488 9.806276 0.890772 1.363791 -0.009361 -0.000145 -581168.000000 1 0 0
-1.670444 -1.269343 -10.158412 10.372798 0.649797 2.937928 0.007488 -0.004091 1244230.000000 1 0 0
-0.971344 -8.648343 5.967288 10.552056 1.458949 0.969745 0.000293 -0.001742 118460.000000 1 0 0
-4.228244 -0.301543 2.318488 4.831601 0.071196 1.070302 0.001487 -0.003923 518181.000000 1 0 0
-8.440644 6.359757 -7.843912 13.161228 -0.645717 2.209290 0.004567 -0.004147 -441775.000000 1 0 0
6.495256 11.137557 -9.432412 15.975103 1.042833 2.202406 0.017279 -0.012526 -19750.700000 1 0 0
-11.141144 -5.722143 3.075988 12.896888 0.474472 1.329969 0.001883 -0.003809 1025960.000000 1 0 0
1.482056 -6.301243 3.051288 7.156292 -1.339794 1.130311 -0.000296 -0.001676 537725.000000 1 0 0
10.179156 2.257257 7.219688 12.682047 0.218222 0.965161 -0.002239 -0.003768 -2066530.000000 1 0 0
-3.997344 -2.438843 -10.540512 11.533824 0.547825 2.723533 0.005532 -0.004230 -4479380.000000 1 0 0
-8.219544 11.761557 5.888988 15.510490 -0.960844 1.181348 -0.001285 -0.009569 255396.000000 1 0 0
6.868956 6.009357 -2.850212 9.561309 0.718749 1.873496 -0.003769 -0.000050 -2884860.000000 1 0 0
3.843956 -9.921843 -2.166112 10.858684 -1.201178 1.771626 -0.002034 -0.004040 -2102710.000000 1 0 0
8.374256 -12.868043 -7.293812 16.997482 -0.993873 2.014305 0.016542 -0.008546 474228.000000 1 0 0
-1.212244 9.519657 3.562888 10.236580 -1.444137 1.215301 -0.004391 0.001605 97057.300000 1 0 0
0.531356 -13.095343 4.748788 13.939919 -1.530243 1.223176 0.008141 -0.003987 -938231.000000 1 0 0
-11.220344 -7.038543 -5.058412 14.178319 0.560253 1.935605 0.010654 -0.005984 200719.000000 1 0 0
3.698756 10.370257 -3.385712 11.518944 1.228192 1.869128 0.003434 -0.006059 -534332.000000 1 0 0
11.589456 -7.989143 -7.371012 15.889422 -0.603540 2.053182 0.032967 -0.013621 282743.000000 1 0 0
11.834356 -4.846543 -5.870412 14.071343 -0.388696 2.001147 0.014634 -0.007771 -392422.000000 1 0 0
1.259856 -10.350343 -2.647212 10.757536 -1.449671 1.819430 -0.003723 0.000256 -1033620.000000 1 0 0
2.312356 -12.065143 -3.912712 12.892788 -1.381437 1.879140 -0.001333 0.001378 -1720960.000000 1 0 0
-7.641544 -5.561443 7.292188 11.937289 0.629135 0.913631 0.003634 -0.001299 -3284320.000000 1 0 0
-7.237744 -0.864243 9.440588 11.927136 0.118845 0.657501 0.001582 -0.002309 -70486.700000 1 0 0
16.199856 2.731657 -7.566312 18.087188 0.167051 2.002396 0.005001 0.006888 -362103.000000 1 0 0
-1.998944 6.284057 -5.461712 8.562443 -1.262820 2.262524 0.002730 -0.005850 -868672.000000 1 0 0
7.767456 1.227257 8.355788 11.474264 0.156704 0.755075 -0.001397 -0.006138 -864425.000000 1 0 0
7.926756 8.235757 -3.811312 12.049367 0.804514 1.892631 -0.000547 -0.000231 -226027.000000 1 0 0
7.983156 0.577757 3.988788 8.942875 0.072246 1.108472 -0.004928 -0.000755 568088.000000 1 0 0
-7.032544 5.747457 5.402488 10.567725 -0.685180 1.034186 0.002201 -0.006564 363408.000000 1 0 0
-6.023044 -2.001543 -4.612712 7.846040 0.320833 2.199261 0.010708 -0.006042 -1490590.000000 1 0 0
-15.116044 -2.114443 3.168488 15.588617 0.138979 1.366114 0.012643 -0.007625 -936227.000000 1 0 0
1.094656 1.247257 -10.520112 10.650196 0.850467 2.985137 0.004544 -0.007862 601799.000000 1 0 0
1.475256 -9.198243 9.423688 13.251036 -1.411766 0.779641 0.002694 -0.004323 -2342210.000000 1 0 0
-0.218244 -6.818343 -1.174312 6.922171 1.538799 1.741266 0.000265 -0.002578 449649.000000 1 0 0
-0.501844 -10.154243 -8.536112 13.275003 1.521414 2.269233 0.000188 0.001791 -580930.000000 1 0 0
-4.271944 6.393457 3.773788 8.565470 -0.981751 1.114550 0.000228 0.000585 -111909.000000 1 0 0
10.820156 -1.114543 -8.618612 13.877984 -0.102644 2.240849 0.015486 -0.003121 395403.000000 1 0 0
2.998456 -1.062843 6.247088 7.010456 -0.340646 0.471011 -0.003108 -0.000302 376545.000000 1 0 0
1.811056 -12.175843 6.882188 14.103035 -1.423137 1.061007 0.004762 -0.003249 -48766.900000 1 0 0
2.929856 -4.904043 -1.368612 5.874249 -1.032264 1.805942 0.004699 -0.004597 -2008050.000000 1 0 0
-0.986944 9.445457 -1.738212 9.654641 -1.466685 1.751822 -0.000784 -0.007273 -130508.000000 1 0 0
4.506356 -2.569943 2.630088 5.816289 -0.518290 1.101573 0.000680 -0.000074 -2273320.000000 1 0 0
17.775456 6.876757 -2.626312 19.239390 0.369135 1.707731 0.017085 0.010165 -10848.600000 1 0 0
-7.142544 3.479357 -5.403612 9.608375 -0.453300 2.168064 0.006307 -0.007026 596973.000000 1 0 0
-13.850744 -5.994043 2.327288 15.270492 0.408425 1.417796 0.004505 -0.008401 1819070.000000 1 0 0
6.676956 -6.130143 3.170488 9.602729 -0.742728 1.234318 0.000209 -0.006561 1611520.000000 1 0 0
-4.579544 1.917057 3.601788 6.133531 -0.396448 0.943165 0.003059 -0.006260 773758.000000 1 0 0
6.849556 -12.196843 -5.353912 14.978110 -1.059103 1.936331 0.007584 -0.004082 -98451.600000 1 0 0
2.870656 -12.451843 3.334888 13.206459 -1.344215 1.315513 0.005712 -0.005579 -63521.900000 1 0 0
3.396256 11.211957 -6.100312 13.208192 1.276668 2.050885 0.004096 -0.006649 32954.700000 1 0 0
-5.504144 -8.366143 6.347688 11.856690 0.988883 1.005853 0.002966 -0.000123 116281.000000 1 0 0
-3.957044 6.458757 6.337888 9.876364 -1.021117 0.874054 0.001002 0.000057 529401.000000 1 0 0
4.321856 4.450857 -6.952112 9.317748 0.800102 2.413004 -0.004197 -0.000813 -3024680.000000 1 0 0
-0.336044 -2.785243 1.662888 3.261243 1.450725 1.035735 -0.000842 -0.001168 -155373.000000 1 0 0
-13.271144 -0.930643 6.528988 14.819482 0.070011 1.114565 0.007142 -0.006964 961.090000 1 0 0
-0.572344 -9.293443 -6.013112 11.083915 1.509288 2.144216 -0.000319 0.000296 35174.300000 1 0 0
2.019956 -1.771243 -3.934712 4.764397 -0.719889 2.542517 0.001439 -0.002361 -664088.000000 1 0 0
11.417756 -2.031043 1.092288 11.648321 -0.176043 1.476886 0.005347 -0.004832 1289200.000000 1 0 0
0.552356 -4.369543 -2.014912 4.843333 -1.445053 1.999858 0.001113 -0.002963 -1729620.000000 1 0 0
1.091456 -7.472243 -11.308612 13.598176 -1.425754 2.552828 -0.003872 0.003317 187387.000000 1 0 0
-4.363544 4.185757 -10.005512 11.690652 -0.764606 2.597999 0.003687 -0.006873 -22780.500000 1 0 0
-1.045544 5.826257 -2.185212 6.309800 -1.393232 1.924442 0.000570 -0.006351 -1842340.000000 1 0 0
-11.301444 1.703957 -3.938112 12.088624 -0.149646 1.902622 0.007566 -0.001338 -343343.000000 1 0 0
-1.860244 -11.188743 4.245588 12.110884 1.406043 1.212628 0.007413 -0.001165 -577186.000000 1 0 0
-3.507644 -5.380943 -9.703212 11.636599 0.993112 2.556848 0.004810 0.000250 -1601040.000000 1 0 0
-12.832944 -3.874143 -8.315312 15.774595 0.293190 2.126020 0.016417 -0.003500 346238.000000 1 0 0
11.438156 4.473957 0.543888 12.294044 0.372848 1.526542 0.002103 0.000050 161929.000000 1 0 0
-8.879944 -2.410643 -3.019212 9.684020 0.265082 1.887854 0.008058 -0.003854 312442.000000 1 0 0
-2.486444 -6.058743 -6.339512 9.114833 1.181366 2.339934 0.002663 -0.003619 1795280.000000 1 0 0
-0.107544 2.817757 -1.917212 3.409841 -1.532648 2.167910 -0.002269 -0.005415 -715189.000000 1 0 0
7.994656 5.948257 -5.123712 11.204852 0.639669 2.045726 -0.002140 -0.000172 -157857.000000 1 0 0
-9.837244 -0.985443 -0.905012 9.927815 0.099842 1.662082 0.004689 -0.004076 839606.000000 1 0 0
6.262056 0.440457 -8.854812 10.854264 0.070222 2.524892 0.001542 -0.000540 420450.000000 1 0 0
-4.171144 2.522057 7.874688 9.261206 -0.543827 0.554265 -0.001230 -0.000812 -2026850.000000 1 0 0
-10.150644 -3.388843 1.403088 10.792983 0.322220 1.440427 -0.000692 -0.004157 2165000.000000 1 0 0
-1.784744 -8.114343 -7.827112 11.414533 1.354294 2.326381 0.003512 -0.003840 -547559.000000 1 0 0
-9.396344 -9.769643 4.244288 14.203915 0.804873 1.267350 -0.002382 -0.003674 -569662.000000 1 0 0
-1.180944 -10.687043 7.380988 13.041722 1.460740 0.969209 0.003824 -0.003997 142968.000000 1 0 0
9.570256 3.767657 -3.764612 10.952504 0.375050 1.921673 -0.001874 0.000146 -775947.000000 1 0 0
12.770356 -0.815343 3.026788 13.149457 -0.063760 1.338530 0.005511 -0.005499 -1061100.000000 1 0 0
6.484756 11.791657 -6.946612 15.144327 1.067996 2.047321 0.010351 -0.009595 94003.700000 1 0 0
-11.980744 -0.110543 -6.493912 13.627961 0.009227 2.067481 0.009930 0.001112 102669.000000 1 0 0
-7.659444 -6.684243 -11.403212 15.276761 0.717515 2.413495 0.015375 -0.001636 -2051900.000000 1 0 0
4.221356 5.950057 6.707388 9.910201 0.953746 0.827367 -0.008566 0.002958 -925147.000000 1 0 0
-4.233744 -1.447943 -7.400812 8.648303 0.329531 2.597801 0.008569 -0.010295 -114587.000000 1 0 0
9.485656 9.224657 0.863888 13.259648 0.771450 1.505598 -0.001004 0.001142 -1544010.000000 1 0 0
-8.901744 3.836157 4.820188 10.825496 -0.406895 1.109329 0.000142 -0.006525 931379.000000 1 0 0
-6.902144 7.834457 -12.134512 16.008269 -0.848579 2.431061 0.000912 -0.006212 -1130890.000000 1 0 0
11.044856 -3.559143 7.127788 13.618433 -0.311738 1.019969 0.007505 -0.010699 1607390.000000 1 0 0
11.768456 6.895657 6.504188 15.111291 0.530020 1.125839 0.000391 -0.003814 -230605.000000 1 0 0
-9.760944 -0.803143 -14.733812 17.691983 0.082096 2.554936 0.009658 -0.004204 45505.600000 1 0 0
1.703056 -12.900143 12.241188 17.865072 -1.439537 0.815915 0.001668 -0.002808 -65083.900000 1 0 0
2.965356 3.054257 12.995688 13.675150 0.800166 0.316553 -0.001314 -0.001800 220244.000000 1 0 0
-2.591344 -1.293743 11.055788 11.428880 0.463052 0.256218 0.005319 -0.002487 -297782.000000 1 0 0
2.500956 -10.106443 -8.342012 13.341070 -1.328208 2.246297 -0.007389 0.003278 -762706.000000 1 0 0
13.871356 3.568657 -7.553112 16.192570 0.251807 2.056076 0.008112 -0.000257 -3038550.000000 1 0 0
7.276756 -1.705143 4.941888 8.959964 -0.230174 0.986572 -0.001224 -0.002353 -116104.000000 1 0 0
-1.264344 8.780957 10.149588 13.480278 -1.427792 0.718307 -0.001031 0.001527 236956.000000 1 0 0
-12.263644 -4.680243 0.889588 13.156482 0.364575 1.503129 0.002210 -0.003942 177471.000000 1 0 0
-4.805644 4.839357 -5.319912 8.649569 -0.788893 2.233245 0.005822 -0.008086 307530.000000 1 0 0
-11.169344 0.266257 1.912488 11.335023 -0.023834 1.401262 -0.001602 -0.003847 -1763850.000000 1 0 0
-1.218944 2.239957 -4.084712 4.815402 -1.072431 2.583487 0.001298 -0.006726 951741.000000 1 0 0
3.180556 -9.845243 13.208388 16.778149 -1.258325 0.664480 0.001099 -0.001685 521135.000000 1 0 0
8.953656 4.571757 -1.518612 10.167354 0.472093 1.720719 -0.002060 -0.000127 -2114070.000000 1 0 0
4.067056 2.304157 3.750288 5.992891 0.515454 0.894653 -0.008873 0.003538 -343312.000000 1 0 0
-5.470744 -3.234643 7.414688 9.765734 0.533970 0.708628 0.002270 -0.003388 -202480.000000 1 0 0
1.769656 -5.792643 7.692188 9.790616 -1.274301 0.667019 -0.000155 -0.002297 -689217.000000 1 0 0
-5.792244 -6.215843 -9.821712 12.986640 0.820660 2.428425 0.013162 -0.000613 -812138.000000 1 0 0
-11.716044 -5.775343 5.570988 14.200570 0.457986 1.167658 0.004608 -0.003109 -1775180.000000 1 0 0
10.420356 6.239157 4.576388 12.978992 0.539498 1.210449 -0.003716 -0.000110 -1165060.000000 1 0 0
1.438756 -3.776543 0.371688 4.058380 -1.206801 1.479082 0.005857 -0.002797 -1030460.000000 1 0 0
8.746956 4.369557 6.932288 11.985779 0.463289 0.954060 -0.006371 0.002544 -82100.500000 1 0 0
-7.899544 12.065557 3.426388 14.822975 -0.991111 1.337533 -0.003414 -0.003643 -560549.000000 1 0 0
-6.020744 13.082157 -6.969612 15.998989 -1.139471 2.021532 0.005600 -0.004072 429416.000000 1 0 0
4.412856 -7.015643 -0.944212 8.341708 -1.009324 1.684231 0.001841 -0.004990 331870.000000 1 0 0
-1.932244 -8.114743 11.123488 13.903763 1.337034 0.643444 0.000586 -0.003930 -374824.000000 1 0 0
11.474356 8.824357 -5.691012 15.553705 0.655582 1.945390 0.006339 -0.002376 902594.000000 1 0 0
-3.257144 -2.959143 -1.994312 4.831438 0.737496 1.996298 0.004625 -0.003571 -1469350.000000 1 0 0
-1.935544 5.779657 4.835988 7.780588 -1.247646 0.900082 -0.004515 -0.001323 1845880.000000 1 0 0
0.353956 -11.494443 -5.736212 12.851134 -1.540012 2.033488 -0.003160 -0.001782 -871935.000000 1 0 0
-8.818044 6.221257 -1.536612 10.900601 -0.614417 1.712233 0.005016 -0.003585 -791477.000000 1 0 0
2.912956 -0.042543 3.895488 4.864355 -0.014604 0.642128 -0.006067 0.001122 -358664.000000 1 0 0
-10.112844 3.932657 -1.050712 10.901348 -0.370881 1.667330 0.004932 -0.003412 -83561.400000 1 0 0
6.473456 5.411857 13.701788 16.091390 0.696314 0.551961 0.013019 -0.002805 -843296.000000 1 0 0
-8.768944 -1.572243 5.620588 10.533629 0.177412 1.007962 -0.001276 -0.005045 70031.700000 1 0 0
12.829256 -1.763343 -1.553112 13.042674 -0.136591 1.690159 0.008906 -0.005290 -1591990.000000 1 0 0
5.264856 -5.501343 5.414888 9.343688 -0.807360 0.952652 -0.003540 -0.003855 -170896.000000 1 0 0
-9.012944 -1.172943 3.196788 9.634750 0.129413 1.232588 -0.001840 -0.003257 141952.000000 1 0 0
2.007356 5.502157 5.598988 8.102585 1.220971 0.807907 -0.006087 0.000401 -956263.000000 1 0 0
9.108356 2.848557 -7.497912 12.136519 0.303104 2.236735 0.000531 0.000936 -1115470.000000 1 0 0
2.254156 -2.396643 -1.550812 3.637325 -0.816026 2.011262 0.000558 -0.001571 21770.600000 1 0 0
-6.229744 0.444457 -3.830312 7.326564 -0.071224 2.120926 0.003607 -0.003929 -2796290.000000 1 0 0
-4.018744 4.081157 5.047988 7.634679 -0.793103 0.848390 0.000834 -0.002825 133519.000000 1 0 0
-6.399544 1.786057 -12.276912 13.959467 -0.272166 2.645541 0.006173 -0.004103 -2578510.000000 1 0 0
-0.189444 3.063857 6.208588 6.926014 -1.509043 0.459181 -0.003089 -0.001943 1354920.000000 1 0 0
-8.671444 9.382057 -2.147812 12.954923 -0.824739 1.737357 0.002846 -0.002103 433514.000000 1 0 0
-1.241744 -3.774043 -6.078812 7.262044 1.252931 2.562695 -0.001753 -0.005297 134805.000000 1 0 0
-3.348244 6.979157 -2.933212 8.277868 -1.123480 1.933009 0.001374 -0.004779 926827.000000 1 0 0
6.981656 -0.431643 -4.295412 8.208556 -0.061747 2.121497 0.000760 -0.000577 -95594.600000 1 0 0
-5.164044 -10.829943 6.999688 13.890668 1.125856 1.042673 -0.001713 -0.005265 611521.000000 1 0 0
9.631956 8.436557 -1.486312 12.890275 0.719335 1.686358 0.001704 0.003332 -314883.000000 1 0 0
13.560356 4.634857 -4.193612 14.931562 0.329346 1.855482 -0.000580 -0.003394 785801.000000 1 0 0
4.642656 1.029257 -6.853412 8.341635 0.218167 2.534992 -0.001202 -0.001766 -1765810.000000 1 0 0
8.989656 -4.792543 3.630588 10.814969 -0.489789 1.228448 0.003259 -0.006471 -947659.000000 1 0 0
-8.642044 -3.333443 -0.718312 9.290465 0.368139 1.648191 0.005106 -0.001935 845326.000000 1 0 0
-8.516244 -4.271243 -10.415812 14.115915 0.464879 2.400716 0.013756 -0.001997 573212.000000 1 0 0
10.412956 -1.166943 10.458388 14.804368 -0.111601 0.786342 0.001635 -0.007523 1068250.000000 1 0 0
2.248256 -11.426643 9.979288 15.336526 -1.376522 0.862307 -0.000742 -0.003712 369113.000000 1 0 0
-6.333444 -10.609943 2.174688 12.546421 1.032634 1.396585 0.003033 -0.000693 -1759480.000000 1 0 0
-3.693844 -1.244843 6.757588 7.801225 0.325051 0.523207 0.003271 -0.002627 -1688510.000000 1 0 0
4.740156 -7.661843 3.934288 9.831152 -1.016762 1.159077 -0.001670 -0.003232 478743.000000 1 0 0
11.475356 -9.476143 -5.356512 15.816868 -0.690265 1.916287 0.024369 -0.006697 346952.000000 1 0 0
11.319956 1.131257 11.454588 16.144000 0.099604 0.781971 0.000318 -0.007209 -219478.000000 1 0 0
-10.280944 -3.430643 4.381388 11.690324 0.322071 1.186629 0.002817 -0.003606 1768980.000000 1 0 0
2.046456 8.670057 8.964388 12.637964 1.339002 0.782260 -0.005009 0.002191 -267274.000000 1 0 0
6.518556 8.819457 4.142188 11.723144 0.934301 1.209663 -0.004794 0.001353 1303550.000000 1 0 0
-4.196744 3.484957 0.411988 5.470586 -0.693002 1.495415 0.004705 -0.006450 -956668.000000 1 0 0
4.799056 7.099357 4.328288 9.600306 0.976371 1.103080 -0.008240 0.002169 -1294370.000000 1 0 0
-8.187944 13.084057 1.049788 15.470521 -1.011625 1.502887 0.000023 -0.001336 -355239.000000 1 0 0
8.856656 8.157157 -9.130012 15.110813 0.744308 2.219563 0.004509 -0.009442 -1198020.000000 1 0 0
7.116456 1.901957 6.047188 9.530471 0.261158 0.883421 -0.004316 0.001338 -994892.000000 1 0 0
11.408856 -6.282143 3.055388 13.377695 -0.503332 1.340368 0.010480 -0.007078 164383.000000 1 0 0
11.381456 4.713957 -2.018412 12.483305 0.392669 1.733198 -0.001185 0.001501 -519983.000000 1 0 0
-3.865344 14.376457 -5.938912 16.027915 -1.308142 1.950382 -0.003528 0.002564 -1717110.000000 1 0 0
7.255956 -3.069843 6.902988 10.474927 -0.400243 0.851306 0.000354 -0.007909 -279816.000000 1 0 0
-7.930744 -0.408943 0.909888 7.993237 0.051519 1.456717 0.002587 -0.002869 282295.000000 1 0 0
-3.204044 1.147257 10.669788 11.199396 -0.343842 0.308760 0.001691 0.001328 -336292.000000 1 0 0
7.080156 -1.356643 -1.894212 7.453666 -0.189317 1.827746 0.001381 -0.001684 -1731230.000000 1 0 0
-7.714344 5.326857 2.921788 9.819539 -0.604331 1.268673 0.002880 -0.005090 691646.000000 1 0 0
9.401256 -2.202943 2.756288 10.041599 -0.230172 1.292740 -0.002079 -0.004592 -1572020.000000 1 0 0
0.292056 3.374357 1.648088 3.766666 1.484460 1.117929 -0.006779 -0.000163 -2502250.000000 1 0 0
-7.576944 -3.042443 4.080488 9.127811 0.381833 1.107344 -0.000289 -0.003418 386133.000000 1 0 0
-2.201844 8.382857 -6.735512 10.976681 -1.313938 2.231433 0.002810 -0.005781 -895332.000000 1 0 0
4.455656 9.754857 7.365788 13.010186 1.142333 0.968962 -0.004268 0.003793 333021.000000 1 0 0
-11.806544 -3.205643 6.797988 13.995831 0.265123 1.063615 0.007452 -0.004818 -968947.000000 1 0 0
-4.766544 2.300357 -5.655912 7.746026 -0.449635 2.389366 0.007335 -0.009699 -27925.100000 1 0 0
-2.720644 3.029857 -1.938512 4.509962 -0.839118 2.015099 0.002197 -0.004863 807868.000000 1 0 0
2.353056 5.248257 11.411588 12.779101 1.149315 0.466855 0.001959 -0.002391 179173.000000 1 0 0
-0.668244 1.667957 4.508388 4.853266 -1.189742 0.379260 -0.002552 -0.002388 559788.000000 1 0 0
5.183456 1.694057 7.685888 9.423955 0.315877 0.617084 -0.004687 0.001793 -641851.000000 1 0 0
3.338356 -8.189743 1.918288 9.049660 -1.183733 1.357202 -0.000322 -0.003634 1758140.000000 1 0 0
5.029856 6.464557 -4.596512 9.392436 0.909573 2.082180 -0.002013 -0.002653 -3739150.000000 1 0 0
-4.012344 2.911557 -7.952612 9.371238 -0.627734 2.584166 0.010348 -0.013155 403801.000000 1 0 0
-8.610544 -2.146643 -12.841812 15.609666 0.244324 2.536911 0.012901 -0.005446 62712.100000 1 0 0
-7.827144 8.066557 1.304188 11.315230 -0.800460 1.455280 0.002530 -0.003891 -1487460.000000 1 0 0
7.265256 0.936457 -6.518212 9.805508 0.128188 2.297956 -0.001966 0.000192 44084.100000 1 0 0
8.929756 8.850657 5.489488 13.718934 0.780950 1.159127 -0.001990 0.001158 222168.000000 1 0 0
9.348456 -1.142643 -1.429112 9.525840 -0.121625 1.721390 0.001208 -0.002155 404088.000000 1 0 0
5.381056 0.082357 4.304688 6.891509 0.015304 0.896130 -0.004725 0.001279 -158282.000000 1 0 0
-4.193944 -7.282243 -7.967712 11.580357 1.048276 2.329577 0.011682 -0.004781 -725122.000000 1 0 0
-2.008644 7.433057 -0.633812 7.725717 -1.306869 1.652928 0.001576 -0.004389 62119.000000 1 0 0
13.436956 -3.374043 -7.464712 15.737150 -0.246015 2.065007 0.019906 -0.008120 1166140.000000 1 0 0
-4.759644 -5.078643 1.541988 7.129134 0.817811 1.352779 0.002789 -0.001657 869246.000000 1 0 0
-8.919944 1.315657 2.564588 9.374085 -0.146440 1.293680 -0.000135 -0.004950 -464313.000000 1 0 0
-1.019044 11.253557 10.136488 15.179901 -1.480490 0.839605 -0.000111 -0.000368 389728.000000 1 0 0
-8.602644 0.322157 7.523988 11.433270 -0.037431 0.852532 -0.002834 -0.003854 -706089.000000 1 0 0
-6.113744 12.798857 -2.092712 14.337644 -1.125165 1.717279 -0.000177 0.000435 -502335.000000 1 0 0
-12.931344 -0.828743 3.153788 13.336148 0.064000 1.332051 0.005426 -0.005014 492035.000000 1 0 0
-6.674944 12.665257 8.503188 16.651361 -1.085761 1.034844 0.004404 -0.012713 341487.000000 1 0 0
-8.066144 1.029857 -13.974712 16.168359 -0.126989 2.614602 0.006686 -0.004759 211946.000000 1 0 0
7.116656 2.868057 3.774788 8.551115 0.383095 1.113596 -0.005570 0.002158 -546777.000000 1 0 0
-1.707544 0.704957 -1.914612 2.660528 -0.391533 2.374074 0.002125 -0.004835 69407.900000 1 0 0
-6.215644 9.685857 -10.322012 15.459430 -1.000261 2.301890 -0.003982 0.000905 -162539.000000 1 0 0
-10.036544 13.599357 5.255188 17.700048 -0.935009 1.269349 -0.005937 -0.011455 532056.000000 1 0 0
-5.634744 8.184657 2.435888 10.230958 -0.967863 1.330398 -0.000932 -0.002406 -1588000.000000 1 0 0
-2.464144 -10.835543 -1.224712 11.179487 1.347186 1.680567 0.002336 -0.000498 1259730.000000 1 0 0
-2.199544 -12.461343 8.919988 15.481901 1.396087 0.956779 0.002225 -0.004128 445987.000000 1 0 0
-14.698944 -6.530743 -1.632812 16.167116 0.418104 1.671965 0.013632 -0.007148 321051.000000 1 0 0
-2.684644 -9.286743 3.263388 10.202971 1.289385 1.245228 0.001950 -0.001124 -1093200.000000 1 0 0
4.717056 -2.627743 7.482988 9.227717 -0.508257 0.625065 -0.000591 -0.002571 -434315.000000 1 0 0
-15.204644 -1.379243 -0.237812 15.268925 0.090464 1.586372 0.015742 -0.009009 473271.000000 1 0 0
5.539356 8.829857 -2.860712 10.809001 1.010513 1.838648 -0.005211 -0.001125 -1135110.000000 1 0 0
-5.670544 -5.640343 8.553788 11.710501 0.782728 0.751834 0.003628 -0.001856 -3503280.000000 1 0 0
3.429356 3.553657 6.994388 8.562151 0.803197 0.614787 -0.006114 0.001380 365525.000000 1 0 0
3.280456 2.195657 9.259088 10.065437 0.589833 0.402998 -0.000634 -0.003320 497348.000000 1 0 0
9.858556 -3.075343 5.106688 11.520726 -0.302381 1.111563 0.008768 -0.007317 -824372.000000 1 0 0
6.533756 10.010657 -5.090812 12.993059 0.992539 1.973394 0.003653 -0.004055 225672.000000 1 0 0
-4.484344 11.991657 -8.452312 15.341145 -1.212942 2.154307 -0.003363 0.001038 -531499.000000 1 0 0
-3.414044 -7.250043 2.048488 8.271344 1.130699 1.320531 0.000948 -0.001163 870619.000000 1 0 0
-7.453744 -4.185243 1.153588 8.625852 0.511626 1.436658 0.001691 -0.003248 1977820.000000 1 0 0
-1.962044 -3.907043 -10.918912 11.761685 1.105405 2.760734 0.005914 -0.001627 -779376.000000 1 0 0
-5.178944 8.254557 -4.462412 10.717849 -1.010470 2.000227 0.003111 -0.007481 -2413540.000000 1 0 0
-10.987044 -3.158343 -10.087412 15.246184 0.279914 2.293794 0.023353 -0.006197 -66625.400000 1 0 0
4.619556 -11.328443 -7.795812 14.506847 -1.183598 2.138134 -0.000833 -0.002488 -3213680.000000 1 0 0
-9.398944 -3.927943 7.204888 12.477151 0.395853 0.955199 0.000444 -0.002072 -1577280.000000 1 0 0
-5.690444 -9.655243 -5.149612 12.333831 1.038235 2.001510 0.007573 -0.004085 128516.000000 1 0 0
4.822256 4.407757 -9.402312 11.449277 0.740521 2.534332 -0.003093 0.000448 620325.000000 1 0 0
-3.439144 -7.302243 -14.150912 16.291064 1.130641 2.623227 0.006085 0.002720 97603.000000 1 0 0
0.633656 -0.806743 -8.660112 8.720659 -0.904991 3.023686 0.002738 -0.008386 408530.000000 1 0 0
-7.756644 2.236357 -2.872912 8.568573 -0.280702 1.912704 0.005194 -0.004754 -450716.000000 1 0 0
-2.258944 7.495157 -12.480612 14.732477 -1.278067 2.581394 -0.001095 -0.002872 495337.000000 1 0 0
-9.770744 8.778257 7.599588 15.174945 -0.731943 1.046275 -0.001115 -0.006965 -448797.000000 1 0 0
-10.526744 -3.183643 -14.198212 17.959319 0.293688 2.482546 0.021420 -0.002277 -349639.000000 1 0 0
-3.148644 4.837057 7.952288 9.825984 -0.993759 0.627816 -0.000035 -0.000973 -472407.000000 1 0 0
8.729156 -2.368243 -3.683012 9.765824 -0.264926 1.957495 0.001626 -0.001349 -5863100.000000 1 0 0
1.904956 -8.418643 -1.121112 8.703982 -1.348266 1.699960 0.000701 -0.001962 -108564.000000 1 0 0
-13.473444 -2.858443 5.011188 14.656616 0.209054 1.221852 0.015761 -0.008453 257274.000000 1 0 0
7.070656 2.729557 -1.960912 7.828782 0.368414 1.823967 -0.003306 -0.000850 1351370.000000 1 0 0
-11.146544 4.477857 8.856788 14.924454 -0.381993 0.935469 0.001518 -0.003645 -2741740.000000 1 0 0
-1.680944 -2.485843 8.013888 8.557301 0.976218 0.358292 0.003392 -0.004921 -1712520.000000 1 0 0
3.186756 11.933757 -9.830712 15.786477 1.309848 2.243023 0.007625 -0.010965 547743.000000 1 0 0
3.683156 -5.001743 -6.923912 9.301808 -0.936073 2.410375 -0.001838 -0.002630 882054.000000 1 0 0
8.240056 -13.844743 -9.628912 18.769427 -1.033932 2.109485 0.025032 -0.008167 243178.000000 1 0 0
-6.200644 -5.766143 -0.505812 8.482467 0.749105 1.630462 0.007633 -0.002318 -374438.000000 1 0 0
-1.203944 -4.102243 9.881388 10.766602 1.285328 0.408339 0.001584 -0.002771 553511.000000 1 0 0
2.828256 3.243157 1.757588 4.648248 0.853629 1.183033 -0.011534 0.001717 -1694290.000000 1 0 0
-9.180144 13.167157 7.763588 17.830377 -0.961952 1.120299 -0.000485 -0.021936 -315775.000000 1 0 0
4.080056 -11.186543 0.031788 11.907419 -1.221061 1.568127 0.000071 -0.004566 146201.000000 1 0 0
-12.609744 -1.483543 -8.988112 15.556114 0.117112 2.186810 0.018963 -0.004659 100293.000000 1 0 0
-4.178644 0.971557 -13.443812 14.111735 -0.228446 2.832694 0.006246 -0.003880 763830.000000 1 0 0
3.867656 -3.168943 4.942088 7.030306 -0.686426 0.791233 -0.002883 0.000697 -140481.000000 1 0 0
1.691156 -1.299143 1.104888 2.401783 -0.655047 1.092769 -0.001513 -0.000698 94173.300000 1 0 0
8.112956 -8.948743 7.248488 14.086896 -0.834345 1.030307 0.009935 -0.000747 -1274770.000000 1 0 0
-0.051544 2.312757 -6.403412 6.808464 -1.548513 2.794917 0.000323 -0.008358 -1389710.000000 1 0 0
-3.734844 -9.670243 -3.329512 10.887990 1.202225 1.881571 0.006677 0.000270 1005360.000000 1 0 0
-9.465444 2.275357 -5.482412 11.172677 -0.235910 2.083687 0.006974 -0.002077 -809544.000000 1 0 0
9.088556 -7.496243 5.377388 12.950360 -0.689681 1.142600 0.009639 -0.006242 781580.000000 1 0 0
-5.565344 -4.359343 4.569088 8.417452 0.664476 0.997015 0.001178 -0.002609 -742170.000000 1 0 0
-0.100744 -12.466243 10.439388 16.260326 1.562715 0.873672 0.005840 -0.003421 -523875.000000 1 0 0
-14.132644 -8.283743 3.114188 16.674837 0.530168 1.382934 0.006284 -0.012269 -1097870.000000 1 0 0
10.933456 -1.344843 -3.608512 11.591826 -0.122388 1.887355 0.009021 -0.002603 -520583.000000 1 0 0
-13.684244 2.889657 2.713388 14.246793 -0.208109 1.379170 0.005729 -0.003599 -1543100.000000 1 0 0
-6.267244 6.069857 0.949988 8.776331 -0.769400 1.462339 0.002870 -0.003994 374117.000000 1 0 0
7.101956 -6.883843 -0.391912 9.898418 -0.769804 1.610400 0.001346 -0.005580 1243020.000000 1 0 0
-6.999344 7.914257 9.963988 14.522649 -0.846669 0.814682 -0.000222 -0.000113 -57204.400000 1 0 0
-12.626544 -5.250643 -1.878212 13.803135 0.394088 1.707291 0.003989 -0.005110 -1779070.000000 1 0 0
-9.377644 -5.659143 0.244688 10.955637 0.542968 1.548460 0.003813 -0.004029 -1227900.000000 1 0 0
-1.880944 1.882857 2.275288 3.501433 -0.785906 0.863454 -0.001311 -0.002702 223683.000000 1 0 0
-7.158044 7.374157 7.486888 12.714923 -0.800268 0.941190 -0.001070 -0.003265 -537508.000000 1 0 0
5.619456 7.147957 -0.475712 9.104827 0.904550 1.623068 -0.007792 -0.002055 -2043830.000000 1 0 0
-0.046944 -4.049143 7.474588 8.501014 1.559203 0.496493 0.000932 -0.002689 -1729960.000000 1 0 0
6.439056 0.675557 13.016388 14.537682 0.104533 0.461568 -0.004628 -0.004300 468218.000000 1 0 0
5.849556 6.166157 -7.800112 11.536054 0.811741 2.313322 -0.004451 -0.001211 -490570.000000 1 0 0
9.926456 5.264657 9.055188 14.430786 0.487644 0.892470 -0.000244 -0.002367 -1480990.000000 1 0 0
-1.199644 -5.018943 -8.497912 9.942004 1.336175 2.595862 0.007510 -0.003994 642680.000000 1 0 0
9.985156 -3.508943 -8.002712 13.268738 -0.337936 2.218210 0.014179 -0.011688 477740.000000 1 0 0
8.491356 -5.425643 1.256088 10.154728 -0.568576 1.446784 0.004472 -0.006431 785155.000000 1 0 0
15.611556 3.305057 -5.128812 16.761527 0.208625 1.881771 0.006788 0.003970 -924395.000000 1 0 0
-6.903244 3.485457 1.171788 7.821526 -0.467561 1.420414 0.004171 -0.005936 280075.000000 1 0 0
-1.680444 3.795757 0.295888 4.161635 -1.154016 1.499637 0.000900 -0.006292 -605931.000000 1 0 0
-2.686044 10.041157 6.853388 12.450245 -1.309413 0.987879 -0.002286 0.004031 1461590.000000 1 0 0
5.536956 -5.830343 -8.690512 11.839585 -0.811202 2.395021 -0.000200 -0.000096 -48994.100000 1 0 0
-1.165644 -0.960543 6.255988 6.435741 0.689232 0.236902 0.000821 -0.003332 -294385.000000 1 0 0
-5.673044 5.052257 -7.859612 10.930792 -0.727582 2.373208 0.004687 -0.008779 213998.000000 1 0 0
6.711656 -1.211543 2.513588 7.268583 -0.178590 1.217689 -0.001778 -0.000060 -961378.000000 1 0 0
8.758756 7.541957 3.239888 12.003907 0.710889 1.297504 -0.003239 0.000283 73310.400000 1 0 0
-5.244044 -4.954343 -7.779212 10.609507 0.756999 2.393857 0.009780 -0.007382 1893990.000000 1 0 0
-2.300344 7.835457 -9.991312 12.903963 -1.285239 2.456377 0.002589 -0.002231 481902.000000 1 0 0
-2.856844 -2.417443 1.641688 4.086653 0.702280 1.157403 -0.002123 0.001091 -1201900.000000 1 0 0
6.130656 -2.138843 -9.223212 11.279505 -0.335674 2.528194 0.000277 -0.001064 890547.000000 1 0 0
1.172056 -7.597343 5.012188 9.176894 -1.417731 0.993005 -0.000811 -0.001324 739247.000000 1 0 0
1.758556 11.872357 1.217388 12.063474 1.423744 1.469709 -0.003061 -0.003359 437440.000000 1 0 0
-0.941044 7.031057 2.580688 7.548594 -1.437746 1.221883 -0.003570 -0.000785 182708.000000 1 0 0
8.583156 7.778057 -6.682512 13.372535 0.736230 2.094071 0.004445 -0.004107 76224.900000 1 0 0
3.744956 -11.188843 5.507888 13.021204 -1.247812 1.134050 0.003498 -0.002106 537394.000000 1 0 0
7.999356 -7.016843 12.317688 16.277323 -0.720061 0.712486 0.000898 0.002609 478225.000000 1 0 0
-8.682644 0.007357 -3.862012 9.502815 -0.000847 1.989315 0.007891 -0.003979 -776182.000000 1 0 0
-3.412744 -4.866843 11.163288 12.647213 0.959250 0.489288 0.004519 -0.003021 -97550.900000 1 0 0
-8.178744 0.152557 -11.450012 14.071883 -0.018651 2.521251 0.015878 -0.007759 -1484580.000000 1 0 0
1.413356 -5.053943 5.379688 7.515382 -1.298108 0.772993 -0.000936 -0.000640 -485524.000000 1 0 0
6.618356 3.756257 -7.642912 10.785462 0.516218 2.358352 -0.003997 0.000642 -1881110.000000 1 0 0
16.277756 4.213757 -1.109912 16.850905 0.253306 1.636711 0.011618 0.005720 -2087380.000000 1 0 0
7.889556 7.343557 0.170888 10.779709 0.749571 1.554943 -0.003681 -0.002339 -3409130.000000 1 0 0
5.554456 -10.383243 13.952488 18.257482 -1.079586 0.700986 0.008805 -0.004055 -115786.000000 1 0 0
-5.350644 -9.068943 8.986588 13.843190 1.037765 0.864303 0.002111 -0.006498 507851.000000 1 0 0
-12.640644 -3.180943 2.786688 13.329288 0.246525 1.360178 0.002104 -0.004127 -461475.000000 1 0 0
-2.187144 -1.436743 -5.789512 6.353446 0.581213 2.717080 0.003615 -0.008892 -1359210.000000 1 0 0
-2.407244 12.998257 -4.368712 13.922469 -1.387674 1.889977 -0.002319 0.000178 301289.000000 1 0 0
3.927556 -0.513043 -4.930012 6.324075 -0.129891 2.464763 -0.000404 -0.001851 -406167.000000 1 0 0
-8.743344 3.834457 -7.378212 12.065949 -0.413297 2.228739 0.010515 -0.005427 22523.200000 1 0 0
-4.555544 8.014457 -11.320112 14.598953 -1.053924 2.458154 -0.002546 -0.003318 -3113010.000000 1 0 0
-10.114844 -6.453543 7.388588 14.090760 0.567912 1.018837 0.001810 -0.004943 -1296490.000000 1 0 0
8.028456 5.321757 4.089488 10.464278 0.585364 1.169291 -0.007633 0.000374 -2341830.000000 1 0 0
-6.729144 -7.548443 3.990688 10.871337 0.842719 1.194925 0.003680 -0.000873 -418567.000000 1 0 0
-4.085144 11.853657 8.007488 14.876742 -1.238912 1.002430 0.002176 -0.002006 -97540.500000 1 0 0
-7.283644 9.904757 -7.901812 14.614866 -0.936725 2.142029 0.002879 -0.003294 -712850.000000 1 0 0
13.037056 5.568757 4.609388 14.907124 0.403689 1.256437 -0.001104 -0.005055 -129678.000000 1 0 0
5.454456 4.074057 -3.751712 7.773311 0.641529 2.074463 -0.005706 0.000389 505961.000000 1 0 0
-2.919744 -4.137543 5.128588 7.207398 0.956275 0.779062 0.000544 -0.001203 -915024.000000 1 0 0
12.329056 -2.447543 -5.341712 13.657598 -0.195970 1.972641 0.013534 -0.007775 -1633680.000000 1 0 0
-5.326644 9.807857 6.825188 13.082446 -1.073266 1.021947 0.000314 0.000818 349934.000000 1 0 0
1.768456 3.816557 -0.445512 4.229896 1.136884 1.676317 -0.008706 -0.001737 516283.000000 1 0 0
-0.109744 9.557657 7.676588 12.259317 -1.559315 0.894147 -0.002507 0.003281 -1034960.000000 1 0 0
-5.628444 2.078057 5.876688 8.398403 -0.353682 0.795764 0.002177 -0.005296 519716.000000 1 0 0
8.910256 0.958657 10.619088 13.895205 0.107178 0.700955 0.000676 -0.004853 -1250140.000000 1 0 0
0.473256 -2.839843 -10.063112 10.466848 -1.405665 2.862941 0.003306 -0.002392 -1242510.000000 1 0 0
1.241856 10.521857 -2.785812 10.955018 1.453314 1.827915 -0.000065 -0.004989 -533870.000000 1 0 0
2.351256 -4.314843 11.621288 12.617473 -1.071860 0.400035 -0.000634 -0.002507 -4935.000000 1 0 0
6.569056 -3.134843 9.410888 11.897250 -0.445253 0.658332 -0.001858 -0.006889 253235.000000 1 0 0
-10.594644 -8.200843 5.612088 14.525696 0.658720 1.174119 0.004279 -0.007822 -1477510.000000 1 0 0
-2.935944 0.789957 -6.874512 7.516828 -0.262839 2.725189 0.007803 -0.009812 614591.000000 1 0 0
10.993256 2.574557 -5.121412 12.397938 0.230048 1.996636 0.001387 -0.001559 -3291590.000000 1 0 0
-1.982144 -4.089543 -0.094112 4.545560 1.119475 1.591502 -0.001168 -0.001947 1075180.000000 1 0 0
-1.226744 -6.359543 -10.636612 12.453361 1.380239 2.594645 0.002472 0.001117 865171.000000 1 0 0
0.328456 6.833657 -6.587612 9.497546 1.522769 2.337288 0.002270 -0.005314 -3633130.000000 1 0 0
2.058456 3.811157 -6.119412 7.497290 1.075575 2.525628 -0.003018 -0.003884 -2268880.000000 1 0 0
1.679756 -14.621943 6.498788 16.089035 -1.456419 1.154991 0.011774 -0.007465 -127621.000000 1 0 0
-1.579744 5.378957 -10.525712 11.925576 -1.285139 2.652196 0.005875 -0.005911 -110387.000000 1 0 0
13.664056 4.286757 -0.831412 14.344823 0.304001 1.628788 0.003217 -0.000953 -521964.000000 1 0 0
-2.374144 3.292857 -6.008112 7.250991 -0.946116 2.547384 0.005866 -0.008940 -1244710.000000 1 0 0
5.743456 7.835857 14.171888 17.182269 0.938283 0.600953 0.018273 -0.007379 375367.000000 1 0 0
15.860056 0.681657 -5.785012 16.895928 0.042953 1.920257 0.009042 -0.002347 122492.000000 1 0 0
6.166156 -8.121243 10.576988 14.691792 -0.921393 0.767102 0.000910 0.000904 443399.000000 1 0 0
0.167656 -5.858943 -6.428812 8.699710 -1.542189 2.402334 0.000749 -0.003502 -879378.000000 1 0 0
8.800356 5.384357 -7.516612 12.764678 0.549076 2.200444 -0.000083 -0.000324 -150537.000000 1 0 0
-15.953144 -0.690343 5.331788 16.834706 0.043246 1.248533 0.018310 -0.014650 -103702.000000 1 0 0
-0.207944 4.033257 -12.260812 12.908830 -1.519285 2.823393 0.005337 -0.005048 421156.000000 1 0 0
-11.249244 3.713157 5.898888 13.233666 -0.318820 1.108786 0.002049 -0.006052 498962.000000 1 0 0
5.325456 -9.542543 -9.595912 14.543113 -1.061775 2.291382 -0.002919 0.002486 286706.000000 1 0 0
1.588956 11.224457 -11.602812 16.221543 1.430169 2.367809 0.005717 -0.002449 -926910.000000 1 0 0
5.857756 2.341757 1.216388 6.424697 0.380308 1.380316 -0.002822 0.001145 -227650.000000 1 0 0
5.589956 4.609457 4.820988 8.702679 0.689560 0.983676 -0.010504 0.001830 -194322.000000 1 0 0
0.381756 -1.584443 -6.302212 6.509537 -1.334363 2.888531 0.001434 -0.005517 -126373.000000 1 0 0
12.635856 6.824757 -4.536812 15.060705 0.495219 1.876784 0.000689 -0.002337 -380452.000000 1 0 0
7.489856 3.182857 12.792988 15.162093 0.401833 0.566568 0.001663 -0.002512 -818729.000000 1 0 0
-2.338944 -0.256443 8.659288 8.973277 0.109205 0.265321 -0.001474 -0.003596 1052910.000000 1 0 0
2.227256 -15.140243 13.601188 20.473885 -1.424736 0.844214 0.010795 -0.002935 2264.370000 1 0 0
18.786956 4.700157 -1.487412 19.423017 0.245150 1.647451 0.008178 0.004675 236321.000000 1 0 0
-0.452044 -13.190943 7.180588 15.025518 1.536540 1.072542 0.004851 -0.003209 -1861010.000000 1 0 0
4.400156 1.569157 -0.660612 4.718054 0.342555 1.711276 -0.004030 0.000125 536804.000000 1 0 0
2.733956 -0.515143 -7.270712 7.784802 -0.186241 2.776141 -0.001753 -0.002956 151438.000000 1 0 0
7.218756 -11.423643 0.951288 13.546772 -1.007241 1.500516 0.004741 -0.003177 286318.000000 1 0 0
-11.806244 -7.393943 1.345388 13.995280 0.559515 1.474516 0.002034 -0.001779 33649.600000 1 0 0
0.157556 -6.928843 10.167788 12.305187 -1.548061 0.598288 0.000394 -0.003511 -2189730.000000 1 0 0
-4.657844 -7.133643 10.657588 13.644360 0.992357 0.674373 0.004761 -0.001677 -1391180.000000 1 0 0
11.805556 0.799857 -1.647912 11.946821 0.067649 1.709175 0.001926 -0.002851 406623.000000 1 0 0
6.526156 -9.769743 -7.327512 13.846697 -0.981874 2.128440 -0.002402 -0.003291 -582007.000000 1 0 0
-10.872444 4.872157 3.557488 12.433972 -0.421289 1.280631 -0.000994 -0.006879 170079.000000 1 0 0
5.938456 -9.255943 2.093288 11.194624 -1.000361 1.382699 -0.000388 -0.006594 3264750.000000 1 0 0
11.562556 -1.196543 5.895588 13.033894 -0.103117 1.101423 0.004606 -0.008809 -404440.000000 1 0 0
-6.435144 3.619957 4.115288 8.452855 -0.512412 1.062314 0.001554 -0.005612 -1239830.000000 1 0 0
9.491256 6.274457 -3.173512 11.812024 0.584123 1.842806 0.000250 0.002070 -168990.000000 1 0 0
-2.386044 6.712557 10.913188 13.032625 -1.229266 0.578334 -0.004344 -0.000236 -229105.000000 1 0 0
1.797756 9.765157 2.850788 10.330402 1.388736 1.291207 -0.007969 -0.000262 -333421.000000 1 0 0
2.939856 6.125557 -5.517012 8.752292 1.123331 2.252801 -0.004816 -0.003255 -2250190.000000 1 0 0
11.943356 0.025257 -5.672812 13.222147 0.002115 2.014224 0.008829 -0.001698 201167.000000 1 0 0
-2.742044 -12.497143 6.350288 14.283682 1.354805 1.110087 0.002726 -0.002626 -295979.000000 1 0 0
10.858356 1.814957 -2.777712 11.354015 0.165617 1.817951 0.000395 -0.001258 -94510.000000 1 0 0
-8.836144 5.288557 0.733688 10.323980 -0.539326 1.499670 0.000601 -0.005091 336362.000000 1 0 0
1.236856 -10.116143 5.570288 11.614400 -1.449135 1.070595 0.001119 -0.001297 351669.000000 1 0 0
9.344456 -5.775043 -1.303412 11.062046 -0.553563 1.688898 0.003321 -0.006249 1034080.000000 1 0 0
-7.819444 8.568957 -4.480412 12.435627 -0.831101 1.939373 0.002840 -0.004777 -961639.000000 1 0 0
-7.490944 -0.100343 -1.547912 7.649859 0.013395 1.774548 0.002789 -0.003226 -2071550.000000 1 0 0
4.095756 8.794257 2.600988 10.043869 1.134938 1.308848 -0.007510 -0.001710 557215.000000 1 0 0
-1.292444 -10.512443 -3.742812 11.233455 1.448466 1.910475 0.002803 0.001681 -109616.000000 1 0 0
3.261056 7.875757 -3.657412 9.275704 1.178226 1.976103 -0.001982 -0.005340 -639919.000000 1 0 0
-4.253444 1.676657 -11.008712 11.920348 -0.375486 2.747962 0.004209 -0.006130 -368686.000000 1 0 0
1.261656 2.801057 10.937388 11.360641 1.147592 0.273824 0.001330 -0.002451 793070.000000 1 0 0
2.134056 5.528357 -7.990612 9.948206 1.202399 2.503480 -0.001374 -0.002713 10417.600000 1 0 0
15.545256 6.068157 4.041488 17.170065 0.372164 1.333187 0.015102 -0.005994 805784.000000 1 0 0
-4.475644 8.882957 4.589088 10.954362 -1.104076 1.138532 0.001488 -0.000341 -143098.000000 1 0 0
-1.034844 -8.165943 -12.467612 14.939708 1.444741 2.558073 0.001663 0.002412 -80546.900000 1 0 0
14.340256 -4.185443 -5.309712 15.854145 -0.283978 1.912306 0.024495 -0.008087 216556.000000 1 0 0
-5.992044 -6.169943 -5.615512 10.271649 0.800025 2.149215 0.011076 -0.005070 497581.000000 1 0 0
-8.910144 2.563757 -12.029512 15.187912 -0.280166 2.484948 0.015893 -0.005892 -256100.000000 1 0 0
10.562556 5.494157 13.798788 18.225255 0.479641 0.711896 0.026779 -0.003471 287333.000000 1 0 0
-0.527644 10.815557 5.527988 12.157850 -1.522049 1.098778 -0.004853 0.005104 470613.000000 1 0 0
0.453556 11.229557 -0.685912 11.259624 1.530429 1.631752 -0.002005 -0.004221 -414493.000000 1 0 0
-1.450444 -0.621143 3.693888 4.016767 0.404615 0.403691 -0.000849 -0.001374 339840.000000 1 0 0
-4.885044 6.752157 8.738988 12.075810 -0.944486 0.761681 -0.000041 0.001456 587093.000000 1 0 0
3.435256 -8.748943 -11.355812 14.741080 -1.196644 2.450188 -0.007278 0.008111 909889.000000 1 0 0
6.734756 -3.693943 12.068488 14.305613 -0.501683 0.566808 -0.002178 -0.002020 -133713.000000 1 0 0
-2.470744 -1.786543 -12.451912 12.819767 0.626048 2.901457 0.003284 -0.005137 807378.000000 1 0 0
-15.944844 -4.982443 5.350688 17.541170 0.302867 1.260820 0.011465 -0.011028 1377750.000000 1 0 0
-8.965744 7.286957 5.660188 12.865537 -0.682470 1.115254 -0.006227 -0.004891 -2811620.000000 1 0 0
-12.845344 1.528357 6.052788 14.281981 -0.118425 1.133153 0.004292 -0.006595 392469.000000 1 0 0
-3.620244 3.598057 10.128488 11.341889 -0.782324 0.466793 -0.000473 0.002649 517072.000000 1 0 0
1.954056 -12.249343 -1.089412 12.451970 -1.412606 1.658397 -0.000446 -0.000585 -2107030.000000 1 0 0
10.341356 -5.065743 -3.645212 12.078616 -0.455497 1.877366 0.007094 -0.005034 615619.000000 1 0 0
3.056656 -13.489843 1.032888 13.870324 -1.347970 1.496260 0.002472 -0.003527 464530.000000 1 0 0
10.053756 -1.694343 -6.120412 11.891520 -0.166960 2.111439 0.008727 -0.002711 -334331.000000 1 0 0
11.883756 -5.527343 -1.515912 13.193679 -0.435354 1.685947 0.012852 -0.006934 -205860.000000 1 0 0
1.386656 0.880757 5.930288 6.153606 0.565876 0.270230 -0.001703 -0.002471 -170684.000000 1 0 0
-10.700444 11.487457 6.499588 16.991345 -0.820854 1.178270 -0.006611 -0.017340 -1235450.000000 1 0 0
4.824556 -14.156343 3.102888 15.274368 -1.242336 1.366229 0.003946 -0.002884 -2817430.000000 1 0 0
5.259656 -3.492243 -1.712712 6.541646 -0.586132 1.835700 0.000932 -0.002477 -1660630.000000 1 0 0
2.065356 -2.953843 -7.618112 8.427723 -0.960601 2.699679 -0.001572 -0.003044 -224063.000000 1 0 0
-2.750244 14.783557 -8.851512 17.448973 -1.386865 2.102822 0.003114 -0.001236 -1749370.000000 1 0 0
-2.274444 6.048457 -8.047412 10.320744 -1.211117 2.465034 0.007202 -0.008284 -314676.000000 1 0 0
2.596556 -3.508543 -11.283312 12.098145 -0.933683 2.772481 0.000953 0.000478 -1512650.000000 1 0 0
14.672856 2.800757 -2.745612 15.187999 0.188611 1.752571 0.011745 0.000551 756379.000000 1 0 0
-3.458344 13.105657 2.109988 13.717523 -1.312796 1.416366 -0.006677 0.002911 -1354550.000000 1 0 0
7.888156 -4.892143 13.936988 16.745021 -0.555132 0.587541 -0.003786 -0.000818 -1388930.000000 1 0 0
-11.407144 7.292257 2.825388 13.830501 -0.568796 1.365061 -0.002663 -0.005423 1046980.000000 1 0 0
-2.264144 11.985557 4.042288 12.849903 -1.384090 1.250785 -0.002373 0.002268 131530.000000 1 0 0
1.768556 1.389257 0.594288 2.326156 0.665856 1.312451 -0.009272 0.001392 -1448690.000000 1 0 0
-6.884144 8.650757 5.176188 12.207373 -0.898631 1.132915 -0.000653 -0.002665 -1353250.000000 1 0 0
-1.009744 9.133857 1.020688 9.246011 -1.460694 1.460179 -0.002533 -0.001416 73651.100000 1 0 0
5.055756 13.112857 -8.498812 16.423686 1.202802 2.114691 0.012973 -0.017560 -1121820.000000 1 0 0
8.930256 6.959757 7.239588 13.438725 0.662019 1.001890 -0.006249 -0.000876 -1650390.000000 1 0 0
7.303456 -13.744943 3.074188 15.865515 -1.082380 1.375797 0.010400 -0.003692 293063.000000 1 0 0
4.154356 -13.520843 -1.184412 14.194179 -1.272696 1.654337 0.000125 0.003541 -2620280.000000 1 0 0
12.158156 -11.839643 -4.670012 17.601333 -0.772126 1.839334 0.032216 -0.004128 -312331.000000 1 0 0
2.916356 -0.084543 -2.017012 3.546916 -0.028981 2.175680 -0.001871 -0.001161 957792.000000 1 0 0
-13.563444 -3.276143 -10.635912 17.544878 0.237003 2.222085 0.012162 -0.008000 -47572.400000 1 0 0
-6.586544 13.703557 4.882588 15.969023 -1.122752 1.260066 -0.000850 -0.006317 601472.000000 1 0 0
7.276656 -4.315343 -0.599812 8.481255 -0.535286 1.641577 -0.000491 -0.002034 -2482560.000000 1 0 0
11.733356 2.040057 -7.254512 13.944942 0.172147 2.117911 0.008425 -0.001535 146677.000000 1 0 0
-7.530744 -4.433843 9.725288 13.074873 0.532118 0.732036 0.005724 -0.001311 270697.000000 1 0 0
0.945356 2.699357 8.401988 8.875451 1.233930 0.328105 0.000244 -0.002537 -2098610.000000 1 0 0
1.618756 7.940757 -8.761712 11.934973 1.369698 2.395167 0.002761 -0.004639 -1068490.000000 1 0 0
-8.551444 -2.038943 -5.634612 10.441903 0.234062 2.140777 0.014615 -0.005196 -350789.000000 1 0 0
6.598556 -0.444943 7.039788 9.659065 -0.067329 0.754189 -0.001207 -0.002410 -224951.000000 1 0 0
-10.926344 6.487757 7.126488 14.569242 -0.535827 1.059686 0.000799 -0.006299 439120.000000 1 0 0
-5.953544 11.114557 4.713588 13.460905 -1.079035 1.213045 -0.003642 0.000325 -941659.000000 1 0 0
6.008856 -1.269643 -6.902912 9.239509 -0.208233 2.414497 0.000727 -0.001084 -1059470.000000 1 0 0
4.556456 -5.699443 11.439988 13.569019 -0.896387 0.567781 0.001388 -0.004228 -1645790.000000 1 0 0
-9.007744 -7.337743 2.612688 11.908319 0.683583 1.349597 -0.000234 -0.002198 -2294280.000000 1 0 0
-1.283044 12.670057 -9.316512 15.778907 -1.469875 2.202401 0.010946 -0.001130 189447.000000 1 0 0
-4.542444 9.256557 -2.338812 10.572969 -1.114594 1.793848 -0.000250 -0.006417 472582.000000 1 0 0
-3.187344 9.653757 -0.210212 10.168499 -1.251899 1.591471 0.000096 -0.004201 309574.000000 1 0 0
-3.479144 10.706457 -6.413212 12.956154 -1.256603 2.088624 0.000631 -0.000129 480613.000000 1 0 0
4.921256 -5.054643 0.347288 7.063200 -0.798768 1.521608 -0.000023 -0.002520 -938553.000000 1 0 0
-2.195344 2.963757 -10.842912 11.453040 -0.933254 2.813715 0.007698 -0.005392 -1812570.000000 1 0 0
-3.572044 12.016657 -2.274012 12.740905 -1.281857 1.750239 -0.005231 0.000127 559712.000000 1 0 0
-0.126744 0.351057 0.042088 0.375601 -1.224324 1.458504 -0.007589 -0.000705 -2243060.000000 1 0 0
-4.774544 -1.784143 0.131588 5.098701 0.357611 1.544985 0.000793 -0.001603 353485.000000 1 0 0
2.510356 2.494957 -2.446012 4.302286 0.782322 2.175523 -0.008060 -0.002569 861695.000000 1 0 0
6.018556 -9.618843 8.522088 14.190531 -1.011690 0.926611 0.001486 0.000708 -1296680.000000 1 0 0
-4.394144 -5.544843 6.588488 9.667573 0.900661 0.820981 -0.000883 -0.003602 115610.000000 1 0 0
-6.308444 5.235957 -12.035612 14.562543 -0.692763 2.543618 0.001443 -0.006769 554758.000000 1 0 0
-12.926344 3.129257 7.948488 15.493905 -0.237514 1.032112 0.006653 -0.005597 644730.000000 1 0 0
4.726856 -7.609843 -4.859912 10.191743 -1.014970 2.067862 -0.003515 -0.003546 178350.000000 1 0 0
-5.880844 2.449357 -1.099012 6.464634 -0.394647 1.741630 0.003852 -0.005857 -868227.000000 1 0 0
-6.748244 -2.832343 -14.523612 16.263341 0.397386 2.674825 0.007781 -0.000097 -204750.000000 1 0 0
2.605356 -6.143043 0.832588 6.724438 -1.169676 1.446662 0.001481 -0.002366 -582675.000000 1 0 0
4.838156 -7.867943 13.088788 16.019634 -1.019478 0.614526 0.003115 -0.000500 -86111.800000 1 0 0
-9.998744 -1.672443 7.956888 12.887359 0.165731 0.905340 0.005747 -0.002360 -354393.000000 1 0 0
-4.390144 13.226557 -0.142812 13.936842 -1.250319 1.581044 -0.006894 0.003762 854871.000000 1 0 0
6.691256 2.243557 -4.470112 8.353942 0.323517 2.135411 -0.004823 0.001119 -710184.000000 1 0 0
5.021756 4.499357 0.028988 6.742632 0.730586 1.566497 -0.008876 -0.000224 -1156110.000000 1 0 0
-5.826544 12.302657 1.900488 13.744665 -1.128491 1.432081 -0.003642 0.001360 -458703.000000 1 0 0
6.572456 -7.224543 6.464088 11.712201 -0.832626 0.986143 -0.000165 -0.004261 -880442.000000 1 0 0
-0.233344 4.896557 7.703588 9.131045 -1.523178 0.566713 -0.000603 -0.000832 -919966.000000 1 0 0
-5.733444 -3.400843 -1.536012 6.840866 0.535374 1.797262 0.005657 -0.002333 -958180.000000 1 0 0
2.380356 -6.598343 -5.103812 8.674856 -1.224576 2.199807 -0.001174 -0.002853 -349178.000000 1 0 0
-14.479544 -4.890743 -3.707312 15.726434 0.325737 1.808774 0.013525 -0.010438 169294.000000 1 0 0
-12.402444 -5.154243 -6.211112 14.797457 0.393867 2.003957 0.017340 -0.009898 -766067.000000 1 0 0
-14.838844 -3.900143 -1.214912 15.390855 0.257020 1.649816 0.006432 -0.002876 582086.000000 1 0 0
11.831656 3.005157 8.716188 14.999700 0.248733 0.950728 0.002310 -0.007474 -1376550.000000 1 0 0
8.831156 -6.435843 7.615788 13.319521 -0.629772 0.962127 0.004599 -0.009916 234169.000000 1 0 0
-8.868644 -1.720543 -9.581912 13.169136 0.191623 2.385619 0.013060 -0.005073 -94016.000000 1 0 0
-8.838644 5.028557 -3.780512 10.848976 -0.517259 1.926732 0.006977 -0.006933 -1046570.000000 1 0 0
-4.112444 -6.243643 4.029888 8.493249 0.988357 1.076422 0.002730 -0.000580 -1523250.000000 1 0 0
-0.112944 -9.453943 3.555088 10.100914 1.558850 1.211135 0.001070 -0.003364 61650.300000 1 0 0
7.988056 -10.559543 3.304388 13.646684 -0.923163 1.326227 0.004629 -0.002525 134024.000000 1 0 0
-0.112044 6.508557 9.624088 11.618818 -1.553583 0.594696 -0.001704 0.000448 -248499.000000 1 0 0
-0.043544 3.472257 -9.652212 10.257858 -1.558256 2.796245 0.006468 -0.006560 -174999.000000 1 0 0
4.498156 -3.069043 11.028788 12.299862 -0.598740 0.458631 -0.001633 -0.004777 -1231790.000000 1 0 0
8.520356 -9.247643 1.315788 12.643049 -0.826308 1.466535 0.004776 -0.004904 -648532.000000 1 0 0
-0.280044 -0.365143 11.399588 11.408872 0.916540 0.040345 0.006409 -0.001687 -1747420.000000 1 0 0
10.772556 5.936657 11.304588 16.705855 0.503680 0.827547 0.011141 -0.004559 -438435.000000 1 0 0
-6.254244 -3.006243 -11.817512 13.704257 0.448066 2.610638 0.008620 -0.002972 1100890.000000 1 0 0
-1.680044 2.808957 8.454188 9.065654 -1.031773 0.369380 0.000853 -0.002882 -155181.000000 1 0 0
-1.633644 13.412057 -6.870412 15.157658 -1.449589 2.041219 0.001615 -0.000565 -111814.000000 1 0 0
7.630656 3.122557 9.814688 12.818166 0.388422 0.698689 -0.001251 -0.002436 588100.000000 1 0 0
6.454156 8.505357 -8.138812 13.425255 0.921665 2.222110 0.007108 -0.006884 -356801.000000 1 0 0
6.643256 -3.106443 -3.896112 8.304368 -0.437400 2.059140 0.002075 -0.003263 -2364820.000000 1 0 0
1.905856 8.178657 0.991688 8.456131 1.341854 1.453251 -0.006477 -0.001038 728343.000000 1 0 0
-17.699544 6.330457 6.291388 19.822465 -0.343484 1.247824 0.043627 -0.010374 -162587.000000 1 0 0
-14.653444 2.937157 -10.351812 18.179943 -0.197820 2.176582 0.025282 -0.000620 -997564.000000 1 0 0
-18.372744 -0.012243 -4.292112 18.867435 0.000666 1.800293 0.019239 -0.002003 356115.000000 1 0 0
-12.993944 7.835557 0.177488 15.174651 -0.542634 1.559100 0.006958 -0.004575 -1166620.000000 1 0 0
-12.740244 -4.297843 -12.930112 18.654036 0.325356 2.336651 0.025311 0.001048 -476095.000000 1 0 0
-17.404644 -0.711343 -8.555112 19.406637 0.040848 2.027324 0.009656 -0.004281 -880762.000000 1 0 0
-16.708444 -2.293043 -2.081612 16.993035 0.136387 1.693603 0.017334 -0.010874 -622304.000000 1 0 0
-15.326144 4.099957 1.718688 15.957889 -0.261393 1.462886 0.017440 -0.002651 -1501920.000000 1 0 0
-13.120044 5.911457 4.371288 15.039582 -0.423325 1.275888 0.005290 -0.004716 -76075.700000 1 0 0
-9.949444 14.134057 2.734888 17.499789 -0.957435 1.413872 0.008117 -0.008616 -503953.000000 1 0 0
-11.893544 2.431657 -6.458612 13.750746 -0.201672 2.059738 0.011049 -0.000964 241832.000000 1 0 0
-15.838444 10.631657 3.644788 19.420940 -0.591173 1.382004 0.020967 -0.011989 -558923.000000 1 0 0
-12.843344 0.978657 -8.510512 15.438201 -0.076053 2.154674 0.016537 -0.002788 743567.000000 1 0 0
-12.187344 14.413657 4.003788 19.295470 -0.868896 1.361779 0.014646 -0.015146 -214755.000000 1 0 0
-10.356144 11.123057 -1.099412 15.237480 -0.821088 1.643011 0.007909 -0.003525 472796.000000 1 0 0
-16.913244 5.732757 8.787688 19.903411 -0.326798 1.113508 0.022710 -0.011167 343480.000000 1 0 0
-11.748944 12.533457 -9.230512 19.501989 -0.817695 2.063842 0.024154 -0.012460 -216271.000000 1 0 0
-17.213744 -0.513043 3.074188 17.493622 0.029795 1.394147 0.027707 -0.012445 919932.000000 1 0 0
-13.170844 14.836857 -0.896112 19.859669 -0.844812 1.615934 0.040702 -0.008888 255197.000000 1 0 0
-16.530144 4.658057 -10.569412 20.165704 -0.274669 2.122487 0.029216 0.002293 636881.000000 1 0 0
-12.044244 7.630157 -8.912212 16.814001 -0.564696 2.129452 0.019583 0.000432 206418.000000 1 0 0
-14.800544 13.212157 -2.102612 19.950894 -0.728756 1.676382 0.051504 -0.020355 -101055.000000 1 0 0
-11.807044 10.541057 -5.454212 16.741224 -0.728810 1.902649 0.024603 -0.010712 1075210.000000 1 0 0
-17.630944 2.778357 -0.781012 17.865593 -0.156299 1.614526 0.022423 -0.005085 -203484.000000 1 0 0
-9.324044 15.372957 0.634588 17.990783 -1.025595 1.535516 0.013191 -0.008275 79535.800000 1 0 0
-8.019444 13.135157 -3.798912 15.851673 -1.022668 1.812805 0.004604 -0.004078 -693047.000000 1 0 0
-17.681444 11.616757 2.013388 21.251735 -0.581282 1.475914 0.064404 -0.003372 -217879.000000 1 0 0
-7.859644 15.830957 -7.515712 19.206226 -1.109974 1.972858 0.030852 -0.014159 37018.000000 1 0 0
-6.153444 15.192657 -5.492312 17.287197 -1.185963 1.894109 0.005887 -0.004890 -742906.000000 1 0 0
-17.394144 5.284857 -0.273312 18.181327 -0.294967 1.585829 0.038433 -0.001082 867262.000000 1 0 0
-5.467944 12.333557 -12.334312 18.279778 -1.153496 2.311425 -0.011576 0.001587 644538.000000 1 0 0
-11.208944 3.756157 -11.394312 16.418875 -0.323343 2.337794 0.021992 -0.006835 101728.000000 1 0 0
-11.744444 11.091657 1.099088 16.191504 -0.756820 1.502864 0.009030 -0.006391 438494.000000 1 0 0
-12.958444 0.098157 -11.029112 17.016821 -0.007575 2.275923 0.024714 -0.007916 545045.000000 1 0 0
-14.299844 -2.118943 -12.897212 19.373010 0.147109 2.299269 0.031319 -0.009628 282894.000000 1 0 0
-18.798444 -2.382043 -3.621012 19.291639 0.126043 1.759615 0.014684 -0.007448 1428380.000000 1 0 0
-18.255644 4.583557 -5.210612 19.530182 -0.245991 1.840865 0.026043 -0.001836 -189019.000000 1 0 0
-8.180544 15.382357 -2.424512 17.590237 -1.082023 1.709069 0.014939 -0.006547 231940.000000 1 0 0
-16.226444 9.078557 -5.110912 19.283130 -0.510101 1.839048 0.041792 -0.001331 224679.000000 1 0 0
-18.387344 1.726757 2.175788 18.595972 -0.093635 1.453524 0.048036 -0.014012 667859.000000 1 0 0
-15.874444 -2.755143 -8.937812 18.424800 0.171847 2.077270 0.019113 -0.000088 304790.000000 1 0 0
-9.786744 10.492757 -7.207212 16.056843 -0.820198 2.036281 0.011011 -0.009227 38610.200000 1 0 0
-13.851844 12.013157 -7.699412 19.886439 -0.714430 1.968355 0.039168 -0.019664 442333.000000 1 0 0
-11.007644 6.465457 -3.788712 13.316332 -0.531074 1.859298 0.004446 -0.001151 -1501240.000000 1 0 0
-13.025644 4.966757 -12.663312 18.833362 -0.364288 2.308225 0.026944 -0.008432 997334.000000 1 0 0
-17.565744 9.061757 2.517088 19.925023 -0.476268 1.444130 0.041586 -0.016563 694063.000000 1 0 0
-13.419944 8.597157 -6.529212 17.223141 -0.569757 1.959615 0.022644 -0.008153 171810.000000 1 0 0
-15.849044 6.887457 -3.705812 17.673774 -0.409945 1.782043 0.026719 0.001133 -337516.000000 1 0 0
-14.977544 -0.361643 -9.336012 17.652726 0.024141 2.128066 0.017859 -0.006252 95897.100000 1 0 0
-9.961144 5.755757 -6.025412 12.986867 -0.523952 2.053259 0.006906 -0.001295 326017.000000 1 0 0
-12.759644 12.149257 -0.865812 17.639801 -0.760898 1.619899 0.029538 -0.011204 -1061080.000000 1 0 0
-10.466744 3.553757 -13.867712 17.734016 -0.327316 2.468638 0.011332 -0.007133 299172.000000 1 0 0
-10.829744 6.310857 -11.955412 17.321724 -0.527627 2.332558 0.009464 -0.005560 -1011310.000000 1 0 0
-5.754244 11.513457 -14.840812 19.644864 -1.107321 2.427145 -0.011708 -0.009924 -157056.000000 1 0 0
-15.639744 13.330657 3.466788 20.840504 -0.705861 1.403671 0.031747 -0.019150 199375.000000 1 0 0
-14.951144 10.906757 -3.124412 18.768484 -0.630247 1.738046 0.041358 -0.010564 798537.000000 1 0 0
-18.314244 7.693657 -4.353112 20.336014 -0.397706 1.786525 0.047913 -0.001967 348724.000000 1 0 0
-3.956344 16.188257 -10.639212 19.771321 -1.331099 2.138993 0.011328 -0.000976 28495.600000 1 0 0
-15.746344 4.402557 -4.544612 16.970072 -0.272631 1.841907 0.020507 0.003010 1841760.000000 1 0 0
-18.743744 -1.863743 -6.152412 19.815490 0.099107 1.886499 0.017173 -0.005248 258630.000000 1 0 0
-10.799944 8.508457 -5.831412 14.934456 -0.667272 1.971935 0.011474 -0.003781 846111.000000 1 0 0
-11.068344 13.552357 -6.849512 18.790700 -0.885949 1.943909 0.021374 -0.007811 536751.000000 1 0 0
-9.401544 10.411157 -4.498412 14.731494 -0.836312 1.881113 0.003085 -0.003610 -565321.000000 1 0 0
-11.096544 6.222057 -0.364012 12.727128 -0.511036 1.599401 0.001365 -0.002652 -756879.000000 1 0 0
-14.597144 9.281957 -1.226212 17.341710 -0.566381 1.641564 0.029924 -0.005784 694524.000000 1 0 0
-18.849944 3.494557 4.837088 19.771943 -0.183307 1.323644 0.053896 -0.016644 515804.000000 1 0 0
-14.663644 13.283057 0.463288 19.790823 -0.736038 1.547385 0.029577 -0.004653 -317314.000000 1 0 0
-16.897544 2.413357 -9.177312 19.379740 -0.141864 2.064115 0.013006 0.002492 -221156.000000 1 0 0
-9.193944 8.475457 -8.973512 15.391097 -0.744758 2.193253 0.011146 -0.000338 -1647270.000000 1 0 0
-17.684444 4.515857 -2.725412 18.454278 -0.250015 1.719023 0.024465 0.000077 871976.000000 1 0 0
-13.569344 5.872857 -4.438812 15.437635 -0.408461 1.862445 0.014986 0.001881 -648170.000000 1 0 0
-12.119944 9.712257 3.236288 15.864884 -0.675561 1.365364 -0.001859 -0.004374 1054610.000000 1 0 0
-17.460244 2.397157 -4.005812 18.073544 -0.136439 1.794292 0.013079 0.006697 842932.000000 1 0 0
-11.249344 1.399957 -12.539712 16.904200 -0.123811 2.406562 0.022586 -0.005068 625502.000000 1 0 0
-11.220844 12.058357 3.431588 16.825192 -0.821360 1.365400 0.002949 -0.010653 810259.000000 1 0 0
-16.220344 12.896357 -4.351212 21.174244 -0.671729 1.777766 0.054185 -0.013523 725127.000000 1 0 0
-11.157944 4.105957 -4.601412 12.748787 -0.352606 1.940061 0.003052 -0.001284 -521387.000000 1 0 0
-11.155244 15.090357 -8.943812 20.788220 -0.934224 2.015549 0.035260 -0.013656 211760.000000 1 0 0
-15.472544 7.039257 -0.253012 17.000434 -0.426964 1.585680 0.027461 -0.002133 -796288.000000 1 0 0
-12.751844 8.354257 -4.071712 15.779162 -0.579981 1.831793 0.014868 -0.002845 932811.000000 1 0 0
-19.331344 1.824957 -5.741012 20.248223 -0.094125 1.858271 0.031276 -0.003800 597212.000000 1 0 0
-12.655844 10.114757 -8.839312 18.455680 -0.674263 2.070252 0.025817 -0.014725 810850.000000 1 0 0
-16.570744 11.004357 -1.029312 19.918456 -0.586212 1.622496 0.034758 -0.009121 429311.000000 1 0 0
-10.453044 6.629157 -14.507112 19.070085 -0.565177 2.435227 0.003566 -0.009954 -227808.000000 1 0 0
-13.642244 12.852757 -4.343812 19.239877 -0.755609 1.798531 0.038464 -0.014142 -213649.000000 1 0 0
-18.055244 7.754057 -0.202612 19.650910 -0.405645 1.581107 0.053196 -0.006667 527566.000000 1 0 0
-12.712444 6.642557 -2.106112 14.497086 -0.481504 1.716591 0.003018 0.000113 194036.000000 1 0 0
-13.868444 8.563057 -10.593612 19.439246 -0.553151 2.147138 0.028422 -0.005996 -876624.000000 1 0 0
-14.915044 1.351557 -0.993212 15.009054 -0.090370 1.637019 0.013049 -0.002614 -570824.000000 1 0 0
-13.239244 2.749757 -2.432812 13.738898 -0.204786 1.748810 0.010636 -0.000270 -77378.400000 1 0 0
-11.386544 9.218257 -10.874812 18.245305 -0.680552 2.209348 0.016177 -0.006876 -991110.000000 1 0 0
-15.456644 4.210157 -8.115712 17.958230 -0.265933 2.039715 0.021744 -0.000476 723361.000000 1 0 0
-18.427444 10.567957 4.286688 21.670904 -0.520699 1.371675 0.073948 -0.019025 548294.000000 1 0 0
-15.349444 6.213657 -6.274312 17.708245 -0.384649 1.932979 0.022703 0.004331 770009.000000 1 0 0
-7.648544 11.384357 -13.218912 19.048449 -0.979216 2.337774 -0.007184 0.004118 -959533.000000 1 0 0
-16.886144 9.095257 -2.655812 19.362822 -0.494066 1.708390 0.042184 -0.011525 1505150.000000 1 0 0
-20.734644 -1.048943 -4.665012 21.278817 0.050546 1.791824 0.028253 -0.006016 228586.000000 1 0 0
-15.360744 4.313557 4.154988 16.487060 -0.273766 1.316034 0.022777 -0.006889 -37165.600000 1 0 0
-6.904644 12.472957 -9.312512 17.028553 -1.065217 2.149425 0.002466 -0.007737 -2178970.000000 1 0 0
-17.330444 1.546157 5.698788 18.308770 -0.088981 1.254278 0.039255 -0.017865 -858.602000 1 0 0
-10.353544 14.144157 -3.312212 17.838828 -0.938914 1.757554 0.026427 -0.015347 1082060.000000 1 0 0
-9.851044 8.497257 -12.782512 18.238395 -0.711749 2.347395 -0.006462 -0.006491 -323521.000000 1 0 0
-13.737944 11.674957 2.665688 18.224753 -0.704397 1.424002 0.015059 -0.012718 -1962680.000000 1 0 0
-16.782544 6.641057 1.875988 18.145984 -0.376804 1.467228 0.030275 -0.004789 900757.000000 1 0 0
-9.223744 13.399657 -8.588912 18.395588 -0.967927 2.056579 0.019700 -0.011370 -701657.000000 1 0 0
-5.530244 9.781957 -12.936112 17.135147 -1.056243 2.426368 -0.006409 -0.000849 -345209.000000 1 0 0
-16.059844 1.875857 3.200988 16.482832 -0.116277 1.375353 0.023006 -0.008129 -176199.000000 1 0 0
-18.431344 -4.926943 4.374688 19.573633 0.261206 1.345393 0.023734 -0.013073 -1233440.000000 1 0 0
-5.203744 14.387557 -9.179912 17.842408 -1.223751 2.111220 -0.000085 -0.002745 -580285.000000 1 0 0
-15.512444 -1.064743 -6.834212 16.984582 0.068531 1.984909 0.014477 -0.002170 581518.000000 1 0 0
-9.012744 11.022057 -9.615812 17.180777 -0.885355 2.164801 0.008633 -0.007021 290097.000000 1 0 0
-16.776644 1.062757 -6.032112 17.859776 -0.063263 1.915320 0.006944 -0.000360 -736445.000000 1 0 0
-11.064344 8.626057 -1.535312 14.113318 -0.662194 1.679797 0.007213 -0.004858 -798984.000000 1 0 0
-10.844244 10.994257 -12.725112 20.009992 -0.792267 2.260020 0.012732 -0.003740 64077.600000 1 0 0
-14.020544 11.936357 -10.365012 21.130209 -0.705276 2.083495 0.038814 -0.012740 716828.000000 1 0 0
-13.276244 5.632357 -7.731812 16.363465 -0.401229 2.062927 0.019240 -0.000128 -1452010.000000 1 0 0
-8.740944 15.324857 -5.022512 18.343417 -1.052443 1.848143 0.020338 -0.013630 705470.000000 1 0 0
-8.487344 6.211457 -12.948112 16.681451 -0.631783 2.459410 0.000073 -0.007183 -1652150.000000 1 0 0
-16.436044 7.470457 4.303988 18.560053 -0.426604 1.336771 0.034078 -0.007667 633755.000000 1 0 0
-12.637544 5.472757 -10.183612 17.127887 -0.408674 2.207519 0.019008 -0.002852 593907.000000 1 0 0
-12.303744 9.017857 -13.321112 20.252305 -0.632490 2.288634 0.018102 -0.008222 -2045490.000000 1 0 0
-10.747444 5.246657 -8.444412 14.640459 -0.454145 2.185585 0.008728 -0.001193 866500.000000 1 0 0
-17.590844 -4.568843 -2.584212 18.357295 0.254114 1.712038 0.003581 -0.011913 -347214.000000 1 0 0
-8.702044 13.214357 -11.057212 19.303023 -0.988448 2.180742 0.016544 -0.011969 192552.000000 1 0 0
-15.055344 6.153757 6.006988 17.338282 -0.388020 1.217004 0.021599 -0.010215 74751.100000 1 0 0
-16.361444 -3.181643 -4.369612 17.231170 0.192063 1.827184 0.011363 -0.008314 -775954.000000 1 0 0
-11.112144 -1.183743 -12.512712 16.776440 0.106127 2.412607 0.022116 -0.005756 928741.000000 1 0 0
-15.372744 6.810557 -8.750412 18.954541 -0.417041 2.050654 0.024036 0.002933 -219828.000000 1 0 0
-14.831744 9.106557 1.361388 17.457473 -0.550643 1.492734 0.024953 -0.009677 -527649.000000 1 0 0
-19.398044 5.379357 8.025088 21.670801 -0.270517 1.191445 0.060709 -0.023337 423536.000000 1 0 0
-16.305944 0.687357 0.926388 16.346696 -0.042129 1.514095 0.019417 -0.010364 -593273.000000 1 0 0
-17.568744 3.795257 7.072788 19.315514 -0.212754 1.195905 0.036973 -0.013037 889933.000000 1 0 0
-15.412644 3.974757 -1.446012 15.982466 -0.252390 1.661395 0.016527 -0.002264 -84193.300000 1 0 0
-10.695144 13.331657 0.257288 17.093430 -0.894693 1.555744 0.013430 -0.008960 -531965.000000 1 0 0
-13.468044 3.343457 0.068888 13.877019 -0.243332 1.565832 0.011910 -0.002826 -249612.000000 1 0 0
-15.109244 -0.035743 -4.342712 15.720995 0.002366 1.850672 0.009014 0.003033 -454072.000000 1 0 0
-18.838844 6.866057 3.381888 20.334255 -0.349501 1.403705 0.053049 -0.008945 -198137.000000 1 0 0
-14.264244 1.241257 -6.358112 15.666364 -0.086800 1.988699 0.013256 0.001864 -754485.000000 1 0 0
-14.194244 12.142257 5.123388 19.369049 -0.707641 1.303096 0.011585 -0.018814 50282.400000 1 0 0
17.556456 5.488457 6.265988 19.432316 0.302992 1.242478 0.024236 -0.008879 -844068.000000 1 0 0
18.392356 7.732257 -0.149412 19.952165 0.397973 1.578285 0.022158 0.005904 -431898.000000 1 0 0
16.463656 5.260957 8.599088 19.304765 0.309294 1.109132 0.022786 -0.006046 203067.000000 1 0 0
11.813356 12.111857 11.089088 20.229195 0.797874 0.990619 0.036245 -0.006482 275424.000000 1 0 0
-2.255644 16.184357 -0.616012 16.352394 -1.432317 1.608476 -0.011970 -0.003526 -245267.000000 1 0 0
14.993356 12.678357 3.384688 19.924798 0.701933 1.400095 0.038101 -0.003703 636945.000000 1 0 0
13.461356 11.825857 6.780888 19.158273 0.720811 1.209015 0.025227 -0.000795 759488.000000 1 0 0
-0.604344 15.763557 8.519688 17.928749 -1.532477 1.075608 0.003964 -0.006612 -480294.000000 1 0 0
0.654556 12.967957 9.252188 15.943630 1.520364 0.951692 -0.003824 -0.003062 -2236910.000000 1 0 0
0.835156 15.430857 -3.887912 15.935014 1.516727 1.817270 0.002161 -0.008426 -317162.000000 1 0 0
5.261056 10.244057 13.530588 17.767843 1.096351 0.705139 0.024210 -0.013862 249639.000000 1 0 0
-1.280044 16.404457 -2.841212 16.697820 -1.492924 1.741783 -0.005206 -0.005246 -942009.000000 1 0 0
8.531456 10.123557 3.369388 13.661073 0.870536 1.321583 -0.000764 -0.000159 -450.371000 1 0 0
12.573056 13.683357 -4.738412 19.177292 0.827660 1.820467 0.034474 -0.014655 -559080.000000 1 0 0
2.340056 11.542257 7.725788 14.085005 1.370769 0.990213 -0.002156 -0.000852 415509.000000 1 0 0
-0.256444 14.870257 -8.734112 17.247464 -1.553553 2.101801 0.010956 -0.002606 -1339170.000000 1 0 0
2.434256 15.967157 0.184488 16.152700 1.419507 1.559375 0.008450 -0.010591 -555503.000000 1 0 0
1.980156 13.476457 5.155788 14.564273 1.424906 1.208949 0.000091 -0.000110 -127023.000000 1 0 0
17.459656 9.353157 -1.783012 19.887188 0.491799 1.660573 0.011507 0.001496 412111.000000 1 0 0
-7.327044 14.886357 7.151088 18.067298 -1.113409 1.163854 0.007395 -0.012652 498759.000000 1 0 0
8.533256 15.931257 -0.114812 18.073034 1.079053 1.577149 0.003490 -0.010852 -707096.000000 1 0 0
15.569456 10.480957 2.277488 18.906226 0.592494 1.450041 0.024734 0.003157 -862610.000000 1 0 0
14.081956 7.511057 8.770088 18.210764 0.489995 1.068330 0.014953 -0.008735 -965665.000000 1 0 0
4.200856 18.451057 -1.852312 19.013672 1.346937 1.668371 0.011056 -0.019514 223283.000000 1 0 0
-0.370344 17.511657 -4.868712 18.179649 -1.549651 1.841917 0.007349 -0.008204 275077.000000 1 0 0
1.409256 13.706257 -0.645612 13.793632 1.468338 1.617618 0.000905 -0.007918 -351855.000000 1 0 0
10.365056 14.803857 4.221988 18.558387 0.959964 1.341289 0.014149 -0.009700 -85062.900000 1 0 0
-1.534944 15.203957 -5.185912 16.137225 -1.470180 1.897965 -0.000161 -0.004776 166259.000000 1 0 0
14.947456 8.695157 -6.045212 18.318755 0.526866 1.907101 0.008504 -0.001242 -104492.000000 1 0 0
-2.372844 18.492257 0.781788 18.660255 -1.443178 1.528888 0.006075 -0.009133 -1003510.000000 1 0 0
-3.813744 19.458857 3.442688 20.125701 -1.377259 1.398892 0.015751 -0.008744 -1419.270000 1 0 0
1.824356 17.584857 -2.656312 17.877680 1.467420 1.719931 0.004434 -0.015021 -655060.000000 1 0 0
3.061156 12.093957 3.284888 12.900580 1.322888 1.313330 -0.003852 -0.001306 900521.000000 1 0 0
-2.603844 16.091157 1.788288 16.398271 -1.410369 1.461526 -0.002926 -0.005891 -1295770.000000 1 0 0
11.731556 12.793057 -2.509512 17.538225 0.828654 1.714377 0.003863 0.002622 230386.000000 1 0 0
7.060756 11.671657 4.748688 14.444095 1.026746 1.235803 0.000499 -0.002450 -224089.000000 1 0 0
7.102556 15.802557 2.034388 17.444364 1.148395 1.453909 0.001310 -0.011648 -1081800.000000 1 0 0
5.369556 12.243357 10.135288 16.776650 1.157489 0.922122 0.006401 -0.002494 629407.000000 1 0 0
-1.356144 14.221757 3.058988 14.610096 -1.475727 1.359861 -0.005064 0.001137 -1236700.000000 1 0 0
4.599656 16.175157 1.520788 16.885062 1.293744 1.480607 0.003392 -0.015619 -1987110.000000 1 0 0
7.055456 13.134957 11.872388 19.059385 1.077871 0.898332 0.017346 -0.005911 244384.000000 1 0 0
0.705356 17.161457 -9.394712 19.577378 1.529718 2.071310 0.009910 -0.004078 354849.000000 1 0 0
9.839256 9.696357 15.336288 20.640543 0.778083 0.733228 0.044003 -0.008632 -47444.700000 1 0 0
13.489056 7.520557 -0.059912 15.443995 0.508606 1.574676 -0.002718 0.001837 449152.000000 1 0 0
12.473056 13.537757 -0.094912 18.408069 0.826308 1.575952 0.021088 -0.003529 265809.000000 1 0 0
9.202056 12.578057 3.550288 15.984051 0.939178 1.346814 -0.000872 0.000068 1055730.000000 1 0 0
-0.649144 12.872257 0.756888 12.910819 -1.520409 1.512138 -0.001407 -0.004017 -1521330.000000 1 0 0
15.954856 7.334757 -0.823712 17.579380 0.430907 1.617670 0.012653 0.002271 -2652050.000000 1 0 0
-3.972544 18.366957 -2.420112 18.946850 -1.357790 1.698878 -0.002473 -0.008365 -61010.000000 1 0 0
11.504456 9.094757 -3.144812 14.998565 0.668947 1.782038 0.006042 0.000053 -227103.000000 1 0 0
14.669956 9.803157 7.753288 19.272337 0.589096 1.156767 0.025997 -0.008458 974113.000000 1 0 0
4.529356 13.703857 4.622388 15.155106 1.251583 1.260852 0.004468 -0.004596 -477765.000000 1 0 0
2.215356 16.005457 5.647688 17.116624 1.433258 1.234542 0.005080 -0.002714 -78607.600000 1 0 0
6.080456 18.252857 5.545588 20.022294 1.249235 1.290156 0.018159 -0.024737 -648601.000000 1 0 0
10.682556 17.192957 -0.886712 20.260825 1.014838 1.614575 0.032677 -0.012707 -696996.000000 1 0 0
10.022556 13.552457 -4.382312 17.416238 0.934025 1.825152 0.021587 -0.008131 -534055.000000 1 0 0
16.332856 7.997057 2.275588 18.327395 0.455317 1.446312 0.004522 0.001040 -746764.000000 1 0 0
4.033256 14.028657 -0.535612 14.606753 1.290845 1.607473 0.002901 -0.008215 940624.000000 1 0 0
5.627556 13.098457 -2.425812 14.461103 1.165006 1.739341 -0.000437 -0.004790 -812550.000000 1 0 0
-6.100044 16.952057 -3.075112 18.276736 -1.225382 1.739853 0.006342 -0.000237 307416.000000 1 0 0
18.140656 9.781157 2.592188 20.771949 0.494501 1.445677 0.040022 -0.006929 1671330.000000 1 0 0
7.973856 13.006657 9.479488 17.961520 1.020829 1.014827 0.014844 -0.004309 36990.500000 1 0 0
-2.524944 15.770657 6.549888 17.262386 -1.412040 1.181615 -0.000306 -0.003410 1251470.000000 1 0 0
11.178156 16.081457 6.299188 20.572899 0.963369 1.259610 0.023345 -0.008047 82934.800000 1 0 0
13.414556 11.852957 1.455388 17.959985 0.723674 1.489672 0.023935 -0.001128 603616.000000 1 0 0
17.356756 7.998657 -5.383312 19.854862 0.431830 1.845366 0.002612 0.012566 236926.000000 1 0 0
9.431856 9.302457 8.057388 15.505390 0.778491 1.024354 0.005755 -0.002097 -719422.000000 1 0 0
-1.907244 14.056257 -1.992412 14.324302 -1.435933 1.710342 -0.011751 0.000275 578563.000000 1 0 0
10.825856 11.643657 0.795888 15.918773 0.821778 1.520779 0.005189 0.006284 -314987.000000 1 0 0
11.639056 9.810157 -0.498512 15.230079 0.700337 1.603534 0.001199 0.007306 -1173680.000000 1 0 0
-0.376244 16.070457 11.117388 19.544755 -1.547388 0.965730 0.010953 -0.006528 -167554.000000 1 0 0
2.027056 19.987757 -1.677912 20.160227 1.469727 1.654122 0.014110 -0.026906 -210752.000000 1 0 0
9.270956 14.433157 1.858688 17.254604 0.999827 1.462866 0.002088 -0.004408 -288518.000000 1 0 0
8.437256 11.653657 -5.211712 15.302187 0.944143 1.918336 0.009352 -0.005107 -1079250.000000 1 0 0
10.432756 10.147857 10.317888 17.840410 0.771556 0.954099 0.006884 -0.002925 148876.000000 1 0 0
-5.118744 15.737357 5.819888 17.542435 -1.256329 1.232627 -0.006343 -0.002555 1468610.000000 1 0 0
14.368956 9.044557 -1.912312 17.085896 0.561794 1.682955 0.011150 0.001776 -566250.000000 1 0 0
12.118456 9.581957 7.059088 16.985335 0.669039 1.142195 0.008359 -0.002871 -1612080.000000 1 0 0
2.997556 12.898357 9.803088 16.475846 1.342451 0.933534 -0.001635 -0.006537 -1010690.000000 1 0 0
8.517956 12.625257 -2.627012 15.454898 0.977269 1.741605 0.003577 -0.001492 -1408350.000000 1 0 0
9.338556 17.076657 2.144188 19.581072 1.070366 1.461073 0.005800 -0.009943 -367138.000000 1 0 0
9.724656 14.127957 -7.502412 18.720424 0.967948 1.983143 0.035560 -0.019671 -249939.000000 1 0 0
6.357356 11.509857 7.334888 15.056340 1.066158 1.061958 -0.000657 -0.001473 -703320.000000 1 0 0
5.597956 16.826057 -5.598812 18.595698 1.249620 1.876622 0.011404 -0.011516 -178497.000000 1 0 0
-3.978544 17.256257 -4.678112 18.316439 -1.344199 1.829063 0.000386 -0.002460 329349.000000 1 0 0
-0.268144 18.452657 -0.576712 18.463614 -1.556266 1.602036 0.001656 -0.015892 -1288690.000000 1 0 0
6.580856 15.639857 -2.838412 17.203760 1.172510 1.736542 0.006334 -0.006372 303265.000000 1 0 0
-0.861044 20.701257 0.555788 20.726609 -1.529226 1.543978 0.009367 -0.011102 -47864.300000 1 0 0
-1.380744 18.862357 4.203588 19.374341 -1.497726 1.352090 0.006933 -0.008740 -787021.000000 1 0 0
7.312256 13.803957 -4.434512 16.238325 1.083655 1.847399 0.009924 -0.002441 -617075.000000 1 0 0
-0.925644 11.906757 7.578088 14.144083 -1.493211 1.005367 -0.000864 0.003542 450121.000000 1 0 0
7.609656 10.869757 10.904088 17.174330 0.960019 0.882909 0.013695 -0.004512 253364.000000 1 0 0
1.526456 15.966357 -7.253212 17.602945 1.475481 1.995494 0.002616 -0.009537 -579799.000000 1 0 0
8.922956 7.324957 14.851488 18.810658 0.687362 0.660761 0.029045 -0.005854 140349.000000 1 0 0
11.393856 11.293257 -4.677612 16.710405 0.780964 1.854509 0.022689 -0.005174 -323513.000000 1 0 0
-3.286244 17.060357 4.385888 17.919017 -1.380502 1.323522 -0.002137 -0.002565 -642843.000000 1 0 0
4.043956 15.227757 -6.752612 17.141643 1.311223 1.975700 0.011847 -0.017502 -1068300.000000 1 0 0
-4.491044 14.047857 9.438788 17.510068 -1.261369 1.001488 0.011540 -0.010266 -684327.000000 1 0 0
6.214256 17.737857 0.464588 18.800648 1.233820 1.546083 0.005243 -0.017141 -569194.000000 1 0 0
9.811056 10.728457 -2.137512 14.694406 0.830034 1.716779 0.001073 0.002247 -1493250.000000 1 0 0
7.595256 18.093957 -2.579012 19.792182 1.173366 1.701472 0.015569 -0.009741 130924.000000 1 0 0
3.504356 10.372557 10.398588 15.099705 1.244987 0.811155 0.002734 -0.000936 695068.000000 1 0 0
-0.070344 18.685757 1.996588 18.792254 -1.567032 1.464350 0.002987 -0.011019 -81620.600000 1 0 0
-0.858744 17.110357 -7.383212 18.655121 -1.520650 1.977707 0.015502 -0.004632 -157605.000000 1 0 0
10.063756 8.751957 12.913088 18.564045 0.715792 0.801546 0.023914 -0.006219 411931.000000 1 0 0
3.694656 11.396957 5.477988 13.173817 1.257307 1.141948 -0.005188 -0.000297 326057.000000 1 0 0
12.898656 13.964457 8.238088 20.718288 0.825053 1.161870 0.029977 -0.009144 -534826.000000 1 0 0
-0.509244 17.375457 6.619588 18.600666 -1.541496 1.206942 0.007226 -0.007768 -485764.000000 1 0 0
12.134156 13.738457 5.730888 19.204843 0.847327 1.267772 0.020758 -0.007950 -767181.000000 1 0 0
4.950156 14.517957 -4.511412 15.988369 1.242191 1.856850 0.004923 -0.009097 -1075110.000000 1 0 0
3.746656 17.641057 4.657188 18.626157 1.361523 1.318080 0.007795 -0.013092 -1426680.000000 1 0 0
6.955656 11.738457 2.110088 13.806701 1.035871 1.417364 0.001615 -0.000754 854027.000000 1 0 0
6.399556 8.743557 11.694388 15.942485 0.938969 0.747286 0.013022 -0.005588 20367.400000 1 0 0
-5.361744 14.862757 1.567588 15.877883 -1.224577 1.471907 -0.004112 0.001041 -232728.000000 1 0 0
6.807256 13.772057 5.928488 16.466792 1.111735 1.202500 0.004028 -0.008381 -983842.000000 1 0 0
5.809856 15.872057 4.822188 17.576408 1.219901 1.292877 0.004004 -0.017257 785202.000000 1 0 0
1.180156 18.010657 4.248788 18.542619 1.505364 1.339606 0.013664 -0.010917 1031300.000000 1 0 0
7.576956 17.942257 -7.030912 20.706727 1.171218 1.917232 0.013470 -0.008262 506232.000000 1 0 0
-2.282744 18.789257 -6.042712 19.868604 -1.449897 1.879825 0.017517 -0.005504 -420557.000000 1 0 0
13.543756 10.059957 -4.401012 17.435738 0.638861 1.825970 0.012490 -0.000543 -1991010.000000 1 0 0
-1.364844 18.028257 9.634788 20.486825 -1.495235 1.081175 0.016195 -0.010834 -212831.000000 1 0 0
3.438156 11.844257 -1.637112 12.441361 1.288280 1.702765 0.000722 -0.007718 -211733.000000 1 0 0
4.374556 13.999757 -10.857812 18.248890 1.267935 2.208043 0.016068 -0.019461 -476592.000000 1 0 0
11.511656 13.423957 2.368288 17.841794 0.861938 1.437665 0.018793 -0.003233 585419.000000 1 0 0
15.984156 6.343557 -6.988312 18.562609 0.377801 1.956782 0.000084 0.002675 408343.000000 1 0 0
2.378556 16.086557 2.923988 16.522244 1.424000 1.392886 0.006102 -0.009662 -246903.000000 1 0 0
13.358656 10.669857 3.695688 17.491645 0.673961 1.357909 0.011875 0.006904 -540042.000000 1 0 0
-4.849144 19.420657 -5.846912 20.853356 -1.326109 1.854989 0.013711 -0.011161 358369.000000 1 0 0
5.385656 11.870357 -0.010212 13.034982 1.144864 1.571580 -0.000569 -0.003962 281943.000000 1 0 0
4.588656 15.372057 9.475388 18.631663 1.280710 1.037280 0.010519 -0.007286 -74562.200000 1 0 0
7.733756 9.537257 13.920588 18.562140 0.889445 0.722817 0.031103 -0.010893 39108.500000 1 0 0
-4.999144 13.635457 6.861288 16.062204 -1.219385 1.129436 -0.002149 -0.001216 -1634900.000000 1 0 0
-4.517344 17.059357 0.362888 17.651055 -1.311936 1.550236 -0.002268 -0.005798 -1665730.000000 1 0 0
-0.635144 16.532957 3.459788 16.903023 -1.532398 1.364655 0.003470 -0.008213 -1659370.000000 1 0 0
8.088256 16.687257 -4.819312 19.160120 1.119466 1.825055 0.017813 -0.012973 942515.000000 1 0 0
3.152656 16.357357 -4.552712 17.269324 1.380395 1.837580 0.002185 -0.012732 271675.000000 1 0 0
9.512956 14.469157 8.042688 19.092869 0.989192 1.135984 0.019979 -0.012919 272095.000000 1 0 0
12.719156 10.833057 9.166888 19.056859 0.705487 1.068969 0.026323 -0.011224 -391030.000000 1 0 0
3.790456 12.360357 12.143288 17.737120 1.273239 0.816706 0.007617 -0.005514 592985.000000 1 0 0
-3.342944 19.174957 5.952488 20.354025 -1.398192 1.274011 0.014888 -0.008884 248467.000000 1 0 0
-2.701944 15.808857 10.024788 18.913403 -1.401519 1.012153 0.012891 -0.010857 -778104.000000 1 0 0
2.011456 14.253757 7.596488 16.276430 1.430604 1.085221 0.003360 -0.004608 -140789.000000 1 0 0
4.327156 17.210457 7.668788 19.332212 1.324476 1.162894 0.015067 -0.014475 19883.000000 1 0 0
-1.995844 13.449957 9.217588 16.427071 -1.423481 0.975056 0.006208 -0.003682 -1578290.000000 1 0 0
5.861056 17.842657 3.069488 19.029822 1.253415 1.408790 0.003438 -0.017082 626372.000000 1 0 0
7.423856 15.319357 -6.862812 18.354686 1.119539 1.954006 0.015828 -0.011074 77444.300000 1 0 0
10.962956 7.688157 9.466088 16.398201 0.611588 0.955422 0.007905 -0.005072 -107711.000000 1 0 0
9.128256 16.025157 -2.606212 18.625870 1.053014 1.711181 0.018426 -0.016813 -120912.000000 1 0 0
14.465756 11.174057 -6.595812 19.432508 0.657714 1.917098 0.035234 -0.005697 274424.000000 1 0 0
11.084656 6.576657 16.118388 20.637937 0.535487 0.674519 0.049416 -0.013615 -561337.000000 1 0 0
8.421756 8.478957 10.191188 15.706018 0.788783 0.864696 0.008864 -0.004601 705120.000000 1 0 0
16.373156 9.242357 4.525488 19.338600 0.513894 1.334593 0.036843 -0.004040 54893.400000 1 0 0
-3.378844 14.350757 4.510288 15.417636 -1.339561 1.273913 -0.003531 0.001153 -1068930.000000 1 0 0
4.683756 14.757457 12.677588 20.011031 1.263470 0.884689 0.015625 -0.001797 -915917.000000 1 0 0
16.075756 10.608857 -4.633912 19.810374 0.583323 1.806897 0.027864 -0.008086 -236063.000000 1 0 0
14.655056 14.036457 6.419288 21.283798 0.763841 1.264421 0.040761 -0.003692 -532817.000000 1 0 0
6.167256 9.566057 9.224888 14.650701 0.998155 0.889687 0.002694 -0.000915 502451.000000 1 0 0
10.510956 12.317957 8.771588 18.416107 0.864388 1.074355 0.024169 -0.004156 1532530.000000 1 0 0
7.925956 11.536357 -0.378212 14.001834 0.968820 1.597811 -0.000306 -0.001867 -226847.000000 1 0 0
7.512656 13.449157 -8.669212 17.676964 1.061377 2.083373 0.022252 -0.014118 -1419640.000000 1 0 0
2.832056 15.254357 -2.225712 15.673855 1.387231 1.713279 0.002632 -0.009523 423864.000000 1 0 0
12.339156 13.485657 -7.586012 19.790535 0.829764 1.964179 0.049727 -0.023222 -151067.000000 1 0 0
-8.070044 14.531957 9.698888 19.245046 -1.063870 1.042610 0.015988 -0.020358 349712.000000 1 0 0
11.363156 9.571357 2.283688 15.031547 0.700016 1.418279 0.006843 0.005603 -1287260.000000 1 0 0
11.957556 8.784357 4.610988 15.537351 0.633590 1.269490 0.003332 -0.000141 118118.000000 1 0 0
13.955156 8.003257 6.177488 17.232523 0.520705 1.204159 0.004431 -0.005593 -2686030.000000 1 0 0
16.143956 7.448857 7.146988 19.162260 0.432295 1.188586 0.031193 -0.011025 -1238460.000000 1 0 0
13.427756 8.291357 2.536788 15.983946 0.553173 1.411414 0.002675 0.005130 -2370120.000000 1 0 0
-4.162244 17.350457 -7.256312 19.261793 -1.335353 1.957050 0.006170 -0.008124 269611.000000 1 0 0
3.038456 19.384957 -4.014312 20.028067 1.415318 1.772598 0.007540 -0.019447 487440.000000 1 0 0
-0.032544 14.873357 6.059288 16.060285 -1.568608 1.183935 0.004098 -0.002959 -763631.000000 1 0 0
6.756556 16.199657 8.236488 19.388648 1.175653 1.132045 0.021140 -0.008549 66956.000000 1 0 0
12.814956 15.150257 -2.065412 19.950421 0.868712 1.674509 0.039594 -0.012329 -137624.000000 1 0 0
12.731456 15.811157 4.205388 20.730845 0.892881 1.366522 0.035013 -0.006135 -510425.000000 1 0 0
2.918456 18.136657 1.373788 18.421265 1.411249 1.496151 0.013520 -0.017309 -389977.000000 1 0 0
10.425256 14.504057 -1.044312 17.892574 0.947576 1.629195 0.010990 0.004846 -1680410.000000 1 0 0
-6.314244 15.694157 -0.755612 16.933611 -1.188282 1.615433 -0.000617 -0.000326 -172471.000000 1 0 0
-3.807544 15.795557 -2.675012 16.466714 -1.334257 1.733969 -0.005299 -0.002219 -1272030.000000 1 0 0
-6.833344 17.037257 1.434588 18.412516 -1.189357 1.492804 0.004299 -0.002169 467183.000000 1 0 0
0.216656 19.331157 -6.609512 20.431011 1.559589 1.900227 0.018483 -0.011697 -169913.000000 1 0 0
4.838856 14.858057 6.994188 17.120019 1.255957 1.149944 0.013310 -0.009738 -463010.000000 1 0 0
8.694356 12.332557 6.888288 16.587112 0.956728 1.142546 0.010432 -0.009743 -1054130.000000 1 0 0
-7.420144 17.489857 -5.650912 19.821363 -1.169558 1.859899 0.028207 -0.013322 135545.000000 1 0 0
-7.922544 17.715257 -1.398812 19.456456 -1.150260 1.642753 0.027202 -0.009833 399473.000000 1 0 0
-13.822544 -9.098243 9.099988 18.885194 0.582131 1.068022 0.043849 -0.018161 -581543.000000 1 0 0
-12.598744 -12.963343 7.695288 19.646732 0.799660 1.168336 0.034126 -0.011108 -140980.000000 1 0 0
-3.755544 -15.079743 12.638688 20.030957 1.326716 0.888009 0.002285 -0.010594 206494.000000 1 0 0
-2.078344 -14.240743 15.065388 20.834688 1.425876 0.762529 0.020566 -0.011158 -674846.000000 1 0 0
-7.221944 -13.504043 12.777088 19.944163 1.079699 0.875461 0.025856 -0.022748 -83014.600000 1 0 0
-9.954244 -11.632943 9.040288 17.780303 0.863006 1.037419 0.024520 -0.012705 858833.000000 1 0 0
-10.524344 -10.555143 11.346288 18.732622 0.786859 0.920155 0.033169 -0.018614 463636.000000 1 0 0
-6.058244 -12.163243 10.873788 17.403623 1.108688 0.895921 0.014842 -0.012120 938133.000000 1 0 0
-12.515044 -10.446643 7.240988 17.837898 0.695560 1.152797 0.025122 -0.012328 -39526.200000 1 0 0
-7.542744 -10.877643 12.666088 18.320642 0.964502 0.807432 0.020319 -0.018346 -34054.500000 1 0 0
-14.827744 -11.640843 7.330488 20.226401 0.665572 1.199931 0.047261 -0.008341 1284350.000000 1 0 0
-11.169544 -9.189043 9.173888 17.127681 0.688422 1.005557 0.022729 -0.013428 134227.000000 1 0 0
-5.194344 -11.804043 13.197988 18.452738 1.156249 0.773840 0.011945 -0.020522 -863782.000000 1 0 0
4.093656 -12.309843 14.969088 19.808177 -1.249750 0.714070 0.004768 -0.007463 -1030370.000000 1 0 0
6.560556 -12.853143 14.149788 20.210411 -1.098844 0.795226 0.011133 -0.001251 302057.000000 1 0 0
6.613656 -8.525943 16.113588 19.392779 -0.911043 0.590061 0.003455 -0.001170 -506963.000000 1 0 0
0.761456 -1.758043 14.390788 14.517759 -1.162062 0.132353 0.008515 -0.001620 -4162950.000000 1 0 0
-0.108244 -6.285443 15.504788 16.730720 1.553577 0.385194 0.006554 -0.007716 -54075.800000 1 0 0
-1.491944 -4.575843 18.238888 18.863226 1.255617 0.258001 0.018400 -0.020761 -2537200.000000 1 0 0
-5.131244 12.791857 12.875088 18.860784 -1.189313 0.819430 0.010133 -0.005657 -279539.000000 1 0 0
-4.154844 8.907557 11.607988 15.210282 -1.134355 0.702596 -0.002413 0.005131 -409380.000000 1 0 0
-0.586044 -3.853843 15.041988 15.538886 1.419885 0.253573 0.009588 -0.001550 -216414.000000 1 0 0
-4.323044 9.429657 14.215988 17.598337 -1.140936 0.630381 -0.000476 -0.001371 270104.000000 1 0 0
-13.427444 -2.485443 16.760688 21.619305 0.183030 0.683662 0.028692 0.000484 -738197.000000 1 0 0
-0.304544 0.903657 17.408688 17.434786 -1.245738 0.054722 0.014983 -0.000560 -886010.000000 1 0 0
-3.469944 -7.292843 15.447288 17.431144 1.126694 0.481742 0.008144 -0.009646 -55024.100000 1 0 0
-7.370444 5.709157 12.427388 15.535697 -0.659061 0.643627 -0.003739 0.002178 -2707670.000000 1 0 0
-9.892644 10.003357 13.307088 19.365179 -0.790963 0.813216 0.018278 -0.014610 -244119.000000 1 0 0
-5.515644 2.244157 11.067988 12.568171 -0.386416 0.493593 0.000274 0.001760 -2597500.000000 1 0 0
-7.176644 -7.419443 16.898088 19.801458 0.802031 0.548369 0.016710 -0.019507 -184791.000000 1 0 0
-4.701044 2.978257 18.538588 19.355854 -0.564710 0.291629 0.003758 -0.005594 38851.700000 1 0 0
0.931856 -8.267143 16.608388 18.575591 -1.458552 0.464384 0.003703 -0.001968 507194.000000 1 0 0
-15.021944 -3.688143 13.835788 20.753078 0.240755 0.841043 0.035648 -0.006259 319921.000000 1 0 0
-14.363844 2.151857 12.896888 19.423703 -0.148705 0.844672 0.020664 -0.004588 282197.000000 1 0 0
-5.524244 1.022857 16.145388 17.094943 -0.183084 0.334867 0.007045 0.002227 208605.000000 1 0 0
4.613756 5.750157 15.315888 16.997867 0.894612 0.448617 0.006896 -0.002390 -614890.000000 1 0 0
-1.145544 -11.931543 13.966388 18.404728 1.475080 0.709254 0.001984 -0.015083 -298959.000000 1 0 0
-5.958244 -4.031443 16.832288 18.305167 0.594859 0.403894 0.015267 -0.007521 -189150.000000 1 0 0
-12.975044 -1.549843 9.783488 16.323922 0.118885 0.928127 0.009981 -0.001860 -449430.000000 1 0 0
-14.632344 10.506757 10.272988 20.737206 -0.622738 1.052513 0.015953 -0.005162 464400.000000 1 0 0
-3.660844 -3.377643 17.724888 18.411462 0.745184 0.273951 0.017832 -0.009918 -1683590.000000 1 0 0
-7.931444 9.405957 11.852588 17.084018 -0.870242 0.804069 -0.001088 -0.000123 23969.800000 1 0 0
-4.325644 10.694857 16.511188 20.142256 -1.186451 0.609859 0.008067 -0.001910 181246.000000 1 0 0
-12.575944 12.568657 8.006088 19.499306 -0.785108 1.147703 0.007601 -0.027899 315978.000000 1 0 0
-12.569744 3.073057 10.433188 16.622080 -0.239777 0.892239 0.009602 -0.001921 318776.000000 1 0 0
-10.205444 -3.413843 13.723688 17.439754 0.322811 0.664995 0.016793 -0.002079 -1309060.000000 1 0 0
-4.338644 -6.646643 17.905488 19.585919 0.992485 0.417262 0.014592 -0.006649 -397365.000000 1 0 0
0.961756 -3.660343 18.126688 18.517557 -1.313854 0.205828 0.014365 -0.004260 -280291.000000 1 0 0
-5.892044 1.725957 13.645088 14.962739 -0.284958 0.422814 0.001445 0.004687 -936948.000000 1 0 0
-10.508344 8.679357 10.221288 17.036175 -0.690364 0.927326 0.009711 -0.010695 -468267.000000 1 0 0
4.456356 2.505757 17.382488 18.118742 0.512229 0.286053 0.005259 -0.004432 805688.000000 1 0 0
0.494556 -5.367843 13.150388 14.212355 -1.478923 0.389027 0.003892 -0.001856 -1323660.000000 1 0 0
-3.991444 5.809357 20.747988 21.912537 -0.968800 0.327484 0.019171 -0.009018 2505.700000 1 0 0
-11.074044 10.699657 8.922088 17.796650 -0.768205 1.045655 0.013014 -0.016122 872434.000000 1 0 0
0.632756 4.189257 13.004788 13.677528 1.420887 0.314942 0.002935 -0.000829 -1802600.000000 1 0 0
-3.070544 7.329457 13.379288 15.561315 -1.174077 0.535960 -0.002546 0.005982 -39743.400000 1 0 0
0.588856 8.901257 14.125588 16.706626 1.504738 0.563280 -0.002748 -0.003645 25295.500000 1 0 0
-4.220644 -6.511143 13.134188 15.255023 0.995674 0.533614 0.009152 -0.005210 -205497.000000 1 0 0
-5.209244 8.289657 16.476088 19.165493 -1.009754 0.536164 0.009096 0.001404 366681.000000 1 0 0
1.439456 -10.703243 15.778288 19.120299 -1.437111 0.600220 -0.002825 -0.004453 -360348.000000 1 0 0
-15.168344 -1.147843 14.275288 20.860970 0.075530 0.817145 0.025984 0.003516 5224.870000 1 0 0
-13.599144 -5.346843 8.543888 16.927004 0.374609 1.041705 0.026113 -0.009418 -341736.000000 1 0 0
-14.285544 -1.950543 12.018488 18.770334 0.135701 0.875918 0.027169 -0.003784 900900.000000 1 0 0
9.241156 1.114857 16.945988 19.334125 0.120060 0.502293 0.010556 -0.011412 -154486.000000 1 0 0
4.883156 -6.783043 16.842588 18.802332 -0.946835 0.460633 0.007229 -0.005229 -79993.600000 1 0 0
-6.047944 -2.657643 11.067288 12.888971 0.414029 0.538140 0.005372 -0.000904 520840.000000 1 0 0
0.458256 -6.211943 18.081588 19.124384 -1.497160 0.331753 0.013022 -0.011471 -356321.000000 1 0 0
-8.465744 11.932557 12.224588 19.065552 -0.953746 0.874752 0.010433 -0.008446 150995.000000 1 0 0
-6.637244 -5.803243 14.900688 17.313612 0.718459 0.534282 0.014091 -0.007489 -862057.000000 1 0 0
-4.188944 -9.079743 17.222488 19.914896 1.138544 0.526036 0.016047 -0.013107 80614.600000 1 0 0
2.453956 -6.077543 16.227588 17.501230 -1.187040 0.383861 0.007601 -0.008365 -972337.000000 1 0 0
2.238256 5.337857 15.877988 16.900089 1.173749 0.349567 0.006100 -0.008428 -1895900.000000 1 0 0
0.916156 -8.795043 14.062188 16.611360 -1.467003 0.561344 0.000353 -0.004768 -483853.000000 1 0 0
-9.945444 -2.733843 11.216188 15.237737 0.268258 0.743536 0.002493 -0.000481 208705.000000 1 0 0
-1.190844 10.125057 12.365188 16.026003 -1.453721 0.689490 -0.001389 -0.002576 -551170.000000 1 0 0
-12.349444 -3.718443 11.239888 17.107620 0.292468 0.853950 0.017478 -0.002454 -1670940.000000 1 0 0
-1.759844 6.834357 19.856688 21.073527 -1.318772 0.341488 0.014843 -0.009269 -732252.000000 1 0 0
0.190056 -13.325243 15.642288 20.549438 -1.556534 0.705631 -0.003422 -0.020603 -1860240.000000 1 0 0
4.102556 -8.782543 15.386888 18.185719 -1.133792 0.562176 0.010343 -0.002689 -273583.000000 1 0 0
4.375356 -4.375043 16.265188 17.402330 -0.785362 0.363507 0.000530 0.000685 -683757.000000 1 0 0
8.037756 1.740357 14.759488 16.896061 0.213231 0.508355 0.001844 -0.004244 187781.000000 1 0 0
-6.369044 -0.068543 11.778688 13.390553 0.010762 0.495719 0.002916 0.002615 347454.000000 1 0 0
-3.277944 -11.057943 18.597188 21.883292 1.282615 0.555124 0.022039 -0.014431 384974.000000 1 0 0
3.269556 -1.518243 13.514188 13.986720 -0.434729 0.260677 0.000271 -0.003884 338218.000000 1 0 0
-2.590344 8.878657 16.139388 18.601620 -1.286926 0.520374 0.007183 0.005178 -473225.000000 1 0 0
-3.262444 4.055157 14.813388 15.701093 -0.893307 0.337872 0.002310 0.002161 214836.000000 1 0 0
-4.406844 -9.101743 19.963888 22.378982 1.119888 0.468864 0.020790 -0.015386 -210233.000000 1 0 0
-5.786744 -2.968543 19.200688 20.272274 0.473986 0.326595 0.019123 -0.012551 -1237680.000000 1 0 0
-6.641044 -8.586543 11.108188 15.531389 0.912471 0.773873 0.011926 -0.010816 120610.000000 1 0 0
-11.685444 2.462657 12.620388 17.374938 -0.207706 0.757791 0.015423 -0.003328 -118098.000000 1 0 0
-11.674844 -7.384543 11.477088 17.959873 0.563987 0.877546 0.025367 -0.018294 -1414790.000000 1 0 0
-10.910144 -7.117843 15.906188 20.559712 0.578065 0.686202 0.027768 -0.020585 -893962.000000 1 0 0
0.245256 5.644557 17.632288 18.515366 1.527374 0.310091 0.008468 -0.009732 -246905.000000 1 0 0
-2.196244 -0.001443 13.273388 13.453859 0.000657 0.163977 0.008447 0.000785 734144.000000 1 0 0
-5.898444 -10.565443 18.411988 22.032284 1.061621 0.581423 0.023751 -0.015808 21688.200000 1 0 0
0.438156 2.566757 19.333588 19.508149 1.401722 0.133876 0.023996 -0.005696 -321069.000000 1 0 0
-0.784044 11.043557 14.823488 18.501640 -1.499920 0.641501 0.005075 -0.004252 -247036.000000 1 0 0
-12.820244 -2.264543 14.213988 19.274965 0.174835 0.741535 0.024943 -0.004214 -821731.000000 1 0 0
-13.653844 8.552357 11.736288 19.932655 -0.559584 0.941227 0.011733 -0.008540 24074.700000 1 0 0
-17.957644 -0.670843 6.929888 19.260072 0.037340 1.202736 0.044504 -0.019927 -435654.000000 1 0 0
-2.034744 -7.795943 17.645188 19.397670 1.315491 0.428343 0.008648 -0.012069 -1270250.000000 1 0 0
5.654456 2.640257 14.446388 15.736644 0.436846 0.407765 0.001832 -0.004359 -3705040.000000 1 0 0
-14.268344 -6.658043 11.134288 19.284386 0.436597 0.955289 0.045314 -0.018104 935553.000000 1 0 0
3.120556 7.769057 16.134488 18.177399 1.188856 0.478661 0.009576 -0.020020 -247792.000000 1 0 0
0.978656 2.094957 14.471588 14.655152 1.133773 0.158441 0.004310 -0.003091 -1737470.000000 1 0 0
-14.377044 0.668457 9.759288 17.389363 -0.046461 0.974935 0.018084 -0.001435 -1744550.000000 1 0 0
-9.506644 -5.095743 15.458788 18.849855 0.492046 0.609208 0.021536 -0.009216 -495016.000000 1 0 0
-2.755944 0.005257 18.201188 18.408653 -0.001907 0.150274 0.016241 -0.005576 630746.000000 1 0 0
6.691456 3.804157 17.285488 18.921821 0.516943 0.418938 0.021809 -0.014429 -634915.000000 1 0 0
-4.179444 -0.838143 14.831388 15.431796 0.197914 0.279865 0.012450 0.004373 -112054.000000 1 0 0
4.676556 -9.091543 17.870888 20.588710 -1.095707 0.519647 0.013269 -0.000833 -371915.000000 1 0 0
1.975256 6.976657 13.417288 15.251197 1.294893 0.495454 0.004535 -0.001564 -2125400.000000 1 0 0
-3.902644 -0.793843 20.386288 20.771653 0.200674 0.192925 0.029313 -0.010161 -1233630.000000 1 0 0
-10.632844 1.668957 16.325088 19.553805 -0.155692 0.582881 0.012696 0.000521 -428668.000000 1 0 0
-3.996544 7.151057 18.487888 20.221572 -1.061165 0.417105 0.009805 0.000533 -126623.000000 1 0 0
-12.627044 1.246957 14.653888 19.383849 -0.098434 0.713640 0.019434 -0.002065 627948.000000 1 0 0
-16.081444 -4.811443 8.418688 18.778635 0.290716 1.105920 0.038163 -0.014584 -1563470.000000 1 0 0
-2.380044 0.812957 15.813488 16.012243 -0.329147 0.157724 0.010775 0.003889 70910.000000 1 0 0
-13.609544 -8.860543 12.468488 20.474182 0.577116 0.916015 0.028109 -0.027087 659243.000000 1 0 0
6.027856 -3.108343 14.602588 16.100697 -0.476099 0.434801 -0.005169 -0.001523 528401.000000 1 0 0
-15.739844 0.691857 7.532188 17.462967 -0.043927 1.124837 0.023344 -0.009673 671072.000000 1 0 0
-14.169044 6.063857 12.462988 19.820652 -0.404379 0.890803 0.027530 -0.005160 53457.500000 1 0 0
0.312356 9.550657 16.673388 19.217557 1.538103 0.520416 0.003567 -0.014173 -541733.000000 1 0 0
-10.386944 -5.398043 10.857188 15.965776 0.479279 0.822994 0.016656 -0.007673 -54077.100000 1 0 0
-3.195644 -11.000443 15.174988 19.013210 1.288076 0.646614 0.014067 -0.014808 -1275040.000000 1 0 0
-3.550344 2.727157 12.618788 13.389404 -0.655009 0.340925 0.001994 0.003630 -2654720.000000 1 0 0
-12.332144 -7.779743 7.413888 16.357626 0.562796 1.100402 0.021448 -0.011224 -247282.000000 1 0 0
-8.219044 -1.890543 13.214188 15.676148 0.226087 0.568056 0.007807 0.000545 -318300.000000 1 0 0
-9.791044 6.427957 9.523288 15.095568 -0.580941 0.888127 -0.000667 -0.003380 -1001030.000000 1 0 0
-17.981044 -3.722943 6.613488 19.517082 0.204163 1.225095 0.038154 -0.014188 725217.000000 1 0 0
-1.412844 0.074757 20.447288 20.496178 -0.052863 0.069083 0.025152 -0.011559 -615867.000000 1 0 0
-2.814544 2.786657 20.202688 20.587271 -0.780419 0.193593 0.026596 -0.008338 -485881.000000 1 0 0
-3.905644 11.361057 10.994988 16.285498 -1.239678 0.829642 0.004724 -0.006845 -520446.000000 1 0 0
-4.194544 -4.771143 14.935088 16.230061 0.849622 0.402176 0.009443 -0.006391 1047270.000000 1 0 0
-0.237044 -14.269043 13.280288 19.494303 1.554185 0.821342 0.012691 -0.019831 -1080640.000000 1 0 0
-12.133944 0.444457 8.362688 14.743293 -0.036613 0.967670 0.004166 -0.002775 -426783.000000 1 0 0
-7.751544 2.080557 15.449588 17.409909 -0.262225 0.479118 0.002299 0.003883 -266863.000000 1 0 0
3.531356 -2.116143 18.523788 18.975755 -0.539863 0.218693 0.013268 -0.000091 -391185.000000 1 0 0
-2.166544 4.941057 12.584188 13.691959 -1.157565 0.405023 -0.003428 0.002524 -419625.000000 1 0 0
-10.478344 -6.226343 13.420788 18.129551 0.536152 0.737322 0.020583 -0.010059 -1418770.000000 1 0 0
2.392556 -3.793643 14.196788 14.888414 -1.008127 0.306000 0.001946 -0.003639 -369168.000000 1 0 0
6.691156 1.106657 17.058788 18.357519 0.163907 0.378409 -0.004545 -0.003707 -2291920.000000 1 0 0
-1.983644 -5.700343 13.885888 15.140894 1.235916 0.410023 0.005549 -0.002128 -1836600.000000 1 0 0
-12.937244 3.749157 14.455988 19.758645 -0.282069 0.750089 0.012246 -0.000845 228204.000000 1 0 0
-13.231544 -6.541943 13.481288 19.990396 0.459174 0.830660 0.026710 -0.018303 -1065340.000000 1 0 0
-9.574844 6.849857 12.036288 16.836579 -0.620988 0.774331 0.007527 0.002820 -469039.000000 1 0 0
-1.076044 -2.367043 12.930088 13.188933 1.144129 0.198446 0.006600 0.000547 110447.000000 1 0 0
0.041956 6.571257 15.222088 16.579962 1.564412 0.407533 0.003058 -0.006813 496988.000000 1 0 0
-16.593844 -0.671543 9.627188 19.196077 0.040447 1.045443 0.038056 -0.008268 -36753.300000 1 0 0
-1.351744 2.799857 13.685488 14.034208 -1.121011 0.223390 0.003526 0.002486 -2763220.000000 1 0 0
-11.209444 -3.280243 16.090988 19.882946 0.284684 0.627861 0.026349 -0.011754 -16973.800000 1 0 0
-5.237944 -1.435943 17.124888 17.965517 0.267569 0.307118 0.020993 -0.000369 344071.000000 1 0 0
-11.910144 6.670757 11.137888 17.618260 -0.510557 0.886434 0.013825 -0.002471 -1737910.000000 1 0 0
-2.808544 4.866957 18.655188 19.483101 -1.047413 0.292569 0.015664 -0.005493 70911.800000 1 0 0
5.101256 -1.934443 16.565488 17.440765 -0.362456 0.318155 -0.002390 -0.000054 -2047600.000000 1 0 0
-8.033044 -4.121843 12.235388 15.206055 0.474081 0.635729 0.010180 -0.001473 -368385.000000 1 0 0
-11.655944 -0.723243 16.081988 19.874971 0.061970 0.628079 0.030798 -0.004171 437226.000000 1 0 0
1.935956 2.062157 17.343388 17.572522 0.816953 0.161665 0.006212 -0.009140 -869016.000000 1 0 0
-8.977744 -7.381543 11.603588 16.423469 0.688135 0.786221 0.016147 -0.012859 -169463.000000 1 0 0
-7.279944 6.826957 14.839288 17.883216 -0.753298 0.592068 -0.000990 0.000710 -1167260.000000 1 0 0
-5.676544 3.550757 15.742988 17.107680 -0.558969 0.402130 0.000357 0.001801 3754.380000 1 0 0
-9.387744 4.233257 11.569588 15.488885 -0.423631 0.727317 -0.000387 -0.002628 160346.000000 1 0 0
-10.253444 0.304457 14.208888 17.524791 -0.029684 0.625299 0.009965 -0.001206 -346058.000000 1 0 0
7.926756 -0.677643 15.721188 17.619547 -0.085281 0.468474 -0.005723 -0.010250 78443.900000 1 0 0
-8.608444 -7.487043 14.757688 18.653431 0.715839 0.658107 0.024667 -0.013031 -656026.000000 1 0 0
0.022956 4.079657 15.548488 16.074813 1.565169 0.256603 0.008180 -0.006292 163834.000000 1 0 0
-7.995344 3.119257 9.633388 12.901839 -0.371972 0.727758 -0.004324 -0.000153 -683908.000000 1 0 0
-2.290544 -9.646543 13.198388 16.507569 1.337667 0.644275 0.002494 -0.008706 649526.000000 1 0 0
-6.124344 10.385957 10.466888 15.966572 -1.038003 0.855885 0.004807 -0.002163 -2385840.000000 1 0 0
-8.616444 -2.670743 15.636988 18.052462 0.300568 0.523255 0.014936 -0.009456 495838.000000 1 0 0
3.932156 5.806457 17.758888 19.093321 0.975534 0.376084 0.010037 -0.010289 223399.000000 1 0 0
-6.834944 -0.872743 15.133788 16.628581 0.127001 0.427254 0.005764 0.001621 333170.000000 1 0 0
-0.986944 -9.760543 15.466488 18.315418 1.470023 0.565255 -0.003537 -0.008933 -286459.000000 1 0 0
-4.400544 5.806557 16.275688 17.831963 -0.922285 0.420890 0.002525 0.001242 203229.000000 1 0 0
3.707656 0.072657 17.288888 17.682128 0.019594 0.211293 0.010001 -0.008693 -296957.000000 1 0 0
1.571156 0.295657 19.269188 19.335397 0.186003 0.082779 0.016511 -0.006200 -319455.000000 1 0 0
-6.475344 6.425457 17.842288 20.039058 -0.781531 0.472627 0.010982 0.001175 -1214.450000 1 0 0
-12.188744 0.512857 10.995388 16.423370 -0.042051 0.837266 0.012901 -0.001440 -397254.000000 1 0 0
-5.358044 5.285957 13.868388 15.779169 -0.778626 0.497235 -0.001912 0.003494 -1124320.000000 1 0 0
-8.731444 -9.385643 9.880188 16.184763 0.821492 0.914152 0.019034 -0.013830 46532.700000 1 0 0
6.848256 -3.839943 17.009888 18.734462 -0.511035 0.432439 0.003669 -0.001404 -1078940.000000 1 0 0
-16.648744 1.876657 9.608688 19.313969 -0.112247 1.050083 0.034908 -0.008600 411019.000000 1 0 0
-4.149844 -9.597343 11.226288 15.341439 1.162679 0.749892 0.003725 -0.009890 1211740.000000 1 0 0
-11.010844 -3.871643 9.080688 14.788077 0.338118 0.909609 0.006233 -0.001115 -172613.000000 1 0 0
3.560056 -5.397243 18.558688 19.652714 -0.987698 0.335238 0.005146 -0.003475 -390289.000000 1 0 0
2.556756 -1.891343 16.002988 16.315938 -0.636905 0.196174 0.009988 -0.003515 -189422.000000 1 0 0
-3.184744 -4.344243 20.150588 20.858122 0.938202 0.261208 0.025453 -0.018013 -788297.000000 1 0 0
-6.378544 -3.334243 14.441188 16.135394 0.481664 0.462364 0.012125 0.000342 513971.000000 1 0 0
-9.406544 5.044657 14.009288 17.612262 -0.492258 0.651083 0.009591 0.002163 118820.000000 1 0 0
-5.914044 -5.176543 11.787988 14.167893 0.718998 0.588055 0.006196 -0.000335 -1578940.000000 1 0 0
6.265956 2.232357 19.327788 20.440377 0.342247 0.331457 0.022789 -0.011146 91708.300000 1 0 0
-2.819044 11.870557 13.359988 18.092717 -1.337634 0.740075 0.010323 -0.016479 -1868620.000000 1 0 0
3.413756 1.420057 15.136988 15.582000 0.394206 0.239567 0.003416 -0.004628 -1145090.000000 1 0 0
-5.708044 7.619957 12.943888 16.068284 -0.927877 0.634185 -0.008357 0.001938 -200640.000000 1 0 0
-1.695544 -1.548843 15.310688 15.481956 0.740212 0.148882 0.012554 0.002094 476264.000000 1 0 0
-7.334844 10.415057 14.021988 18.944379 -0.957221 0.737479 0.019420 -0.015419 -163935.000000 1 0 0
-10.100544 2.000957 10.551888 14.743377 -0.195572 0.773165 0.001008 0.000371 -1038920.000000 1 0 0
-13.710244 5.153457 9.215488 17.304743 -0.359545 1.009196 0.013038 -0.005184 434189.000000 1 0 0
0.121256 -4.945443 20.259888 20.855100 -1.546282 0.239488 0.015513 -0.011903 -394268.000000 1 0 0
-14.439444 -3.095743 7.370688 16.504794 0.211198 1.107858 0.017930 -0.008929 680296.000000 1 0 0
-2.189844 2.585957 17.676388 17.998258 -0.868150 0.189404 0.008784 -0.003305 -194301.000000 1 0 0
-6.192344 -8.362743 14.620488 17.945453 0.933424 0.618553 0.011198 -0.011486 -252344.000000 1 0 0
-7.922044 2.034757 12.047588 14.561710 -0.251413 0.596428 0.000705 0.001086 438830.000000 1 0 0
-14.614244 -3.497443 10.014888 18.058411 0.234899 0.982935 0.024390 -0.007433 922366.000000 1 0 0
-0.513244 6.937057 12.718088 14.496067 -1.496945 0.500490 0.000668 -0.001651 -186072.000000 1 0 0
-1.921344 -2.187543 19.341588 19.559498 0.850094 0.149409 0.023842 -0.009765 282014.000000 1 0 0
-12.942344 10.302157 7.076288 17.992014 -0.672300 1.166576 0.005666 -0.020616 731468.000000 1 0 0
-19.655444 2.102957 6.856588 20.922995 -0.106586 1.236922 0.062798 -0.027610 1656440.000000 1 0 0
-16.134844 8.335957 6.721988 19.365084 -0.476873 1.216299 0.027880 -0.007157 521924.000000 1 0 0
-12.403544 7.490757 13.637288 19.898115 -0.543297 0.815704 0.018572 -0.001872 253332.000000 1 0 0
-15.926844 8.322057 10.455088 20.790138 -0.481499 1.043861 0.025880 -0.003058 -1068800.000000 1 0 0
1.817756 10.900757 14.996088 18.628296 1.405562 0.635093 0.005823 -0.014973 -206017.000000 1 0 0
2.189156 14.411257 12.273288 19.055454 1.420043 0.870973 0.001601 -0.012947 -432618.000000 1 0 0
-3.054044 13.706257 11.570988 18.195506 -1.351557 0.881589 0.000300 -0.010481 149248.000000 1 0 0
9.171256 4.852657 15.767888 18.875553 0.486668 0.582008 0.027825 -0.003092 -42677.300000 1 0 0
-0.367544 12.593357 12.851088 17.996616 -1.541619 0.775482 -0.003078 -0.008654 -469469.000000 1 0 0
3.468156 13.396557 14.488088 20.034983 1.317474 0.762459 0.012654 -0.008410 -139360.000000 1 0 0
-2.783044 -4.092143 -13.579112 14.452794 0.973555 2.792108 -0.001639 -0.000810 -334558.000000 1 0 0
6.005956 -11.409943 16.316188 20.796065 -1.086269 0.668777 0.009257 -0.005293 116045.000000 1 0 0
7.906056 -13.465743 7.339688 17.254072 -1.039899 1.131405 0.008321 -0.006350 -94018.500000 1 0 0
-0.073244 15.642857 1.244688 15.692469 -1.566114 1.491395 -0.002389 -0.005246 -2822610.000000 1 0 0
-13.655644 8.296557 9.139388 18.407550 -0.545956 1.051232 0.001801 -0.003116 714591.000000 1 0 0
-15.380344 -9.842243 4.785288 18.876539 0.569259 1.314495 0.027019 -0.013458 -1065720.000000 1 0 0
9.292356 -10.812943 11.183088 18.119854 -0.860886 0.905651 0.005583 -0.003106 37612.300000 1 0 0
-5.813944 -10.351043 -16.911012 20.662245 1.059032 2.529504 0.024949 -0.001449 158788.000000 1 0 0
-1.776344 -12.687343 -14.829312 19.596749 1.431691 2.429082 0.022990 -0.002809 -1638.910000 1 0 0
5.561856 -15.934543 -11.730912 20.553788 -1.234973 2.178206 0.030884 -0.012430 343414.000000 1 0 0
2.699556 -12.130043 -16.541412 20.689221 -1.351814 2.497289 0.034374 -0.000909 215456.000000 1 0 0
1.552456 -14.545843 -14.794612 20.805581 -1.464470 2.361842 0.067206 0.020717 200008.000000 1 0 0
-6.601844 -6.048143 -14.721112 17.230076 0.741655 2.595162 0.013570 0.005323 -16849.600000 1 0 0
-5.886244 -8.018343 -17.665912 20.273779 0.937551 2.628779 0.003501 0.003357 -23370.300000 1 0 0
-2.408444 -16.225943 -13.316312 21.128322 1.423441 2.252683 0.017505 -0.005454 142725.000000 1 0 0
16.557256 -7.985843 -9.292412 20.597702 -0.449401 2.038837 0.056112 -0.016737 -145990.000000 1 0 0
19.154256 -2.696143 -3.881012 19.728582 -0.139841 1.768808 0.034869 -0.016106 81834.700000 1 0 0
15.707456 -11.925543 -8.513412 21.480711 -0.649381 1.978310 0.043230 -0.009614 79431.600000 1 0 0
18.469356 -3.711143 -7.186812 20.162836 -0.198295 1.935250 0.139978 -0.009777 -337661.000000 1 0 0
9.095956 -9.758143 -15.811412 20.687158 -0.820505 2.440768 0.046439 0.000847 174602.000000 1 0 0
-4.724644 9.141557 -16.002712 19.025696 -1.093774 2.570129 -0.003417 -0.016245 503490.000000 1 0 0
2.652856 -9.876943 -18.216012 20.890542 -1.308398 2.630017 0.035889 0.002406 464561.000000 1 0 0
11.195856 7.785657 -14.912412 20.207515 0.607636 2.400844 0.055960 -0.049176 394191.000000 1 0 0
18.630156 -6.438543 -8.706912 21.548732 -0.332748 1.986744 0.049075 -0.006696 154499.000000 1 0 0
12.452456 5.322857 -13.866012 19.382021 0.403948 2.368001 0.020969 -0.011656 115401.000000 1 0 0
15.799356 6.346257 -10.682012 20.099751 0.381952 2.131108 -0.002866 -0.010955 311640.000000 1 0 0
3.594456 -0.585443 -19.226512 19.568383 -0.161456 2.954394 0.042517 -0.008501 198003.000000 1 0 0
10.339156 -1.959943 -14.498912 17.915300 -0.187342 2.513761 0.024550 -0.015614 185472.000000 1 0 0
11.990856 -6.349443 -14.022812 19.512440 -0.486987 2.372670 0.035550 -0.004357 331346.000000 1 0 0
10.068056 6.634857 -12.795712 17.581732 0.582677 2.385882 0.023505 -0.010645 446910.000000 1 0 0
10.626756 5.450457 -16.378812 20.270690 0.473914 2.511554 0.033210 -0.012797 373255.000000 1 0 0
11.903056 -10.378943 -14.829912 21.664060 -0.717103 2.324769 0.047012 -0.010567 249227.000000 1 0 0
-1.540344 2.182657 -17.568612 17.770559 -0.956242 2.990690 0.004541 -0.005950 383612.000000 1 0 0
6.777356 -1.125743 -17.350012 18.660728 -0.164601 2.764559 0.026363 0.009986 100617.000000 1 0 0
6.962756 -6.091043 -15.808412 18.316295 -0.718719 2.612131 0.008662 -0.003272 213774.000000 1 0 0
-2.246544 -4.563243 -20.348012 20.974073 1.113317 2.896648 0.032613 -0.025688 285539.000000 1 0 0
16.268856 -0.085743 -13.152612 20.920665 -0.005270 2.250664 0.030559 -0.005951 83723.400000 1 0 0
-4.010944 -0.539943 -18.671212 19.104799 0.133813 2.928137 0.000098 -0.001923 116797.000000 1 0 0
3.681856 8.793557 -17.873512 20.256977 1.174274 2.651605 0.030077 -0.015794 -3456.450000 1 0 0
10.048556 0.089657 -16.858012 19.625852 0.008922 2.604050 0.037299 -0.017662 -106345.000000 1 0 0
4.202556 4.539357 -18.191412 19.214440 0.823906 2.813806 0.037318 -0.006096 420007.000000 1 0 0
-3.173344 -10.822243 -17.771112 21.047648 1.285567 2.576106 0.044535 -0.026766 206824.000000 1 0 0
5.714756 -9.486143 -16.430612 19.814398 -1.028591 2.548518 0.003034 0.006567 18528.000000 1 0 0
10.486056 -11.912143 -11.031312 19.327348 -0.848982 2.178230 0.037537 -0.008050 198738.000000 1 0 0
6.334456 6.933057 -17.022712 19.441330 0.830485 2.637460 0.039035 -0.013164 308882.000000 1 0 0
8.455556 1.468457 -20.120412 21.874272 0.171953 2.738420 0.040911 -0.005730 46868.800000 1 0 0
-1.131144 -0.543643 -20.103412 20.142547 0.448019 3.079246 0.024495 -0.017870 141047.000000 1 0 0
-1.007544 6.787057 -19.576712 20.744323 -1.423422 2.804482 0.013601 -0.004516 1750.720000 1 0 0
8.756756 6.052757 -17.579012 20.550871 0.604802 2.597100 0.057898 -0.030368 178045.000000 1 0 0
12.267556 0.086757 -13.089712 17.939928 0.007072 2.388594 0.017239 -0.001145 -7086.940000 1 0 0
-4.561144 -2.743043 -19.802012 20.504828 0.541444 2.879016 0.005897 -0.009201 362727.000000 1 0 0
5.935856 -11.497543 -14.427312 19.379763 -1.094216 2.410511 0.005337 -0.000607 93773.400000 1 0 0
11.754956 2.911957 -15.799512 19.906859 0.242833 2.487617 0.045927 -0.000578 -98671.400000 1 0 0
-2.782244 -4.522543 -16.998312 17.808337 1.019279 2.838823 -0.000393 -0.005449 87804.600000 1 0 0
-6.750144 -4.777243 -17.559312 19.409171 0.615892 2.701451 0.018151 -0.003549 46323.000000 1 0 0
2.830256 10.478157 -15.420512 18.857208 1.306982 2.528290 0.011745 -0.008149 86825.300000 1 0 0
16.902156 -6.122043 -10.835312 20.989671 -0.347506 2.113229 0.046663 -0.023678 -42126.400000 1 0 0
9.606056 -3.714743 -17.499112 20.305037 -0.368996 2.609626 0.015763 -0.017833 26618.800000 1 0 0
-7.201544 -1.499043 -18.791912 20.180320 0.205225 2.768487 -0.001816 0.006941 553252.000000 1 0 0
1.644556 -7.331143 -19.299312 20.710231 -1.350125 2.770339 0.036127 -0.017674 293617.000000 1 0 0
5.882356 10.536157 -13.812812 18.341387 1.061602 2.423551 0.031171 -0.019066 314006.000000 1 0 0
6.090556 -3.813043 -17.781412 19.178446 -0.559360 2.757546 0.027887 -0.020992 443767.000000 1 0 0
4.782656 13.310157 -14.532612 20.278828 1.225839 2.369769 0.029278 -0.020375 -53280.600000 1 0 0
10.222356 10.951057 -15.618612 21.641701 0.819800 2.377038 0.088780 -0.030631 -74008.400000 1 0 0
17.361056 1.430257 -11.722412 20.996829 0.082197 2.163125 0.038842 0.011975 75568.700000 1 0 0
15.301756 -3.018443 -12.204312 19.804039 -0.194761 2.234773 0.038648 -0.007075 153461.000000 1 0 0
-8.459944 0.512657 -17.240612 19.211251 -0.060524 2.684689 0.000334 -0.009117 522989.000000 1 0 0
-3.610244 4.543557 -19.008412 19.874543 -0.899366 2.845281 0.013695 -0.001213 174559.000000 1 0 0
4.044656 1.700957 -16.763012 17.327754 0.398090 2.885583 0.021812 -0.005159 288148.000000 1 0 0
-4.938544 14.313657 -14.024112 20.638452 -1.238562 2.317896 -0.009137 -0.002235 260918.000000 1 0 0
0.903556 9.855457 -17.542712 20.141826 1.479371 2.627948 0.016202 0.004654 300305.000000 1 0 0
1.401156 -4.988543 -19.490912 20.167906 -1.296977 2.881756 0.033751 -0.015998 446307.000000 1 0 0
3.897956 -6.150543 -18.091712 19.502135 -1.005924 2.758943 0.032560 -0.017137 -29956.600000 1 0 0
-7.070044 7.534857 -15.788212 18.868683 -0.817213 2.562102 0.000250 -0.003486 17086.400000 1 0 0
-12.059644 2.927057 -16.511412 20.655009 -0.238111 2.497076 0.058526 -0.017048 354099.000000 1 0 0
-4.858244 7.466457 -17.965512 20.052683 -0.993946 2.681284 -0.004749 0.040473 343200.000000 1 0 0
-8.270044 5.558257 -17.510112 20.146758 -0.591751 2.624233 0.008956 -0.006202 287644.000000 1 0 0
-8.344144 4.160457 -15.380212 17.985690 -0.462533 2.596610 -0.006197 -0.002851 526281.000000 1 0 0
9.551856 13.801357 -12.567712 20.968137 0.965395 2.213513 0.051989 -0.027151 541887.000000 1 0 0
14.458756 9.714057 -12.018012 21.162493 0.591580 2.174739 0.053795 -0.013224 97055.800000 1 0 0
8.895756 15.502257 -10.046112 20.503141 1.049837 2.082862 0.029043 -0.017885 -13731.100000 1 0 0
7.544756 12.741557 -14.371912 20.635466 1.036178 2.341258 0.057574 -0.039276 172808.000000 1 0 0
4.198056 15.528557 -12.890912 20.613960 1.306764 2.246375 0.030952 -0.022689 159447.000000 1 0 0
10.956756 11.736057 -11.224112 19.589952 0.819726 2.180900 0.043255 -0.021076 201280.000000 1 0 0
16.119756 10.281057 -8.815912 21.053906 0.567745 2.002843 0.040116 -0.039596 412328.000000 1 0 0
13.303556 11.204257 -9.924212 20.025233 0.699948 2.089305 0.051159 -0.016344 203806.000000 1 0 0
11.309156 11.283357 -8.188412 17.951636 0.784256 2.044446 0.038642 -0.009117 103952.000000 1 0 0
6.370456 16.523557 -9.677212 20.180660 1.202819 2.070914 0.054818 -0.020270 -211824.000000 1 0 0
11.875056 13.600557 -10.151212 20.713261 0.853026 2.082981 0.065528 -0.031209 299997.000000 1 0 0
7.856756 -19.527743 -1.696312 21.117264 -1.188276 1.651211 0.030503 -0.006172 133696.000000 1 0 0
7.359756 -16.828343 -4.123212 18.824453 -1.158518 1.791622 0.030787 -0.012772 256453.000000 1 0 0
3.879356 -18.602743 5.260888 19.717718 -1.365206 1.300715 0.041779 -0.028026 -67340.300000 1 0 0
10.351856 -17.985943 -2.333412 20.883005 -1.048547 1.682768 0.040749 -0.007415 672027.000000 1 0 0
-4.005844 -15.086943 7.836188 17.466210 1.311267 1.105544 0.030135 -0.022326 6084.720000 1 0 0
-15.334744 -12.599243 -4.299712 20.307211 0.687782 1.784144 0.033741 -0.012855 76674.200000 1 0 0
-9.481944 -12.514343 -7.219112 17.280961 0.922394 2.001763 0.026210 -0.009723 137833.000000 1 0 0
-11.523844 -15.399843 6.768988 20.390521 0.928378 1.232408 0.021398 -0.008969 165553.000000 1 0 0
-14.962444 -7.455943 -7.312212 18.246486 0.462295 1.983128 0.042564 -0.023902 -143129.000000 1 0 0
5.161456 -15.944543 5.197088 17.546476 -1.257729 1.270095 0.022544 -0.009203 213524.000000 1 0 0
2.861456 -13.949343 9.295088 17.005022 -1.368471 0.992488 0.010599 -0.007529 291434.000000 1 0 0
3.078256 -17.530643 9.691988 20.266568 -1.396975 1.072163 0.016942 -0.008087 267343.000000 1 0 0
-8.003944 -17.719443 -5.181912 20.121978 1.146526 1.831256 0.009682 -0.001866 161326.000000 1 0 0
2.005556 -19.909943 -4.098512 20.426108 -1.470404 1.772818 0.006213 -0.002143 59220.300000 1 0 0
-17.200944 -11.060543 -2.123912 20.560134 0.571452 1.674283 -0.049464 -0.007919 -339153.000000 1 0 0
-4.116644 -14.862643 2.950688 15.701958 1.300591 1.381754 0.000213 -0.001555 101181.000000 1 0 0
-11.261644 -10.325243 -14.417312 21.007002 0.742047 2.327199 0.034757 0.000916 216677.000000 1 0 0
0.149556 -20.177043 2.879288 20.381996 -1.563384 1.429056 0.012019 -0.015345 286066.000000 1 0 0
5.416456 -18.733843 0.623588 19.511119 -1.289345 1.538830 0.008455 0.003780 137955.000000 1 0 0
-7.726044 -19.290943 -3.160012 21.019465 1.189858 1.721706 0.019868 -0.009261 139214.000000 1 0 0
-9.081444 -15.476443 -7.609912 19.491118 1.040146 1.971895 0.041393 -0.010860 -213527.000000 1 0 0
-11.900244 -11.247243 -12.206412 20.423339 0.757195 2.211388 0.024549 0.003231 304230.000000 1 0 0
-13.333544 -15.116443 -3.544512 20.465918 0.847984 1.744865 0.025187 -0.007486 -9991.210000 1 0 0
-0.547344 -20.299343 -2.400612 20.448126 1.543839 1.688468 0.009321 -0.009909 487421.000000 1 0 0
-12.218944 -16.507943 -1.026812 20.563782 0.933606 1.620750 0.029359 -0.019324 173435.000000 1 0 0
0.925256 -20.159543 5.396388 20.889813 -1.524932 1.309507 0.031112 -0.017974 80026.800000 1 0 0
-18.259844 -9.103643 2.295188 20.532075 0.462496 1.458777 0.042802 -0.005436 58155.700000 1 0 0
-14.846844 -14.919843 -0.514912 21.054587 0.787851 1.595255 0.037647 -0.022862 -81381.600000 1 0 0
10.317156 -15.429643 -5.214712 19.279804 -0.981416 1.844683 0.036642 -0.006031 -157518.000000 1 0 0
-0.153444 -19.141043 -7.027512 20.390905 1.562780 1.922651 -0.006895 0.000631 158307.000000 1 0 0
-9.726844 -17.110943 -2.722612 19.869788 1.053893 1.708251 0.018084 0.001244 630798.000000 1 0 0
-14.427444 -6.752743 -11.407312 19.592791 0.437761 2.192253 0.009242 -0.007419 -184716.000000 1 0 0
-12.457744 -15.249243 1.972988 19.789580 0.885810 1.470932 0.024582 -0.017563 198935.000000 1 0 0
-1.957444 -15.389743 9.690588 18.291618 1.444284 1.012452 -0.000696 -0.031640 287632.000000 1 0 0
-12.097944 -14.623443 -6.635812 20.105704 0.879631 1.907149 0.012725 -0.001681 234238.000000 1 0 0
5.333256 -17.096743 -7.342912 19.356152 -1.268416 1.959899 0.022100 -0.014854 -29494.400000 1 0 0
-17.783844 -7.663543 -3.094912 19.610545 0.406880 1.729278 0.017879 -0.005468 -13749.400000 1 0 0
-12.218244 -13.612943 -9.624612 20.669564 0.839339 2.055156 0.041416 -0.015827 58689.800000 1 0 0
-7.911444 -13.784843 10.021788 18.789601 1.049772 1.008218 0.028109 -0.015627 575096.000000 1 0 0
-15.901844 -8.644943 -5.627212 18.954398 0.497950 1.872222 0.034583 0.006058 239636.000000 1 0 0
-0.674344 -19.632743 -0.102812 19.644590 1.536462 1.576030 0.007718 -0.004973 -7051.020000 1 0 0
-14.865644 -11.491643 -1.880512 18.883367 0.658080 1.670547 0.008174 -0.002563 61383.600000 1 0 0
-7.131344 -19.155443 2.467588 20.588251 1.214405 1.450653 0.010405 -0.006769 184134.000000 1 0 0
-2.269944 -20.945543 -5.045312 21.663878 1.462844 1.805845 -0.003970 0.000494 -84676.600000 1 0 0
-8.985944 -19.911843 -0.640812 21.854961 1.146873 1.600122 0.011984 0.003806 119570.000000 1 0 0
-17.756044 -7.442143 5.150088 19.929526 0.396891 1.309415 0.041122 -0.013306 -31101.500000 1 0 0
-2.903244 -15.766143 -10.966212 19.423128 1.388692 2.170739 0.005959 0.004969 54366.500000 1 0 0
-2.804944 -18.244143 -8.324012 20.248596 1.418246 1.994447 -0.004531 0.002364 6305.320000 1 0 0
3.965756 -18.036643 -5.977812 19.410872 -1.354368 1.883847 0.005406 0.029820 333295.000000 1 0 0
0.500656 -17.351743 -9.902212 19.984680 -1.541951 2.089195 0.002837 0.000861 -69534.100000 1 0 0
-7.543444 -11.243443 -14.103012 19.550281 0.979855 2.376577 0.007141 -0.027392 297322.000000 1 0 0
-5.158744 -19.431443 -1.810512 20.185925 1.311298 1.660609 0.014132 -0.009575 395950.000000 1 0 0
-8.878144 -15.990743 8.496288 20.167108 1.063966 1.135924 0.000147 -0.010349 131483.000000 1 0 0
-7.394744 -15.392543 -10.213112 19.897746 1.122943 2.109798 0.029593 -0.001908 331793.000000 1 0 0
-12.210044 -7.737743 -13.142612 19.536788 0.564845 2.308663 0.009219 0.005557 60374.900000 1 0 0
-15.661844 -13.005743 3.224288 20.611617 0.693010 1.413721 0.033959 -0.013887 7583.230000 1 0 0
-6.277244 -14.357143 -13.367012 20.596319 1.158620 2.277066 0.009499 0.003524 371470.000000 1 0 0
-13.897644 -11.575243 -6.644512 19.268635 0.694478 1.922860 0.025564 -0.015215 240441.000000 1 0 0
-11.906744 -10.410743 -8.335412 17.878289 0.718466 2.055822 0.034120 -0.007279 180658.000000 1 0 0
-9.695844 -14.559543 3.457288 17.830943 0.983294 1.375668 0.003718 -0.017156 530059.000000 1 0 0
5.343256 -17.640943 8.062288 20.118493 -1.276691 1.158472 0.048465 -0.042406 138536.000000 1 0 0
-4.825444 -16.938943 5.435388 18.432476 1.293275 1.271465 0.000111 0.010552 464624.000000 1 0 0
-18.290944 -7.594343 -6.992212 21.002945 0.393538 1.910190 0.024453 -0.009442 -2153.900000 1 0 0
-17.085144 -4.900543 -10.904812 20.852635 0.279331 2.121100 0.037807 0.003451 -202508.000000 1 0 0
-15.506044 -4.534943 -13.272712 20.908562 0.284528 2.258543 0.020585 -0.007432 262037.000000 1 0 0
-19.446344 -5.755943 -6.065812 21.168024 0.287775 1.861426 0.040023 -0.003751 -183130.000000 1 0 0
5.215956 -13.598343 8.795588 17.014215 -1.204531 1.027506 0.021627 -0.004036 151275.000000 1 0 0
19.633856 -2.988343 2.420588 20.006943 -0.151044 1.449512 0.028614 -0.013415 -168086.000000 1 0 0
18.225156 -2.881543 -0.690112 18.464449 -0.156810 1.608180 0.045964 -0.006442 234495.000000 1 0 0
14.295356 -11.379743 0.141888 18.272271 -0.672325 1.563031 0.049109 0.002158 154723.000000 1 0 0
10.999056 -13.509743 5.611588 18.302522 -0.887482 1.259175 0.023416 -0.000112 471070.000000 1 0 0
9.548956 -12.902243 9.531888 18.668351 -0.933661 1.034925 0.012511 0.004952 499248.000000 1 0 0
17.396556 4.779357 -4.266612 18.538781 0.268115 1.803023 -0.022133 0.006312 -126979.000000 1 0 0
18.880356 -5.983443 -4.569512 20.326089 -0.306901 1.797545 0.052465 -0.019420 -10646.900000 1 0 0
17.630656 -10.187343 -0.456712 20.367390 -0.523951 1.593222 0.066799 -0.008656 407539.000000 1 0 0
17.575656 -8.442543 8.781388 21.384410 -0.447808 1.147636 0.085108 -0.016865 -3010.980000 1 0 0
19.739556 0.429657 -2.276212 19.875005 0.021763 1.685575 0.033740 -0.004744 121070.000000 1 0 0
7.458656 -13.115943 11.624588 19.047062 -1.053732 0.914346 0.013301 -0.002669 301388.000000 1 0 0
16.244456 -6.547243 -3.497812 17.860107 -0.383128 1.767915 0.055110 -0.009463 147251.000000 1 0 0
14.372756 -7.005443 11.117388 19.474308 -0.453526 0.963226 0.025881 -0.042671 457865.000000 1 0 0
16.550356 0.942457 10.314388 19.524065 0.056883 1.014210 0.045226 -0.025158 36296.200000 1 0 0
16.588456 -10.203343 2.506188 19.635836 -0.551439 1.442814 0.037437 -0.007780 196458.000000 1 0 0
16.106356 -7.147943 -6.220012 18.686796 -0.417683 1.910127 0.051789 -0.009802 296354.000000 1 0 0
18.765356 -4.875043 5.078588 20.042373 -0.254171 1.314611 0.150245 -0.025707 -241658.000000 1 0 0
13.459456 -13.525543 7.944288 20.669035 -0.787847 1.176285 0.047063 -0.006736 160846.000000 1 0 0
14.965856 -14.416443 -1.640012 20.844671 -0.766702 1.649555 0.043549 0.004324 146779.000000 1 0 0
18.433956 -6.060543 8.629988 21.237176 -0.317639 1.152327 0.062840 -0.015794 306004.000000 1 0 0
19.471456 3.787157 2.798788 20.032807 0.192099 1.430628 0.033113 -0.001253 330737.000000 1 0 0
15.946856 -10.002843 7.995088 20.451908 -0.560224 1.169164 0.067365 -0.037753 198322.000000 1 0 0
14.063456 -4.251443 10.679988 18.163637 -0.293570 0.942228 0.018341 -0.015141 -134677.000000 1 0 0
18.759256 -7.668743 1.765488 20.342966 -0.388068 1.483901 0.069034 -0.016653 203140.000000 1 0 0
19.120256 -5.961743 -1.421412 20.078521 -0.302249 1.641648 0.059737 -0.022283 64039.500000 1 0 0
14.607056 -13.786243 -6.156812 21.007925 -0.756498 1.868234 0.059401 -0.012721 442414.000000 1 0 0
13.716956 -9.490943 10.219288 19.561870 -0.605278 1.021123 0.010693 -0.007729 309066.000000 1 0 0
14.206056 2.273357 0.520288 14.396211 0.158682 1.534648 -0.000861 -0.004752 -109342.000000 1 0 0
13.191556 2.634957 13.416088 18.998726 0.197151 0.786740 0.036516 -0.020117 177758.000000 1 0 0
18.271156 -3.425543 8.722488 20.534150 -0.185332 1.132078 0.055357 -0.029114 244709.000000 1 0 0
7.314656 -18.643443 5.230788 20.698873 -1.196907 1.315317 0.036839 -0.022049 398426.000000 1 0 0
11.693256 -2.383743 15.425088 19.502508 -0.201101 0.658472 -0.003488 0.003683 206465.000000 1 0 0
11.225856 -13.303943 -7.002112 18.762844 -0.869913 1.953242 0.028731 -0.017640 115233.000000 1 0 0
10.680256 -17.816143 4.768688 21.312513 -1.030766 1.345135 0.039387 -0.010881 584039.000000 1 0 0
18.250056 -0.071143 -5.368012 19.023279 -0.003898 1.856863 0.026193 -0.007647 33475.000000 1 0 0
4.343456 -13.553343 11.766588 18.466492 -1.260666 0.879955 0.008581 -0.006582 147108.000000 1 0 0
9.050656 -2.664843 12.867988 15.956218 -0.286345 0.632663 -0.006497 -0.025447 233942.000000 1 0 0
9.215356 -9.348243 14.409988 19.492568 -0.792557 0.738832 0.018012 0.012023 360165.000000 1 0 0
20.994956 5.726457 -2.977312 21.964628 0.266277 1.706765 0.049944 0.006793 627765.000000 1 0 0
14.855256 -13.231043 1.733788 19.968605 -0.727633 1.483861 0.049338 -0.005436 123357.000000 1 0 0
10.612456 0.276557 14.378388 17.872850 0.026054 0.635993 0.000376 -0.028478 162794.000000 1 0 0
18.802456 0.427657 8.058788 20.461166 0.022741 1.165972 0.021068 -0.015752 238868.000000 1 0 0
19.896056 0.329157 0.459488 19.904083 0.016542 1.547709 0.050210 -0.022793 200811.000000 1 0 0
18.057256 0.350557 3.133388 18.330453 0.019411 1.399014 0.034559 -0.010782 -14015.200000 1 0 0
10.175856 -8.279943 16.371388 20.979225 -0.683030 0.675552 0.009364 -0.000977 248820.000000 1 0 0
18.671156 3.241157 5.696188 19.787969 0.171879 1.278804 0.020171 0.002113 144896.000000 1 0 0
14.857256 2.249257 7.069688 16.606556 0.150250 1.131043 0.008935 -0.011169 -7213.170000 1 0 0
11.245456 -16.161843 2.024988 19.793081 -0.962893 1.468309 0.013026 0.008054 221917.000000 1 0 0
8.450856 -16.056843 6.965588 19.436013 -1.086324 1.204258 0.029254 -0.012560 383523.000000 1 0 0
6.386656 6.897857 6.967388 11.701038 0.823860 0.932970 -0.005795 -0.000199 -922802.000000 1 0 0
18.407756 2.321557 -6.417012 19.631942 0.125456 1.903782 0.007858 0.007406 207455.000000 1 0 0
14.049156 4.425957 -7.184512 16.388566 0.305191 2.024598 0.007072 -0.002593 346008.000000 1 0 0
-10.428144 -3.963043 -13.664112 17.639723 0.363176 2.456913 0.017894 -0.003851 -356045.000000 1 0 0
7.650756 -14.445443 -10.069812 19.199115 -1.083726 2.122916 0.018310 -0.003229 71411.700000 1 0 0
1.734156 -15.936143 13.761988 21.127241 -1.462404 0.861387 0.003059 -0.016542 572136.000000 1 0 0
-9.543944 -8.121943 2.606888 12.800340 0.705077 1.365704 -0.001280 -0.002453 521292.000000 1 0 0
-13.851944 2.810057 -9.857812 17.232215 -0.200148 2.179808 0.023381 -0.001475 430985.000000 1 0 0
-13.051844 -4.953543 -13.542712 19.449762 0.362735 2.341015 0.031313 0.002924 24302.000000 1 0 0
-17.990144 -1.427843 -8.770412 20.064998 0.079202 2.023168 0.040923 -0.013505 187859.000000 1 0 0
-12.044344 15.347657 3.905488 19.896473 -0.905413 1.373223 0.012416 -0.017655 319278.000000 1 0 0
-17.157244 6.427357 9.388088 20.586844 -0.358433 1.097274 0.019426 -0.010974 184484.000000 1 0 0
-13.899944 15.363057 -0.589412 20.726296 -0.835355 1.599238 0.049340 -0.016445 421681.000000 1 0 0
-16.107144 5.493657 -10.728812 20.117846 -0.328697 2.133291 0.035858 -0.001672 -109391.000000 1 0 0
-18.387244 2.784557 -0.206212 18.598038 -0.150298 1.581884 0.056842 -0.007313 39397.100000 1 0 0
-9.468644 15.473057 -0.299012 18.142770 -1.021641 1.587278 0.007873 -0.010788 -172886.000000 1 0 0
-18.505644 12.043957 2.215388 22.190622 -0.576956 1.470795 0.098196 -0.020309 -163394.000000 1 0 0
-8.479644 16.523657 -7.711312 20.109697 -1.096659 1.964339 0.048186 -0.021728 94510.600000 1 0 0
-15.232544 -1.940543 -12.924212 20.070659 0.126712 2.270428 0.034729 -0.019058 51810.900000 1 0 0
-18.758444 5.260257 -4.772612 20.058099 -0.273399 1.811040 0.031176 -0.003518 -139014.000000 1 0 0
-16.708244 8.965857 -5.921812 19.865041 -0.492507 1.873500 0.042909 0.000119 33437.300000 1 0 0
-19.025144 1.538857 2.854288 19.299511 -0.080710 1.422357 0.047341 -0.029085 427319.000000 1 0 0
-13.359544 11.982657 -6.887412 19.222328 -0.731120 1.937246 0.032362 -0.013043 -109725.000000 1 0 0
-13.844844 4.605957 -12.345212 19.112791 -0.321166 2.273016 0.059916 -0.024741 158808.000000 1 0 0
-14.126644 9.227157 -6.449812 18.063847 -0.578603 1.935911 0.035553 -0.011377 60100.000000 1 0 0
-6.493644 11.322457 -15.405912 20.191769 -1.050076 2.438707 -0.011408 -0.025906 -268230.000000 1 0 0
-15.086544 13.976857 3.043888 20.789939 -0.747235 1.423857 0.035204 -0.019465 17709.500000 1 0 0
-18.832844 8.462857 -4.558112 21.144085 -0.422327 1.788076 0.064116 -0.008549 207957.000000 1 0 0
-3.496844 16.873057 -10.167812 20.007807 -1.366445 2.103881 0.010124 -0.000296 132212.000000 1 0 0
-19.232244 -2.637343 -6.408112 20.442570 0.136281 1.889640 0.009666 -0.004194 -62092.100000 1 0 0
-10.341344 13.852457 -6.316612 18.404715 -0.929516 1.921125 0.015150 -0.013245 -96017.500000 1 0 0
-19.747244 3.301157 4.592288 20.541188 -0.165639 1.345326 0.079017 -0.018273 -5649.170000 1 0 0
-15.097444 12.437957 0.466488 19.566635 -0.689113 1.546953 0.029420 -0.011857 41400.400000 1 0 0
-17.201644 2.299057 -8.284512 19.230584 -0.132866 2.016174 -0.010144 -0.005078 265628.000000 1 0 0
-16.611944 12.218057 -4.888812 21.192878 -0.634155 1.803575 0.052543 -0.015518 253095.000000 1 0 0
-10.447444 15.715757 -8.842412 20.840401 -0.984104 2.008976 0.031186 -0.012547 162982.000000 1 0 0
-19.358544 1.581857 -6.658912 20.532818 -0.081532 1.901074 0.039841 -0.009786 207378.000000 1 0 0
-17.041144 10.444257 -0.423012 19.991549 -0.549840 1.591957 0.038816 -0.008805 -25350.300000 1 0 0
-11.289444 6.179357 -14.479912 19.372760 -0.500812 2.414992 0.006660 -0.017782 302928.000000 1 0 0
-13.908244 13.355457 -5.104712 19.946567 -0.765125 1.829595 0.051527 -0.003224 226452.000000 1 0 0
-18.928244 7.530457 0.097888 20.371445 -0.378645 1.565991 0.063183 -0.011938 133266.000000 1 0 0
-14.605444 8.978357 -10.161112 19.929327 -0.551178 2.105815 0.030866 -0.013900 459531.000000 1 0 0
-18.446844 11.452657 4.632188 22.201499 -0.555607 1.360609 0.057511 -0.020130 208480.000000 1 0 0
-7.943644 12.139157 -13.714512 19.963678 -0.991347 2.328112 -0.015670 0.003903 318984.000000 1 0 0
-21.278444 -1.777543 -4.940412 21.916649 0.083344 1.798169 0.034036 -0.017109 387915.000000 1 0 0
-10.694344 13.257457 -3.300912 17.350077 -0.892004 1.762217 0.021604 -0.004562 546310.000000 1 0 0
-18.735844 -4.577143 3.545588 19.610030 0.239606 1.388992 0.035317 -0.017974 -95152.500000 1 0 0
-10.561844 11.161457 -13.616512 20.531440 -0.812993 2.295887 0.001046 -0.006769 221375.000000 1 0 0
-14.825344 11.431657 -10.371212 21.401767 -0.656862 2.076698 0.042058 -0.012561 171132.000000 1 0 0
-13.024844 9.635157 -13.283512 20.950763 -0.636910 2.257556 0.050113 -0.023884 29314.500000 1 0 0
-18.467744 -4.933443 -2.612012 19.292979 0.261043 1.706600 0.010725 -0.008177 -507420.000000 1 0 0
-9.184244 12.709357 -11.701312 19.565244 -0.945039 2.211882 0.011073 -0.004397 109153.000000 1 0 0
-15.917444 7.430357 -8.279512 19.419720 -0.436741 2.011245 0.026113 0.002126 -52264.800000 1 0 0
-14.352844 8.780757 2.114388 16.958079 -0.549035 1.445788 0.021613 -0.007159 -98212.400000 1 0 0
-19.853344 6.212457 7.991288 22.284761 -0.303265 1.204030 0.075808 -0.018201 317202.000000 1 0 0
-18.836144 5.916057 3.380288 20.030636 -0.304324 1.401229 0.048976 -0.009128 171185.000000 1 0 0
-14.609744 12.765757 5.707388 20.223339 -0.718141 1.284691 0.024005 -0.022498 -50388.700000 1 0 0
17.843056 6.072957 5.574088 19.655175 0.328056 1.283256 0.022733 -0.008686 192567.000000 1 0 0
18.316956 6.961857 0.401288 19.599473 0.363214 1.550320 0.033322 -0.009154 48761.200000 1 0 0
16.745956 4.363557 8.731088 19.382971 0.254905 1.103525 0.021483 -0.005370 -56895.500000 1 0 0
12.682656 12.495057 11.082588 20.971408 0.777947 1.014009 0.061685 -0.012510 239034.000000 1 0 0
15.107356 12.506557 4.312088 20.080843 0.691491 1.354374 0.032958 -0.005345 224322.000000 1 0 0
5.175456 10.525257 14.433988 18.598559 1.113796 0.682369 0.022883 -0.005145 266319.000000 1 0 0
13.403156 13.224757 -4.794512 19.430031 0.778699 1.820129 0.050816 -0.009722 262328.000000 1 0 0
17.908456 9.491557 -2.608812 20.435468 0.487362 1.698807 0.027947 -0.004051 -47586.600000 1 0 0
14.536056 7.598157 9.599988 19.004965 0.481651 1.041263 0.021215 -0.007336 59294.900000 1 0 0
4.756956 19.221257 -1.855412 19.887883 1.328187 1.664226 0.008318 -0.013878 522415.000000 1 0 0
-4.640144 19.836357 3.720188 20.708737 -1.341007 1.390172 0.006355 0.016985 322014.000000 1 0 0
6.568356 12.802757 12.617288 19.137655 1.096769 0.850921 0.027001 -0.000965 -114251.000000 1 0 0
0.744456 16.686057 -10.216212 19.579318 1.526210 2.119739 0.010613 -0.003264 48763.200000 1 0 0
10.766656 9.511957 15.427788 21.081149 0.723604 0.749795 0.062499 -0.013827 274546.000000 1 0 0
-1.183844 12.110257 0.946488 12.204738 -1.473350 1.493167 -0.004688 -0.001177 431192.000000 1 0 0
-4.561444 19.095157 -2.579812 19.801192 -1.336311 1.701453 0.011101 0.000298 158483.000000 1 0 0
6.644156 17.825757 6.179888 20.002336 1.214019 1.256699 0.025795 -0.034978 -211514.000000 1 0 0
10.980156 17.618357 -1.682312 20.827878 1.013476 1.651657 0.030106 -0.004808 404325.000000 1 0 0
18.345356 10.607657 3.013588 21.404583 0.524251 1.429535 0.034980 -0.004468 346140.000000 1 0 0
11.505556 16.967857 6.201888 21.418436 0.974934 1.277031 0.029442 0.005896 -204214.000000 1 0 0
17.990956 7.313557 -5.207712 20.106787 0.386108 1.832786 0.001668 0.016448 319569.000000 1 0 0
-0.060344 15.174657 11.103788 18.803403 -1.566820 0.939093 0.004405 -0.005296 319215.000000 1 0 0
1.096556 19.922557 -1.857812 20.039016 1.515811 1.663639 0.009924 -0.028832 161551.000000 1 0 0
14.706156 9.741557 -1.361812 17.692470 0.585052 1.647844 0.021060 -0.001533 77929.600000 1 0 0
10.258856 17.024957 2.374088 20.018231 1.028484 1.451920 0.037003 -0.023662 312766.000000 1 0 0
0.326356 17.722557 -0.450112 17.731275 1.552384 1.596184 -0.001132 -0.006500 66145.000000 1 0 0
-0.169744 21.041257 1.111788 21.071292 -1.562729 1.518009 0.013790 -0.006847 242613.000000 1 0 0
6.066156 17.223057 -0.320012 18.262922 1.232153 1.588320 0.006635 -0.026745 70046.600000 1 0 0
6.856556 18.638557 -2.824412 20.059548 1.218292 1.712067 -0.002439 -0.015405 31059.400000 1 0 0
10.502856 9.586557 12.798188 19.131275 0.739819 0.837978 0.030521 -0.003907 116338.000000 1 0 0
12.201256 14.609357 8.256988 20.748055 0.874977 1.161499 0.024964 -0.009807 304999.000000 1 0 0
0.404656 17.538657 6.821088 18.822738 1.547728 1.199970 0.006371 -0.009112 240230.000000 1 0 0
7.222056 17.925657 -7.912012 20.882701 1.187802 1.959381 0.011222 -0.010703 134120.000000 1 0 0
-0.508844 18.390957 9.439088 20.678070 -1.543135 1.096763 0.014170 -0.012788 -20849.800000 1 0 0
16.276656 6.774457 -7.782812 19.271610 0.394399 1.986516 0.028019 0.007129 -158047.000000 1 0 0
-4.591744 20.125457 -6.429512 21.620748 -1.346480 1.872740 -0.003242 -0.002696 231006.000000 1 0 0
4.008056 15.976057 9.923388 19.229470 1.324991 1.028562 0.009812 -0.001987 265520.000000 1 0 0
8.918656 15.042857 7.573588 19.057523 1.035626 1.162107 0.015646 -0.006202 550.891000 1 0 0
-2.601444 19.333857 6.524688 20.570296 -1.437046 1.248032 0.013845 -0.009119 120735.000000 1 0 0
4.768356 18.039057 7.814788 20.229080 1.312372 1.174164 0.017330 -0.019714 175697.000000 1 0 0
13.525756 11.297857 -6.656112 18.838563 0.695889 1.931918 -0.058212 -0.023087 -72166.100000 1 0 0
11.887856 6.777257 15.652388 20.790613 0.518143 0.718402 0.061817 -0.011977 237216.000000 1 0 0
17.148456 9.119757 5.060688 20.071125 0.488772 1.315908 0.042842 -0.008357 141260.000000 1 0 0
4.983656 14.816557 11.778088 19.572699 1.246327 0.925092 0.012484 -0.028175 469441.000000 1 0 0
16.195756 11.544557 -4.746712 20.447752 0.619274 1.805072 0.048997 0.027104 37100.200000 1 0 0
15.380256 13.788657 6.980688 21.803884 0.730887 1.244900 0.049334 0.004477 528333.000000 1 0 0
12.745056 14.344557 -7.595612 20.637250 0.844374 1.947711 0.068695 -0.022111 428033.000000 1 0 0
-8.064944 15.475357 9.587988 19.911291 -1.090374 1.068391 0.006141 -0.013744 161625.000000 1 0 0
-4.459244 17.893157 -7.977212 20.091934 -1.326557 1.979081 0.001772 0.048127 64014.000000 1 0 0
2.302556 19.378957 -4.615112 20.053553 1.452533 1.803017 0.002909 -0.026780 -37212.500000 1 0 0
7.010656 16.310057 9.145188 19.970020 1.164836 1.095113 0.019959 -0.013994 558358.000000 1 0 0
13.331656 15.548957 -1.375012 20.527878 0.862023 1.637829 0.049287 -0.015700 146398.000000 1 0 0
13.103556 16.634757 4.497988 21.648330 0.903587 1.361496 0.052667 -0.018151 111881.000000 1 0 0
2.294956 18.537257 0.779488 18.695034 1.447621 1.529089 0.004535 -0.014982 -127167.000000 1 0 0
-6.491044 17.922657 1.396788 19.112987 -1.223321 1.497651 -0.030654 0.019304 215499.000000 1 0 0
0.400556 20.042157 -6.006812 20.926784 1.550813 1.861931 0.016687 -0.002395 153273.000000 1 0 0
-7.037744 17.970357 -6.375712 20.325188 -1.197526 1.889868 0.028520 -0.017768 -20874.900000 1 0 0
-7.377544 18.468757 -1.204312 19.924194 -1.190755 1.631278 0.024705 -0.006806 146685.000000 1 0 0
-14.657444 -9.127143 8.647488 19.311252 0.556941 1.106498 0.047811 -0.017221 551691.000000 1 0 0
-13.012444 -13.813543 7.603088 20.443694 0.815252 1.189737 0.027228 -0.004647 61661.900000 1 0 0
-3.389344 -15.920743 12.885788 20.760570 1.361039 0.901179 0.006886 -0.001326 -104416.000000 1 0 0
-1.773144 -15.080143 15.388888 21.618803 1.453752 0.778698 0.011815 -0.007901 568253.000000 1 0 0
-7.674944 -13.480043 13.611788 20.637275 1.053214 0.850546 0.014279 -0.017282 221387.000000 1 0 0
-9.797144 -10.982943 11.783088 18.853388 0.842401 0.895684 0.027252 -0.015041 -181354.000000 1 0 0
-7.043744 -10.113243 12.929388 17.862282 0.962432 0.761448 0.014678 -0.021809 293635.000000 1 0 0
-15.036744 -11.973143 8.195588 20.895634 0.672456 1.167758 0.036374 0.008126 356046.000000 1 0 0
-4.484144 -12.432743 13.145788 18.641148 1.224646 0.788087 0.014537 -0.022914 455508.000000 1 0 0
3.668756 -12.482743 14.137188 19.212984 -1.284939 0.743928 0.002220 0.000822 464004.000000 1 0 0
6.882056 -13.477943 14.789088 21.159745 -1.098692 0.796902 0.026331 -0.001572 258731.000000 1 0 0
7.102156 -9.053043 16.734888 20.308981 -0.905575 0.602336 0.008448 -0.000804 597622.000000 1 0 0
-5.054444 13.313357 13.665488 19.736728 -1.207953 0.806002 0.001459 0.001001 368072.000000 1 0 0
-13.661744 -1.772743 17.343488 22.149096 0.129039 0.671268 0.041596 -0.007467 341804.000000 1 0 0
-10.453344 9.696657 12.604188 19.030584 -0.747863 0.846896 0.021750 -0.008045 514204.000000 1 0 0
-7.361144 -8.340343 17.041288 20.350756 0.847681 0.578326 0.020511 -0.018801 182006.000000 1 0 0
-4.852744 2.050557 18.401188 19.140471 -0.399799 0.278838 0.008413 -0.001731 531273.000000 1 0 0
-15.606444 -3.708443 14.584388 21.679899 0.233296 0.832925 0.043876 -0.006884 56992.300000 1 0 0
-14.621944 2.735757 12.193388 19.234457 -0.184961 0.884166 0.024237 -0.004050 311384.000000 1 0 0
-14.401444 10.853857 9.419388 20.345335 -0.645842 1.089447 -0.018963 -0.000376 -67290.600000 1 0 0
-4.377044 11.397757 15.874188 20.026413 -1.204135 0.655632 0.009537 -0.000524 236702.000000 1 0 0
-12.838344 12.987357 7.194788 19.628028 -0.791168 1.195491 0.007414 -0.045121 -26805.700000 1 0 0
-4.184544 -6.787843 18.832188 20.450832 1.018350 0.400537 0.021984 -0.006911 195850.000000 1 0 0
0.440556 -2.882043 17.968088 18.203089 -1.419108 0.160859 0.014659 -0.013233 281875.000000 1 0 0
-4.252844 6.540157 21.295788 22.679747 -0.994234 0.351149 0.012421 -0.000983 209889.000000 1 0 0
2.078256 -10.560743 16.466988 19.672574 -1.376489 0.578922 0.004589 -0.011579 259676.000000 1 0 0
-15.180844 -0.356643 13.749588 20.485029 0.023489 0.834967 0.018158 0.002795 98522.100000 1 0 0
-13.707344 -5.793943 7.712688 16.761462 0.399912 1.092639 0.022445 -0.008922 103525.000000 1 0 0
10.052256 0.731657 16.633288 19.448636 0.072657 0.544779 0.019866 0.000682 684017.000000 1 0 0
-7.635244 12.372357 12.363388 19.084694 -1.017883 0.866081 0.012752 -0.000995 129330.000000 1 0 0
-1.795644 7.740157 20.140688 21.651367 -1.342838 0.375765 0.017706 -0.007759 527670.000000 1 0 0
1.050256 -13.062043 15.336888 20.172758 -1.490564 0.707057 -0.007871 -0.031033 476047.000000 1 0 0
-3.434144 -11.756543 17.972688 21.749188 1.286598 0.598181 0.022975 -0.017171 461790.000000 1 0 0
-2.362344 8.771457 17.055288 19.323612 -1.307717 0.489403 0.014673 -0.005919 575501.000000 1 0 0
-4.919144 -9.530043 20.639688 23.259760 1.094295 0.479217 0.051680 -0.021534 216539.000000 1 0 0
-6.729544 -3.062343 19.131388 20.510357 0.427054 0.368782 0.018295 -0.014824 -302658.000000 1 0 0
-10.851044 -8.038343 16.133388 21.039162 0.637581 0.696914 0.058287 -0.023640 148784.000000 1 0 0
-0.577944 6.117957 17.605288 18.646973 -1.476609 0.335832 0.017984 -0.021817 7440.890000 1 0 0
-6.041544 -11.412243 18.818188 22.822440 1.083913 0.601394 0.037682 -0.026354 411313.000000 1 0 0
0.350456 3.427357 18.941088 19.251868 1.468898 0.179925 0.016564 -0.004827 98182.300000 1 0 0
-18.440344 -0.367843 7.689988 19.982931 0.019945 1.175775 0.043036 -0.019774 2789.350000 1 0 0
-1.718744 -8.691243 17.613288 19.715976 1.375560 0.466048 0.006597 -0.010623 204464.000000 1 0 0
5.760256 3.475557 14.886388 16.335991 0.542893 0.424455 0.004041 -0.006180 330667.000000 1 0 0
-14.289344 -6.948543 10.230088 18.897680 0.452607 0.998765 0.057441 -0.009942 258861.000000 1 0 0
3.635256 8.344957 16.687688 19.008744 1.159962 0.499347 0.021107 -0.014001 132692.000000 1 0 0
6.178256 4.590757 17.428488 19.052509 0.639039 0.415881 0.026004 -0.029734 217095.000000 1 0 0
3.984756 -9.733843 17.763488 20.643825 -1.182237 0.534596 -0.013252 -0.008981 374727.000000 1 0 0
-4.700844 -0.701343 19.879588 20.439859 0.148103 0.234678 0.021983 -0.007044 816606.000000 1 0 0
-11.282344 2.033657 16.914588 20.433559 -0.178336 0.595649 0.035400 -0.004349 234930.000000 1 0 0
-16.800744 -4.240443 8.661588 19.371873 0.247233 1.107251 0.038448 -0.019299 441125.000000 1 0 0
-13.149044 -9.508043 11.947788 20.150680 0.626060 0.936113 0.035822 -0.031927 112183.000000 1 0 0
-14.842744 6.329357 13.077888 20.770146 -0.403079 0.889696 0.033133 -0.006368 440105.000000 1 0 0
1.117356 9.085457 16.868888 19.192535 1.448428 0.497183 0.009060 -0.029349 246751.000000 1 0 0
-3.823744 -10.294743 15.074488 18.650549 1.215162 0.629606 0.017482 -0.019130 482400.000000 1 0 0
-18.512444 -2.938243 6.548188 19.855040 0.157404 1.234705 0.093300 -0.020977 -245382.000000 1 0 0
-0.881744 -0.549543 20.927488 20.953263 0.557337 0.049606 0.029872 -0.015199 355482.000000 1 0 0
-1.884644 2.891157 20.366688 20.657025 -0.993111 0.167858 0.022609 -0.009183 148397.000000 1 0 0
-8.030344 2.154657 16.354688 18.346793 -0.262140 0.470328 0.002320 0.013496 594496.000000 1 0 0
2.948956 -1.640443 19.104288 19.400032 -0.507651 0.174833 0.019714 0.006058 -37349.300000 1 0 0
-12.348644 4.454557 14.214188 19.348779 -0.346204 0.745676 0.004752 -0.000895 148029.000000 1 0 0
-13.299344 -5.594943 13.447388 19.723291 0.398217 0.820573 0.026969 -0.009231 44767.600000 1 0 0
-17.523244 -0.625743 9.818688 20.096325 0.035694 1.060333 0.050329 -0.014797 -220139.000000 1 0 0
-7.290944 7.765757 14.984688 18.384932 -0.816923 0.617976 0.004977 -0.001568 24746.000000 1 0 0
-9.451644 0.804257 14.307888 17.166714 -0.084887 0.585444 0.008586 0.002131 91743.800000 1 0 0
7.209656 -0.869843 15.128488 16.781148 -0.120069 0.447534 -0.008179 -0.007519 230445.000000 1 0 0
4.044856 6.506257 18.391288 19.923145 1.014583 0.394701 0.022494 -0.007961 34452.900000 1 0 0
1.712556 0.538057 20.176788 20.256484 0.304418 0.088735 0.021285 -0.001190 259830.000000 1 0 0
-7.239544 6.918657 17.568088 20.221685 -0.762738 0.518074 0.012094 -0.005819 706864.000000 1 0 0
7.455956 -3.120443 17.134688 18.945342 -0.396367 0.440760 -0.006452 0.013646 429643.000000 1 0 0
-16.375844 2.689157 9.198988 18.974225 -0.162762 1.064645 0.031155 -0.010970 181147.000000 1 0 0
4.346956 -5.470843 19.085788 20.324701 -0.899376 0.350957 0.026386 -0.010316 121829.000000 1 0 0
-3.873944 -3.870843 20.601588 21.317043 0.784998 0.259815 0.025940 -0.016508 314322.000000 1 0 0
-9.480144 5.710557 14.682888 18.386702 -0.542160 0.645897 0.006702 0.005638 -293547.000000 1 0 0
6.724556 2.950757 19.747388 21.068601 0.413504 0.356024 0.034055 -0.020239 205175.000000 1 0 0
-7.529944 11.006457 14.739388 19.876914 -0.970795 0.735444 0.025734 -0.016232 172202.000000 1 0 0
-14.552544 4.788157 8.971588 17.753658 -0.317868 1.041023 0.017433 -0.010611 115365.000000 1 0 0
0.647556 -5.689343 20.528588 21.312224 -1.457465 0.272018 0.017071 -0.006451 228075.000000 1 0 0
-5.983844 -8.235943 13.702388 17.070226 0.942471 0.638976 0.008151 -0.006774 314342.000000 1 0 0
-12.804144 10.145657 6.149488 17.455562 -0.670073 1.210775 -0.010561 -0.020900 56734.200000 1 0 0
-19.498344 1.722357 7.712688 21.038952 -0.088105 1.195454 0.033545 -0.025969 -30585.800000 1 0 0
-15.764044 9.064657 6.238188 19.224674 -0.521850 1.240325 0.018018 -0.012655 57653.900000 1 0 0
-13.065244 7.664357 14.296488 20.828647 -0.530524 0.814289 0.024437 -0.004480 188246.000000 1 0 0
-16.620344 8.967057 10.529588 21.622122 -0.494764 1.062165 0.033579 -0.018096 502637.000000 1 0 0
2.348756 10.708457 14.232088 17.964967 1.354879 0.656369 0.004987 -0.052043 443412.000000 1 0 0
1.581256 14.663257 12.958388 19.632404 1.463373 0.849910 0.005534 -0.021918 466895.000000 1 0 0
8.778356 5.068557 16.605388 19.454787 0.523630 0.548059 0.030755 -0.010534 -2765.060000 1 0 0
-0.528544 13.399957 13.326488 18.905911 -1.531373 0.788536 -0.000825 0.003423 214872.000000 1 0 0
3.912856 12.613357 14.790288 19.828259 1.269994 0.728882 0.020759 -0.007896 87073.900000 1 0 0
-3.584644 -4.580543 -13.725512 14.907069 0.906768 2.740765 -0.001942 -0.002006 95786.100000 1 0 0
5.872156 -12.157543 16.886888 21.620710 -1.120837 0.674448 -0.016356 0.019433 199831.000000 1 0 0
8.756956 -13.827643 7.121588 17.849511 -1.006255 1.160393 0.018164 -0.005691 424585.000000 1 0 0
-0.258144 15.169157 0.442188 15.177796 -1.553780 1.541658 -0.006749 -0.004293 -248679.000000 1 0 0
-14.103244 8.444957 8.314688 18.421531 -0.539533 1.102511 0.006056 -0.002042 17800.600000 1 0 0
-15.878544 -9.843043 5.594188 19.501503 0.554920 1.279850 0.027438 -0.012667 139537.000000 1 0 0
9.743156 -10.120843 11.652488 18.252152 -0.804410 0.878356 0.036754 0.004763 -52978.800000 1 0 0
-24.939744 6.206957 31.338980 40.529604 -0.243922 0.686867 0.050759 -0.023682 -988730.000000 0 0 1
-23.965544 5.289657 31.082530 39.603680 -0.217236 0.668359 0.035649 -0.015408 -1127640.000000 0 0 1
-23.067444 5.335857 32.166030 39.940353 -0.227317 0.634528 0.026785 -0.011725 -7059.190000 0 0 1
-21.767644 4.573857 31.804260 38.810584 -0.207109 0.610304 0.033557 -0.009955 9657.070000 0 0 1
-21.968144 3.155457 31.879300 38.843867 -0.142662 0.608155 0.006718 -0.007062 616742.000000 0 0 1
-20.669044 2.554457 31.968860 38.154196 -0.122965 0.577398 0.019258 -0.003308 579258.000000 0 0 1
-20.417244 1.391957 32.934264 38.774568 -0.068070 0.555991 0.012172 -0.004139 -245136.000000 0 0 1
-21.043044 0.261857 32.395918 38.631254 -0.012443 0.576100 0.021112 -0.000918 -3598.360000 0 0 1
-21.235744 -0.773743 33.306992 39.508369 0.036420 0.567893 0.016029 0.003596 -304121.000000 0 0 1
-21.766444 -2.000243 32.603556 39.252655 0.091638 0.590598 0.024902 -0.023745 -484231.000000 0 0 1
-20.802644 -2.765743 31.886160 38.172327 0.132176 0.582079 0.045477 -0.028820 144263.000000 0 0 1
-20.850644 -4.156643 32.163790 38.555628 0.196774 0.584084 0.055436 -0.033160 -469920.000000 0 0 1
-22.163244 -4.844743 31.709190 38.989148 0.215208 0.621025 0.050902 -0.022689 641516.000000 0 0 1
-23.312644 -4.491143 32.497238 40.245748 0.190317 0.630946 0.046484 -0.017577 404047.000000 0 0 1
-23.470444 -5.088643 33.795282 41.459343 0.213506 0.617821 0.037090 -0.016531 -812247.000000 0 0 1
-24.760844 -4.648643 -33.966282 42.289686 0.185581 2.503412 0.026269 -0.007313 -260838.000000 0 0 1
-24.805744 -5.065043 -32.589262 41.267900 0.201420 2.481116 0.023321 -0.009649 66678.400000 0 0 1
-25.878894 -4.502643 -31.854582 41.288077 0.172265 2.452023 0.007581 -0.005217 -93791.600000 0 0 1
-25.858624 -5.023743 -30.390272 40.217845 0.191887 2.427429 -0.007334 0.002574 -907010.000000 0 0 1
-26.212204 -6.396043 -30.274112 40.552569 0.239333 2.413643 0.008142 -0.003164 546063.000000 0 0 1
-26.079134 -6.974943 -28.960882 39.591713 0.261336 2.391299 -0.014317 -0.002264 -206095.000000 0 0 1
-26.247274 -8.514043 -28.963462 40.003630 0.313669 2.380410 -0.000892 -0.001558 -164221.000000 0 0 1
-27.618464 -8.816543 -28.979372 40.991645 0.309001 2.355984 0.015218 -0.003399 -353902.000000 0 0 1
-27.858354 -10.223743 -28.880032 41.408562 0.351730 2.342617 0.023497 -0.007927 791475.000000 0 0 1
-29.300974 -10.629743 -28.415052 42.177644 0.348013 2.310000 0.065213 -0.013938 821708.000000 0 0 1
-29.351534 -11.596443 -27.359082 41.767324 0.376265 2.285026 0.084506 -0.015963 -824620.000000 0 0 1
-30.641454 -11.722543 -26.861242 42.400979 0.365392 2.256871 0.083242 -0.015970 -488388.000000 0 0 1
-30.671914 -12.510743 -25.522412 41.817203 0.387289 2.227277 0.082055 -0.009596 915643.000000 0 0 1
-29.694974 -11.979743 -24.553912 40.350964 0.383457 2.224976 0.072287 -0.012841 1141710.000000 0 0 1
-29.921614 -12.456643 -23.263812 39.895813 0.394487 2.193353 0.071253 -0.013945 -466201.000000 0 0 1
-29.136724 -11.779043 -22.155112 38.451834 0.384180 2.184841 0.073771 -0.017191 -351344.000000 0 0 1
-29.186334 -12.326343 -20.876512 37.942187 0.399609 2.153423 0.076845 -0.014620 81134.600000 0 0 1
-28.131854 -13.218343 -20.612412 37.296076 0.439255 2.156361 0.069789 -0.013323 -561277.000000 0 0 1
-27.995204 -13.573943 -19.137112 36.526873 0.451468 2.122241 0.047204 -0.016632 -43884.200000 0 0 1
-27.706484 -12.409843 -18.361412 35.479500 0.421109 2.114748 0.038651 -0.016656 251612.000000 0 0 1
-27.370154 -12.683743 -16.985912 34.619703 0.433954 2.083624 0.037228 -0.018237 -158649.000000 0 0 1
-27.214364 -11.405043 -16.247212 33.684841 0.396847 2.074109 0.040504 -0.013325 -929281.000000 0 0 1
-25.906294 -10.945443 -16.364712 32.538325 0.399752 2.097789 0.046564 -0.016136 -379600.000000 0 0 1
-25.723754 -9.699643 -15.739112 31.678293 0.360584 2.090753 0.056559 -0.022474 206197.000000 0 0 1
-24.284644 -9.195743 -16.069112 30.537223 0.361980 2.124938 0.076119 -0.026546 580044.000000 0 0 1
-23.288844 -9.735343 -15.223212 29.476997 0.395949 2.113489 0.065749 -0.031021 45325.400000 0 0 1
-22.083244 -9.013243 -15.262212 28.316838 0.387511 2.140022 0.101841 -0.044996 282194.000000 0 0 1
-20.973744 -9.536543 -14.304212 27.119256 0.426747 2.126400 0.061940 -0.019784 -104342.000000 0 0 1
-20.171144 -10.585143 -14.745212 27.135614 0.483264 2.145266 0.048182 -0.021373 550526.000000 0 0 1
-19.049844 -10.698643 -13.842412 25.864452 0.511716 2.135530 0.048577 -0.013293 505672.000000 0 0 1
-18.100244 -11.816543 -14.373212 25.958404 0.578368 2.157599 0.040194 -0.014879 -705172.000000 0 0 1
-17.312944 -11.463243 -15.443512 25.877520 0.584848 2.210294 0.050068 -0.029833 -696842.000000 0 0 1
-17.891544 -11.687343 -16.691312 27.116438 0.578644 2.233870 0.051384 -0.030466 -344877.000000 0 0 1
-17.097244 -11.164143 -17.901712 27.155573 0.578467 2.290588 0.042174 -0.026613 -219784.000000 0 0 1
-17.902244 -11.355143 -19.011212 28.475530 0.565249 2.301822 0.040383 -0.024901 41214.100000 0 0 1
-17.356744 -10.756443 -20.110012 28.659557 0.554799 2.348558 0.044482 -0.024959 -519174.000000 0 0 1
-18.225444 -11.045743 -21.309412 30.137456 0.544865 2.356148 0.056078 -0.027974 -366458.000000 0 0 1
-19.489744 -10.444943 -21.245612 30.664686 0.491969 2.336211 0.054099 -0.033163 -366208.000000 0 0 1
-20.387544 -10.983543 -22.183312 32.068512 0.494156 2.334702 0.051622 -0.024590 -34884.300000 0 0 1
-21.603344 -10.066343 -22.373312 32.689460 0.436049 2.324604 0.046623 -0.022961 -262393.000000 0 0 1
-21.282444 -8.931243 -23.134612 32.679042 0.397333 2.357365 0.041340 -0.029026 -314823.000000 0 0 1
-22.309644 -8.612743 -24.018912 33.894065 0.368427 2.358374 0.028723 -0.029380 -577333.000000 0 0 1
-21.925344 -7.843643 -25.292212 34.379346 0.343556 2.397467 0.020974 -0.027385 -344483.000000 0 0 1
-21.061444 -8.608743 -26.086532 34.615055 0.388022 2.424346 0.030522 -0.026440 -326721.000000 0 0 1
-20.636444 -7.827643 -27.132742 34.975999 0.362545 2.458704 0.023197 -0.023223 17384.600000 0 0 1
-19.362044 -8.327743 -27.877852 34.948743 0.406188 2.494232 0.061556 -0.024750 164857.000000 0 0 1
-19.550244 -9.412843 -28.825412 36.079329 0.448714 2.496336 0.066509 -0.026355 690221.000000 0 0 1
-18.267644 -9.876343 -29.257862 35.878565 0.495634 2.524336 0.047756 -0.019354 505744.000000 0 0 1
-18.357044 -11.118443 -30.152162 37.010184 0.544583 2.523006 0.043352 -0.021477 -111878.000000 0 0 1
-18.868644 -10.739743 -31.422552 38.193515 0.517453 2.536975 0.040640 -0.013422 287467.000000 0 0 1
-19.122444 -11.957143 -32.123112 39.249655 0.558810 2.529470 0.034669 -0.012080 -188606.000000 0 0 1
-19.855544 -11.801643 -33.452532 40.652101 0.536273 2.537289 0.023518 -0.011829 -163001.000000 0 0 1
-19.111744 -11.203643 33.964337 40.550667 0.530224 0.577962 0.024423 -0.010782 -54220.600000 0 0 1
-19.843944 -11.216343 32.738516 39.892342 0.514459 0.608211 0.041647 -0.019947 132578.000000 0 0 1
-19.300144 -12.244743 31.742030 39.115033 0.565357 0.624074 0.042346 -0.016997 777906.000000 0 0 1
-17.895044 -11.981543 31.494140 38.153255 0.589993 0.599772 0.045000 -0.015545 1062310.000000 0 0 1
-17.399944 -12.728043 30.408900 37.275493 0.631555 0.616706 0.042692 -0.013033 160168.000000 0 0 1
-17.170344 -14.283843 30.611610 37.893529 0.693886 0.630332 0.040058 -0.005841 -1213430.000000 0 0 1
-18.403544 -14.943343 30.437560 38.580293 0.682004 0.661713 0.037094 -0.008615 35858.000000 0 0 1
-18.340144 -16.337343 30.766280 39.367927 0.727707 0.673720 0.043276 -0.010631 -216870.000000 0 0 1
-18.618944 -16.675443 32.231110 40.787007 0.730388 0.659612 0.020029 -0.016982 50084.600000 0 0 1
-17.577944 -16.313943 33.136702 40.904399 0.748120 0.626472 0.033547 -0.013292 406791.000000 0 0 1
-18.147844 -16.057643 -34.021132 41.768763 0.724367 2.522683 0.024837 -0.016918 233475.000000 0 0 1
-17.019244 -15.465543 -33.205412 40.391052 0.737606 2.535883 0.040215 -0.015565 -180212.000000 0 0 1
-16.530944 -14.180943 -33.586152 40.029999 0.709029 2.566284 0.040354 -0.017174 529099.000000 0 0 1
-15.320444 -13.808443 -32.888382 38.820546 0.733537 2.581470 0.043288 -0.014697 785321.000000 0 0 1
-15.445944 -13.549143 -31.360052 37.491456 0.720073 2.561585 0.061238 -0.021571 -342070.000000 0 0 1
-15.535344 -14.704843 -30.612492 37.345736 0.757942 2.531692 0.052548 -0.022740 -172228.000000 0 0 1
-16.036544 -14.407343 -29.304462 36.379854 0.731934 2.507338 0.037250 -0.020731 -66033.300000 0 0 1
-16.101844 -15.618443 -28.377762 36.173229 0.770160 2.472680 0.043033 -0.018032 1160310.000000 0 0 1
-14.798444 -16.058643 -27.911952 35.439399 0.826215 2.477695 0.060151 -0.030644 971632.000000 0 0 1
-14.139144 -16.872043 -28.886122 36.317892 0.873297 2.490412 0.060779 -0.028233 -234294.000000 0 0 1
-12.772044 -17.369043 -28.320532 35.592995 0.936748 2.490921 0.071445 -0.026952 107014.000000 0 0 1
-11.806044 -16.347443 -28.404002 34.834019 0.945329 2.524233 0.063632 -0.025144 -1326410.000000 0 0 1
-10.622844 -16.735843 -27.829982 34.167838 1.005226 2.522677 0.085158 -0.029342 -1010390.000000 0 0 1
-9.446544 -15.832143 -28.159282 33.657675 1.032830 2.561912 0.071120 -0.025772 -317058.000000 0 0 1
-9.476044 -14.540643 -27.548162 32.559590 0.993231 2.579393 0.057840 -0.017729 -97858.700000 0 0 1
-8.165144 -14.004043 -27.579372 31.990695 1.042929 2.610208 0.059155 -0.017756 127993.000000 0 0 1
-8.106844 -12.506443 -27.925902 31.654194 0.995678 2.651349 0.048360 -0.020013 -154645.000000 0 0 1
-8.355444 -12.172543 -29.243682 32.759383 0.969245 2.674056 0.070049 -0.017450 121154.000000 0 0 1
-8.028844 -10.848943 -29.603122 32.534700 0.933689 2.713824 0.056699 -0.016602 -236370.000000 0 0 1
-6.860644 -10.578343 -30.558332 33.057245 0.995437 2.750273 0.043585 -0.002565 13290.400000 0 0 1
-5.587644 -10.759643 -29.939362 32.301038 1.091816 2.756824 0.038874 -0.001933 1328320.000000 0 0 1
-4.430744 -10.358143 -30.726572 32.726821 1.166595 2.790160 0.043328 -0.006005 940396.000000 0 0 1
-4.246644 -8.909043 -31.206882 32.730330 1.125989 2.835289 0.031478 -0.006864 -681737.000000 0 0 1
-3.121344 -8.654443 -32.051452 33.345730 1.224653 2.862066 0.024506 -0.011391 309467.000000 0 0 1
-3.003544 -7.260943 -32.150782 33.097059 1.178572 2.901892 0.011258 -0.014897 -132751.000000 0 0 1
-1.595144 -6.915143 -32.650292 33.412651 1.344088 2.927566 0.014550 -0.017408 -73073.300000 0 0 1
-1.481444 -7.160843 -34.061272 34.837373 1.366793 2.930117 0.017850 -0.020970 275403.000000 0 0 1
-0.253244 -6.510343 34.035070 34.653062 1.531917 0.189140 0.019641 -0.015923 778848.000000 0 0 1
0.488656 -7.207543 32.854655 33.639498 -1.503102 0.216436 0.014965 -0.010300 -51620.300000 0 0 1
-0.152544 -6.940243 31.643590 32.396096 1.548820 0.215957 0.009785 -0.010016 67589.400000 0 0 1
0.397656 -7.709043 30.582140 31.541319 -1.519259 0.247247 0.008440 -0.011532 -107177.000000 0 0 1
-0.080744 -7.333843 29.164580 30.072654 1.559787 0.246370 0.011675 -0.003372 -262347.000000 0 0 1
0.605256 -6.228643 28.657590 29.332913 -1.473927 0.214996 0.014458 -0.001655 -44689.500000 0 0 1
0.387956 -5.940143 27.295620 27.937192 -1.505578 0.214724 0.019572 -0.004937 -164502.000000 0 0 1
-0.771544 -4.991943 26.983250 27.451968 1.417452 0.185056 0.020273 -0.007061 41343.200000 0 0 1
-2.087244 -5.408143 27.242780 27.852714 1.202465 0.209661 0.012984 -0.002370 -111078.000000 0 0 1
-3.054844 -4.410743 26.862000 27.392586 0.965060 0.197142 0.006699 -0.003766 176284.000000 0 0 1
-4.459744 -4.922843 27.211770 28.010786 0.834715 0.239424 0.000632 -0.003640 -351975.000000 0 0 1
-4.898444 -5.951443 26.377660 27.480819 0.882147 0.284304 0.003286 -0.004986 -425696.000000 0 0 1
-6.226444 -6.307443 26.700530 28.133090 0.791861 0.320496 -0.000364 -0.012623 374024.000000 0 0 1
-6.474844 -7.833643 26.590420 28.466472 0.880079 0.365078 0.009520 -0.013973 288785.000000 0 0 1
-5.802744 -8.548543 27.636710 29.504867 0.974441 0.357761 0.011478 -0.015223 33759.000000 0 0 1
-6.181344 -9.897443 27.684770 30.043550 1.012528 0.398902 0.019255 -0.017422 -24207.800000 0 0 1
-5.464844 -10.573343 28.848510 31.207317 1.093759 0.391298 0.018207 -0.014847 -96581.700000 0 0 1
-5.458944 -11.975343 28.842290 31.703101 1.143089 0.428085 0.035744 -0.017696 169626.000000 0 0 1
-4.725244 -12.522043 29.920820 32.777812 1.209963 0.420616 0.040383 -0.017674 -140951.000000 0 0 1
-4.983144 -13.970343 29.831450 33.315426 1.228170 0.461412 0.056066 -0.026984 -127757.000000 0 0 1
-6.354344 -14.280043 29.928220 33.763822 1.152124 0.481289 0.075443 -0.026870 -254059.000000 0 0 1
-6.663044 -15.651043 30.068470 34.546551 1.168312 0.514832 0.077561 -0.033301 222383.000000 0 0 1
-6.553244 -16.138743 31.526620 36.018493 1.185080 0.504762 0.085968 -0.032246 25054.300000 0 0 1
-7.857744 -16.206543 32.068600 36.780311 1.119342 0.511736 0.091092 -0.028383 -207284.000000 0 0 1
-7.995444 -16.654543 33.368626 38.141397 1.123215 0.505636 0.089894 -0.027396 -549050.000000 0 0 1
-9.472844 -16.934743 33.734168 38.916763 1.060785 0.521990 0.090305 -0.024315 257013.000000 0 0 1
-9.983644 -18.182843 33.276736 39.212627 1.068668 0.557420 0.077487 -0.025537 -88780.700000 0 0 1
-10.328344 -18.063043 31.919810 38.102789 1.051375 0.577685 0.064322 -0.025479 -582096.000000 0 0 1
-11.067144 -19.376443 31.442400 38.555840 1.051849 0.617199 0.045148 -0.019613 48514.400000 0 0 1
-12.164744 -19.846343 32.187700 39.722870 1.020912 0.626121 0.051765 -0.019801 117758.000000 0 0 1
-12.373244 -21.215743 31.912390 40.269164 1.042814 0.655937 0.046156 -0.012747 -164897.000000 0 0 1
-11.972344 -22.141943 33.061177 41.552907 1.075114 0.650732 0.046767 -0.012112 937259.000000 0 0 1
-10.530744 -22.287943 33.133765 41.297644 1.129401 0.639631 0.037430 -0.015072 1181490.000000 0 0 1
-10.024544 -23.088043 34.207038 42.469644 1.161169 0.634367 0.035362 -0.021671 -61569.400000 0 0 1
-10.456744 -24.555143 -34.087063 43.292337 1.168208 2.477327 0.044404 -0.011291 -281902.000000 0 0 1
-9.873044 -25.289953 33.299974 42.964486 1.198598 0.683989 0.031850 -0.013330 76467.500000 0 0 1
-9.947444 -26.658443 33.558101 43.997391 1.213654 0.703273 0.036138 -0.017895 -653640.000000 0 0 1
-9.274044 -27.635193 32.557009 43.699779 1.247018 0.730238 0.032530 -0.009751 474444.000000 0 0 1
-7.884344 -27.402183 32.329480 43.107283 1.290637 0.722769 0.039092 -0.023785 234834.000000 0 0 1
-7.090844 -28.170873 33.189985 44.107293 1.324210 0.718972 0.036376 -0.021586 96688.200000 0 0 1
-5.596744 -27.723173 33.318248 43.703587 1.371594 0.703831 0.055821 -0.026086 698509.000000 0 0 1
-5.402444 -26.414143 33.888121 43.304713 1.369050 0.672044 0.052166 -0.021566 68946.500000 0 0 1
-5.055244 -25.490863 32.872705 41.904109 1.375021 0.668948 0.063576 -0.017847 -35506.700000 0 0 1
-4.689444 -24.103243 33.469339 41.510889 1.378640 0.632963 0.071260 -0.021331 1056800.000000 0 0 1
-3.441144 -24.104443 34.213981 41.993597 1.428995 0.618511 0.066230 -0.020016 959012.000000 0 0 1
-3.072644 -22.831043 -33.813462 40.915130 1.437018 2.543532 0.061689 -0.024530 3233.010000 0 0 1
34.757158 -15.260543 2.300388 38.029410 -0.413721 1.510270 0.124847 -0.053519 132176.000000 0 0 1
35.579428 -15.874443 3.274788 39.097544 -0.419664 1.486939 0.105748 -0.050800 519623.000000 0 0 1
34.759398 -16.414043 4.287888 38.678451 -0.441177 1.459708 0.117362 -0.051011 187055.000000 0 0 1
35.556388 -16.533643 5.600688 39.610426 -0.435256 1.428927 0.109489 -0.031527 231284.000000 0 0 1
-35.858887 -17.514643 5.527588 40.288668 0.454351 1.433163 0.110991 -0.031334 31473.700000 0 0 1
-35.034928 -17.297043 6.650888 39.634180 0.458602 1.402192 0.096415 -0.020520 697164.000000 0 0 1
-33.740424 -18.204043 6.751688 38.927994 0.494771 1.396474 0.057388 -0.019974 661409.000000 0 0 1
-33.950234 -19.599243 6.814788 39.789321 0.523556 1.398676 0.078501 -0.025800 -67176.500000 0 0 1
-32.803584 -20.262443 7.302788 39.242483 0.553325 1.383611 0.063034 -0.012575 91958.800000 0 0 1
-33.029674 -21.816443 7.524788 40.293163 0.583728 1.382942 0.062328 -0.011472 -116445.000000 0 0 1
-32.774534 -22.595843 6.350188 40.312121 0.603599 1.412612 0.078614 -0.011719 49552.100000 0 0 1
-33.150234 -23.905643 6.584388 41.397729 0.624767 1.411066 0.094091 -0.020070 -171848.000000 0 0 1
-32.669774 -24.859043 5.491788 41.417942 0.650453 1.437810 0.083907 -0.017612 28958.300000 0 0 1
-33.226354 -24.591743 4.209688 41.550763 0.637153 1.469308 0.071146 -0.012425 103432.000000 0 0 1
-32.624564 -25.417793 3.279588 41.487132 0.661866 1.491663 0.056932 -0.008219 -192186.000000 0 0 1
-33.040564 -25.009043 1.831788 41.478748 0.647915 1.526620 0.053395 -0.007231 -507402.000000 0 0 1
-34.228109 -25.656953 1.460288 42.801579 0.643237 1.536672 0.032219 -0.004282 -361853.000000 0 0 1
-34.867698 -25.218013 0.325288 43.032666 0.626159 1.563237 0.020584 -0.001543 -172678.000000 0 0 1
-35.846481 -24.038143 0.627188 43.164753 0.590711 1.556266 0.032528 -0.004177 -365927.000000 0 0 1
35.242168 -24.403643 0.452488 42.869021 -0.605645 1.560241 0.023864 -0.009342 383749.000000 0 0 1
34.391348 -23.288443 0.828488 41.542783 -0.595232 1.550852 0.053968 -0.018612 -269554.000000 0 0 1
32.931208 -23.471843 0.501788 40.443092 -0.619234 1.558389 0.049624 -0.022755 -845181.000000 0 0 1
32.614728 -23.247843 -0.817312 40.060588 -0.619266 1.591200 0.046111 -0.032245 743663.000000 0 0 1
31.227048 -23.461843 -1.115212 39.074677 -0.644352 1.599341 0.049190 -0.025815 827690.000000 0 0 1
31.000158 -23.155843 -2.625412 38.782673 -0.641552 1.638544 0.051307 -0.019275 -263497.000000 0 0 1
31.242938 -21.839943 -3.022812 38.239269 -0.610079 1.649929 0.072498 -0.034407 155756.000000 0 0 1
30.876078 -21.600143 -4.352512 37.932081 -0.610441 1.685794 0.062667 -0.044089 -43053.300000 0 0 1
30.873718 -20.077343 -4.559912 37.109015 -0.576590 1.693986 0.067471 -0.041217 470144.000000 0 0 1
29.893748 -19.504943 -3.683912 35.883843 -0.578114 1.673640 0.072943 -0.050445 452184.000000 0 0 1
29.816648 -18.091643 -3.749212 35.077011 -0.545378 1.677886 0.081121 -0.042028 -289980.000000 0 0 1
28.867818 -17.641543 -2.628812 33.933548 -0.548552 1.648343 0.081311 -0.033621 -325159.000000 0 0 1
29.330058 -17.660143 -1.263812 34.259746 -0.541975 1.607694 0.090518 -0.030567 155588.000000 0 0 1
29.813518 -18.864843 -0.609912 35.285977 -0.564161 1.588082 0.088556 -0.038345 268585.000000 0 0 1
28.849288 -20.125843 -0.536312 35.179805 -0.609127 1.586042 0.074908 -0.020340 949425.000000 0 0 1
27.697618 -19.754943 0.271888 34.021901 -0.619554 1.562805 0.068314 -0.008577 400151.000000 0 0 1
26.996028 -20.901843 0.592288 34.147085 -0.658845 1.553450 0.048188 -0.010714 -438145.000000 0 0 1
25.797928 -20.594343 1.535388 33.045688 -0.673700 1.524317 0.040279 0.000935 -1847750.000000 0 0 1
25.180728 -21.690743 2.070588 33.299321 -0.711077 1.508575 0.040081 0.013875 -274708.000000 0 0 1
24.093428 -21.394043 2.922588 32.353360 -0.726124 1.480340 0.025828 0.014516 970946.000000 0 0 1
22.858928 -20.697243 2.198688 30.915057 -0.735809 1.499616 0.015490 0.017539 -1026310.000000 0 0 1
22.928928 -19.301343 1.858688 30.028858 -0.699708 1.508860 0.024339 0.003939 23772.700000 0 0 1
23.000428 -18.415243 2.964888 29.613029 -0.675136 1.470507 0.026952 0.012231 -301779.000000 0 0 1
22.941728 -16.931243 2.538888 28.625790 -0.635784 1.481987 0.022198 0.013649 -116968.000000 0 0 1
21.661328 -16.619643 2.062288 27.380262 -0.654450 1.495405 0.023096 0.014230 -485068.000000 0 0 1
21.637828 -15.294943 1.613288 26.546819 -0.615316 1.509987 0.034635 0.001520 -55040.400000 0 0 1
20.334428 -14.669343 1.090588 25.097171 -0.624947 1.527328 0.049237 -0.005454 413996.000000 0 0 1
19.321728 -14.378643 2.072088 24.173707 -0.639759 1.484974 0.050453 -0.005672 850055.000000 0 1 0
18.437328 -13.304843 1.828488 22.810027 -0.625093 1.490549 0.067281 -0.014121 -25250.800000 0 1 0
18.995328 -12.004843 2.399288 22.598570 -0.563610 1.464426 0.080234 -0.008565 -755120.000000 0 1 0
19.892028 -11.401443 1.515888 22.977894 -0.520455 1.504777 0.078749 -0.016883 129989.000000 0 1 0
20.406928 -10.206243 2.132388 22.916309 -0.463757 1.477610 0.084035 -0.020331 -622455.000000 0 1 0
21.337628 -9.542943 1.161288 23.403221 -0.420553 1.521155 0.098755 -0.022126 -589377.000000 0 1 0
20.740828 -9.184943 -0.092312 22.683776 -0.416887 1.574866 0.105247 -0.022218 162943.000000 0 1 0
21.681028 -8.743143 -0.995912 23.398748 -0.383316 1.613372 0.110154 -0.016178 -511108.000000 0 1 0
20.999628 -8.446543 -2.362612 22.757645 -0.382422 1.674800 0.129465 -0.017107 396487.000000 0 1 0
21.904928 -7.888643 -3.329112 23.518919 -0.345672 1.712824 0.116400 -0.021831 423409.000000 0 1 0
22.786828 -8.759643 -3.969712 24.733166 -0.367001 1.731995 0.100432 -0.012408 -1032080.000000 0 1 0
22.213228 -9.852543 -4.935212 24.796299 -0.417472 1.771165 0.083840 -0.016476 -283385.000000 0 1 0
21.513528 -9.350143 -6.082712 24.233375 -0.409988 1.824515 0.073919 -0.026851 1422020.000000 0 1 0
20.117528 -9.087943 -5.777912 22.818631 -0.424302 1.826794 0.073222 -0.025094 979105.000000 0 1 0
19.325328 -8.863443 -7.139012 22.427537 -0.430019 1.894747 0.069298 -0.029424 72418.900000 0 1 0
19.173428 -10.056643 -7.919012 23.053572 -0.483062 1.921443 0.058197 -0.027155 1020750.000000 0 1 0
20.346028 -10.362143 -8.699612 24.433954 -0.471056 1.934830 0.046291 -0.023717 353628.000000 0 1 0
20.361028 -11.812043 -9.293212 25.307304 -0.525681 1.946809 0.041257 -0.028226 107693.000000 0 0 1
19.232728 -12.118743 -10.113512 24.880613 -0.562266 1.989396 0.056079 -0.035972 502093.000000 0 1 0
19.335428 -13.370643 -10.812912 25.875702 -0.605005 2.001906 0.049527 -0.026096 311246.000000 0 0 1
18.101528 -13.633443 -11.749912 25.526389 -0.645524 2.049134 0.052981 -0.024006 545152.000000 0 0 1
18.076828 -15.023543 -12.158212 26.463195 -0.693415 2.048159 0.048196 -0.024688 559405.000000 0 0 1
16.935528 -15.249643 -12.984012 26.228769 -0.733065 2.088665 0.052244 -0.024453 113892.000000 0 0 1
16.712428 -16.741743 -13.364712 27.169961 -0.786274 2.085059 0.039042 -0.027029 -353110.000000 0 0 1
16.535628 -17.624843 -12.251512 27.095418 -0.817273 2.039984 0.040054 -0.024710 180537.000000 0 0 1
16.545628 -18.958643 -12.666812 28.171548 -0.853258 2.037149 0.031355 -0.019124 -275576.000000 0 0 1
15.525228 -19.860843 -11.912412 27.881739 -0.907314 2.012243 0.035989 -0.022695 851713.000000 0 0 1
14.172428 -19.534243 -12.230012 27.055823 -0.943149 2.039835 0.031073 -0.021661 634741.000000 0 0 1
13.180628 -20.211643 -11.449212 26.708125 -0.992925 2.013826 0.042927 -0.020810 1837250.000000 0 0 1
11.690428 -19.772243 -11.804812 25.825594 -1.036832 2.045525 0.065617 -0.033493 1235160.000000 0 0 1
10.770228 -20.370943 -10.937212 25.506779 -1.084449 2.013956 0.076785 -0.040938 -415138.000000 0 0 1
9.441728 -20.279343 -11.400512 25.107164 -1.135059 2.042129 0.070291 -0.032069 -365326.000000 0 0 1
8.424428 -20.835643 -10.453912 24.786676 -1.186565 2.006177 0.057786 -0.032200 -741130.000000 0 1 0
8.377228 -22.237743 -10.602412 26.021267 -1.210525 1.990458 0.081908 -0.024353 -221177.000000 0 0 1
7.591528 -22.858943 -9.625512 25.938641 -1.250153 1.950976 0.079484 -0.025388 -10783.800000 0 0 1
7.524828 -24.418143 -9.717112 27.336624 -1.271865 1.934204 0.076492 -0.018618 1003230.000000 0 0 1
8.785728 -24.973143 -9.296612 28.058402 -1.232513 1.908510 0.080133 -0.017411 490320.000000 0 0 1
8.869528 -26.335873 -9.546312 29.383309 -1.245942 1.901691 0.064874 -0.012589 -491460.000000 0 0 1
10.308028 -26.799603 -9.447112 30.227837 -1.203607 1.888652 0.054856 -0.009034 -435466.000000 0 0 1
10.736028 -26.884653 -8.093112 30.059031 -1.190862 1.843401 0.057944 -0.016304 612631.000000 0 0 1
12.100428 -27.316173 -7.948112 30.915468 -1.153798 1.830808 0.062418 -0.005622 817684.000000 0 0 1
12.576728 -27.567403 -6.422312 30.973891 -1.142784 1.779658 0.051501 -0.013617 108424.000000 0 0 1
12.118128 -28.723803 -5.747212 31.700731 -1.171567 1.753100 0.055238 -0.008184 -547351.000000 0 0 1
10.736728 -28.890813 -5.665212 31.337694 -1.214982 1.752575 0.062523 -0.013166 -642628.000000 0 0 1
10.272328 -29.999043 -4.673012 32.051527 -1.240889 1.717115 0.066100 -0.015161 -94888.600000 0 0 1
10.536228 -31.345983 -5.033112 33.450187 -1.246534 1.721836 0.072587 -0.011886 -54439.000000 0 0 1
9.903028 -31.880493 -6.200812 33.954174 -1.269616 1.754450 0.066218 -0.010827 22356.500000 0 0 1
10.113428 -33.398613 -6.477712 35.492387 -1.276764 1.754335 0.057636 -0.010092 -98028.300000 0 0 1
9.416028 -34.215794 -5.541812 35.917877 -1.302248 1.725706 0.051397 -0.011978 405523.000000 0 0 1
10.000628 33.059455 -5.464312 34.968541 1.277044 1.727703 0.050943 -0.013623 77550.600000 0 0 1
9.460828 32.280616 -4.266112 33.907892 1.285699 1.696945 0.047129 -0.013249 640588.000000 0 0 1
8.106728 31.834446 -4.382612 33.141489 1.321443 1.703424 0.048519 -0.023231 283200.000000 0 0 1
7.737728 30.962006 -3.299212 32.084312 1.325902 1.673808 0.020205 -0.016309 70125.200000 0 0 1
6.317728 30.369556 -3.378912 31.203216 1.365693 1.679296 0.020958 -0.024705 -124447.000000 0 0 1
6.086328 29.412536 -4.426812 30.360128 1.366747 1.717128 0.026985 -0.028368 -2318.060000 0 0 1
5.584028 30.070766 -5.591712 31.091793 1.387191 1.751625 0.032070 -0.029554 -565232.000000 0 0 1
5.825628 29.452976 -6.973512 30.822810 1.375523 1.799017 0.046111 -0.034259 -452472.000000 0 0 1
5.025928 28.346766 -7.329712 29.707302 1.395318 1.820102 0.043073 -0.027341 -161571.000000 0 0 1
5.547028 27.153166 -6.896612 28.559188 1.369282 1.814692 0.024945 -0.029020 -599622.000000 0 0 1
4.716228 25.951536 -7.283812 27.363826 1.391026 1.840228 0.018104 -0.023849 -517864.000000 0 0 1
3.412828 25.770586 -6.806212 26.871826 1.439131 1.826870 0.023775 -0.027035 310364.000000 0 0 1
2.339228 26.340466 -7.605012 27.515965 1.482221 1.850827 0.037697 -0.030948 876605.000000 0 0 1
1.876328 25.569676 -8.903312 27.140337 1.497547 1.905032 0.035519 -0.017985 -150907.000000 0 0 1
2.947628 25.486496 -9.840612 27.478858 1.455653 1.937045 0.022038 -0.013168 334855.000000 0 0 1
2.598028 24.817216 -11.061512 27.294707 1.466490 1.988062 0.027627 -0.004426 -224500.000000 0 0 1
2.299628 23.255676 -11.041712 25.846357 1.472232 2.012196 0.041311 -0.002670 454130.000000 0 0 1
1.146928 22.850776 -10.299612 25.090943 1.520646 1.993789 0.054844 -0.009017 235491.000000 0 0 1
1.263428 21.435476 -10.030112 23.699769 1.511923 2.007788 0.032020 -0.012200 85409.500000 0 1 0
0.003328 20.862876 -9.336412 22.856688 1.570637 1.991580 0.043347 -0.008732 116894.000000 0 1 0
-1.153772 20.833776 -10.131212 23.195234 -1.515473 2.022812 0.063035 -0.017070 -122005.000000 0 1 0
-2.198372 20.139476 -9.468512 22.362559 -1.462069 2.008001 0.047624 -0.009330 341057.000000 0 1 0
-3.540272 20.086476 -10.235212 22.820158 -1.396337 2.035901 0.041785 -0.012652 255151.000000 0 1 0
-4.539372 19.326276 -9.580212 22.042942 -1.340097 2.020408 0.036939 -0.019228 -850412.000000 0 1 0
-5.672472 19.269276 -10.349212 22.596197 -1.284504 2.046548 0.039336 -0.009706 -1611880.000000 0 1 0
-6.666472 18.222776 -9.854812 21.763013 -1.220088 2.040726 0.038744 -0.009937 -121474.000000 0 1 0
-7.597172 18.635376 -8.832812 21.977553 -1.183691 1.984389 0.060296 -0.015296 294680.000000 0 1 0
-8.810572 18.972376 -9.467712 22.961158 -1.136041 1.995813 0.066122 -0.016970 -861600.000000 0 1 0
-9.965272 19.136776 -8.490012 23.186271 -1.090695 1.945681 0.076362 -0.023567 -253395.000000 0 1 0
-10.354572 17.895676 -7.876512 22.124914 -1.046255 1.934782 0.070923 -0.025311 -365104.000000 0 1 0
-11.290872 18.219376 -6.863812 22.506474 -1.016004 1.880704 0.069290 -0.021220 -315143.000000 0 1 0
-11.604972 17.021476 -5.972212 21.449320 -0.972401 1.852959 0.048062 -0.023749 -360410.000000 0 1 0
-12.507872 17.382976 -4.971312 21.984737 -0.947072 1.798895 0.060568 -0.017508 -358202.000000 0 1 0
-13.083872 16.226376 -4.470612 21.318287 -0.892205 1.782072 0.059085 -0.015045 -29492.500000 0 1 0
-14.211072 16.497376 -3.422112 22.041525 -0.859713 1.726684 0.049866 -0.018834 -376141.000000 0 1 0
-15.451272 16.495776 -4.030912 22.958673 -0.818081 1.747284 0.079279 -0.030321 -173451.000000 0 1 0
-16.486072 17.097876 -3.243912 23.971877 -0.803613 1.706534 0.084834 -0.022469 1534700.000000 0 1 0
-17.920472 17.220276 -3.900812 25.157455 -0.765475 1.726480 0.094429 -0.030007 913158.000000 0 0 1
-17.897772 18.170876 -4.939212 25.978968 -0.792970 1.762084 0.079679 -0.029356 1634150.000000 0 0 1
-19.247972 18.373876 -5.458212 27.163870 -0.762169 1.773110 0.070519 -0.021822 1519040.000000 0 0 1
-19.154872 19.358276 -6.607612 28.023428 -0.790680 1.808827 0.052236 -0.012713 336879.000000 0 0 1
-18.459772 20.558376 -6.239512 28.325633 -0.839132 1.792896 0.056408 -0.025397 373453.000000 0 0 1
-18.508972 21.391476 -7.371612 29.232139 -0.857515 1.825723 0.045496 -0.010760 74184.200000 0 0 1
-18.328472 22.889676 -7.069112 30.163595 -0.895610 1.807356 0.065107 -0.011025 1201700.000000 0 0 1
-17.008072 23.151976 -6.517112 29.457788 -0.937207 1.793878 0.049228 -0.014587 1257420.000000 0 0 1
-17.027372 24.087706 -5.510112 30.008504 -0.955461 1.755462 0.063213 -0.014838 -1033490.000000 0 0 1
-15.681972 24.632296 -5.138312 29.649224 -1.003869 1.744979 0.038639 -0.014748 -1121940.000000 0 0 1
-15.825372 25.585166 -4.068412 30.357785 -1.016858 1.705216 0.041514 -0.014505 284827.000000 0 0 1
-14.639772 26.298116 -3.764512 30.332909 -1.062835 1.695224 0.058758 -0.019347 -25254.200000 0 0 1
-14.227772 27.450276 -4.712512 31.275468 -1.092608 1.722050 0.057105 -0.018252 -58734.300000 0 0 1
-15.159272 28.503126 -4.555212 32.603400 -1.081998 1.710971 0.062400 -0.016029 226455.000000 0 0 1
-14.684072 29.657036 -5.165112 33.493882 -1.111053 1.725625 0.047336 -0.024935 -457331.000000 0 0 1
-15.374772 30.886786 -4.609912 34.808454 -1.108928 1.703623 0.058935 -0.029765 -20750.600000 0 0 1
-16.733772 30.960796 -4.994512 35.546240 -1.075289 1.711770 0.075692 -0.024546 -107662.000000 0 0 1
-17.284272 32.044626 -4.315112 36.663665 -1.076142 1.688764 0.093525 -0.027219 -313740.000000 0 0 1
12.610556 -8.481243 19.108280 24.414831 -0.592065 0.671884 0.042723 -0.005871 1777.640000 0 1 0
12.735356 -9.880643 19.251980 25.108866 -0.659837 0.697048 0.033816 -0.005132 -449359.000000 0 0 1
13.365656 -10.416643 18.173680 24.848136 -0.662028 0.750438 0.039627 -0.009272 -706966.000000 0 1 0
13.950656 -11.791043 18.368880 25.904928 -0.701699 0.782592 0.072124 -0.017588 11783.800000 0 0 1
15.098656 -11.787843 19.233980 27.145325 -0.662875 0.783347 0.066859 -0.014483 639481.000000 0 0 1
15.395256 -13.088043 19.749980 28.255486 -0.704572 0.796828 0.080118 -0.020603 53563.800000 0 0 1
15.976056 -14.211543 18.851780 28.505999 -0.727013 0.848210 0.079724 -0.027803 247191.000000 0 0 1
15.023156 -14.710943 17.872480 27.595881 -0.774898 0.866300 0.079038 -0.027089 820157.000000 0 0 1
15.412256 -15.994843 17.317080 28.164764 -0.803946 0.908602 0.082840 -0.025932 -70032.900000 0 0 1
14.591556 -16.420943 16.068480 27.216850 -0.844319 0.939258 0.074434 -0.025669 1732770.000000 0 0 1
13.157756 -16.589443 16.320880 26.734010 -0.900252 0.914116 0.086214 -0.033172 1786040.000000 0 0 1
12.312756 -16.790343 15.210280 25.785116 -0.938054 0.939879 0.085406 -0.037375 112250.000000 0 0 1
12.180556 -18.284443 14.781980 26.480063 -0.983137 0.978545 0.077411 -0.024272 -476910.000000 0 0 1
13.313856 -18.739343 14.092980 26.963565 -0.953074 1.020819 0.076215 -0.024090 -71717.900000 0 0 1
13.074256 -19.956443 13.464680 27.395135 -0.990817 1.056986 0.076190 -0.025360 -923014.000000 0 0 1
14.287756 -20.625843 12.869680 28.199185 -0.964979 1.096868 0.078741 -0.024311 -728545.000000 0 0 1
15.068556 -21.191143 13.918380 29.493173 -0.952674 1.079331 0.074003 -0.019796 14584.500000 0 0 1
15.306256 -22.551843 13.736380 30.521390 -0.974499 1.103967 0.050350 -0.027299 -583255.000000 0 0 1
16.145856 -23.210943 14.803680 31.915287 -0.963020 1.088468 0.052164 -0.027856 429722.000000 0 0 1
17.532356 -22.849643 14.760680 32.363056 -0.916320 1.097192 0.026114 -0.022839 628310.000000 0 0 1
18.261756 -23.268243 15.911280 33.586779 -0.905370 1.077268 0.026777 -0.026644 238459.000000 0 0 1
19.667756 -22.640143 15.942180 33.963949 -0.855539 1.082202 0.004347 -0.020704 144837.000000 0 0 1
20.588056 -23.183743 15.011280 34.448404 -0.844629 1.119912 0.001494 -0.017498 197257.000000 0 0 1
21.872856 -22.573843 15.145180 34.890926 -0.801168 1.121788 0.002315 -0.012101 755147.000000 0 0 1
23.041756 -23.494943 14.713980 36.047692 -0.795136 1.150336 -0.002584 -0.015403 9550.430000 0 0 1
23.317456 -24.616043 15.501180 37.281898 -0.812483 1.141993 0.000970 -0.015095 359702.000000 0 0 1
24.502956 -25.277533 15.075180 38.296339 -0.800957 1.166202 0.012223 -0.020916 123965.000000 0 0 1
24.837056 -26.508873 15.916080 39.660072 -0.817947 1.157847 0.017893 -0.019866 -324704.000000 0 0 1
25.248756 -26.197003 17.216180 40.251454 -0.803828 1.128832 0.018920 -0.012551 181499.000000 0 0 1
25.716156 -27.315533 17.956080 41.591825 -0.815548 1.124396 0.051567 -0.010533 144028.000000 0 0 1
25.970356 -27.070293 19.434180 42.248640 -0.806133 1.092806 0.032815 0.000548 783959.000000 0 0 1
24.749856 -26.707643 20.086180 41.584952 -0.823427 1.066701 0.041233 0.000408 836929.000000 0 0 1
25.122556 -26.034113 21.283780 41.975197 -0.803215 1.039031 0.044403 0.001846 -319618.000000 0 0 1
23.889056 -25.892853 22.134180 41.605875 -0.825628 1.009840 0.041964 -0.004313 -481806.000000 0 0 1
23.344556 -27.137163 22.485480 42.272813 -0.860386 1.009938 0.043787 -0.005094 -683205.000000 0 0 1
22.227456 -27.048433 23.303580 42.056324 -0.882924 0.983510 0.046733 -0.006563 -427298.000000 0 0 1
21.576256 -28.441763 23.441620 42.708059 -0.921806 0.989772 0.050522 -0.007023 -283709.000000 0 0 1
22.437056 -29.316773 24.145080 44.112125 -0.917555 0.991593 0.044308 -0.003655 392321.000000 0 0 1
22.499456 -30.628393 23.587190 44.728957 -0.937228 1.015334 0.049290 -0.002411 212262.000000 0 0 1
23.557856 -31.580943 24.272390 46.276101 -0.929891 1.018654 0.028946 0.000706 301919.000000 0 0 1
23.228656 -31.863833 25.581870 47.003260 -0.940873 0.995293 0.034018 -0.002733 476698.000000 0 0 1
24.388256 -32.154483 26.371340 48.209391 -0.921896 0.992000 0.037828 -0.000244 -409347.000000 0 0 1
24.119956 -32.593303 27.873270 49.203810 -0.933708 0.968561 0.032707 -0.001588 110633.000000 0 0 1
23.585556 -33.952103 28.018900 49.940790 -0.963656 0.975152 0.027033 0.001655 698864.000000 0 0 1
22.234756 -34.006723 27.565770 49.099015 -0.991730 0.974681 0.035995 -0.003584 -228125.000000 0 0 1
21.508656 33.258003 27.971120 48.488149 0.996730 0.955911 0.058890 -0.018808 -23171.400000 0 0 1
21.092356 33.345252 29.349880 49.175287 1.006790 0.931237 0.046331 -0.011157 622097.000000 0 0 1
20.333456 32.177196 29.776680 48.326722 1.007235 0.906947 0.045676 -0.016817 322474.000000 0 0 1
20.201156 32.229466 31.304280 49.262391 1.010910 0.882192 0.043607 -0.022213 -532333.000000 0 0 1
21.397256 32.104336 32.003030 50.127088 0.982915 0.878329 0.037844 -0.013241 -429047.000000 0 0 1
21.214756 32.564140 33.330014 51.199404 0.993384 0.861916 0.037935 -0.018536 -1011520.000000 0 0 1
22.427156 32.460596 34.183912 52.203520 0.966201 0.856852 0.027514 -0.015278 -1048450.000000 0 0 1
22.719156 31.177996 -33.942552 51.384086 0.941072 2.292368 0.028881 -0.004701 -700763.000000 0 0 1
23.970256 31.089336 -33.355902 51.514427 0.913983 2.275104 0.031735 0.002190 -725658.000000 0 0 1
24.369656 29.610406 -32.999372 50.592636 0.882182 2.281354 0.041017 0.005241 -134602.000000 0 0 1
24.645056 28.811256 -34.158221 51.031866 0.863177 2.304131 0.047168 0.006991 267236.000000 0 0 1
24.236756 27.501476 -33.908472 49.935318 0.848415 2.317261 0.049049 -0.000479 -295074.000000 0 0 1
24.275556 26.548876 33.294970 49.017349 0.830097 0.824058 0.070107 0.001041 -115155.000000 0 0 1
25.550256 26.040176 32.968711 49.171560 0.794894 0.835936 0.061847 -0.006265 128291.000000 0 0 1
25.612156 25.310866 31.766440 48.018009 0.779482 0.847909 0.074422 -0.013423 689826.000000 0 0 1
27.024656 24.598046 31.670470 48.357157 0.738426 0.856709 0.047614 -0.012629 982667.000000 0 0 1
27.303356 23.671916 32.730042 48.755395 0.714279 0.834820 0.058412 -0.016955 149189.000000 0 0 1
28.154056 24.309886 33.664806 50.169120 0.712256 0.835204 0.063264 -0.020821 -1089690.000000 0 0 1
28.321856 23.406876 -33.520272 49.735480 0.690668 2.310367 0.053942 -0.025855 610335.000000 0 0 1
27.210156 23.427076 -32.557562 48.468704 0.710827 2.307329 0.056908 -0.025220 1666660.000000 0 0 1
25.946456 23.013376 -33.081602 47.929390 0.725562 2.332583 0.064234 -0.016695 -300483.000000 0 0 1
25.620656 21.558276 -32.961642 46.985605 0.699504 2.348333 0.056229 -0.015849 -425442.000000 0 0 1
25.327356 21.148476 -31.621242 45.701597 0.695724 2.334923 0.052184 -0.032545 167150.000000 0 0 1
24.849656 19.863776 -31.720502 44.925107 0.674349 2.354737 0.048424 -0.019782 -353254.000000 0 0 1
24.591456 19.196576 -30.367932 43.536875 0.662811 2.342730 0.055613 -0.019800 -496925.000000 0 0 1
23.412956 19.612676 -29.733322 42.625040 0.697301 2.342776 0.051140 -0.021772 -83337.200000 0 0 1
23.279056 18.955276 -28.499972 41.394025 0.683378 2.330221 0.054114 -0.022023 21729.200000 0 0 1
21.945356 19.274776 -27.770402 40.302740 0.720700 2.330967 0.065335 -0.023882 89069.200000 0 0 1
21.732156 18.610376 -26.543662 39.028178 0.708170 2.318716 0.064941 -0.017145 93897.800000 0 0 1
22.307356 19.243476 -25.376492 38.883105 0.711793 2.281854 0.064047 -0.010572 31981.400000 0 0 1
22.241956 18.267476 -24.162812 37.579872 0.687599 2.269169 0.065183 -0.006387 -57258.400000 0 0 1
23.115456 17.151676 -24.311512 37.676968 0.638362 2.272162 0.074005 -0.013989 307689.000000 0 0 1
23.340856 16.533276 -23.115812 36.776154 0.616302 2.250489 0.081403 -0.013988 -99322.400000 0 0 1
24.283856 15.284876 -23.212212 36.907179 0.561775 2.250979 0.098468 -0.021262 -343233.000000 0 0 1
25.641856 15.675276 -23.219412 37.978417 0.548699 2.228605 0.113132 -0.026291 354144.000000 0 0 1
26.578556 14.579076 -23.320112 38.246526 0.501712 2.226518 0.116378 -0.032712 656611.000000 0 0 1
26.756556 13.719476 -22.082112 37.306259 0.473797 2.204228 0.109742 -0.025244 -678407.000000 0 0 1
25.613956 12.907276 -21.984012 36.138197 0.466775 2.224753 0.099692 -0.018485 -193879.000000 0 0 1
25.435156 12.445476 -20.665212 35.055499 0.455053 2.201236 0.080588 -0.024306 343712.000000 0 0 1
24.013256 11.826876 -20.459112 33.691048 0.457641 2.223399 0.069271 -0.010824 655475.000000 0 0 1
23.002856 12.807276 -20.502512 33.369308 0.508025 2.232437 0.086699 -0.009046 -737441.000000 0 0 1
21.761256 12.320176 -20.909212 32.596536 0.515159 2.267190 0.070667 -0.009268 12398.100000 0 0 1
20.630856 13.397176 -20.851812 32.247707 0.575936 2.273933 0.066953 -0.011400 -170218.000000 0 0 1
20.709456 14.447176 -21.841412 33.386370 0.609122 2.283923 0.065358 -0.003537 320766.000000 0 0 1
19.744456 15.489076 -21.704512 33.178922 0.665204 2.283875 0.051079 -0.007548 64704.900000 0 0 1
18.428356 15.239676 -22.461712 32.808239 0.690970 2.324901 0.038815 0.004924 -168189.000000 0 0 1
17.413956 14.606476 -21.701912 31.425594 0.697944 2.333088 0.031789 -0.008507 -183785.000000 0 0 1
16.360856 14.237376 -22.549812 31.286970 0.716110 2.375667 0.033730 -0.019857 404202.000000 0 0 1
15.027956 13.846476 -21.788012 29.871087 0.744503 2.388243 0.010317 -0.017516 1187180.000000 0 0 1
13.946056 13.912476 -22.720112 30.070799 0.784193 2.427296 0.025540 -0.013770 -42897.400000 0 0 1
12.668956 13.567176 -22.243912 28.971750 0.819621 2.446164 0.044851 -0.022110 -49286.500000 0 0 1
11.576856 14.033976 -23.242312 29.515778 0.881046 2.477463 0.049916 -0.017008 -233815.000000 0 0 1
11.532956 15.461676 -23.378612 30.308942 0.929921 2.451746 0.023045 -0.008821 -42749.000000 0 0 1
10.921056 15.953676 -24.550512 31.249270 0.970516 2.474518 0.035296 -0.016419 -728173.000000 0 0 1
10.916556 17.527176 -24.570612 32.094985 1.013755 2.442706 0.034331 -0.004393 472768.000000 0 0 1
12.171156 18.187176 -24.360212 32.746455 0.981031 2.409689 0.032421 -0.016868 1613920.000000 0 0 1
13.296256 17.937076 -25.283602 33.731138 0.932904 2.418197 0.037020 -0.016766 1050110.000000 0 0 1
13.101856 18.359576 -26.794002 35.023581 0.950984 2.441880 0.046102 -0.034266 517559.000000 0 0 1
14.234856 18.149776 -27.666312 36.020415 0.905703 2.446623 0.039633 -0.032101 907206.000000 0 0 1
13.682856 17.711876 -28.896362 36.550387 0.913035 2.482568 0.057732 -0.021071 6028.790000 0 0 1
14.688856 17.884176 -30.037472 37.919071 0.883182 2.485115 0.052203 -0.025946 235313.000000 0 0 1
15.794456 16.995876 -29.916402 37.859157 0.822021 2.481936 0.036031 -0.020226 17678.700000 0 0 1
16.305056 16.587476 -31.191512 38.908991 0.793984 2.500852 0.038693 -0.015979 797522.000000 0 0 1
17.614056 15.748476 -30.894272 38.893772 0.729538 2.488691 0.036131 -0.015765 324683.000000 0 0 1
18.832856 16.437876 -30.878762 39.728808 0.717599 2.461061 0.044088 -0.021747 -789021.000000 0 0 1
19.878156 15.540076 -30.694042 39.733604 0.663524 2.453558 0.050296 -0.020328 -182016.000000 0 0 1
21.219856 16.210276 -31.111182 40.999524 0.652351 2.432293 0.055684 -0.020641 82350.000000 0 0 1
21.263356 16.522776 -32.504492 42.209885 0.660592 2.449744 0.060991 -0.020267 234410.000000 0 0 1
22.393956 17.315176 -32.826772 43.346298 0.658189 2.429987 0.068102 -0.018057 56165.300000 0 0 1
22.299356 17.766776 34.129576 44.471874 0.672750 0.695955 0.047806 0.000385 147139.000000 0 0 1
23.269656 18.729576 33.724951 45.051595 0.677717 0.724871 0.057313 -0.002905 324680.000000 0 0 1
23.390556 18.815176 32.372592 44.148768 0.677413 0.747690 0.067232 -0.010332 -1001180.000000 0 0 1
24.376856 19.865676 31.922240 44.809660 0.683785 0.777889 0.072516 -0.007470 -986125.000000 0 0 1
25.697056 19.465776 32.126760 45.512458 0.648290 0.787118 0.029794 -0.002613 -978995.000000 0 0 1
26.498856 20.592876 31.904010 46.304663 0.660635 0.810685 0.033660 -0.010722 -1419540.000000 0 0 1
27.943656 20.237876 31.743330 46.883457 0.626809 0.827024 0.032605 -0.011615 -1323730.000000 0 0 1
28.547456 19.867376 32.977632 47.929053 0.607997 0.811997 0.023039 -0.014698 941541.000000 0 0 1
29.962356 19.628876 32.779982 48.554740 0.579965 0.829677 0.019851 -0.012585 1018390.000000 0 0 1
30.534856 19.101676 34.109549 49.605572 0.559009 0.812597 0.018163 -0.009566 -217025.000000 0 0 1
30.602456 20.064576 -33.316982 49.488572 0.580339 2.309359 0.012676 -0.018134 290276.000000 0 0 1
29.455456 19.912276 -32.482882 48.158698 0.594445 2.311079 0.013068 -0.026458 261618.000000 0 0 1
29.784756 20.188776 -31.021382 47.508362 0.595686 2.282291 0.031776 -0.029850 -175319.000000 0 0 1
30.575556 19.151676 -30.492002 47.237840 0.559585 2.272473 0.033996 -0.034308 -65916.400000 0 0 1
31.238256 19.609476 -29.327512 47.121791 0.560567 2.242572 0.024136 -0.035443 649054.000000 0 0 1
32.703556 19.111176 -29.060902 47.741969 0.528852 2.225227 0.037832 -0.026884 871179.000000 0 0 1
33.599856 19.745276 -29.974032 49.165728 0.531296 2.226419 0.007769 -0.017273 134580.000000 0 0 1
34.887256 19.831676 -29.402492 49.748593 0.516898 2.203121 0.020923 -0.013977 386013.000000 0 0 1
36.042856 20.647476 -30.060862 51.274371 0.520224 2.197249 0.015440 -0.013537 373758.000000 0 0 1
-35.768716 19.885976 -31.068092 51.381703 -0.507408 2.220126 0.004463 -0.011877 -370813.000000 0 0 1
-34.938916 20.755876 -31.782652 51.591387 -0.536042 2.234509 0.015596 -0.013440 -489308.000000 0 0 1
-34.194416 20.067776 -32.889322 51.513893 -0.530711 2.263286 0.015312 -0.012340 -227353.000000 0 0 1
-33.218916 19.138076 -32.467662 50.238545 -0.522675 2.273483 0.030239 -0.012245 354016.000000 0 0 1
-32.380716 18.663676 -33.510242 50.197409 -0.522873 2.301735 0.025574 -0.013011 408362.000000 0 0 1
-31.420616 17.510776 -33.024742 48.831506 -0.508432 2.313524 0.004751 -0.000739 550751.000000 0 0 1
-32.091216 16.222776 -32.871072 48.718908 -0.468054 2.311366 0.014765 0.000430 567523.000000 0 0 1
-31.448616 15.126376 -33.551992 48.410318 -0.448322 2.336543 0.017270 0.001915 59782.300000 0 0 1
-32.317016 13.836876 -33.494912 48.556748 -0.404545 2.332022 0.027810 -0.001930 55214.700000 0 0 1
-31.793516 12.687576 -34.159600 48.359906 -0.379697 2.355142 0.041927 -0.016117 210589.000000 0 0 1
-32.633716 11.561776 -33.875162 48.437183 -0.340491 2.345302 0.051923 -0.023078 -53083.700000 0 0 1
-32.155116 10.189976 34.180537 48.021831 -0.306889 0.778780 0.051450 -0.021648 -314606.000000 0 0 1
-32.247016 9.997776 32.756033 47.040231 -0.300640 0.800510 0.049192 -0.025488 34510.600000 0 0 1
-32.330116 8.648276 32.319150 46.524795 -0.261379 0.802842 0.053037 -0.041320 -832154.000000 0 0 1
-31.051716 8.103076 31.722030 45.123787 -0.255262 0.791189 0.082455 -0.030778 -811977.000000 0 0 1
-30.051116 7.997276 32.706537 45.130296 -0.260094 0.760178 0.053767 -0.021246 102188.000000 0 0 1
-28.925216 7.383376 32.038540 43.790986 -0.249921 0.750095 0.050901 -0.021634 414323.000000 0 0 1
20.858356 -4.565143 -31.787822 38.293304 -0.215467 2.550109 0.081237 -0.043602 -626404.000000 0 0 1
22.101656 -4.507443 -32.389472 39.469965 -0.201183 2.533275 0.077277 -0.046257 -365149.000000 0 0 1
22.961856 -3.443043 -31.908252 39.461854 -0.148837 2.512539 0.087868 -0.042989 576604.000000 0 0 1
22.815856 -2.035843 -32.598412 39.841742 -0.088994 2.529065 0.081712 -0.038057 -305888.000000 0 0 1
23.832456 -1.239143 -32.035312 39.947248 -0.051947 2.501333 0.090179 -0.035142 228635.000000 0 0 1
23.675756 0.108057 -32.429212 40.152296 0.004564 2.510961 0.065986 -0.032417 -311550.000000 0 0 1
24.598656 1.080557 -31.674902 40.119333 0.043899 2.480818 0.078603 -0.031050 678903.000000 0 0 1
25.954256 0.971757 -32.123992 41.310030 0.037424 2.461687 0.084638 -0.033733 235941.000000 0 0 1
26.819256 1.857857 -31.458972 41.381047 0.069163 2.434458 0.082544 -0.031747 -591267.000000 0 0 1
28.268956 1.696757 -31.897922 42.655483 0.059950 2.415544 0.067606 -0.031056 -573129.000000 0 0 1
28.628856 2.411157 -33.077682 43.812762 0.084023 2.426417 0.062897 -0.023176 69593.000000 0 0 1
29.179756 1.461557 -33.972652 44.807760 0.050046 2.431324 0.040605 -0.016304 -49119.500000 0 0 1
29.870356 2.101257 33.219018 44.723111 0.070230 0.733597 0.044715 -0.020696 -318001.000000 0 0 1
29.080656 2.922857 32.434325 43.660200 0.100172 0.733433 0.051201 -0.014510 -265115.000000 0 0 1
29.232856 4.286857 32.756711 44.112800 0.145607 0.733901 0.053559 -0.005207 -343803.000000 0 0 1
28.394056 5.172657 31.878570 43.002582 0.180198 0.735765 0.063259 -0.003222 -371652.000000 0 0 1
28.537556 6.540257 32.239080 43.549114 0.225290 0.737291 0.053464 -0.006482 216548.000000 0 0 1
27.628956 7.307557 31.475510 42.514319 0.258568 0.737204 0.038479 -0.004300 -94463.600000 0 0 1
27.956556 8.780757 31.706430 43.173701 0.304329 0.746026 0.031134 0.000398 157687.000000 0 0 1
29.134756 9.106157 31.002960 43.507926 0.302933 0.777625 0.020163 -0.002227 -427274.000000 0 0 1
29.465556 10.431657 31.348600 44.269326 0.340259 0.783945 0.024069 -0.004741 -445657.000000 0 0 1
30.764756 10.955257 30.760930 44.863378 0.342097 0.815289 0.033322 0.006353 -581047.000000 0 0 1
31.942056 10.468957 31.394750 45.994829 0.316716 0.819521 0.050694 -0.004976 -395045.000000 0 0 1
33.145256 10.948557 30.918570 46.630858 0.319037 0.845911 0.060777 -0.013439 -483111.000000 0 0 1
33.479856 12.448357 31.045550 47.325348 0.355977 0.855286 0.079636 -0.017299 -1070040.000000 0 0 1
33.880556 12.737757 32.354990 48.548820 0.359613 0.841370 0.079009 -0.018518 164331.000000 0 0 1
34.240456 14.118557 32.534624 49.297507 0.391095 0.850024 0.091851 -0.014310 107782.000000 0 0 1
33.051556 15.118357 32.674192 48.873028 0.429005 0.838535 0.088864 -0.016705 -836658.000000 0 0 1
32.623156 15.474057 31.337450 47.809544 0.442899 0.855999 0.069202 -0.020417 177849.000000 0 0 1
31.535456 16.382257 31.335450 47.379043 0.479115 0.848142 0.049200 -0.017210 -8078.440000 0 0 1
30.184256 15.714357 31.631490 46.460537 0.480003 0.821908 0.038021 -0.007795 -878678.000000 0 0 1
29.527356 14.977057 30.604780 45.086911 0.469412 0.824676 0.006305 0.001753 189681.000000 0 0 1
28.228856 14.572657 30.977870 44.371828 0.476549 0.797996 -0.008019 0.002036 -225314.000000 0 0 1
27.437556 13.955557 29.806840 42.848860 0.470528 0.801503 -0.000741 0.004794 -339322.000000 0 0 1
27.849456 12.750557 29.150030 42.283486 0.429353 0.810143 0.002249 0.001392 -148378.000000 0 0 1
27.121856 12.503857 27.972420 40.919406 0.431984 0.818115 0.004162 -0.001883 -277677.000000 0 0 1
27.072656 10.987957 27.726380 40.279226 0.385556 0.811578 0.010523 0.008423 -380871.000000 0 0 1
28.196456 10.334557 27.202860 40.519610 0.351315 0.834767 0.005581 0.003638 -564386.000000 0 0 1
27.953256 8.951857 27.120650 39.963107 0.309924 0.824884 0.021235 0.003127 -89545.900000 0 0 1
29.076356 8.021257 26.624230 40.232135 0.269174 0.847625 0.015430 -0.001731 -237760.000000 0 0 1
29.322456 8.076657 25.220070 39.510641 0.268778 0.878494 0.021627 -0.000132 90593.500000 0 0 1
30.390556 7.194757 24.917170 39.952669 0.232463 0.897371 0.022138 0.008590 108400.000000 0 0 1
30.871456 7.310457 23.443660 39.447367 0.232520 0.934399 0.040517 0.010353 -168755.000000 0 0 1
31.577456 8.504257 23.161980 40.074124 0.263072 0.954547 0.034163 -0.000628 168283.000000 0 0 1
30.827356 9.701357 22.889180 39.602484 0.304888 0.954553 0.038764 -0.007201 -284417.000000 0 0 1
30.412856 9.760557 21.432080 38.464846 0.310551 0.979803 0.046974 -0.001102 90527.300000 0 0 1
31.423556 10.197957 20.539780 38.901424 0.313809 1.014558 0.048132 -0.007177 299368.000000 0 0 1
30.927056 10.068357 19.215280 37.776734 0.314731 1.037176 0.060726 -0.016117 -700756.000000 0 0 1
31.835956 10.791857 18.165980 38.209882 0.326827 1.075348 0.064837 -0.039974 287952.000000 0 0 1
33.091256 10.266857 17.823780 38.963146 0.300842 1.095668 0.064496 -0.030505 334619.000000 0 0 1
34.018056 10.147557 18.930180 40.231241 0.289896 1.080900 0.057005 -0.017926 -1426470.000000 0 0 1
35.369356 9.662257 18.464580 41.052299 0.266675 1.104275 0.074278 -0.017837 -916856.000000 0 0 1
35.333756 8.382157 17.848580 40.463646 0.232922 1.113971 0.074363 -0.019887 199440.000000 0 0 1
-35.819416 7.953957 17.458780 40.633791 -0.218512 1.126678 0.073170 -0.012264 101003.000000 0 0 1
-35.803916 6.436957 17.300380 40.282229 -0.177883 1.126880 0.074397 -0.013254 235649.000000 0 0 1
35.579856 6.129357 16.381880 39.646704 0.170596 1.144835 0.059486 -0.012947 436414.000000 0 0 1
35.602156 4.741257 15.970180 39.306993 0.132394 1.152402 0.060326 -0.013187 -810605.000000 0 0 1
34.248556 4.056157 15.920080 37.985062 0.117884 1.138327 0.046697 -0.012754 -695746.000000 0 0 1
33.970156 3.420557 17.146880 38.205853 0.100355 1.105372 0.051002 -0.007273 546761.000000 0 0 1
32.874956 2.490357 17.019080 37.102745 0.075608 1.094263 0.039534 -0.004034 652412.000000 0 0 1
32.510756 1.592557 18.256180 37.319882 0.048946 1.059646 0.044877 -0.011871 263246.000000 0 0 1
33.373956 0.477057 18.334380 38.081466 0.014293 1.068486 0.051661 -0.008642 -155063.000000 0 0 1
33.047256 -0.311643 19.445580 38.345128 -0.009430 1.038956 0.061884 -0.010502 70231.500000 0 0 1
33.717856 -1.694843 19.506580 38.990678 -0.050223 1.046865 0.059815 -0.001650 -3169.980000 0 0 1
33.480456 -2.464943 20.692780 39.436126 -0.073491 1.018414 0.068865 -0.000894 56625.100000 0 0 1
34.110956 -3.769243 20.683380 40.069524 -0.110053 1.028403 0.057433 -0.001817 286442.000000 0 0 1
33.652856 -4.697743 21.866780 40.407173 -0.138698 0.998979 0.060151 0.001320 59165.200000 0 0 1
33.974956 -4.109443 23.090180 41.283672 -0.120370 0.977249 0.055017 -0.002741 129099.000000 0 0 1
33.404556 -4.779343 24.182380 41.514985 -0.142110 0.948998 0.060214 -0.001628 148890.000000 0 0 1
33.724956 -4.018243 25.570370 42.513089 -0.118588 0.925456 0.029067 0.005513 -64691.400000 0 0 1
33.002156 -4.491843 26.637030 42.647982 -0.135276 0.896204 0.044710 0.009416 -516498.000000 0 0 1
33.339356 -3.817843 27.824910 43.592594 -0.114018 0.878516 0.041164 0.004455 141876.000000 0 0 1
32.651856 -4.363743 29.124840 43.970925 -0.132857 0.846824 0.033310 0.000237 174641.000000 0 0 1
32.966556 -5.703043 29.427340 44.556558 -0.171299 0.849380 0.027421 0.000650 -102515.000000 0 0 1
31.935956 -6.222243 30.253910 44.428827 -0.192424 0.821734 0.022647 -0.006908 43001.100000 0 0 1
32.126956 -7.683243 30.610790 45.035475 -0.234744 0.823437 0.010214 -0.003461 292838.000000 0 0 1
33.148856 -7.910743 31.575460 46.458973 -0.234262 0.823522 0.006859 0.000606 97372.900000 0 0 1
33.954956 -9.030343 31.261580 47.029486 -0.259934 0.843673 0.004283 0.013256 6872.110000 0 0 1
35.061656 -9.298843 32.273110 48.552465 -0.259246 0.843696 0.007544 0.020399 -448255.000000 0 0 1
34.612056 -9.823943 33.509563 49.167012 -0.276557 0.820924 -0.016003 0.004929 46868.400000 0 0 1
35.711756 -10.171443 -34.122784 50.429675 -0.277473 2.313987 -0.005744 0.000220 -13503.300000 0 0 1
35.346656 -10.279643 -32.608252 49.176775 -0.283017 2.295725 0.013743 0.002925 -564261.000000 0 0 1
34.932056 -9.044443 -31.989932 48.222466 -0.253352 2.296126 0.024055 -0.005896 676439.000000 0 0 1
35.855156 -7.927243 -31.976992 48.692519 -0.217590 2.287248 0.021207 -0.004329 384009.000000 0 0 1
35.323856 -6.697643 -31.166142 47.581106 -0.187382 2.284993 0.035234 -0.009580 49865.800000 0 0 1
35.659956 -6.811043 -29.797352 46.967062 -0.188727 2.258068 0.044537 -0.013918 115165.000000 0 0 1
34.971056 -5.844443 -29.053852 45.839487 -0.165592 2.257275 0.062055 -0.025509 -469722.000000 0 0 1
35.526056 -5.705043 -27.635412 45.369198 -0.159228 2.225750 0.064448 -0.029058 -422161.000000 0 0 1
-35.565416 -5.360343 -27.599182 45.335934 0.149592 2.225306 0.062803 -0.019802 -564434.000000 0 0 1
-35.145316 -5.142743 -26.275082 44.181681 0.145297 2.207695 0.067457 -0.024946 -651137.000000 0 0 1
-33.764116 -4.575643 -26.063132 42.898006 0.134697 2.223782 0.054113 -0.013932 -1457190.000000 0 0 1
-33.616416 -4.083543 -24.735912 41.935714 0.120882 2.201673 0.063333 -0.021943 952224.000000 0 0 1
-32.257116 -4.022943 -24.269012 40.567112 0.124074 2.212104 0.063013 -0.016131 561978.000000 0 0 1
-31.211916 -3.142443 -24.911912 40.058233 0.100343 2.241953 0.047908 -0.005488 -879231.000000 0 0 1
-30.735116 -3.672543 -26.128202 40.507010 0.118926 2.271858 0.049214 -0.002859 325102.000000 0 0 1
-29.528916 -3.024243 -26.536112 39.815426 0.102060 2.300271 0.040342 -0.002328 259115.000000 0 0 1
-28.967916 -3.731843 -27.757002 40.292902 0.128121 2.330740 0.028546 0.011932 -153845.000000 0 0 1
-29.886016 -3.762043 -28.856312 41.713471 0.125221 2.334740 0.053403 0.009538 64270.300000 0 0 1
-29.451016 -4.594443 -29.915242 42.230237 0.154756 2.358003 0.051195 0.006881 -1309320.000000 0 0 1
-30.549816 -4.910743 -30.959162 43.770725 0.159382 2.356472 0.040920 0.007062 -645837.000000 0 0 1
-31.681616 -5.605943 -30.451642 44.299592 0.175133 2.328703 0.042398 0.002268 470266.000000 0 0 1
-32.592116 -4.708543 -29.801892 44.413615 0.143476 2.306364 0.051903 -0.001674 -1036800.000000 0 0 1
-33.455316 -3.801543 -30.681872 45.553125 0.113145 2.309785 0.069445 -0.005526 -1208290.000000 0 0 1
-32.804616 -2.755243 -31.353632 45.461901 0.083793 2.331827 0.079311 -0.000068 -68284.000000 0 0 1
-32.387916 -1.653243 -30.536042 44.543913 0.051001 2.326123 0.065374 -0.000748 -32607.100000 0 0 1
-32.167316 -0.400043 -31.349642 44.918774 0.012436 2.343283 0.072680 0.002803 -387104.000000 0 0 1
-33.279616 0.103557 -32.027312 46.187577 -0.003112 2.337019 0.069923 -0.002177 -535468.000000 0 0 1
-33.195816 1.466557 -32.338482 46.366911 -0.044150 2.342626 0.068787 -0.002349 966252.000000 0 0 1
-34.600516 2.190357 -32.463232 47.495840 -0.063220 2.323338 0.051515 -0.010104 805227.000000 0 0 1
-35.192916 2.136357 -33.725192 48.790306 -0.060630 2.333982 0.052713 -0.021084 571297.000000 0 0 1
35.865056 2.492057 -33.592112 49.203075 0.069373 2.322280 0.036794 -0.016028 318964.000000 0 0 1
34.989056 1.921257 33.735545 48.641672 0.054855 0.804388 0.031380 -0.020389 -553401.000000 0 0 1
35.209556 2.250057 32.372386 47.882638 0.063818 0.828370 0.028645 -0.013573 -334182.000000 0 0 1
-36.167716 1.584857 31.780580 48.172822 -0.043792 0.850350 0.021233 -0.007133 -535187.000000 0 0 1
-35.982416 1.864057 30.290930 47.071748 -0.051758 0.871727 0.040649 -0.007164 -77737.700000 0 0 1
-35.359816 3.112457 29.992650 46.471099 -0.087796 0.869244 0.054737 -0.014879 114903.000000 0 0 1
-35.152616 3.252457 28.599760 45.433811 -0.092261 0.889910 0.056297 -0.005677 -273063.000000 0 0 1
-34.336416 4.467357 28.263680 44.696559 -0.129379 0.886219 0.053010 -0.006594 -524233.000000 0 0 1
-33.998516 4.527557 26.870570 43.570924 -0.132390 0.906242 0.060665 -0.001812 -7969.740000 0 0 1
-33.507816 5.787157 26.677130 43.219604 -0.171023 0.905559 0.059977 -0.001128 -114497.000000 0 0 1
-32.708116 6.003057 25.321450 41.797529 -0.181514 0.920010 0.056107 0.002399 863920.000000 0 0 1
-31.473116 5.259757 25.350510 40.753778 -0.165589 0.899450 0.054038 -0.001771 859447.000000 0 0 1
-30.600516 5.372157 24.239000 39.405340 -0.173787 0.908259 0.055218 -0.005078 109565.000000 0 0 1
-31.068816 4.894357 22.865180 38.884991 -0.156249 0.942187 0.052286 -0.009578 -356166.000000 0 0 1
-31.180616 3.494157 22.790480 38.779453 -0.111596 0.942590 0.047172 -0.009632 174349.000000 0 0 1
-31.878716 3.169157 21.566680 38.618879 -0.099087 0.978281 0.062147 -0.009540 84110.300000 0 0 1
-31.666216 1.720557 21.075080 38.077140 -0.054281 0.984255 0.060902 -0.004647 -68624.400000 0 0 1
-30.413116 1.405757 20.514980 36.712371 -0.046189 0.977855 0.063992 -0.004698 -236894.000000 0 0 1
-30.323616 1.783057 19.196080 35.933139 -0.058733 1.007216 0.074905 -0.010434 -444975.000000 0 0 1
-28.986516 1.445257 18.530280 34.433678 -0.049818 1.002563 0.087888 -0.016237 -496628.000000 0 0 1
-28.804716 0.045757 18.451280 34.207653 -0.001589 1.001083 0.091097 -0.018514 82379.300000 0 0 1
-27.600516 -0.372543 17.842180 32.867471 0.013497 0.996967 0.092748 -0.022006 -173129.000000 0 0 1
-27.492616 -0.247043 16.300880 31.962848 0.008986 1.035618 0.117369 -0.016938 -343031.000000 0 0 1
-27.416316 1.086257 15.883380 31.703566 -0.039600 1.046046 0.107836 -0.022168 224023.000000 0 0 1
-27.645816 1.240357 14.478980 31.232523 -0.044836 1.088758 0.121582 -0.021465 -128534.000000 0 0 1
-27.108016 2.584257 13.975380 30.607747 -0.095045 1.096631 0.113863 -0.022547 -129339.000000 0 0 1
-25.709216 2.631357 13.819780 29.306555 -0.101996 1.079738 0.108028 -0.025912 -160864.000000 0 0 1
-25.344916 3.896757 13.321680 28.896655 -0.152554 1.091662 0.105359 -0.026773 -150325.000000 0 0 1
-23.830916 3.946657 13.064980 27.462381 -0.164121 1.074990 0.100664 -0.026089 -572654.000000 0 0 1
-23.007516 4.067657 14.170680 27.325808 -0.174989 1.025604 0.083734 -0.014480 390404.000000 0 0 1
-21.699816 4.474157 13.729780 26.065436 -0.203335 1.016032 0.067033 -0.013194 711286.000000 0 0 1
-20.818016 5.071557 14.851380 26.070558 -0.238959 0.964703 0.054846 -0.016166 -166112.000000 0 0 1
-21.281216 6.308857 15.381580 27.005274 -0.288198 0.964805 0.052469 -0.011466 204667.000000 0 0 1
-20.670216 6.661957 16.600380 27.335181 -0.311786 0.918151 0.041055 -0.005095 -168372.000000 0 0 1
-20.897216 8.088757 17.094780 28.184271 -0.369313 0.919100 0.051755 -0.009107 -224624.000000 0 0 1
-20.177616 8.965757 16.205780 27.388835 -0.418139 0.937639 0.036285 -0.013760 646370.000000 0 0 1
-20.512116 10.334557 16.291680 28.159702 -0.466704 0.953852 0.040849 -0.007712 -311813.000000 0 0 1
-19.792716 11.104557 17.427780 28.614512 -0.511282 0.915929 0.035036 -0.005793 -141400.000000 0 0 1
-20.179216 10.578357 18.684780 29.465631 -0.482836 0.883925 0.043418 -0.014259 432168.000000 0 0 1
-19.534216 11.268957 19.747480 29.975623 -0.523248 0.851594 0.054555 -0.009723 -131991.000000 0 0 1
-12.157444 -34.063263 -20.304812 41.477641 1.227981 2.082354 0.105886 -0.024067 -100478.000000 0 0 1
-13.179244 34.249157 -19.345312 41.484193 -1.203457 2.055933 0.130221 -0.021049 820939.000000 0 0 1
-14.331544 -33.499463 -19.682912 41.412851 1.166544 2.066084 0.122727 -0.040244 155049.000000 0 0 1
-15.536344 -34.064863 -18.950812 41.963391 1.142897 2.039358 0.106449 -0.035959 -1175970.000000 0 0 1
-16.136144 33.448057 -19.718612 42.047250 -1.121308 2.058913 0.106122 -0.036924 616724.000000 0 0 1
-16.891944 32.447257 -18.977112 41.210350 -1.090807 2.049348 0.101141 -0.027839 1514540.000000 0 0 1
-18.318444 32.867557 -18.419212 41.894021 -1.062334 2.026019 0.099526 -0.026982 473527.000000 0 0 1
-18.288544 33.791257 -17.300012 42.137991 -1.074718 1.993860 0.099768 -0.025689 -72752.400000 0 0 1
-19.590144 33.997757 -16.815912 42.689531 -1.048047 1.975680 0.071063 -0.019044 -276385.000000 0 0 1
-19.898544 33.519057 -15.429612 41.923169 -1.035060 1.947702 0.071241 -0.020518 -388957.000000 0 0 1
-19.775644 32.127057 -15.246012 40.689860 -1.019025 1.954857 0.076798 -0.023021 63652.400000 0 0 1
-20.147044 31.798157 -13.901912 40.128410 -1.006043 1.924565 0.073619 -0.018011 -81674.900000 0 0 1
-20.168544 30.330257 -13.602412 38.880846 -0.983973 1.928206 0.069670 -0.018939 -200206.000000 0 0 1
-18.908444 29.749657 -13.396312 37.709846 -1.004621 1.933975 0.076200 -0.027901 -326479.000000 0 0 1
-18.865344 28.334457 -13.590112 36.652882 -0.983388 1.950644 0.070219 -0.030980 -656812.000000 0 0 1
-17.516844 27.725957 -13.271212 35.379281 -1.007333 1.955314 0.087833 -0.025432 274443.000000 0 0 1
-16.410244 28.117357 -14.103812 35.479562 -1.042498 1.979608 0.098226 -0.030856 179863.000000 0 0 1
-15.207344 27.448657 -13.848012 34.299555 -1.064865 1.986395 0.104353 -0.032364 -92546.500000 0 0 1
-14.016144 28.101957 -14.566812 34.617398 -1.108141 2.005117 0.090134 -0.025888 -396260.000000 0 0 1
-14.064044 27.887157 -15.985712 35.086091 -1.103699 2.043858 0.092005 -0.028928 -273126.000000 0 0 1
-13.114844 28.573557 -16.749412 35.622887 -1.140495 2.060299 0.093451 -0.029234 -263244.000000 0 0 1
-13.272344 28.289357 -18.245012 36.184572 -1.132121 2.099276 0.108105 -0.043001 93383.300000 0 0 1
-12.894944 26.955557 -18.520712 35.155346 -1.124595 2.125657 0.088465 -0.040157 288074.000000 0 0 1
-13.463544 26.626757 -19.784412 35.800477 -1.102647 2.156313 0.073475 -0.046970 -224946.000000 0 0 1
-12.789244 25.453057 -20.523712 35.109053 -1.105179 2.195147 0.053454 -0.038368 19081.800000 0 0 1
-11.467344 25.810357 -20.943012 35.160834 -1.152699 2.208852 0.040199 -0.029794 266009.000000 0 0 1
-10.843044 24.700557 -21.563912 34.535364 -1.157145 2.245161 0.044338 -0.029803 -255656.000000 0 0 1
-9.532444 25.156357 -22.194712 34.875708 -1.208587 2.260611 0.064438 -0.030297 -613484.000000 0 0 1
-9.845944 25.789657 -23.386612 36.179865 -1.206096 2.273651 0.059678 -0.027477 98441.400000 0 0 1
-8.760344 26.243557 -24.166612 36.735446 -1.248617 2.288764 0.051025 -0.031314 -282253.000000 0 0 1
-9.230344 27.070357 -25.391522 38.245690 -1.242183 2.296826 0.052068 -0.028001 -229344.000000 0 0 1
-10.170044 26.474257 -26.236522 38.635102 -1.204029 2.317312 0.030097 -0.012489 -238921.000000 0 0 1
-10.493244 27.206457 -27.434842 40.037107 -1.202687 2.325723 0.043939 -0.011833 -280041.000000 0 0 1
-11.709444 26.690657 -28.195772 40.552482 -1.157371 2.339621 0.033139 -0.007056 -261206.000000 0 0 1
-12.004244 27.239657 -29.439832 41.866507 -1.155712 2.350661 0.043700 -0.003388 135573.000000 0 0 1
-13.244444 26.747957 -29.927992 42.267637 -1.111030 2.357542 0.030549 0.004334 164814.000000 0 0 1
-13.223444 26.888957 -31.457752 43.444972 -1.113747 2.380500 0.025406 -0.000325 112454.000000 0 0 1
-12.340344 26.128257 -32.273202 43.318927 -1.129554 2.411352 0.031848 -0.005635 259675.000000 0 0 1
-12.700644 24.745957 -32.406702 42.706709 -1.096612 2.432296 0.022108 -0.003838 -218109.000000 0 0 1
-11.963144 24.196857 -33.580622 43.084369 -1.111632 2.464529 0.017978 0.001886 -332847.000000 0 0 1
-12.367844 24.610357 33.584363 43.434349 -1.105114 0.686891 0.019002 0.005452 -10750.300000 0 0 1
-11.791744 23.756257 32.590903 42.018709 -1.110062 0.683086 0.010842 0.002262 -484443.000000 0 0 1
-12.386544 23.789357 31.169660 41.120648 -1.090745 0.710547 0.011506 0.013788 -312861.000000 0 0 1
-13.374544 22.776257 31.052980 40.766700 -1.039831 0.704826 0.029772 -0.001504 -232118.000000 0 0 1
-13.895744 22.813257 29.770770 39.997939 -1.023706 0.731299 0.035969 0.001362 -354232.000000 0 0 1
-15.038244 21.793357 29.678820 39.773503 -0.966788 0.728467 0.035671 -0.006549 -244908.000000 0 0 1
-14.635844 20.463757 29.822050 39.017021 -0.949936 0.700788 0.005236 -0.007614 -367777.000000 0 0 1
-15.728044 19.597457 29.958860 39.101982 -0.894499 0.697933 0.015952 -0.011392 10558.200000 0 0 1
-15.182344 18.140257 30.178150 38.344403 -0.873932 0.664818 -0.006259 -0.010053 107597.000000 0 0 1
-14.779644 17.669957 28.878870 36.941229 -0.874235 0.673326 0.013454 -0.020910 -93680.500000 0 0 1
-14.096444 16.475457 28.896690 36.127124 -0.863059 0.643732 -0.002142 -0.027713 -246585.000000 0 0 1
-13.846444 15.915357 27.421980 34.597508 -0.854802 0.655735 0.019052 -0.022787 789050.000000 0 0 1
-12.896844 16.775357 26.706790 34.073359 -0.915373 0.670031 -0.015976 -0.016258 582309.000000 0 0 1
-12.455544 16.137757 25.519800 32.662332 -0.913472 0.674015 -0.029735 -0.011098 -417726.000000 0 0 1
-11.354044 16.948957 24.854910 32.155062 -0.980561 0.687287 -0.015406 -0.009251 -567443.000000 0 0 1
-11.664144 18.050457 23.975650 32.197873 -0.997099 0.730809 -0.012674 -0.004066 -149012.000000 0 0 1
-12.137644 19.339657 24.489670 33.482662 -1.010327 0.750404 -0.005421 -0.008752 131972.000000 0 0 1
-11.154244 20.119257 25.380790 34.254724 -1.064576 0.736323 -0.018912 -0.008891 -109952.000000 0 0 1
-10.962244 19.601257 26.695710 34.886115 -1.060870 0.699406 -0.016863 -0.012988 431978.000000 0 0 1
-12.072144 19.807957 27.591880 36.047242 -1.023450 0.699077 0.000917 -0.004731 333184.000000 0 0 1
-11.737744 19.418257 29.084470 36.888341 -1.027097 0.662518 -0.001276 -0.011097 237525.000000 0 0 1
-10.602344 20.133957 29.624880 37.355313 -1.086104 0.654986 -0.019085 -0.011694 601357.000000 0 0 1
-10.632144 19.930357 31.038940 38.388506 -1.080737 0.629116 -0.013521 -0.009766 472282.000000 0 0 1
-9.503444 20.755557 31.738290 39.095110 -1.141413 0.623530 -0.029299 -0.003199 1806960.000000 0 0 1
-8.148344 20.235357 31.756020 38.526744 -1.187983 0.601904 -0.031520 -0.010688 1346410.000000 0 0 1
-7.256444 21.115857 32.419917 39.364786 -1.239791 0.603108 -0.011907 -0.006306 17822.900000 0 0 1
-6.048544 20.365457 33.017587 39.261912 -1.282094 0.571747 -0.011198 -0.006169 -354804.000000 0 0 1
-6.392444 19.464357 34.055973 39.743349 -1.253476 0.541576 -0.008838 -0.013155 397980.000000 0 0 1
-5.231144 18.979257 -33.724372 39.050100 -1.301850 2.613199 -0.009538 -0.010759 269759.000000 0 0 1
-4.430944 17.882257 33.985595 38.657846 -1.327904 0.496745 -0.019601 -0.015599 -275864.000000 0 0 1
-5.036544 16.627957 33.982584 38.166369 -1.276685 0.472616 -0.017082 -0.017836 -101495.000000 0 0 1
-4.423344 15.884457 32.920069 36.818649 -1.299207 0.464347 -0.016467 -0.015523 61918.300000 0 0 1
-5.173144 14.602457 32.533416 36.033544 -1.230327 0.444409 -0.000280 -0.022809 -402165.000000 0 0 1
-4.884744 13.608657 33.474156 36.463343 -1.226176 0.407733 0.009552 -0.022006 132619.000000 0 0 1
-5.574644 12.385857 33.225763 35.894811 -1.147875 0.388066 0.012554 -0.017094 -13996.400000 0 0 1
-4.678244 11.226157 33.723529 35.849532 -1.175954 0.346119 0.029460 -0.018753 235262.000000 0 0 1
-4.563944 10.985557 -33.287662 35.349405 -1.177043 2.798371 0.036782 -0.021829 -191917.000000 0 0 1
-3.798944 9.831657 -33.005332 34.647444 -1.202070 2.832484 0.054763 -0.019245 106211.000000 0 0 1
-3.767644 9.588857 -31.490052 33.132532 -1.196409 2.825402 0.053115 -0.020433 133815.000000 0 0 1
-4.964944 9.031257 -31.002552 32.670667 -1.068144 2.820660 0.061376 -0.012543 -21063.400000 0 0 1
-4.687244 8.591357 -29.727802 31.297346 -1.071355 2.823554 0.073609 -0.002115 204155.000000 0 0 1
-5.865644 7.872557 -29.011632 30.627727 -0.930455 2.815291 0.066515 -0.011884 87918.300000 0 0 1
-5.567644 6.688757 -28.259782 29.569467 -0.876616 2.842853 0.061982 -0.012814 -434736.000000 0 0 1
-6.746144 6.030557 -27.916962 29.346802 -0.729449 2.828150 0.069755 -0.027386 -790220.000000 0 0 1
-6.612444 5.209857 -26.621432 27.920739 -0.667311 2.835321 0.056549 -0.029248 -368818.000000 0 0 1
-6.738144 5.958057 -25.415762 26.960378 -0.724033 2.801453 0.032664 -0.019545 86347.100000 0 0 1
-5.652644 6.786857 -25.075812 26.585901 -0.876325 2.802929 0.040236 -0.015862 -306556.000000 0 0 1
-6.084044 7.815957 -23.992512 25.956606 -0.909357 2.750077 0.017137 -0.013938 92054.900000 0 0 1
-6.479544 7.253857 -22.786912 24.775921 -0.841720 2.738163 0.009848 -0.007296 -184691.000000 0 1 0
-7.808244 7.544057 -22.425512 24.915558 -0.768192 2.690705 0.014793 0.000929 -65982.100000 0 1 0
-7.875344 7.858657 -20.941712 23.713600 -0.784338 2.653246 0.013206 -0.001777 -244020.000000 0 1 0
-7.048044 8.916857 -20.580912 23.510831 -0.901925 2.637018 -0.005853 -0.001193 -317164.000000 0 1 0
-6.835944 9.148757 -19.194512 22.335155 -0.929090 2.604863 -0.002107 0.002637 -465766.000000 0 1 0
-8.018944 9.427957 -18.240512 22.043278 -0.865983 2.545412 -0.009497 0.001400 -702617.000000 0 1 0
-7.699644 9.510857 -16.885112 20.853007 -0.890251 2.514472 -0.014538 0.000750 449701.000000 0 1 0
-8.816744 9.860257 -16.040912 20.791115 -0.841212 2.452035 -0.005208 -0.004893 396732.000000 0 1 0
-9.422644 11.232557 -16.324312 21.941734 -0.872800 2.409810 0.000287 -0.005734 -754963.000000 0 1 0
-8.498444 12.272157 -16.068112 21.932022 -0.965123 2.392978 -0.013642 -0.003399 -350373.000000 0 1 0
-9.014844 13.523357 -16.173412 22.928755 -0.982831 2.353751 0.005050 -0.006968 -123162.000000 0 1 0
-7.913544 14.638757 -16.161112 23.196959 -1.075208 2.341571 0.011781 -0.002041 272193.000000 0 1 0
-7.327544 14.828757 -14.841212 22.222657 -1.111844 2.302101 0.009275 0.002383 531382.000000 0 1 0
-8.206844 15.394157 -13.884912 22.296258 -1.081010 2.243044 0.012566 -0.013810 -626104.000000 0 1 0
-7.350444 15.973557 -12.735012 21.710920 -1.139523 2.197616 0.008036 -0.014674 311132.000000 0 1 0
-6.915944 17.281057 -13.077212 22.748157 -1.190114 2.183240 0.022885 -0.016432 -510582.000000 0 1 0
-5.872444 17.418857 -13.983612 23.096397 -1.245631 2.221122 0.022688 -0.013216 -1006900.000000 0 1 0
-5.752744 18.851157 -14.417312 24.419645 -1.274606 2.202348 0.057639 -0.009714 161850.000000 0 1 0
-5.090244 19.702357 -13.505112 24.422970 -1.317968 2.156718 0.056333 -0.014420 -89520.800000 0 1 0
-5.196244 21.011057 -13.928412 25.738417 -1.328351 2.142603 0.068747 -0.010307 73804.100000 0 0 1
-4.655344 22.092157 -12.909312 26.007421 -1.363111 2.090209 0.074415 -0.009486 -695488.000000 0 0 1
-4.840244 23.426057 -13.272012 27.356067 -1.367046 2.077340 0.064732 -0.010861 787552.000000 0 0 1
-6.176944 23.957357 -13.391012 28.132344 -1.318461 2.066898 0.073074 -0.014104 665991.000000 0 0 1
-6.991644 23.984657 -12.080212 27.750285 -1.287151 2.021188 0.064677 -0.013127 -541713.000000 0 0 1
-7.402744 22.706757 -11.632712 26.565342 -1.255647 2.024047 0.072900 -0.011909 -391496.000000 0 0 1
-8.159544 22.687457 -10.465412 26.283525 -1.225551 1.980322 0.084237 -0.015377 -388358.000000 0 0 1
-7.425644 23.005057 -9.147312 25.846588 -1.258571 1.932542 0.083692 -0.018537 -52907.100000 0 0 1
-7.074544 24.375257 -8.988712 26.925810 -1.288322 1.911163 0.077428 -0.014272 62689.600000 0 0 1
-6.086744 24.543957 -7.983912 26.517864 -1.327707 1.876618 0.078756 -0.024927 144540.000000 0 0 1
-5.992644 26.066057 -7.660812 27.821558 -1.344821 1.849756 0.055598 -0.022121 -124054.000000 0 0 1
-5.237944 26.859157 -8.517312 28.659989 -1.378198 1.872539 0.061368 -0.024802 -328686.000000 0 0 1
-5.731444 26.987757 -9.828012 29.287852 -1.361533 1.913002 0.062232 -0.016138 -56764.200000 0 0 1
-5.393244 28.387957 -10.443612 30.725107 -1.383050 1.917612 0.057593 -0.015973 -14073.000000 0 0 1
-6.201444 29.451257 -9.967112 31.704538 -1.363262 1.890594 0.059801 -0.020840 -233464.000000 0 0 1
-7.200844 29.734757 -10.909912 32.481288 -1.333201 1.913339 0.058187 -0.018421 -138210.000000 0 0 1
-8.225544 30.818657 -10.469112 33.571587 -1.309975 1.887930 0.046981 -0.019896 262964.000000 0 0 1
-9.406244 30.325357 -9.858912 33.246095 -1.270029 1.871868 0.050824 -0.017606 98879.800000 0 0 1
-10.354644 31.366957 -9.692112 34.424434 -1.251947 1.856203 0.045572 -0.015313 -6518.200000 0 0 1
-11.524644 30.972557 -8.781912 34.194132 -1.214577 1.830532 0.058852 -0.020298 -239792.000000 0 0 1
-12.252044 29.904157 -9.346712 33.641227 -1.181947 1.852336 0.068784 -0.024182 -451693.000000 0 0 1
-13.444444 29.755357 -8.609112 33.767605 -1.146419 1.828594 0.063490 -0.020250 -2993.810000 0 0 1
-14.361444 28.670757 -9.244512 33.372509 -1.106422 1.851477 0.069977 -0.024114 -234406.000000 0 0 1
-14.071544 27.300257 -8.984912 32.000640 -1.094876 1.855396 0.073896 -0.020159 -61575.500000 0 0 1
-15.010744 26.441157 -9.580612 31.878603 -1.054463 1.876049 0.075941 -0.019711 -155789.000000 0 0 1
-15.071644 25.070457 -8.880812 30.570428 -1.029516 1.865549 0.075953 -0.016237 -62305.700000 0 0 1
-14.168344 24.143357 -9.467012 29.551107 -1.040108 1.896906 0.082281 -0.011255 340115.000000 0 0 1
-14.304444 22.867557 -8.889012 28.399943 -1.011813 1.889140 0.079883 -0.010637 -606338.000000 0 0 1
-13.285344 21.848857 -9.337712 27.222523 -1.024474 1.920920 0.083603 -0.009206 -645626.000000 0 0 1
-13.363944 21.502557 -10.714812 27.491128 -1.014714 1.971162 0.081756 -0.006387 254704.000000 0 0 1
-12.651544 20.295157 -10.921012 26.291128 -1.013365 1.999165 0.083561 -0.014493 -114640.000000 0 0 1
-12.669544 19.840957 -12.406812 26.610334 -1.002509 2.055832 0.083222 -0.013862 458020.000000 0 0 1
-13.938344 19.288057 -12.751312 26.998194 -0.945036 2.062697 0.086669 -0.008236 332795.000000 0 0 1
-14.166044 19.083157 -14.138512 27.653954 -0.932221 2.107453 0.091148 -0.001560 349357.000000 0 0 1
-15.641744 18.806157 -14.534212 28.453101 -0.877002 2.106926 0.078623 0.000963 396816.000000 0 0 1
-16.390744 19.971457 -14.789912 29.770070 -0.883555 2.090709 0.059876 0.002417 -374731.000000 0 0 1
-17.723844 19.638957 -15.073512 30.447233 -0.836611 2.088712 0.039790 0.002289 -498131.000000 0 0 1
-18.562244 20.742857 -15.734812 31.975104 -0.840820 2.085292 0.031467 0.000630 -81401.600000 0 0 1
-18.940744 21.842757 -14.912912 32.530797 -0.856435 2.047018 0.044016 -0.012782 316993.000000 0 0 1
-19.465944 22.884457 -15.710012 33.903183 -0.865943 2.052600 0.047463 -0.013116 -72909.500000 0 0 1
-19.863244 24.094257 -14.830312 34.569058 -0.881355 2.014188 0.050182 -0.003249 697964.000000 0 0 1
-21.013044 23.899457 -13.967112 34.753593 -0.849577 1.984376 0.056871 -0.004424 997946.000000 0 0 1
-21.381544 25.049857 -13.199912 35.481029 -0.864239 1.951988 0.060593 -0.016721 -139228.000000 0 0 1
-25.815794 -0.595343 3.971088 26.126217 0.023057 1.418209 0.102550 -0.038059 -156040.000000 0 0 1
-26.231084 0.046757 5.136988 26.729396 -0.001782 1.377408 0.109344 -0.038731 -285389.000000 0 0 1
-27.561734 -0.306543 5.396888 28.086822 0.011122 1.377444 0.120220 -0.036905 -438247.000000 0 0 1
-28.051614 0.586057 6.585988 28.820336 -0.020889 1.340240 0.126864 -0.031353 -333673.000000 0 0 1
-28.379184 1.923957 6.172988 29.106451 -0.067691 1.357090 0.133188 -0.035075 236751.000000 0 0 1
-28.890404 2.739857 7.203988 29.900831 -0.094553 1.327473 0.132809 -0.031015 99528.800000 0 0 1
-27.794684 3.191557 8.218888 29.159572 -0.114325 1.285065 0.143412 -0.035889 193262.000000 0 0 1
-27.188804 2.127057 8.952488 28.703701 -0.078074 1.253611 0.143184 -0.042547 368946.000000 0 0 1
-26.157654 2.688257 9.752588 28.045723 -0.102412 1.215638 0.139473 -0.048646 -307969.000000 0 0 1
-25.393284 1.552957 10.430388 27.495882 -0.061080 1.181710 0.133326 -0.046044 -391022.000000 0 0 1
-24.330744 0.913457 9.734888 26.221891 -0.037526 1.190441 0.114809 -0.042172 227402.000000 0 0 1
-24.743844 -0.150243 8.884288 26.290891 0.006072 1.226087 0.095515 -0.040088 -569303.000000 0 0 1
-23.642244 -0.794243 8.050688 24.987999 0.033582 1.242763 0.085454 -0.041453 -320860.000000 0 1 0
-22.783844 -1.669343 8.771388 24.470952 0.073138 1.204199 0.084988 -0.046380 292234.000000 0 1 0
-21.727544 -2.115743 7.925488 23.224468 0.097070 1.222544 0.096898 -0.042326 73987.500000 0 1 0
-20.474144 -2.432543 8.774188 22.407459 0.118256 1.168454 0.079996 -0.031472 208537.000000 0 1 0
-19.716344 -1.296443 9.247288 21.815759 0.065660 1.133070 0.061852 -0.035748 888903.000000 0 1 0
-20.343944 -0.754743 10.426688 22.872724 0.037082 1.097462 0.072032 -0.032782 -624198.000000 0 1 0
-19.847144 0.663057 10.699988 22.557449 -0.033396 1.076578 0.048724 -0.020427 -450379.000000 0 1 0
-20.279944 1.796457 9.962488 22.666154 -0.088352 1.115719 0.057681 -0.025840 859.690000 0 1 0
-21.590144 2.150957 10.312988 24.023294 -0.099299 1.127089 0.089634 -0.021852 -764088.000000 0 1 0
-21.990244 3.519557 9.668988 24.278539 -0.158705 1.161185 0.082652 -0.035753 -234293.000000 0 1 0
-21.970144 4.666757 10.546488 24.813187 -0.209303 1.131795 0.073635 -0.032218 444174.000000 0 1 0
-22.468944 5.817757 9.871588 25.221974 -0.253360 1.168656 0.071784 -0.032135 -74809.800000 0 0 1
-22.744444 7.006457 10.810888 26.139538 -0.298827 1.144410 0.078749 -0.028293 -4854.600000 0 0 1
-23.793744 6.808957 11.732488 27.388965 -0.278717 1.128113 0.078154 -0.024419 160256.000000 0 0 1
-23.771744 7.821757 12.656588 28.043982 -0.317878 1.102561 0.064240 -0.018206 123873.000000 0 0 1
-24.684544 7.562957 13.887988 29.315546 -0.297304 1.077262 0.068591 -0.015563 1421710.000000 0 0 1
-26.075774 7.307757 13.598288 30.302850 -0.273241 1.105434 0.074365 -0.016284 688245.000000 0 0 1
-26.855294 6.938257 14.680288 31.382433 -0.252829 1.084011 0.082977 -0.017911 -216541.000000 0 0 1
-28.285044 6.573057 14.234788 32.340037 -0.228334 1.115020 0.087317 -0.011452 -175756.000000 0 0 1
-28.395754 5.446357 13.414188 31.873533 -0.189500 1.136407 0.106588 -0.014478 57891.700000 0 0 1
-29.322874 5.742357 12.371288 32.339672 -0.193385 1.178250 0.111121 -0.019682 -130912.000000 0 0 1
-29.885014 4.530057 11.623788 32.384378 -0.150438 1.203673 0.126568 -0.021703 126275.000000 0 0 1
-30.867604 3.780957 12.335888 33.455624 -0.121882 1.193160 0.110227 -0.022667 281811.000000 0 0 1
-31.280714 2.699857 11.571388 33.461460 -0.086097 1.217692 0.124047 -0.017329 -362957.000000 0 0 1
-32.449744 1.933957 12.209888 34.724738 -0.059528 1.211496 0.097026 -0.010044 -327482.000000 0 0 1
-32.130894 1.042357 13.224088 34.761435 -0.032430 1.180541 0.114351 -0.011506 103414.000000 0 0 1
-33.246784 0.182557 13.442988 35.862179 -0.005491 1.186560 0.095525 -0.009897 235990.000000 0 0 1
-32.994604 -1.015543 14.398688 36.013851 0.030769 1.159487 0.075297 -0.015594 181761.000000 0 0 1
-32.279864 -2.109143 13.770088 35.157552 0.065247 1.168353 0.082971 -0.014953 471648.000000 0 0 1
-32.196204 -3.153143 14.709088 35.537236 0.097624 1.144055 0.077738 -0.011611 -123535.000000 0 0 1
-32.036514 -4.609643 14.107488 35.307340 0.142906 1.159757 0.075963 -0.015259 196552.000000 0 0 1
-33.242004 -5.070643 13.508988 36.238585 0.151370 1.188794 0.061299 -0.022216 224263.000000 0 0 1
-33.182404 -6.385443 12.990888 36.202334 0.190111 1.203770 0.059817 -0.025621 -1179710.000000 0 0 1
-34.409418 -6.784343 12.168588 37.122903 0.194668 1.236831 0.061947 -0.018255 395316.000000 0 0 1
-35.621966 -6.853843 12.932488 38.511672 0.190082 1.228334 0.047475 -0.022080 634463.000000 0 0 1
36.198028 -5.585443 13.148288 38.914932 -0.153095 1.226141 0.048083 -0.021156 547735.000000 0 0 1
34.683448 -5.469943 12.670688 37.328384 -0.156422 1.224476 0.050753 -0.012934 1485160.000000 0 0 1
33.815458 -6.294343 13.425588 36.923575 -0.184032 1.198662 0.049879 -0.012379 1247760.000000 0 0 1
32.445358 -6.235043 12.934288 35.480598 -0.189856 1.197652 0.049978 -0.011893 1987410.000000 0 0 1
31.450618 -7.385643 13.333888 34.949703 -0.230654 1.179360 0.035171 -0.012652 530245.000000 0 0 1
31.058178 -7.358743 14.697588 35.139446 -0.232644 1.139262 0.039144 -0.005878 -88313.500000 0 0 1
30.036378 -8.308443 14.912088 34.548294 -0.269865 1.124497 0.046960 -0.003730 114490.000000 0 0 1
29.438398 -8.219243 16.345088 34.660311 -0.272268 1.079715 0.043907 -0.010549 -25349.200000 0 0 1
30.299588 -8.788543 17.315388 35.987862 -0.282308 1.068836 0.033277 -0.005525 -79837.800000 0 0 1
29.766218 -8.748243 18.650888 36.199657 -0.285850 1.029529 0.041314 -0.009239 -664492.000000 0 0 1
30.717228 -9.167543 19.772688 37.663659 -0.290034 1.018104 0.040778 -0.009149 -172178.000000 0 0 1
31.919578 -8.478543 19.979888 38.599756 -0.259627 1.026733 0.041052 -0.010604 -558353.000000 0 0 1
32.967338 -8.951843 19.160088 39.167460 -0.265144 1.059643 0.017999 -0.009846 -557222.000000 0 0 1
34.279858 -8.337643 19.717288 40.415300 -0.238590 1.061152 0.029433 -0.002963 -138383.000000 0 0 1
34.631188 -8.683943 20.991088 41.416855 -0.245689 1.039299 0.023274 -0.008234 -542415.000000 0 0 1
35.840568 -8.096943 21.369088 42.505821 -0.222186 1.044039 0.018024 -0.006217 -110220.000000 0 0 1
-36.029374 -8.543443 22.766988 43.467712 0.232824 1.019528 0.029819 -0.006222 193400.000000 0 0 1
35.706958 -7.982143 23.865488 43.683670 -0.219930 0.992826 0.026529 -0.004811 200730.000000 0 0 1
35.518838 -8.871443 24.944388 44.300259 -0.244760 0.972694 0.015015 -0.004939 -268768.000000 0 0 1
34.936658 -8.203243 26.233288 44.452770 -0.230626 0.939566 0.028874 0.000893 -130958.000000 0 0 1
35.902038 -7.512443 26.965988 45.525352 -0.206272 0.936850 0.015042 0.001064 -492629.000000 0 0 1
35.372268 -6.823043 28.051988 45.658136 -0.190552 0.909181 0.014432 0.000025 -208760.000000 0 0 1
-35.963571 -6.432243 29.078988 46.694108 0.176983 0.898537 0.010670 0.005644 702494.000000 0 0 1
-35.429774 -7.645543 29.669188 46.839982 0.212535 0.884837 0.003045 0.003599 12100.000000 0 0 1
-34.182479 -7.319943 30.268288 46.240596 0.210957 0.857166 0.005874 0.004271 488402.000000 0 0 1
-33.908444 -8.147943 31.556588 47.031796 0.235821 0.835290 -0.003819 0.011270 -61019.800000 0 0 1
-33.853204 -9.548743 31.544488 47.246933 0.274921 0.839747 -0.005117 0.006379 416082.000000 0 0 1
-33.102194 -10.023643 32.674288 47.579804 0.294032 0.813821 -0.002549 0.003452 50075.900000 0 0 1
-33.172064 -11.578143 32.720688 48.011277 0.335813 0.820957 0.019447 -0.005977 -735346.000000 0 0 1
-34.411324 -12.071643 33.095788 49.246269 0.337391 0.833827 0.003089 -0.003435 -858306.000000 0 0 1
-34.480773 -13.485043 33.096088 49.660056 0.372801 0.841355 0.015534 -0.017259 106120.000000 0 0 1
-35.913460 -14.003943 33.345488 50.968702 0.371800 0.857626 0.014974 -0.012279 167573.000000 0 0 1
-36.169994 -15.403043 33.531388 51.670845 0.402592 0.864603 0.025729 -0.014098 1970870.000000 0 0 1
34.827298 -15.626143 33.765888 50.963245 -0.421752 0.846573 0.021657 -0.008451 2273610.000000 0 0 1
34.433388 -17.079243 34.172288 51.430575 -0.460449 0.844058 0.019222 -0.011873 -221074.000000 0 0 1
34.971518 -17.339543 -33.005703 51.117935 -0.460297 2.272707 0.033583 -0.017851 196320.000000 0 0 1
34.848888 -18.731343 -32.739903 51.353768 -0.493197 2.262093 0.034532 -0.019073 -303421.000000 0 0 1
35.399608 -19.106343 -31.351903 51.001240 -0.494927 2.232838 0.050381 -0.025276 80145.900000 0 0 1
34.455348 -19.072943 -30.289803 49.683200 -0.505569 2.226426 0.049487 -0.019048 -53993.100000 0 0 1
34.725588 -20.068143 -29.320703 49.681994 -0.524016 2.202063 0.048850 -0.014939 -967137.000000 0 0 1
33.690488 -20.253443 -28.178703 48.366210 -0.541274 2.192734 0.028779 -0.009132 690345.000000 0 0 1
32.466468 -20.913343 -28.514703 48.005498 -0.572253 2.206804 0.041266 -0.011341 355414.000000 0 0 1
31.602528 -20.142043 -29.272703 47.553264 -0.567435 2.233914 0.019636 -0.007564 -740491.000000 0 0 1
30.302738 -20.837743 -29.794303 47.330413 -0.602391 2.251701 0.007863 -0.000861 747238.000000 0 0 1
29.451588 -20.081443 -30.636103 47.002460 -0.598438 2.280749 -0.006898 0.003504 -24244.200000 0 0 1
28.154268 -20.606243 -30.680403 46.460384 -0.631819 2.292089 0.002486 0.003051 99955.700000 0 0 1
27.193028 -19.918643 -31.696503 46.269660 -0.632201 2.325453 0.001340 0.012564 384830.000000 0 0 1
27.585638 -20.197243 -33.016103 47.528509 -0.631989 2.338742 -0.004694 0.005219 -138789.000000 0 0 1
26.670328 -19.626843 -33.899403 47.388701 -0.634419 2.367918 0.015536 0.001367 -402063.000000 0 0 1
27.035228 -19.841743 33.087688 47.110439 -0.633131 0.792113 0.016438 0.002297 -23396.500000 0 0 1
28.095558 -18.999243 32.639388 47.070812 -0.594599 0.804585 0.004437 0.002487 398055.000000 0 0 1
28.362608 -19.093543 31.244288 46.316374 -0.592508 0.830395 0.010994 -0.005590 -355815.000000 0 0 1
27.419158 -18.244043 30.388288 44.811867 -0.587108 0.825581 0.017662 -0.001039 -149883.000000 0 0 1
27.515508 -16.902943 30.744488 44.587400 -0.550872 0.809952 0.023748 -0.003596 160674.000000 0 0 1
26.566428 -16.132943 30.064488 43.242577 -0.545747 0.802026 0.046062 -0.007635 -242198.000000 0 0 1
26.372828 -14.642443 30.521588 42.912639 -0.506834 0.779522 0.061704 -0.006444 388063.000000 0 0 1
27.558928 -13.825643 30.432188 43.321600 -0.464987 0.791932 0.050752 0.007071 546245.000000 0 0 1
27.545558 -12.597343 31.184588 43.473318 -0.428931 0.770838 0.085851 -0.009939 -979111.000000 0 0 1
28.809798 -11.803243 31.055388 43.974518 -0.388836 0.786661 0.061940 -0.007725 -890453.000000 0 0 1
28.975518 -11.211843 29.777688 43.034833 -0.369199 0.806618 0.039836 -0.008499 499137.000000 0 0 1
30.385918 -11.124943 29.546588 43.818595 -0.350964 0.830789 0.019173 0.000642 659273.000000 0 0 1
30.703028 -10.475343 28.226488 43.001668 -0.328798 0.854753 0.020670 -0.001508 -111989.000000 0 0 1
30.715658 -9.073843 28.268788 42.718974 -0.287244 0.847661 0.042225 -0.003696 -95210.800000 0 0 1
30.761438 -8.571643 26.918588 41.765411 -0.271755 0.870403 0.034467 -0.001198 -44331.400000 0 0 1
30.545158 -7.043943 26.763688 41.217943 -0.226645 0.864105 0.041833 0.000743 194347.000000 0 0 1
29.182738 -6.674543 26.774488 40.162856 -0.224848 0.841094 0.051243 0.005869 -224743.000000 0 0 1
29.003728 -5.323943 26.382988 39.567951 -0.181540 0.840921 0.061321 0.005250 1272000.000000 0 0 1
27.499268 -4.906443 26.131388 38.250914 -0.176563 0.818719 0.051417 0.010432 969728.000000 0 0 1
26.988928 -5.136043 24.873988 37.060714 -0.188053 0.835012 0.069493 0.004464 442273.000000 0 0 1
25.575928 -4.911043 24.914888 36.041617 -0.189709 0.807536 0.068131 0.004017 593005.000000 0 0 1
24.777328 -5.087843 23.609788 34.600929 -0.202527 0.819830 0.059037 0.006219 -127506.000000 0 0 1
25.105128 -4.131643 22.623788 34.046641 -0.163112 0.843980 0.066995 0.006957 100745.000000 0 0 1
24.872028 -4.659243 21.333488 33.097493 -0.185182 0.870342 0.054799 0.007936 139513.000000 0 0 1
25.336528 -3.693943 20.176188 32.598519 -0.144775 0.903417 0.076257 -0.002942 202486.000000 0 0 1
24.622328 -2.474843 20.179988 31.931424 -0.100176 0.886692 0.063414 0.004999 100450.000000 0 0 1
25.123428 -1.576343 19.226188 31.675193 -0.062662 0.918542 0.081445 -0.010922 -739379.000000 0 0 1
24.007028 -0.657843 18.758988 30.474084 -0.027395 0.907685 0.055520 -0.013129 -60122.500000 0 0 1
23.089228 -1.452143 17.975588 29.297491 -0.062810 0.910243 0.054123 -0.018611 868382.000000 0 0 1
21.886828 -0.675943 17.715388 28.166028 -0.030874 0.890578 0.061544 -0.018644 1432370.000000 0 0 1
20.748928 -1.613543 17.182188 26.987945 -0.077609 0.880635 0.054944 -0.022781 425179.000000 0 0 1
21.037628 -2.111243 15.896388 26.452492 -0.100021 0.926118 0.084941 -0.036003 594259.000000 0 0 1
19.897128 -2.893743 15.537188 25.410110 -0.144423 0.912896 0.087689 -0.035144 306149.000000 0 0 1
19.959928 -3.367143 14.080588 24.657643 -0.167122 0.963020 0.096161 -0.045529 -358915.000000 0 1 0
18.964428 -4.258443 13.671088 23.763050 -0.220885 0.957815 0.073807 -0.035132 172845.000000 0 1 0
19.065828 -4.491743 12.266988 23.111914 -0.231372 1.011294 0.070430 -0.031648 -149000.000000 0 1 0
18.242728 -5.726543 11.867388 22.503896 -0.304167 1.015320 0.046554 -0.022769 -153002.000000 0 1 0
18.568028 -6.888643 12.602688 23.474515 -0.355255 1.004077 0.084445 -0.023497 322658.000000 0 1 0
17.469028 -7.759743 12.747288 22.975507 -0.418020 0.982649 0.053717 0.006533 -279982.000000 0 1 0
17.862728 -9.230743 12.868288 23.872087 -0.476966 1.001486 0.082080 -0.016795 -419241.000000 0 1 0
18.476728 -9.864943 11.765688 24.023697 -0.490408 1.058989 0.071454 -0.024154 375261.000000 0 1 0
18.007028 -11.160543 11.514688 24.112214 -0.554843 1.072937 0.070813 -0.024468 -33686.900000 0 1 0
18.723128 -11.700843 10.288788 24.358252 -0.558557 1.134711 0.067404 -0.023212 242003.000000 0 1 0
18.250728 -11.043343 9.119988 23.199541 -0.544154 1.166784 0.076824 -0.024026 245412.000000 0 1 0
19.073228 -11.440243 8.048988 23.652768 -0.540277 1.223563 0.075752 -0.029121 54190.700000 0 1 0
18.880728 -10.751643 6.675188 22.729670 -0.517654 1.272725 0.076614 -0.025377 -96838.900000 0 1 0
19.469628 -9.449743 6.677888 22.648582 -0.451866 1.271500 0.102067 -0.025128 760767.000000 0 1 0
19.674028 -9.008543 5.334888 22.286370 -0.429396 1.329070 0.066946 -0.027863 -368743.000000 0 1 0
20.291328 -7.615643 5.164888 22.280308 -0.359047 1.336854 0.107710 -0.029681 -227913.000000 0 1 0
20.656528 -7.381643 3.856188 22.272203 -0.343209 1.396780 0.077749 -0.027653 560889.000000 0 1 0
21.343228 -6.151843 3.703688 22.518790 -0.280628 1.405575 0.114466 -0.025271 -278368.000000 0 1 0
21.743428 -5.796243 2.244988 22.614444 -0.260516 1.471360 0.094431 -0.024828 223275.000000 0 1 0
20.632528 -5.644043 1.378788 21.434960 -0.267018 1.506428 0.060871 -0.036521 742321.000000 0 1 0
21.111728 -5.086543 0.138688 21.716290 -0.236428 1.564410 0.064921 -0.029936 -123608.000000 0 1 0
-25.767084 -15.020643 0.234588 29.826454 0.527780 1.562931 0.044694 -0.005916 -1318210.000000 0 0 1
-24.786044 -14.587643 -0.657312 28.767679 0.531952 1.593647 0.045772 -0.000358 245931.000000 0 0 1
-23.551144 -15.302843 -0.564712 28.091855 0.576214 1.590900 0.056729 -0.008847 652050.000000 0 0 1
-22.628844 -14.884743 0.587988 27.091805 0.581823 1.549091 0.061683 -0.017692 -983241.000000 0 0 1
-23.246844 -15.263743 1.782888 27.867119 0.580997 1.506774 0.059914 -0.003267 163102.000000 0 0 1
-22.468344 -14.770943 2.899588 27.044683 0.581568 1.463375 0.071875 -0.001409 572845.000000 0 0 1
-22.841344 -15.409543 4.266988 27.881682 0.593498 1.417153 0.070790 0.004792 7047.960000 0 0 1
-22.310344 -16.717043 4.341588 28.214542 0.643050 1.416305 0.073785 -0.004845 283944.000000 0 0 1
-22.975144 -17.377643 5.375788 29.304246 0.647564 1.386304 0.075217 -0.012469 -23710.800000 0 0 1
-22.634044 -18.859443 5.293488 29.933252 0.694679 1.393018 0.058837 -0.012874 128866.000000 0 0 1
-23.374244 -19.568943 6.265888 31.121700 0.697017 1.368076 0.048489 -0.010436 61217.500000 0 0 1
-23.417844 -20.940643 5.928788 31.969618 0.729611 1.384266 0.058812 -0.013416 -64002.900000 0 0 1
-24.149344 -21.864743 6.934088 33.306747 0.735789 1.361074 0.056294 -0.004070 53195.800000 0 0 1
-23.449844 -22.046743 8.147088 33.201342 0.754568 1.322880 0.057458 0.000406 -497848.000000 0 0 1
-24.019044 -23.028543 8.901388 34.445072 0.764348 1.309407 0.050105 0.013648 -150269.000000 0 0 1
-23.217844 -23.368443 10.193288 34.482685 0.788631 1.270707 0.038342 0.005622 230631.000000 0 0 1
-23.321744 -22.418943 11.218388 34.239816 0.765663 1.236990 0.046252 0.005548 -128685.000000 0 0 1
-22.593444 -22.784143 12.361588 34.385895 0.789601 1.203069 0.039162 0.004652 -175279.000000 0 0 1
-22.834044 -21.933543 13.621888 34.467807 0.765286 1.164504 0.037285 0.008578 -743472.000000 0 0 1
-24.076144 -22.211743 14.162688 35.687589 0.745142 1.162712 0.044705 0.007358 -997422.000000 0 0 1
-24.381944 -21.356343 15.223488 35.809596 0.719344 1.131698 0.050348 0.016279 409693.000000 0 0 1
-25.822644 -21.716443 15.709788 37.218414 0.699237 1.135039 0.023545 0.006803 752529.000000 0 0 1
-26.966654 -21.539643 14.859588 37.576110 0.673979 1.164235 0.033390 0.002792 732624.000000 0 0 1
-27.201764 -22.664643 14.037788 38.087813 0.694662 1.193333 0.026547 0.005675 97682.700000 0 0 1
-28.287354 -23.593843 14.704288 39.661820 0.695177 1.190989 0.031180 0.001627 123328.000000 0 0 1
-27.799194 -24.282043 15.848788 40.169602 0.717969 1.165222 0.026036 0.002939 468657.000000 0 0 1
-28.743074 -25.283183 16.291288 41.603002 0.721445 1.168438 0.008704 0.000040 419469.000000 0 0 1
-28.659714 -26.707483 15.652888 42.186275 0.750153 1.190665 0.014266 0.002750 -189485.000000 0 0 1
-28.958284 -26.819723 14.312388 41.984810 0.747076 1.222928 0.022735 -0.006687 -338741.000000 0 0 1
-30.236424 -27.378853 14.132188 43.168990 0.735841 1.237279 0.047794 -0.016525 -297030.000000 0 0 1
-30.707344 -27.676353 12.694588 43.244353 0.733530 1.272853 0.079686 -0.022647 -460054.000000 0 0 1
-29.987934 -28.662303 12.019888 43.188905 0.762800 1.288763 0.078102 -0.030478 -132968.000000 0 0 1
-30.487184 -29.020123 10.735488 43.438309 0.760750 1.321065 0.092075 -0.025328 -33570.800000 0 0 1
-29.785804 -30.273563 10.185488 43.674099 0.793519 1.335413 0.079608 -0.035229 -131913.000000 0 0 1
-30.034954 -31.418463 10.981288 44.830871 0.807908 1.323329 0.067725 -0.019016 19327.600000 0 0 1
-29.667174 -32.612693 10.311688 45.277587 0.832658 1.341036 0.070228 -0.022521 -190938.000000 0 0 1
-29.854634 -33.897773 11.145988 46.525168 0.848733 1.328874 0.053851 -0.009589 1376060.000000 0 0 1
-31.219784 34.178617 11.236888 47.635286 -0.830611 1.332658 0.057954 -0.010656 1297540.000000 0 0 1
-31.243594 32.823487 11.671188 46.794873 -0.810053 1.318724 0.048335 -0.007922 231550.000000 0 0 1
-32.644874 32.347176 12.181288 47.543784 -0.780818 1.311695 0.073975 -0.009766 327128.000000 0 0 1
-33.695474 32.198386 11.295088 47.955188 -0.762682 1.333028 0.058490 -0.013408 -150807.000000 0 0 1
-34.369328 33.404796 10.931788 49.159283 -0.771168 1.346547 0.083648 -0.010737 -142226.000000 0 0 1
-35.741226 33.188654 10.238288 49.837180 -0.748384 1.363888 0.079203 -0.004092 74855.700000 0 0 1
-35.800647 32.628009 8.942788 49.256946 -0.739067 1.388230 0.054786 -0.001878 325681.000000 0 0 1
35.312128 32.357536 8.513088 48.645958 0.741764 1.394890 0.049829 -0.001392 334564.000000 0 0 1
35.196918 31.886086 7.065188 48.015231 0.736084 1.423115 0.039370 -0.003125 -176315.000000 0 0 1
35.493308 30.545086 6.949888 47.340027 0.710608 1.423456 0.051294 -0.010146 81461.200000 0 0 1
35.342798 30.053376 5.616688 46.731852 0.704691 1.450315 0.062672 -0.015025 -134198.000000 0 0 1
35.549608 28.557546 5.474088 45.926830 0.676759 1.451321 0.059378 -0.012246 84927.500000 0 0 1
34.576648 27.724506 6.118588 44.739580 0.675854 1.433606 0.053850 -0.007230 335007.000000 0 0 1
34.809228 27.520476 7.492388 45.002165 0.668988 1.403528 0.057133 -0.009199 -138468.000000 0 0 1
33.841098 26.434206 7.977788 43.676450 0.663127 1.387109 0.051443 -0.012642 -149915.000000 0 0 1
34.108668 25.190826 7.476688 43.056705 0.636130 1.396264 0.037671 -0.013585 -341398.000000 0 0 1
33.081228 24.315656 7.808888 41.792315 0.633851 1.382842 0.025922 -0.009140 -575056.000000 0 0 1
33.016888 22.999076 6.967388 40.836466 0.608430 1.399341 0.034455 -0.004829 555548.000000 0 0 1
34.041778 22.047676 7.257488 41.202110 0.574732 1.393729 0.041386 -0.006496 388281.000000 0 0 1
35.332018 22.220976 6.695088 42.272302 0.561412 1.411747 0.049828 -0.018159 208547.000000 0 0 1
36.112528 20.885676 6.768188 42.262685 0.524348 1.409958 0.050367 -0.016432 -202882.000000 0 0 1
35.853088 19.992776 5.682388 41.442063 0.508683 1.433247 0.065902 -0.025894 462421.000000 0 0 1
-35.913845 18.757676 5.993788 40.958274 -0.481325 1.423930 0.076363 -0.027454 102163.000000 0 0 1
35.971908 17.634676 5.079988 40.382747 0.455805 1.444666 0.079685 -0.030190 -51700.500000 0 0 1
-35.775426 17.520576 3.828188 40.018830 -0.455404 1.474990 0.077156 -0.032476 226935.000000 0 0 1
36.069978 16.594676 2.937988 39.812792 0.431196 1.496934 0.081241 -0.026419 -1409280.000000 0 0 1
-35.576517 16.250976 1.695788 39.149182 -0.428486 1.527467 0.093573 -0.012003 138511.000000 0 0 1
-34.482193 15.347676 1.872888 37.789952 -0.418763 1.521216 0.086230 -0.032964 623336.000000 0 0 1
-33.355624 15.995776 2.431988 37.072592 -0.447156 1.505148 0.082247 -0.029786 -742573.000000 0 0 1
-32.031214 15.223876 2.610688 35.560944 -0.443679 1.497316 0.067106 -0.036471 104726.000000 0 0 1
-31.939924 14.440776 3.775788 35.255515 -0.424618 1.463493 0.074645 -0.038930 -343077.000000 0 0 1
-30.623664 14.055276 4.047788 33.937357 -0.430286 1.451239 0.063582 -0.036334 -557396.000000 0 0 1
-30.461044 13.295176 5.377288 33.668266 -0.411541 1.410396 0.074822 -0.027450 -150945.000000 0 0 1
-30.857384 11.982376 5.385588 33.537442 -0.370392 1.409514 0.085133 -0.021871 -62589.800000 0 0 1
-30.460904 11.394876 6.522388 33.170038 -0.357966 1.372872 0.078788 -0.011972 -187510.000000 0 0 1
-30.639074 9.847876 6.571588 32.846907 -0.310987 1.369370 0.089816 -0.019419 548862.000000 0 0 1
-32.007604 9.453876 6.605088 34.021900 -0.287198 1.375413 0.094336 -0.010075 274156.000000 0 0 1
-32.145234 8.083776 6.709388 33.818329 -0.246368 1.371076 0.101307 -0.020578 218417.000000 0 0 1
-33.553724 7.465576 6.458388 34.975677 -0.218930 1.385077 0.105537 -0.021511 -42814.600000 0 0 1
-34.348046 7.482676 7.583388 35.962292 -0.214497 1.358331 0.104033 -0.015379 -426759.000000 0 0 1
-35.585032 6.847576 7.322888 36.970373 -0.190105 1.371403 0.083093 -0.012785 165770.000000 0 0 1
36.191218 6.317476 8.603688 37.732456 0.172817 1.340755 0.068730 -0.013376 112121.000000 0 0 1
35.577668 7.176776 9.592488 37.540544 0.199050 1.312407 0.067185 -0.011376 700136.000000 0 0 1
-35.908718 7.783876 10.461988 38.203114 -0.213466 1.293401 0.079816 -0.014313 189718.000000 0 0 1
35.902718 8.686176 11.537088 38.698311 0.237375 1.268064 0.076200 -0.018398 -476399.000000 0 0 1
35.085458 8.047176 12.459088 38.091670 0.225460 1.237583 0.061125 -0.022348 190123.000000 0 0 1
34.903078 8.924376 13.572788 38.497922 0.250327 1.210492 0.072658 -0.025758 -150340.000000 0 0 1
34.133538 8.232276 14.736088 38.079143 0.236659 1.173436 0.068972 -0.030478 962784.000000 0 0 1
32.751238 7.843276 14.546888 36.684773 0.235054 1.163054 0.068827 -0.035374 1219300.000000 0 0 1
32.217898 7.393776 15.788688 36.632548 0.225587 1.125194 0.062061 -0.029660 1701880.000000 0 0 1
30.645598 7.114076 15.849388 35.227346 0.228100 1.104124 0.050401 -0.025240 1163320.000000 0 0 1
29.878148 8.306476 15.863488 34.833196 0.271164 1.097960 0.038802 -0.027210 891525.000000 0 0 1
28.462348 8.062876 15.885788 33.577873 0.276050 1.077987 0.039213 -0.022505 1059850.000000 0 0 1
27.804778 7.550876 17.222188 33.566728 0.265172 1.032035 0.039674 -0.017257 -469336.000000 0 0 1
27.996228 8.377676 18.344188 34.503384 0.290762 1.010233 0.047765 -0.018118 187530.000000 0 0 1
27.227628 8.052576 19.493188 34.440850 0.287553 0.969162 0.049926 -0.007692 -53959.400000 0 0 1
27.742138 6.837276 20.348588 35.077623 0.241642 0.951943 0.052663 -0.009091 -11703.700000 0 0 1
27.033528 6.613776 21.545588 35.196109 0.239938 0.912009 0.039234 0.002487 -268312.000000 0 0 1
27.512168 5.500676 22.269188 35.820296 0.197334 0.899895 0.037836 0.004666 -648152.000000 0 0 1
26.719628 5.090476 23.563188 35.987155 0.188258 0.856923 0.045577 0.000552 1412600.000000 0 0 1
25.326628 4.742976 23.364088 34.782389 0.185128 0.834266 0.025999 -0.001553 1043560.000000 0 0 1
24.526728 5.934376 23.296788 34.344105 0.237393 0.825303 0.035200 0.006904 -1681990.000000 0 0 1
23.063828 5.641576 23.299788 33.266315 0.239897 0.794836 0.039511 -0.000371 -1095390.000000 0 0 1
22.420828 4.754276 22.411588 32.055826 0.208952 0.796599 0.030467 0.001996 1800490.000000 0 0 1
20.967828 4.822276 22.572588 31.183745 0.226054 0.761419 0.028205 -0.009240 585042.000000 0 0 1
20.192328 3.659076 21.939888 30.041266 0.179266 0.751999 0.043743 -0.008691 923227.000000 0 0 1
18.870228 3.940076 21.449288 28.838892 0.205841 0.732115 0.047249 -0.018246 1193400.000000 0 0 1
17.879528 4.252476 22.431288 28.998686 0.233502 0.686408 0.065308 -0.021336 32635.500000 0 0 1
16.442328 4.158576 21.816788 27.633606 0.247724 0.660799 0.076160 -0.020149 394057.000000 0 0 1
16.063428 2.803376 21.544588 27.019658 0.172779 0.647876 0.068437 -0.021809 34.954000 0 0 1
15.083128 2.739576 20.527888 25.620309 0.179673 0.641440 0.070490 -0.028640 -787485.000000 0 0 1
14.068328 1.638976 20.712088 25.091726 0.115978 0.599789 0.066994 -0.027756 -926977.000000 0 0 1
14.555628 0.309776 20.613888 25.236772 0.021279 0.614920 0.059133 -0.029996 149215.000000 0 0 1
13.808228 -0.548824 21.465388 25.529028 -0.039725 0.571995 0.049923 -0.024553 146610.000000 0 0 1
14.290928 -2.001624 21.306688 25.733482 -0.139157 0.595309 0.042978 -0.019458 -230311.000000 0 0 1
13.819128 -2.588124 20.110488 24.537694 -0.185141 0.610127 0.042525 -0.015311 -38107.200000 0 1 0
14.060128 -3.992624 19.964788 24.743101 -0.276684 0.631940 0.024500 -0.012134 -550172.000000 0 1 0
13.437928 -4.607824 18.722288 23.501788 -0.330333 0.649093 0.019463 -0.006820 -862893.000000 0 1 0
12.062528 -4.540324 18.915488 22.889186 -0.359997 0.598123 0.018069 -0.008299 -1387000.000000 0 1 0
11.450028 -4.915824 17.745588 21.683505 -0.405531 0.612191 0.007584 -0.003270 -966499.000000 0 1 0
9.946328 -5.025924 17.864688 21.055556 -0.467882 0.557737 0.012309 0.004304 -804063.000000 0 1 0
9.625928 -6.247524 18.498088 21.768540 -0.575694 0.555262 0.020219 0.003685 -734259.000000 0 1 0
8.247328 -6.476024 18.556988 21.314763 -0.665668 0.514342 0.015633 0.001778 -363918.000000 0 1 0
7.798928 -7.564424 19.492488 22.315934 -0.770135 0.508494 0.019406 -0.001780 -493151.000000 0 1 0
7.924128 -8.908224 18.978688 22.412918 -0.843796 0.560904 0.020801 -0.007246 108589.000000 0 1 0
9.024328 -9.591624 19.587288 23.602958 -0.815862 0.591929 0.028999 -0.004809 537568.000000 0 1 0
9.295528 -10.991324 19.004988 23.841259 -0.868795 0.648241 0.039803 -0.009367 232922.000000 0 1 0
9.491128 -10.875524 17.611288 22.770947 -0.853267 0.686593 0.039702 -0.007878 -151009.000000 0 1 0
9.947028 -12.076424 17.104588 23.180818 -0.881786 0.740877 0.041843 -0.012118 75834.400000 0 1 0
9.885228 -12.048524 15.552688 22.017511 -0.883709 0.786428 0.039705 -0.012584 393041.000000 0 1 0
10.763528 -12.959724 14.888888 22.483038 -0.877711 0.847009 0.052857 -0.021809 171243.000000 0 1 0
10.348928 -13.306824 13.559988 21.634351 -0.909792 0.893382 0.041263 -0.006834 33994.700000 0 1 0
11.165728 -14.459524 12.878588 22.351943 -0.913234 0.956758 0.061370 -0.013177 336221.000000 0 1 0
12.453028 -14.181124 12.378588 22.570149 -0.850190 0.990287 0.054504 -0.018351 -72564.400000 0 1 0
12.591128 -13.302824 11.288088 21.515636 -0.812876 1.018497 0.034403 -0.014710 -379789.000000 0 1 0
14.036528 -13.271624 10.715288 22.090213 -0.757395 1.064354 0.046333 -0.019275 376165.000000 0 1 0
14.422728 -14.409624 10.034288 22.723100 -0.784944 1.113427 0.055813 -0.018373 -141036.000000 0 1 0
15.727328 -14.286724 9.519588 23.282652 -0.737437 1.149580 0.059948 -0.016724 -406216.000000 0 1 0
16.525828 -15.572624 9.349288 24.556441 -0.755711 1.180214 0.055533 -0.017051 -281884.000000 0 1 0
16.865328 -16.239624 10.546888 25.678815 -0.766500 1.147549 0.051683 -0.014773 -705451.000000 0 0 1
15.907428 -16.954324 11.232188 25.819710 -0.817245 1.120732 0.075011 -0.015488 -669147.000000 0 0 1
16.435928 -17.411324 12.597688 27.055419 -0.814208 1.086455 0.057730 -0.015933 339512.000000 0 0 1
17.435128 -18.418324 12.405988 28.233436 -0.812814 1.115857 0.075328 -0.024021 155860.000000 0 0 1
17.993828 -18.889224 13.621388 29.429965 -0.809670 1.089599 0.056747 -0.027988 -542801.000000 0 0 1
19.261828 -19.659424 13.316488 30.575151 -0.795613 1.120166 0.026450 -0.025189 -766111.000000 0 0 1
20.348728 -18.854024 12.957488 30.617666 -0.747289 1.133819 0.018798 -0.015472 -699814.000000 0 0 1
21.460528 -19.681824 12.661888 31.752982 -0.742192 1.160630 -0.000682 -0.013341 46239.700000 0 0 1
22.341328 -18.942524 11.648088 31.521931 -0.703256 1.192300 0.010736 -0.003499 -827038.000000 0 0 1
21.957128 -19.082624 10.295988 30.858862 -0.715470 1.230626 0.010197 0.000171 502838.000000 0 0 1
20.730328 -18.517424 9.806188 29.475461 -0.729075 1.231642 0.023706 -0.000086 665318.000000 0 0 1
20.633928 -16.980624 10.029688 28.542867 -0.688577 1.211741 0.053942 -0.005045 -351691.000000 0 0 1
21.388128 -16.161124 9.170088 28.332393 -0.647083 1.241200 0.039748 0.007327 -161421.000000 0 0 1
21.152728 -14.778024 9.333588 27.439821 -0.609809 1.223723 0.054703 -0.007308 133349.000000 0 0 1
-34.777238 25.010157 7.937488 43.565674 -0.623465 1.387577 0.054923 -0.014302 -546734.000000 0 0 1
-33.895914 24.366357 8.763188 42.654962 -0.623271 1.363879 0.057009 -0.017988 -415535.000000 0 0 1
-32.805104 25.215057 9.046688 42.353471 -0.655319 1.355538 0.059538 -0.015285 663003.000000 0 0 1
-31.536134 24.511257 9.696988 41.101837 -0.660710 1.332625 0.069246 -0.021874 890518.000000 0 0 1
-30.806494 23.750257 8.737488 39.868013 -0.656775 1.349842 0.079600 -0.029565 -119024.000000 0 0 1
-29.886624 22.912057 9.373888 38.807762 -0.654061 1.326837 0.083709 -0.030273 259785.000000 0 0 1
-29.099504 21.955657 8.395788 37.407503 -0.646377 1.344427 0.089445 -0.039654 663376.000000 0 0 1
-29.969884 20.932857 7.855588 37.391024 -0.609694 1.359126 0.085660 -0.043221 400519.000000 0 0 1
-29.299394 19.965057 7.058988 36.150896 -0.598144 1.374269 0.070781 -0.041492 -187970.000000 0 0 1
-30.177504 19.152457 6.054588 36.251295 -0.565516 1.402993 0.066096 -0.034778 -482098.000000 0 0 1
-30.977794 18.219957 6.685188 36.555195 -0.531670 1.386882 0.064052 -0.035407 41151.000000 0 0 1
-31.826544 17.589257 5.722688 36.811140 -0.504883 1.414702 0.052055 -0.031344 325611.000000 0 0 1
-32.793684 16.534057 6.316188 37.265198 -0.466989 1.400481 0.064138 -0.025367 -274889.000000 0 0 1
-33.643134 16.853057 7.379288 38.345011 -0.464396 1.377144 0.067039 -0.026644 64204.700000 0 0 1
-34.372477 15.679957 7.723088 38.561306 -0.427979 1.369152 0.081326 -0.029500 16146.500000 0 0 1
-35.358184 16.012357 8.882688 39.818323 -0.425231 1.345823 0.079208 -0.029625 -200459.000000 0 0 1
35.944458 16.727857 8.505188 40.548286 0.435571 1.359472 0.077310 -0.019478 -235132.000000 0 0 1
35.387118 17.227957 9.727888 40.542354 0.453066 1.328488 0.070352 -0.008797 135570.000000 0 0 1
34.672418 18.621157 9.484688 40.483125 0.492854 1.334311 0.043899 -0.003138 194590.000000 0 0 1
33.459858 18.425357 8.776588 39.192913 0.503358 1.344948 0.040571 0.002768 398056.000000 0 0 1
32.687938 19.618057 8.603388 39.081808 0.540539 1.348840 0.034005 0.005422 508279.000000 0 0 1
31.183098 19.580757 8.263688 37.736987 0.560702 1.350026 0.018787 0.012778 -669799.000000 0 0 1
30.550478 20.799857 8.372388 37.895417 0.597748 1.348024 0.012292 0.009926 504629.000000 0 0 1
29.198528 20.888357 7.892888 36.758335 0.620981 1.354387 0.003568 0.016310 859442.000000 0 0 1
28.997948 20.577357 6.382588 36.125421 0.617149 1.393185 -0.009904 0.030624 -964494.000000 0 0 1
29.302348 19.268257 6.022388 35.583177 0.581676 1.400730 -0.005825 0.024396 -178809.000000 0 0 1
29.165918 18.840457 4.687088 35.036872 0.573541 1.436618 -0.005137 0.027323 578939.000000 0 0 1
27.754718 19.029757 3.982688 33.886839 0.601024 1.452995 0.022038 0.030595 1118940.000000 0 0 1
26.723428 18.252257 4.664788 32.696280 0.599229 1.427638 0.017672 0.021061 2173460.000000 0 0 1
25.350128 18.466457 4.223188 31.646079 0.629570 1.436946 0.044815 0.011791 1731720.000000 0 0 1
24.711128 19.772557 4.820288 32.012951 0.674831 1.419648 0.056732 0.010012 -627314.000000 0 0 1
25.293828 20.903557 4.232788 33.085540 0.690650 1.442510 0.037360 0.008074 297313.000000 0 0 1
24.751928 22.158257 4.788488 33.564504 0.730164 1.427643 0.050385 0.009534 103922.000000 0 0 1
25.556028 23.420257 4.458688 34.949949 0.741817 1.442874 0.038329 0.013572 -333909.000000 0 0 1
26.792128 23.518357 5.109288 36.014387 0.720418 1.428448 0.024063 0.012889 -151984.000000 0 0 1
27.490878 24.709857 4.711088 37.262847 0.732173 1.444029 0.029916 0.005366 -1322000.000000 0 0 1
28.774098 24.845257 5.523388 38.415405 0.712256 1.426516 0.025318 0.006527 -329673.000000 0 0 1
29.780458 23.855157 5.184988 38.507510 0.675371 1.435737 0.015429 0.007599 754658.000000 0 0 1
30.325618 23.904957 3.855288 38.806614 0.667551 1.471286 0.022683 -0.003444 -583396.000000 0 0 1
31.305548 25.082357 3.603588 40.275896 0.675479 1.481204 0.053417 -0.016168 -507215.000000 0 0 1
30.574868 26.285757 3.443788 40.467558 0.710109 1.485593 0.048975 -0.011762 -376263.000000 0 0 1
31.320228 27.137157 2.682488 41.528035 0.713962 1.506157 0.084318 -0.013822 -1450860.000000 0 0 1
30.865668 28.637657 2.602588 42.185049 0.747972 1.509063 0.088075 -0.010555 -37638.200000 0 0 1
29.656828 28.976657 1.978188 41.510087 0.773798 1.523123 0.097163 -0.014785 -9053.390000 0 0 1
28.534438 28.470457 2.683788 40.397819 0.784276 1.504313 0.065041 -0.000882 -116360.000000 0 0 1
27.092928 28.885757 2.245588 39.666817 0.817414 1.514155 0.040498 0.000594 614917.000000 0 0 1
26.822828 30.184757 2.616088 40.465140 0.844303 1.506101 0.046033 -0.015310 1081500.000000 0 0 1
25.512628 30.698257 2.245988 39.979015 0.877391 1.514588 0.037521 -0.006839 1366390.000000 0 0 1
25.021428 31.975757 3.017488 40.713955 0.906810 1.496614 0.052438 -0.016506 39790.300000 0 0 1
24.774728 31.781457 4.400188 40.536524 0.908660 1.462033 0.042271 -0.027022 -494020.000000 0 0 1
25.965128 31.795057 5.119888 41.368185 0.885991 1.446714 0.048788 -0.032586 -410335.000000 0 0 1
25.798028 31.626057 6.653288 41.352291 0.886543 1.409201 0.054001 -0.039021 7416.420000 0 0 1
25.278628 30.401957 7.204388 40.189442 0.877153 1.390561 0.052052 -0.038095 276138.000000 0 0 1
26.080428 29.226657 7.025188 39.796224 0.842223 1.393337 0.076319 -0.038714 -61005.400000 0 0 1
25.410028 27.960757 7.526988 38.524395 0.833154 1.374149 0.058848 -0.024569 312903.000000 0 0 1
24.268128 27.638257 6.718488 37.389215 0.850234 1.390124 0.038268 -0.021837 407625.000000 0 0 1
23.804128 26.329057 6.943988 36.167316 0.835720 1.377601 0.044717 -0.013480 -365381.000000 0 0 1
22.711128 25.904157 5.962288 34.962402 0.850983 1.399424 0.055200 0.000410 -349851.000000 0 0 1
23.063528 25.862457 4.569588 34.952455 0.842543 1.439684 0.031224 -0.002675 162974.000000 0 0 1
23.341228 27.119457 3.909588 35.993927 0.860133 1.461964 0.037282 -0.010296 -51773.300000 0 0 1
23.457928 27.069057 2.394388 35.899043 0.856746 1.504049 0.039496 0.003032 -502802.000000 0 0 1
24.492828 26.307757 1.888288 35.993921 0.821109 1.518311 0.013330 0.022323 -327719.000000 0 0 1
24.266428 26.124657 0.516288 35.659834 0.822258 1.556318 0.025984 0.019955 -13735.400000 0 0 1
25.421028 25.275057 -0.088612 35.847804 0.782519 1.573268 0.033337 0.018543 -275649.000000 0 0 1
26.531128 26.158057 -0.179812 37.258248 0.778318 1.575622 0.028779 0.018228 194811.000000 0 0 1
27.739888 25.716257 -0.760512 37.833922 0.747560 1.590899 0.035794 0.024710 630786.000000 0 0 1
28.591808 24.664457 -0.001912 37.760124 0.711787 1.570847 0.033286 0.021189 -402039.000000 0 0 1
27.833788 23.406557 0.050888 36.367420 0.699211 1.569397 0.028237 0.017343 259110.000000 0 0 1
28.318538 22.336657 0.788188 36.076129 0.667852 1.548947 0.021924 0.019177 94732.300000 0 0 1
27.201928 21.318357 1.225288 34.582056 0.664727 1.535358 0.015422 0.020760 518349.000000 0 0 1
26.703728 20.418557 0.212088 33.616239 0.652801 1.564487 0.035124 0.003493 44784.000000 0 0 1
25.559828 19.781357 0.674088 32.327408 0.658637 1.549943 0.032069 0.007579 -646609.000000 0 0 1
24.997328 18.559557 -0.038612 31.133986 0.638659 1.572037 0.042913 -0.006013 597774.000000 0 0 1
23.629428 18.295757 0.308188 29.886110 0.658859 1.560484 0.049885 -0.008563 1041190.000000 0 0 1
23.107828 17.143557 -0.434712 28.776071 0.638293 1.585904 0.066217 -0.031565 -555832.000000 0 0 1
21.692328 16.799657 -0.062612 27.437010 0.658967 1.573078 0.081635 -0.024506 -1636510.000000 0 0 1
21.108428 15.737757 -0.796112 26.341536 0.640658 1.601024 0.081047 -0.030790 1073170.000000 0 0 1
19.686528 15.584857 -0.673012 25.117725 0.669629 1.597594 0.083027 -0.025343 595717.000000 0 0 1
18.782328 16.632357 -1.285812 25.120996 0.724764 1.622003 0.087279 -0.026715 -1061380.000000 0 0 1
18.738828 17.781257 -0.415312 25.835813 0.759184 1.586872 0.074250 -0.023574 -104165.000000 0 0 1
17.944228 18.825257 -0.915212 26.023513 0.809354 1.605972 0.054711 -0.022832 -55268.600000 0 0 1
18.164728 20.204857 -0.306212 27.171444 0.838519 1.582066 0.064615 -0.013257 -216443.000000 0 0 1
17.897928 20.166357 1.103988 26.985859 0.844922 1.529875 0.067208 -0.007398 112375.000000 0 0 1
18.070428 21.407557 1.778488 28.071104 0.869729 1.507397 0.073800 -0.005928 -189292.000000 0 0 1
17.053428 22.573957 1.517488 28.332061 0.923818 1.517210 0.070870 -0.006852 246901.000000 0 0 1
15.763828 22.281957 1.999588 27.367540 0.955074 1.497667 0.069677 -0.007462 208512.000000 0 0 1
14.730928 23.078657 1.416288 27.415881 1.002696 1.519114 0.045337 -0.012595 1035300.000000 0 0 1
13.301828 22.856657 2.007988 26.521640 1.043742 1.495012 0.035250 -0.010624 592089.000000 0 0 1
13.102628 23.441657 3.252288 27.051202 1.061110 1.450278 0.038494 -0.002938 -387405.000000 0 0 1
11.739728 23.476757 3.565488 26.489470 1.107103 1.435786 0.016042 0.000374 -75408.300000 0 0 1
11.249328 23.812057 4.966388 26.799747 1.129454 1.384404 0.028639 -0.001139 -18594.100000 0 0 1
11.647528 22.773057 5.826388 26.234020 1.098022 1.346836 0.044585 -0.023879 18456.200000 0 0 1
11.057928 22.927757 7.119788 26.432011 1.121413 1.298065 0.031711 -0.009827 -924895.000000 0 0 1
11.486128 21.805257 8.107488 25.944782 1.085971 1.252983 0.036460 -0.004825 -360095.000000 0 0 1
12.729128 21.957357 8.705888 26.831860 1.045422 1.240355 0.039865 -0.007033 -197527.000000 0 0 1
13.829628 21.719257 7.824988 26.911246 1.003796 1.275765 0.066117 -0.013875 368763.000000 0 0 1
15.249228 21.772757 8.505088 27.909289 0.959815 1.261130 0.071111 -0.013102 519394.000000 0 0 1
15.515028 20.499157 9.185188 27.300169 0.922918 1.227650 0.077742 -0.014325 395324.000000 0 0 1
16.806228 20.342657 9.765588 28.136093 0.880308 1.216336 0.089113 -0.017702 385843.000000 0 0 1
17.295028 21.247757 10.873788 29.475828 0.887595 1.192965 0.072575 -0.015556 -1160670.000000 0 0 1
16.437028 21.148057 11.927688 29.320402 0.910091 1.151842 0.069289 -0.018099 -593528.000000 0 0 1
16.736328 21.946057 13.013388 30.513642 0.919272 1.130201 0.059255 -0.015330 -687736.000000 0 0 1
17.656528 21.358157 14.082188 31.084271 0.879993 1.100632 0.069704 -0.017813 861145.000000 0 0 1
19.028728 21.627957 13.736488 31.914763 0.849242 1.125847 0.076228 -0.016597 467366.000000 0 0 1
19.960428 21.143757 14.680088 32.572721 0.814179 1.103262 0.058627 -0.017859 717873.000000 0 0 1
21.424528 21.519657 14.288388 33.559858 0.787613 1.130997 0.060347 -0.020071 99871.300000 0 0 1
22.028528 20.844857 13.270888 33.104087 0.757797 1.158315 0.059655 -0.015475 -316097.000000 0 0 1
23.347528 21.349157 13.222288 34.288810 0.740718 1.174922 0.057424 -0.008744 -85699.400000 0 0 1
24.306528 20.841857 12.136788 34.241670 0.708809 1.208476 0.067287 0.000261 -196401.000000 0 0 1
24.113928 21.411557 10.862388 34.028338 0.726108 1.245894 0.076237 -0.003562 -223781.000000 0 0 1
25.125528 21.077257 9.984888 34.281787 0.698002 1.275253 0.083695 -0.009370 -682873.000000 0 0 1
25.014428 21.800157 8.650988 34.290058 0.716846 1.315752 0.053800 -0.005749 -40901.900000 0 0 1
25.178728 23.184657 8.870088 35.357816 0.744190 1.317221 0.056370 -0.002790 -601274.000000 0 0 1
26.433928 23.669857 8.563388 36.501319 0.730287 1.333984 0.041591 0.005180 -1120670.000000 0 0 1
26.731428 24.961657 9.334188 37.746266 0.751175 1.320916 0.055863 -0.000029 -877990.000000 0 0 1
27.933358 25.453457 8.847788 38.812811 0.738980 1.340814 0.052007 -0.001311 -569689.000000 0 0 1
28.397318 26.478357 9.686288 40.016687 0.750443 1.326312 0.068996 -0.016796 223774.000000 0 0 1
29.715828 27.099057 9.153288 41.245267 0.739373 1.347010 0.071836 -0.020459 285596.000000 0 0 1
29.476758 28.003357 8.067288 41.450554 0.759771 1.374922 0.083374 -0.021557 -24286.900000 0 0 1
30.689988 28.280357 7.426788 42.388809 0.744559 1.394681 0.086512 -0.017847 -346116.000000 0 0 1
30.596818 29.270057 6.168788 42.789665 0.763240 1.426127 0.110076 -0.015361 -1364.360000 0 0 1
30.626348 30.631157 6.594988 43.814779 0.785477 1.419702 0.112875 -0.026710 64887.500000 0 0 1
30.435188 31.555257 5.583488 44.195138 0.803465 1.444121 0.120083 -0.028230 87315.000000 0 0 1
30.274818 33.002357 6.179588 45.209595 0.828476 1.433680 0.094116 -0.025130 -102984.000000 0 0 1
29.013528 33.211757 6.758088 44.614766 0.852764 1.418734 0.090467 -0.029875 -198550.000000 0 0 1
28.877248 -34.062763 7.267188 45.243556 -0.867601 1.409474 0.076361 -0.015157 -1062970.000000 0 0 1
27.419508 -33.780163 7.492088 44.148163 -0.888959 1.400268 0.070996 -0.027454 -1324080.000000 0 0 1
26.713428 -33.609563 6.331888 43.397037 -0.899224 1.424368 0.072818 -0.029957 167467.000000 0 0 1
25.433028 -32.989563 6.572488 42.170461 -0.914027 1.414303 0.057354 -0.030540 951100.000000 0 0 1
24.381928 -33.201563 5.450288 41.551509 -0.937380 1.439248 0.063607 -0.022505 -91108.500000 0 0 1
24.761528 -32.659163 4.226788 41.202184 -0.922080 1.468029 0.052510 -0.003893 -271632.000000 0 0 1
23.696428 -32.511163 3.324788 40.367693 -0.940956 1.488340 0.051865 -0.011690 -233791.000000 0 0 1
24.105828 -31.957163 1.948488 40.076775 -0.924538 1.522158 0.058836 0.001018 40851.900000 0 0 1
24.525328 -30.643263 2.165988 39.308941 -0.895842 1.515667 0.073650 0.005996 424435.000000 0 0 1
25.209528 -30.002063 1.032188 39.200887 -0.871984 1.544463 0.068620 0.006450 233085.000000 0 0 1
25.374528 -28.470163 1.336788 38.160240 -0.842827 1.535758 0.064827 0.005783 281436.000000 0 0 1
24.227228 -27.648063 1.115788 36.777969 -0.851246 1.540453 0.068288 -0.000102 268677.000000 0 0 1
23.849228 -27.493263 -0.226112 36.396653 -0.856254 1.577009 0.067063 -0.000131 395794.000000 0 0 1
22.598828 -26.535563 -0.399812 34.856893 -0.865349 1.582267 0.060882 -0.001222 488021.000000 0 0 1
22.671628 -25.127363 -0.213512 33.844242 -0.836729 1.577105 0.073778 -0.009392 -384091.000000 0 0 1
22.887128 -24.641163 1.090388 33.648128 -0.822286 1.538385 0.048738 0.004743 -200993.000000 0 0 1
21.757328 -24.793763 2.109888 33.053951 -0.850534 1.506921 0.033636 0.007230 -124450.000000 0 0 1
21.990228 -24.017763 3.301488 32.731070 -0.829439 1.469757 0.014370 0.009976 318120.000000 0 0 1
20.800328 -23.996363 4.099388 32.020058 -0.856623 1.442418 0.014890 0.012174 421674.000000 0 0 1
20.831128 -23.005463 5.287688 31.482486 -0.834958 1.402040 -0.000140 0.016330 -22179.100000 0 0 1
20.920828 -21.602863 5.073988 30.497707 -0.801436 1.403646 0.018311 0.027325 384998.000000 0 0 1
19.715728 -20.965163 4.620188 29.147799 -0.816102 1.411616 0.010637 0.018624 131501.000000 0 0 1
19.770328 -19.399963 4.686288 28.092450 -0.775943 1.403196 0.012764 0.012812 -46422.600000 0 0 1
19.824428 -18.933163 6.036188 28.069703 -0.762406 1.354061 0.030205 0.012839 477424.000000 0 0 1
18.522928 -18.904463 6.636388 27.285880 -0.795592 1.325115 0.034313 0.009085 765537.000000 0 0 1
18.940656 -25.885843 -12.172312 34.307295 -0.939111 1.933499 0.043965 -0.020574 -60508.800000 0 0 1
19.252156 -24.619543 -12.585612 33.692211 -0.907136 1.953626 0.049890 -0.016634 -317112.000000 0 0 1
18.094756 -23.907643 -12.926812 32.651157 -0.922919 1.977851 0.038743 -0.017301 -281659.000000 0 0 1
18.474256 -22.446243 -13.329012 31.981159 -0.882161 2.000693 0.037190 -0.018646 56664.400000 0 0 1
18.755856 -21.466143 -12.313712 31.051650 -0.852680 1.978558 0.049537 -0.024729 657320.000000 0 0 1
19.855756 -21.693343 -11.382212 31.534219 -0.829596 1.940080 0.049516 -0.031764 -257519.000000 0 0 1
19.507756 -22.535343 -10.110912 31.474192 -0.857286 1.897840 0.049957 -0.023104 -590259.000000 0 0 1
18.598456 -22.013643 -9.178412 30.244773 -0.869294 1.879130 0.055449 -0.028059 540905.000000 0 0 1
17.254856 -21.955443 -9.682612 29.555448 -0.904710 1.904567 0.059613 -0.014612 -161274.000000 0 0 1
16.261456 -21.503643 -8.601212 28.298807 -0.923327 1.879625 0.055870 -0.027552 -773514.000000 0 0 1
16.288356 -20.091943 -8.499912 27.225819 -0.889570 1.888305 0.057772 -0.035139 48047.000000 0 0 1
15.401956 -19.512843 -7.586812 25.990980 -0.902599 1.867011 0.062275 -0.038954 -249589.000000 0 0 1
13.885356 -19.513043 -7.798112 25.186753 -0.952332 1.885581 0.065866 -0.026164 -182039.000000 0 0 1
13.211956 -20.752243 -7.722212 25.784568 -1.003862 1.874954 0.052421 -0.028313 600938.000000 0 0 1
11.785556 -20.629643 -7.889312 25.034431 -1.051753 1.891399 0.054670 -0.032089 920063.000000 0 0 1
11.179056 -22.055943 -7.775912 25.921048 -1.101684 1.875473 0.063098 -0.025198 -237710.000000 0 0 1
11.321356 -22.515643 -6.492912 26.024704 -1.104894 1.822950 0.062379 -0.027436 -130428.000000 0 0 1
10.679256 -23.712843 -6.262112 26.749944 -1.147645 1.807087 0.047506 -0.024835 -418394.000000 0 0 1
11.164056 -24.446443 -5.019312 27.339682 -1.142406 1.755434 0.055002 -0.021155 -681105.000000 0 0 1
10.214856 -25.107643 -4.242012 27.435956 -1.184405 1.726034 0.063961 -0.022994 -821090.000000 0 0 1
10.762256 -25.824753 -3.220012 28.162254 -1.175941 1.685385 0.054855 -0.024238 -405652.000000 0 0 1
9.767156 -26.768793 -2.501012 28.604557 -1.220935 1.658342 0.056698 -0.016888 -55227.800000 0 0 1
8.800556 -26.095623 -1.739212 27.594496 -1.245532 1.633866 0.038657 -0.010660 -556803.000000 0 0 1
8.168156 -27.036193 -0.937212 28.258678 -1.277396 1.603968 0.038332 -0.012514 22961.400000 0 0 1
7.356756 -26.499843 0.271988 27.503410 -1.300001 1.560907 0.042498 -0.007194 -465224.000000 0 0 1
6.193556 -25.799643 0.005388 26.532655 -1.335191 1.570593 0.041724 -0.015139 -927335.000000 0 0 1
5.792356 -25.338943 1.256488 26.022917 -1.346063 1.522494 0.037298 -0.009631 778506.000000 0 0 1
4.276356 -24.899743 1.243488 25.294875 -1.400713 1.521617 0.038385 -0.012029 1224660.000000 0 0 1
3.314056 -25.917763 1.000488 26.147933 -1.443618 1.532524 0.043255 -0.008571 210965.000000 0 0 1
2.022756 -25.311983 0.889988 25.408269 -1.491053 1.535762 0.033875 -0.008107 401896.000000 0 0 1
1.033756 -26.326793 0.279488 26.348564 -1.531550 1.560189 0.039691 -0.004444 -97865.300000 0 0 1
0.585956 -27.400773 1.112088 27.429591 -1.549415 1.530242 0.033841 -0.001491 164617.000000 0 0 1
1.285556 -28.643223 0.908988 28.686463 -1.525945 1.539104 0.023510 -0.004813 -278121.000000 0 0 1
0.761056 -29.745353 1.847688 29.812400 -1.545216 1.508779 0.037033 -0.006953 131585.000000 0 0 1
0.915356 -29.514823 3.229088 29.705045 -1.539793 1.461876 0.025020 -0.008015 244745.000000 0 0 1
0.159256 -30.543323 3.852388 30.785725 -1.565582 1.445332 0.026410 -0.013093 -57061.000000 0 0 1
0.332356 -30.476433 5.384288 30.950186 -1.559891 1.395940 0.026261 -0.016149 -1072320.000000 0 0 1
1.610156 -30.857713 5.745788 31.429368 -1.518664 1.386946 0.013471 0.001297 -796178.000000 0 0 1
1.717756 -30.722573 7.135688 31.587106 -1.514943 1.342924 0.022393 -0.004698 263710.000000 0 0 1
3.164756 -31.056083 7.576588 32.123211 -1.469242 1.332693 0.022639 0.001077 320975.000000 0 0 1
3.364656 -32.409963 7.197988 33.369712 -1.467351 1.353383 0.012240 -0.005584 -65085.700000 0 0 1
4.630556 -32.957003 7.539488 34.124039 -1.431207 1.348014 0.007951 -0.001759 285981.000000 0 0 1
4.642756 34.104278 7.246288 35.173366 1.435494 1.363294 -0.002115 0.006163 -364607.000000 0 0 1
4.962456 33.772751 5.923088 34.645457 1.424904 1.398989 -0.012471 0.008342 35686.500000 0 0 1
4.673656 32.414036 5.792588 33.257584 1.427597 1.395730 -0.022130 0.007163 -431813.000000 0 0 1
4.985156 32.021066 4.312088 32.692424 1.416352 1.438512 -0.017016 0.009197 1627550.000000 0 0 1
6.405756 31.955696 3.962088 32.831363 1.372961 1.449821 -0.003911 0.010485 1318330.000000 0 0 1
7.046156 30.732086 4.144188 31.800688 1.345415 1.440107 -0.009617 0.008635 -259743.000000 0 0 1
8.504956 30.711896 3.640788 32.075071 1.300639 1.457043 -0.009929 0.007792 -391210.000000 0 0 1
9.306256 31.482616 4.491388 33.135089 1.283381 1.434830 -0.000527 0.001355 -865202.000000 0 0 1
10.573756 31.564426 3.899888 33.516063 1.247556 1.454173 0.012402 -0.001500 -657435.000000 0 0 1
11.679956 32.136496 4.769688 34.524277 1.222191 1.432198 0.030553 -0.017029 -338810.000000 0 0 1
12.039056 31.336036 5.872688 34.078945 1.203991 1.397606 0.035437 -0.019497 610462.000000 0 0 1
13.313056 31.844036 6.337188 35.091880 1.174810 1.389212 0.069509 -0.027623 631812.000000 0 0 1
14.075956 30.780416 7.124688 34.587971 1.141886 1.363324 0.069599 -0.031005 -457905.000000 0 0 1
13.623256 30.626766 8.429088 34.563586 1.152262 1.324440 0.048461 -0.027286 -100150.000000 0 0 1
14.236656 29.489476 9.038088 33.970555 1.121027 1.301497 0.037337 -0.025828 229317.000000 0 0 1
14.005756 29.399576 10.554988 34.233084 1.126212 1.257362 0.030513 -0.015227 153580.000000 0 0 1
14.599956 30.460296 11.284288 35.613530 1.123836 1.248386 0.035838 -0.016901 107308.000000 0 0 1
14.042056 30.430266 12.553688 35.787924 1.138461 1.212392 0.023880 -0.005226 -237802.000000 0 0 1
14.794056 31.438786 13.520488 37.283575 1.130971 1.199698 0.017873 -0.004763 -306388.000000 0 0 1
16.049756 30.992416 13.881788 37.560998 1.092962 1.192240 0.006026 -0.003574 -910733.000000 0 0 1
16.560656 31.810326 14.907988 38.838130 1.090800 1.176835 0.016830 -0.000220 -144675.000000 0 0 1
17.643256 31.123776 15.771788 39.098891 1.055090 1.155586 0.020056 -0.002812 559206.000000 0 0 1
18.831656 30.811676 15.027688 39.112940 1.022193 1.176441 0.042271 -0.004863 563988.000000 0 0 1
19.096856 29.371736 14.980888 38.102701 0.994296 1.166718 0.034084 -0.007366 1336200.000000 0 0 1
20.564856 29.078976 14.437788 38.431106 0.955250 1.185666 0.055638 -0.014185 790451.000000 0 0 1
21.627456 29.277486 15.305588 39.486442 0.934563 1.172752 0.063764 -0.016884 -689441.000000 0 0 1
22.831556 29.047976 14.615588 39.732610 0.904654 1.194102 0.062096 -0.017544 231590.000000 0 0 1
24.093456 29.266026 15.513388 40.959250 0.882034 1.182349 0.094013 -0.023486 253073.000000 0 0 1
24.157956 28.216996 16.491288 40.641953 0.862743 1.152975 0.083369 -0.018836 143683.000000 0 0 1
25.156956 28.382666 17.485488 41.763507 0.845574 1.138807 0.085222 -0.024567 -14517.400000 0 0 1
26.172056 27.242906 17.621188 41.685234 0.805443 1.134352 0.061939 -0.006980 -285219.000000 0 0 1
25.679756 26.047276 18.169988 40.841877 0.792503 1.109749 0.060746 -0.003855 -143837.000000 0 0 1
25.446756 26.086366 19.569988 41.364482 0.797809 1.077978 0.088821 -0.007892 -6756.200000 0 0 1
24.936956 24.698696 20.073488 40.432936 0.780598 1.051276 0.088954 -0.008146 749312.000000 0 0 1
25.880356 23.604196 19.925388 40.298536 0.739433 1.053601 0.062198 -0.011117 631066.000000 0 0 1
25.367256 22.497076 20.586588 39.666406 0.725505 1.025124 0.062354 -0.006766 503234.000000 0 0 1
26.314456 21.291976 20.253688 39.446302 0.680287 1.031596 0.039697 -0.015715 721495.000000 0 0 1
25.603656 20.030276 20.425688 38.392290 0.663868 1.009805 0.034711 0.000333 339666.000000 0 0 1
26.312456 18.829976 20.072288 38.076372 0.621139 1.015543 0.025487 -0.015787 436724.000000 0 0 1
27.132856 18.190576 21.267288 38.979309 0.590601 0.993686 0.035520 -0.007114 813178.000000 0 0 1
26.293256 17.738076 22.383688 38.820152 0.593492 0.956236 0.028770 -0.003965 514807.000000 0 0 1
27.031956 17.534376 23.571888 39.922612 0.575428 0.939193 0.041843 0.002995 80048.400000 0 0 1
26.160156 16.909676 24.712888 39.762014 0.573834 0.900115 0.021606 0.006165 262756.000000 0 0 1
25.847056 15.558976 24.481588 38.852287 0.541862 0.889089 0.025950 -0.001550 559526.000000 0 0 1
24.694856 15.142876 25.211388 38.402561 0.550069 0.854623 0.023636 0.002818 206634.000000 0 0 1
24.168556 13.819876 24.650988 37.185741 0.519435 0.846091 0.025541 0.005152 -436924.000000 0 0 1
22.918056 13.379276 25.081788 36.514907 0.528413 0.813593 0.024828 -0.000792 -62376.500000 0 0 1
22.355656 12.377676 24.246988 35.226392 0.505657 0.811627 0.028460 0.001226 283424.000000 0 0 1
21.090256 11.663376 24.825688 34.599827 0.505160 0.770577 0.038425 -0.004498 479225.000000 0 0 1
19.937056 12.486876 24.735088 34.135508 0.559544 0.760321 0.052397 -0.008674 1961.040000 0 0 1
18.789556 11.675876 24.901288 33.308372 0.556008 0.726358 0.058055 -0.005334 861479.000000 0 0 1
17.437656 12.472976 25.054588 32.975436 0.620914 0.707798 0.054476 -0.010639 756240.000000 0 0 1
17.413856 13.069076 26.344088 34.176807 0.643820 0.690673 0.068705 -0.003341 74094.400000 0 0 1
16.172156 13.703676 26.536488 33.963430 0.702961 0.674010 0.083985 -0.004876 -344825.000000 0 0 1
15.828856 14.067376 27.958688 35.073238 0.726546 0.648233 0.064603 0.003198 -321891.000000 0 0 1
15.174156 13.033076 28.675088 34.962505 0.709638 0.609094 0.062764 0.008815 45618.000000 0 0 1
15.309056 13.090576 30.096288 36.214872 0.707440 0.589808 0.051239 0.003497 1122900.000000 0 0 1
16.802456 12.891176 30.617888 37.228484 0.654431 0.605124 0.053630 0.006273 1138560.000000 0 0 1
17.565456 14.063176 30.445788 37.858476 0.675116 0.636468 0.075082 -0.008442 -682668.000000 0 0 1
18.929856 13.797176 30.517088 38.470693 0.629832 0.654659 0.060257 0.003193 -544388.000000 0 0 1
19.832556 15.037776 30.149888 39.095790 0.648752 0.690104 0.062933 -0.001272 -20314.700000 0 0 1
19.771156 15.529276 28.837688 38.257931 0.665806 0.717016 0.079994 -0.016653 189781.000000 0 0 1
20.162356 14.669276 27.816588 37.356002 0.628983 0.730808 0.073640 -0.009195 -387235.000000 0 0 1
19.861856 15.226676 26.454288 36.416677 0.654059 0.757679 0.066481 -0.002224 300159.000000 0 0 1
20.894856 16.173076 26.064288 37.114829 0.658699 0.792228 0.057930 0.000780 663874.000000 0 0 1
20.822856 16.787176 24.755188 36.444752 0.678504 0.824053 0.044689 0.000295 -1163610.000000 0 0 1
22.051956 17.575676 24.399488 37.289787 0.672916 0.857512 0.043771 -0.003822 -1077690.000000 0 0 1
22.079256 18.105876 23.043188 36.692027 0.686842 0.891795 0.053526 -0.009036 87614.200000 0 0 1
23.189556 18.909576 22.675488 37.543380 0.684082 0.922310 0.048410 -0.013718 1187.370000 0 0 1
23.279756 20.262176 23.367688 38.711131 0.716206 0.922734 0.066532 -0.015815 -118177.000000 0 0 1
22.298656 21.163076 22.903188 38.336170 0.759276 0.930504 0.067206 -0.013773 89843.400000 0 0 1
22.611656 22.450776 23.384188 39.523975 0.781828 0.937698 0.090621 -0.013881 -326793.000000 0 0 1
21.604156 23.538476 23.074288 39.410940 0.828221 0.945325 0.075794 -0.014944 -445871.000000 0 0 1
21.655256 24.065156 21.795988 39.027516 0.838059 0.978247 0.093582 -0.014815 460733.000000 0 0 1
20.718356 25.155706 21.774588 39.194292 0.881827 0.981766 0.091302 -0.016356 222400.000000 0 0 1
21.033256 26.220916 20.714388 39.484430 0.894742 1.018526 0.089059 -0.021641 -49186.400000 0 0 1
20.916956 25.622426 19.405088 38.348210 0.886163 1.040228 0.083319 -0.020218 217721.000000 0 0 1
21.337356 26.592276 18.410988 38.747857 0.894600 1.075663 0.086498 -0.018195 -36697.400000 0 0 1
21.463256 25.934586 17.008588 37.716922 0.879456 1.102963 0.071938 -0.012759 14113.400000 0 0 1
20.257156 25.558216 16.362488 36.487064 0.900591 1.105770 0.066928 -0.014018 -286655.000000 0 0 1
20.393956 25.355866 14.989588 35.826264 0.893433 1.139117 0.070834 -0.014859 -94419.800000 0 0 1
19.089356 24.876076 14.264888 34.448654 0.916266 1.143852 0.062639 -0.012173 565507.000000 0 0 1
18.069456 25.836646 14.081788 34.530194 0.960491 1.150741 0.046109 -0.006258 -12940.500000 0 0 1
17.232556 25.899656 15.243388 34.642663 0.983700 1.115178 0.044776 -0.009258 -771262.000000 0 0 1
15.818456 26.483146 14.995988 34.299566 1.032362 1.118306 0.031327 -0.004773 -757788.000000 0 0 1
14.901556 25.693256 14.325588 32.976086 1.045228 1.121398 0.044455 -0.005584 -130006.000000 0 0 1
14.352856 24.541206 14.995488 32.142495 1.041593 1.085431 0.064477 -0.016004 -13578.200000 0 0 1
13.273856 24.892076 16.057088 32.459834 1.080899 1.053335 0.051860 -0.016843 -230184.000000 0 0 1
13.880056 25.688766 17.043488 33.809010 1.075418 1.042444 0.052217 -0.015675 -206150.000000 0 0 1
12.879256 26.168846 17.883388 34.212561 1.113440 1.020765 0.047552 -0.010231 -142299.000000 0 0 1
13.330056 27.361996 18.776088 35.761861 1.117462 1.018045 0.040522 -0.017969 -235600.000000 0 0 1
13.263856 28.635966 18.170588 36.415913 1.137029 1.048382 0.030392 -0.011773 218947.000000 0 0 1
13.933956 29.686056 18.899388 37.849755 1.131946 1.047975 0.028864 -0.001243 2181.720000 0 0 1
14.026056 31.040106 18.153988 38.597743 1.146389 1.081122 0.007462 -0.007363 121348.000000 0 0 1
12.783156 31.709456 18.220788 38.741397 1.187591 1.081145 0.017906 0.003201 159648.000000 0 0 1
12.880356 32.914965 17.548188 39.461848 1.197793 1.109971 0.020384 0.003565 1527290.000000 0 0 1
11.506656 33.765793 17.585888 39.771792 1.242360 1.112780 0.033901 -0.006435 1189830.000000 0 0 1
11.573556 -33.544693 16.918288 39.311858 -1.238566 1.125904 0.042412 -0.006916 507485.000000 0 0 1
12.473256 -32.494033 17.423188 38.923153 -1.204278 1.106683 0.045775 -0.014069 474683.000000 0 0 1
12.458456 -32.179413 18.981988 39.383292 -1.201411 1.067882 0.048634 -0.018717 -421010.000000 0 0 1
13.050556 -33.143323 19.808588 40.757540 -1.195680 1.063277 0.058065 -0.012199 227841.000000 0 0 1
12.717056 -32.950493 21.158988 41.172337 -1.202465 1.031057 0.053739 -0.010331 -820906.000000 0 0 1
13.828156 -33.553623 21.953788 42.415002 -1.179885 1.026759 0.065272 -0.014683 -71417.000000 0 0 1
15.012256 -32.740083 21.911488 42.159154 -1.140873 1.024258 0.070949 -0.015322 324719.000000 0 0 1
16.057056 -33.332213 22.688888 43.401050 -1.121873 1.020696 0.063828 -0.015409 -203408.000000 0 0 1
17.322956 -32.523543 22.429888 43.138910 -1.081388 1.024009 0.067106 -0.013392 -638150.000000 0 0 1
17.424056 -31.177363 22.903388 42.428657 -1.061170 1.000586 0.080034 -0.022750 415223.000000 0 0 1
18.391156 -30.313563 22.256388 41.862795 -1.025467 1.010248 0.062934 -0.018571 320562.000000 0 0 1
-5.143844 13.165557 18.733480 23.467729 -1.198329 0.646386 0.030940 -0.000672 -263046.000000 0 1 0
-4.585344 14.086657 17.790280 23.150666 -1.256103 0.694371 0.030187 -0.014207 212943.000000 0 1 0
-5.494044 15.135957 17.397080 23.705276 -1.222605 0.746764 0.023028 -0.007222 -14266.200000 0 1 0
-4.972544 16.554957 17.339980 24.484029 -1.279004 0.783828 0.038030 -0.016183 -382957.000000 0 1 0
-4.758044 17.092757 18.601780 25.706566 -1.299303 0.761764 0.038412 -0.012664 86990.100000 0 0 1
-4.760444 18.502257 18.441180 26.553200 -1.318968 0.803073 0.046132 -0.000754 -72197.100000 0 0 1
-4.039744 19.261357 19.594180 27.771411 -1.364060 0.787594 0.033301 -0.002220 -93840.800000 0 0 1
-4.835144 19.297657 20.737080 28.736817 -1.325294 0.764656 0.016735 0.006668 -82353.900000 0 0 1
-4.294844 20.224357 21.648480 29.935380 -1.361545 0.762410 0.011555 0.000668 43397.900000 0 0 1
-5.285044 20.516257 22.799080 31.123087 -1.318675 0.748742 -0.008586 0.002863 142988.000000 0 0 1
-5.468644 19.411457 23.660190 31.088829 -1.296191 0.705864 -0.011171 -0.001594 89187.400000 0 0 1
-6.235944 19.560557 24.875400 32.253494 -1.262181 0.689999 -0.030412 -0.003408 391780.000000 0 0 1
-5.480644 20.238857 26.065650 33.452457 -1.306341 0.677432 -0.033479 0.005924 -970830.000000 0 0 1
-5.275144 21.596657 25.718690 33.995496 -1.331230 0.712802 -0.025004 0.005443 737993.000000 0 0 1
-4.174244 22.143057 26.501840 34.786302 -1.384470 0.704637 -0.020747 0.014240 1205900.000000 0 0 1
-2.758044 21.686957 26.037870 33.998553 -1.444300 0.698431 0.001906 0.015067 -574848.000000 0 0 1
-2.431344 20.448657 26.623020 33.657751 -1.452452 0.658367 0.009126 0.013387 -113054.000000 0 0 1
-1.097144 20.088157 26.310650 33.120810 -1.516234 0.652803 0.018740 0.010457 198598.000000 0 0 1
-0.644344 18.754157 26.905020 32.802647 -1.536452 0.609020 0.020892 0.012061 -345703.000000 0 0 1
-0.972444 17.586457 26.197340 31.567859 -1.515558 0.591915 0.025017 0.008291 -330145.000000 0 0 1
-0.363644 16.377857 26.590880 31.232056 -1.548597 0.552153 0.021048 0.007887 -44447.900000 0 0 1
1.101856 16.241657 26.102610 30.762831 1.503059 0.557631 0.034048 0.007525 -231905.000000 0 0 1
1.259356 16.005057 24.719710 29.475615 1.492273 0.575997 0.031170 -0.002862 -196643.000000 0 0 1
0.943456 14.687457 24.322280 28.428591 1.506649 0.544171 0.039317 -0.002908 -87494.500000 0 0 1
0.977956 14.506057 22.810980 27.050377 1.503481 0.567444 0.042014 -0.015690 646107.000000 0 0 1
2.355756 14.433857 22.441380 26.786216 1.409012 0.577563 0.044997 -0.018328 225233.000000 0 0 1
2.615256 13.849157 21.190080 25.449130 1.384155 0.586930 0.040116 -0.021064 1838260.000000 0 0 1
4.209456 13.806057 21.022680 25.500584 1.274851 0.601655 0.045193 -0.021721 1668120.000000 0 0 1
4.622256 14.864857 20.189780 25.494243 1.269322 0.656825 0.035275 -0.017301 -279494.000000 0 0 1
6.014856 15.066257 20.083680 25.817141 1.190957 0.679447 0.046913 -0.011833 -43678.800000 0 0 1
6.475256 16.090857 18.995980 25.723372 1.188207 0.739995 0.047346 -0.015141 -5734.990000 0 0 1
6.301456 15.670957 17.667080 24.442032 1.188472 0.762928 0.048899 -0.024233 -16709.500000 0 1 0
6.639256 16.706557 16.760080 24.578223 1.192530 0.820429 0.037803 -0.009789 -61108.700000 0 1 0
6.611156 16.114457 15.310580 23.190450 1.181474 0.849697 0.038454 -0.007265 219072.000000 0 1 0
7.619956 15.194957 14.890080 22.597896 1.105966 0.851422 0.036885 -0.010898 150553.000000 0 1 0
7.785956 14.004957 15.584480 22.352538 1.063402 0.799294 0.050080 -0.013212 -179091.000000 0 1 0
8.957456 13.177557 15.028980 21.903293 0.973790 0.814611 0.055491 -0.011990 1279660.000000 0 1 0
10.293756 13.649257 15.380180 22.995947 0.924637 0.838174 0.051937 -0.003661 1015250.000000 0 1 0
11.194156 12.962757 14.546280 22.470791 0.858481 0.866705 0.053628 0.004047 -511226.000000 0 1 0
12.593056 13.543557 14.421180 23.451725 0.821749 0.908499 0.047010 0.009367 -704097.000000 0 1 0
13.360756 13.473757 15.638280 24.588772 0.789609 0.881502 0.041868 0.006243 1075040.000000 0 1 0
14.667856 14.072457 15.542880 25.588301 0.764685 0.917986 0.034417 0.013546 1124430.000000 0 0 1
15.749156 13.314757 14.752080 25.356311 0.701833 0.949867 0.035561 0.009153 -595767.000000 0 0 1
17.060356 13.839657 14.746380 26.458412 0.681543 0.979615 0.035859 0.001828 -336760.000000 0 0 1
17.791556 13.330157 13.713380 26.120669 0.643015 1.018080 0.039371 0.004271 -961808.000000 0 0 1
19.206156 13.919957 13.792980 27.438803 0.627154 1.044098 0.030594 -0.002867 -488784.000000 0 0 1
19.841556 13.433357 14.949280 28.242227 0.595144 1.012993 0.012705 -0.000372 643563.000000 0 0 1
21.200256 13.915857 14.941480 29.433820 0.580861 1.038365 0.033228 -0.022918 932737.000000 0 0 1
22.058756 13.641357 16.183980 30.571172 0.553846 1.012919 0.030055 -0.015597 -21457.000000 0 0 1
22.287756 12.259657 16.394780 30.262717 0.502891 0.998280 0.032223 -0.009139 -13597.100000 0 0 1
23.365356 12.042757 17.258480 31.445556 0.475900 0.989824 0.019787 -0.014211 -554202.000000 0 0 1
23.680756 10.516457 17.357380 31.187381 0.417931 0.980567 0.028902 -0.003243 -455326.000000 0 0 1
22.722556 9.768457 18.063280 30.627102 0.406015 0.940009 0.010007 -0.003803 103196.000000 0 0 1
22.809856 8.366857 17.855080 30.151247 0.351570 0.937030 0.002740 0.001890 -61393.900000 0 0 1
21.570856 7.570357 18.336380 29.305886 0.337524 0.894781 0.036104 -0.000818 -141187.000000 0 0 1
21.664456 6.204557 18.001680 28.842775 0.278927 0.896777 0.050713 -0.011349 -83169.500000 0 0 1
20.666556 5.467557 18.633880 28.358812 0.258635 0.853864 0.038985 -0.011808 -369173.000000 0 0 1
20.346356 4.028357 18.021180 27.476623 0.195461 0.855458 0.077896 -0.008810 -540559.000000 0 0 1
19.526856 4.097657 16.861180 26.122563 0.206846 0.869165 0.076899 -0.022387 511223.000000 0 0 1
19.269056 2.852057 16.225680 25.351597 0.146945 0.876264 0.064556 -0.023649 -90811.200000 0 0 1
18.086356 2.090157 16.844280 24.803524 0.115055 0.824249 0.075428 -0.018848 -523350.000000 0 1 0
18.425056 1.339257 17.972580 25.773823 0.072559 0.799146 0.079045 -0.021434 559620.000000 0 0 1
17.323856 0.628957 18.594280 25.421621 0.036290 0.750371 0.068879 -0.018529 353405.000000 0 0 1
17.650556 -0.065343 19.943480 26.632476 -0.003702 0.724485 0.076157 -0.022680 221002.000000 0 0 1
18.440456 -1.263443 19.763880 27.060260 -0.068408 0.751939 0.076689 -0.018213 542700.000000 0 0 1
17.684956 -2.393943 20.211780 26.963025 -0.134548 0.723322 0.061496 -0.012466 -91121.000000 0 0 1
17.945356 -3.716643 19.463380 26.733358 -0.204222 0.755315 0.054243 -0.006052 -198403.000000 0 0 1
17.458056 -3.696243 18.138480 25.445047 -0.208640 0.777244 0.055117 -0.015323 205593.000000 0 0 1
17.343856 -4.969443 17.562580 25.178343 -0.279049 0.798856 0.063684 -0.015685 -305829.000000 0 0 1
16.829256 -4.872743 16.097580 23.792847 -0.281833 0.827699 0.039757 -0.015895 -498612.000000 0 1 0
15.462356 -4.569143 15.983580 22.703224 -0.287324 0.789751 0.023736 -0.007515 -315497.000000 0 1 0
14.938656 -4.765243 14.683280 21.481846 -0.308784 0.818222 0.014439 -0.012525 311418.000000 0 1 0
15.282756 -3.688243 13.615480 20.797766 -0.236806 0.857063 0.012477 -0.011617 -196539.000000 0 1 0
14.764356 -2.417443 13.862180 20.395840 -0.162295 0.823501 0.013135 -0.010057 425318.000000 0 1 0
15.513856 -1.394443 13.154580 20.387918 -0.089643 0.869492 0.025419 -0.015459 311195.000000 0 1 0
14.658856 -0.123743 13.186780 19.717722 -0.008441 0.838232 0.025226 -0.011485 -292624.000000 0 1 0
15.194956 1.102057 12.720580 19.847276 0.072401 0.875096 0.033634 -0.010892 -594330.000000 0 1 0
16.089156 1.682257 13.583980 21.123812 0.104180 0.872303 0.051317 -0.021543 -755082.000000 0 1 0
16.289556 3.085657 13.089980 21.123884 0.187207 0.902466 0.054308 -0.022189 361192.000000 0 1 0
15.141056 3.925257 13.284080 20.521355 0.253662 0.866721 0.046754 -0.017915 532700.000000 0 1 0
15.305956 5.162857 12.673080 20.531301 0.325326 0.905545 0.046395 -0.017810 -1207450.000000 0 1 0
14.259056 6.192157 12.783380 20.126557 0.409689 0.882594 0.053261 -0.018267 -1172390.000000 0 1 0
14.520556 7.397957 12.021280 20.250617 0.471204 0.935240 0.039448 -0.019591 474683.000000 0 1 0
13.491456 8.375757 12.161580 20.001918 0.555587 0.917231 0.029183 -0.016597 135703.000000 0 1 0
13.665656 9.282757 13.395380 21.268661 0.596682 0.889478 0.045747 -0.020855 43519.200000 0 1 0
13.465956 8.562757 14.591080 21.622960 0.566386 0.830108 0.070999 -0.022424 329065.000000 0 1 0
14.012056 9.348157 15.596580 22.956024 0.588338 0.823836 0.083398 -0.024484 -244373.000000 0 1 0
13.616156 8.987757 17.073580 23.615389 0.583429 0.762683 0.077803 -0.015179 150364.000000 0 1 0
12.353656 9.406957 17.554780 23.436594 0.650803 0.724195 0.089160 -0.020801 -226664.000000 0 1 0
11.807656 8.700757 18.637680 23.716809 0.635048 0.666739 0.089944 -0.019259 242038.000000 0 1 0
12.419156 8.815457 20.149980 25.258056 0.617291 0.647218 0.098416 -0.021230 803604.000000 0 0 1
13.767656 8.321557 20.143880 25.779305 0.543669 0.673894 0.100021 -0.018150 479930.000000 0 0 1
14.413656 8.666457 21.359180 27.185944 0.541351 0.667018 0.081739 -0.007071 559311.000000 0 0 1
15.965356 8.488857 21.275180 27.921078 0.488689 0.704438 0.064771 -0.010149 232409.000000 0 0 1
16.526756 9.426457 20.430780 27.917889 0.518352 0.749812 0.083733 -0.003182 -364276.000000 0 0 1
17.566356 8.791557 19.721780 27.835534 0.464029 0.783410 0.061157 -0.006806 -104315.000000 0 0 1
18.397056 9.819457 18.876180 28.127986 0.490283 0.835129 0.056816 -0.003369 -33716.500000 0 0 1
19.148856 10.625157 19.749680 29.489363 0.506576 0.836962 0.043398 -0.000977 307781.000000 0 0 1
20.037256 11.504957 19.033080 29.935160 0.521216 0.881739 0.031760 -0.002963 742100.000000 0 0 1
20.973856 12.346657 20.002380 31.502980 0.532046 0.882870 0.015034 0.000703 -7936.370000 0 0 1
20.342356 13.520157 20.485880 31.879106 0.586592 0.872894 0.027148 0.000496 121444.000000 0 0 1
20.910156 14.129257 21.627480 33.235800 0.594239 0.862253 0.015815 0.000957 713615.000000 0 0 1
22.233356 14.940557 21.271680 34.205653 0.591678 0.899660 0.004967 0.001287 1093100.000000 0 0 1
23.360156 14.176457 20.904980 34.404753 0.545452 0.917737 -0.011951 0.007118 -725466.000000 0 0 1
24.545156 14.889557 20.998780 35.568418 0.545272 0.939270 0.011567 0.002538 170565.000000 0 0 1
25.817856 13.982157 20.764480 35.961452 0.496347 0.955244 0.014737 -0.013937 585460.000000 0 0 1
25.925656 13.371757 19.473480 35.073636 0.476186 0.982172 0.015096 -0.026139 94696.000000 0 0 1
27.094256 12.574157 19.454880 35.646886 0.434509 0.993493 0.025688 -0.032438 152839.000000 0 0 1
27.264356 11.664757 18.196080 34.792370 0.404273 1.020441 0.042945 -0.030326 -258771.000000 0 0 1
27.689256 12.427557 17.088380 34.830329 0.421874 1.057998 0.050248 -0.045248 144328.000000 0 0 1
27.903956 11.617257 15.939880 34.171204 0.394504 1.085499 0.072079 -0.042663 -623168.000000 0 0 1
26.727556 11.472957 14.997780 32.724981 0.405470 1.094717 0.064214 -0.042752 -494222.000000 0 0 1
26.270156 12.737757 14.520680 32.607080 0.451475 1.109261 0.078946 -0.044013 -302408.000000 0 0 1
25.174156 12.539957 13.677380 31.273941 0.462149 1.118156 0.080434 -0.038135 -219371.000000 0 0 1
24.898356 13.738457 12.769880 31.172795 0.504210 1.148728 0.070606 -0.036805 -109987.000000 0 0 1
24.412056 14.923757 13.360780 31.578116 0.548707 1.133930 0.060566 -0.038386 160086.000000 0 0 1
24.086756 15.902857 12.372480 31.403040 0.583535 1.165828 0.039242 -0.019940 -117065.000000 0 0 1
23.270056 17.091757 12.896780 31.621995 0.633504 1.150707 0.040757 -0.019409 -7798.480000 0 0 1
21.938056 16.722157 13.232880 30.594410 0.651291 1.123504 0.060590 -0.030404 499634.000000 0 0 1
21.007156 17.801157 13.294280 30.576456 0.702974 1.120993 0.049427 -0.027775 -622223.000000 0 0 1
20.448956 18.313957 11.920180 29.927437 0.730375 1.161131 0.063600 -0.018839 128508.000000 0 0 1
19.297756 17.605757 11.457180 28.524253 0.739581 1.157463 0.069972 -0.020403 471390.000000 0 0 1
18.112356 17.700357 12.210380 28.115004 0.773894 1.121534 0.055498 -0.009815 -398374.000000 0 0 1
16.875156 17.050157 11.507080 26.606233 0.790557 1.123537 0.055605 -0.005698 185035.000000 0 0 1
16.723656 15.683357 11.459380 25.631343 0.753308 1.107293 0.048652 -0.003117 -1214250.000000 0 0 1
15.597056 15.239757 10.858780 24.360448 0.773812 1.108779 0.050787 -0.004001 -1305000.000000 0 1 0
15.626956 13.953057 10.073680 23.245829 0.728870 1.122585 0.054691 -0.011041 -320508.000000 0 1 0
15.881556 12.831357 10.872280 23.131667 0.679564 1.081486 0.049792 -0.002978 420645.000000 0 1 0
16.245156 11.689157 10.131680 22.431951 0.623725 1.102168 0.047844 -0.003123 -341738.000000 0 1 0
16.777856 10.617557 11.044980 22.720487 0.564211 1.063147 0.052543 -0.005568 -871591.000000 0 1 0
17.174256 9.553457 10.248180 22.164133 0.507641 1.090122 0.043412 -0.008801 333794.000000 0 1 0
17.595756 8.356257 10.931680 22.336949 0.443368 1.059396 0.032861 -0.005463 373829.000000 0 1 0
18.881956 8.399857 11.812780 23.803942 0.418573 1.051519 0.036793 -0.006402 131370.000000 0 1 0
18.668256 9.164657 12.979380 24.514466 0.456359 1.012835 0.035243 -0.007123 -786648.000000 0 1 0
19.821756 9.098857 13.703680 25.758145 0.430341 1.009820 0.038469 -0.013406 -1562620.000000 0 0 1
19.550656 9.163557 15.232380 26.423935 0.438302 0.956405 0.031386 0.008600 134466.000000 0 0 1
18.912956 8.040957 15.882780 25.973440 0.402003 0.912840 0.038933 -0.009856 -633016.000000 0 0 1
17.576456 7.967157 15.584480 24.804907 0.425583 0.891453 0.050200 -0.019015 -1863380.000000 0 1 0
16.859156 6.687557 15.997680 24.184299 0.377634 0.847992 0.046779 -0.011543 -709971.000000 0 1 0
16.224356 6.814457 17.260380 24.649285 0.397640 0.795065 0.072536 -0.009458 114924.000000 0 1 0
15.648056 5.606957 17.749880 24.317851 0.344064 0.752604 0.074210 -0.004440 730951.000000 0 1 0
14.259756 5.291357 17.090780 22.878677 0.355320 0.727231 0.079737 -0.030688 -92349.700000 0 1 0
13.661356 4.092057 17.497280 22.572824 0.291030 0.683847 0.064393 -0.022323 108586.000000 0 1 0
13.005956 3.377657 16.476180 21.260949 0.254088 0.684160 0.048443 -0.021687 35707.000000 0 1 0
12.888156 1.832557 16.808780 21.260243 0.141242 0.658975 0.032434 -0.013394 390484.000000 0 1 0
14.177056 1.213157 16.766980 21.990732 0.085364 0.703695 0.042054 -0.017756 599331.000000 0 1 0
14.174956 -0.225043 16.599580 21.829477 -0.015875 0.706836 0.040558 -0.011360 -130854.000000 0 1 0
13.359856 -1.103843 17.606480 22.128994 -0.082437 0.650750 0.039945 -0.006700 723097.000000 0 1 0
11.954656 -1.055943 17.374580 21.116459 -0.088100 0.604480 0.029626 -0.012132 398416.000000 0 1 0
11.189556 -1.510543 18.502680 21.675726 -0.134185 0.547914 0.019589 -0.012774 207018.000000 0 1 0
-25.869064 14.477157 28.717150 41.273130 -0.510208 0.801287 0.077430 -0.017794 -602584.000000 0 0 1
-24.873844 14.436057 29.687550 41.333503 -0.525861 0.769521 0.067632 -0.020135 -6414.110000 0 0 1
-24.261944 13.163057 29.666710 40.521867 -0.497097 0.749373 0.059798 -0.006912 -159882.000000 0 0 1
-23.018144 13.083657 30.573430 40.444427 -0.516865 0.713712 0.060623 -0.013488 -56076.700000 0 0 1
-23.326144 13.042757 31.956510 41.658625 -0.509839 0.696481 0.058326 -0.019075 33729.300000 0 0 1
-22.127844 12.957057 32.692115 41.548781 -0.529730 0.665129 0.044705 -0.006701 -213261.000000 0 0 1
-22.302244 13.221757 34.199170 42.916060 -0.535141 0.648675 0.044881 0.001347 480303.000000 0 0 1
-23.133744 12.242457 -33.542492 42.545818 -0.486736 2.478976 0.029666 -0.001121 620263.000000 0 0 1
-23.644944 12.682457 -32.317482 42.004139 -0.492319 2.448679 0.020738 0.000897 75991.900000 0 0 1
-24.548844 11.623657 -31.632422 41.693707 -0.442216 2.432090 0.013903 -0.012785 131585.000000 0 0 1
-23.832444 10.605757 -30.921612 40.455080 -0.418699 2.440820 0.026167 -0.016198 363764.000000 0 0 1
-23.413644 9.540257 -31.705052 40.551517 -0.386926 2.468418 0.018887 -0.015954 -336332.000000 0 0 1
-22.649844 8.490457 -30.909622 39.249306 -0.358645 2.477571 0.019005 -0.010172 54287.000000 0 0 1
-23.453644 7.681857 -30.033442 38.872766 -0.316522 2.453736 0.023999 -0.012440 836661.000000 0 0 1
-22.573544 6.939957 -29.182162 37.540997 -0.298266 2.461224 0.018126 -0.007418 363892.000000 0 0 1
-23.269344 5.952957 -28.154502 37.007783 -0.250457 2.435299 0.018786 -0.006444 -98245.500000 0 0 1
-23.823044 4.815157 -28.755582 37.651117 -0.199435 2.439880 0.037105 -0.011257 150331.000000 0 0 1
-24.163844 3.876057 -27.779572 37.021882 -0.159052 2.419396 0.045834 -0.001058 -248348.000000 0 0 1
-25.076344 2.643657 -28.242082 37.860628 -0.105036 2.412754 0.037915 0.003383 1522400.000000 0 0 1
-26.472314 2.909957 -28.460112 38.977291 -0.109485 2.389369 0.037985 -0.002096 827479.000000 0 0 1
-26.688194 3.690357 -29.597632 40.023721 -0.137405 2.403127 0.030961 -0.002278 -636271.000000 0 0 1
-28.132034 3.676757 -30.168152 41.413129 -0.129960 2.386880 0.050023 -0.011428 389827.000000 0 0 1
-29.181804 4.197557 -29.354852 41.604140 -0.142862 2.354031 0.042945 -0.002038 500975.000000 0 0 1
-30.444964 4.097257 -29.988892 42.930373 -0.133775 2.344162 0.048942 -0.014844 324700.000000 0 0 1
-30.965474 5.341857 -30.748802 43.964586 -0.170829 2.345353 0.058701 -0.036586 -602691.000000 0 0 1
-30.275324 5.580657 -31.978402 44.388705 -0.182284 2.375200 0.069288 -0.034055 248888.000000 0 0 1
-30.414024 6.835157 -32.646612 45.139046 -0.221064 2.379287 0.068041 -0.033303 -895512.000000 0 0 1
-29.862694 8.056657 -31.858072 44.403006 -0.263516 2.370968 0.048214 -0.032733 142195.000000 0 0 1
-28.436154 8.170957 -31.761692 43.407193 -0.279806 2.391631 0.037464 -0.032398 938231.000000 0 0 1
-27.839134 7.490257 -30.627632 42.061540 -0.262831 2.386433 0.029162 -0.026807 -372932.000000 0 0 1
-27.821454 8.373957 -29.375582 41.316840 -0.292364 2.361692 0.021179 -0.015005 -283723.000000 0 0 1
-29.064314 8.747857 -28.812362 41.849869 -0.292358 2.330173 0.029981 -0.020278 116081.000000 0 0 1
-29.553224 7.829757 -27.903032 41.391754 -0.258987 2.310570 0.034425 -0.007423 -1024740.000000 0 0 1
-30.943504 8.041857 -27.337992 42.065873 -0.254263 2.278230 0.028019 0.000144 -684472.000000 0 0 1
-31.119934 8.908457 -26.266562 41.686246 -0.278806 2.252480 0.009457 0.002918 -138574.000000 0 0 1
-30.849224 8.257257 -25.033812 40.577686 -0.261534 2.235639 0.023307 0.006630 -235816.000000 0 0 1
-30.199734 9.085157 -23.898412 39.568903 -0.292223 2.219269 0.022728 0.012039 -230674.000000 0 0 1
-30.949644 10.017657 -23.165912 39.936116 -0.313034 2.189616 0.029836 0.005018 191054.000000 0 0 1
-30.077684 10.617357 -22.231712 38.879870 -0.339343 2.179501 0.027542 0.001688 446426.000000 0 0 1
-30.858324 11.745757 -21.458512 39.378505 -0.363702 2.147101 0.027461 0.003561 245443.000000 0 0 1
-31.546374 11.178357 -20.356012 39.172651 -0.340542 2.117236 0.020808 0.003590 -252329.000000 0 0 1
-32.138484 12.182257 -19.615912 39.573647 -0.362321 2.089415 0.033902 0.003871 -281722.000000 0 0 1
-31.245814 13.119357 -18.731112 38.720446 -0.397522 2.075734 0.028485 0.004137 -387380.000000 0 0 1
-30.632764 12.514057 -17.608612 37.483744 -0.387828 2.059823 0.048091 0.006561 -107117.000000 0 0 1
-31.450984 11.920257 -16.617812 37.515444 -0.362282 2.029693 0.045899 0.010905 -196394.000000 0 0 1
-32.202284 12.969357 -15.733512 38.114757 -0.382872 1.996315 0.037555 0.012537 -35996.600000 0 0 1
-33.068594 13.846057 -16.404312 39.425203 -0.396528 1.999934 0.025923 0.009323 125208.000000 0 0 1
-33.800164 14.677357 -15.512712 39.981497 -0.409670 1.969254 0.012912 0.011184 3714.500000 0 0 1
-34.440838 15.898657 -16.201612 41.248404 -0.432477 1.974451 0.016920 0.003746 276131.000000 0 0 1
-35.702478 15.483157 -16.740512 42.363189 -0.409193 1.977045 0.023461 -0.001957 598758.000000 0 0 1
36.087908 16.646357 -17.232012 43.317208 0.432188 1.979925 0.029866 -0.005266 -599447.000000 0 0 1
35.837498 16.544857 -18.742612 43.696042 0.432511 2.014106 0.035844 -0.006783 52291.400000 0 0 1
34.918418 15.566257 -19.194412 42.778847 0.419347 2.036095 0.075245 -0.007971 972219.000000 0 0 1
33.538118 15.902357 -19.061212 41.725533 0.442761 2.045218 0.111984 -0.022145 40319.000000 0 0 1
32.488948 14.815557 -19.214812 40.549247 0.427847 2.064469 0.124211 -0.028113 -256203.000000 0 0 1
32.128108 14.378257 -20.518712 40.742694 0.420797 2.098577 0.112680 -0.022269 22001.500000 0 0 1
31.127138 13.395257 -20.581812 39.647731 0.406385 2.116614 0.077369 -0.016945 -147448.000000 0 0 1
31.472808 11.976557 -20.127312 39.231164 0.363616 2.109524 0.068982 -0.004890 -233878.000000 0 0 1
31.518208 11.759757 -18.737412 38.506882 0.357113 2.078989 0.078310 -0.009426 204024.000000 0 0 1
32.329248 10.625357 -18.468812 38.719188 0.317539 2.068027 0.068850 -0.005519 -56891.300000 0 0 1
32.471988 10.439957 -16.945612 38.086434 0.311069 2.031887 0.052098 0.000906 -412954.000000 0 0 1
31.271558 10.085957 -16.318712 36.687017 0.311995 2.031757 0.065697 -0.004630 -203081.000000 0 0 1
31.365568 9.830657 -14.928412 36.101221 0.303725 1.997108 0.048009 -0.000812 -198835.000000 0 0 1
30.829298 10.978757 -14.031612 35.607090 0.342112 1.975850 0.071606 -0.012118 -170375.000000 0 0 1
29.417818 10.957957 -14.023412 34.382276 0.356572 1.990914 0.077879 -0.012068 28951.000000 0 0 1
28.850578 12.095957 -13.402712 34.033817 0.397001 1.975565 0.090958 -0.013804 -425521.000000 0 0 1
27.332928 11.985157 -13.319212 32.682325 0.413239 1.990550 0.097949 -0.011377 -1026220.000000 0 0 1
26.799728 10.901657 -12.523912 31.526496 0.386340 1.979315 0.082139 -0.020285 630765.000000 0 0 1
25.400428 10.712057 -12.729912 30.364133 0.399095 2.003406 0.083034 -0.005284 264589.000000 0 0 1
25.063828 10.037457 -14.033712 30.428459 0.380916 2.050147 0.065838 -0.016916 -1053670.000000 0 0 1
25.450628 8.655857 -14.140712 30.374629 0.327832 2.055045 0.056748 -0.014633 1235370.000000 0 0 1
26.766528 8.480157 -14.700712 31.693391 0.306815 2.053123 0.064942 -0.021627 944051.000000 0 0 1
27.721388 7.456357 -13.996012 31.936828 0.262756 2.024437 0.069581 -0.018217 -72537.400000 0 0 1
27.424418 6.058057 -14.171712 31.458483 0.217409 2.038110 0.055546 -0.024088 906817.000000 0 0 1
26.530928 5.607757 -13.113812 30.121573 0.208301 2.021238 0.067078 -0.021501 423969.000000 0 0 1
25.855228 4.232957 -13.254512 29.361417 0.162278 2.039159 0.076116 -0.022420 -153639.000000 0 0 1
25.150528 3.815657 -12.108412 28.173071 0.150565 2.015053 0.077261 -0.022612 186001.000000 0 0 1
24.717028 2.484157 -12.176612 27.665365 0.100167 2.026550 0.062953 -0.021976 -405817.000000 0 0 1
23.790128 2.217557 -11.011212 26.308450 0.092945 2.002637 0.051443 -0.015237 -60868.800000 0 0 1
24.563028 2.121357 -9.820612 26.538405 0.086150 1.949862 0.061696 -0.007210 1216500.000000 0 0 1
23.651028 2.206957 -8.729212 25.306935 0.093044 1.922964 0.061592 -0.000448 91977.600000 0 0 1
24.261828 1.531757 -7.468412 25.431472 0.063051 1.868858 0.060637 -0.001453 -158249.000000 0 0 1
24.378228 0.128957 -7.298412 25.447622 0.005290 1.861683 0.039576 -0.005368 553945.000000 0 0 1
25.269128 -0.481143 -8.211512 26.574222 -0.019038 1.884941 0.039284 -0.004834 -388300.000000 0 0 1
25.623028 -1.956143 -7.924112 26.891590 -0.076195 1.869905 0.056537 -0.014624 -31288.100000 0 0 1
26.584028 -2.170643 -6.885812 27.546990 -0.081471 1.823441 0.067161 -0.019288 531782.000000 0 0 1
26.522328 -3.455843 -6.250612 27.467197 -0.129569 1.800374 0.082160 -0.025024 211424.000000 0 0 1
27.828428 -3.836143 -5.450712 28.615515 -0.136986 1.762448 0.077361 -0.027411 1131020.000000 0 0 1
28.883518 -4.194043 -6.364112 29.872220 -0.144198 1.785486 0.066809 -0.019043 191363.000000 0 0 1
30.002268 -4.743043 -5.768012 30.917673 -0.156792 1.758456 0.079084 -0.009708 -929068.000000 0 0 1
31.186568 -5.051243 -6.671512 32.289722 -0.160574 1.778909 0.083871 -0.012138 -522053.000000 0 0 1
31.167548 -6.197043 -7.444212 32.637949 -0.196270 1.800906 0.071025 -0.010131 281397.000000 0 0 1
32.035358 -6.079243 -8.577212 33.716316 -0.187537 1.828017 0.069847 -0.017315 -730078.000000 0 0 1
31.664838 -7.043843 -9.761812 33.875813 -0.218886 1.863106 0.062770 -0.015945 173868.000000 0 0 1
30.452278 -6.869443 -10.480212 32.929703 -0.221867 1.894690 0.063634 -0.017102 427455.000000 0 0 1
29.316508 -7.191943 -9.706612 31.708044 -0.240570 1.881916 0.059013 -0.014808 -746063.000000 0 0 1
28.226038 -6.133043 -9.515212 30.411556 -0.213957 1.889022 0.054236 -0.010352 -849064.000000 0 0 1
27.435518 -5.807343 -10.603712 29.981188 -0.208593 1.932298 0.044956 -0.006563 825107.000000 0 0 1
26.246628 -5.049243 -10.352312 28.662706 -0.190055 1.940326 0.052920 -0.004677 1111480.000000 0 0 1
24.961128 -5.759443 -9.833712 27.439588 -0.226768 1.937325 0.064818 -0.002155 -804976.000000 0 0 1
25.055828 -6.459843 -8.575112 27.259066 -0.252323 1.890809 0.060192 -0.010104 811083.000000 0 0 1
23.814528 -6.987543 -8.111112 26.110298 -0.285405 1.886671 0.064981 -0.019489 1916.070000 0 0 1
22.739328 -6.050143 -7.554612 24.713427 -0.260041 1.881458 0.082913 -0.014671 -673525.000000 0 1 0
22.211528 -5.273743 -8.570812 24.384896 -0.233116 1.929948 0.067669 -0.009418 -208323.000000 0 1 0
21.525028 -4.195043 -8.033012 23.354968 -0.192479 1.921920 0.038006 -0.007717 -413035.000000 0 1 0
21.238628 -3.309743 -9.272512 23.409682 -0.154593 1.978059 0.020281 0.000213 -1131750.000000 0 1 0
22.429228 -2.850843 -9.794512 24.640009 -0.126426 1.979592 0.026484 -0.000277 25168.900000 0 1 0
22.267428 -2.029143 -10.925112 24.886017 -0.090875 2.025288 0.028362 -0.001675 762438.000000 0 1 0
23.632728 -2.076643 -11.726312 26.463648 -0.087646 2.029861 0.039676 -0.004787 1502490.000000 0 0 1
24.682328 -1.199843 -11.266912 27.158797 -0.048573 1.998578 0.034843 -0.010187 1226570.000000 0 0 1
25.881428 -1.416543 -11.996712 28.561793 -0.054677 2.004271 0.040773 -0.010760 898572.000000 0 0 1
27.041028 -0.362243 -11.724112 29.475468 -0.013395 1.979869 0.046207 -0.007828 826274.000000 0 0 1
28.279878 -0.775543 -12.309712 30.852585 -0.027417 1.981206 0.041188 -0.013548 1979370.000000 0 0 1
29.439498 0.102457 -12.102512 31.830258 0.003480 1.960831 0.046119 -0.015235 1259910.000000 0 0 1
29.424258 1.423057 -12.849412 32.139064 0.048326 1.982102 0.053304 -0.014502 -696279.000000 0 0 1
29.554628 1.290557 -14.216612 32.821542 0.043639 2.018780 0.030214 -0.015831 279047.000000 0 0 1
29.666828 2.505657 -14.859212 33.274543 0.084260 2.033718 0.038729 -0.014816 -192966.000000 0 0 1
30.008028 2.285257 -16.345112 34.247144 0.076008 2.068341 0.029921 -0.012298 -141432.000000 0 0 1
29.001148 1.579657 -17.031312 33.669385 0.054415 2.101151 0.030339 -0.009177 -500837.000000 0 0 1
29.396588 1.493357 -18.410012 34.717691 0.050757 2.129724 0.011812 -0.007147 -251070.000000 0 0 1
28.367828 0.818257 -19.321912 34.332776 0.028837 2.168545 0.011661 -0.001253 -316394.000000 0 0 1
28.306108 -0.575643 -19.205312 34.211272 -0.020334 2.166841 0.018312 -0.001744 242238.000000 0 0 1
27.961778 -1.106943 -20.502712 34.690742 -0.039567 2.203112 0.019515 -0.003575 -165260.000000 0 0 1
27.759908 -2.623043 -20.418012 34.559920 -0.094211 2.202847 0.034359 -0.008670 -14997.800000 0 0 1
26.566628 -3.049243 -19.781812 33.262647 -0.114277 2.207708 0.028740 -0.008407 321915.000000 0 0 1
26.373528 -4.474143 -19.819612 33.292611 -0.168045 2.208455 0.040248 -0.015333 -138989.000000 0 0 1
27.175628 -5.260843 -18.724412 33.418481 -0.191222 2.165546 0.037560 -0.006066 787210.000000 0 0 1
28.582648 -5.104943 -18.962212 34.678433 -0.176739 2.149335 0.028059 -0.012903 569923.000000 0 0 1
29.250698 -5.347243 -17.723812 34.616901 -0.180811 2.108306 0.033166 -0.002958 -507396.000000 0 0 1
30.765308 -5.404743 -17.907212 36.005329 -0.173902 2.091337 0.040644 -0.004490 -701977.000000 0 0 1
31.243048 -6.486943 -18.639412 36.954515 -0.204720 2.099469 0.037423 -0.006238 -750647.000000 0 0 1
32.529878 -6.218643 -19.083312 38.223518 -0.188888 2.093536 0.044315 -0.006353 -745742.000000 0 0 1
33.241568 -7.418143 -19.749312 39.370878 -0.219561 2.096269 0.037483 -0.002113 -366951.000000 0 0 1
33.704918 -8.285743 -18.777212 39.462118 -0.241052 2.066702 0.054326 -0.012840 -76588.300000 0 0 1
34.134438 -9.520743 -19.342112 40.372289 -0.272006 2.070418 0.044881 -0.007991 -599302.000000 0 0 1
34.929938 -10.450343 -18.479212 40.875317 -0.290704 2.039900 0.058657 -0.013260 -632815.000000 0 0 1
34.199278 -10.979743 -17.361812 39.894585 -0.310657 2.021048 0.047890 -0.008152 595351.000000 0 0 1
35.000848 -11.691143 -16.410812 40.386346 -0.322373 1.989247 0.071378 -0.020347 -200578.000000 0 0 1
36.098318 -10.982043 -15.562112 40.815110 -0.295329 1.961980 0.069648 -0.017824 -94944.700000 0 0 1
-35.777350 -11.683843 -14.440012 40.311846 0.315652 1.937144 0.069142 -0.020953 555323.000000 0 0 1
-35.089117 -12.883543 -14.788712 40.198729 0.351885 1.947535 0.072615 -0.022735 -243838.000000 0 0 1
-33.618124 -12.732143 -15.260512 39.053411 0.362036 1.972253 0.066162 -0.020570 -140909.000000 0 0 1
-33.554304 -12.151543 -16.566712 39.344723 0.347454 2.005416 0.067938 -0.023221 -1042310.000000 0 0 1
-32.294554 -12.319343 -17.089212 38.558340 0.364429 2.029966 0.071479 -0.019100 -934567.000000 0 0 1
-32.007874 -11.621043 -18.531112 38.767960 0.348269 2.069173 0.082403 -0.020263 324292.000000 0 0 1
-32.196714 -10.192443 -18.691412 38.599005 0.306586 2.076297 0.088853 -0.021334 66734.800000 0 0 1
-33.556464 -9.841543 -18.828712 39.716654 0.285283 2.064711 0.082127 -0.022893 -97156.900000 0 0 1
-33.954174 -8.370343 -18.491212 39.558482 0.241700 2.057189 0.084038 -0.023004 285485.000000 0 0 1
-35.343610 -8.143543 -18.690312 40.802154 0.226458 2.046621 0.082708 -0.022855 84049.000000 0 0 1
-35.770096 -6.899943 -18.238212 40.739923 0.190556 2.034959 0.074134 -0.025740 -265822.000000 0 0 1
24.239056 27.553557 -26.710212 45.389048 0.849307 2.199965 0.045453 0.006459 120859.000000 0 0 1
25.007156 26.580857 -26.018462 44.820309 0.815894 2.190146 0.049036 0.000040 316896.000000 0 0 1
26.186656 26.152957 -26.694212 45.632215 0.784754 2.195659 0.050333 -0.002260 416242.000000 0 0 1
27.037856 25.199257 -25.797272 45.072690 0.750215 2.180163 0.043362 -0.001989 -138686.000000 0 0 1
27.593356 25.896757 -24.657212 45.166507 0.753691 2.148281 0.050551 0.001887 322911.000000 0 0 1
27.719056 24.903657 -23.654012 44.136724 0.731948 2.136400 0.050325 -0.002898 -178715.000000 0 0 1
28.209756 25.491657 -22.320112 44.088573 0.734826 2.101634 0.052187 -0.000433 152445.000000 0 0 1
27.255256 26.219457 -21.564512 43.535469 0.766031 2.089013 0.038165 -0.003849 10775.000000 0 0 1
27.894956 27.237757 -20.879112 44.226251 0.773478 2.062465 0.023652 -0.007054 -644322.000000 0 0 1
26.901856 28.098257 -20.136112 43.802795 0.807147 2.048453 0.029404 -0.005228 -416498.000000 0 0 1
26.345856 27.400457 -19.033412 42.510703 0.805017 2.035024 0.038879 -0.008464 -297245.000000 0 0 1
25.644156 28.369957 -18.305712 42.397833 0.835820 2.017240 0.041693 -0.012972 -380531.000000 0 0 1
24.741356 27.793557 -17.192812 40.990356 0.843431 2.003620 0.046945 -0.016167 339671.000000 0 0 1
23.638556 27.059757 -17.729212 40.066653 0.852778 2.029173 0.052199 -0.004791 405791.000000 0 0 1
22.476956 27.188357 -16.930312 39.128707 0.879978 2.018263 0.037097 -0.002447 644470.000000 0 0 1
21.335556 26.180757 -17.338812 37.964093 0.887016 2.045097 0.031937 0.006910 245409.000000 0 0 1
20.731056 26.565957 -18.550712 38.466292 0.908145 2.074028 0.032908 0.005913 -286561.000000 0 0 1
19.793356 25.585157 -18.924012 37.476598 0.912345 2.100127 0.032413 0.008885 3793.150000 0 0 1
19.215856 25.874857 -20.316412 38.098739 0.932018 2.133242 0.031831 0.011785 360826.000000 0 0 1
18.364056 27.024057 -20.377912 38.507109 0.973931 2.128452 0.028540 0.013884 66645.400000 0 0 1
17.277756 26.791757 -21.273912 38.326210 0.998021 2.159249 0.021617 0.006818 122059.000000 0 0 1
16.179656 27.841057 -21.064212 38.478653 1.044357 2.150082 0.010308 0.010890 -201864.000000 0 0 1
15.571356 27.743557 -19.796612 37.471027 1.059349 2.127414 0.011507 0.017497 -548060.000000 0 0 1
14.558556 28.666057 -19.581012 37.644526 1.100875 2.117829 0.007853 0.010513 -142045.000000 0 0 1
14.006456 28.722157 -18.129112 36.739730 1.117075 2.086845 0.012849 0.015000 112510.000000 0 0 1
13.307656 27.526457 -17.740012 35.348374 1.120476 2.096547 0.013252 0.022405 -1390.600000 0 0 1
12.879156 27.537557 -16.418312 34.550697 1.133326 2.065982 0.034081 0.018180 388057.000000 0 0 1
11.776556 26.441857 -16.188712 33.165244 1.151795 2.080734 0.046774 0.010753 701365.000000 0 0 1
12.399956 25.137457 -16.158812 32.353637 1.112534 2.093753 0.027895 0.007251 -93869.800000 0 0 1
11.492256 24.068157 -16.084312 31.145677 1.125320 2.113464 0.046735 0.005726 103229.000000 0 0 1
12.202156 22.670857 -16.160512 30.397738 1.077034 2.131327 0.032403 0.007009 90509.300000 0 0 1
12.645256 22.468657 -17.462512 31.139723 1.058183 2.166123 0.030905 0.011495 -569633.000000 0 0 1
13.623656 21.481757 -17.595912 30.930341 1.005611 2.175950 0.045203 0.007556 -368658.000000 0 0 1
13.128556 20.057257 -17.929612 29.935322 0.991226 2.212979 0.044986 -0.000296 -104946.000000 0 0 1
12.310656 19.630757 -16.863012 28.657983 1.010681 2.199903 0.045434 0.000992 -237425.000000 0 0 1
11.818156 18.315157 -17.057912 27.678261 0.997756 2.234823 0.041564 -0.009458 -65707.300000 0 0 1
12.900556 17.213657 -17.098812 27.479150 0.927655 2.242406 0.028302 -0.005501 13040.300000 0 0 1
13.351956 16.880957 -15.821312 26.712456 0.901599 2.204685 0.030753 -0.004380 -20013.800000 0 0 1
14.505956 16.049357 -15.864312 26.826871 0.835867 2.203539 0.034332 -0.001299 -592484.000000 0 0 1
14.875156 15.577957 -14.448212 25.936342 0.808472 2.161643 0.051280 0.004203 280900.000000 0 0 1
15.800456 16.431257 -13.691312 26.591213 0.804966 2.111665 0.049422 0.005546 2566560.000000 0 0 1
17.135156 16.741157 -14.203312 27.849847 0.773768 2.105977 0.035269 0.008857 1369460.000000 0 0 1
18.119856 15.556057 -14.486012 27.931427 0.709413 2.116041 0.024895 0.004664 -381137.000000 0 0 1
18.423656 14.669857 -13.421112 27.106494 0.672451 2.088775 0.025260 0.001260 642644.000000 0 0 1
19.435056 15.172557 -12.538612 27.661248 0.662849 2.041251 0.035002 0.000698 -282607.000000 0 0 1
20.330056 14.052957 -12.014212 27.479775 0.604823 2.023282 0.046384 -0.004028 -171416.000000 0 0 1
19.724556 13.089857 -11.066212 26.131657 0.585899 2.008079 0.078007 -0.009303 1098130.000000 0 0 1
20.751956 12.265057 -10.503812 26.294588 0.533799 1.981731 0.103683 0.002866 351406.000000 0 0 1
20.932056 10.950457 -11.293212 26.183966 0.481990 2.016732 0.083928 -0.002434 -209066.000000 0 0 1
21.339356 11.124357 -12.632012 27.178800 0.480548 2.054176 0.062442 0.013619 297513.000000 0 0 1
21.198356 9.974157 -13.497812 27.037844 0.439783 2.093494 0.058604 0.004320 -475231.000000 0 0 1
21.693956 8.581157 -13.035112 26.724111 0.376669 2.080325 0.061954 0.010359 -283499.000000 0 0 1
20.915056 7.985457 -12.006312 25.403909 0.364723 2.063054 0.056296 -0.000895 331946.000000 0 0 1
21.650556 7.110957 -11.182412 25.384220 0.317342 2.026981 0.065951 0.019549 -954749.000000 0 0 1
21.919356 5.650357 -11.685912 25.474403 0.252287 2.047363 0.064237 0.003755 -134883.000000 0 0 1
20.803656 4.817557 -11.795612 24.395438 0.227561 2.075465 0.039027 -0.007800 330623.000000 0 1 0
19.805856 5.146357 -12.759712 24.115704 0.254218 2.128340 -0.002772 -0.018634 -256087.000000 0 1 0
18.947756 3.978957 -13.182612 23.422869 0.206989 2.168577 0.003828 -0.027652 -437590.000000 0 1 0
19.646056 3.115357 -14.060912 24.359438 0.157265 2.186124 0.016080 -0.024381 708265.000000 0 1 0
19.042556 1.829157 -14.204212 23.826968 0.095762 2.209481 0.025512 -0.012760 -669499.000000 0 1 0
20.029956 1.095557 -15.073012 25.091733 0.054641 2.215193 0.048271 -0.005226 -106450.000000 0 0 1
21.121756 0.703357 -14.233412 25.479664 0.033288 2.163516 0.059303 0.002257 822662.000000 0 0 1
22.281256 0.292957 -14.980112 26.850399 0.013147 2.162662 0.040511 -0.007141 542780.000000 0 0 1
22.358356 -1.181943 -15.416612 27.183911 -0.052814 2.173804 0.041739 -0.005297 -877687.000000 0 0 1
21.390656 -1.529843 -16.345212 26.964171 -0.071398 2.222048 0.037457 -0.000286 -365542.000000 0 0 1
21.823356 -2.667943 -17.054912 27.825291 -0.121648 2.230558 0.040378 -0.006626 -217164.000000 0 0 1
20.759256 -3.371943 -17.931612 27.638007 -0.161025 2.276806 0.039478 -0.007124 -458916.000000 0 0 1
19.929756 -4.204043 -17.203712 26.661524 -0.207895 2.272165 0.046538 -0.004676 -97683.300000 0 0 1
19.131156 -4.993143 -18.076412 26.789723 -0.255300 2.311425 0.043466 -0.005679 103082.000000 0 0 1
18.334356 -6.143643 -17.411112 26.019988 -0.323330 2.303852 0.037078 -0.006174 160456.000000 0 0 1
19.216356 -7.141343 -16.914312 26.577454 -0.355811 2.260639 0.041938 -0.004471 477212.000000 0 0 1
18.520756 -8.070543 -16.116412 25.843583 -0.410946 2.244153 0.037425 -0.006505 -595962.000000 0 0 1
19.359756 -9.042743 -15.340512 26.304043 -0.436975 2.193458 0.043309 -0.008851 -739268.000000 0 0 1
19.920856 -9.970643 -16.184212 27.535122 -0.464058 2.199091 0.056140 -0.015995 509974.000000 0 0 1
20.978956 -10.688443 -15.544112 28.213097 -0.471206 2.154303 0.060463 -0.015826 231987.000000 0 0 1
21.715556 -11.765543 -16.439012 29.668746 -0.496528 2.158060 0.061465 -0.016741 -100779.000000 0 0 1
22.501656 -11.127743 -17.424612 30.557622 -0.459262 2.177572 0.060987 -0.009536 103007.000000 0 0 1
23.080456 -12.033343 -18.388512 31.869204 -0.480593 2.185846 0.069155 -0.010071 144942.000000 0 0 1
22.388056 -12.049343 -19.798312 32.223980 -0.493742 2.232418 0.077067 -0.012732 676459.000000 0 0 1
21.014256 -12.401343 -19.877012 31.472017 -0.533138 2.254382 0.054527 -0.008898 269462.000000 0 0 1
20.721256 -13.790943 -19.869112 31.848739 -0.587226 2.244467 0.045077 -0.004566 187916.000000 0 0 1
19.198356 -14.085443 -19.721012 30.917550 -0.632974 2.262510 0.042459 0.001594 501878.000000 0 0 1
18.491056 -13.593243 -20.835912 30.997268 -0.633913 2.307953 0.043125 0.005717 482301.000000 0 0 1
17.103056 -13.960843 -20.841312 30.360829 -0.684588 2.327398 0.038032 0.004219 618755.000000 0 0 1
16.335056 -13.384543 -22.007712 30.501138 -0.686444 2.376817 0.036268 -0.004343 -608467.000000 0 0 1
16.774356 -13.930743 -23.252912 31.876991 -0.693051 2.388325 0.046980 -0.004595 145119.000000 0 0 1
16.269356 -13.269043 -24.357712 32.156766 -0.684172 2.430222 0.064013 -0.020603 -227699.000000 0 0 1
16.255756 -14.124643 -25.675692 33.511137 -0.715365 2.443678 0.070208 -0.023698 256458.000000 0 0 1
15.280656 -15.190143 -25.604902 33.464158 -0.782428 2.442061 0.068194 -0.023791 746802.000000 0 0 1
15.109156 -15.934043 -26.816572 34.659903 -0.811964 2.455466 0.072899 -0.025019 110519.000000 0 0 1
16.143256 -17.097343 -26.963352 35.776336 -0.814093 2.424416 0.065069 -0.019166 654148.000000 0 0 1
17.518556 -16.745843 -27.093522 36.350818 -0.762851 2.411833 0.068799 -0.012813 486140.000000 0 0 1
18.276356 -17.887643 -27.477102 37.536437 -0.774650 2.392066 0.060834 -0.003499 795230.000000 0 0 1
19.823556 -17.689743 -27.370782 38.145250 -0.728578 2.371062 0.047296 0.005088 483420.000000 0 0 1
20.214756 -17.579343 -25.987842 37.323419 -0.715780 2.341009 0.050486 0.006008 647113.000000 0 0 1
21.622556 -17.299143 -25.949252 37.949426 -0.674772 2.323734 0.048987 0.011181 547071.000000 0 0 1
22.061556 -16.668043 -24.591112 37.003496 -0.647027 2.297704 0.062154 0.009799 -42530.700000 0 0 1
21.782056 -15.309043 -24.317712 36.057952 -0.612622 2.310957 0.057976 0.004105 320755.000000 0 0 1
20.409656 -14.905343 -24.325812 35.078034 -0.630779 2.337100 0.071269 -0.001223 530939.000000 0 0 1
20.270956 -13.558943 -23.636012 33.962003 -0.589537 2.340545 0.073987 0.003663 -90042.800000 0 0 1
20.812156 -12.497243 -24.364012 34.393778 -0.540771 2.358003 0.079111 -0.008199 58594.700000 0 0 1
20.506856 -11.264443 -23.706212 33.307706 -0.502307 2.362759 0.083164 -0.009088 118422.000000 0 0 1
20.951056 -10.026343 -24.523912 33.777160 -0.446349 2.383357 0.095798 -0.023224 6328.450000 0 0 1
20.585756 -8.784043 -23.940412 32.773100 -0.403314 2.389835 0.096072 -0.024053 59737.400000 0 0 1
20.147756 -7.857943 -24.913512 32.990338 -0.371870 2.426719 0.084757 -0.023719 203268.000000 0 0 1
19.355756 -6.661443 -24.247112 31.732358 -0.331461 2.440462 0.072600 -0.027753 2027820.000000 0 0 1
18.041256 -7.102543 -23.712112 30.630006 -0.375049 2.456162 0.081504 -0.030297 1955420.000000 0 0 1
17.371956 -6.162843 -22.883212 29.383786 -0.340907 2.463499 0.049111 -0.019277 137223.000000 0 0 1
18.101156 -6.062743 -21.526012 28.771129 -0.323193 2.416113 0.047173 -0.012269 -289832.000000 0 0 1
17.849156 -7.172343 -20.619212 28.199056 -0.382084 2.390879 0.048422 -0.018050 234439.000000 0 0 1
18.253156 -8.449143 -21.074412 29.132397 -0.433519 2.379512 0.055605 -0.017273 -244403.000000 0 0 1
17.865156 -9.577343 -20.020612 28.490598 -0.492102 2.349995 0.047926 -0.014259 72833.100000 0 0 1
16.467656 -9.557843 -19.851512 27.506701 -0.525884 2.377048 0.026646 -0.011468 -441210.000000 0 0 1
16.072856 -10.655743 -19.098912 27.141297 -0.585436 2.351366 0.027551 -0.007155 859704.000000 0 0 1
14.562256 -10.704943 -18.620112 25.949252 -0.633907 2.371087 0.040573 -0.011257 1055600.000000 0 0 1
14.082256 -9.831143 -17.594612 24.587226 -0.609465 2.368279 0.044055 -0.011940 147958.000000 0 1 0
14.311456 -8.442443 -17.817612 24.363085 -0.532966 2.391076 0.051493 -0.024949 -331945.000000 0 1 0
13.147556 -7.517443 -17.373212 23.047748 -0.519407 2.424610 0.058177 -0.013190 -436973.000000 0 1 0
12.003356 -7.558743 -18.159212 23.042832 -0.561986 2.478453 0.045263 -0.021718 -132576.000000 0 1 0
11.072856 -6.571443 -17.677012 21.869356 -0.535607 2.512056 0.038577 -0.015845 495312.000000 0 1 0
9.591056 -6.793043 -18.067712 21.554025 -0.616254 2.564867 0.037099 -0.013160 294296.000000 0 1 0
9.410856 -6.574643 -19.486412 22.616595 -0.609801 2.609206 0.030739 -0.020219 -623962.000000 0 1 0
8.130156 -6.081643 -19.685112 22.149254 -0.642242 2.665404 0.037958 -0.019803 -490695.000000 0 1 0
7.626956 -5.917743 -21.146212 23.245482 -0.659871 2.713336 0.039233 -0.025588 137781.000000 0 1 0
7.686956 -7.045443 -21.918712 24.272567 -0.741881 2.697554 0.040481 -0.026879 -85666.700000 0 1 0
6.902056 -6.790843 -23.037512 24.989615 -0.777276 2.743710 0.041298 -0.027731 -302788.000000 0 1 0
6.891756 -7.871943 -24.163112 26.330966 -0.851693 2.732970 0.038783 -0.024270 -305633.000000 0 0 1
6.232556 -9.037243 -23.776612 26.188619 -0.967049 2.709040 0.042651 -0.022788 -25191.400000 0 0 1
6.322156 -9.989643 -24.791212 27.465739 -1.006557 2.696622 0.042872 -0.012124 -197033.000000 0 0 1
5.472856 -11.260043 -24.498312 27.511961 -1.118377 2.669152 0.041290 -0.018771 99736.700000 0 0 1
5.828856 -12.038943 -23.374912 26.931361 -1.119895 2.621844 0.037599 -0.025267 643.407000 0 0 1
4.970156 -13.155343 -23.341912 27.250878 -1.209569 2.599355 0.043508 -0.025264 -373299.000000 0 0 1
5.614456 -14.253843 -22.493612 27.215009 -1.195568 2.543684 0.052554 -0.023764 370908.000000 0 0 1
6.815856 -14.819343 -22.996812 28.194364 -1.139716 2.524653 0.038153 -0.018689 815142.000000 0 0 1
8.079956 -14.151843 -23.028112 28.210890 -1.052013 2.525746 0.039074 -0.022180 743526.000000 0 0 1
8.736056 -13.690043 -21.707712 27.110159 -1.002809 2.499297 0.031895 -0.019380 -549721.000000 0 0 1
9.205456 -14.690043 -20.836612 27.105390 -1.011014 2.447643 0.034221 -0.005968 137967.000000 0 0 1
8.215556 -15.327843 -20.045412 26.537835 -1.078774 2.426988 0.035230 -0.004888 64660.700000 0 0 1
8.817856 -15.945643 -18.741012 26.138930 -1.065657 2.370252 0.029380 -0.002437 4792.280000 0 0 1
9.647356 -17.042443 -19.017312 27.297885 -1.055693 2.341526 0.030194 -0.002972 -591071.000000 0 0 1
10.266156 -17.435943 -17.808312 26.954444 -1.038658 2.292523 0.039393 -0.000734 -211542.000000 0 0 1
9.408956 -18.186643 -16.717612 26.434088 -1.093361 2.255478 0.045472 -0.013984 10751.400000 0 0 1
8.940756 -19.510443 -17.089712 27.434518 -1.141099 2.243276 0.057988 -0.018848 389797.000000 0 0 1
7.996856 -19.715343 -18.121912 27.947239 -1.185458 2.276321 0.055369 -0.010539 171805.000000 0 0 1
6.481456 -19.526343 -17.843212 27.233574 -1.250306 2.285233 0.059814 -0.012194 152564.000000 0 0 1
6.279256 -18.198843 -17.504612 26.019961 -1.238551 2.308699 0.057292 -0.010858 41.141200 0 0 1
4.966456 -17.794943 -17.863312 25.698708 -1.298628 2.339363 0.056265 -0.017339 306157.000000 0 0 1
4.836356 -16.309543 -17.429512 24.355275 -1.282521 2.368331 0.048694 -0.008299 -22003.800000 0 1 0
4.642856 -16.344643 -16.021212 23.353430 -1.294027 2.326818 0.022463 -0.006799 189664.000000 0 1 0
4.749656 -15.066943 -15.376112 22.045336 -1.265420 2.342667 0.022835 -0.001595 -56161.500000 0 1 0
11.106956 30.724357 -17.986812 37.294449 1.223911 2.074065 0.036596 -0.002004 -712599.000000 0 0 1
10.296856 29.934157 -18.766612 36.800335 1.239491 2.105932 0.051293 0.001309 -620269.000000 0 0 1
9.240956 29.340057 -18.065012 35.673223 1.265672 2.101804 0.051893 0.006129 683561.000000 0 0 1
8.169256 28.644557 -19.033612 35.348631 1.292978 2.139398 0.053923 -0.005637 965306.000000 0 0 1
7.317256 29.612857 -19.703112 36.313580 1.328552 2.144305 0.058357 -0.014580 74279.400000 0 0 1
6.495456 28.847257 -20.543212 36.005259 1.349323 2.177986 0.046762 -0.020007 -68432.700000 0 0 1
5.434456 29.646457 -21.331012 36.925029 1.389500 2.186685 0.068281 -0.022652 -153767.000000 0 0 1
4.336556 30.085557 -20.578612 36.707297 1.427642 2.165923 0.060632 -0.026412 41725.100000 0 0 1
3.461156 30.872557 -21.441412 37.746900 1.459151 2.174908 0.061086 -0.033710 -1475620.000000 0 0 1
2.092556 30.933557 -20.782212 37.325113 1.503252 2.161311 0.082771 -0.035966 -583404.000000 0 0 1
1.317356 29.731757 -20.867412 36.347787 1.526517 2.182306 0.076194 -0.039370 221417.000000 0 0 1
0.769856 29.688857 -22.147012 37.047416 1.544871 2.211553 0.091813 -0.058146 -1472700.000000 0 0 1
0.097156 28.398857 -22.638212 36.317945 1.567375 2.243796 0.084479 -0.051463 -56078.300000 0 0 1
-0.967144 27.974757 -21.825312 35.494600 -1.536238 2.233044 0.082071 -0.047967 -263151.000000 0 0 1
-1.402344 26.698557 -22.212412 34.758750 -1.518319 2.264053 0.093858 -0.050670 -176024.000000 0 0 1
-2.465344 26.180657 -21.231812 33.797848 -1.476907 2.250034 0.082669 -0.048555 -13550.900000 0 0 1
-3.683744 26.898057 -21.280812 34.495628 -1.434691 2.235611 0.061477 -0.046144 213549.000000 0 0 1
-4.655244 26.306257 -20.427512 33.629952 -1.395646 2.223605 0.067189 -0.042261 398569.000000 0 0 1
-5.898744 27.212657 -20.223312 34.413750 -1.357334 2.198950 0.064342 -0.056096 434516.000000 0 0 1
-6.996644 26.596357 -19.572412 33.754977 -1.313557 2.189326 0.054098 -0.039096 -1042250.000000 0 0 1
-7.880944 27.517757 -19.128712 34.427370 -1.291868 2.159911 0.048200 -0.042543 -95633.200000 0 0 1
-9.208844 26.843057 -18.628912 33.946853 -1.240315 2.151685 0.062743 -0.028343 298886.000000 0 0 1
-9.108344 26.097357 -17.458812 32.693180 -1.235000 2.134145 0.063263 -0.039878 -631972.000000 0 0 1
-10.319944 25.509357 -17.084312 32.389847 -1.186369 2.126403 0.056381 -0.029954 -371241.000000 0 0 1
-10.157844 24.675857 -15.774612 30.998678 -1.180286 2.104680 0.065395 -0.017356 -192045.000000 0 0 1
-9.406244 23.514157 -15.852012 29.877738 -1.190269 2.130061 0.067092 -0.022737 -396816.000000 0 0 1
-9.481644 22.865557 -14.626912 28.752075 -1.177708 2.104500 0.082122 -0.011600 -113131.000000 0 0 1
-9.014844 21.336457 -14.669912 27.417478 -1.171038 2.135371 0.090456 -0.005967 24763.600000 0 0 1
-9.796644 20.327057 -15.308112 27.267228 -1.121692 2.166886 0.062999 -0.004506 -348896.000000 0 0 1
-9.778644 20.414957 -16.715812 28.139131 -1.124094 2.206870 0.060866 -0.008181 325044.000000 0 0 1
-8.465944 20.104157 -17.517012 27.976687 -1.172230 2.247375 0.048129 -0.012983 492105.000000 0 0 1
-8.034844 18.747357 -17.384712 26.800192 -1.165893 2.276643 0.047571 -0.003627 -192756.000000 0 0 1
-6.958944 18.552157 -18.285712 26.962505 -1.211937 2.316094 0.037153 -0.009894 332091.000000 0 0 1
-6.503544 17.057857 -18.388512 25.911463 -1.206545 2.359822 0.015847 -0.011900 335941.000000 0 0 1
-7.632144 16.280157 -18.763912 25.988026 -1.132418 2.377516 0.017133 -0.012899 92238.800000 0 0 1
-7.399544 15.452357 -19.877712 26.242180 -1.124202 2.430228 0.017908 -0.020419 1052930.000000 0 0 1
-6.247944 14.339557 -19.757312 25.199425 -1.159886 2.471941 0.016093 -0.017491 782662.000000 0 0 1
-6.548944 13.219757 -18.942512 24.009777 -1.110843 2.479895 -0.000677 -0.017506 1411640.000000 0 1 0
-5.294244 12.624757 -18.469612 22.989999 -1.173717 2.503739 0.010345 -0.014934 1534590.000000 0 1 0
-4.675944 13.281657 -17.215912 22.240829 -1.232287 2.456038 0.012598 -0.005398 -210137.000000 0 1 0
-4.085044 14.536957 -17.541112 23.145222 -1.296850 2.430841 0.018756 -0.008602 -493478.000000 0 1 0
-3.572244 15.124757 -16.394212 22.589585 -1.338861 2.382909 0.017947 0.000600 -426676.000000 0 1 0
-2.825644 16.398557 -16.652012 23.541164 -1.400161 2.356549 0.042283 -0.002129 -267599.000000 0 1 0
-3.561344 17.574957 -16.906712 24.645469 -1.370866 2.326769 0.036734 -0.007707 -216907.000000 0 1 0
-2.629344 18.669957 -16.995112 25.383352 -1.430884 2.304383 0.047289 -0.013708 616078.000000 0 0 1
-3.104744 20.027257 -17.618112 26.853832 -1.416995 2.286402 0.060739 -0.013207 154251.000000 0 0 1
-3.489644 19.860257 -18.973412 27.687502 -1.396862 2.325771 0.061211 -0.015670 -264846.000000 0 0 1
-4.004544 21.053457 -19.545112 29.005099 -1.382833 2.310205 0.076631 -0.013182 250913.000000 0 0 1
-2.995744 22.228357 -19.758212 29.890822 -1.436832 2.292964 0.063242 -0.020550 -393378.000000 0 0 1
-2.029444 22.072757 -20.755212 30.366166 -1.479111 2.323340 0.085208 -0.014859 -435048.000000 0 0 1
-0.903644 22.872857 -20.524512 30.744751 -1.531310 2.301747 0.080145 -0.018650 697122.000000 0 0 1
0.254456 22.364657 -19.585412 29.729295 1.559419 2.290008 0.080469 -0.018879 379562.000000 0 0 1
-0.123444 22.339557 -18.202612 28.816768 -1.565271 2.254498 0.068077 -0.015404 54185.400000 0 0 1
1.037856 22.017857 -17.455312 28.116740 1.523694 2.240579 0.063510 -0.013316 169532.000000 0 0 1
0.799856 22.007357 -15.945212 27.188477 1.534467 2.197489 0.073263 -0.013218 4432.030000 0 0 1
-0.194744 21.063157 -15.554512 26.184677 -1.561551 2.206857 0.070346 -0.005294 132212.000000 0 0 1
-0.210944 21.095557 -14.147012 25.400885 -1.560797 2.161505 0.073508 -0.004249 300093.000000 0 0 1
-1.263244 20.140157 -13.511012 24.285163 -1.508156 2.160781 0.064155 -0.002212 233583.000000 0 1 0
-0.988344 18.785057 -13.752912 23.302312 -1.518231 2.202097 0.053107 -0.004768 -127762.000000 0 1 0
-1.775844 18.026157 -12.867212 22.218485 -1.472598 2.188448 0.040151 0.000773 106878.000000 0 1 0
-1.472644 16.506157 -12.924812 21.016009 -1.481814 2.233180 0.024529 0.005519 -616041.000000 0 1 0
-0.352244 16.050557 -12.231912 20.183263 -1.548854 2.221872 0.020187 0.000866 -323004.000000 0 1 0
-0.097344 14.682857 -12.288812 19.147079 -1.564167 2.267654 0.014304 0.002746 169335.000000 0 1 0
0.507556 14.068157 -13.623212 19.589858 1.534734 2.339803 0.017915 0.003298 443348.000000 0 1 0
-0.376744 14.009457 -14.761912 20.354873 -1.543911 2.382161 0.019621 0.002332 487579.000000 0 1 0
0.091956 12.947657 -15.576412 20.255243 1.563694 2.448082 0.024311 -0.003532 105318.000000 0 1 0
-0.357444 12.949657 -17.045212 21.409358 -1.543201 2.491714 0.022589 0.004205 -94590.300000 0 1 0
-0.124344 14.149557 -17.713912 22.671746 -1.562009 2.467576 0.028915 0.001046 234399.000000 0 1 0
-0.705744 14.044157 -19.046012 23.674606 -1.520587 2.505615 0.039209 -0.001505 112701.000000 0 1 0
-1.235344 15.432957 -19.500312 24.899084 -1.490921 2.470550 0.051494 -0.008296 161000.000000 0 1 0
-0.274744 16.441357 -19.812612 25.747490 -1.554087 2.448849 0.050407 -0.013239 445201.000000 0 0 1
-0.973944 17.622057 -20.129412 26.770855 -1.515584 2.421759 0.072667 -0.019978 489287.000000 0 0 1
0.105456 18.672357 -20.473612 27.709868 1.565149 2.402168 0.088173 -0.024519 337821.000000 0 0 1
0.826156 18.379057 -21.612812 28.382845 1.525876 2.436381 0.101702 -0.034539 -137339.000000 0 0 1
1.897756 19.285557 -21.804312 29.171256 1.472709 2.415025 0.106095 -0.030539 336289.000000 0 0 1
2.446956 19.301257 -23.273412 30.334432 1.444692 2.445304 0.122290 -0.043309 115875.000000 0 0 1
3.313556 18.239557 -23.621012 30.026876 1.391088 2.476180 0.096942 -0.035431 -140138.000000 0 0 1
3.598856 18.136157 -24.987712 31.084685 1.374906 2.504551 0.098799 -0.045507 76036.000000 0 0 1
4.586656 17.003557 -25.299022 30.825295 1.307320 2.533471 0.076627 -0.026862 91730.400000 0 0 1
5.885356 17.145957 -24.702812 30.640662 1.240147 2.508514 0.060137 -0.014085 713540.000000 0 0 1
6.768356 16.055757 -24.948812 30.430924 1.171849 2.531946 0.047074 -0.011602 213004.000000 0 0 1
7.322956 15.971057 -26.366202 31.684017 1.140885 2.553790 0.043637 -0.016231 -978030.000000 0 0 1
8.444556 16.822257 -26.640982 32.619637 1.105560 2.526493 0.021436 -0.011291 453554.000000 0 0 1
8.824556 16.815757 -28.003302 33.835298 1.087523 2.545678 0.042871 -0.021995 143556.000000 0 0 1
9.384056 15.523157 -28.638162 33.899457 1.027060 2.576982 0.044463 -0.017967 -561340.000000 0 0 1
10.668556 15.162057 -28.192302 33.741842 0.957635 2.559892 0.048845 -0.014449 17451.100000 0 0 1
11.055156 13.785157 -28.267162 33.335858 0.894861 2.582903 0.044512 -0.001985 200251.000000 0 0 1
10.444056 12.866557 -27.117932 31.780636 0.888949 2.593049 0.045861 -0.008017 54731.500000 0 0 1
9.063656 12.638457 -27.252132 31.377685 0.948653 2.623004 0.051330 -0.007808 -427897.000000 0 0 1
8.598156 12.061157 -26.036812 29.955222 0.951478 2.624360 0.062466 -0.008856 336575.000000 0 0 1
7.095956 11.668157 -26.106392 29.462555 1.024408 2.659631 0.065195 -0.025992 -58860.600000 0 0 1
6.280256 12.780857 -26.261602 29.874130 1.114069 2.644715 0.081458 -0.022318 -663796.000000 0 0 1
4.959556 12.342357 -25.990652 29.196660 1.188711 2.668564 0.091692 -0.028204 372539.000000 0 0 1
3.849956 13.373557 -26.359792 29.807932 1.290497 2.655835 0.108407 -0.032382 -195604.000000 0 0 1
3.554656 13.503857 -27.788712 31.099875 1.313403 2.675946 0.099515 -0.035512 208730.000000 0 0 1
4.381856 14.403157 -28.501012 32.232891 1.275464 2.655621 0.107863 -0.037316 -46857.800000 0 0 1
4.160656 14.387757 -29.994092 33.525574 1.289295 2.678473 0.107233 -0.041692 -468769.000000 0 0 1
4.827856 13.326757 -30.547332 33.675660 1.223234 2.707149 0.103724 -0.036728 -404561.000000 0 0 1
4.805956 13.246457 -31.927462 34.898834 1.222755 2.725951 0.092196 -0.032483 -848121.000000 0 0 1
5.745656 12.091757 -32.400982 35.057763 1.127208 2.749776 0.096105 -0.022548 894382.000000 0 0 1
7.135156 12.420557 -32.248772 35.286881 1.049365 2.723593 0.097806 -0.019198 623778.000000 0 0 1
7.702556 12.533157 -30.957542 34.275046 1.019729 2.697985 0.087520 -0.016813 -1040910.000000 0 0 1
7.788256 11.316757 -30.047332 33.038887 0.968030 2.712764 0.091092 -0.017788 -330050.000000 0 0 1
8.805156 10.430257 -30.412832 33.335587 0.869683 2.719719 0.080154 -0.013090 -302534.000000 0 0 1
8.760456 9.413957 -29.454002 32.138861 0.821340 2.729940 0.087749 -0.018759 254034.000000 0 0 1
9.757056 8.246757 -29.730902 32.359475 0.701706 2.735749 0.080714 -0.023554 413786.000000 0 0 1
11.097256 8.578657 -29.437062 32.608021 0.658086 2.696929 0.073088 -0.024888 49299.300000 0 0 1
11.955556 7.445057 -29.514702 32.702933 0.556964 2.696357 0.042325 -0.007312 545451.000000 0 0 1
13.319656 7.540957 -28.740192 32.561908 0.515160 2.652229 0.037202 -0.005208 858992.000000 0 0 1
13.956356 6.318057 -28.426952 32.292248 0.425098 2.647296 0.035651 -0.002536 74415.400000 0 0 1
14.807756 5.886457 -29.471032 33.503160 0.378371 2.645921 0.021061 0.001576 -493733.000000 0 0 1
15.523456 4.532157 -29.173712 33.356013 0.284060 2.635440 0.027827 -0.004040 131491.000000 0 0 1
16.505356 4.573057 -28.153212 32.953648 0.270285 2.595052 0.007784 -0.000836 145034.000000 0 0 1
17.135656 3.344957 -27.924222 32.932986 0.192780 2.582827 0.025447 -0.009350 -245646.000000 0 0 1
17.925156 3.529057 -26.611442 32.279007 0.194391 2.539972 0.023361 0.005053 -195217.000000 0 0 1
19.031656 4.400757 -26.760772 33.131699 0.227240 2.511052 0.052950 -0.006737 -118050.000000 0 0 1
19.591956 4.597157 -25.524422 32.503457 0.230476 2.473950 0.058388 -0.007781 193356.000000 0 0 1
20.701456 5.710357 -25.461952 33.308699 0.269150 2.440943 0.036726 -0.008346 233438.000000 0 0 1
20.217556 6.984457 -25.778432 33.497160 0.332629 2.448965 0.044856 -0.008370 542932.000000 0 0 1
21.237756 7.807757 -26.363312 34.742302 0.352299 2.432303 0.054671 -0.022318 71747.000000 0 0 1
21.278556 7.814057 -27.953612 35.989454 0.351938 2.460232 0.071096 -0.026618 114273.000000 0 0 1
20.170456 8.323957 -28.679682 36.036921 0.391390 2.491193 0.051007 -0.010063 513756.000000 0 0 1
19.125356 7.368057 -28.930742 35.454976 0.367727 2.525228 0.040739 -0.006306 -116136.000000 0 0 1
17.909456 7.988457 -29.592392 35.500334 0.419562 2.556355 0.032580 -0.011238 -784161.000000 0 0 1
18.114056 8.400057 -30.980362 36.857330 0.434214 2.569091 0.017886 -0.004074 -739152.000000 0 0 1
17.134456 9.295757 -31.413202 36.970122 0.497081 2.586196 0.007480 0.002872 -936468.000000 0 0 1
16.280456 8.724057 -32.519482 37.398918 0.491923 2.625046 0.003956 0.012965 -305389.000000 0 0 1
15.354656 7.745557 -32.067572 36.388024 0.467196 2.649333 0.020317 0.008003 458750.000000 0 0 1
14.253356 7.678357 -32.965592 36.726633 0.494130 2.685076 0.022909 0.005642 317889.000000 0 0 1
13.943356 6.226757 -33.481442 36.799410 0.420002 2.713686 0.023628 0.008060 -11022.800000 0 0 1
13.546356 5.368357 -32.416562 35.540913 0.377309 2.719153 0.051440 -0.001508 -257080.000000 0 0 1
12.578856 4.450257 -32.769572 35.381877 0.340046 2.754918 0.060568 -0.009751 -249171.000000 0 0 1
12.277856 3.437157 -31.592572 34.068319 0.272960 2.758010 0.056525 -0.004969 602418.000000 0 0 1
13.404956 2.579357 -31.324972 34.170159 0.190095 2.730625 0.047157 -0.013729 744949.000000 0 0 1
13.151156 1.589857 -30.359222 33.123449 0.120307 2.730157 0.049730 -0.010364 364443.000000 0 0 1
12.280356 0.343857 -30.859182 33.214673 0.027993 2.762722 0.042609 -0.009524 684732.000000 0 0 1
12.998756 -0.678443 -31.520712 34.102540 -0.052146 2.749973 0.040036 -0.015749 560889.000000 0 0 1
13.978956 -1.437543 -30.775522 33.832092 -0.102476 2.713248 0.036942 -0.020777 589897.000000 0 0 1
14.406556 -2.777343 -31.354202 34.617170 -0.190447 2.703922 0.049774 -0.025266 401239.000000 0 0 1
13.309656 -3.680043 -31.460262 34.357499 -0.269755 2.727978 0.042990 -0.029012 191315.000000 0 0 1
13.638656 -4.678543 -32.348182 35.416191 -0.330457 2.722289 0.057950 -0.035338 -4836.960000 0 0 1
12.713756 -5.924443 -32.298712 35.212858 -0.436069 2.731897 0.050501 -0.034632 -9784.980000 0 0 1
12.801456 -6.681743 -31.132782 34.318698 -0.481054 2.707297 0.058377 -0.036689 158970.000000 0 0 1
12.184756 -7.976643 -31.209672 34.440365 -0.579631 2.704993 0.086071 -0.037965 98974.000000 0 0 1
12.115556 -8.742243 -29.886802 33.413088 -0.625057 2.678027 0.085441 -0.040756 1999040.000000 0 0 1
13.471256 -8.813743 -29.272532 33.407154 -0.579366 2.638790 0.069636 -0.037840 2220670.000000 0 0 1
13.485556 -9.421943 -28.002082 32.476912 -0.609832 2.610423 0.066030 -0.043314 -167851.000000 0 0 1
13.570756 -10.989943 -27.960162 32.965359 -0.680703 2.583314 0.068418 -0.040080 -112941.000000 0 0 1
12.481256 -11.671643 -28.525022 33.251855 -0.751890 2.601863 0.054639 -0.038622 97850.000000 0 0 1
12.971356 -12.976843 -28.851732 34.191767 -0.785610 2.575161 0.058793 -0.038326 490178.000000 0 0 1
-10.010544 -2.874743 -17.527612 20.388534 0.279646 2.605439 0.019586 -0.005103 -180871.000000 0 1 0
-10.651044 -2.348443 -18.674112 21.625965 0.217017 2.612973 0.021893 -0.007869 458909.000000 0 1 0
-11.472544 -3.459543 -19.145612 22.586327 0.292878 2.582363 0.018082 -0.003956 219327.000000 0 1 0
-12.446944 -3.057943 -20.277412 23.988557 0.240907 2.577914 0.034831 -0.016004 623566.000000 0 1 0
-13.452244 -2.073043 -19.911912 24.119382 0.152901 2.541984 0.040779 -0.009685 421739.000000 0 1 0
-14.327744 -1.776343 -20.928412 25.425146 0.123350 2.537712 0.045266 0.000953 -142927.000000 0 0 1
-15.127544 -0.441243 -20.870112 25.779815 0.029160 2.514186 0.048331 0.004267 75576.200000 0 0 1
-14.428444 0.725257 -21.195612 25.650730 -0.050223 2.543331 0.043476 -0.003151 -237654.000000 0 0 1
-15.205444 1.895157 -21.050312 26.036758 -0.123997 2.512369 0.039867 0.003893 2635.370000 0 0 1
-14.665044 3.085057 -21.882412 26.522086 -0.207345 2.541111 0.049820 -0.006148 69037.500000 0 0 1
-13.455344 3.619457 -21.399112 25.535636 -0.262777 2.564422 0.055329 -0.007655 115095.000000 0 0 1
-13.105944 4.920357 -21.837912 25.939739 -0.359147 2.571537 0.052028 -0.009289 -153021.000000 0 0 1
-11.876644 5.609457 -21.220812 24.956833 -0.441251 2.587353 0.031892 -0.007246 -210874.000000 0 1 0
-12.094144 5.887457 -19.878712 24.001951 -0.453034 2.546707 0.039956 -0.009652 703647.000000 0 1 0
-10.918644 6.240557 -19.154112 22.913780 -0.519238 2.560605 0.021590 -0.008378 168349.000000 0 1 0
-11.371144 6.623357 -17.755412 22.100371 -0.527430 2.503778 0.034269 -0.012900 125404.000000 0 1 0
-11.792544 7.982457 -17.746312 22.753358 -0.595059 2.465370 0.020669 -0.012686 482179.000000 0 1 0
-12.580444 8.213457 -16.571812 22.368580 -0.578394 2.405135 0.042475 -0.014609 -120801.000000 0 1 0
-13.357844 9.537257 -16.500812 23.273763 -0.620048 2.358858 0.043988 -0.015475 22268.200000 0 1 0
-12.626444 10.647457 -15.978612 22.980675 -0.700572 2.339643 0.014472 -0.007587 686029.000000 0 1 0
-13.382244 11.806257 -16.268312 24.148087 -0.722912 2.309986 0.030249 -0.009576 107778.000000 0 1 0
-12.723444 13.052057 -15.640712 24.018203 -0.798147 2.279964 0.040463 -0.003519 -318147.000000 0 1 0
-12.926244 13.147357 -14.249812 23.302315 -0.793878 2.228775 0.054922 -0.007169 393508.000000 0 1 0
-12.244744 14.290557 -13.681712 23.266779 -0.862344 2.199425 0.056774 -0.011011 -758488.000000 0 1 0
-12.780244 14.652457 -12.266912 22.989263 -0.853540 2.133640 0.049239 -0.009320 503446.000000 0 1 0
-14.113644 15.081957 -12.034612 23.905904 -0.818552 2.098344 0.045832 -0.012372 118983.000000 0 1 0
-15.115944 14.242357 -12.513112 24.246947 -0.755651 2.113052 0.044050 -0.009807 -2268750.000000 0 1 0
-16.431644 14.466957 -11.830612 24.884837 -0.721899 2.066231 0.023944 -0.005661 -1342960.000000 0 1 0
-17.441144 13.644657 -12.336412 25.348712 -0.663871 2.079068 0.016854 -0.008175 -975399.000000 0 0 1
-18.602844 13.873657 -11.628312 25.956922 -0.640796 2.035307 0.061575 -0.013879 255705.000000 0 0 1
-19.963844 13.465457 -12.347312 27.061591 -0.593401 2.044592 0.045539 -0.016582 786894.000000 0 0 1
-20.166444 12.050757 -12.252412 26.495807 -0.538627 2.051528 0.049312 -0.016142 -537283.000000 0 0 1
-21.340244 11.746757 -12.895912 27.562598 -0.503189 2.057684 0.073996 -0.016596 -1297750.000000 0 0 1
-21.984744 10.433657 -12.378012 27.302112 -0.443111 2.041341 0.074121 -0.020394 398328.000000 0 0 1
-21.169644 9.215157 -12.525212 26.266973 -0.410563 2.067855 0.061155 -0.019672 988248.000000 0 0 1
-21.716044 8.177357 -11.688512 25.982244 -0.360136 2.037411 0.059247 -0.021118 20696.200000 0 0 1
-20.833844 6.907657 -11.602212 24.826923 -0.320153 2.057058 0.057906 -0.014870 -14718.400000 0 1 0
-20.797244 6.193557 -12.817012 25.202406 -0.289443 2.104311 0.065521 -0.015332 263521.000000 0 0 1
-19.665044 5.363757 -12.727712 24.030782 -0.266279 2.128975 0.062656 -0.017642 -92086.200000 0 1 0
-19.514144 4.252357 -13.752812 24.249210 -0.214557 2.173831 0.058236 -0.020005 96900.700000 0 1 0
-20.331844 3.138057 -13.337712 24.517867 -0.153134 2.145993 0.049572 -0.026841 687819.000000 0 1 0
-20.287544 2.111257 -14.273812 24.895452 -0.103693 2.181385 0.055823 -0.027073 -299303.000000 0 1 0
-20.968944 0.772957 -13.857212 25.145902 -0.036845 2.154445 0.060060 -0.024250 2147760.000000 0 0 1
-22.321044 0.720157 -14.479112 26.615640 -0.032252 2.146002 0.060964 -0.025984 2383860.000000 0 0 1
-22.849244 -0.628343 -14.572412 27.107894 0.027493 2.138350 0.066726 -0.029816 638961.000000 0 0 1
-24.251844 -0.749843 -15.268912 28.667994 0.030909 2.132480 0.083033 -0.028883 1151020.000000 0 0 1
-25.308514 -0.143743 -14.483512 29.160138 0.005680 2.090576 0.104453 -0.041067 498684.000000 0 0 1
-26.534474 -0.382543 -15.135612 30.550145 0.014416 2.089132 0.108827 -0.031884 30579.400000 0 0 1
-27.827014 0.102857 -14.454712 31.357487 -0.003696 2.049879 0.107240 -0.029472 -25537.700000 0 0 1
-28.125974 -0.609243 -13.290212 31.113844 0.021658 2.012132 0.120420 -0.028324 1118800.000000 0 0 1
-29.421544 -0.268443 -12.720412 32.054768 0.009124 1.978861 0.130864 -0.033392 1320850.000000 0 0 1
-29.620774 -0.946843 -11.293612 31.714861 0.031955 1.934886 0.130113 -0.031281 -194591.000000 0 0 1
-29.933564 -2.274743 -11.188412 32.037061 0.075847 1.927549 0.128155 -0.021426 377501.000000 0 0 1
-28.856124 -3.194343 -11.347312 31.171160 0.110250 1.943390 0.125369 -0.028216 -11350.200000 0 0 1
-29.198154 -4.637143 -10.891812 31.506616 0.157501 1.923780 0.120425 -0.029573 -310979.000000 0 0 1
-30.285884 -5.223543 -11.569012 32.838426 0.170794 1.930825 0.108428 -0.022243 271434.000000 0 0 1
-30.602684 -6.549743 -11.102912 33.206898 0.210844 1.911718 0.104384 -0.020348 -388463.000000 0 0 1
-29.800884 -7.640643 -11.738012 32.927998 0.250984 1.935289 0.089059 -0.027552 41762.800000 0 0 1
-28.430004 -7.734043 -11.379012 31.584212 0.265610 1.939359 0.072798 -0.025157 235472.000000 0 0 1
-27.758084 -8.727643 -12.108312 31.516570 0.304631 1.965125 0.069254 -0.023952 -314091.000000 0 0 1
-26.335034 -9.006243 -11.601312 30.153555 0.329519 1.965724 0.078649 -0.026564 -448508.000000 0 0 1
-25.482964 -7.894643 -11.870712 29.199668 0.300424 1.989456 0.073336 -0.020126 800358.000000 0 0 1
-24.171844 -8.065743 -11.307812 27.878322 0.322066 1.988446 0.088476 -0.024027 642701.000000 0 0 1
-23.985644 -7.731543 -9.794312 27.037315 0.311825 1.941479 0.089408 -0.023804 -540963.000000 0 0 1
-24.158144 -6.373543 -9.351212 26.677390 0.257948 1.928933 0.081614 -0.018626 361411.000000 0 0 1
-25.492554 -5.906743 -9.276112 27.763396 0.227687 1.911460 0.087472 -0.027371 -300861.000000 0 0 1
-25.626234 -4.425943 -8.866212 27.475490 0.171024 1.899372 0.085020 -0.024035 -361463.000000 0 0 1
-25.501044 -4.265043 -7.481312 26.915866 0.165716 1.852457 0.080139 -0.024503 457686.000000 0 0 1
-25.597434 -2.932643 -7.024312 26.705242 0.114071 1.836959 0.106586 -0.022449 -68093.300000 0 0 1
-25.494734 -2.715743 -5.482612 26.218615 0.106122 1.781463 0.102013 -0.021504 -213563.000000 0 0 1
-24.177444 -2.799543 -5.027712 24.852849 0.115278 1.774501 0.059395 -0.015542 -27588.700000 0 1 0
-24.285644 -2.602743 -3.600312 24.688641 0.106765 1.717147 0.062227 -0.010873 327522.000000 0 1 0
-23.000644 -2.995343 -2.819612 23.365614 0.129500 1.691765 0.044039 -0.006794 145896.000000 0 1 0
-22.828144 -4.406043 -2.820212 23.419884 0.190665 1.691509 0.051263 -0.007307 1110890.000000 0 1 0
-21.450744 -4.630643 -2.483412 22.084941 0.212611 1.683483 0.033855 -0.004843 451315.000000 0 1 0
-21.154944 -6.149243 -2.551712 22.177829 0.282881 1.686109 0.042779 -0.011249 -307520.000000 0 1 0
-21.841544 -6.883543 -1.565512 22.954020 0.305305 1.639051 0.054895 -0.013565 423069.000000 0 1 0
-22.348144 -8.094443 -2.086712 23.860300 0.347500 1.658364 0.058984 -0.016847 -107705.000000 0 1 0
-22.793844 -9.126943 -1.039412 24.575207 0.380862 1.613104 0.067115 -0.017537 -341585.000000 0 1 0
-21.771144 -9.622743 -0.219212 23.803948 0.416177 1.580006 0.050251 -0.011479 -121078.000000 0 1 0
-22.220344 -10.583143 0.662488 24.620835 0.444494 1.543885 0.038405 0.000454 14110.700000 0 1 0
-21.113744 -11.221843 1.576988 23.962613 0.488525 1.504938 0.053556 -0.004328 90319.400000 0 1 0
-20.298144 -12.022643 0.747888 23.603346 0.534740 1.539105 0.048936 -0.007340 -34110.400000 0 1 0
-19.167444 -12.434243 1.457288 22.893777 0.575473 1.507099 0.038271 -0.013728 -501094.000000 0 1 0
-18.513644 -13.688543 0.852488 23.040355 0.636667 1.533788 0.042776 -0.014960 -329892.000000 0 1 0
-19.324244 -14.834243 0.875688 24.377203 0.654701 1.534866 0.053750 -0.013366 588788.000000 0 1 0
-18.675244 -16.002943 0.269088 24.595352 0.708490 1.559855 0.049417 -0.017429 50153.300000 0 1 0
-17.590744 -16.751843 1.061888 24.314320 0.760976 1.527109 0.047074 -0.014862 -225505.000000 0 1 0
-16.321544 -16.131643 0.833088 22.963379 0.779547 1.534509 0.049169 -0.016235 1308900.000000 0 1 0
-15.233744 -16.805243 1.539288 22.734392 0.834408 1.503037 0.050757 -0.015308 930373.000000 0 1 0
-15.160144 -16.596943 3.065788 22.686726 0.830611 1.435246 0.053687 -0.019527 -624055.000000 0 1 0
-14.956844 -15.233143 3.413188 21.619567 0.794550 1.412258 0.046041 -0.020580 23898.500000 0 1 0
-14.228244 -15.043743 4.603688 21.212051 0.813250 1.352024 0.030393 -0.017138 -274210.000000 0 1 0
-14.791344 -15.444743 6.009788 22.213543 0.807005 1.296836 0.042745 -0.013576 -283213.000000 0 1 0
-15.873944 -14.602443 6.431788 22.507362 0.743702 1.280993 0.049744 -0.015118 782390.000000 0 1 0
-16.382544 -14.801843 7.754788 23.401262 0.734753 1.233027 0.064658 -0.018967 -12164.700000 0 1 0
-17.068444 -16.124943 8.172488 24.862324 0.756981 1.235859 0.039231 -0.005812 -306898.000000 0 1 0
-16.269444 -17.322243 8.140288 25.120096 0.816729 1.240784 0.029254 0.001472 414615.000000 0 0 1
-16.944044 -18.504343 8.664588 26.544047 0.829386 1.238279 0.035913 0.001024 233171.000000 0 0 1
-16.682744 -18.767543 10.206788 27.105593 0.844140 1.184720 0.040247 -0.001304 488505.000000 0 0 1
-15.319344 -19.083543 10.470488 26.617570 0.894380 1.166505 0.037009 -0.002573 397753.000000 0 0 1
-15.172444 -19.195543 11.883988 27.201124 0.901927 1.118654 0.044652 -0.011750 138404.000000 0 0 1
-13.834044 -19.891243 12.181488 27.118831 0.963108 1.104939 0.043619 -0.009564 -464188.000000 0 0 1
-12.659544 -19.154143 12.117588 25.961148 0.986776 1.085174 0.041196 -0.012757 -596133.000000 0 0 1
-11.575044 -20.073843 12.282088 26.225761 1.047743 1.083406 0.032539 -0.007261 985240.000000 0 0 1
-10.231844 -19.291943 12.503588 25.163653 1.083150 1.050784 0.037249 -0.009764 721033.000000 0 0 1
-9.634444 -18.649943 11.372288 23.874083 1.093962 1.074304 0.032204 -0.011093 -742106.000000 0 1 0
-8.402844 -18.170543 11.785988 23.231142 1.137643 1.038706 0.024935 -0.005988 -439958.000000 0 1 0
-7.598044 -17.275043 10.805588 21.746681 1.156434 1.050791 0.017919 -0.015147 227697.000000 0 1 0
-6.835944 -18.035943 9.902288 21.681345 1.208508 1.096492 0.018994 -0.011438 -524148.000000 0 1 0
-6.071544 -17.269243 9.038488 20.415305 1.232713 1.112154 0.021981 -0.014948 -408369.000000 0 1 0
-5.050944 -18.141043 8.295988 20.577486 1.299247 1.155831 0.015949 -0.011815 19745.800000 0 1 0
-4.019844 -18.672043 9.089088 21.152207 1.358746 1.126637 0.024420 0.004940 -122640.000000 0 1 0
-2.817744 -18.898543 8.395988 20.870727 1.422788 1.156785 0.031485 -0.010411 375196.000000 0 1 0
-1.551544 -19.131443 9.260388 21.311363 1.489874 1.121282 0.025196 -0.010391 247474.000000 0 1 0
-0.417544 -19.400043 8.456588 21.167190 1.549277 1.159810 0.033257 -0.013750 -905281.000000 0 1 0
0.663156 -19.624243 9.293788 21.723840 -1.537016 1.128722 0.040934 -0.013564 -497008.000000 0 1 0
1.825756 -20.210143 8.444188 21.979254 -1.480702 1.176467 0.051426 -0.029617 97790.600000 0 1 0
1.627656 -21.565043 8.038688 23.072080 -1.495463 1.214915 0.048979 -0.018702 -209496.000000 0 1 0
2.030956 -22.461643 9.049688 24.301174 -1.480623 1.189206 0.053358 -0.019092 -70757.000000 0 1 0
1.844856 -23.932643 8.595488 25.496222 -1.493863 1.226932 0.046596 -0.015049 180495.000000 0 0 1
1.868456 -24.962443 9.533488 26.786230 -1.496085 1.206909 0.049852 -0.012249 -165935.000000 0 0 1
1.359456 -26.124543 8.920988 27.639174 -1.518806 1.242146 0.055594 -0.018295 -288448.000000 0 0 1
1.373256 -27.409003 9.859488 29.160741 -1.520736 1.225890 0.068313 -0.012666 401951.000000 0 0 1
0.499556 -27.320213 10.970988 29.444969 -1.552513 1.188995 0.058626 -0.020211 -87889.100000 0 0 1
-0.868344 -27.567483 10.698888 29.583549 1.539308 1.200759 0.036901 -0.016977 14504.900000 0 0 1
-1.713744 -27.713853 11.946988 30.227887 1.509038 1.164477 0.040444 -0.022262 -396996.000000 0 0 1
-1.277044 -28.843123 12.617088 31.507896 1.526550 1.158797 0.035859 -0.022405 -182137.000000 0 0 1
-1.416744 -28.695483 13.990688 31.955865 1.521465 1.117632 0.031255 -0.024566 20869.100000 0 0 1
-1.163144 -29.966893 14.786688 33.436713 1.532002 1.112714 0.012873 -0.009522 182592.000000 0 0 1
-1.224844 -29.638503 16.133188 33.767157 1.529494 1.072673 0.020746 -0.011985 -75563.900000 0 0 1
-0.799144 -30.730413 16.884388 35.072489 1.544797 1.068529 0.008574 -0.008136 -13156.300000 0 0 1
-0.947344 -30.482393 18.399288 35.617518 1.539728 1.027945 0.012796 -0.006745 -722702.000000 0 0 1
-2.297244 -30.511153 18.708688 35.863949 1.495646 1.022004 0.014367 -0.007582 -651126.000000 0 0 1
-2.570744 -30.078313 20.012888 36.219185 1.485535 0.985376 0.028064 -0.013326 -146383.000000 0 0 1
-4.031344 -30.322193 20.460188 36.800903 1.438621 0.981267 0.055110 -0.021850 -703566.000000 0 0 1
-4.923244 -29.450323 19.840088 35.849533 1.405157 0.984324 0.056348 -0.025329 9858.860000 0 0 1
-6.074344 -29.158523 20.622688 36.227233 1.365412 0.965192 0.056812 -0.026564 342259.000000 0 0 1
-5.760444 -28.087993 21.706188 35.962157 1.368516 0.922807 0.068076 -0.031968 -385513.000000 0 0 1
-4.959044 -28.559483 22.784088 36.869376 1.398871 0.904641 0.069219 -0.032654 261871.000000 0 0 1
-4.904744 -27.618343 23.805388 36.790297 1.395039 0.867079 0.071848 -0.034453 -309471.000000 0 0 1
-3.954244 -27.903083 24.976088 37.656648 1.430020 0.845632 0.067888 -0.030669 -58415.000000 0 0 1
-4.361644 -29.038583 25.725788 39.039460 1.421709 0.851349 0.061315 -0.027342 477550.000000 0 0 1
-3.623244 -30.194803 25.330688 39.579007 1.451372 0.876294 0.051498 -0.026818 145635.000000 0 0 1
-3.859544 -31.345313 26.316188 41.109202 1.448283 0.876099 0.048969 -0.011397 -130258.000000 0 0 1
-3.334744 -31.046623 27.585888 41.665268 1.463796 0.847201 0.052872 -0.014889 233683.000000 0 0 1
-3.753244 -31.997863 28.599488 43.079936 1.454033 0.844814 0.037754 -0.009941 -206810.000000 0 0 1
-3.184544 -31.684693 30.007888 43.755394 1.470625 0.815080 0.062669 -0.011982 -161895.000000 0 0 1
-1.832644 -32.068783 30.085888 44.010523 1.513711 0.818103 0.064489 -0.001838 -139411.000000 0 0 1
-1.390444 -31.995463 31.395288 44.847599 1.527366 0.795337 0.072304 -0.018714 -146956.000000 0 0 1
-28.339064 3.190457 -10.127512 30.262981 -0.112110 1.912030 0.134862 -0.023237 -160243.000000 0 0 1
-29.166024 2.746357 -11.159612 31.348626 -0.093886 1.934763 0.134939 -0.033891 69177.300000 0 0 1
-30.026314 3.780057 -11.617512 32.416584 -0.125233 1.937330 0.113465 -0.033358 276730.000000 0 0 1
-30.871894 3.519857 -12.917212 33.649927 -0.113525 1.964781 0.112546 -0.031230 536365.000000 0 0 1
-31.928434 2.591657 -12.609712 34.425955 -0.080993 1.945810 0.113608 -0.031014 266670.000000 0 0 1
-32.488524 2.237757 -13.859412 35.392019 -0.068770 1.973163 0.105068 -0.029691 -94099.300000 0 0 1
-33.813604 1.500457 -13.500812 36.440130 -0.044345 1.950336 0.096977 -0.022569 220075.000000 0 0 1
-33.630434 0.134957 -13.212212 36.132905 -0.004013 1.945134 0.109529 -0.023813 41005.800000 0 0 1
-34.881795 -0.514143 -13.176312 37.291006 0.014739 1.931933 0.089183 -0.019038 -29927.800000 0 0 1
-34.843185 -1.977143 -12.691812 37.135410 0.056683 1.919597 0.104479 -0.023512 80984.800000 0 0 1
-34.329182 -2.858443 -13.700912 37.072610 0.083074 1.949342 0.090219 -0.016724 368364.000000 0 0 1
-33.967604 -4.160143 -13.218212 36.685502 0.121867 1.939398 0.106521 -0.019259 115374.000000 0 0 1
-33.618884 -5.280643 -14.215612 36.880864 0.155801 1.966488 0.097489 -0.019537 138137.000000 0 0 1
-33.438024 -6.515443 -13.588012 36.676784 0.192440 1.950322 0.089820 -0.026982 149360.000000 0 0 1
-33.655644 -7.511443 -14.524112 37.417562 0.219586 1.969434 0.078345 -0.016224 -546499.000000 0 0 1
-33.351214 -8.894943 -13.837712 37.187441 0.260638 1.952074 0.064508 -0.017481 697625.000000 0 0 1
-31.985734 -9.265143 -13.608412 35.973864 0.281948 1.958740 0.074763 -0.024639 871480.000000 0 0 1
-31.229934 -9.508143 -14.796012 35.841812 0.295540 1.996338 0.084335 -0.023797 -342204.000000 0 0 1
-30.128364 -10.550443 -14.445812 35.038716 0.336838 1.995753 0.068536 -0.022667 -703109.000000 0 0 1
-30.609774 -11.815643 -14.240912 35.768300 0.368387 1.980288 0.061502 -0.024462 192975.000000 0 0 1
-29.679784 -12.731443 -13.663312 35.066584 0.405220 1.971036 0.062073 -0.025172 5220.270000 0 0 1
-30.001144 -14.122443 -14.229912 36.083271 0.439959 1.976171 0.068305 -0.027517 -180562.000000 0 0 1
-29.877234 -14.226943 -15.688412 36.622142 0.444411 2.013502 0.060521 -0.022131 11993.900000 0 0 1
-29.736584 -15.547843 -16.160712 37.244710 0.481762 2.019620 0.069808 -0.024797 -472931.000000 0 0 1
-28.556394 -16.451643 -15.781012 36.539903 0.522669 2.017377 0.046101 -0.022066 -96937.200000 0 0 1
-27.354334 -15.967043 -16.377612 35.657148 0.528357 2.048012 0.036535 -0.023283 -87192.400000 0 0 1
-26.316744 -16.924943 -16.350512 35.303880 0.571527 2.052327 0.037954 -0.025669 -354359.000000 0 0 1
-25.060604 -16.384643 -17.010512 34.436143 0.579043 2.087449 0.025986 -0.025153 -586311.000000 0 0 1
-25.160584 -16.110243 -18.364112 35.069011 0.569524 2.121934 0.022636 -0.024463 -920204.000000 0 0 1
-23.964744 -15.814343 -18.985412 34.421625 0.583304 2.155023 0.012712 -0.016400 -1245200.000000 0 0 1
-24.114644 -15.499443 -20.464712 35.221488 0.571255 2.190789 0.018845 -0.016474 69697.800000 0 0 1
-24.618644 -16.567743 -21.299512 36.527208 0.592358 2.193352 0.018664 -0.022397 2111720.000000 0 0 1
-26.073414 -16.650943 -21.465812 37.654454 0.568332 2.177392 0.030423 -0.024768 1571290.000000 0 0 1
-26.577194 -17.900943 -22.209312 38.987749 0.592750 2.176874 0.035113 -0.024524 -319560.000000 0 0 1
-26.101204 -18.061343 -23.512912 39.501164 0.605319 2.208368 0.037873 -0.018905 20646.900000 0 0 1
-26.661694 -19.203743 -24.144612 40.774894 0.624204 2.204513 0.035417 -0.024831 -737594.000000 0 0 1
-26.047044 -19.530343 -25.538722 41.377640 0.643380 2.235989 0.042614 -0.027909 607117.000000 0 0 1
-24.691344 -19.972743 -25.538122 40.752529 0.680142 2.248061 0.025726 -0.030068 267853.000000 0 0 1
-24.393344 -21.161943 -24.841012 40.742348 0.714583 2.226491 0.021576 -0.020479 -1345540.000000 0 0 1
-22.893944 -21.402043 -24.849812 39.996166 0.751731 2.241203 0.016741 -0.007277 -488536.000000 0 0 1
-22.497344 -21.853743 -26.118832 40.815560 0.770888 2.265195 0.013644 -0.005146 -65513.600000 0 0 1
-21.104244 -21.720343 -26.340212 40.136881 0.799784 2.286647 0.015591 -0.011473 13738.100000 0 0 1
-20.663844 -21.556343 -27.758152 40.769908 0.806534 2.319718 0.028540 -0.013388 -336981.000000 0 0 1
-20.897344 -22.703743 -28.589072 42.065353 0.826805 2.318061 0.054445 -0.020221 -221155.000000 0 0 1
-21.476544 -22.386443 -29.835302 43.041143 0.806139 2.336689 0.041857 -0.022278 20354.500000 0 0 1
-20.376044 -22.237543 -30.934372 43.204477 0.829054 2.368851 0.048797 -0.029681 537684.000000 0 0 1
-20.147144 -23.548143 -31.402252 44.119427 0.863076 2.362791 0.058711 -0.038264 -215433.000000 0 0 1
-19.431044 -23.569843 -32.600912 44.675748 0.881352 2.388713 0.070920 -0.037089 -104787.000000 0 0 1
-19.093044 -24.996343 -33.127002 45.681066 0.918500 2.382092 0.072565 -0.028448 342488.000000 0 0 1
-18.307444 -25.054613 34.104844 46.108964 0.939761 0.738235 0.073705 -0.027416 309567.000000 0 0 1
-18.988044 -24.603343 32.918363 45.271282 0.913509 0.756656 0.085622 -0.026945 -539970.000000 0 0 1
-18.251644 -24.546043 31.576120 43.962281 0.931425 0.769505 0.085876 -0.025592 -201367.000000 0 0 1
-17.425944 -23.402643 31.465880 42.912106 0.930751 0.747687 0.063315 -0.017018 -5301.700000 0 0 1
-16.836344 -23.316743 30.163740 41.677143 0.945411 0.761578 0.070080 -0.018868 492950.000000 0 0 1
-16.051844 -21.969243 29.913260 40.436524 0.939794 0.738085 0.039749 -0.013117 572295.000000 0 0 1
-16.905844 -20.844943 29.992650 40.247712 0.889367 0.729960 0.046186 -0.007617 821830.000000 0 0 1
-16.081944 -19.626443 29.880820 39.200633 0.884336 0.704009 0.038089 -0.005684 833945.000000 0 0 1
-15.596144 -19.011543 31.238730 39.755965 0.883769 0.666869 0.038813 -0.008526 199137.000000 0 0 1
-15.084744 -17.702343 31.003590 38.757516 0.865065 0.643605 0.037475 -0.008814 -197033.000000 0 0 1
-14.673144 -16.972343 32.114730 39.175471 0.857926 0.609794 0.036587 -0.009239 -282053.000000 0 0 1
-14.258444 -15.570743 31.635050 38.033244 0.829364 0.588501 0.048032 -0.013091 -868507.000000 0 0 1
-13.022344 -15.631143 30.972920 37.057197 0.876194 0.581183 0.058271 -0.015055 -293079.000000 0 0 1
-12.607844 -14.293443 30.770330 36.194937 0.847975 0.554568 0.049029 -0.019198 -300784.000000 0 0 1
-11.197144 -14.198643 30.173340 35.176810 0.903041 0.539896 0.052143 -0.022250 52157.500000 0 0 1
-10.720144 -12.863743 29.979940 34.339397 0.876042 0.509378 0.066257 -0.024054 256386.000000 0 0 1
-9.424444 -12.667143 30.539550 34.379366 0.931142 0.477143 0.062863 -0.023632 333359.000000 0 0 1
-8.984244 -11.223643 30.510060 33.727594 0.895766 0.440350 0.056494 -0.019146 -381930.000000 0 0 1
-9.633544 -10.487243 31.482400 34.553277 0.827801 0.424788 0.061206 -0.019157 -234185.000000 0 0 1
-9.297744 -9.107643 31.473220 34.058197 0.775070 0.392119 0.045669 -0.014615 58404.100000 0 0 1
-10.182844 -8.139943 32.333230 34.862398 0.674362 0.383254 0.045696 -0.014873 44550.800000 0 0 1
-11.461144 -7.875443 31.800730 34.708311 0.602045 0.412234 0.050318 -0.020886 -331052.000000 0 0 1
-12.368144 -7.247243 32.674832 35.681062 0.530032 0.413433 0.052573 -0.022157 63700.300000 0 0 1
-12.158044 -5.780743 33.092359 35.725891 0.443829 0.386365 0.045721 -0.022057 -520257.000000 0 0 1
-12.109944 -4.885843 31.985600 34.548529 0.383483 0.387606 0.037346 -0.017143 135615.000000 0 0 1
-12.096844 -3.504543 32.337320 34.703281 0.281987 0.371392 0.041565 -0.016322 -427160.000000 0 0 1
-11.388644 -2.480743 31.421170 33.513359 0.214476 0.355216 0.033233 -0.021437 320151.000000 0 0 1
-9.979144 -2.437243 31.623580 33.250177 0.239544 0.314083 0.038466 -0.019559 216865.000000 0 0 1
-9.466044 -1.356843 30.890050 32.336391 0.142368 0.300218 0.038796 -0.014180 -69414.800000 0 0 1
-7.979944 -1.059843 31.197960 32.219800 0.132041 0.252522 0.034516 -0.016954 -75545.200000 0 0 1
-7.810744 -0.700943 32.562057 33.493083 0.089501 0.236336 0.042193 -0.030199 934974.000000 0 0 1
-6.477644 -0.179243 32.746389 33.381402 0.027664 0.195364 0.032608 -0.025278 880952.000000 0 0 1
-6.239744 0.631457 34.064199 34.636726 -0.100856 0.182073 0.057901 -0.029342 -159972.000000 0 0 1
-6.964044 1.849857 34.211299 34.961877 -0.259634 0.207585 0.073967 -0.026850 408352.000000 0 0 1
-6.452244 2.849357 33.303131 34.041869 -0.415852 0.208709 0.078437 -0.023314 120132.000000 0 0 1
-7.267144 4.220357 33.330892 34.373989 -0.526141 0.246983 0.084141 -0.022447 926014.000000 0 0 1
-8.595944 3.998757 32.839539 34.180633 -0.435415 0.281051 0.065118 -0.011284 606377.000000 0 0 1
-9.338944 5.207157 32.778524 34.478428 -0.508640 0.315322 0.040375 -0.003468 -736068.000000 0 0 1
-10.730544 4.992257 32.219070 34.323981 -0.435453 0.352029 0.032212 -0.003634 -810913.000000 0 0 1
-11.541444 6.124457 32.391302 34.927215 -0.487865 0.383410 0.038167 0.002403 473294.000000 0 0 1
-12.783444 5.910557 31.697720 34.685683 -0.433085 0.418115 0.017443 0.003927 1057190.000000 0 0 1
-13.724144 7.201857 31.676150 35.264676 -0.483257 0.455047 0.018885 0.005452 412208.000000 0 0 1
-14.005844 7.661257 32.992937 36.652318 -0.500540 0.450660 0.019342 0.004234 -29055.700000 0 0 1
-14.618144 8.906857 32.989271 37.166036 -0.547231 0.478647 0.020878 0.015687 -329590.000000 0 0 1
-15.474644 9.168457 -34.221750 38.660747 -0.534874 2.657679 0.016513 0.015694 161412.000000 0 0 1
-14.741844 9.708757 -33.133392 37.542024 -0.582387 2.652093 0.016491 0.008739 323453.000000 0 0 1
-15.660744 10.029357 -32.095812 37.094312 -0.569607 2.616443 0.021999 0.004779 -202025.000000 0 0 1
-14.987744 10.173957 -30.672962 35.622639 -0.596368 2.608132 0.036828 -0.006120 1024180.000000 0 0 1
-14.033444 11.250357 -30.394492 35.317605 -0.675766 2.607252 0.040772 -0.006396 917127.000000 0 0 1
-12.769744 10.979457 -30.990932 35.271131 -0.710157 2.643821 0.042786 -0.011840 -25370.000000 0 0 1
-11.922944 12.269157 -31.113852 35.507190 -0.799708 2.638860 0.039939 -0.014371 41359.900000 0 0 1
-12.439244 13.068557 -32.175412 36.888739 -0.810065 2.630537 0.038765 -0.018574 380549.000000 0 0 1
-11.646344 14.238557 -32.384542 37.244226 -0.885209 2.625023 0.038708 -0.024484 184565.000000 0 0 1
-11.749744 15.444057 -31.370582 36.887515 -0.920423 2.587616 0.043702 -0.027448 -56603.800000 0 0 1
-12.958244 16.138357 -31.559692 37.740916 -0.894261 2.561149 0.043599 -0.028240 -29279.700000 0 0 1
-13.203144 17.185457 -30.634552 37.525174 -0.915702 2.525900 0.026552 -0.021502 183592.000000 0 0 1
-14.629844 17.814857 -30.486412 38.220711 -0.883252 2.494170 0.015237 -0.027824 348292.000000 0 0 1
-14.927544 18.689657 -31.522042 39.569861 -0.896845 2.492475 0.017462 -0.025772 1237600.000000 0 0 1
-16.309444 19.142157 -31.625782 40.405571 -0.865132 2.469802 0.021373 -0.024589 1472460.000000 0 0 1
-16.691444 20.368057 -30.815172 40.534391 -0.884283 2.434452 -0.005732 -0.028076 -593686.000000 0 0 1
-16.115244 21.599757 -31.267982 41.278775 -0.929806 2.430246 -0.003143 -0.017887 32039.700000 0 0 1
-16.532644 22.809457 -30.665852 41.641254 -0.943609 2.398574 -0.018058 -0.017837 178156.000000 0 0 1
-17.899344 23.342557 -31.211402 42.888379 -0.916622 2.385811 -0.003287 -0.016767 632446.000000 0 0 1
-18.971144 22.513857 -30.773832 42.588810 -0.870589 2.378324 0.009228 -0.023642 532078.000000 0 0 1
-19.941944 22.245557 -31.805432 43.636354 -0.839948 2.387473 0.043851 -0.025501 1168900.000000 0 0 1
-21.328144 21.663657 -31.299142 43.633015 -0.793202 2.370755 0.053459 -0.038157 597285.000000 0 0 1
-22.146244 22.406357 -30.439842 43.807361 -0.791236 2.339017 0.076013 -0.039644 558130.000000 0 0 1
-22.936644 23.447557 -31.055902 45.170196 -0.796413 2.328880 0.086416 -0.028118 27551.000000 0 0 1
-24.286044 23.073857 -31.689822 46.113551 -0.759809 2.328442 0.090638 -0.041834 -528011.000000 0 0 1
-24.091644 22.091457 -32.695642 46.232507 -0.742115 2.356327 0.103995 -0.038227 235539.000000 0 0 1
-25.296164 21.931657 -33.424352 47.308358 -0.714278 2.355367 0.116242 -0.033535 19237.200000 0 0 1
-25.247154 20.972957 33.839619 47.142375 -0.693186 0.770134 0.117005 -0.021300 -343986.000000 0 0 1
-25.080974 19.596657 34.208233 46.725661 -0.663256 0.749385 0.109253 -0.027002 122405.000000 0 0 1
-24.836344 18.771357 33.144407 45.472624 -0.647204 0.754101 0.092905 -0.041761 -427415.000000 0 0 1
-24.244844 17.393357 33.572068 44.915755 -0.622311 0.726588 0.081415 -0.027557 -62468.800000 0 0 1
-25.155254 16.373157 33.974821 45.333823 -0.576997 0.723586 0.071410 -0.017028 375299.000000 0 0 1
-25.273654 15.436457 32.938830 44.294563 -0.548303 0.732311 0.070337 -0.021466 -94414.800000 0 0 1
-26.278334 14.272157 33.140961 44.638197 -0.497542 0.734098 0.044252 -0.010874 876760.000000 0 0 1
-27.670544 14.543657 33.359235 45.716688 -0.483918 0.752921 0.044614 -0.005522 1343300.000000 0 0 1
-28.588664 13.439957 33.154377 45.794725 -0.439455 0.761245 0.038890 -0.002952 434435.000000 0 0 1
-28.612814 12.094957 34.029099 46.075597 -0.399930 0.739880 0.027308 -0.009006 225250.000000 0 0 1
-27.387454 11.348257 33.902764 45.036130 -0.392824 0.718505 0.035573 -0.021718 429144.000000 0 0 1
-27.638064 9.957257 -34.213634 45.095258 -0.345798 2.432107 0.041992 -0.016374 -598092.000000 0 0 1
-26.435874 9.016657 -33.961432 43.971972 -0.328703 2.453317 0.041003 -0.022383 -271173.000000 0 0 1
-25.524734 8.754657 33.432035 42.963438 -0.330414 0.679080 0.028228 -0.013813 793113.000000 0 0 1
-24.600544 9.846557 33.197274 42.475881 -0.380728 0.673640 0.017735 -0.011900 -986044.000000 0 0 1
-23.351544 9.504457 32.449681 41.092714 -0.386540 0.660525 0.028592 -0.003495 -984876.000000 0 0 1
-23.635144 9.226957 31.113150 40.147041 -0.372196 0.684113 0.032085 -0.012608 29196.500000 0 0 1
-22.422044 9.098857 30.423170 38.872954 -0.385496 0.671915 0.037307 -0.011206 -98079.900000 0 0 1
-22.671144 9.058657 28.913770 37.842385 -0.380134 0.701217 0.058712 -0.019577 159276.000000 0 0 1
-23.104044 10.291057 28.329400 37.977067 -0.419041 0.728820 0.067160 -0.022465 227080.000000 0 0 1
-23.289844 10.169057 26.951250 37.043170 -0.411680 0.756033 0.067877 -0.024712 -1127990.000000 0 0 1
-23.677744 11.493557 26.285460 37.197618 -0.451913 0.786053 0.075403 -0.024530 881271.000000 0 0 1
-24.995744 11.991857 26.525980 38.369512 -0.447322 0.807469 0.078415 -0.020685 397655.000000 0 0 1
-26.078284 11.200457 26.078530 38.543701 -0.405671 0.827666 0.088324 -0.010565 183480.000000 0 0 1
-27.402204 12.066157 26.110950 39.727253 -0.414788 0.853625 0.077870 -0.005823 493079.000000 0 0 1
-27.280834 13.202557 25.333080 39.500840 -0.450725 0.874566 0.087884 -0.009571 16027.100000 0 0 1
-28.301834 14.175857 25.514110 40.656101 -0.464352 0.892382 0.060421 -0.013361 243284.000000 0 0 1
-27.954234 15.490157 24.751930 40.423288 -0.506005 0.911806 0.059031 -0.010658 136344.000000 0 0 1
-27.161964 16.385857 25.504490 40.703164 -0.542817 0.893617 0.083853 -0.019239 56219.100000 0 0 1
-27.135274 17.628457 24.887800 40.822643 -0.576130 0.915169 0.058059 -0.019997 -295940.000000 0 0 1
-23.211444 -9.487043 30.939440 39.824918 0.388003 0.681091 0.065057 -0.031340 148772.000000 0 0 1
-22.112144 -8.838243 30.319370 38.552894 0.380248 0.665779 0.068298 -0.029118 272439.000000 0 0 1
-22.246544 -8.999343 28.903530 37.567419 0.384403 0.692930 0.068434 -0.025081 717536.000000 0 0 1
-20.911644 -8.546143 28.229670 36.155881 0.387966 0.674888 0.064113 -0.024445 -399262.000000 0 0 1
-20.644444 -7.183343 28.297180 35.756452 0.334852 0.657722 0.068690 -0.021906 854824.000000 0 0 1
-19.330444 -6.856143 28.803050 35.359418 0.340839 0.618793 0.078374 -0.024169 956235.000000 0 0 1
-18.059244 -7.263243 28.010160 34.109530 0.382393 0.607316 0.083324 -0.024998 -674846.000000 0 0 1
-17.699344 -8.645243 28.139780 34.349006 0.454365 0.610727 0.086077 -0.024911 136772.000000 0 0 1
-17.310844 -9.162143 29.409310 35.334370 0.486790 0.587526 0.066175 -0.023746 -168034.000000 0 0 1
-15.872744 -8.865443 29.939520 35.027346 0.509370 0.545733 0.053636 -0.022339 300661.000000 0 0 1
-14.856644 -9.502843 29.181510 34.096692 0.569055 0.543612 0.058502 -0.016811 421730.000000 0 0 1
-13.579844 -8.941943 29.541830 33.720769 0.582308 0.503141 0.055327 -0.024723 410122.000000 0 0 1
-12.362944 -9.674343 29.021140 32.994877 0.663996 0.495849 0.057232 -0.015595 -612135.000000 0 0 1
-12.100444 -9.420243 27.663950 31.629984 0.661495 0.506162 0.065152 -0.016637 428686.000000 0 0 1
-11.011144 -10.301243 27.308140 31.194478 0.752101 0.504501 0.062060 -0.013163 611758.000000 0 0 1
-10.393744 -10.119743 25.914710 29.698675 0.772042 0.510320 0.056703 -0.014007 387143.000000 0 0 1
-11.245844 -10.692843 24.885710 29.327538 0.760197 0.557569 0.054087 -0.016221 426906.000000 0 0 1
-10.917044 -10.330643 23.576750 27.960100 0.757807 0.567535 0.047617 -0.027568 -561898.000000 0 0 1
-12.028944 -10.754243 22.622280 27.786990 0.729507 0.619563 0.053758 -0.030763 -594324.000000 0 0 1
-12.097444 -12.149443 22.605580 28.371982 0.787543 0.648887 0.050204 -0.023966 1198680.000000 0 0 1
-13.348944 -12.621043 22.042880 28.694487 0.757377 0.694784 0.037590 -0.014691 2384850.000000 0 0 1
-14.670444 -12.519043 22.942480 29.971750 0.706436 0.699025 0.037672 -0.012876 487013.000000 0 0 1
-15.784744 -13.217743 22.480380 30.483346 0.697119 0.741488 0.012115 0.003308 -394403.000000 0 0 1
-16.918844 -12.839443 23.232280 31.477570 0.649163 0.740608 0.014242 0.008706 -933113.000000 0 0 1
-18.078944 -13.721443 22.935380 32.266978 0.649220 0.780161 0.028124 0.003899 -1275950.000000 0 0 1
-17.788844 -15.060043 23.243080 32.916389 0.702517 0.786786 0.021518 0.006289 756409.000000 0 0 1
-18.964044 -15.888943 23.178480 33.901850 0.697395 0.817984 0.033623 0.010363 568927.000000 0 0 1
-19.898444 -15.916943 24.385770 35.269859 0.674685 0.807364 0.033166 0.007786 -307197.000000 0 0 1
-19.308344 -16.613543 25.436370 35.997651 0.710520 0.786098 0.029239 0.013158 257223.000000 0 0 1
-20.273944 -16.730743 26.462760 37.299172 0.689939 0.782046 0.036387 0.003032 142041.000000 0 0 1
-19.832544 -17.612643 27.671530 38.330779 0.726183 0.764232 0.040831 -0.003199 -73572.400000 0 0 1
-19.832144 -18.985743 27.302950 38.719807 0.763597 0.788173 0.055934 -0.003208 83230.800000 0 0 1
-19.562944 -19.838043 28.350090 39.749017 0.792380 0.776704 0.058409 -0.010198 -297726.000000 0 0 1
-19.746544 -21.316443 27.979370 40.338095 0.823611 0.804292 0.065735 -0.004176 498981.000000 0 0 1
-21.106244 -21.747743 27.873660 41.174978 0.800366 0.827177 0.071238 -0.007612 460165.000000 0 0 1
-21.190944 -23.093843 27.400500 41.631348 0.828341 0.852411 0.079902 -0.002555 173800.000000 0 0 1
-22.620744 -23.571843 27.061330 42.422228 0.805985 0.879022 0.073415 -0.007026 -203458.000000 0 0 1
-23.455844 -23.870243 28.138050 43.723163 0.794154 0.871669 0.076103 -0.007899 179911.000000 0 0 1
-24.718744 -24.276543 27.623850 44.310766 0.776373 0.897698 0.060203 -0.006060 729353.000000 0 0 1
-25.609624 -25.156563 28.626570 45.914987 0.776474 0.897625 0.026011 -0.007430 333468.000000 0 0 1
-26.243404 -24.496943 29.721280 46.606555 0.750992 0.879280 0.012877 -0.004811 332476.000000 0 0 1
-26.747384 -25.484363 30.654080 48.005708 0.761222 0.878183 0.016819 -0.001101 1059880.000000 0 0 1
-28.122974 -24.958143 31.260910 48.898416 0.725846 0.877205 0.002950 -0.002109 703644.000000 0 0 1
-29.107274 -24.738843 30.280610 48.745863 0.704447 0.900532 0.024177 -0.004056 -298142.000000 0 0 1
-29.902064 -23.633543 30.685150 48.931138 0.668838 0.892960 0.016033 -0.006753 33500.900000 0 0 1
-31.211874 -23.621943 29.825450 49.211124 0.647855 0.919684 0.017106 -0.002384 329277.000000 0 0 1
-32.088984 -24.673443 30.236870 50.524747 0.655492 0.929223 0.019536 -0.003908 -248623.000000 0 0 1
-33.217644 -24.738643 29.425810 50.806404 0.640129 0.953080 0.021576 -0.006954 -708972.000000 0 0 1
-34.334316 -25.580663 30.013480 52.287901 0.640323 0.959409 0.020516 -0.010088 -233124.000000 0 0 1
-33.999414 -26.969903 29.955160 52.731845 0.670609 0.966643 0.027243 -0.009187 224624.000000 0 0 1
-34.928207 -27.664683 30.771080 54.149550 0.669871 0.966405 0.023314 -0.011616 129204.000000 0 0 1
-34.547863 -29.073903 31.060780 54.805280 0.699570 0.968243 0.021904 -0.009463 -288670.000000 0 0 1
-33.478354 -29.083613 31.961110 54.664150 0.715267 0.946309 0.023672 -0.002098 -314171.000000 0 0 1
-33.043104 -30.420793 32.213940 55.272139 0.744102 0.948596 0.024432 -0.008222 -326526.000000 0 0 1
-32.086264 -30.468483 33.396083 55.436046 0.759542 0.924260 0.023109 -0.011458 -165627.000000 0 0 1
-32.618704 -30.041963 -33.770632 55.740066 0.744299 2.221642 0.015268 -0.009424 387415.000000 0 0 1
-31.584374 -30.212123 -32.782152 54.635287 0.763196 2.214320 0.011675 -0.011203 565126.000000 0 0 1
-32.029494 -29.719653 -31.362322 53.784212 0.748009 2.193353 0.013561 -0.009821 61098.500000 0 0 1
-32.169104 -28.312943 -31.158712 52.984331 0.721727 2.199472 0.018675 -0.011848 459489.000000 0 0 1
-30.933984 -27.591083 -31.071792 51.803817 0.728341 2.214044 0.024642 -0.007466 402685.000000 0 0 1
-31.241824 -26.085653 -31.087762 51.214859 0.695697 2.223085 0.009607 0.000127 -246638.000000 0 0 1
-31.973904 -25.688233 -29.974882 50.800683 0.676818 2.201916 0.013655 -0.002300 -218046.000000 0 0 1
-31.861524 -24.314543 -29.770202 49.926132 0.651853 2.209662 0.031130 -0.008202 65839.000000 0 0 1
-30.648834 -23.771443 -28.962862 48.407436 0.659689 2.212192 0.026686 -0.009210 77205.200000 0 0 1
-30.562684 -22.390643 -28.920442 47.663513 0.632281 2.222778 0.034683 -0.010350 -718786.000000 0 0 1
-29.519044 -22.011443 -28.115922 46.329069 0.640724 2.222918 0.028162 -0.012334 -768170.000000 0 0 1
-29.176864 -20.545343 -28.248952 45.512677 0.613516 2.240410 0.040631 -0.016690 -108736.000000 0 0 1
-28.573784 -20.160643 -29.469142 45.731204 0.614451 2.271033 0.040638 -0.013673 302867.000000 0 0 1
-28.333954 -18.793043 -29.611312 45.086818 0.585647 2.287313 0.044066 -0.016142 -270187.000000 0 0 1
-27.810074 -18.528143 -31.067172 45.627420 0.587706 2.319771 0.043884 -0.013673 615010.000000 0 0 1
-28.772034 -18.307243 -32.141372 46.862062 0.566674 2.326597 0.049367 -0.020410 413843.000000 0 0 1
-29.517774 -17.149343 -31.920592 46.736743 0.526320 2.322641 0.059561 -0.019979 -1112530.000000 0 0 1
-30.137494 -16.623343 -33.156092 47.790485 0.504058 2.337521 0.065514 -0.021836 914034.000000 0 0 1
-31.302584 -17.264443 -33.755832 49.166746 0.504020 2.327541 0.062328 -0.023358 1345710.000000 0 0 1
-32.566564 -17.021643 -33.180592 49.510293 0.481621 2.305242 0.055821 -0.017926 21503.300000 0 0 1
-33.738304 -17.411543 -34.104703 51.034946 0.476426 2.302666 0.057667 -0.021600 -106187.000000 0 0 1
-33.831404 -18.786643 34.080307 51.565194 0.506905 0.848756 0.048861 -0.021434 -436559.000000 0 0 1
-34.905106 -19.136943 33.275399 51.882957 0.501503 0.874533 0.042832 -0.017491 -832414.000000 0 0 1
-35.269331 -20.671943 33.405719 52.793911 0.530149 0.885688 0.035952 -0.022809 -69996.100000 0 0 1
-34.217852 -21.558843 33.097820 52.260031 0.562220 0.884948 0.039908 -0.019457 -173370.000000 0 0 1
-34.621437 -22.862343 33.339190 53.224357 0.583618 0.893883 0.036204 -0.016329 -740659.000000 0 0 1
-33.507554 -23.963143 33.301772 52.971657 0.620826 0.890953 0.029302 -0.006150 618751.000000 0 0 1
-32.454594 -23.846243 -34.195276 52.832385 0.633674 2.274756 0.023741 -0.010537 269266.000000 0 0 1
-31.553424 -22.796543 34.041975 51.712252 0.625651 0.852243 0.024022 -0.013444 -1841360.000000 0 0 1
-30.336234 -22.920643 -33.523032 50.689611 0.647046 2.293399 0.021759 -0.014478 -1233560.000000 0 0 1
-29.369804 -23.866543 -33.922122 50.822314 0.682390 2.301596 0.019039 -0.006921 -542558.000000 0 0 1
-28.114444 -23.645143 -33.380872 49.636653 0.699265 2.308384 0.021785 -0.009563 -628578.000000 0 0 1
-27.908104 -24.047043 -31.921112 48.745050 0.711219 2.284792 0.017378 -0.004738 -998672.000000 0 0 1
-27.762224 -25.443103 -31.592112 49.154391 0.741838 2.268829 0.027125 -0.003371 -27076.800000 0 0 1
-27.351664 -25.500453 -30.252732 48.100046 0.750386 2.251004 0.013163 -0.002213 -239168.000000 0 0 1
-26.832164 -26.877523 -29.818472 48.285687 0.786243 2.236411 0.015942 -0.004298 -295875.000000 0 0 1
-27.820164 -27.890003 -29.833962 49.415373 0.786652 2.218979 0.001654 0.004883 175258.000000 0 0 1
-27.320584 -29.109723 -29.307532 49.524961 0.817093 2.204053 -0.007110 0.000773 -102180.000000 0 0 1
-28.160684 -30.347663 -29.736892 50.973400 0.822760 2.193681 -0.007367 0.006832 48972.400000 0 0 1
-28.198874 -30.731163 -31.108282 52.031780 0.828343 2.211639 0.023809 -0.011550 407302.000000 0 0 1
-28.733064 -32.062683 -31.263572 53.207288 0.840111 2.198862 0.042138 -0.005453 -259149.000000 0 0 1
-28.438004 -32.687013 -32.627922 54.237830 0.854800 2.216263 0.022053 -0.013286 247128.000000 0 0 1
-27.039684 -32.804393 -32.877942 53.742272 0.881431 2.229093 0.023840 -0.015403 353278.000000 0 0 1
-26.683314 -33.155943 -34.203659 54.600422 0.893146 2.247769 0.025825 -0.015809 -524504.000000 0 0 1
-25.206624 -33.549373 34.206911 54.139146 0.926445 0.886880 0.036778 -0.021767 -380597.000000 0 0 1
-24.828544 -34.007273 32.946075 53.463961 0.940157 0.906850 0.032293 -0.013765 -359481.000000 0 0 1
-23.694244 33.755833 33.000928 52.819833 -0.958776 0.895943 0.033049 -0.009908 -541736.000000 0 0 1
-23.502744 32.828425 31.805610 51.397289 -0.949461 0.903558 0.036105 -0.004194 -463884.000000 0 0 1
-24.663044 32.094776 31.533260 51.309715 -0.915595 0.908959 0.022103 -0.010257 -202230.000000 0 0 1
-24.418544 31.030136 30.625970 49.970838 -0.904076 0.911100 0.011372 0.000181 -202339.000000 0 0 1
-25.728844 30.482506 30.007670 49.916098 -0.869765 0.925842 0.010380 -0.001415 -248980.000000 0 0 1
-26.272564 29.582986 30.936190 50.223984 -0.844596 0.907187 0.017704 -0.001778 151671.000000 0 0 1
-27.432174 29.005486 30.347330 50.147810 -0.813268 0.920832 0.019536 -0.006249 261771.000000 0 0 1
-28.002434 27.863076 31.192730 50.333624 -0.782904 0.902411 0.032186 -0.021933 -98535.000000 0 0 1
-27.106104 26.734826 31.152460 49.193166 -0.778502 0.885028 0.027680 -0.020652 443360.000000 0 0 1
-27.609604 25.455666 31.466830 48.994312 -0.744830 0.873360 0.031853 -0.020745 -97052.100000 0 0 1
-28.769324 24.917566 30.599740 48.835471 -0.713776 0.893628 0.041148 -0.022278 48858.900000 0 0 1
-28.408574 24.673426 29.289040 47.683046 -0.715148 0.909368 0.040927 -0.023060 428214.000000 0 0 1
-29.418434 23.928076 28.547530 47.465341 -0.682840 0.925495 0.039882 -0.014543 820587.000000 0 0 1
-28.890444 23.598496 27.108400 46.113037 -0.684917 0.942375 0.060654 -0.025494 -266528.000000 0 0 1
-27.831114 22.688676 27.185510 45.037750 -0.683957 0.922767 0.059717 -0.028361 -419076.000000 0 0 1
-27.331674 22.324676 25.907090 43.778864 -0.684905 0.937541 0.056977 -0.016676 -389869.000000 0 0 1
-25.970214 21.598576 25.956140 42.598964 -0.693754 0.915601 0.068685 -0.028301 -238026.000000 0 0 1
-25.944394 20.474176 26.753290 42.521077 -0.668094 0.890302 0.082019 -0.042790 -482700.000000 0 0 1
-24.672944 19.930876 26.836570 41.547509 -0.679481 0.868562 0.095949 -0.034116 -900563.000000 0 0 1
-24.509244 18.894176 27.970750 41.713976 -0.656743 0.835864 0.105186 -0.037392 750238.000000 0 0 1
-23.216244 18.252476 28.109260 40.771036 -0.666266 0.810078 0.107616 -0.031083 1148090.000000 0 0 1
-23.171144 17.391176 29.249920 41.169318 -0.643855 0.780618 0.097484 -0.030560 -747689.000000 0 0 1
-22.002644 16.459876 29.257990 40.138185 -0.642275 0.754036 0.099011 -0.032536 145634.000000 0 0 1
-20.774544 16.929876 29.826910 40.097967 -0.683781 0.731982 0.129281 -0.037472 1048330.000000 0 0 1
-19.724244 15.981076 29.925750 39.242721 -0.680945 0.703503 0.110547 -0.032784 -133087.000000 0 0 1
-18.494044 16.274376 30.730900 39.386206 -0.721643 0.675738 0.088108 -0.027578 -682137.000000 0 0 1
-18.675344 15.977576 32.083360 40.415262 -0.707704 0.653694 0.067094 -0.015860 14395.200000 0 0 1
-17.732544 16.681676 32.834706 40.875902 -0.754872 0.638018 0.050295 -0.018589 -984144.000000 0 0 1
-17.807044 16.556776 -34.069272 41.856098 -0.749031 2.521736 0.038354 -0.023015 -102226.000000 0 0 1
-18.722044 17.322376 -33.325462 41.966249 -0.746586 2.488324 0.059264 -0.025855 679901.000000 0 0 1
-20.087344 16.914876 -33.488372 42.556850 -0.699870 2.476580 0.068202 -0.021231 532841.000000 0 0 1
-21.161044 17.645976 -32.640502 42.715016 -0.695067 2.440512 0.069917 -0.029014 182928.000000 0 0 1
-21.383744 17.180476 -31.315802 41.630670 -0.676833 2.422235 0.054988 -0.027146 -62075.800000 0 0 1
-22.331744 17.984076 -30.678582 41.991775 -0.677973 2.389975 0.042366 -0.031580 -380847.000000 0 0 1
-22.698944 17.701176 -29.207622 41.008034 -0.662317 2.363483 0.038714 -0.035394 219634.000000 0 0 1
-23.346444 16.518876 -28.802922 40.589876 -0.615778 2.359739 0.027355 -0.035152 -108175.000000 0 0 1
-24.694644 16.345076 -29.169202 41.567166 -0.584687 2.348628 0.048510 -0.036253 158238.000000 0 0 1
-25.454424 15.219676 -28.335712 41.018030 -0.538888 2.333407 0.049221 -0.033272 43283.900000 0 0 1
-25.016944 13.907376 -28.640562 40.491288 -0.507376 2.356505 0.024417 -0.021792 -185005.000000 0 0 1
-25.716064 12.922976 -27.949812 40.118714 -0.465666 2.341552 0.013808 -0.011864 -284014.000000 0 0 1
-25.145914 11.464676 -27.996242 39.338853 -0.427771 2.362667 0.021435 -0.010838 456578.000000 0 0 1
-24.093944 11.233376 -27.052122 37.927881 -0.436270 2.364923 0.022438 -0.008335 956183.000000 0 0 1
-23.265444 10.091876 -27.436152 37.361334 -0.409276 2.395499 0.015762 -0.003023 657198.000000 0 0 1
-22.299644 9.404476 -26.450912 35.852043 -0.399099 2.400572 0.031392 -0.006005 358997.000000 0 0 1
-22.929344 8.534776 -25.524172 35.356478 -0.356332 2.377354 0.029302 -0.008176 464477.000000 0 0 1
-21.852644 8.006276 -24.765212 33.984617 -0.351188 2.387245 0.054403 -0.004567 207260.000000 0 0 1
-22.256344 6.773276 -23.875412 33.335528 -0.295425 2.369160 0.057477 -0.005959 64214.300000 0 0 1
-22.718744 5.658776 -24.575912 33.943166 -0.244112 2.380425 0.053220 -0.011307 163284.000000 0 0 1
-23.077944 4.624376 -23.734012 33.425733 -0.197762 2.360368 0.058962 -0.009153 -319226.000000 0 0 1
34.279838 25.248857 -10.888112 43.945000 0.634838 1.821171 0.014160 -0.001860 -218742.000000 0 0 1
35.036768 24.391257 -10.059512 43.860031 0.608145 1.802211 0.016057 -0.009797 289641.000000 0 0 1
36.145828 23.894657 -10.826812 44.662013 0.584113 1.815652 0.008483 -0.012056 264611.000000 0 0 1
-35.253384 23.266457 -9.866412 43.375974 -0.583358 1.800268 0.037798 -0.020904 -397680.000000 0 0 1
-35.664609 22.190557 -9.090012 42.976894 -0.556584 1.783915 -0.000424 -0.010729 -847188.000000 0 0 1
-34.658319 21.851857 -8.197512 41.783991 -0.562540 1.768265 0.050167 -0.003151 -728504.000000 0 0 1
-34.908762 20.750257 -7.113612 41.228610 -0.536302 1.744205 0.034244 0.014199 -215673.000000 0 0 1
-35.200835 19.440857 -7.616912 40.927534 -0.504595 1.757995 0.032303 0.002582 236163.000000 0 0 1
-35.604487 18.557157 -6.565812 40.683626 -0.480466 1.732892 0.028500 -0.021391 -300398.000000 0 0 1
-36.164174 17.282057 -7.200212 40.722966 -0.445794 1.748540 0.042794 -0.005592 -28377.300000 0 0 1
35.028698 17.583657 -7.778812 39.958786 0.465229 1.766718 0.039094 -0.005198 -42474.000000 0 0 1
34.377778 16.457557 -8.343012 39.016518 0.446485 1.786293 0.047971 0.009995 898706.000000 0 0 1
33.035128 16.754957 -9.109412 38.144851 0.469380 1.811938 0.031225 -0.007278 644275.000000 0 0 1
32.509588 15.626957 -9.725112 37.358438 0.448079 1.834149 0.043795 -0.018276 -114633.000000 0 0 1
31.796328 15.871957 -10.917712 37.176901 0.462988 1.868859 0.065985 -0.016504 -759442.000000 0 0 1
31.191418 14.636657 -11.514612 36.327986 0.438749 1.893322 0.063833 -0.019337 -94325.000000 0 0 1
30.018978 14.107257 -10.901312 34.914071 0.439316 1.888339 0.063596 -0.015028 536430.000000 0 0 1
30.077428 13.734057 -9.544012 34.414592 0.428348 1.851805 0.060119 -0.014169 -960064.000000 0 0 1
29.104998 12.611957 -9.164412 33.017402 0.408902 1.852053 0.078352 -0.011770 3769.110000 0 0 1
29.538238 11.418657 -9.788312 33.146709 0.368877 1.870569 0.076292 -0.015776 1171940.000000 0 0 1
28.456818 10.441157 -9.841612 31.869509 0.351661 1.884738 0.085628 -0.014940 466912.000000 0 0 1
28.958818 9.099557 -10.256812 32.040869 0.304455 1.896649 0.092747 -0.011140 -581123.000000 0 0 1
29.886458 8.574957 -9.359112 32.470344 0.279412 1.863180 0.079586 -0.011546 -36233.700000 0 0 1
30.149528 7.208257 -9.523812 32.429246 0.234678 1.868870 0.082299 -0.016949 -664955.000000 0 0 1
31.189608 6.596557 -8.582212 33.014551 0.208427 1.833769 0.080435 -0.017366 930600.000000 0 0 1
32.461128 7.252257 -8.906312 34.433159 0.219804 1.832426 0.059284 -0.017077 699066.000000 0 0 1
33.413458 6.921957 -7.922512 35.030542 0.204271 1.798930 0.062051 -0.018020 -149178.000000 0 0 1
34.832278 7.260157 -8.439612 36.568081 0.205490 1.803688 0.064035 -0.022254 -116362.000000 0 0 1
35.226278 6.418757 -9.476112 37.039004 0.180238 1.829514 0.072864 -0.018737 -187325.000000 0 0 1
-35.881220 6.436257 -9.895612 37.773145 -0.177489 1.835864 0.066320 -0.018226 -1303100.000000 0 0 1
-35.654654 5.512857 -11.105612 37.748914 -0.153403 1.869411 0.073599 -0.026244 -335747.000000 0 0 1
-34.320670 5.522857 -11.560812 36.634174 -0.159551 1.891858 0.087188 -0.025801 305586.000000 0 0 1
-33.906484 6.641757 -12.369112 36.698195 -0.193435 1.914578 0.070055 -0.019921 -204502.000000 0 0 1
-33.027764 7.633357 -11.548312 35.811518 -0.227131 1.899139 0.071552 -0.012080 -648388.000000 0 0 1
-33.710844 8.347357 -10.513812 36.285529 -0.242734 1.864764 0.070974 -0.014514 13844.000000 0 0 1
-34.138072 9.626057 -10.897912 37.105706 -0.274838 1.868891 0.061550 -0.009975 38896.800000 0 0 1
-35.102631 10.327257 -9.895112 37.904619 -0.286129 1.834909 0.041124 -0.011889 419081.000000 0 0 1
-34.442019 10.914557 -8.764012 37.177791 -0.306885 1.808769 0.043149 -0.010213 52195.900000 0 0 1
-35.257688 11.880857 -8.164312 38.090882 -0.325022 1.786810 0.039559 -0.011998 -533999.000000 0 0 1
-34.527298 12.816257 -7.201512 37.526691 -0.355428 1.763898 0.046588 -0.015542 34327.300000 0 0 1
-33.753604 13.787157 -7.889812 37.304699 -0.387782 1.783902 0.058148 -0.013228 -116174.000000 0 0 1
-32.929184 14.556457 -7.055812 36.687955 -0.416226 1.764322 0.061625 -0.009586 -550931.000000 0 0 1
-32.093654 15.505457 -7.872912 36.502117 -0.450062 1.788188 0.049697 -0.011316 -447867.000000 0 0 1
-32.860064 16.486557 -8.564212 37.748325 -0.465023 1.799666 0.041932 -0.009822 83294.700000 0 0 1
-32.151944 17.679057 -8.747812 37.720296 -0.502735 1.804840 0.047826 -0.009304 -37928.000000 0 0 1
-32.886564 18.570457 -9.759112 39.008053 -0.514046 1.823665 0.028882 -0.015596 48511.000000 0 0 1
-32.510534 18.311057 -11.097312 38.927881 -0.512947 1.859880 0.021127 -0.014474 25421.500000 0 0 1
-33.371104 18.948057 -12.039912 40.219633 -0.516405 1.874812 0.022890 -0.023290 -845146.000000 0 0 1
-32.923334 19.051657 -13.495312 40.361305 -0.524586 1.911725 0.016368 0.001022 79835.200000 0 0 1
-31.784514 19.907157 -13.617112 39.899573 -0.559545 1.919080 0.015642 -0.009325 470743.000000 0 0 1
-31.679634 20.424257 -14.945312 40.547648 -0.572649 1.948284 -0.000025 -0.002827 -414230.000000 0 0 1
-30.737494 21.605057 -15.049012 40.472766 -0.612662 1.951777 0.005908 -0.011469 539399.000000 0 0 1
-29.332144 21.264457 -14.835412 39.148962 -0.627278 1.959455 0.009185 -0.008917 1380770.000000 0 0 1
-28.572634 22.420457 -14.647512 39.161485 -0.665331 1.954145 0.023803 -0.009104 -171090.000000 0 0 1
-27.981884 22.906557 -16.018512 39.551092 -0.685993 1.987784 -0.007838 -0.007781 -672939.000000 0 0 1
-28.971534 23.589457 -16.786912 40.958670 -0.683357 1.993086 0.006813 -0.002310 511467.000000 0 0 1
-28.404054 24.115957 -17.974212 41.369577 -0.703932 2.020256 -0.002277 -0.000436 100287.000000 0 0 1
-27.639934 25.488757 -17.843212 41.617579 -0.744930 2.013896 0.008965 -0.001327 91003.100000 0 0 1
-28.421694 26.650257 -17.706412 42.796564 -0.753243 1.997349 0.017318 -0.001943 -265797.000000 0 0 1
-27.587384 27.743857 -17.561312 42.885720 -0.788226 1.992692 0.016965 -0.000597 -258854.000000 0 0 1
-28.358754 29.039357 -17.304512 44.124248 -0.797255 1.973793 0.017104 -0.000718 -287681.000000 0 0 1
-28.740224 29.351957 -15.972012 44.075424 -0.795928 1.941616 0.019526 -0.006243 816288.000000 0 0 1
-27.696184 29.356957 -14.953612 43.040911 -0.814499 1.925623 0.015080 0.002105 387922.000000 0 0 1
-28.109724 30.047957 -13.641012 43.348742 -0.818713 1.890917 0.022805 -0.003694 -188241.000000 0 0 1
-27.716854 31.396557 -13.626912 44.041577 -0.847566 1.885369 0.038102 -0.003633 238968.000000 0 0 1
-28.176184 32.047257 -12.451412 44.451790 -0.849588 1.854706 0.028931 -0.008454 113901.000000 0 0 1
-27.595624 33.476957 -12.339112 45.105196 -0.881403 1.847892 0.012661 -0.010883 191197.000000 0 0 1
-28.015594 -34.262863 -13.377912 46.236196 0.885376 1.864332 0.002547 -0.018239 476698.000000 0 0 1
-26.979974 -33.294663 -13.549012 44.944736 0.889783 1.877019 0.024910 -0.023664 433064.000000 0 0 1
-27.135614 -32.493263 -14.844012 44.860878 0.875007 1.908043 0.019389 -0.023379 -3371.740000 0 0 1
-26.716904 -33.091463 -16.044712 45.456250 0.891580 1.931540 0.007069 -0.017084 -23753.800000 0 0 1
-27.103524 -32.274763 -17.132712 45.494957 0.872269 1.956903 0.008022 -0.005353 -87654.300000 0 0 1
-26.395204 -32.664663 -18.441112 45.866781 0.891156 1.984560 0.007531 0.000409 -178811.000000 0 0 1
-26.742994 -33.885563 -19.043512 47.181293 0.902666 1.986271 0.001828 0.004038 25712.200000 0 0 1
-26.039764 33.648557 -18.406212 46.358206 -0.912190 1.979089 -0.002406 -0.001510 -798706.000000 0 0 1
-26.101834 32.308557 -19.174612 45.747287 -0.891262 2.003296 0.007770 -0.003603 851575.000000 0 0 1
-27.350294 31.556857 -19.262412 45.988197 -0.856687 2.002981 0.017684 -0.008271 1037510.000000 0 0 1
-28.283634 32.249357 -20.092612 47.367689 -0.850818 2.008857 0.015715 -0.005367 -433766.000000 0 0 1
-29.700214 31.649057 -19.959312 47.771745 -0.817154 2.001825 0.016005 -0.014625 -62170.100000 0 0 1
-29.844094 30.374957 -20.565112 47.288812 -0.794213 2.020705 0.018697 -0.016307 742085.000000 0 0 1
-31.246554 30.105657 -20.615912 48.038667 -0.766804 2.014351 0.028752 -0.011807 544557.000000 0 0 1
-31.679744 28.852957 -21.439612 47.914050 -0.738734 2.034719 0.034247 -0.014691 -1244120.000000 0 0 1
-32.944854 28.391857 -21.164012 48.367099 -0.711304 2.023691 0.033463 -0.019440 -850369.000000 0 0 1
-33.064954 27.298457 -22.082812 48.230151 -0.690157 2.046387 0.037152 -0.014841 -780666.000000 0 0 1
-34.441403 26.696757 -22.306412 48.954091 -0.659395 2.043910 0.047232 -0.017636 -436321.000000 0 0 1
-35.280038 27.433757 -23.193112 50.350894 -0.660932 2.049501 0.026417 -0.012605 -557236.000000 0 0 1
36.164538 26.612057 -23.671812 50.758547 0.634390 2.055969 0.039786 -0.013838 -630123.000000 0 0 1
35.257988 27.277157 -24.715612 50.970879 0.658463 2.077041 0.049585 -0.018078 -433717.000000 0 0 1
35.811428 27.541057 -25.941712 52.095495 0.655587 2.092046 0.043776 -0.013654 -747122.000000 0 0 1
34.854788 27.669457 -26.954182 52.028675 0.670979 2.115382 0.053213 -0.014701 -394360.000000 0 0 1
35.526438 27.976357 -28.305292 53.347857 0.667060 2.130081 0.049555 -0.007871 -227303.000000 0 0 1
36.165698 26.819257 -28.743022 53.417147 0.638082 2.138961 0.043082 0.004527 -547602.000000 0 0 1
-35.731569 27.061357 -29.980792 53.925040 -0.648189 2.160328 0.016239 0.004671 -870897.000000 0 0 1
-35.388624 25.730157 -30.677702 53.437038 -0.628666 2.182289 0.008114 0.001237 265159.000000 0 0 1
-34.277019 24.959757 -30.259622 52.091728 -0.629388 2.190619 0.019345 -0.000112 127460.000000 0 0 1
-33.012364 25.533057 -30.580072 51.738708 -0.658334 2.203154 -0.000516 0.007455 -136696.000000 0 0 1
-31.913344 24.994657 -29.653172 50.224545 -0.664415 2.202365 -0.003766 0.000504 -374314.000000 0 0 1
-31.593524 23.633557 -29.814272 49.452872 -0.642252 2.217905 0.022319 -0.008996 336587.000000 0 0 1
-32.429014 22.867057 -28.955382 49.121862 -0.614169 2.201187 0.008729 -0.010313 15429.100000 0 0 1
-32.099514 21.407057 -29.127822 48.343261 -0.588162 2.217452 0.007893 -0.021398 -602670.000000 0 0 1
-30.755444 21.050657 -29.120382 47.297189 -0.600215 2.234057 0.048882 -0.018815 -666933.000000 0 0 1
-30.666804 19.815257 -29.756822 47.101653 -0.573662 2.254615 0.032340 -0.020129 -824725.000000 0 0 1
-29.313674 19.156057 -29.882112 46.034624 -0.578821 2.277227 0.054791 -0.034189 -1017980.000000 0 0 1
-28.455774 19.750157 -30.852502 46.386168 -0.606732 2.298455 0.069476 -0.035239 615201.000000 0 0 1
-27.143194 19.246357 -31.021942 45.492154 -0.616786 2.321179 0.078334 -0.040406 491281.000000 0 0 1
-27.210064 18.009857 -31.891742 45.627028 -0.584683 2.344747 0.077700 -0.028387 -468505.000000 0 0 1
-27.342724 16.789457 -31.182072 44.741837 -0.550677 2.341908 0.046827 -0.022850 145212.000000 0 0 1
-27.243124 15.634457 -31.957392 44.809585 -0.520997 2.364824 0.026517 -0.007206 -102159.000000 0 0 1
-27.679874 14.278057 -31.299482 44.155361 -0.476230 2.358661 0.021846 -0.005996 462148.000000 0 0 1
-29.100324 14.204957 -31.124722 44.915008 -0.454113 2.336396 0.020678 -0.009434 846599.000000 0 0 1
-29.658934 12.918257 -30.852022 44.703254 -0.410781 2.332495 0.016916 -0.005993 54662.100000 0 0 1
-29.308494 12.329657 -29.477982 43.358501 -0.398211 2.318377 0.006440 -0.015726 -497180.000000 0 0 1
-29.986024 12.992757 -28.447262 43.326897 -0.408874 2.287062 0.005041 -0.016675 191648.000000 0 0 1
-30.170414 12.111057 -27.333482 42.474119 -0.381731 2.269901 0.009120 -0.005164 -47507.100000 0 0 1
-29.739994 12.802857 -26.045562 41.554201 -0.406514 2.248217 0.012575 -0.011723 480962.000000 0 0 1
-28.346054 12.975357 -25.786092 40.457152 -0.429279 2.261874 0.010312 -0.016051 417063.000000 0 0 1
-28.113414 13.550357 -24.509012 39.682085 -0.449135 2.236527 0.012470 -0.010408 216635.000000 0 0 1
-26.597304 13.618657 -24.173012 38.434605 -0.473226 2.250984 0.023168 -0.006667 -739531.000000 0 0 1
-25.915824 14.460057 -25.034812 38.826086 -0.508936 2.271550 0.034023 -0.019695 -36645.800000 0 0 1
-24.534744 14.562957 -24.714712 37.747190 -0.535674 2.284639 0.025229 -0.025008 241906.000000 0 0 1
-24.157744 15.284357 -23.380512 36.930427 -0.564110 2.256343 0.015683 -0.012490 -1209970.000000 0 0 1
-24.338144 16.657057 -23.435512 37.669961 -0.600180 2.242253 0.027086 -0.015911 102673.000000 0 0 1
-24.523744 17.267357 -22.148512 37.284476 -0.613477 2.206869 0.023169 -0.012075 829036.000000 0 0 1
-26.026254 17.437457 -21.695012 38.106486 -0.590303 2.176482 0.018744 -0.009139 944026.000000 0 0 1
-26.799634 16.258957 -21.617912 38.077659 -0.545321 2.174545 0.026433 -0.005136 68030.200000 0 0 1
-27.933084 16.445157 -20.794412 38.511140 -0.532094 2.141184 0.031885 0.003711 -28338.200000 0 0 1
-28.928224 15.211457 -20.794612 38.738178 -0.484101 2.137435 0.031814 0.002929 476884.000000 0 0 1
-29.657954 14.858157 -21.948312 39.775463 -0.464434 2.155324 0.027651 0.000261 1186100.000000 0 0 1
-30.634094 15.879257 -22.352112 41.112229 -0.478222 2.145618 0.024128 -0.005767 567364.000000 0 0 1
-31.273244 15.856257 -23.793212 42.373973 -0.469250 2.167000 0.016777 -0.006238 613976.000000 0 0 1
-32.320504 14.896957 -24.046812 42.950942 -0.431892 2.165022 0.029564 -0.002663 712244.000000 0 0 1
-32.871584 15.130257 -25.338742 44.175983 -0.431373 2.181674 0.034892 -0.014084 -1111850.000000 0 0 1
-34.140968 14.351557 -25.500582 44.965014 -0.397935 2.173802 0.033738 -0.011844 -1147340.000000 0 0 1
-34.167155 12.994757 -25.897482 44.798859 -0.363434 2.187174 0.030277 -0.008738 17624.000000 0 0 1
-33.738664 12.043057 -24.956112 43.659365 -0.342854 2.179262 0.023092 -0.009201 -191092.000000 0 0 1
-33.837384 10.564757 -25.482972 43.657353 -0.302631 2.194079 0.026301 -0.013003 -511796.000000 0 0 1
-35.153313 10.132457 -25.647722 44.679164 -0.280630 2.182230 0.033525 -0.006478 -497976.000000 0 0 1
-35.187513 9.074457 -26.631222 45.052511 -0.252389 2.203237 0.029813 0.004532 25595.300000 0 0 1
35.894708 8.396057 -26.906682 45.638727 0.229777 2.201308 0.035504 0.000942 -41934.800000 0 0 1
35.480018 7.523857 -25.877062 44.554040 0.208963 2.190509 0.034319 0.009428 -609696.000000 0 0 1
34.496478 6.663057 -26.346072 43.914904 0.190802 2.214216 0.035398 0.004776 -202273.000000 0 0 1
33.589268 6.045357 -25.242882 42.449833 0.178072 2.207629 0.037121 0.000100 673181.000000 0 0 1
34.365868 5.262657 -24.337112 42.438231 0.151956 2.181533 0.034084 -0.006308 587077.000000 0 0 1
33.470398 4.301457 -23.826412 41.309418 0.127815 2.185577 0.041008 -0.005229 570104.000000 0 0 1
34.278058 3.233957 -23.067212 41.443214 0.094066 2.161082 0.033619 -0.002834 149785.000000 0 0 1
34.857368 2.215657 -23.826712 42.280698 0.063478 2.169457 0.036698 -0.004070 37806.000000 0 0 1
35.914138 1.634457 -23.082512 42.723520 0.045479 2.141562 0.054029 -0.004204 440715.000000 0 0 1
-35.695233 0.617757 -23.982012 43.007769 -0.017305 2.162313 0.066337 -0.005552 385998.000000 0 0 1
36.081718 -0.586143 -24.306012 43.508806 -0.016243 2.163548 0.060808 -0.013428 619334.000000 0 0 1
-35.361048 -1.568743 -24.579412 43.093064 0.044335 2.177764 0.068299 -0.012051 348743.000000 0 0 1
-23.021844 29.246957 27.714660 46.405734 -0.903938 0.930760 0.006424 0.002728 -566378.000000 0 0 1
-24.219444 29.438457 26.997790 46.712791 -0.882358 0.954578 -0.002021 -0.003143 412692.000000 0 0 1
-24.345744 28.863657 25.671530 45.660195 -0.870103 0.973716 -0.006352 0.007093 -373214.000000 0 0 1
-24.426144 27.373257 25.402410 44.623022 -0.842232 0.965182 0.007356 0.003710 623299.000000 0 0 1
-25.687634 26.764957 25.746760 45.156540 -0.805934 0.964087 0.015633 0.003129 727769.000000 0 0 1
-25.999444 26.494457 27.135510 45.981118 -0.794828 0.939558 0.019058 -0.001452 -666545.000000 0 0 1
-25.484444 25.158757 27.801120 45.335661 -0.778967 0.910655 0.035343 -0.003201 433073.000000 0 0 1
-24.091544 25.111557 28.109780 44.734243 -0.806126 0.891337 0.031325 0.002324 321572.000000 0 0 1
-23.864144 25.631957 29.443710 45.753979 -0.821099 0.871705 0.032243 -0.011392 8464.140000 0 0 1
-22.418244 25.511257 29.950890 45.281980 -0.849841 0.848072 0.047420 -0.006776 -669028.000000 0 0 1
-21.430944 26.441157 29.527280 45.058633 -0.889677 0.856206 0.049341 -0.010270 682718.000000 0 0 1
-20.153644 26.261157 30.134240 44.764831 -0.916232 0.832312 0.059389 -0.011427 310456.000000 0 0 1
-19.353844 25.065357 29.647660 43.380031 -0.913279 0.818331 0.068641 -0.008966 -1346380.000000 0 0 1
-18.955444 25.187457 28.316190 42.373617 -0.925649 0.838942 0.066214 -0.006769 -121057.000000 0 0 1
-19.551544 24.252457 27.436770 41.511696 -0.892306 0.848725 0.076492 -0.016112 -302415.000000 0 0 1
-19.195144 22.720257 27.556520 40.546583 -0.869301 0.823543 0.062651 -0.011425 10105.900000 0 0 1
-19.803644 22.011457 28.628460 41.185887 -0.838149 0.802232 0.069270 -0.016072 79253.200000 0 0 1
-19.672344 20.659557 28.496010 40.321719 -0.809870 0.785950 0.088635 -0.020512 129212.000000 0 0 1
-20.184444 19.932357 29.770870 41.121957 -0.779114 0.761263 0.098482 -0.029782 -252432.000000 0 0 1
-19.376744 20.279157 30.840100 41.687098 -0.808150 0.738024 0.074742 -0.027309 -315787.000000 0 0 1
-19.876544 19.874157 32.071860 42.645789 -0.785338 0.719626 0.072694 -0.022462 -616544.000000 0 0 1
-19.022244 20.184257 33.305274 43.341565 -0.815028 0.694401 0.074970 -0.020271 -817080.000000 0 0 1
-18.981344 21.540157 33.686406 44.261086 -0.848461 0.705814 0.034138 -0.020091 -164119.000000 0 0 1
-18.153544 22.425557 33.002123 43.836023 -0.890288 0.718409 0.054562 -0.008282 -828479.000000 0 0 1
-16.680344 22.397657 33.408513 43.543285 -0.930673 0.696257 0.032910 0.003842 -498436.000000 0 0 1
-16.063344 21.125557 33.232649 42.529156 -0.920688 0.673876 0.045786 -0.013977 -1415320.000000 0 0 1
-14.751844 21.257357 33.630726 42.432509 -0.964133 0.655784 0.022072 -0.006505 -1658570.000000 0 0 1
-14.064244 19.871957 33.483874 41.398882 -0.954892 0.628669 0.011544 -0.008314 315153.000000 0 0 1
-12.669544 19.857457 33.777182 41.179290 -1.002886 0.608954 -0.002825 -0.019802 521528.000000 0 0 1
-12.301644 19.947357 -33.319662 40.736069 -1.018184 2.528618 0.009908 -0.016827 -685936.000000 0 0 1
-10.818444 20.150857 -33.007892 40.157398 -1.078088 2.535645 0.005524 -0.014057 -193309.000000 0 0 1
-10.269444 21.466557 -33.138472 40.797461 -1.124583 2.518826 0.007931 -0.013073 201033.000000 0 0 1
-8.906344 21.337257 -32.755982 40.094336 -1.175374 2.526938 0.005085 -0.013094 44783.300000 0 0 1
-8.133444 22.664457 -32.675732 40.589825 -1.226247 2.506510 0.013812 -0.016954 -117340.000000 0 0 1
-8.419344 23.583857 -31.587242 40.309273 -1.227903 2.471272 0.026259 -0.015601 193469.000000 0 0 1
-7.796344 23.177257 -30.358222 38.981917 -1.246307 2.463510 0.023718 -0.022499 79485.300000 0 0 1
-7.417444 24.418957 -29.516292 39.019423 -1.275896 2.428666 0.031599 -0.021379 -445500.000000 0 0 1
-6.218444 24.917957 -30.006622 39.496467 -1.326235 2.433693 0.035940 -0.022895 -591025.000000 0 0 1
-5.743944 26.000157 -29.236782 39.544790 -1.353369 2.402876 0.068424 -0.025356 69901.600000 0 0 1
-4.371744 26.527957 -29.724622 40.079892 -1.407467 2.406300 0.056382 -0.028701 -484732.000000 0 0 1
-3.297244 25.703457 -29.277152 39.098479 -1.443213 2.417054 0.056298 -0.025920 371289.000000 0 0 1
-2.034144 26.141457 -29.747042 39.653499 -1.493140 2.419122 0.068340 -0.026097 381212.000000 0 0 1
-1.444244 27.494757 -29.216002 40.145015 -1.518317 2.385849 0.074116 -0.040961 -380143.000000 0 0 1
-0.755344 27.421557 -27.916382 39.138685 -1.543258 2.364947 0.082038 -0.051798 632713.000000 0 0 1
-0.298144 28.694157 -27.581002 39.801447 -1.560406 2.336390 0.081247 -0.051516 -1157110.000000 0 0 1
0.265156 28.712057 -26.138272 38.828620 1.561562 2.309284 0.095868 -0.054854 374185.000000 0 0 1
1.492756 28.046957 -25.853752 38.174292 1.517623 2.314822 0.104609 -0.056963 41017.600000 0 0 1
2.609356 28.586857 -26.496342 39.064987 1.479770 2.316193 0.103754 -0.051988 -894704.000000 0 0 1
3.862856 28.475857 -25.580142 38.472584 1.435966 2.298147 0.095788 -0.048483 -42548.600000 0 0 1
4.191456 27.160757 -25.192662 37.281969 1.417684 2.312755 0.093009 -0.037385 336053.000000 0 0 1
5.340556 27.312357 -24.357912 36.983702 1.377696 2.289769 0.064006 -0.024176 158055.000000 0 0 1
6.094256 26.026857 -24.022212 35.938891 1.340788 2.302876 0.056350 -0.025473 58705.600000 0 0 1
7.146756 26.227357 -23.100712 35.673425 1.304763 2.275175 0.051501 -0.019537 -146088.000000 0 0 1
7.964156 25.112757 -22.810212 34.848014 1.263694 2.284400 0.042128 -0.007181 350670.000000 0 0 1
9.354756 25.454857 -22.237712 35.071028 1.218614 2.257610 0.042834 0.004818 -764597.000000 0 0 1
9.359856 26.049457 -20.940912 34.708830 1.225851 2.218468 0.056033 0.003823 317545.000000 0 0 1
10.660656 26.325757 -20.413312 34.977112 1.186029 2.193975 0.063056 -0.002631 489217.000000 0 0 1
11.375456 25.032057 -19.933812 33.961179 1.144260 2.198094 0.029034 0.010838 -472631.000000 0 0 1
11.875356 24.245857 -21.038812 34.227434 1.115351 2.232773 0.033499 0.004781 23098.700000 0 0 1
12.157756 22.922857 -20.660712 33.168259 1.083143 2.243248 0.022346 0.012670 -173168.000000 0 0 1
12.433956 21.987957 -21.805412 33.369889 1.056139 2.282924 0.032079 -0.010352 566388.000000 0 0 1
11.202756 21.689857 -22.462712 33.174162 1.094038 2.314631 0.036208 -0.018221 717064.000000 0 0 1
11.500856 21.105557 -23.687512 33.746295 1.071861 2.348899 0.030261 -0.028804 1222240.000000 0 0 1
10.351556 21.464457 -24.748512 34.356461 1.121437 2.375096 0.051024 -0.022936 918513.000000 0 0 1
9.011156 21.144057 -24.465312 33.568192 1.167927 2.387399 0.039711 -0.022946 -392979.000000 0 0 1
8.437356 21.012557 -25.740082 34.282186 1.188964 2.420114 0.038436 -0.027426 509996.000000 0 0 1
6.989556 20.370457 -25.676732 33.512743 1.240262 2.443669 0.053015 -0.031836 1828410.000000 0 0 1
5.842456 21.119257 -25.234252 33.420424 1.300905 2.426534 0.072447 -0.028353 593088.000000 0 0 1
5.926356 21.548157 -23.893512 32.716122 1.302404 2.389599 0.071920 -0.025236 -964734.000000 0 0 1
4.629256 22.066557 -23.245712 32.384040 1.364009 2.371454 0.089141 -0.032148 -291854.000000 0 0 1
4.162056 23.153257 -23.999412 33.606067 1.392935 2.366190 0.082875 -0.033881 -1163370.000000 0 0 1
2.802556 23.293157 -23.817612 33.432082 1.451055 2.363734 0.097965 -0.030849 -1099310.000000 0 0 1
2.183556 24.298457 -24.774612 34.770164 1.481173 2.363887 0.091312 -0.028653 -293409.000000 0 0 1
0.775556 24.253057 -24.792612 34.691293 1.538830 2.366940 0.108637 -0.053087 -147889.000000 0 0 1
0.319356 24.915957 -25.955502 35.980480 1.557980 2.376585 0.093090 -0.049703 -1039890.000000 0 0 1
-1.142644 24.700057 -26.218872 36.039252 -1.524569 2.385480 0.102783 -0.048713 -1071240.000000 0 0 1
-1.491944 23.346157 -26.648002 35.459624 -1.506978 2.421133 0.111609 -0.050273 -212599.000000 0 0 1
-2.801744 23.523857 -27.136732 36.022546 -1.452253 2.423902 0.113650 -0.039092 -241136.000000 0 0 1
-3.378144 22.165457 -27.614702 35.570930 -1.419554 2.459615 0.098595 -0.035296 -465887.000000 0 0 1
-2.695644 21.740557 -28.761672 36.154558 -1.447434 2.490662 0.102568 -0.046672 -179953.000000 0 0 1
-3.177644 20.524857 -29.249462 35.873363 -1.417196 2.524135 0.075516 -0.042539 -114368.000000 0 0 1
-4.422444 20.558157 -30.162202 36.768930 -1.358907 2.532763 0.048614 -0.034147 -147498.000000 0 0 1
-4.205944 20.950457 -31.522732 38.082728 -1.372673 2.545871 0.034906 -0.027276 -86431.400000 0 0 1
-3.790344 22.270657 -31.709052 38.933441 -1.402217 2.522564 0.055355 -0.031296 -282781.000000 0 0 1
-3.332144 22.566357 -33.150592 40.240593 -1.424196 2.538896 0.027152 -0.023723 342715.000000 0 0 1
-2.199844 21.745057 -33.451252 39.958391 -1.469974 2.562852 0.028974 -0.015583 418676.000000 0 0 1
-1.714444 21.894057 33.683449 40.210245 -1.492649 0.577769 0.022848 -0.000109 -3001.620000 0 0 1
-0.649744 20.827957 33.331602 39.309307 -1.539611 0.558725 0.035379 0.010277 72240.300000 0 0 1
-1.149344 19.517257 32.988624 38.347016 -1.511976 0.535006 0.015649 0.024108 600017.000000 0 0 1
-0.097144 18.745757 32.377909 37.413124 -1.565614 0.524817 0.034005 0.009500 525765.000000 0 0 1
-0.539044 17.345257 31.829450 36.252757 -1.539729 0.499156 0.025252 0.008048 -106254.000000 0 0 1
-1.368544 17.459957 30.713910 35.356290 -1.492574 0.518230 0.015019 0.008026 -177637.000000 0 0 1
-1.924144 16.239357 30.298100 34.429550 -1.452860 0.494928 0.005313 0.008244 -236909.000000 0 0 1
-3.041744 16.370457 29.256270 33.662641 -1.387084 0.517412 0.007324 0.006885 -5562.750000 0 0 1
-4.273844 16.893857 29.723030 34.454704 -1.323013 0.530272 -0.011575 0.001099 59685.700000 0 0 1
-4.498044 18.192357 29.253370 34.741242 -1.328408 0.569750 -0.013256 0.004577 283522.000000 0 0 1
-5.973844 18.663957 29.456840 35.379874 -1.261026 0.587033 -0.034007 -0.002894 979383.000000 0 0 1
-6.787144 18.010057 28.448540 34.347444 -1.210402 0.594805 -0.042116 0.002100 145962.000000 0 0 1
-8.172144 18.158957 28.700940 34.932443 -1.147914 0.606562 -0.042682 -0.004228 -146386.000000 0 0 1
-9.077844 17.296257 27.725530 33.915671 -1.087471 0.613767 -0.034344 -0.006569 -20770.000000 0 0 1
-9.227744 15.975157 28.093770 33.609772 -1.046987 0.581061 -0.032798 -0.014480 84337.000000 0 0 1
-9.949244 15.795357 29.298050 34.739840 -1.008693 0.567298 -0.030016 -0.014671 -1010580.000000 0 0 1
-10.332844 14.326957 29.581020 34.453826 -0.945972 0.538322 -0.027710 -0.012986 186563.000000 0 0 1
-9.256844 13.388057 29.686130 33.855510 -0.965848 0.501530 -0.015356 -0.007966 1011430.000000 0 0 1
-8.321944 13.438857 30.783980 34.605073 -1.016346 0.474371 -0.011599 -0.010754 246511.000000 0 0 1
-8.988744 13.298757 32.241510 36.016238 -0.976423 0.461931 0.008245 -0.021770 -157929.000000 0 0 1
-9.345444 11.938757 32.476756 35.841469 -0.906643 0.436771 0.028253 -0.015699 393977.000000 0 0 1
-9.861444 11.709757 33.793044 37.099007 -0.870874 0.425365 0.038542 -0.007837 243564.000000 0 0 1
-10.495344 10.242457 33.949416 36.981387 -0.773204 0.407754 0.040742 -0.010338 284604.000000 0 0 1
-9.490744 9.220157 33.980970 36.466311 -0.770938 0.371330 0.048937 -0.012477 474746.000000 0 0 1
-9.527744 8.430557 -33.252192 35.602815 -0.724378 2.776180 0.068170 -0.017913 -22116.600000 0 0 1
-8.689544 9.088357 -32.111292 34.485380 -0.807827 2.768369 0.049344 -0.015461 -140879.000000 0 0 1
-9.226744 10.238957 -31.456622 34.343676 -0.837351 2.728631 0.042933 -0.010904 584616.000000 0 0 1
-8.215644 10.963657 -30.723982 33.640179 -0.927710 2.722140 0.040554 -0.017136 644981.000000 0 0 1
-7.297644 11.883657 -31.583522 34.525291 -1.020080 2.725793 0.021073 -0.017646 -420084.000000 0 0 1
-7.955344 13.000957 -32.090262 35.526008 -1.021669 2.698172 0.013305 -0.017253 192008.000000 0 0 1
-7.026644 14.075157 -32.314032 35.939955 -1.107770 2.688532 -0.003317 -0.019034 209481.000000 0 0 1
-7.601044 15.480557 -32.673572 36.945714 -1.114370 2.655933 -0.007539 -0.017701 -201092.000000 0 0 1
-7.985744 15.646457 -33.989732 38.260757 -1.098874 2.664580 -0.014396 -0.025255 -157566.000000 0 0 1
-8.445344 16.967657 34.211165 39.110472 -1.108965 0.505915 0.005022 -0.020399 -825467.000000 0 0 1
-8.877844 17.160457 32.697549 37.979298 -1.093371 0.533700 0.006176 -0.026978 799861.000000 0 0 1
-10.074044 16.537957 32.215340 37.587478 -1.023678 0.541229 -0.015425 -0.022669 1218670.000000 0 0 1
-11.302644 16.925957 32.864788 38.656591 -0.982030 0.554483 0.002865 -0.023318 861767.000000 0 0 1
-12.549244 16.108757 32.340710 38.247838 -0.908972 0.563190 0.024951 -0.031677 302690.000000 0 0 1
-12.571544 14.657157 32.522821 37.823403 -0.861845 0.535801 0.021483 -0.033015 105999.000000 0 0 1
-13.844544 14.082857 32.752663 38.245721 -0.793931 0.542589 0.019052 -0.018996 -38711.500000 0 0 1
-13.912944 12.506157 32.932396 37.875014 -0.732200 0.516603 0.018701 -0.011812 -160474.000000 0 0 1
-14.006444 11.881757 31.639930 36.584721 -0.703510 0.525965 0.002728 -0.009295 1557870.000000 0 0 1
-12.709044 11.351657 31.200500 35.550684 -0.729043 0.499892 0.009980 -0.013981 1174080.000000 0 0 1
-12.725944 10.885057 29.727730 34.119965 -0.707588 0.513011 0.013734 -0.012244 -235974.000000 0 0 1
-13.606844 9.805357 29.574820 33.999430 -0.624431 0.515873 0.008699 -0.007981 64698.200000 0 0 1
-13.703344 9.306057 28.240380 32.739936 -0.596567 0.530475 0.005963 -0.006611 -239213.000000 0 0 1
-14.608744 8.097157 28.089010 32.679838 -0.506114 0.536464 0.019787 -0.002363 -134367.000000 0 0 1
-14.112644 6.869357 28.617640 32.639303 -0.452993 0.501662 0.000423 0.002831 8861.710000 0 0 1
-15.005444 5.848357 28.240450 32.509839 -0.371638 0.518277 0.017312 0.006357 -338333.000000 0 0 1
-14.359744 4.463057 28.172020 31.934055 -0.301338 0.490296 0.027864 0.004911 -101660.000000 0 0 1
-13.317644 4.413257 27.220060 30.623000 -0.319995 0.475910 0.025256 -0.001986 -221871.000000 0 0 1
-13.642444 4.559557 25.807540 29.545473 -0.322547 0.508480 0.028621 -0.001169 -758243.000000 0 0 1
-12.426744 4.449557 24.881560 28.165840 -0.343840 0.487739 0.013090 0.008976 -228578.000000 0 0 1
-11.723344 3.218557 25.103950 27.892727 -0.267941 0.450986 0.007367 0.005752 -4269.280000 0 0 1
-11.239644 2.771257 23.844430 26.505967 -0.241739 0.451973 0.006529 0.009515 -631706.000000 0 0 1
-10.363944 1.517657 23.991070 26.177969 -0.145403 0.411654 0.002402 0.003357 -626052.000000 0 0 1
-9.078344 1.981657 24.341720 26.054992 -0.214913 0.364663 -0.002593 0.000099 -459314.000000 0 0 1
-8.268944 0.828057 24.374770 25.752486 -0.099808 0.328580 -0.003426 -0.006463 -695785.000000 0 0 1
-6.773244 1.082957 24.224690 25.177078 -0.158545 0.275929 0.009713 -0.013807 -1019910.000000 0 0 1
-6.392544 1.425257 22.927280 23.844415 -0.219368 0.278253 0.015367 -0.012456 -130732.000000 0 1 0
-5.013244 1.698357 22.795780 23.402235 -0.326639 0.228154 0.020937 -0.012558 511.059000 0 1 0
-4.539544 3.068357 23.320480 23.955523 -0.594380 0.230769 0.034652 -0.014598 -812513.000000 0 1 0
-4.261744 3.020957 24.697340 25.243757 -0.616644 0.208443 0.030909 -0.016717 54841.700000 0 0 1
-3.871544 4.315057 25.150390 25.809895 -0.839521 0.226548 0.031722 -0.014652 -3684.390000 0 0 1
4.062156 -23.629443 13.220288 27.379330 -1.400550 1.066883 0.064544 -0.000603 404739.000000 0 0 1
3.641556 -24.874043 13.829288 28.691953 -1.425429 1.067870 0.066572 -0.010709 -1113710.000000 0 0 1
2.345056 -25.239963 13.583588 28.758806 -1.478152 1.078866 0.045935 -0.003405 -1131850.000000 0 0 1
1.929956 -26.586983 14.224288 30.214612 -1.498333 1.080627 0.033515 -0.004247 -2524.160000 0 0 1
1.906456 -26.604713 15.643188 30.921751 -1.499260 1.040376 0.047285 -0.013866 50125.800000 0 0 1
2.010756 -27.909453 16.180788 32.323345 -1.498875 1.046515 0.038434 -0.013946 -88360.000000 0 0 1
1.707656 -28.004293 17.722488 33.184984 -1.509893 1.007411 0.023866 -0.014569 -3966.820000 0 0 1
2.554756 -27.134453 18.487388 32.933097 -1.476921 0.974766 0.043138 -0.021665 432323.000000 0 0 1
2.456856 -27.343903 19.846488 33.876368 -1.481187 0.944867 0.036268 -0.022845 -115902.000000 0 0 1
3.167056 -26.427563 20.867888 33.821814 -1.451526 0.905878 0.041164 -0.019086 -257375.000000 0 0 1
2.550956 -25.182263 21.064088 32.929464 -1.469841 0.876724 0.026819 -0.019572 383562.000000 0 0 1
3.418756 -24.282843 21.762988 32.786766 -1.430927 0.844943 0.047127 -0.026410 3042.420000 0 0 1
2.648256 -23.116543 22.379188 32.283369 -1.456733 0.804862 0.041685 -0.026067 -163057.000000 0 0 1
2.009256 -22.233443 21.458488 30.964978 -1.480670 0.805165 0.039955 -0.018935 217182.000000 0 0 1
2.871356 -21.430743 20.654288 29.901858 -1.437606 0.808290 0.038979 -0.007577 -203164.000000 0 0 1
2.067656 -20.423243 19.888188 28.581884 -1.469900 0.801219 0.018508 -0.018090 -203662.000000 0 0 1
1.929656 -19.189043 20.507888 28.151669 -1.470573 0.754698 0.018956 -0.019028 -522354.000000 0 0 1
1.018956 -18.362343 19.857088 27.065068 -1.515362 0.747075 0.020648 -0.031043 -132645.000000 0 0 1
0.869556 -16.907143 20.532188 26.611621 -1.519410 0.689523 0.013730 -0.027355 -178052.000000 0 0 1
2.068856 -16.233743 20.360488 26.122099 -1.444038 0.677032 -0.000944 -0.020989 -374674.000000 0 0 1
1.813556 -14.944643 20.987688 25.828558 -1.450035 0.622237 0.009113 -0.016334 416620.000000 0 0 1
2.871156 -13.892043 20.615188 25.024356 -1.366990 0.602706 -0.010501 -0.018659 -566407.000000 0 0 1
3.132356 -13.590143 19.252688 23.773297 -1.344265 0.626908 -0.021988 -0.018601 150119.000000 0 1 0
2.046556 -13.160143 18.411388 22.723490 -1.416520 0.626242 -0.007685 -0.015321 472901.000000 0 1 0
1.228956 -11.946943 18.929688 22.418138 -1.468289 0.565368 -0.000087 -0.013735 -162860.000000 0 1 0
1.931656 -10.722743 18.883188 21.800994 -1.392562 0.523326 0.003005 -0.009222 -308530.000000 0 1 0
1.539856 -9.912443 19.930488 22.312599 -1.416682 0.466297 0.010682 -0.008986 973643.000000 0 1 0
0.163156 -9.128543 19.902588 21.896802 -1.552925 0.430094 0.016634 -0.015846 1059650.000000 0 1 0
-0.051244 -8.437743 21.117188 22.740576 1.564723 0.380140 0.020438 -0.018083 648764.000000 0 1 0
-1.476844 -8.260243 21.199288 22.799617 1.393876 0.376903 0.019082 -0.009983 854247.000000 0 1 0
-2.023844 -7.602143 22.501088 23.836684 1.310611 0.336340 0.023022 -0.008075 -48584.000000 0 1 0
-2.064244 -8.428643 23.661088 25.202187 1.330616 0.351520 0.019976 -0.003640 81979.300000 0 0 1
-2.399944 -7.564743 24.731888 25.974052 1.263586 0.310514 0.013166 -0.001165 -160558.000000 0 0 1
-2.582844 -8.272443 26.081988 27.484078 1.268164 0.320794 0.022646 -0.005700 348708.000000 0 0 1
-1.374844 -8.944243 26.451688 27.956779 1.418277 0.329625 0.019035 -0.009458 427601.000000 0 0 1
-1.618644 -10.030743 27.311388 29.140140 1.410807 0.356159 0.034611 -0.014579 390607.000000 0 0 1
-0.441944 -11.065743 27.269488 29.432482 1.530880 0.385767 0.029922 -0.010278 675138.000000 0 0 1
0.783056 -10.603543 27.801688 29.765453 -1.497082 0.365276 0.020066 -0.009427 -621139.000000 0 0 1
1.629056 -11.620243 28.129488 30.478714 -1.431513 0.395193 0.033892 -0.016994 -419557.000000 0 0 1
2.730856 -11.288143 29.146288 31.374924 -1.333434 0.379182 0.039037 -0.016236 191782.000000 0 0 1
2.155456 -10.913143 30.379588 32.352157 -1.375796 0.351003 0.032325 -0.020424 13754.800000 0 0 1
3.145356 -10.359043 31.224288 33.047833 -1.276009 0.333748 0.050869 -0.013740 -28151.100000 0 0 1
2.708156 -10.172643 32.697088 34.349911 -1.310611 0.311474 0.039018 -0.011909 -172594.000000 0 0 1
2.625756 -11.399743 33.402588 35.391830 -1.344410 0.336870 0.036686 -0.016716 67647.200000 0 0 1
2.158356 -11.344043 -33.708803 35.631857 -1.382780 2.811554 0.021676 -0.015803 -310010.000000 0 0 1
3.010156 -10.612043 -32.615103 34.429950 -1.294402 2.815461 0.025215 -0.007255 7092.750000 0 0 1
2.861856 -9.196843 -32.690703 34.080115 -1.269116 2.855065 0.029632 -0.011695 35158.800000 0 0 1
3.420356 -8.537143 -31.566003 32.878477 -1.189735 2.858088 0.039297 -0.008536 -74680.400000 0 0 1
2.706056 -7.230543 -31.182103 32.123622 -1.212680 2.898885 0.008375 -0.009223 -63919.300000 0 0 1
2.755356 -6.313843 -32.257203 32.984599 -1.159310 2.931192 0.040961 -0.013038 339.057000 0 0 1
2.628956 -5.005643 -31.802103 32.300800 -1.087194 2.965644 0.020268 -0.007779 -91357.400000 0 0 1
2.873356 -4.006543 -32.889903 33.257395 -0.948642 2.992795 0.027825 -0.007541 -455874.000000 0 0 1
2.032456 -4.049843 -33.993703 34.294372 -1.105662 3.009077 0.021647 -0.013037 -540682.000000 0 0 1
2.219056 -3.006643 33.536288 33.743840 -0.934987 0.110970 0.041993 -0.010926 -59283.100000 0 0 1
1.528056 -3.339643 32.218988 32.427633 -1.141681 0.113500 0.042843 -0.011471 1066510.000000 0 0 1
0.092756 -3.214243 32.148288 32.308705 -1.541947 0.099692 0.026537 -0.016448 672705.000000 0 0 1
-0.230944 -3.791343 30.905888 31.138426 1.509958 0.122288 0.026000 -0.010886 -493724.000000 0 0 1
-1.725644 -3.791043 30.624888 30.906854 1.143635 0.135181 0.015326 -0.013218 -755571.000000 0 0 1
-2.376844 -2.599143 30.432488 30.635621 0.830043 0.115221 0.016921 -0.011492 182242.000000 0 0 1
-3.788344 -2.806443 30.492188 30.854517 0.637594 0.153403 0.003991 -0.010130 768760.000000 0 0 1
-4.667144 -1.831843 29.665688 30.086391 0.374022 0.167427 0.003571 -0.010776 -381033.000000 0 0 1
-4.529244 -1.954543 28.257788 28.685134 0.407396 0.172829 0.003112 -0.008577 317543.000000 0 0 1
-5.543144 -1.300743 27.467588 28.051502 0.230488 0.204394 -0.007667 -0.008651 619647.000000 0 0 1
-5.862144 0.202157 27.728788 28.342394 -0.034471 0.208463 0.015055 -0.010139 70433.200000 0 0 1
-6.642444 0.512857 28.871088 29.629796 -0.077056 0.226787 0.012080 -0.007624 -281849.000000 0 0 1
-6.741844 1.906357 28.937188 29.773269 -0.275571 0.237546 0.023897 -0.004281 340949.000000 0 0 1
-8.151444 2.352057 29.460288 30.657573 -0.280915 0.280394 0.022003 -0.006428 -67527.800000 0 0 1
-9.090344 1.904857 28.575488 30.046986 -0.206559 0.314255 0.009878 -0.003487 -1617750.000000 0 0 1
-10.385144 2.305857 28.842788 30.742066 -0.218490 0.353349 0.017468 -0.001646 -484125.000000 0 0 1
-11.451944 1.582457 27.970288 30.265297 -0.137313 0.391939 0.016776 0.002258 84404.300000 0 0 1
-11.563144 0.240657 28.330088 30.599969 -0.020809 0.387595 0.023459 -0.000769 101368.000000 0 0 1
-12.221644 -0.517143 27.317488 29.931274 0.042289 0.421017 0.026032 -0.000635 -741101.000000 0 0 1
-11.994444 -2.074143 27.601188 30.166113 0.171232 0.415355 0.038208 -0.005419 1261690.000000 0 0 1
-10.643844 -2.555343 27.845988 29.920232 0.235618 0.374545 0.029952 -0.008786 1643720.000000 0 0 1
-9.580544 -2.172443 26.976488 28.709533 0.222985 0.349234 0.029320 -0.009731 -253945.000000 0 0 1
-9.535544 -2.915843 25.643388 27.513853 0.296757 0.370856 0.021407 -0.008944 -780006.000000 0 0 1
-10.554544 -2.552243 24.731888 27.010714 0.237260 0.413718 0.023294 -0.004401 263154.000000 0 0 1
-10.427344 -3.196143 23.432688 25.846387 0.297424 0.435608 0.027058 -0.007195 202565.000000 0 0 1
-9.257744 -2.640043 22.567588 24.535112 0.277798 0.403206 0.005087 -0.005904 277624.000000 0 1 0
-8.001444 -2.680543 23.191088 24.678634 0.323257 0.348976 0.001850 -0.010773 -31737.100000 0 1 0
-6.976444 -2.378643 22.213788 23.404724 0.328593 0.320381 0.000482 -0.007082 1389350.000000 0 1 0
-5.497544 -2.604843 22.714788 23.515310 0.442485 0.261677 0.002034 -0.008399 709341.000000 0 1 0
-4.994544 -3.913443 22.739488 23.608152 0.664626 0.272114 0.010355 -0.011206 -62588.500000 0 1 0
-5.605844 -4.790843 23.695888 24.816785 0.707168 0.301699 0.011557 -0.011943 -108397.000000 0 1 0
-5.518444 -6.260443 23.261188 24.712937 0.848309 0.344467 0.018777 -0.011624 -277991.000000 0 1 0
-6.334644 -6.664543 22.160688 23.992498 0.810771 0.393297 0.018051 -0.020683 -59814.000000 0 1 0
-5.964044 -6.302843 20.838088 22.572585 0.813010 0.394577 0.021261 -0.021310 -1066510.000000 0 1 0
-7.078744 -6.470143 19.820088 22.018340 0.740509 0.450653 0.021821 -0.023607 -955135.000000 0 1 0
-8.083444 -5.548643 20.132688 22.393183 0.601554 0.453191 0.024949 -0.018330 -383994.000000 0 1 0
-9.028044 -5.385843 19.076688 21.781481 0.537892 0.503661 0.027491 -0.017764 402372.000000 0 1 0
-9.677944 -3.982843 19.117088 21.794236 0.390413 0.500875 0.024784 -0.015948 -383532.000000 0 1 0
-8.849944 -3.004943 18.671388 20.879941 0.327330 0.464097 0.020738 -0.017787 -682754.000000 0 1 0
-9.519044 -1.744543 18.786288 21.132446 0.181257 0.475687 0.016811 -0.019262 98972.300000 0 1 0
-8.579944 -0.577743 18.448988 20.354714 0.067235 0.436175 0.010262 -0.003510 -131719.000000 0 1 0
-7.653444 -0.309343 19.493288 20.944192 0.040397 0.374405 0.013133 0.010931 254021.000000 0 1 0
-8.064944 0.612757 20.484488 22.023466 -0.075832 0.376054 0.031520 0.008789 -349662.000000 0 1 0
-7.754344 2.083457 20.102788 21.647003 -0.262483 0.380002 0.015231 -0.002821 145191.000000 0 1 0
-8.603744 2.643457 19.098788 21.113408 -0.298090 0.440400 0.003343 -0.010912 410486.000000 0 1 0
-8.315944 4.037257 18.912988 21.051259 -0.451967 0.454626 0.000897 -0.007180 -108353.000000 0 1 0
-9.141244 4.543857 17.718188 20.448549 -0.461302 0.522696 0.005686 -0.004656 52604.300000 0 1 0
-10.521644 4.644457 18.095088 21.440807 -0.415695 0.566181 0.004873 0.004918 644863.000000 0 1 0
-11.311444 5.066657 16.979588 21.022041 -0.421125 0.630549 0.012411 0.011457 -27839.000000 0 1 0
-11.367744 6.637557 16.810488 21.351236 -0.528493 0.664329 0.010298 0.004702 -873052.000000 0 1 0
-10.137844 7.270257 16.611788 20.774600 -0.622137 0.644134 0.009899 0.001457 -230500.000000 0 1 0
-10.280344 8.657357 16.373288 21.183009 -0.699906 0.687327 0.004017 -0.007616 178184.000000 0 1 0
-9.092444 9.518457 16.891388 21.414774 -0.808285 0.661987 0.008704 0.003586 200746.000000 0 1 0
-8.922644 9.771957 18.269188 22.558102 -0.830798 0.626861 0.028066 0.018653 -269962.000000 0 1 0
-8.222944 10.954357 18.621688 23.116704 -0.926876 0.634191 0.042561 0.016003 -111654.000000 0 1 0
-8.884544 12.255157 18.207388 23.677689 -0.943512 0.693571 0.047075 0.010651 -51065.300000 0 1 0
-8.613644 12.527057 16.861188 22.702900 -0.968439 0.733720 0.030093 0.001501 -340013.000000 0 1 0
-9.340244 13.598757 16.330688 23.213309 -0.968954 0.790478 0.044617 -0.009897 -289724.000000 0 1 0
-9.015344 13.945557 14.870888 22.291216 -0.996909 0.840462 0.047101 -0.015454 -102563.000000 0 1 0
-7.806744 14.650657 14.834588 22.263243 -1.081208 0.841525 0.039194 -0.010643 -456723.000000 0 1 0
-7.510444 15.056657 13.554888 21.606589 -1.108099 0.892651 0.025986 -0.013728 -292946.000000 0 1 0
-6.629344 16.323757 13.462788 22.173405 -1.185028 0.918316 0.015448 -0.011913 309448.000000 0 1 0
-5.271044 16.023357 13.746388 21.759941 -1.252987 0.887015 0.015165 -0.014920 -668381.000000 0 1 0
-4.459244 17.120157 13.598288 22.313630 -1.315990 0.915472 0.012519 -0.015298 -202315.000000 0 1 0
-2.964744 16.710857 13.589788 21.742235 -1.395209 0.895612 0.016788 -0.025042 249776.000000 0 1 0
-2.476244 16.343957 14.913488 22.263621 -1.420432 0.836777 0.020348 -0.019976 -27701.900000 0 1 0
-2.558844 14.983257 15.118688 21.438759 -1.401648 0.788086 0.023506 -0.017488 -228523.000000 0 1 0
-1.486744 14.437157 16.118188 21.689580 -1.468178 0.733060 0.022430 -0.012196 -641658.000000 0 1 0
-0.237244 14.313657 15.561188 21.144447 -1.554223 0.743732 0.006035 -0.022980 -373686.000000 0 1 0
0.776256 13.783357 16.479488 21.497838 1.514537 0.697322 0.007209 -0.008142 1219720.000000 0 1 0
1.809056 14.789457 17.038688 22.634434 1.449080 0.718525 0.019904 -0.016985 -360281.000000 0 1 0
1.224256 15.631857 17.940888 23.827069 1.492638 0.718244 0.017660 -0.020709 -363742.000000 0 1 0
2.068756 16.641457 18.463588 24.942372 1.447117 0.737354 0.025509 -0.018104 -434811.000000 0 1 0
1.182156 17.667057 19.203188 26.120582 1.503983 0.744872 0.022391 -0.016316 304289.000000 0 0 1
0.521956 18.615557 18.408188 26.185354 1.542765 0.791196 0.019476 -0.013952 222056.000000 0 0 1
-0.577644 18.111857 17.654588 25.299358 -1.538914 0.798436 0.024772 -0.014291 -698375.000000 0 0 1
-1.270744 19.073257 16.711688 25.390637 -1.504270 0.852393 0.023773 -0.010920 -151109.000000 0 0 1
-1.900544 20.144757 17.397488 26.685125 -1.476730 0.860637 0.026120 -0.006549 78257.900000 0 0 1
-2.584544 20.945157 16.455088 26.760968 -1.448021 0.908548 0.028604 -0.008978 -299091.000000 0 0 1
-3.266844 22.237657 16.962388 28.158627 -1.424934 0.924308 0.028822 -0.002288 -103348.000000 0 0 1
-4.352144 21.925157 17.823288 28.588866 -1.374843 0.897668 0.032255 -0.000730 43357.700000 0 0 1
-4.838344 23.144957 18.393288 29.956830 -1.364719 0.909687 0.030848 -0.001506 -336740.000000 0 0 1
-6.018044 22.959057 19.328388 30.609177 -1.314443 0.887365 0.025909 0.000245 -783305.000000 0 0 1
-7.292944 22.953857 18.755188 30.525787 -1.263161 0.909165 0.031500 -0.003654 -462130.000000 0 0 1
-8.181944 22.448257 19.760388 31.005506 -1.221280 0.879783 0.005959 -0.000725 330558.000000 0 0 1
-9.637044 22.910257 19.501188 31.591911 -1.172622 0.905510 0.020136 -0.006848 79655.500000 0 0 1
-10.012744 24.275057 19.743788 32.853472 -1.179586 0.926088 0.030057 -0.005098 -373677.000000 0 0 1
-11.116244 24.696957 19.010288 33.089297 -1.147854 0.958785 0.019692 -0.008940 -243824.000000 0 0 1
-11.691544 26.096057 19.361788 34.533682 -1.149591 0.975609 0.029287 -0.011823 85784.500000 0 0 1
-12.489944 26.123357 20.527988 35.494038 -1.124810 0.954091 0.022058 -0.001574 67420.300000 0 0 1
-12.972944 27.449457 20.685088 36.737485 -1.129298 0.972723 0.037824 -0.013767 -298161.000000 0 0 1
-13.692944 27.544557 22.076888 37.862756 -1.109456 0.948286 0.053112 -0.022956 143055.000000 0 0 1
-14.897944 26.764857 22.005588 37.716736 -1.062882 0.947834 0.045162 -0.015734 328736.000000 0 0 1
-15.482544 26.871857 23.273388 38.774430 -1.048089 0.927014 0.040103 -0.005211 398565.000000 0 0 1
-16.973644 26.403657 23.340988 39.115974 -0.999462 0.931398 0.055120 -0.009496 593902.000000 0 0 1
-17.151044 25.020057 23.141088 38.153263 -0.969874 0.919108 0.054078 -0.009756 385563.000000 0 0 1
-18.532844 24.651557 23.085488 38.524087 -0.926149 0.928235 0.069766 -0.002954 738453.000000 0 0 1
28.366156 23.744357 24.048010 44.121877 0.696937 0.994364 0.092315 -0.005130 147161.000000 0 0 1
27.752456 23.034057 25.107260 43.944750 0.692758 0.962662 0.070001 -0.017082 296778.000000 0 0 1
27.217356 21.748857 24.723750 42.720733 0.674180 0.953626 0.068098 -0.002828 13796.700000 0 0 1
26.655456 20.861757 25.854230 42.593045 0.664069 0.918509 0.075650 -0.001239 146423.000000 0 0 1
25.510356 21.459657 26.448820 42.553910 0.699371 0.900093 0.079528 -0.001806 166574.000000 0 0 1
25.230856 20.923657 27.737790 42.939265 0.692346 0.868493 0.073565 -0.005501 254048.000000 0 0 1
23.851256 21.371757 28.307270 42.742671 0.730625 0.846949 0.091212 -0.010125 312701.000000 0 0 1
23.688356 22.729257 28.793660 43.667290 0.764739 0.850793 0.099082 -0.023167 211991.000000 0 0 1
22.370956 22.935257 29.282300 43.404364 0.797853 0.830320 0.123288 -0.018938 190245.000000 0 0 1
21.952956 24.289557 29.861730 44.312953 0.835884 0.831345 0.114318 -0.011346 -697995.000000 0 0 1
21.659856 25.272257 28.896260 44.077547 0.862217 0.855849 0.106591 -0.023258 -30952.400000 0 0 1
21.197256 26.455057 29.499800 44.938090 0.895290 0.854688 0.085017 -0.022089 635175.000000 0 0 1
19.824256 26.441357 30.278130 44.820884 0.927459 0.829105 0.088474 -0.020037 563732.000000 0 0 1
18.704756 26.291857 29.370270 43.631896 0.952442 0.832353 0.081828 -0.022006 1749250.000000 0 0 1
17.391556 26.418557 29.963090 43.568258 0.988603 0.812442 0.079184 -0.017716 1164090.000000 0 0 1
16.829856 25.278557 30.818500 43.266955 0.983411 0.778045 0.059128 -0.014423 -242898.000000 0 0 1
17.363556 25.132957 32.148970 44.347659 0.966226 0.759863 0.063707 -0.011760 257447.000000 0 0 1
16.395456 24.373157 32.829006 44.052303 0.978639 0.729920 0.044535 -0.010955 85658.700000 0 0 1
16.792056 23.864657 -34.218651 44.971224 0.957634 2.435497 0.060934 -0.008848 -211839.000000 0 0 1
17.240256 24.906657 -33.402472 45.092051 0.965328 2.405000 0.054650 -0.001428 151464.000000 0 0 1
17.347656 24.706257 -32.027012 44.012155 0.958625 2.385738 0.043640 0.002197 -53187.200000 0 0 1
17.813856 25.918557 -31.241662 44.329972 0.968644 2.352871 0.034889 0.012904 193315.000000 0 0 1
16.819456 26.954057 -31.090802 44.452820 1.012913 2.345370 0.041716 0.002132 248231.000000 0 0 1
17.238656 28.075057 -30.413802 44.837254 1.020131 2.316264 0.040287 -0.000933 -365189.000000 0 0 1
16.582356 28.398657 -29.043782 43.874816 1.042289 2.294239 0.041129 -0.000914 -270739.000000 0 0 1
16.761856 27.421657 -28.026342 42.642501 1.022136 2.287947 0.032989 0.004644 121300.000000 0 0 1
16.521656 27.960057 -26.765732 42.084846 1.037093 2.260093 0.024283 0.005866 -347676.000000 0 0 1
17.205456 27.189857 -25.623242 41.132305 1.006615 2.243301 0.023238 0.013315 -411214.000000 0 0 1
18.591756 27.405257 -25.648992 41.887615 0.974714 2.229799 0.034011 0.011035 -724236.000000 0 0 1
19.127056 27.034157 -24.389712 41.128432 0.955045 2.205592 0.039452 0.010238 156404.000000 0 0 1
20.667256 26.937157 -24.543112 41.894035 0.916353 2.196710 0.031017 0.009318 145376.000000 0 0 1
21.316056 26.470157 -23.398612 41.261828 0.892840 2.173748 0.033790 0.010596 356841.000000 0 0 1
22.735656 26.571457 -23.519012 42.143757 0.863036 2.162850 0.034408 0.012695 955098.000000 0 0 1
23.565056 26.280357 -22.212712 41.705798 0.839819 2.132472 0.039931 0.011821 414757.000000 0 0 1
23.259756 25.060857 -21.503612 40.391436 0.822655 2.132207 0.042323 0.009439 165993.000000 0 0 1
24.039056 24.975457 -20.322012 40.182506 0.804500 2.101039 0.046841 0.006903 -351722.000000 0 0 1
23.504256 23.929557 -19.344612 38.720637 0.794364 2.093927 0.041877 0.001607 -774902.000000 0 0 1
23.956856 22.591057 -19.456512 38.247126 0.756065 2.104477 0.044741 0.006783 239896.000000 0 0 1
23.439656 21.728457 -18.427012 36.893062 0.747531 2.093784 0.043576 0.006671 -412133.000000 0 0 1
23.641756 20.186057 -18.700612 36.278401 0.706714 2.112358 0.058617 0.006695 -63208.500000 0 0 1
22.977856 19.608357 -19.780112 36.107095 0.706441 2.150550 0.049767 0.001201 -335009.000000 0 0 1
21.583256 19.597757 -19.636112 35.149479 0.737222 2.163549 0.038379 -0.001513 -467142.000000 0 0 1
20.704756 19.411957 -20.907812 35.251207 0.753183 2.205711 0.040281 0.004409 146572.000000 0 0 1
20.742856 20.367257 -21.970412 36.438856 0.776262 2.217976 0.039113 0.003615 -256786.000000 0 0 1
20.634956 21.754157 -21.607412 36.958422 0.811795 2.195234 0.036317 0.008183 -149800.000000 0 0 1
20.184256 22.573057 -22.821612 37.917978 0.841209 2.216634 0.045613 0.004140 -1322870.000000 0 0 1
18.914156 22.313457 -23.210312 37.341053 0.867664 2.241550 0.047072 -0.003350 -2024910.000000 0 0 1
18.555956 22.974357 -24.401412 38.308921 0.891389 2.261350 0.042712 -0.005822 -126115.000000 0 0 1
17.088056 22.948857 -24.848412 37.895847 0.930751 2.285909 0.038597 -0.009389 -39862.600000 0 0 1
16.248556 23.710057 -24.015912 37.455926 0.970003 2.266829 0.036414 -0.005685 582873.000000 0 0 1
14.870656 23.784257 -24.384512 37.167616 1.012031 2.286394 0.039095 -0.007995 997568.000000 0 0 1
14.040756 24.892757 -23.646912 37.094051 1.057230 2.262026 0.029780 -0.000184 202699.000000 0 0 1
14.271056 26.210457 -24.061812 38.335647 1.072201 2.249342 0.020733 0.004434 129746.000000 0 0 1
13.306756 27.100657 -23.526512 38.275476 1.114365 2.232755 0.018027 0.005505 167615.000000 0 0 1
13.424256 28.525657 -24.090912 39.677396 1.130942 2.223290 0.013520 -0.002290 122570.000000 0 0 1
12.991556 28.716657 -25.463022 40.519037 1.145944 2.250318 0.026460 -0.013558 -106961.000000 0 0 1
12.589856 30.046657 -25.783742 41.546448 1.174010 2.240304 0.044454 -0.019961 -200831.000000 0 0 1
13.625056 31.218657 -25.701732 42.671134 1.159276 2.217202 0.052697 -0.020408 488712.000000 0 0 1
14.526956 31.076057 -26.844202 43.558752 1.133514 2.234801 0.040586 -0.011717 281590.000000 0 0 1
15.470656 32.109457 -26.846402 44.621605 1.121806 2.216356 0.036455 -0.022677 -89094.700000 0 0 1
16.839256 31.834157 -27.499012 45.311916 1.084244 2.222929 0.026636 -0.015001 352458.000000 0 0 1
17.723656 31.016557 -26.709162 44.604193 1.051652 2.212803 0.006948 -0.010717 152074.000000 0 0 1
18.981056 31.003457 -27.355862 45.495472 1.021437 2.215908 0.029057 -0.004968 279135.000000 0 0 1
20.099856 30.347657 -26.437232 44.987906 0.985809 2.198950 0.022037 0.007871 196165.000000 0 0 1
20.490956 31.006657 -25.250282 44.931823 0.986827 2.167560 0.032135 0.001153 92431.000000 0 0 1
21.062056 32.316357 -25.281872 46.120821 0.993195 2.150966 0.032324 -0.005385 745483.000000 0 0 1
22.542856 32.452457 -25.826142 47.205210 0.963675 2.149696 0.022471 0.001013 663207.000000 0 0 1
22.657456 32.078257 -27.169352 47.755089 0.955843 2.176002 0.021523 0.007236 -305674.000000 0 0 1
23.947056 32.317857 -27.659182 48.815322 0.933090 2.173180 0.030435 0.009798 -668954.000000 0 0 1
24.087056 31.619957 -29.005212 49.206811 0.919806 2.201181 0.031208 0.003360 -713709.000000 0 0 1
23.278056 31.926157 -30.031452 49.628978 0.940792 2.220712 0.039412 -0.015734 -1252040.000000 0 0 1
22.009556 31.342657 -29.990772 48.643901 0.958580 2.235133 0.029466 -0.011641 -965208.000000 0 0 1
21.020256 31.991757 -30.926852 49.211724 0.989479 2.250349 0.020973 -0.007058 -756351.000000 0 0 1
20.442956 33.217457 -30.489202 49.506619 1.019110 2.234275 0.032011 -0.013550 1122250.000000 0 0 1
19.399856 33.838757 -31.310532 50.017649 1.050238 2.247196 0.033596 -0.021319 1171240.000000 0 0 1
17.936956 33.383257 -31.016402 48.971353 1.077753 2.256681 0.046538 -0.022153 -90897.600000 0 0 1
17.555456 32.110257 -31.406612 48.224868 1.070472 2.280031 0.043391 -0.017139 -96497.400000 0 0 1
17.821156 31.539457 -32.647712 48.766833 1.056477 2.304285 0.054945 -0.019151 -785032.000000 0 0 1
17.273356 32.203657 -33.896672 49.844043 1.078471 2.318633 0.064214 -0.027452 -347093.000000 0 0 1
17.729256 33.575257 -34.055422 51.003883 1.084965 2.301915 0.059124 -0.027383 -25514.200000 0 0 1
17.553356 34.080257 33.109684 50.654076 1.095174 0.858408 0.059148 -0.023390 -56947.100000 0 0 1
16.128256 -34.171463 32.600748 49.906095 -1.129815 0.858938 0.060882 -0.027322 -338408.000000 0 0 1
15.254356 33.275457 32.494370 48.947272 1.140957 0.844822 0.067389 -0.028759 1423470.000000 0 0 1
13.833656 33.584257 32.518049 48.751368 1.180066 0.840597 0.058897 -0.031880 1638640.000000 0 0 1
13.349456 -34.286263 31.183160 48.230129 -1.199502 0.867744 0.050926 -0.036718 -930692.000000 0 0 1
13.820556 -32.972263 30.943110 47.282703 -1.173885 0.857371 0.062839 -0.022913 210537.000000 0 0 1
13.065956 -32.406563 29.885020 45.978462 -1.187544 0.863240 0.062095 -0.024340 21018.200000 0 0 1
13.443656 -30.954363 29.452090 44.792076 -1.161070 0.853262 0.066289 -0.019183 -55633.600000 0 0 1
13.193856 -30.026163 30.482490 44.775334 -1.156782 0.821959 0.060493 -0.017299 420379.000000 0 0 1
13.756556 -28.775163 30.103930 43.857718 -1.124846 0.814269 0.067395 -0.026364 -50861.600000 0 0 1
13.306756 -27.674563 31.097100 43.703328 -1.122602 0.779095 0.056929 -0.014294 812089.000000 0 0 1
11.951756 -27.241363 30.879150 42.877246 -1.157349 0.766741 0.046124 -0.015934 787194.000000 0 0 1
11.611256 -26.048563 30.118820 41.478817 -1.151479 0.758127 0.036933 -0.014437 67502.200000 0 0 1
12.148156 -24.744463 30.733390 41.284470 -1.114419 0.731116 0.047962 -0.014918 -318736.000000 0 0 1
11.298856 -24.396763 31.766300 41.616872 -1.137078 0.702385 0.035151 -0.020533 -130189.000000 0 0 1
11.549756 -23.079463 32.190320 41.258638 -1.106801 0.675798 0.041274 -0.019790 346790.000000 0 0 1
10.496556 -22.649763 33.291972 41.611836 -1.136831 0.643401 0.046025 -0.018281 239953.000000 0 0 1
10.403456 -23.383463 -33.915212 42.488349 -1.152186 2.495137 0.048285 -0.018369 300851.000000 0 0 1
11.598056 -23.579963 -33.166082 42.314519 -1.113681 2.471556 0.050327 -0.008519 405485.000000 0 0 1
12.202356 -22.377163 -32.389992 41.215852 -1.071566 2.474886 0.050203 -0.017615 222820.000000 0 0 1
12.800856 -21.351663 -33.172382 41.474840 -1.030726 2.497791 0.042844 -0.014897 862808.000000 0 0 1
13.830356 -20.532663 -32.586132 40.923404 -0.978024 2.491903 0.039156 -0.015264 452556.000000 0 0 1
14.116756 -19.293263 -33.450612 41.115158 -0.939115 2.521085 0.028753 -0.008223 -406973.000000 0 0 1
14.673956 -19.585863 33.716547 41.662172 -0.927800 0.627863 0.043355 -0.002889 353870.000000 0 0 1
14.436256 -18.573363 32.745069 40.318915 -0.910078 0.622966 0.029111 -0.003458 -468474.000000 0 0 1
15.281856 -17.331763 32.841698 40.155974 -0.848170 0.613126 0.039474 -0.006968 -1295470.000000 0 0 1
15.050056 -16.498063 33.956131 40.641224 -0.831264 0.581737 0.028895 -0.004661 424762.000000 0 0 1
15.891256 -15.353963 34.078873 40.615832 -0.768204 0.575254 0.045917 -0.005421 -452176.000000 0 0 1
17.396556 -15.477663 -34.158748 41.340274 -0.727094 2.543272 0.054590 -0.008528 -509580.000000 0 0 1
18.084656 -15.935263 33.113094 40.956860 -0.722302 0.629219 0.063981 -0.010110 365709.000000 0 0 1
19.477756 -15.990663 33.348488 41.799592 -0.687398 0.647128 0.087156 -0.010114 -74116.000000 0 0 1
20.441256 -16.687063 32.398735 41.784938 -0.684627 0.683498 0.098924 -0.015436 -344313.000000 0 0 1
20.652656 -15.924263 31.188150 40.654828 -0.656839 0.696418 0.088048 -0.009938 585106.000000 0 0 1
21.422456 -16.692063 30.256870 40.657408 -0.661920 0.731474 0.078142 -0.017110 -74616.900000 0 0 1
21.747256 -15.955663 28.973590 39.585291 -0.632978 0.749649 0.077034 -0.007799 147013.000000 0 0 1
22.645356 -14.864563 29.164430 39.803660 -0.580866 0.748505 0.063048 -0.004167 454084.000000 0 0 1
23.014956 -14.152463 28.012600 38.918970 -0.551321 0.767329 0.059577 -0.004678 368374.000000 0 0 1
23.623756 -12.724063 28.413450 39.080785 -0.494059 0.756790 0.058067 0.004267 1149760.000000 0 0 1
22.601156 -11.720263 28.672840 38.344603 -0.478392 0.726103 0.068726 -0.004346 902319.000000 0 0 1
23.183156 -10.513863 29.169550 38.715148 -0.425772 0.717518 0.056535 -0.001246 -5876.460000 0 0 1
22.179856 -9.376863 29.143820 37.805209 -0.399976 0.690552 0.068201 -0.007634 161004.000000 0 0 1
21.187056 -9.426663 30.172360 38.054233 -0.418626 0.655279 0.084870 -0.024901 -146650.000000 0 0 1
20.320256 -8.348263 29.911160 37.111775 -0.389811 0.633476 0.069679 -0.018512 159300.000000 0 0 1
19.041356 -8.280663 30.789280 37.136537 -0.410207 0.593330 0.058175 -0.013914 48875.900000 0 0 1
19.275156 -7.855763 32.091680 38.250759 -0.387006 0.575387 0.071134 -0.022692 224908.000000 0 0 1
19.846756 -8.792763 33.013249 39.510518 -0.417045 0.581652 0.083845 -0.024899 -126708.000000 0 0 1
19.921556 -8.199863 -34.024412 40.271165 -0.390473 2.577142 0.097096 -0.033791 307538.000000 0 0 1
18.627556 -8.115663 -33.447252 39.135259 -0.410882 2.595688 0.081600 -0.044203 138525.000000 0 0 1
18.658256 -7.502663 -32.218632 37.979741 -0.382324 2.583584 0.089973 -0.047472 -451237.000000 0 0 1
17.285156 -7.112963 -31.677012 36.780483 -0.390387 2.608511 0.078664 -0.050391 -390131.000000 0 0 1
17.332356 -6.269263 -30.524752 35.657744 -0.347067 2.598372 0.082034 -0.046885 -183737.000000 0 0 1
16.104156 -6.339463 -29.858852 34.512080 -0.375024 2.616288 0.066140 -0.041514 -142086.000000 0 0 1
15.940356 -5.130663 -28.841442 33.350373 -0.311395 2.615551 0.056220 -0.032572 94692.100000 0 0 1
16.759156 -5.313863 -27.671062 32.784053 -0.307045 2.575569 0.056312 -0.025734 229349.000000 0 0 1
16.384856 -6.322163 -26.769272 32.016045 -0.368252 2.560969 0.077448 -0.032485 -4781.780000 0 0 1
15.010356 -6.158763 -26.084842 30.719051 -0.389355 2.585155 0.064684 -0.026544 50070.300000 0 0 1
15.023656 -5.041163 -25.184932 29.755745 -0.323743 2.579964 0.051785 -0.015312 -42362.200000 0 0 1
13.719056 -4.704963 -24.736712 28.674973 -0.330381 2.611299 0.000660 -0.018381 -111627.000000 0 0 1
13.569556 -3.540563 -23.785712 27.612108 -0.255229 2.608862 0.000528 -0.003107 -129160.000000 0 0 1
13.832356 -2.296563 -24.432612 28.170211 -0.164528 2.620591 -0.005426 -0.007079 153834.000000 0 0 1
13.542556 -1.157563 -23.608212 27.241300 -0.085269 2.619210 -0.001761 0.000620 -89270.600000 0 0 1
13.951156 0.232437 -24.188312 27.924240 0.016659 2.618367 0.003715 -0.006480 -55294.500000 0 0 1
13.073056 0.846437 -25.147002 28.354769 0.064656 2.661323 0.008675 -0.007743 393615.000000 0 0 1
13.751856 1.956437 -25.681202 29.197009 0.141319 2.645782 0.007405 0.011366 -18347.700000 0 0 1
13.003956 2.675437 -26.830312 29.935371 0.202909 2.682093 0.012927 0.004408 984470.000000 0 0 1
11.741756 3.261437 -26.408672 29.084768 0.270934 2.709257 0.036366 -0.017353 1067060.000000 0 0 1
11.104856 3.823437 -27.526512 29.927334 0.331591 2.738311 0.054105 -0.013821 392181.000000 0 0 1
9.835356 4.710437 -27.263222 29.363339 0.446649 2.761090 0.065581 -0.021052 562291.000000 0 0 1
10.095856 5.894437 -26.496732 28.961137 0.528458 2.726072 0.065523 -0.040351 -479298.000000 0 0 1
8.943856 6.644437 -26.408592 28.662777 0.638945 2.742348 0.082792 -0.045078 -909116.000000 0 0 1
7.940656 5.242157 -31.333602 32.746432 0.583489 2.846776 0.062982 -0.023423 -88370.400000 0 0 1
8.034956 4.307457 -30.278842 31.621558 0.492101 2.849134 0.055729 -0.006137 407927.000000 0 0 1
7.953956 2.992357 -30.756762 31.909215 0.359831 2.872015 0.039233 -0.000170 -207078.000000 0 0 1
7.844156 1.927857 -29.663632 30.743755 0.240993 2.875733 0.044038 -0.001426 238987.000000 0 0 1
8.996856 1.674357 -28.850442 30.267059 0.184000 2.834433 0.060125 -0.004545 629519.000000 0 0 1
8.711056 0.708757 -27.869052 29.207343 0.081184 2.837702 0.048263 -0.004414 323789.000000 0 0 1
10.014056 0.214057 -27.175262 28.962424 0.021372 2.788460 0.040145 -0.015102 145600.000000 0 0 1
10.752056 -0.662943 -27.958442 29.961987 -0.061579 2.773820 0.012768 0.000978 -570967.000000 0 0 1
11.768456 -1.267843 -27.234362 29.695361 -0.107318 2.731603 0.017318 -0.007110 -647437.000000 0 0 1
12.309756 -2.530043 -27.845932 30.550403 -0.202709 2.717652 0.004914 -0.009709 304243.000000 0 0 1
11.377156 -3.655143 -27.930122 30.379128 -0.310855 2.737311 0.006083 -0.014593 601149.000000 0 0 1
11.990056 -4.849543 -28.341292 31.152983 -0.384349 2.713467 0.024785 -0.022500 -192369.000000 0 0 1
11.304756 -6.056343 -27.684292 30.510602 -0.491825 2.707772 0.005113 -0.024937 -51964.000000 0 0 1
11.546656 -6.152443 -26.315622 29.388599 -0.489568 2.680207 0.018174 -0.020810 -282152.000000 0 0 1
10.736556 -7.110243 -25.670312 28.719229 -0.584936 2.676627 0.020319 -0.027419 -163673.000000 0 0 1
10.703956 -7.000343 -24.139612 27.318498 -0.579179 2.654369 0.022743 -0.025252 342454.000000 0 0 1
11.996056 -7.091143 -23.528012 27.345146 -0.533867 2.606868 0.008177 -0.024216 343088.000000 0 0 1
11.870556 -7.061943 -22.118812 26.077250 -0.536670 2.583380 0.024100 -0.023243 -815863.000000 0 0 1
13.099856 -6.878343 -21.272112 25.911784 -0.483502 2.533858 0.032004 -0.021052 -479246.000000 0 0 1
13.518256 -5.517043 -20.986012 25.565479 -0.387485 2.533734 0.018828 -0.019073 1019980.000000 0 0 1
14.692556 -5.553143 -20.119312 25.524406 -0.361360 2.478737 0.027343 -0.015898 936750.000000 0 0 1
15.248456 -4.266943 -19.479312 25.103103 -0.272849 2.459051 0.030986 -0.011013 27243.600000 0 0 1
15.985756 -3.457343 -20.389512 26.138665 -0.212996 2.465545 0.026168 -0.006858 222314.000000 0 0 1
16.413656 -2.188943 -19.865012 25.861521 -0.132579 2.446712 0.029839 -0.001257 132518.000000 0 0 1
17.437956 -1.531943 -20.817812 27.199457 -0.087626 2.442422 0.017103 0.003810 55573.500000 0 0 1
18.675756 -2.187143 -20.863512 28.086537 -0.116580 2.408083 0.043801 -0.006680 -979419.000000 0 0 1
19.581956 -1.541443 -21.633512 29.220504 -0.078556 2.404393 0.060660 -0.005782 -130850.000000 0 0 1
20.858656 -2.377643 -21.997412 30.407612 -0.113498 2.379536 0.064116 -0.011088 -191105.000000 0 0 1
21.697256 -2.576443 -20.909012 30.242284 -0.118192 2.334198 0.050889 -0.008810 1298690.000000 0 0 1
23.028656 -3.123443 -21.144712 31.419321 -0.134810 2.309033 0.034672 -0.012196 1829070.000000 0 0 1
24.118956 -2.401943 -21.976512 32.717892 -0.099260 2.307294 0.044166 -0.019010 -763062.000000 0 0 1
23.707356 -2.183743 -23.308212 33.317866 -0.091853 2.345593 0.060757 -0.024249 377464.000000 0 0 1
24.566756 -1.371743 -24.137512 34.467762 -0.055779 2.346603 0.060988 -0.022850 73835.000000 0 0 1
25.802356 -2.039443 -24.788112 35.838128 -0.078877 2.334593 0.062071 -0.030473 -43087.800000 0 0 1
26.803256 -2.166143 -23.740712 35.870992 -0.080641 2.294061 0.050106 -0.021153 1067390.000000 0 0 1
27.986356 -2.884943 -24.129112 37.064445 -0.102721 2.279703 0.037605 -0.017895 402259.000000 0 0 1
29.046056 -2.186143 -24.962812 38.361368 -0.075123 2.279339 0.039530 -0.024154 -1119270.000000 0 0 1
28.589156 -1.769943 -26.225882 38.836444 -0.061831 2.312155 0.061294 -0.034121 -112858.000000 0 0 1
29.420256 -0.802543 -26.759022 39.777390 -0.027272 2.308674 0.063424 -0.038026 -552883.000000 0 0 1
28.861656 -0.446243 -28.185882 40.343999 -0.015460 2.344289 0.070252 -0.039919 -308493.000000 0 0 1
27.547156 -0.027743 -28.350152 39.529453 -0.001007 2.370559 0.072931 -0.034173 -384195.000000 0 0 1
27.249156 1.256757 -27.796552 38.945401 0.046088 2.365607 0.062057 -0.025105 -1705410.000000 0 0 1
25.802256 1.568457 -28.067912 38.157884 0.060713 2.397309 0.072082 -0.031339 -1112120.000000 0 0 1
24.989156 0.919157 -27.059442 36.844486 0.036766 2.395613 0.083289 -0.030100 153851.000000 0 0 1
23.650356 1.202757 -27.418722 36.229439 0.050812 2.429212 0.061883 -0.026457 80335.600000 0 0 1
22.612156 0.796857 -26.318752 34.707654 0.035226 2.431495 0.055080 -0.020028 117789.000000 0 0 1
22.452356 1.748357 -25.265352 33.845281 0.077713 2.413576 0.063099 -0.021807 82956.600000 0 0 1
21.416256 1.397857 -24.400112 32.495776 0.065178 2.420175 0.058475 -0.018063 -340971.000000 0 0 1
21.647756 1.937157 -22.988212 31.635989 0.089248 2.384226 0.050966 -0.010555 -258756.000000 0 0 1
21.355056 3.308057 -22.846512 31.447492 0.153686 2.384007 0.047075 -0.005031 351181.000000 0 0 1
21.420956 3.709757 -21.521612 30.590839 0.171483 2.351151 0.036088 -0.009073 -317939.000000 0 0 1
20.930156 5.149057 -21.254312 30.270943 0.241221 2.349189 0.040022 -0.001994 30956.600000 0 0 1
21.777056 6.144757 -21.844012 31.450899 0.275017 2.338581 0.035783 -0.001864 471380.000000 0 0 1
21.536256 7.468057 -21.370712 31.245632 0.333791 2.323971 0.031590 -0.006669 -221356.000000 0 0 1
22.031256 7.854857 -19.931812 30.730313 0.342482 2.276546 0.023594 -0.004520 -1139020.000000 0 0 1
23.382456 8.037457 -19.733812 31.634843 0.331086 2.244391 0.025456 -0.004817 -912605.000000 0 0 1
23.750756 8.108357 -18.344912 31.086647 0.328987 2.202006 0.038935 -0.018364 -38059.600000 0 0 1
23.461256 9.459557 -17.576812 30.803540 0.383261 2.178045 0.044174 -0.031817 -134211.000000 0 0 1
22.098556 9.773457 -17.387612 29.769039 0.416404 2.194547 0.041639 -0.030968 -13475.200000 0 0 1
21.889856 11.148757 -17.150112 29.959755 0.471069 2.180273 0.028738 -0.023265 622022.000000 0 0 1
20.374556 11.586257 -16.980512 28.943076 0.517059 2.197757 0.026155 -0.024828 1205010.000000 0 0 1
19.654956 11.491457 -18.204312 29.150778 0.529063 2.245272 0.028494 -0.021986 392796.000000 0 0 1
18.997056 10.195757 -18.332912 28.300835 0.492576 2.275472 0.029373 -0.018173 -25899.000000 0 0 1
18.146356 10.121657 -19.628512 28.583503 0.508796 2.327747 0.041369 -0.014965 15153.900000 0 0 1
18.960756 10.171257 -20.749612 29.891656 0.492371 2.338050 0.047851 -0.018217 -360358.000000 0 0 1
18.133556 10.506357 -21.780112 30.225530 0.525125 2.375444 0.044262 -0.012861 -590551.000000 0 0 1
18.725356 10.545957 -23.210312 31.631862 0.512914 2.394641 0.057256 -0.014429 -453217.000000 0 0 1
19.555156 11.647957 -23.413612 32.653885 0.537212 2.370319 0.047763 -0.008330 -85181.200000 0 0 1
19.970856 11.766857 -24.756912 33.914579 0.532442 2.389087 0.058279 -0.006673 16266.600000 0 0 1
20.893556 12.983057 -25.016012 35.084203 0.555999 2.364604 0.058385 -0.021353 -1502.650000 0 0 1
21.207856 13.352357 -26.306962 36.333384 0.561897 2.380443 0.074650 -0.024659 164220.000000 0 0 1
21.169856 14.788557 -26.433372 36.953854 0.609763 2.367860 0.084258 -0.018276 79541.000000 0 0 1
19.892956 15.367457 -27.097192 36.961415 0.657751 2.393696 0.068080 -0.015327 569643.000000 0 0 1
18.718256 15.162157 -26.319362 35.678746 0.680821 2.400418 0.058099 -0.018964 -112174.000000 0 0 1
17.551856 15.544057 -27.005802 35.763091 0.724806 2.426650 0.047361 -0.019760 -126367.000000 0 0 1
16.278756 15.143757 -26.248122 34.399057 0.749293 2.438812 0.042687 -0.022517 -124762.000000 0 0 1
16.095356 13.750257 -26.091762 33.599257 0.706985 2.459980 0.039768 -0.009880 -772839.000000 0 0 1
14.780756 13.439157 -25.767052 32.604028 0.737893 2.482099 0.026435 -0.014340 -598154.000000 0 0 1
14.644656 11.949657 -25.342282 31.614735 0.684405 2.500758 0.023170 -0.012010 -472394.000000 0 0 1
13.349356 11.450157 -25.478212 30.958854 0.708965 2.537416 0.034711 -0.012048 -469395.000000 0 0 1
13.247056 10.073857 -25.086562 30.104861 0.650162 2.555858 0.044325 -0.010240 -87499.000000 0 0 1
11.830756 9.465257 -24.978112 29.214105 0.674775 2.596351 0.067400 -0.040525 669488.000000 0 0 1
11.034656 9.959357 -23.850912 28.103708 0.734224 2.584271 0.072703 -0.041580 437828.000000 0 0 1
9.951256 9.111357 -23.524912 27.119472 0.741367 2.620859 0.089929 -0.040291 -265321.000000 0 0 1
9.091056 9.729357 -22.423912 26.079484 0.819300 2.605732 0.082843 -0.041860 -406761.000000 0 0 1
8.422456 10.863957 -23.016612 26.809098 0.911320 2.603207 0.074231 -0.044984 69917.600000 0 0 1
7.709756 11.692657 -22.131312 26.190714 0.987864 2.577373 0.067695 -0.026004 98229.400000 0 0 1
8.634356 12.625457 -21.317012 26.236792 0.970968 2.519199 0.056293 -0.028957 -61089.300000 0 0 1
9.471256 11.915057 -20.437312 25.482484 0.899174 2.501456 0.071420 -0.038432 -659831.000000 0 0 1
10.192956 12.777657 -19.629112 25.543431 0.897449 2.447228 0.063844 -0.036247 -612273.000000 0 0 1
11.168156 11.908857 -18.766612 24.874370 0.817484 2.425621 0.061371 -0.044432 790701.000000 0 1 0
12.341356 11.401657 -19.460612 25.710353 0.745841 2.429379 0.058980 -0.045549 693551.000000 0 0 1
12.170956 10.436657 -20.524712 26.044573 0.708835 2.478449 0.071432 -0.046975 -871693.000000 0 0 1
13.446756 9.866257 -21.177312 26.956201 0.633005 2.474493 0.066603 -0.048592 150034.000000 0 0 1
14.108156 8.817757 -20.488512 26.392651 0.558607 2.459565 0.077199 -0.045246 1047980.000000 0 0 1
15.126356 8.129857 -21.276512 27.342113 0.493167 2.462526 0.061802 -0.041682 743555.000000 0 0 1
15.801356 6.874357 -20.673612 26.913525 0.410351 2.446742 0.094916 -0.035636 240533.000000 0 0 1
16.566556 7.246357 -19.535212 26.619259 0.412334 2.394806 0.056446 -0.030488 16548.700000 0 0 1
17.050956 6.080357 -18.900612 26.171338 0.342542 2.377756 0.043953 -0.031840 -139769.000000 0 0 1
17.912356 6.315257 -17.660412 25.935017 0.338957 2.319853 0.075827 -0.025602 -516619.000000 0 0 1
19.209056 6.794657 -17.939412 27.147333 0.339986 2.292703 0.062738 -0.029199 222297.000000 0 0 1
20.000056 7.023157 -16.774912 27.031919 0.337705 2.240252 0.048523 -0.044394 276201.000000 0 0 1
20.634956 5.781357 -16.050012 26.773651 0.273169 2.213636 0.040969 -0.044598 -155105.000000 0 0 1
21.685756 5.222957 -16.851912 27.956005 0.236346 2.217803 0.035865 -0.033739 733508.000000 0 0 1
22.438156 4.254657 -16.128912 27.959162 0.187392 2.185693 0.062183 -0.039739 844590.000000 0 0 1
23.763756 3.809757 -16.866012 29.388649 0.158965 2.182051 0.018157 0.000569 1027130.000000 0 0 1
24.546856 2.897157 -16.102112 29.499486 0.117482 2.148192 0.016530 -0.000951 860157.000000 0 0 1
25.752056 2.413857 -16.717212 30.797082 0.093461 2.144585 0.016407 -0.007910 201498.000000 0 0 1
26.315856 1.181457 -15.968912 30.804647 0.044865 2.115767 0.035288 -0.020131 -1006240.000000 0 0 1
25.655656 -0.049543 -16.086612 30.281912 -0.001931 2.130846 0.048880 -0.010908 84883.400000 0 0 1
26.586856 -1.124143 -16.094312 31.099059 -0.042257 2.114744 0.046738 -0.005960 -84762.000000 0 0 1
25.940956 -2.493043 -16.429112 30.806885 -0.095810 2.133285 0.031913 -0.008136 -209887.000000 0 0 1
25.116656 -2.963043 -15.401712 29.611463 -0.117429 2.117796 0.036562 -0.005035 178550.000000 0 0 1
25.058556 -4.396143 -15.418612 29.748797 -0.173668 2.115651 0.041192 -0.000665 -818870.000000 0 0 1
24.482956 -5.059943 -14.143412 28.723758 -0.203803 2.085635 0.039332 -0.001528 -284210.000000 0 0 1
23.124956 -4.883343 -13.867012 27.402639 -0.208114 2.101391 0.040910 0.002776 354494.000000 0 0 1
22.206556 -5.612543 -14.705712 27.219290 -0.247558 2.141552 0.044658 0.003077 147590.000000 0 0 1
20.733056 -5.609643 -14.221812 25.760195 -0.264239 2.155659 0.043683 0.002687 -36157.500000 0 0 1
20.488856 -6.555443 -13.222112 25.250570 -0.309659 2.121910 0.043382 0.000197 345130.000000 0 0 1
20.778356 -6.102643 -11.911512 24.715713 -0.285669 2.073665 0.055504 -0.007528 -583390.000000 0 1 0
20.568156 -7.234143 -10.835512 24.347283 -0.338202 2.032015 0.071457 -0.013459 480961.000000 0 1 0
19.262056 -7.798143 -10.619512 23.336921 -0.384676 2.043227 0.079465 -0.024311 1189540.000000 0 1 0
18.995356 -8.808243 -11.558812 23.916832 -0.434192 2.075207 0.061655 -0.024464 -326727.000000 0 1 0
17.605556 -9.495743 -11.430312 23.038593 -0.494638 2.089941 0.088355 -0.030580 477876.000000 0 1 0
16.604956 -8.500843 -11.709612 22.025075 -0.473159 2.131343 0.076612 -0.027065 1130000.000000 0 1 0
15.286256 -9.086943 -11.836812 21.362403 -0.536330 2.158072 0.068538 -0.029263 749995.000000 0 1 0
14.197756 -8.043743 -12.078612 20.301994 -0.515461 2.207996 0.052389 -0.027373 -1065120.000000 0 1 0
14.042556 -7.274443 -13.249212 20.631348 -0.477966 2.268146 0.040738 -0.023902 923721.000000 0 1 0
15.230956 -6.516643 -13.544412 21.398592 -0.404287 2.256164 0.041936 -0.017000 563725.000000 0 1 0
15.008856 -5.488843 -14.647412 21.678096 -0.350599 2.312680 0.024023 -0.007899 317005.000000 0 1 0
14.130056 -4.460443 -14.152812 20.490391 -0.305771 2.333260 0.042890 -0.016406 433982.000000 0 1 0
13.801256 -3.467343 -15.086912 20.739143 -0.246140 2.385410 0.032596 -0.022696 20031.700000 0 1 0
14.897556 -2.393743 -15.357712 21.529665 -0.159318 2.365032 0.038046 -0.021044 157499.000000 0 1 0
16.029556 -2.929543 -16.021512 22.852084 -0.180764 2.347730 0.031476 -0.015266 754568.000000 0 1 0
17.132356 -2.004043 -16.230112 23.684390 -0.116445 2.325765 0.046314 -0.003764 841575.000000 0 1 0
18.262456 -2.224643 -15.219012 23.876446 -0.121218 2.261925 0.049341 -0.005101 -914340.000000 0 1 0
17.863256 -2.090543 -13.905812 22.734069 -0.116500 2.228970 0.042952 -0.003403 63582.900000 0 1 0
18.847456 -2.576843 -13.002612 23.042019 -0.135879 2.170381 0.043026 0.001287 -23690.400000 0 1 0
18.361856 -2.717443 -11.571512 21.873320 -0.146927 2.128246 0.040937 0.001060 -543388.000000 0 1 0
18.294656 -1.519643 -10.823712 21.310948 -0.082875 2.103535 0.041671 0.000742 649601.000000 0 1 0
17.826456 -1.747343 -9.483012 20.267295 -0.097708 2.057706 0.045968 -0.001573 -862071.000000 0 1 0
17.681956 -0.546443 -8.567012 19.655632 -0.030894 2.021785 0.033959 -0.000105 739407.000000 0 1 0
18.873456 0.049957 -7.954112 20.481156 0.002647 1.969650 0.036169 -0.000971 1891350.000000 0 1 0
19.884056 0.573857 -8.806212 21.754410 0.028852 1.987558 0.034542 0.005360 24342.800000 0 1 0
19.389656 1.817157 -9.579612 21.703220 0.093445 2.027945 0.026115 0.005276 -579827.000000 0 1 0
19.159756 2.907257 -8.678112 21.233417 0.150589 1.991826 0.017695 0.008169 738571.000000 0 1 0
18.469656 3.953957 -9.388112 21.092620 0.210895 2.032071 0.007416 0.003200 -588896.000000 0 1 0
18.667656 5.329757 -8.809712 21.318975 0.278109 1.996798 0.032610 0.005659 -137535.000000 0 1 0
18.026856 6.246157 -9.701112 21.403121 0.333546 2.041212 0.028930 0.001009 967990.000000 0 1 0
18.642356 7.532957 -9.469812 22.225216 0.384017 2.010956 0.059476 0.007111 -125140.000000 0 1 0
-26.309094 -29.444453 5.915888 39.926708 0.841575 1.422080 0.053519 -0.008061 -109551.000000 0 0 1
-26.101794 -28.398483 6.828388 39.171474 0.827514 1.395581 0.039476 -0.005700 149444.000000 0 0 1
-24.837944 -27.751983 6.738988 37.848514 0.840752 1.391790 0.043022 -0.004113 -330422.000000 0 0 1
-24.699044 -26.525203 7.714588 37.055959 0.821033 1.361075 0.035304 0.003218 453456.000000 0 0 1
-25.642424 -25.401763 7.480488 36.861107 0.780683 1.366440 0.044065 -0.006472 625713.000000 0 0 1
-26.995714 -25.664703 7.706288 38.037251 0.760128 1.366786 0.019016 -0.007937 -542167.000000 0 0 1
-27.336404 -25.554763 9.259488 38.549488 0.751726 1.328227 0.038371 -0.004335 -302495.000000 0 0 1
-26.669644 -26.547553 10.015388 38.940345 0.783104 1.310675 0.032069 -0.006787 47225.100000 0 0 1
-27.274144 -26.673303 11.291888 39.785057 0.774261 1.283018 0.034272 -0.007193 -193715.000000 0 0 1
-26.449764 -27.601743 12.186688 40.124327 0.806708 1.262198 0.023422 -0.001353 1122650.000000 0 0 1
-25.229144 -27.004613 12.706088 39.079452 0.819376 1.239642 0.017101 0.005370 883426.000000 0 0 1
-25.430564 -26.263723 13.881188 39.104784 0.801514 1.207910 0.025539 0.007007 -233612.000000 0 0 1
-24.091644 -25.683753 14.416988 38.051440 0.817373 1.182209 0.032299 0.011630 711168.000000 0 0 1
-23.250144 -26.772593 14.868988 38.450329 0.855699 1.173739 0.029167 0.014823 -293372.000000 0 0 1
-22.123644 -26.312473 15.537588 37.725569 0.871665 1.146304 0.039022 0.011460 -176974.000000 0 0 1
-21.276444 -27.452753 16.209488 38.328687 0.911474 1.134145 0.041062 -0.001913 40051.600000 0 0 1
-22.089144 -28.096003 17.188988 39.658253 0.904525 1.122503 0.051868 -0.004450 509033.000000 0 0 1
-21.483944 -29.256743 17.703288 40.384691 0.937403 1.117016 0.046350 0.000972 -378121.000000 0 0 1
-22.451144 -30.059993 18.564188 41.860317 0.929296 1.111319 0.053162 -0.017879 8535.170000 0 0 1
-23.597244 -30.473223 17.825588 42.464089 0.911886 1.137593 0.032228 -0.010070 574826.000000 0 0 1
-24.253144 -31.512403 18.570188 43.887338 0.914845 1.133896 0.036302 -0.005759 -302674.000000 0 0 1
-25.179744 -32.440673 17.767388 44.744797 0.910751 1.162460 0.031390 -0.012038 -101497.000000 0 0 1
-24.563344 -33.409843 16.922988 44.787979 0.936826 1.183327 0.026951 -0.008338 88052.100000 0 0 1
-25.513434 -34.267778 16.319288 45.733304 0.930804 1.205918 0.020839 -0.004430 -576244.000000 0 0 1
-24.965244 33.598452 15.045088 44.480042 -0.931760 1.225746 0.016537 -0.005385 351866.000000 0 0 1
-23.840744 32.748098 15.259688 43.285992 -0.941522 1.210521 0.009622 -0.006314 -69271.700000 0 0 1
-22.634444 33.430702 15.160488 43.125054 -0.975636 1.211573 0.010830 -0.004896 -1486830.000000 0 0 1
-21.433844 32.518426 15.003788 41.736931 -0.988030 1.203081 0.021153 -0.004122 -512947.000000 0 0 1
-21.515744 31.756346 13.850388 40.782668 -0.975313 1.224289 0.018217 0.005769 327370.000000 0 0 1
-20.381444 30.908416 13.663688 39.464286 -0.987832 1.217248 0.025972 -0.001497 415532.000000 0 0 1
-20.453344 30.060166 12.366288 38.404140 -0.973337 1.242951 0.022453 -0.004369 218541.000000 0 0 1
-19.781044 30.661956 11.274188 38.191001 -0.997850 1.271126 0.013795 0.001575 3024.410000 0 0 1
-19.948444 29.931196 10.075288 37.354094 -0.982925 1.297690 0.029837 -0.007626 -21341.100000 0 0 1
-19.382244 30.691476 8.887088 37.371358 -1.007523 1.330691 0.020224 -0.007094 1194090.000000 0 0 1
-17.930444 30.761766 8.872688 36.694845 -1.043060 1.326579 0.021383 -0.015851 1122170.000000 0 0 1
-17.439944 31.211326 7.617688 36.555816 -1.061245 1.360873 0.033253 -0.018753 104566.000000 0 0 1
-16.894044 30.143196 6.621988 35.183401 -1.059958 1.381454 0.040544 -0.019971 363915.000000 0 0 1
-17.926744 29.242946 6.169688 34.850870 -1.020852 1.392827 0.031684 -0.008916 593884.000000 0 0 1
-17.849344 27.935556 6.784388 33.838178 -1.002230 1.368933 0.021666 -0.004644 -669660.000000 0 0 1
-18.899344 27.009996 6.237388 33.550412 -0.960261 1.383797 0.026714 0.001421 -641795.000000 0 0 1
-18.603144 26.304596 5.079188 32.616053 -0.955241 1.414433 0.038166 -0.004699 -499234.000000 0 0 1
-19.734844 25.739066 4.531988 32.749084 -0.916675 1.431966 0.031303 -0.000397 -1704830.000000 0 0 1
-19.435444 24.874066 3.265388 31.735129 -0.907529 1.467719 0.046645 -0.006697 -1044640.000000 0 0 1
-19.138144 25.576446 2.051388 32.009863 -0.928402 1.506666 0.047365 -0.006990 761295.000000 0 0 1
-17.920044 26.321266 1.885388 31.898146 -0.973059 1.511655 0.047075 -0.007755 559705.000000 0 0 1
-16.577344 25.561056 2.153688 30.542009 -0.995449 1.500222 0.056024 -0.012715 -304739.000000 0 0 1
-16.331644 24.455036 1.265688 29.434221 -0.981993 1.527782 0.076744 -0.017990 110097.000000 0 0 1
-15.990644 24.834486 -0.089012 29.537439 -0.998729 1.573810 0.067193 -0.019304 -218191.000000 0 0 1
-15.611844 23.571086 -0.961912 28.288709 -0.985802 1.604806 0.071777 -0.021907 -51827.500000 0 0 1
-16.655344 22.615376 -1.076812 28.107210 -0.936017 1.609117 0.086092 -0.030739 117802.000000 0 0 1
-16.434544 21.490876 -1.926312 27.123102 -0.917940 1.641877 0.083412 -0.031593 -295256.000000 0 0 1
-15.396144 20.501176 -1.385612 25.676047 -0.926663 1.624788 0.080696 -0.033456 -214472.000000 0 0 1
-15.898844 19.671476 -0.346812 25.295464 -0.891064 1.584507 0.086752 -0.037123 775641.000000 0 0 1
-14.935644 18.671476 0.117688 23.910486 -0.896106 1.565874 0.092608 -0.042111 453872.000000 0 1 0
-15.540244 17.509576 0.934088 23.429831 -0.844915 1.530918 0.079734 -0.035468 234203.000000 0 1 0
-16.195144 16.470176 0.157688 23.099226 -0.793818 1.563970 0.071851 -0.034234 667661.000000 0 1 0
-17.131144 15.834476 1.004588 23.349859 -0.746084 1.527760 0.089676 -0.041310 -117622.000000 0 1 0
-17.850844 14.614476 0.436188 23.074354 -0.686040 1.551892 0.105326 -0.037669 -441067.000000 0 1 0
-18.782544 14.897976 -0.564412 23.980246 -0.670570 1.594335 0.116647 -0.040985 135834.000000 0 1 0
-19.565744 13.739676 -0.902312 23.925117 -0.612222 1.608519 0.110433 -0.030316 -245697.000000 0 1 0
-20.788644 14.092676 -1.767712 25.177292 -0.595741 1.641065 0.117328 -0.016848 -757292.000000 0 0 1
-21.536244 12.919676 -2.094612 25.201493 -0.540349 1.654007 0.101549 -0.020033 368027.000000 0 0 1
-22.606644 12.549976 -1.267512 25.887619 -0.506785 1.619778 0.115032 -0.019579 -541681.000000 0 0 1
-23.831944 13.456776 -1.139212 27.392411 -0.514023 1.612397 0.105019 -0.019814 -1057110.000000 0 0 1
-23.602944 14.416876 -0.155012 27.658079 -0.548329 1.576401 0.100399 -0.029218 -389938.000000 0 0 1
-24.570244 15.376476 -0.086912 28.985177 -0.559187 1.573795 0.072166 -0.022666 -774171.000000 0 0 1
-23.958544 16.698876 0.453688 29.207364 -0.608703 1.555262 0.064707 -0.025950 186931.000000 0 0 1
-23.855744 16.612676 1.861788 29.129775 -0.608293 1.506839 0.078448 -0.030129 75510.900000 0 0 1
-23.401644 17.788776 2.506688 29.501881 -0.649966 1.485727 0.072217 -0.033868 198876.000000 0 0 1
-24.500744 18.795276 3.011588 31.026094 -0.654375 1.473577 0.063821 -0.032553 219472.000000 0 0 1
-25.278394 18.141476 4.053188 31.377360 -0.622485 1.441259 0.064258 -0.034988 1165350.000000 0 0 1
-26.637904 18.622776 4.075288 32.756582 -0.610127 1.446062 0.050349 -0.039030 1100220.000000 0 0 1
-27.649394 18.073576 3.016988 33.169947 -0.578951 1.479715 0.048253 -0.035920 -1083670.000000 0 0 1
-28.820274 18.783076 3.077888 34.538175 -0.577591 1.481562 0.037071 -0.036820 -701376.000000 0 0 1
-29.714064 18.507276 2.001088 35.063503 -0.557049 1.513695 0.037943 -0.023078 195765.000000 0 0 1
-30.936414 19.474176 1.969888 36.608547 -0.561822 1.516961 0.044098 -0.030447 101586.000000 0 0 1
-31.962124 18.942076 2.804688 37.259172 -0.534991 1.495450 0.073320 -0.028672 96474.300000 0 0 1
-33.140244 19.719976 2.654988 38.654912 -0.536769 1.502058 0.070508 -0.028932 -197697.000000 0 0 1
-33.616744 20.417676 3.908888 39.525263 -0.545818 1.471738 0.056881 -0.031520 -493238.000000 0 0 1
-32.878584 21.621776 4.047888 39.558664 -0.581717 1.468291 0.051019 -0.036950 400440.000000 0 0 1
-32.901134 22.150376 5.341588 40.020699 -0.592540 1.436926 0.054715 -0.037003 -442940.000000 0 0 1
-31.724394 23.076176 5.656588 39.635137 -0.628876 1.427591 0.061580 -0.031765 -410591.000000 0 0 1
-31.840924 24.278966 4.935988 40.344474 -0.651458 1.448143 0.048165 -0.027347 581315.000000 0 0 1
-30.880884 25.195286 5.469388 40.228667 -0.684353 1.434416 0.047286 -0.025616 6847.290000 0 0 1
-31.289454 26.666536 5.297888 41.451197 -0.705801 1.442636 0.046398 -0.017854 -564173.000000 0 0 1
-32.339494 27.065306 6.137988 42.615121 -0.696846 1.426261 0.050329 -0.014095 -80435.200000 0 0 1
-32.624164 28.450076 5.973888 43.697028 -0.717160 1.433655 0.051026 -0.011630 132239.000000 0 0 1
-33.567174 28.948956 7.113188 44.893147 -0.711660 1.411679 0.049061 -0.004868 -82307.400000 0 0 1
-32.931144 28.901016 8.419288 44.616291 -0.720312 1.380954 0.053905 -0.007105 845246.000000 0 0 1
-33.724354 29.469666 9.500688 45.782708 -0.718172 1.361760 0.067282 -0.012235 75214.400000 0 0 1
-35.081380 28.843966 9.874988 46.477876 -0.688133 1.356698 0.067567 -0.010984 -417772.000000 0 0 1
-35.001614 27.596366 10.436288 45.777599 -0.667647 1.340796 0.066888 -0.016109 -291261.000000 0 0 1
-36.086244 27.161016 11.190488 46.531332 -0.645207 1.327922 0.072012 -0.017343 -427368.000000 0 0 1
-35.756536 25.719256 11.624788 45.553767 -0.623554 1.312754 0.079597 -0.020170 -47139.000000 0 0 1
-34.620226 25.790666 12.478388 44.938054 -0.640267 1.289418 0.084222 -0.024276 110816.000000 0 0 1
-34.255796 24.600536 13.122488 44.168378 -0.622799 1.269141 0.082953 -0.023787 156010.000000 0 0 1
-32.897394 24.760746 13.853088 43.442389 -0.645205 1.246244 0.068965 -0.027651 118195.000000 0 0 1
-32.955064 25.848796 14.749688 44.404390 -0.665134 1.232196 0.070010 -0.013349 362703.000000 0 0 1
-31.700694 26.146356 15.371988 43.873272 -0.689674 1.212828 0.090639 -0.016125 417971.000000 0 0 1
-31.647534 27.315176 16.401788 44.907727 -0.712054 1.196913 0.062854 -0.002512 -200061.000000 0 0 1
-31.689184 28.605346 15.889388 45.551541 -0.734296 1.214482 0.088606 -0.009791 60129.300000 0 0 1
-32.039014 29.623026 16.859388 46.778853 -0.746237 1.202093 0.071592 -0.011953 -9756.710000 0 0 1
-32.043744 31.026846 16.251488 47.471861 -0.769276 1.221391 0.065687 -0.004662 -94486.300000 0 0 1
-30.720094 31.438196 16.036588 46.789492 -0.796950 1.220965 0.037318 0.000862 -454996.000000 0 0 1
-30.565974 32.640915 15.417688 47.301303 -0.818214 1.238784 0.042416 0.005388 126939.000000 0 0 1
-29.063334 32.799817 15.027688 46.328574 -0.845724 1.240449 0.035231 0.000727 423880.000000 0 0 1
-28.572004 32.072516 13.929688 45.155752 -0.843056 1.257201 0.025852 0.003999 -37340.100000 0 0 1
-28.124374 30.729906 14.149288 43.994430 -0.829640 1.243361 0.032876 -0.000579 -229597.000000 0 0 1
-29.123834 29.572126 13.900188 43.771264 -0.793036 1.247637 0.059124 -0.001640 -67513.500000 0 0 1
-29.428994 29.524666 12.528288 43.528492 -0.787021 1.278849 0.062858 -0.006543 -189940.000000 0 0 1
-30.353334 28.543496 12.142888 43.399376 -0.754679 1.287217 0.057786 -0.008719 61701.700000 0 0 1
-30.451004 28.457986 10.578088 43.000193 -0.751579 1.322244 0.060866 -0.006691 266708.000000 0 0 1
-29.367714 27.725436 9.980488 41.602555 -0.756641 1.328533 0.052296 -0.000992 63884.800000 0 0 1
-29.489284 27.571306 8.576888 41.271756 -0.751798 1.361456 0.054799 -0.005896 645098.000000 0 0 1
-28.243994 26.938276 7.832488 39.808816 -0.761741 1.372752 0.065280 -0.004736 703631.000000 0 0 1
-28.289344 26.979526 6.403188 39.612910 -0.761704 1.408440 0.049249 -0.005504 -299348.000000 0 0 1
-27.123214 26.333046 5.911988 38.262902 -0.770618 1.415665 0.053183 -0.005030 31851.700000 0 0 1
-26.784064 26.766226 4.476488 38.129462 -0.785065 1.453123 0.047876 -0.004740 21585.700000 0 0 1
-25.986764 27.942226 4.306188 38.400822 -0.821642 1.458422 0.033958 0.001862 397895.000000 0 0 1
-25.683184 28.244456 2.960088 38.290173 -0.832857 1.493412 0.028695 0.004990 -93090.000000 0 0 1
-24.629944 29.342086 2.727688 38.406151 -0.872484 1.499714 0.018078 0.005385 355010.000000 0 0 1
-23.288844 28.985856 2.974188 37.301420 -0.893952 1.490978 0.006669 0.007891 170740.000000 0 0 1
-22.293844 29.950166 2.721688 37.435752 -0.930912 1.498029 0.011878 0.015616 1243820.000000 0 0 1
-20.813744 29.496036 3.006988 36.225268 -0.956292 1.487693 0.009448 0.002772 896979.000000 0 0 1
-19.879344 30.493656 2.764488 36.506079 -0.993074 1.494997 0.020389 0.007662 -495534.000000 0 0 1
-18.557944 30.175526 3.130288 35.563442 -1.019420 1.482662 0.031755 -0.005462 749505.000000 0 0 1
-17.456944 31.214436 2.693088 35.865564 -1.060873 1.495637 0.043814 -0.007197 345261.000000 0 0 1
-17.454544 32.385236 3.502788 36.955841 -1.076464 1.475871 0.043943 -0.010515 807636.000000 0 0 1
-16.381444 33.276683 3.096188 37.219293 -1.113344 1.487512 0.052152 -0.010081 611263.000000 0 0 1
-16.185244 -34.063970 3.974988 37.922510 1.127232 1.465785 0.055417 -0.012310 188983.000000 0 0 1
-17.116844 -32.987033 3.758388 37.353128 1.092146 1.470008 0.054269 -0.014863 430496.000000 0 0 1
-16.763544 -31.842003 4.538388 36.270188 1.086205 1.445340 0.050481 -0.016343 872983.000000 0 0 1
-17.953644 -30.785673 4.679488 35.944243 1.042835 1.440238 0.046146 -0.011834 865916.000000 0 0 1
-18.231744 -29.911533 3.605688 35.215015 1.023405 1.468226 0.063498 -0.015370 160010.000000 0 0 1
-19.348744 -29.109663 3.928488 35.173561 0.984167 1.458874 0.062946 -0.019449 15235.000000 0 0 1
-19.785744 -28.105033 2.823288 34.486802 0.957396 1.488839 0.063948 -0.026971 -109459.000000 0 0 1
-18.814844 -27.111283 2.656988 33.107093 0.964118 1.490456 0.071494 -0.027431 -492395.000000 0 0 1
-19.148644 -26.193463 1.647788 32.488202 0.939536 1.520055 0.070384 -0.022415 -164800.000000 0 0 1
-18.236544 -24.966143 1.465488 30.952019 0.939924 1.523432 0.059931 -0.016791 74696.400000 0 0 1
-16.987344 -25.222873 0.879988 30.422649 0.978085 1.541867 0.058391 -0.015149 -519380.000000 0 0 1
-16.051344 -24.169943 0.949788 29.029880 0.984570 1.538073 0.054295 -0.011456 253981.000000 0 0 1
-14.671244 -24.560143 0.384588 28.611081 1.032320 1.557354 0.055563 -0.012427 -272738.000000 0 0 1
-14.602344 -24.808943 -1.050112 28.806507 1.038807 1.607258 0.050485 -0.005038 90187.700000 0 0 1
-14.829344 -23.685443 -1.901312 28.009367 1.011410 1.638730 0.049124 -0.006637 -332054.000000 0 0 1
-15.021244 -24.010643 -3.390312 28.524428 1.011760 1.689934 0.027379 -0.002415 -266698.000000 0 0 1
-13.834544 -24.249543 -4.101512 28.218033 1.052345 1.716664 0.043854 0.000613 -26948.300000 0 0 1
-14.078444 -24.224643 -5.494312 28.552117 1.044343 1.764435 0.040123 0.001767 1077660.000000 0 0 1
-12.723244 -24.652243 -6.177112 28.421308 1.094345 1.789886 0.059775 -0.001544 943174.000000 0 0 1
-12.558144 -26.058713 -6.160912 29.575672 1.121719 1.780643 0.040248 0.004428 623523.000000 0 0 1
-11.343644 -26.505033 -6.801112 29.621785 1.166404 1.802461 0.054322 0.001137 780506.000000 0 0 1
23.352156 12.560357 28.445580 38.887489 0.493480 0.750300 0.026404 0.003051 -180488.000000 0 0 1
24.013556 11.288957 28.639390 39.042363 0.439449 0.747271 0.021552 0.000673 303274.000000 0 0 1
23.586356 10.482057 29.736720 39.375909 0.418197 0.714836 0.037649 0.000214 -161494.000000 0 0 1
23.812056 11.039157 31.119160 40.709693 0.434102 0.700661 0.057406 -0.011079 149175.000000 0 0 1
22.852756 12.056457 31.332220 40.611755 0.485461 0.689591 0.049877 -0.000621 197840.000000 0 0 1
22.917256 12.479257 32.705056 41.839612 0.498638 0.673446 0.049119 -0.002068 62250.100000 0 0 1
21.809056 13.535557 33.105315 41.890430 0.555457 0.659525 0.039273 -0.002324 342037.000000 0 0 1
20.581256 12.941557 33.458700 41.358876 0.561329 0.628373 0.039882 0.002126 -727813.000000 0 0 1
19.782356 13.873857 34.022389 41.729468 0.611615 0.617535 0.035690 0.001674 21514.800000 0 0 1
18.445056 13.347857 -33.790782 40.745580 0.626426 2.548671 0.026997 0.004130 574805.000000 0 0 1
17.411356 12.848757 33.824760 40.154206 0.635746 0.569127 0.026505 0.007356 -112325.000000 0 0 1
16.459956 12.374157 -33.694602 39.488936 0.644635 2.593015 0.014869 0.009887 254127.000000 0 0 1
15.107556 11.927657 34.122314 39.177029 0.668315 0.513608 0.019500 0.013623 619677.000000 0 0 1
15.331956 10.781957 33.333733 38.242087 0.612893 0.512237 0.008058 0.020757 234208.000000 0 0 1
14.081256 10.400257 32.787282 37.167903 0.636158 0.490410 0.026762 0.023918 325154.000000 0 0 1
14.267456 9.310657 31.704530 35.992025 0.578187 0.493086 0.031538 0.021109 37609.500000 0 0 1
14.530356 7.993957 32.219680 36.237306 0.502963 0.475355 0.011882 0.015362 9199.560000 0 0 1
14.978656 7.214657 31.117890 35.280795 0.448870 0.490693 0.011211 -0.003097 214410.000000 0 0 1
15.333656 5.779157 31.517800 35.523111 0.360430 0.479452 0.050879 -0.015442 220522.000000 0 0 1
14.204056 4.938957 31.613460 35.007990 0.334637 0.444012 0.041283 -0.005604 -62380.900000 0 0 1
14.629956 3.618457 31.920830 35.299692 0.242466 0.441104 0.049992 -0.015599 182856.000000 0 0 1
13.462356 2.656357 32.187270 34.990165 0.194815 0.402984 0.040778 -0.013706 -174191.000000 0 0 1
13.915456 1.388557 32.579633 35.454203 0.099456 0.405459 0.046077 -0.021088 -131386.000000 0 0 1
12.920856 0.656557 33.248716 35.677118 0.050770 0.371086 0.044911 -0.019262 -58687.500000 0 0 1
13.542856 -0.734243 33.643553 36.274464 -0.054163 0.383202 0.026485 -0.026182 258492.000000 0 0 1
13.805556 -1.658143 32.574209 35.417819 -0.119534 0.403449 0.021259 -0.026112 -71836.400000 0 0 1
14.273756 -2.880643 33.019114 36.087396 -0.199139 0.415347 0.057574 -0.035275 -621279.000000 0 0 1
14.551256 -3.858443 31.873510 35.249784 -0.259197 0.441250 0.064974 -0.037956 -1037030.000000 0 0 1
14.875456 -5.139043 32.340580 35.966680 -0.332635 0.452901 0.076496 -0.036606 626044.000000 0 0 1
16.103656 -5.379943 33.057657 37.162888 -0.322424 0.474472 0.061241 -0.035443 1703980.000000 0 0 1
17.462156 -5.048443 32.286890 37.052084 -0.281434 0.512764 0.075047 -0.036090 436660.000000 0 0 1
17.566656 -3.648543 32.168560 36.833620 -0.204786 0.508763 0.078923 -0.042342 -1261.410000 0 0 1
18.691656 -3.273043 31.383500 36.674445 -0.173350 0.543832 0.105947 -0.048885 223796.000000 0 0 1
18.849256 -1.749043 31.113270 36.419626 -0.092526 0.546595 0.109370 -0.053103 -190490.000000 0 0 1
18.971356 -1.117343 32.350340 37.519399 -0.058828 0.531141 0.101866 -0.046987 11791.200000 0 0 1
18.959256 0.304857 32.274760 37.432693 0.016078 0.531184 0.086770 -0.038686 -431444.000000 0 0 1
20.173756 1.064757 31.724380 37.610510 0.052730 0.567034 0.102738 -0.037777 -489338.000000 0 0 1
20.468756 1.000657 30.320800 36.596751 0.048848 0.594353 0.108964 -0.041668 198700.000000 0 0 1
21.466956 1.931757 29.895070 36.854811 0.089746 0.624667 0.093865 -0.032589 54612.800000 0 0 1
20.924256 3.327057 29.502640 36.322164 0.157685 0.622799 0.087252 -0.016766 -146569.000000 0 0 1
20.479156 3.966757 30.694750 37.111975 0.191328 0.596895 0.090291 -0.020948 388329.000000 0 0 1
20.056856 5.309657 30.526510 36.909860 0.258794 0.596947 0.073308 -0.013775 -65320.300000 0 0 1
19.801456 6.079557 31.854460 37.996912 0.297890 0.576559 0.069966 -0.012342 787438.000000 0 0 1
18.656956 5.541257 32.574886 37.946156 0.288709 0.538556 0.059315 -0.004450 1082280.000000 0 0 1
18.649256 5.841057 33.970700 39.190830 0.303528 0.522043 0.046812 0.000986 280658.000000 0 0 1
17.587856 4.943957 -33.725982 38.356450 0.274029 2.645141 0.042629 -0.003161 249112.000000 0 0 1
17.694856 3.559857 -33.865352 38.375025 0.198530 2.651914 0.038170 -0.008373 -20993.800000 0 0 1
16.653056 2.889757 -33.185622 37.241918 0.171816 2.670521 0.037213 -0.013588 56765.800000 0 0 1
16.494256 1.421457 -33.485892 37.354865 0.085966 2.682436 0.048165 -0.023787 -490885.000000 0 0 1
17.619656 0.720857 -33.083212 37.489609 0.040889 2.651870 0.028379 -0.018442 -175209.000000 0 0 1
17.331256 -0.659643 -33.228802 37.482807 -0.038043 2.660539 0.044505 -0.024144 37091.700000 0 0 1
18.261456 -1.493543 -32.307592 37.141512 -0.081605 2.625697 0.055273 -0.024180 75878.600000 0 0 1
17.937956 -1.612243 -30.859212 35.730387 -0.089638 2.613299 0.053005 -0.026877 344209.000000 0 0 1
17.903856 -0.388043 -30.142122 35.060607 -0.021670 2.605507 0.038914 -0.018736 -207686.000000 0 0 1
17.531556 -0.571443 -28.666892 33.607628 -0.032584 2.592479 0.045327 -0.007563 687289.000000 0 0 1
16.249156 -1.184143 -28.422782 32.761132 -0.072746 2.621104 0.059841 -0.009955 695989.000000 0 0 1
15.951156 -1.330343 -27.040982 31.423302 -0.083209 2.607124 0.039415 -0.005842 -136865.000000 0 0 1
16.832856 -2.288143 -26.180212 31.208719 -0.135105 2.566009 0.055383 -0.005434 57727.400000 0 0 1
18.114356 -1.720443 -25.867032 31.625830 -0.094693 2.528562 0.074000 -0.007719 546962.000000 0 0 1
19.010056 -2.685043 -25.316852 31.773175 -0.140315 2.492776 0.071781 -0.008985 479771.000000 0 0 1
19.809756 -3.412843 -26.469442 33.237107 -0.170606 2.492086 0.091665 -0.023142 -223926.000000 0 0 1
20.839156 -2.547943 -26.933342 34.149192 -0.121663 2.479482 0.104490 -0.021474 -189453.000000 0 0 1
21.276756 -2.930143 -28.204312 35.450942 -0.136855 2.490772 0.113198 -0.027888 -320629.000000 0 0 1
22.570056 -2.183843 -28.555762 36.463792 -0.096458 2.470474 0.095490 -0.033719 -526989.000000 0 0 1
23.703256 -2.936343 -28.255712 36.997996 -0.123251 2.439836 0.084669 -0.033697 -566992.000000 0 0 1
24.881156 -2.211743 -28.587962 37.963605 -0.088659 2.423460 0.055674 -0.030848 360578.000000 0 0 1
26.163256 -3.048043 -28.342512 38.692435 -0.115978 2.392795 0.043967 -0.021943 -201175.000000 0 0 1
26.364356 -4.108343 -29.251842 39.593282 -0.154586 2.402096 0.044848 -0.028053 38467.800000 0 0 1
27.609756 -4.735443 -29.057672 40.361756 -0.169861 2.374499 0.041371 -0.021600 -88639.000000 0 0 1
27.600356 -6.036843 -28.241112 39.947259 -0.215332 2.355987 0.029592 -0.014959 -128662.000000 0 0 1
27.373756 -5.756943 -26.867042 38.785343 -0.207288 2.336038 0.023595 -0.003963 244489.000000 0 0 1
27.273156 -6.958543 -26.117972 38.397849 -0.249813 2.318823 0.005057 -0.005298 -277131.000000 0 0 1
27.280956 -6.731043 -24.629712 37.365495 -0.241899 2.290493 0.001765 -0.006975 -438774.000000 0 0 1
28.514956 -6.427043 -24.038912 37.845460 -0.221688 2.259046 -0.003942 -0.005541 -117529.000000 0 0 1
28.397356 -6.322343 -22.616812 36.849722 -0.219066 2.231608 0.009551 -0.002402 294254.000000 0 0 1
29.784356 -6.003043 -21.979612 37.499970 -0.198886 2.197062 0.009014 0.003081 173216.000000 0 0 1
30.340556 -4.831843 -22.513812 38.088945 -0.157927 2.203200 0.021208 -0.009877 104205.000000 0 0 1
31.502956 -4.375043 -21.842212 38.583150 -0.137995 2.172573 0.024647 -0.009403 357375.000000 0 0 1
32.241356 -3.219943 -22.529212 39.464395 -0.099540 2.178367 0.033344 -0.020915 -240972.000000 0 0 1
31.480656 -2.045643 -22.394212 38.687428 -0.064890 2.188114 0.015947 -0.016805 50132.000000 0 0 1
32.107856 -0.848943 -22.814612 39.397229 -0.026434 2.188411 0.032466 -0.018912 -5193.600000 0 0 1
31.211756 0.394957 -22.621512 38.549481 0.012653 2.197919 0.029122 -0.015482 -168908.000000 0 0 1
30.093956 0.455057 -23.452612 38.155973 0.015120 2.232740 0.029233 -0.014779 -71159.900000 0 0 1
29.086256 1.319557 -22.966212 37.083668 0.045336 2.238657 0.025434 -0.010905 -40414.000000 0 0 1
27.960956 1.551757 -23.986812 36.872621 0.055440 2.279081 0.022084 -0.011636 -591318.000000 0 0 1
27.001756 2.444257 -23.502612 35.880942 0.090276 2.285001 0.021530 -0.011837 164400.000000 0 0 1
26.122356 2.747857 -24.609512 35.993836 0.104806 2.323637 0.049163 -0.020927 -293503.000000 0 0 1
24.994856 3.698857 -24.280412 35.042300 0.146918 2.336284 0.044421 -0.011176 -727763.000000 0 0 1
25.436256 4.983457 -23.948012 35.289449 0.193469 2.316674 0.031686 -0.008625 74829.600000 0 0 1
24.385156 5.892157 -23.704612 34.514663 0.237085 2.327871 0.040248 -0.007665 -57768.800000 0 0 1
24.974056 7.180657 -23.064212 34.745117 0.279973 2.296700 0.047619 -0.004050 -61238.500000 0 0 1
25.651256 7.982657 -23.972112 36.005165 0.301700 2.299357 0.040679 -0.005417 -291104.000000 0 0 1
25.941856 9.194057 -23.400012 36.125768 0.340598 2.275407 0.058119 -0.007873 -63861.400000 0 0 1
26.895356 10.090657 -24.257012 37.597661 0.358930 2.272047 0.085743 -0.008173 -144198.000000 0 0 1
26.486056 10.519757 -25.563532 38.284078 0.378074 2.301955 0.094533 -0.014308 -520993.000000 0 0 1
25.253556 11.155257 -25.653572 37.686703 0.415955 2.319523 0.098482 -0.020062 -304412.000000 0 0 1
24.728356 11.370157 -27.139012 38.435635 0.430976 2.354757 0.087602 -0.019345 91369.200000 0 0 1
24.279856 10.207457 -27.932942 38.392093 0.397975 2.385570 0.067988 -0.011095 606939.000000 0 0 1
25.307356 9.425357 -28.549462 39.298491 0.356520 2.383978 0.067009 -0.022317 239431.000000 0 0 1
26.170256 10.089357 -29.625912 40.796716 0.367968 2.383551 0.068134 -0.020506 -632863.000000 0 0 1
27.204156 10.967757 -29.112712 41.326841 0.383232 2.352445 0.070474 -0.017695 752393.000000 0 0 1
28.111556 11.434457 -30.062022 42.716876 0.386314 2.351459 0.078424 -0.013443 163137.000000 0 0 1
29.117556 10.390057 -30.619542 43.512546 0.342748 2.351380 0.071660 -0.014884 -481040.000000 0 0 1
28.462256 9.443757 -31.515532 43.503026 0.320369 2.381025 0.069405 -0.019363 315245.000000 0 0 1
29.325656 8.410457 -31.878402 44.124397 0.279299 2.378160 0.062153 -0.016932 -151508.000000 0 0 1
28.556556 7.337557 -32.690872 44.022832 0.251507 2.407724 0.063919 -0.016130 321312.000000 0 0 1
27.477556 6.730057 -32.003672 42.714690 0.240201 2.417714 0.076312 -0.018773 53532.500000 0 0 1
26.817256 5.838557 -32.894522 42.840443 0.214371 2.446256 0.076480 -0.014246 -835055.000000 0 0 1
25.505956 5.429157 -32.269132 41.488871 0.209728 2.461919 0.075766 -0.013338 -672617.000000 0 0 1
24.366456 6.207557 -32.611172 41.179442 0.249452 2.484757 0.081872 -0.017385 20441.700000 0 0 1
23.726556 6.594557 -31.439072 39.935609 0.271097 2.477123 0.083205 -0.018083 953785.000000 0 0 1
22.165556 6.836757 -31.602002 39.201271 0.299182 2.508408 0.067919 -0.014121 1187730.000000 0 0 1
21.899756 7.835457 -32.563042 40.016814 0.343595 2.521344 0.068307 -0.006232 -319561.000000 0 0 1
20.581256 8.312957 -32.504692 39.360492 0.383872 2.542452 0.049071 -0.001456 -984876.000000 0 0 1
20.157356 9.394757 -33.490972 40.202309 0.436138 2.555414 0.045650 0.003837 -501628.000000 0 0 1
19.910256 8.916557 33.634645 40.090057 0.421054 0.575395 0.050303 0.000408 103924.000000 0 0 1
19.460956 10.002457 32.818176 39.443765 0.474765 0.588049 0.037496 0.005357 242911.000000 0 0 1
18.423456 9.535657 31.743390 37.920908 0.477614 0.578846 0.032999 0.009689 4745.250000 0 0 1
18.831356 8.718857 30.663420 37.025448 0.433609 0.594959 0.037044 -0.002474 -21709.000000 0 0 1
19.679256 9.295757 29.654230 36.783931 0.441295 0.633140 0.049513 -0.000349 -65499.600000 0 0 1
19.063356 10.209157 28.541280 35.808422 0.491672 0.648394 0.036460 0.003536 -177927.000000 0 0 1
18.163256 9.557657 27.677840 34.457445 0.484394 0.638070 0.046127 0.001509 -803713.000000 0 0 1
16.858956 9.947057 27.940790 34.115335 0.533046 0.611113 0.064390 -0.008487 -1154150.000000 0 0 1
15.850256 9.126257 27.141150 32.728599 0.522420 0.592980 0.060867 -0.008485 -629052.000000 0 0 1
15.803656 9.312357 25.730670 31.599730 0.532480 0.619328 0.058207 -0.003685 -498213.000000 0 0 1
14.693756 8.764157 25.108970 30.383833 0.537808 0.598126 0.062582 -0.001773 -366795.000000 0 0 1
14.632256 7.236757 24.774900 29.669332 0.459299 0.582602 0.051753 -0.002779 1887.400000 0 0 1
14.881856 6.425857 25.929800 30.579663 0.407609 0.558704 0.038132 -0.007596 204224.000000 0 0 1
14.430056 5.130957 25.664250 29.886568 0.341632 0.538026 0.041076 -0.015271 -172701.000000 0 0 1
14.487656 4.337057 26.892350 30.852889 0.290872 0.512275 0.049094 -0.016120 -237868.000000 0 0 1
15.716256 3.710057 27.159810 31.597793 0.231821 0.536412 0.044360 -0.017053 -30132.300000 0 0 1
16.009756 3.519057 28.562660 32.932076 0.216366 0.521003 0.043051 -0.016339 43613.900000 0 0 1
16.989356 2.373057 28.896970 33.605126 0.138781 0.535727 0.066406 -0.028252 94016.600000 0 0 1
16.457656 1.076957 28.730330 33.127725 0.065345 0.521126 0.062601 -0.034245 -354287.000000 0 0 1
15.446056 0.714757 29.617270 33.410690 0.046241 0.481155 0.047262 -0.030463 -278992.000000 0 0 1
15.024356 -0.795243 29.498950 33.114223 -0.052881 0.471640 0.051930 -0.033018 -20468.700000 0 0 1
14.337756 -1.276543 28.352020 31.796822 -0.088800 0.469793 0.049272 -0.027772 905548.000000 0 0 1
15.189256 -1.422543 27.184090 31.172294 -0.093382 0.511402 0.063093 -0.021344 661323.000000 0 0 1
16.433656 -2.370643 27.081600 31.766304 -0.143267 0.549997 0.065308 -0.022561 1307790.000000 0 0 1
17.717756 -2.125243 27.680900 32.934295 -0.119380 0.572612 0.079467 -0.033404 1068670.000000 0 0 1
18.380456 -0.943843 27.188040 32.831715 -0.051305 0.595081 0.079742 -0.036247 -137967.000000 0 0 1
19.825156 -0.806943 27.756490 34.119067 -0.040681 0.620619 0.083181 -0.033625 505146.000000 0 0 1
20.759056 -1.618243 27.052490 34.137873 -0.077796 0.655984 0.047357 -0.027648 -1856650.000000 0 0 1
22.023156 -1.216143 27.372150 35.152994 -0.055165 0.678273 0.051382 -0.024425 -1296280.000000 0 0 1
22.927156 -2.052243 26.407730 35.031906 -0.089274 0.716941 0.046666 -0.010753 -351104.000000 0 0 1
23.006956 -1.554243 25.087590 34.075253 -0.067453 0.743298 0.044023 0.002191 -428922.000000 0 0 1
22.147556 -2.217443 24.252690 32.918449 -0.099789 0.742544 0.055087 0.007642 -712948.000000 0 0 1
22.023756 -1.695843 22.820380 31.759903 -0.076849 0.769113 0.049042 -0.010125 25776.600000 0 0 1
21.539456 -0.331443 22.774880 31.348895 -0.015387 0.757586 0.044381 -0.008738 68799.400000 0 0 1
21.578556 0.162957 21.453480 30.428810 0.007552 0.788319 0.027027 -0.000680 95394.300000 0 0 1
-30.181804 -27.498063 -10.323512 42.114839 0.738903 1.818448 -0.006971 0.018187 48956.300000 0 0 1
-30.057884 -26.318963 -9.481612 41.061724 0.719175 1.803810 -0.006803 0.022719 -143061.000000 0 0 1
-30.386364 -26.754963 -8.151112 41.298908 0.721932 1.769469 0.005960 0.011501 -833454.000000 0 0 1
-30.822134 -25.584463 -7.202312 40.699410 0.692808 1.748697 0.024858 0.005376 490144.000000 0 0 1
-29.832434 -24.670763 -6.655812 39.280027 0.690976 1.741063 0.033285 0.007535 268635.000000 0 0 1
-28.893464 -25.331063 -5.798712 38.860263 0.719795 1.720575 0.033665 0.005260 198733.000000 0 0 1
-27.710434 -24.502663 -5.253812 37.361092 0.724039 1.711886 0.033560 0.010624 -322457.000000 0 0 1
-27.936844 -23.345963 -4.417012 36.674395 0.696115 1.691528 0.048098 0.004771 -135238.000000 0 0 1
-28.769784 -22.354463 -4.975512 36.771976 0.660566 1.706520 0.046399 -0.003441 -131026.000000 0 0 1
-28.777084 -21.118963 -4.081812 35.927599 0.633105 1.684654 0.041395 -0.004619 143853.000000 0 0 1
-27.727824 -20.167963 -4.298012 34.555056 0.628850 1.695501 0.044908 -0.007398 408305.000000 0 0 1
-27.707544 -19.171063 -3.300112 33.854518 0.605274 1.668431 0.046556 -0.006059 225176.000000 0 0 1
-26.643014 -18.043363 -3.552912 32.373389 0.595278 1.680766 0.050693 -0.006240 230924.000000 0 0 1
-26.767204 -17.147163 -4.683812 32.131706 0.569741 1.717087 0.046802 -0.015845 -978462.000000 0 0 1
-25.828514 -16.178663 -4.660312 30.831474 0.559597 1.722532 0.045372 -0.020151 -947114.000000 0 0 1
-26.245424 -15.023563 -5.610112 30.757163 0.519898 1.754223 0.043745 -0.028880 -235699.000000 0 0 1
-27.512154 -14.493963 -5.350812 31.553522 0.484873 1.741199 0.040224 -0.020591 -307730.000000 0 0 1
-27.836554 -13.327063 -6.107912 31.460943 0.446513 1.766180 0.062579 -0.033451 56710.700000 0 0 1
-29.287184 -12.789563 -5.924012 32.502400 0.411734 1.754085 0.052566 -0.026011 -83487.900000 0 0 1
-30.086854 -13.488663 -6.834912 33.673117 0.421459 1.775195 0.061394 -0.022761 -392493.000000 0 0 1
-31.406304 -12.988563 -6.766312 34.653163 0.392146 1.767317 0.052984 -0.022866 -716994.000000 0 0 1
-32.385874 -13.891363 -7.461312 36.020633 0.405197 1.779447 0.041102 -0.023354 -929950.000000 0 0 1
-32.778014 -14.972363 -6.673212 36.648351 0.428478 1.753905 0.044435 -0.023414 257673.000000 0 0 1
-33.091284 -16.112663 -7.505912 37.563143 0.453125 1.771972 0.047825 -0.019680 -79497.200000 0 0 1
-34.070217 -17.097163 -6.763212 38.714774 0.465104 1.746391 0.043528 -0.026490 1001170.000000 0 0 1
-35.472849 -16.828863 -6.766812 39.841227 0.442971 1.741468 0.049373 -0.031419 649907.000000 0 0 1
-35.905792 -15.878863 -5.800612 39.686412 0.416379 1.717483 0.048558 -0.027464 1754620.000000 0 0 1
34.955178 -15.709563 -5.547712 38.722500 -0.422372 1.714559 0.073714 -0.028476 1434960.000000 0 0 1
34.242338 -14.983163 -6.543312 37.945327 -0.412463 1.744103 0.078430 -0.026689 1006600.000000 0 0 1
32.836388 -14.810863 -6.379712 36.582657 -0.423727 1.746084 0.086791 -0.026721 565718.000000 0 0 1
32.284568 -14.118163 -5.109112 35.605041 -0.412246 1.714787 0.097972 -0.030124 -987168.000000 0 0 1
32.399078 -14.907963 -3.953112 35.882792 -0.431250 1.681188 0.101840 -0.029165 520271.000000 0 0 1
31.802568 -14.293363 -2.823712 34.981094 -0.422389 1.651605 0.107554 -0.038693 -1186830.000000 0 0 1
31.727028 -15.177563 -1.549012 35.204576 -0.446202 1.614811 0.116727 -0.041413 86775.700000 0 0 1
32.912528 -15.549363 -0.845012 36.410593 -0.441362 1.594006 0.131184 -0.040046 378903.000000 0 0 1
33.896798 -16.260663 -1.572312 37.628105 -0.447285 1.612594 0.106719 -0.041512 -571320.000000 0 0 1
33.738848 -17.773663 -1.864012 38.179674 -0.484858 1.619638 0.106262 -0.043882 -713583.000000 0 0 1
34.007858 -18.645363 -0.765912 38.791373 -0.501511 1.590542 0.104300 -0.045243 254378.000000 0 0 1
33.952398 -20.101963 -1.082112 39.471829 -0.534563 1.598215 0.083966 -0.037154 79979.000000 0 0 1
35.123458 -20.680263 -1.926512 40.804927 -0.532134 1.618027 0.069783 -0.039139 -105035.000000 0 0 1
35.139758 -20.065963 -3.193512 40.591182 -0.518848 1.649553 0.033562 -0.038581 -281563.000000 0 0 1
36.067698 -20.600263 -4.082212 41.736245 -0.518940 1.668763 0.043767 -0.031841 -568973.000000 0 0 1
35.989408 -19.831963 -5.390912 41.444013 -0.503649 1.701243 0.072635 -0.036724 38103.100000 0 0 1
34.813948 -19.947663 -6.180212 40.596986 -0.520314 1.723624 0.057665 -0.043356 384452.000000 0 0 1
34.730748 -18.950163 -7.111312 40.198312 -0.499482 1.748638 0.068321 -0.038195 -208768.000000 0 0 1
33.508718 -19.125863 -8.033712 39.410321 -0.518652 1.776083 0.072960 -0.041993 -272553.000000 0 0 1
33.744488 -20.083063 -9.089312 40.306768 -0.536846 1.798256 0.079633 -0.040312 229339.000000 0 0 1
32.672538 -20.320763 -9.983312 39.750405 -0.556405 1.824664 0.071479 -0.046485 -410145.000000 0 0 1
32.735438 -21.605163 -10.772112 40.674690 -0.583368 1.838830 0.074459 -0.040738 -124169.000000 0 0 1
32.375108 -22.702863 -9.951712 40.775044 -0.611561 1.817350 0.067518 -0.043321 116774.000000 0 0 1
32.219508 -23.868363 -10.704712 41.501643 -0.637590 1.831680 0.056655 -0.037806 -377279.000000 0 0 1
31.704338 -25.078563 -9.934912 41.626937 -0.669237 1.811788 0.061571 -0.033184 -688431.000000 0 0 1
30.415078 -24.855663 -9.470912 40.405187 -0.685150 1.807396 0.070303 -0.038960 -969359.000000 0 0 1
29.742388 -26.066463 -9.233112 40.611827 -0.719627 1.800152 0.047814 -0.033993 377305.000000 0 0 1
28.297928 -25.675563 -8.788612 39.207742 -0.736850 1.796872 0.045923 -0.035350 420724.000000 0 0 1
27.424248 -25.216263 -9.797712 38.522000 -0.743478 1.827962 0.049116 -0.034665 98281.500000 0 0 1
26.185528 -24.743263 -9.312012 37.210543 -0.757086 1.823737 0.047740 -0.037188 -258181.000000 0 0 1
25.264728 -24.251063 -10.417812 36.536986 -0.764929 1.859939 0.079988 -0.035799 -796573.000000 0 0 1
24.708728 -25.342763 -11.052612 37.080145 -0.798065 1.873470 0.053685 -0.029357 146200.000000 0 0 1
23.973428 -24.973263 -12.209812 36.707883 -0.805822 1.909878 0.052061 -0.020189 146141.000000 0 0 1
23.079628 -26.098463 -12.820812 37.123742 -0.846707 1.923412 0.044783 -0.016229 317101.000000 0 0 1
23.794928 -27.068063 -13.595512 38.519042 -0.849662 1.931524 0.048976 -0.007650 444780.000000 0 0 1
22.982628 -28.207463 -13.815512 38.919539 -0.887113 1.933685 0.048488 -0.002716 -241896.000000 0 0 1
23.666228 -29.408563 -14.480412 40.430635 -0.893172 1.937087 0.038990 -0.001625 -394995.000000 0 0 1
23.907528 -29.273463 -15.855312 40.986540 -0.885957 1.968001 0.043321 -0.001076 394769.000000 0 0 1
24.311828 -30.526563 -16.350012 42.311452 -0.898245 1.967544 0.036662 0.000590 -407236.000000 0 0 1
24.396128 -30.502163 -17.883112 42.957639 -0.896167 2.000165 0.047526 -0.000301 -32769.100000 0 0 1
23.127528 -30.304663 -18.491012 42.369478 -0.918921 2.022415 0.045958 0.001005 122779.000000 0 0 1
23.015428 -30.386963 -19.854012 42.979754 -0.922569 2.050976 0.045007 0.003298 -723905.000000 0 0 1
21.616128 -29.973463 -20.258312 42.143383 -0.946000 2.072249 0.032972 0.007564 -656942.000000 0 0 1
21.503228 -30.017163 -21.655112 42.806107 -0.949172 2.101208 0.030310 0.008347 -439642.000000 0 0 1
20.173928 -29.904463 -22.046912 42.276833 -0.977313 2.119392 0.034432 0.002203 -846327.000000 0 0 1
19.878828 -30.271263 -23.491712 43.166859 -0.989733 2.146240 0.035593 0.000088 -307186.000000 0 0 1
20.474628 -29.411463 -24.449312 43.382179 -0.962663 2.169509 0.044524 -0.004036 423972.000000 0 0 1
20.191928 -29.750263 -25.820312 44.266021 -0.974499 2.193580 0.040242 -0.010921 -446037.000000 0 0 1
20.564528 -28.607563 -26.740852 44.230822 -0.947531 2.220029 0.044585 -0.018210 336209.000000 0 0 1
19.723728 -27.436063 -26.862632 43.166700 -0.947499 2.242474 0.044878 -0.023401 740845.000000 0 0 1
18.563228 -27.618863 -27.693252 43.293316 -0.979027 2.264860 0.060626 -0.025334 334090.000000 0 0 1
17.801428 -26.296463 -27.998352 42.335594 -0.975707 2.293404 0.049107 -0.023518 -465283.000000 0 0 1
16.963628 -25.908463 -26.955612 41.056280 -0.991087 2.287036 0.032860 -0.011719 -517542.000000 0 0 1
16.555128 -24.567663 -27.138462 40.176342 -0.977831 2.312417 0.029775 -0.005857 570801.000000 0 0 1
15.493228 -24.232963 -26.003992 38.774788 -1.001948 2.305870 0.039512 -0.008116 368806.000000 0 0 1
14.186028 -24.738363 -26.188602 38.717862 -1.050133 2.313655 0.061746 -0.011110 387613.000000 0 0 1
13.170128 -24.034663 -25.427282 37.385344 -1.069518 2.318750 0.038656 -0.010496 637560.000000 0 0 1
13.139228 -24.345663 -23.870512 36.539731 -1.075899 2.282699 0.041919 -0.003790 -57072.200000 0 0 1
14.264628 -23.753163 -23.210612 36.144500 -1.029983 2.268111 0.031660 -0.013955 262728.000000 0 0 1
14.301528 -24.096063 -21.833612 35.522677 -1.035154 2.232724 0.038934 -0.011802 -490477.000000 0 0 1
15.529228 -23.582463 -21.128512 35.266181 -0.988464 2.213192 0.021325 -0.015761 -489606.000000 0 0 1
15.523628 -22.184463 -20.968212 34.246158 -0.960237 2.229736 0.022961 -0.014884 372993.000000 0 0 1
16.780028 -21.713963 -20.485812 34.245204 -0.912877 2.212061 0.025981 -0.011220 -30991.200000 0 0 1
16.698528 -20.239663 -19.952712 32.963548 -0.880973 2.220934 0.035227 -0.004171 87072.200000 0 0 1
15.967828 -20.011763 -18.767912 31.743924 -0.897324 2.203378 0.029234 -0.008691 66200.300000 0 0 1
14.566428 -19.974563 -18.888012 31.111429 -0.940709 2.223213 0.029915 -0.010970 -193754.000000 0 0 1
13.784928 -19.944863 -17.536912 29.922652 -0.966033 2.197002 0.029924 -0.015635 -13452.800000 0 0 1
13.964428 -18.723963 -16.808612 28.777100 -0.929985 2.194563 0.039856 -0.015881 8636.820000 0 0 1
13.345428 -18.889163 -15.556912 27.873257 -0.955713 2.162927 0.041594 -0.020956 -197724.000000 0 0 1
13.167028 -17.636363 -14.636612 26.431843 -0.929485 2.157656 0.049089 -0.022025 -110450.000000 0 0 1
12.137828 -16.779363 -15.084612 25.620683 -0.944552 2.200329 0.046181 -0.025276 222760.000000 0 0 1
12.449628 -15.507363 -14.646912 24.698251 -0.894338 2.205619 0.051177 -0.023825 -105906.000000 0 1 0
11.217628 -14.646963 -14.264112 23.320240 -0.917217 2.228956 0.056911 -0.021422 -286597.000000 0 1 0
10.529428 -14.290963 -15.423812 23.515834 -0.935804 2.286158 0.058246 -0.006030 -379200.000000 0 1 0
9.287128 -13.733363 -15.051912 22.392322 -0.976191 2.307960 0.055018 -0.012844 15010.000000 0 1 0
8.463828 -13.243663 -16.270712 22.622269 -1.002132 2.373496 0.043256 -0.001570 102681.000000 0 1 0
8.943428 -12.052263 -16.899412 22.601594 -0.932400 2.415401 0.037539 0.004169 553303.000000 0 1 0
10.148228 -12.196563 -17.673112 23.750401 -0.876812 2.410011 0.047220 0.002841 594185.000000 0 1 0
10.444528 -10.971463 -18.572612 23.966708 -0.809998 2.457407 0.051495 -0.002282 -110365.000000 0 1 0
9.609428 -11.025063 -19.697212 24.533106 -0.853896 2.502912 0.038675 -0.001733 105960.000000 0 1 0
9.743028 -9.819063 -20.425612 24.668729 -0.789285 2.546321 0.038640 -0.013961 -20532.400000 0 1 0
9.335728 -9.916263 -21.900912 25.790270 -0.815544 2.585251 0.032046 -0.014447 -54555.700000 0 0 1
10.309828 -10.576363 -22.664812 27.052647 -0.798159 2.564045 0.010799 -0.013158 -494188.000000 0 0 1
9.892228 -10.604163 -24.021012 28.059107 -0.820119 2.598445 0.016661 -0.012800 536380.000000 0 0 1
10.938428 -11.350663 -24.937112 29.501632 -0.803891 2.577884 0.039211 -0.013225 433929.000000 0 0 1
10.845228 -12.725063 -24.733212 29.854279 -0.864984 2.547157 0.033699 -0.020953 -915410.000000 0 0 1
11.930228 -13.435163 -25.180312 30.933510 -0.844659 2.521826 0.043855 -0.029717 -813934.000000 0 0 1
11.924628 -14.897763 -24.720312 31.228735 -0.895793 2.484201 0.039889 -0.023218 -245533.000000 0 0 1
10.856428 -15.620263 -25.249792 31.613393 -0.963419 2.495937 0.041742 -0.027519 -644831.000000 0 0 1
10.756828 -16.940763 -24.739512 31.855019 -1.005062 2.460092 0.041867 -0.023771 428524.000000 0 0 1
9.460328 -17.660063 -25.217982 32.207487 -1.079006 2.470247 0.050054 -0.025408 380198.000000 0 0 1
9.428428 -18.029563 -26.575642 33.469765 -1.088963 2.488189 0.044703 -0.028005 -23257.700000 0 0 1
8.438528 -19.014163 -26.835092 33.953929 -1.153108 2.482157 0.052390 -0.027977 -286888.000000 0 0 1
8.708728 -19.920563 -28.039542 35.480793 -1.158661 2.482052 0.049728 -0.027885 -116483.000000 0 0 1
9.744728 -20.874663 -27.848132 36.141800 -1.134043 2.450459 0.041350 -0.027697 183031.000000 0 0 1
9.685128 -21.899463 -28.845402 37.489270 -1.154402 2.448746 0.043713 -0.025249 231639.000000 0 0 1
10.694428 -23.071163 -28.698112 38.343591 -1.136739 2.416512 0.030391 -0.009917 177604.000000 0 0 1
10.351428 -23.969263 -29.742462 39.576403 -1.163127 2.421160 0.039199 -0.011973 455143.000000 0 0 1
11.047228 -25.228163 -29.747552 40.539096 -1.158056 2.394694 0.048493 -0.013328 249276.000000 0 0 1
10.553728 -26.244063 -28.644222 40.256968 -1.188448 2.362476 0.043809 -0.012390 32488.700000 0 0 1
11.214828 -25.931163 -27.467052 39.403509 -1.162603 2.342101 0.044932 -0.007270 -790973.000000 0 0 1
10.769328 -26.531663 -26.312642 38.887822 -1.185210 2.313972 0.032392 0.000274 -26576.900000 0 0 1
9.532128 -25.876463 -25.680632 37.682193 -1.217850 2.320615 0.025384 -0.000434 -6641.360000 0 0 1
9.943128 -24.692963 -25.061312 36.560601 -1.187990 2.326050 0.031219 -0.003109 -644648.000000 0 0 1
8.875728 -23.887063 -24.681612 35.476081 -1.215036 2.340226 0.034550 -0.009784 -581856.000000 0 0 1
9.327028 -22.440063 -24.460212 34.479731 -1.176879 2.359455 0.040346 -0.016093 177443.000000 0 0 1
10.208128 -22.312663 -23.354912 33.874957 -1.141720 2.331519 0.038450 -0.012482 99356.500000 0 0 1
11.057228 -21.193463 -23.440812 33.479797 -1.089918 2.346401 0.037621 -0.014844 -147211.000000 0 0 1
11.842228 -20.868463 -22.177512 32.673738 -1.054639 2.316864 0.027904 -0.007159 -273843.000000 0 0 1
11.101128 -20.301663 -21.119512 31.327725 -1.070406 2.310606 0.033447 -0.008528 -71592.400000 0 0 1
10.755128 -18.904463 -21.284412 30.431525 -1.053543 2.345382 0.042126 -0.007188 -57533.000000 0 0 1
11.945328 -17.939863 -21.101112 30.162667 -0.983357 2.345602 0.032522 -0.005762 214680.000000 0 0 1
12.902728 -18.010663 -22.172312 31.344470 -0.949152 2.356575 0.030735 -0.003802 138700.000000 0 0 1
14.063928 -17.325163 -21.740812 31.154747 -0.888924 2.343164 0.032831 -0.002030 -233153.000000 0 0 1
15.249028 -17.402663 -22.691612 32.408252 -0.851261 2.346446 0.029784 0.005730 -1113800.000000 0 0 1
16.476728 -17.590863 -22.094312 32.696784 -0.818090 2.312756 0.033734 0.006660 -610037.000000 0 0 1
17.502928 -17.494463 -23.056112 33.822966 -0.785156 2.320839 0.034582 0.005157 233228.000000 0 0 1
18.917528 -17.724563 -22.448212 34.292204 -0.752852 2.284470 0.034919 0.006664 134740.000000 0 0 1
19.189528 -19.061163 -22.171412 34.973382 -0.782042 2.257448 0.033297 -0.000754 -94440.200000 0 0 1
20.501628 -19.199663 -21.684512 35.484671 -0.752616 2.228240 0.027946 -0.002930 -25711.000000 0 0 1
20.933828 -20.681463 -21.382212 36.375089 -0.779334 2.199165 0.047606 -0.011404 -255903.000000 0 0 1
20.162928 -21.264463 -20.384212 35.696459 -0.811981 2.178572 0.029479 -0.009005 -97171.600000 0 0 1
20.513728 -22.582463 -20.088112 36.528248 -0.833364 2.153081 0.047970 -0.011105 -144618.000000 0 0 1
-15.755444 13.061257 28.742530 35.284040 -0.692175 0.618750 0.060074 -0.025901 -429272.000000 0 0 1
-16.825944 13.905957 28.417490 35.833528 -0.690668 0.655010 0.084953 -0.031356 -110117.000000 0 0 1
-17.184044 13.688357 27.061400 34.856590 -0.672648 0.681920 0.072838 -0.023143 -521285.000000 0 0 1
-18.564144 14.255157 26.753260 35.546784 -0.654851 0.718763 0.096043 -0.028225 -480191.000000 0 0 1
-18.568344 15.651257 26.856770 36.208167 -0.700358 0.735147 0.092278 -0.031687 -34357.900000 0 0 1
-19.580144 16.253457 26.075940 36.435032 -0.692826 0.773195 0.102945 -0.031598 -269077.000000 0 0 1
-19.570644 17.821657 26.351690 37.350142 -0.738658 0.787624 0.118528 -0.027717 384839.000000 0 0 1
-18.479944 18.488357 25.721430 36.673146 -0.785626 0.793479 0.065106 -0.022261 699820.000000 0 0 1
-17.309844 18.568457 26.550900 36.733753 -0.820464 0.762961 0.043111 -0.009132 -84313.400000 0 0 1
-16.230444 19.507057 26.043200 36.362080 -0.876828 0.772428 0.039090 -0.007467 -326482.000000 0 0 1
-16.622644 20.857357 25.773740 37.089450 -0.897907 0.802505 0.054439 -0.009752 -507306.000000 0 0 1
-15.544644 21.580957 25.280450 36.694343 -0.946579 0.810761 0.063524 -0.013648 -277317.000000 0 0 1
-15.636844 23.170057 25.427830 37.788053 -0.977134 0.832665 0.064075 -0.010749 -322767.000000 0 0 1
-15.405244 23.707957 26.675990 38.871547 -0.994567 0.814462 0.056916 -0.004886 58976.700000 0 0 1
-15.838944 25.060957 26.758290 39.936572 -1.007167 0.836561 0.053796 -0.006314 -208596.000000 0 0 1
-15.150944 25.869857 27.891970 40.948292 -1.040988 0.821463 0.036935 -0.002508 -423231.000000 0 0 1
-13.836044 26.186057 27.534300 40.438637 -1.084708 0.821818 0.037706 -0.003945 -626293.000000 0 0 1
-13.272344 26.944457 28.601230 41.475164 -1.113101 0.809861 0.045207 -0.000346 517649.000000 0 0 1
-11.716244 26.867957 28.601110 40.953400 -1.159589 0.797662 0.058999 -0.008228 717851.000000 0 0 1
-11.069544 27.690157 27.620250 40.646744 -1.190493 0.823689 0.057262 -0.007019 -600587.000000 0 0 1
-9.697144 27.773357 27.807390 40.480179 -1.234876 0.813529 0.038062 -0.002655 -905957.000000 0 0 1
-8.914444 28.278857 26.625820 39.850914 -1.265423 0.839096 0.044678 -0.006633 -630309.000000 0 0 1
-7.525544 28.394557 26.801000 39.764032 -1.311718 0.831185 0.022866 -0.007133 -31663.700000 0 0 1
-7.037744 28.971857 25.587450 39.288878 -1.332495 0.861547 0.037909 -0.013157 -810809.000000 0 0 1
-5.554144 28.749657 25.328330 38.715831 -1.379957 0.857657 0.017036 -0.006736 -854783.000000 0 0 1
-4.831644 29.540457 26.283230 39.834552 -1.408672 0.850231 0.018280 -0.008628 25222.200000 0 0 1
-3.427244 29.453457 26.292670 39.630249 -1.454956 0.845377 0.005022 -0.013204 489466.000000 0 0 1
-2.701944 30.295157 25.148990 39.466045 -1.481844 0.879896 0.000181 -0.008051 -271307.000000 0 0 1
-3.015944 29.807357 23.866630 38.303922 -1.469958 0.898115 0.002532 0.000452 -8084.320000 0 0 1
-2.583744 30.814857 22.921280 38.491768 -1.487145 0.932927 -0.000794 0.001413 -124708.000000 0 0 1
-2.855244 30.352357 21.448880 37.275628 -1.477002 0.957687 0.000977 -0.003534 549333.000000 0 0 1
-4.237744 30.326057 21.100080 37.186578 -1.431956 0.967438 0.007316 -0.002929 288192.000000 0 0 1
-4.783344 29.051457 21.420180 36.410048 -1.407610 0.941836 0.013865 -0.006806 -820904.000000 0 0 1
-6.252544 28.840457 21.072180 36.261591 -1.357303 0.950697 0.035692 -0.010361 -848770.000000 0 0 1
-6.454644 28.848357 19.684980 35.516032 -1.350678 0.983327 0.036750 -0.012282 149059.000000 0 0 1
-7.484144 27.987157 19.215880 34.764111 -1.309497 0.985135 0.031796 -0.011272 -363576.000000 0 0 1
-6.975144 26.510457 18.756080 33.215169 -1.313518 0.970746 0.024200 -0.003777 338390.000000 0 0 1
-6.033344 26.527057 17.692580 32.451708 -1.347160 0.994172 0.022017 -0.002190 263609.000000 0 0 1
-4.720444 26.758057 18.191180 32.698551 -1.396181 0.980834 0.018445 0.005029 -35191.000000 0 0 1
-3.693544 26.926857 17.009980 32.063021 -1.434478 1.011586 0.018442 -0.000554 227393.000000 0 0 1
-3.314944 25.837657 16.215380 30.684066 -1.443194 1.014008 0.031747 0.002139 -837583.000000 0 0 1
-2.336244 26.217557 15.349280 30.469964 -1.481921 1.042861 0.032417 -0.008684 -765701.000000 0 0 1
-1.830344 25.013257 14.489380 28.964725 -1.497752 1.046918 0.032939 -0.008440 55841.700000 0 0 1
-1.133544 24.065457 15.297880 28.538680 -1.523729 1.005057 0.025349 -0.008713 33483.200000 0 0 1
-0.396944 23.136757 14.510980 27.313652 -1.553642 1.010695 0.024694 -0.018967 363925.000000 0 0 1
0.882056 22.661357 15.294380 27.353851 1.531893 0.977459 0.010663 -0.013120 109630.000000 0 0 1
1.821156 23.676157 15.433680 28.320937 1.494028 0.994459 0.014211 -0.015539 -415161.000000 0 0 1
3.056056 23.101457 15.822380 28.166727 1.439272 0.974309 0.011025 -0.013603 200005.000000 0 0 1
4.216256 24.141757 15.831680 29.176074 1.397894 0.997237 0.025684 -0.012251 -62239.300000 0 0 1
5.494756 23.572757 15.925580 28.973976 1.341788 0.988850 0.030358 -0.010310 -716115.000000 0 0 1
6.404756 24.618357 16.103480 30.106585 1.316277 1.006428 0.033976 -0.013559 -275360.000000 0 0 1
7.875756 24.113657 16.184780 30.090581 1.255109 1.002889 0.042597 -0.009910 385393.000000 0 0 1
8.383156 23.568357 14.937180 29.135272 1.229057 1.032489 0.031567 0.000648 -29174.700000 0 0 1
9.145656 24.564057 14.300780 29.858805 1.214379 1.071342 0.033661 -0.005763 -492994.000000 0 0 1
9.696456 24.084857 12.953180 29.015280 1.188054 1.108029 0.037619 -0.001011 716402.000000 0 0 1
10.840056 23.201957 13.089980 28.760827 1.133728 1.098276 0.038761 -0.004361 765801.000000 0 0 1
11.234356 22.557157 11.868580 27.854968 1.108718 1.130636 0.044539 -0.000587 -676612.000000 0 0 1
12.568156 21.870857 11.966680 27.919426 1.049223 1.127837 0.045526 -0.003062 -734321.000000 0 0 1
12.444156 20.756757 12.794380 27.375100 1.030728 1.084480 0.043441 0.005228 -812789.000000 0 0 1
13.587656 19.999457 12.843580 27.378097 0.974029 1.082504 0.046946 0.006655 -1064340.000000 0 0 1
13.900956 19.230257 14.174980 27.639997 0.944886 1.032303 0.047504 -0.000025 433072.000000 0 0 1
15.232156 18.706457 14.186780 27.985976 0.887413 1.039183 0.048282 -0.001280 674674.000000 0 0 1
15.508756 18.060857 15.427980 28.367915 0.861276 0.995774 0.039866 -0.000088 665056.000000 0 0 1
16.963456 17.498257 15.578380 28.924622 0.800916 1.002039 0.035366 -0.000415 636717.000000 0 0 1
17.119756 16.754757 16.813980 29.266326 0.774624 0.958783 0.042361 -0.007205 143408.000000 0 0 1
18.357356 16.065357 16.844280 29.644864 0.718912 0.966477 0.028888 -0.001258 14023.200000 0 0 1
18.895956 15.644357 18.221980 30.558855 0.691536 0.931923 0.041564 -0.006456 -292379.000000 0 0 1
19.372956 16.801857 18.896180 31.854033 0.714443 0.935754 0.049883 -0.004763 -484876.000000 0 0 1
18.459056 17.429757 19.695680 32.131806 0.756726 0.910988 0.044291 -0.007449 -672010.000000 0 0 1
19.148956 18.462657 20.609880 33.649953 0.767153 0.911604 0.043785 -0.007562 133947.000000 0 0 1
18.263156 19.470657 21.038180 33.989033 0.817388 0.903366 0.051186 -0.008810 526202.000000 0 0 1
19.034456 20.399857 21.819580 35.419751 0.820009 0.907105 0.046483 -0.000665 630311.000000 0 0 1
18.155856 21.511557 22.460780 36.012065 0.869793 0.897327 0.061583 -0.005537 368513.000000 0 0 1
17.235556 21.048057 23.420590 35.897202 0.884657 0.860003 0.056136 -0.013297 1123480.000000 0 0 1
16.174556 21.995957 23.763520 36.195901 0.936742 0.854594 0.058028 -0.023582 932861.000000 0 0 1
15.674956 21.784057 25.183470 36.802942 0.947062 0.817182 0.072917 -0.023601 -81453.300000 0 0 1
14.819256 20.658857 25.212200 35.805778 0.948533 0.789588 0.071407 -0.025798 -379205.000000 0 0 1
14.168956 20.639057 26.476540 36.438128 0.969180 0.757412 0.070361 -0.025245 240847.000000 0 0 1
12.969756 19.662557 26.613700 35.540396 0.987690 0.724502 0.099684 -0.020617 1010.770000 0 0 1
13.231256 18.245457 26.595200 34.860687 0.943370 0.703010 0.086704 -0.021854 -146571.000000 0 0 1
13.668756 17.687657 25.357640 33.803816 0.912872 0.722521 0.096203 -0.025980 44248.000000 0 0 1
12.594556 17.629857 24.233860 32.507148 0.950479 0.729522 0.096587 -0.021301 -171164.000000 0 0 1
12.370356 18.788957 23.431630 32.482178 0.988550 0.765020 0.090331 -0.016769 216984.000000 0 0 1
13.484656 19.324857 22.702080 32.721101 0.961556 0.804036 0.080804 -0.012467 228798.000000 0 0 1
14.256856 18.469857 21.665780 31.840219 0.913427 0.822415 0.093541 -0.014051 52616.700000 0 0 1
13.459856 18.055157 20.581780 30.508459 0.930191 0.830339 0.078218 -0.004232 57128.900000 0 0 1
14.246256 17.282557 19.704280 29.831212 0.881405 0.849278 0.080014 -0.005360 87469.500000 0 0 1
13.394356 16.511057 18.700480 28.314868 0.889242 0.849382 0.072946 0.007658 559309.000000 0 0 1
12.660956 17.317657 17.718580 27.823535 0.939501 0.880430 0.067026 0.005206 30330.600000 0 0 1
11.734056 16.514657 17.077080 26.496200 0.953042 0.870413 0.055985 0.010322 -39800.600000 0 0 1
11.155456 17.146957 15.727580 25.803471 0.994014 0.915349 0.048747 0.013264 711636.000000 0 0 1
10.279556 18.285457 15.730480 26.219748 1.058657 0.927360 0.050158 0.005225 484906.000000 0 0 1
9.845156 18.611357 14.397280 25.506693 1.084229 0.971028 0.037460 0.005700 251577.000000 0 0 1
8.880456 19.859857 14.324280 26.047292 1.150310 0.988512 0.041164 0.003145 49217.300000 0 0 1
7.601356 19.520657 14.762880 25.627705 1.199461 0.956906 0.033492 0.003108 -1073090.000000 0 0 1
6.731356 20.601957 14.732680 26.206939 1.254997 0.973792 0.026287 -0.002021 -315531.000000 0 0 1
5.415056 20.269657 15.443080 26.051306 1.309742 0.936272 0.022304 -0.004642 525810.000000 0 0 1
4.433056 19.461257 14.726980 24.804766 1.346829 0.935128 0.020955 -0.014028 936887.000000 0 1 0
3.360856 19.055457 15.581480 24.843275 1.396219 0.892855 0.019923 -0.014517 328134.000000 0 1 0
2.182556 18.371357 14.889280 23.747862 1.452548 0.893134 0.013401 -0.016128 -378363.000000 0 1 0
1.477056 19.260057 14.093880 23.911690 1.494256 0.940463 0.014223 -0.018848 -365041.000000 0 1 0
0.449456 18.585857 13.379580 22.905223 1.546618 0.946991 0.014146 -0.025428 34025.800000 0 1 0
-0.331044 19.604157 12.518480 23.262521 -1.553912 1.002568 0.022415 -0.028366 -155443.000000 0 1 0
-1.374544 20.333157 13.104080 24.228981 -1.503298 0.999357 0.028172 -0.020445 237675.000000 0 1 0
-2.492744 20.405157 12.206280 23.907686 -1.449236 1.034962 0.028198 -0.025166 1097200.000000 0 1 0
-3.644344 21.383757 12.669080 25.120746 -1.401992 1.042193 0.032899 -0.014400 713180.000000 0 0 1
-4.581244 20.729857 13.500880 25.159263 -1.353295 1.004374 0.038107 -0.016928 134975.000000 0 0 1
-5.545444 21.635257 14.026180 26.373661 -1.319883 1.010042 0.037558 -0.004718 159560.000000 0 0 1
-6.406944 21.018957 15.140980 26.685103 -1.274926 0.967458 0.041008 -0.004623 -287191.000000 0 0 1
-7.434044 20.049157 14.870380 26.045381 -1.215721 0.963145 0.041627 -0.004573 569805.000000 0 0 1
-8.247944 19.762157 15.994380 26.728105 -1.175414 0.929281 0.033085 0.015594 -485085.000000 0 0 1
-9.246744 20.819957 16.472380 28.112491 -1.152836 0.944750 0.026512 0.019397 96081.900000 0 0 1
-10.450644 20.944357 15.688580 28.178247 -1.107972 0.980314 0.025947 0.006346 670766.000000 0 0 1
-11.458844 20.045857 16.114880 28.157252 -1.051497 0.961467 0.014967 0.010946 11563.800000 0 0 1
-12.745544 20.059357 15.233680 28.229270 -1.004759 1.000785 0.012212 -0.000289 268066.000000 0 0 1
-13.566744 21.181757 15.257580 29.419672 -1.001134 1.025562 0.001911 -0.001597 -279896.000000 0 0 1
-14.692344 21.023257 14.445680 29.436711 -0.960835 1.057861 0.006315 -0.010449 -921933.000000 0 0 1
-15.571244 22.234057 14.344380 30.701436 -0.959847 1.084650 0.021387 -0.018777 -627331.000000 0 0 1
-16.594544 22.021357 15.295480 31.532059 -0.925017 1.064345 0.030424 -0.029488 -187885.000000 0 0 1
-17.622244 23.011857 15.157580 32.708428 -0.917266 1.088951 0.026656 -0.028889 178249.000000 0 0 1
-18.870344 22.581857 15.949280 33.472521 -0.874697 1.074140 0.034030 -0.024935 -1128460.000000 0 0 1
-19.526744 21.514357 15.325980 32.848850 -0.833790 1.085398 0.030780 -0.022941 817963.000000 0 0 1
-20.705344 21.035157 16.041080 33.593233 -0.793300 1.072979 0.043011 -0.021304 949811.000000 0 0 1
-21.927744 21.947157 15.945980 34.882344 -0.785841 1.096024 0.051436 -0.025717 -1473860.000000 0 0 1
-22.587744 21.897257 14.726180 34.735521 -0.769878 1.132992 0.060032 -0.031979 135339.000000 0 0 1
-23.353344 23.103557 14.454480 35.889901 -0.780021 1.156282 0.080135 -0.040314 226825.000000 0 0 1
-22.537744 24.231957 13.776480 35.845907 -0.821607 1.176320 0.054256 -0.028835 266865.000000 0 0 1
-21.527544 24.906257 14.540580 35.988682 -0.858034 1.154876 0.028490 -0.023950 384099.000000 0 0 1
-21.127844 26.081857 13.884080 36.323776 -0.889952 1.178587 0.024890 -0.005781 -372481.000000 0 0 1
-19.685744 26.463457 14.257880 35.932300 -0.931221 1.162770 0.016538 -0.008704 -498817.000000 0 0 1
-18.735844 25.784157 13.503880 34.615161 -0.942413 1.170040 0.015167 -0.004655 -73345.600000 0 0 1
-17.448644 26.377657 13.699580 34.466135 -0.986384 1.162028 0.015472 -0.012325 819656.000000 0 0 1
-16.405644 25.952157 12.600980 33.188014 -1.007072 1.181341 0.016832 -0.017650 633232.000000 0 0 1
-15.233244 26.758657 12.571880 33.258527 -1.053269 1.183156 0.019419 -0.015242 222470.000000 0 0 1
-14.206144 26.134757 11.837080 32.014942 -1.072901 1.192071 0.019114 -0.004388 -279583.000000 0 0 1
-12.808844 26.741557 12.008680 31.990401 -1.124100 1.185985 0.017927 -0.001981 -773025.000000 0 0 1
-11.823444 25.953357 11.368480 30.702001 -1.143324 1.191481 0.018857 -0.000848 760391.000000 0 0 1
-10.485544 26.376957 11.669480 30.689856 -1.192424 1.180742 0.028924 -0.003090 950708.000000 0 0 1
-9.949644 27.687257 10.949080 31.392068 -1.225809 1.214522 0.029265 -0.011882 -1057090.000000 0 0 1
-8.640944 28.023557 11.258180 31.412295 -1.271701 1.204242 0.046862 -0.012928 -356918.000000 0 0 1
-8.122244 29.216757 10.657080 32.142854 -1.299644 1.232846 0.044279 -0.019085 -201981.000000 0 0 1
-6.885344 29.738657 11.378680 32.577139 -1.343277 1.213989 0.034717 -0.017376 -339903.000000 0 0 1
-5.697044 29.028957 11.173880 31.622654 -1.377005 1.209646 0.040841 -0.015222 82822.900000 0 0 1
-4.539244 29.776557 11.535880 32.254063 -1.419517 1.205039 0.045350 -0.022224 781587.000000 0 0 1
-3.243244 29.317257 10.802780 31.412103 -1.460619 1.219724 0.048992 -0.024809 210461.000000 0 0 1
-3.067844 29.834257 9.528780 31.468908 -1.468327 1.263167 0.061529 -0.031219 335391.000000 0 0 1
-1.793644 29.621157 8.934580 30.991237 -1.510317 1.278352 0.044584 -0.029110 451054.000000 0 0 1
-1.444644 30.520957 7.737480 31.519587 -1.523499 1.322780 0.036340 -0.033709 -222879.000000 0 0 1
-2.136144 30.115557 6.604980 30.905268 -1.499983 1.355418 0.058311 -0.034058 4889.240000 0 0 1
-2.332844 31.201457 5.761780 31.814638 -1.496168 1.388687 0.049811 -0.027439 18833.000000 0 0 1
11.126456 33.959557 -26.567162 44.529356 1.254180 2.210081 0.069905 -0.026315 64734.300000 0 0 1
11.867456 34.215657 -25.378242 44.222198 1.236937 2.182032 0.053834 -0.025870 208944.000000 0 0 1
13.014456 -33.588763 -25.628042 44.208343 -1.201143 2.189170 0.053840 -0.021404 -127513.000000 0 0 1
13.824656 -33.346163 -24.317512 43.525040 -1.177784 2.163616 0.051643 -0.007866 -625008.000000 0 0 1
13.062756 -32.692663 -23.325912 42.232026 -1.190667 2.155950 0.049598 -0.005689 148806.000000 0 0 1
13.637256 -32.498263 -22.036912 41.566060 -1.173483 2.129593 0.039158 -0.008635 -474028.000000 0 0 1
15.042856 -31.951263 -21.743312 41.472188 -1.130775 2.122673 0.026371 -0.002510 -606569.000000 0 0 1
16.009656 -32.824763 -22.169112 42.722871 -1.117012 2.116366 0.035364 -0.002476 -8944.820000 0 0 1
17.314356 -32.608463 -21.604312 42.776689 -1.082675 2.100235 0.021611 0.000202 736080.000000 0 0 1
18.193656 -33.893863 -21.652712 44.143437 -1.078157 2.083469 0.013191 0.003882 -743631.000000 0 0 1
19.528856 -33.618563 -21.354112 44.357436 -1.044543 2.073059 0.022242 0.008730 -238212.000000 0 0 1
20.260656 33.739957 -21.470512 44.831481 1.030013 2.070216 0.016881 0.005193 -441050.000000 0 0 1
21.743156 33.912557 -21.179312 45.512521 1.000665 2.054828 0.035605 0.011088 -516925.000000 0 0 1
22.578956 -34.151163 -22.191612 46.568002 -0.986624 2.067514 0.031646 0.010982 232369.000000 0 0 1
23.927656 -34.054963 -21.787612 46.978434 -0.958315 2.053052 0.029014 0.014061 510886.000000 0 0 1
24.946156 -33.778063 -22.948712 47.853021 -0.934676 2.070957 0.049913 0.009473 248607.000000 0 0 1
25.040456 -32.449163 -23.407712 47.200568 -0.913562 2.089690 0.053428 0.003329 -154311.000000 0 0 1
23.882356 -31.883863 -23.981912 46.498169 -0.927909 2.112691 0.035832 0.002881 23271.500000 0 0 1
23.980356 -30.319063 -23.882612 45.438774 -0.901608 2.124216 0.037313 -0.007767 71583.100000 0 0 1
24.699556 -29.596363 -24.858312 45.868818 -0.875342 2.143544 0.048912 -0.011109 -60470.300000 0 0 1
24.572356 -28.264963 -24.419512 44.710417 -0.855171 2.148582 0.057830 -0.008070 233787.000000 0 0 1
24.988056 -27.186663 -25.431252 44.835992 -0.827513 2.173906 0.048957 -0.009279 239812.000000 0 0 1
24.060656 -26.980063 -26.475682 44.808489 -0.842534 2.202925 0.045387 -0.013896 -454835.000000 0 0 1
24.724456 -26.481363 -27.597502 45.543204 -0.819695 2.221772 0.036526 -0.013409 -607147.000000 0 0 1
23.805856 -26.145663 -28.755442 45.576199 -0.832206 2.253549 0.037294 -0.017850 282085.000000 0 0 1
23.104656 -24.877863 -28.596492 44.390230 -0.822337 2.270782 0.050676 -0.018664 87006.300000 0 0 1
21.834956 -25.037163 -27.976032 43.431362 -0.853610 2.270699 0.042148 -0.018270 18611.000000 0 0 1
21.024556 -23.723963 -27.761542 42.137413 -0.845649 2.290064 0.043885 -0.014653 60020.600000 0 0 1
20.544656 -23.164763 -28.961742 42.396599 -0.845270 2.322815 0.050873 -0.016904 -18503.000000 0 0 1
20.154556 -21.823563 -28.666732 41.282630 -0.825136 2.338385 0.042159 -0.002153 -300831.000000 0 0 1
18.965056 -21.314063 -29.504872 41.042662 -0.843650 2.372990 0.050155 -0.007554 88928.000000 0 0 1
17.795356 -22.073063 -29.234242 40.725124 -0.892285 2.371495 0.049960 -0.013899 -494987.000000 0 0 1
16.724956 -21.575163 -29.953622 40.526920 -0.911365 2.402536 0.048820 -0.019238 -957999.000000 0 0 1
15.529556 -22.521263 -29.927202 40.546415 -0.967118 2.401042 0.048269 -0.018542 -598364.000000 0 0 1
15.736156 -23.728463 -30.626272 41.816684 -0.985214 2.392627 0.035524 -0.010248 -37831.800000 0 0 1
14.759456 -24.686463 -30.306542 41.782167 -1.031940 2.382334 0.047322 -0.017774 -256912.000000 0 0 1
15.110756 -26.102063 -30.873392 43.160387 -1.046028 2.367875 0.056398 -0.008090 211387.000000 0 0 1
14.227456 -27.120863 -30.398122 43.150985 -1.087667 2.352458 0.053157 -0.004578 207830.000000 0 0 1
14.586856 -28.458163 -30.721722 44.344871 -1.097142 2.336148 0.095974 -0.015828 -11823.200000 0 0 1
13.809456 -29.484163 -29.864972 44.180691 -1.132773 2.313081 0.083160 -0.026944 -194570.000000 0 0 1
14.076756 -29.729163 -28.485042 43.512938 -1.128573 2.284494 0.088206 -0.024804 -195331.000000 0 0 1
13.949456 -28.595963 -27.626452 42.137125 -1.116947 2.285816 0.075067 -0.012297 526290.000000 0 0 1
15.088756 -28.373063 -26.540692 41.678647 -1.082035 2.261129 0.055698 -0.009871 259349.000000 0 0 1
14.997556 -29.330863 -25.494682 41.655792 -1.098131 2.229424 0.056556 -0.013215 -436035.000000 0 0 1
15.909156 -29.089963 -24.490912 41.220528 -1.070340 2.206997 0.060542 -0.014517 -1285810.000000 0 0 1
15.600156 -27.921063 -23.488812 39.682174 -1.061280 2.204240 0.053048 -0.010717 905142.000000 0 0 1
14.480756 -28.056363 -22.579512 38.816055 -1.094327 2.191620 0.049045 -0.010055 1696500.000000 0 0 1
13.196956 -28.121363 -23.252612 38.802766 -1.132021 2.213362 0.052566 -0.004508 776738.000000 0 0 1
11.948956 -28.010363 -22.312312 37.751785 -1.167579 2.203127 0.030178 0.000210 510437.000000 0 0 1
11.696756 -26.647063 -21.942212 36.446409 -1.157169 2.216850 0.022756 0.003392 235994.000000 0 0 1
10.518356 -26.514463 -21.157612 35.514745 -1.193136 2.208985 0.035083 0.000820 -116328.000000 0 0 1
10.201356 -25.032263 -20.960312 34.205504 -1.183817 2.230365 0.036130 -0.007923 -188408.000000 0 0 1
10.918056 -24.298563 -19.988812 33.304305 -1.148500 2.214531 0.044943 -0.020894 17515.100000 0 0 1
10.383056 -23.013163 -19.847612 32.114502 -1.146962 2.237026 0.054148 -0.023132 -412672.000000 0 0 1
10.922456 -22.254963 -18.632912 31.012398 -1.114546 2.215325 0.044576 -0.021811 -185131.000000 0 0 1
10.474356 -22.761563 -17.387912 30.498203 -1.139511 2.177459 0.066941 -0.026640 182096.000000 0 0 1
10.862256 -21.974363 -16.259812 29.415008 -1.111707 2.156484 0.062725 -0.027722 -373015.000000 0 0 1
10.076656 -22.351163 -15.029612 28.757655 -1.147249 2.120729 0.058283 -0.025646 -313471.000000 0 0 1
10.593156 -23.520463 -14.483612 29.583816 -1.147626 2.082403 0.072087 -0.023402 -38956.200000 0 0 1
9.869656 -23.996963 -13.368312 29.188630 -1.180597 2.046537 0.080176 -0.021640 -194590.000000 0 0 1
9.989656 -25.501663 -13.221312 30.412681 -1.197443 2.020535 0.087935 -0.017610 215197.000000 0 0 1
11.278656 -25.881363 -12.761312 30.982319 -1.159828 1.995324 0.067507 -0.014243 -40542.500000 0 0 1
11.425256 -27.209263 -13.167712 32.315153 -1.173251 1.990487 0.077575 -0.016337 -311151.000000 0 0 1
12.681356 -27.952863 -12.628812 33.191358 -1.144895 1.961117 0.053793 -0.015724 1374550.000000 0 0 1
13.990056 -27.542563 -13.103112 33.556013 -1.100814 1.971954 0.048642 -0.009766 1149920.000000 0 0 1
14.226856 -27.688863 -14.496712 34.339936 -1.096161 2.006615 0.051078 -0.009817 -1272530.000000 0 0 1
15.597656 -27.152363 -14.887512 34.672406 -1.049376 2.014598 0.043950 -0.004023 -1011020.000000 0 0 1
16.609456 -28.072663 -14.740012 35.794083 -1.036532 1.995225 0.033322 0.005829 -1331000.000000 0 0 1
17.787056 -27.547263 -15.278312 36.175377 -0.997455 2.006822 0.040920 0.008574 -361867.000000 0 0 1
18.938756 -28.536263 -14.976712 37.380432 -0.984869 1.983030 0.041647 0.006061 -178082.000000 0 0 1
18.888556 -29.713563 -15.701812 38.551528 -1.004548 1.990286 0.034700 0.009851 -153443.000000 0 0 1
20.017556 -30.524363 -15.468512 39.644850 -0.990362 1.971620 0.037201 0.009318 -47781.600000 0 0 1
20.252556 -31.471063 -16.673212 40.970597 -0.998983 1.989915 0.030658 0.006550 -109802.000000 0 0 1
19.617256 -32.706263 -16.557712 41.577569 -1.030523 1.980390 0.024905 0.011783 -184645.000000 0 0 1
19.968156 -33.526263 -17.625912 42.818341 -1.033620 1.995054 0.028156 0.007762 1925.170000 0 0 1
19.857356 33.540657 -17.375012 42.675300 1.036252 1.990122 0.018569 0.006311 -165196.000000 0 0 1
20.840856 33.044957 -16.486012 42.403998 1.008122 1.970108 0.035327 0.004164 218011.000000 0 0 1
20.690156 31.632157 -16.311212 41.167117 0.991554 1.978192 0.033841 -0.008654 -30390.500000 0 0 1
21.628456 31.081157 -15.199312 40.802543 0.962847 1.952507 0.032267 -0.006864 417555.000000 0 0 1
23.007056 30.819357 -15.441412 41.443872 0.929531 1.952591 0.033964 -0.005866 606428.000000 0 0 1
23.768756 30.542257 -14.280512 41.251863 0.909474 1.924291 0.039348 -0.005782 191180.000000 0 0 1
23.364056 29.298257 -13.406412 39.799483 0.897609 1.914365 0.047740 -0.008729 -931863.000000 0 0 1
23.452856 28.059457 -14.079012 39.186581 0.874588 1.938294 0.055661 -0.009996 76132.500000 0 0 1
23.229256 26.945357 -13.243912 37.961188 0.859327 1.927172 0.034357 -0.009594 -115330.000000 0 0 1
21.795356 26.778657 -12.700612 36.789122 0.887632 1.923277 0.039746 -0.011317 -528610.000000 0 0 1
20.899356 26.376257 -13.729512 36.345419 0.900734 1.958162 0.039559 -0.013512 419727.000000 0 0 1
19.506156 26.569757 -13.542012 35.634648 0.937517 1.960618 0.042820 -0.011557 540758.000000 0 0 1
19.050756 28.059757 -13.771212 36.605020 0.974348 1.956500 0.028701 -0.012030 -472381.000000 0 0 1
18.976456 28.706057 -15.057412 37.561539 0.986685 1.983266 0.030666 -0.011024 284544.000000 0 0 1
18.106356 28.090257 -16.011912 37.057846 0.998242 2.017593 0.020533 -0.001326 -461.835000 0 0 1
18.242856 28.688157 -17.405312 38.193677 1.004396 2.043968 0.014318 0.002115 32764.600000 0 0 1
17.613356 29.971357 -17.522212 38.929943 1.039490 2.037669 0.009412 0.000214 100573.000000 0 0 1
17.833956 30.639657 -18.710612 40.086476 1.043676 2.056416 0.002972 0.005263 -245984.000000 0 0 1
16.780156 31.714757 -19.060112 40.628651 1.084144 2.059102 -0.004772 0.002719 -78579.700000 0 0 1
16.922556 32.951957 -18.371012 41.348499 1.096366 2.031186 0.000438 0.000775 331533.000000 0 0 1
15.953256 33.921257 -18.810812 41.940489 1.131188 2.035896 0.006942 0.004699 265725.000000 0 0 1
15.885856 -33.480463 -17.799812 41.111253 -1.127771 2.018578 0.009414 0.005809 -243172.000000 0 0 1
14.918156 -32.524863 -18.132412 40.114866 -1.140756 2.039816 0.007206 0.006632 -185897.000000 0 0 1
14.668556 -31.639063 -17.097712 38.839781 -1.136673 2.026630 0.014346 0.005705 47969.400000 0 0 1
13.694956 -30.473063 -17.436112 37.685241 -1.148432 2.051809 0.028648 0.009451 -94682.800000 0 0 1
12.388056 -30.898763 -17.659612 37.683675 -1.189494 2.058533 0.030206 0.007589 -380633.000000 0 0 1
11.423156 -29.842063 -17.663112 36.510584 -1.205216 2.075766 0.027913 0.011131 1473270.000000 0 0 1
9.968156 -30.354963 -18.024912 36.683584 -1.253505 2.084449 0.051363 0.003309 -294986.000000 0 0 1
9.423756 -31.095763 -17.003012 36.672279 -1.276538 2.052904 0.060685 0.002797 29127.100000 0 0 1
8.389656 -31.987663 -17.390912 37.363629 -1.314296 2.054940 0.076340 0.002305 1486930.000000 0 0 1
7.021456 -31.392863 -17.975512 36.850125 -1.350754 2.080365 0.075252 0.009810 432392.000000 0 0 1
7.071956 -30.883163 -19.344712 37.121425 -1.345687 2.118959 0.056257 0.017836 32320.100000 0 0 1
7.317656 -31.902163 -20.330112 38.530631 -1.345319 2.126610 0.057960 0.004031 -1040900.000000 0 0 1
7.334856 -31.438863 -21.822912 38.967188 -1.341591 2.165222 0.054850 0.010014 -401319.000000 0 0 1
8.578356 -31.003263 -22.328612 39.158108 -1.300858 2.177566 0.046373 0.005286 190702.000000 0 0 1
9.614056 -31.970963 -22.386012 40.195847 -1.278686 2.161473 0.043110 0.003344 -405696.000000 0 0 1
9.363456 -33.202463 -23.399812 41.684878 -1.295924 2.166813 0.052839 -0.010993 -940677.000000 0 0 1
8.273056 -33.955563 -23.003412 41.839941 -1.331809 2.152916 0.056145 -0.019472 -628689.000000 0 0 1
7.928156 33.595257 -23.911112 41.990930 1.339046 2.176615 0.048564 -0.025313 -540376.000000 0 0 1
6.856856 32.633957 -23.352712 40.710450 1.363695 2.181726 0.066231 -0.039481 721266.000000 0 0 1
5.489356 33.014757 -23.512712 40.901770 1.406034 2.183227 0.081474 -0.037865 720456.000000 0 0 1
5.058656 34.099657 -22.687812 41.268794 1.423521 2.152870 0.068598 -0.031457 -768226.000000 0 0 1
3.630956 -34.072363 -23.060412 41.302450 -1.464631 2.163168 0.065008 -0.028513 102856.000000 0 0 1
2.530156 33.666157 -22.715812 40.691767 1.495783 2.163060 0.064973 -0.037363 1175730.000000 0 0 1
1.328256 34.278057 -23.246212 41.438337 1.532066 2.166369 0.058084 -0.033298 1090860.000000 0 0 1
0.036756 33.556157 -22.710112 40.518714 1.569701 2.165767 0.056162 -0.040971 343144.000000 0 0 1
-0.167344 33.834457 -21.338112 40.001418 -1.565850 2.133451 0.052201 -0.036321 -146824.000000 0 0 1
-1.334944 33.186257 -20.900812 39.242243 -1.530592 2.132478 0.035079 -0.035895 -113292.000000 0 0 1
-1.670544 33.388657 -19.419012 38.661235 -1.520805 2.097037 0.045349 -0.030516 -62508.200000 0 0 1
-0.766244 32.876557 -18.454912 37.709931 -1.547494 2.082188 0.048800 -0.036454 -133559.000000 0 0 1
-1.360844 32.588757 -17.224712 36.885900 -1.529062 2.056661 0.039425 -0.028345 357245.000000 0 0 1
-0.310444 31.829257 -16.367312 35.792273 -1.561043 2.045738 0.024301 -0.022137 526120.000000 0 0 1
0.786856 32.516357 -15.822612 36.170259 1.546602 2.023555 0.047619 -0.016046 -291935.000000 0 0 1
1.536656 31.557457 -15.119012 35.025974 1.522141 2.017119 0.049434 -0.007359 -248154.000000 0 0 1
2.514956 32.075557 -14.052712 35.109045 1.492549 1.982596 0.043303 -0.009707 -773034.000000 0 0 1
3.610856 32.669457 -14.662312 35.990486 1.460716 1.990395 0.054310 -0.011182 -504470.000000 0 0 1
4.464356 33.270857 -13.704612 36.258747 1.437411 1.958396 0.056341 -0.015918 757542.000000 0 0 1
5.930156 33.550457 -14.193012 36.908555 1.395850 1.965512 0.074151 -0.021172 826410.000000 0 0 1
6.725956 32.390657 -14.338512 36.055319 1.366055 1.979784 0.061266 -0.006914 -486087.000000 0 0 1
7.950056 32.622157 -14.976312 36.765451 1.331755 1.990344 0.055923 0.002176 -198732.000000 0 0 1
8.724856 31.310657 -15.087812 35.834653 1.299036 2.005388 0.040460 -0.004630 -101505.000000 0 0 1
9.522756 30.964157 -13.984712 35.285040 1.272435 1.978318 0.041595 -0.008887 123098.000000 0 0 1
10.257356 29.735057 -13.955012 34.411180 1.238620 1.988363 0.042282 -0.008599 610344.000000 0 0 1
9.349656 28.459257 -13.820612 32.990221 1.253377 2.003064 0.032524 -0.009342 222991.000000 0 0 1
8.705356 28.032757 -15.012512 32.969595 1.269696 2.043555 0.034022 -0.009511 81011.000000 0 0 1
7.957856 26.874757 -14.728812 31.662563 1.282913 2.054635 0.028650 -0.008204 -32541.100000 0 0 1
7.194856 26.223057 -15.919112 31.509249 1.303015 2.100434 0.029115 -0.000469 433229.000000 0 0 1
8.065256 25.434957 -16.728912 31.493521 1.263732 2.130796 0.042412 0.000832 468547.000000 0 0 1
7.330756 24.595057 -17.591712 31.114709 1.281122 2.171693 0.037198 0.006163 -268128.000000 0 0 1
8.317356 23.803557 -18.387812 31.207360 1.234641 2.200882 0.051944 0.008445 -606079.000000 0 0 1
7.700356 22.743457 -19.097012 30.679898 1.244336 2.242678 0.047061 0.001014 -631375.000000 0 0 1
8.612256 21.997657 -19.849912 30.855904 1.197632 2.269610 0.042940 0.000339 -596740.000000 0 0 1
7.975656 21.047957 -20.857812 30.686738 1.208587 2.318151 0.029636 -0.010004 -206413.000000 0 0 1
7.382356 19.941257 -20.222712 29.344692 1.216236 2.331103 0.031396 -0.016208 -417943.000000 0 0 1
6.708356 19.189257 -21.149712 29.334960 1.234488 2.376002 0.035270 -0.015311 -385749.000000 0 0 1
25.066256 -12.556443 -9.619012 29.639616 -0.464391 1.901314 0.056631 -0.014221 -29731.400000 0 0 1
25.622556 -11.621143 -8.706212 29.451052 -0.425803 1.870897 0.054915 -0.021308 779707.000000 0 0 1
24.839056 -11.775243 -7.522912 28.499636 -0.442682 1.837927 0.051402 -0.018940 205396.000000 0 0 1
25.578956 -11.377943 -6.159512 28.664964 -0.418535 1.787365 0.039890 -0.019370 -36656.400000 0 0 1
25.517956 -9.982643 -5.816112 28.011541 -0.372898 1.779951 0.040250 -0.018736 325018.000000 0 0 1
26.453156 -9.204443 -6.510012 28.755373 -0.334850 1.799169 0.038685 -0.021107 -933556.000000 0 0 1
26.800256 -7.796743 -5.944612 28.537367 -0.283106 1.780643 0.078220 -0.015317 85722.700000 0 0 1
27.433856 -7.691743 -4.663912 28.870945 -0.273356 1.733051 0.081011 -0.017343 1292600.000000 0 0 1
28.758856 -8.228743 -4.538112 30.255222 -0.278683 1.721359 0.068652 -0.020894 284403.000000 0 0 1
29.522656 -7.914743 -3.252312 30.737728 -0.261931 1.676803 0.084045 -0.021228 -354894.000000 0 0 1
29.813356 -6.563243 -2.915512 30.666147 -0.216688 1.666013 0.087241 -0.019981 286158.000000 0 0 1
30.544756 -6.465743 -1.718112 31.268832 -0.208602 1.625770 0.090445 -0.022366 -59868.100000 0 0 1
30.609356 -5.045343 -1.182112 31.044896 -0.163361 1.608883 0.095967 -0.027847 1115520.000000 0 0 1
29.316856 -4.571043 -0.701512 29.679363 -0.154673 1.594435 0.105412 -0.024982 1153510.000000 0 0 1
29.181256 -3.202243 -0.237512 29.357392 -0.109299 1.578887 0.094512 -0.022619 -319184.000000 0 0 1
29.821656 -2.886143 1.130888 29.982327 -0.096480 1.533069 0.098991 -0.021232 -569989.000000 0 0 1
29.332756 -3.638443 2.224988 29.641178 -0.123410 1.495662 0.105146 -0.024709 278968.000000 0 0 1
29.758256 -3.215043 3.495288 30.134820 -0.107621 1.454546 0.092120 -0.020593 -220877.000000 0 0 1
29.214256 -4.186643 4.598888 29.868889 -0.142339 1.416212 0.090128 -0.024762 71348.900000 0 0 1
29.754156 -5.472143 4.349088 30.564174 -0.181879 1.428018 0.084505 -0.027534 237727.000000 0 0 1
29.697756 -6.276643 5.492688 30.846760 -0.208286 1.391778 0.078908 -0.027223 -215618.000000 0 0 1
30.647656 -7.490043 5.514088 32.027875 -0.239694 1.397769 0.062402 -0.028714 -85616.100000 0 0 1
32.013856 -7.140843 5.472488 33.253974 -0.219462 1.405478 0.070425 -0.026883 162817.000000 0 0 1
32.847956 -8.309843 5.522588 34.329881 -0.247780 1.409226 0.074145 -0.026789 789507.000000 0 0 1
34.383056 -8.111843 5.708688 35.785272 -0.231689 1.410586 0.080687 -0.026866 574000.000000 0 0 1
34.908356 -7.537443 4.519288 35.997644 -0.212656 1.444920 0.089664 -0.027579 -809249.000000 0 0 1
-36.172516 -7.290943 4.641888 37.190804 0.198895 1.445657 0.097535 -0.023216 -457553.000000 0 0 1
-35.513716 -6.855243 3.313088 36.320724 0.190686 1.479452 0.092373 -0.015956 -215955.000000 0 0 1
-35.383916 -8.024243 2.518688 36.369682 0.223005 1.501488 0.095740 -0.016399 405635.000000 0 0 1
-34.429416 -7.916243 1.468788 35.358294 0.225999 1.529244 0.106107 -0.013977 86901.200000 0 0 1
-34.230916 -9.202343 0.721088 35.453614 0.262622 1.550456 0.093169 -0.011430 -69985.100000 0 0 1
-33.806816 -10.250243 1.619488 35.363697 0.294390 1.524985 0.081821 -0.011800 403315.000000 0 0 1
-33.680016 -11.437443 0.911088 35.580735 0.327372 1.545187 0.072558 -0.014990 -704371.000000 0 0 1
-33.426716 -12.713343 1.687488 35.802543 0.363440 1.523646 0.071325 -0.019208 455184.000000 0 0 1
-32.122116 -12.916743 2.210688 34.692359 0.382327 1.507030 0.056929 -0.008919 541025.000000 0 0 1
-31.167816 -13.420343 1.276888 33.958340 0.406590 1.533186 0.055377 -0.001336 395784.000000 0 0 1
-29.800716 -13.795443 1.935888 32.895967 0.433549 1.511913 0.046014 0.006329 189111.000000 0 0 1
-29.001816 -12.741243 2.358888 31.764902 0.413942 1.496467 0.052774 0.004894 420157.000000 0 0 1
-27.829916 -13.239043 3.021988 30.966255 0.444030 1.473051 0.051616 0.007612 105118.000000 0 0 1
-26.936116 -12.085543 3.443688 29.723286 0.421751 1.454677 0.062353 0.012133 502540.000000 0 0 1
-25.686916 -12.488343 4.073088 28.850761 0.452527 1.429145 0.056085 0.013068 1278430.000000 0 0 1
-25.092216 -11.328743 4.651388 27.921231 0.424088 1.403426 0.055399 0.017261 -186367.000000 0 0 1
-23.665116 -11.512143 5.182688 26.822144 0.452757 1.376349 0.066484 0.018275 -153087.000000 0 0 1
-23.591416 -12.235943 6.396788 27.334815 0.478465 1.334590 0.053240 0.013379 164156.000000 0 0 1
-22.265216 -12.627943 6.706988 26.461075 0.515922 1.314535 0.059497 0.010275 317128.000000 0 0 1
-21.622416 -12.111243 8.026888 26.050759 0.510583 1.257575 0.061142 0.002953 -447836.000000 0 0 1
-21.461816 -10.696943 8.095488 25.309506 0.462381 1.245215 0.062567 0.002269 1029720.000000 0 0 1
-22.645116 -9.942443 8.448688 26.134915 0.413715 1.241611 0.056396 0.000995 294524.000000 0 0 1
-22.987416 -9.950443 10.025588 26.980457 0.408513 1.190078 0.058699 0.002576 -634657.000000 0 0 1
-23.308916 -11.235943 10.515788 27.930876 0.449181 1.184788 0.055827 -0.001700 162480.000000 0 0 1
-24.592516 -11.733043 10.201788 29.095234 0.445159 1.212548 0.040465 0.000938 -794902.000000 0 0 1
-25.683016 -11.227943 11.105788 30.150001 0.412137 1.193561 0.056208 -0.009721 -1157500.000000 0 0 1
-25.607316 -11.938643 12.366388 30.841424 0.436260 1.158224 0.055400 -0.014351 337667.000000 0 0 1
-26.650216 -11.663643 13.306388 31.989601 0.412542 1.141798 0.043768 -0.020205 200595.000000 0 0 1
-26.623316 -12.370043 14.701088 32.832011 0.434955 1.106530 0.050646 -0.024117 -182023.000000 0 0 1
-26.662716 -13.785243 14.540288 33.351962 0.477173 1.119686 0.054998 -0.018568 327648.000000 0 0 1
-26.616916 -14.431443 15.762688 34.134867 0.496828 1.090799 0.043741 -0.018526 -471924.000000 0 0 1
-26.489216 -15.949943 15.608488 34.636746 0.541984 1.103321 0.045450 -0.010115 604227.000000 0 0 1
-27.751316 -16.650643 15.559088 35.909117 0.540416 1.122655 0.057626 -0.014173 746580.000000 0 0 1
-27.461116 -18.051343 15.582388 36.369970 0.581519 1.128030 0.038571 -0.005120 -130562.000000 0 0 1
-28.457716 -19.034843 16.223588 37.886300 0.589534 1.128277 0.029037 0.003046 -291478.000000 0 0 1
-28.536216 -18.832743 17.608388 38.458331 0.583345 1.095214 0.060303 0.003649 39899.700000 0 0 1
-29.144816 -19.858543 18.430988 39.793007 0.598116 1.089226 0.066977 0.005402 -70987.000000 0 0 1
-28.396616 -21.216443 18.559488 40.011997 0.641673 1.088462 0.032484 0.012275 463397.000000 0 0 1
-27.164516 -20.914943 19.235688 39.311035 0.656139 1.059486 0.052295 0.011300 614975.000000 0 0 1
-26.316416 -22.057443 19.331688 39.405568 0.697582 1.058038 0.048417 0.013860 104218.000000 0 0 1
-24.932516 -21.793443 19.925788 38.647401 0.718318 1.029113 0.054308 0.008124 -537174.000000 0 0 1
-23.907216 -21.319243 19.110688 37.299913 0.728238 1.032875 0.060129 0.005771 651993.000000 0 0 1
-22.679616 -21.345243 19.895288 36.956825 0.755098 1.002332 0.063640 0.007888 1198620.000000 0 0 1
-21.402216 -21.151743 19.031188 35.603894 0.779512 1.006850 0.060720 0.007144 -17333.700000 0 0 1
-21.177216 -22.243443 18.178988 35.689226 0.809949 1.036345 0.050061 0.006249 194115.000000 0 0 1
-19.958416 -22.078643 17.486188 34.519149 0.835793 1.039600 0.050452 0.002714 15970.800000 0 0 1
-19.756216 -23.061743 16.260888 34.446605 0.862445 1.079169 0.044491 0.005042 -831333.000000 0 0 1
-19.875716 -24.455543 16.650988 35.642294 0.888342 1.084710 0.045885 -0.003974 -10359.400000 0 0 1
-18.781916 -25.050453 17.309988 35.775988 0.927447 1.065755 0.049119 -0.007466 -36219.800000 0 0 1
-17.404516 -25.102063 16.596688 34.763211 0.964547 1.073079 0.038386 -0.004311 -297275.000000 0 0 1
-16.824316 -23.822343 16.498488 33.507638 0.955894 1.055974 0.038681 -0.010826 189318.000000 0 0 1
-15.647216 -23.992243 15.666788 32.648298 0.992891 1.070295 0.043575 -0.008242 1103190.000000 0 0 1
-14.710816 -22.720343 15.539288 31.210441 0.996199 1.049635 0.048536 -0.010363 325823.000000 0 0 1
-15.212716 -21.684743 14.709188 30.298763 0.959038 1.063894 0.049461 -0.009478 247675.000000 0 0 1
-16.257816 -20.849643 15.234288 30.514058 0.908516 1.048058 0.043597 -0.008146 371500.000000 0 0 1
-15.819616 -19.673543 16.152788 29.970338 0.893557 1.001595 0.045147 -0.014297 -176464.000000 0 0 1
-15.152416 -18.630343 15.442488 28.550935 0.887987 0.999319 0.038486 -0.014768 64970.500000 0 0 1
-15.018816 -17.451543 16.246488 28.179241 0.860180 0.956307 0.018950 -0.011808 -429899.000000 0 0 1
-14.375016 -16.230643 15.491988 26.647262 0.845954 0.950382 0.031320 -0.012835 459118.000000 0 0 1
-15.229216 -15.476643 14.594188 26.161916 0.793456 0.979014 0.034223 -0.018535 410260.000000 0 0 1
-15.385416 -16.067143 13.329588 25.933416 0.807070 1.030963 0.048778 -0.023700 -617697.000000 0 0 1
-16.322716 -15.220143 12.519188 25.589332 0.750458 1.059584 0.043031 -0.015873 -852805.000000 0 0 1
-17.675216 -15.429543 12.840688 26.746352 0.717667 1.070038 0.022767 -0.015367 -21532.500000 0 0 1
-18.456916 -14.409643 12.216188 26.410809 0.662872 1.089933 0.041068 -0.014085 87746.700000 0 0 1
-19.991416 -14.557343 12.126288 27.543054 0.629389 1.114901 0.023731 -0.014848 292860.000000 0 0 1
-20.570316 -15.660143 11.394788 28.252773 0.650693 1.155659 0.034359 -0.014375 234288.000000 0 0 1
-20.495016 -15.504643 9.964788 27.563321 0.647653 1.200895 0.041982 -0.006945 -73283.500000 0 0 1
-21.223016 -16.720043 9.283888 28.568634 0.667274 1.239819 0.034916 0.003729 596209.000000 0 0 1
-20.519216 -17.946443 9.471188 28.858560 0.718613 1.236406 0.044052 0.011140 576332.000000 0 0 1
-21.320816 -18.991843 8.856988 29.895043 0.727690 1.270012 0.051633 -0.005093 441908.000000 0 0 1
-20.787716 -20.405943 8.895088 30.457417 0.776131 1.274427 0.053923 0.003324 -76657.400000 0 0 1
-19.612816 -20.629443 8.135388 29.604409 0.810655 1.292411 0.072291 0.002951 42498.200000 0 0 1
-19.162416 -22.027143 8.333588 30.361850 0.854836 1.292752 0.054990 0.007569 569326.000000 0 0 1
-17.845816 -22.343743 7.536288 29.572144 0.896852 1.313110 0.044681 -0.002233 825243.000000 0 0 1
-16.740816 -21.819743 8.291288 28.724582 0.916357 1.277982 0.027289 -0.009019 534362.000000 0 0 1
-15.560216 -21.870443 7.463988 27.859428 0.952412 1.299567 0.043356 -0.013947 916001.000000 0 0 1
-14.241516 -21.549043 8.247788 27.114721 0.986805 1.261718 0.002527 -0.003960 569373.000000 0 0 1
-13.111516 -21.965743 7.487688 26.654666 1.032654 1.286049 0.030025 -0.000272 66826.300000 0 0 1
-11.917816 -21.705643 8.208488 26.087326 1.068671 1.250704 0.030648 0.004237 39212.200000 0 0 1
-10.688716 -22.330143 7.548488 25.881724 1.124360 1.274842 0.022827 0.008448 -232181.000000 0 0 1
-10.654216 -23.769743 7.604788 27.135693 1.149419 1.286741 0.032175 0.009158 -370850.000000 0 0 1
-9.444816 -24.174043 7.028788 26.888525 1.198332 1.306319 0.049997 0.001482 -58269.600000 0 0 1
-9.361216 -25.676583 7.135788 28.246040 1.221191 1.315399 0.031936 -0.000155 378126.000000 0 0 1
-10.247116 -26.305043 6.189588 28.901033 1.199331 1.354959 0.035766 -0.005955 118951.000000 0 0 1
-10.245616 -27.746823 6.296988 30.240882 1.217073 1.361034 0.056550 -0.006679 576822.000000 0 0 1
-9.107516 -28.614463 5.629088 30.551940 1.262651 1.385491 0.062941 -0.008297 1199660.000000 0 0 1
-7.776116 -28.303003 6.067688 29.972401 1.302667 1.366945 0.049615 -0.009656 913845.000000 0 0 1
-6.725516 -29.187383 5.645088 30.479550 1.344324 1.384512 0.043578 -0.009495 854105.000000 0 0 1
-6.620516 -30.618683 6.258988 31.945421 1.357850 1.373593 0.052781 -0.018996 -278019.000000 0 0 1
-6.640516 -30.531373 7.669288 32.172647 1.356634 1.330100 0.049090 -0.010739 149212.000000 0 0 1
-6.633516 -31.812813 8.251288 33.528233 1.365225 1.322142 0.076910 -0.022929 -290685.000000 0 0 1
-7.019516 -31.716693 9.720788 33.907462 1.352988 1.280031 0.058318 -0.017505 104493.000000 0 0 1
-5.968516 -31.279783 10.583088 33.556666 1.382252 1.249940 0.038040 -0.010228 490838.000000 0 0 1
-6.330516 -31.486713 11.914688 34.255633 1.372388 1.215555 0.033799 -0.009399 -253002.000000 0 0 1
-5.584516 -30.611183 12.958188 33.706765 1.390347 1.176196 0.034733 -0.010166 -18900.900000 0 0 1
-5.876516 -29.214173 12.877388 32.462725 1.372292 1.162897 0.029371 -0.001494 54464.300000 0 0 1
-5.289516 -28.445553 13.956688 32.123475 1.386944 1.121346 0.023538 -0.006870 -185421.000000 0 0 1
-6.166516 -28.045783 15.153288 32.468662 1.354367 1.085235 0.033269 -0.000593 -203465.000000 0 0 1
-6.637516 -29.080463 16.081888 33.887418 1.346394 1.076323 0.026715 -0.006807 123364.000000 0 0 1
-5.638516 -29.823933 16.759988 34.672137 1.383942 1.066279 0.013934 -0.012904 -106485.000000 0 0 1
-6.080516 -31.213813 17.138688 36.124915 1.378404 1.076482 0.026741 -0.010654 -90653.000000 0 0 1
-6.119516 -32.053903 15.977488 36.334300 1.382153 1.115492 0.023137 -0.007637 72938.600000 0 0 1
-6.712516 -33.281733 16.281488 37.653931 1.371779 1.123646 0.027669 -0.012296 69254.800000 0 0 1
-6.097516 34.054659 15.489688 37.905540 -1.393623 1.149834 0.021918 -0.017290 101022.000000 0 0 1
-6.095516 34.066768 14.075588 37.360704 -1.393741 1.184513 0.034981 -0.020773 82589.300000 0 0 1
-5.542516 32.885186 13.560488 36.000581 -1.403824 1.184593 0.035158 -0.020634 402426.000000 0 0 1
-4.226516 33.102255 12.732388 35.717453 -1.443803 1.206304 0.041086 -0.020600 123792.000000 0 0 1
-4.510516 33.670826 11.509588 35.868369 -1.437630 1.244134 0.038825 -0.024017 65568.500000 0 0 1
-3.418516 34.255195 10.840388 36.091809 -1.471330 1.265731 0.048478 -0.030241 -792238.000000 0 0 1
-3.871516 -33.849983 9.406588 35.345352 1.456918 1.301417 0.041755 -0.037529 -617369.000000 0 0 1
-4.053516 33.763992 8.401288 35.028843 -1.451314 1.328596 0.050087 -0.042654 274819.000000 0 0 1
-4.842516 32.586687 8.575388 34.042318 -1.423272 1.316149 0.066909 -0.042298 -83910.300000 0 0 1
-6.354516 32.756553 8.843088 34.519152 -1.379184 1.311729 0.076202 -0.036011 -64670.100000 0 0 1
-7.017516 33.431691 7.769088 35.032588 -1.363894 1.347170 0.080698 -0.033348 -699690.000000 0 0 1
-8.360016 33.636105 8.103788 35.594225 -1.327189 1.341111 0.064528 -0.025780 -887494.000000 0 0 1
-9.268016 33.794342 6.936288 35.722063 -1.303130 1.375381 0.070897 -0.028980 -630848.000000 0 0 1
-9.188616 -33.486713 6.380788 35.305879 1.302992 1.389069 0.084817 -0.025094 391223.000000 0 0 1
-10.080916 -33.360663 5.269088 35.246589 1.277341 1.420742 0.078437 -0.024124 -50731.900000 0 0 1
-10.190516 -31.926363 4.717388 33.843656 1.261830 1.430953 0.065679 -0.024534 32874.900000 0 0 1
-11.071516 -31.030163 5.375688 33.381845 1.228078 1.409056 0.087980 -0.028252 301282.000000 0 0 1
-12.386616 -31.110173 4.815088 33.829813 1.191883 1.427979 0.080036 -0.023849 53135.600000 0 0 1
-13.354916 -30.119153 5.445788 33.394218 1.153442 1.406989 0.067948 -0.027144 -627948.000000 0 0 1
-13.816516 -30.458523 6.669088 34.104172 1.144938 1.373978 0.068136 -0.013199 -394251.000000 0 0 1
-14.676016 -29.501983 7.203288 33.728917 1.109184 1.355574 0.055157 -0.010775 -168817.000000 0 0 1
33.298478 -13.002543 -12.278112 37.796916 -0.372277 1.901643 0.064889 -0.025907 -760645.000000 0 0 1
32.161158 -13.280643 -11.525212 36.654415 -0.391612 1.890651 0.074491 -0.027076 -225340.000000 0 0 1
31.861988 -14.626643 -11.155612 36.790932 -0.430365 1.878862 0.073371 -0.031105 196241.000000 0 0 1
32.833448 -15.375043 -10.134112 37.644754 -0.437946 1.843363 0.062451 -0.035311 791109.000000 0 0 1
34.145978 -15.523343 -10.675012 38.998435 -0.426687 1.848065 0.067287 -0.034582 182693.000000 0 0 1
35.095208 -15.550543 -9.621312 39.573510 -0.417098 1.816383 0.063072 -0.030367 470832.000000 0 0 1
-35.919428 -15.825443 -10.187512 40.551638 0.414994 1.824740 0.058731 -0.033814 87286.300000 0 0 1
-35.307054 -14.756943 -10.826312 39.768888 0.395893 1.846507 0.060442 -0.033617 809926.000000 0 0 1
-33.893824 -15.021343 -10.946012 38.655494 0.417175 1.857892 0.057847 -0.029866 645490.000000 0 0 1
-33.100314 -13.816843 -11.370212 37.627352 0.395436 1.877774 0.055535 -0.032260 -401161.000000 0 0 1
-33.264874 -12.711243 -10.519312 37.131974 0.365000 1.858025 0.070236 -0.031251 231317.000000 0 0 1
-32.493124 -11.608643 -10.948112 36.199791 0.343132 1.878043 0.067553 -0.029109 -141202.000000 0 0 1
-32.845834 -10.269743 -10.226212 35.901140 0.303035 1.859640 0.068372 -0.022301 -226520.000000 0 0 1
-32.534084 -10.154643 -8.875312 35.218668 0.302542 1.825549 0.067155 -0.019280 118160.000000 0 0 1
-32.974074 -8.911143 -8.410912 35.177286 0.263942 1.812236 0.078014 -0.023079 -256674.000000 0 0 1
-32.641664 -8.571443 -6.915112 34.449479 0.256795 1.772901 0.072487 -0.020644 264810.000000 0 0 1
-31.330524 -7.981043 -6.900412 33.059257 0.249432 1.781071 0.079603 -0.023195 756793.000000 0 0 1
-30.875554 -7.680443 -5.590112 32.303845 0.243806 1.744720 0.077327 -0.016784 -339884.000000 0 0 1
-30.356504 -8.871643 -4.737712 31.979201 0.284330 1.719493 0.076678 -0.010535 -1097610.000000 0 0 1
-31.202044 -9.924743 -4.451112 33.043615 0.307960 1.705911 0.062056 -0.009514 -181365.000000 0 0 1
-30.971654 -10.347443 -3.098012 32.801076 0.322435 1.665386 0.065145 -0.015676 -90808.200000 0 0 1
-31.413404 -11.841343 -2.876712 33.694136 0.360481 1.656278 0.067882 -0.019035 368981.000000 0 0 1
-32.839114 -11.881843 -2.851712 35.038805 0.347166 1.652274 0.068868 -0.020056 824227.000000 0 0 1
-33.330464 -13.213443 -2.585412 35.947173 0.377431 1.642781 0.072939 -0.027188 -515748.000000 0 0 1
-34.843655 -13.312943 -2.720212 37.399389 0.364960 1.643595 0.052293 -0.020342 -306789.000000 0 0 1
-35.575703 -12.804743 -1.604612 37.843981 0.345493 1.613210 0.077231 -0.022890 862569.000000 0 0 1
35.449988 -12.954743 -1.613912 37.777398 -0.350361 1.613531 0.097790 -0.028032 443059.000000 0 0 1
34.837488 -11.876143 -0.720812 36.813217 -0.328546 1.590378 0.103505 -0.037679 -469922.000000 0 0 1
35.271298 -12.012543 0.584388 37.265362 -0.328254 1.555114 0.108040 -0.031483 66122.300000 0 0 1
34.872898 -10.954243 1.403388 36.579830 -0.304359 1.532422 0.113804 -0.030738 -262281.000000 0 0 1
35.416548 -11.166643 2.820588 37.242201 -0.305429 1.494987 0.108701 -0.035800 -34281.200000 0 0 1
34.519368 -11.869043 3.652588 36.685179 -0.331174 1.471065 0.111845 -0.043248 -114030.000000 0 0 1
35.101498 -12.121443 4.910588 37.458757 -0.332504 1.439325 0.102342 -0.036620 33393.000000 0 0 1
34.101538 -12.428643 6.058988 36.798063 -0.349498 1.405388 0.098250 -0.018756 222353.000000 0 0 1
33.415458 -11.283443 6.522388 35.867123 -0.325650 1.387930 0.089867 -0.025514 -90946.400000 0 0 1
32.931598 -11.462843 7.802688 35.731903 -0.334964 1.350655 0.073396 -0.013989 -123673.000000 0 0 1
32.186978 -10.237443 8.491088 34.826792 -0.307944 1.324505 0.061574 -0.024406 198480.000000 0 0 1
30.883028 -10.032343 7.977488 33.437250 -0.314096 1.329892 0.067519 -0.024155 85463.800000 0 0 1
30.283418 -9.034643 8.810888 32.807651 -0.289930 1.298896 0.060525 -0.016334 609058.000000 0 0 1
28.719898 -8.916143 8.738188 31.315908 -0.301018 1.288009 0.061417 -0.022623 678619.000000 0 0 1
28.251018 -8.497243 7.498588 30.439317 -0.292169 1.321889 0.080798 -0.027052 138166.000000 0 0 1
27.129428 -9.275943 7.090588 29.535156 -0.329454 1.328355 0.089771 -0.035102 35297.300000 0 0 1
26.321328 -8.655243 5.936888 28.336764 -0.317692 1.359721 0.094070 -0.035007 -238012.000000 0 0 1
25.550528 -7.588443 6.442788 27.421224 -0.288700 1.333623 0.103391 -0.033350 344663.000000 0 0 1
24.513828 -7.127643 5.606088 26.137316 -0.282958 1.354631 0.113644 -0.035555 154265.000000 0 0 1
25.045328 -5.961643 4.694488 26.169599 -0.233685 1.390433 0.109748 -0.034033 -232064.000000 0 0 1
25.443128 -6.333743 3.430088 26.443044 -0.243978 1.440714 0.091657 -0.033035 84213.900000 0 0 1
25.954328 -5.229743 2.711588 26.614471 -0.198835 1.468735 0.097376 -0.026938 157047.000000 0 0 1
26.593228 -5.773143 1.389588 27.248118 -0.213774 1.519777 0.095858 -0.030012 3370.470000 0 0 1
25.640728 -5.944343 0.391588 26.323668 -0.227808 1.555920 0.097218 -0.034743 219606.000000 0 0 1
26.317128 -5.833043 -0.865712 26.969707 -0.218118 1.602901 0.097647 -0.033132 82976.300000 0 0 1
25.326028 -5.976643 -2.019712 26.099947 -0.231748 1.648258 0.091144 -0.030207 -274451.000000 0 0 1
24.341028 -4.985243 -1.953112 24.922940 -0.202015 1.649243 0.097608 -0.030902 -14098.800000 0 1 0
23.581528 -4.948643 -3.163312 24.301936 -0.206851 1.701334 0.077868 -0.026650 -82379.200000 0 1 0
22.684328 -3.701343 -3.172812 23.202272 -0.161742 1.707972 0.079190 -0.027410 -166189.000000 0 1 0
23.389128 -2.442443 -3.228212 23.736853 -0.104049 1.707219 0.075173 -0.024224 460589.000000 0 1 0
23.363028 -1.843043 -4.484712 23.860858 -0.078724 1.759874 0.065338 -0.020674 303658.000000 0 1 0
22.043328 -1.122043 -4.946012 22.619247 -0.050858 1.791241 0.035902 -0.012282 501921.000000 0 1 0
21.902328 0.080657 -4.204512 22.302386 0.003683 1.760454 0.030437 -0.007308 538067.000000 0 1 0
21.097228 0.978957 -4.977812 21.698618 0.046369 1.802265 0.040745 0.002425 -380871.000000 0 1 0
21.015828 2.404657 -4.345112 21.594615 0.113926 1.773392 0.056038 0.002119 322323.000000 0 1 0
22.207028 3.195357 -4.467112 22.876134 0.142909 1.767333 0.078301 0.002336 843334.000000 0 1 0
23.120828 2.909957 -3.400112 23.549975 0.125200 1.715681 0.095691 -0.002149 -33003.400000 0 1 0
24.174328 4.051457 -3.360712 24.740793 0.166050 1.707054 0.082152 -0.006418 -29423.500000 0 1 0
23.606028 5.337657 -3.151512 24.406294 0.222375 1.700285 0.077874 0.000287 514238.000000 0 1 0
24.602328 6.329457 -3.221012 25.606864 0.251810 1.696917 0.073754 0.002671 -19354.400000 0 0 1
24.017328 7.742457 -3.444612 25.468472 0.311851 1.706462 0.075670 -0.009204 -123117.000000 0 0 1
23.297028 8.151657 -2.286912 24.787719 0.336587 1.663188 0.091864 -0.011854 433434.000000 0 1 0
22.276228 9.099257 -2.493912 24.191867 0.387790 1.674069 0.070462 -0.006263 -266748.000000 0 1 0
21.306628 9.110357 -1.314112 23.209866 0.404057 1.627445 0.054949 -0.010245 -292242.000000 0 1 0
21.921028 9.741957 -0.165312 23.988842 0.418197 1.577688 0.050711 -0.013185 942617.000000 0 1 0
20.943528 10.218057 0.749888 23.315282 0.453910 1.538628 0.038029 -0.010267 202691.000000 0 1 0
21.593428 10.470757 2.158988 24.095106 0.451499 1.481073 0.065335 -0.009697 -253131.000000 0 1 0
22.464028 11.570757 2.331888 25.376223 0.475638 1.478774 0.078947 -0.024195 128723.000000 0 0 1
22.050828 12.900757 1.997088 25.625318 0.529352 1.492783 0.082012 -0.016443 -374667.000000 0 0 1
20.836828 13.473257 2.801988 24.971047 0.573987 1.458350 0.066900 -0.009718 783105.000000 0 1 0
19.549728 12.875657 2.403688 23.531939 0.582405 1.468472 0.096228 -0.010478 2102280.000000 0 1 0
18.438728 13.591257 2.965488 23.097686 0.635196 1.442052 0.080056 -0.013523 317917.000000 0 1 0
18.325628 13.634957 4.472688 23.275430 0.639674 1.377430 0.064225 -0.005853 -1122360.000000 0 1 0
18.064728 12.360457 5.068488 22.467863 0.600065 1.343249 0.054409 -0.001659 323830.000000 0 1 0
18.452728 12.339357 6.411288 23.105573 0.589410 1.289628 0.066470 -0.014750 11838.400000 0 1 0
18.371928 10.973957 7.075788 22.539349 0.538448 1.251466 0.032055 -0.017652 -130549.000000 0 1 0
19.453128 10.182657 6.678488 22.950227 0.482228 1.275526 0.033314 -0.018509 305679.000000 0 1 0
19.249828 8.863157 7.223388 22.389479 0.431492 1.242296 0.023998 -0.014684 -59714.300000 0 1 0
20.206928 7.828157 6.643688 22.665802 0.369597 1.273313 0.031155 -0.011949 -230555.000000 0 1 0
19.823028 7.641357 5.335688 21.904620 0.367926 1.324733 0.021226 -0.014663 417501.000000 0 1 0
20.628128 6.717757 4.663188 22.189936 0.314829 1.359069 0.021592 -0.017092 -367197.000000 0 1 0
20.526628 6.693757 3.087288 21.810094 0.315228 1.428766 0.029541 -0.007669 -452947.000000 0 1 0
21.448628 5.778157 2.597788 22.364688 0.263148 1.454378 0.029607 -0.013939 204155.000000 0 1 0
21.529828 5.876957 1.155788 22.347438 0.266476 1.519054 0.053853 -0.004085 174629.000000 0 1 0
22.672928 4.961657 0.640588 23.218313 0.215440 1.543203 0.075880 -0.003434 240918.000000 0 1 0
22.324728 3.587957 0.654188 22.620674 0.159354 1.541872 0.062149 -0.003497 1063870.000000 0 1 0
23.477628 2.815857 0.253288 23.647246 0.119368 1.560085 0.076493 -0.002508 731406.000000 0 1 0
23.295428 1.317657 0.286688 23.334425 0.056503 1.558510 0.082791 -0.009295 -38847.800000 0 1 0
22.254428 0.866357 -0.585012 22.278968 0.038910 1.597058 0.058178 -0.015245 952172.000000 0 1 0
22.521828 -0.433043 -1.121112 22.553873 -0.019225 1.620525 0.072065 -0.019782 -879472.000000 0 1 0
22.222228 -1.619543 -0.175512 22.281857 -0.072751 1.578673 0.076869 -0.018252 702131.000000 0 1 0
23.182028 -1.904943 0.892988 23.277300 -0.081989 1.532424 0.087107 -0.013243 1346790.000000 0 1 0
24.526428 -2.154743 0.517688 24.626340 -0.087629 1.549773 0.097847 -0.025953 151780.000000 0 1 0
25.568728 -1.622143 1.569288 25.668149 -0.063358 1.509621 0.097763 -0.028508 81232.000000 0 0 1
25.568328 -0.204643 1.721988 25.627067 -0.008004 1.503552 0.086812 -0.024739 195677.000000 0 0 1
26.309128 0.133857 2.877988 26.466412 0.005088 1.461840 0.085052 -0.019172 -200222.000000 0 0 1
25.942928 1.470657 3.511888 26.220826 0.056628 1.436458 0.075901 -0.012831 -538961.000000 0 0 1
26.173128 2.638757 2.655788 26.439533 0.100480 1.470179 0.085622 -0.008689 783873.000000 0 0 1
27.511168 2.922057 2.204588 27.753613 0.105817 1.491278 0.091502 -0.011695 663518.000000 0 0 1
27.641238 3.855657 1.029188 27.927824 0.138595 1.533936 0.091684 -0.015124 -336960.000000 0 0 1
27.272228 3.230957 -0.172412 27.463489 0.117921 1.577074 0.101930 -0.008628 147586.000000 0 0 1
27.621918 3.942357 -1.305812 27.932377 0.141768 1.617562 0.099308 -0.008053 829545.000000 0 0 1
29.083538 3.678257 -1.854912 29.373840 0.125804 1.633987 0.097192 -0.004012 1264970.000000 0 0 1
30.139228 4.149457 -1.006312 30.440167 0.136816 1.603861 0.106301 -0.009458 383558.000000 0 0 1
31.412288 3.802857 -1.523412 31.678295 0.120476 1.618905 0.097504 -0.013523 52112.200000 0 0 1
32.505188 4.110857 -0.480512 32.767626 0.125800 1.585461 0.075020 -0.019058 -359020.000000 0 0 1
32.592968 3.315557 0.702288 32.768700 0.101377 1.549363 0.078096 -0.023583 10989.100000 0 0 1
31.755418 3.789457 1.722188 32.027059 0.118771 1.516997 0.074696 -0.013348 -153838.000000 0 0 1
31.770608 2.871057 2.945588 32.035777 0.090124 1.478719 0.079852 -0.009915 -418151.000000 0 0 1
31.016368 1.718257 2.795388 31.189449 0.055342 1.481050 0.078655 -0.013553 41965.300000 0 0 1
31.201338 0.858357 3.924188 31.458855 0.027503 1.445730 0.078489 -0.012245 -271146.000000 0 0 1
32.492558 0.045757 3.940688 32.730681 0.001408 1.450106 0.092061 -0.014036 -86809.600000 0 0 1
33.681748 0.777357 4.211688 33.952949 0.023075 1.446431 0.091672 -0.023424 1007560.000000 0 0 1
34.840848 -0.036943 3.948288 35.063871 -0.001060 1.457954 0.086707 -0.024641 -386600.000000 0 0 1
36.181438 0.581957 4.283988 36.438822 0.016083 1.452957 0.100907 -0.033104 -550124.000000 0 0 1
-35.800366 1.661257 3.445988 36.004178 -0.046370 1.474939 0.093363 -0.034028 388716.000000 0 0 1
-35.527813 1.329957 2.070688 35.612947 -0.037417 1.512619 0.106483 -0.031234 -968578.000000 0 0 1
-35.299535 2.579657 1.219888 35.414685 -0.072949 1.536344 0.098532 -0.032578 356667.000000 0 0 1
-34.128937 3.370357 1.382388 34.322801 -0.098434 1.530509 0.106803 -0.042449 384253.000000 0 0 1
-32.958544 2.800157 0.848988 33.088174 -0.084756 1.545135 0.123134 -0.043555 -1118620.000000 0 0 1
-31.700844 3.535057 1.283288 31.923141 -0.111054 1.530586 0.120289 -0.039386 -670527.000000 0 0 1
-31.263444 3.152757 2.594588 31.528950 -0.100505 1.488411 0.116385 -0.042300 338443.000000 0 0 1
-30.593304 4.319157 3.130188 31.054846 -0.140253 1.469829 0.116815 -0.034530 -516791.000000 0 0 1
-30.896964 4.512557 4.576488 31.558355 -0.145026 1.425266 0.119984 -0.035920 368062.000000 0 0 1
-32.229944 4.957757 4.869888 32.970660 -0.152628 1.422550 0.117016 -0.022579 1088770.000000 0 0 1
-33.227784 3.927757 4.895888 33.815420 -0.117661 1.425503 0.117624 -0.027809 -233236.000000 0 0 1
-33.262764 3.056657 6.136188 33.961852 -0.091637 1.389120 0.107080 -0.021814 -768908.000000 0 0 1
-33.793144 3.767157 7.222188 34.761013 -0.111019 1.361505 0.107483 -0.014267 266705.000000 0 0 1
-33.514814 3.233857 8.474388 34.720539 -0.096193 1.324231 0.101437 -0.014148 305787.000000 0 0 1
-34.542156 2.120157 8.938588 35.742887 -0.061302 1.318033 0.084677 -0.013162 273232.000000 0 0 1
-34.555808 0.992457 8.054688 35.496012 -0.028713 1.341884 0.083022 -0.017072 133019.000000 0 0 1
-35.680404 0.212857 8.370188 36.649646 -0.005966 1.340379 0.084407 -0.012522 -120023.000000 0 0 1
-35.502063 -0.722643 9.573888 36.777412 0.020352 1.307443 0.078118 -0.006899 -273669.000000 0 0 1
-34.431291 -1.647843 9.400388 35.729490 0.047822 1.304563 0.086760 -0.025690 420269.000000 0 0 1
-34.209966 -2.554643 10.506988 35.878194 0.074537 1.273588 0.080820 -0.014157 -475895.000000 0 0 1
-32.859924 -3.236443 10.717088 34.714624 0.098175 1.256950 0.084408 -0.016231 -587393.000000 0 0 1
-32.674394 -4.403443 9.894588 34.422510 0.133960 1.279238 0.084493 -0.017340 -317328.000000 0 0 1
-31.459074 -5.057143 10.116188 33.430305 0.159389 1.263371 0.075277 -0.016992 -322850.000000 0 0 1
-31.207934 -6.258143 9.170488 33.123970 0.197906 1.290278 0.070491 -0.007824 324541.000000 0 0 1
-32.269464 -7.203243 9.223188 34.325970 0.219621 1.298759 0.068314 -0.011665 47661.800000 0 0 1
-32.414024 -7.890243 7.986888 34.303284 0.238777 1.335808 0.065705 -0.008673 216058.000000 0 0 1
-33.420254 -9.082843 8.021888 35.549432 0.265367 1.343182 0.068068 -0.011466 1192020.000000 0 0 1
-34.730260 -8.622143 8.425488 36.763041 0.243341 1.339557 0.076130 -0.019021 787407.000000 0 0 1
-35.611383 -9.734043 8.486188 37.880570 0.266823 1.344854 0.076115 -0.024925 36524.900000 0 0 1
7.632456 -23.550043 10.796388 27.007794 -1.257383 1.159551 0.107267 -0.022312 30644.400000 0 0 1
7.113356 -24.010743 9.555688 26.803485 -1.282777 1.206267 0.097873 -0.022994 -182094.000000 0 0 1
6.092756 -24.967543 9.793988 27.503129 -1.331447 1.206701 0.098810 -0.022441 441676.000000 0 0 1
5.739656 -25.843483 8.574888 27.827289 -1.352251 1.257552 0.081339 -0.007662 128540.000000 0 0 1
5.014556 -25.282323 7.497588 26.843165 -1.374995 1.287720 0.083338 -0.007587 -200092.000000 0 0 1
4.891556 -26.247213 6.495188 27.477828 -1.386545 1.332159 0.063104 0.000142 -652715.000000 0 0 1
4.020356 -25.889123 5.283788 26.726923 -1.416736 1.371790 0.062512 -0.002555 1021490.000000 0 0 1
2.595856 -25.755723 5.401288 26.443708 -1.470348 1.365093 0.043843 -0.008656 463351.000000 0 0 1
1.982756 -27.010083 5.549188 27.645423 -1.497520 1.368696 0.033922 -0.010856 -837172.000000 0 0 1
0.489356 -26.974643 5.167388 27.469488 -1.552657 1.381555 0.043976 -0.017727 -391996.000000 0 0 1
-0.299444 -26.615203 6.260488 27.343234 1.559546 1.339788 0.039770 -0.018585 1416170.000000 0 0 1
-1.753844 -26.794353 6.121688 27.540668 1.505434 1.346646 0.017428 -0.015918 2069830.000000 0 0 1
-2.287244 -28.231863 6.289588 29.014281 1.489956 1.352286 0.023043 -0.016793 -811218.000000 0 0 1
-2.319844 -28.687583 7.631688 29.775859 1.490106 1.311599 0.033281 -0.021976 16599.200000 0 0 1
-2.494044 -30.114083 7.716988 31.187020 1.488165 1.320757 0.025321 -0.022944 -161000.000000 0 0 1
-2.284644 -30.649583 9.115888 32.058010 1.496393 1.282462 0.022691 -0.023745 -188810.000000 0 0 1
-0.971344 -31.062963 9.374988 32.461387 1.539536 1.277819 0.028596 -0.020683 -441573.000000 0 0 1
-0.744044 -31.451403 10.735088 33.241337 1.547144 1.241958 0.030149 -0.013959 473499.000000 0 0 1
0.731056 -31.445273 11.251588 33.405657 -1.547552 1.227262 0.026234 -0.012074 606109.000000 0 0 1
1.504156 -32.454163 10.559588 34.161969 -1.524482 1.256546 0.033538 -0.013255 226692.000000 0 0 1
2.794756 -32.669423 11.106688 34.618787 -1.485458 1.244192 0.033738 -0.009925 518.999000 0 0 1
2.934556 -33.431383 12.473088 35.802890 -1.483242 1.214952 0.027578 -0.009836 -452037.000000 0 0 1
2.564056 -32.640353 13.646088 35.470872 -1.492403 1.175900 0.014013 -0.005910 476248.000000 0 0 1
3.271956 -33.190113 14.749988 36.467129 -1.472532 1.154393 0.016532 -0.000643 -322833.000000 0 0 1
3.300856 -32.181293 15.986788 36.084743 -1.468583 1.111816 0.018521 -0.001149 220180.000000 0 0 1
3.833156 -30.864593 15.762488 34.867926 -1.447236 1.101720 0.016560 -0.006014 218204.000000 0 0 1
5.233356 -30.761983 15.629688 34.899496 -1.402286 1.106439 0.038619 -0.004688 -357455.000000 0 0 1
5.741056 -29.444433 14.978388 33.530382 -1.378233 1.107711 0.054684 -0.006067 -261362.000000 0 0 1
5.742756 -29.367133 13.540688 32.844452 -1.377683 1.145855 0.049708 0.001764 -1044770.000000 0 0 1
4.516856 -29.396383 12.912888 32.423634 -1.418335 1.161182 0.033434 0.010735 -1617480.000000 0 0 1
4.594356 -29.459723 11.394588 31.918961 -1.416089 1.205758 0.034694 -0.001265 46335.600000 0 0 1
5.111856 -30.658843 10.889688 32.934497 -1.405583 1.233807 0.031223 0.000313 -268107.000000 0 0 1
6.453856 -30.981833 11.182088 33.564347 -1.365422 1.231150 0.032060 0.003248 -535948.000000 0 0 1
6.844256 -32.383833 10.615688 34.759881 -1.362513 1.260437 0.012665 0.007944 -18359.100000 0 0 1
6.371456 -33.425723 11.463788 35.906725 -1.382441 1.245842 -0.000984 -0.000382 287659.000000 0 0 1
6.552456 33.962125 10.759388 36.223267 1.380204 1.269216 0.005278 -0.005642 -27487.700000 0 0 1
6.285356 32.757065 11.599688 35.314074 1.381223 1.236111 0.021173 -0.008317 1609370.000000 0 0 1
4.887856 32.618325 11.999988 35.097664 1.422053 1.221855 0.023514 -0.008429 1437570.000000 0 0 1
4.673556 31.306416 12.561688 34.054806 1.422606 1.193007 0.038899 -0.007151 82542.800000 0 0 1
3.509056 31.209556 13.555688 34.206820 1.458831 1.163328 0.038651 -0.008873 206663.000000 0 0 1
3.905856 31.638336 14.813688 35.152317 1.447965 1.135792 0.049167 -0.006620 -346120.000000 0 0 1
2.814456 31.456556 15.631688 35.238981 1.481563 1.111195 0.037358 -0.006990 -474617.000000 0 0 1
3.153856 31.608996 17.143388 36.096693 1.471348 1.075912 0.029068 -0.007623 -27147.800000 0 0 1
3.638656 32.912959 17.414988 37.413694 1.460690 1.086630 0.034947 -0.006296 107528.000000 0 0 1
4.159456 32.872446 18.717688 38.055889 1.444932 1.056586 0.025375 -0.001453 -213954.000000 0 0 1
4.392156 34.180682 19.349788 39.522454 1.442998 1.059177 0.033336 -0.000297 -123577.000000 0 0 1
3.278656 -33.606183 19.694088 39.089414 -1.473543 1.042779 0.022624 -0.005326 -352678.000000 0 0 1
3.646256 -32.567153 20.561988 38.687337 -1.459300 1.010436 0.032403 -0.007906 36332.700000 0 0 1
2.420456 -31.689473 20.874588 38.024068 -1.494564 0.989649 0.014226 -0.013936 194780.000000 0 0 1
1.497756 -32.408593 21.692588 39.027280 -1.524614 0.981434 0.023470 -0.011311 -56559.900000 0 0 1
0.346856 -31.604193 21.896888 38.450216 -1.559822 0.964915 0.016000 -0.013706 -614169.000000 0 0 1
-0.741744 -32.356133 22.622888 39.487525 1.547876 0.960742 0.014953 -0.009702 -1199240.000000 0 0 1
-1.502144 -33.139853 21.707088 39.644722 1.525500 0.991374 0.007360 -0.014336 620064.000000 0 0 1
-2.403844 -34.119987 22.324488 40.845254 1.500460 0.992542 0.011017 -0.011950 394461.000000 0 0 1
-3.662244 -33.520203 22.946088 40.786506 1.461973 0.973281 0.031070 -0.008659 -672507.000000 0 0 1
-4.636744 -33.159833 21.936888 40.028752 1.431867 0.990791 0.031159 -0.017240 1492380.000000 0 0 1
-5.841944 -32.642133 22.603888 40.131944 1.393702 0.972495 0.040993 -0.010687 1166710.000000 0 0 1
-7.055244 -32.509633 21.675788 39.705069 1.357090 0.993310 0.039393 -0.021209 -245473.000000 0 0 1
-7.518644 -33.662933 21.028788 40.397191 1.351052 1.023300 0.030922 -0.016202 311127.000000 0 0 1
-8.600744 -33.287983 20.153088 39.852348 1.317952 1.040610 0.046199 -0.029524 1109820.000000 0 0 1
-9.823944 -34.273693 20.270388 41.013225 1.291648 1.053836 0.057533 -0.026166 533408.000000 0 0 1
-10.379544 34.281849 21.558388 41.806031 -1.276799 1.028999 0.076370 -0.025693 1913960.000000 0 0 1
-11.850744 34.173640 21.598588 42.128100 -1.236993 1.032483 0.071747 -0.019187 2172720.000000 0 0 1
-12.434144 33.798454 22.995388 42.728578 -1.218273 1.002528 0.075375 -0.017201 -180311.000000 0 0 1
-12.491344 -33.675403 23.881988 43.132538 1.215595 0.984009 0.068688 -0.014281 -225558.000000 0 0 1
-11.398444 -33.598153 24.754788 43.261530 1.243723 0.961595 0.058732 -0.011081 -266394.000000 0 0 1
-11.249744 -32.293363 25.577588 42.703994 1.235583 0.928606 0.048684 -0.015400 -70024.400000 0 0 1
-12.158544 -32.127203 26.649288 43.476108 1.209004 0.910990 0.058918 -0.006420 28163.500000 0 0 1
-12.640644 -30.821233 26.664488 42.670004 1.181590 0.895793 0.067394 -0.009404 -206384.000000 0 0 1
-13.484044 -30.398113 27.884588 43.398330 1.153293 0.873005 0.063980 -0.015151 -261992.000000 0 0 1
-12.803744 -30.385443 29.076288 43.961820 1.171998 0.848114 0.044318 -0.007789 -158945.000000 0 0 1
-13.670544 -29.856243 30.017088 44.489377 1.141410 0.830235 0.052110 -0.008417 58773.000000 0 0 1
-12.922244 -29.746113 31.350988 45.107650 1.160976 0.802340 0.034755 -0.004725 -74224.800000 0 0 1
-13.860044 -29.366333 32.323588 45.818083 1.129823 0.787701 0.036143 -0.002276 473737.000000 0 0 1
-13.274244 -28.845183 33.518588 46.170834 1.139501 0.758354 0.026643 -0.002828 2067.920000 0 0 1
-12.524044 -29.933413 -34.063603 47.044553 1.174532 2.380483 0.035058 0.001099 599103.000000 0 0 1
-11.157744 -30.153963 34.035788 46.820846 1.216394 0.756946 0.022328 -0.001165 330038.000000 0 0 1
-10.720244 -31.330743 -33.771503 47.297501 1.241120 2.366024 0.033800 0.002571 -228391.000000 0 0 1
-9.308344 -31.873453 -34.028003 47.544372 1.286658 2.368437 0.041236 -0.007715 -438739.000000 0 0 1
-8.335744 -31.007113 -33.538703 46.430274 1.308172 2.377985 0.045135 -0.011342 -1364830.000000 0 0 1
-7.088144 -31.597813 -33.446003 46.554256 1.350126 2.372340 0.052426 -0.015329 -682750.000000 0 0 1
-6.234944 -30.698413 -32.517703 45.151613 1.370419 2.374871 0.061844 -0.015776 -403195.000000 0 0 1
-6.608344 -30.706223 -31.117003 44.213236 1.358818 2.351520 0.069705 -0.020640 -67806.400000 0 0 1
-5.906844 -29.761243 -30.326403 42.898871 1.374868 2.355941 0.062751 -0.019641 46384.900000 0 0 1
-6.323944 -29.757093 -28.854803 41.929424 1.361393 2.329768 0.055837 -0.014381 94134.900000 0 0 1
-5.876744 -30.933843 -28.135003 42.225788 1.383056 2.300031 0.051330 -0.017366 228538.000000 0 0 1
-6.676344 -31.096823 -26.985303 41.710821 1.359311 2.274389 0.061754 -0.020879 -27300.200000 0 0 1
-6.426644 -32.398023 -26.168003 42.139033 1.374973 2.240804 0.054735 -0.028407 169594.000000 0 0 1
-5.377244 -32.292873 -25.228203 41.330457 1.405795 2.227365 0.034937 -0.023626 -9572.540000 0 0 1
-5.112344 -33.552013 -24.657903 41.950994 1.419589 2.199107 0.038656 -0.035459 -134208.000000 0 0 1
-4.230944 -33.647773 -23.405403 41.205418 1.445711 2.174891 0.045680 -0.038465 -387887.000000 0 0 1
-4.737044 -32.967863 -22.243403 40.051075 1.428086 2.159611 0.045724 -0.034838 147473.000000 0 0 1
-4.735344 -31.571883 -22.308003 38.946814 1.421920 2.180691 0.017224 -0.011943 -285271.000000 0 0 1
-5.204644 -30.860953 -21.004403 37.691799 1.403720 2.161887 0.042805 -0.015524 -824105.000000 0 0 1
-6.579944 -30.967913 -20.767903 37.863084 1.361434 2.151366 0.049856 -0.024800 -296258.000000 0 0 1
-7.133044 -29.765623 -20.260203 36.706246 1.335591 2.155503 0.057270 -0.023928 -214295.000000 0 0 1
-7.505544 -28.687353 -21.304103 36.512495 1.314900 2.193797 0.073762 -0.034774 -77295.800000 0 0 1
-6.340444 -28.125653 -21.901903 36.207002 1.349070 2.220447 0.067942 -0.020027 152412.000000 0 0 1
-6.637944 -27.558443 -23.175303 36.614543 1.334431 2.256159 0.091905 -0.033040 -236628.000000 0 0 1
-5.615944 -28.033403 -24.282703 37.510801 1.373083 2.274902 0.083917 -0.022649 1201860.000000 0 0 1
-4.264044 -27.595123 -24.203003 36.952108 1.417487 2.284956 0.082743 -0.016469 622659.000000 0 0 1
-3.507744 -27.817353 -23.017603 36.275605 1.445359 2.258184 0.045634 -0.017698 -784896.000000 0 0 1
-2.015744 -27.417403 -23.207103 35.977033 1.497408 2.271889 0.047044 -0.024877 103327.000000 0 0 1
-1.719544 -26.035833 -23.304303 34.984454 1.504847 2.299808 0.052991 -0.021005 211629.000000 0 0 1
-1.996644 -25.251803 -22.120403 33.629636 1.491891 2.288644 0.057144 -0.026714 -826644.000000 0 0 1
-1.783844 -23.738843 -22.443503 32.717360 1.495793 2.326748 0.058206 -0.015737 148317.000000 0 0 1
-2.590344 -23.108243 -23.451803 33.025564 1.459166 2.360452 0.064451 -0.020523 7449.600000 0 0 1
-3.984344 -23.147943 -23.310303 33.091880 1.400341 2.352390 0.069920 -0.016468 -323156.000000 0 0 1
-4.726644 -23.361843 -24.685003 34.314229 1.371168 2.373707 0.065983 -0.012322 -108904.000000 0 0 1
-4.867344 -22.205543 -25.428803 34.108668 1.355014 2.412116 0.071889 -0.017867 25356.000000 0 0 1
-5.172844 -22.485843 -26.770503 35.341637 1.344681 2.430237 0.079070 -0.016837 42958.500000 0 0 1
-5.575444 -21.214443 -27.513103 35.186774 1.313795 2.468530 0.083396 -0.014970 -80651.400000 0 0 1
-5.886144 -21.342543 -28.890803 36.398206 1.301692 2.487734 0.091176 -0.020168 -206293.000000 0 0 1
-4.863644 -21.709643 -29.774603 37.168409 1.350404 2.499882 0.083812 -0.023284 -206045.000000 0 0 1
-5.478844 -22.171643 -31.141603 38.618635 1.328539 2.508815 0.099387 -0.030461 350340.000000 0 0 1
-6.118644 -21.141043 -31.912203 38.765581 1.289074 2.537838 0.091850 -0.030631 157126.000000 0 0 1
-6.911244 -21.662943 -32.963303 40.045322 1.261969 2.537733 0.093548 -0.030873 -84189.400000 0 0 1
-7.069544 -20.729043 -34.167003 40.583935 1.242121 2.571563 0.080867 -0.026774 -869342.000000 0 0 1
-5.863644 -20.464043 33.684388 39.847176 1.291739 0.563596 0.079623 -0.023348 -1172140.000000 0 0 1
-5.940444 -19.659543 32.564688 38.499941 1.277354 0.562663 0.081030 -0.014890 246288.000000 0 0 1
-4.687244 -20.059943 31.768188 37.862770 1.341253 0.575289 0.059459 -0.017225 -1066270.000000 0 0 1
-4.808144 -21.375143 31.262888 38.175689 1.349538 0.611267 0.054570 -0.020302 20974.900000 0 0 1
-3.705044 -21.886343 30.559488 37.770646 1.403101 0.628211 0.053287 -0.019801 330983.000000 0 0 1
-2.240344 -21.757343 31.037288 37.969915 1.468188 0.613882 0.041311 -0.026540 -638881.000000 0 0 1
-1.642444 -20.504243 30.849188 37.078215 1.490864 0.588088 0.043551 -0.026869 983299.000000 0 0 1
-0.412944 -20.175043 31.550088 37.451448 1.550331 0.569026 0.042474 -0.026100 859944.000000 0 0 1
-0.629544 -20.040943 33.094388 38.694629 1.539394 0.544723 0.037676 -0.029568 -314969.000000 0 0 1
-1.635944 -19.076743 33.256588 38.374459 1.485250 0.522381 0.030425 -0.024670 -257730.000000 0 0 1
-1.938744 -18.856943 -33.782503 38.737586 1.468343 2.630245 0.033281 -0.024419 -138344.000000 0 0 1
-3.012944 -17.836343 -33.571903 38.135098 1.403454 2.647378 0.037043 -0.031893 29825.300000 0 0 1
-2.445244 -16.519943 -33.836103 37.732872 1.423846 2.683115 0.042153 -0.032964 364827.000000 0 0 1
-3.396244 -15.507643 -33.536603 37.104248 1.355196 2.699476 0.048229 -0.035284 57806.200000 0 0 1
-3.005944 -14.109343 -33.868903 36.813203 1.360888 2.738929 0.042456 -0.033366 -348906.000000 0 0 1
-1.996144 -13.520543 -33.060903 35.774474 1.424217 2.749595 0.042348 -0.024652 -6463.800000 0 0 1
-1.838744 -12.081943 -33.137203 35.318955 1.419766 2.788267 0.030950 -0.018714 10754.200000 0 0 1
-1.365644 -11.499143 33.965188 35.884945 1.452589 0.328577 0.021814 -0.019840 -815827.000000 0 0 1
-2.322344 -11.406943 32.969988 34.964722 1.369951 0.339413 0.026149 -0.019116 -348834.000000 0 0 1
-1.722544 -10.919743 31.779888 33.647723 1.414340 0.334762 0.024725 -0.017382 71340.700000 0 0 1
-0.799844 -11.824343 30.944688 33.136514 1.503255 0.365753 0.020022 -0.017430 -471037.000000 0 0 1
-1.418944 -13.010343 30.641688 33.319596 1.462163 0.403660 0.030805 -0.020291 -185014.000000 0 0 1
-0.525944 -13.970943 30.109788 33.197338 1.533169 0.434706 0.031361 -0.026694 -361378.000000 0 0 1
-0.960244 -15.376943 30.506188 34.176015 1.508430 0.467673 0.033097 -0.029848 289548.000000 0 0 1
-2.078744 -15.886343 29.774488 33.811496 1.440685 0.493664 0.043496 -0.030922 405404.000000 0 0 1
-2.435144 -17.116243 30.283988 34.871416 1.429474 0.518734 0.043028 -0.026676 -304927.000000 0 0 1
-2.935444 -18.130143 29.255388 34.542679 1.410280 0.560603 0.044842 -0.016142 727508.000000 0 0 1
-4.247244 -17.778243 28.747488 34.066451 1.336291 0.566350 0.052443 -0.014985 860499.000000 0 0 1
-4.777944 -18.680243 27.768588 33.806431 1.320390 0.606936 0.046185 -0.008800 382319.000000 0 0 1
-3.956744 -18.899943 26.430188 32.732530 1.364425 0.630964 0.036236 -0.012318 -86851.600000 0 0 1
-4.475444 -19.895143 25.536588 32.679714 1.349528 0.673858 0.054114 -0.007973 -190851.000000 0 0 1
-4.290044 -21.279543 25.964888 33.843742 1.371859 0.696333 0.043915 -0.013816 -618709.000000 0 0 1
-28.805354 34.272757 -0.823212 44.777762 -0.871859 1.589182 0.030186 -0.004691 154159.000000 0 0 1
-28.313284 -32.999663 -0.492112 43.484043 0.861684 1.582114 0.045528 -0.000191 -32550.300000 0 0 1
-28.877804 -32.725363 0.757288 43.651466 0.847774 1.553447 0.021136 0.005142 -160190.000000 0 0 1
-28.632214 -31.327563 1.388088 42.463475 0.830321 1.538102 0.036835 -0.005172 1052400.000000 0 0 1
-27.229194 -31.045063 1.557088 41.323716 0.850786 1.533107 0.046918 -0.011088 475095.000000 0 0 1
-26.974884 -29.705063 1.942188 40.172220 0.833529 1.522431 0.054978 -0.013592 -59498.900000 0 0 1
-25.468204 -29.429863 2.015188 38.971878 0.857437 1.519064 0.072546 -0.008621 -118161.000000 0 0 1
-24.887144 -30.200163 3.043788 39.251553 0.881548 1.493173 0.052061 -0.004826 60889.500000 0 0 1
-23.504144 -29.947863 3.233088 38.206965 0.905371 1.486075 0.055924 -0.003805 379607.000000 0 0 1
-22.775944 -30.831263 4.292188 38.571146 0.934548 1.459286 0.039951 -0.010807 57813.300000 0 0 1
-23.160644 -30.545963 5.605788 38.741401 0.922053 1.425589 0.020873 -0.001346 -311835.000000 0 0 1
-22.344344 -31.242563 6.511788 38.958579 0.949949 1.402862 0.012831 -0.000071 -161684.000000 0 0 1
-22.510944 -31.109063 8.049488 39.234050 0.944397 1.364163 0.005252 0.021587 -264756.000000 0 0 1
-22.062044 -29.878863 8.577488 38.118940 0.934772 1.343834 0.007997 0.013767 224409.000000 0 0 1
-22.619244 -29.767063 9.866188 38.665875 0.921005 1.312778 -0.013181 0.006156 -276714.000000 0 0 1
-22.263144 -28.406263 10.524488 37.594258 0.906049 1.287055 0.008313 0.011955 1586510.000000 0 0 1
-20.869144 -28.407863 10.954788 36.912535 0.937208 1.269481 -0.006009 0.006969 1224620.000000 0 0 1
-20.547644 -27.274563 11.696888 36.096048 0.925146 1.240790 0.012110 0.007608 -165993.000000 0 0 1
-19.163944 -27.311763 12.337188 35.572396 0.958948 1.216619 0.014570 0.004872 -325506.000000 0 0 1
-19.222944 -28.103263 13.522788 36.635786 0.970882 1.192741 0.021070 0.008940 -423040.000000 0 0 1
-18.040944 -28.146863 14.279688 36.354244 1.000804 1.167130 0.031580 0.001053 -224833.000000 0 0 1
-17.898444 -29.317563 15.272888 37.591687 1.022690 1.152413 0.043745 -0.005171 -378886.000000 0 0 1
-17.699044 -30.557363 14.634888 38.225496 1.045806 1.177910 0.046395 -0.005369 -57099.700000 0 0 1
-17.807344 -31.629863 15.586788 39.503136 1.058034 1.165195 0.052826 -0.006151 47992.700000 0 0 1
-17.552944 -32.967063 14.884988 40.205671 1.081536 1.191549 0.047654 -0.007176 72834.400000 0 0 1
-17.537544 -34.033763 15.789388 41.414578 1.094985 1.179646 0.057074 0.001297 30738.500000 0 0 1
-17.440544 33.269357 15.153288 40.504874 -1.087959 1.187359 0.048129 -0.003696 -188550.000000 0 0 1
-17.232244 32.061057 16.109188 39.804114 -1.077615 1.154133 0.055690 -0.009870 -320360.000000 0 0 1
-18.386144 31.829057 16.864988 40.442143 -1.046971 1.140637 0.059344 -0.008262 -150874.000000 0 0 1
-18.264344 30.796057 17.818188 39.993389 -1.035485 1.109032 0.042697 -0.004236 90674.800000 0 0 1
-19.168744 31.051657 19.044188 41.162206 -1.017740 1.089801 0.046771 -0.013677 443679.000000 0 0 1
-18.535144 31.984057 19.931688 41.997662 -1.045578 1.076298 0.052980 -0.008972 1314310.000000 0 0 1
-19.392744 32.075957 21.144288 43.035177 -1.027010 1.057185 0.048940 -0.006652 975585.000000 0 0 1
-18.847944 33.126257 22.155288 44.084585 -1.053503 1.044235 0.044063 0.001565 -65888.500000 0 0 1
-17.717144 32.707657 22.864988 43.663436 -1.074362 1.019650 0.035271 -0.005012 -450461.000000 0 0 1
-17.652344 33.226257 24.183688 44.726280 -1.082441 0.999522 0.030851 -0.008014 -254328.000000 0 0 1
-18.545944 32.542957 25.236988 45.165270 -1.052810 0.977895 0.029968 -0.006572 -101790.000000 0 0 1
-19.909844 32.877857 25.103188 45.907792 -1.026291 0.992238 0.028579 -0.009640 -517696.000000 0 0 1
-20.707544 32.090357 25.917388 46.155220 -0.997740 0.974567 0.009472 0.002689 105465.000000 0 0 1
-22.205544 32.285257 25.526288 46.765536 -0.968311 0.993410 0.011775 -0.003400 90898.700000 0 0 1
-22.545144 31.864157 24.267588 45.962200 -0.955028 1.014564 0.011439 0.008337 425032.000000 0 0 1
-23.885644 32.145057 23.894588 46.634537 -0.931753 1.032843 0.001944 0.004776 80352.000000 0 0 1
-24.101344 31.877357 22.357288 45.791800 -0.923425 1.060727 -0.005415 -0.002172 -287003.000000 0 0 1
-23.461244 32.811557 21.511088 45.713840 -0.950054 1.080871 0.001708 -0.008336 180892.000000 0 0 1
-23.338144 32.323457 20.197088 44.692250 -0.945445 1.101886 -0.011150 0.008344 -329525.000000 0 0 1
-22.886544 33.355657 19.190088 44.773354 -0.969435 1.127848 0.005456 0.006242 -428896.000000 0 0 1
-21.565044 33.735757 19.423188 44.501827 -1.002027 1.119138 0.032746 -0.001089 -610053.000000 0 0 1
-20.948044 -34.097063 18.435788 44.060283 1.019881 1.139089 0.047510 -0.001272 103634.000000 0 0 1
-19.652644 -33.387663 18.872188 43.094338 1.038787 1.117504 0.057504 -0.010628 -8647.800000 0 0 1
-19.872344 -32.143663 19.478988 42.515363 1.017076 1.094868 0.058295 -0.018710 176627.000000 0 0 1
-18.691044 -31.592263 20.034688 41.818835 1.036551 1.071187 0.049046 -0.025339 -82532.300000 0 0 1
-18.905544 -30.660463 21.197388 41.794891 1.018253 1.038891 0.051483 -0.014353 -272742.000000 0 0 1
-19.495644 -29.455063 20.837188 41.010600 0.986117 1.037827 0.064020 -0.018831 45203.700000 0 0 1
-19.929944 -28.803663 22.020088 41.373155 0.965511 1.009562 0.066018 -0.013562 78175.300000 0 0 1
-20.940144 -27.667863 21.690788 40.920540 0.922932 1.012112 0.055708 -0.024049 -115138.000000 0 0 1
-20.246244 -26.634963 20.962388 39.481051 0.920838 1.011077 0.051892 -0.020038 575008.000000 0 0 1
-20.951844 -25.466063 20.587088 38.875807 0.882345 1.012714 0.049240 -0.006130 293306.000000 0 0 1
-22.090044 -25.492263 19.476588 38.950777 0.856778 1.047162 0.045269 -0.003888 856390.000000 0 0 1
-23.376044 -25.875163 19.961988 40.180150 0.836097 1.050875 0.043658 -0.003481 388121.000000 0 0 1
-24.194044 -25.963963 18.799388 40.160878 0.820670 1.083655 0.037469 0.001295 -7833.320000 0 0 1
-25.726914 -25.947863 19.075988 41.219644 0.789674 1.089658 0.025916 0.001075 478506.000000 0 0 1
-26.267984 -27.182863 19.574788 42.568620 0.802513 1.092980 0.012288 0.004162 26399.000000 0 0 1
-26.534094 -28.132963 18.562288 42.896157 0.814637 1.123282 0.015543 0.001016 -1017960.000000 0 0 1
-27.151484 -29.445263 19.051388 44.352926 0.825904 1.126812 0.024467 -0.011682 -425245.000000 0 0 1
-28.536624 -29.443463 19.266588 45.304060 0.801037 1.131533 0.011795 -0.004867 -188574.000000 0 0 1
-29.232924 -29.719663 18.032588 45.420221 0.793654 1.162532 0.015328 -0.002231 -369275.000000 0 0 1
-30.673624 -29.189563 17.961288 45.994670 0.760612 1.169613 0.016655 -0.005114 -45857.400000 0 0 1
-30.855804 -27.791663 17.848688 45.199921 0.733199 1.164856 0.022845 -0.002000 -378992.000000 0 0 1
-32.209184 -27.447063 18.016988 45.993311 0.705741 1.168285 0.034362 0.024689 -154615.000000 0 0 1
-32.675384 -26.238063 17.153688 45.280964 0.676563 1.182267 0.050536 0.006393 -268692.000000 0 0 1
-32.921744 -26.446563 15.776188 45.079375 0.676760 1.213263 0.075629 -0.019552 280878.000000 0 0 1
-33.418854 -25.301563 15.060988 44.540120 0.648032 1.225852 0.085724 -0.018841 -135231.000000 0 0 1
-32.412854 -24.163663 14.791688 43.049620 0.640613 1.220053 0.071593 -0.014903 -6940.350000 0 0 1
-32.071024 -23.330163 15.931088 42.739287 0.628914 1.188825 0.054503 -0.009556 322719.000000 0 0 1
-31.569504 -22.032963 15.598288 41.537834 0.609328 1.185839 0.058341 -0.006266 141298.000000 0 0 1
-32.673854 -20.974363 15.838588 41.932869 0.570682 1.183471 0.076857 -0.013850 260427.000000 0 0 1
-33.122384 -20.811063 17.169688 42.719912 0.560975 1.157191 0.083321 -0.008211 342070.000000 0 0 1
-34.297074 -20.016363 17.103288 43.237328 0.528286 1.164110 0.106788 -0.021219 181379.000000 0 0 1
-34.777477 -19.609563 18.548788 44.023464 0.513421 1.135875 0.077400 -0.000640 -479934.000000 0 0 1
-35.749570 -20.398363 19.143788 45.393938 0.518514 1.135449 0.076395 0.007511 -189504.000000 0 0 1
-36.171374 -19.716163 20.320988 45.935149 0.499055 1.112541 0.074189 0.013881 -592141.000000 0 0 1
34.908278 -20.101063 20.890088 45.376607 -0.522454 1.092383 0.060793 0.020965 -684782.000000 0 0 1
34.774628 -21.407263 21.407988 46.106916 -0.551811 1.087939 0.043030 0.010438 -417609.000000 0 0 1
35.562148 -21.863163 22.448288 47.398206 -0.551222 1.077411 0.033392 0.020195 -667356.000000 0 0 1
35.063098 -23.227863 22.966288 47.920819 -0.585084 1.070991 0.031191 0.021658 -705036.000000 0 0 1
33.990498 -23.114463 23.803188 47.499728 -0.597195 1.045901 0.036336 0.008945 -742736.000000 0 0 1
33.553308 -24.387963 24.236188 48.041545 -0.628515 1.042012 0.035602 -0.004514 -688705.000000 0 0 1
32.714188 -24.347463 25.465788 48.078306 -0.639810 1.012581 0.040180 -0.008905 -825414.000000 0 0 1
31.398328 -23.912263 25.267588 46.862590 -0.650870 1.001328 0.055757 -0.008541 -911673.000000 0 0 1
30.707428 -23.872463 26.460488 47.042514 -0.660818 0.973414 0.035419 -0.008622 -33551.900000 0 0 1
29.326748 -24.550063 26.184688 46.350854 -0.696970 0.970456 0.039184 -0.008479 420491.000000 0 0 1
28.303268 -23.666663 25.721188 44.975165 -0.696417 0.961979 0.048813 -0.014623 482416.000000 0 0 1
27.063428 -24.355263 25.579188 44.496100 -0.732778 0.958359 0.048235 -0.002800 716550.000000 0 0 1
25.867128 -23.500563 25.093288 43.023923 -0.737497 0.948084 0.041598 -0.010322 -313796.000000 0 0 1
25.734428 -23.238763 23.677188 41.987024 -0.734482 0.971675 0.041640 -0.005257 -32795.500000 0 0 1
26.871028 -22.696163 23.005188 42.028641 -0.701370 0.991579 0.040464 -0.005891 99778.400000 0 0 1
26.584128 -22.025763 21.650588 40.750437 -0.691897 1.010665 0.038483 -0.003066 29675.700000 0 0 1
25.979028 -20.746263 21.791388 39.751503 -0.673873 0.990597 0.032202 -0.002217 -90856.600000 0 0 1
25.711728 -20.200963 20.496288 38.591058 -0.665943 1.010880 0.008109 -0.002128 -139294.000000 0 0 1
24.774228 -18.976663 20.656088 37.423925 -0.653653 0.986097 0.014624 -0.000649 -438150.000000 0 0 1
25.311628 -17.792263 21.213688 37.513514 -0.612689 0.969764 0.015538 -0.002386 -103386.000000 0 0 1
25.527228 -17.865663 22.627088 38.507226 -0.610637 0.942699 0.011124 -0.001583 161631.000000 0 0 1
26.029528 -16.557263 23.277588 38.646157 -0.566538 0.924384 0.024654 0.002725 -23629.100000 0 0 1
24.934728 -15.664363 23.269788 37.531267 -0.560908 0.902040 0.033782 0.001139 -115018.000000 0 0 1
25.160228 -14.429763 23.850988 37.551629 -0.520717 0.882591 0.041057 0.005125 -230111.000000 0 0 1
23.914328 -13.526563 23.790888 36.343767 -0.514761 0.857134 0.047059 0.002812 34955.200000 0 0 1
22.826928 -14.002063 24.532488 36.317619 -0.550215 0.829156 0.048386 0.001508 -846781.000000 0 0 1
21.650528 -13.386163 24.143288 35.083231 -0.553755 0.811830 0.039348 0.002230 -157620.000000 0 0 1
20.309028 -13.864963 24.766388 34.900829 -0.599020 0.781835 0.048762 0.004432 460262.000000 0 0 1
19.721228 -14.980363 24.089288 34.548979 -0.649621 0.799242 0.054211 -0.002045 -53560.700000 0 0 1
18.652928 -15.506363 24.840288 34.719144 -0.693543 0.773509 0.061387 -0.005682 -274387.000000 0 0 1
17.812128 -16.531563 24.077588 34.209571 -0.748129 0.790027 0.073514 -0.011648 -159707.000000 0 0 1
18.529328 -17.702363 23.708688 34.911482 -0.762578 0.824249 0.057060 -0.005715 -76823.100000 0 0 1
17.754628 -18.574663 22.942188 34.446901 -0.807967 0.841941 0.060147 -0.005377 -136326.000000 0 0 1
18.102228 -20.062263 23.181288 35.602770 -0.836711 0.861751 0.033931 -0.007760 57371.700000 0 0 1
17.584328 -20.578863 24.437788 36.467845 -0.863704 0.836428 0.041877 -0.012851 235579.000000 0 0 1
17.988828 -21.876563 24.705588 37.583880 -0.882612 0.853506 0.039628 -0.012570 -134896.000000 0 0 1
17.393128 -23.064463 23.793688 37.424992 -0.924670 0.881791 0.035716 -0.007759 276665.000000 0 0 1
17.999128 -23.294463 22.528688 37.069427 -0.912938 0.917581 0.030164 -0.000864 111450.000000 0 0 1
19.276328 -23.909063 22.593488 38.127233 -0.892265 0.936537 0.027498 -0.008555 206051.000000 0 0 1
20.090528 -24.171063 21.271388 37.951833 -0.877330 0.975826 0.029020 -0.003954 -83396.600000 0 0 1
19.687928 -25.160463 20.312788 37.858590 -0.906821 1.004460 0.034657 -0.010689 204590.000000 0 0 1
20.649528 -25.332763 19.294988 37.953241 -0.886897 1.037484 0.027523 -0.010360 161252.000000 0 0 1
19.984028 -26.027863 18.076188 37.464111 -0.916004 1.067297 0.033152 -0.015921 360262.000000 0 0 1
19.446528 -27.300263 18.395788 38.234498 -0.951850 1.068852 0.043545 -0.026726 -348413.000000 0 0 1
18.803728 -27.925063 17.367488 37.881645 -0.978172 1.094527 0.048214 -0.028117 -313418.000000 0 0 1
17.940328 -29.072463 17.983988 38.606830 -1.017905 1.086231 0.048885 -0.022836 -362436.000000 0 0 1
16.854428 -28.638963 18.735588 38.148188 -1.038865 1.057414 0.065573 -0.026927 -498659.000000 0 0 1
16.139128 -29.794763 19.127088 38.910730 -1.074366 1.056912 0.087780 -0.025854 114641.000000 0 0 1
14.830128 -29.540763 19.922088 38.593769 -1.105532 1.028389 0.082214 -0.020211 40024.100000 0 0 1
13.852128 -28.903663 19.136488 37.329725 -1.123885 1.032547 0.079945 -0.022661 -995518.000000 0 0 1
12.670128 -28.706463 19.820188 37.113785 -1.155144 1.007426 0.057093 -0.018763 97754.600000 0 0 1
11.521428 -28.121163 18.904388 35.789929 -1.181950 1.014312 0.062022 -0.021751 607104.000000 0 0 1
11.079228 -28.946163 17.841488 35.762388 -1.205246 1.048479 0.054955 -0.026718 -199115.000000 0 0 1
10.105028 -28.228963 17.138388 34.535638 -1.227042 1.051520 0.082010 -0.019125 -137473.000000 0 0 1
9.657728 -28.887063 15.811788 34.318316 -1.248152 1.091969 0.066423 -0.014816 -133565.000000 0 0 1
8.916528 -30.104363 15.876188 35.182816 -1.282841 1.102633 0.049675 -0.012192 -120901.000000 0 0 1
9.405228 -31.110163 15.036088 35.810397 -1.277212 1.137483 0.043834 -0.006575 -639662.000000 0 0 1
8.395428 -32.133663 14.540388 36.255736 -1.315243 1.158133 0.028619 -0.002116 -876941.000000 0 0 1
7.885228 -32.974263 15.490488 37.275114 -1.336071 1.142225 0.036114 -0.006931 -369714.000000 0 0 1
7.109828 -33.945663 14.849188 37.727392 -1.364334 1.166261 0.014500 -0.007769 -88369.600000 0 0 1
6.887728 33.322557 15.693488 37.471578 1.366968 1.138661 0.036415 -0.009519 1504280.000000 0 0 1
8.185728 32.663957 15.771788 37.184533 1.325249 1.132774 0.030411 -0.005671 1188700.000000 0 0 1
8.088028 31.648357 16.762988 36.715561 1.320592 1.096667 0.043584 -0.011410 -326820.000000 0 0 1
9.369128 30.857957 17.000588 36.455645 1.276021 1.085652 0.038177 -0.013677 -343781.000000 0 0 1
9.887428 30.170657 15.846388 35.484331 1.254109 1.107863 0.050346 -0.018060 -43346.300000 0 0 1
10.954928 29.327257 16.225488 35.261380 1.213306 1.092633 0.040260 -0.011833 -353960.000000 0 0 1
11.750528 28.810557 15.004688 34.543650 1.183537 1.121459 0.033914 -0.010735 -456166.000000 0 0 1
11.122828 27.945757 14.108388 33.222421 1.192002 1.132205 0.039456 -0.014819 -703780.000000 0 0 1
12.032128 27.329257 13.282488 32.681568 1.156067 1.152262 0.049727 -0.010803 -476103.000000 0 0 1
-9.221144 -9.205043 19.094080 23.115930 0.784524 0.598798 0.039278 -0.031817 -165108.000000 0 1 0
-9.536644 -9.435843 17.780380 22.273855 0.780085 0.646392 0.038929 -0.032381 -30405.600000 0 1 0
-9.323544 -10.789343 17.369480 22.473034 0.858148 0.687392 0.036962 -0.034859 54243.600000 0 1 0
-9.680944 -11.002243 15.863280 21.596613 0.849194 0.745828 0.045825 -0.030686 -309462.000000 0 1 0
-11.037744 -10.719543 15.613980 21.921149 0.770774 0.778056 0.048830 -0.033131 -39672.100000 0 1 0
-11.564244 -11.220643 14.396880 21.607979 0.770319 0.841593 0.056620 -0.030383 37148.300000 0 1 0
-11.588844 -12.739043 14.163780 22.297919 0.832642 0.882521 0.042286 -0.033242 317278.000000 0 1 0
-10.319644 -13.295443 13.742380 21.728251 0.910750 0.886064 0.044602 -0.030574 1034050.000000 0 1 0
-10.328244 -14.752343 13.718080 22.638242 0.959997 0.919812 0.054665 -0.035052 -197690.000000 0 1 0
-10.108544 -15.476543 15.094280 23.865107 0.992208 0.886041 0.064432 -0.040542 835845.000000 0 1 0
-11.132644 -15.354043 16.125480 24.894046 0.943447 0.866150 0.052824 -0.022639 208757.000000 0 1 0
-10.539144 -15.453443 17.354780 25.516090 0.972258 0.822828 0.061647 -0.025416 -601633.000000 0 0 1
-11.453144 -15.063043 18.514880 26.473960 0.920706 0.796292 0.039524 -0.018984 -506096.000000 0 0 1
-11.817844 -13.696843 18.577680 25.930583 0.858909 0.772112 0.039183 -0.024668 194297.000000 0 0 1
-12.891744 -13.292843 17.739680 25.643576 0.800715 0.806847 0.044807 -0.030073 156442.000000 0 0 1
-14.309444 -13.534743 18.319880 26.899210 0.757583 0.821592 0.018021 -0.016963 -198701.000000 0 0 1
-14.755344 -14.851443 18.494080 27.934147 0.788644 0.847232 0.022069 -0.011970 821778.000000 0 0 1
-15.830544 -14.848143 19.497280 29.175631 0.753387 0.838912 0.022687 -0.002787 942247.000000 0 0 1
-16.209644 -16.262643 19.988080 30.442560 0.787030 0.854516 0.018600 0.003233 -271759.000000 0 0 1
-17.161544 -16.810843 19.130480 30.709906 0.775075 0.898299 0.019616 0.005907 -366040.000000 0 0 1
-17.578144 -18.139443 19.510380 31.916853 0.801112 0.913110 0.009907 0.000241 960726.000000 0 0 1
-18.933744 -18.585543 18.823680 32.530601 0.776118 0.953730 0.028320 0.002494 645475.000000 0 0 1
-18.860144 -18.693043 17.430480 31.764076 0.780948 0.989930 0.036416 -0.002560 14699.000000 0 0 1
-19.110444 -17.475243 16.766480 30.849766 0.740733 0.996209 0.035505 -0.005339 -479565.000000 0 0 1
-18.822744 -17.504343 15.257980 29.891532 0.749122 1.035094 0.039796 -0.012835 35531.000000 0 0 1
-19.664544 -18.446743 14.610380 30.666592 0.753455 1.074210 0.045886 -0.016170 203130.000000 0 0 1
-19.383744 -18.350843 13.250880 29.800483 0.758032 1.110009 0.047897 -0.013406 134771.000000 0 0 1
-19.669844 -19.662043 12.537680 30.507247 0.785200 1.147274 0.043957 -0.003239 -354194.000000 0 0 1
-18.728244 -20.621943 12.875480 30.688592 0.833485 1.137844 0.042222 0.005052 -237784.000000 0 0 1
-18.841544 -21.780443 12.064980 31.224273 0.857620 1.174074 0.028394 0.003462 52035.600000 0 0 1
-17.606644 -22.665843 12.372480 31.254002 0.910368 1.163783 0.033619 -0.003757 268538.000000 0 0 1
-17.805344 -23.955643 11.831980 32.107614 0.931621 1.193391 0.030587 -0.001938 150341.000000 0 0 1
-16.853044 -24.149243 10.810180 31.369907 0.961501 1.218980 0.045287 -0.007363 -144426.000000 0 0 1
-17.203344 -25.370503 9.913380 32.216341 0.974931 1.258008 0.049072 -0.004910 381239.000000 0 0 1
-18.413044 -25.169803 9.169780 32.506062 0.939206 1.284820 0.026290 -0.001499 96713.400000 0 0 1
-18.759044 -26.375463 8.509380 33.466048 0.952573 1.313704 0.037415 -0.004297 546212.000000 0 0 1
-20.075644 -25.980203 7.752480 33.735788 0.912907 1.338924 0.040387 -0.007493 438439.000000 0 0 1
-19.845544 -25.003843 6.741280 32.626410 0.899909 1.362677 0.051846 -0.021307 -128592.000000 0 0 1
-20.790744 -25.042643 5.701780 33.043900 0.877902 1.397377 0.063021 -0.022525 -167501.000000 0 0 1
-20.691144 -23.832643 4.797780 31.923926 0.855839 1.419937 0.067308 -0.022045 578789.000000 0 0 1
-21.785044 -23.565043 3.893980 32.327426 0.824628 1.450049 0.079342 -0.024715 402892.000000 0 0 1
-21.470144 -22.560743 2.980780 31.286407 0.810162 1.475378 0.064928 -0.017209 -34177.300000 0 0 1
-22.028944 -22.705543 1.562380 31.674234 0.800522 1.521450 0.064257 -0.010408 -157024.000000 0 0 1
-21.409244 -23.681743 0.761180 31.933683 0.835754 1.546958 0.070703 -0.022987 40962.700000 0 0 1
-21.710844 -23.415043 -0.596820 31.937144 0.823146 1.589485 0.051225 -0.013468 -454844.000000 0 0 1
-20.929144 -24.340743 -1.533920 32.138042 0.860617 1.618544 0.053422 -0.010621 -1190620.000000 0 0 1
-19.578644 -24.003743 -1.515720 31.012907 0.886586 1.619690 0.049854 -0.007447 -502045.000000 0 0 1
-18.802244 -24.432743 -2.638920 30.942644 0.914900 1.656184 0.046395 -0.001484 259318.000000 0 0 1
-18.517744 -25.938283 -2.783620 31.991404 0.950792 1.657918 0.060300 -0.009787 -833939.000000 0 0 1
-19.654744 -26.682613 -3.123920 33.287080 0.935918 1.664782 0.096692 -0.019038 -304807.000000 0 0 1
-19.190444 -27.890253 -3.713320 34.057717 0.968122 1.680044 0.098587 -0.018746 -299573.000000 0 0 1
-20.237944 -28.884613 -4.229020 35.521541 0.959636 1.690134 0.114078 -0.025404 -514990.000000 0 0 1
-21.038144 -28.424933 -5.250920 35.751259 0.933642 1.718203 0.091507 -0.018400 -166190.000000 0 0 1
-21.808344 -29.469643 -5.842320 37.124068 0.933708 1.728826 0.101587 -0.037581 -171910.000000 0 0 1
-22.463444 -29.099193 -7.148920 37.449652 0.913388 1.762869 0.071881 0.001881 -221702.000000 0 0 1
-21.598744 -29.055583 -8.280820 37.138991 0.931559 1.795655 0.097637 -0.001368 142230.000000 0 0 1
-22.243944 -29.071853 -9.543220 37.829073 0.917678 1.825824 0.095090 -0.000116 332500.000000 0 0 1
-23.013744 -27.745033 -10.014020 37.412563 0.878341 1.841765 0.059029 0.004889 295798.000000 0 0 1
-22.213444 -26.609963 -10.327120 36.168725 0.875205 1.860352 0.051637 0.005669 267601.000000 0 0 1
-22.090144 -25.661713 -9.301320 35.114278 0.860054 1.838883 0.030759 0.011869 -89698.000000 0 0 1
-21.516844 -24.290543 -9.678220 33.862561 0.845876 1.860647 0.012112 0.010368 33798.600000 0 0 1
-22.463844 -23.508843 -10.391320 34.136044 0.808125 1.880114 0.002964 0.011627 370579.000000 0 0 1
-22.040444 -22.161143 -10.585620 32.999285 0.788129 1.897353 0.001570 0.018049 -521148.000000 0 0 1
-23.209344 -21.201743 -10.674220 33.198291 0.740224 1.898140 0.005535 0.016942 -971077.000000 0 0 1
-23.839444 -21.272543 -11.922720 34.102660 0.728559 1.927954 0.000000 0.019133 -414654.000000 0 0 1
-25.072764 -20.641443 -12.070120 34.646796 0.688765 1.926635 0.006291 0.011860 -456434.000000 0 0 1
-25.045204 -19.119743 -12.083020 33.746499 0.652028 1.936978 0.014808 -0.003220 -1255400.000000 0 0 1
-24.406844 -18.613943 -13.212220 33.417595 0.651550 1.977264 0.025884 -0.005432 206116.000000 0 0 1
-24.169944 -17.176443 -13.277820 32.488720 0.617840 1.991815 0.024419 -0.011187 154178.000000 0 0 1
-23.183544 -16.645543 -12.202520 31.039528 0.622698 1.974828 0.002707 -0.008888 -301188.000000 0 0 1
-23.863644 -16.597543 -10.973020 31.070229 0.607710 1.931752 0.036240 -0.008500 338957.000000 0 0 1
-22.957344 -16.459743 -9.912120 29.936815 0.622025 1.908267 0.028118 -0.009190 -331434.000000 0 0 1
-23.534544 -16.773943 -8.538120 30.135352 0.619223 1.858056 0.016132 -0.011230 -89775.700000 0 0 1
-23.876844 -18.146243 -8.370520 31.136079 0.649866 1.842981 0.012144 0.002578 425795.000000 0 0 1
-25.225044 -18.252543 -7.927820 32.129558 0.626382 1.820117 0.018569 0.003485 369049.000000 0 0 1
-25.581174 -19.707643 -7.408220 33.131094 0.656428 1.796306 0.015524 0.013603 98192.100000 0 0 1
-25.618274 -20.556943 -8.511020 33.931126 0.676223 1.824336 0.014323 0.001970 68173.500000 0 0 1
-25.953994 -21.811543 -7.921820 34.815348 0.698890 1.800345 0.025592 0.007298 168126.000000 0 0 1
-25.744194 -22.983743 -8.904120 35.641259 0.728808 1.823297 0.008121 0.013738 44077.900000 0 0 1
-26.406314 -24.165143 -8.499020 36.789685 0.741110 1.803919 0.022347 0.022019 93182.800000 0 0 1
-25.914694 -25.313343 -9.236620 37.385182 0.773660 1.820448 0.019795 0.026249 228805.000000 0 0 1
-26.656884 -26.594473 -8.781820 38.664917 0.784226 1.799922 0.026256 0.002428 -197617.000000 0 0 1
-26.360224 -27.080963 -7.461720 38.521647 0.798884 1.765731 0.056017 -0.009099 488471.000000 0 0 1
-27.056344 -28.303183 -7.044920 39.783751 0.807917 1.748815 0.050707 -0.014088 366962.000000 0 0 1
-26.545244 -28.752163 -5.647320 39.537692 0.825287 1.714120 0.070972 -0.021596 307919.000000 0 0 1
-27.077854 -27.862553 -4.672320 39.132629 0.799680 1.690479 0.057093 -0.019973 364575.000000 0 0 1
-26.355304 -28.001833 -3.466420 38.609854 0.815680 1.660698 0.070122 -0.028115 201179.000000 0 0 1
-26.811304 -29.288673 -2.709120 39.799645 0.829529 1.638918 0.067163 -0.021405 -220981.000000 0 0 1
-26.304044 -30.492383 -3.307520 40.405790 0.859008 1.652746 0.098029 -0.024949 6592.000000 0 0 1
-26.286594 -31.632203 -2.469820 41.202929 0.877432 1.630775 0.091593 -0.027991 733393.000000 0 0 1
-25.154014 -31.696723 -1.360620 40.487751 0.899980 1.604408 0.103153 -0.035965 1215490.000000 0 0 1
-23.788244 -31.798583 -1.754620 39.750587 0.928518 1.614951 0.108398 -0.040023 57365.200000 0 0 1
-22.905344 -31.897513 -0.685120 39.275635 0.948031 1.588241 0.113323 -0.017087 700485.000000 0 0 1
-21.735444 -30.839773 -0.651720 37.735208 0.956865 1.588068 0.110204 -0.017551 667876.000000 0 0 1
-22.144944 -29.518523 -0.267720 36.902757 0.927164 1.578051 0.106712 -0.026425 19750.200000 0 0 1
-22.632944 -28.712123 -1.342620 36.584680 0.903248 1.607504 0.116848 -0.037675 -191555.000000 0 0 1
-23.220044 -27.430403 -0.833920 35.948476 0.868333 1.593996 0.087805 -0.024849 40918.500000 0 0 1
-24.518644 -27.561543 -0.273020 36.890068 0.843759 1.578197 0.089015 -0.029896 116934.000000 0 0 1
-25.113424 -26.317663 0.121380 36.377441 0.808809 1.567460 0.082741 -0.034818 286637.000000 0 0 1
-24.554744 -25.556973 1.366680 35.467762 0.805395 1.532254 0.080663 -0.023430 -307887.000000 0 0 1
-24.845244 -26.202153 2.590580 36.201521 0.811973 1.499175 0.067404 -0.020422 193002.000000 0 0 1
-24.312944 -25.538343 3.711980 35.455677 0.809974 1.465911 0.068382 -0.022958 62008.600000 0 0 1
-25.286344 -24.399743 4.114480 35.379028 0.767556 1.454235 0.070724 -0.022927 109146.000000 0 0 1
-25.311324 -23.294643 3.258580 34.553175 0.743932 1.476350 0.055742 -0.024677 -308241.000000 0 0 1
-26.362414 -22.388843 3.451380 34.758441 0.704071 1.471336 0.041852 -0.015145 -167413.000000 0 0 1
-26.466474 -21.331843 2.353780 34.074361 0.678386 1.501664 0.040688 -0.009695 -525097.000000 0 0 1
-25.398714 -20.502143 2.566980 32.741746 0.679123 1.492315 0.055500 -0.007403 -705416.000000 0 0 1
-25.375824 -19.470743 1.605780 32.025315 0.654478 1.520634 0.042226 -0.009154 -799844.000000 0 0 1
-24.171944 -18.581443 1.622380 30.531705 0.655374 1.517634 0.052037 -0.005708 -685068.000000 0 0 1
-22.976344 -19.213343 1.194880 29.974868 0.696441 1.530923 0.054789 -0.012555 -127576.000000 0 0 1
-21.886744 -18.376843 1.486680 28.617270 0.698445 1.518822 0.059274 -0.010157 653752.000000 0 0 1
-20.504944 -19.156043 1.524580 28.102154 0.751401 1.516518 0.062591 -0.018568 574867.000000 0 0 1
-20.260344 -19.547843 0.214180 28.153962 0.767502 1.563189 0.030021 -0.011710 -239955.000000 0 0 1
-19.018544 -20.197343 0.171680 27.742876 0.815448 1.564608 0.047220 -0.007421 -183133.000000 0 0 1
-18.661744 -20.848543 -1.192720 28.006161 0.840689 1.613397 0.054505 -0.004309 -104041.000000 0 0 1
-18.236644 -19.882743 -2.116020 27.062450 0.828554 1.649066 0.053765 -0.007381 13919.000000 0 0 1
-17.966644 -20.486943 -3.388220 27.458973 0.850846 1.694504 0.048823 0.004500 107246.000000 0 0 1
-17.171844 -19.580143 -4.360420 26.405823 0.850833 1.736687 0.062005 0.011172 1518720.000000 0 0 1
-15.753144 -19.407243 -4.079720 25.326799 0.888953 1.732584 0.080554 -0.000805 1279220.000000 0 0 1
-15.215944 -18.632243 -5.116620 24.594008 0.885988 1.780370 0.092442 -0.000375 -1073500.000000 0 1 0
-13.742144 -18.318043 -5.080020 23.456424 0.927169 1.789099 0.106378 -0.011658 -926417.000000 0 1 0
-12.955744 -19.465543 -5.297120 23.975366 0.983551 1.793575 0.090364 -0.008601 -124861.000000 0 1 0
-11.610144 -19.206543 -5.613020 23.134233 1.027083 1.815871 0.084401 -0.014669 204201.000000 0 1 0
-10.688244 -20.451243 -5.715420 23.773051 1.089216 1.813591 0.077145 -0.018967 266409.000000 0 1 0
-10.963444 -21.286543 -6.799820 24.890793 1.095188 1.847500 0.078109 -0.013056 -429050.000000 0 1 0
-9.794244 -21.911843 -7.243220 25.070308 1.150453 1.863891 0.075546 -0.005518 -150232.000000 0 0 1
-10.040544 -22.997343 -8.350820 26.446673 1.159145 1.892055 0.074856 0.004612 64206.500000 0 0 1
-10.524144 -22.549843 -9.616020 26.678097 1.134137 1.939543 0.070595 -0.002401 116033.000000 0 0 1
-10.786444 -23.612043 -10.523520 28.011077 1.142286 1.955939 0.077183 -0.003354 -55246.500000 0 0 1
-11.546344 -23.223643 -11.779420 28.485266 1.109407 1.997120 0.088658 -0.005699 -325723.000000 0 0 1
-10.787644 -22.408743 -12.629320 27.893095 1.122136 2.040672 0.071916 -0.004513 -502942.000000 0 0 1
-11.550544 -21.947743 -13.679620 28.324027 1.086351 2.074838 0.074658 -0.008554 -814870.000000 0 0 1
-10.989444 -20.827943 -14.460620 27.634772 1.085290 2.121487 0.071484 -0.009161 -454634.000000 0 0 1
-10.966344 -19.716243 -13.649020 26.368290 1.063199 2.114875 0.078873 -0.012514 -119497.000000 0 0 1
-10.778644 -18.510643 -14.426920 25.825551 1.043497 2.163529 0.067366 0.002975 -175625.000000 0 0 1
-10.430244 -17.316943 -13.504420 24.311229 1.028677 2.159737 0.074475 -0.012946 -1260000.000000 0 1 0
-11.478044 -16.738143 -12.833720 24.012815 0.969704 2.134657 0.086446 -0.018688 -682999.000000 0 1 0
-11.062244 -15.833943 -11.806320 22.637937 0.960983 2.119437 0.081942 -0.015776 -77536.000000 0 1 0
-10.641144 -14.406443 -12.182220 21.660703 0.934607 2.168095 0.072828 -0.011498 -445039.000000 0 1 0
-11.652544 -13.564643 -12.628220 21.891854 0.861079 2.185658 0.056343 -0.008897 -340878.000000 0 1 0
-11.985744 -13.722043 -13.990020 22.971138 0.852836 2.225628 0.070595 -0.006024 -467600.000000 0 1 0
-13.285544 -12.982443 -14.309920 23.448312 0.773860 2.227204 0.074007 -0.012197 -615001.000000 0 1 0
-13.320644 -11.597943 -14.173220 22.645794 0.716375 2.247037 0.054532 -0.005882 -124953.000000 0 1 0
-14.364844 -10.989443 -14.910020 23.439823 0.653047 2.260227 0.033944 -0.010961 -566511.000000 0 1 0
-14.558044 -9.521743 -14.568720 22.690259 0.579220 2.267991 0.033539 -0.012768 -103721.000000 0 1 0
-13.445544 -8.673743 -14.748220 21.760663 0.572924 2.315490 0.034985 -0.006729 55807.000000 0 1 0
-13.339544 -7.993343 -16.047020 22.346002 0.539847 2.371888 0.031933 0.006417 -118111.000000 0 1 0
-12.203344 -6.960143 -16.065820 21.341878 0.518331 2.423077 0.025582 0.007656 -256658.000000 0 1 0
-10.900344 -7.480843 -16.053820 20.796770 0.601468 2.452681 0.020533 0.003309 -102719.000000 0 1 0
-10.006744 -6.397643 -15.849620 19.805939 0.568840 2.498501 0.021446 0.008106 134690.000000 0 1 0
11.155756 22.019357 16.373780 29.621000 1.101856 0.985104 0.062212 0.001998 -356186.000000 0 0 1
12.150556 22.097857 17.354180 30.612397 1.068067 0.968058 0.076940 -0.015573 -346402.000000 0 0 1
12.632856 20.793157 17.690880 30.081749 1.024845 0.942097 0.071552 -0.008854 207118.000000 0 0 1
13.907056 20.848257 18.569980 31.191348 0.982521 0.933087 0.080100 -0.022435 -338049.000000 0 0 1
15.060856 21.229657 17.899080 31.589631 0.953773 0.968407 0.059063 -0.017024 -549890.000000 0 0 1
16.176856 20.916657 18.722880 32.399744 0.912489 0.954678 0.064476 -0.016600 141999.000000 0 0 1
17.544456 21.355257 18.190080 33.086764 0.883051 0.988709 0.058105 -0.012072 -1279800.000000 0 0 1
17.717456 22.762057 18.367880 34.196469 0.909380 1.003768 0.065223 -0.015005 1074790.000000 0 0 1
19.029056 23.294657 18.030380 35.069083 0.885844 1.030793 0.061053 -0.010753 251719.000000 0 0 1
20.232056 22.724757 18.691980 35.709113 0.843361 1.019900 0.052958 -0.011057 -1673590.000000 0 0 1
20.688456 21.388757 18.263880 34.915046 0.802040 1.020318 0.049837 -0.009931 447959.000000 0 0 1
21.926056 21.085257 18.896380 35.810797 0.765852 1.014938 0.064216 -0.011575 175875.000000 0 0 1
22.156956 19.612457 18.767680 35.040048 0.724556 1.005570 0.056207 -0.018294 -306091.000000 0 0 1
22.277256 19.151457 17.447380 34.168194 0.710091 1.034876 0.027658 -0.017048 115476.000000 0 0 1
22.060056 17.743457 17.235680 33.144306 0.677373 1.023923 0.020355 -0.014321 -331822.000000 0 0 1
23.119656 16.841457 17.901180 33.743228 0.629564 1.011592 0.027430 -0.020487 657654.000000 0 0 1
24.352556 16.896857 17.147980 34.243306 0.606582 1.046310 0.046272 -0.036626 797495.000000 0 0 1
25.150956 15.738957 17.390980 34.390864 0.559160 1.040619 0.037906 -0.025850 -809632.000000 0 0 1
26.318856 15.577157 16.412880 34.708970 0.534415 1.078250 0.092011 -0.035107 -6722.700000 0 0 1
27.439156 16.459757 16.502980 36.002489 0.540319 1.094620 0.071172 -0.033081 282311.000000 0 0 1
28.247256 16.401857 17.642880 37.124111 0.526072 1.075559 0.064474 -0.041678 -723320.000000 0 0 1
29.434256 15.428957 17.402480 37.513657 0.482807 1.088407 0.059016 -0.048130 -116014.000000 0 0 1
30.398356 15.963857 16.486580 38.088215 0.483569 1.123142 0.090007 -0.028247 224573.000000 0 0 1
30.931256 14.930457 15.605680 37.725302 0.449710 1.144319 0.085389 -0.030463 383728.000000 0 0 1
30.090356 14.520557 14.343480 36.359476 0.449603 1.165283 0.071287 -0.017115 90052.600000 0 0 1
30.284156 15.429257 13.245580 36.477904 0.471205 1.199190 0.069671 0.003903 -11704.600000 0 0 1
29.382056 15.112457 12.205780 35.223183 0.475056 1.216930 0.057706 0.000707 924838.000000 0 0 1
27.999556 15.867057 12.219380 34.424582 0.515566 1.207924 0.048592 -0.006550 180445.000000 0 0 1
27.925856 17.265057 11.921880 34.929455 0.553728 1.222483 0.035233 0.005828 186135.000000 0 0 1
28.540856 18.222157 12.825980 36.209574 0.568219 1.208722 0.050099 -0.003244 71982.700000 0 0 1
27.731856 18.457157 14.124480 36.183192 0.587235 1.169773 0.053358 -0.010414 -105079.000000 0 0 1
26.454556 19.040057 13.949680 35.453644 0.623843 1.166401 0.048215 -0.003399 -16026.100000 0 0 1
25.694356 18.998257 15.119980 35.351768 0.636679 1.128849 0.051742 -0.021085 -152326.000000 0 0 1
26.230256 19.871157 16.306680 36.725972 0.648326 1.110728 0.065178 -0.027575 -310572.000000 0 0 1
26.188456 21.268957 16.067980 37.368218 0.682106 1.126314 0.056735 -0.016846 -109300.000000 0 0 1
25.067656 21.811657 16.711780 37.194346 0.716055 1.104804 0.054197 -0.015384 -191277.000000 0 0 1
24.990456 23.349857 16.454280 37.953683 0.751473 1.122384 0.056136 -0.008047 -50182.500000 0 0 1
24.763956 23.746257 15.132680 37.498483 0.764422 1.155398 0.072280 -0.016838 -135088.000000 0 0 1
24.799956 25.133257 15.006680 38.365595 0.792073 1.168916 0.084444 -0.020311 -206488.000000 0 0 1
24.692456 25.713257 13.576780 38.147319 0.805647 1.206915 0.073242 -0.016561 648958.000000 0 0 1
23.344356 25.777857 13.085080 37.157451 0.834897 1.210927 0.075714 -0.014489 706500.000000 0 0 1
23.301756 25.863657 11.641380 36.707251 0.837459 1.248083 0.069788 -0.022485 -89877.800000 0 0 1
22.756156 24.608057 10.981080 35.270146 0.824477 1.254191 0.073539 -0.019776 -615421.000000 0 0 1
21.385256 24.381257 11.139280 34.290792 0.850768 1.239946 0.073028 -0.018936 -400191.000000 0 0 1
20.903856 23.062857 10.966580 33.002006 0.834464 1.232055 0.072154 -0.017221 53922.200000 0 0 1
20.742456 22.535857 9.477480 32.061456 0.826813 1.270709 0.090013 -0.009974 4037.780000 0 0 1
19.575956 23.007357 8.819380 31.469636 0.865805 1.286741 0.106608 -0.011432 197856.000000 0 0 1
19.872456 23.725057 7.644780 31.878449 0.873537 1.328626 0.095649 -0.012452 -374186.000000 0 0 1
18.626656 24.172657 6.887080 31.284206 0.914262 1.348833 0.076132 -0.006995 -792795.000000 0 0 1
17.984556 23.147757 6.155780 29.952571 0.910272 1.363804 0.086979 0.001190 677352.000000 0 0 1
17.170056 23.520457 5.023880 29.551008 0.940215 1.399959 0.105842 -0.012502 921867.000000 0 0 1
15.832256 24.301957 5.249080 29.475384 0.993381 1.391758 0.090421 -0.013298 121212.000000 0 0 1
16.094356 25.653257 5.675080 30.811108 1.010487 1.385549 0.091916 -0.023258 928299.000000 0 0 1
14.952656 26.291357 6.295880 30.894263 1.053688 1.365571 0.068035 -0.027873 510795.000000 0 0 1
14.591656 27.604157 5.591480 31.720191 1.084529 1.393595 0.070327 -0.029320 -6295.900000 0 0 1
13.874956 27.505257 4.336980 31.110496 1.103597 1.430935 0.060526 -0.009756 619528.000000 0 0 1
13.881156 28.740857 3.679780 32.128867 1.120860 1.456013 0.057563 -0.016805 53337.000000 0 0 1
13.261356 28.507457 2.276580 31.523348 1.135383 1.498515 0.057738 -0.006404 201322.000000 0 0 1
14.207756 27.835557 1.436580 31.284857 1.098849 1.524861 0.070131 -0.012370 379612.000000 0 0 1
13.669456 26.917657 0.529180 30.194276 1.100908 1.553270 0.057828 -0.004162 95418.000000 0 0 1
14.738756 26.443657 -0.502620 30.277888 1.062317 1.587397 0.049570 -0.011582 541669.000000 0 0 1
15.106156 27.463457 -1.447320 31.377255 1.067918 1.616939 0.042295 -0.002586 -234911.000000 0 0 1
15.997856 26.993257 -2.433020 31.472002 1.035790 1.648181 0.042230 -0.002927 9512.380000 0 0 1
15.932956 27.636557 -3.805320 32.126606 1.047822 1.689523 0.041825 -0.009009 -1038370.000000 0 0 1
14.945656 27.144257 -4.623120 31.329803 1.067492 1.718900 0.047532 -0.015692 -992946.000000 0 0 1
15.073256 27.544857 -5.944120 31.957076 1.070086 1.757889 0.046591 -0.018157 904537.000000 0 0 1
13.795056 27.240757 -6.823320 31.287699 1.102032 1.790646 0.049405 -0.032475 951470.000000 0 0 1
13.491656 25.899857 -6.898820 30.007017 1.090556 1.802778 0.042989 -0.033565 -1052370.000000 0 0 1
12.238556 25.661857 -7.425220 29.384469 1.125786 1.826258 0.032616 -0.035629 -888596.000000 0 0 1
12.010456 24.214057 -7.927320 28.167605 1.110344 1.856084 0.036530 -0.021008 -206647.000000 0 0 1
12.656256 23.841857 -9.128920 28.494774 1.082781 1.896918 0.033776 -0.021638 38535.100000 0 0 1
12.302956 22.512257 -9.529220 27.367325 1.070644 1.926443 0.040366 -0.014344 -287783.000000 0 0 1
12.662656 22.059157 -10.899320 27.672087 1.049690 1.975639 0.041758 -0.007183 -261810.000000 0 0 1
11.958056 20.871957 -11.199720 26.534268 1.050523 2.006540 0.045173 -0.005585 -107338.000000 0 0 1
12.074456 20.347557 -12.545720 26.780788 1.035236 2.058343 0.043481 -0.007823 -325423.000000 0 0 1
13.451056 19.804257 -12.929120 27.208484 0.974167 2.065973 0.043336 0.005900 -298355.000000 0 0 1
14.494256 20.751657 -12.903020 28.411312 0.961103 2.042215 0.040623 -0.002692 -774402.000000 0 0 1
15.659856 20.105457 -13.356520 28.772506 0.909063 2.053540 0.035575 0.006222 132404.000000 0 0 1
16.953856 20.963457 -13.206820 30.021989 0.890753 2.026289 0.040924 0.003289 208817.000000 0 0 1
17.078956 22.057757 -14.158920 31.284347 0.911934 2.040462 0.044304 -0.002282 -234322.000000 0 0 1
16.087956 23.052257 -14.067720 31.434529 0.961487 2.034791 0.037166 -0.002424 -6391.910000 0 0 1
16.445356 24.325257 -14.922120 32.936871 0.976318 2.040982 0.042602 -0.006938 191697.000000 0 0 1
16.718056 24.185257 -16.293620 33.614016 0.965967 2.076847 0.042878 -0.004845 -203187.000000 0 0 1
15.599056 24.474857 -17.096720 33.684521 1.003365 2.103140 0.037531 0.004990 -34624.400000 0 0 1
15.864456 24.399757 -18.655320 34.569496 0.994288 2.140814 0.027516 0.011579 152722.000000 0 0 1
16.336756 23.120057 -19.091520 34.145464 0.955651 2.164124 0.033223 0.010871 155936.000000 0 0 1
16.373456 23.141557 -20.516620 34.993619 0.955031 2.197275 0.033696 0.014876 -50885.500000 0 0 1
16.684456 21.758057 -21.086420 34.589322 0.916619 2.226380 0.037007 0.012830 68176.300000 0 0 1
15.565856 20.883157 -21.009120 33.463192 0.930260 2.249556 0.048732 0.008847 240560.000000 0 0 1
15.863956 19.680257 -21.654020 33.284744 0.892356 2.279130 0.043497 -0.001421 -419473.000000 0 0 1
14.697556 18.711157 -21.770720 32.250423 0.904961 2.311832 0.041465 -0.005750 -1256030.000000 0 0 1
14.502456 17.945557 -20.563420 30.906609 0.891114 2.298746 0.040474 -0.003368 -133553.000000 0 0 1
13.685856 16.831357 -20.757320 30.024383 0.888108 2.334150 0.030196 -0.006496 478793.000000 0 0 1
12.182256 17.110257 -21.122220 29.787857 0.952072 2.359001 0.026469 -0.004253 -370311.000000 0 0 1
11.320056 17.122957 -20.002920 28.661056 0.986655 2.343275 0.019147 0.003776 -306581.000000 0 0 1
10.012156 17.311757 -20.508020 28.644704 1.046452 2.368772 0.021165 0.000885 342926.000000 0 0 1
8.913456 16.849657 -19.485920 27.259158 1.084219 2.367191 0.024600 -0.009664 150217.000000 0 0 1
8.784956 15.467957 -19.285420 26.236626 1.054280 2.396547 0.032008 -0.016471 -190654.000000 0 0 1
7.584956 15.161657 -18.605620 25.170945 1.106931 2.402634 0.045976 -0.019849 3807.840000 0 0 1
7.363056 15.373157 -17.057720 24.114608 1.124126 2.356553 0.037530 -0.024780 -56839.400000 0 1 0
7.010156 16.707157 -16.798120 24.707250 1.173517 2.318404 0.039749 -0.016410 -243018.000000 0 1 0
6.596756 16.786757 -15.439220 23.741986 1.196362 2.278765 0.042244 -0.028146 -321165.000000 0 1 0
6.317756 18.271157 -15.134620 24.552106 1.237888 2.234995 0.026011 -0.017653 -389549.000000 0 1 0
7.399756 19.155857 -14.983320 25.420525 1.202163 2.201135 0.014880 -0.008543 -67154.000000 0 0 1
8.006156 19.749757 -16.155820 26.742512 1.185661 2.219464 0.027378 -0.002793 801022.000000 0 0 1
9.214556 20.689057 -15.771320 27.598544 1.151788 2.179074 0.025551 0.006407 322908.000000 0 0 1
8.905556 21.900457 -15.025920 28.012804 1.184581 2.136956 0.030231 0.001765 -4310.090000 0 0 1
8.604756 21.731057 -13.679820 27.081693 1.193773 2.100331 0.012191 0.000499 -203993.000000 0 0 1
8.482256 23.055657 -12.985720 27.787423 1.218262 2.057057 0.028333 0.000151 -203737.000000 0 0 1
7.178656 23.551157 -13.206120 27.939071 1.274931 2.063121 0.016734 0.004137 -73589.800000 0 0 1
6.690856 24.480357 -12.266420 28.187239 1.303997 2.021030 0.006846 0.002526 150169.000000 0 0 1
6.268156 24.015257 -10.818220 27.075011 1.315485 1.981838 -0.007552 -0.002599 -252006.000000 0 0 1
7.341256 23.769057 -9.935220 26.787510 1.271233 1.950764 0.000245 -0.005877 -47966.700000 0 0 1
6.833756 23.225657 -8.746220 25.741556 1.284639 1.917469 0.003719 -0.016023 -120242.000000 0 0 1
7.756756 23.294457 -7.538020 25.683082 1.249357 1.868684 0.006212 -0.020942 -255892.000000 0 0 1
7.884056 24.556157 -6.893620 26.696164 1.260130 1.831981 0.007499 -0.024727 449393.000000 0 0 1
8.872556 24.518957 -5.862820 26.725908 1.223591 1.791963 0.011162 -0.024247 -10666.600000 0 0 1
9.060256 25.920257 -5.216420 27.949221 1.234528 1.758536 0.004017 -0.020927 -226729.000000 0 0 1
9.489356 26.825657 -6.161820 29.114116 1.230792 1.784053 0.012239 -0.027133 -125789.000000 0 0 1
9.608756 28.161557 -5.690320 30.294904 1.241982 1.759750 0.015380 -0.030250 -31442.400000 0 0 1
9.744756 29.205157 -6.806220 31.531351 1.248747 1.788364 0.020409 -0.022586 673829.000000 0 0 1
11.020256 29.214857 -7.457320 32.102422 1.210086 1.805236 0.021441 -0.025047 329362.000000 0 0 1
11.137256 30.492857 -8.087720 33.455403 1.220608 1.814961 0.029208 -0.021874 -615349.000000 0 0 1
12.484756 30.645957 -8.767220 34.233141 1.183938 1.829785 0.039186 -0.023979 -345359.000000 0 0 1
13.516256 30.677357 -7.784920 34.415031 1.155792 1.798978 0.041033 -0.015683 -655041.000000 0 0 1
14.702356 31.108757 -8.384220 35.414815 1.129299 1.809809 0.041652 -0.015947 -254981.000000 0 0 1
15.876456 31.390157 -7.438820 35.954691 1.102537 1.779196 0.044125 -0.014393 -183348.000000 0 0 1
16.626456 30.268757 -7.027320 35.242303 1.068495 1.771542 0.044725 -0.017364 194615.000000 0 0 1
17.833456 30.804157 -6.436420 36.171200 1.046013 1.749692 0.046957 -0.004481 503882.000000 0 0 1
18.819256 29.648957 -6.205820 35.661425 1.005227 1.745707 0.045097 -0.010437 -581506.000000 0 0 1
18.515756 28.790857 -5.111020 34.610247 0.999278 1.719012 0.048706 -0.015807 186575.000000 0 0 1
19.513556 27.786657 -4.867520 34.301165 0.958553 1.713182 0.045027 -0.016290 170016.000000 0 0 1
19.566656 26.608357 -5.937720 33.557640 0.936732 1.748674 0.039388 -0.011681 -103419.000000 0 0 1
20.014056 27.009257 -7.194020 34.377555 0.933075 1.781620 0.036380 -0.007677 222424.000000 0 0 1
19.757456 25.930457 -8.096220 33.590094 0.919697 1.814223 0.036627 -0.013814 -650067.000000 0 0 1
20.382956 26.251557 -9.506020 34.568389 0.910583 1.849377 0.033839 -0.017463 1638970.000000 0 0 1
21.839656 26.280557 -9.587220 35.490182 0.877425 1.844332 0.039460 -0.018370 1655450.000000 0 0 1
22.443556 24.998957 -9.416920 34.890391 0.839209 1.844086 0.051256 -0.026211 217583.000000 0 0 1
23.997356 25.039657 -9.193620 35.880080 0.806650 1.829918 0.038071 -0.021287 984020.000000 0 0 1
24.805056 25.053257 -10.370620 36.749234 0.790376 1.856882 0.040478 -0.018216 223690.000000 0 0 1
26.163456 25.273057 -10.003220 37.726890 0.768089 1.839154 0.039121 -0.012571 753416.000000 0 0 1
27.089556 25.193357 -11.274720 38.673875 0.749146 1.866626 0.044663 -0.007299 152378.000000 0 0 1
26.953356 26.286757 -12.178720 39.570168 0.772878 1.883650 0.033691 -0.005955 115815.000000 0 0 1
27.974356 26.264557 -13.170220 40.569030 0.753885 1.901425 0.055739 -0.018581 145867.000000 0 0 1
27.710356 27.207257 -14.381020 41.411500 0.776237 1.925456 0.061369 -0.018205 -72583.900000 0 0 1
27.908156 28.564257 -14.152420 42.368301 0.797016 1.911376 0.047541 -0.005238 81721.900000 0 0 1
27.835256 29.234857 -15.387420 43.200127 0.809917 1.934983 0.045934 -0.003930 -324641.000000 0 0 1
28.099356 30.731157 -15.231820 44.339442 0.830104 1.921467 0.045980 -0.003067 141093.000000 0 0 1
29.411656 31.113157 -14.868220 45.322599 0.813503 1.905038 0.047860 -0.004564 190748.000000 0 0 1
29.682256 32.455957 -15.340020 46.580486 0.830006 1.906383 0.040092 -0.005602 42777.900000 0 0 1
15.647156 -32.478063 -27.895292 45.582951 -1.121834 2.229342 0.043539 -0.032968 -128754.000000 0 0 1
16.715356 -33.277563 -27.401932 46.234892 -1.105310 2.205163 0.036560 -0.026974 197574.000000 0 0 1
17.206856 -32.641863 -26.192522 45.250584 -1.085673 2.188093 0.042765 -0.028764 -456526.000000 0 0 1
18.455756 -33.426063 -25.748502 46.053251 -1.066314 2.164100 0.011215 -0.019031 -156847.000000 0 0 1
19.676556 -33.064063 -26.349802 46.633799 -1.033985 2.171274 0.029228 -0.020561 133448.000000 0 0 1
19.917656 -33.553463 -27.684952 47.843542 -1.035089 2.187876 0.042275 -0.022245 -1542890.000000 0 0 1
21.318956 -33.256963 -28.137412 48.499870 -1.000748 2.189715 0.053318 -0.017889 -1013180.000000 0 0 1
21.541156 -31.901063 -28.260902 47.753301 -0.976876 2.204099 0.052478 -0.026695 867345.000000 0 0 1
22.909456 -31.637063 -27.888672 47.995051 -0.944056 2.190844 0.032317 -0.015474 1029920.000000 0 0 1
23.548856 -30.361563 -28.542372 47.864811 -0.911103 2.209696 0.024992 -0.013915 165273.000000 0 0 1
23.696156 -30.526863 -29.960012 48.897847 -0.910712 2.230277 0.030185 -0.026667 111404.000000 0 0 1
24.372156 -29.461363 -30.621062 48.985950 -0.879654 2.246055 0.034705 -0.030111 316036.000000 0 0 1
24.852656 -29.538863 -32.109352 50.211646 -0.871343 2.264618 0.037982 -0.020619 76274.200000 0 0 1
25.884256 -30.464163 -32.305382 51.397448 -0.866498 2.250472 0.048647 -0.028549 -490565.000000 0 0 1
26.123056 -30.826863 -33.628552 52.569849 -0.867807 2.264895 0.039979 -0.025084 -502104.000000 0 0 1
27.494856 -31.397463 -33.921832 53.781581 -0.851568 2.253294 0.039620 -0.032125 -192625.000000 0 0 1
28.602256 -30.513663 -33.845952 53.802613 -0.817720 2.251161 0.037644 -0.033881 1731350.000000 0 0 1
29.828256 -31.123863 34.030854 54.922844 -0.806651 0.902548 0.029412 -0.017824 1458670.000000 0 0 1
31.119456 -30.331863 34.113928 55.246743 -0.772582 0.905257 0.030235 -0.021400 -396249.000000 0 0 1
31.104156 -29.185463 33.295741 54.109760 -0.753584 0.907983 0.030672 -0.020071 360717.000000 0 0 1
32.439556 -28.776363 33.043907 54.518838 -0.725629 0.919647 0.028177 -0.020017 159648.000000 0 0 1
32.378956 -27.516663 32.122610 53.267491 -0.704396 0.923485 0.020976 -0.019974 521829.000000 0 0 1
33.492856 -27.335763 31.231580 53.333169 -0.684521 0.945184 0.002958 -0.014270 728461.000000 0 0 1
33.231056 -26.324063 30.303990 52.111335 -0.669938 0.950196 0.010091 -0.011718 -27077.200000 0 0 1
34.014956 -26.541263 28.981660 51.974922 -0.662602 0.979294 0.011465 0.000443 205224.000000 0 0 1
33.537256 -27.643363 28.190470 51.803530 -0.689359 0.995384 0.010269 -0.005886 -73721.700000 0 0 1
32.284456 -27.428663 27.609320 50.565722 -0.704258 0.993204 0.015527 -0.006145 -564281.000000 0 0 1
31.812556 -28.452563 26.571230 50.275415 -0.729702 1.013948 0.008485 -0.002387 -292786.000000 0 0 1
30.701256 -27.935463 25.873330 48.912028 -0.738265 1.013402 0.016003 0.003513 4221.380000 0 0 1
29.986856 -29.051163 25.340030 48.839520 -0.769551 1.025300 0.025885 0.005281 514653.000000 0 0 1
28.571456 -28.729663 24.793730 47.502113 -0.788159 1.021661 0.033639 0.006708 789692.000000 0 0 1
27.561556 -28.197963 25.648790 47.038547 -0.796811 0.994083 0.031756 0.005660 630254.000000 0 0 1
26.268756 -28.285263 25.070620 46.028683 -0.822345 0.994796 0.031622 0.008396 91281.300000 0 0 1
25.120256 -28.202863 26.049990 45.880614 -0.843144 0.966993 0.038684 0.003852 -392730.000000 0 0 1
24.975456 -26.993063 26.733620 45.465210 -0.824202 0.942210 0.039861 0.003257 -205950.000000 0 0 1
23.816056 -26.977863 27.528270 45.308005 -0.847566 0.917785 0.045873 -0.004872 -286496.000000 0 0 1
23.673556 -25.737763 28.400650 45.049602 -0.827150 0.888688 0.045289 0.002978 5500.840000 0 0 1
22.577056 -25.790863 29.320360 45.106270 -0.851746 0.863174 0.059135 0.000172 512808.000000 0 0 1
22.597756 -24.700063 30.260270 45.126884 -0.829817 0.835833 0.058267 0.004284 -203588.000000 0 0 1
22.035256 -23.350563 29.751240 43.771425 -0.814371 0.823449 0.056177 -0.005472 -286497.000000 0 0 1
22.868856 -22.734663 28.790190 43.228747 -0.782456 0.841968 0.063115 -0.007685 328759.000000 0 0 1
22.372256 -21.427763 28.521560 42.108743 -0.763838 0.826668 0.057991 -0.003769 -148295.000000 0 0 1
23.064056 -20.322063 29.279090 42.452350 -0.722282 0.809731 0.063295 0.000882 -141438.000000 0 0 1
22.684556 -20.298163 30.653560 43.200061 -0.729935 0.781905 0.063063 0.000728 -194512.000000 0 0 1
23.630756 -19.625663 31.401840 43.927837 -0.693072 0.774386 0.059031 -0.003181 -545915.000000 0 0 1
23.195056 -19.299063 32.875151 44.623313 -0.693971 0.742581 0.083775 -0.007318 -292104.000000 0 0 1
23.235256 -20.324663 33.847007 45.810359 -0.718679 0.739433 0.059077 -0.006171 19809.400000 0 0 1
22.638056 -19.945063 -33.393052 45.004256 -0.722241 2.406842 0.060791 -0.010926 -494630.000000 0 0 1
22.629956 -21.031563 -32.351102 44.732934 -0.748806 2.379229 0.043057 -0.002344 191610.000000 0 0 1
23.827856 -21.291263 -31.636982 44.966468 -0.729237 2.351203 0.038909 -0.001227 62080.900000 0 0 1
23.576356 -22.403663 -30.790842 44.786657 -0.759899 2.328838 0.037425 -0.004329 516154.000000 0 0 1
24.714556 -22.728663 -29.756272 44.864653 -0.743564 2.295943 0.015334 0.000150 44239.900000 0 0 1
25.896956 -23.172063 -30.349612 46.137791 -0.729923 2.288695 0.016497 0.002017 -431152.000000 0 0 1
26.842156 -23.658063 -29.375822 46.294105 -0.722430 2.258220 0.019061 -0.004379 172401.000000 0 0 1
27.966056 -24.510763 -29.957272 47.752654 -0.719649 2.248932 0.023609 -0.002034 -729998.000000 0 0 1
28.779656 -23.731763 -30.833722 48.396111 -0.689563 2.261541 0.021129 -0.000676 47300.100000 0 0 1
28.385956 -23.710663 -32.207612 49.043739 -0.695895 2.287247 0.021589 -0.003484 -484464.000000 0 0 1
28.991856 -24.754763 -33.124122 50.502806 -0.706726 2.286153 0.022659 -0.014552 -440066.000000 0 0 1
28.578456 -26.017563 -32.682742 50.614260 -0.738526 2.272765 0.041871 -0.021697 92775.100000 0 0 1
28.788356 -27.150663 -33.541912 51.874732 -0.756130 2.273908 0.036349 -0.022865 128339.000000 0 0 1
28.135356 -27.179263 33.455098 51.473821 -0.768115 0.863286 0.035858 -0.014642 207502.000000 0 0 1
28.734856 -26.260963 32.548812 50.742047 -0.740445 0.874401 0.023354 -0.017116 92144.200000 0 0 1
28.210656 -26.435263 31.248180 49.710291 -0.752921 0.891037 0.028393 -0.013536 -846750.000000 0 0 1
29.149256 -25.918563 30.171720 49.313119 -0.726798 0.912412 0.025684 -0.014577 -333362.000000 0 0 1
29.400456 -24.520863 30.115420 48.709322 -0.695149 0.904259 0.017898 -0.014820 118705.000000 0 0 1
30.094656 -24.001463 31.230440 49.569133 -0.673234 0.889194 0.026704 -0.011264 -1822310.000000 0 0 1
30.522656 -22.525763 31.138890 49.078234 -0.635778 0.883468 0.011188 -0.006456 592976.000000 0 0 1
31.812356 -22.221963 30.588660 49.411616 -0.609740 0.903254 0.004631 -0.011446 87129.500000 0 0 1
32.790756 -22.617063 31.502240 50.785395 -0.603806 0.901670 0.006235 -0.008800 -2266440.000000 0 0 1
34.167156 -22.146463 31.090510 51.229681 -0.575095 0.918661 0.009502 -0.013004 -894672.000000 0 0 1
34.570656 -22.647363 29.832040 50.970422 -0.579955 0.945569 0.007090 -0.017246 84916.000000 0 0 1
35.736556 -22.040563 29.320470 51.211111 -0.552646 0.961194 0.005998 -0.018530 3704.260000 0 0 1
36.081856 -22.513563 27.924920 50.877913 -0.557850 0.989795 0.017963 -0.013594 -295931.000000 0 0 1
-36.085716 -23.876563 27.794500 51.427652 0.584530 0.999815 0.014810 -0.011345 195459.000000 0 0 1
-35.542916 -24.058563 26.492220 50.437596 0.595045 1.017790 0.011903 0.001121 -36488.400000 0 0 1
-35.427116 -25.597363 26.069900 50.891505 0.625691 1.032977 0.012416 -0.005484 334533.000000 0 0 1
35.740856 -26.213363 25.865940 51.318574 -0.632811 1.042541 0.018647 -0.004016 450607.000000 0 0 1
35.745356 -27.542763 25.464920 51.815021 -0.656509 1.057033 0.021598 0.004353 23580.400000 0 0 1
-36.069016 -28.608963 26.417910 53.078740 0.670564 1.049838 0.039955 -0.010194 -670579.000000 0 0 1
-35.762116 -29.895663 25.843720 53.297069 0.696286 1.064548 0.045513 -0.012734 756467.000000 0 0 1
-34.603416 -30.527363 26.384170 53.154875 0.722897 1.051391 0.061394 -0.024872 105040.000000 0 0 1
-33.223816 -29.900063 26.332900 51.877330 0.732792 1.038400 0.069458 -0.019786 -1306520.000000 0 0 1
-32.583116 -30.019963 25.118450 50.929306 0.744478 1.055029 0.073175 -0.020395 991465.000000 0 0 1
-31.218116 -29.528863 25.108260 49.768959 0.757597 1.041998 0.051546 -0.019284 1249430.000000 0 0 1
-30.513816 -29.438263 23.728510 48.587514 0.767460 1.060580 0.034791 -0.015188 -29115.900000 0 0 1
-30.340616 -30.718763 23.145680 48.988957 0.791591 1.078708 0.039200 -0.017872 253300.000000 0 0 1
-29.913516 -30.683063 21.823080 48.088623 0.798097 1.099760 0.026909 -0.016126 -745932.000000 0 0 1
-29.920816 -32.121363 21.203480 48.750639 0.820852 1.120827 0.029227 -0.012104 373006.000000 0 0 1
-28.866416 -33.049863 21.469780 48.851969 0.852862 1.115769 0.026391 -0.022314 656247.000000 0 0 1
-27.540016 -32.701763 21.080980 47.668287 0.870873 1.112698 0.034372 -0.015605 691213.000000 0 0 1
-26.623516 -33.990763 20.947480 47.989379 0.906348 1.119089 0.026569 -0.004422 124100.000000 0 0 1
-27.047316 33.637857 19.957580 47.553840 -0.893576 1.137699 0.009304 -0.002256 938720.000000 0 0 1
-28.220716 32.812557 20.219380 47.769195 -0.860492 1.133742 0.015874 -0.004871 961487.000000 0 0 1
-28.135816 31.829657 21.381780 47.559770 -0.846920 1.104505 0.018877 0.003737 -326906.000000 0 0 1
-27.213516 30.817657 21.077280 46.201246 -0.847425 1.097069 0.003669 0.010255 -84654.600000 0 0 1
-27.151116 29.817057 22.092480 45.981710 -0.832161 1.069615 0.005115 0.006175 -384870.000000 0 0 1
-26.215416 28.664457 21.755780 44.522052 -0.829994 1.060253 0.007102 0.006112 959548.000000 0 0 1
-24.810316 29.002557 21.781380 43.944608 -0.863145 1.052207 0.003360 0.006124 818395.000000 0 0 1
-23.978916 28.104657 21.121080 42.555378 -0.864447 1.051442 0.013896 0.004586 -570785.000000 0 0 1
-22.505516 28.463857 21.295580 42.073639 -0.901770 1.040081 0.013498 0.010138 -786623.000000 0 0 1
-22.009016 28.100157 22.536480 42.212658 -0.906362 1.007614 0.016099 0.007534 160542.000000 0 0 1
-20.663216 28.507857 22.654980 41.867822 -0.943603 0.999043 0.047817 0.000411 -90807.300000 0 0 1
-20.400016 28.747557 24.154520 42.731996 -0.953639 0.970053 0.043187 0.004265 -569831.000000 0 0 1
-20.385316 27.518257 24.904750 42.344564 -0.933214 0.942033 0.062317 -0.009250 476196.000000 0 0 1
-20.001216 27.632557 26.282930 43.062736 -0.944257 0.914306 0.058719 -0.010759 -840548.000000 0 0 1
-18.549816 27.952057 26.570610 42.794982 -0.984899 0.900930 0.061131 -0.008480 -1131040.000000 0 0 1
-18.125916 29.310657 26.573370 43.517898 -1.016952 0.913939 0.038553 -0.005697 -529236.000000 0 0 1
-16.759316 29.472357 26.772440 43.200209 -1.053751 0.902398 0.045599 -0.007929 -541134.000000 0 0 1
-16.307016 29.704257 28.262560 44.125208 -1.068737 0.875636 0.043699 -0.005242 -257795.000000 0 0 1
-16.323716 28.574057 29.058730 43.901597 -1.051764 0.847438 0.043006 -0.007075 76666.500000 0 0 1
-16.743216 28.869357 30.365900 45.120538 -1.045239 0.832546 0.043349 -0.001426 -165492.000000 0 0 1
-16.748716 27.581057 31.167640 44.862634 -1.025060 0.802745 0.034631 0.004694 453317.000000 0 0 1
-15.397516 27.229157 31.500070 44.393298 -1.056147 0.781911 0.031095 0.012135 751459.000000 0 0 1
-15.165016 26.095157 32.247070 44.167957 -1.044358 0.752327 0.034176 0.010683 -107539.000000 0 0 1
-15.600416 26.176557 33.787919 45.499545 -1.033346 0.733854 0.030158 0.015338 -343103.000000 0 0 1
-16.972816 25.996557 33.957251 46.010785 -0.992394 0.740653 0.028354 0.009445 -672226.000000 0 0 1
-17.403516 26.656057 -33.316192 46.080325 -0.992391 2.378935 0.037625 0.005026 705536.000000 0 0 1
-18.861416 26.395757 -32.786972 46.124554 -0.950364 2.361482 0.014431 0.005325 967513.000000 0 0 1
-19.836116 26.772657 -33.739202 47.419198 -0.933139 2.362440 0.019886 0.005719 69784.300000 0 0 1
-21.151116 26.367057 -33.417152 47.532067 -0.894728 2.350466 0.044525 -0.003108 619681.000000 0 0 1
-22.060816 26.085457 33.732645 48.010645 -0.868796 0.791741 0.044748 -0.019364 -124488.000000 0 0 1
-21.771516 25.005457 32.917297 46.720662 -0.854424 0.789000 0.050624 -0.007491 13977.000000 0 0 1
-21.989816 23.661457 33.418388 46.478008 -0.821999 0.768412 0.051229 -0.015794 -168893.000000 0 0 1
-22.259416 22.679357 32.250730 45.276312 -0.794743 0.778014 0.067756 -0.022054 1366140.000000 0 0 1
-23.659116 22.583357 31.847500 45.651123 -0.762139 0.798715 0.071672 -0.028343 1193690.000000 0 0 1
-23.855516 22.056557 30.516130 44.573664 -0.746235 0.816711 0.087298 -0.031586 967559.000000 0 0 1
-25.367716 21.851957 30.112880 45.031262 -0.711080 0.838323 0.075357 -0.032280 778088.000000 0 0 1
-25.943816 20.814957 30.807740 45.337191 -0.676147 0.823682 0.088859 -0.040934 -483458.000000 0 0 1
-27.110016 20.431757 30.121400 45.384010 -0.645840 0.845041 0.069162 -0.032722 -493905.000000 0 0 1
-27.582116 19.086757 30.631600 45.424358 -0.605335 0.830722 0.088601 -0.033408 -991865.000000 0 0 1
-28.115416 19.157857 31.922610 46.653544 -0.598134 0.817224 0.079255 -0.030671 199463.000000 0 0 1
-28.404816 17.849957 32.468445 46.686770 -0.561050 0.801746 0.066499 -0.018142 106570.000000 0 0 1
-29.361616 16.877757 31.656440 46.358315 -0.521702 0.819120 0.040896 -0.019165 -235238.000000 0 0 1
-30.702216 17.294557 31.761380 47.439572 -0.512997 0.837244 0.034508 -0.021335 -32431.900000 0 0 1
-31.579116 16.295357 31.240840 47.315635 -0.476379 0.849625 0.053857 -0.012737 -300173.000000 0 0 1
-33.051916 16.679757 31.334610 48.502590 -0.467363 0.868411 0.063951 -0.018728 -768191.000000 0 0 1
-33.546616 16.525857 32.631464 49.631561 -0.457729 0.853335 0.054276 -0.013692 393057.000000 0 0 1
-34.960116 16.595057 32.681441 50.652564 -0.443192 0.869501 0.068734 -0.022448 4108.020000 0 0 1
-35.512016 16.645557 34.114892 51.980801 -0.438320 0.854895 0.061096 -0.014534 327296.000000 0 0 1
35.537556 16.920957 34.206911 52.147382 0.444380 0.855335 0.062139 -0.018772 309363.000000 0 0 1
35.158556 17.348057 -32.930112 51.200306 0.458373 2.269417 0.045892 -0.020065 -734815.000000 0 0 1
33.688256 17.442957 -32.602732 50.020930 0.477767 2.280728 0.054515 -0.021241 -465284.000000 0 0 1
32.949756 16.202957 -32.625192 49.118483 0.457024 2.297238 0.056328 -0.025005 521987.000000 0 0 1
31.724056 16.362157 -31.912812 47.880721 0.476180 2.300309 0.045190 -0.025693 212682.000000 0 0 1
30.803656 15.119657 -32.031872 46.941560 0.456293 2.321807 0.047666 -0.033463 -105489.000000 0 0 1
30.358056 15.096157 -33.413872 47.602440 0.461461 2.348909 0.052866 -0.028767 -55181.500000 0 0 1
29.578756 13.975657 -33.730442 46.988983 0.441398 2.371487 0.045813 -0.023546 3044.350000 0 0 1
30.452956 12.742757 -34.093594 47.456649 0.396302 2.372318 0.055825 -0.017625 97387.700000 0 0 1
30.999156 12.168457 -32.969332 46.861454 0.374060 2.351176 0.061143 -0.019176 -186000.000000 0 0 1
32.071156 11.332357 -33.369152 47.649571 0.339656 2.346619 0.083454 -0.022830 94907.600000 0 0 1
17.485056 -21.131643 10.329888 29.308363 -0.879549 1.210603 -0.000379 -0.007119 -42263.400000 0 0 1
17.284356 -22.449243 10.790388 30.317486 -0.914661 1.206905 0.000353 -0.009509 275505.000000 0 0 1
18.512556 -23.106343 11.083788 31.614367 -0.895331 1.212592 -0.005482 -0.010513 125520.000000 0 0 1
18.335156 -24.467543 11.883188 32.803183 -0.927701 1.200108 0.013255 -0.012899 93197.000000 0 0 1
17.734256 -25.565583 11.158688 33.054791 -0.964327 1.226450 0.026976 -0.007879 -128302.000000 0 0 1
16.370656 -25.673923 11.465388 32.536193 -1.003161 1.210674 0.039017 -0.008853 106827.000000 0 0 1
15.440556 -26.502843 10.501388 32.420528 -1.043269 1.240935 0.042979 0.000449 414579.000000 0 0 1
15.352456 -25.859643 9.257688 31.466234 -1.035034 1.272167 0.037386 -0.004083 -474127.000000 0 0 1
14.488056 -26.472483 8.392888 31.323102 -1.070038 1.299536 0.051660 0.005388 -694806.000000 0 0 1
14.324856 -25.851263 7.026088 30.378533 -1.064791 1.337398 0.057462 -0.000521 -310570.000000 0 0 1
13.529856 -24.712143 7.057988 29.044143 -1.069876 1.325330 0.059296 -0.013143 -186694.000000 0 0 1
13.190956 -24.205643 5.776688 28.165309 -1.071836 1.364231 0.061308 -0.006790 337710.000000 0 0 1
12.400156 -22.838243 5.857088 26.639345 -1.073377 1.349119 0.072975 -0.012342 370779.000000 0 0 1
11.768956 -22.395643 4.637888 25.721259 -1.086956 1.389491 0.074476 -0.012906 46463.800000 0 0 1
10.905356 -21.337943 4.984988 24.476207 -1.098326 1.365695 0.074006 -0.015525 -48661.100000 0 1 0
10.071756 -20.772943 3.819388 23.399641 -1.119342 1.406838 0.056774 -0.017981 347934.000000 0 1 0
10.898656 -20.103643 2.872588 23.047537 -1.074020 1.445834 0.053256 -0.012698 612958.000000 0 1 0
10.048256 -19.523443 1.867588 22.036792 -1.095477 1.485946 0.036032 -0.005138 434615.000000 0 1 0
10.870256 -19.256343 0.628588 22.121581 -1.056887 1.542377 0.037663 0.002877 418629.000000 0 1 0
11.700356 -18.076343 0.756988 21.545894 -0.996339 1.535655 0.034503 0.002748 263331.000000 0 1 0
12.548356 -17.848443 -0.349712 21.820872 -0.958026 1.586823 0.044578 0.001287 651600.000000 0 1 0
13.821756 -16.992443 -0.049312 21.904030 -0.887934 1.573048 0.051037 0.010748 995934.000000 0 1 0
14.887256 -17.472743 0.769788 22.967798 -0.865126 1.537274 0.060456 -0.003109 -36771.300000 0 1 0
15.996256 -16.620743 0.639288 23.076785 -0.804542 1.543090 0.053487 -0.011021 -597600.000000 0 1 0
17.220856 -17.253343 1.276288 24.410339 -0.786341 1.518488 0.050484 -0.003206 -624166.000000 0 1 0
17.552156 -18.409843 0.597088 25.443212 -0.809243 1.547327 0.053864 -0.000600 -600227.000000 0 0 1
18.749856 -18.934243 1.067588 26.668379 -0.790291 1.530754 0.042733 0.007929 -274929.000000 0 0 1
19.234056 -20.312843 0.566388 27.980016 -0.812670 1.550552 0.031586 0.003184 167473.000000 0 0 1
18.328256 -21.370643 0.868988 28.167082 -0.861885 1.539940 0.038893 0.002023 49688.400000 0 0 1
18.638156 -22.593543 0.242588 29.290065 -0.881036 1.562514 0.047886 -0.004789 76621.300000 0 0 1
17.402756 -23.541743 0.263388 29.276936 -0.934224 1.561800 0.041110 -0.002653 220692.000000 0 0 1
17.311656 -24.180343 1.501688 29.776459 -0.949453 1.520343 0.030970 0.000716 -9394.880000 0 0 1
16.284156 -25.155223 1.567288 30.006923 -0.996288 1.518542 0.031283 -0.000797 -401137.000000 0 0 1
16.116356 -26.080853 2.819288 30.787924 -1.017291 1.479097 0.023401 0.007839 942459.000000 0 0 1
17.204056 -27.030903 2.966688 32.178417 -1.003999 1.478470 0.034310 -0.003730 451190.000000 0 0 1
18.383756 -26.492023 3.491588 32.434256 -0.964152 1.462936 0.019646 0.007538 -477850.000000 0 0 1
19.519056 -27.564543 3.679288 33.975503 -0.954640 1.462291 0.025880 0.004488 275997.000000 0 0 1
19.986356 -27.948363 2.374688 34.441321 -0.949996 1.501793 0.049408 0.006155 378673.000000 0 0 1
20.999156 -28.969753 2.351688 35.857239 -0.943577 1.505164 0.080686 0.005117 597099.000000 0 0 1
20.456256 -30.388983 2.741988 36.735095 -0.978321 1.496085 0.076073 -0.000626 -13355.700000 0 0 1
20.401556 -30.660033 4.147188 37.060226 -0.983663 1.458657 0.071959 -0.004594 -229638.000000 0 0 1
19.881256 -31.909473 4.408388 37.853834 -1.013599 1.454073 0.063040 -0.021653 -368399.000000 0 0 1
19.431456 -32.175773 5.826888 38.037015 -1.027503 1.417001 0.073099 -0.024672 -138163.000000 0 0 1
20.425356 -32.828923 6.594088 39.222639 -1.014231 1.401875 0.058927 -0.029105 70818.400000 0 0 1
19.947456 -33.286933 7.823488 39.586967 -1.030923 1.371859 0.057550 -0.028612 82850.800000 0 0 1
20.933556 -34.191253 8.617688 41.006343 -1.021419 1.359063 0.043527 -0.029797 1027540.000000 0 0 1
22.018956 -33.501113 9.307288 41.155615 -0.989334 1.342674 0.041665 -0.026230 829432.000000 0 0 1
23.025556 34.138737 9.628488 42.288739 0.977411 1.341097 0.062055 -0.033211 -232721.000000 0 0 1
24.085756 -33.843473 10.552588 42.858622 -0.952274 1.322020 0.061297 -0.028132 -692560.000000 0 0 1
24.828556 -32.874873 9.871788 42.363507 -0.923947 1.335608 0.056782 -0.024589 -311112.000000 0 0 1
25.808556 -32.270613 10.685588 42.680861 -0.896205 1.317744 0.055114 -0.016935 85514.400000 0 0 1
26.565356 -31.213373 9.875888 42.160716 -0.865670 1.334356 0.058566 -0.020792 -307203.000000 0 0 1
25.729856 -30.111813 9.700588 40.778036 -0.863709 1.330606 0.050236 -0.020985 -19323.100000 0 0 1
26.229256 -29.266853 8.654788 40.242117 -0.840079 1.354035 0.060755 -0.015083 78373.800000 0 0 1
25.598256 -27.844413 8.543088 38.775849 -0.827403 1.348654 0.046246 -0.007229 20170.300000 0 0 1
26.200856 -26.942013 9.463788 38.754616 -0.799344 1.324104 0.049878 -0.016878 -103278.000000 0 0 1
25.641556 -25.692213 9.559588 37.536182 -0.786385 1.313283 0.039203 -0.017393 -426052.000000 0 0 1
26.529556 -24.835143 10.444488 37.811229 -0.752422 1.290930 0.049099 -0.033242 -273877.000000 0 0 1
27.863556 -24.712343 10.052588 38.576317 -0.725533 1.307163 0.069246 -0.032148 -838409.000000 0 0 1
28.634356 -23.947443 10.923688 38.893873 -0.696497 1.286107 0.049136 -0.037636 78214.100000 0 0 1
30.107956 -23.790843 10.484888 39.779720 -0.668727 1.304071 0.062903 -0.041200 310131.000000 0 0 1
30.189256 -22.855943 9.426588 39.021096 -0.648022 1.326806 0.084555 -0.038370 -751633.000000 0 0 1
31.517456 -22.719743 9.033388 39.889082 -0.624591 1.342352 0.082188 -0.045934 -311667.000000 0 0 1
31.597156 -22.097543 7.619488 39.303159 -0.610291 1.375696 0.087379 -0.020580 -85866.500000 0 0 1
31.028356 -20.806043 7.481088 38.100092 -0.590686 1.373159 0.086527 -0.006954 -109280.000000 0 0 1
31.388956 -20.215543 6.226888 37.851141 -0.572169 1.405535 0.077404 -0.011312 84037.400000 0 0 1
31.062856 -18.753943 5.939588 36.768059 -0.543166 1.408543 0.087540 -0.007137 228645.000000 0 0 1
31.742656 -17.907343 6.871588 37.087571 -0.513635 1.384439 0.094136 0.003416 186280.000000 0 0 1
31.378356 -16.543943 6.737988 36.106838 -0.485202 1.383083 0.094289 0.005861 79271.700000 0 0 1
31.980956 -15.649043 7.865488 36.462858 -0.455070 1.353375 0.089046 -0.024839 186715.000000 0 0 1
33.380456 -15.478043 7.835988 37.619508 -0.434177 1.360964 0.086010 -0.017189 -137123.000000 0 0 1
33.825056 -14.862643 9.043888 38.037146 -0.414002 1.330732 0.077809 -0.026617 775693.000000 0 0 1
35.373256 -14.859943 9.289588 39.476343 -0.397704 1.333248 0.064896 -0.030032 745583.000000 0 0 1
35.999856 -13.713843 8.688588 39.491147 -0.363970 1.348968 0.069545 -0.013492 135190.000000 0 0 1
-35.059916 -14.007343 8.666388 38.736413 0.380098 1.345159 0.061316 -0.012052 147117.000000 0 0 1
-34.125116 -13.013643 7.987688 37.385581 0.364327 1.355480 0.059677 -0.013779 -209400.000000 0 0 1
-34.298416 -13.076943 6.538688 37.284611 0.364256 1.394512 0.082620 -0.019642 373385.000000 0 0 1
-33.217416 -12.557543 5.757688 35.975542 0.361434 1.410061 0.058262 -0.008534 62558.300000 0 0 1
-32.300016 -13.684443 5.252388 35.470306 0.400741 1.422171 0.023940 -0.001835 -143148.000000 0 0 1
-31.564116 -14.232843 6.354688 35.202973 0.423617 1.389286 0.041731 0.000615 11088.300000 0 0 1
-30.590016 -15.167243 5.977688 34.663051 0.460301 1.397479 0.033907 0.010223 -103438.000000 0 0 1
-29.927816 -15.814043 7.187888 34.603813 0.486113 1.361553 0.028223 -0.004063 -573942.000000 0 0 1
-30.808616 -16.713743 7.799488 35.907549 0.497069 1.351841 0.046840 -0.013847 -156151.000000 0 0 1
-30.634316 -16.689643 9.197388 36.077659 0.498844 1.313018 0.034835 -0.015799 986655.000000 0 0 1
-31.859616 -17.304243 10.012488 37.612789 0.497561 1.301349 0.013910 -0.016223 1066120.000000 0 0 1
-33.075016 -16.531043 10.043288 38.315790 0.463491 1.305579 0.041273 -0.012497 1608460.000000 0 0 1
-34.136916 -17.088943 10.861688 39.690519 0.464128 1.293601 0.066249 -0.018222 933439.000000 0 0 1
-34.893116 -18.383343 10.407488 40.789615 0.484894 1.312793 0.069504 -0.029421 -488964.000000 0 0 1
-34.107916 -19.585943 10.313788 40.661202 0.521259 1.314343 0.060333 -0.028391 -142876.000000 0 0 1
-33.426616 -20.127043 11.424488 40.656555 0.541981 1.285960 0.072008 -0.036821 -451978.000000 0 0 1
-34.203316 -20.899543 12.533388 41.996947 0.548497 1.267743 0.099457 -0.048404 -181981.000000 0 0 1
-34.500616 -22.209443 12.144088 42.790545 0.571962 1.283038 0.102116 -0.048585 16808.600000 0 0 1
-35.865016 -22.377143 11.791888 43.887180 0.557827 1.298767 0.087536 -0.046530 51402.600000 0 0 1
36.200256 -23.833943 11.412688 44.819247 -0.582252 1.313323 0.087370 -0.044067 -180190.000000 0 0 1
-36.108216 -24.623943 12.592988 45.483241 0.598508 1.290260 0.098932 -0.036550 382385.000000 0 0 1
35.629156 -25.841643 12.407288 45.729292 -0.627501 1.296032 0.095009 -0.023984 -99691.000000 0 0 1
34.359156 -25.914813 13.271588 45.036255 -0.646205 1.271669 0.098111 -0.036213 56445.300000 0 0 1
33.441156 -24.877343 12.922788 43.637044 -0.639595 1.270145 0.082817 -0.039392 164753.000000 0 0 1
32.232056 -24.975843 13.658788 43.003031 -0.659233 1.247574 0.067116 -0.006806 270906.000000 0 0 1
31.508256 -23.620443 13.941188 41.773823 -0.643283 1.230538 0.075377 -0.011297 308907.000000 0 0 1
32.153156 -22.798243 14.946688 42.154346 -0.616775 1.208342 0.090849 -0.014744 741150.000000 0 0 1
33.351956 -22.138243 14.475688 42.567597 -0.585999 1.223812 0.074166 -0.027418 442176.000000 0 0 1
34.377756 -21.773243 15.509188 43.548125 -0.564583 1.206664 0.076626 -0.024580 -524712.000000 0 0 1
34.457756 -20.481943 16.018888 43.167717 -0.536297 1.190619 0.105444 -0.014514 526093.000000 0 0 1
33.405056 -20.105843 16.939488 42.509869 -0.541801 1.160933 0.082294 -0.015533 398087.000000 0 0 1
33.584456 -18.719343 17.550388 42.265182 -0.508492 1.142585 0.084553 -0.002436 -229000.000000 0 0 1
33.426156 -17.602643 16.670088 41.292285 -0.484711 1.155228 0.065642 -0.006685 25117.600000 0 0 1
33.380356 -16.343343 17.388388 41.033025 -0.455301 1.133198 0.043896 -0.000740 287954.000000 0 0 1
34.723856 -15.737043 17.907888 42.119986 -0.425516 1.131654 0.055718 -0.015148 147962.000000 0 0 1
35.330056 -16.410343 18.975588 43.331111 -0.434836 1.117512 0.044246 0.005124 -428046.000000 0 0 1
-36.149216 -15.544143 19.476488 43.905806 0.406098 1.111188 0.062035 -0.008473 -513247.000000 0 0 1
-35.850816 -15.856743 20.955188 44.450391 0.416430 1.079886 0.043964 0.002593 -117819.000000 0 0 1
-34.999316 -16.962843 21.183588 44.288087 0.451302 1.072063 0.060368 0.009574 193659.000000 0 0 1
-34.637816 -16.988743 22.527488 44.675311 0.455993 1.042284 0.049150 0.006394 -298425.000000 0 0 1
-33.728116 -18.125343 22.963488 44.647908 0.493115 1.030577 0.054742 0.010557 -806537.000000 0 0 1
-34.335116 -19.415943 23.015388 45.668229 0.514653 1.042608 0.044083 0.009249 356581.000000 0 0 1
-33.466416 -20.502143 23.317688 45.651435 0.549646 1.034708 0.042577 0.008638 75635.700000 0 0 1
-32.234016 -20.866143 22.438488 44.473740 0.574498 1.041955 0.042057 0.019006 2015.280000 0 0 1
-31.209916 -19.921543 22.533488 43.343798 0.568112 1.024088 0.047653 0.019945 -734060.000000 0 0 1
-29.970616 -20.542243 22.349788 42.658348 0.600869 1.019343 0.057729 0.015357 483000.000000 0 0 1
-28.742316 -19.540643 22.326388 41.308899 0.597078 0.999796 0.078308 0.020889 735352.000000 0 0 1
-28.339916 -19.036643 23.557588 41.478966 0.591497 0.966795 0.054341 0.014635 -331797.000000 0 0 1
-27.068416 -18.472543 23.458588 40.301853 0.598843 0.949522 0.081725 0.011144 -587610.000000 0 0 1
-26.678016 -17.859043 24.781388 40.555877 0.589913 0.913419 0.075533 -0.003062 -245187.000000 0 0 1
-25.376316 -17.301143 24.706988 39.417284 0.598395 0.893349 0.074750 -0.004473 151543.000000 0 0 1
-25.126216 -16.659943 25.929288 39.764412 0.585495 0.860481 0.071639 -0.017078 196144.000000 0 0 1
-24.106416 -17.279343 26.918788 40.053916 0.621909 0.833804 0.059555 -0.013088 -17026.300000 0 0 1
-24.503616 -18.609643 27.343388 41.163174 0.649531 0.844282 0.067452 -0.011498 390650.000000 0 0 1
-23.575516 -19.124143 28.309888 41.508886 0.681525 0.820275 0.065905 -0.019881 284271.000000 0 0 1
-24.037916 -20.521843 28.901288 42.828168 0.706654 0.830076 0.055613 -0.010474 -1098340.000000 0 0 1
-25.103516 -20.302243 29.708788 43.874591 0.680048 0.826941 0.041190 -0.012501 -1053520.000000 0 0 1
-25.560116 -21.464743 30.309988 45.086031 0.698528 0.833525 0.028009 -0.008061 -481887.000000 0 0 1
-26.817816 -21.188143 31.165488 46.253869 0.668661 0.831468 0.021823 -0.005369 -611007.000000 0 0 1
-26.475016 -20.499343 32.361588 46.566318 0.658866 0.802436 0.029528 -0.012363 369363.000000 0 0 1
-27.499916 -20.481743 33.336788 47.823516 0.640160 0.799480 0.029232 -0.015172 293213.000000 0 0 1
-28.733516 -19.581343 33.036788 47.963250 0.598189 0.810972 0.026043 -0.017960 -328035.000000 0 0 1
-29.573116 -20.075343 32.056588 48.012639 0.596381 0.839722 0.036424 -0.019368 -1050390.000000 0 0 1
-30.850216 -19.564643 32.200488 48.696844 0.565175 0.848321 0.049080 -0.028960 -1048180.000000 0 0 1
-31.861716 -20.082643 31.190788 48.901399 0.562406 0.879119 0.044268 -0.002517 -574176.000000 0 0 1
-31.921116 -19.625043 29.818588 47.887871 0.551230 0.898639 0.038872 -0.020387 -467726.000000 0 0 1
-33.035916 -20.166743 29.213488 48.492239 0.548067 0.924246 0.033544 -0.020137 -719059.000000 0 0 1
-33.559816 -19.357443 28.034588 47.821648 0.523189 0.944396 0.025721 -0.012502 -431010.000000 0 0 1
-34.722116 -19.851743 27.433388 48.500597 0.519375 0.969599 0.007568 -0.005289 -164001.000000 0 0 1
-35.226716 -18.955643 26.489688 47.978553 0.493664 0.985897 0.017016 -0.000247 4970.060000 0 0 1
36.003456 -19.550043 25.713188 48.369630 -0.497457 1.010310 0.002373 0.001324 -279568.000000 0 0 1
34.850356 -19.585443 26.494988 47.959580 -0.512000 0.985503 0.002515 -0.004128 -209843.000000 0 0 1
33.892256 -20.456443 25.867288 47.289192 -0.543042 0.992017 0.027292 0.002827 460179.000000 0 0 1
32.642256 -20.745043 26.735988 47.017941 -0.566134 0.965952 0.024127 -0.008406 24025.500000 0 0 1
31.639056 -19.765743 26.826588 45.949759 -0.558402 0.947365 0.019278 -0.024204 258683.000000 0 0 1
30.714856 -20.111743 27.858588 46.086718 -0.579734 0.921681 0.017269 -0.011603 165444.000000 0 0 1
-30.250234 -6.104543 33.740396 45.724790 0.199127 0.740840 0.033095 -0.002261 92615.800000 0 0 1
-31.084074 -5.844843 32.616031 45.433328 0.185863 0.770033 0.029694 0.003859 289563.000000 0 0 1
-30.615704 -4.807943 31.799850 44.403470 0.155770 0.772516 0.036395 0.007032 -151009.000000 0 0 1
-31.308994 -4.769243 30.430840 43.920779 0.151166 0.805352 0.035754 0.003109 199697.000000 0 0 1
-30.877714 -5.785443 29.498610 43.093765 0.185219 0.816849 0.029389 -0.001630 524555.000000 0 0 1
-29.497864 -5.805343 29.115240 41.851203 0.194322 0.801424 0.039419 -0.005043 310679.000000 0 0 1
-29.064774 -6.864643 28.074080 40.988271 0.231934 0.816289 0.039717 -0.009855 -450738.000000 0 0 1
-29.543914 -6.494343 26.782050 40.401702 0.216379 0.846119 0.037447 -0.012937 105617.000000 0 0 1
-29.207134 -7.403943 25.719260 39.615090 0.248268 0.864226 0.056407 -0.012078 195749.000000 0 0 1
-29.944864 -6.961543 24.434590 39.270945 0.228421 0.899240 0.025416 -0.001757 460675.000000 0 0 1
-29.419944 -5.726343 23.951820 38.366832 0.192238 0.896581 0.030806 -0.001049 511984.000000 0 0 1
-30.325234 -5.384243 22.902580 38.381481 0.175719 0.931402 0.041230 -0.001380 514924.000000 0 0 1
-29.945474 -4.019443 22.255680 37.526026 0.133428 0.935926 0.050123 -0.008075 -532334.000000 0 0 1
-28.698734 -3.998243 21.663380 36.178797 0.138427 0.928811 0.062291 -0.007792 -819305.000000 0 0 1
-28.313724 -2.679843 21.287280 35.524595 0.094367 0.928262 0.073662 -0.008092 827954.000000 0 0 1
-26.838484 -2.661843 20.742480 34.024111 0.098857 0.915189 0.071888 -0.005594 358586.000000 0 0 1
-26.646304 -3.416243 19.578180 33.241561 0.127511 0.941016 0.087017 -0.007762 -848542.000000 0 0 1
-25.399534 -3.097043 19.072780 31.913930 0.121334 0.930252 0.070290 -0.011040 -882550.000000 0 0 1
-25.105324 -3.738643 17.698180 30.943179 0.147832 0.961906 0.075851 -0.017894 -351068.000000 0 0 1
-26.082724 -3.324943 16.799680 31.202452 0.126793 1.002248 0.086106 -0.015081 -40982.600000 0 0 1
-25.730724 -3.743843 15.462680 30.251959 0.144487 1.034297 0.092054 -0.022716 -251994.000000 0 0 1
-26.919924 -3.811043 14.507680 30.816865 0.140635 1.080632 0.101303 -0.024869 42795.000000 0 0 1
-27.431614 -2.552743 14.047680 30.924865 0.092791 1.099264 0.110045 -0.030021 126485.000000 0 0 1
-28.698584 -2.603943 13.431980 31.793196 0.090486 1.134617 0.106060 -0.031300 -188538.000000 0 0 1
-29.108284 -1.357043 12.670480 31.775381 0.046587 1.160641 0.109244 -0.023739 -583666.000000 0 0 1
-28.363684 -1.053043 11.531280 30.636219 0.037109 1.184896 0.117729 -0.024975 -60000.700000 0 0 1
-28.938634 -0.107543 10.623480 30.827170 0.003716 1.218969 0.116456 -0.021042 -23221.500000 0 0 1
-30.144394 -0.573243 9.758580 31.689793 0.019014 1.257768 0.113155 -0.021705 111659.000000 0 0 1
-29.911654 -1.476443 8.695680 31.184961 0.049320 1.288208 0.103579 -0.026179 -168667.000000 0 0 1
-31.096504 -1.779343 7.992880 32.156566 0.057158 1.319602 0.102211 -0.019735 -84470.700000 0 0 1
-30.868504 -2.458143 6.602480 31.662276 0.079465 1.360726 0.097514 -0.014967 -178588.000000 0 0 1
-30.620284 -1.524143 5.465680 31.141587 0.049735 1.394372 0.112432 -0.022926 361994.000000 0 0 1
-31.658354 -0.621143 5.109880 32.074103 0.019618 1.410800 0.110986 -0.023672 -170227.000000 0 0 1
-31.493294 0.102257 3.708380 31.711041 -0.003247 1.453585 0.112026 -0.033290 -59659.800000 0 0 1
-31.540824 -0.861743 2.683280 31.666483 0.027315 1.485959 0.116506 -0.034786 324062.000000 0 0 1
-30.984414 -0.334343 1.508780 31.022929 0.010790 1.522143 0.105205 -0.036488 -300921.000000 0 0 1
-31.669494 -0.936043 0.275880 31.684525 0.029548 1.562089 0.104703 -0.028941 -615217.000000 0 0 1
-33.017214 -0.594443 0.286280 33.023806 0.018002 1.562127 0.104722 -0.028495 -214855.000000 0 0 1
-33.699404 -0.907643 -0.965220 33.725440 0.026927 1.599420 0.108451 -0.026077 -51661.700000 0 0 1
-35.197849 -0.596643 -0.951520 35.215763 0.016950 1.597819 0.120910 -0.030504 -595303.000000 0 0 1
-35.963872 -1.557843 -0.293220 35.998791 0.043290 1.578942 0.101766 -0.022916 343865.000000 0 0 1
35.113058 -1.162743 -0.209920 35.132932 -0.033102 1.576771 0.092279 -0.019462 244722.000000 0 0 1
34.135448 -2.267143 0.232880 34.211446 -0.066319 1.563989 0.090084 -0.021876 -325911.000000 0 0 1
34.306738 -2.627643 1.572680 34.443144 -0.076443 1.525120 0.085151 -0.022847 256752.000000 0 0 1
33.330988 -3.602843 1.901380 33.579019 -0.107675 1.514142 0.084161 -0.017921 -40829.500000 0 0 1
33.482628 -4.133143 3.318380 33.899571 -0.122820 1.472751 0.085729 -0.017958 140735.000000 0 0 1
33.100138 -3.121043 4.282380 33.521618 -0.094013 1.442696 0.082104 -0.020481 274224.000000 0 0 1
33.174608 -3.658943 5.580080 33.839028 -0.109850 1.405139 0.076672 -0.020273 -94793.300000 0 0 1
32.751128 -2.610943 6.626380 33.516598 -0.079552 1.371781 0.075224 -0.018295 1018710.000000 0 0 1
31.315678 -2.477843 6.676180 32.115149 -0.078960 1.361387 0.070774 -0.018234 902399.000000 0 0 1
30.927658 -1.318743 7.359280 31.818519 -0.042614 1.337394 0.078147 -0.022152 511253.000000 0 0 1
29.418008 -1.375643 7.760980 30.455614 -0.046728 1.313125 0.070423 -0.017887 -27325.000000 0 0 1
28.462268 -0.994443 6.796380 29.279352 -0.034925 1.336538 0.077797 -0.020563 411380.000000 0 0 1
27.141928 -0.936543 7.315380 28.126077 -0.034492 1.307678 0.083748 -0.012126 288560.000000 0 0 1
26.355828 -2.264343 7.377380 27.462387 -0.085704 1.298820 0.101768 -0.027581 -775009.000000 0 0 1
26.981828 -3.261143 8.167080 28.378783 -0.120281 1.278880 0.089617 -0.035357 409281.000000 0 0 1
26.576328 -4.566043 7.752180 28.057909 -0.170147 1.290862 0.108148 -0.041131 -109227.000000 0 0 1
26.925328 -5.556643 8.899580 28.897268 -0.203515 1.257735 0.096570 -0.039753 -814288.000000 0 0 1
26.081028 -5.368043 9.992480 28.440914 -0.202987 1.211793 0.095309 -0.040295 313673.000000 0 0 1
26.388628 -6.260643 11.073380 29.294626 -0.232941 1.183161 0.089885 -0.032310 -92659.500000 0 0 1
25.377628 -5.973343 12.226580 28.795731 -0.231170 1.132280 0.092733 -0.028855 1221140.000000 0 0 1
24.119728 -6.626143 11.939080 27.716578 -0.268105 1.125466 0.109544 -0.031086 1169140.000000 0 0 1
23.111928 -6.315543 12.941180 27.230892 -0.266747 1.075561 0.120463 -0.037484 1493680.000000 0 0 1
21.973928 -7.393143 13.073380 26.616261 -0.324554 1.057352 0.110200 -0.038583 691132.000000 0 0 1
22.453628 -8.576343 13.762780 27.697170 -0.364857 1.050771 0.098631 -0.030530 95653.700000 0 0 1
21.508128 -9.622543 13.765680 27.288952 -0.420682 1.042061 0.137261 -0.047753 -288276.000000 0 0 1
21.833928 -10.876043 14.690180 28.474728 -0.462147 1.028736 0.116887 -0.043925 -158965.000000 0 0 1
21.640228 -10.722243 16.091780 29.020878 -0.460023 0.983047 0.096941 -0.038789 156129.000000 0 0 1
21.867228 -11.958543 16.741680 30.024428 -0.500437 0.979302 0.086155 -0.035628 -179852.000000 0 0 1
21.833328 -11.981943 18.310380 30.911668 -0.501915 0.936830 0.092761 -0.029502 -351242.000000 0 0 1
20.522328 -12.003143 18.796680 30.307699 -0.529229 0.901805 0.102132 -0.024687 -510733.000000 0 0 1
20.358628 -12.308643 20.178580 31.195377 -0.543788 0.867356 0.104520 -0.015769 331323.000000 0 0 1
20.930328 -11.329143 21.269080 31.918677 -0.496123 0.841490 0.087035 -0.015493 533887.000000 0 0 1
20.020028 -10.233943 21.500480 31.109577 -0.472556 0.807757 0.077677 -0.019293 432121.000000 0 0 1
20.102728 -9.136243 20.576580 30.182549 -0.426571 0.820661 0.079894 -0.016078 -896818.000000 0 0 1
21.136128 -8.026043 20.946280 30.820447 -0.362912 0.823548 0.072199 -0.000934 1522180.000000 0 0 1
22.523328 -8.419843 20.813080 31.802176 -0.357742 0.857335 0.075933 -0.006714 803958.000000 0 0 1
22.971728 -8.584043 19.517880 31.342204 -0.357612 0.898563 0.076144 -0.012221 -1153900.000000 0 0 1
24.431028 -9.075043 19.588180 32.602582 -0.355660 0.926274 0.079215 -0.013382 -164986.000000 0 0 1
24.582728 -10.397443 20.061080 33.389584 -0.400139 0.926272 0.054395 -0.017609 613334.000000 0 0 1
25.771128 -11.020543 19.528380 34.160812 -0.404097 0.962268 0.047224 -0.022717 788272.000000 0 0 1
25.862028 -12.479043 19.978880 34.981805 -0.449569 0.962924 0.015728 -0.009739 -66157.000000 0 0 1
24.963328 -13.248643 19.228280 34.182175 -0.487924 0.973361 0.053489 -0.022810 41956.500000 0 0 1
24.795528 -14.564143 19.717680 34.867168 -0.531081 0.969747 0.040779 -0.015517 242525.000000 0 0 1
23.682128 -15.262143 18.859580 33.903687 -0.572470 0.980907 0.058585 -0.016718 -159190.000000 0 0 1
24.021528 -15.379343 17.517980 33.472939 -0.569478 1.020022 0.048487 -0.017215 102550.000000 0 0 1
23.037728 -15.890043 16.616080 32.547266 -0.603807 1.035005 0.045399 -0.019850 -131624.000000 0 0 1
22.739528 -17.421943 16.666380 33.141794 -0.653759 1.043868 0.036463 -0.021939 103347.000000 0 0 1
23.860228 -18.160443 16.193880 34.078644 -0.650579 1.075615 0.030865 -0.012159 367962.000000 0 0 1
23.775528 -19.545543 16.491980 34.918325 -0.688064 1.078896 0.022736 -0.007581 91622.300000 0 0 1
25.101328 -20.244543 16.094780 36.041090 -0.678700 1.107871 0.013171 0.007362 187895.000000 0 0 1
25.305128 -20.373343 14.703480 35.659711 -0.677847 1.145789 0.015019 -0.007562 270255.000000 0 0 1
26.335028 -21.325043 14.448680 36.838235 -0.680664 1.167753 0.013508 -0.015357 64999.500000 0 0 1
26.602828 -21.428443 12.941280 36.528967 -0.678083 1.208658 0.015667 -0.033122 -426273.000000 0 0 1
25.549128 -22.027143 12.222380 35.879515 -0.711505 1.223187 0.019343 -0.019255 61711.100000 0 0 1
25.553528 -21.568043 10.876180 35.163257 -0.701020 1.256334 0.047369 -0.016836 537415.000000 0 0 1
24.179528 -21.685043 10.123080 34.020104 -0.731064 1.268659 0.010763 -0.015056 550904.000000 0 0 1
23.745828 -22.990043 9.858680 34.490579 -0.769228 1.280917 0.009438 -0.015474 -828006.000000 0 0 1
22.373328 -23.011643 9.659780 33.517352 -0.799462 1.278447 -0.011117 -0.000387 -584072.000000 0 0 1
21.962228 -24.018543 8.535480 33.646461 -0.830090 1.314312 -0.004201 0.002622 -636130.000000 0 0 1
22.271328 -25.353353 8.857480 34.889247 -0.850023 1.314113 -0.004730 0.002803 -72996.800000 0 0 1
21.944228 -26.318203 7.903680 35.166250 -0.875780 1.344108 0.005259 0.003185 983076.000000 0 0 1
20.392728 -26.606103 7.748180 34.406139 -0.916839 1.343650 0.002033 0.014508 745573.000000 0 0 1
19.688528 -25.502763 7.266480 33.027728 -0.913354 1.348970 -0.001842 0.016887 -957670.000000 0 0 1
18.406928 -25.629443 7.850080 32.516260 -0.947963 1.326967 0.011454 0.012611 -308493.000000 0 0 1
17.694528 -24.263843 7.841480 31.037385 -0.940705 1.315382 0.013612 0.004066 -270302.000000 0 0 1
17.255028 -23.826643 6.532680 30.135044 -0.944019 1.352281 0.027896 0.006546 202131.000000 0 0 1
16.601828 -22.577443 6.572080 28.784612 -0.936752 1.340445 0.040287 -0.002979 -125986.000000 0 0 1
16.188828 -22.007443 5.217480 27.814166 -0.936571 1.382095 0.052296 0.002178 -402148.000000 0 0 1
15.514128 -20.792043 5.387380 26.495681 -0.929759 1.366038 0.080736 -0.003598 15820.400000 0 0 1
15.077628 -20.262143 4.128380 25.591656 -0.931064 1.408771 0.072130 0.000166 35846.800000 0 0 1
14.358028 -18.942643 4.314680 24.157673 -0.922211 1.391228 0.087279 0.000573 58510.700000 0 1 0
15.240228 -17.872543 4.633980 23.940889 -0.864727 1.376008 0.063763 -0.000169 267105.000000 0 1 0
14.703828 -16.607243 4.259080 22.586343 -0.846114 1.381092 0.055735 0.002765 132365.000000 0 1 0
15.761328 -15.484043 4.355880 22.519964 -0.776524 1.376146 0.053013 0.003073 -796070.000000 0 1 0
16.175028 -15.166143 5.708780 22.896149 -0.753219 1.318804 0.062032 -0.006298 395815.000000 0 1 0
17.155828 -14.115043 5.691380 22.933572 -0.688463 1.320008 0.056492 -0.012497 1145060.000000 0 1 0
18.581328 -14.539643 5.172680 24.154164 -0.663971 1.354972 0.062113 -0.013605 -244830.000000 0 1 0
19.541328 -13.584843 5.574880 24.443624 -0.607487 1.340700 0.062845 -0.014844 -304116.000000 0 1 0
20.823628 -13.986643 5.144880 25.607020 -0.591460 1.368503 0.057449 -0.006174 -156217.000000 0 0 1
21.839728 -12.844943 5.245580 25.874358 -0.531658 1.366648 0.059370 -0.006502 -356106.000000 0 0 1
22.087828 -12.281743 6.491180 26.093080 -0.507470 1.319386 0.085012 -0.017535 -228806.000000 0 0 1
23.142428 -11.381243 6.518480 26.600663 -0.457059 1.323226 0.092831 -0.022798 -425782.000000 0 0 1
23.380428 -10.668443 7.829680 26.865666 -0.428079 1.275066 0.106724 -0.026587 -147491.000000 0 0 1
23.696828 -11.536343 8.883280 27.812579 -0.453057 1.245702 0.097405 -0.016773 194944.000000 0 0 1
23.521928 -10.841743 10.173480 27.826682 -0.431898 1.196517 0.122792 -0.029932 49992.500000 0 0 1
24.029628 -11.696243 11.363580 29.040594 -0.452986 1.168753 0.090130 -0.017184 174940.000000 0 0 1
23.220928 -12.861643 11.572580 28.957866 -0.505818 1.159678 0.094404 -0.019384 440223.000000 0 0 1
23.565028 -13.577843 12.754980 30.039273 -0.522725 1.132265 0.086306 -0.016042 -25861.400000 0 0 1
22.612028 -14.792243 12.991180 29.981412 -0.579305 1.122637 0.063359 -0.015664 993000.000000 0 0 1
21.339028 -14.304143 13.478580 29.010942 -0.590533 1.087610 0.071299 -0.027161 1069840.000000 0 0 1
20.421928 -15.434043 13.529880 28.953800 -0.647176 1.084571 0.051693 -0.024178 19068.600000 0 0 1
19.081928 -15.120543 14.171280 28.170481 -0.670090 1.043667 0.052137 -0.031052 -808045.000000 0 0 1
19.096528 -14.694843 15.497280 28.649285 -0.655867 0.999253 0.058973 -0.032342 186555.000000 0 0 1
18.615628 -13.334943 15.682380 27.754268 -0.621602 0.970310 0.084662 -0.041794 2237130.000000 0 0 1
17.029228 -12.997443 15.733580 26.579573 -0.651923 0.937329 0.073051 -0.039605 1767060.000000 0 0 1
16.395328 -13.264543 14.467880 25.574880 -0.680231 0.969506 0.070506 -0.041654 1578270.000000 0 0 1
14.943928 -13.129843 14.584080 24.665952 -0.720869 0.938172 0.075433 -0.038964 1489510.000000 0 1 0
14.402028 -11.750943 14.380780 23.501275 -0.684375 0.912317 0.056790 -0.028154 -722172.000000 0 1 0
14.758128 -10.753843 15.312080 23.830806 -0.629711 0.872997 0.048288 -0.017255 -19722.200000 0 1 0
14.614628 -9.457043 14.777180 22.833924 -0.574330 0.866944 0.038811 -0.015681 -515177.000000 0 1 0
14.937828 -8.385843 15.864580 23.348362 -0.511541 0.823752 0.034739 -0.016413 1210570.000000 0 1 0
16.366628 -8.346443 16.089380 24.421257 -0.471590 0.851538 0.047129 -0.025775 969047.000000 0 1 0
16.901628 -9.094343 17.134280 25.728499 -0.493642 0.842010 0.065804 -0.022898 -205079.000000 0 0 1
18.445928 -9.017943 17.046480 26.686290 -0.454716 0.877894 0.087701 -0.031423 114877.000000 0 0 1
18.927228 -7.691443 17.284980 26.761331 -0.385985 0.868603 0.073948 -0.029048 923008.000000 0 0 1
20.294328 -7.633643 16.817280 27.439993 -0.359776 0.911103 0.070935 -0.022346 1000830.000000 0 0 1
20.994628 -6.271343 17.131880 27.813764 -0.290275 0.907205 0.059000 -0.012339 -59237.700000 0 0 1
21.219728 -5.994443 18.511380 28.790301 -0.275320 0.872423 0.076344 -0.014768 132501.000000 0 0 1
21.649128 -4.673243 18.699180 28.985916 -0.212601 0.869626 0.076787 -0.010036 -57574.400000 0 0 1
-5.417444 -33.299463 -6.366912 34.332791 1.409521 1.757323 0.024535 -0.016501 67734.400000 0 0 1
-6.056644 -32.026063 -6.410512 33.218163 1.383888 1.764997 0.017576 -0.017524 185681.000000 0 0 1
-5.612644 -31.249963 -5.303812 32.189942 1.393086 1.736317 0.015163 -0.011724 -711096.000000 0 0 1
-6.335344 -29.919063 -5.211512 31.023326 1.362129 1.739583 0.022854 -0.005372 1255390.000000 0 0 1
-7.744944 -29.919263 -4.909912 31.293030 1.317495 1.728348 0.022151 -0.003701 1196450.000000 0 0 1
-8.644944 -30.422763 -5.862212 32.165900 1.293934 1.754070 0.019663 -0.013555 -1725100.000000 0 0 1
-10.086844 -30.095663 -5.665312 32.242660 1.247403 1.747422 0.031251 -0.011535 -1039670.000000 0 0 1
-10.978744 -30.566163 -6.653912 33.152642 1.225967 1.772874 0.029026 -0.018722 -392796.000000 0 0 1
-12.294144 -30.328863 -6.239612 33.315442 1.185677 1.759198 0.036450 -0.018405 -541356.000000 0 0 1
-13.415144 -30.794863 -7.151612 34.342907 1.159957 1.780573 0.050550 -0.027444 -238479.000000 0 0 1
-13.471844 -30.083163 -8.404712 34.016562 1.149757 1.820459 0.062802 -0.032011 -98127.600000 0 0 1
-14.492344 -30.618863 -9.209912 35.105061 1.128724 1.836256 0.076176 -0.031147 39691.600000 0 0 1
-14.676344 -29.777363 -10.498412 34.818143 1.112870 1.877084 0.087767 -0.029307 -336838.000000 0 0 1
-15.118844 -28.447763 -10.374612 33.845048 1.082299 1.882344 0.092413 -0.028515 439114.000000 0 0 1
-14.105444 -27.531363 -9.927812 32.488474 1.097325 1.881343 0.082898 -0.020287 46346.900000 0 0 1
-14.587044 -26.095263 -9.578012 31.392402 1.061076 1.880846 0.077165 -0.007471 -248866.000000 0 0 1
-14.973344 -25.367063 -10.684912 31.334586 1.037564 1.918771 0.089124 -0.012901 176638.000000 0 0 1
-15.499544 -24.091163 -10.306312 30.444048 0.999096 1.916154 0.063676 0.003816 -332910.000000 0 0 1
-15.992644 -23.367563 -11.515412 30.568160 0.970620 1.957041 0.067615 0.003167 -648982.000000 0 0 1
-17.202144 -23.936863 -11.919912 31.795778 0.947665 1.955074 0.065459 -0.007558 -394572.000000 0 0 1
-17.719944 -23.370463 -13.120512 32.129780 0.922055 1.991453 0.060976 -0.011807 983298.000000 0 0 1
-19.229244 -23.792763 -13.364912 33.383832 0.891077 1.982685 0.047209 -0.001490 983919.000000 0 0 1
-19.457544 -25.179763 -13.657312 34.628581 0.912896 1.976205 0.080047 -0.010804 30342.400000 0 0 1
-19.420444 -26.015763 -12.511212 34.792298 0.929547 1.938632 0.097239 -0.017559 -1064620.000000 0 0 1
-19.350244 -27.497263 -12.776612 35.969059 0.957581 1.933936 0.110771 -0.029666 585218.000000 0 0 1
-18.315344 -28.061163 -13.595612 36.162430 0.992530 1.956228 0.111477 -0.030137 1030560.000000 0 0 1
-16.948144 -27.743463 -13.329912 35.137243 1.022410 1.959908 0.108527 -0.032937 218447.000000 0 0 1
-15.957444 -28.764263 -13.911612 35.714924 1.064301 1.970905 0.101197 -0.028882 -94811.700000 0 0 1
-16.174744 -28.941963 -15.298912 36.514604 1.061170 2.003119 0.110887 -0.031447 188933.000000 0 0 1
-15.359344 -30.039163 -15.708912 37.216000 1.098141 2.006558 0.107879 -0.029049 300464.000000 0 0 1
-16.000344 -31.465363 -15.511812 38.557702 1.100367 1.984825 0.104932 -0.033490 -10978.100000 0 0 1
-16.258144 -31.796963 -14.138912 38.409412 1.098141 1.947772 0.097998 -0.031851 277506.000000 0 0 1
-16.727544 -33.154963 -14.064712 39.709929 1.103534 1.932840 0.077840 -0.026472 -632945.000000 0 0 1
-17.330644 -33.605863 -12.720412 39.893786 1.094665 1.895320 0.100228 -0.030380 179502.000000 0 0 1
-18.642744 -33.262363 -12.308512 40.067894 1.059946 1.883037 0.120974 -0.033739 327453.000000 0 0 1
-19.039944 -31.878063 -12.335212 39.126562 1.032384 1.891532 0.120816 -0.037617 -503911.000000 0 0 1
-18.450944 -30.851263 -11.333512 37.691992 1.031804 1.876210 0.129144 -0.039001 -349727.000000 0 0 1
-18.690744 -31.161663 -9.983412 37.683706 1.030524 1.838924 0.126406 -0.045966 48371.400000 0 0 1
-18.410144 -30.120863 -9.127612 36.462489 1.022176 1.823816 0.125576 -0.038024 -172179.000000 0 0 1
-18.639444 -30.556063 -7.611912 36.592937 1.023050 1.780342 0.135011 -0.039307 -607594.000000 0 0 1
-17.744244 -31.490763 -7.166112 36.849417 1.057667 1.766514 0.127549 -0.041548 -489708.000000 0 0 1
-17.946444 -31.707763 -5.783312 36.890430 1.055756 1.728216 0.129443 -0.046308 -5730.570000 0 0 1
-16.874044 -32.619863 -5.158612 37.086387 1.093410 1.710346 0.112472 -0.040605 46925.400000 0 0 1
-15.644644 -32.061463 -4.770112 35.992309 1.116829 1.703719 0.097248 -0.037265 -16063.700000 0 0 1
-15.472244 -31.957363 -3.356412 35.664112 1.119907 1.665048 0.080017 -0.030608 402019.000000 0 0 1
-14.113744 -31.379763 -2.843312 34.524944 1.148132 1.653245 0.073673 -0.021688 1388940.000000 0 0 1
-12.947144 -32.203663 -3.021512 34.840120 1.188533 1.657630 0.027775 -0.018814 250693.000000 0 0 1
-11.788544 -31.612163 -2.517512 33.832477 1.213858 1.645276 0.027690 -0.011335 -428318.000000 0 0 1
-10.482144 -32.363663 -2.713212 34.126874 1.257572 1.650384 0.035923 -0.020726 -1019130.000000 0 0 1
-10.442144 -33.571463 -2.020912 35.215985 1.269240 1.628214 0.047102 -0.019085 282136.000000 0 0 1
-9.156844 -34.193263 -1.940612 35.451277 1.309139 1.625564 0.034272 -0.024505 753976.000000 0 0 1
-8.141844 -33.448963 -1.013412 34.440525 1.332029 1.600226 0.043042 -0.019399 -751154.000000 0 0 1
-8.595444 -33.280963 0.338288 34.374680 1.318050 1.560955 0.054782 -0.021317 162096.000000 0 0 1
-7.590544 -32.943863 1.288288 33.831556 1.344340 1.532708 0.066918 -0.026035 213896.000000 0 0 1
-6.723744 -34.089263 1.847988 34.795138 1.376057 1.517661 0.071596 -0.032498 94882.300000 0 0 1
-7.409544 33.680757 2.840788 34.602959 -1.354252 1.488607 0.088740 -0.037515 640402.000000 0 0 1
-6.562144 32.794257 3.600188 33.637573 -1.373304 1.463562 0.080410 -0.037998 273609.000000 0 0 1
-5.779944 33.433557 4.800088 34.267350 -1.399610 1.430257 0.073662 -0.034571 -107287.000000 0 0 1
-4.692444 34.225857 4.453688 34.831934 -1.434543 1.442583 0.063013 -0.034678 -294383.000000 0 0 1
-4.015844 -33.794763 5.586788 34.488045 1.452521 1.408087 0.048585 -0.038570 447893.000000 0 0 1
-2.833044 -32.862963 5.235988 33.397845 1.484801 1.413371 0.056605 -0.032732 16527.600000 0 0 1
-3.235444 -31.550263 4.797988 32.076594 1.468605 1.420654 0.045678 -0.025829 173783.000000 0 0 1
-3.387744 -31.590863 3.376288 31.950881 1.463967 1.464927 0.044878 -0.030109 -344570.000000 0 0 1
-3.908244 -30.261463 2.910288 30.651269 1.442358 1.475705 0.040013 -0.023390 -191238.000000 0 0 1
-3.026644 -29.192663 3.152188 29.517934 1.467487 1.463803 0.032930 -0.005114 -231424.000000 0 0 1
-3.341344 -28.127963 2.338088 28.422061 1.452560 1.488440 0.031112 -0.002522 384941.000000 0 0 1
-2.483744 -26.832763 2.555788 27.068399 1.478495 1.476236 0.025008 -0.009322 193201.000000 0 0 1
-2.947844 -25.702163 1.806888 25.933681 1.456603 1.501066 0.035235 -0.009589 -166355.000000 0 0 1
-2.945744 -24.469463 2.403288 24.763034 1.450988 1.473592 0.030797 -0.008864 486102.000000 0 1 0
-4.122144 -24.130263 3.399888 24.714791 1.401601 1.432794 0.026487 -0.011216 389361.000000 0 1 0
-3.895444 -24.743563 4.682288 25.482194 1.414645 1.385999 0.020006 -0.009290 -75067.600000 0 0 1
-4.911044 -24.369063 5.570288 25.475433 1.371932 1.350362 0.010383 -0.003050 -411665.000000 0 0 1
-5.450644 -25.507863 6.455888 26.870785 1.360278 1.328166 0.023793 -0.014425 -324991.000000 0 0 1
-4.678044 -26.061163 7.501388 27.519796 1.393185 1.294721 0.004932 -0.011955 -349280.000000 0 0 1
-5.480644 -26.930663 8.258388 28.696673 1.370029 1.278886 0.015380 -0.008786 535577.000000 0 0 1
-4.667244 -27.585863 9.452488 29.531552 1.403194 1.244981 0.008075 -0.003391 331624.000000 0 0 1
-4.239544 -26.611463 10.472188 28.910386 1.412811 1.200138 0.002944 -0.001395 -2233.980000 0 0 1
-5.297344 -26.094763 11.267788 28.913000 1.370514 1.170476 0.019496 -0.003387 88730.700000 0 0 1
-4.872644 -25.067063 12.352888 28.367132 1.378806 1.120242 -0.002302 0.002181 190728.000000 0 0 1
-4.092644 -25.606863 13.415788 29.196653 1.412311 1.093367 -0.005500 -0.001140 -365971.000000 0 0 1
-3.379444 -24.598963 14.024788 28.517088 1.434269 1.056637 0.001184 -0.001186 -441950.000000 0 0 1
-2.287944 -25.118963 14.968888 29.330268 1.479963 1.035197 0.021070 -0.009346 -254301.000000 0 0 1
-2.794544 -25.749363 16.100488 30.496966 1.462691 1.014626 0.015415 -0.009343 249408.000000 0 0 1
-1.702744 -26.253263 16.878388 31.257210 1.506029 1.000378 0.022515 -0.009346 437440.000000 0 0 1
-2.032744 -26.907363 18.243988 32.572709 1.495394 0.976289 0.022715 -0.018053 -13603.500000 0 0 1
-2.621444 -25.961063 19.125588 32.351768 1.470161 0.938280 0.027646 -0.015362 42666.000000 0 0 1
-2.451244 -26.293763 20.471588 33.413418 1.477840 0.911355 0.032119 -0.024662 21107.000000 0 0 1
-2.945544 -25.174563 21.402688 33.173935 1.454321 0.869556 0.045928 -0.026339 -78325.600000 0 0 1
-2.612344 -25.344763 22.770288 34.171149 1.468087 0.841480 0.028374 -0.028474 -172422.000000 0 0 1
-2.685344 -24.182063 23.598688 33.895152 1.460203 0.800670 0.027547 -0.025003 71798.100000 0 0 1
-1.722544 -22.999063 23.335388 32.809517 1.496040 0.779538 0.016973 -0.023821 92149.700000 0 0 1
-2.181244 -22.306663 22.164988 31.521925 1.473322 0.790963 0.027707 -0.010408 -61480.700000 0 0 1
-1.256644 -21.377663 21.638788 30.443732 1.512081 0.780190 0.027697 -0.015810 -385368.000000 0 0 1
-1.946844 -20.105963 21.136788 29.237028 1.474268 0.762740 0.021432 -0.003516 -789698.000000 0 0 1
-2.582844 -19.377063 22.163288 29.552547 1.438284 0.722792 0.033140 -0.025117 -84679.600000 0 0 1
-3.910344 -19.674563 22.529188 30.165271 1.374602 0.727471 0.041391 -0.024855 -719208.000000 0 0 1
-4.996044 -19.328063 21.495388 29.335750 1.317846 0.748461 0.039847 -0.021264 -1213600.000000 0 0 1
-5.058644 -20.183763 20.374388 29.121983 1.325225 0.795928 0.053207 -0.016520 -229952.000000 0 0 1
-5.775644 -21.416063 20.596888 30.269418 1.307376 0.822417 0.040292 -0.010237 189375.000000 0 0 1
-5.767444 -22.221963 19.302188 29.994225 1.316861 0.871695 0.021578 -0.008631 115182.000000 0 0 1
-6.249144 -23.563463 19.379988 31.142777 1.311559 0.899125 0.023993 -0.012718 -174472.000000 0 0 1
-6.096144 -24.237463 18.166088 30.896996 1.324390 0.942266 0.027471 -0.011842 296883.000000 0 0 1
-6.745944 -25.680963 18.112788 32.141760 1.313917 0.972146 0.033795 -0.011928 331460.000000 0 0 1
-8.153744 -25.668463 18.177588 32.492742 1.263221 0.977092 0.053262 -0.017680 -565854.000000 0 0 1
-8.617844 -26.961563 17.823388 33.449459 1.261425 1.008837 0.060920 -0.021897 183460.000000 0 0 1
-10.168244 -26.946363 17.833088 33.875046 1.209966 1.016392 0.071296 -0.019597 -279389.000000 0 0 1
-10.644944 -26.079663 16.841088 32.818987 1.183266 1.031945 0.063224 -0.018535 622950.000000 0 0 1
-12.068744 -25.869763 16.844688 33.145780 1.134290 1.037703 0.036783 -0.019626 1257440.000000 0 0 1
-12.669344 -25.003663 18.005688 33.315166 1.101803 0.999806 0.042741 -0.022903 -509076.000000 0 0 1
-12.436944 -23.635763 17.773288 32.081407 1.086416 0.983628 0.034167 -0.019653 1539.360000 0 0 1
-12.847644 -22.832363 18.871988 32.288244 1.058259 0.946551 0.034619 -0.015752 -632282.000000 0 0 1
-11.734244 -22.372463 19.792988 32.093332 1.087745 0.906212 0.025307 -0.020989 -270487.000000 0 0 1
-11.095244 -23.301663 20.685488 33.075087 1.126405 0.895140 0.032085 -0.020101 359243.000000 0 0 1
-9.746444 -23.393663 20.214588 32.417376 1.176039 0.897492 0.055094 -0.022262 158824.000000 0 0 1
-9.028644 -24.490063 21.024588 33.515861 1.217591 0.892712 0.054658 -0.024594 -143900.000000 0 0 1
-8.718244 -24.062263 22.340288 33.971882 1.223188 0.853153 0.051222 -0.017718 -148206.000000 0 0 1
-7.942744 -24.954463 23.064688 34.896881 1.262646 0.848728 0.050668 -0.018533 -87819.300000 0 0 1
-7.991344 -24.536563 24.593688 35.647637 1.255939 0.809431 0.049566 -0.024138 -371642.000000 0 0 1
-6.990744 -25.090063 25.380088 36.366615 1.299062 0.798342 0.054092 -0.027446 -376494.000000 0 0 1
-6.742844 -24.245763 26.513688 36.555419 1.299547 0.759325 0.049882 -0.023600 879450.000000 0 0 1
-5.468044 -24.760063 27.313788 37.269334 1.353444 0.748257 0.051272 -0.021294 317284.000000 0 0 1
-4.251144 -24.470663 26.703488 36.468642 1.398789 0.749204 0.052156 -0.014915 -748211.000000 0 0 1
-3.229844 -24.533663 27.659088 37.112770 1.439900 0.729854 0.053999 -0.015278 -269858.000000 0 0 1
-1.884244 -23.957363 27.192788 36.289852 1.492308 0.723759 0.044760 -0.017459 -627023.000000 0 0 1
-1.898344 -22.501863 27.098788 35.274380 1.486632 0.694727 0.045289 -0.016254 325009.000000 0 0 1
-0.646344 -21.837463 26.853488 34.617949 1.541207 0.682957 0.045069 -0.020505 567434.000000 0 0 1
0.291156 -21.624763 28.056188 35.424072 -1.557333 0.656703 0.038518 -0.017454 -531822.000000 0 0 1
0.780256 -22.773863 28.572988 36.546865 -1.536549 0.673220 0.044433 -0.015945 -479068.000000 0 0 1
1.592356 -22.533263 29.660688 37.283240 -1.500247 0.650881 0.041042 -0.023983 -619650.000000 0 0 1
2.435956 -23.715863 30.114388 38.409015 -1.468441 0.669641 0.064030 -0.030728 -895276.000000 0 0 1
3.337156 -24.218863 29.150088 38.044942 -1.433867 0.697887 0.060126 -0.034127 190694.000000 0 0 1
3.998656 -25.382863 29.644388 39.230967 -1.414547 0.714170 0.061683 -0.026867 -582921.000000 0 0 1
5.176456 -25.119363 30.665588 39.976949 -1.367567 0.696516 0.058175 -0.027503 -687084.000000 0 0 1
6.385956 -24.663963 30.182788 39.498003 -1.317442 0.701058 0.059063 -0.027246 -561049.000000 0 0 1
7.024656 -25.575463 29.305388 39.525383 -1.302743 0.735594 0.047106 -0.023793 -910868.000000 0 0 1
8.206356 -24.897663 28.556388 38.764742 -1.252406 0.742680 0.048714 -0.018805 311429.000000 0 0 1
7.736756 -24.090563 27.508088 37.375227 -1.260048 0.743657 0.061133 -0.027069 874233.000000 0 0 1
8.838056 -23.810263 26.626088 36.796582 -1.215373 0.761789 0.058526 -0.020549 762444.000000 0 0 1
8.440956 -22.646163 25.629188 35.227173 -1.214015 0.756066 0.070488 -0.019997 156882.000000 0 0 1
7.723756 -23.088063 24.485488 34.529034 -1.247965 0.782536 0.068246 -0.009064 140167.000000 0 0 1
7.300456 -22.060663 23.629288 33.140803 -1.251214 0.777033 0.071405 -0.002456 195058.000000 0 0 1
6.635756 -22.602363 22.322188 32.452738 -1.285234 0.812292 0.063869 -0.003654 288418.000000 0 0 1
7.585756 -23.315963 21.509388 32.616432 -1.256251 0.850690 0.071611 -0.005429 702953.000000 0 0 1
7.076656 -23.607563 20.215888 31.875982 -1.279558 0.883817 0.084660 -0.006193 861859.000000 0 0 1
8.219956 -24.318863 19.398588 32.175768 -1.244845 0.923672 0.105147 -0.019022 774408.000000 0 0 1
9.336856 -23.609163 18.939988 31.674795 -1.194196 0.929853 0.101689 -0.020800 -472518.000000 0 0 1
10.001356 -24.243263 17.910888 31.757879 -1.179525 0.971596 0.102883 -0.022723 -53071.900000 0 0 1
11.379656 -23.684363 17.486488 31.562999 -1.122893 0.983613 0.093414 -0.024200 217477.000000 0 0 1
11.352956 -22.412763 16.888188 30.272636 -1.101931 0.978980 0.087872 -0.022073 121686.000000 0 0 1
12.613156 -22.147263 16.282688 30.244320 -1.053095 1.002293 0.085851 -0.022495 153084.000000 0 0 1
-12.084744 22.615557 11.831388 28.239798 -1.080044 1.138495 0.020781 -0.006792 382289.000000 0 0 1
-13.090644 21.849057 11.163188 27.809405 -1.031009 1.157732 0.009463 -0.011717 423206.000000 0 0 1
-12.527544 20.605057 10.792188 26.419293 -1.024527 1.149990 0.019596 -0.013831 70272.900000 0 0 1
-13.410244 19.743157 9.844888 25.817604 -0.974143 1.179568 0.029769 -0.019813 -234857.000000 0 0 1
-13.515944 20.315357 8.547788 25.854577 -0.983736 1.233846 0.034427 -0.026488 -135046.000000 0 0 1
-14.124644 19.433757 7.660188 25.216164 -0.942303 1.262138 0.030854 -0.036944 1182910.000000 0 0 1
-15.713544 19.468457 7.584688 26.143140 -0.891724 1.276442 0.040176 -0.030588 1130040.000000 0 0 1
-16.333444 18.824157 8.682088 26.391455 -0.856124 1.235580 0.033708 -0.028870 70552.400000 0 0 1
-17.734144 19.047157 8.629988 27.418438 -0.821081 1.250602 0.030915 -0.023271 97047.500000 0 0 1
-18.531144 17.897457 9.299688 27.389897 -0.768005 1.224379 0.044642 -0.024003 -191460.000000 0 0 1
-18.458444 16.644557 8.673488 26.324605 -0.733771 1.235041 0.048450 -0.034665 201389.000000 0 0 1
-19.094144 15.712257 9.514388 26.494998 -0.688539 1.203492 0.054719 -0.037656 -293524.000000 0 0 1
-18.175344 15.108157 10.628988 25.914762 -0.693504 1.148176 0.051341 -0.027450 -159084.000000 0 0 1
-17.242244 14.275857 9.991188 24.513647 -0.691558 1.150998 0.042438 -0.014548 44487.300000 0 1 0
-16.426744 13.472757 10.844488 23.852799 -0.686921 1.098826 0.024566 -0.016888 -192126.000000 0 1 0
-17.162644 12.438857 11.631888 24.178137 -0.627153 1.068897 0.027948 -0.012219 -569049.000000 0 1 0
-18.012344 11.637957 10.807688 24.014427 -0.573636 1.103975 0.019655 -0.008780 695653.000000 0 1 0
-18.996444 11.002257 11.676288 24.864638 -0.524966 1.081965 0.036920 -0.010318 601838.000000 0 1 0
-19.966344 10.076257 10.889888 24.875199 -0.467370 1.117667 0.046151 -0.009979 -163380.000000 0 1 0
-19.401944 9.031257 10.089888 23.660196 -0.435654 1.130232 0.038759 -0.011665 321750.000000 0 1 0
-19.047744 9.390357 8.712188 22.954250 -0.458024 1.181491 0.058722 -0.009600 -924427.000000 0 1 0
-20.194344 9.459557 7.735788 23.603753 -0.438071 1.236891 0.081164 -0.013302 -569705.000000 0 1 0
-20.546744 8.197057 7.207588 23.266064 -0.379598 1.255824 0.063242 -0.016357 726878.000000 0 1 0
-21.597844 8.313657 6.241588 23.969588 -0.367448 1.307364 0.087635 -0.009892 326536.000000 0 1 0
-21.974044 6.972357 5.580988 23.719608 -0.307252 1.333279 0.111804 -0.013188 -99821.900000 0 1 0
-22.549344 6.045857 6.485088 24.229768 -0.261956 1.299843 0.091736 -0.006006 410200.000000 0 1 0
-22.361644 4.728357 6.045888 23.642192 -0.208380 1.312199 0.100905 -0.026798 -1134770.000000 0 1 0
-23.596044 3.883757 6.148088 24.691210 -0.163131 1.319150 0.138298 -0.024524 -537050.000000 0 1 0
-24.588944 4.242057 5.164088 25.480954 -0.170837 1.366718 0.123377 -0.029889 283460.000000 0 0 1
-25.469164 3.158057 5.113188 26.168613 -0.123366 1.374137 0.128426 -0.033722 -536157.000000 0 0 1
-26.435944 3.129057 3.890388 26.903257 -0.117816 1.425681 0.118712 -0.033986 169956.000000 0 0 1
-25.833414 3.041157 2.625488 26.143969 -0.117182 1.470203 0.107321 -0.031757 409849.000000 0 0 1
-26.908184 2.944557 1.714288 27.123045 -0.108996 1.507550 0.109048 -0.027905 163148.000000 0 0 1
-26.590514 3.162557 0.211088 26.778756 -0.118379 1.562914 0.120710 -0.028987 -356684.000000 0 0 1
-26.000884 4.417557 0.007788 26.373487 -0.168293 1.570501 0.117322 -0.030758 304902.000000 0 0 1
-25.901404 4.837257 -1.373912 26.385022 -0.184630 1.622892 0.133161 -0.024396 27991.400000 0 0 1
-27.241604 5.378357 -1.938812 27.835062 -0.194925 1.640506 0.121029 -0.039257 -44411.800000 0 0 1
-28.202194 4.396857 -2.163812 28.624782 -0.154660 1.646461 0.112211 -0.040079 736276.000000 0 0 1
-29.506044 4.999557 -2.360812 30.019587 -0.167848 1.649520 0.107424 -0.026625 1293690.000000 0 0 1
-30.685584 3.979357 -2.507412 31.043960 -0.128962 1.651654 0.107023 -0.018461 81727.700000 0 0 1
-30.700984 3.295757 -3.764812 31.106048 -0.106941 1.692125 0.113488 -0.020635 -18071.900000 0 0 1
-31.748154 2.368957 -3.704712 32.051242 -0.074479 1.686642 0.120062 -0.020060 -232472.000000 0 0 1
-31.951894 1.598157 -5.028912 32.384681 -0.049976 1.726714 0.126188 -0.033889 65294.500000 0 0 1
-30.773754 0.929557 -5.482912 31.272197 -0.030197 1.747036 0.133102 -0.025077 354178.000000 0 0 1
-30.782804 0.275057 -6.738312 31.512879 -0.008935 1.786287 0.142160 -0.024926 -280533.000000 0 0 1
-31.166954 1.060057 -8.006512 32.196381 -0.033999 1.822111 0.138843 -0.029125 -136466.000000 0 0 1
-32.542504 1.204657 -8.273812 33.599430 -0.037001 1.819604 0.129340 -0.027745 46289.200000 0 0 1
-32.925674 1.955757 -9.404312 34.298193 -0.059329 1.848546 0.122735 -0.024747 -666382.000000 0 0 1
-34.441114 2.078157 -9.531812 35.796152 -0.060266 1.840328 0.122297 -0.021473 -556331.000000 0 0 1
-34.863565 2.760957 -8.377512 35.962115 -0.079028 1.805910 0.099722 -0.019813 -790803.000000 0 0 1
36.198778 2.771657 -8.329712 37.248057 0.076419 1.796332 0.095867 -0.015272 -998014.000000 0 0 1
35.501218 3.562257 -7.212512 36.401188 0.100007 1.770256 0.098791 -0.016628 -1161900.000000 0 0 1
34.228858 3.114757 -6.971112 35.070113 0.090748 1.770906 0.098289 -0.015479 -936194.000000 0 0 1
33.659218 3.872657 -5.896312 34.390507 0.114551 1.743099 0.091205 -0.027393 392184.000000 0 0 1
32.332798 3.298757 -5.319312 32.933064 0.101673 1.733026 0.088840 -0.018382 284637.000000 0 0 1
32.399788 2.097257 -4.549512 32.784796 0.064640 1.710015 0.107901 -0.024397 533469.000000 0 0 1
31.090098 1.520657 -4.588412 31.463632 0.048872 1.717150 0.102327 -0.028850 532126.000000 0 0 1
31.061888 0.106457 -3.893612 31.305151 0.003427 1.695495 0.112926 -0.030912 -299800.000000 0 0 1
31.899088 -0.848043 -4.474812 32.222585 -0.026579 1.710119 0.106758 -0.029449 43734.600000 0 0 1
31.955568 -2.015843 -3.670912 32.228831 -0.062999 1.684946 0.104350 -0.019316 -270699.000000 0 0 1
33.089718 -2.917743 -4.153412 33.476761 -0.087949 1.695185 0.092956 -0.012864 -247083.000000 0 0 1
33.181538 -4.131443 -3.481912 33.618552 -0.123873 1.674554 0.080033 -0.015240 250051.000000 0 0 1
34.535698 -4.525143 -3.309212 34.987745 -0.130286 1.665520 0.100035 -0.014832 342470.000000 0 0 1
34.688518 -5.890143 -2.553012 35.277542 -0.168197 1.643229 0.076705 -0.012672 -221457.000000 0 0 1
34.264228 -5.822643 -1.201012 34.776184 -0.168326 1.605339 0.086279 -0.022672 67676.400000 0 0 1
34.557598 -7.067843 -0.549112 35.277238 -0.201741 1.586363 0.089995 -0.022513 -93541.900000 0 0 1
33.806068 -7.255843 0.809188 34.585435 -0.211424 1.547397 0.077626 -0.016805 286976.000000 0 0 1
32.467238 -7.679143 0.553588 33.367608 -0.232252 1.554205 0.069664 -0.016597 -188900.000000 0 0 1
31.817368 -7.790343 1.756088 32.804241 -0.240122 1.517238 0.066858 -0.026521 -1016370.000000 0 0 1
31.698338 -9.271943 2.287888 33.105710 -0.284567 1.501633 0.080827 -0.028679 -226214.000000 0 0 1
30.673678 -10.161243 1.867188 32.366832 -0.319892 1.513076 0.081081 -0.036478 1044310.000000 0 0 1
29.336968 -9.698343 2.141388 30.972587 -0.319274 1.501603 0.077430 -0.042292 -602747.000000 0 0 1
28.236698 -10.741643 1.882988 30.269451 -0.363509 1.508549 0.084568 -0.039842 371569.000000 0 0 1
26.921228 -10.471143 2.410488 28.986339 -0.370949 1.487541 0.098737 -0.039946 733965.000000 0 0 1
26.227028 -9.438643 1.882988 27.937263 -0.345451 1.503345 0.101376 -0.039522 -1151380.000000 0 0 1
25.623528 -9.472243 0.442888 27.321873 -0.354089 1.554586 0.091859 -0.034189 -419065.000000 0 0 1
26.660328 -9.526543 -0.527712 28.316190 -0.343190 1.589434 0.084576 -0.036879 569909.000000 0 0 1
26.227128 -9.598543 -1.884712 27.991900 -0.350837 1.638178 0.079404 -0.027250 -133650.000000 0 0 1
25.394528 -10.836343 -2.394412 27.713564 -0.403326 1.657303 0.076087 -0.020473 309648.000000 0 0 1
24.124628 -10.986543 -1.773812 26.567805 -0.427342 1.637611 0.090590 -0.018438 288591.000000 0 0 1
23.652728 -12.296143 -1.951012 26.729256 -0.479410 1.643853 0.077092 -0.011192 -598967.000000 0 0 1
22.199328 -12.510643 -1.529312 25.527733 -0.513194 1.630740 0.092302 -0.012924 -732639.000000 0 0 1
21.270428 -12.089043 -2.506212 24.593845 -0.516822 1.672878 0.086710 -0.008571 -1154140.000000 0 1 0
20.054528 -12.493043 -2.015912 23.713375 -0.557126 1.655911 0.102808 -0.006534 -1087740.000000 0 1 0
18.868328 -12.033943 -2.918212 22.568686 -0.567740 1.700463 0.095662 -0.005180 140501.000000 0 1 0
18.742728 -12.810443 -4.088912 23.067651 -0.599558 1.748995 0.085618 -0.014143 613204.000000 0 1 0
17.882528 -12.124743 -5.021612 22.181317 -0.595823 1.799165 0.084950 -0.014170 300469.000000 0 1 0
17.885428 -12.630643 -6.453812 22.827032 -0.614873 1.857432 0.079566 -0.024146 -283521.000000 0 1 0
17.093028 -13.786843 -6.573212 22.922822 -0.678738 1.861633 0.073824 -0.025401 195355.000000 0 1 0
17.201428 -14.349643 -7.893612 23.751011 -0.695257 1.909589 0.069222 -0.029507 -410316.000000 0 1 0
16.231128 -15.487943 -8.251612 23.904289 -0.761972 1.923242 0.062053 -0.028109 -465449.000000 0 1 0
14.893028 -15.078343 -8.371712 22.786932 -0.791581 1.946999 0.069930 -0.025262 243938.000000 0 1 0
13.991728 -16.000743 -8.984812 23.076375 -0.852282 1.970723 0.064408 -0.029501 285211.000000 0 1 0
14.086028 -15.928643 -10.582912 23.751545 -0.846712 2.032604 0.072897 -0.038140 -393051.000000 0 1 0
13.416828 -14.826743 -11.235612 22.936490 -0.835277 2.082723 0.064667 -0.030842 448318.000000 0 1 0
13.928728 -13.526343 -10.931712 22.281691 -0.770743 2.083591 0.074463 -0.023582 -35890.900000 0 1 0
13.735128 -12.537043 -12.137612 22.207045 -0.739827 2.149054 0.074467 -0.017609 -585733.000000 0 1 0
14.774128 -12.615343 -13.039712 23.397774 -0.706743 2.161934 0.067882 -0.017438 -488819.000000 0 1 0
14.538228 -11.889043 -14.241712 23.569807 -0.685488 2.219602 0.072433 -0.014994 -452254.000000 0 1 0
15.798828 -11.718643 -15.093312 24.793903 -0.638195 2.225282 0.066609 -0.020625 53832.500000 0 1 0
16.528328 -12.930143 -15.342312 25.995399 -0.663856 2.202095 0.056405 -0.016211 -188360.000000 0 0 1
17.603628 -12.650243 -16.199912 27.062031 -0.623111 2.212575 0.053161 -0.010007 -454560.000000 0 0 1
18.665728 -13.756043 -16.054312 28.202466 -0.635108 2.176392 0.055417 -0.009447 -406712.000000 0 0 1
19.463928 -13.742843 -14.884312 28.093647 -0.614786 2.129174 0.049521 -0.022806 78321.300000 0 0 1
20.405728 -14.786543 -14.833812 29.241710 -0.627064 2.102825 0.040936 -0.015218 -400749.000000 0 0 1
21.380928 -14.557343 -13.686612 29.264034 -0.597762 2.057476 0.034193 -0.019602 -369813.000000 0 0 1
22.139328 -13.372243 -13.841412 29.335157 -0.543358 2.062169 0.038594 -0.022599 -382257.000000 0 0 1
23.134528 -13.290643 -12.865412 29.620372 -0.521454 2.020105 0.043024 -0.020029 -349571.000000 0 0 1
23.752228 -11.898343 -12.890112 29.527850 -0.464396 2.022547 0.055421 -0.014267 -720954.000000 0 0 1
22.943728 -10.820443 -12.420312 28.244660 -0.440677 2.026106 0.040284 -0.016664 226826.000000 0 0 1
23.556928 -9.532843 -12.295312 28.230811 -0.384528 2.021421 0.053733 -0.022277 -274919.000000 0 0 1
24.827028 -9.325943 -11.447812 28.886103 -0.359329 1.978289 0.071235 -0.017225 -221032.000000 0 0 1
25.927328 -9.999343 -12.033712 30.282395 -0.368091 1.979460 0.061811 -0.010111 -264531.000000 0 0 1
27.006828 -9.848043 -11.140112 30.829447 -0.349666 1.940508 0.061007 -0.011740 -61318.900000 0 0 1
28.244708 -10.749543 -11.452712 32.318429 -0.363659 1.933038 0.063557 -0.010814 612079.000000 0 0 1
28.979548 -10.297043 -12.586212 33.230348 -0.341407 1.959249 0.055603 -0.008891 -478167.000000 0 0 1
30.176638 -10.953243 -12.784212 34.554871 -0.348183 1.949771 0.060798 -0.012220 -807835.000000 0 0 1
30.871748 -10.600543 -14.166412 35.582630 -0.330759 1.980271 0.054109 -0.008840 16498.300000 0 0 1
30.401668 -11.087843 -15.421512 35.847242 -0.349720 2.015512 0.054850 -0.006472 -28102.800000 0 0 1
31.107698 -10.458943 -16.443812 36.708001 -0.324344 2.035282 0.039262 -0.008400 -246635.000000 0 0 1
30.708798 -11.071643 -17.832312 37.196813 -0.346030 2.070772 0.014330 -0.005064 143080.000000 0 0 1
29.438008 -10.753943 -18.354212 36.319702 -0.350247 2.100585 0.041729 -0.002726 -3651.930000 0 0 1
29.417038 -9.484643 -19.047312 36.305932 -0.311897 2.123081 0.021590 0.002130 -332852.000000 0 0 1
28.021258 -8.991243 -19.453912 35.277302 -0.310494 2.154906 -0.009396 0.000029 -77917.600000 0 0 1
27.444868 -9.599343 -20.567012 35.614185 -0.336468 2.186453 0.000091 0.001035 -74969.300000 0 0 1
26.124128 -9.189343 -20.827412 34.651049 -0.338239 2.215625 0.035448 0.003993 76804.900000 0 0 1
25.578728 -9.842543 -22.140812 35.232975 -0.367329 2.250306 0.043821 0.006004 17227.500000 0 0 1
25.321328 -11.228143 -22.027312 35.389876 -0.417374 2.242625 0.045181 0.000886 166833.000000 0 0 1
24.549528 -11.675943 -23.135812 35.696958 -0.443944 2.275906 0.045436 -0.004458 -944412.000000 0 0 1
24.616728 -13.170643 -23.375012 36.412091 -0.491276 2.267845 0.044016 0.007096 1529380.000000 0 0 1
25.872228 -13.666343 -23.921412 37.793850 -0.485971 2.256147 0.031393 0.010123 1547870.000000 0 0 1
27.087628 -13.369743 -23.215912 38.098139 -0.458493 2.226064 0.021758 0.016041 -686658.000000 0 0 1
28.280998 -13.993343 -23.909212 39.588874 -0.459476 2.219229 0.001977 0.014056 -506876.000000 0 0 1
28.667838 -13.388543 -25.140892 40.412405 -0.436920 2.242229 -0.003102 0.006472 858076.000000 0 0 1
29.954148 -13.795043 -25.647192 41.777179 -0.431583 2.231794 -0.025594 0.007889 704207.000000 0 0 1
30.426868 -13.080843 -26.933342 42.688496 -0.406023 2.253544 -0.023091 0.008702 -283857.000000 0 0 1
30.275178 -13.889243 -28.113452 43.587426 -0.430120 2.271806 -0.012562 0.002076 406088.000000 0 0 1
31.137078 -13.413143 -29.142122 44.706748 -0.406754 2.280819 -0.010165 -0.002186 201747.000000 0 0 1
31.113418 -14.328343 -30.371792 45.779820 -0.431568 2.296192 -0.002064 -0.005996 -46161.800000 0 0 1
31.691578 -15.569243 -30.077612 46.383404 -0.456642 2.276351 0.001764 -0.007464 -189990.000000 0 0 1
31.904828 -16.479543 -31.144512 47.533925 -0.476778 2.285252 0.005854 -0.007827 489240.000000 0 0 1
30.644088 -17.162843 -31.806002 47.384017 -0.510542 2.306675 -0.011358 -0.001608 469678.000000 0 0 1
30.035788 -16.282643 -32.681482 47.279513 -0.496764 2.334000 -0.030037 0.001267 -192962.000000 0 0 1
29.043638 -16.798343 -33.533592 47.436474 -0.524373 2.355924 -0.014593 -0.002810 -131634.000000 0 0 1
28.372388 -15.781843 33.990459 47.004365 -0.507621 0.762467 0.013367 -0.000621 -245603.000000 0 0 1
27.729198 -14.654143 -33.920492 46.197967 -0.486166 2.395346 0.025171 -0.009161 424894.000000 0 0 1
28.641168 -13.647843 -33.464882 46.113756 -0.444681 2.382852 0.024463 -0.017054 -411227.000000 0 0 1
27.990698 -12.336543 -33.110162 45.077182 -0.415124 2.395758 0.041004 -0.013250 -238323.000000 0 0 1
27.559258 -11.613743 34.198879 45.430773 -0.398826 0.718538 0.078761 -0.020140 -248619.000000 0 0 1
26.557428 -10.726643 -33.828972 44.325582 -0.383867 2.439036 0.063072 -0.024541 49397.300000 0 0 1
20.523256 -30.107063 9.287188 37.601744 -0.972475 1.321225 0.022957 -0.007133 26222.100000 0 0 1
20.993356 -29.720463 7.999388 37.256102 -0.955814 1.354398 0.019173 -0.013281 1021010.000000 0 0 1
22.314956 -30.242163 7.739288 38.372416 -0.935100 1.367714 0.045236 -0.014632 923118.000000 0 0 1
22.854756 -29.978563 6.292588 38.218462 -0.919425 1.405395 0.041947 -0.006080 -5971.990000 0 0 1
23.221756 -28.620163 6.096588 37.356821 -0.889156 1.406864 0.042696 0.008000 -75209.700000 0 0 1
23.837756 -28.447563 4.855488 37.430980 -0.873337 1.440711 0.051038 0.003667 -85428.300000 0 0 1
24.079756 -26.959163 4.510688 36.427702 -0.841754 1.446652 0.049518 0.000045 -63763.400000 0 0 1
24.945756 -26.250063 5.354988 36.606454 -0.810869 1.423984 0.044088 0.000784 -78431.900000 0 0 1
24.996656 -24.877363 5.029488 35.623192 -0.783006 1.429137 0.031966 0.005665 20611.100000 0 0 1
25.712356 -24.019863 6.086788 35.708936 -0.751379 1.399504 0.030600 0.003842 894142.000000 0 0 1
27.087956 -23.709363 5.794088 36.461798 -0.718985 1.411211 0.038273 0.001788 760587.000000 0 0 1
27.727256 -22.774363 6.638788 36.490353 -0.687637 1.387845 0.048398 -0.007465 119455.000000 0 0 1
27.197456 -21.316563 6.664188 35.192455 -0.664766 1.380282 0.039400 -0.002943 -195877.000000 0 0 1
27.345256 -20.648563 5.474588 34.700105 -0.646761 1.412366 0.047035 0.006020 127310.000000 0 0 1
26.806256 -19.337463 5.564288 33.518266 -0.624930 1.404017 0.042377 0.002552 -115971.000000 0 0 1
26.820956 -18.485663 4.288688 32.855384 -0.603457 1.439890 0.042329 0.005956 -208295.000000 0 0 1
28.083456 -18.034563 3.870288 33.599183 -0.570856 1.455350 0.095276 -0.009436 -124436.000000 0 0 1
28.001656 -17.493963 2.572988 33.117243 -0.558418 1.493025 0.089501 -0.008599 102873.000000 0 0 1
29.069756 -16.419663 2.267788 33.463397 -0.514163 1.502975 0.093038 -0.028327 43893.400000 0 0 1
28.990156 -15.317563 3.185688 32.942457 -0.486086 1.473940 0.087730 -0.029555 402019.000000 0 0 1
30.169656 -14.511063 3.300388 33.640328 -0.448318 1.472530 0.108806 -0.032249 516216.000000 0 0 1
30.099056 -13.303763 4.205788 33.175774 -0.416181 1.443681 0.105770 -0.031031 113933.000000 0 0 1
29.811756 -13.687463 5.569688 33.273246 -0.430420 1.402612 0.097797 -0.019441 93871.400000 0 0 1
29.721856 -12.553563 6.397888 32.892456 -0.399639 1.375039 0.086255 -0.017565 -252658.000000 0 0 1
29.235056 -12.847863 7.839288 32.881766 -0.414061 1.330070 0.089671 -0.010416 1044090.000000 0 0 1
27.809556 -13.146163 7.883288 31.754358 -0.441587 1.319914 0.081209 -0.002264 904065.000000 0 0 1
27.317556 -13.373063 9.144388 31.760156 -0.455245 1.278742 0.064502 0.007511 -125110.000000 0 0 1
27.829156 -14.512863 10.035788 32.951513 -0.480698 1.261317 0.064613 0.008710 -383880.000000 0 0 1
28.988656 -14.228463 10.791788 34.047820 -0.456284 1.248274 0.058361 0.014807 -95499.000000 0 0 1
29.355356 -15.426663 11.426388 35.075365 -0.483850 1.238974 0.055072 0.006605 142181.000000 0 0 1
29.915856 -15.196163 12.884788 35.943005 -0.469998 1.204159 0.040082 0.009200 199982.000000 0 0 1
31.208056 -14.629863 12.867388 36.790561 -0.438365 1.213495 0.039620 0.004926 173887.000000 0 0 1
31.987056 -15.061763 14.019288 38.033787 -0.440074 1.193293 0.036743 0.006005 903816.000000 0 0 1
33.511156 -14.999563 13.693288 39.185337 -0.420856 1.213813 0.043771 -0.003605 326488.000000 0 0 1
34.061456 -13.695363 13.630188 39.160283 -0.382297 1.215294 0.049740 -0.005586 -698265.000000 0 0 1
35.377856 -13.744663 13.199388 40.183732 -0.370562 1.236107 0.051224 -0.010139 -889707.000000 0 0 1
36.012256 -12.344263 13.389288 40.355129 -0.330228 1.232600 0.055562 -0.019471 -467988.000000 0 0 1
-35.260616 -12.226163 12.608688 39.392501 0.333765 1.244984 0.072921 -0.019377 -47973.200000 0 0 1
-34.528316 -11.095863 12.973188 38.517871 0.310932 1.227270 0.077604 -0.023471 -51634.300000 0 0 1
-33.207116 -10.828563 12.207988 37.000072 0.315219 1.234551 0.072480 -0.023639 -175462.000000 0 0 1
-32.109116 -11.641963 12.353988 36.320128 0.347833 1.223729 0.062258 -0.018749 -318771.000000 0 0 1
-32.264916 -12.882163 11.650588 36.643023 0.379870 1.247232 0.055133 -0.018736 -427814.000000 0 0 1
-31.229016 -13.981063 11.976888 36.251447 0.420935 1.234086 0.042810 -0.014721 403317.000000 0 0 1
-29.886616 -13.692463 11.642788 34.874746 0.429608 1.230416 0.045855 -0.012820 17313.400000 0 0 1
-29.010316 -14.734963 12.011888 34.684334 0.469965 1.217151 0.048055 -0.010666 -103019.000000 0 0 1
-27.639716 -14.707663 11.333088 33.297270 0.489013 1.223496 0.045824 -0.003012 -310715.000000 0 0 1
-27.677116 -14.876763 9.909688 32.947576 0.493204 1.265295 0.042278 0.001807 34678.200000 0 0 1
-26.382116 -15.095863 9.393888 31.814247 0.519728 1.271055 0.042331 0.002118 -68628.600000 0 0 1
-26.179816 -14.861663 7.915888 31.127369 0.516313 1.313666 0.051772 0.008658 -300064.000000 0 0 1
-26.716516 -15.845563 7.041288 31.850178 0.535330 1.347879 0.060418 0.011854 107499.000000 0 0 1
-26.454016 -15.519363 5.675788 31.191027 0.530549 1.387808 0.065572 0.010860 -441554.000000 0 0 1
-26.818316 -16.621963 4.649988 31.892541 0.554850 1.424473 0.055019 0.010625 -825865.000000 0 0 1
-28.175916 -16.863863 4.543188 33.149852 0.539331 1.433314 0.024139 0.004222 -909223.000000 0 0 1
-28.366716 -17.976563 3.679188 33.784077 0.564846 1.461677 0.030713 0.003028 59493.500000 0 0 1
-29.827716 -18.491663 3.647788 35.283716 0.554959 1.467227 0.046963 -0.008667 -91164.200000 0 0 1
-30.700416 -17.515463 3.169088 35.487324 0.518467 1.481375 0.048935 -0.008184 -693402.000000 0 0 1
-32.028416 -17.858763 3.457688 36.833551 0.508653 1.476785 0.053179 -0.014284 -422699.000000 0 0 1
-33.029216 -16.866063 2.844388 37.195212 0.472124 1.494250 0.057486 -0.018104 -117940.000000 0 0 1
-33.089516 -17.003163 1.402288 37.228887 0.474669 1.533121 0.055538 -0.016909 -397664.000000 0 0 1
-33.921716 -16.047463 0.862088 37.535944 0.441875 1.547827 0.076464 -0.024115 -313840.000000 0 0 1
-34.529016 -16.532163 -0.476112 38.285664 0.446536 1.583232 0.075740 -0.025447 -123365.000000 0 0 1
-33.506016 -16.727663 -1.415912 37.476294 0.463042 1.608587 0.059041 -0.021941 204295.000000 0 0 1
-33.972916 -17.459763 -2.523012 38.280125 0.474731 1.636753 0.051285 -0.015252 130837.000000 0 0 1
-32.863816 -18.304563 -3.228512 37.755936 0.508188 1.656411 0.048865 -0.011480 -1388.420000 0 0 1
-33.288316 -19.200363 -4.236912 38.661575 0.523178 1.680607 0.054899 -0.023430 -844645.000000 0 0 1
-32.280116 -20.023963 -4.685612 38.274273 0.555226 1.693526 0.037590 -0.013426 -1082270.000000 0 0 1
-32.631616 -21.127363 -5.717512 39.292210 0.574581 1.716827 0.045302 -0.020060 -375990.000000 0 0 1
-33.382916 -22.168363 -5.151112 40.402839 0.586198 1.698638 0.048058 -0.019808 -21843.800000 0 0 1
-33.607416 -23.177263 -6.149912 41.285171 0.603744 1.720315 0.047036 -0.015842 333312.000000 0 0 1
-34.342016 -24.490163 -5.656412 42.557457 0.619481 1.704103 0.040379 -0.009277 33221.200000 0 0 1
-33.477816 -25.242763 -4.862812 42.209101 0.646066 1.686260 0.036712 -0.009206 -250758.000000 0 0 1
-34.123816 -26.420163 -4.446712 43.384710 0.658838 1.673472 0.018639 -0.002552 -109591.000000 0 0 1
-33.177816 -27.464363 -3.871612 43.244053 0.691460 1.660446 0.008425 -0.001480 -645790.000000 0 0 1
-32.379916 -28.118363 -4.838612 43.156848 0.715073 1.683149 -0.007047 -0.003033 833453.000000 0 0 1
-31.439416 -29.150263 -4.482712 43.107649 0.747635 1.674973 0.006819 -0.002720 515917.000000 0 0 1
-30.414516 -28.942263 -3.367012 42.119285 0.760600 1.650822 0.029758 -0.011099 -1121780.000000 0 0 1
-30.976516 -28.800663 -2.099312 42.348906 0.749015 1.620388 0.025140 -0.011059 378133.000000 0 0 1
-30.037616 -28.423563 -1.063312 41.367717 0.757796 1.596503 0.046676 -0.017370 404203.000000 0 0 1
-30.817316 -28.181163 0.240088 41.760539 0.740746 1.565047 0.027992 -0.011530 198336.000000 0 0 1
-31.245716 -29.378463 0.859888 42.896717 0.754607 1.550749 0.024822 -0.006577 305166.000000 0 0 1
-32.164516 -29.043163 1.914088 43.378856 0.734446 1.526657 0.025957 -0.005835 -33733.400000 0 0 1
-32.681216 -30.280963 2.638788 44.631400 0.747294 1.511638 0.010616 0.001897 -248689.000000 0 0 1
-33.726816 -30.106563 3.611088 45.353536 0.728745 1.491091 0.008364 -0.001784 616012.000000 0 0 1
-34.202016 -31.305963 4.223388 46.558332 0.741218 1.479960 0.023846 0.002660 255897.000000 0 0 1
-35.047216 -32.242363 3.310788 47.737183 0.743739 1.501386 0.017280 0.001555 -445645.000000 0 0 1
-35.609316 -33.365763 3.859488 48.950927 0.752883 1.491870 0.034518 -0.002915 10383.600000 0 0 1
35.880756 -33.958663 2.986488 49.492813 -0.757884 1.510418 0.039649 -0.000696 318536.000000 0 0 1
34.695556 33.908557 3.706788 48.655032 0.773927 1.494537 0.047134 -0.006107 603345.000000 0 0 1
33.810156 -34.022763 4.681788 48.193301 -0.788532 1.473497 0.040575 -0.007550 1570870.000000 0 0 1
33.062856 -32.850263 4.240488 46.800363 -0.782173 1.480064 0.049782 -0.008120 -157960.000000 0 0 1
32.073856 -32.878463 3.115488 46.037288 -0.797785 1.503071 0.052110 -0.002165 -1198240.000000 0 0 1
32.659656 -33.185163 1.885788 46.598974 -0.793379 1.530317 0.041575 -0.001984 -436653.000000 0 0 1
31.773656 -32.993263 0.791688 45.812088 -0.804227 1.553514 0.045871 0.001193 -703263.000000 0 0 1
32.134956 -33.674663 -0.531412 46.550196 -0.808790 1.582212 0.041044 -0.000553 614239.000000 0 0 1
33.266856 -33.304463 -1.324812 47.091678 -0.785963 1.598933 0.013724 0.013618 -93092.300000 0 0 1
34.514556 -33.370063 -0.680712 48.013322 -0.768540 1.584974 0.012044 0.010448 -773398.000000 0 0 1
35.670756 -33.153663 -1.664712 48.727195 -0.748842 1.604967 0.003540 0.010694 -467119.000000 0 0 1
36.053656 34.259057 -2.383312 49.791859 0.759881 1.618680 0.010225 0.002345 185163.000000 0 0 1
-35.612116 -33.947063 -3.497112 49.323987 0.761466 1.641757 0.009537 0.000616 -607320.000000 0 0 1
-34.914616 33.511357 -4.261912 48.581945 -0.764893 1.658635 0.019277 -0.005923 547746.000000 0 0 1
-33.664016 33.136857 -3.640912 47.376930 -0.777507 1.647722 0.025834 -0.003635 696124.000000 0 0 1
-33.025716 32.269957 -4.564612 46.399178 -0.773824 1.669333 0.036590 -0.016351 570239.000000 0 0 1
-31.712016 31.497957 -4.167012 44.890280 -0.782012 1.663757 0.048439 -0.015073 328627.000000 0 0 1
-30.579116 32.345957 -4.045112 44.695707 -0.813469 1.661424 0.036494 -0.019000 472693.000000 0 0 1
-29.397416 31.523357 -3.910112 43.280701 -0.820281 1.661263 0.044434 -0.019276 844827.000000 0 0 1
-29.008616 31.160957 -2.454812 42.644239 -0.821154 1.628393 0.038995 -0.014123 122397.000000 0 0 1
-30.071116 30.483957 -1.747012 42.855521 -0.792216 1.611573 0.030296 -0.009146 408379.000000 0 0 1
-29.771616 30.318657 -0.362212 42.493544 -0.794502 1.579320 0.034753 -0.001671 247797.000000 0 0 1
-30.945516 29.724857 0.480588 42.911805 -0.765281 1.559597 0.027917 -0.002807 165847.000000 0 0 1
-31.319616 28.421457 0.120688 42.293169 -0.736924 1.567943 0.037131 -0.005634 110363.000000 0 0 1
-32.552316 28.322557 -0.561912 43.152477 -0.716027 1.583818 0.047529 -0.004766 57986.400000 0 0 1
-33.050616 26.949357 -1.110612 42.659636 -0.684059 1.596834 0.041636 -0.005075 55626.000000 0 0 1
-33.372316 25.997557 -0.086212 42.303568 -0.661814 1.572834 0.053224 -0.008386 -101912.000000 0 0 1
-33.836116 24.810257 -0.649612 41.962526 -0.632693 1.586278 0.053226 -0.003098 -149738.000000 0 0 1
-33.803216 23.503457 0.271388 41.172121 -0.607566 1.564205 0.049488 -0.011517 1101420.000000 0 0 1
-32.464716 23.071357 0.639088 39.832822 -0.617844 1.554751 0.061071 -0.023519 1160580.000000 0 0 1
-32.015316 23.601857 1.872288 39.818759 -0.635262 1.523759 0.061382 -0.030381 -1032190.000000 0 0 1
-30.527416 23.315857 2.067688 38.468528 -0.652254 1.517020 0.044264 -0.034521 165357.000000 0 0 1
-29.578216 24.093657 1.306188 38.171734 -0.683565 1.536571 0.058032 -0.026273 540889.000000 0 0 1
-29.376216 25.415857 1.865088 38.889670 -0.713244 1.522819 0.033283 -0.020985 -179426.000000 0 0 1
-28.627816 26.438657 0.918888 38.979466 -0.745664 1.547220 0.013521 -0.008300 -74846.500000 0 0 1
-27.382916 26.038957 0.452488 37.789630 -0.760246 1.558822 0.020203 -0.014089 -681099.000000 0 0 1
-26.887716 26.914957 -0.544612 38.048138 -0.785904 1.585111 0.024848 -0.014487 392442.000000 0 0 1
-25.629216 26.386757 -1.289812 36.807353 -0.799961 1.605846 0.022179 -0.007334 147284.000000 0 0 1
-25.993116 25.327057 -2.164612 36.356395 -0.772420 1.630370 0.043098 -0.021145 228431.000000 0 0 1
-24.906816 24.807357 -2.939112 35.275952 -0.783398 1.654211 0.039135 -0.015297 656399.000000 0 0 1
-24.017116 23.769457 -2.215012 33.863184 -0.780216 1.636254 0.041378 -0.021212 681000.000000 0 0 1
-24.783216 22.492257 -2.080712 33.532652 -0.736976 1.632887 0.032229 -0.024870 779016.000000 0 0 1
-23.990816 21.503357 -1.451312 32.249960 -0.730776 1.615813 0.039969 -0.031908 -651527.000000 0 0 1
-24.764816 20.251457 -1.147212 32.011462 -0.685471 1.606642 0.047787 -0.027713 -478862.000000 0 0 1
-25.645716 20.117557 -0.017012 32.594772 -0.665182 1.571318 0.020512 -0.024600 652133.000000 0 0 1
-26.867616 20.844457 -0.024812 34.005305 -0.659823 1.571526 0.025494 -0.024800 85579.800000 0 0 1
-27.872316 20.346757 -1.086812 34.525899 -0.630577 1.602280 0.023167 -0.034086 -1302740.000000 0 0 1
-28.261816 19.024557 -0.778912 34.077422 -0.592480 1.593655 0.018914 -0.029598 152868.000000 0 0 1
-28.998416 18.454557 -1.845312 34.422144 -0.566754 1.624430 0.035884 -0.027747 -193741.000000 0 0 1
-29.230916 16.916157 -1.646512 33.812924 -0.524616 1.619510 0.035897 -0.020466 -217738.000000 0 0 1
-29.998116 16.493457 -0.544512 34.237663 -0.502702 1.586701 0.036753 -0.026604 203345.000000 0 0 1
-30.073816 15.070157 -0.478712 33.641837 -0.464532 1.585026 0.046398 -0.028416 187395.000000 0 0 1
-28.850116 14.303357 0.128588 32.201425 -0.460267 1.566803 0.060900 -0.026334 -76209.100000 0 0 1
-28.766816 14.346757 1.523788 32.181999 -0.462628 1.523430 0.061804 -0.033498 164767.000000 0 0 1
-27.451516 14.115157 1.989288 30.931871 -0.474931 1.506440 0.074991 -0.026890 136410.000000 0 0 1
-26.884116 12.668457 2.016288 29.787765 -0.440363 1.503056 0.089399 -0.022491 -222561.000000 0 0 1
-26.801816 12.189857 0.703288 29.452072 -0.426851 1.546915 0.086762 -0.024682 166012.000000 0 0 1
-26.347416 10.832157 0.732988 28.496653 -0.390062 1.545072 0.106834 -0.022159 11435.800000 0 0 1
-26.333916 10.285657 -0.726312 28.280690 -0.372365 1.596481 0.106773 -0.025231 -879803.000000 0 0 1
-27.599216 10.075257 -1.228412 29.406403 -0.350024 1.612582 0.101438 -0.030583 -720556.000000 0 0 1
-27.520116 9.464657 -2.543612 29.213122 -0.331246 1.657978 0.102797 -0.033117 41917.000000 0 0 1
-28.871716 8.901257 -3.035212 30.364797 -0.299057 1.670922 0.103662 -0.035112 -62205.400000 0 0 1
-28.763016 8.300757 -4.298312 30.243828 -0.280958 1.713401 0.120589 -0.029751 -378640.000000 0 0 1
-29.973716 8.001757 -4.910812 31.409678 -0.260875 1.727787 0.111921 -0.033904 -547475.000000 0 0 1
-11.103044 17.840357 -19.623512 28.751315 -1.014101 2.322009 0.059036 -0.013793 345130.000000 0 0 1
-11.670344 17.355757 -20.852612 29.533889 -0.978822 2.354711 0.043102 -0.010916 282560.000000 0 0 1
-10.712044 17.227857 -21.914012 29.862532 -1.014511 2.394739 0.037658 -0.016400 206222.000000 0 0 1
-11.050644 16.158757 -22.939312 30.156826 -0.970972 2.435137 0.032256 -0.010984 -132971.000000 0 0 1
-10.742544 14.863557 -22.472012 29.005497 -0.944969 2.457116 0.029414 -0.012451 -119946.000000 0 0 1
-10.739244 14.026357 -23.591812 29.472760 -0.917356 2.498861 0.024950 -0.009365 -38859.500000 0 0 1
-10.092044 12.587657 -23.324912 28.361064 -0.894995 2.536461 0.000688 -0.003686 -232428.000000 0 0 1
-8.718444 12.642657 -23.123812 27.758939 -0.967081 2.555344 0.018492 -0.013157 -618051.000000 0 0 1
-8.095144 11.474657 -22.622012 26.626200 -0.956402 2.586051 0.008650 -0.012570 84575.300000 0 0 1
-6.580644 11.521257 -22.387012 26.023499 -1.051842 2.606578 0.027882 -0.008116 -50149.300000 0 0 1
-5.817144 11.325557 -23.582012 26.799602 -1.096304 2.646530 0.019611 -0.013166 -205166.000000 0 0 1
-4.457544 11.318557 -23.203012 26.198457 -1.195624 2.658717 0.025510 -0.012111 147010.000000 0 0 1
-3.470444 11.108057 -24.387912 27.022271 -1.267979 2.696362 0.044443 -0.021954 8008.810000 0 0 1
-3.482644 9.917457 -25.147492 27.255845 -1.233086 2.745682 0.037492 -0.015644 -741203.000000 0 0 1
-2.641644 10.081457 -26.199052 28.195822 -1.314528 2.762990 0.035985 -0.014801 -841387.000000 0 0 1
-2.124844 8.784257 -26.895732 28.373553 -1.333463 2.817423 0.032010 -0.006999 -172677.000000 0 0 1
-1.128344 7.975057 -26.298562 27.504346 -1.430245 2.844393 0.044887 -0.005541 -401816.000000 0 0 1
-1.548044 6.955357 -25.503912 26.480614 -1.351797 2.869149 0.049927 -0.016142 -419862.000000 0 0 1
-0.435844 6.095157 -24.849612 25.589922 -1.499411 2.900469 -0.004020 -0.009630 -151695.000000 0 0 1
0.119956 6.714357 -23.738812 24.670390 1.552933 2.865908 0.015852 -0.008199 -259314.000000 0 1 0
1.151156 5.885657 -23.263212 24.023803 1.377648 2.889290 0.017274 0.002120 -101706.000000 0 1 0
1.605856 6.247357 -21.806812 22.740828 1.319197 2.853994 0.034345 -0.003143 367400.000000 0 1 0
2.381556 7.436457 -21.786012 23.143098 1.260863 2.797438 0.033596 -0.011575 135735.000000 0 1 0
2.142956 8.042057 -20.508512 22.132916 1.310379 2.756083 0.037994 -0.012709 131207.000000 0 1 0
2.594356 9.570857 -20.509012 22.780508 1.306089 2.691226 0.037942 -0.018176 -71040.500000 0 1 0
2.655956 10.182657 -19.248212 21.937052 1.315650 2.641273 0.045000 -0.027219 24752.800000 0 1 0
3.197956 11.518057 -19.343912 22.739381 1.299971 2.588072 0.049848 -0.020244 1157230.000000 0 1 0
4.428056 11.710757 -18.317412 22.187318 1.209294 2.542026 0.046062 -0.031934 1277320.000000 0 1 0
5.569456 11.047557 -18.834312 22.534388 1.103846 2.560390 0.055633 -0.026797 123186.000000 0 1 0
6.531156 10.686957 -17.847312 21.803522 1.022231 2.529682 0.051367 -0.033091 344748.000000 0 1 0
7.687156 9.755757 -18.358712 22.165501 0.903439 2.546785 0.078613 -0.039136 137310.000000 0 1 0
7.402956 8.445657 -18.846712 21.939266 0.851095 2.604188 0.079481 -0.026572 -15685.900000 0 1 0
6.715156 8.372557 -20.097912 22.784185 0.894810 2.651096 0.070948 -0.013212 22933.700000 0 1 0
6.413256 6.938557 -20.572612 22.638590 0.824721 2.711053 0.081499 -0.007252 -315017.000000 0 1 0
7.559356 6.252957 -20.972112 23.153246 0.691096 2.704050 0.078456 0.001731 -251168.000000 0 1 0
7.360056 4.874757 -21.051812 22.827888 0.584992 2.744520 0.068693 0.004893 -63475.700000 0 1 0
7.379556 4.396857 -22.513912 24.097021 0.537337 2.777094 0.079793 -0.005566 -124103.000000 0 1 0
6.269656 4.856857 -23.259312 24.574239 0.659098 2.812982 0.082322 -0.007276 -62731.300000 0 1 0
6.524356 4.805757 -24.642912 25.941002 0.634861 2.823904 0.084068 -0.010729 -762446.000000 0 0 1
5.435056 5.437757 -25.507262 26.640747 0.785647 2.848839 0.064115 -0.024252 -397677.000000 0 0 1
5.263356 6.870557 -25.429602 26.862094 0.917087 2.813542 0.071533 -0.031510 280480.000000 0 0 1
4.756956 7.345557 -24.184312 25.718996 0.996113 2.794392 0.077189 -0.032909 -856347.000000 0 0 1
4.593156 8.869657 -24.305112 26.277487 1.092971 2.751675 0.080341 -0.036359 595868.000000 0 0 1
3.578356 9.368757 -25.190342 27.113309 1.205950 2.762705 0.082544 -0.033487 731402.000000 0 0 1
2.247856 9.343957 -24.683912 26.488825 1.334714 2.770306 0.064610 -0.022496 -8103.710000 0 0 1
1.227156 9.864357 -25.686822 27.543134 1.447029 2.772357 0.054168 -0.007134 -744693.000000 0 0 1
1.364556 11.238457 -25.875732 28.243909 1.449969 2.729170 0.080021 -0.027620 432275.000000 0 0 1
0.418456 11.668357 -26.864242 29.291861 1.534949 2.731598 0.089248 -0.030286 -86464.700000 0 0 1
0.288656 13.176557 -27.048782 30.088894 1.548893 2.688191 0.087698 -0.034140 -260408.000000 0 0 1
-0.162244 13.775557 -25.851252 29.292994 -1.559019 2.651961 0.085197 -0.032604 -114026.000000 0 0 1
-0.615544 15.052857 -26.136322 30.167444 -1.529927 2.618694 0.089176 -0.048093 -321111.000000 0 0 1
-1.233544 15.728557 -24.930612 29.503297 -1.492530 2.577382 0.096354 -0.037337 -360591.000000 0 0 1
-2.370144 15.092557 -24.417112 28.802746 -1.415028 2.582498 0.075767 -0.030569 -632139.000000 0 0 1
-2.666044 15.672857 -23.195212 28.120527 -1.402303 2.540733 0.073897 -0.029563 -796514.000000 0 0 1
-3.815044 14.921257 -22.489412 27.257514 -1.320480 2.541126 0.061887 -0.023965 637915.000000 0 0 1
-5.141544 15.258257 -22.888812 27.984774 -1.245778 2.528552 0.047311 -0.020351 107961.000000 0 0 1
-5.483744 14.873157 -24.202912 28.932044 -1.217560 2.561740 0.041224 -0.019616 -1208170.000000 0 0 1
-6.982244 14.953657 -24.516812 29.553978 -1.133957 2.549116 0.009798 -0.013492 -243087.000000 0 0 1
-7.367744 16.297757 -24.793212 30.571291 -1.146221 2.516650 0.008963 -0.010664 760294.000000 0 0 1
-8.600244 16.264757 -25.553542 31.487934 -1.084402 2.517570 0.011380 -0.011839 511799.000000 0 0 1
-9.217444 17.600257 -25.996172 32.718974 -1.088361 2.489028 0.021565 -0.016005 -226134.000000 0 0 1
-9.686744 18.358257 -24.942712 32.449922 -1.085274 2.447528 0.027263 -0.019845 -30359.500000 0 0 1
-10.606744 19.359457 -25.347532 33.612333 -1.069579 2.425100 0.025934 -0.017813 266877.000000 0 0 1
-10.939644 20.325157 -24.199412 33.442478 -1.077033 2.379819 0.017536 -0.016205 -19316.800000 0 0 1
-10.153144 21.498657 -24.215212 33.936043 -1.129579 2.365355 0.037298 -0.012230 407577.000000 0 0 1
-10.925144 22.664857 -24.559712 35.160118 -1.121628 2.344110 0.033397 -0.017371 135308.000000 0 0 1
-10.790544 23.089457 -26.008892 36.414575 -1.133619 2.366340 0.022421 -0.013552 -221833.000000 0 0 1
-11.437244 22.290157 -26.968172 36.809563 -1.096718 2.392990 0.016123 -0.018191 38060.600000 0 0 1
-11.319744 22.856157 -28.272932 38.077541 -1.110948 2.407605 0.035898 -0.012252 -196835.000000 0 0 1
-12.036544 22.012157 -29.340252 38.603935 -1.070403 2.434160 0.036465 -0.009863 -64886.900000 0 0 1
-11.356044 20.866457 -29.817902 38.124480 -1.072398 2.468856 0.042579 -0.010412 -122428.000000 0 0 1
-11.159544 19.801857 -28.938312 36.797756 -1.057602 2.475780 0.037117 -0.012624 325479.000000 0 0 1
-10.130244 18.797557 -29.610562 36.506922 -1.076505 2.516817 0.019309 -0.017986 436093.000000 0 0 1
-8.800844 19.352257 -29.635732 36.472473 -1.143982 2.519311 0.006937 -0.018583 375568.000000 0 0 1
-7.874044 18.661457 -30.418782 36.545216 -1.171519 2.554149 -0.004465 -0.013480 122337.000000 0 0 1
-7.321444 17.340257 -29.768882 35.220368 -1.171281 2.577769 0.010813 -0.024847 -721549.000000 0 0 1
-8.332944 16.382357 -29.614742 34.854734 -1.100250 2.586140 0.001585 -0.030275 156399.000000 0 0 1
-7.801044 15.266957 -28.910802 33.612062 -1.098407 2.606324 -0.007512 -0.022994 -116753.000000 0 0 1
-8.913744 14.260357 -28.711842 33.274351 -1.012146 2.611741 0.002196 -0.013945 119818.000000 0 0 1
-9.811544 14.498157 -27.622312 32.702523 -0.975849 2.576714 0.009407 -0.021740 142452.000000 0 0 1
-10.955544 13.671357 -27.653352 32.735879 -0.895233 2.576878 0.053533 -0.024928 -376975.000000 0 0 1
-12.001444 14.102857 -26.665082 32.464624 -0.865726 2.534584 0.039026 -0.019014 -353204.000000 0 0 1
-12.616744 15.384657 -27.006022 33.543928 -0.883927 2.506631 0.028888 -0.017923 227375.000000 0 0 1
-13.715244 15.675657 -26.146482 33.428620 -0.852001 2.468919 0.015869 -0.019181 351629.000000 0 0 1
-14.551644 16.879957 -26.678002 34.762034 -0.859339 2.445645 0.003107 -0.020608 90153.800000 0 0 1
-13.969944 18.144157 -26.535152 35.049736 -0.914654 2.429615 0.004973 -0.014999 349300.000000 0 0 1
-14.922644 19.096857 -27.010352 36.289590 -0.907488 2.410283 -0.004282 -0.013856 417574.000000 0 0 1
-14.464044 20.568557 -26.737302 36.703643 -0.957918 2.386874 -0.001378 -0.014946 23975.500000 0 0 1
-15.543244 21.453557 -26.934192 37.779600 -0.943812 2.364463 -0.018542 -0.009243 107801.000000 0 0 1
-15.162844 22.826157 -27.071292 38.520126 -0.984451 2.350098 -0.002731 -0.011759 22316.300000 0 0 1
-14.688144 23.586157 -25.834232 37.940162 -1.013821 2.319815 -0.024723 -0.013152 119713.000000 0 0 1
-14.320344 24.965257 -26.041032 38.813292 -1.050007 2.306260 0.003768 -0.018545 -124987.000000 0 0 1
-13.759744 25.480557 -24.879312 38.178128 -1.075656 2.280572 0.019571 -0.022733 -354305.000000 0 0 1
-13.411544 26.928757 -25.026512 39.132515 -1.108720 2.264686 0.044403 -0.021014 -116872.000000 0 0 1
-14.511244 27.718657 -25.424272 40.314932 -1.088511 2.253176 0.053852 -0.026561 -133519.000000 0 0 1
-14.958244 28.601857 -24.365312 40.441114 -1.088933 2.217412 0.060066 -0.027601 -350167.000000 0 0 1
-16.256744 29.305657 -24.762912 41.668993 -1.064328 2.207162 0.062645 -0.030155 -165887.000000 0 0 1
-17.314644 28.381157 -24.936312 41.558472 -1.023001 2.214334 0.044243 -0.027608 -786293.000000 0 0 1
-18.447444 29.064057 -25.381942 42.769972 -1.005240 2.206138 0.046785 -0.027054 -706032.000000 0 0 1
-19.671644 28.159957 -25.549002 42.810141 -0.961032 2.210301 0.044377 -0.010509 -242562.000000 0 0 1
-20.273744 27.940157 -24.283312 42.206116 -0.943086 2.183829 0.044456 -0.016321 285459.000000 0 0 1
-21.297044 26.926557 -24.251112 42.032368 -0.901610 2.185802 0.045685 -0.028725 318133.000000 0 0 1
-21.767644 26.747357 -22.806212 41.344585 -0.887683 2.155093 0.050630 -0.024029 -400211.000000 0 0 1
-22.685944 27.733657 -22.442512 42.278530 -0.885180 2.130370 0.043871 -0.017274 -375712.000000 0 0 1
-23.083344 27.660057 -21.124512 41.763195 -0.875348 2.101124 0.024017 -0.011358 -176202.000000 0 0 1
-24.362844 28.486957 -20.860612 42.897785 -0.863275 2.078631 0.008914 -0.003642 647681.000000 0 0 1
-25.552324 27.769557 -21.188812 43.278577 -0.826956 2.082417 -0.005889 -0.002123 165290.000000 0 0 1
-26.740104 28.520557 -21.175112 44.461676 -0.817606 2.067187 0.002015 0.000221 -249566.000000 0 0 1
-27.990464 27.690957 -21.389512 44.808106 -0.780019 2.068442 -0.003234 -0.001216 -616579.000000 0 0 1
-28.007374 27.117957 -22.659512 45.091574 -0.769265 2.097310 -0.006380 0.001874 -630605.000000 0 0 1
-29.294034 26.710757 -22.994512 45.829603 -0.739305 2.096405 0.005135 0.000475 -674029.000000 0 0 1
-29.402074 26.407957 -24.473212 46.484408 -0.731801 2.125254 0.003622 0.007510 70565.400000 0 0 1
-28.949614 25.147757 -24.878112 45.710067 -0.715235 2.146302 0.013824 0.005720 -241798.000000 0 0 1
-28.984964 24.960957 -26.285702 46.412451 -0.710943 2.172867 0.036010 -0.001149 14435.700000 0 0 1
-28.981784 23.511157 -26.811522 45.951888 -0.681557 2.193790 0.040877 -0.009647 -423444.000000 0 0 1
-27.809254 22.785157 -26.622062 44.735357 -0.686421 2.208188 0.046906 -0.016969 -637573.000000 0 0 1
-27.953734 21.439357 -27.086652 44.438091 -0.654267 2.226272 0.064030 -0.029051 392034.000000 0 0 1
-26.628934 20.617057 -27.260872 43.328031 -0.658832 2.251286 0.063662 -0.025395 681559.000000 0 0 1
-26.100714 20.154757 -25.987462 41.985827 -0.657553 2.238212 0.070386 -0.024817 111132.000000 0 0 1
-25.566304 18.858157 -26.083882 41.105168 -0.635529 2.258241 0.038458 -0.035020 306922.000000 0 0 1
-26.609134 17.692857 -25.814102 41.078596 -0.586790 2.250301 0.049281 -0.023136 586879.000000 0 0 1
-27.719684 17.752857 -26.691192 42.378821 -0.569627 2.252123 0.052183 -0.027393 238359.000000 0 0 1
-28.445624 16.527457 -26.564582 42.284599 -0.526346 2.250076 0.037572 -0.024996 -88711.000000 0 0 1
-29.290784 16.052157 -27.773392 43.439418 -0.501328 2.264461 0.030228 -0.023677 64764.200000 0 0 1
-30.508634 16.756257 -27.926062 44.625260 -0.502252 2.246941 0.027675 -0.026484 -128810.000000 0 0 1
-31.210604 16.065357 -28.926412 45.485545 -0.475370 2.260032 0.026267 -0.016389 -54296.600000 0 0 1
-32.499864 16.720657 -29.473742 46.952348 -0.475167 2.249439 0.020073 -0.015352 645439.000000 0 0 1
-33.642614 16.551457 -28.648462 47.185915 -0.457210 2.223253 0.019536 -0.013328 -62761.400000 0 0 1
-34.887355 16.738457 -29.239472 48.500002 -0.447346 2.217897 0.021296 -0.017174 430275.000000 0 0 1
-36.131864 16.335257 -28.375032 48.759559 -0.424600 2.191906 0.017651 -0.015966 530226.000000 0 0 1
35.948898 17.279057 -27.412022 48.397397 0.448053 2.172921 0.017647 -0.019711 -120636.000000 0 0 1
34.802188 16.865057 -26.706982 46.998780 0.451250 2.175172 0.031072 -0.022203 -102874.000000 0 0 1
34.418348 17.909457 -25.619012 46.494140 0.479792 2.154377 0.041827 -0.017315 -136923.000000 0 0 1
33.766478 19.010057 -26.236372 46.796416 0.512759 2.165966 0.041705 -0.027078 115019.000000 0 0 1
33.335878 19.853757 -25.195002 46.262734 0.537154 2.146717 0.053620 -0.022182 -539093.000000 0 0 1
32.690388 21.197657 -25.670562 46.658117 0.575276 2.153381 0.052756 -0.027427 -51298.900000 0 0 1
31.374808 21.199457 -26.152602 46.019063 0.594219 2.175234 0.050939 -0.028551 -462200.000000 0 0 1
30.407858 21.267057 -25.120012 44.810049 0.610319 2.165893 0.076595 -0.019986 -608575.000000 0 0 1
28.996308 21.233157 -25.713132 44.190474 0.632058 2.191823 0.041991 -0.024315 -298796.000000 0 0 1
28.528838 19.938857 -25.980702 43.433276 0.609989 2.212018 0.052541 -0.033857 -1045290.000000 0 0 1
27.434648 19.935857 -26.806962 43.228596 0.628400 2.239693 0.051076 -0.032822 -824169.000000 0 0 1
26.838728 18.481157 -26.985462 42.309404 0.603034 2.262451 0.067951 -0.027069 311966.000000 0 0 1
27.595618 17.493957 -27.755482 42.871009 0.565002 2.274989 0.062292 -0.034990 248887.000000 0 0 1
28.659558 16.932657 -27.026972 42.878227 0.533643 2.252761 0.064400 -0.028735 -512864.000000 0 0 1
29.501248 15.856657 -27.701442 43.464090 0.493189 2.261839 0.051612 -0.022010 -391173.000000 0 0 1
28.922438 14.645957 -28.158842 42.941028 0.468744 2.285980 0.069299 -0.023690 -180445.000000 0 0 1
28.141948 13.895557 -27.247042 41.562688 0.458649 2.285727 0.077633 -0.026844 -153877.000000 0 0 1
28.873998 13.084057 -26.158362 41.099394 0.425465 2.260704 0.072961 -0.017289 -124978.000000 0 0 1
29.457698 13.799157 -25.073312 41.071202 0.438082 2.227468 0.067945 -0.023088 428269.000000 0 0 1
30.416758 13.116257 -24.276812 41.067980 0.407126 2.203264 0.055902 -0.015953 257385.000000 0 0 1
-14.253644 -31.418963 -23.867512 41.952065 1.144900 2.175992 0.106959 -0.000708 21521.600000 0 0 1
-13.670244 -30.247163 -24.394712 41.193063 1.146321 2.204588 0.091932 -0.016609 123690.000000 0 0 1
-14.052844 -30.065563 -25.731122 41.994180 1.133562 2.230308 0.067069 -0.002248 309313.000000 0 0 1
-13.315844 -28.793263 -26.374942 41.255318 1.137626 2.264397 0.065913 -0.009055 60355.400000 0 0 1
-13.883444 -27.569563 -25.975482 40.342985 1.104290 2.270337 0.073190 -0.009863 156901.000000 0 0 1
-13.200144 -26.495663 -26.582522 39.785606 1.108590 2.302508 0.064566 -0.014991 -167413.000000 0 0 1
-13.683044 -25.103063 -26.123132 38.727348 1.071742 2.311137 0.048831 -0.016853 -184758.000000 0 0 1
-13.215244 -24.723963 -24.870412 37.476051 1.079922 2.296464 0.067915 -0.023734 128021.000000 0 0 1
-13.612044 -23.419163 -24.512312 36.532155 1.044289 2.306325 0.067085 -0.018399 -101731.000000 0 0 1
-13.099744 -23.092163 -23.067312 35.170331 1.054782 2.286136 0.077201 -0.010916 1300590.000000 0 0 1
-11.682944 -22.795163 -23.076212 34.476400 1.097184 2.304108 0.088688 -0.017472 1091470.000000 0 0 1
-11.207744 -22.046963 -21.963212 33.076650 1.100485 2.296965 0.078605 -0.010605 89762.000000 0 0 1
-9.719544 -21.679663 -21.873812 32.294597 1.149336 2.314911 0.068111 -0.008498 -77829.100000 0 0 1
-9.174044 -20.870263 -22.905312 32.316935 1.156646 2.358551 0.071462 -0.010600 661896.000000 0 0 1
-7.750144 -20.842863 -22.770012 31.827081 1.214802 2.368034 0.070290 -0.005575 845434.000000 0 0 1
-6.995344 -19.764763 -23.622212 31.584642 1.230625 2.415692 0.054392 -0.002012 179589.000000 0 0 1
-6.894044 -18.530863 -22.959412 30.299428 1.214632 2.430655 0.064583 -0.004978 60442.300000 0 0 1
-7.521544 -17.452263 -23.668912 30.354118 1.163873 2.465078 0.048566 -0.014388 -22463.000000 0 0 1
-6.718244 -16.581963 -24.660112 30.466661 1.185855 2.513948 0.056705 -0.011147 -94859.300000 0 0 1
-6.468544 -17.170063 -25.925362 31.761258 1.210506 2.525699 0.076557 -0.018069 -93435.600000 0 0 1
-5.614144 -16.477163 -26.782372 31.942307 1.242410 2.565249 0.051445 -0.019395 -372317.000000 0 0 1
-5.383744 -17.281463 -28.092022 33.418488 1.268793 2.569211 0.057844 -0.013591 32456.100000 0 0 1
-6.419944 -17.185763 -29.055292 34.362423 1.213287 2.578399 0.087169 -0.018693 335176.000000 0 0 1
-6.028544 -18.060563 -30.089102 35.607321 1.248629 2.577410 0.086863 -0.023465 833090.000000 0 0 1
-7.006144 -17.724363 -31.293502 36.640447 1.194363 2.594556 0.098445 -0.023631 683240.000000 0 0 1
-6.734644 -16.582363 -32.046342 36.705561 1.185014 2.632250 0.089563 -0.025527 -283592.000000 0 0 1
-6.663444 -15.288163 -31.424272 35.575473 1.159766 2.653679 0.071146 -0.023423 17057.600000 0 0 1
-7.211944 -14.189263 -32.391482 36.090932 1.100556 2.684856 0.076547 -0.024937 -171569.000000 0 0 1
-6.390844 -13.847863 -33.480592 36.790708 1.138417 2.714149 0.075202 -0.032196 -355133.000000 0 0 1
-6.970744 -13.018563 33.974818 37.045412 1.079195 0.410020 0.080187 -0.026195 -264580.000000 0 0 1
-7.295544 -11.533763 -34.133657 36.760837 1.006795 2.761238 0.061071 -0.021562 1261420.000000 0 0 1
-6.165344 -10.596863 -34.080562 36.218637 1.043860 2.796274 0.051694 -0.020299 742990.000000 0 0 1
-5.787844 -10.185463 33.079775 35.092938 1.054053 0.340363 0.042435 -0.027238 357742.000000 0 0 1
-4.646544 -9.113363 33.124472 34.668060 1.099291 0.299530 0.032144 -0.023971 232245.000000 0 0 1
-4.430644 -8.714763 31.794090 33.263221 1.100446 0.298315 0.028699 -0.018838 -26848.900000 0 0 1
-3.399044 -7.740363 31.752170 32.858287 1.157017 0.260207 0.011467 -0.021023 -697436.000000 0 0 1
-3.686844 -6.699963 30.676390 31.615237 1.067740 0.244312 0.005857 -0.019384 -478179.000000 0 0 1
-4.794044 -5.877463 30.822320 31.741816 0.886576 0.241284 0.010195 -0.017454 -89844.500000 0 0 1
-6.019744 -6.489663 30.413260 31.675218 0.822946 0.283224 0.009018 -0.017904 -453468.000000 0 0 1
-7.247344 -5.612163 30.390600 31.742857 0.658920 0.292938 0.007577 -0.018627 -673675.000000 0 0 1
-8.399444 -6.266063 29.946860 31.727412 0.640942 0.336610 0.017716 -0.013766 -1185210.000000 0 0 1
-9.418944 -5.354663 29.762730 31.673475 0.516935 0.349121 0.022057 -0.015113 -878925.000000 0 0 1
-10.525044 -5.887163 28.871990 31.289408 0.509992 0.395666 0.039277 -0.014501 -644124.000000 0 0 1
-10.171344 -5.954563 27.545320 29.960937 0.529634 0.404309 0.034019 -0.015358 487162.000000 0 0 1
-11.183844 -6.513063 26.696980 29.668622 0.527351 0.451396 0.042236 -0.018191 234608.000000 0 0 1
-10.890844 -6.227563 25.247600 28.192807 0.519438 0.461168 0.040193 -0.018168 243806.000000 0 0 1
-9.798044 -6.991963 24.739670 27.512552 0.619801 0.452827 0.031108 -0.015573 188117.000000 0 0 1
-9.412644 -6.717163 23.417910 26.117363 0.619816 0.458672 0.030779 -0.026264 -444461.000000 0 0 1
-10.337144 -6.976363 22.193880 25.457700 0.593669 0.511943 0.048462 -0.031817 186259.000000 0 0 1
-11.432944 -6.052363 22.180480 25.677169 0.486874 0.527991 0.047376 -0.024176 -79934.800000 0 0 1
-12.244244 -6.235163 21.054180 25.141147 0.471006 0.578216 0.052832 -0.025360 -920866.000000 0 0 1
-13.338444 -5.209663 21.086480 25.489102 0.372355 0.596558 0.047821 -0.013594 -816704.000000 0 0 1
-12.984744 -3.873863 20.656780 24.704513 0.289933 0.580563 0.041187 -0.011374 159486.000000 0 1 0
-14.104044 -3.004563 20.516380 25.077347 0.209891 0.612655 0.045734 -0.007227 354916.000000 0 0 1
-13.748144 -1.513563 20.131680 24.425128 0.109651 0.601973 0.034952 0.001108 -435361.000000 0 1 0
-12.646644 -1.014563 20.822680 24.383415 0.080052 0.547230 0.031624 -0.004506 -269553.000000 0 1 0
-12.531944 0.398437 20.675680 24.180408 -0.031783 0.545131 0.023664 -0.001207 -433191.000000 0 1 0
-12.245044 1.077437 19.292180 22.875537 -0.087764 0.567301 0.024414 -0.011381 -334296.000000 0 1 0
-13.170544 0.949437 18.241780 22.519485 -0.071963 0.626569 0.037029 -0.003306 658586.000000 0 1 0
-14.488344 1.498437 18.441580 23.499985 -0.103057 0.668506 0.038204 0.001693 800707.000000 0 1 0
-15.576044 1.015437 17.459680 23.419750 -0.065100 0.729495 0.055128 0.003926 2136.720000 0 1 0
-15.769044 -0.350563 17.726380 23.727836 0.022227 0.727151 0.037610 0.004156 162509.000000 0 1 0
-16.785444 -0.959563 16.961080 23.882004 0.057104 0.781009 0.043967 0.009069 -158421.000000 0 1 0
-16.933444 -2.433563 17.157180 24.228755 0.142736 0.783946 0.044624 0.005548 76972.500000 0 1 0
-17.369844 -2.808563 18.510680 25.539083 0.160305 0.760055 0.044855 0.007185 212883.000000 0 0 1
-17.321244 -4.224263 18.698080 25.835791 0.239208 0.761607 0.049650 -0.003842 -254430.000000 0 0 1
-18.195644 -4.765863 19.832780 27.333753 0.256169 0.758922 0.042823 -0.001352 -748694.000000 0 0 1
-17.785944 -4.434763 21.153580 27.990728 0.244358 0.714020 0.056675 -0.000318 -270843.000000 0 0 1
-18.753944 -4.467463 22.167180 29.377755 0.233856 0.715818 0.057208 -0.007595 -515661.000000 0 0 1
-19.114044 -5.895963 22.767580 30.306299 0.299202 0.720844 0.047140 -0.007785 388841.000000 0 0 1
-18.020044 -6.573563 23.390050 30.249432 0.349791 0.686863 0.073268 -0.014972 1283200.000000 0 0 1
-16.996344 -7.113463 22.485080 29.069845 0.396377 0.686476 0.045352 -0.008994 526075.000000 0 0 1
-15.763744 -7.580663 23.290680 29.127613 0.448245 0.644154 0.044891 -0.014596 -273722.000000 0 0 1
-15.960644 -8.692863 24.126050 30.205535 0.498722 0.645616 0.052818 -0.018829 -31422.000000 0 0 1
-14.899044 -8.916363 25.028270 30.461408 0.539281 0.606516 0.062411 -0.015580 99314.200000 0 0 1
-15.248844 -9.878063 26.160170 31.850555 0.574821 0.607038 0.043371 -0.011462 -78323.900000 0 0 1
-15.217244 -11.260963 25.843020 32.034911 0.637079 0.632226 0.036720 -0.012181 131660.000000 0 0 1
-14.499944 -11.947263 26.869930 32.786867 0.689176 0.610200 0.043577 -0.007686 -45989.000000 0 0 1
-14.711044 -13.464663 26.831850 33.431425 0.741191 0.639166 0.026645 -0.009361 427960.000000 0 0 1
-15.982444 -13.998463 27.221420 34.531163 0.719320 0.662731 0.023895 -0.009486 377270.000000 0 0 1
-16.163744 -15.389263 27.118090 35.121032 0.760858 0.688606 0.032236 -0.002207 409976.000000 0 0 1
-15.233844 -16.417563 27.934900 35.804539 0.822779 0.675802 0.033897 -0.002891 1124950.000000 0 0 1
-14.049844 -16.761163 27.200280 34.902578 0.873170 0.677216 0.035585 -0.004993 -102732.000000 0 0 1
-13.104644 -17.374463 27.981930 35.448443 0.924582 0.661015 0.035240 0.000883 -660389.000000 0 0 1
-11.838944 -17.732463 27.180830 34.545598 0.982119 0.665173 0.037982 -0.004551 -562019.000000 0 0 1
-10.813844 -18.194063 27.992290 35.093183 1.034533 0.647398 0.044806 -0.006241 -233500.000000 0 0 1
-9.884444 -18.959663 27.216670 34.610955 1.090222 0.665902 0.035773 -0.009323 508739.000000 0 0 1
-8.760444 -19.586963 28.113890 35.366444 1.150224 0.651902 0.061462 -0.010553 353540.000000 0 0 1
-9.224644 -20.628663 28.930870 36.710095 1.150293 0.663096 0.050135 -0.007142 -286617.000000 0 0 1
-8.153944 -21.117363 29.675080 37.323454 1.202308 0.651659 0.059474 -0.012423 -268442.000000 0 0 1
-8.388744 -22.447463 30.478780 38.771325 1.213161 0.666296 0.044352 -0.011822 -58682.900000 0 0 1
-8.537544 -23.523063 29.596530 38.757951 1.222637 0.701888 0.051010 -0.013734 146428.000000 0 0 1
-8.528444 -24.798963 30.237720 40.025525 1.239563 0.714439 0.037118 -0.018078 -365952.000000 0 0 1
-8.604744 -25.938563 29.169190 39.971144 1.250484 0.752831 0.039608 -0.019203 -324850.000000 0 0 1
-9.878544 -26.154463 28.607930 40.000691 1.209661 0.773906 0.040120 -0.021428 33290.200000 0 0 1
-9.802444 -27.287363 27.718610 40.112460 1.225922 0.807894 0.046162 -0.022958 401464.000000 0 0 1
-11.145944 -27.592763 26.951770 40.149602 1.186894 0.834857 0.040290 -0.020444 505688.000000 0 0 1
-11.318844 -27.037263 25.637350 38.941027 1.174326 0.852154 0.050875 -0.023627 126852.000000 0 0 1
-11.597944 -25.657963 25.654880 38.092207 1.146263 0.831871 0.038772 -0.012356 -484167.000000 0 0 1
-11.907644 -25.160963 24.207710 36.890097 1.128770 0.855009 0.042204 -0.025890 677349.000000 0 0 1
-13.254044 -25.316063 23.718210 37.136589 1.088492 0.878021 0.029079 -0.019119 976398.000000 0 0 1
-13.402344 -24.719563 22.472080 35.995472 1.073980 0.896557 0.035078 -0.022570 278507.000000 0 0 1
-14.787144 -24.861063 21.771880 36.204238 1.034216 0.925591 0.027897 -0.024748 134033.000000 0 0 1
-14.969744 -26.097563 21.072880 36.732034 1.050010 0.959790 0.040660 -0.021946 253135.000000 0 0 1
-16.127344 -26.053663 20.249680 36.727839 1.016520 0.986822 0.038097 -0.023120 293618.000000 0 0 1
-16.540844 -27.467663 19.808980 37.689093 1.028766 1.017389 0.035524 -0.022513 -413491.000000 0 0 1
-15.655244 -27.833563 18.842080 37.078537 1.058438 1.037741 0.025993 -0.023168 -528823.000000 0 0 1
-15.604844 -29.231463 18.570580 37.984945 1.080447 1.059976 0.043325 -0.009009 311131.000000 0 0 1
-14.565344 -29.493663 17.437780 37.230385 1.112084 1.083346 0.042504 -0.012922 370351.000000 0 0 1
-14.953344 -28.915663 16.214780 36.368079 1.093534 1.108670 0.035789 -0.011762 -474918.000000 0 0 1
-13.904844 -29.144863 15.329380 35.745736 1.125641 1.127582 0.044537 -0.010153 -309646.000000 0 0 1
-14.145944 -28.696463 13.887280 34.877662 1.112804 1.161274 0.030756 -0.008221 -133525.000000 0 0 1
-14.327144 -27.296063 13.970480 33.845479 1.087444 1.145301 0.036581 -0.004763 -129565.000000 0 0 1
-14.650144 -26.639063 12.771180 32.975285 1.067992 1.173100 0.050431 -0.010120 168105.000000 0 0 1
-13.593044 -26.676963 11.597780 32.108250 1.099544 1.201233 0.038205 -0.002625 304304.000000 0 0 1
-13.996044 -26.065763 10.374680 31.351990 1.078027 1.233529 0.037802 -0.004365 -155685.000000 0 0 1
-13.202344 -26.459063 9.261780 30.986521 1.107971 1.267260 0.045850 -0.004908 25845.000000 0 0 1
-13.484944 -25.712363 7.930280 30.097486 1.087778 1.304162 0.053432 -0.009325 -32645.100000 0 0 1
-14.597044 -26.251163 7.259380 30.901389 1.063318 1.333659 0.044146 -0.010935 -334684.000000 0 0 1
-15.061644 -25.387463 6.285180 30.180787 1.035339 1.361010 0.050485 -0.013106 -240250.000000 0 0 1
-15.937844 -26.060863 5.246580 30.995323 1.021918 1.400707 0.050229 -0.011526 -46933.700000 0 0 1
-15.210844 -27.065463 4.588580 31.384138 1.058785 1.424063 0.067601 -0.021027 31141.200000 0 0 1
-15.839644 -27.375463 3.357580 31.805403 1.046255 1.465033 0.074063 -0.018966 -328731.000000 0 0 1
-15.188044 -28.612763 2.684380 32.504966 1.082803 1.488118 0.068994 -0.010976 -359420.000000 0 0 1
-13.890044 -28.573463 2.169280 31.844653 1.118317 1.502623 0.051812 -0.005106 -477600.000000 0 0 1
-13.667244 -29.689763 1.388580 32.713969 1.139381 1.528337 0.044102 -0.006685 -298185.000000 0 0 1
-12.238844 -29.801563 0.811580 32.227025 1.181119 1.545610 0.024310 -0.004540 57912.400000 0 0 1
-11.949844 -29.163663 -0.420120 31.519748 1.181912 1.584126 0.032009 0.001501 -10362.000000 0 0 1
-12.063144 -27.761963 -0.435920 30.272695 1.160889 1.585197 0.026208 -0.002435 -463676.000000 0 0 1
-11.735344 -27.054763 -1.772520 29.543533 1.161527 1.630829 0.029550 0.006892 518698.000000 0 0 1
-10.389544 -27.290763 -2.184220 29.283087 1.207039 1.645455 0.025842 0.007453 237661.000000 0 0 1
-10.051344 -26.531163 -3.300720 28.562684 1.208654 1.686616 0.038007 0.003915 421154.000000 0 0 1
-8.659944 -26.734563 -3.959120 28.379678 1.257539 1.710758 0.029212 0.005984 245784.000000 0 0 1
-8.229244 -25.715463 -4.787120 27.421197 1.261083 1.746273 0.039744 0.000182 427276.000000 0 0 1
-7.037844 -26.140463 -5.481520 27.620683 1.307801 1.770580 0.040711 0.006492 705802.000000 0 0 1
-6.256644 -25.096363 -6.271120 26.613906 1.326472 1.808666 0.039076 0.007076 -595182.000000 0 0 1
-6.807344 -24.670363 -7.469220 26.660007 1.301564 1.854763 0.041360 -0.003256 -39583.800000 0 0 1
-5.989544 -23.713663 -8.162420 25.784444 1.323393 1.892901 0.023211 0.003664 -102190.000000 0 0 1
-6.199944 -23.513963 -9.672920 26.170807 1.312993 1.949383 0.042725 -0.002091 -89851.900000 0 0 1
-5.562044 -24.590163 -10.336720 27.248124 1.348350 1.959896 0.023036 -0.003505 159022.000000 0 0 1
-5.695444 -24.563463 -11.732520 27.811038 1.342956 2.006298 0.018781 -0.005739 329276.000000 0 0 1
-7.053744 -25.244563 -12.122920 28.879205 1.298329 2.004000 0.023388 -0.007198 509203.000000 0 0 1
-7.342344 -25.304163 -13.484420 29.597977 1.288388 2.043827 0.034608 -0.007546 931915.000000 0 0 1
-8.423644 -26.236563 -13.801520 30.818776 1.260128 2.035131 0.045157 -0.009290 478369.000000 0 0 1
-8.724244 -26.186963 -15.315320 31.566256 1.249209 2.077365 0.045904 -0.013136 -78193.400000 0 0 1
-7.749344 -26.826663 -16.100220 32.232581 1.289584 2.093819 0.039032 -0.016593 -447831.000000 0 0 1
-6.580144 -26.124663 -16.351520 31.514576 1.324054 2.116308 0.037394 -0.011535 -981972.000000 0 0 1
-5.454344 -27.013163 -16.870320 32.312050 1.371561 2.120115 0.032262 -0.009926 -623673.000000 0 0 1
-5.574444 -27.153963 -18.241720 33.183919 1.368319 2.152820 0.058930 -0.011420 -230380.000000 0 0 1
-4.535544 -27.836763 -18.861320 33.929426 1.409282 2.160240 0.051156 -0.013808 -652124.000000 0 0 1
-25.385654 13.874157 -4.925912 29.346009 -0.500179 1.739451 0.076207 -0.036073 -118814.000000 0 0 1
-25.312344 12.518157 -4.507412 28.596079 -0.459276 1.729080 0.073397 -0.021187 706422.000000 0 0 1
-24.066944 11.961257 -4.932112 27.324260 -0.461244 1.752294 0.086150 -0.017464 17654.900000 0 0 1
-23.985144 10.465757 -4.614112 26.572716 -0.411439 1.745322 0.089325 -0.027994 68933.100000 0 0 1
-24.531544 9.559457 -5.632512 26.924061 -0.371578 1.781553 0.082130 -0.043660 359185.000000 0 0 1
-25.934724 9.601757 -5.790112 28.254717 -0.354580 1.777184 0.084231 -0.043482 -417251.000000 0 0 1
-26.358494 9.174157 -7.172412 28.816295 -0.334939 1.822342 0.098299 -0.035880 -330816.000000 0 0 1
-26.013624 10.236857 -8.078212 29.099130 -0.374907 1.852102 0.118403 -0.018979 171132.000000 0 0 1
-26.041704 9.671857 -9.388612 29.323390 -0.355610 1.896710 0.112237 -0.026199 -328218.000000 0 0 1
-26.483644 10.610057 -10.557512 30.420680 -0.381047 1.925221 0.094795 -0.024883 -132941.000000 0 0 1
-25.558434 11.643657 -10.775712 30.081959 -0.427476 1.937148 0.092440 -0.018714 35573.300000 0 0 1
-25.789224 12.361957 -11.981512 31.007397 -0.446988 1.967530 0.090238 -0.019871 -454723.000000 0 0 1
-24.773144 13.450757 -12.315212 30.761924 -0.497420 1.982684 0.072222 -0.019073 -476241.000000 0 0 1
-24.830344 14.692057 -11.595212 31.094235 -0.534292 1.952935 0.066774 -0.009725 -27044.900000 0 0 1
-24.277544 15.719357 -12.391012 31.464813 -0.574605 1.975564 0.050742 -0.008442 -44388.000000 0 0 1
-24.120144 17.007457 -11.561312 31.696985 -0.614150 1.944155 0.047754 -0.010593 60706.300000 0 0 1
-23.089444 17.007857 -10.594212 30.571669 -0.634875 1.924673 0.040523 -0.003725 72915.800000 0 0 1
-23.144944 18.330557 -10.026212 31.180485 -0.669837 1.898167 0.014261 -0.000407 -518313.000000 0 0 1
-22.139144 18.622957 -8.941012 30.280322 -0.699350 1.870539 0.020802 -0.000383 -555870.000000 0 0 1
-22.360744 17.946357 -7.716512 29.692072 -0.676314 1.833699 0.040194 -0.006053 421459.000000 0 0 1
-23.424244 18.594257 -7.012512 30.718348 -0.670951 1.801111 0.051639 -0.016374 6331.340000 0 0 1
-23.587744 17.987757 -5.617812 30.191072 -0.651510 1.757962 0.053458 -0.013655 120677.000000 0 0 1
-22.529844 18.207557 -4.695612 29.345489 -0.679692 1.731498 0.060716 -0.017919 41229.700000 0 0 1
-22.737844 17.540757 -3.493512 28.929091 -0.657079 1.691853 0.053314 -0.016442 -1070960.000000 0 0 1
-21.515644 17.464757 -2.640512 27.837258 -0.681849 1.665794 0.065190 -0.024297 -1259550.000000 0 0 1
-21.192144 18.682257 -2.049212 28.325482 -0.722536 1.643205 0.072510 -0.030836 -83891.200000 0 0 1
-20.134244 18.524357 -1.142512 27.383296 -0.743779 1.612531 0.106781 -0.032575 -257315.000000 0 0 1
-19.740144 19.877657 -0.553112 28.019644 -0.788869 1.590538 0.101466 -0.047070 112092.000000 0 0 1
-20.710744 20.317957 0.385888 29.015568 -0.775825 1.557497 0.079297 -0.036973 415442.000000 0 0 1
-20.523944 21.684957 0.718888 29.866142 -0.812898 1.546724 0.084405 -0.030539 -21200.400000 0 0 1
-21.503344 22.014757 1.839988 30.829026 -0.797149 1.511077 0.044947 -0.034273 -136549.000000 0 0 1
-21.092144 21.559757 3.120588 30.322264 -0.796361 1.467700 0.080516 -0.029134 191841.000000 0 0 1
-22.070644 21.876357 4.075888 31.341684 -0.780977 1.440380 0.049019 -0.019499 -321238.000000 0 0 1
-21.758644 21.308157 5.433588 30.935417 -0.774938 1.394237 0.056309 -0.015896 -808943.000000 0 0 1
-20.913344 22.218657 6.026788 31.102393 -0.815652 1.375790 0.046925 -0.002382 -65820.400000 0 0 1
-20.031344 21.613757 6.973188 30.282579 -0.823377 1.338441 0.046629 -0.013275 144250.000000 0 0 1
-20.627244 21.415257 8.423488 30.903908 -0.804139 1.294733 0.052107 -0.037836 -389123.000000 0 0 1
-21.703644 20.501357 8.426988 31.022055 -0.756919 1.295694 0.048867 -0.034487 718134.000000 0 0 1
-22.327644 20.134857 9.679188 31.585168 -0.733803 1.259338 0.055629 -0.031562 406561.000000 0 0 1
-22.942244 21.235857 10.588188 33.006331 -0.746792 1.244230 0.061427 -0.033279 -501727.000000 0 0 1
-24.112044 21.895057 10.141788 34.112168 -0.737247 1.268925 0.067960 -0.028556 416253.000000 0 0 1
-24.687944 22.604757 11.228388 35.306463 -0.741378 1.247149 0.076265 -0.025809 164305.000000 0 0 1
-26.055644 23.289357 10.928488 36.615879 -0.729397 1.267714 0.080937 -0.024425 378547.000000 0 0 1
-26.513074 23.864257 12.182288 37.694217 -0.732867 1.241701 0.075736 -0.023247 -24157.000000 0 0 1
-27.104394 25.118057 12.100688 38.884336 -0.747380 1.254344 0.068063 -0.019556 404259.000000 0 0 1
-27.808274 25.526857 13.500088 40.089561 -0.742649 1.227335 0.056485 -0.012443 223649.000000 0 0 1
-26.828654 25.752957 14.466888 39.903412 -0.764943 1.199796 0.045222 -0.009246 -154173.000000 0 0 1
-27.340694 26.289557 15.641888 41.028319 -0.765801 1.179652 0.023651 -0.005684 -104444.000000 0 0 1
-26.304844 26.305557 16.773788 40.807929 -0.785412 1.147199 0.017556 -0.007017 45355.300000 0 0 1
-25.756624 25.048057 17.146888 39.809855 -0.771452 1.125506 0.038560 -0.013546 257758.000000 0 0 1
-24.683844 25.199557 18.056288 39.627507 -0.795736 1.097694 0.045041 -0.008023 -31673.700000 0 0 1
-24.153944 23.824457 18.536388 38.660256 -0.778531 1.070747 0.060418 -0.010090 -559864.000000 0 0 1
-22.992944 23.914657 19.306388 38.383889 -0.805045 1.043751 0.068617 -0.011056 -166244.000000 0 0 1
-22.582944 22.660357 19.723188 37.583045 -0.787109 1.018328 0.081311 -0.016535 -374812.000000 0 0 1
-21.170344 22.662757 20.334188 37.084541 -0.819433 0.990443 0.081819 -0.018819 -427409.000000 0 0 1
-20.191944 22.829857 19.329088 36.090589 -0.846637 1.005612 0.059660 -0.019082 1191890.000000 0 0 1
-18.819944 22.485557 19.657388 35.301607 -0.873910 0.980218 0.055771 -0.018147 1432790.000000 0 0 1
-18.464044 21.025957 19.637588 34.185474 -0.850182 0.958873 0.051348 -0.008259 -614283.000000 0 0 1
-18.911344 20.225657 20.727688 34.588339 -0.818968 0.928210 0.068207 -0.011283 -89853.300000 0 0 1
-18.217444 20.485257 21.918488 35.099019 -0.843927 0.896336 0.083327 -0.018864 -329071.000000 0 0 1
-18.996344 20.065257 23.148488 36.046194 -0.812756 0.873445 0.086354 -0.015213 -478952.000000 0 0 1
-20.118244 20.842957 23.422088 37.252742 -0.803089 0.890871 0.074059 -0.005882 -648385.000000 0 0 1
-20.706744 20.649057 24.641288 38.240631 -0.784003 0.870591 0.089313 -0.014136 -595556.000000 0 0 1
-21.866844 21.611357 24.823788 39.514935 -0.779522 0.891542 0.081943 -0.019520 -974471.000000 0 0 1
-21.502644 22.906157 25.138788 40.236978 -0.816992 0.895962 0.086320 -0.021894 438832.000000 0 0 1
-22.558044 23.876357 25.330588 41.479928 -0.813781 0.913889 0.076624 -0.031246 264127.000000 0 0 1
-23.395044 24.306957 24.107288 41.464654 -0.804513 0.950356 0.052923 -0.021026 -436178.000000 0 0 1
-24.488644 23.490757 23.839288 41.470725 -0.764603 0.958380 0.050455 -0.025869 -205112.000000 0 0 1
-25.179864 24.041957 22.711588 41.567505 -0.762284 0.992762 0.041320 -0.008011 154515.000000 0 0 1
-26.227464 23.129357 22.058388 41.345127 -0.722711 1.008041 0.045834 -0.012958 -281350.000000 0 0 1
-27.508164 23.080557 22.625688 42.442113 -0.698099 1.008542 0.045133 -0.022367 -447251.000000 0 0 1
-28.320174 22.337457 21.766688 42.128173 -0.667842 1.027830 0.041265 -0.024584 111416.000000 0 0 1
-29.831364 22.390057 22.115688 43.362756 -0.643856 1.035593 0.049381 -0.022199 -438899.000000 0 0 1
-30.447954 23.644957 21.884088 44.329169 -0.660290 1.054489 0.043025 -0.019377 -459603.000000 0 0 1
-31.818064 23.810657 22.059788 45.452952 -0.642436 1.064053 0.036344 -0.014173 -431787.000000 0 0 1
-32.743574 23.090857 21.078088 45.272675 -0.614209 1.086506 0.041510 -0.015241 -1295820.000000 0 0 1
-32.618174 21.632757 21.074888 44.453035 -0.585607 1.076862 0.036077 -0.014251 17581.800000 0 0 1
-33.261344 20.964457 20.019188 44.120215 -0.562398 1.099836 0.034644 -0.013654 -766766.000000 0 0 1
-34.765974 20.797857 20.192088 45.265265 -0.539113 1.108412 0.024061 -0.000685 -709227.000000 0 0 1
-35.164615 19.933057 19.122288 44.716203 -0.515688 1.128920 0.033322 -0.004394 281122.000000 0 0 1
35.865678 19.775957 19.097288 45.190063 0.503909 1.134485 0.052861 -0.003592 359629.000000 0 0 1
35.290718 18.897057 17.954288 43.873569 0.491618 1.149189 0.057522 -0.008786 -238044.000000 0 0 1
35.303398 17.471657 18.211688 43.396478 0.459559 1.137728 0.062179 -0.014473 224635.000000 0 0 1
34.691068 16.709057 17.177188 42.163000 0.448863 1.151192 0.073277 -0.025058 85728.500000 0 0 1
34.844718 15.217057 17.381188 41.806924 0.411748 1.142030 0.072667 -0.027980 -101937.000000 0 0 1
34.279138 14.486257 16.349088 40.647308 0.399833 1.156858 0.082084 -0.037813 -125607.000000 0 0 1
34.677518 13.097857 16.353788 40.515806 0.361140 1.155305 0.083978 -0.040744 223808.000000 0 0 1
33.767148 12.292157 15.364588 39.081812 0.349116 1.166753 0.084408 -0.044172 78351.400000 0 0 1
33.844438 12.678457 13.976488 38.749600 0.358428 1.201792 0.093563 -0.041461 163924.000000 0 0 1
33.051238 11.908157 13.109388 37.497261 0.345816 1.213642 0.091886 -0.037312 -316449.000000 0 0 1
33.136478 12.576557 11.694888 37.322465 0.362743 1.252081 0.106519 -0.029655 72237.600000 0 0 1
34.322928 12.311257 10.961188 38.075952 0.344394 1.278787 0.097425 -0.020512 317992.000000 0 0 1
34.280308 12.657957 9.616488 37.786774 0.353719 1.313472 0.088418 -0.009032 -1173460.000000 0 0 1
35.640018 12.506457 9.003288 38.828875 0.337486 1.336796 0.075513 -0.002211 -1151190.000000 0 0 1
36.067888 11.165257 8.976788 38.808997 0.300206 1.337376 0.093109 -0.010592 -454706.000000 0 0 1
-35.067998 10.980257 8.530388 37.723972 -0.303444 1.342697 0.105763 -0.009980 -264052.000000 0 0 1
-34.815111 11.017957 6.993088 37.180514 -0.306498 1.381585 0.108051 -0.017113 -372334.000000 0 0 1
-34.976732 12.242657 6.405688 37.607010 -0.336695 1.399629 0.110137 -0.023161 -101241.000000 0 0 1
-34.719814 12.134957 4.971888 37.113910 -0.336239 1.436429 0.105145 -0.032580 15677.800000 0 0 1
-35.707778 12.951257 4.107388 38.205380 -0.347945 1.463080 0.102208 -0.033626 -428108.000000 0 0 1
35.442028 12.391757 4.094688 37.768499 0.336349 1.462167 0.098457 -0.028069 -343799.000000 0 0 1
34.445268 13.382657 4.104288 37.180871 0.370570 1.460184 0.095063 -0.031765 -110122.000000 0 0 1
34.069428 13.932957 5.494488 37.216161 0.388205 1.422617 0.079455 -0.009005 -1209820.000000 0 0 1
33.500598 15.191357 5.322688 37.167169 0.425732 1.427093 0.058162 -0.000026 -41779.400000 0 0 1
33.157048 15.879557 6.545688 37.341615 0.446641 1.394594 0.040818 0.009711 193233.000000 0 0 1
31.864098 15.420357 7.276188 36.139329 0.450718 1.368074 0.055003 0.009038 -62613.100000 0 0 1
31.947938 14.118657 7.853688 35.800666 0.416120 1.349625 0.073608 0.005634 -432018.000000 0 0 1
30.693938 13.587057 8.182788 34.549732 0.416735 1.331683 0.079431 -0.003966 -277893.000000 0 0 1
30.430448 12.252657 7.482288 33.647057 0.382784 1.346546 0.096361 -0.004004 -100536.000000 0 0 1
30.233518 12.404657 6.077188 33.239635 0.389350 1.386933 0.073030 -0.012260 144531.000000 0 0 1
30.447278 11.132657 5.510188 32.883658 0.350537 1.402436 0.092371 -0.027111 -246447.000000 0 0 1
30.350448 10.945357 3.949188 32.504563 0.346115 1.448999 0.073777 -0.024684 482501.000000 0 0 1
29.018338 10.956357 3.429588 31.206855 0.361019 1.460675 0.053669 -0.014456 585787.000000 0 0 1
28.985898 11.316857 2.033388 31.183140 0.372226 1.505542 0.070722 -0.018907 -757596.000000 0 0 1
27.576488 11.299157 1.479888 29.838293 0.388874 1.521179 0.077821 -0.010651 -968674.000000 0 0 1
27.013728 10.064957 1.263088 28.855507 0.356653 1.527009 0.068170 -0.010619 -42994.100000 0 0 1
25.623728 10.162957 1.562488 27.609826 0.377592 1.514174 0.067628 -0.007242 398674.000000 0 0 1
25.002528 8.710157 1.538488 26.520939 0.335223 1.512753 0.076498 -0.014643 18649.500000 0 0 1
25.323328 7.855057 2.674788 26.648215 0.300779 1.470253 0.073622 -0.009433 251410.000000 0 0 1
26.608628 7.275357 2.562688 27.704102 0.266898 1.478162 0.091347 -0.012737 -64033.300000 0 0 1
27.001928 6.549557 3.851988 28.050644 0.237963 1.433038 0.089691 -0.011319 721595.000000 0 0 1
28.382878 6.143257 3.907088 29.301753 0.213154 1.437058 0.108596 -0.017089 1013320.000000 0 0 1
28.657158 5.611257 5.187288 29.658505 0.193360 1.394992 0.089946 -0.007745 -309803.000000 0 0 1
30.148938 5.500657 5.516988 31.139250 0.180464 1.392685 0.090408 -0.016553 -319818.000000 0 0 1
30.781238 6.741857 5.642288 32.012071 0.215620 1.393616 0.107429 -0.021286 -26730.900000 0 0 1
32.148658 6.588457 6.001088 33.361011 0.202138 1.389929 0.096361 -0.020513 488075.000000 0 0 1
32.646768 7.837557 6.808788 34.257822 0.235613 1.370713 0.082222 -0.022526 -184732.000000 0 0 1
32.159088 7.820957 8.087488 34.070248 0.238565 1.331132 0.084440 -0.030309 -173629.000000 0 0 1
32.662458 8.915857 8.873988 35.001091 0.266478 1.314464 0.099326 -0.026773 -37778.400000 0 0 1
32.385048 8.805657 10.368388 35.125979 0.265487 1.271155 0.087576 -0.027646 -431461.000000 0 0 1
31.083568 9.147757 10.774688 34.146209 0.286215 1.249765 0.081809 -0.031484 -425169.000000 0 0 1
30.867898 8.788957 12.103888 34.301269 0.277388 1.210160 0.086678 -0.038093 758610.000000 0 0 1
29.368238 9.137757 12.466188 33.187315 0.301649 1.185719 0.065812 -0.041331 763236.000000 0 0 1
29.016748 10.494357 12.510988 33.296066 0.347029 1.185591 0.084271 -0.040979 69416.200000 0 0 1
28.915988 11.378657 11.398288 33.098779 0.374897 1.219227 0.087805 -0.038629 -928907.000000 0 0 1
27.696558 11.283657 10.515688 31.701734 0.386872 1.232684 0.075970 -0.028697 -779021.000000 0 0 1
27.665078 12.280557 9.522088 31.730723 0.417770 1.266009 0.063133 0.009034 146781.000000 0 0 1
26.482628 12.391557 8.747988 30.518971 0.437650 1.280077 0.063974 0.003809 -260052.000000 0 0 1
26.514428 13.543257 7.711088 30.755416 0.472241 1.317369 0.046942 0.011277 -117092.000000 0 0 1
26.432928 14.768857 8.408288 31.424801 0.509521 1.299928 0.045131 0.016393 315672.000000 0 0 1
26.696628 15.902257 7.591688 31.987896 0.537226 1.331180 0.036041 0.016322 -643338.000000 0 0 1
26.475828 17.327157 8.260688 32.702275 0.579498 1.315427 0.045548 0.011375 1062630.000000 0 0 1
25.170928 17.943057 8.344888 32.018215 0.619297 1.307122 0.060369 0.009026 749888.000000 0 0 1
24.166328 17.226357 9.033088 31.021855 0.619281 1.275331 0.077507 0.005705 -1230660.000000 0 0 1
22.944028 18.082657 9.094288 30.596029 0.667455 1.268998 0.085938 -0.008279 -1248840.000000 0 0 1
22.274728 18.246057 7.868688 29.849596 0.686301 1.304032 0.095945 -0.008028 -116349.000000 0 0 1
21.198628 19.143757 8.009088 29.664975 0.734506 1.297419 0.136154 -0.022293 34775.100000 0 0 1
20.551228 19.513257 6.659788 29.111389 0.759496 1.339983 0.116356 -0.019866 -297154.000000 0 0 1
21.263028 20.511857 5.995488 30.146285 0.767419 1.370582 0.070929 -0.000452 -300564.000000 0 0 1
20.654728 21.070657 4.867488 29.904562 0.795366 1.407301 0.085156 -0.006244 -148578.000000 0 0 1
18.213056 17.233357 33.547359 41.882327 0.757766 0.641848 0.066744 -0.015651 -79326.500000 0 0 1
17.434756 17.902757 32.565059 41.048295 0.798641 0.654528 0.064966 -0.021642 501171.000000 0 0 1
16.839856 16.882257 31.734470 39.694684 0.786656 0.644394 0.074485 -0.024691 -74051.900000 0 0 1
16.138656 17.408057 30.474650 38.629017 0.823220 0.661770 0.078548 -0.027970 -391263.000000 0 0 1
17.036256 17.965057 29.531070 38.536494 0.811928 0.697712 0.082100 -0.017840 15658.900000 0 0 1
16.554956 18.036357 28.160010 37.314379 0.828198 0.715647 0.082678 -0.022670 84184.200000 0 0 1
17.653556 18.314157 27.092570 37.162666 0.803763 0.753898 0.081178 -0.020801 -18042.500000 0 0 1
18.117456 19.639257 27.157080 38.097895 0.825682 0.777280 0.074687 -0.020033 -201092.000000 0 0 1
19.054056 19.877357 26.147340 37.971697 0.806542 0.811239 0.081632 -0.014258 -546675.000000 0 0 1
19.799556 21.196757 26.374810 39.204024 0.819466 0.832866 0.090698 -0.013727 -625405.000000 0 0 1
19.056156 22.366957 26.269370 39.414434 0.865155 0.841304 0.071898 -0.015634 -246636.000000 0 0 1
19.754856 23.555157 26.626670 40.670374 0.872920 0.857018 0.078717 -0.016495 120976.000000 0 0 1
18.927456 24.889857 26.463070 40.963980 0.920642 0.868453 0.089382 -0.017291 248973.000000 0 0 1
18.862156 25.312757 25.093230 40.326006 0.930397 0.899171 0.091259 -0.020325 272978.000000 0 0 1
17.975756 26.397657 24.932750 40.516739 0.972963 0.907942 0.079712 -0.028209 -163147.000000 0 0 1
17.924156 27.170257 23.587060 40.197607 0.987634 0.943723 0.071564 -0.028431 -461216.000000 0 0 1
19.026656 28.029457 23.482690 41.220151 0.974434 0.964668 0.093566 -0.030266 -138922.000000 0 0 1
18.934656 28.832557 22.289980 41.069219 0.989718 0.997098 0.086696 -0.030241 -33718.600000 0 0 1
20.101356 29.841757 22.120080 42.236156 0.978010 1.019580 0.082603 -0.020581 1067850.000000 0 0 1
21.342556 29.145157 21.813080 42.198997 0.938730 1.027559 0.088177 -0.023033 1025890.000000 0 0 1
22.430756 30.010257 21.487580 43.191092 0.928938 1.050082 0.086150 -0.028342 503926.000000 0 0 1
22.759956 30.244857 19.982380 42.802599 0.925682 1.085071 0.093281 -0.026786 -43355.600000 0 0 1
21.831356 31.133857 19.391580 42.684406 0.959259 1.099209 0.066080 -0.016678 156833.000000 0 0 1
22.031156 31.272857 17.965280 42.262450 0.957069 1.131737 0.071379 -0.007081 -311541.000000 0 0 1
21.230256 32.290557 17.147980 42.278328 0.989184 1.153164 0.083347 -0.013568 -781889.000000 0 0 1
21.733756 33.580757 17.364080 43.606589 0.996386 1.161244 0.077493 -0.011157 309381.000000 0 0 1
21.981456 -34.161263 16.230980 43.744954 -0.999031 1.190671 0.065175 -0.016033 -793656.000000 0 0 1
23.113456 33.922557 15.331880 43.818241 0.972691 1.213335 0.048351 -0.011985 -867294.000000 0 0 1
22.931056 32.821557 14.408880 42.552365 0.960971 1.225351 0.076466 -0.019144 237943.000000 0 0 1
22.092056 33.129957 13.275680 41.974953 0.982681 1.248995 0.042745 -0.013080 360535.000000 0 0 1
21.702256 31.852657 12.491680 40.516931 0.972709 1.257383 0.039876 -0.026115 -270467.000000 0 0 1
22.781956 31.470057 11.695780 40.573061 0.944193 1.278382 0.064223 -0.043306 -215694.000000 0 0 1
22.450956 30.225457 11.153480 39.268611 0.931930 1.282801 0.059306 -0.039274 -256738.000000 0 0 1
23.570056 29.442857 10.388880 39.119793 0.895729 1.302006 0.065247 -0.036629 137299.000000 0 0 1
24.570956 28.850457 11.148280 39.501454 0.865336 1.284684 0.072553 -0.034060 117709.000000 0 0 1
25.586456 29.700657 11.683880 40.906097 0.859676 1.281136 0.086955 -0.042353 5663.790000 0 0 1
26.975856 29.046157 11.889580 41.385241 0.822336 1.279400 0.093111 -0.039529 283904.000000 0 0 1
27.137556 28.077957 12.910780 41.127933 0.802428 1.251480 0.093016 -0.032044 365962.000000 0 0 1
28.486156 28.131957 13.390180 42.215696 0.779142 1.248037 0.085532 -0.018216 687864.000000 0 0 1
28.658256 27.243257 14.595780 42.148873 0.760091 1.217182 0.067965 -0.017461 899361.000000 0 0 1
29.964356 27.508557 15.158080 43.409109 0.742694 1.214088 0.066486 -0.030878 827874.000000 0 0 1
30.230156 26.501757 16.094980 43.304201 0.719773 1.189986 0.067299 -0.029765 -32606.100000 0 0 1
31.530656 26.710157 16.893980 44.643267 0.702818 1.182706 0.080520 -0.033427 -127228.000000 0 0 1
32.696556 26.507257 16.137880 45.079159 0.681234 1.204682 0.092531 -0.022611 204686.000000 0 0 1
33.842356 26.549657 17.015080 46.256916 0.665224 1.194113 0.077567 -0.019687 374061.000000 0 0 1
35.198756 26.571157 16.327180 47.027179 0.646623 1.216228 0.078775 -0.023193 -398852.000000 0 0 1
35.332256 27.835957 15.691980 47.638714 0.667279 1.235133 0.101462 -0.022565 -154268.000000 0 0 1
-35.765916 28.105257 15.371680 48.014527 -0.666029 1.244912 0.095576 -0.023011 212074.000000 0 0 1
-35.544816 29.318257 14.426180 48.281558 -0.689696 1.267369 0.094526 -0.019430 172144.000000 0 0 1
-36.056416 30.526357 15.052480 49.583271 -0.702533 1.262349 0.101420 -0.023488 265554.000000 0 0 1
-36.215016 31.594957 14.158880 50.102321 -0.717371 1.284294 0.094011 -0.007406 -478249.000000 0 0 1
35.124356 32.552457 14.535280 50.046550 0.747414 1.276115 0.092334 -0.012916 -734834.000000 0 0 1
34.858556 33.577857 13.572780 50.267402 0.766687 1.297391 0.076552 -0.017236 458859.000000 0 0 1
33.789156 -34.091763 13.844780 49.956314 -0.789856 1.289982 0.072245 -0.012197 525472.000000 0 0 1
32.415356 33.983157 13.358880 48.826938 0.809006 1.293666 0.091124 -0.016879 -219477.000000 0 0 1
31.762956 33.056157 14.186880 47.988149 0.805346 1.270678 0.088729 -0.023819 336977.000000 0 0 1
30.604056 32.510757 13.559480 46.662801 0.815599 1.275959 0.097334 -0.023987 239449.000000 0 0 1
29.837356 31.411757 14.340180 45.635590 0.811097 1.251148 0.099673 -0.030491 -81802.200000 0 0 1
29.204856 31.831957 15.529380 45.905977 0.828413 1.225701 0.101686 -0.029632 -361.760000 0 0 1
28.941456 30.729357 16.292980 45.247789 0.815352 1.202439 0.099322 -0.033377 -79912.700000 0 0 1
28.086056 31.136857 17.511680 45.442154 0.836867 1.175196 0.086326 -0.028479 -40620.200000 0 0 1
27.750456 30.169357 18.447680 44.951027 0.827137 1.147909 0.070878 -0.018652 250888.000000 0 0 1
28.632956 30.171357 19.594380 45.979307 0.811554 1.130556 0.063973 -0.020544 437129.000000 0 0 1
28.509756 28.893557 20.457780 45.455083 0.792084 1.103957 0.061275 -0.016512 -305105.000000 0 0 1
27.320456 28.767457 21.174480 44.970351 0.811191 1.080538 0.072674 -0.023295 -394027.000000 0 0 1
27.528456 27.828657 22.211080 45.006467 0.790821 1.054677 0.054470 -0.018320 417340.000000 0 0 1
26.344156 27.737457 23.232980 44.756591 0.811155 1.025003 0.069031 -0.025602 -64563.200000 0 0 1
25.146656 27.351957 22.616280 43.496896 0.827380 1.024002 0.093143 -0.021126 -376636.000000 0 0 1
23.995656 27.387857 23.424230 43.296429 0.851320 0.999147 0.101813 -0.030670 133304.000000 0 0 1
23.739356 26.210357 24.314630 42.915511 0.834828 0.968459 0.082700 -0.030460 -576501.000000 0 0 1
24.709456 26.123757 25.354460 43.998370 0.813213 0.956652 0.068741 -0.024602 140952.000000 0 0 1
24.400256 25.235557 26.428080 43.939154 0.802225 0.925457 0.078302 -0.017584 -782150.000000 0 0 1
25.536356 25.063157 27.438660 45.090435 0.776047 0.916596 0.076521 -0.012688 -241190.000000 0 0 1
25.699256 26.274257 28.164610 46.303710 0.796461 0.916932 0.070537 -0.017942 315140.000000 0 0 1
26.598156 27.169457 27.526320 46.939744 0.796023 0.944167 0.054808 -0.005993 -689359.000000 0 0 1
27.116456 28.350557 28.358030 48.406964 0.807644 0.944898 0.034481 -0.000086 -321546.000000 0 0 1
28.053956 28.126757 29.390040 49.415720 0.786694 0.933841 0.045555 0.001998 71142.400000 0 0 1
28.206056 29.288857 30.154750 50.623391 0.804229 0.932699 0.052042 0.005036 274774.000000 0 0 1
29.687356 29.728957 30.276820 51.786444 0.786098 0.946351 0.041463 0.006120 456099.000000 0 0 1
30.287556 29.925957 28.977550 51.503372 0.779393 0.973228 0.020383 -0.002841 611008.000000 0 0 1
31.717656 29.999257 29.062230 52.445956 0.757562 0.983471 0.059943 -0.016765 1086100.000000 0 0 1
32.400956 30.172957 27.673630 52.211676 0.749807 1.012163 0.046111 -0.011608 15238.300000 0 0 1
32.252856 31.531757 27.403200 52.777209 0.774093 1.024853 0.043898 -0.008496 139059.000000 0 0 1
32.764756 31.884257 26.134080 52.660471 0.771779 1.051493 0.043870 -0.015362 -349760.000000 0 0 1
32.435156 33.367157 25.812480 53.213632 0.799561 1.064350 0.036632 -0.016605 -166644.000000 0 0 1
33.128056 -34.272363 26.601870 54.586834 -0.802374 1.061765 0.052331 -0.015090 144085.000000 0 0 1
32.775156 -32.989163 26.197480 53.374186 -0.788652 1.057758 0.045914 -0.009295 -135770.000000 0 0 1
33.616956 -31.837463 26.846160 53.520465 -0.758218 1.045343 0.042277 -0.011439 135598.000000 0 0 1
33.469756 -31.674763 28.256950 54.055254 -0.757851 1.020732 0.035478 -0.010640 429882.000000 0 0 1
34.553756 -30.888663 28.714040 54.521259 -0.729452 1.016132 0.033542 -0.017345 -34659.100000 0 0 1
34.340156 -30.471563 30.212050 54.959353 -0.725779 0.988772 0.024398 -0.009241 -133018.000000 0 0 1
34.599056 -31.496363 31.169730 56.219816 -0.738490 0.983123 0.031239 -0.007287 642229.000000 0 0 1
33.510056 -32.413263 31.302640 56.155131 -0.768762 0.979507 0.029434 -0.012730 183041.000000 0 0 1
33.654156 -33.271863 32.616683 57.475796 -0.779686 0.967348 0.045846 -0.010159 -179760.000000 0 0 1
33.343456 -32.575863 33.811444 57.586341 -0.773754 0.943271 0.033237 -0.014384 245700.000000 0 0 1
33.893656 -33.262363 -33.484642 58.106677 -0.775998 2.184943 0.031607 -0.010822 -43583.700000 0 0 1
33.173256 34.046657 -33.010452 57.873393 0.798391 2.177778 0.034933 -0.006303 -67254.600000 0 0 1
33.289356 33.029857 -33.972782 57.907707 0.781485 2.197738 0.047278 -0.009364 -106846.000000 0 0 1
32.582756 31.851957 -33.702702 56.674996 0.774057 2.207647 0.049327 -0.002033 -94783.800000 0 0 1
32.608356 30.771057 33.624979 56.042859 0.756417 0.927312 0.044515 0.011035 285972.000000 0 0 1
33.849056 30.117657 33.410460 56.294677 0.727131 0.935405 0.047754 -0.002453 179050.000000 0 0 1
33.694556 29.135457 32.379374 55.069246 0.712963 0.942242 0.050246 -0.003732 -244461.000000 0 0 1
35.001956 28.416357 32.035890 55.307545 0.681925 0.953010 0.064581 -0.008636 -300138.000000 0 0 1
35.426756 27.548657 33.051506 55.734958 0.660947 0.936002 0.063733 -0.006859 669390.000000 0 0 1
-35.710616 27.012657 32.823624 55.518664 -0.647605 0.938228 0.032465 -0.006182 666888.000000 0 0 1
-35.525116 25.702157 33.654229 55.274242 -0.626319 0.916175 0.033168 -0.003803 145235.000000 0 0 1
-36.214416 24.583857 33.129671 54.894672 -0.596384 0.922896 0.038850 -0.007501 128327.000000 0 0 1
-36.143916 23.488557 34.013050 54.908857 -0.576278 0.902760 0.025615 -0.009303 211523.000000 0 0 1
35.874856 22.160257 33.318404 53.741960 0.553340 0.902092 0.026769 -0.018391 323874.000000 0 0 1
-35.485216 21.704257 32.522739 52.801552 -0.548936 0.907214 0.040745 -0.015118 314367.000000 0 0 1
-35.816516 20.509657 31.798450 52.101922 -0.520052 0.914341 0.037302 -0.012564 176605.000000 0 0 1
-34.691416 19.937357 30.884470 50.545455 -0.521613 0.913443 0.029536 -0.024184 57550.600000 0 0 1
-34.350616 20.803757 29.773150 49.992015 -0.544549 0.932836 0.026844 -0.021541 151167.000000 0 0 1
-33.323016 20.113757 29.070510 48.580667 -0.543062 0.929298 0.058876 -0.027500 -127092.000000 0 0 1
-33.776116 19.117257 27.989650 47.850977 -0.515044 0.945998 0.064067 -0.022505 -820322.000000 0 0 1
-34.528616 18.079057 28.524660 48.298384 -0.482346 0.939004 0.067787 -0.024254 -185233.000000 0 0 1
-35.187716 17.342257 27.555980 47.940184 -0.457911 0.958438 0.069793 -0.026449 255598.000000 0 0 1
-36.022916 16.185557 28.176770 48.513432 -0.422282 0.951081 0.058053 -0.025260 330298.000000 0 0 1
-35.041216 15.367257 28.764820 47.869137 -0.413290 0.926163 0.075166 -0.025462 482802.000000 0 0 1
-35.601816 14.352457 29.562240 48.450061 -0.383209 0.914535 0.084190 -0.036426 -371009.000000 0 0 1
-34.686516 13.142057 29.654820 47.489751 -0.362169 0.896373 0.079484 -0.025222 489082.000000 0 0 1
-33.398216 13.456657 30.212510 47.003385 -0.383017 0.872684 0.081395 -0.021125 950566.000000 0 0 1
-32.820316 12.286057 30.789120 46.648583 -0.358195 0.849947 0.071079 -0.007495 -224579.000000 0 0 1
-31.284916 12.254657 30.877000 45.632354 -0.373341 0.827597 0.068019 -0.010352 -902360.000000 0 0 1
-30.660216 12.206057 29.589110 44.323268 -0.378874 0.839849 0.060090 -0.014500 -887701.000000 0 0 1
-29.383716 12.687457 29.508210 43.532847 -0.407604 0.825979 0.052932 -0.017201 -680019.000000 0 0 1
-28.281816 11.718657 30.052600 42.899264 -0.392818 0.794644 0.058894 -0.015602 -419024.000000 0 0 1
-28.137516 10.515357 29.286970 41.952582 -0.357642 0.798060 0.056561 -0.017096 456843.000000 0 0 1
-27.046916 9.691057 29.736880 41.348933 -0.344055 0.768190 0.046912 -0.017504 76562.000000 0 0 1
-26.633416 8.519257 28.801890 40.143063 -0.309586 0.770617 0.053082 -0.020575 30106.900000 0 0 1
-27.519916 7.430357 28.702210 40.452106 -0.263711 0.781957 0.052978 -0.022959 62276.900000 0 0 1
-28.825516 7.714657 28.222750 41.072496 -0.261504 0.813245 0.055479 -0.018928 21213.600000 0 0 1
-29.660116 6.406757 28.084900 41.346471 -0.212737 0.824046 0.060576 -0.020601 -137318.000000 0 0 1
-30.013116 5.884257 29.318810 42.367490 -0.193601 0.806524 0.066106 -0.022631 82878.700000 0 0 1
-30.596616 4.588957 29.320080 42.624858 -0.148873 0.812255 0.068241 -0.021217 -46844.700000 0 0 1
-31.258116 4.162457 30.648540 43.974184 -0.132385 0.799638 0.065927 -0.026403 -212324.000000 0 0 1
-32.249016 5.016857 31.139260 45.108995 -0.154329 0.808877 0.065362 -0.026617 -271278.000000 0 0 1
-32.858016 4.469557 32.329590 46.312294 -0.135197 0.798087 0.055766 -0.032023 537146.000000 0 0 1
-34.350116 4.896757 32.423948 47.489169 -0.141600 0.819256 0.049789 -0.027070 256355.000000 0 0 1
-34.640016 6.287857 32.576964 47.965888 -0.179565 0.824166 0.051932 -0.024212 764122.000000 0 0 1
-36.044816 6.571757 32.735793 49.132972 -0.180341 0.841602 0.045977 -0.017006 1074510.000000 0 0 1
36.002256 8.077557 32.914581 49.444707 0.220708 0.842385 0.046298 -0.016764 -288706.000000 0 0 1
-36.149616 8.508957 34.193575 50.481657 -0.231174 0.826647 0.047812 -0.017530 19353.100000 0 0 1
35.933256 9.889157 -34.065082 50.491822 0.268561 2.311308 0.051731 -0.019880 12254.900000 0 0 1
35.924456 10.203957 -32.618202 49.584618 0.276750 2.288729 0.046132 -0.025223 -441926.000000 0 0 1
34.783256 9.787157 -31.941072 48.227538 0.274284 2.294680 0.062385 -0.014410 -441565.000000 0 0 1
34.982456 9.772557 -30.574092 47.476838 0.272411 2.270484 0.057406 -0.004068 857277.000000 0 0 1
33.691956 9.218057 -29.842002 45.941980 0.267062 2.277800 0.051201 -0.004316 746495.000000 0 0 1
33.510856 7.875357 -29.913902 45.605265 0.230821 2.286212 0.043562 -0.006721 -609395.000000 0 0 1
32.394956 7.536457 -29.183322 44.248137 0.228577 2.291000 0.048304 -0.013968 -925677.000000 0 0 1
34.820948 6.013457 -20.327212 40.765864 0.171010 2.092818 0.041792 -0.006682 -312752.000000 0 0 1
34.255948 6.776757 -19.306212 39.901432 0.195305 2.075842 0.029333 -0.014380 512388.000000 0 0 1
34.904338 8.062957 -19.091712 40.593319 0.227019 2.060446 0.031004 -0.005656 1413040.000000 0 0 1
-36.063124 8.122657 -18.463912 41.321211 -0.221538 2.034025 0.037567 -0.012465 1824260.000000 0 0 1
-34.950576 7.661157 -19.241412 40.625952 -0.215787 2.064197 0.042778 -0.014505 591672.000000 0 0 1
-34.452359 8.624157 -20.132812 40.824885 -0.245281 2.086504 0.039688 -0.003761 189488.000000 0 0 1
-33.248354 8.114057 -21.026312 40.167110 -0.239365 2.121716 0.033379 0.003715 414332.000000 0 0 1
-33.466954 7.137857 -22.005812 40.684662 -0.210132 2.142288 0.026295 0.013984 -531445.000000 0 0 1
-34.410513 7.416657 -22.964612 42.029318 -0.212287 2.148850 0.027115 0.017094 -402688.000000 0 0 1
-34.668434 6.207057 -23.937312 42.584302 -0.177163 2.167738 0.044923 0.006004 -242251.000000 0 0 1
-33.572754 6.009157 -24.774412 42.154611 -0.177114 2.199014 0.039451 0.000031 -325615.000000 0 0 1
-33.373864 4.681457 -25.201712 42.081553 -0.139364 2.212896 0.041255 0.005819 -139112.000000 0 0 1
-32.174784 4.401157 -26.130692 41.682130 -0.135945 2.248369 0.050396 0.005392 1750240.000000 0 0 1
-30.877864 4.495357 -25.441422 40.260609 -0.144569 2.254822 0.050018 0.004173 1173690.000000 0 0 1
-29.776264 4.193457 -26.247282 39.914042 -0.139912 2.288419 0.053930 0.001142 12668.000000 0 0 1
-28.428044 4.592057 -25.615252 38.540651 -0.160149 2.297794 0.048897 -0.006789 -2253.390000 0 0 1
-28.080444 5.968357 -25.678032 38.516151 -0.209428 2.300545 0.037599 -0.008408 -193141.000000 0 0 1
-26.775554 6.165157 -25.196902 37.280334 -0.226309 2.312950 0.046872 -0.000384 40330.000000 0 0 1
-26.269184 7.607157 -25.403852 37.326861 -0.281874 2.319348 0.039800 -0.005089 -47771.100000 0 0 1
-27.003234 8.534257 -24.605212 37.515658 -0.306112 2.286124 0.043748 -0.003748 -193260.000000 0 0 1
-26.653334 9.865957 -24.730312 37.673938 -0.354519 2.286873 0.024933 -0.004755 409563.000000 0 0 1
-25.252254 10.392857 -24.267212 36.531977 -0.390433 2.297317 0.037660 -0.004485 289587.000000 0 0 1
-25.230474 10.486457 -22.862012 35.626032 -0.393905 2.267538 0.029912 0.001828 -439517.000000 0 0 1
-23.928744 10.555057 -22.382412 34.423340 -0.415431 2.278658 0.048396 -0.003283 -822645.000000 0 0 1
-23.863244 10.838557 -20.854212 33.493684 -0.426337 2.242897 0.060290 -0.013408 -910188.000000 0 0 1
-24.098144 12.186057 -20.389512 33.837150 -0.468185 2.217523 0.045729 -0.013686 991660.000000 0 0 1
-25.399284 12.770757 -20.595212 35.105250 -0.465885 2.197738 0.033936 -0.004321 888570.000000 0 0 1
-26.557634 12.091257 -19.779012 35.252173 -0.427239 2.166477 0.055213 -0.001822 -396992.000000 0 0 1
-26.417654 12.070657 -18.369612 34.366202 -0.428591 2.134743 0.055366 -0.004643 110825.000000 0 0 1
-27.476894 11.407757 -17.715712 34.626046 -0.393521 2.107877 0.059266 -0.003281 -254341.000000 0 0 1
-27.078894 11.083257 -16.222412 33.455518 -0.388494 2.077039 0.080661 -0.008287 411069.000000 0 0 1
-26.171704 10.012357 -16.036812 32.285983 -0.365386 2.090602 0.090857 -0.010761 2296660.000000 0 0 1
-24.742244 10.333757 -16.150712 31.301927 -0.395634 2.112931 0.085619 -0.013112 1889900.000000 0 0 1
-23.777344 9.099157 -16.048712 30.095147 -0.365488 2.133253 0.080085 -0.012746 1446700.000000 0 0 1
-22.369644 9.424257 -15.896312 29.015691 -0.398730 2.150591 0.062923 -0.010205 1227050.000000 0 0 1
-21.673744 8.211457 -15.726912 28.009194 -0.362156 2.166983 0.059769 -0.012247 -932844.000000 0 0 1
-20.185244 8.437557 -15.559912 26.846737 -0.395932 2.189013 0.063753 -0.013266 -712940.000000 0 0 1
-19.532044 8.826357 -16.762012 27.209747 -0.424425 2.234489 0.074383 -0.021936 191953.000000 0 0 1
-18.139344 8.993457 -16.603612 26.183926 -0.460281 2.257659 0.074388 -0.028210 -121577.000000 0 0 1
-17.416744 9.628857 -17.855812 26.737387 -0.505029 2.302075 0.058922 -0.018292 163265.000000 0 0 1
-16.985044 8.897857 -18.993912 26.989484 -0.482556 2.351462 0.072312 -0.026638 411647.000000 0 0 1
-16.207744 7.749957 -18.724712 25.949328 -0.446027 2.376889 0.076467 -0.016999 -677651.000000 0 0 1
-15.816744 6.990757 -20.031412 26.463135 -0.416168 2.429438 0.058929 -0.007715 95466.600000 0 0 1
-16.743544 6.144357 -20.686512 27.313571 -0.351711 2.430074 0.053385 -0.008476 -30620.200000 0 0 1
-17.917244 6.710857 -21.236512 28.584133 -0.358374 2.408260 0.052715 -0.014266 -608885.000000 0 0 1
-18.724944 5.612557 -21.880012 29.340403 -0.291215 2.412426 0.055234 -0.006628 -369510.000000 0 0 1
-19.521844 4.876457 -20.942012 29.042212 -0.244786 2.376169 0.079933 -0.011564 334547.000000 0 0 1
-20.022344 3.737057 -21.586312 29.678758 -0.184521 2.385223 0.057528 0.002329 -699595.000000 0 0 1
-20.935744 2.986857 -20.655712 29.561548 -0.141711 2.344425 0.077104 -0.002557 -650189.000000 0 0 1
-21.753844 1.998357 -21.206412 30.445608 -0.091605 2.341352 0.075437 -0.004774 317677.000000 0 0 1
-22.638444 1.526057 -20.179212 30.364923 -0.067308 2.297697 0.073523 -0.010463 183205.000000 0 0 1
-23.489944 0.340657 -20.758112 31.349525 -0.014501 2.294482 0.075241 -0.011231 -362652.000000 0 0 1
-22.733844 -0.842243 -20.909212 30.898740 0.037031 2.314069 0.076785 -0.013778 170416.000000 0 0 1
-23.406844 -2.127243 -21.012612 31.526740 0.090632 2.300302 0.076647 -0.016824 -372336.000000 0 0 1
-23.799844 -2.496843 -22.513812 32.856331 0.104528 2.325702 0.061770 -0.021142 320939.000000 0 0 1
-22.792544 -2.634443 -23.530612 32.865332 0.115073 2.368810 0.042671 -0.015505 345331.000000 0 0 1
-21.956844 -3.778543 -23.405212 32.313841 0.170420 2.380828 0.044548 -0.022773 -148926.000000 0 0 1
-20.969044 -3.788743 -24.586712 32.535546 0.178754 2.427500 0.037223 -0.010668 -320653.000000 0 0 1
-21.512844 -4.046443 -25.842132 33.867269 0.185922 2.438802 0.027003 -0.011049 200504.000000 0 0 1
-20.598644 -3.647543 -26.837202 34.027108 0.175260 2.479489 0.033460 -0.019936 123358.000000 0 0 1
-21.249144 -3.880543 -28.211282 35.531129 0.180631 2.488137 0.023820 -0.018986 196300.000000 0 0 1
-21.393644 -5.247143 -28.585842 36.088376 0.240519 2.485049 0.020135 -0.015205 341132.000000 0 0 1
-22.454244 -5.361343 -29.517272 37.472742 0.234379 2.477863 -0.000139 -0.013249 -441265.000000 0 0 1
-22.395744 -6.555543 -30.507992 38.409400 0.284759 2.488625 0.023497 -0.014145 -551490.000000 0 0 1
-21.327144 -6.357043 -31.379272 38.469699 0.289688 2.524714 0.001152 -0.011890 -212236.000000 0 0 1
-20.689444 -7.531243 -31.853632 38.722430 0.349104 2.536790 0.001715 -0.015121 314971.000000 0 0 1
-19.198844 -7.319843 -32.294842 38.277049 0.364252 2.574959 0.016445 -0.018697 468654.000000 0 0 1
-18.900944 -6.876243 -33.639952 39.194065 0.348919 2.602728 0.030271 -0.025615 242957.000000 0 0 1
-19.101544 -7.896643 33.845384 39.657736 0.392007 0.548252 0.039106 -0.028423 -706958.000000 0 0 1
-18.913344 -7.502443 32.368338 38.232323 0.377636 0.561190 0.047460 -0.025550 1249680.000000 0 0 1
-17.592244 -7.132643 31.860020 37.086689 0.385189 0.537349 0.064841 -0.029133 1184150.000000 0 0 1
-17.254344 -5.852243 32.320770 37.102471 0.326999 0.513314 0.054599 -0.031820 -446774.000000 0 0 1
-15.860744 -5.421543 31.816140 35.961411 0.329370 0.484882 0.053756 -0.030919 106823.000000 0 0 1
-16.025644 -5.470543 30.380140 34.780757 0.328959 0.508501 0.058603 -0.027856 82100.500000 0 0 1
-14.844444 -5.020543 29.771600 33.643893 0.326133 0.484509 0.056334 -0.026330 -55634.800000 0 0 1
-14.963944 -5.001443 28.212390 32.324496 0.322560 0.509914 0.064267 -0.020628 395615.000000 0 0 1
-15.948644 -4.046543 27.796570 32.301441 0.248480 0.534474 0.055093 -0.028349 236194.000000 0 0 1
-16.423644 -4.252943 26.452920 31.425795 0.253387 0.570265 0.065999 -0.022364 257263.000000 0 0 1
-15.521144 -3.811243 25.256730 29.888692 0.240788 0.564182 0.081840 -0.016976 217529.000000 0 0 1
-15.168244 -2.448443 25.195750 29.510953 0.160039 0.547601 0.074980 -0.007503 -140766.000000 0 0 1
-14.360844 -2.163943 24.083610 28.123598 0.149558 0.542639 0.065412 -0.002622 -23478.000000 0 0 1
-14.075644 -0.659343 24.054630 27.878015 0.046809 0.529909 0.064856 0.001828 -347314.000000 0 0 1
-15.166544 0.131457 23.689700 28.129046 -0.008667 0.569484 0.060802 -0.000421 -221603.000000 0 0 1
-14.952344 1.462757 24.117690 28.414349 -0.097518 0.557112 0.041967 -0.002710 22532.400000 0 0 1
-15.709144 2.561957 23.322480 28.236128 -0.161664 0.598858 0.038709 -0.002187 -274860.000000 0 0 1
-14.961444 3.090157 22.276780 27.012012 -0.203677 0.601126 0.019408 0.003656 175603.000000 0 0 1
-15.707244 3.970957 21.413080 26.851555 -0.247622 0.647720 0.029821 0.002140 148391.000000 0 0 1
-14.831644 4.791257 20.456980 25.718123 -0.312461 0.651079 0.036046 0.006959 -20398.200000 0 0 1
-13.982944 5.762557 21.015680 25.891863 -0.390905 0.623789 0.010155 0.002084 -62060.700000 0 0 1
-12.923944 5.989357 20.119080 24.651128 -0.433967 0.616075 0.008663 0.008230 -173532.000000 0 1 0
-12.010644 7.167357 20.435180 24.763343 -0.538027 0.600207 0.005704 0.008824 250986.000000 0 1 0
-12.636244 8.435557 20.168280 25.250600 -0.588627 0.645623 0.011695 0.008059 726664.000000 0 0 1
-11.704744 9.452857 20.563080 25.479360 -0.679363 0.631660 0.010905 0.009897 523534.000000 0 0 1
-12.300444 10.892957 20.554380 26.314254 -0.724788 0.674352 0.005672 0.013683 -331129.000000 0 0 1
-12.700444 11.317257 19.276980 25.709600 -0.727871 0.723041 0.017194 0.011233 467737.000000 0 0 1
-13.395844 12.571757 19.358580 26.688056 -0.753674 0.759232 0.006996 0.009122 -147684.000000 0 0 1
-13.676344 13.261557 17.962080 26.182964 -0.770001 0.814789 0.011556 0.009502 425501.000000 0 0 1
-12.549744 13.932557 17.355980 25.550778 -0.837567 0.824023 0.007999 0.007660 649877.000000 0 0 1
-12.270544 15.314357 17.652180 26.394985 -0.895297 0.838243 0.023146 0.005542 -311569.000000 0 0 1
-13.280044 16.369357 17.113880 27.151433 -0.889218 0.888841 0.022516 0.010199 -125111.000000 0 0 1
-13.324144 16.676457 15.696280 26.495476 -0.896678 0.936745 0.019438 -0.006795 54901.300000 0 0 1
-13.685744 15.627257 14.845680 25.532429 -0.851535 0.950294 0.029661 -0.007667 -321023.000000 0 0 1
-14.083144 16.158057 13.473180 25.316878 -0.853903 1.009621 0.024545 -0.018364 -576582.000000 0 0 1
-15.317644 16.785557 13.385480 26.373400 -0.831091 1.038472 0.024095 -0.016778 -631581.000000 0 0 1
-15.678044 17.334857 12.164680 26.349151 -0.835543 1.090917 0.020007 -0.015135 258590.000000 0 0 1
-16.791944 18.417957 12.381080 27.829510 -0.831546 1.109745 0.025171 -0.021941 1321890.000000 0 0 1
-18.098244 17.890757 12.721380 28.450995 -0.779633 1.107239 0.039438 -0.026981 810212.000000 0 0 1
-18.993744 18.962557 12.985980 29.815710 -0.784576 1.120157 0.043512 -0.033871 14711.000000 0 0 1
-20.370344 18.434557 13.427880 30.579270 -0.735554 1.116181 0.045250 -0.023754 226921.000000 0 0 1
-21.073544 17.806457 12.353880 30.228836 -0.701565 1.149790 0.054362 -0.025357 -447534.000000 0 0 1
-22.166744 17.030057 12.722380 30.712315 -0.655092 1.143685 0.072320 -0.035407 -590376.000000 0 0 1
-22.826444 16.290857 11.509080 30.313322 -0.619851 1.181356 0.073632 -0.032722 -27699.600000 0 0 1
-22.134544 15.154557 11.086780 29.026114 -0.600354 1.178881 0.064938 -0.023026 -21657.800000 0 0 1
-22.735644 14.652457 9.921180 28.810307 -0.572478 1.219237 0.067871 -0.022442 -125647.000000 0 0 1
-22.252344 13.210857 9.475580 27.558668 -0.535762 1.219801 0.084601 -0.012857 -403598.000000 0 0 1
-22.561244 12.043057 10.293180 27.567998 -0.490316 1.188153 0.078439 -0.014470 872755.000000 0 0 1
-23.964744 11.750257 10.377580 28.636893 -0.455869 1.199971 0.081666 -0.012889 963668.000000 0 0 1
-24.766744 11.311457 9.100480 28.708176 -0.428428 1.248232 0.097318 -0.004062 -311807.000000 0 0 1
-25.003044 12.271757 8.135380 29.016075 -0.456269 1.286612 0.103623 -0.007049 453931.000000 0 0 1
-26.196034 11.953457 7.412080 29.733083 -0.428087 1.318852 0.104628 -0.008478 119255.000000 0 0 1
-26.594944 13.134057 6.489680 30.362978 -0.458720 1.355398 0.090180 -0.009823 -518185.000000 0 0 1
-25.992764 13.363457 5.208180 29.687218 -0.474881 1.394449 0.086231 -0.011024 -423404.000000 0 0 1
-24.663144 13.771857 5.273180 28.735712 -0.509268 1.386244 0.085320 -0.011157 -802759.000000 0 0 1
-24.471244 15.291857 5.617580 29.397957 -0.558521 1.378526 0.083609 -0.020421 505062.000000 0 0 1
-23.076844 15.673557 5.741180 28.480910 -0.596622 1.367826 0.086617 -0.029144 1424440.000000 0 0 1
-22.981544 16.953757 6.342180 29.254136 -0.635590 1.352265 0.075465 -0.031810 -311871.000000 0 0 1
-21.556944 17.518557 6.445680 28.515758 -0.682415 1.342787 0.075402 -0.029536 -43324.000000 0 0 1
-21.101744 18.004957 5.155780 28.214254 -0.706375 1.387027 0.082953 -0.031708 714021.000000 0 0 1
-19.685244 18.152057 5.176080 27.272656 -0.744900 1.379848 0.085881 -0.028600 393167.000000 0 0 1
-19.061044 18.993557 4.002580 27.204765 -0.783625 1.423132 0.077798 -0.025794 -480972.000000 0 0 1
-17.691744 19.209957 4.214880 26.453458 -0.826517 1.410782 0.057879 -0.024441 -252117.000000 0 0 1
-17.190444 20.215557 3.385180 26.751440 -0.866095 1.443914 0.060918 -0.020450 -90486.600000 0 0 1
-17.347744 21.654257 3.927080 28.022723 -0.895370 1.430194 0.065711 -0.025452 -227581.000000 0 0 1
-16.590844 21.880357 5.112580 27.931068 -0.922034 1.386716 0.063513 -0.017128 207069.000000 0 0 1
-16.823144 23.190457 5.570480 29.186396 -0.943204 1.378759 0.050691 -0.015957 -82076.800000 0 0 1
-16.044044 23.552457 6.876780 29.315860 -0.972796 1.334015 0.035657 -0.000320 -140057.000000 0 0 1
-16.597344 23.043957 8.051780 29.518247 -0.946611 1.294522 0.036408 -0.013913 -118187.000000 0 0 1
-15.714144 23.259857 9.117880 29.514251 -0.976641 1.256727 0.030626 -0.007769 7281.150000 0 0 1
-16.201344 22.655257 10.448380 29.747485 -0.949991 1.211906 0.018189 -0.010030 652269.000000 0 0 1
-17.467044 23.193857 10.835880 30.991433 -0.925321 1.213608 0.019173 -0.009469 -193705.000000 0 0 1
-18.322444 22.258057 11.429280 31.012279 -0.882079 1.193358 0.013684 -0.012940 475339.000000 0 0 1
-19.706044 22.833057 11.910480 32.427399 -0.858775 1.194695 0.026280 -0.024779 757258.000000 0 0 1
-20.440844 23.533157 10.878980 33.014993 -0.855604 1.235005 0.044270 -0.025070 546163.000000 0 0 1
-19.876744 24.808857 10.571280 33.500989 -0.895327 1.249759 0.023660 -0.010330 -701375.000000 0 0 1
-20.925744 25.603357 9.765780 34.478821 -0.885592 1.283626 0.035671 0.001391 198686.000000 0 0 1
-21.951744 26.039057 10.641080 35.681145 -0.870362 1.267962 0.037097 -0.006290 -118235.000000 0 0 1
-22.720944 27.045357 10.034680 36.720395 -0.872075 1.294003 0.038618 -0.002924 -511954.000000 0 0 1
-23.952344 27.416757 10.853780 37.989444 -0.852738 1.281054 0.031032 0.004803 -517163.000000 0 0 1
-23.590844 28.048457 12.043080 38.578227 -0.871507 1.253317 0.026461 0.001601 651655.000000 0 0 1
-24.725944 28.182057 12.884980 39.643705 -0.850629 1.239764 0.020910 -0.000383 215525.000000 0 0 1
8.597356 -32.709863 27.971180 43.888912 -1.313773 0.879784 0.043345 -0.033054 -328235.000000 0 0 1
9.969456 -32.867263 27.681480 44.112486 -1.276292 0.892432 0.041070 -0.039632 106168.000000 0 0 1
10.331256 -32.550863 26.374770 43.149995 -1.263464 0.913177 0.042091 -0.034294 757401.000000 0 0 1
11.883956 -32.594663 26.113720 43.423114 -1.221176 0.925571 0.019335 -0.026314 801337.000000 0 0 1
12.430656 -33.895163 26.228850 44.624611 -1.219288 0.942501 0.032498 -0.033305 -387583.000000 0 0 1
13.824656 -33.853863 26.071760 44.910376 -1.183102 0.951419 0.047426 -0.025696 -328937.000000 0 0 1
14.439056 33.342957 26.018880 44.690281 1.162130 0.949359 0.065677 -0.025954 -423153.000000 0 0 1
14.336956 32.817457 24.724480 43.518199 1.158915 0.966551 0.043045 -0.016612 480521.000000 0 0 1
15.169856 31.638357 24.584740 42.842964 1.123702 0.959617 0.054300 -0.024844 226034.000000 0 0 1
15.423056 31.222357 23.117380 41.798558 1.111981 0.984756 0.057375 -0.026239 -288470.000000 0 0 1
14.460856 30.434957 22.465680 40.498268 1.127234 0.982756 0.049500 -0.018879 -411732.000000 0 0 1
14.661756 29.039857 22.600880 39.611616 1.103249 0.963606 0.053365 -0.017928 96712.200000 0 0 1
14.322756 28.386657 23.997090 39.834708 1.103508 0.924271 0.058267 -0.025545 203519.000000 0 0 1
15.325356 28.640157 24.972200 40.972380 1.079464 0.915381 0.063562 -0.022552 267313.000000 0 0 1
14.777756 28.189357 26.196160 41.222090 1.087952 0.882155 0.058468 -0.025341 9407.850000 0 0 1
15.600156 28.564357 27.441080 42.571119 1.070921 0.870304 0.061433 -0.027313 19842.900000 0 0 1
15.537256 29.973757 27.751550 43.703329 1.092567 0.882790 0.064261 -0.036354 299899.000000 0 0 1
16.491356 30.276557 28.768940 44.903080 1.072039 0.875400 0.077965 -0.030820 162295.000000 0 0 1
16.472656 31.752757 29.216930 46.186740 1.092239 0.885913 0.083144 -0.035201 -26995.700000 0 0 1
17.019456 32.663357 28.255350 46.421133 1.090446 0.916408 0.073631 -0.029788 77793.700000 0 0 1
16.774756 34.000757 28.645630 47.518586 1.112471 0.923753 0.074531 -0.023769 -3760.550000 0 0 1
17.559156 -33.443363 27.863910 46.938044 -1.087317 0.935232 0.059222 -0.020385 -190228.000000 0 0 1
17.174956 -33.358363 26.531370 45.952945 -1.095330 0.955305 0.064576 -0.019137 -208018.000000 0 0 1
17.402356 -32.079363 25.942690 44.776676 -1.073746 0.952829 0.063640 -0.020310 125757.000000 0 0 1
18.828556 -31.475563 25.777690 44.829844 -1.031704 0.958178 0.066313 -0.012174 291333.000000 0 0 1
19.385856 -30.991163 27.014330 45.453687 -1.011817 0.934368 0.056185 -0.014086 109741.000000 0 0 1
20.482856 -30.137463 26.727950 45.190678 -0.973861 0.937943 0.063717 -0.012009 -86139.600000 0 0 1
20.792456 -29.362263 27.938650 45.552573 -0.954631 0.910530 0.067258 -0.009019 -223467.000000 0 0 1
19.837056 -28.336063 28.134340 44.586796 -0.960027 0.887953 0.074368 -0.015401 94688.200000 0 0 1
19.750556 -27.861163 29.493410 45.124163 -0.954127 0.858457 0.074600 -0.002036 310940.000000 0 0 1
18.307156 -27.438463 29.897040 44.518022 -0.982419 0.834468 0.072988 -0.005820 330103.000000 0 0 1
17.793956 -26.401763 29.081950 43.121199 -0.977756 0.830613 0.076500 -0.011001 167751.000000 0 0 1
16.541756 -25.973563 29.590240 42.706416 -1.003708 0.805327 0.070668 -0.011729 54673.900000 0 0 1
15.666156 -25.137663 28.617800 41.186273 -1.013482 0.802601 0.063451 -0.017079 -382950.000000 0 0 1
15.201056 -25.974563 27.578020 40.820304 -1.041309 0.829024 0.057796 -0.018613 363024.000000 0 0 1
14.505956 -25.319063 26.496870 39.415249 -1.050522 0.833554 0.059706 -0.023417 499352.000000 0 0 1
13.016156 -24.839263 26.684590 38.710162 -1.088122 0.810214 0.047414 -0.018640 1211290.000000 0 0 1
12.010656 -25.817063 26.976610 39.223897 -1.135356 0.812398 0.046751 -0.018566 544144.000000 0 0 1
11.752056 -26.661963 25.884400 38.974008 -1.155636 0.844446 0.046515 -0.023710 -1014240.000000 0 0 1
10.932856 -27.930463 26.287060 39.882924 -1.197699 0.851167 0.058579 -0.029704 -53877.400000 0 0 1
9.588856 -27.581963 26.553340 39.468858 -1.236217 0.832854 0.046504 -0.033422 -40762.900000 0 0 1
8.861856 -28.770963 26.780380 40.292550 -1.272004 0.843773 0.034506 -0.030727 994283.000000 0 0 1
7.296056 -28.689863 27.014830 40.076698 -1.321767 0.831080 0.032912 -0.032986 1092890.000000 0 0 1
6.430756 -28.356863 25.942030 38.967361 -1.347789 0.842315 0.040497 -0.036669 44468.200000 0 0 1
6.566856 -27.144063 25.274340 37.665847 -1.333431 0.835220 0.059905 -0.029709 -774455.000000 0 0 1
5.350556 -26.739063 24.411210 36.599360 -1.373302 0.840642 0.060238 -0.028536 -190395.000000 0 0 1
5.116056 -27.571063 23.245180 36.423563 -1.387324 0.878650 0.038903 -0.024113 -36115.200000 0 0 1
4.555356 -28.887763 23.361380 37.430044 -1.414393 0.896773 0.028238 -0.023277 -699460.000000 0 0 1
3.144056 -29.036863 23.915050 37.748565 -1.462938 0.884682 0.024813 -0.023287 -926728.000000 0 0 1
2.136956 -28.747063 22.962280 36.854125 -1.496596 0.898149 0.021462 -0.020036 461204.000000 0 0 1
0.880856 -28.387963 23.523990 36.878591 -1.539777 0.879058 0.030094 -0.022268 331838.000000 0 0 1
0.697856 -26.909963 23.903470 36.000125 -1.544869 0.844663 0.032566 -0.023091 -788108.000000 0 0 1
1.520056 -26.497663 24.920240 36.406800 -1.513493 0.816887 0.024931 -0.024184 -351862.000000 0 0 1
1.225556 -25.166263 25.267980 35.683520 -1.522136 0.783974 0.021188 -0.022147 -597421.000000 0 0 1
2.205356 -24.511763 26.233590 35.970702 -1.481067 0.753492 0.039707 -0.022448 -259334.000000 0 0 1
3.435756 -24.238263 25.563930 35.395089 -1.429985 0.763753 0.039267 -0.020790 134746.000000 0 0 1
4.364856 -23.485463 26.289950 35.521549 -1.387039 0.737558 0.050613 -0.018216 -32419.600000 0 0 1
4.067856 -21.947263 26.433340 34.596984 -1.387529 0.701251 0.037530 -0.004906 -409300.000000 0 0 1
3.971156 -21.234463 25.237110 33.220238 -1.385917 0.707959 0.037566 -0.003527 487754.000000 0 0 1
3.076256 -20.133263 25.389280 32.548843 -1.419174 0.676072 0.033336 -0.012430 142287.000000 0 0 1
2.915156 -19.361063 24.045810 31.008868 -1.421351 0.683370 0.042960 -0.016903 -523455.000000 0 0 1
3.979656 -18.529063 23.723340 30.363806 -1.359231 0.674045 0.082542 -0.010569 -504596.000000 0 0 1
4.218056 -18.495563 22.376480 29.335724 -1.346573 0.703207 0.090677 -0.013653 -182412.000000 0 0 1
5.427556 -17.662963 21.837280 28.606039 -1.272670 0.702267 0.075136 -0.003951 604429.000000 0 0 1
6.624956 -18.336163 22.204980 29.549384 -1.224086 0.720534 0.055490 -0.007164 -301117.000000 0 0 1
7.737356 -17.666863 21.654380 28.998223 -1.158001 0.727636 0.043193 -0.006591 -442949.000000 0 0 1
9.037156 -17.804763 22.406580 30.012241 -1.101111 0.727888 0.070546 0.005168 -590357.000000 0 0 1
9.005156 -17.115263 23.620580 30.527969 -1.086450 0.686079 0.072509 0.002107 -161875.000000 0 0 1
10.131756 -17.311363 24.439970 31.617209 -1.041281 0.687246 0.078731 -0.000785 -82701.900000 0 0 1
10.259156 -16.362463 25.682390 32.133560 -1.010765 0.644769 0.092093 -0.020257 -131659.000000 0 0 1
10.557056 -15.022563 25.442020 31.375551 -0.958229 0.625130 0.092439 -0.014857 168761.000000 0 0 1
10.995756 -14.396363 26.661110 32.233162 -0.918530 0.596809 0.075794 -0.017174 -69592.100000 0 0 1
11.161056 -12.873163 26.378210 31.402189 -0.856514 0.573491 0.067723 -0.019708 471104.000000 0 0 1
10.006356 -12.200663 25.848510 30.284135 -0.883890 0.548067 0.063170 -0.014055 274527.000000 0 0 1
10.320756 -10.874963 25.629290 29.692480 -0.811539 0.529306 0.059943 -0.016017 -405045.000000 0 0 1
9.351856 -9.996263 24.809870 28.335705 -0.818692 0.504184 0.049521 -0.016547 -269965.000000 0 0 1
8.133456 -9.819263 25.505810 28.515213 -0.879026 0.463567 0.043842 -0.013346 -453554.000000 0 0 1
7.201256 -9.211463 24.648640 27.281213 -0.907270 0.442924 0.031309 -0.010885 -376666.000000 0 0 1
5.737156 -9.348863 25.059580 27.355050 -1.020383 0.412588 0.032469 -0.014280 -850484.000000 0 0 1
5.266056 -8.434063 26.025140 27.859876 -1.012643 0.364943 0.036418 -0.010838 444415.000000 0 0 1
3.897456 -8.591463 26.392600 28.028071 -1.144917 0.343301 0.028906 -0.006819 1349800.000000 0 0 1
2.759956 -8.245363 25.369130 26.817832 -1.247791 0.330193 0.026105 -0.002311 1302.130000 0 0 1
2.761156 -6.938363 24.827180 25.925928 -1.192054 0.292175 0.025983 -0.004910 -446823.000000 0 0 1
1.708956 -6.729663 23.939500 24.926062 -1.322109 0.282289 0.034823 -0.013914 -213263.000000 0 1 0
1.883156 -5.418363 23.160780 23.860567 -1.236305 0.242787 0.032702 -0.018760 -114268.000000 0 1 0
1.790056 -4.252563 24.047910 24.486539 -1.172373 0.189562 0.042506 -0.008420 -32880.300000 0 1 0
2.216556 -3.051563 23.424550 23.726245 -0.942592 0.159642 0.042360 -0.009573 -434927.000000 0 1 0
1.303056 -2.468563 22.275680 22.449893 -1.085110 0.124661 0.042426 -0.015947 1447010.000000 0 1 0
0.034656 -1.878563 22.618680 22.696583 -1.552350 0.082877 0.035422 -0.020054 1206600.000000 0 1 0
-0.940344 -2.678563 23.301080 23.473374 1.233175 0.121235 0.041178 -0.018615 -425238.000000 0 1 0
-2.023744 -1.808563 23.930570 24.083991 0.729308 0.112934 0.035340 -0.028290 -141455.000000 0 1 0
-1.487744 -0.985563 24.981300 25.044961 0.585081 0.071315 0.039266 -0.023320 381609.000000 0 0 1
-2.344544 0.126437 25.196130 25.305293 -0.053876 0.092919 0.039752 -0.024470 -198686.000000 0 0 1
-1.888244 1.102437 26.340520 26.431115 -0.528454 0.082820 0.052656 -0.020110 -297745.000000 0 0 1
-1.970444 0.653437 27.679050 27.756791 -0.320207 0.074861 0.053931 -0.011094 23812.000000 0 0 1
-1.205044 -0.486563 28.040480 28.070579 0.383754 0.046313 0.053906 -0.019387 215412.000000 0 0 1
0.279756 -0.148563 28.440060 28.441824 -0.488175 0.011137 0.066587 -0.016536 514736.000000 0 0 1
1.158156 0.200437 27.349140 27.374385 0.171368 0.042950 0.057678 -0.014180 376278.000000 0 0 1
1.681856 -0.968563 26.693590 26.764053 -0.522503 0.072579 0.051677 -0.013159 -498472.000000 0 0 1
2.858056 -1.671563 27.360550 27.560158 -0.529213 0.120427 0.045168 -0.009155 -744093.000000 0 0 1
2.449256 -2.477563 28.452600 28.665094 -0.791144 0.121837 0.038628 -0.008512 473147.000000 0 0 1
3.512756 -3.216563 29.087330 29.474710 -0.741411 0.162306 0.037774 0.003862 714123.000000 0 0 1
4.147856 -4.473663 28.387870 29.036004 -0.823170 0.211685 0.045465 -0.001531 -446157.000000 0 0 1
5.016556 -4.141263 27.399770 28.161380 -0.690109 0.233098 0.039777 -0.003609 -928859.000000 0 0 1
5.197256 -5.181663 26.475320 27.473691 -0.783896 0.270412 0.038254 -0.007800 -404715.000000 0 0 1
6.121756 -4.720363 25.338810 26.491754 -0.656856 0.296109 0.022757 0.001517 1378970.000000 0 0 1
7.492156 -4.345863 25.641800 27.065122 -0.525625 0.325749 0.022878 0.006255 1050020.000000 0 0 1
8.384156 -5.427663 25.764480 27.632626 -0.574525 0.369817 0.037065 -0.002514 -277736.000000 0 0 1
9.369156 -5.502563 24.591190 26.884678 -0.531034 0.416052 0.028833 -0.004632 -163075.000000 0 0 1
8.750556 -6.068963 23.401650 25.710733 -0.606385 0.427054 0.027934 -0.010950 -80364.500000 0 0 1
9.529856 -5.982063 22.249580 24.932851 -0.560552 0.468204 0.040476 -0.010953 -187336.000000 0 1 0
9.658856 -4.570063 21.632880 24.128002 -0.441936 0.458792 0.038387 -0.007517 729373.000000 0 1 0
8.384356 -4.019863 21.263380 23.207500 -0.447071 0.412232 0.032128 -0.007673 23430.800000 0 1 0
8.431456 -2.824563 20.559780 22.400272 -0.323253 0.408202 0.020869 -0.001411 543402.000000 0 1 0
7.074156 -2.113563 20.167880 21.476830 -0.290330 0.350931 0.018142 -0.001257 713008.000000 0 1 0
6.716056 -1.207563 21.136380 22.210587 -0.177902 0.312281 0.022249 -0.007937 -353767.000000 0 1 0
5.463356 -0.649563 20.803880 21.519099 -0.118339 0.258543 0.025047 -0.009042 -81574.500000 0 1 0
4.792756 -0.101563 22.088980 22.603183 -0.021188 0.213710 0.028287 -0.011910 429735.000000 0 1 0
3.485756 0.481437 22.052680 22.331659 0.137247 0.158232 0.029140 -0.011616 546056.000000 0 1 0
3.102156 0.894437 23.353580 23.575689 0.280714 0.137375 0.042822 -0.013691 -621574.000000 0 1 0
1.644456 1.290437 23.491830 23.584646 0.665354 0.088747 0.042958 -0.012338 -826987.000000 0 1 0
1.331556 2.562437 22.976380 23.157141 1.091557 0.125028 0.038281 -0.020395 510079.000000 0 1 0
-0.077644 2.619437 23.189680 23.337282 -1.541164 0.112529 0.027483 -0.009946 293369.000000 0 1 0
-0.775944 3.902437 22.744080 23.089484 -1.374520 0.173187 0.036246 -0.014040 -189426.000000 0 1 0
-0.549344 5.007437 23.516980 24.050459 -1.461528 0.211017 0.038975 -0.011861 175602.000000 0 1 0
-1.501344 5.961437 23.065180 23.870385 -1.324084 0.260476 0.027832 -0.014404 -8032.070000 0 1 0
-1.500244 7.339437 23.800770 24.951848 -1.369165 0.304930 0.039364 -0.009960 -400994.000000 0 1 0
-0.612544 8.238437 23.263180 24.686486 -1.496581 0.341227 0.031757 -0.011883 -479248.000000 0 1 0
-0.630644 9.404437 23.971630 25.758109 -1.503838 0.374627 0.034951 -0.000992 -421256.000000 0 0 1
0.203556 10.555437 23.317180 25.595890 1.551514 0.425158 0.038082 -0.008790 1448240.000000 0 0 1
1.630456 10.397437 23.152180 25.432037 1.415250 0.426655 0.036270 -0.015024 1177460.000000 0 0 1
2.358456 10.408437 24.381900 26.615314 1.347968 0.412590 0.046383 -0.008271 -297606.000000 0 0 1
3.634556 11.306437 24.357410 27.098504 1.259770 0.453665 0.043418 -0.012995 -255531.000000 0 0 1
4.796156 10.870437 23.740160 26.547405 1.155275 0.464032 0.056147 -0.008609 -736681.000000 0 0 1
4.814856 10.569437 22.367480 25.203174 1.143341 0.478934 0.050934 -0.015066 -512089.000000 0 0 1
6.238056 10.117437 21.941780 24.954310 1.018286 0.496452 0.071900 -0.010408 617577.000000 0 1 0
7.166056 11.201437 21.916480 25.635067 1.001665 0.545358 0.073865 -0.012475 -451545.000000 0 0 1
8.441456 10.733437 21.603780 25.557546 0.904364 0.563671 0.081258 -0.012116 9755.370000 0 0 1
9.363956 11.866437 21.022780 25.893113 0.902729 0.623386 0.085434 -0.020232 19088.700000 0 0 1
9.098756 12.031437 19.652080 24.773920 0.923308 0.654657 0.077575 -0.024260 276698.000000 0 1 0
9.815056 13.120437 19.014180 25.100204 0.928529 0.711274 0.085593 -0.019047 481797.000000 0 0 1
11.269456 12.815437 18.591580 25.236539 0.849499 0.742630 0.085872 -0.012113 -43768.400000 0 0 1
12.183156 12.749437 19.668180 26.416183 0.808107 0.730935 0.087673 -0.013198 -404234.000000 0 0 1
13.454756 12.511437 19.109080 26.508932 0.749085 0.765762 0.080468 -0.007189 118737.000000 0 0 1
14.589156 12.319437 20.157680 27.765880 0.701248 0.758327 0.074271 -0.004628 260254.000000 0 0 1
15.027456 13.536437 20.697680 28.938789 0.733246 0.773854 0.074159 -0.001891 -223048.000000 0 0 1
16.305156 13.339437 21.259880 29.929604 0.685687 0.780830 0.073965 -0.005081 230851.000000 0 0 1
16.972756 14.617437 21.834480 31.280800 0.710977 0.798174 0.084818 -0.003364 256973.000000 0 0 1
16.419156 15.094437 23.071880 32.089599 0.743386 0.768458 0.083168 -0.004736 568621.000000 0 0 1
17.338656 16.060437 23.567290 33.376396 0.747146 0.786812 0.079830 -0.008056 206928.000000 0 0 1
-20.705744 13.123057 -24.802212 34.872513 -0.564894 2.362036 0.010441 -0.001152 -179547.000000 0 0 1
-20.807744 12.801657 -26.133852 35.774611 -0.551547 2.389871 0.016601 -0.015674 -24357.500000 0 0 1
-21.715844 13.565457 -26.907092 37.142847 -0.558369 2.380992 0.012971 -0.021398 -174759.000000 0 0 1
-21.408044 13.528457 -28.415842 38.062889 -0.563570 2.413657 0.021940 -0.018157 -282587.000000 0 0 1
-20.178144 14.138757 -28.674362 37.805832 -0.611193 2.431749 0.032243 -0.016002 -576185.000000 0 0 1
-19.959544 14.363957 -30.071472 38.845850 -0.623795 2.456125 0.039460 -0.016944 -156882.000000 0 0 1
-18.589744 14.922157 -30.498182 38.709022 -0.676391 2.478160 0.027911 -0.017242 -736885.000000 0 0 1
-17.627244 13.933357 -30.585312 37.951541 -0.668887 2.507998 0.029002 -0.015227 -1675840.000000 0 0 1
-16.351944 14.445557 -30.735312 37.692434 -0.723576 2.524257 0.019794 -0.013524 -696144.000000 0 0 1
-15.494044 13.986257 -29.541592 36.171624 -0.734297 2.526476 0.040575 -0.007695 -626905.000000 0 0 1
-15.965244 14.428657 -28.290932 35.545069 -0.734885 2.491317 0.032174 -0.013996 -209672.000000 0 0 1
-16.841944 13.511957 -27.675452 35.102061 -0.676130 2.479046 0.042465 -0.008284 -174524.000000 0 0 1
-17.510544 14.113657 -26.428802 34.702968 -0.678394 2.436531 0.034737 -0.017839 -114421.000000 0 0 1
-16.589444 14.345057 -25.357612 33.526091 -0.712972 2.428519 0.067861 -0.021808 493571.000000 0 0 1
-17.297144 14.824657 -24.207612 33.241090 -0.708577 2.386552 0.044174 -0.020429 23846.800000 0 0 1
-16.442544 15.425157 -23.057712 32.248268 -0.753484 2.367429 0.045895 -0.015920 -21406.100000 0 0 1
-15.828244 16.633857 -23.401612 32.784965 -0.810210 2.365693 0.024872 -0.021390 -154213.000000 0 0 1
-15.236944 17.261557 -22.270212 32.032610 -0.847616 2.339544 0.028000 -0.013037 -261079.000000 0 0 1
-15.053544 18.798057 -22.519912 32.971541 -0.895566 2.322673 0.029992 -0.018144 469112.000000 0 0 1
-16.244744 19.586457 -22.653512 34.069085 -0.878392 2.298195 0.004802 -0.013857 430993.000000 0 0 1
-16.910144 19.373457 -23.892612 35.101861 -0.853185 2.319466 -0.004547 -0.010379 -589614.000000 0 0 1
-18.191244 20.188257 -23.906312 36.193905 -0.837385 2.292290 -0.014155 -0.013999 -380740.000000 0 0 1
-17.816344 21.573457 -24.045212 36.891846 -0.880493 2.280720 -0.013427 -0.016107 894766.000000 0 0 1
-19.004844 22.385857 -24.149212 38.019667 -0.866903 2.259034 0.001860 -0.023874 644292.000000 0 0 1
-18.859444 23.940657 -24.174712 38.900518 -0.903565 2.241388 0.004475 -0.028849 -2843.110000 0 0 1
-18.253944 24.469957 -22.987212 38.215143 -0.929877 2.216200 0.011346 -0.025363 -16209.100000 0 0 1
-17.434644 25.597957 -23.253612 38.729222 -0.972871 2.214816 0.009980 -0.014080 128917.000000 0 0 1
-16.275744 25.674557 -22.213212 37.649827 -1.005805 2.201849 0.019275 -0.024851 305374.000000 0 0 1
-15.237944 24.689157 -22.207012 36.536294 -1.017832 2.224092 0.029635 -0.035648 300808.000000 0 0 1
-15.726644 23.384357 -21.834912 35.649948 -0.978747 2.229992 0.019455 -0.016540 -1159690.000000 0 0 1
-14.720644 22.231257 -21.854212 34.475102 -0.985920 2.257398 0.052255 -0.023094 -472006.000000 0 0 1
-13.909344 22.409357 -20.746712 33.557043 -1.015300 2.237313 0.070783 -0.033508 -225106.000000 0 0 1
-12.957044 21.374857 -20.483712 32.316434 -1.025844 2.257315 0.063157 -0.028772 71213.500000 0 0 1
-11.963144 21.590657 -19.341712 31.358812 -1.064819 2.235451 0.066190 -0.022864 -255638.000000 0 0 1
-12.489044 21.597257 -18.020612 30.775967 -1.046508 2.196344 0.079306 -0.016347 -127587.000000 0 0 1
-13.167544 22.782257 -17.662512 31.691951 -1.046730 2.161949 0.079283 -0.026438 -183077.000000 0 0 1
-13.818844 22.766657 -16.265212 31.206381 -1.025262 2.119070 0.084553 -0.018050 204615.000000 0 0 1
-13.074444 23.211857 -15.139112 30.641868 -1.057825 2.087557 0.089160 -0.026396 641131.000000 0 0 1
-14.016444 23.364957 -14.055112 30.658246 -1.030456 2.047041 0.090046 -0.017279 766879.000000 0 0 1
-13.323644 23.800157 -12.726712 30.098773 -1.060450 2.007364 0.097001 -0.016549 225689.000000 0 0 1
-12.778644 25.123857 -12.639212 30.890963 -1.100272 1.992325 0.092789 -0.021161 271413.000000 0 0 1
-11.773844 25.213057 -11.669812 30.174594 -1.133917 1.967893 0.071469 -0.016264 -116354.000000 0 0 1
-11.229444 26.647757 -11.520412 31.127532 -1.171976 1.949917 0.082127 -0.019466 160370.000000 0 0 1
-10.683744 27.168157 -12.734512 31.849943 -1.196127 1.982126 0.079214 -0.025025 214630.000000 0 0 1
-10.398544 28.550257 -12.627112 32.904267 -1.221511 1.964653 0.054802 -0.016627 -650300.000000 0 0 1
-10.086244 29.163957 -14.012812 33.891408 -1.237827 1.997049 0.069577 -0.028298 1351670.000000 0 0 1
-8.706144 29.153657 -14.488012 33.699186 -1.280597 2.015202 0.060926 -0.029937 1153210.000000 0 0 1
-8.219844 27.859357 -14.769412 32.585965 -1.283889 2.041198 0.066297 -0.030959 -744614.000000 0 0 1
-6.808544 27.764857 -15.349812 32.447808 -1.330320 2.063559 0.071104 -0.035184 337259.000000 0 0 1
-5.871344 28.422457 -14.481212 32.434768 -1.367088 2.033615 0.065910 -0.032925 -653664.000000 0 0 1
-4.589144 28.421957 -15.015712 32.470594 -1.410713 2.051542 0.069089 -0.035267 -289025.000000 0 0 1
-3.492344 29.219957 -14.286812 32.712617 -1.451841 2.022765 0.057031 -0.025456 -104873.000000 0 0 1
-3.369844 30.677257 -14.360912 34.039473 -1.461387 2.006325 0.052700 -0.024885 407495.000000 0 0 1
-4.397144 31.516257 -13.766912 34.671850 -1.432171 1.979111 0.039247 -0.026803 391342.000000 0 0 1
-4.236944 33.038057 -14.104912 36.171997 -1.443248 1.971363 0.035679 -0.025916 -93692.300000 0 0 1
-3.413544 33.717957 -13.203412 36.371458 -1.469902 1.942299 0.032609 -0.027261 -147355.000000 0 0 1
-3.406744 -33.477663 -13.553212 36.277395 1.469384 1.953683 0.025156 -0.022402 661492.000000 0 0 1
-2.419444 -32.601563 -12.677512 35.063299 1.496720 1.940738 0.029610 -0.017143 153644.000000 0 0 1
-2.908044 -32.558263 -11.365112 34.607268 1.481715 1.905408 0.026500 -0.020445 680735.000000 0 0 1
-1.968944 -31.940363 -10.443612 33.662035 1.509230 1.886251 0.023790 -0.020426 300882.000000 0 0 1
-2.424644 -31.858863 -8.983512 33.189901 1.494837 1.844885 0.015053 -0.008090 33303.800000 0 0 1
-1.388844 -31.321663 -8.153712 32.395347 1.526484 1.825226 0.008755 -0.014494 194658.000000 0 0 1
-1.647644 -31.468663 -6.780412 32.232987 1.518486 1.782736 0.009256 -0.016082 -28256.700000 0 0 1
-0.710944 -30.670863 -5.863112 31.234330 1.547621 1.759630 0.030588 -0.014695 -66657.800000 0 0 1
-0.941044 -30.861663 -4.474912 31.198600 1.540313 1.714726 0.039956 -0.010327 -227258.000000 0 0 1
0.141056 -30.305063 -3.772912 30.539345 -1.566142 1.694655 0.034867 -0.003171 -234431.000000 0 0 1
0.111856 -30.635963 -2.260912 30.719480 -1.567145 1.644462 0.032770 0.004027 -430796.000000 0 0 1
0.186156 -31.990963 -1.888112 32.047174 -1.564977 1.629747 0.036059 -0.005842 131935.000000 0 0 1
1.260756 -32.738363 -2.423212 32.852122 -1.532305 1.644625 0.034729 -0.010745 556537.000000 0 0 1
2.713656 -32.436663 -1.914312 32.606221 -1.487331 1.629540 0.041549 -0.011206 -141420.000000 0 0 1
2.817656 -32.700363 -0.523812 32.825711 -1.484843 1.586754 0.024906 -0.004906 1017600.000000 0 0 1
4.083956 -32.245863 0.023688 32.503461 -1.444817 1.570068 0.020514 -0.007216 1019920.000000 0 0 1
4.390456 -30.760563 0.203788 31.072977 -1.429024 1.564238 0.007403 -0.007268 -826870.000000 0 0 1
4.446156 -29.995663 -0.957812 30.338515 -1.423641 1.602372 0.033591 -0.016381 262490.000000 0 0 1
4.376256 -28.616763 -0.712312 28.958214 -1.419046 1.595397 0.039378 -0.007230 -682112.000000 0 0 1
3.947456 -27.800963 -1.945512 28.147131 -1.429749 1.639971 0.043271 -0.006663 -501866.000000 0 0 1
2.647056 -28.134863 -2.380312 28.359184 -1.476988 1.654830 0.041395 -0.003122 -57904.600000 0 0 1
2.105556 -27.170863 -3.250112 27.445444 -1.493458 1.689496 0.035671 -0.005635 -77843.300000 0 0 1
2.660356 -27.125063 -4.689412 27.655689 -1.473032 1.741184 0.034521 -0.009267 -105704.000000 0 0 1
2.225756 -28.258063 -5.475812 28.869649 -1.492193 1.761626 0.030812 -0.013755 358002.000000 0 0 1
2.916856 -28.306563 -6.710012 29.236857 -1.468114 1.802366 0.037167 -0.020694 -346767.000000 0 0 1
2.199756 -29.290663 -7.564312 30.331513 -1.495836 1.822844 0.021388 -0.013324 774459.000000 0 0 1
0.891356 -28.829263 -7.987512 29.928603 -1.539888 1.840956 0.024094 -0.008777 812514.000000 0 0 1
0.695456 -28.864563 -9.396712 30.363545 -1.546707 1.885436 0.025425 -0.004505 -466370.000000 0 0 1
-0.585844 -28.154063 -9.801012 29.817014 1.549991 1.905729 0.016739 -0.009649 -1127780.000000 0 0 1
-0.593544 -26.746363 -9.551212 28.406793 1.548608 1.913707 0.002933 -0.011208 789710.000000 0 0 1
-1.847844 -26.016663 -9.601512 27.793350 1.499890 1.923526 0.023128 -0.013323 1618990.000000 0 0 1
-3.106144 -26.477263 -8.808312 28.076324 1.454016 1.889912 0.027910 -0.011101 -46622.400000 0 0 1
-3.042244 -26.395863 -7.408712 27.584159 1.456048 1.842721 0.027910 -0.008936 -463746.000000 0 0 1
-2.016644 -27.163863 -6.852012 28.087228 1.496692 1.817238 0.023446 -0.008651 -203897.000000 0 0 1
-1.813144 -26.901963 -5.379412 27.494385 1.503500 1.767722 0.029933 0.001926 74520.500000 0 0 1
-2.853144 -27.433963 -4.596912 27.962374 1.467168 1.735942 0.030748 0.003188 -237377.000000 0 0 1
-2.585844 -27.171263 -3.233312 27.484877 1.475914 1.688709 0.030207 0.011029 654779.000000 0 0 1
-3.749744 -27.287663 -2.146912 27.627638 1.434236 1.648584 0.043104 0.007588 557221.000000 0 0 1
-4.663044 -26.221463 -2.224512 26.725598 1.394803 1.654128 0.044360 0.006265 -9356.060000 0 0 1
-5.413644 -26.120563 -1.023512 26.695298 1.366434 1.609146 0.055178 0.000401 -55986.600000 0 0 1
-6.362844 -24.965763 -0.755812 25.774917 1.321246 1.600124 0.037567 -0.003174 -383619.000000 0 0 1
-5.737844 -23.765963 -0.646512 24.457347 1.333899 1.597234 0.027950 -0.002347 228238.000000 0 1 0
-6.630844 -22.791963 -0.029912 23.736945 1.287682 1.572056 0.034316 -0.012458 1034530.000000 0 1 0
-5.802144 -21.503963 0.336988 22.275522 1.307255 1.555668 0.019903 -0.012804 646420.000000 0 1 0
-4.859444 -21.664163 1.393088 22.246143 1.350141 1.508134 0.023093 -0.011860 25616.700000 0 1 0
-4.329144 -20.390263 1.707788 20.914609 1.361589 1.489050 0.009874 -0.011904 -304759.000000 0 1 0
-3.291144 -20.284863 2.800388 20.740045 1.409952 1.435359 0.008959 -0.005035 -698930.000000 0 1 0
-3.889944 -20.575063 4.032288 21.324264 1.383941 1.380557 0.004328 0.009518 -450749.000000 0 1 0
-3.154044 -20.279063 5.165088 21.162858 1.416501 1.324242 0.019794 0.004224 -930199.000000 0 1 0
-2.203444 -21.386863 5.512688 22.195559 1.468131 1.319800 0.012715 -0.007539 -33236.600000 0 1 0
-1.194344 -21.551063 4.495088 22.047236 1.515434 1.365472 0.024388 -0.015358 179370.000000 0 1 0
-0.517144 -22.813963 4.707088 23.300237 1.548132 1.367377 0.029976 -0.015958 -1569260.000000 0 1 0
0.430956 -23.036163 3.557288 23.313190 -1.552091 1.417611 0.034879 -0.019551 -612179.000000 0 1 0
1.605756 -22.286863 3.546488 22.624330 -1.498871 1.413392 0.019618 -0.023001 6175.440000 0 1 0
2.534956 -22.749363 4.556188 23.339203 -1.459824 1.374319 0.040140 -0.023205 -1166190.000000 0 1 0
3.796856 -21.900163 4.728988 22.724361 -1.399132 1.361162 0.048004 -0.028775 -451917.000000 0 1 0
4.563656 -21.936163 3.536288 22.683200 -1.365680 1.414259 0.032426 -0.014703 -648802.000000 0 1 0
5.638656 -21.051563 3.805988 22.123479 -1.309090 1.397902 0.040126 -0.014740 127740.000000 0 1 0
6.276256 -20.647263 2.462188 21.720111 -1.275697 1.457192 0.038770 -0.009159 -80647.000000 0 1 0
7.059156 -21.590963 1.791288 22.786182 -1.254802 1.492102 0.048589 -0.012104 -189430.000000 0 1 0
6.870556 -21.452763 0.383188 22.529368 -1.260854 1.553787 0.043598 -0.019428 254575.000000 0 1 0
7.806156 -22.437563 -0.382612 23.759771 -1.235988 1.586900 0.051239 -0.011077 1176700.000000 0 1 0
9.143756 -21.962963 -0.612612 23.798221 -1.176295 1.596541 0.048194 -0.006713 96232.000000 0 1 0
9.834156 -22.801863 -1.489612 24.876787 -1.163612 1.630712 0.050454 -0.010715 -63882.100000 0 1 0
11.216456 -22.220963 -1.834012 24.958840 -1.103341 1.644344 0.050783 -0.008795 -121647.000000 0 1 0
11.161956 -21.170163 -2.779512 24.093376 -1.085588 1.686418 0.053777 -0.007078 683059.000000 0 1 0
12.445456 -20.965863 -3.408212 24.618544 -1.035092 1.709683 0.051429 -0.013404 749415.000000 0 1 0
12.599956 -19.745163 -4.304412 23.815086 -1.002812 1.752538 0.050622 -0.025373 -164989.000000 0 1 0
12.570556 -18.521663 -3.665712 22.682776 -0.974513 1.733116 0.056477 -0.018250 175748.000000 0 1 0
12.629356 -17.464463 -4.615312 22.041080 -0.944704 1.781753 0.064265 -0.023313 -1391770.000000 0 1 0
13.080256 -16.132163 -3.961812 21.143220 -0.889493 1.759290 0.067340 -0.017525 990610.000000 0 1 0
14.418856 -16.078563 -3.427012 21.867053 -0.839766 1.728165 0.064788 -0.013261 1128640.000000 0 1 0
15.430656 -16.294263 -4.416412 22.871661 -0.812613 1.765112 0.065911 -0.011108 48926.800000 0 1 0
16.889956 -15.860163 -4.005812 23.513016 -0.753965 1.741997 0.068773 -0.005949 1002340.000000 0 1 0
17.556756 -16.798463 -3.150312 24.502092 -0.763330 1.699726 0.074758 -0.014458 663879.000000 0 1 0
18.942856 -16.464163 -3.126312 25.291783 -0.715506 1.694723 0.066245 -0.003216 125294.000000 0 0 1
19.734056 -17.452963 -2.288912 26.443865 -0.724134 1.657462 0.052381 -0.007765 -167241.000000 0 0 1
21.138256 -17.334363 -2.415412 27.443401 -0.686846 1.658925 0.046269 -0.001921 64757.000000 0 0 1
21.755356 -17.947763 -1.330012 28.234494 -0.689789 1.617920 0.035855 0.002164 -278521.000000 0 0 1
23.288556 -18.007463 -1.447512 29.474071 -0.658205 1.619927 0.032470 -0.006833 160092.000000 0 0 1
23.974156 -16.785663 -1.079812 29.286254 -0.610831 1.607676 0.031253 -0.002473 -979923.000000 0 0 1
25.284356 -17.008663 -0.767612 30.482495 -0.592165 1.595981 0.052465 -0.007149 -1081830.000000 0 0 1
25.929656 -15.614463 -0.427312 30.271127 -0.542025 1.584913 0.046137 -0.012695 268725.000000 0 0 1
25.222856 -14.989663 0.678288 29.348638 -0.536210 1.547683 0.024454 -0.010612 809499.000000 0 0 1
25.977456 -13.957163 1.322888 29.519158 -0.493025 1.525967 0.030658 -0.015779 261495.000000 0 0 1
25.132756 -13.240163 2.408288 28.508897 -0.484864 1.486221 0.027924 -0.017020 -74513.200000 0 0 1
24.778956 -13.912563 3.573388 28.641320 -0.511604 1.445707 0.037900 -0.003276 -33854.500000 0 0 1
25.829656 -14.274063 4.449988 29.844973 -0.504855 1.421135 0.074545 -0.002697 20316.200000 0 0 1
25.341456 -14.919863 5.766388 29.967365 -0.532109 1.377166 0.050407 0.010693 129844.000000 0 0 1
24.712956 -16.144163 5.666088 30.057757 -0.578669 1.381155 0.044202 0.011354 -213984.000000 0 0 1
23.752756 -16.387563 6.677188 29.619765 -0.603931 1.343412 0.032062 0.021816 -43275.300000 0 0 1
23.068456 -17.734463 6.607888 29.838382 -0.655410 1.347489 0.032777 0.016930 -85471.200000 0 0 1
23.846956 -18.888063 6.960188 31.207058 -0.669877 1.345872 0.052569 0.013261 -379721.000000 0 0 1
23.177956 -20.063963 6.708388 31.381248 -0.713509 1.355363 0.026330 0.020685 -255402.000000 0 0 1
1.925256 23.257557 -2.873312 23.513325 1.488205 1.693302 0.024249 -0.025460 -566353.000000 0 1 0
2.957056 24.074157 -2.477212 24.381259 1.448577 1.672575 0.024473 -0.028272 -618521.000000 0 1 0
3.542556 24.670557 -3.640512 25.188080 1.428177 1.715837 0.028698 -0.021619 -37438.300000 0 0 1
4.603156 25.747057 -3.386212 26.373593 1.393882 1.699546 0.020479 -0.015371 -140174.000000 0 0 1
5.737756 25.288157 -2.719212 26.073105 1.347679 1.675278 0.010781 -0.016784 -291718.000000 0 0 1
6.407156 26.244557 -1.882412 27.080840 1.331347 1.640363 0.006826 -0.010388 755805.000000 0 0 1
7.600656 25.561757 -1.101712 26.690581 1.281777 1.612085 0.000427 -0.017151 628082.000000 0 0 1
8.707656 25.287257 -1.931412 26.814156 1.239164 1.642888 0.000364 -0.019861 -785506.000000 0 0 1
9.646056 24.468457 -1.330212 26.334791 1.195279 1.621329 -0.000442 -0.010272 -475825.000000 0 0 1
10.774456 24.134757 -2.312412 26.531540 1.150916 1.658064 0.018002 -0.011305 -1448230.000000 0 0 1
11.554156 25.253657 -2.621212 27.894739 1.141703 1.664903 0.026447 -0.005605 -320055.000000 0 0 1
12.417756 25.047457 -3.715412 28.202483 1.110539 1.702921 0.038859 -0.011173 275471.000000 0 0 1
13.498156 23.943657 -3.743412 27.740080 1.057460 1.706155 0.045579 -0.010696 -806508.000000 0 0 1
12.936256 22.637057 -3.838012 26.353622 1.051624 1.716951 0.041433 -0.013036 -183913.000000 0 0 1
12.719156 22.206157 -5.177712 26.109366 1.050635 1.770428 0.048814 -0.025476 45367.200000 0 0 1
11.694056 21.025057 -5.227512 24.619724 1.063208 1.784755 0.046974 -0.026751 728782.000000 0 1 0
10.345556 21.381857 -4.960912 24.265716 1.120154 1.776689 0.030636 -0.026487 476503.000000 0 1 0
9.450456 20.252557 -5.011412 22.903961 1.134199 1.791382 0.007744 -0.020744 -245917.000000 0 1 0
8.002456 20.685057 -4.914012 22.716918 1.201659 1.788835 0.008869 -0.013593 -780542.000000 0 1 0
7.662456 21.200757 -3.656212 22.837539 1.223981 1.731585 0.011744 -0.012792 361642.000000 0 1 0
6.303956 21.627057 -3.675612 22.824977 1.287170 1.732535 0.014603 -0.006048 517273.000000 0 1 0
5.843156 22.249857 -2.316012 23.120608 1.313980 1.671135 0.017161 -0.013354 3332.430000 0 1 0
5.740356 21.310357 -1.255412 22.105634 1.307672 1.627618 0.019222 -0.017618 -50424.600000 0 1 0
5.031456 21.906257 -0.204412 22.477576 1.345031 1.579890 0.028304 -0.017969 16275.300000 0 1 0
4.642356 21.045357 0.990088 21.574030 1.353685 1.524888 0.019400 -0.015035 -38141.000000 0 1 0
3.786456 21.705557 1.904988 22.115547 1.398088 1.484551 0.025998 -0.012649 285784.000000 0 1 0
3.313156 20.894157 2.943388 21.358987 1.413537 1.432551 0.024659 -0.014252 155547.000000 0 1 0
2.246056 21.437257 3.933788 21.910624 1.466404 1.390280 0.017543 -0.013254 376635.000000 0 1 0
0.942156 21.601057 3.375588 21.883507 1.527208 1.415925 0.014993 -0.010567 -35939.200000 0 1 0
0.124056 21.855557 4.490088 22.312365 1.565120 1.368175 0.020641 -0.024019 -463540.000000 0 1 0
-1.238744 22.355357 3.994788 22.743236 -1.515441 1.394233 0.025498 -0.008946 -211750.000000 0 1 0
-2.215644 22.609157 5.009088 23.263147 -1.473111 1.353774 0.037628 -0.013272 251157.000000 0 1 0
-3.473444 22.711357 4.336988 23.381189 -1.419034 1.384225 0.044442 -0.016767 -118035.000000 0 1 0
-4.565544 23.022157 5.344088 24.071210 -1.375025 1.346919 0.045713 -0.022386 -451841.000000 0 1 0
-4.700844 24.353357 5.716488 25.453136 -1.380115 1.344275 0.065022 -0.015287 821839.000000 0 0 1
-5.969244 24.427057 6.408588 25.949624 -1.331123 1.321252 0.063941 -0.016104 988278.000000 0 0 1
-6.292144 25.882157 6.708088 27.467718 -1.332315 1.324084 0.070922 -0.015743 -1264490.000000 0 0 1
-5.356544 26.468057 7.498788 28.026459 -1.371116 1.299935 0.065475 -0.021213 -744538.000000 0 0 1
-5.743744 27.733857 8.041388 29.441829 -1.366581 1.294153 0.064535 -0.023891 -17086.100000 0 0 1
-6.004344 28.947357 7.195988 30.426696 -1.366274 1.332032 0.071298 -0.028422 956782.000000 0 0 1
-7.291544 28.903557 6.548088 30.519824 -1.323681 1.354563 0.058249 -0.032816 223485.000000 0 0 1
-7.377144 30.022657 5.649088 31.427605 -1.329851 1.390065 0.076634 -0.035239 -106529.000000 0 0 1
-8.816444 30.405657 5.165688 32.076751 -1.288575 1.409050 0.076280 -0.036758 449004.000000 0 0 1
-9.706444 30.861557 6.137788 32.929063 -1.266076 1.383306 0.074487 -0.031783 -220928.000000 0 0 1
-10.189344 29.853857 7.021888 32.316906 -1.241886 1.351767 0.063402 -0.024526 -1597300.000000 0 0 1
-11.207344 30.452357 7.963388 33.412066 -1.218151 1.330141 0.047145 -0.024856 -895689.000000 0 0 1
-10.707844 31.360557 8.920988 34.318019 -1.241765 1.307825 0.052446 -0.028755 -26122.800000 0 0 1
-11.572544 31.483957 10.038888 35.013463 -1.218556 1.280000 0.053977 -0.018432 -375068.000000 0 0 1
-10.827244 31.699957 11.330488 35.362359 -1.241666 1.244633 0.045124 -0.023372 -601399.000000 0 0 1
-10.139644 32.890757 11.298788 36.225362 -1.271758 1.253601 0.035892 -0.014959 -282566.000000 0 0 1
-9.502744 33.133557 12.513688 36.670521 -1.291492 1.222554 0.041055 -0.018675 31508.100000 0 0 1
-9.035844 -34.025363 12.715388 37.430641 1.311226 1.224193 0.043247 -0.021734 -558539.000000 0 0 1
-10.023644 -33.355063 13.403888 37.318868 1.278869 1.203416 0.040159 -0.006173 -512063.000000 0 0 1
-9.810444 -31.918063 13.404188 35.981660 1.272598 1.189064 0.035551 0.005403 185197.000000 0 0 1
-10.888444 -31.048863 14.124288 35.806224 1.233509 1.165311 0.027030 -0.002821 -134987.000000 0 0 1
-11.097344 -31.113463 15.560988 36.514970 1.228189 1.130560 0.021873 -0.006235 114104.000000 0 0 1
-10.014444 -30.726763 16.404188 36.242523 1.255733 1.101092 0.048314 -0.008695 136087.000000 0 0 1
-10.318044 -30.888163 17.906188 37.164126 1.248405 1.068073 0.056189 -0.018833 -234748.000000 0 0 1
-11.119644 -29.948463 18.551188 36.941894 1.215280 1.044688 0.052137 -0.023367 216553.000000 0 0 1
-11.772344 -30.508663 19.700888 38.177109 1.202531 1.028576 0.057493 -0.029675 77822.600000 0 0 1
-11.786544 -29.515463 20.891188 38.033235 1.190864 0.989285 0.056179 -0.032560 249892.000000 0 0 1
-10.581744 -29.519863 21.649188 38.106207 1.226603 0.966567 0.057410 -0.027958 423073.000000 0 0 1
-10.740944 -28.857263 22.878088 38.360350 1.214474 0.931788 0.050169 -0.024428 -479063.000000 0 0 1
-9.434044 -28.827063 23.643388 38.457907 1.254519 0.908682 0.062175 -0.028300 -550579.000000 0 0 1
-9.169744 -29.971463 24.417088 39.731184 1.273891 0.908972 0.064576 -0.020935 365861.000000 0 0 1
-7.898744 -29.781063 25.044988 39.705835 1.311538 0.888260 0.065558 -0.016942 475641.000000 0 0 1
-7.605444 -30.921363 25.992588 41.104600 1.329623 0.886210 0.069597 -0.012810 -297805.000000 0 0 1
-7.401744 -32.166463 25.360388 41.624710 1.344626 0.915666 0.076817 -0.002356 256877.000000 0 0 1
-7.225744 -33.237163 26.300088 42.995524 1.356728 0.912597 0.066624 -0.007425 -190347.000000 0 0 1
-7.099144 33.913457 25.743288 43.165232 -1.364445 0.931801 0.047499 -0.011247 607792.000000 0 0 1
-5.858344 33.739857 25.034188 42.419438 -1.398878 0.939541 0.058737 -0.006720 639503.000000 0 0 1
-5.809644 32.579057 24.209488 41.003003 -1.394327 0.939202 0.044321 0.000758 -292222.000000 0 0 1
-6.896444 32.316657 23.126688 40.333249 -1.360548 0.960158 0.046804 -0.001749 282328.000000 0 0 1
-7.829244 31.305457 23.459888 39.896053 -1.325731 0.942181 0.061702 -0.013541 54536.800000 0 0 1
-8.859144 31.238157 22.499488 39.503593 -1.294452 0.964831 0.051830 -0.013720 -205257.000000 0 0 1
-9.788844 30.046657 22.581788 38.840188 -1.255852 0.950345 0.050250 -0.020639 -267242.000000 0 0 1
-9.184044 28.852457 22.240788 37.569450 -1.262627 0.937269 0.049438 -0.013258 194777.000000 0 0 1
-9.858044 27.813357 22.974688 37.397863 -1.230175 0.909258 0.040563 -0.010111 446218.000000 0 0 1
-9.049844 26.507157 22.734088 36.074476 -1.241793 0.888987 0.034686 -0.004461 406663.000000 0 0 1
-7.828344 26.335157 23.432188 36.109429 -1.281857 0.864630 0.017749 -0.001946 100958.000000 0 0 1
-7.296144 25.043557 23.174888 34.892533 -1.287305 0.844401 0.010232 -0.003940 899574.000000 0 0 1
-5.789044 24.996757 23.629888 34.881549 -1.343217 0.826530 -0.005374 -0.001608 603207.000000 0 0 1
-4.888844 25.540557 22.714188 34.527600 -1.381669 0.852828 0.008520 0.000853 -209579.000000 0 0 1
-3.581044 25.547457 23.274088 34.744490 -1.431531 0.836771 0.006602 -0.002443 804174.000000 0 0 1
-2.503544 26.128357 22.268688 34.421697 -1.475271 0.867235 0.017741 -0.001584 343420.000000 0 0 1
-2.278144 25.110057 21.353188 33.040332 -1.480318 0.868102 0.014139 0.004107 -323376.000000 0 0 1
-1.530344 25.511157 20.246088 32.604680 -1.510881 0.900834 0.019159 0.003876 -169669.000000 0 0 1
-1.137244 24.354257 19.281288 31.083617 -1.524134 0.901666 0.013673 0.002170 -671149.000000 0 0 1
-0.112244 23.562557 19.751788 30.746379 -1.566033 0.873157 0.013057 0.002599 -553122.000000 0 0 1
0.234856 22.431157 18.939288 29.358280 1.560327 0.869630 0.006588 0.000308 643492.000000 0 0 1
1.354456 21.600157 19.701788 29.267077 1.508172 0.832306 0.011251 -0.004677 -107805.000000 0 0 1
2.606756 22.168057 19.689688 29.764101 1.453743 0.847946 0.011263 -0.007136 -1122140.000000 0 0 1
3.652056 21.245757 19.613488 29.144615 1.400564 0.832578 0.018212 -0.006525 511316.000000 0 0 1
5.051056 21.808157 19.219588 29.504261 1.343196 0.861345 0.027229 -0.008098 903840.000000 0 0 1
6.007856 20.769457 18.990988 28.777114 1.289218 0.850066 0.041000 -0.010738 519792.000000 0 0 1
7.296156 21.270757 18.648388 29.213719 1.240359 0.878452 0.042424 -0.009390 254875.000000 0 0 1
8.406756 20.245057 18.448988 28.651371 1.177213 0.871195 0.052811 0.000332 -198079.000000 0 0 1
8.744956 19.563557 19.666088 29.085426 1.150438 0.828273 0.057947 -0.006207 44341.100000 0 0 1
9.673656 18.508957 19.491688 28.567237 1.089195 0.819880 0.067264 -0.005159 129184.000000 0 0 1
10.043656 17.809957 20.834088 29.191246 1.057318 0.776015 0.084855 -0.011090 440718.000000 0 0 1
9.112056 16.762257 21.157488 28.489334 1.072876 0.733784 0.077291 -0.010465 340516.000000 0 0 1
9.526956 16.041857 22.268288 29.051346 1.034888 0.697400 0.083370 -0.015774 134368.000000 0 0 1
8.435656 15.030257 22.664088 28.473317 1.059361 0.650177 0.074910 -0.012449 -58486.100000 0 0 1
7.276856 15.552857 23.271788 28.920929 1.133174 0.635678 0.056104 -0.005230 381425.000000 0 0 1
6.257456 14.597957 23.647588 28.486216 1.165836 0.591435 0.054582 0.003795 476408.000000 0 0 1
6.599356 13.466057 24.677688 28.876885 1.115121 0.546049 0.058741 0.002150 -528111.000000 0 0 1
7.028456 14.033057 25.929088 30.309132 1.106469 0.544304 0.061028 -0.005976 95486.300000 0 0 1
7.340956 13.007657 26.872988 30.744858 1.056998 0.507290 0.062574 -0.007028 -626110.000000 0 0 1
8.191656 13.474357 28.076288 32.201545 1.024556 0.511742 0.060318 0.000266 194171.000000 0 0 1
9.565956 13.729757 27.875388 32.512321 0.962267 0.540640 0.086472 0.000695 131636.000000 0 0 1
9.843656 14.920257 27.185188 32.535305 0.987597 0.581646 0.081549 -0.005705 -1327830.000000 0 0 1
11.239956 14.934557 26.598988 32.509749 0.925624 0.612549 0.095879 -0.014221 -670408.000000 0 0 1
11.345956 14.070457 25.486088 31.244986 0.892185 0.616883 0.096826 -0.015811 477385.000000 0 0 1
12.695356 13.760557 25.132788 31.339784 0.825640 0.640252 0.107628 -0.022954 -12844.300000 0 0 1
12.812156 12.581757 24.210688 30.143148 0.776325 0.638165 0.101643 -0.019963 248562.000000 0 0 1
12.244756 11.305957 24.627488 29.736709 0.745556 0.594935 0.098497 -0.011805 -1693540.000000 0 0 1
10.899256 11.287757 24.535888 29.124166 0.802907 0.568967 0.103088 -0.008711 -2065880.000000 0 0 1
10.404156 9.863457 25.031088 28.845964 0.758726 0.520139 0.098557 -0.006614 4101.560000 0 0 1
10.796656 8.923257 24.037388 27.820646 0.690682 0.527610 0.090943 -0.006219 327951.000000 0 0 1
10.329056 7.597357 24.331088 27.502929 0.634177 0.485005 0.084439 -0.011311 125774.000000 0 0 1
10.612056 6.543457 23.234888 26.368401 0.552540 0.492478 0.069168 -0.014598 427300.000000 0 0 1
11.971556 6.161857 23.022588 26.670699 0.475345 0.529189 0.068976 -0.015153 508838.000000 0 0 1
12.258056 5.099257 22.148588 25.822903 0.394216 0.539995 0.067037 -0.019018 -86876.500000 0 0 1
12.001756 3.634657 22.694088 25.928257 0.294064 0.504813 0.049460 -0.016847 -377126.000000 0 0 1
12.823256 3.270457 23.773388 27.208561 0.249718 0.507943 0.047585 -0.010440 -155940.000000 0 0 1
12.451956 2.034357 24.281288 27.363676 0.161946 0.479220 0.041668 -0.005205 289768.000000 0 0 1
13.672156 1.386957 25.020288 28.545864 0.101098 0.502265 0.033474 -0.004044 511434.000000 0 0 1
14.712256 0.888157 24.225788 28.357153 0.060295 0.546575 0.045642 -0.010147 -133502.000000 0 0 1
15.991856 1.166657 24.768988 29.505988 0.072824 0.574514 0.043751 -0.017776 -667867.000000 0 0 1
17.025056 0.468157 23.961188 29.397453 0.027491 0.617934 0.051172 -0.025457 -977676.000000 0 0 1
17.136256 -0.916743 24.181588 29.651997 -0.053446 0.617181 0.048714 -0.022563 11181.500000 0 0 1
18.276556 -1.458643 23.546488 29.842876 -0.079641 0.661592 0.038069 -0.007586 37286.100000 0 0 1
18.487456 -2.927243 24.049888 30.475431 -0.157033 0.661362 0.038433 0.000521 -14548.800000 0 0 1
17.549656 -3.802743 23.409088 29.503164 -0.213386 0.654351 0.036528 0.002201 450423.000000 0 0 1
17.810556 -5.163243 23.682988 30.079211 -0.282163 0.664291 0.039000 0.003556 230812.000000 0 0 1
16.730856 -6.101443 23.074288 29.147417 -0.349694 0.657306 0.043453 -0.003062 237242.000000 0 0 1
16.754456 -6.169543 21.629088 28.046257 -0.352825 0.690083 0.038985 -0.004375 69628.500000 0 0 1
15.819056 -7.067143 21.048988 27.262556 -0.420147 0.688682 0.043324 -0.006815 97043.700000 0 0 1
16.213656 -8.628943 21.055888 27.940862 -0.489076 0.717293 0.054016 -0.009070 -30246.900000 0 0 1
16.169756 -9.262443 22.321988 29.077913 -0.520198 0.695613 0.045487 -0.005812 -91569.000000 0 0 1
16.709556 -10.542643 22.223288 29.736024 -0.562856 0.726728 0.057908 -0.008779 -31830.800000 0 0 1
16.536856 -11.345543 23.529588 30.916508 -0.601320 0.705837 0.068559 -0.007511 213207.000000 0 0 1
15.365156 -12.147143 23.555988 30.635367 -0.668961 0.693654 0.083205 -0.016414 -14000.300000 0 0 1
15.377956 -13.176343 24.501488 31.787112 -0.708448 0.690701 0.089253 -0.007309 174184.000000 0 0 1
14.200656 -14.169243 24.342188 31.543117 -0.784291 0.689268 0.087800 -0.012042 185832.000000 0 0 1
14.390856 -14.801343 23.109188 30.987273 -0.799459 0.729116 0.096558 -0.016305 265058.000000 0 0 1
13.462756 -15.866643 22.936888 30.969292 -0.867177 0.736784 0.091469 -0.010737 105745.000000 0 0 1
13.613056 -16.620343 21.622288 30.480723 -0.884541 0.782184 0.093634 -0.015938 -659865.000000 0 0 1
14.829256 -17.270443 21.558188 31.351723 -0.861302 0.812585 0.091354 -0.012908 -775928.000000 0 0 1
15.032656 -17.800543 20.255888 30.872984 -0.869501 0.855152 0.084408 -0.005389 88763.400000 0 0 1
-23.817644 -31.975663 26.852830 48.070757 0.930588 0.978087 0.019200 -0.015110 -640473.000000 0 0 1
-23.948644 -33.372663 26.590600 48.931914 0.948347 0.996290 0.020512 -0.005147 859106.000000 0 0 1
-25.252724 -33.944363 26.780200 50.070940 0.931182 1.006472 0.016020 -0.013963 603794.000000 0 0 1
-25.724514 -34.275763 28.203150 51.302985 0.926965 0.988747 0.007043 -0.007537 -275145.000000 0 0 1
-26.400904 -33.246263 28.881480 51.346486 0.899662 0.973412 0.031255 -0.009498 105016.000000 0 0 1
-26.539144 -33.575663 30.230670 52.397946 0.901919 0.955814 0.010740 -0.014208 97919.000000 0 0 1
-27.707884 -32.817263 30.929080 52.927380 0.869616 0.946695 0.005485 -0.016911 23005.500000 0 0 1
-27.529864 -31.464863 30.821300 51.941155 0.852000 0.935534 0.008633 -0.013082 414936.000000 0 0 1
-28.574984 -30.761963 31.483350 52.478847 0.822238 0.927389 0.010501 -0.006033 39368.200000 0 0 1
-28.758534 -29.347263 31.090730 51.526194 0.795530 0.923043 0.009686 -0.013652 -283183.000000 0 0 1
-29.361824 -29.252963 29.830220 51.065591 0.783541 0.946958 0.009734 -0.006776 219346.000000 0 0 1
-30.016954 -27.985463 29.716970 50.668550 0.750388 0.944069 0.030683 -0.002615 -21010.800000 0 0 1
-30.694514 -27.765063 28.361850 50.174161 0.735329 0.970038 0.024269 -0.010994 226567.000000 0 0 1
-29.824194 -27.454763 27.252330 48.846045 0.744055 0.978915 0.027145 -0.008056 273643.000000 0 0 1
-29.236534 -26.192863 27.184770 47.747803 0.730542 0.965093 0.013264 -0.001708 -464520.000000 0 0 1
-28.096684 -26.245563 26.164260 46.506147 0.751347 0.973272 0.017123 -0.000059 -390668.000000 0 0 1
-28.588944 -26.578663 24.843920 46.270654 0.748975 1.004007 0.012043 -0.007257 -89269.100000 0 0 1
-27.638904 -26.314063 23.858210 45.006145 0.760848 1.012066 0.017311 0.007915 -693856.000000 0 0 1
-28.011384 -26.571563 22.413480 44.643585 0.759026 1.044824 0.000992 0.017485 -258559.000000 0 0 1
-28.693844 -25.471863 21.853380 44.155665 0.725984 1.053057 -0.000855 0.011274 10056.200000 0 0 1
-29.201654 -25.864063 20.597980 44.113072 0.724861 1.084974 0.000004 0.018456 -223870.000000 0 0 1
-29.908134 -24.674263 19.918580 43.589742 0.689801 1.096227 0.012792 0.009049 -731256.000000 0 0 1
-31.248444 -24.450763 20.188380 44.518263 0.663956 1.100124 0.036283 0.009954 -871508.000000 0 0 1
-31.681574 -23.423163 19.386680 43.911389 0.636638 1.113532 0.062856 0.008159 542712.000000 0 0 1
-33.209274 -23.156463 19.620080 44.989168 0.608904 1.119529 0.072902 0.015158 695714.000000 0 0 1
-34.135064 -24.063663 19.057280 45.906888 0.614043 1.142712 0.054913 0.005071 -64540.400000 0 0 1
-35.436551 -23.518863 19.059780 46.606451 0.585939 1.149491 0.045139 0.005217 147142.000000 0 0 1
36.088928 -24.343363 18.116780 47.151117 -0.593432 1.176425 0.053549 0.004735 50803.600000 0 0 1
35.959788 -25.707063 18.514180 47.924256 -0.620645 1.174156 0.045540 0.009289 281786.000000 0 0 1
35.137518 -26.509063 17.637780 47.418002 -0.646335 1.189673 0.057636 0.009899 511117.000000 0 0 1
34.716378 -27.909063 18.205880 48.120649 -0.677124 1.182796 0.055230 0.014039 376825.000000 0 0 1
33.693358 -28.031363 19.212380 47.855149 -0.693924 1.157676 0.048929 0.006956 248701.000000 0 0 1
33.876268 -27.277563 20.450280 48.061221 -0.677911 1.131277 0.051265 0.008259 -743777.000000 0 0 1
32.698238 -27.398363 21.417280 47.734107 -0.697436 1.105510 0.042374 0.004546 -809939.000000 0 0 1
31.686448 -26.555163 20.987680 46.364754 -0.697522 1.101045 0.045634 0.003143 -857482.000000 0 0 1
30.845748 -26.216363 22.070380 46.107045 -0.704447 1.071649 0.046077 0.009280 189195.000000 0 0 1
29.581028 -25.376063 21.702580 44.609235 -0.709033 1.062712 0.048689 0.014018 172454.000000 0 0 1
29.761688 -24.092763 21.167380 43.752455 -0.680521 1.065806 0.025806 0.019476 170985.000000 0 0 1
30.552368 -23.261263 22.047880 44.279144 -0.650730 1.049587 0.040704 0.011284 242648.000000 0 0 1
31.227528 -22.078063 21.291380 43.771249 -0.615413 1.062804 0.026546 0.015394 320702.000000 0 0 1
30.358638 -21.004263 20.958480 42.450959 -0.605249 1.054445 0.025704 0.006826 423671.000000 0 0 1
31.137758 -19.872563 20.487080 42.239782 -0.568045 1.064412 0.022534 0.003798 283213.000000 0 0 1
30.379798 -18.541263 20.725380 41.185580 -0.547970 1.043476 -0.007252 0.008639 186270.000000 0 0 1
30.360698 -18.127863 22.099680 41.698769 -0.538272 1.012215 0.001596 -0.002094 -182562.000000 0 0 1
29.582488 -18.881763 22.986880 41.952846 -0.568088 0.990918 0.020684 -0.002865 -343153.000000 0 0 1
29.739638 -18.451663 24.468830 42.704023 -0.555314 0.960651 0.015557 -0.000368 -46922.100000 0 0 1
29.197158 -17.186463 24.676560 41.913974 -0.532021 0.941293 0.010603 -0.006364 47622.600000 0 0 1
29.608628 -16.616163 25.915580 42.712821 -0.511396 0.918843 0.004622 0.000536 -122000.000000 0 0 1
29.380518 -15.097563 26.046450 42.066244 -0.474676 0.903102 0.015608 -0.001554 -109368.000000 0 0 1
28.008258 -14.828663 26.248360 41.150069 -0.486920 0.879068 0.021286 0.002890 -7430.130000 0 0 1
27.626298 -13.563863 26.679480 40.730645 -0.456403 0.856584 0.018842 -0.000685 -29687.100000 0 0 1
28.031568 -12.305763 25.803660 40.037851 -0.413666 0.870451 0.026966 -0.008113 -111234.000000 0 0 1
27.261028 -12.107063 24.594520 38.660511 -0.417950 0.881277 0.026149 -0.004430 69443.700000 0 0 1
27.713098 -11.156363 23.653330 38.104597 -0.382717 0.901101 0.033069 -0.002180 982202.000000 0 0 1
29.053478 -11.548863 22.880080 38.742469 -0.378352 0.939033 0.034179 -0.013321 753639.000000 0 0 1
28.865778 -12.601063 21.937380 38.383181 -0.411604 0.962420 0.022557 -0.013301 -6120.380000 0 0 1
29.115998 -13.888263 22.426680 39.288436 -0.445077 0.963290 0.018111 -0.015678 -425763.000000 0 0 1
28.580758 -14.940963 21.385980 38.696929 -0.481692 0.985252 0.010872 -0.003495 -242810.000000 0 0 1
29.141858 -14.782063 20.125380 38.376923 -0.469427 1.018770 0.004288 -0.003727 -532451.000000 0 0 1
28.526238 -15.612363 19.176480 37.752213 -0.500767 1.037986 -0.002230 -0.002231 -511478.000000 0 0 1
28.999338 -15.560863 17.703380 37.369931 -0.492492 1.077271 0.012935 -0.002856 143161.000000 0 0 1
28.428338 -16.623063 16.885780 37.008462 -0.529120 1.097000 0.013512 -0.007126 1093390.000000 0 0 1
27.002228 -16.589163 16.659080 35.802872 -0.550913 1.086823 0.026934 -0.007994 919962.000000 0 0 1
26.479428 -15.648363 15.482580 34.434600 -0.533748 1.104453 0.041478 -0.005238 -409800.000000 0 0 1
26.736128 -16.099063 14.140080 34.262841 -0.541996 1.145386 0.048410 -0.003588 9248.590000 0 0 1
25.823428 -17.087363 13.737680 33.875526 -0.584556 1.153233 0.044751 -0.014658 -257571.000000 0 0 1
26.064628 -17.585663 12.295780 33.761022 -0.593540 1.198022 0.039223 -0.000400 -215592.000000 0 0 1
25.561428 -16.751163 11.287980 32.579236 -0.580113 1.216983 0.048086 -0.001460 -144350.000000 0 0 1
25.456028 -17.399763 10.001280 32.415841 -0.599581 1.257148 0.037109 0.001645 408249.000000 0 0 1
26.776028 -17.821563 9.264380 33.472265 -0.587249 1.290357 0.043867 0.003821 680909.000000 0 0 1
27.439588 -18.948963 9.847580 34.770232 -0.604369 1.283648 0.050777 0.010524 -634450.000000 0 0 1
28.765628 -18.920263 9.408880 35.692643 -0.581796 1.304035 0.064670 0.007007 -208906.000000 0 0 1
29.792078 -19.704063 10.256880 37.162099 -0.584338 1.291162 0.075026 -0.021758 16918.400000 0 0 1
29.973968 -19.028063 11.518980 37.325499 -0.565629 1.257066 0.060773 -0.028595 126066.000000 0 0 1
29.917208 -20.022963 12.503380 38.108961 -0.589809 1.236510 0.043363 -0.025803 -207045.000000 0 0 1
29.973268 -19.419363 13.894280 38.321789 -0.574890 1.199774 0.034914 -0.016960 96746.300000 0 0 1
29.817288 -20.426663 14.849080 39.074473 -0.600629 1.180978 0.035440 -0.015544 -33507.300000 0 0 1
29.740978 -19.819163 16.121980 39.207694 -0.587813 1.147032 0.031137 -0.012607 -98679.600000 0 0 1
29.536988 -20.881063 17.273180 40.085100 -0.615373 1.125292 0.021563 0.000178 180397.000000 0 0 1
28.318038 -21.590363 17.123180 39.512762 -0.651405 1.122581 -0.003462 0.006820 9813.220000 0 0 1
28.076218 -22.515163 18.164180 40.313076 -0.675917 1.103384 0.022466 0.006704 -112026.000000 0 0 1
26.717328 -23.230763 18.137180 39.779911 -0.715707 1.097370 0.017754 0.011789 57308.100000 0 0 1
25.631428 -22.403563 18.533880 38.760734 -0.718301 1.072236 0.014655 0.009022 1186800.000000 0 0 1
24.427828 -23.238063 18.589480 38.500586 -0.760443 1.066906 0.030874 -0.000689 1442520.000000 0 0 1
23.219228 -22.688363 19.405380 37.821464 -0.773835 1.032029 0.021256 -0.001593 -57663.200000 0 0 1
22.730328 -21.484963 18.866680 36.527019 -0.757240 1.028023 0.019047 -0.001860 104916.000000 0 0 1
21.479428 -20.987063 19.301580 35.698371 -0.773804 0.999545 0.014027 -0.003232 278080.000000 0 0 1
21.382528 -20.346163 20.688880 36.044537 -0.760567 0.959437 0.017033 -0.003302 -446169.000000 0 0 1
21.685328 -21.326563 21.665480 37.342587 -0.777057 0.951845 0.015307 -0.005279 -57259.700000 0 0 1
22.193828 -20.735063 22.848280 38.007273 -0.751430 0.925850 0.020342 -0.003301 133612.000000 0 0 1
22.733428 -21.733063 23.878630 39.488274 -0.762905 0.921405 0.019889 -0.005153 876454.000000 0 0 1
21.639428 -22.508663 24.422650 39.640517 -0.805085 0.907011 0.031308 -0.008297 1143140.000000 0 0 1
22.212728 -23.502163 25.294290 41.055549 -0.813597 0.907016 0.035831 -0.009759 11355.500000 0 0 1
21.137328 -24.125163 26.208990 41.421267 -0.851314 0.885707 0.044370 -0.014827 408888.000000 0 0 1
20.361428 -25.109763 25.455910 41.147191 -0.889446 0.903767 0.056815 -0.015439 -63055.200000 0 0 1
19.426528 -25.762263 26.236690 41.586634 -0.924696 0.888093 0.064119 -0.012056 -587852.000000 0 0 1
18.692928 -26.886563 25.495750 41.501158 -0.963264 0.909249 0.063812 -0.013675 -338608.000000 0 0 1
17.800928 -26.268163 24.593720 40.146488 -0.975220 0.911451 0.057393 -0.016458 -201692.000000 0 0 1
17.091328 -27.274863 23.936190 40.112004 -1.011024 0.931372 0.063717 -0.025713 -485354.000000 0 0 1
16.317428 -26.649763 22.735280 38.644033 -1.021388 0.941810 0.052863 -0.023875 -183728.000000 0 0 1
14.985928 -26.432963 23.134980 38.190403 -1.055040 0.920051 0.057953 -0.022440 -167207.000000 0 0 1
14.284528 -25.607963 22.199580 36.778212 -1.061972 0.922779 0.051276 -0.016401 1616940.000000 0 0 1
12.772228 -25.323563 22.581080 36.253522 -1.103666 0.898396 0.054896 -0.016800 1613830.000000 0 0 1
11.763928 -26.339863 22.496080 36.582127 -1.150756 0.908477 0.057985 -0.028228 17445.800000 0 0 1
10.541828 -25.655663 22.384380 35.642723 -1.180932 0.891789 0.065064 -0.020365 -436724.000000 0 0 1
9.290028 -26.513563 22.567380 36.035542 -1.233776 0.894058 0.067894 -0.019513 -221764.000000 0 0 1
8.964828 -27.338863 21.435880 35.878664 -1.253930 0.930473 0.070375 -0.020104 294213.000000 0 0 1
7.575028 -27.592263 21.356380 35.704468 -1.302863 0.929614 0.057777 -0.017889 -11243.200000 0 0 1
7.131728 -28.523963 20.212880 35.679666 -1.325793 0.968532 0.065332 -0.019107 -189396.000000 0 0 1
7.761528 -29.738463 20.206580 36.782107 -1.315498 0.989199 0.067687 -0.021958 70624.500000 0 0 1
7.232228 -30.431963 19.077880 36.638436 -1.337472 1.023118 0.051130 -0.016847 280309.000000 0 0 1
7.830728 -31.848863 18.814180 37.810630 -1.329707 1.049978 0.048342 -0.007997 137187.000000 0 0 1
7.561128 -32.817663 19.774680 39.053907 -1.344350 1.039857 0.042669 -0.010800 459263.000000 0 0 1
8.561328 -33.826163 19.656680 40.048605 -1.322904 1.057765 0.036894 -0.009190 171476.000000 0 0 1
8.348328 33.558557 20.608680 40.256540 1.326977 1.033362 0.039760 -0.022871 -153405.000000 0 0 1
7.290728 32.694457 20.301680 39.169381 1.351390 1.025929 0.037850 -0.021110 -150831.000000 0 0 1
7.302328 31.775157 21.370080 38.982880 1.344906 0.990596 0.034530 -0.027850 343172.000000 0 0 1
6.393728 30.512057 21.049880 37.615991 1.364237 0.976894 0.039515 -0.022524 514711.000000 0 0 1
5.035128 30.777257 21.295680 37.763713 1.408634 0.971672 0.038913 -0.027940 328057.000000 0 0 1
4.121028 29.720257 20.882280 36.556069 1.433014 0.962781 0.040158 -0.019661 842383.000000 0 0 1
2.745628 29.676757 21.568380 36.789175 1.478541 0.944350 0.027837 -0.016444 -76782.100000 0 0 1
2.667328 29.180257 22.827780 37.144442 1.479641 0.908958 0.021664 -0.023264 -1123220.000000 0 0 1
1.348628 28.878157 23.110080 37.011384 1.524130 0.896427 0.022692 -0.016429 -788597.000000 0 0 1
1.092028 28.218757 24.469640 37.366483 1.532117 0.856805 0.026009 -0.010909 -121955.000000 0 0 1
1.303228 29.173257 25.526930 38.786615 1.526154 0.852454 0.036189 -0.016760 145923.000000 0 0 1
1.121228 28.579457 26.795850 39.192602 1.531584 0.817980 0.037444 -0.018802 149485.000000 0 0 1
2.437428 28.049357 27.435050 39.311442 1.484116 0.798350 0.031795 -0.010703 72557.500000 0 0 1
2.942328 26.927457 26.708470 38.040604 1.461959 0.792448 0.040279 -0.009689 33840.900000 0 0 1
3.706228 26.158757 27.605450 38.210961 1.430051 0.763459 0.031458 -0.004380 -127443.000000 0 0 1
4.171228 24.783257 27.092250 36.954012 1.404051 0.747877 0.029775 0.005992 98615.200000 0 0 1
3.071528 23.943557 26.765320 36.043176 1.443211 0.733866 0.029322 0.007330 240147.000000 0 0 1
3.500328 22.580057 26.882380 35.281349 1.417002 0.704488 0.040258 0.008310 518132.000000 0 0 1
2.442028 21.519457 26.399890 34.146811 1.457800 0.687036 0.031835 0.009443 440527.000000 0 0 1
2.872028 20.133657 26.509500 33.412068 1.429104 0.654404 0.046438 0.009187 60415.000000 0 0 1
3.640028 19.666557 25.422120 32.346676 1.387780 0.666603 0.049578 0.005567 -254187.000000 0 0 1
4.067628 18.220457 25.588930 31.675290 1.351153 0.630299 0.043390 0.000207 -65942.900000 0 0 1
5.122728 18.098557 26.549360 32.537188 1.294965 0.616392 0.044931 -0.001928 127148.000000 0 0 1
6.288428 17.706357 25.831030 31.942159 1.229540 0.628889 0.053518 -0.004673 116093.000000 0 0 1
7.500528 17.505757 26.868670 32.933795 1.165998 0.616618 0.045223 -0.009497 707407.000000 0 0 1
7.939328 18.690157 27.508810 34.191951 1.169106 0.635895 0.052121 -0.009292 52551.500000 0 0 1
8.501028 19.664257 26.618850 34.168899 1.162751 0.677667 0.044958 -0.018757 -418864.000000 0 0 1
9.063228 20.936057 27.322540 35.594687 1.162253 0.695706 0.040952 -0.011628 69970.600000 0 0 1
10.222428 20.696257 28.079810 36.349812 1.112019 0.688046 0.050492 -0.035069 -318187.000000 0 0 1
10.455528 21.776357 28.997690 37.741142 1.123169 0.694567 0.050571 -0.033050 340210.000000 0 0 1
11.554028 21.446457 30.086680 38.712458 1.076640 0.680619 0.065204 -0.034389 943911.000000 0 0 1
12.889728 21.509257 29.584430 38.781848 1.030918 0.703099 0.059402 -0.033493 -226362.000000 0 0 1
13.674228 21.203257 30.697520 39.735379 0.998006 0.687951 0.060020 -0.018083 33894.900000 0 0 1
15.183228 20.910857 30.422290 39.916288 0.942772 0.704165 0.045667 -0.023256 467725.000000 0 0 1
15.772628 22.089957 29.927640 40.403040 0.950724 0.736644 0.043885 -0.036714 -261748.000000 0 0 1
17.046128 21.760557 29.409060 40.360688 0.906291 0.754439 0.088358 -0.014707 -59277.600000 0 0 1
-8.775944 16.657457 4.321588 19.317458 -1.085902 1.345173 0.013878 -0.016571 -321774.000000 0 1 0
-8.636944 17.896657 4.928688 20.473863 -1.121165 1.327678 0.020032 -0.017724 874836.000000 0 1 0
-7.265944 18.311057 5.067188 20.341218 -1.193046 1.319036 0.018395 -0.011953 604101.000000 0 1 0
-7.027644 19.774857 5.556288 21.709562 -1.229334 1.311979 0.022934 -0.012156 -104051.000000 0 1 0
-7.264344 20.856757 4.633488 22.566440 -1.235640 1.363999 0.027396 -0.016043 1061280.000000 0 1 0
-8.659044 21.114357 4.366888 23.234991 -1.181612 1.381727 0.028305 -0.018462 863194.000000 0 1 0
-8.888444 22.216857 3.308188 24.156516 -1.190224 1.433417 0.055587 -0.024320 106648.000000 0 1 0
-8.202944 22.189557 2.063288 23.747039 -1.216702 1.483800 0.047524 -0.024095 -39493.900000 0 1 0
-8.515444 21.091257 1.254388 22.779978 -1.187068 1.515703 0.049261 -0.026527 -465676.000000 0 1 0
-7.828344 21.073657 -0.158112 22.481258 -1.215119 1.577829 0.032570 -0.011851 901697.000000 0 1 0
-6.494644 20.574057 -0.246712 21.576215 -1.265025 1.582231 0.028673 -0.009870 215139.000000 0 1 0
-5.514944 21.518157 0.087388 22.213809 -1.319904 1.566862 0.033295 -0.016500 131228.000000 0 1 0
-4.092544 21.267857 -0.511912 21.664088 -1.380691 1.594428 0.031190 -0.015080 418511.000000 0 1 0
-4.012444 21.406657 -1.954112 21.866943 -1.385507 1.660279 0.029598 -0.021955 -193501.000000 0 1 0
-2.666344 21.414557 -2.372112 21.709895 -1.446923 1.680279 0.022981 -0.012523 -54151.300000 0 1 0
-2.469844 21.674657 -3.896112 22.160112 -1.457335 1.747531 0.028879 -0.015232 -114003.000000 0 1 0
-1.209844 22.183657 -4.256412 22.620685 -1.516313 1.760089 0.024688 -0.009839 -85820.100000 0 1 0
-1.188244 22.568657 -5.655212 23.296729 -1.518195 1.815993 0.031958 -0.012050 -300049.000000 0 1 0
0.179456 23.103057 -6.100712 23.895650 1.563029 1.828961 0.035294 -0.016958 -280997.000000 0 1 0
1.186356 22.133357 -5.887012 22.933596 1.517247 1.830401 0.026874 -0.013976 58833.500000 0 1 0
2.437956 22.622157 -6.359212 23.625096 1.463442 1.843329 0.016051 -0.009288 846071.000000 0 1 0
3.632356 21.626957 -6.326312 22.824142 1.404394 1.851650 0.015604 -0.007503 283572.000000 0 1 0
3.296756 20.678357 -7.330512 22.185568 1.412697 1.907543 0.012576 -0.016216 410710.000000 0 1 0
4.141256 19.529857 -7.389012 21.287621 1.361844 1.925277 0.015772 -0.018137 260674.000000 0 1 0
3.763356 18.715957 -8.618412 20.945809 1.372365 1.994854 0.009563 -0.015434 6549.450000 0 1 0
4.314056 19.106357 -9.857012 21.927713 1.348728 2.037028 0.010029 -0.012725 -262153.000000 0 1 0
3.485756 18.709557 -10.931012 21.947324 1.386599 2.092153 0.012976 -0.013619 -311234.000000 0 1 0
3.828456 19.201357 -12.317312 23.131479 1.373993 2.132337 0.020175 -0.012157 -226744.000000 0 1 0
3.895156 20.616957 -12.412312 24.378200 1.384068 2.105000 0.040951 -0.014364 21413.600000 0 1 0
4.144056 20.808257 -13.816812 25.319183 1.374214 2.148027 0.045466 -0.009921 61239.000000 0 0 1
4.426056 22.245857 -14.373612 26.852725 1.374400 2.135630 0.028367 -0.005572 749895.000000 0 0 1
3.287056 23.129757 -14.442512 27.465916 1.429628 2.124492 0.044602 -0.007420 105888.000000 0 0 1
3.687156 24.351557 -14.925512 28.798686 1.420524 2.115624 0.039441 -0.007081 -144158.000000 0 0 1
2.593156 25.347757 -15.398012 29.771328 1.468848 2.114384 0.052600 -0.000918 352030.000000 0 0 1
1.756456 25.761657 -14.294512 29.514084 1.502721 2.076392 0.054447 -0.010794 252755.000000 0 0 1
1.646656 27.167657 -14.198212 30.698245 1.510259 2.051619 0.040239 -0.005021 -825082.000000 0 0 1
0.695956 27.590257 -13.043212 30.525923 1.545577 2.012282 0.047552 -0.012234 655316.000000 0 0 1
-0.712944 27.445257 -13.227412 30.474823 -1.544825 2.019773 0.051856 -0.019022 718788.000000 0 0 1
-1.282844 26.154157 -13.457712 29.441393 -1.521786 2.045530 0.041166 -0.016110 -603642.000000 0 0 1
-1.004744 25.021057 -12.430112 27.956582 -1.530662 2.031549 0.069832 -0.018461 -266064.000000 0 0 1
-1.765844 25.232857 -11.243912 27.681055 -1.500928 1.989083 0.068596 -0.017110 145835.000000 0 0 1
-1.777044 24.099757 -10.422812 26.317127 -1.497193 1.978004 0.069017 -0.013178 -80434.600000 0 0 1
-2.619644 24.285057 -9.110112 26.069535 -1.463341 1.927785 0.065083 -0.019281 39276.100000 0 0 1
-2.008144 24.666857 -7.857612 25.965911 -1.489565 1.878229 0.056000 -0.022410 -13787.000000 0 0 1
-1.643544 26.036757 -7.719112 27.206591 -1.507756 1.858470 0.060084 -0.027110 -134502.000000 0 0 1
-1.629044 26.596557 -6.233412 27.365782 -1.509623 1.800595 0.069493 -0.021092 239746.000000 0 0 1
-0.657744 25.940357 -5.406712 26.505985 -1.545446 1.776219 0.051747 -0.023782 283294.000000 0 0 1
-0.665344 26.306757 -4.028012 26.621664 -1.545510 1.722685 0.057812 -0.023328 -428611.000000 0 0 1
-1.712144 25.591957 -3.205212 25.848657 -1.503994 1.695115 0.058841 -0.025238 54401.900000 0 0 1
-3.069444 25.784257 -3.546412 26.207373 -1.452311 1.706534 0.055203 -0.022351 171989.000000 0 0 1
-4.034744 25.249757 -2.677112 25.709848 -1.412343 1.675113 0.061328 -0.020161 -39334.100000 0 0 1
-5.207544 24.588457 -3.383612 25.360590 -1.362092 1.704615 0.069425 -0.021144 -234473.000000 0 0 1
-6.333444 25.403757 -3.646812 26.434118 -1.326466 1.709196 0.081548 -0.028014 -317122.000000 0 0 1
-7.358444 24.635357 -4.217612 26.054476 -1.280538 1.733388 0.073303 -0.021234 -34447.900000 0 0 1
-8.684544 25.427457 -4.330012 27.216279 -1.241676 1.730572 0.059067 -0.026473 48300.700000 0 0 1
-9.366044 25.606757 -3.065412 27.437666 -1.220147 1.682753 0.059131 -0.021265 -155122.000000 0 0 1
-10.615144 26.224257 -3.309112 28.484086 -1.186173 1.687233 0.057064 -0.021208 344056.000000 0 0 1
-11.484744 26.256657 -1.984612 28.727165 -1.158467 1.639936 0.059445 -0.020595 -158654.000000 0 0 1
-12.034644 25.098357 -1.476912 27.873669 -1.123683 1.623807 0.051112 -0.016693 -224371.000000 0 0 1
-11.099444 24.246457 -0.877412 26.680670 -1.141495 1.603688 0.054491 -0.021082 -233715.000000 0 0 1
-11.698844 22.899957 -0.415512 25.718546 -1.098493 1.586953 0.057664 -0.017114 113798.000000 0 0 1
-12.644344 22.955557 0.638788 26.215359 -1.067325 1.546427 0.073260 -0.017698 39075.100000 0 0 1
-12.899444 21.658757 1.177588 25.236563 -1.033636 1.524117 0.073401 -0.020986 -158472.000000 0 0 1
-13.878544 21.604357 2.349688 25.785330 -0.999785 1.479545 0.079750 -0.020441 -59506.600000 0 0 1
-13.209044 21.808957 3.619688 25.752894 -1.026218 1.429775 0.071081 -0.022809 487505.000000 0 0 1
-13.081644 23.157057 4.052288 26.903526 -1.056578 1.419598 0.062415 -0.016405 -95129.700000 0 0 1
-12.714244 23.206657 5.565188 27.040196 -1.069589 1.363503 0.052035 -0.009967 -684505.000000 0 0 1
-11.474944 22.780457 6.036888 26.211974 -1.104178 1.338400 0.041940 -0.010594 -249744.000000 0 0 1
-11.596044 22.443357 7.361588 26.312838 -1.093894 1.287240 0.035734 -0.004246 -661920.000000 0 0 1
-10.320044 21.883157 7.967288 25.472604 -1.130128 1.252679 0.026699 -0.011873 -662868.000000 0 0 1
-9.306544 22.878557 8.070588 25.984120 -1.184459 1.254975 0.030942 -0.012488 685134.000000 0 0 1
-8.131144 22.366457 8.733988 25.350669 -1.222109 1.219062 0.038792 -0.013767 501062.000000 0 0 1
-8.126644 22.139857 10.275288 25.725418 -1.219005 1.159910 0.042561 -0.021541 -677085.000000 0 0 1
-9.007844 21.180957 10.761488 25.408341 -1.168688 1.133445 0.039606 -0.013597 -137784.000000 0 0 1
-8.579444 20.767257 12.059088 25.501126 -1.179028 1.078235 0.039318 -0.006486 -129714.000000 0 0 1
-9.455544 19.644657 12.653188 25.207598 -1.122197 1.044934 0.037664 -0.010747 -344393.000000 0 0 1
-9.664244 18.555757 11.797488 24.018627 -1.090630 1.057351 0.038082 -0.023988 15179.200000 0 1 0
-10.236444 17.497557 12.554288 23.844484 -1.041463 1.016310 0.034847 -0.022254 -82237.000000 0 1 0
-10.522144 16.249757 11.623388 22.580373 -0.996162 1.030073 0.027325 -0.029782 -103217.000000 0 1 0
-10.841244 14.989557 12.250188 22.187530 -0.944634 0.985891 0.029655 -0.029028 96959.500000 0 1 0
-11.544344 14.249357 11.266188 21.523082 -0.889887 1.019905 0.018650 -0.018974 -6492.810000 0 1 0
-12.047744 12.866657 11.680888 21.145736 -0.818255 0.985557 0.024396 -0.021317 465240.000000 0 1 0
-13.068644 13.009757 12.672488 22.374878 -0.783140 0.968700 0.039055 -0.018106 255716.000000 0 1 0
-13.306444 11.784857 13.333888 22.220191 -0.724830 0.927195 0.028188 -0.005440 -116961.000000 0 1 0
-14.119444 11.875457 14.648588 23.557723 -0.699287 0.899736 0.027531 -0.005675 51150.100000 0 1 0
-15.435044 12.232357 14.272588 24.322375 -0.670154 0.943684 0.040890 -0.015141 -485343.000000 0 1 0
-16.264544 12.266457 15.388788 25.530690 -0.646173 0.923845 0.033931 -0.013311 -325614.000000 0 0 1
-17.345244 13.349957 15.291488 26.700345 -0.655966 0.960991 0.035412 -0.013872 -226839.000000 0 0 1
-18.391744 13.141157 14.395388 26.798758 -0.620401 1.003722 0.038287 -0.015523 -486932.000000 0 0 1
-19.321144 14.161757 14.249588 27.873154 -0.632510 1.034181 0.052485 -0.019037 -704593.000000 0 0 1
-20.627844 13.731857 13.613088 28.273451 -0.587330 1.068454 0.055303 -0.017925 -598498.000000 0 0 1
-21.442944 12.872457 14.410888 28.864748 -0.540649 1.048057 0.054849 -0.005558 90546.500000 0 0 1
-22.557044 12.452157 13.655888 29.160928 -0.504400 1.083437 0.051818 -0.005730 -112738.000000 0 0 1
-23.476044 11.504957 14.463788 29.877916 -0.455674 1.065466 0.052465 -0.005639 -48732.400000 0 0 1
-24.186744 12.163357 15.516788 31.204431 -0.465960 1.050356 0.060590 -0.006149 173071.000000 0 0 1
-25.046594 11.257557 16.201488 31.883423 -0.422409 1.037764 0.050838 -0.005868 -65799.300000 0 0 1
-25.800414 12.115757 17.241788 33.312643 -0.439029 1.026782 0.054100 -0.001007 -240950.000000 0 0 1
-26.821084 12.907757 16.659488 34.110398 -0.448539 1.060542 0.051681 -0.000027 -109225.000000 0 0 1
-27.552134 13.460657 17.692788 35.402600 -0.454448 1.047475 0.045740 0.015860 -475996.000000 0 0 1
-28.581654 14.489557 17.239588 36.387657 -0.469195 1.077223 0.042285 0.006197 -133947.000000 0 0 1
-28.064214 15.773957 17.035688 36.422966 -0.512060 1.084089 0.053363 -0.000551 480446.000000 0 0 1
-29.160294 16.680557 16.805088 37.562943 -0.519599 1.106957 0.050737 -0.000572 727221.000000 0 0 1
-28.779564 18.224357 16.882888 38.018711 -0.564502 1.110663 0.060768 -0.009236 61502.600000 0 0 1
-28.340384 18.709757 18.152388 38.506383 -0.583498 1.079905 0.053945 -0.007788 -402203.000000 0 0 1
-29.311494 18.748657 19.127588 39.705673 -0.569054 1.068163 0.049331 -0.004976 -1219600.000000 0 0 1
-28.678004 18.958357 20.511988 40.032348 -0.584123 1.032836 0.054084 -0.014842 383115.000000 0 0 1
-28.077034 17.832257 21.160388 39.421710 -0.565843 1.004192 0.052425 -0.007366 167465.000000 0 0 1
-27.014664 17.174057 20.492288 38.008870 -0.566279 1.001375 0.066209 0.002468 -517899.000000 0 0 1
-26.474424 15.914457 21.094688 37.405226 -0.541247 0.971635 0.069754 0.002904 -548576.000000 0 0 1
-27.449884 14.949657 21.246788 37.794370 -0.498701 0.973791 0.032628 0.007098 -200344.000000 0 0 1
-26.907514 13.694557 21.640588 37.146605 -0.470781 0.948906 0.042083 0.011001 -145762.000000 0 0 1
-28.040914 12.714157 21.906888 37.786961 -0.425690 0.952378 0.047485 0.003418 -44067.400000 0 0 1
-28.830014 12.372657 20.793488 37.638033 -0.405388 0.985484 0.049731 0.001466 139526.000000 0 0 1
-29.912374 11.494257 21.057188 38.344142 -0.366868 0.989434 0.064857 -0.002220 -162117.000000 0 0 1
-30.754454 11.324457 19.799888 38.289885 -0.352815 1.027331 0.062580 0.003132 -614540.000000 0 0 1
-30.156634 10.691957 18.692688 37.056134 -0.340720 1.042060 0.075075 -0.004255 59288.900000 0 0 1
-29.696164 9.375057 18.851288 36.402265 -0.305797 1.026448 0.077914 -0.007493 -132466.000000 0 0 1
-28.914944 8.910357 17.590288 34.998381 -0.298924 1.044189 0.079481 -0.016862 -257404.000000 0 0 1
-29.652754 8.754657 16.411588 35.003858 -0.287083 1.082807 0.080955 -0.003432 26642.400000 0 0 1
-30.289044 9.843557 15.793488 35.549347 -0.314220 1.110438 0.079378 -0.000751 -15937.100000 0 0 1
-29.357334 10.889857 15.098088 34.761966 -0.355208 1.121504 0.074129 -0.002948 17214.300000 0 0 1
-28.788434 10.526057 13.883588 33.650049 -0.350535 1.145504 0.068584 -0.011833 194429.000000 0 0 1
-27.789994 11.475157 13.543888 32.975747 -0.391598 1.147550 0.052997 -0.008714 13939.800000 0 0 1
-27.340154 11.454057 12.083388 32.010744 -0.396732 1.183724 0.071271 -0.009895 -210774.000000 0 0 1
-26.717234 10.273657 11.564188 30.872141 -0.367102 1.186849 0.072386 -0.009013 706911.000000 0 0 1
-27.634974 9.235257 11.272088 31.241666 -0.322519 1.201668 0.083345 -0.006875 -268994.000000 0 0 1
-26.951844 8.117357 10.476888 30.034290 -0.292539 1.214473 0.088258 -0.016556 -171308.000000 0 0 1
-26.535194 8.547857 9.181988 29.351172 -0.311636 1.252623 0.087468 -0.012582 315749.000000 0 0 1
-26.107264 7.429057 8.414388 28.417988 -0.277231 1.270196 0.109991 -0.022278 -156967.000000 0 0 1
-25.571614 7.843857 7.070588 27.666347 -0.297629 1.312363 0.104622 -0.008321 63493.500000 0 0 1
-26.609634 8.323157 6.226188 28.567691 -0.303147 1.351088 0.098850 -0.010947 404748.000000 0 0 1
-26.046054 8.665657 4.970788 27.896223 -0.321185 1.391651 0.113097 -0.008753 252249.000000 0 0 1
-27.065604 9.014257 3.822388 28.782189 -0.321497 1.437599 0.101844 -0.014066 -131509.000000 0 0 1
-27.736754 7.888057 3.292688 29.023969 -0.277075 1.457104 0.108899 -0.025546 8530.820000 0 0 1
-27.009984 6.740457 2.836988 27.982521 -0.244559 1.469238 0.122600 -0.024823 180116.000000 0 0 1
-25.821274 6.814757 1.824288 26.767651 -0.258037 1.502591 0.132303 -0.022951 205014.000000 0 0 1
-24.675144 7.570757 2.107388 25.896335 -0.297699 1.489328 0.122726 -0.016346 650853.000000 0 0 1
-23.584044 7.213357 1.235088 24.693422 -0.296822 1.520759 0.123360 -0.016550 394993.000000 0 1 0
-22.317644 8.000957 1.651288 23.765927 -0.344230 1.501259 0.111948 -0.017135 -178611.000000 0 1 0
-22.494644 9.327457 1.413688 24.392806 -0.393074 1.512809 0.095464 -0.023063 627919.000000 0 1 0
-21.446844 10.126057 1.956288 23.797714 -0.441118 1.488499 0.109738 -0.018453 -100628.000000 0 1 0
-21.771744 11.594057 2.132388 24.758394 -0.489330 1.484562 0.102347 -0.019388 -237956.000000 0 1 0
-20.708844 12.455857 2.541588 24.299470 -0.541504 1.466010 0.100847 -0.017742 361785.000000 0 1 0
-21.131944 13.619657 3.177788 25.340727 -0.572503 1.445063 0.096086 -0.029386 -443371.000000 0 0 1
-19.936944 14.299957 3.845188 24.834572 -0.622216 1.415339 0.069946 -0.017546 -234453.000000 0 1 0
-19.432744 13.562357 4.896488 24.198030 -0.609324 1.367039 0.065113 -0.021044 -900898.000000 0 1 0
-18.586244 14.332157 5.614488 24.132585 -0.656879 1.335993 0.062744 -0.024889 -875395.000000 0 1 0
-18.009344 13.584157 6.872388 23.581677 -0.646237 1.275076 0.043752 -0.021024 -131982.000000 0 1 0
-17.155844 12.553557 6.435688 22.211097 -0.631710 1.276830 0.052837 -0.019753 149563.000000 0 1 0
-16.684544 11.732057 7.458788 21.717474 -0.612850 1.220212 0.036852 -0.018127 -325650.000000 0 1 0
11.033556 -32.559063 -14.381312 37.264649 -1.244064 1.967005 0.046923 -0.000840 -460433.000000 0 0 1
12.067556 -32.522563 -13.457512 37.208166 -1.215492 1.940867 0.033554 -0.002117 -686951.000000 0 0 1
12.895156 -31.445063 -13.664312 36.630458 -1.181626 1.953070 0.035875 -0.009479 -72909.200000 0 0 1
14.289256 -31.436763 -12.984112 36.892277 -1.144174 1.930446 0.050788 -0.005804 588500.000000 0 0 1
15.297356 -32.175363 -13.679712 38.162778 -1.126992 1.937411 0.034630 -0.000210 -852371.000000 0 0 1
16.562056 -31.923163 -13.203912 38.311008 -1.092214 1.922663 0.034553 0.001361 -1058110.000000 0 0 1
17.555756 -32.756963 -13.993012 39.711807 -1.078812 1.930892 0.032278 -0.002232 -599253.000000 0 0 1
17.353456 -34.069363 -13.607512 40.583597 -1.099691 1.912716 0.029679 -0.002793 -301399.000000 0 0 1
18.173356 33.563657 -14.223212 40.731924 1.074534 1.927504 0.031312 0.005333 -278682.000000 0 0 1
18.192156 32.225157 -13.418212 39.363227 1.056864 1.918651 0.031717 -0.009075 -142735.000000 0 0 1
18.978956 32.217657 -12.251412 39.348129 1.038441 1.887420 0.033282 -0.019414 -224620.000000 0 0 1
18.734756 31.061757 -11.483312 38.048525 1.028067 1.877384 0.026359 -0.015500 -203476.000000 0 0 1
19.643856 30.816157 -10.287512 37.965109 1.003292 1.845200 0.035426 -0.017127 -592102.000000 0 0 1
20.861856 30.206457 -10.580512 38.204637 0.966378 1.851408 0.032776 -0.014801 28609.600000 0 0 1
21.674656 30.211857 -9.365612 38.343991 0.948473 1.817545 0.027481 -0.012107 707867.000000 0 0 1
22.955056 29.330657 -9.448112 38.425107 0.906737 1.819228 0.028637 -0.002966 363777.000000 0 0 1
23.924856 29.843757 -10.362612 39.628680 0.895038 1.835365 0.032375 -0.008510 -193407.000000 0 0 1
25.081656 29.070157 -10.188212 39.723584 0.858919 1.830173 0.027761 -0.001290 -210614.000000 0 0 1
26.321856 29.397957 -11.048512 40.977427 0.840549 1.843799 0.031346 -0.006866 88357.200000 0 0 1
26.782756 30.720257 -10.801312 42.162999 0.853766 1.829864 0.030032 -0.001576 864038.000000 0 0 1
27.863956 31.090857 -11.704712 43.359447 0.840079 1.844133 0.033903 -0.001106 729881.000000 0 0 1
28.332256 32.517457 -11.400812 44.610315 0.854069 1.829228 0.027136 -0.002314 97123.100000 0 0 1
27.410656 33.570157 -11.759812 44.906488 0.886064 1.835759 0.039182 -0.000558 490533.000000 0 0 1
28.025056 -33.748063 -11.646112 45.386864 -0.877780 1.830295 0.036527 0.002531 376983.000000 0 0 1
26.951356 -32.633863 -11.746712 43.924138 -0.880478 1.841523 0.027186 -0.000526 291198.000000 0 0 1
26.074156 -32.504363 -10.650312 43.009585 -0.894731 1.821026 0.041150 -0.002648 493115.000000 0 0 1
24.817456 -31.895063 -10.990812 41.880773 -0.909554 1.836337 0.040570 -0.010365 579533.000000 0 0 1
24.819156 -30.344463 -10.886512 40.685293 -0.885227 1.841675 0.036983 -0.015715 -795008.000000 0 0 1
25.690056 -29.746363 -11.806612 41.039264 -0.858438 1.862611 0.026041 -0.012959 -95186.000000 0 0 1
26.111956 -28.516163 -11.216612 40.259386 -0.829380 1.853141 0.019237 -0.019268 -453594.000000 0 0 1
27.089156 -27.652763 -12.048412 40.542101 -0.795694 1.872537 0.036284 -0.004980 -67973.600000 0 0 1
28.357856 -28.247063 -12.202112 41.844427 -0.783441 1.866702 0.023990 -0.006089 -225670.000000 0 0 1
28.490156 -29.125963 -13.307612 42.861443 -0.796433 1.886494 0.035229 -0.007910 -8109.420000 0 0 1
29.915456 -29.654763 -13.642812 44.277148 -0.781022 1.884016 0.040457 -0.013430 493610.000000 0 0 1
30.513756 -30.578363 -12.737312 45.037370 -0.786456 1.857526 0.050042 -0.009919 417817.000000 0 0 1
31.688856 -31.155763 -13.303712 46.388080 -0.776916 1.861672 0.046752 -0.016874 250520.000000 0 0 1
32.433156 -32.204563 -12.463512 47.374916 -0.781862 1.837012 0.033079 -0.010078 -199841.000000 0 0 1
33.369056 -32.922963 -13.211212 48.702685 -0.778669 1.845501 0.024876 -0.006721 -382948.000000 0 0 1
34.049956 -33.950163 -12.542312 49.692280 -0.783931 1.825956 0.026239 -0.004579 -369374.000000 0 0 1
33.231356 33.444757 -11.968412 48.642755 0.788599 1.819396 0.023205 -0.002687 -217680.000000 0 0 1
32.701956 33.840957 -10.721112 48.265624 0.802513 1.794792 0.015134 -0.000684 -216430.000000 0 0 1
31.965856 32.789957 -10.144312 46.903137 0.798124 1.788801 0.015854 0.000847 -461456.000000 0 0 1
31.242556 33.278957 -8.876712 46.501422 0.816949 1.762866 0.003064 0.001445 264548.000000 0 0 1
30.284356 -34.270863 -9.155712 46.641841 -0.847073 1.768378 0.008619 -0.000884 537286.000000 0 0 1
29.477956 -33.975563 -7.983212 45.683919 -0.856160 1.746447 0.007514 0.000051 979098.000000 0 0 1
28.507556 -32.770663 -8.114112 44.186377 -0.854856 1.755478 0.008624 -0.007573 124724.000000 0 0 1
29.207256 -31.577763 -7.891712 43.732117 -0.824377 1.752246 -0.003640 -0.007602 -12275.900000 0 0 1
28.519656 -30.422963 -8.315512 42.521468 -0.817678 1.767625 0.015318 -0.010381 -430875.000000 0 0 1
27.500656 -29.892263 -7.336312 41.275355 -0.827045 1.749486 0.029557 -0.021283 -298077.000000 0 0 1
26.647456 -28.909863 -7.862612 40.095982 -0.826098 1.768170 0.021018 -0.030129 278318.000000 0 0 1
25.576556 -28.642263 -6.941112 39.022026 -0.841881 1.749625 0.038973 -0.037363 210325.000000 0 0 1
24.512056 -27.734563 -7.581412 37.782598 -0.846999 1.772827 0.073323 -0.042470 -709059.000000 0 0 1
23.620256 -28.445563 -8.373812 37.910253 -0.877811 1.793518 0.078930 -0.039211 -278310.000000 0 0 1
22.743756 -27.585563 -9.086812 36.889184 -0.881306 1.819685 0.075204 -0.035285 362132.000000 0 0 1
21.529656 -28.429263 -9.594712 36.929766 -0.922636 1.833621 0.061719 -0.027477 36487.600000 0 0 1
21.871856 -29.224063 -10.696812 38.037426 -0.928308 1.855859 0.061650 -0.020865 -82274.000000 0 0 1
20.827856 -29.988663 -11.292612 38.218354 -0.963755 1.870750 0.051466 -0.016475 256276.000000 0 0 1
20.404656 -31.275063 -10.565312 38.808574 -0.992718 1.846518 0.042305 -0.018191 228942.000000 0 0 1
21.321256 -32.322963 -10.864612 40.217032 -0.987680 1.844345 0.037484 -0.011824 136417.000000 0 0 1
21.068756 -33.562463 -10.179912 40.914081 -1.010224 1.822250 0.022586 -0.007202 -186949.000000 0 0 1
22.120456 33.906557 -10.374112 41.792240 0.992740 1.821650 0.027796 -0.008646 272980.000000 0 0 1
23.232456 34.134157 -9.515612 42.372568 0.973194 1.797298 0.033470 -0.003176 661396.000000 0 0 1
24.337456 33.231757 -9.769712 42.333305 0.938684 1.803676 0.025469 0.003715 1033990.000000 0 0 1
25.591156 33.578357 -8.900712 43.146680 0.919576 1.778578 0.029141 0.001708 -90414.400000 0 0 1
25.509556 33.304357 -7.487012 42.614234 0.917164 1.747406 0.023884 -0.014483 312316.000000 0 0 1
25.970256 31.972357 -7.181412 41.812181 0.888617 1.743406 0.026856 -0.009756 -184370.000000 0 0 1
25.687956 31.809857 -5.699712 41.282257 0.891470 1.709306 0.020507 -0.006972 -653675.000000 0 0 1
26.545456 32.370257 -4.733312 42.129550 0.883945 1.683385 0.012906 -0.001492 -69059.300000 0 0 1
27.583656 31.490057 -4.292812 42.082181 0.851430 1.672984 0.023464 -0.000116 63870.800000 0 0 1
27.158356 30.302257 -3.383012 40.831946 0.840058 1.653743 0.034272 0.006243 -695044.000000 0 0 1
26.726756 30.796657 -2.133312 40.832641 0.856033 1.623065 0.036839 -0.002722 -178344.000000 0 0 1
26.284356 29.837757 -1.228412 39.782761 0.848629 1.601679 0.034412 0.001554 -520092.000000 0 0 1
25.045356 29.010457 -1.502812 38.355376 0.858619 1.609988 0.026577 0.005668 -129112.000000 0 0 1
23.833756 29.760257 -1.321912 38.150600 0.895532 1.605453 0.022195 -0.002479 363229.000000 0 0 1
22.656956 28.991257 -1.464212 36.823559 0.907432 1.610570 0.040087 0.000623 248931.000000 0 0 1
21.392656 29.613757 -0.860412 36.542586 0.945202 1.594344 0.045714 -0.008623 -38773.300000 0 0 1
21.427156 29.628757 0.533788 36.568718 0.944677 1.556199 0.062344 -0.014662 -204994.000000 0 0 1
20.314656 30.321657 1.037988 36.512539 0.980509 1.542364 0.057252 -0.016150 -489794.000000 0 0 1
19.754456 29.552557 2.292888 35.620913 0.981559 1.506383 0.051250 -0.026521 -146518.000000 0 0 1
19.213656 28.298757 1.856488 34.255375 0.974333 1.516574 0.061447 -0.017274 129437.000000 0 0 1
18.723056 27.556057 2.934588 33.443996 0.973994 1.482937 0.075392 -0.021579 -290338.000000 0 0 1
18.246856 26.164057 2.311888 31.982033 0.961816 1.498446 0.070374 0.001673 327976.000000 0 0 1
19.205556 25.196957 1.832388 31.734802 0.919522 1.513024 0.063471 -0.005004 -44557.800000 0 0 1
20.084456 24.752257 2.826788 32.000786 0.889131 1.482346 0.068303 0.000214 54081.900000 0 0 1
21.299056 24.004057 2.144688 32.162777 0.845036 1.504064 0.055804 0.005759 326522.000000 0 0 1
20.912756 22.861157 1.408788 31.015489 0.829879 1.525359 0.063642 0.009031 867736.000000 0 0 1
22.080756 22.170557 0.899088 31.303382 0.787427 1.542071 0.031630 0.007641 660771.000000 0 0 1
21.870656 21.103157 -0.211512 30.392656 0.767540 1.577756 0.051054 -0.001045 -451997.000000 0 0 1
21.518756 21.647357 -1.424312 30.556400 0.788377 1.617426 0.032858 0.002382 249499.000000 0 0 1
21.472556 20.634857 -2.455312 29.881374 0.765506 1.653058 0.073908 -0.006044 -144401.000000 0 0 1
21.218856 21.322157 -3.791112 30.319082 0.787826 1.696165 0.056558 -0.008385 -282373.000000 0 0 1
22.161056 22.342057 -4.022712 31.724787 0.789465 1.697939 0.048732 -0.001193 137620.000000 0 0 1
22.034756 22.953257 -5.267312 32.251000 0.805812 1.734854 0.053972 -0.011068 -467819.000000 0 0 1
23.108456 24.021357 -5.566412 33.793657 0.804766 1.736268 0.046532 0.000027 -219982.000000 0 0 1
22.876256 25.298757 -4.921312 34.461130 0.835641 1.714094 0.033487 0.003839 151645.000000 0 0 1
23.287156 25.445457 -3.531912 34.673294 0.829658 1.672836 0.041243 0.001300 -8474.180000 0 0 1
22.300156 24.956457 -2.435012 33.556683 0.841549 1.643424 0.030399 0.002787 5768.710000 0 0 1
21.212556 25.869457 -2.211812 33.527503 0.883988 1.636814 0.035336 -0.004833 1644590.000000 0 0 1
20.111756 25.541357 -1.328112 32.536249 0.903774 1.611627 0.045760 0.004724 621529.000000 0 0 1
19.270856 24.339857 -1.699312 31.091513 0.901112 1.625479 0.055253 -0.007322 -1085610.000000 0 0 1
18.583556 24.667757 -2.883112 31.018690 0.925152 1.663878 0.042668 -0.008517 -935.279000 0 0 1
17.844456 23.625357 -3.459412 29.808549 0.923906 1.687113 0.046562 -0.018963 -19565.400000 0 0 1
17.309856 23.965557 -4.841012 29.956876 0.945273 1.733107 0.045318 -0.020139 -40196.600000 0 0 1
16.521956 22.921457 -5.409312 28.768539 0.946242 1.759951 0.045117 -0.024380 215593.000000 0 0 1
16.227056 23.320157 -6.723112 29.194987 0.962869 1.803165 0.037593 -0.028225 -364343.000000 0 0 1
15.383956 22.332457 -7.509412 28.138870 0.967585 1.840940 0.042174 -0.031529 -1086980.000000 0 0 1
15.968356 21.098357 -7.694812 27.556109 0.922924 1.853801 0.045284 -0.026669 -162387.000000 0 0 1
15.306856 20.349357 -8.652912 26.893662 0.925887 1.898369 0.055587 -0.020633 -520095.000000 0 0 1
16.023456 19.015357 -8.949312 26.427734 0.870580 1.916260 0.049529 -0.017703 -345667.000000 0 0 1
17.334056 19.248357 -9.375012 27.547406 0.837679 1.918057 0.052010 -0.020684 -523958.000000 0 0 1
18.080156 18.092757 -9.548912 27.302410 0.785747 1.928096 0.052600 -0.015890 -559615.000000 0 0 1
19.457356 18.413857 -10.125012 28.638692 0.757851 1.932152 0.047246 -0.022250 -677337.000000 0 0 1
19.473856 18.865157 -11.451912 29.432490 0.769523 1.970441 0.045022 -0.020232 1566140.000000 0 0 1
20.821256 19.223757 -11.899512 30.735580 0.745527 1.968343 0.052928 -0.011420 1362140.000000 0 0 1
20.966056 19.327457 -13.397612 31.505905 0.744754 2.010025 0.053158 -0.017229 -77370.300000 0 0 1
20.863156 18.141657 -14.165012 31.065069 0.715738 2.044268 0.044184 -0.000904 268069.000000 0 0 1
21.072956 18.514257 -15.564512 32.079607 0.720853 2.077370 0.047571 -0.003778 60643.000000 0 0 1
21.005656 17.401357 -16.652612 31.958634 0.691827 2.118898 0.050196 -0.001995 -799403.000000 0 0 1
21.933856 16.394757 -16.626512 32.036276 0.641876 2.116465 0.060040 -0.005002 -670348.000000 0 0 1
21.987756 15.561457 -17.785712 32.279279 0.615897 2.154352 0.072058 -0.011509 -369421.000000 0 0 1
22.882556 16.049257 -18.921912 33.752463 0.611648 2.165917 0.075459 -0.008309 170350.000000 0 0 1
24.292956 15.914157 -18.740812 34.563364 0.579948 2.143869 0.092615 -0.004984 842515.000000 0 0 1
25.008156 16.484057 -19.810712 35.910949 0.582779 2.155152 0.119477 -0.009533 525255.000000 0 0 1
26.496156 16.882757 -19.530412 36.993388 0.567308 2.126973 0.106532 -0.017396 662349.000000 0 0 1
26.750956 18.032357 -18.728712 37.303407 0.593119 2.096780 0.093822 -0.015998 -522432.000000 0 0 1
28.092856 18.384057 -18.625112 38.393709 0.579464 2.077283 0.084580 -0.022837 -442063.000000 0 0 1
28.166156 19.571757 -17.652912 38.574749 0.607273 2.046123 0.073758 -0.011225 188335.000000 0 0 1
27.658456 19.200157 -16.354512 37.431354 0.606814 2.022968 0.072651 -0.019484 675070.000000 0 0 1
26.508056 19.997557 -16.027312 36.870775 0.646308 2.020489 0.068736 -0.016130 131064.000000 0 0 1
25.606456 19.360857 -14.983712 35.426614 0.647389 2.007495 0.065831 -0.014798 -245864.000000 0 0 1
26.114956 19.374957 -13.658512 35.269460 0.638304 1.968456 0.064095 -0.019738 39679.700000 0 0 1
25.093756 19.031357 -12.767912 33.983948 0.648862 1.955953 0.064447 -0.026123 -81597.400000 0 0 1
25.424556 19.548957 -11.371212 34.027551 0.655488 1.911528 0.065759 -0.023805 30954.300000 0 0 1
25.169356 20.948257 -11.278012 34.634080 0.694123 1.902478 0.065625 -0.025723 250535.000000 0 0 1
25.850456 21.475157 -10.134912 35.101921 0.693209 1.863694 0.064230 -0.025375 293591.000000 0 0 1
25.105856 21.269957 -8.790012 34.058470 0.702873 1.831837 0.062361 -0.024587 -389803.000000 0 0 1
25.159156 19.987457 -8.233412 33.170327 0.671342 1.821635 0.070891 -0.026908 400833.000000 0 0 1
24.313856 19.685457 -7.125312 32.085057 0.680591 1.794739 0.066585 -0.025413 898219.000000 0 0 1
22.770556 19.533857 -7.353812 30.889291 0.709037 1.811174 0.058651 -0.027248 744965.000000 0 0 1
22.039056 20.741357 -7.474512 31.173582 0.755073 1.812926 0.058514 -0.025842 96309.000000 0 0 1
20.673356 20.565157 -7.766112 30.176577 0.782774 1.831081 0.059712 -0.030098 -311016.000000 0 0 1
19.909956 21.901257 -7.795012 30.607737 0.832988 1.828307 0.045513 -0.030569 -727138.000000 0 0 1
20.212456 22.679657 -8.935512 31.666284 0.842856 1.856859 0.048745 -0.030506 212930.000000 0 0 1
19.654356 22.289457 -10.209412 31.422057 0.848140 1.901715 0.047671 -0.021246 299475.000000 0 0 1
18.141456 22.624657 -10.359112 30.794459 0.894932 1.913883 0.041137 -0.024500 -20714.600000 0 0 1
17.829356 23.967457 -10.065212 31.521951 0.931212 1.895796 0.046729 -0.031400 -233199.000000 0 0 1
16.504956 24.291057 -10.399612 31.154790 0.973985 1.911133 0.041227 -0.020199 -104712.000000 0 0 1
16.135856 25.733757 -9.965212 31.967132 1.010738 1.887813 0.046840 -0.026328 79966.100000 0 0 1
16.813656 26.739157 -10.710712 33.352674 1.009467 1.897724 0.055538 -0.018984 94172.700000 0 0 1
16.725356 28.000757 -10.084612 34.139117 1.032351 1.870668 0.053354 -0.025607 -90036.800000 0 0 1
20.030156 28.726157 34.138812 48.906622 0.961899 0.798139 0.034367 0.002682 646186.000000 0 0 1
18.679756 29.075557 33.859036 48.381356 0.999743 0.795628 0.047593 -0.007440 162715.000000 0 0 1
17.829656 27.949357 33.763719 47.318621 1.002955 0.776259 0.047148 -0.005118 68002.900000 0 0 1
16.337256 28.293157 33.644107 46.897064 1.047139 0.770729 0.060117 -0.016148 -84233.700000 0 0 1
15.861856 28.795857 32.424477 46.175172 1.067310 0.792305 0.069876 -0.017622 145405.000000 0 0 1
14.500856 29.217257 32.520800 46.060019 1.110104 0.786888 0.076943 -0.028911 540453.000000 0 0 1
13.864456 29.271057 31.067780 44.880117 1.128444 0.806209 0.085180 -0.030979 -132342.000000 0 0 1
13.486756 27.999057 30.633910 43.638013 1.121907 0.792594 0.076298 -0.028393 -27153.400000 0 0 1
12.071856 27.996757 30.571930 43.176278 1.163696 0.784032 0.075443 -0.011374 -21825.200000 0 0 1
11.436056 26.542557 30.673420 42.144387 1.163975 0.755662 0.055296 -0.014274 117388.000000 0 0 1
11.671456 25.700957 29.546090 40.862373 1.144517 0.762569 0.053367 -0.010807 1375290.000000 0 0 1
13.055756 25.302357 29.364780 40.901740 1.094439 0.769965 0.041451 -0.014674 1074340.000000 0 0 1
13.112156 24.499757 28.058330 39.489702 1.079390 0.780556 0.050980 -0.016928 -206997.000000 0 0 1
12.720756 25.333957 26.982010 39.136375 1.105452 0.810087 0.045275 -0.020932 213654.000000 0 0 1
12.776556 24.751657 25.711440 37.907295 1.094281 0.825388 0.048798 -0.021217 329444.000000 0 0 1
11.707556 23.636757 25.390170 36.611800 1.110907 0.804465 0.050359 -0.016185 61060.400000 0 0 1
11.916356 22.933657 24.186920 35.397164 1.091591 0.818522 0.062707 -0.017713 -440964.000000 0 0 1
11.043056 21.876357 23.949440 34.265139 1.103321 0.796875 0.074379 -0.018805 -289577.000000 0 0 1
10.862156 21.688357 22.403480 33.019497 1.106486 0.825088 0.085085 -0.025333 -106636.000000 0 0 1
10.373456 22.858757 21.763080 33.222929 1.144781 0.856532 0.074957 -0.029415 124368.000000 0 0 1
10.523256 22.746657 20.380480 32.303456 1.137490 0.888074 0.075860 -0.013764 -472509.000000 0 0 1
10.198556 23.944257 19.473980 32.504982 1.168139 0.928410 0.059429 -0.016863 785885.000000 0 0 1
8.827056 24.321857 19.286880 32.271557 1.222652 0.930238 0.047779 -0.013677 678764.000000 0 0 1
8.137156 24.984857 20.323480 33.218974 1.255946 0.912458 0.044825 -0.014698 239790.000000 0 0 1
6.742956 25.556957 19.954280 33.117953 1.312834 0.924140 0.039775 -0.013957 -16952.500000 0 0 1
6.751956 26.634357 19.004880 33.409031 1.322521 0.965684 0.040500 -0.021237 -981301.000000 0 0 1
5.501256 27.062957 18.609680 33.301466 1.370253 0.977829 0.029355 -0.021588 -1440740.000000 0 0 1
5.606956 28.269657 17.610080 33.774641 1.374999 1.022306 0.037715 -0.019742 128193.000000 0 0 1
6.057956 27.848357 16.338880 32.851009 1.356600 1.050240 0.040850 -0.014615 18227.800000 0 0 1
6.531156 28.836057 15.447280 33.358546 1.348062 1.089343 0.034739 -0.015807 -45549.000000 0 0 1
7.211756 28.293557 14.203680 32.469667 1.321220 1.118041 0.036443 -0.018507 -44900.200000 0 0 1
6.313656 28.038957 13.158980 31.610190 1.349316 1.141436 0.037330 -0.020614 -239316.000000 0 0 1
6.593756 26.807557 12.468180 30.291554 1.329618 1.146581 0.027977 -0.019682 -51992.700000 0 0 1
6.037756 26.784757 11.027280 29.588487 1.349084 1.188892 0.018755 -0.017044 -104331.000000 0 0 1
6.653756 27.627457 10.042180 30.139579 1.334459 1.231112 0.014911 -0.015506 66656.200000 0 0 1
6.621156 29.028657 10.312480 31.509520 1.346542 1.237371 0.012469 -0.016955 -56957.100000 0 0 1
6.840356 29.895357 9.033080 31.970601 1.345858 1.284352 0.006509 -0.006668 -30022.100000 0 0 1
5.783256 29.824157 8.092480 31.439062 1.379262 1.310464 -0.007788 -0.001994 122111.000000 0 0 1
5.977256 28.631957 7.241480 30.132301 1.364990 1.328098 -0.012341 0.003465 -509440.000000 0 0 1
4.645456 28.267257 6.633480 29.404440 1.407912 1.343243 -0.018111 0.006162 -671568.000000 0 0 1
4.086656 29.198057 5.778580 30.043622 1.431736 1.377251 -0.029808 0.007091 -392819.000000 0 0 1
2.735656 28.863857 5.544580 29.518611 1.476301 1.381841 0.005591 -0.004441 118900.000000 0 0 1
1.939456 29.976157 4.780880 30.416908 1.506186 1.412963 0.009664 -0.005156 -202328.000000 0 0 1
2.319756 30.056957 3.387980 30.336122 1.493770 1.458881 -0.005513 -0.000230 -402475.000000 0 0 1
1.604056 30.922157 2.567680 31.070014 1.518969 1.488060 -0.007862 -0.013454 -392467.000000 0 0 1
0.349656 30.270857 1.971980 30.337035 1.559246 1.505748 0.038558 -0.012797 -298666.000000 0 0 1
0.639756 29.197657 1.088580 29.224946 1.548889 1.533539 0.049857 -0.009139 -673307.000000 0 0 1
-0.394244 28.272457 0.978680 28.292137 -1.556853 1.536197 0.063340 -0.011240 -258253.000000 0 0 1
-0.666244 28.060857 -0.512320 28.073440 -1.547058 1.589047 0.055547 -0.020320 -235697.000000 0 0 1
-1.527044 29.029057 -1.017620 29.086999 -1.518241 1.605789 0.056528 -0.023512 -248889.000000 0 0 1
-1.133044 29.415957 -2.306320 29.527977 -1.532297 1.648982 0.047597 -0.021436 -599509.000000 0 0 1
-2.016544 30.516357 -2.958320 30.725659 -1.504812 1.667227 0.051039 -0.020957 -729076.000000 0 0 1
-3.270844 30.088857 -3.358020 30.451831 -1.462515 1.681294 0.063298 -0.024334 -828767.000000 0 0 1
-3.295844 29.263257 -4.507120 29.791188 -1.458642 1.722670 0.060847 -0.025741 -512467.000000 0 0 1
-4.738844 28.926957 -4.962020 29.729566 -1.408418 1.738486 0.063630 -0.024464 216272.000000 0 0 1
-5.389044 30.014657 -5.614320 31.007128 -1.393142 1.752866 0.054072 -0.024102 -637056.000000 0 0 1
-6.527844 29.544457 -6.254120 30.896629 -1.353340 1.774626 0.057073 -0.024438 -559542.000000 0 0 1
-7.173844 30.738057 -7.023920 32.336166 -1.341514 1.789757 0.050333 -0.019202 -360136.000000 0 0 1
-7.885644 31.584457 -6.177820 33.134977 -1.326130 1.758338 0.038234 -0.019650 -172273.000000 0 0 1
-8.251044 32.747857 -6.915520 34.472108 -1.323977 1.772779 0.039909 -0.023087 -146886.000000 0 0 1
-9.254244 33.630357 -6.164320 35.420908 -1.302267 1.745718 0.028916 -0.023341 501428.000000 0 0 1
-10.628644 33.265857 -6.248620 35.477183 -1.261541 1.747851 0.042029 -0.025952 -102572.000000 0 0 1
-11.402044 34.148357 -5.495620 36.418659 -1.248538 1.722276 0.040571 -0.025393 -105054.000000 0 0 1
-12.916544 33.896557 -5.652120 36.711852 -1.206725 1.725370 0.060125 -0.028211 -5518.720000 0 0 1
-13.266744 34.087157 -6.986020 37.239028 -1.199634 1.759514 0.053741 -0.026248 373985.000000 0 0 1
-14.620344 33.680157 -7.216120 37.418976 -1.161249 1.764859 0.064834 -0.031419 203403.000000 0 0 1
-15.097144 33.784157 -8.679820 38.008318 -1.150548 1.801196 0.093032 -0.029310 682896.000000 0 0 1
-16.452044 33.398557 -8.914320 38.283135 -1.113088 1.805806 0.122236 -0.032669 653970.000000 0 0 1
-17.413344 -34.164063 -8.838020 39.351218 1.099421 1.797322 0.119196 -0.039739 -414969.000000 0 0 1
-18.874344 34.030557 -9.230520 39.994026 -1.064406 1.803694 0.120189 -0.041214 631445.000000 0 0 1
-19.543344 33.224257 -8.255420 39.420115 -1.039080 1.781780 0.113330 -0.045640 165289.000000 0 0 1
-19.969044 33.953757 -7.135720 40.031722 -1.039154 1.750006 0.118713 -0.038760 -667883.000000 0 0 1
-20.421044 33.061157 -5.972920 39.315835 -1.017482 1.723308 0.109210 -0.033339 -395037.000000 0 0 1
-20.131444 33.729757 -4.742220 39.565896 -1.032700 1.690941 0.101038 -0.038055 721217.000000 0 0 1
-21.211744 33.874757 -3.799720 40.148164 -1.011348 1.665581 0.086801 -0.027725 435233.000000 0 0 1
-22.212944 -33.537863 -3.936520 40.419047 0.985806 1.668344 0.111599 -0.039265 267218.000000 0 0 1
-22.996044 -33.772963 -5.112820 41.177324 0.973004 1.695284 0.117825 -0.041805 -6917.730000 0 0 1
-24.023744 -32.838063 -5.313120 41.033010 0.939187 1.700645 0.117918 -0.049362 -402610.000000 0 0 1
-24.618544 -33.060463 -6.661220 41.754506 0.930727 1.731014 0.142911 -0.041143 -285968.000000 0 0 1
-23.828444 -32.564463 -7.737820 41.086651 0.939090 1.760257 0.157958 -0.039724 54456.500000 0 0 1
-24.176144 -33.079663 -9.015220 41.952643 0.939667 1.787376 0.109087 -0.034547 701512.000000 0 0 1
-25.409624 -32.462963 -9.795820 42.372763 0.906677 1.804089 0.080625 -0.024734 2180370.000000 0 0 1
-26.720944 -32.750663 -9.165720 43.250725 0.886441 1.784336 0.091136 -0.015372 2110820.000000 0 0 1
-27.822954 -32.099663 -9.820120 43.599769 0.856648 1.797979 0.017604 -0.008937 62561.700000 0 0 1
-27.957164 -30.566163 -9.736920 42.552332 0.829949 1.801664 -0.001982 0.001475 -800280.000000 0 0 1
-26.966934 -29.719663 -10.306420 41.433033 0.833921 1.822185 0.015039 0.003074 -38622.800000 0 0 1
-27.057254 -29.619763 -11.713720 41.792782 0.830580 1.854883 0.010026 0.000473 -163636.000000 0 0 1
-25.979514 -28.701163 -12.343320 40.633108 0.835131 1.879449 0.039916 0.001729 -1125390.000000 0 0 1
-24.791844 -29.368663 -12.496720 40.414378 0.869703 1.885163 0.056111 -0.010485 -1322560.000000 0 0 1
-23.991844 -28.641363 -13.385020 39.687467 0.873508 1.914802 0.055335 -0.015915 31793.300000 0 0 1
-22.573244 -29.228763 -13.657120 39.374978 0.913178 1.925004 0.079798 -0.024601 163156.000000 0 0 1
-22.456044 -30.469463 -14.350020 40.479441 0.935666 1.933177 0.086959 -0.028493 -104636.000000 0 0 1
-22.910644 -31.614563 -13.665420 41.365709 0.943694 1.907477 0.078123 -0.028595 -132006.000000 0 0 1
-23.022044 -32.854163 -14.598820 42.691171 0.959578 1.919802 0.071518 -0.019990 -59721.600000 0 0 1
-23.484544 -33.941263 -13.854620 43.537152 0.965516 1.894653 0.058415 -0.027967 -10498.100000 0 0 1
-23.565744 33.458857 -14.589720 43.447661 -0.957177 1.913251 0.056039 -0.020275 -216920.000000 0 0 1
-24.110844 32.293257 -13.669220 42.556254 -0.929461 1.897796 0.040715 -0.024359 37270.100000 0 0 1
-23.301344 31.892857 -12.573220 41.451089 -0.939819 1.878978 0.044559 -0.023753 102468.000000 0 0 1
-23.197844 32.822957 -11.515120 41.810100 -0.955550 1.849817 0.088732 -0.027294 -33605.000000 0 0 1
-22.437644 32.297857 -10.286720 40.649920 -0.963630 1.826634 0.093198 -0.028374 184672.000000 0 0 1
-23.288944 31.640057 -9.344120 40.382925 -0.936277 1.804300 0.089793 -0.021629 360267.000000 0 0 1
-22.575644 31.011457 -8.305520 39.247316 -0.941539 1.784029 0.088551 -0.023717 -254111.000000 0 0 1
-23.485344 30.060857 -7.535020 38.884354 -0.907587 1.765810 0.078124 -0.020581 -284658.000000 0 0 1
-23.750944 28.900057 -8.306020 38.318541 -0.882885 1.789293 0.076045 -0.003368 250722.000000 0 0 1
-24.281844 27.738557 -7.646220 37.649703 -0.851750 1.775307 0.071602 -0.001674 181958.000000 0 0 1
-23.216344 26.899257 -6.852120 36.187293 -0.858755 1.761298 0.073205 -0.001751 16005.300000 0 0 1
-23.233444 27.108857 -5.469520 36.119228 -0.862228 1.722811 0.072690 -0.000249 -77490.600000 0 0 1
-22.203144 26.455957 -4.790220 34.868947 -0.872577 1.708610 0.063745 0.005594 -328266.000000 0 0 1
-20.843044 27.158157 -4.702520 34.555920 -0.916208 1.707304 0.062114 -0.008532 6846.330000 0 0 1
-20.047444 27.357757 -5.879020 34.422518 -0.938402 1.742428 0.066969 -0.009592 1718160.000000 0 0 1
-18.767044 28.023857 -5.648820 34.197188 -0.980710 1.736741 0.064679 -0.011280 1816960.000000 0 0 1
-17.753444 27.904357 -6.859220 33.777016 -1.004166 1.775292 0.068645 -0.012296 127002.000000 0 0 1
-18.010444 28.566257 -8.121220 34.732712 -1.008266 1.806802 0.076911 -0.019072 108635.000000 0 0 1
-17.934444 29.924257 -8.077620 35.809962 -1.030871 1.798323 0.085654 -0.023684 -225673.000000 0 0 1
-17.936844 30.638157 -9.399720 36.725764 -1.041150 1.829620 0.096208 -0.028959 26593.700000 0 0 1
-16.731644 30.473157 -10.139120 36.212745 -1.068674 1.854578 0.080222 -0.025637 144847.000000 0 0 1
-16.731244 31.115557 -11.359420 37.109956 -1.077435 1.881892 0.089112 -0.023979 -377149.000000 0 0 1
-15.352644 31.477257 -11.951720 37.004932 -1.117007 1.899669 0.079719 -0.023859 -10785.000000 0 0 1
-15.351944 32.101357 -13.188820 37.948969 -1.124713 1.925744 0.078486 -0.019308 -139679.000000 0 0 1
-15.595644 31.242357 -14.281320 37.726185 -1.107803 1.959028 0.083803 -0.023114 -237896.000000 0 0 1
-15.176644 31.911757 -15.587020 38.621832 -1.126874 1.986223 0.106308 -0.023390 542273.000000 0 0 1
-13.758944 32.025857 -15.613020 38.193329 -1.165019 1.991923 0.087732 -0.030928 214018.000000 0 0 1
-13.201444 32.421257 -16.855720 38.852687 -1.184112 2.019543 0.073091 -0.038989 323953.000000 0 0 1
-11.649444 32.380057 -16.866920 38.323238 -1.225442 2.026531 0.094615 -0.045169 -273954.000000 0 0 1
-11.134044 31.109157 -17.008220 37.162159 -1.227099 2.046176 0.090557 -0.054322 -309322.000000 0 0 1
-9.784844 31.035757 -17.395020 36.899161 -1.265384 2.061697 0.082619 -0.050814 -204933.000000 0 0 1
-9.575944 31.286057 -18.901520 37.786022 -1.273774 2.094655 0.077998 -0.060832 -691418.000000 0 0 1
-10.215144 30.308157 -19.694820 37.560877 -1.245711 2.122741 0.070783 -0.059139 459720.000000 0 0 1
-9.665244 30.209457 -21.036120 38.059776 -1.261147 2.156412 0.061562 -0.056513 -339043.000000 0 0 1
-10.666944 29.458957 -21.999620 38.283117 -1.223387 2.182980 0.064475 -0.049394 1118680.000000 0 0 1
-11.767044 30.212557 -22.531120 39.483076 -1.199396 2.178097 0.079472 -0.048664 220850.000000 0 0 1
-12.777144 30.426857 -21.608120 39.445657 -1.173228 2.150522 0.091255 -0.048546 -682536.000000 0 0 1
-13.689744 31.692657 -21.859420 40.861569 -1.163051 2.135260 0.112513 -0.042876 594746.000000 0 0 1
-14.422444 31.765457 -23.071620 41.825241 -1.144597 2.155101 0.096510 -0.035471 -52193.900000 0 0 1
-15.052244 33.005457 -23.204220 43.062350 -1.142920 2.139870 0.104319 -0.035840 20623.000000 0 0 1
-15.602744 33.235857 -24.627720 44.210772 -1.131882 2.161629 0.112173 -0.027612 -224983.000000 0 0 1
-14.620144 33.456857 -25.598420 44.591355 -1.158818 2.182260 0.106609 -0.022933 -238417.000000 0 0 1
-15.096744 33.366757 -26.926420 45.456399 -1.145908 2.204778 0.107526 -0.012873 -15496.300000 0 0 1
-15.917844 -34.037763 -27.463120 46.542132 1.133360 2.201942 0.088078 -0.005172 -98781.500000 0 0 1
-17.136044 -33.797863 -26.800820 46.413613 1.101552 2.186379 0.081317 -0.000414 -343010.000000 0 0 1
-17.779244 -32.800963 -27.552420 46.380390 1.074089 2.206884 0.069428 0.004622 -509477.000000 0 0 1
-19.211744 -32.410263 -27.160120 46.445542 1.035712 2.195397 0.071120 -0.002153 -177631.000000 0 0 1
-20.061044 -33.483563 -27.486420 47.739897 1.031016 2.184322 0.072275 -0.000878 -698282.000000 0 0 1
-21.404744 -33.073263 -27.459320 48.021017 0.996398 2.179517 0.057987 0.009074 442426.000000 0 0 1
-22.519344 -34.163063 -27.514020 49.307779 0.988000 2.162777 0.037762 0.009824 140298.000000 0 0 1
-22.719744 33.738657 -26.254820 48.412801 -0.978144 2.143982 0.070118 -0.002371 -627043.000000 0 0 1
-23.732044 32.776957 -26.324420 48.275396 -0.944113 2.147539 0.040857 -0.006010 -244063.000000 0 0 1
-23.700244 31.563657 -27.290420 47.986800 -0.926738 2.175729 0.054356 -0.010817 42769.300000 0 0 1
-22.764244 30.554957 -26.899820 46.641360 -0.930486 2.185526 0.068757 -0.035287 -45941.300000 0 0 1
-23.359544 29.547857 -26.103020 45.826976 -0.901834 2.176815 0.041814 -0.028222 -53191.100000 0 0 1
31.564128 9.855857 -26.453412 42.346371 0.302656 2.245533 0.034416 -0.006883 -55470.900000 0 0 1
31.275618 8.513657 -26.295122 41.738233 0.265774 2.252351 0.026005 -0.003102 -476986.000000 0 0 1
29.910998 8.312557 -26.533522 40.838636 0.271069 2.278007 0.030207 -0.007987 -339812.000000 0 0 1
29.511298 6.893657 -26.154172 40.030987 0.229479 2.282795 0.027561 -0.010569 -142429.000000 0 0 1
29.420648 6.763257 -24.787712 39.060809 0.225956 2.258278 0.013239 -0.005444 -40031.000000 0 0 1
28.815448 5.534457 -24.488812 38.218610 0.189755 2.266279 0.011431 -0.002489 -104495.000000 0 0 1
28.854718 5.221957 -22.983112 37.257040 0.179036 2.235568 0.016670 -0.007218 197582.000000 0 0 1
30.129478 5.009757 -22.398012 37.875507 0.164767 2.203539 0.029547 -0.008788 250539.000000 0 0 1
29.935908 4.715557 -21.020712 36.881776 0.156238 2.177239 0.018298 -0.006478 221717.000000 0 0 1
31.244478 4.421157 -20.233712 37.485559 0.140569 2.140964 0.019839 -0.002237 317025.000000 0 0 1
31.820988 3.132657 -20.416812 37.937251 0.098130 2.139064 0.034385 0.000825 648228.000000 0 0 1
32.901318 2.830857 -19.530312 38.365917 0.085829 2.104881 0.051467 -0.006823 245173.000000 0 0 1
33.327638 1.339057 -19.564812 38.669192 0.040157 2.101283 0.055982 -0.005583 -431640.000000 0 0 1
32.540768 0.516357 -18.768112 37.568740 0.015867 2.093895 0.055217 -0.010336 -151598.000000 0 0 1
32.825518 -0.898643 -18.997712 37.937254 -0.027370 2.095281 0.047419 -0.006762 -595391.000000 0 0 1
31.714018 -1.706043 -18.412312 36.711071 -0.053743 2.096182 0.038797 -0.008570 -601891.000000 0 0 1
31.640398 -1.994543 -17.034012 35.989590 -0.062955 2.063834 0.038914 -0.009748 -246832.000000 0 0 1
30.318628 -1.873543 -16.568712 34.601324 -0.061717 2.070136 0.043382 -0.008292 -289501.000000 0 0 1
30.138268 -2.196443 -15.086912 33.775057 -0.072750 2.033856 0.046671 -0.016992 -218339.000000 0 0 1
29.956768 -3.631843 -14.850112 33.632188 -0.120647 2.028116 0.049867 -0.007594 73993.800000 0 0 1
28.993998 -3.822843 -13.871812 32.368090 -0.131093 2.013700 0.050249 -0.007802 -706183.000000 0 0 1
28.740678 -5.282743 -13.555112 32.212964 -0.181778 2.005120 0.049932 -0.004718 -78920.100000 0 0 1
28.169128 -6.016743 -14.632212 32.307934 -0.210431 2.040810 0.044362 -0.003373 596846.000000 0 0 1
27.538228 -7.216143 -14.222812 31.823185 -0.256279 2.034130 0.046541 -0.009781 52953.200000 0 0 1
26.851728 -8.118543 -15.286412 31.946838 -0.293609 2.069737 0.037942 -0.003606 -70512.800000 0 0 1
25.585028 -7.782143 -15.773612 31.047742 -0.295276 2.103708 0.037838 -0.010189 -319457.000000 0 0 1
25.027928 -8.834143 -16.526912 31.266245 -0.339320 2.127731 0.037310 0.000373 632369.000000 0 0 1
23.601528 -8.488543 -17.069412 30.338957 -0.345255 2.168352 0.061932 -0.002197 353132.000000 0 0 1
23.678628 -7.520243 -18.083712 30.728686 -0.307521 2.199994 0.052394 -0.000861 158075.000000 0 0 1
22.400428 -7.146243 -18.560212 29.955458 -0.308816 2.239021 0.057393 -0.008425 89983.700000 0 0 1
22.297428 -7.457443 -20.052612 30.901392 -0.322758 2.276964 0.047499 -0.005552 -1058.380000 0 0 1
23.056628 -6.615343 -20.916612 31.825705 -0.279411 2.287926 0.046690 -0.009405 493081.000000 0 0 1
22.718928 -6.836343 -22.237812 32.517773 -0.292291 2.323845 0.063434 -0.013882 -8787.350000 0 0 1
23.926928 -6.286743 -23.030612 33.799854 -0.256940 2.320445 0.066373 -0.020339 47677.800000 0 0 1
23.875828 -6.540443 -24.423612 34.775644 -0.267377 2.349447 0.067195 -0.021350 116359.000000 0 0 1
23.654728 -5.326543 -25.123162 34.915491 -0.221485 2.373939 0.079633 -0.032031 -131107.000000 0 0 1
23.578628 -5.527643 -26.656452 36.014899 -0.230276 2.404091 0.093015 -0.031690 -487987.000000 0 0 1
22.404928 -6.151143 -27.074952 35.677309 -0.267942 2.432395 0.106868 -0.035911 -479899.000000 0 0 1
22.315728 -6.264943 -28.446192 36.693692 -0.273696 2.457882 0.104610 -0.035681 -418060.000000 0 0 1
21.095928 -7.080143 -28.848922 36.433870 -0.323804 2.484573 0.103608 -0.046013 -320184.000000 0 0 1
21.118128 -8.413043 -28.405062 36.381344 -0.379109 2.466676 0.083913 -0.035775 -223548.000000 0 0 1
20.348428 -9.273243 -29.177542 36.761128 -0.427603 2.487674 0.095269 -0.040217 -490197.000000 0 0 1
20.403828 -10.723643 -28.730552 36.834187 -0.483894 2.465457 0.094280 -0.032433 -638279.000000 0 0 1
19.480128 -11.038343 -27.717702 35.631326 -0.515534 2.462117 0.100312 -0.036588 -180573.000000 0 0 1
19.441528 -12.421743 -27.344022 35.776644 -0.568553 2.440749 0.097634 -0.028837 -413218.000000 0 0 1
19.004228 -13.431243 -28.369572 36.693209 -0.615242 2.454599 0.082810 -0.019728 183357.000000 0 0 1
17.682628 -13.449743 -28.903502 36.455224 -0.650263 2.486267 0.083358 -0.023030 806149.000000 0 0 1
17.752428 -14.525243 -29.798242 37.604077 -0.685747 2.485563 0.070500 -0.018175 157960.000000 0 0 1
16.451928 -14.663943 -30.629532 37.734141 -0.727999 2.517886 0.060417 -0.020791 763149.000000 0 0 1
15.379028 -15.370543 -29.948802 37.009443 -0.785122 2.513621 0.060995 -0.023860 1547890.000000 0 0 1
14.327628 -15.686743 -30.907712 37.505220 -0.830649 2.539392 0.052672 -0.023570 731280.000000 0 0 1
13.133928 -16.414343 -30.208862 36.803615 -0.895964 2.533628 0.051668 -0.025487 296322.000000 0 0 1
13.485328 -17.685143 -29.677082 37.085679 -0.919329 2.498475 0.049304 -0.024051 172842.000000 0 0 1
12.540928 -17.943443 -28.669532 36.071929 -0.960799 2.489454 0.052694 -0.024976 11040.600000 0 0 1
12.845628 -19.347343 -28.004822 36.381313 -0.984678 2.449259 0.050826 -0.023025 159730.000000 0 0 1
13.806828 -19.219743 -26.982092 35.889557 -0.947850 2.421598 0.054380 -0.017064 -183256.000000 0 0 1
13.841928 -20.423343 -26.259522 36.031575 -0.975160 2.387352 0.045267 -0.010266 52815.100000 0 0 1
14.983328 -20.567643 -25.206162 35.817296 -0.941204 2.351448 0.036088 -0.004184 -25261.600000 0 0 1
16.253528 -20.873543 -25.710332 36.890421 -0.909200 2.341915 0.045636 -0.007484 -101394.000000 0 0 1
17.251928 -20.608243 -24.741912 36.530685 -0.873817 2.314871 0.044578 -0.007209 228321.000000 0 0 1
18.664828 -21.114043 -25.151502 37.772698 -0.846891 2.299448 0.030341 -0.001423 91272.300000 0 0 1
18.940428 -22.527643 -25.163462 38.722530 -0.871689 2.278171 0.039819 -0.013461 281551.000000 0 0 1
18.606228 -23.302943 -24.011212 38.285209 -0.897001 2.248707 0.038955 -0.015689 -374459.000000 0 0 1
19.123828 -24.740643 -24.234012 39.561440 -0.912754 2.230100 0.036667 -0.013722 297482.000000 0 0 1
20.531228 -24.863943 -24.029212 40.213804 -0.880554 2.211221 0.046201 -0.013692 367356.000000 0 0 1
20.960728 -26.161103 -23.786012 41.103891 -0.895314 2.187906 0.047586 -0.022201 -127656.000000 0 0 1
21.088228 -26.447493 -22.283412 40.505971 -0.897666 2.153312 0.058118 -0.015705 -932670.000000 0 0 1
19.904628 -26.422613 -21.556012 39.484305 -0.925175 2.148305 0.046373 -0.007668 -488214.000000 0 0 1
20.111428 -26.432503 -20.177412 38.862253 -0.920381 2.116715 0.042297 -0.010157 -153499.000000 0 0 1
18.858628 -26.906503 -19.422512 38.168596 -0.959470 2.104658 0.042644 -0.003384 -472662.000000 0 0 1
18.587628 -28.278103 -19.690612 39.151900 -0.989296 2.097780 0.036847 0.003807 75677.700000 0 0 1
17.477928 -28.815943 -19.007212 38.692514 -1.025584 2.084306 0.021539 0.008550 1028960.000000 0 0 1
16.022228 -28.379583 -19.400912 37.927667 -1.056837 2.107754 0.033178 0.008479 351280.000000 0 0 1
15.422628 -27.259853 -18.799312 36.529046 -1.055931 2.111384 0.031059 0.007363 -296916.000000 0 0 1
14.115228 -27.098163 -19.276912 36.126852 -1.090575 2.133636 0.031705 0.011596 238625.000000 0 0 1
13.156628 -26.177483 -18.442512 34.619124 -1.105076 2.132615 0.036966 -0.001630 -147772.000000 0 0 1
12.573528 -26.738823 -17.275312 34.227105 -1.131243 2.099861 0.043516 -0.000517 162912.000000 0 0 1
11.607328 -25.925333 -16.631512 32.915956 -1.149839 2.100493 0.059761 -0.016528 -491809.000000 0 0 1
10.203928 -25.942583 -17.219812 32.766747 -1.196055 2.124131 0.068624 -0.015054 -1765980.000000 0 0 1
9.528728 -26.954343 -16.581712 33.049757 -1.230995 2.096382 0.079968 -0.006717 -623453.000000 0 0 1
8.139328 -26.722833 -16.486412 32.437020 -1.275140 2.103958 0.074860 0.001876 248256.000000 0 0 1
7.306528 -27.408043 -17.597212 33.380354 -1.310272 2.126066 0.072735 0.007263 -391186.000000 0 0 1
7.454228 -26.900473 -18.901712 33.711655 -1.300475 2.166012 0.066790 0.004559 -31829.900000 0 0 1
6.761028 -27.779493 -19.762212 34.755672 -1.332056 2.175604 0.059376 0.010786 62907.700000 0 0 1
6.885128 -27.304823 -21.226412 35.263564 -1.323788 2.216720 0.043231 -0.000226 -96596.200000 0 0 1
5.919928 -26.308833 -21.558912 34.525164 -1.349466 2.245211 0.059931 -0.007099 279421.000000 0 0 1
6.112628 -25.544843 -22.756612 34.752937 -1.335923 2.284729 0.048261 -0.009207 154172.000000 0 0 1
4.743628 -24.931143 -23.178312 34.370017 -1.382775 2.310916 0.044148 -0.003718 219808.000000 0 0 1
3.814328 -25.881983 -23.576212 35.217381 -1.424476 2.304262 0.037740 -0.002182 480947.000000 0 0 1
2.522128 -25.314503 -23.883012 34.893889 -1.471492 2.324641 0.038489 -0.002151 1281290.000000 0 0 1
1.560628 -26.328283 -24.570612 36.046207 -1.511590 2.320801 0.033961 -0.012808 320923.000000 0 0 1
2.157628 -26.914043 -25.708342 37.281898 -1.490800 2.331686 0.034097 -0.004905 184289.000000 0 0 1
1.263528 -27.893263 -26.156872 38.259804 -1.525529 2.323569 0.031121 -0.013687 144518.000000 0 0 1
1.823828 -28.783823 -27.314902 39.723276 -1.507518 2.329016 0.031885 -0.011583 -728372.000000 0 0 1
1.814028 -28.060083 -28.559712 40.078874 -1.506238 2.363976 0.042024 -0.017105 191769.000000 0 0 1
2.463628 -28.762773 -29.625192 41.364460 -1.485352 2.369137 0.035294 -0.010503 495224.000000 0 0 1
4.017128 -28.882473 -29.539412 41.507968 -1.432598 2.362650 0.034993 -0.013362 60199.900000 0 0 1
4.382528 -29.837443 -28.486252 41.484288 -1.424959 2.327703 0.026395 -0.015352 -486507.000000 0 0 1
5.612128 -30.435173 -28.824992 42.292741 -1.388449 2.320687 0.032782 -0.011714 169702.000000 0 0 1
6.108628 -31.433383 -27.752632 42.374302 -1.378853 2.284900 0.048332 -0.015251 337729.000000 0 0 1
5.199528 -32.547993 -27.715302 43.064428 -1.412385 2.269960 0.039225 -0.025633 611061.000000 0 0 1
5.853328 -33.805923 -27.364172 43.885075 -1.399351 2.244061 0.066435 -0.040892 447335.000000 0 0 1
4.865928 33.732182 -26.764472 43.334447 1.427533 2.236517 0.069666 -0.040928 107897.000000 0 0 1
4.132228 32.962596 -27.699032 43.253259 1.446086 2.265805 0.060419 -0.039860 640866.000000 0 0 1
2.879228 32.551490 -27.130222 42.472796 1.482574 2.263691 0.051176 -0.045641 313901.000000 0 0 1
1.761328 32.642424 -28.172562 43.154645 1.516890 2.282108 0.053457 -0.034616 -831826.000000 0 0 1
1.706528 31.594966 -29.120882 43.002092 1.516836 2.314743 0.061027 -0.033189 132012.000000 0 0 1
0.669928 31.862686 -30.049922 43.802710 1.549774 2.326813 0.054473 -0.032139 28468.700000 0 0 1
0.428728 30.827436 -31.134792 43.816548 1.556890 2.361106 0.042902 -0.025847 -120417.000000 0 0 1
1.429828 30.640726 -32.129442 44.420711 1.524166 2.379364 0.063612 -0.028338 295153.000000 0 0 1
0.960728 29.672496 -33.041862 44.420093 1.538430 2.409608 0.060630 -0.023289 -370666.000000 0 0 1
2.029128 29.214256 -34.068522 44.924985 1.501451 2.431563 0.061835 -0.019678 222286.000000 0 0 1
2.354428 30.338016 33.494536 45.252873 1.493345 0.737482 0.057759 -0.014023 230236.000000 0 0 1
3.068428 29.977246 32.295480 44.170676 1.468793 0.750787 0.052628 -0.013600 97532.300000 0 0 1
2.300228 28.992536 31.380760 42.785632 1.491624 0.747425 0.050177 -0.009921 50406.300000 0 0 1
2.277128 27.633906 31.682090 42.101935 1.488579 0.718933 0.057956 -0.011698 1072520.000000 0 0 1
3.559528 27.010586 31.410520 41.579596 1.439769 0.714485 0.055441 -0.010125 897496.000000 0 0 1
3.366128 25.528826 31.809140 40.925215 1.439697 0.680512 0.066359 -0.011664 451323.000000 0 0 1
2.385028 24.876516 31.000150 39.818824 1.475214 0.678476 0.066532 0.000001 499474.000000 0 0 1
2.336828 23.500376 31.259040 39.177239 1.471684 0.647013 0.060220 0.002485 95518.100000 0 0 1
1.495928 22.676576 30.216770 37.808969 1.504924 0.644840 0.051824 0.014024 1305500.000000 0 0 1
0.087028 22.722976 30.517540 38.048147 1.566966 0.640032 0.022637 0.010577 411076.000000 0 0 1
-0.722772 22.153876 29.559810 36.947246 -1.538183 0.643410 0.035825 0.012731 -160631.000000 0 0 1
-2.151172 21.916776 30.100500 37.296283 -1.472958 0.631633 0.025707 0.015893 -115765.000000 0 0 1
-2.940872 23.086076 30.229000 38.149811 -1.444092 0.656102 0.034496 0.013354 -485853.000000 0 0 1
-4.266572 22.659776 30.375280 38.135636 -1.384687 0.649301 0.002743 0.011461 -243074.000000 0 0 1
-5.254272 23.813316 30.710110 39.214695 -1.353632 0.671117 -0.023107 0.003817 -251637.000000 0 0 1
-5.400872 24.052636 32.072460 40.451717 -1.349916 0.655312 -0.024565 0.004679 -21705.100000 0 0 1
-4.733372 25.176126 32.605343 41.465052 -1.384955 0.665945 -0.008351 -0.012334 -474466.000000 0 0 1
-5.049572 25.571936 34.046553 42.878781 -1.375839 0.653405 0.000970 -0.010004 -1074180.000000 0 0 1
-6.366072 25.968876 34.145106 43.368164 -1.330395 0.664328 -0.001990 -0.004567 -945086.000000 0 0 1
-6.651172 26.351406 -32.947772 42.710541 -1.323557 2.451866 0.012427 -0.004175 415677.000000 0 0 1
-8.047872 26.982756 -32.659432 43.121640 -1.280937 2.430086 0.040532 -0.006631 64450.500000 0 0 1
-8.207872 28.341386 -33.046462 44.302054 -1.288901 2.412734 0.042433 -0.017502 24760.600000 0 0 1
-9.431972 28.879926 -32.575662 44.544202 -1.255125 2.391038 0.050492 -0.024218 114304.000000 0 0 1
-9.705272 29.012906 -31.079692 43.610644 -1.247982 2.364083 0.057850 -0.012233 -127261.000000 0 0 1
-8.796672 29.966456 -30.486062 43.643669 -1.285267 2.344126 0.063533 -0.011614 632522.000000 0 0 1
-8.947772 30.210906 -29.118492 42.902774 -1.282851 2.316799 0.067489 -0.016439 -605996.000000 0 0 1
-8.223372 31.503746 -28.712352 43.410932 -1.315465 2.293491 0.061551 -0.027736 181324.000000 0 0 1
-6.805072 31.434596 -28.747352 43.137606 -1.357603 2.300180 0.044378 -0.031983 59120.900000 0 0 1
-6.348872 32.711512 -28.365472 43.760155 -1.379093 2.276019 0.047989 -0.025033 -1298320.000000 0 0 1
-4.854972 32.762699 -28.169342 43.479616 -1.423681 2.275587 0.054976 -0.026547 -1419680.000000 0 0 1
-4.254172 34.008940 -27.945102 44.222559 -1.446353 2.254824 0.055765 -0.025751 -103918.000000 0 0 1
-4.282072 -33.610893 -28.973382 44.581220 1.444078 2.278251 0.053900 -0.027315 -578757.000000 0 0 1
-3.087972 -33.826043 -29.924972 45.268540 1.479759 2.293020 0.057172 -0.030577 -286244.000000 0 0 1
-3.248772 33.721647 -30.881462 45.840688 -1.474752 2.309959 0.055477 -0.033192 523613.000000 0 0 1
-4.177272 33.977199 -31.958492 46.832092 -1.448467 2.321845 0.060668 -0.025103 564886.000000 0 0 1
-3.613072 -33.625263 -33.047942 47.285083 1.463756 2.344666 0.045898 -0.020699 -35929.800000 0 0 1
-3.495672 -32.258163 -32.695762 46.063235 1.462852 2.360013 0.051413 -0.027558 -135888.000000 0 0 1
-2.544472 -31.618183 -33.497862 46.133400 1.490494 2.383442 0.046316 -0.024079 -157559.000000 0 0 1
32.214528 19.572257 12.192680 39.617048 0.545960 1.257955 0.071360 -0.006511 338204.000000 0 0 1
33.302798 18.803257 12.686680 40.293805 0.513995 1.250493 0.063216 -0.020212 489805.000000 0 0 1
32.844278 17.512557 12.795680 39.359442 0.489853 1.239681 0.077915 -0.012995 171482.000000 0 0 1
33.870288 16.636357 13.571680 40.101812 0.456566 1.225548 0.082650 -0.023862 -315579.000000 0 0 1
35.064608 16.461857 12.905180 40.829685 0.438928 1.249208 0.083558 -0.001947 -911330.000000 0 0 1
35.872368 15.469357 13.448980 41.315891 0.407138 1.239239 0.079983 -0.004047 244365.000000 0 0 1
-35.405941 15.019957 12.497180 40.439575 -0.401211 1.256620 0.083782 -0.013876 581583.000000 0 0 1
-34.575996 13.980157 13.024880 39.504326 -0.384235 1.234802 0.073231 -0.011755 -43754.000000 0 0 1
-35.188930 12.689657 13.236480 39.679876 -0.346100 1.230696 0.073074 -0.013969 -268284.000000 0 0 1
-34.533841 11.792057 14.294080 39.191319 -0.329050 1.197458 0.079470 -0.016032 -71236.200000 0 0 1
-34.549269 12.430757 15.525880 39.865131 -0.345377 1.170751 0.077202 -0.017609 -305218.000000 0 0 1
-33.966684 11.676457 16.479480 39.517699 -0.331107 1.140637 0.074561 -0.014733 -455312.000000 0 0 1
-33.855794 12.321357 17.871980 40.217388 -0.349036 1.110309 0.066239 -0.011682 51044.400000 0 0 1
-35.081992 12.473557 18.563980 41.604773 -0.341614 1.108283 0.064679 -0.010380 106046.000000 0 0 1
-34.934487 13.219557 19.759780 42.256644 -0.361757 1.084207 0.061741 -0.012880 1113000.000000 0 0 1
36.194568 13.198257 20.667680 43.719490 0.349664 1.078406 0.068341 -0.019975 1207460.000000 0 0 1
35.849978 11.923857 21.264780 43.354241 0.321094 1.058145 0.055564 -0.006831 37916.200000 0 0 1
34.750338 12.080057 22.132780 42.934529 0.334557 1.029204 0.061521 -0.015381 92724.000000 0 0 1
34.559368 10.855657 22.956180 42.885679 0.304357 1.005948 0.042301 -0.010091 167873.000000 0 0 1
35.662898 10.831157 23.845200 44.246467 0.294856 1.001645 0.049700 -0.002788 166337.000000 0 0 1
35.270488 11.201157 25.202380 44.773131 0.307505 0.972917 0.049095 -0.006377 -438131.000000 0 0 1
-35.890907 11.376557 26.072050 45.796671 -0.306957 0.965142 0.058517 -0.010237 820820.000000 0 0 1
-35.188004 12.598457 25.762230 45.393934 -0.343813 0.967299 0.068136 -0.017873 40278.000000 0 0 1
-34.381285 12.467257 24.597150 44.074086 -0.347871 0.978718 0.062717 -0.013902 -429860.000000 0 0 1
-33.415274 13.727257 24.394350 43.590164 -0.389789 0.976857 0.053290 -0.013159 1347660.000000 0 0 1
-32.299604 13.953757 25.271450 43.319948 -0.407793 0.947928 0.043550 -0.017651 579764.000000 0 0 1
-32.701304 14.445857 26.537230 44.522833 -0.415974 0.932241 0.046769 -0.018368 -487520.000000 0 0 1
-31.576734 14.980457 27.455500 44.444445 -0.442970 0.904920 0.035824 -0.011246 -143345.000000 0 0 1
-30.963754 16.128557 26.888020 44.066427 -0.480216 0.914521 0.041637 -0.019333 -128140.000000 0 0 1
-30.589564 17.020757 27.876470 44.749583 -0.507762 0.898296 0.052776 -0.028265 282917.000000 0 0 1
-29.837734 18.298657 27.302990 44.391266 -0.550121 0.908343 0.051425 -0.018398 585815.000000 0 0 1
-30.804884 19.129957 26.642840 44.997078 -0.555721 0.937132 0.039218 -0.035551 589743.000000 0 0 1
-30.271224 20.347557 26.137650 44.872562 -0.591806 0.949012 0.042302 -0.040708 -678039.000000 0 0 1
-31.250144 21.282457 25.402790 45.550150 -0.597884 0.979198 0.051825 -0.022592 -316494.000000 0 0 1
-32.328454 21.637257 26.244660 46.926346 -0.589820 0.977287 0.045536 -0.022741 373511.000000 0 0 1
-33.396664 22.367157 25.669390 47.692184 -0.590129 1.002460 0.046097 -0.014037 -190550.000000 0 0 1
-33.145954 23.885957 25.565240 48.195173 -0.624438 1.011662 0.043996 -0.021212 -701028.000000 0 0 1
-33.948884 24.403057 24.572990 48.496059 -0.623244 1.039443 0.050169 -0.023572 -276938.000000 0 0 1
-33.975354 25.822057 24.695770 49.305013 -0.649885 1.046184 0.058957 -0.019323 149270.000000 0 0 1
-34.909318 26.472057 23.657840 49.790799 -0.648798 1.075668 0.069846 -0.014001 155050.000000 0 0 1
-34.380722 26.342857 22.337880 48.733572 -0.653795 1.094639 0.070700 -0.012618 530197.000000 0 0 1
-35.293000 26.935257 21.426580 49.297081 -0.651889 1.121156 0.084435 -0.017444 444599.000000 0 0 1
-34.773979 26.695957 19.985380 48.180070 -0.654733 1.143067 0.077508 -0.027891 212249.000000 0 0 1
-34.669969 25.358357 19.699180 47.255801 -0.631504 1.140805 0.080201 -0.024048 163977.000000 0 0 1
-34.209955 25.187757 18.329480 46.267850 -0.634656 1.163465 0.089193 -0.026352 -52995.500000 0 0 1
-34.507039 23.853457 17.610580 45.495666 -0.604838 1.173331 0.070822 -0.019263 454787.000000 0 0 1
-35.905425 23.689457 17.397480 46.401101 -0.583215 1.186468 0.075808 -0.025847 244841.000000 0 0 1
-35.973855 22.728557 16.344480 45.583413 -0.563480 1.204069 0.058812 -0.021490 710468.000000 0 0 1
35.103688 22.750757 15.571680 44.635671 0.575040 1.214440 0.063011 -0.023789 622762.000000 0 0 1
34.057518 22.094957 16.241080 43.724985 0.575499 1.190240 0.064639 -0.025636 -405458.000000 0 0 1
32.940178 22.018857 15.376880 42.500986 0.589236 1.200598 0.064910 -0.019246 -251595.000000 0 0 1
31.854228 21.022057 15.852880 41.327140 0.583335 1.177110 0.056932 -0.022979 174380.000000 0 0 1
31.016388 21.487657 16.877580 41.335075 0.605867 1.150193 0.054079 -0.023214 -305929.000000 0 0 1
29.823658 22.092257 16.441780 40.593725 0.637563 1.153782 0.058186 -0.013249 -103651.000000 0 0 1
29.087358 22.767657 17.664580 40.944816 0.664124 1.124726 0.056518 -0.012998 430811.000000 0 0 1
29.922768 23.620657 18.458580 42.355952 0.668236 1.119873 0.044224 -0.008572 -285057.000000 0 0 1
29.214198 24.143757 19.532280 42.636842 0.690656 1.094931 0.042298 0.005913 65043.400000 0 0 1
30.066878 24.824857 20.647680 44.120487 0.690189 1.083788 0.041773 0.001783 602554.000000 0 0 1
30.715608 26.086357 20.316580 45.129924 0.704080 1.103830 0.053926 -0.006437 -136819.000000 0 0 1
31.669438 26.425557 21.243880 46.395752 0.695378 1.095183 0.051460 -0.008970 -266210.000000 0 0 1
32.693798 27.536557 20.784980 47.530641 0.699981 1.118206 0.082954 -0.015168 811061.000000 0 0 1
33.768638 27.957457 21.619080 48.880722 0.691530 1.112654 0.079136 -0.009088 453659.000000 0 0 1
33.354348 28.553057 22.885780 49.513115 0.707997 1.090303 0.059986 -0.008011 -561635.000000 0 0 1
34.405868 28.681057 23.966750 50.801298 0.694901 1.079494 0.057782 -0.012758 487139.000000 0 0 1
35.570618 29.469757 23.617550 51.879901 0.691871 1.098160 0.093101 -0.019426 355330.000000 0 0 1
-36.198734 29.832957 24.762350 53.042696 -0.689290 1.085084 0.092271 -0.020836 -225328.000000 0 0 1
-34.998450 30.812357 24.634870 52.736796 -0.721876 1.084756 0.109961 -0.023280 902313.000000 0 0 1
-33.795604 30.087157 24.265920 51.344082 -0.727412 1.078542 0.094200 -0.022673 398273.000000 0 0 1
-32.753194 31.032057 24.376860 51.283443 -0.758421 1.075451 0.090208 -0.017851 -245033.000000 0 0 1
-31.348804 30.545457 23.987400 49.911600 -0.772420 1.069460 0.077443 -0.015861 -90864.900000 0 0 1
-30.987324 30.289157 22.614480 48.878031 -0.774005 1.089790 0.053620 -0.011369 -17693.100000 0 0 1
-31.447504 29.036457 22.124380 48.182461 -0.745557 1.093725 0.064011 -0.010519 -74993.700000 0 0 1
-30.798704 27.727657 22.658680 47.231334 -0.732973 1.070440 0.056294 -0.005627 -1099930.000000 0 0 1
-29.456884 27.484657 22.383980 46.088577 -0.750776 1.063663 0.007504 -0.004388 -703971.000000 0 0 1
-29.021784 26.405257 23.168680 45.566317 -0.738226 1.037400 0.019663 -0.011044 -255753.000000 0 0 1
-28.720134 26.641457 24.666880 46.293285 -0.747869 1.008844 0.039639 -0.009890 -784196.000000 0 0 1
-29.810154 27.026357 25.501940 47.638411 -0.736458 1.005906 0.032026 -0.009340 -54146.600000 0 0 1
-29.540684 27.450257 26.791030 48.414129 -0.748735 0.984389 0.051262 -0.010315 -587901.000000 0 0 1
-30.845674 27.777957 27.538620 49.814115 -0.733117 0.985043 0.056164 -0.019289 -62626.000000 0 0 1
-31.543284 26.640757 27.952570 49.860353 -0.701338 0.975665 0.035934 -0.015875 297907.000000 0 0 1
-32.546504 26.940857 28.939100 51.210899 -0.691443 0.970246 0.040153 -0.012440 273409.000000 0 0 1
-33.237244 25.660057 29.399580 51.259030 -0.657450 0.959964 0.034961 -0.014471 -83205.900000 0 0 1
-32.556144 24.984557 30.449270 51.100769 -0.654563 0.932451 0.025378 -0.011304 195371.000000 0 0 1
-33.238884 23.826757 30.855980 51.231135 -0.621935 0.924430 0.024891 -0.021989 -240068.000000 0 0 1
-32.409154 23.080157 31.900670 50.997055 -0.618833 0.894974 0.030283 -0.026322 62579.800000 0 0 1
-31.196474 22.474657 31.411480 49.648880 -0.624302 0.885797 0.028764 -0.023564 533451.000000 0 0 1
-30.820124 21.431657 32.285760 49.513294 -0.607618 0.860495 0.032920 -0.026706 -22654.600000 0 0 1
-29.875764 21.902957 33.404590 49.881534 -0.632620 0.837021 0.033140 -0.030112 -541205.000000 0 0 1
-30.541644 22.693157 -34.046462 51.058133 -0.639021 2.300727 0.052293 -0.031215 140808.000000 0 0 1
-30.312184 22.190957 -32.755362 49.841557 -0.631934 2.287881 0.038061 -0.022431 -19839.800000 0 0 1
-28.967144 22.588257 -32.098722 48.781684 -0.662295 2.288966 0.061402 -0.030170 -117995.000000 0 0 1
-28.802164 23.997957 -31.961112 49.264381 -0.694659 2.276760 0.052815 -0.026488 282709.000000 0 0 1
-27.791894 24.305457 -30.996742 48.207288 -0.718576 2.269191 0.080446 -0.024425 17885.500000 0 0 1
-28.167924 25.476057 -30.078252 48.447524 -0.735260 2.240612 0.051989 -0.016746 -139722.000000 0 0 1
-28.064504 26.821457 -30.505842 49.372191 -0.762754 2.236834 0.042972 -0.019026 -116968.000000 0 0 1
-29.106354 27.223657 -31.348402 50.705321 -0.751988 2.237306 0.031358 -0.011615 -391808.000000 0 0 1
-28.840904 28.673957 -31.863672 51.665144 -0.782495 2.235384 0.034322 -0.013079 -26965.500000 0 0 1
-29.200804 29.757457 -31.037212 51.975972 -0.794839 2.210734 0.020250 -0.014196 529.523000 0 0 1
-28.774084 30.966857 -31.563292 52.755431 -0.822086 2.212167 0.027311 -0.028860 -317100.000000 0 0 1
-29.233164 32.167757 -30.702752 53.216552 -0.833156 2.185774 0.020930 -0.011218 -387286.000000 0 0 1
-28.442064 32.261457 -29.576352 52.196869 -0.848234 2.173207 0.015962 -0.011320 -242699.000000 0 0 1
-28.747764 33.422057 -28.832702 52.676299 -0.860443 2.149998 0.002814 -0.008408 -179856.000000 0 0 1
-27.813894 33.466257 -27.570962 51.514667 -0.877376 2.135548 -0.008796 -0.007454 1713850.000000 0 0 1
-26.438774 33.920557 -27.693302 51.152047 -0.908723 2.142888 0.002965 -0.009236 1216200.000000 0 0 1
-26.176294 -33.312963 -27.895632 50.725912 0.904793 2.153075 0.005935 0.014429 -630767.000000 0 0 1
-26.570454 -32.313763 -26.721742 49.640908 0.882626 2.139216 -0.011037 0.021393 -472258.000000 0 0 1
-27.937704 -32.065363 -26.634252 50.180536 0.854081 2.130303 -0.023981 0.010991 -617184.000000 0 0 1
-28.372434 -31.079963 -25.684572 49.301687 0.830908 2.118780 -0.021837 0.017276 967566.000000 0 0 1
-29.928094 -30.917563 -25.511952 50.024456 0.801659 2.105969 -0.018597 0.015288 856819.000000 0 0 1
-30.465814 -30.293763 -26.640872 50.553081 0.782567 2.125849 -0.008531 0.011704 -657899.000000 0 0 1
-31.841804 -30.122163 -26.503522 51.221888 0.757653 2.114636 -0.001047 0.001470 -724129.000000 0 0 1
-32.459494 -29.247363 -27.623672 51.692303 0.733390 2.134578 0.009948 -0.009509 -76882.100000 0 0 1
-33.867504 -29.292063 -27.518662 52.557678 0.713082 2.121855 0.013715 -0.007151 -246443.000000 0 0 1
-34.378133 -28.388163 -28.504362 52.917317 0.690253 2.139640 0.033188 -0.017030 1197270.000000 0 0 1
-35.956650 -28.482863 -28.519762 54.014174 0.669933 2.127046 0.045464 -0.018319 1147040.000000 0 0 1
35.813668 -28.209063 -27.313152 53.144881 -0.667172 2.110565 0.027111 -0.011554 -157491.000000 0 0 1
34.421198 -28.229863 -27.582342 52.369167 -0.686895 2.125499 0.031927 -0.014011 -160597.000000 0 0 1
33.605788 -27.622663 -26.489612 50.931916 -0.687989 2.117763 0.033391 -0.009225 -546908.000000 0 0 1
33.484448 -28.454263 -25.323252 50.716077 -0.704364 2.093603 0.035636 -0.006075 325310.000000 0 0 1
32.670378 -27.738363 -24.395312 49.314315 -0.703935 2.088275 0.041682 -0.001666 164996.000000 0 0 1
32.518088 -28.610363 -23.087312 49.081594 -0.721559 2.060525 0.037963 0.006333 -47933.400000 0 0 1
31.862278 -29.852063 -23.164212 49.426017 -0.752837 2.058575 0.049048 -0.003477 -282233.000000 0 0 1
31.532138 -30.421763 -21.913712 48.989491 -0.767477 2.034557 0.054362 -0.011703 -163576.000000 0 0 1
32.566688 -30.641063 -20.766212 49.302125 -0.754943 2.005568 0.042606 -0.004212 -795805.000000 0 0 1
33.673918 -31.429563 -21.117112 50.672306 -0.750938 2.000651 0.029278 -0.003724 -168225.000000 0 0 1
34.796738 -31.262763 -20.307912 50.995928 -0.731952 1.980379 0.017706 -0.000620 84128.100000 0 0 1
35.678498 -30.002363 -20.443712 50.902283 -0.699192 1.984089 0.002466 0.002205 -566618.000000 0 0 1
35.029888 -28.852163 -19.977712 49.584770 -0.688993 1.985480 0.005403 0.002350 288698.000000 0 0 1
35.739508 -27.718663 -20.466212 49.643757 -0.659669 1.995731 -0.006729 0.004132 12354.200000 0 0 1
34.890048 -26.509863 -20.195212 48.248678 -0.649751 2.002661 -0.003680 0.003458 234631.000000 0 0 1
33.684698 -26.406163 -20.940912 47.649409 -0.664860 2.025815 0.018234 -0.000847 68225.100000 0 0 1
32.765268 -25.587363 -20.268412 46.250238 -0.663004 2.024429 0.044217 -0.001241 -596039.000000 0 0 1
31.469738 -25.304963 -21.026912 45.528196 -0.677239 2.050869 0.042543 -0.007264 -655430.000000 0 0 1
30.742878 -26.454863 -21.185912 45.758357 -0.710570 2.052168 0.057139 -0.007803 -274984.000000 0 0 1
29.418478 -26.137563 -21.591512 44.886662 -0.726411 2.072617 0.057070 -0.014011 383394.000000 0 0 1
28.632948 -27.257363 -22.313212 45.394812 -0.760791 2.084650 0.064132 -0.016611 72519.600000 0 0 1
28.016778 -28.164663 -21.407812 45.127403 -0.788030 2.065063 0.067492 -0.014319 -17360.300000 0 0 1
27.529258 -29.331663 -22.079712 45.888127 -0.817086 2.072778 0.066245 -0.012108 -98489.900000 0 0 1
26.668628 -30.222463 -21.160512 45.523404 -0.847784 2.054236 0.072141 -0.006546 -304164.000000 0 0 1
27.352828 -30.751063 -20.052212 45.780960 -0.843817 2.024173 0.082249 -0.011251 -174770.000000 0 0 1
28.188708 -31.854963 -20.272612 47.120280 -0.846382 2.015545 0.083518 -0.011195 260558.000000 0 0 1
29.166878 -32.207763 -19.094112 47.461900 -0.834904 1.984828 0.059737 -0.008110 365686.000000 0 0 1
28.576668 -32.782163 -17.935212 47.042194 -0.853830 1.961953 0.066940 -0.008385 -195842.000000 0 0 1
27.867268 -31.905463 -17.109712 45.686819 -0.852855 1.954654 0.047919 -0.006969 -402646.000000 0 0 1
27.469498 -32.646763 -15.801212 45.497943 -0.871307 1.925481 0.054233 -0.000755 -662544.000000 0 0 1
26.422428 -33.483263 -16.151112 45.608465 -0.902723 1.932775 0.051589 0.002908 -536598.000000 0 0 1
25.899528 -34.160363 -15.015012 45.422093 -0.922084 1.907700 0.048773 0.004104 -867681.000000 0 0 1
24.415628 34.141357 -15.029312 44.582904 0.949986 1.914641 0.038096 -0.000513 -246673.000000 0 0 1
23.588028 -33.275363 -14.701412 43.356388 -0.954140 1.916738 0.032484 0.008933 -341596.000000 0 0 1
22.335528 -33.674963 -14.298612 42.864079 -0.985150 1.910895 0.028338 -0.000463 -922182.000000 0 0 1
-0.937044 -7.273043 -28.715612 29.637165 1.442664 2.891565 0.026357 -0.013844 180413.000000 0 0 1
-0.517144 -8.621843 -28.602602 29.878294 1.510887 2.848323 0.038580 -0.011258 43320.800000 0 0 1
-0.603044 -9.313343 -29.838352 31.263865 1.506136 2.838452 0.016884 -0.005332 -196098.000000 0 0 1
-0.220544 -10.793143 -29.743742 31.642230 1.550365 2.793431 0.030286 -0.004707 448606.000000 0 0 1
1.165856 -11.059343 -29.555502 31.578410 -1.465766 2.781716 0.016466 -0.009026 295650.000000 0 0 1
1.369256 -12.379543 -29.120382 31.672142 -1.460638 2.737430 0.024689 -0.008904 672498.000000 0 0 1
2.857356 -12.664243 -28.703522 31.503011 -1.348888 2.716828 0.024002 -0.007245 514522.000000 0 0 1
3.656356 -12.903743 -29.883522 32.755158 -1.294678 2.719736 0.032181 -0.010609 742811.000000 0 0 1
5.061156 -13.116543 -29.706232 32.865167 -1.202538 2.699555 0.047630 -0.015000 1049040.000000 0 0 1
5.399756 -14.472943 -29.046762 32.898903 -1.213698 2.652820 0.048676 -0.020798 -1129160.000000 0 0 1
5.124456 -14.568643 -27.691122 31.706524 -1.232567 2.632849 0.043386 -0.019337 -176693.000000 0 0 1
5.700156 -15.672243 -26.962862 31.703421 -1.221960 2.587678 0.048093 -0.019551 -228004.000000 0 0 1
5.289256 -17.126843 -27.371672 32.718701 -1.271260 2.561799 0.045389 -0.023521 -341652.000000 0 0 1
5.651956 -17.501143 -28.708002 34.093753 -1.258422 2.571834 0.051632 -0.035741 21819.100000 0 0 1
5.237156 -18.817643 -29.054992 35.010342 -1.299355 2.549720 0.044142 -0.034037 -475720.000000 0 0 1
5.636856 -19.185943 -30.492052 36.464226 -1.285036 2.561147 0.055416 -0.036870 -208172.000000 0 0 1
7.010556 -19.399243 -30.694232 36.981271 -1.224017 2.549893 0.060406 -0.034621 -336962.000000 0 0 1
7.161956 -19.822043 -32.022842 38.336268 -1.224079 2.559501 0.067672 -0.040468 358190.000000 0 0 1
8.604756 -20.118343 -32.550962 39.221865 -1.166635 2.549758 0.066995 -0.030448 454043.000000 0 0 1
9.204656 -18.907143 -32.965172 39.101257 -1.117736 2.573766 0.067733 -0.031427 -557285.000000 0 0 1
10.256156 -19.032443 -33.843642 40.159865 -1.076533 2.573118 0.060296 -0.030075 -949336.000000 0 0 1
10.667956 -17.694243 34.124096 39.891672 -1.028243 0.544437 0.057417 -0.024251 -620263.000000 0 0 1
9.681956 -17.051743 33.369092 38.703986 -1.054391 0.531275 0.076304 -0.023939 -15873.700000 0 0 1
10.123356 -15.814543 32.846522 37.834854 -1.001391 0.519323 0.063393 -0.018952 153803.000000 0 0 1
9.043456 -15.169043 31.939430 36.496728 -1.033192 0.505089 0.085491 -0.027940 113924.000000 0 0 1
8.882656 -15.858343 30.735360 35.707856 -1.060213 0.534065 0.075021 -0.027911 -217934.000000 0 0 1
7.940256 -15.375643 29.824630 34.481396 -1.094101 0.525749 0.078240 -0.023230 -470913.000000 0 0 1
7.933056 -16.225243 28.546460 33.780058 -1.116041 0.564103 0.073748 -0.008007 -308453.000000 0 0 1
7.242656 -17.447843 28.596680 34.273217 -1.177338 0.583800 0.083734 -0.018944 141474.000000 0 0 1
7.245656 -18.149143 27.387220 33.644476 -1.190955 0.619759 0.079708 -0.015119 -174917.000000 0 0 1
6.776756 -19.569943 27.622850 34.524324 -1.237436 0.643337 0.073595 -0.016546 -529313.000000 0 0 1
7.589856 -20.266243 28.516950 35.798645 -1.212458 0.649158 0.085263 -0.020794 66123.600000 0 0 1
6.922656 -21.258943 29.261060 36.824930 -1.255990 0.652449 0.071816 -0.020939 -387077.000000 0 0 1
7.527756 -21.473543 30.665260 38.185578 -1.233623 0.638386 0.071106 -0.024026 -323612.000000 0 0 1
7.214356 -20.700643 31.803520 38.626771 -1.235451 0.603500 0.086866 -0.036038 119550.000000 0 0 1
7.335856 -19.310243 31.691670 37.829383 -1.207741 0.577642 0.078035 -0.036400 -206219.000000 0 0 1
6.653156 -18.598043 32.899967 38.373944 -1.227248 0.540694 0.081168 -0.040342 110403.000000 0 0 1
5.261156 -18.813843 32.952896 38.308404 -1.298119 0.535134 0.090074 -0.043704 -331489.000000 0 0 1
4.605156 -17.907843 33.801588 38.528505 -1.319092 0.500560 0.080646 -0.037979 765067.000000 0 0 1
3.037056 -18.023843 33.782346 38.410019 -1.403862 0.495946 0.074494 -0.037103 1005620.000000 0 0 1
2.514056 -19.175943 -33.972462 39.091757 -1.440435 2.624063 0.069274 -0.041758 80440.600000 0 0 1
2.365456 -19.052343 -32.586982 37.821932 -1.447273 2.609189 0.053874 -0.043092 -336215.000000 0 0 1
1.811356 -20.258943 -31.825242 37.769721 -1.481623 2.572913 0.053145 -0.025958 474383.000000 0 0 1
0.562356 -20.838943 -32.281792 38.427749 -1.543817 2.568199 0.041525 -0.020601 1260380.000000 0 0 1
-0.069344 -21.750943 -31.362472 38.166909 1.567608 2.535217 0.033598 -0.016575 259990.000000 0 0 1
-0.700444 -21.108043 -30.126262 36.791735 1.537625 2.530170 0.030169 -0.014825 -505908.000000 0 0 1
-1.789544 -20.241743 -30.421002 36.583712 1.482617 2.552680 0.029085 -0.023935 159484.000000 0 0 1
-2.020044 -19.321843 -29.372562 35.215928 1.466628 2.557242 0.029026 -0.012395 -107008.000000 0 0 1
-1.689944 -17.833143 -29.736832 34.715358 1.476314 2.599421 0.025997 -0.013150 3330.230000 0 0 1
-2.543044 -16.778543 -29.302072 33.861453 1.420376 2.616648 0.036964 -0.010233 -249878.000000 0 0 1
-1.977944 -15.535643 -29.730832 33.603435 1.444161 2.656766 0.039142 -0.011693 -224099.000000 0 0 1
-2.778644 -14.281643 -29.393172 32.797023 1.378636 2.681958 0.035144 -0.004512 -5799.630000 0 0 1
-2.793444 -14.027443 -27.977432 31.421476 1.374227 2.669002 0.033936 -0.009123 -186202.000000 0 0 1
-3.767244 -13.092743 -27.623302 30.800306 1.290629 2.683396 0.024012 -0.008919 -233269.000000 0 0 1
-3.969744 -12.629243 -26.132802 29.294709 1.266246 2.672692 0.034114 -0.014987 -240328.000000 0 0 1
-4.321244 -13.847243 -25.388032 29.239895 1.268308 2.622494 0.028011 -0.009749 278960.000000 0 0 1
-4.386244 -13.758843 -23.928012 27.948071 1.262187 2.598587 0.027924 -0.005685 -8065.420000 0 0 1
-5.516944 -12.816843 -23.378512 27.226145 1.164323 2.603482 0.034954 -0.011519 -701471.000000 0 0 1
-6.807344 -13.124843 -23.760012 27.984631 1.092332 2.584958 0.030253 -0.006826 -1381440.000000 0 0 1
-7.607044 -12.093843 -23.254512 27.292865 1.009325 2.590659 0.010448 -0.005841 -806481.000000 0 0 1
-8.999044 -12.206843 -23.858812 28.270704 0.935529 2.575385 0.042494 -0.007086 -416310.000000 0 0 1
-9.840244 -13.218243 -23.305312 28.542773 0.930860 2.526127 0.037852 -0.012705 40917.600000 0 0 1
-10.262644 -14.130943 -24.268612 29.899347 0.942667 2.517814 0.053968 -0.018507 -160222.000000 0 0 1
-11.288744 -15.129443 -23.729212 30.321795 0.929768 2.469595 0.053357 -0.025093 -359868.000000 0 0 1
-10.661244 -16.091243 -22.857112 29.917182 0.985650 2.440306 0.056612 -0.016768 174988.000000 0 0 1
-11.539744 -17.075543 -22.299312 30.364439 0.976494 2.395562 0.058480 -0.017382 620143.000000 0 0 1
-12.286544 -18.093543 -23.307312 31.961950 0.974265 2.387979 0.057074 -0.006318 722614.000000 0 0 1
-13.510944 -17.570643 -23.801312 32.523462 0.915277 2.391785 0.055519 -0.006880 77421.300000 0 0 1
-14.146144 -18.584043 -24.564512 33.895358 0.920167 2.381419 0.037987 -0.014871 -315217.000000 0 0 1
-15.313444 -18.023143 -25.354902 34.672847 0.866503 2.390965 0.056888 -0.019390 -96086.000000 0 0 1
-16.338244 -17.384043 -24.618412 34.281327 0.816400 2.371906 0.050757 -0.010897 485999.000000 0 0 1
-17.477944 -16.996743 -25.380522 35.192878 0.771441 2.376305 0.024130 -0.010592 447856.000000 0 0 1
-18.148144 -15.725543 -24.802712 34.522780 0.714001 2.372360 0.036861 -0.013632 -319213.000000 0 0 1
-18.876844 -15.920743 -23.634212 34.181593 0.700650 2.334264 0.025043 -0.007325 145449.000000 0 0 1
-19.639144 -14.746743 -23.304512 33.856501 0.644067 2.329983 0.034980 -0.012889 488697.000000 0 0 1
-20.394644 -14.788943 -21.944312 33.409687 0.627399 2.287396 0.020018 -0.017430 271672.000000 0 0 1
-19.427444 -14.948043 -20.904512 32.215962 0.655820 2.276917 0.035568 -0.016246 643112.000000 0 0 1
-19.949444 -14.710743 -19.567112 31.579394 0.635389 2.239050 0.022614 -0.016621 78763.800000 0 0 1
-20.468144 -13.269443 -19.204612 31.045775 0.575177 2.237743 0.030281 -0.028210 698369.000000 0 0 1
-21.757344 -12.881343 -19.713912 32.061649 0.534550 2.233024 0.035191 -0.028944 795247.000000 0 0 1
-22.432044 -12.060943 -18.791212 31.650791 0.493324 2.206451 0.037421 -0.029436 729089.000000 0 0 1
-23.896744 -11.571243 -19.045612 32.675424 0.450943 2.193056 0.050589 -0.026082 653350.000000 0 0 1
-24.012144 -10.830243 -20.274112 33.240289 0.423712 2.226763 0.044282 -0.026423 -926528.000000 0 0 1
-25.341664 -10.706443 -20.622212 34.381732 0.399738 2.214049 0.033462 -0.024323 -1003490.000000 0 0 1
-25.606264 -9.680843 -21.731412 34.952163 0.361455 2.241768 0.048936 -0.019895 -167131.000000 0 0 1
-25.354424 -10.060843 -23.030112 35.699488 0.377752 2.271964 0.021607 -0.013496 375356.000000 0 0 1
-26.283214 -9.416743 -23.901712 36.752880 0.344032 2.278823 0.022354 -0.016525 -66663.700000 0 0 1
-26.306874 -10.030443 -25.382402 37.906829 0.364270 2.304466 0.023241 -0.008916 760562.000000 0 0 1
-25.166804 -9.941443 -26.274242 37.716523 0.376208 2.341478 0.002920 -0.014507 676180.000000 0 0 1
-24.281344 -11.044243 -26.319282 37.473505 0.426876 2.349481 0.015395 -0.012461 474927.000000 0 0 1
-23.221844 -10.891743 -27.451742 37.569698 0.438566 2.390126 0.025589 -0.019560 169929.000000 0 0 1
-23.816244 -11.002043 -28.731022 38.906684 0.432751 2.401580 0.030442 -0.008421 994429.000000 0 0 1
-22.785244 -11.124843 -29.762632 39.099152 0.454202 2.435972 0.032759 -0.006155 1026420.000000 0 0 1
-23.391144 -11.440643 -31.120412 40.577259 0.454891 2.444859 0.027132 -0.010016 283494.000000 0 0 1
-24.321144 -10.465343 -31.627772 41.247514 0.406350 2.444606 0.029965 -0.015804 299631.000000 0 0 1
-23.754244 -9.402243 -32.391922 41.254125 0.376892 2.473783 0.035031 -0.021129 -825903.000000 0 0 1
-24.801944 -8.324143 -32.840052 41.986864 0.323811 2.468906 0.031535 -0.016172 -321714.000000 0 0 1
-25.735504 -8.904643 -33.747682 43.364903 0.333112 2.462632 0.053395 -0.020096 729601.000000 0 0 1
-26.847134 -9.622743 -33.220312 43.783043 0.344163 2.432186 0.049611 -0.019232 -421486.000000 0 0 1
-27.925984 -8.725343 -32.605882 43.807941 0.302835 2.410270 0.035155 -0.003465 603762.000000 0 0 1
-29.316144 -9.158543 -32.704032 44.865007 0.302799 2.387573 0.039957 -0.004382 1499130.000000 0 0 1
-30.126694 -8.634943 -31.697452 44.574750 0.279138 2.361869 0.041504 -0.001534 164389.000000 0 0 1
-31.644954 -8.908843 -31.813742 45.748057 0.274422 2.339789 0.042669 -0.001797 201692.000000 0 0 1
-31.880854 -10.278843 -31.761982 46.161314 0.311891 2.329615 0.046782 -0.009271 734073.000000 0 0 1
-33.265094 -10.589743 -31.532612 47.042691 0.308200 2.305406 0.041210 -0.010555 598948.000000 0 0 1
-33.380074 -12.113843 -31.322022 47.350223 0.348126 2.293609 0.039717 -0.013943 -2080570.000000 0 0 1
-34.639401 -12.625943 -31.225042 48.314654 0.349531 2.273502 0.033472 -0.016904 -1432260.000000 0 0 1
-34.660361 -14.043043 -31.361792 48.806861 0.384948 2.268643 0.036972 -0.019872 503061.000000 0 0 1
-36.016596 -14.697743 -30.958452 49.715637 0.387455 2.242998 0.036016 -0.025123 437767.000000 0 0 1
36.106668 -14.585443 -29.634302 48.934839 -0.383911 2.221300 0.036435 -0.024710 -190036.000000 0 0 1
35.750648 -15.797443 -29.048352 48.697791 -0.416080 2.209933 0.043455 -0.017321 12152.800000 0 0 1
35.954258 -15.857443 -27.510192 47.968509 -0.415382 2.181575 0.059096 -0.016889 561832.000000 0 0 1
-35.116285 -15.842243 -27.124482 47.115471 0.423799 2.184259 0.056788 -0.022125 506775.000000 0 0 1
-35.049611 -15.822543 -25.730412 46.269668 0.424045 2.160478 0.068992 -0.024658 626867.000000 0 0 1
-33.615044 -15.470543 -25.221542 44.782084 0.431326 2.169057 0.074833 -0.019752 1232140.000000 0 0 1
-32.559214 -16.413643 -25.486662 44.486852 0.466936 2.180840 0.068629 -0.017451 1301850.000000 0 0 1
-31.349044 -16.141943 -24.746112 43.077778 0.475505 2.182731 0.072654 -0.005563 1381010.000000 0 0 1
-30.146314 -17.071743 -25.131612 42.800030 0.515269 2.198375 0.060992 -0.012889 340885.000000 0 0 1
-30.026774 -18.229643 -24.323112 42.726348 0.545633 2.176422 0.051833 -0.024468 419461.000000 0 0 1
-30.949664 -19.324543 -24.525212 43.963686 0.558158 2.162591 0.043126 -0.024669 185733.000000 0 0 1
-30.604944 -20.569443 -23.665112 43.815546 0.591752 2.141361 0.037321 -0.024222 -555662.000000 0 0 1
-29.338694 -21.096343 -23.896812 43.322884 0.623405 2.155075 0.033227 -0.018700 -597122.000000 0 0 1
-29.183394 -22.288943 -23.208512 43.440793 0.652246 2.134424 0.026668 -0.017863 -578539.000000 0 0 1
-27.808564 -23.006443 -23.303112 42.961002 0.691176 2.144117 0.028635 -0.017476 275283.000000 0 0 1
-26.720784 -22.205143 -22.872212 41.595754 0.693363 2.153004 0.024073 -0.021743 -59579.200000 0 0 1
-26.576004 -22.040443 -21.470112 40.657482 0.692375 2.127126 0.019199 -0.023028 -730971.000000 0 0 1
-26.307254 -23.301643 -20.587912 40.729600 0.724886 2.100732 0.011810 -0.018129 -230775.000000 0 0 1
-26.165484 -22.961643 -19.235712 39.772883 0.720275 2.075604 0.014169 -0.017494 21725.600000 0 0 1
-26.156504 -24.146443 -18.401312 40.072705 0.745460 2.047889 0.009097 0.007045 -321715.000000 0 0 1
-26.233614 -23.747243 -16.924212 39.224521 0.735693 2.016918 0.017542 0.004568 -203424.000000 0 0 1
-27.433534 -23.182143 -16.471512 39.513558 0.701601 2.000781 0.029446 -0.005154 -297883.000000 0 0 1
-27.149424 -21.904743 -15.885712 38.330991 0.678887 1.998118 0.027442 -0.010618 256506.000000 0 0 1
-28.338764 -21.236643 -15.131712 38.510379 0.643107 1.974607 0.036023 -0.005222 428774.000000 0 0 1
-29.340704 -20.773643 -16.012212 39.354950 0.616085 1.989818 0.041600 -0.002241 -701809.000000 0 0 1
-30.478694 -20.390743 -15.336612 39.748520 0.589628 1.966916 0.061512 -0.008233 -523449.000000 0 0 1
-31.547024 -19.594343 -16.125412 40.486812 0.555801 1.980446 0.069582 -0.021766 218563.000000 0 0 1
-32.320774 -20.409843 -16.991512 41.831873 0.563244 1.989072 0.039580 -0.007486 -70906.400000 0 0 1
-33.100194 -19.659543 -17.907312 42.459302 0.535952 2.006173 0.038555 -0.012921 -215822.000000 0 0 1
-33.857954 -20.523143 -18.889512 43.867689 0.544932 2.015956 0.025168 -0.000860 -131613.000000 0 0 1
-34.933786 -21.315643 -18.453212 44.891503 0.547866 1.994416 0.018513 -0.000582 -268166.000000 0 0 1
-34.648929 -22.407043 -17.575412 44.849961 0.574043 1.973461 0.018523 0.003474 -100157.000000 0 0 1
-35.752391 -23.495943 -17.530412 46.234275 0.581410 1.959690 0.007717 0.017164 255210.000000 0 0 1
35.414618 -23.231643 -16.996512 45.637549 -0.580575 1.952416 0.015006 0.009056 -70611.400000 0 0 1
34.857248 -24.382043 -16.490312 45.622825 -0.610379 1.940618 0.023069 0.005232 -142334.000000 0 0 1
33.373458 -24.284243 -16.061412 44.288612 -0.629044 1.941910 0.025540 -0.004428 265930.000000 0 0 1
32.444148 -24.197443 -17.150212 43.957579 -0.640820 1.971595 0.037828 -0.007435 -331639.000000 0 0 1
31.211848 -24.561243 -16.611912 43.051014 -0.666715 1.966942 0.057416 -0.007983 -321635.000000 0 0 1
29.967448 -24.444043 -17.522512 42.457009 -0.684233 1.996226 0.061458 -0.020038 168471.000000 0 0 1
29.680998 -23.125843 -17.888612 41.662558 -0.661895 2.014590 0.048888 -0.019810 -1060850.000000 0 0 1
28.441398 -22.938443 -18.423912 40.920971 -0.678702 2.037821 0.079740 -0.031395 -1381380.000000 0 0 1
34.583678 29.678157 -18.388212 49.142142 0.709209 1.954313 0.049593 -0.012458 140739.000000 0 0 1
33.708978 29.792857 -19.509112 49.035854 0.723807 1.979973 0.051757 -0.020553 47125.400000 0 0 1
33.982648 28.863757 -20.501812 49.074037 0.704127 2.001789 0.051010 -0.023890 -180979.000000 0 0 1
33.132738 28.837357 -21.806512 49.039733 0.716195 2.031602 0.042261 -0.028836 -727576.000000 0 0 1
31.900508 28.182857 -21.586412 47.727235 0.723602 2.040124 0.047583 -0.025525 -6009.510000 0 0 1
31.053908 28.294357 -22.714012 47.758163 0.738934 2.066448 0.059999 -0.015914 -288541.000000 0 0 1
30.135508 29.508357 -22.777912 47.934593 0.774884 2.065973 0.054629 -0.013952 -892216.000000 0 0 1
30.782988 30.791857 -22.678712 49.092309 0.785542 2.051001 0.059896 -0.013631 143392.000000 0 0 1
29.831458 31.856257 -22.783212 49.232222 0.818210 2.051914 0.066065 -0.005020 -93045.000000 0 0 1
30.431538 33.269057 -22.663212 50.463153 0.829913 2.036559 0.062842 -0.008587 121239.000000 0 0 1
30.924878 33.687357 -21.407312 50.492169 0.828127 2.008624 0.064139 -0.012635 469191.000000 0 0 1
32.157038 33.094257 -20.977712 50.688947 0.799760 1.997477 0.063144 -0.014166 37301.700000 0 0 1
32.454168 33.207957 -19.496712 50.360333 0.796877 1.968329 0.051440 -0.012127 -423576.000000 0 0 1
32.584318 -34.105563 -18.929812 50.825830 -0.808205 1.952438 0.051032 -0.011120 292045.000000 0 0 1
32.620728 -34.097263 -17.518912 50.335351 -0.807526 1.926280 0.035914 -0.016951 -282672.000000 0 0 1
32.641328 -32.581763 -17.085212 49.182640 -0.784485 1.925575 0.037166 -0.000261 -176090.000000 0 0 1
33.851158 -31.892363 -17.204512 49.588496 -0.755612 1.925109 0.036413 -0.009920 -628736.000000 0 0 1
34.726648 -31.989263 -16.125912 49.892866 -0.744391 1.899917 0.032837 -0.004945 -298268.000000 0 0 1
36.000768 -31.154263 -16.391512 50.352012 -0.713354 1.902377 0.021919 -0.000683 -95943.300000 0 0 1
-35.568934 -31.760063 -17.322412 50.733782 0.728887 1.919242 0.016068 -0.006884 -1082150.000000 0 0 1
-34.455742 -31.001563 -17.594812 49.576935 0.732677 1.933603 -0.004112 0.004840 -372447.000000 0 0 1
-33.536364 -31.747263 -18.621612 49.792980 0.758000 1.954094 -0.001324 -0.004591 -583832.000000 0 0 1
-33.037434 -32.954263 -18.124912 50.059644 0.784138 1.941280 0.011532 -0.009084 379372.000000 0 0 1
-32.047554 -33.687763 -18.865612 50.177908 0.810345 1.956244 0.019871 -0.006373 1697740.000000 0 0 1
-30.670434 -32.958163 -19.175012 48.934621 0.821337 1.973437 0.005785 -0.004894 -17900.900000 0 0 1
-30.715464 -31.983263 -20.214312 48.733841 0.805616 1.998508 -0.002187 0.004409 1039260.000000 0 0 1
-29.449774 -31.585063 -20.825812 47.943924 0.820369 2.020145 0.003587 0.002448 1048060.000000 0 0 1
-28.624654 -32.544963 -21.658112 48.452237 0.849400 2.034204 -0.002403 0.011559 -442754.000000 0 0 1
-29.401424 -33.038663 -22.684412 49.704925 0.843584 2.044721 -0.003173 0.020117 -329534.000000 0 0 1
-28.717324 -34.091663 -23.301412 50.297932 0.870757 2.052475 -0.010467 0.013164 -281192.000000 0 0 1
-29.510374 33.776957 -24.402112 51.060827 -0.852712 2.069062 -0.013524 0.005853 -558171.000000 0 0 1
-30.525434 32.891857 -23.949512 50.865071 -0.822696 2.061043 -0.014801 -0.004815 409641.000000 0 0 1
-31.177854 32.159457 -25.032112 51.311751 -0.800895 2.080414 -0.015677 -0.001459 387593.000000 0 0 1
-32.062504 32.973157 -25.981302 52.822923 -0.799400 2.085017 -0.009419 -0.009214 -550464.000000 0 0 1
-31.400934 33.601357 -27.084002 53.372399 -0.819237 2.103023 -0.016232 -0.009971 -74765.800000 0 0 1
-32.278984 -33.964563 -27.564722 54.363023 0.810838 2.102554 -0.016816 -0.007913 417176.000000 0 0 1
-31.676054 -33.048663 -28.636332 53.996537 0.806602 2.129794 -0.010050 -0.004129 -233952.000000 0 0 1
-31.363144 -33.612363 -29.923852 54.853210 0.820001 2.147813 -0.006994 -0.001744 -845059.000000 0 0 1
-32.427154 -33.904463 -30.750252 56.094660 0.807666 2.150989 -0.008761 -0.001234 -1110990.000000 0 0 1
-32.125504 33.925857 -32.013142 56.637911 -0.812648 2.171502 0.004890 -0.002797 101403.000000 0 0 1
-31.321114 -34.069663 -33.045902 56.866385 0.827406 2.190894 0.008069 -0.023309 60721.800000 0 0 1
-31.645054 33.847557 34.201546 57.591773 -0.819015 0.934946 0.010915 -0.023649 -48573.500000 0 0 1
-30.765684 34.235057 32.987439 56.628063 -0.838722 0.948961 0.025429 -0.024309 2047020.000000 0 0 1
-29.362494 33.775357 32.995003 55.602167 -0.855177 0.935505 0.020489 -0.021917 1918250.000000 0 0 1
-29.115934 32.431657 32.558478 54.402247 -0.839219 0.929198 0.023370 -0.023815 -215584.000000 0 0 1
-27.674224 31.948857 32.843572 53.528425 -0.856970 0.910219 0.025861 -0.021807 -410290.000000 0 0 1
-27.472584 31.563057 34.209358 54.048585 -0.854576 0.885455 0.030921 -0.025461 720537.000000 0 0 1
-26.104564 31.372457 -33.840122 53.017291 -0.876795 2.263064 0.034629 -0.024866 637835.000000 0 0 1
-25.551334 29.992057 34.020994 52.055952 -0.865179 0.858535 0.039647 -0.020586 -385026.000000 0 0 1
-25.764714 28.941557 -33.481442 51.209775 -0.843404 2.283405 0.040484 -0.020499 96153.000000 0 0 1
-25.138384 27.773057 -33.912822 50.530787 -0.835151 2.306531 0.030542 -0.015297 -483784.000000 0 0 1
-25.180214 26.709457 -32.792572 49.221855 -0.814861 2.299925 0.056077 -0.030194 281571.000000 0 0 1
-24.213644 26.748357 -31.709692 48.034151 -0.835095 2.291813 0.052860 -0.022603 481127.000000 0 0 1
-24.401344 27.838757 -30.846342 48.186292 -0.851104 2.265487 0.046453 -0.022338 558635.000000 0 0 1
-23.173544 28.045157 -29.881342 47.079067 -0.880227 2.258424 0.072789 -0.021787 -13864.400000 0 0 1
-21.967244 28.172357 -30.579032 47.024660 -0.908529 2.278745 0.060718 -0.021946 330637.000000 0 0 1
-20.790844 28.263057 -29.741852 45.996057 -0.936563 2.273938 0.040386 -0.022097 1018050.000000 0 0 1
-20.592644 29.573957 -28.941842 46.220191 -0.962551 2.247432 0.041035 -0.015779 -741943.000000 0 0 1
-20.111544 30.687057 -29.711302 47.211557 -0.990651 2.251478 0.037617 -0.006008 110015.000000 0 0 1
-19.854744 31.819457 -28.871722 47.331437 -1.012930 2.226845 0.052062 -0.010650 31152.700000 0 0 1
-19.257244 32.993757 -29.680272 48.377143 -1.042476 2.231305 0.053622 -0.001548 755338.000000 0 0 1
-17.975044 32.862357 -30.317672 48.189189 -1.070275 2.251241 0.058481 -0.003711 516241.000000 0 0 1
-17.733444 33.923757 -31.217342 49.394521 -1.089119 2.254928 0.056734 0.001508 -614468.000000 0 0 1
-16.271244 34.124857 -31.589922 49.266442 -1.125868 2.266865 0.050803 0.006241 -1052880.000000 0 0 1
-15.466744 -34.069463 -30.490552 48.266160 1.144640 2.254562 0.063384 -0.002787 88400.200000 0 0 1
-14.079844 -33.998163 -30.773632 47.970131 1.178164 2.267270 0.069546 0.001798 348814.000000 0 0 1
-13.372244 33.236957 -30.806412 47.249838 -1.188282 2.281002 0.076717 -0.010185 -947120.000000 0 0 1
-13.238344 32.670857 -29.546222 45.995846 -1.185812 2.268379 0.088516 -0.021195 -238567.000000 0 0 1
-12.560644 31.470957 -29.605962 44.996709 -1.191050 2.288901 0.078395 -0.020852 -327019.000000 0 0 1
-12.542344 30.734957 -28.228452 43.575147 -1.183343 2.275504 0.064501 -0.027432 -534237.000000 0 0 1
-11.448544 31.050457 -27.424562 42.980305 -1.217554 2.262789 0.068317 -0.021472 -400042.000000 0 0 1
-11.647244 30.579657 -26.134972 41.878520 -1.206879 2.244732 0.055649 -0.022802 -756447.000000 0 0 1
-10.424244 30.875457 -25.327062 41.272494 -1.245191 2.231477 0.059308 -0.025335 395054.000000 0 0 1
-9.197844 30.234357 -25.768142 40.776387 -1.275474 2.254847 0.061822 -0.018344 817222.000000 0 0 1
-8.062144 30.801457 -25.137232 40.566098 -1.314794 2.239107 0.060153 -0.024130 41271.400000 0 0 1
-6.745044 30.277757 -25.725802 40.299566 -1.351603 2.263168 0.055426 -0.032083 -378295.000000 0 0 1
-6.412244 28.959857 -25.279332 38.972231 -1.352894 2.276605 0.051897 -0.041400 726960.000000 0 0 1
-5.383844 28.278457 -26.068492 38.835849 -1.382661 2.306688 0.053805 -0.052878 756637.000000 0 0 1
-4.885344 26.937857 -25.450952 37.380017 -1.391390 2.319747 0.059531 -0.036231 66485.700000 0 0 1
-5.803344 25.861057 -25.357212 36.680529 -1.350049 2.334082 0.068137 -0.028654 -124080.000000 0 0 1
-5.186744 24.807657 -24.669212 35.367953 -1.364687 2.342702 0.069904 -0.036392 -310799.000000 0 0 1
-5.906544 23.470057 -24.659412 34.551663 -1.324253 2.365558 0.075531 -0.031367 -167432.000000 0 0 1
-6.219944 22.871057 -25.908012 35.114071 -1.305261 2.400638 0.071086 -0.025526 -171183.000000 0 0 1
-7.073344 21.781757 -25.807852 34.503946 -1.256802 2.415792 0.057528 -0.027234 -580688.000000 0 0 1
-7.068344 20.997957 -27.125372 35.023727 -1.246090 2.456698 0.031546 -0.026764 842247.000000 0 0 1
-5.935844 20.104657 -27.304652 34.423472 -1.283706 2.486840 0.054014 -0.039768 550850.000000 0 0 1
-5.916344 19.018357 -26.298242 32.989370 -1.269200 2.493395 0.051912 -0.032379 -77801.700000 0 0 1
-4.726144 18.058957 -26.602432 32.498488 -1.314831 2.529721 0.058890 -0.041903 322684.000000 0 0 1
-4.800744 17.294857 -27.765862 33.062097 -1.300031 2.567728 0.045658 -0.038615 -366899.000000 0 0 1
-3.651444 16.525057 -28.006932 32.723061 -1.353327 2.598041 0.055200 -0.044405 -236113.000000 0 0 1
-3.244644 16.467957 -29.526562 33.963792 -1.376260 2.624690 0.046280 -0.041225 -408437.000000 0 0 1
-2.643244 17.621657 -30.004652 34.896828 -1.421907 2.605694 0.055229 -0.044458 60554.300000 0 0 1
-2.234344 17.397157 -31.395942 35.963294 -1.443064 2.632115 0.045802 -0.044713 19723.900000 0 0 1
-1.420044 18.549457 -31.980982 36.998406 -1.494391 2.614728 0.049747 -0.027452 -596938.000000 0 0 1
-0.059044 18.598257 -31.676822 36.733087 -1.567622 2.610692 0.077439 -0.037494 -520259.000000 0 0 1
0.601056 19.839857 -31.899502 37.570725 1.540510 2.584985 0.084506 -0.018354 223560.000000 0 0 1
0.335756 21.090657 -31.046972 37.534557 1.554878 2.544826 0.084632 -0.021022 -323876.000000 0 0 1
0.950856 21.015357 -29.771282 36.453786 1.525581 2.526440 0.099931 -0.047573 -319436.000000 0 0 1
0.989856 22.283657 -29.131412 36.690330 1.526405 2.488125 0.096435 -0.046423 190533.000000 0 0 1
2.125056 22.410057 -28.082422 35.990956 1.476253 2.465883 0.107204 -0.045936 157430.000000 0 0 1
3.412256 22.469357 -28.655272 36.573762 1.420085 2.471063 0.089876 -0.045818 172795.000000 0 0 1
4.463456 22.687057 -27.706162 36.086789 1.376537 2.446141 0.084595 -0.046454 437388.000000 0 0 1
4.973156 24.108957 -27.519782 36.923061 1.367371 2.411823 0.090569 -0.049458 -577164.000000 0 0 1
5.722056 24.699757 -28.534782 38.171372 1.343148 2.415153 0.081578 -0.050478 54923.600000 0 0 1
6.114356 26.041857 -28.239702 38.897871 1.340184 2.383278 0.070880 -0.047226 -114603.000000 0 0 1
6.987656 26.701157 -29.343062 40.283922 1.314838 2.386789 0.066160 -0.035285 303466.000000 0 0 1
8.356856 26.337057 -29.235812 40.226984 1.263541 2.384406 0.056150 -0.032909 319930.000000 0 0 1
9.145756 27.119157 -30.117412 41.546985 1.245531 2.381686 0.060043 -0.029175 318857.000000 0 0 1
10.673656 27.151457 -29.881642 41.761717 1.196239 2.368175 0.053792 -0.029002 530014.000000 0 0 1
11.396556 28.045657 -30.726662 43.134303 1.184822 2.363635 0.054483 -0.021133 766279.000000 0 0 1
12.709856 28.429757 -30.302272 43.451342 1.150389 2.342537 0.046744 -0.025413 1022470.000000 0 0 1
13.477256 29.577557 -31.073312 44.966865 1.143247 2.333705 0.055180 -0.017751 183919.000000 0 0 1
12.863756 30.843257 -31.051412 45.617681 1.175663 2.319498 0.057400 -0.018138 184176.000000 0 0 1
13.776356 31.855957 -31.398312 46.802179 1.162626 2.306182 0.079733 -0.020871 205155.000000 0 0 1
13.007956 33.189257 -31.583862 47.626400 1.197264 2.295827 0.078456 -0.027430 371114.000000 0 0 1
12.144556 33.156357 -32.725862 48.143704 1.219691 2.318223 0.066857 -0.024008 618957.000000 0 0 1
11.264256 -34.285363 -32.711582 48.707465 -1.253362 2.307153 0.062739 -0.019927 -18361.200000 0 0 1
10.109156 34.188857 -33.712002 49.067015 1.283302 2.328232 0.047853 -0.015432 -85329.800000 0 0 1
10.375356 -33.735363 33.542053 48.690780 -1.272426 0.810855 0.044405 -0.007017 759458.000000 0 0 1
9.180056 -33.716563 32.753299 47.894245 -1.304969 0.817746 0.055444 -0.018423 538737.000000 0 0 1
9.409256 -32.796163 31.517670 46.448746 -1.291400 0.825013 0.053003 -0.011158 -23098.800000 0 0 1
9.480356 -31.447063 31.863650 45.761197 -1.277991 0.800563 0.038115 -0.009143 74291.800000 0 0 1
9.637456 -30.630563 30.680050 44.411456 -1.265967 0.808182 0.053326 -0.011084 -609330.000000 0 0 1
9.074756 -29.182163 30.825670 43.407048 -1.269307 0.781080 0.040648 -0.019878 -53074.100000 0 0 1
7.679756 -29.046563 30.707370 42.960727 -1.312316 0.774490 0.036886 -0.010668 -337086.000000 0 0 1
7.031056 -29.247663 31.957740 43.888025 -1.334876 0.755155 0.038426 0.000512 -247462.000000 0 0 1
5.476856 -29.071163 31.944540 43.538284 -1.384584 0.747028 0.046362 -0.001203 703463.000000 0 0 1
4.691856 -30.090063 31.365510 43.717510 -1.416115 0.770649 0.054899 -0.005499 -74306.000000 0 0 1
4.905456 -30.256763 30.019060 42.903137 -1.410067 0.795827 0.062243 -0.012563 -875767.000000 0 0 1
4.334656 -29.261963 28.947030 41.388190 -1.423733 0.796234 0.043204 -0.024649 608108.000000 0 0 1
2.901756 -29.139963 28.879550 41.128896 -1.471544 0.792353 0.053854 -0.024330 901174.000000 0 0 1
2.582556 -28.357463 27.753000 39.762348 -1.479975 0.798235 0.055211 -0.027090 491798.000000 0 0 1
1.195856 -28.785663 27.134060 39.576530 -1.529277 0.815355 0.048233 -0.027132 604537.000000 0 0 1
1.159056 -30.120763 26.651780 40.235820 -1.532335 0.846793 0.054715 -0.026436 179870.000000 0 0 1
0.944256 -31.084263 27.653840 41.615597 -1.540428 0.843963 0.075903 -0.031079 -1049640.000000 0 0 1
1.084256 -32.487863 27.090460 42.314654 -1.537435 0.876019 0.074799 -0.032272 1102930.000000 0 0 1
2.405756 -33.080563 26.905470 42.708496 -1.498200 0.889270 0.062512 -0.028167 1531700.000000 0 0 1
3.163956 -32.400263 25.891470 41.595143 -1.473453 0.898910 0.054113 -0.031226 584935.000000 0 0 1
4.726856 -32.570563 25.974460 41.926809 -1.426676 0.902666 0.063858 -0.020782 1018720.000000 0 0 1
5.358756 -32.213963 24.743280 40.971766 -1.405957 0.922398 0.056603 -0.040999 129139.000000 0 0 1
6.704856 -31.829163 24.945410 40.991758 -1.363180 0.916568 0.061008 -0.040605 -144680.000000 0 0 1
7.524856 -31.623663 23.658020 40.204247 -1.337190 0.941661 0.051475 -0.030606 391233.000000 0 0 1
8.778956 -30.977363 23.866800 40.078564 -1.294638 0.932908 0.047674 -0.019755 217594.000000 0 0 1
9.549456 -30.889563 22.727880 39.521055 -1.270968 0.958091 0.041179 -0.012939 417225.000000 0 0 1
10.836156 -29.996063 22.864680 39.242575 -1.224132 0.948811 0.033506 -0.012457 557933.000000 0 0 1
11.915056 -30.609263 23.518560 40.398245 -1.199580 0.949404 0.042383 -0.015500 -513326.000000 0 0 1
13.082156 -29.826163 23.421600 40.116258 -1.157452 0.947342 0.064728 -0.016493 128312.000000 0 0 1
14.204856 -30.398363 24.326500 41.444144 -1.133657 0.943484 0.062311 -0.019014 -250924.000000 0 0 1
13.985956 -30.252563 25.731730 42.106371 -1.137756 0.913331 0.053683 -0.021841 107076.000000 0 0 1
14.433756 -29.028763 26.336630 41.768655 -1.109373 0.888553 0.055208 -0.022522 -421688.000000 0 0 1
-11.017944 -13.733143 25.495960 30.984485 0.894661 0.604367 0.054761 -0.013051 -191289.000000 0 0 1
-9.625044 -13.866943 25.399440 30.496970 0.964041 0.586557 0.050210 -0.021262 -500766.000000 0 0 1
-9.002544 -14.373143 26.543300 31.498886 1.011231 0.568565 0.047022 -0.017859 244981.000000 0 0 1
-7.452544 -14.458443 26.471470 31.069692 1.094869 0.550997 0.059922 -0.020884 435315.000000 0 0 1
-6.992144 -15.486643 25.572120 30.702761 1.146700 0.586481 0.055945 -0.017697 29791.900000 0 0 1
-6.952344 -15.118543 24.203480 29.371992 1.139777 0.602304 0.056427 -0.026234 -9153.350000 0 0 1
-6.110544 -16.187543 23.363410 29.072741 1.209849 0.637445 0.049900 -0.027293 321054.000000 0 0 1
-6.733144 -17.434743 23.103080 29.716289 1.202251 0.680187 0.057367 -0.023913 -514976.000000 0 0 1
-6.847844 -18.251643 24.276970 31.134976 1.211859 0.676557 0.054986 -0.019177 -410580.000000 0 0 1
-7.471244 -19.649343 24.047510 31.940553 1.207450 0.718364 0.055583 -0.017495 1149420.000000 0 0 1
-8.911244 -19.779943 23.945630 32.311757 1.147511 0.736117 0.040844 -0.015138 873739.000000 0 0 1
-9.243044 -21.036343 23.486130 32.856657 1.156805 0.774450 0.031865 -0.018577 -1031900.000000 0 0 1
-10.728644 -21.249643 23.550930 33.485780 1.103248 0.790751 0.014784 -0.010094 -1055800.000000 0 0 1
-11.281644 -21.227243 24.865450 34.585575 1.082291 0.768500 0.020344 -0.011209 -580662.000000 0 0 1
-12.673844 -21.184843 24.788810 34.984411 1.031664 0.783331 0.029657 -0.004251 -626774.000000 0 0 1
-13.268044 -21.030043 26.196560 36.118741 1.007959 0.759341 0.032136 -0.011976 -709737.000000 0 0 1
-13.165544 -22.100943 27.064730 37.340097 1.033544 0.760028 0.034519 -0.006424 567308.000000 0 0 1
-12.037144 -22.004243 27.946690 37.551259 1.070231 0.731418 0.043162 -0.004601 214394.000000 0 0 1
-11.723644 -23.259843 28.689750 38.750044 1.103930 0.737161 0.036668 -0.006642 -662042.000000 0 0 1
-12.772344 -23.698843 29.479380 39.922447 1.076481 0.740078 0.041182 -0.008535 -455544.000000 0 0 1
-12.277444 -24.736543 30.272460 40.976262 1.110090 0.739537 0.027933 -0.003135 550491.000000 0 0 1
-13.323144 -25.443733 31.251430 42.444571 1.088423 0.743228 0.033691 -0.012984 803812.000000 0 0 1
-13.420044 -24.828543 32.525117 43.063179 1.075269 0.714702 0.036465 -0.013631 -89322.000000 0 0 1
-14.583744 -25.212293 33.237815 44.193865 1.046382 0.719567 0.047184 -0.014586 188795.000000 0 0 1
-14.660144 -24.513143 -33.834192 44.278285 1.031810 2.440482 0.043980 -0.020947 -53222.900000 0 0 1
-14.755644 -23.120743 -33.708052 43.457227 1.002762 2.458557 0.051874 -0.019275 259655.000000 0 0 1
-15.982644 -22.499543 -34.084271 43.856720 0.953155 2.460958 0.054969 -0.021897 95393.500000 0 0 1
-16.016244 -20.997243 -33.659852 42.783056 0.919167 2.476333 0.046047 -0.024931 -13109.100000 0 0 1
-16.288044 -20.895243 -32.255642 41.741322 0.908675 2.453960 0.048472 -0.025130 143228.000000 0 0 1
-16.499744 -19.532643 -31.977722 40.943136 0.869372 2.467106 0.037149 -0.021868 -39157.800000 0 0 1
-16.379344 -19.195643 -30.453842 39.549869 0.864399 2.449655 0.038647 -0.020179 -265559.000000 0 0 1
-17.532644 -19.600943 -29.766212 39.719239 0.841040 2.417975 0.030635 -0.017381 -160146.000000 0 0 1
-17.415644 -19.485243 -28.374262 38.575615 0.841425 2.397273 0.026610 -0.015863 -274143.000000 0 0 1
-16.620544 -20.633643 -27.779352 38.388567 0.892706 2.379852 0.023385 -0.014569 -244682.000000 0 0 1
-15.245244 -20.562543 -28.062282 37.983250 0.932817 2.402094 0.030185 -0.014807 -541982.000000 0 0 1
-14.499944 -21.656343 -27.601982 37.962020 0.980802 2.384877 0.041438 -0.020532 -297022.000000 0 0 1
-13.003344 -21.387643 -27.746642 37.368360 1.024527 2.407617 0.083521 -0.020892 -1070320.000000 0 0 1
-12.515444 -20.421443 -26.877692 36.001139 1.020976 2.413701 0.083121 -0.027161 905302.000000 0 0 1
-11.075444 -20.376943 -26.841862 35.473523 1.072935 2.429006 0.060982 -0.030120 1084900.000000 0 0 1
-10.335344 -21.458043 -26.038142 35.288125 1.121933 2.400709 0.076118 -0.027710 -696478.000000 0 0 1
-10.334144 -22.754743 -26.590782 36.491678 1.144494 2.387190 0.081518 -0.027899 137521.000000 0 0 1
-9.719444 -23.520243 -25.564482 36.072319 1.178931 2.358451 0.095490 -0.024137 24305.600000 0 0 1
-9.786844 -24.993443 -25.873172 37.281035 1.197573 2.337831 0.091482 -0.030160 -687041.000000 0 0 1
-8.887444 -25.380183 -26.864732 38.011237 1.233968 2.355701 0.083313 -0.029399 -319693.000000 0 0 1
-9.045644 -26.581283 -27.577682 39.356281 1.242788 2.347201 0.072158 -0.021790 -318731.000000 0 0 1
-8.924944 -27.872593 -26.784512 39.672990 1.260907 2.311940 0.083207 -0.018281 -695395.000000 0 0 1
-9.998944 -28.161923 -25.970792 39.592358 1.229628 2.286243 0.079114 -0.021318 -561630.000000 0 0 1
-9.734444 -29.363573 -25.276002 39.948155 1.250684 2.255857 0.093263 -0.018630 -36645.000000 0 0 1
-10.604244 -29.579343 -23.988012 39.532420 1.226568 2.222817 0.100407 -0.024162 -76580.600000 0 0 1
-10.452044 -28.589603 -23.022312 38.165920 1.220302 2.218324 0.091495 -0.026506 -30921.300000 0 0 1
-11.252244 -27.443713 -23.274212 37.702246 1.181689 2.236123 0.095412 -0.028906 -279941.000000 0 0 1
-11.187744 -26.290783 -22.282312 36.233580 1.168470 2.233135 0.099105 -0.023847 -33216.700000 0 0 1
-11.759944 -26.532183 -21.005712 35.825870 1.153584 2.197315 0.077104 -0.023340 221014.000000 0 0 1
-11.815844 -25.377513 -20.197512 34.519152 1.135043 2.195812 0.065954 -0.015726 -76385.600000 0 0 1
-12.442944 -25.603913 -18.782212 34.105113 1.118429 2.154017 0.075565 -0.016804 -237993.000000 0 0 1
-13.828944 -25.812803 -18.858512 34.830791 1.078967 2.142936 0.093937 -0.022101 -390699.000000 0 0 1
-14.223844 -26.431253 -17.642212 34.816326 1.077100 2.102175 0.089301 -0.023052 -1099540.000000 0 0 1
-15.713444 -26.592983 -17.505312 35.504014 1.037105 2.086390 0.093919 -0.028759 -2631050.000000 0 0 1
-16.389944 -25.386183 -17.384412 34.861244 0.997503 2.092865 0.083616 -0.020976 559372.000000 0 0 1
-17.705544 -25.645613 -16.848912 35.426961 0.966547 2.066437 0.085262 -0.018812 740477.000000 0 0 1
-18.767444 -26.241063 -17.813212 36.852691 0.949946 2.075288 0.076500 -0.017269 -1311400.000000 0 0 1
-18.621144 -27.616183 -18.028612 37.873888 0.977539 2.066916 0.097170 -0.023041 116508.000000 0 0 1
-19.035444 -28.492143 -16.942412 38.225589 0.981806 2.029986 0.094291 -0.027534 -414417.000000 0 0 1
-20.507944 -28.903873 -16.807612 39.223787 0.953708 2.013634 0.075884 -0.017273 -205830.000000 0 0 1
-20.990544 -29.759223 -17.827212 40.546563 0.956492 2.026030 0.067683 -0.012708 -447709.000000 0 0 1
-22.264144 -30.191563 -17.433712 41.366132 0.935389 2.005839 0.062324 -0.010856 -374032.000000 0 0 1
-22.813744 -31.148333 -18.486912 42.807143 0.938640 2.017356 0.037927 -0.010927 -145083.000000 0 0 1
-22.282744 -32.483763 -18.428012 43.489162 0.969552 2.008365 0.044535 -0.011107 243757.000000 0 0 1
-22.601844 -33.126753 -19.657412 44.661381 0.972060 2.026555 0.029598 0.009564 139334.000000 0 0 1
-22.018744 34.014632 -19.680712 45.046095 -0.996299 2.022948 0.029711 0.003077 243172.000000 0 0 1
-22.736744 33.089931 -18.846012 44.351722 -0.968767 2.009672 0.020810 0.003952 313114.000000 0 0 1
-21.974144 31.918406 -18.627312 42.995632 -0.967866 2.018878 0.020463 -0.006667 -393052.000000 0 0 1
-22.843544 30.753556 -18.238112 42.429205 -0.931923 2.015121 0.024032 -0.013627 -259046.000000 0 0 1
-23.427044 30.691336 -16.967512 42.174411 -0.918830 1.984843 0.014556 -0.021553 176655.000000 0 0 1
-24.199944 29.523426 -16.620412 41.635418 -0.884166 1.981429 0.022213 -0.013478 89375.200000 0 0 1
-23.409044 28.221556 -16.307112 40.129309 -0.878340 1.989268 0.025246 -0.014941 -568770.000000 0 0 1
-22.622144 27.819916 -17.351212 39.834328 -0.888080 2.021484 0.015441 -0.016108 -500518.000000 0 0 1
-22.083944 26.551166 -17.056712 38.517482 -0.876993 2.029549 0.016883 -0.018279 -140292.000000 0 0 1
-21.204544 26.061386 -18.225612 38.223049 -0.887794 2.067833 0.038561 -0.010803 -657692.000000 0 0 1
-20.966244 24.694686 -18.205112 37.159615 -0.866872 2.082790 0.042036 -0.018114 197840.000000 0 0 1
-20.283944 24.140706 -19.321412 36.980117 -0.871997 2.120555 0.038956 -0.011334 476272.000000 0 0 1
-18.800044 24.504256 -19.642312 36.602194 -0.916368 2.137250 0.033497 -0.015770 -403955.000000 0 0 1
-17.917944 23.857506 -18.750612 35.239449 -0.926630 2.131865 0.048953 -0.016195 -117770.000000 0 0 1
-16.724844 24.575926 -18.528312 35.028487 -0.973252 2.128159 0.070365 -0.029926 -268680.000000 0 0 1
-16.659744 25.793086 -17.655812 35.419741 -0.997309 2.092634 0.076794 -0.025873 -651840.000000 0 0 1
-17.414544 26.879026 -18.141012 36.808215 -0.995909 2.086161 0.061641 -0.023661 -131145.000000 0 0 1
-17.274544 28.096756 -17.334412 37.260158 -1.019548 2.054687 0.079114 -0.035007 -597827.000000 0 0 1
-18.222544 29.245896 -17.665912 38.722965 -1.013579 2.044531 0.075816 -0.027922 -204006.000000 0 0 1
-18.294044 29.654546 -19.011512 39.692590 -1.018039 2.070276 0.062645 -0.028753 -258002.000000 0 0 1
-19.117144 28.853666 -19.780012 39.865375 -0.985646 2.089978 0.059171 -0.021907 -807160.000000 0 0 1
-19.206944 29.220506 -21.282412 40.935140 -0.989299 2.117537 0.067143 -0.027055 25906.900000 0 0 1
-19.951944 30.408866 -21.477712 42.238268 -0.990129 2.104226 0.066095 -0.026621 91397.700000 0 0 1
-20.331344 30.681486 -22.763712 43.277058 -0.985574 2.124686 0.070135 -0.028124 62635.000000 0 0 1
-20.983244 32.072366 -22.858412 44.625555 -0.991441 2.108572 0.067526 -0.022699 287522.000000 0 0 1
-19.982344 33.081376 -22.896312 44.921182 -1.027414 2.105632 0.058791 -0.011214 212539.000000 0 0 1
-20.509744 34.263199 -23.482412 46.325372 -1.031411 2.102383 0.055653 0.000158 -621619.000000 0 0 1
-19.683044 -33.055003 -23.547212 45.105727 1.033719 2.120043 0.067283 0.002601 -491819.000000 0 0 1
-19.582444 -32.292143 -22.318312 43.867547 1.025673 2.104547 0.075577 0.003057 242492.000000 0 0 1
-18.653544 -32.839323 -21.405112 43.411458 1.054220 2.086417 0.089400 -0.008905 -599268.000000 0 0 1
-18.243744 -31.868963 -20.269112 41.944033 1.050872 2.075150 0.094708 -0.020316 -21233.900000 0 0 1
-17.320744 -30.922533 -20.804512 41.097919 1.060206 2.101590 0.099319 -0.019698 166779.000000 0 0 1
-17.044144 -30.007773 -19.803512 39.788797 1.054245 2.091759 0.098298 -0.023756 87368.600000 0 0 1
-15.782944 -29.178823 -20.204212 38.842184 1.074963 2.117836 0.112959 -0.031699 -445685.000000 0 0 1
-14.642544 -29.923833 -20.068712 38.892070 1.115723 2.112983 0.118584 -0.029176 -1784050.000000 0 0 1
-13.497144 -29.216943 -20.351012 38.078424 1.138039 2.134653 0.099492 -0.029175 -1138540.000000 0 0 1
-12.223044 -30.059903 -20.383212 38.320698 1.184594 2.131652 0.099494 -0.030196 -57481.600000 0 0 1
-11.609944 -30.542353 -19.172312 37.884082 1.207539 2.101428 0.088452 -0.028778 470053.000000 0 0 1
-10.809044 -29.601023 -18.469312 36.526312 1.220682 2.100925 0.071472 -0.025299 -180314.000000 0 0 1
-9.991844 -30.198953 -17.292612 36.205637 1.251267 2.068742 0.060149 -0.013982 -177542.000000 0 0 1
-10.732344 -30.791453 -16.245812 36.431075 1.235414 2.033012 0.077379 -0.026088 83684.400000 0 0 1
-11.307644 -32.101173 -16.457412 37.804689 1.232118 2.021198 0.084825 -0.028793 -94021.900000 0 0 1
-12.424644 -32.479623 -15.505112 38.075008 1.205435 1.990210 0.088838 -0.037301 -709828.000000 0 0 1
-11.935244 -32.819793 -14.233212 37.711712 1.222005 1.957807 0.079379 -0.030769 362737.000000 0 0 1
-12.966144 -33.269663 -13.328812 38.113628 1.199176 1.928061 0.078957 -0.023683 521580.000000 0 0 1
-12.407144 -33.812713 -11.932012 37.942189 1.219113 1.890704 0.064634 -0.022482 -5155.400000 0 0 1
-11.914244 -32.827733 -11.091912 36.642050 1.222647 1.878331 0.048454 -0.018682 -128530.000000 0 0 1
-11.667544 -33.423733 -9.831412 36.741451 1.234942 1.841681 0.051872 -0.022093 -784989.000000 0 0 1
-10.460944 -32.756923 -9.172912 35.589179 1.261683 1.831483 0.042031 -0.023198 -72543.400000 0 0 1
-9.322744 -33.104753 -9.975812 35.809986 1.296292 1.853108 0.036092 -0.020198 299365.000000 0 0 1
-8.133044 -32.653733 -9.310512 34.915589 1.326694 1.840720 0.022434 -0.021214 1050080.000000 0 0 1
-6.818344 -33.140283 -10.021512 35.287376 1.367886 1.858757 0.034116 -0.020594 530397.000000 0 0 1
-6.510044 34.117298 -9.586512 36.031541 -1.382249 1.840099 0.022225 -0.013255 -243745.000000 0 0 1
-5.424544 33.610632 -10.337812 35.580480 -1.410782 1.865595 0.032434 -0.011523 -86762.400000 0 0 1
-4.781244 32.554831 -9.462212 34.237564 -1.424971 1.850811 0.041422 -0.019145 -132618.000000 0 0 1
-3.994944 33.028457 -8.379312 34.308183 -1.450426 1.817529 0.048805 -0.023552 58869.800000 0 0 1
-3.155144 32.070346 -7.798612 33.155398 -1.472730 1.808235 0.044738 -0.024467 47923.700000 0 0 1
-2.768744 32.470176 -6.331512 33.197384 -1.485732 1.762695 0.045052 -0.024668 -214956.000000 0 0 1
-1.854644 33.532786 -6.245012 34.159737 -1.515544 1.754648 0.031378 -0.022501 -194495.000000 0 0 1
-1.681244 34.109627 -4.933312 34.505519 -1.521547 1.714260 0.031098 -0.019975 -163424.000000 0 0 1
-0.598644 33.413465 -4.100412 33.669443 -1.552882 1.692884 0.042835 -0.022936 -46444.500000 0 0 1
0.681056 33.509129 -4.736312 33.849050 1.550475 1.711181 0.037671 -0.026200 -73597.600000 0 0 1
1.611456 32.666004 -4.150012 32.967973 1.521505 1.697011 0.029341 -0.028153 -66321.900000 0 0 1
3.071956 32.876540 -4.601912 33.338887 1.477628 1.709273 0.030542 -0.018781 315661.000000 0 0 1
3.711156 34.084726 -4.209412 34.543601 1.462343 1.692958 0.031957 -0.015352 -694507.000000 0 0 1
5.077656 34.043566 -4.456312 34.707430 1.422736 1.699548 0.049063 -0.015742 -386404.000000 0 0 1
5.890056 -33.310123 -3.991712 34.061574 -1.395781 1.688257 0.043898 -0.010481 150553.000000 0 0 1
5.571456 -32.114233 -4.722512 32.934287 -1.399017 1.714684 0.042935 -0.011454 155574.000000 0 0 1
6.237256 -31.040053 -4.071912 31.921290 -1.372495 1.698706 0.039045 -0.013613 31439.000000 0 0 1
6.047256 -29.774693 -4.975612 30.787309 -1.370421 1.733121 0.042794 -0.013569 300805.000000 0 0 1
7.070556 -29.519243 -5.946612 30.931225 -1.335702 1.764253 0.066490 -0.013511 332225.000000 0 0 1
6.851456 -28.277533 -6.603512 29.835679 -1.333084 1.793974 0.069461 -0.015670 80100.400000 0 0 1
7.212456 -26.975373 -5.826212 28.524289 -1.309536 1.776498 0.064955 -0.016272 -395178.000000 0 0 1
6.307856 -26.666533 -4.837712 27.826184 -1.338520 1.745539 0.044904 -0.016737 -692934.000000 0 0 1
6.623456 -25.441483 -4.222212 26.626422 -1.316109 1.730041 0.044431 -0.021201 203409.000000 0 0 1
5.563556 -24.996243 -3.174112 25.803882 -1.351791 1.694118 0.043088 -0.021232 720521.000000 0 0 1
4.396556 -24.365643 -3.719212 25.036909 -1.392276 1.719897 0.039358 -0.019821 160304.000000 0 0 1
3.570156 -23.827243 -2.715712 24.245796 -1.422068 1.683039 0.031850 -0.016056 -175042.000000 0 1 0
2.345656 -23.131243 -3.334412 23.487759 -1.469735 1.713241 0.034960 -0.016784 -21134.300000 0 1 0
1.509256 -24.059143 -4.007412 24.437258 -1.508147 1.735528 0.034039 -0.012456 -697203.000000 0 1 0
0.470656 -23.366443 -4.616812 23.822828 -1.550657 1.765828 0.016003 -0.008082 -540781.000000 0 1 0
-15.171744 23.742957 17.885280 33.373538 -1.002193 1.005209 0.006324 -0.010232 -102630.000000 0 0 1
-15.267644 23.062757 19.159180 33.646187 -0.986028 0.964983 0.011342 0.002561 308206.000000 0 0 1
-14.923944 23.923957 20.254180 34.717598 -1.013055 0.947890 0.013272 -0.001337 -828071.000000 0 0 1
-14.971944 23.257657 21.644980 35.122398 -0.998833 0.906795 0.043562 -0.011832 -280578.000000 0 0 1
-13.940244 22.292957 21.855780 34.190371 -1.011967 0.877290 0.029621 -0.009472 2230840.000000 0 0 1
-12.540544 22.751657 21.912680 33.986301 -1.067038 0.870100 0.013472 -0.015476 1509510.000000 0 0 1
-12.242944 23.730557 23.093580 35.303575 -1.094498 0.857748 0.030671 -0.002509 -892763.000000 0 0 1
-12.133944 23.128957 24.365760 35.719343 -1.087646 0.820105 0.010431 0.007504 110663.000000 0 0 1
-12.004844 24.121257 25.328080 36.979223 -1.109001 0.816292 0.030925 -0.000873 -193788.000000 0 0 1
-11.537844 23.546457 26.670070 37.401205 -1.115178 0.776914 0.019173 -0.000247 680377.000000 0 0 1
-10.139644 23.251457 26.703490 36.830952 -1.159573 0.759721 -0.016296 0.008077 371672.000000 0 0 1
-9.685844 22.528757 27.834170 37.095842 -1.164755 0.722233 -0.031066 0.009728 56766.400000 0 0 1
-8.144044 22.272357 27.817420 36.553963 -1.220242 0.705949 -0.022829 0.002788 465973.000000 0 0 1
-7.312244 23.349957 28.103950 37.262869 -1.267311 0.716349 -0.023113 0.006061 -197558.000000 0 0 1
-7.190444 24.338757 27.094280 37.123814 -1.283536 0.752715 -0.018313 0.006852 -912154.000000 0 0 1
-6.169644 25.426557 27.471280 37.937389 -1.332751 0.761037 -0.020432 -0.002584 1116530.000000 0 0 1
-4.806344 24.909057 27.458230 37.383371 -1.380183 0.745861 -0.012475 0.001580 725750.000000 0 0 1
-3.954744 25.941457 27.900760 38.302109 -1.419512 0.754755 -0.002036 0.004827 -756276.000000 0 0 1
-2.533744 25.419957 28.011870 37.911198 -1.471449 0.739388 0.002419 0.006135 -520940.000000 0 0 1
-1.791844 25.452057 26.783070 36.991225 -1.500512 0.761157 0.004042 -0.000434 1289800.000000 0 0 1
-0.451344 24.896957 26.875260 36.637983 -1.552670 0.747287 0.021982 0.009167 1456920.000000 0 0 1
0.140356 24.610157 25.464000 35.413201 1.565093 0.768356 0.019514 -0.002321 -82881.300000 0 0 1
-0.524144 23.614757 24.723790 34.193526 -1.548604 0.762582 0.016457 0.005245 -189094.000000 0 0 1
0.024956 23.453957 23.437130 33.157017 1.569732 0.785757 0.015600 0.007171 146554.000000 0 0 1
-0.515244 22.200657 22.662080 31.728607 -1.547592 0.775248 0.011978 0.005565 480269.000000 0 0 1
0.180056 21.010757 23.135480 31.252756 1.562227 0.737324 0.016754 0.002980 293422.000000 0 0 1
-0.241444 19.826957 22.493180 29.985157 -1.558619 0.722517 0.021474 -0.001229 486921.000000 0 0 1
0.796656 18.659357 22.750380 29.434436 1.528128 0.687370 0.027270 0.003927 -277696.000000 0 0 1
1.983756 18.804657 22.074880 29.066316 1.465692 0.708304 0.032918 0.000607 -1332740.000000 0 0 1
2.768156 17.671557 22.325280 28.607075 1.415414 0.675473 0.023933 -0.004442 -1269810.000000 0 0 1
4.183956 17.772457 21.818880 28.450470 1.339588 0.696788 0.030584 -0.002994 -902016.000000 0 0 1
4.974656 18.627857 22.604480 29.710381 1.309832 0.706209 0.026270 -0.001504 -866041.000000 0 0 1
6.131956 19.036157 21.934480 29.683288 1.259170 0.739285 0.045233 -0.010059 -205604.000000 0 0 1
7.264356 19.573857 22.836580 30.942142 1.215427 0.740633 0.054444 -0.018094 -253408.000000 0 0 1
6.967256 20.668757 23.699250 32.208611 1.245668 0.743942 0.037644 -0.014297 -110638.000000 0 0 1
6.867456 21.942757 23.084280 32.581137 1.267482 0.783402 0.040224 -0.016726 -247038.000000 0 0 1
5.532556 22.675357 23.268180 32.957384 1.331482 0.786951 0.023667 -0.005570 -220433.000000 0 0 1
5.488556 24.017357 22.890480 33.629329 1.346130 0.822119 0.017004 -0.012303 -750970.000000 0 0 1
4.229956 24.531957 23.144780 33.991032 1.400049 0.821794 0.004693 -0.001695 -1102480.000000 0 0 1
3.988856 25.978657 22.582480 34.652128 1.418443 0.860985 0.008517 -0.004684 -179928.000000 0 0 1
3.887556 25.967957 21.179480 33.734526 1.422194 0.892037 0.013924 -0.010504 -280847.000000 0 0 1
2.802256 25.246257 20.636080 32.727266 1.460252 0.888539 0.011691 -0.006983 -617268.000000 0 0 1
2.522456 25.574657 19.176780 32.065164 1.472483 0.929722 0.018436 -0.012751 -1075840.000000 0 0 1
1.650356 26.668557 19.193780 32.898887 1.508991 0.947866 0.015446 -0.014276 28734.200000 0 0 1
1.218256 26.933457 17.853880 32.336609 1.525595 0.985884 0.021601 -0.008369 56256.300000 0 0 1
0.123356 28.029457 17.744280 33.174164 1.566395 1.006428 0.002602 0.001919 131983.000000 0 0 1
0.588356 29.332057 18.164580 34.506053 1.550741 1.016415 0.011624 -0.000349 -308856.000000 0 0 1
-0.482544 30.146757 18.543580 35.396669 -1.554791 1.019398 0.005097 -0.003528 -264087.000000 0 0 1
-0.125844 31.538657 19.179580 36.912857 -1.566806 1.024424 0.008479 0.000847 -157426.000000 0 0 1
0.470156 31.565257 20.458980 37.618564 1.555903 0.995774 0.013051 0.000651 -21344.600000 0 0 1
0.719156 32.935657 20.837380 38.980393 1.548965 1.006809 0.019847 -0.002293 -153196.000000 0 0 1
1.334556 32.991557 22.223680 39.800952 1.530367 0.978376 0.026464 -0.013933 -115209.000000 0 0 1
0.398956 32.645357 23.202280 40.052769 1.558576 0.952936 0.019433 -0.010862 131066.000000 0 0 1
1.033056 32.823357 24.429860 40.929916 1.539334 0.931201 0.041577 -0.024910 12942.900000 0 0 1
0.038056 32.651757 25.593150 41.486721 1.569631 0.905999 0.037843 -0.012927 -32172.100000 0 0 1
-0.998744 33.643057 25.592410 42.282670 -1.541119 0.920692 0.034328 -0.009649 -199978.000000 0 0 1
-1.947944 33.398757 26.580610 42.729384 -1.512538 0.899414 0.024349 -0.005874 -524514.000000 0 0 1
-1.685944 33.703957 28.074150 43.897118 -1.520816 0.876891 0.044906 -0.013519 -1075480.000000 0 0 1
-0.787544 32.763357 28.570460 43.477913 -1.546764 0.853797 0.049124 -0.016875 -239221.000000 0 0 1
-0.432744 33.080257 29.923290 44.608227 -1.557715 0.835507 0.055814 -0.018491 226867.000000 0 0 1
0.766056 32.147957 30.311830 44.191458 1.546972 0.814928 0.053267 -0.022696 519704.000000 0 0 1
2.063156 32.309057 29.781680 43.989547 1.507026 0.827094 0.048029 -0.021755 197683.000000 0 0 1
2.307956 31.959957 28.470580 42.864197 1.498707 0.844368 0.048916 -0.024919 -511064.000000 0 0 1
3.779156 31.670657 28.110730 42.515005 1.452031 0.848385 0.036794 -0.021643 116856.000000 0 0 1
4.378956 30.648457 28.879860 42.338510 1.428880 0.820141 0.040532 -0.023906 -306594.000000 0 0 1
5.765656 30.584857 28.679060 42.322154 1.384470 0.826252 0.046376 -0.034959 -253610.000000 0 0 1
6.384456 29.316157 29.310600 41.944125 1.356365 0.797076 0.052109 -0.024944 -166403.000000 0 0 1
6.558256 29.481857 30.641240 43.024135 1.351910 0.778187 0.057784 -0.030608 74737.900000 0 0 1
7.118156 28.358657 31.288610 42.823576 1.324872 0.751538 0.049791 -0.021415 -131414.000000 0 0 1
7.048456 28.417657 32.807571 43.972499 1.327672 0.728622 0.075432 -0.025533 243420.000000 0 0 1
5.777056 28.220657 33.428555 44.127635 1.368876 0.711256 0.074378 -0.029183 223421.000000 0 0 1
5.860356 28.011957 -33.594492 44.131659 1.364562 2.436009 0.095098 -0.033600 -774.067000 0 0 1
6.241756 26.630757 -32.971902 42.840437 1.340571 2.449080 0.082374 -0.029214 652036.000000 0 0 1
7.605356 26.347757 -33.299282 43.138010 1.289782 2.452659 0.067840 -0.027823 438191.000000 0 0 1
7.790456 25.000857 -32.927762 42.071029 1.268725 2.469741 0.079678 -0.031529 -309861.000000 0 0 1
9.125856 24.388357 -33.349012 42.311107 1.212737 2.478652 0.061969 -0.027014 -671200.000000 0 0 1
9.135156 24.128057 33.732243 42.467381 1.208863 0.652926 0.054529 -0.020676 459866.000000 0 0 1
10.277956 23.377757 33.306985 41.970360 1.156585 0.654120 0.063955 -0.034313 102067.000000 0 0 1
10.466756 21.841157 33.710269 41.508690 1.123909 0.623010 0.064443 -0.038243 -737896.000000 0 0 1
9.750856 20.914557 32.955948 40.231734 1.134533 0.610863 0.061489 -0.040223 -94406.200000 0 0 1
9.674756 19.600657 33.431056 39.942736 1.112287 0.579065 0.060721 -0.028930 -735427.000000 0 0 1
8.365356 19.315657 34.159290 40.123944 1.162096 0.552254 0.082587 -0.032126 -726528.000000 0 0 1
8.104156 19.802757 -33.028262 39.353432 1.182347 2.566741 0.077077 -0.031362 -736588.000000 0 0 1
7.232756 20.851557 -33.061402 39.751182 1.236914 2.552974 0.089689 -0.035010 -777721.000000 0 0 1
6.893456 21.255157 -31.644532 38.738583 1.257180 2.526767 0.092205 -0.042464 436974.000000 0 0 1
8.008456 21.986457 -31.116332 38.932836 1.221488 2.496811 0.092029 -0.041310 521766.000000 0 0 1
7.772156 22.617757 -29.859682 38.256632 1.239807 2.466277 0.071933 -0.038675 -617727.000000 0 0 1
9.022956 23.237757 -29.223842 38.411456 1.200427 2.435358 0.068325 -0.040627 174504.000000 0 0 1
9.861956 22.161457 -28.777772 37.637062 1.152104 2.441236 0.075696 -0.036487 -362389.000000 0 0 1
11.236456 22.378657 -29.009622 38.322583 1.105465 2.429483 0.063067 -0.041764 223671.000000 0 0 1
11.996456 21.013957 -28.888832 37.683762 1.052064 2.444345 0.065628 -0.050892 5085.380000 0 0 1
11.963856 20.127057 -30.051312 38.096110 1.034492 2.479698 0.062757 -0.043415 489484.000000 0 0 1
10.655056 19.629457 -30.392382 37.716610 1.073490 2.507837 0.075652 -0.037741 649314.000000 0 0 1
10.693456 18.635657 -31.547652 38.169255 1.049852 2.543693 0.070855 -0.029824 -203677.000000 0 0 1
11.190456 17.325857 -31.185892 37.389456 0.997322 2.557264 0.065604 -0.021658 244651.000000 0 0 1
11.259356 16.409657 -32.262372 37.906603 0.969432 2.588876 0.059864 -0.012068 -173839.000000 0 0 1
12.616156 16.323157 -32.994582 38.913433 0.912800 2.582802 0.052237 -0.000926 -162185.000000 0 0 1
12.963156 17.602557 -33.551512 40.044942 0.936033 2.564123 0.058871 -0.013322 168472.000000 0 0 1
13.552556 17.721157 33.604364 40.335647 0.917911 0.586075 0.063219 -0.014442 121916.000000 0 0 1
12.541756 17.508157 32.435161 38.934186 0.949189 0.586150 0.074581 -0.027577 -746036.000000 0 0 1
13.075256 17.795257 31.169190 38.198847 0.937120 0.616388 0.059810 -0.023509 -235664.000000 0 0 1
12.275756 17.614357 30.001980 36.892798 0.962142 0.621131 0.074394 -0.024540 737889.000000 0 0 1
10.741556 17.953857 29.950450 36.534250 1.031637 0.609750 0.066467 -0.017794 844890.000000 0 0 1
9.983056 16.976757 30.643690 36.426740 1.039215 0.571221 0.062133 -0.013172 524675.000000 0 0 1
8.577156 17.264857 30.660540 36.217559 1.109713 0.561297 0.063067 -0.014223 1195200.000000 0 0 1
7.690456 16.300357 31.502390 36.293874 1.129965 0.519674 0.066837 -0.007967 285101.000000 0 0 1
7.840656 16.595157 32.870227 37.647403 1.129417 0.509256 0.073209 -0.011418 226448.000000 0 0 1
7.313156 15.590357 33.768151 37.905534 1.132188 0.471583 0.087813 -0.013723 2050.650000 0 0 1
7.470656 15.915657 -33.190102 37.559309 1.131935 2.654445 0.090718 -0.016957 -368753.000000 0 0 1
6.468556 16.784957 -32.738882 37.355205 1.202958 2.639175 0.090639 -0.020818 -32017.700000 0 0 1
6.599756 17.098457 -31.351822 36.315984 1.202429 2.612581 0.093093 -0.028543 -739294.000000 0 0 1
5.305856 17.660857 -30.814972 35.911286 1.278945 2.602327 0.093039 -0.036122 -1246550.000000 0 0 1
5.305256 17.965757 -29.456052 34.908067 1.283659 2.575155 0.085782 -0.039847 420585.000000 0 0 1
4.367456 18.986057 -29.022502 34.954980 1.344695 2.550410 0.091369 -0.043452 1727630.000000 0 0 1
2.822256 18.679757 -29.116242 34.708125 1.420844 2.566034 0.104550 -0.052248 -458249.000000 0 0 1
2.458856 17.643457 -28.217122 33.369799 1.432325 2.578463 0.119062 -0.049081 168715.000000 0 0 1
1.081656 17.338557 -28.297612 33.204674 1.508493 2.591006 0.117355 -0.049528 260006.000000 0 0 1
0.010956 18.366857 -27.887582 33.392495 1.570200 2.559193 0.114191 -0.056773 -961502.000000 0 0 1
-0.092444 18.651557 -26.496772 32.403210 -1.565840 2.528236 0.113258 -0.061249 178755.000000 0 0 1
-0.838044 19.878657 -26.379992 33.041902 -1.528663 2.495396 0.108833 -0.050098 104031.000000 0 0 1
-1.374844 20.265757 -24.982812 32.198322 -1.503059 2.458943 0.102595 -0.045752 183594.000000 0 0 1
-2.464844 19.488457 -24.523712 31.421137 -1.444987 2.466237 0.094323 -0.038193 -70493.600000 0 0 1
-2.832744 19.875757 -23.229312 30.702949 -1.429227 2.428867 0.080181 -0.029021 508855.000000 0 0 1
-3.985144 18.954857 -22.645112 29.798809 -1.363570 2.434007 0.060650 -0.022733 636559.000000 0 0 1
-5.242044 19.561357 -22.895612 30.566889 -1.308969 2.417398 0.056781 -0.018656 -139147.000000 0 0 1
-6.291844 18.627157 -22.641312 29.986451 -1.245051 2.426529 0.051714 -0.027440 673402.000000 0 0 1
-7.705544 19.270457 -22.589712 30.676065 -1.190408 2.398523 0.051553 -0.025661 -69731.600000 0 0 1
-7.993244 20.160757 -21.461712 30.511524 -1.193332 2.350962 0.041713 -0.020487 283507.000000 0 0 1
-7.446044 21.500257 -21.630012 31.393662 -1.237401 2.330895 0.046144 -0.024624 127008.000000 0 0 1
-7.813844 22.586857 -20.553812 31.522713 -1.237737 2.281058 0.054413 -0.027388 -346167.000000 0 0 1
-7.057344 22.391257 -19.404512 30.458325 -1.265469 2.261506 0.063741 -0.029059 -158881.000000 0 0 1
-7.165344 23.499157 -18.517412 30.764379 -1.274833 2.216688 0.070649 -0.025461 85878.600000 0 0 1
-6.172144 23.557657 -17.315712 29.881305 -1.314554 2.188891 0.077945 -0.027169 646834.000000 0 0 1
-4.795944 23.715657 -17.655312 29.952353 -1.371260 2.201170 0.072264 -0.030773 -139783.000000 0 0 1
-4.119044 23.851457 -16.411812 29.243906 -1.399787 2.166637 0.066971 -0.024406 922366.000000 0 0 1
-2.630244 24.313657 -16.680212 29.602391 -1.463036 2.169383 0.064433 -0.016076 918820.000000 0 0 1
-2.543044 25.720857 -16.813612 30.833862 -1.472246 2.147540 0.049958 -0.020905 -411481.000000 0 0 1
-1.315244 26.113157 -17.335912 31.371335 -1.520472 2.156281 0.047360 -0.025384 -351074.000000 0 0 1
-1.387344 27.672457 -17.480912 32.760828 -1.520704 2.133638 0.047289 -0.038704 97585.200000 0 0 1
-2.485944 28.162057 -18.198112 33.622204 -1.482752 2.142723 0.047681 -0.046504 60680.400000 0 0 1
-1.964644 29.212057 -18.966312 34.884453 -1.503643 2.145623 0.048920 -0.040730 -138867.000000 0 0 1
-3.045544 30.127957 -19.628312 36.086559 -1.470052 2.145902 0.068293 -0.043940 20968.800000 0 0 1
-3.772544 30.891057 -18.688812 36.300980 -1.449274 2.111605 0.059540 -0.042676 -212770.000000 0 0 1
-4.947744 30.226957 -18.269312 35.663943 -1.408549 2.108614 0.045915 -0.041468 -691153.000000 0 0 1
-5.821244 31.134457 -17.402912 36.140041 -1.385959 2.073208 0.050925 -0.031182 -281403.000000 0 0 1
-6.247844 32.289157 -18.097412 37.538533 -1.379662 2.073849 0.061853 -0.035950 -23866.000000 0 0 1
-6.716144 33.279257 -17.204012 38.060393 -1.371659 2.039824 0.066576 -0.044534 -337381.000000 0 0 1
-7.180944 -34.006963 -17.833012 39.064764 1.362692 2.044852 0.067991 -0.026194 -899714.000000 0 0 1
-8.403144 -34.193263 -18.437112 39.745681 1.329818 2.053163 0.077087 -0.038465 -803035.000000 0 0 1
-8.810944 -33.096663 -19.273812 39.300148 1.310612 2.083375 0.105814 -0.041198 -44705.500000 0 0 1
29.610556 -20.736543 -25.932152 44.488940 -0.610933 2.193077 0.039987 0.001748 18885.800000 0 0 1
29.004156 -21.840443 -25.354862 44.284479 -0.645425 2.180403 0.048552 -0.009558 -522235.000000 0 0 1
27.654656 -22.005243 -25.707042 43.701976 -0.672123 2.199671 0.044445 -0.009860 231803.000000 0 0 1
27.037456 -23.414543 -25.364362 43.847642 -0.713712 2.187643 0.044191 -0.013776 154010.000000 0 0 1
27.567156 -24.425643 -26.141532 45.165693 -0.725049 2.188043 0.034023 -0.002349 111404.000000 0 0 1
28.731956 -24.971643 -25.506432 45.822334 -0.715493 2.161129 0.046451 0.000788 301400.000000 0 0 1
29.216056 -26.345593 -26.048432 47.182508 -0.733781 2.155651 0.044185 0.004329 -234618.000000 0 0 1
28.376456 -27.407993 -25.786552 47.131387 -0.768039 2.149717 0.056932 -0.004685 -835106.000000 0 0 1
28.837656 -28.555373 -26.434012 48.433219 -0.780480 2.148119 0.042190 -0.001568 445160.000000 0 0 1
27.734456 -29.289543 -27.251872 48.679995 -0.812662 2.164961 0.056969 -0.002862 104790.000000 0 0 1
27.386656 -28.803343 -28.551002 48.936911 -0.810605 2.193735 0.037813 -0.005807 -125856.000000 0 0 1
28.366956 -28.772573 -29.566322 50.067081 -0.792497 2.202517 0.029800 -0.009513 -633780.000000 0 0 1
28.749056 -30.093833 -30.275902 51.466273 -0.808248 2.199710 0.043078 -0.006558 26447.400000 0 0 1
29.557456 -31.048573 -29.580402 52.083177 -0.809997 2.174804 0.049404 -0.004687 1171320.000000 0 0 1
30.879656 -30.658523 -29.132572 52.366067 -0.781805 2.160753 0.041231 -0.001891 1210190.000000 0 0 1
31.979456 -30.627643 -30.244222 53.623233 -0.763810 2.170034 0.028180 -0.003450 61719.800000 0 0 1
31.867256 -29.399093 -30.914252 53.249598 -0.745134 2.190205 0.031044 -0.007925 285907.000000 0 0 1
33.173256 -29.098333 -31.383382 54.148819 -0.720053 2.189005 0.027093 -0.012453 243738.000000 0 0 1
33.248756 -27.557473 -31.625142 53.526103 -0.692073 2.202891 0.026408 -0.004316 -33567.300000 0 0 1
33.013856 -26.660393 -30.537352 52.280217 -0.679329 2.194578 0.020641 -0.003940 920544.000000 0 0 1
31.602556 -26.460203 -30.303922 51.158495 -0.697063 2.204773 0.029085 0.000552 862004.000000 0 0 1
31.381156 -25.212713 -29.445482 49.874786 -0.676832 2.202336 0.027854 -0.008751 -516624.000000 0 0 1
31.903856 -25.135283 -28.128342 49.404879 -0.667285 2.176503 0.028269 -0.002301 7088.820000 0 0 1
31.965156 -23.819543 -27.617252 48.495922 -0.640404 2.176664 0.023702 -0.002889 -286657.000000 0 0 1
33.052656 -23.633043 -26.557722 48.541852 -0.620730 2.149704 0.016338 -0.003243 -380000.000000 0 0 1
32.811756 -24.389143 -25.365122 48.112691 -0.639203 2.126101 0.030811 -0.007119 71914.900000 0 0 1
32.001156 -23.720843 -24.415312 46.721086 -0.637877 2.120666 0.031488 -0.001243 -236012.000000 0 0 1
32.549956 -22.446943 -23.672712 46.084294 -0.603722 2.110268 0.036249 -0.001356 -168138.000000 0 0 1
32.767456 -21.321443 -24.461312 46.115788 -0.576860 2.129907 0.036579 -0.004641 -21496.900000 0 0 1
32.725856 -20.220443 -23.594712 45.128244 -0.553458 2.120972 0.019431 -0.010358 186964.000000 0 0 1
33.191056 -18.939143 -24.399212 45.339375 -0.518529 2.139032 0.027342 -0.013153 573803.000000 0 0 1
32.051556 -18.544143 -25.155752 44.766051 -0.524515 2.167523 0.033323 -0.014034 492974.000000 0 0 1
32.251656 -17.503343 -26.044442 44.998325 -0.497230 2.188037 0.023887 -0.008937 -513259.000000 0 0 1
31.183056 -17.368443 -27.115782 44.825344 -0.508189 2.220463 0.011143 0.005624 17170.100000 0 0 1
29.848756 -17.228243 -26.647082 43.564063 -0.523475 2.228973 0.015337 0.007307 341702.000000 0 0 1
28.933756 -17.375243 -27.705082 43.665007 -0.540800 2.258147 0.005036 0.002029 312916.000000 0 0 1
27.459056 -17.050943 -27.313592 42.317452 -0.555688 2.272402 0.010259 0.007760 354896.000000 0 0 1
26.845756 -17.994343 -26.499172 41.793506 -0.590504 2.257576 0.018435 0.010327 8982.450000 0 0 1
26.608956 -17.491543 -25.157832 40.582104 -0.581529 2.239443 0.035970 0.011535 125337.000000 0 0 1
25.855556 -18.529143 -24.273812 40.013209 -0.621807 2.222630 0.052189 0.008586 93387.400000 0 0 1
25.963856 -18.218343 -22.871812 39.104343 -0.611853 2.195543 0.072227 0.005262 238585.000000 0 0 1
25.209156 -19.176943 -22.120712 38.633956 -0.650323 2.180436 0.084297 -0.002349 102012.000000 0 0 1
25.051756 -18.824043 -20.611012 37.506651 -0.644400 2.152597 0.089251 -0.010284 -162552.000000 0 0 1
24.254556 -17.700043 -20.264212 36.224485 -0.630422 2.164466 0.084690 -0.008317 1642.360000 0 0 1
24.526156 -16.453743 -20.839512 36.146137 -0.590904 2.185278 0.085405 -0.002145 -207558.000000 0 0 1
25.850056 -15.715943 -20.522112 36.556441 -0.546256 2.166851 0.073076 -0.007665 86711.100000 0 0 1
25.912456 -15.193943 -19.233112 35.668248 -0.530327 2.140310 0.072289 -0.022349 -60331.500000 0 0 1
27.074956 -14.406743 -19.195912 36.181356 -0.489001 2.130042 0.063529 -0.021564 -195162.000000 0 0 1
27.000256 -13.223943 -18.206512 35.147739 -0.455431 2.115307 0.070348 -0.017445 -104216.000000 0 0 1
27.047956 -13.657943 -16.836212 34.663949 -0.467602 2.077958 0.056002 -0.023012 229706.000000 0 0 1
26.968356 -12.496143 -15.978212 33.745356 -0.433911 2.064049 0.040956 -0.010780 -136132.000000 0 0 1
27.496056 -12.823643 -14.604112 33.671338 -0.436393 2.019419 0.054063 -0.016320 -584613.000000 0 0 1
26.764556 -13.680443 -13.796412 33.073206 -0.472520 2.001101 0.064619 -0.028410 -173548.000000 0 0 1
27.507656 -14.030043 -12.666712 33.376022 -0.471648 1.960069 0.069444 -0.033533 -166936.000000 0 0 1
26.957956 -15.249643 -11.867912 33.168213 -0.514804 1.936718 0.063932 -0.040625 -410439.000000 0 0 1
25.708356 -15.073543 -11.269212 31.861049 -0.530306 1.932319 0.045952 -0.041023 -118625.000000 0 0 1
25.083956 -16.350943 -11.080112 31.926902 -0.577674 1.925216 0.038359 -0.036965 -972875.000000 0 0 1
23.685256 -16.224143 -10.544812 30.584428 -0.600580 1.922798 0.043142 -0.035115 -1205840.000000 0 0 1
23.437156 -15.712843 -9.270312 29.700714 -0.590600 1.888224 0.040971 -0.032868 -92129.400000 0 0 1
22.057656 -15.648943 -9.039812 28.515747 -0.617044 1.893373 0.050124 -0.035667 -609929.000000 0 0 1
21.741256 -15.301643 -7.607912 27.653261 -0.613276 1.849509 0.057716 -0.031125 -370683.000000 0 0 1
22.102856 -13.963643 -7.226112 27.124459 -0.563444 1.840458 0.065328 -0.025698 546200.000000 0 0 1
21.901956 -13.608443 -5.829112 26.436035 -0.555959 1.793122 0.072052 -0.015614 -318100.000000 0 0 1
22.735756 -14.406343 -4.802612 27.340856 -0.564790 1.747369 0.061952 -0.010538 413003.000000 0 0 1
24.143856 -14.135243 -4.838312 28.392607 -0.529659 1.742039 0.052316 -0.010067 924615.000000 0 0 1
24.790856 -15.130543 -4.045412 29.323800 -0.547979 1.709194 0.045434 -0.010609 807288.000000 0 0 1
26.355656 -14.935643 -4.178612 30.580302 -0.515571 1.707869 0.051107 -0.012148 962507.000000 0 0 1
26.808556 -13.684843 -3.561912 30.309418 -0.471985 1.688587 0.050591 -0.016593 1251960.000000 0 0 1
28.197256 -13.502443 -3.904712 31.506317 -0.446590 1.695050 0.056131 -0.030246 841376.000000 0 0 1
28.894556 -12.202943 -3.386012 31.547936 -0.399604 1.678333 0.074682 -0.030838 -1266090.000000 0 0 1
29.168656 -12.295943 -1.971912 31.715756 -0.398942 1.633011 0.086324 -0.041022 348102.000000 0 0 1
29.778756 -11.173143 -1.374712 31.835566 -0.358951 1.613991 0.088879 -0.037612 896404.000000 0 0 1
31.255356 -10.909243 -1.884812 33.158127 -0.335816 1.627670 0.085491 -0.035370 -28885.900000 0 0 1
31.265756 -10.367943 -3.150912 33.090331 -0.320196 1.666162 0.082064 -0.023119 309865.000000 0 0 1
32.471456 -10.490043 -3.903612 34.346392 -0.312471 1.684697 0.086051 -0.021671 33184.100000 0 0 1
32.252856 -10.199443 -5.384312 34.252973 -0.306283 1.728644 0.080910 -0.027622 -72127.200000 0 0 1
31.362556 -11.155243 -5.963412 33.817328 -0.341732 1.748065 0.067813 -0.022837 529220.000000 0 0 1
31.166956 -11.036943 -7.359612 33.872661 -0.340343 1.789816 0.059156 -0.025026 -227937.000000 0 0 1
29.964856 -11.829643 -7.894912 33.168701 -0.376002 1.811126 0.055004 -0.021546 -165380.000000 0 0 1
30.088256 -13.239643 -7.827412 33.791414 -0.414529 1.804559 0.054966 -0.021361 -412443.000000 0 0 1
28.863656 -13.885443 -7.948312 33.001392 -0.448389 1.814036 0.055684 -0.025856 -476217.000000 0 0 1
29.019556 -15.375543 -7.982612 33.797397 -0.487229 1.809239 0.063255 -0.033186 -193085.000000 0 0 1
29.457056 -15.849543 -9.228712 34.700076 -0.493627 1.839992 0.075146 -0.040714 224706.000000 0 0 1
29.463856 -17.296543 -9.255112 35.396982 -0.530838 1.835337 0.072330 -0.038162 -315178.000000 0 0 1
29.497856 -17.862243 -10.682412 36.101207 -0.544486 1.871196 0.074376 -0.043107 -165560.000000 0 0 1
30.723256 -17.634143 -11.350712 37.198389 -0.521058 1.880882 0.085693 -0.039665 146743.000000 0 0 1
30.716956 -18.158643 -12.648312 37.858256 -0.533894 1.911443 0.067164 -0.027456 -320432.000000 0 0 1
30.343456 -17.168943 -13.735512 37.472153 -0.514908 1.946097 0.076275 -0.035070 -148842.000000 0 0 1
31.229156 -16.101443 -14.034412 37.834923 -0.476042 1.950815 0.068464 -0.033646 436503.000000 0 0 1
30.569756 -15.171443 -14.904312 37.240048 -0.460675 1.982556 0.061712 -0.034134 -422026.000000 0 0 1
31.574756 -14.331043 -15.662012 38.047899 -0.426073 1.995048 0.058651 -0.021717 99252.800000 0 0 1
32.485956 -14.904643 -16.590912 39.404874 -0.430150 2.005385 0.037226 -0.029319 722575.000000 0 0 1
33.713156 -15.319843 -15.996412 40.338067 -0.426521 1.978561 0.049985 -0.023556 5771.330000 0 0 1
34.837056 -15.443643 -17.074612 41.757262 -0.417277 1.992046 0.055913 -0.021761 -1117210.000000 0 0 1
36.106756 -15.476343 -16.551212 42.628132 -0.404939 1.969550 0.061439 -0.020018 -1449010.000000 0 0 1
-35.534316 -16.134543 -17.468112 42.756825 0.426221 1.991656 0.064847 -0.016502 -1294540.000000 0 0 1
-34.057116 -16.022843 -17.132712 41.353942 0.439746 1.997964 0.069101 -0.016943 -740321.000000 0 0 1
-33.590116 -16.822643 -16.059212 40.855789 0.464304 1.974765 0.062413 -0.024759 76757.300000 0 0 1
-33.973516 -16.390943 -14.812112 40.524826 0.449519 1.944974 0.073375 -0.025332 -706675.000000 0 0 1
-33.421016 -17.331643 -13.733912 40.074562 0.478405 1.920595 0.072430 -0.028664 -231049.000000 0 0 1
-32.041716 -17.295143 -13.465112 38.821422 0.494955 1.925004 0.072565 -0.027715 -201058.000000 0 0 1
-31.721216 -17.620343 -12.184712 38.277660 0.507037 1.894758 0.085702 -0.021734 1087870.000000 0 0 1
-30.171016 -17.960243 -12.029912 37.115756 0.536943 1.900876 0.082022 -0.023121 1575430.000000 0 0 1
-29.410416 -16.732443 -12.118312 35.941629 0.517260 1.914702 0.073456 -0.026728 -26259.300000 0 0 1
-28.088016 -16.801143 -11.654812 34.742621 0.539066 1.912891 0.069219 -0.020355 -57605.800000 0 0 1
-27.944216 -16.487543 -10.092412 33.979039 0.533046 1.872365 0.077430 -0.022236 -269821.000000 0 0 1
-28.538316 -17.418643 -9.259512 34.692696 0.548002 1.840972 0.077486 -0.019041 -150319.000000 0 0 1
-29.085716 -16.940243 -8.053112 34.609296 0.527396 1.805635 0.069413 -0.020619 -164831.000000 0 0 1
-29.449716 -18.158543 -7.181612 35.335450 0.552532 1.775463 0.062901 -0.014984 239149.000000 0 0 1
-30.645316 -18.845443 -7.524512 36.754652 0.551342 1.776977 0.054544 -0.017599 265875.000000 0 0 1
-30.493916 -19.716743 -8.679312 37.335765 0.573967 1.805409 0.050634 -0.014954 -903423.000000 0 0 1
-31.791416 -20.362143 -9.074912 38.828663 0.569662 1.806695 0.044438 -0.018485 -391392.000000 0 0 1
-32.872816 -19.525443 -9.520712 39.401890 0.535973 1.814842 0.047577 -0.019300 520120.000000 0 0 1
-33.968416 -20.408743 -9.678112 40.792597 0.541019 1.810332 0.057279 -0.023716 -429119.000000 0 0 1
-35.302516 -19.797643 -10.084512 41.712249 0.511097 1.814979 0.060226 -0.032554 -289550.000000 0 0 1
-35.422716 -19.662743 -11.502412 42.115292 0.506742 1.847428 0.063414 -0.032741 728791.000000 0 0 1
35.747956 -19.045343 -11.768712 42.179901 -0.489517 1.853562 0.073267 -0.038859 653212.000000 0 0 1
35.548156 -18.680143 -13.244512 42.285178 -0.483830 1.889377 0.068794 -0.030963 -81234.200000 0 0 1
35.349056 -19.818643 -14.109912 42.911817 -0.510987 1.905841 0.052735 -0.022202 213552.000000 0 0 1
34.713156 -19.539843 -15.350812 42.690234 -0.512689 1.938621 0.041416 -0.017023 1145150.000000 0 0 1
33.412856 -20.414943 -15.634912 42.162060 -0.548462 1.950698 0.058663 -0.025871 604320.000000 0 0 1
32.360656 -20.121043 -14.754412 40.862711 -0.556277 1.940214 0.077338 -0.031468 -468047.000000 0 0 1
31.191256 -20.848443 -14.894212 40.365698 -0.589206 1.948710 0.090116 -0.033522 -199331.000000 0 0 1
30.183656 -20.477043 -15.981712 39.821822 -0.596092 1.983765 0.096137 -0.032598 -653102.000000 0 0 1
29.476556 -19.259343 -15.856212 38.616177 -0.578746 1.993920 0.087330 -0.038325 226478.000000 0 0 1
28.609456 -19.125143 -16.968712 38.369379 -0.589264 2.028898 0.088374 -0.038633 304545.000000 0 0 1
27.659156 -17.890343 -16.931212 37.037268 -0.574133 2.045573 0.085005 -0.037096 857929.000000 0 0 1
26.540256 -17.863743 -16.030912 35.783916 -0.592430 2.035315 0.087148 -0.043385 674574.000000 0 0 1
25.788856 -16.685643 -16.164712 34.709850 -0.574270 2.055233 0.069982 -0.032074 -95031.500000 0 0 1
24.384656 -16.666443 -15.453812 33.334698 -0.599553 2.052845 0.049534 -0.025900 1169170.000000 0 0 1
23.281556 -17.194743 -16.187812 33.162257 -0.636137 2.080753 0.046451 -0.023126 535866.000000 0 0 1
22.883956 -16.381343 -17.309112 33.039812 -0.621281 2.122204 0.068311 -0.017378 -616388.000000 0 0 1
21.755056 -17.061243 -18.109812 33.050473 -0.665059 2.150701 0.050897 -0.014072 694636.000000 0 0 1
20.423156 -16.957843 -17.612712 31.857203 -0.692960 2.156594 0.021119 -0.008790 -290717.000000 0 0 1
19.523056 -17.683943 -18.343712 32.099273 -0.736009 2.179090 0.017364 -0.009462 -664686.000000 0 0 1
18.119556 -17.604443 -17.759312 30.880866 -0.770980 2.183512 0.021401 -0.007222 -255296.000000 0 0 1
17.351356 -16.419443 -17.851412 29.821814 -0.757810 2.212552 0.026492 -0.007374 454887.000000 0 0 1
16.034056 -16.608943 -17.363212 28.886486 -0.803008 2.215653 0.028080 -0.007574 297467.000000 0 0 1
15.088056 -15.359143 -17.375412 27.666905 -0.794301 2.249805 0.035006 -0.005621 161086.000000 0 0 1
14.682456 -15.123443 -18.714612 28.187404 -0.800192 2.296865 0.033915 0.005186 -200935.000000 0 0 1
13.438056 -14.478243 -18.721112 27.215453 -0.822642 2.329368 0.034338 0.003197 8409.160000 0 0 1
12.913556 -13.957443 -20.092012 27.663317 -0.824227 2.383728 0.034106 0.005028 46101.200000 0 0 1
13.536156 -12.782343 -20.596712 27.764012 -0.756764 2.406620 0.032361 0.001842 -90657.500000 0 0 1
12.770356 -12.107943 -21.608312 27.867605 -0.758778 2.458132 0.034940 -0.008894 -136302.000000 0 0 1
13.359156 -10.724743 -22.049412 27.922459 -0.676447 2.481060 0.039743 -0.013740 -103744.000000 0 0 1
14.457656 -10.807043 -22.937312 29.187947 -0.641897 2.474864 0.040076 -0.016487 -185055.000000 0 0 1
14.941856 -9.512543 -23.263712 29.239491 -0.566924 2.490837 0.054452 -0.021026 72565.500000 0 0 1
16.173756 -9.601443 -24.192712 30.644174 -0.535732 2.480744 0.058002 -0.023614 -8255.160000 0 0 1
15.873356 -10.115443 -25.486412 31.683478 -0.567366 2.505473 0.078464 -0.028359 41465.100000 0 0 1
16.992456 -10.028943 -26.338392 32.909484 -0.533182 2.498639 0.079455 -0.032706 -518849.000000 0 0 1
22.269556 5.604057 -7.440812 24.139268 0.246528 1.884144 0.106269 0.034041 -191527.000000 0 1 0
22.142356 6.960857 -7.424812 24.369351 0.304586 1.880397 0.086994 0.022220 720125.000000 0 1 0
21.464856 7.444357 -6.259112 23.565546 0.333836 1.839627 0.074179 0.018379 -141769.000000 0 1 0
21.173256 8.899357 -6.166212 23.780822 0.397892 1.833087 0.066008 0.015294 147232.000000 0 1 0
20.051556 9.313357 -6.971512 23.182008 0.434822 1.876254 0.020122 0.009646 1088290.000000 0 1 0
19.651756 10.706157 -6.861212 23.407040 0.498837 1.868291 0.017760 0.012886 230236.000000 0 1 0
19.154156 11.294757 -5.519812 22.911166 0.532794 1.814112 0.028799 0.009945 -746138.000000 0 1 0
20.197756 11.454357 -4.592612 23.669468 0.515885 1.766066 0.049957 0.006052 -49258.400000 0 1 0
19.901156 12.453857 -3.691512 23.765139 0.559164 1.726761 0.077261 -0.014231 254408.000000 0 1 0
21.013356 12.772557 -2.621212 24.729943 0.546157 1.676989 0.080516 -0.028962 -403027.000000 0 1 0
22.174356 13.331757 -3.157612 26.065462 0.541319 1.692236 0.079244 -0.038170 -237499.000000 0 0 1
23.211556 13.516657 -2.246912 26.954127 0.527321 1.654254 0.078560 -0.041790 -59295.400000 0 0 1
24.023856 12.309257 -1.697712 27.047101 0.473500 1.633606 0.073561 -0.039474 -808874.000000 0 0 1
25.099856 11.903957 -2.515312 27.893256 0.442848 1.661095 0.068311 -0.035331 91579.900000 0 0 1
25.812156 10.820657 -2.026412 28.061724 0.396954 1.643072 0.081605 -0.032279 -527632.000000 0 0 1
27.153656 10.519857 -2.694412 29.244628 0.369614 1.663061 0.084935 -0.032801 331276.000000 0 0 1
28.160356 11.534257 -2.494112 30.533020 0.388748 1.652573 0.067347 -0.034615 723860.000000 0 0 1
29.445656 10.994857 -2.241812 31.511256 0.357363 1.642000 0.069714 -0.028515 646589.000000 0 0 1
30.511056 12.099157 -1.891212 32.876904 0.377529 1.628352 0.050686 -0.021423 -116401.000000 0 0 1
30.314256 12.666157 -0.596712 32.859423 0.395781 1.588957 0.067499 -0.024907 646117.000000 0 0 1
31.209656 13.721457 -0.161412 34.093211 0.414217 1.575531 0.067092 -0.017931 287332.000000 0 0 1
32.688356 13.334957 0.090088 35.303793 0.387334 1.568245 0.073389 -0.020295 922307.000000 0 0 1
33.639256 14.443957 0.286588 36.610239 0.405573 1.562968 0.077789 -0.020603 794004.000000 0 0 1
34.329456 14.812457 -0.879412 37.399115 0.407346 1.594313 0.073647 -0.016727 -679028.000000 0 0 1
33.844156 15.988557 -1.728712 37.470646 0.441339 1.616948 0.047573 0.005075 407521.000000 0 0 1
32.661756 15.512457 -2.398112 36.237792 0.443401 1.637022 0.052675 0.002341 228151.000000 0 0 1
32.226856 16.383357 -3.402012 36.311958 0.470326 1.664622 0.045289 0.020580 207911.000000 0 0 1
30.893556 15.932957 -4.048112 34.995116 0.476158 1.686732 0.051655 0.006033 -293866.000000 0 0 1
31.050256 14.943657 -5.044812 34.826447 0.448554 1.716164 0.030776 0.003468 674773.000000 0 0 1
29.831256 14.731357 -5.755912 33.764585 0.458694 1.742105 0.033339 -0.010009 1444360.000000 0 0 1
28.604456 13.992457 -5.055912 32.242301 0.454947 1.728256 0.042753 -0.025681 490957.000000 0 0 1
27.503856 13.853957 -5.908512 31.357690 0.466611 1.760353 0.060257 -0.032250 121838.000000 0 0 1
26.339856 13.360957 -5.275612 30.002254 0.469433 1.747556 0.071529 -0.021532 202993.000000 0 0 1
25.186656 12.970757 -6.219512 29.005008 0.475564 1.786903 0.066063 -0.021044 -278873.000000 0 0 1
25.516156 11.913457 -7.090212 29.039211 0.436818 1.817450 0.065247 -0.014085 191045.000000 0 0 1
24.686156 11.770457 -8.230012 28.560165 0.444919 1.863105 0.071022 -0.010018 -49832.400000 0 0 1
24.484256 12.963857 -9.271912 29.214872 0.486950 1.893751 0.064383 -0.001100 -356205.000000 0 0 1
23.839856 14.044657 -8.707012 29.006950 0.532385 1.875667 0.071584 -0.016546 -160149.000000 0 0 1
23.724856 15.141957 -9.609612 29.740415 0.568058 1.899817 0.062324 -0.017226 -589336.000000 0 0 1
22.786656 16.275357 -9.120812 29.450096 0.620225 1.885678 0.061112 -0.018035 1468190.000000 0 0 1
21.384056 15.977157 -8.903412 28.139263 0.641676 1.892734 0.066024 -0.017383 1446030.000000 0 0 1
21.123356 15.152857 -7.756712 27.128800 0.622276 1.860764 0.077120 -0.020818 -1659110.000000 0 0 1
19.803356 14.448257 -7.764512 25.714056 0.630308 1.877540 0.088733 -0.014621 -81963.900000 0 0 1
18.682956 15.269257 -7.346712 25.222554 0.685191 1.866356 0.092794 -0.032840 691251.000000 0 0 1
17.443356 14.681957 -7.667412 24.054516 0.699652 1.895208 0.090404 -0.037960 -144392.000000 0 1 0
16.348556 15.020157 -6.655312 23.177005 0.743076 1.862048 0.087291 -0.023401 -224113.000000 0 1 0
16.507456 14.241657 -5.515012 22.488580 0.711844 1.818560 0.072672 -0.024499 395744.000000 0 1 0
16.256356 15.024757 -4.352712 22.560109 0.746047 1.764952 0.080226 -0.009919 -117573.000000 0 1 0
15.889156 14.249357 -3.120412 21.569571 0.731043 1.715973 0.057504 0.008340 -147234.000000 0 1 0
17.014056 13.534457 -2.611512 21.897023 0.671983 1.690344 0.059709 -0.004112 701576.000000 0 1 0
16.666956 12.632957 -1.577712 20.973035 0.648579 1.646093 0.048039 -0.008674 -113196.000000 0 1 0
16.497656 13.281057 -0.180312 21.179982 0.677799 1.579310 0.042957 -0.011600 97938.800000 0 1 0
15.485956 14.277057 -0.160812 21.063595 0.744803 1.578431 0.046493 -0.014497 411986.000000 0 1 0
15.664656 15.043457 0.990388 21.740927 0.765172 1.525226 0.050164 -0.011476 414885.000000 0 1 0
14.403056 15.948557 1.246088 21.525734 0.836274 1.512876 0.055682 -0.007599 344738.000000 0 1 0
14.210256 16.977257 0.292588 22.141459 0.873888 1.557581 0.053144 -0.010733 36910.900000 0 1 0
13.246356 17.871457 0.795888 22.259568 0.932950 1.535034 0.045194 -0.011230 -340973.000000 0 1 0
13.376656 19.266457 0.115688 23.455163 0.963908 1.565864 0.040664 -0.010468 -443609.000000 0 1 0
13.090456 19.387157 -1.276212 23.427561 0.976900 1.625298 0.046333 -0.018648 -92611.800000 0 1 0
12.464556 20.609257 -1.600912 24.138549 1.026852 1.637167 0.039122 -0.016643 1462980.000000 0 1 0
10.893356 20.682457 -1.337212 23.414042 1.086021 1.627939 0.028571 -0.018425 1331320.000000 0 1 0
10.517756 20.436257 0.032388 22.984012 1.095488 1.569387 0.034257 -0.026286 164996.000000 0 1 0
9.098056 20.447257 0.130488 22.380392 1.152148 1.564966 0.025649 -0.019735 823405.000000 0 1 0
8.374656 20.432457 1.516288 22.134120 1.181810 1.502238 0.017806 -0.017435 25620.700000 0 1 0
8.240956 21.690857 2.254688 23.312877 1.207713 1.473931 0.017805 -0.005544 523396.000000 0 1 0
7.312956 21.697857 3.359788 23.142266 1.245717 1.425102 0.012502 -0.008477 309943.000000 0 1 0
7.055556 23.108957 3.939188 24.481053 1.274469 1.409186 0.011210 0.002623 -54879.800000 0 1 0
7.923556 23.521757 4.932988 25.305931 1.245874 1.374606 0.009405 -0.001276 -143643.000000 0 0 1
7.365656 24.696157 5.416388 26.334204 1.280945 1.363639 -0.002028 0.003837 -107367.000000 0 0 1
7.895056 25.088457 6.784088 27.162224 1.265919 1.318362 -0.008199 0.002575 -265686.000000 0 0 1
7.537256 24.120157 7.732288 26.426889 1.267923 1.273860 0.012150 -0.011693 114901.000000 0 0 1
8.085356 24.348257 8.992088 27.185809 1.250182 1.233683 0.012984 -0.017285 -410428.000000 0 0 1
7.448956 23.395757 10.043988 26.527911 1.262555 1.182492 0.014945 -0.012956 -349648.000000 0 0 1
6.262156 23.858857 10.609988 26.852029 1.314119 1.164589 0.011358 -0.008688 -446433.000000 0 0 1
5.706456 22.878357 11.476488 26.223894 1.326358 1.117830 0.008906 -0.007545 -143486.000000 0 0 1
4.344456 23.308857 12.057888 26.600184 1.386524 1.100331 0.015732 -0.013297 -438137.000000 0 0 1
3.422156 23.388557 11.034788 26.086439 1.425510 1.134033 0.005188 -0.009986 -429421.000000 0 0 1
2.110156 23.671157 11.487888 26.395984 1.481887 1.120521 0.007342 -0.010775 296785.000000 0 0 1
1.029456 23.792357 10.405088 25.988495 1.527555 1.158873 0.025379 -0.011219 -440208.000000 0 0 1
1.055856 25.014857 9.721688 26.858315 1.528612 1.200425 0.023579 -0.005748 29656.500000 0 0 1
0.087256 25.067757 8.690988 26.531742 1.567316 1.237066 0.025627 -0.007680 1115190.000000 0 0 1
-1.310344 25.606657 9.192588 27.238237 -1.519669 1.226549 0.040071 -0.014873 360980.000000 0 0 1
-2.115444 24.768857 9.967888 26.783020 -1.485596 1.189448 0.043271 -0.012461 -776680.000000 0 0 1
-3.385944 25.328057 9.941188 27.419013 -1.437901 1.199777 0.050996 -0.013821 -1068180.000000 0 0 1
-4.546444 24.472257 10.474688 27.005196 -1.387111 1.172469 0.051285 -0.015359 13068.600000 0 0 1
-4.815644 24.599657 11.907888 27.751240 -1.377480 1.127307 0.047882 -0.009477 492310.000000 0 0 1
-5.539944 25.801557 12.311488 29.120166 -1.359294 1.134283 0.044602 -0.003824 132907.000000 0 0 1
-6.190844 25.752257 13.688088 29.813907 -1.334873 1.093795 0.046805 -0.010632 525651.000000 0 0 1
-7.458944 25.101857 13.789888 29.595609 -1.281959 1.086095 0.043980 -0.013997 442861.000000 0 0 1
-7.940444 25.122857 15.130188 30.383074 -1.264667 1.049528 0.039969 0.008022 -165120.000000 0 0 1
-9.189344 24.250357 15.289788 30.104841 -1.208579 1.038069 0.035470 -0.004595 249991.000000 0 0 1
-10.384044 24.969057 14.972088 30.910283 -1.176679 1.065151 0.039735 -0.004640 420703.000000 0 0 1
-11.520644 24.114757 15.126088 30.709042 -1.125113 1.055766 0.025771 -0.007376 -189555.000000 0 0 1
-12.833944 24.866057 15.047388 31.771918 -1.094334 1.077415 0.018782 -0.008831 -777945.000000 0 0 1
-13.094044 25.673557 16.223188 33.072305 -1.099164 1.058090 0.017116 -0.013657 307870.000000 0 0 1
-13.987344 26.736657 15.898188 34.106407 -1.088799 1.085879 0.013455 -0.011966 -501213.000000 0 0 1
-14.758844 27.452657 16.976288 35.491776 -1.077515 1.072060 0.026309 -0.006445 115343.000000 0 0 1
-15.791144 26.690657 17.604888 35.660671 -1.036550 1.054482 0.025057 -0.008638 157728.000000 0 0 1
-16.376144 27.389457 18.672188 36.973112 -1.031923 1.041390 0.041891 -0.015946 285128.000000 0 0 1
-17.695544 26.716757 19.174088 37.343848 -0.985796 1.031599 0.024995 -0.013744 106248.000000 0 0 1
-18.774144 26.920157 18.335888 37.594788 -0.961817 1.061315 0.026025 -0.004272 -675661.000000 0 0 1
-19.992444 26.439657 18.846188 38.130461 -0.923368 1.053818 0.046755 -0.001243 -112694.000000 0 0 1
-21.231044 26.692657 17.994688 38.562468 -0.898873 1.085311 0.043415 -0.005081 -672198.000000 0 0 1
-21.774544 27.957257 17.974488 39.734383 -0.909085 1.101380 0.035181 -0.005438 -121436.000000 0 0 1
-22.332044 28.255357 16.737188 39.714214 -0.901958 1.135763 0.020808 -0.003820 -486228.000000 0 0 1
-23.188344 29.537357 16.780188 41.130639 -0.905237 1.150564 0.013450 0.001099 -550799.000000 0 0 1
-24.455344 29.208657 17.267588 41.825579 -0.873743 1.145218 0.014655 -0.000873 -632513.000000 0 0 1
-25.342564 30.264657 17.141288 43.035087 -0.873683 1.161123 -0.006155 0.001118 21937.100000 0 0 1
-26.686304 30.117257 17.906488 44.043731 -0.845725 1.152109 0.002158 0.004850 657338.000000 0 0 1
-27.576094 29.085757 17.397388 43.693149 -0.812035 1.161273 0.017211 0.006363 500641.000000 0 0 1
-28.716704 29.030157 18.251288 44.727045 -0.790826 1.150469 0.033258 -0.005608 -40757.100000 0 0 1
-28.927914 27.766757 19.197588 44.456320 -0.764920 1.124275 0.033348 -0.007890 -287518.000000 0 0 1
-29.139594 26.588357 18.483688 43.562637 -0.739650 1.132606 0.030148 -0.003565 175344.000000 0 0 1
-29.570984 25.444957 19.272088 43.512094 -0.710541 1.111951 0.031777 -0.004523 101827.000000 0 0 1
-29.677804 24.105557 18.507988 42.478177 -0.682161 1.119974 0.040529 -0.011457 -359300.000000 0 0 1
-30.740364 24.068957 17.611388 42.830429 -0.664274 1.147039 0.047210 -0.015706 -380708.000000 0 0 1
-30.580554 23.038757 16.641788 41.748098 -0.645660 1.160780 0.050118 -0.013809 -258236.000000 0 0 1
-31.058554 21.604957 16.843688 41.413980 -0.607780 1.151941 0.052488 -0.020419 -29684.400000 0 0 1
-32.386014 21.370057 16.413088 42.129831 -0.583272 1.170617 0.058439 -0.016477 26641.600000 0 0 1
-32.735734 19.991657 16.462788 41.741083 -0.548249 1.165379 0.052958 -0.012741 -347760.000000 0 0 1
-34.056572 19.605057 15.803788 42.355260 -0.522331 1.188422 0.056829 -0.022776 -513705.000000 0 0 1
-34.181230 19.802057 14.420788 42.052789 -0.525079 1.220772 0.058958 -0.026424 -10317.100000 0 0 1
-35.413059 19.351657 13.892188 42.679787 -0.500118 1.239258 0.063346 -0.021013 304836.000000 0 0 1
-35.571688 19.831957 12.359488 42.560644 -0.508599 1.276155 0.065404 -0.021025 17465.200000 0 0 1
-35.584476 21.243457 12.173188 43.194049 -0.538201 1.285100 0.056944 -0.027964 -75715.200000 0 0 1
-35.530236 21.697357 10.810488 43.012087 -0.548230 1.316736 0.041547 -0.027046 950941.000000 0 0 1
-34.204984 21.468257 9.960988 41.594330 -0.560492 1.328967 0.066927 -0.030770 636703.000000 0 0 1
-34.170736 20.190657 9.339188 40.774039 -0.533683 1.339697 0.070256 -0.024500 -240819.000000 0 0 1
-32.928724 19.891957 8.744188 39.451890 -0.543422 1.347298 0.097859 -0.028450 -210988.000000 0 0 1
-32.261094 18.775657 9.625688 38.548117 -0.527072 1.318420 0.084873 -0.033496 -114900.000000 0 0 1
-31.826744 19.254157 10.904788 38.763109 -0.544064 1.285628 0.089771 -0.033104 107105.000000 0 0 1
-31.535354 18.178057 11.758788 38.251659 -0.522911 1.258331 0.086070 -0.034859 71011.700000 0 0 1
-31.009824 18.676957 13.174488 38.522786 -0.542103 1.221760 0.064768 -0.021240 145742.000000 0 0 1
-29.753174 19.299157 13.224988 37.849823 -0.575420 1.213858 0.062512 -0.020479 -263874.000000 0 0 1
-29.941874 20.700657 13.213188 38.724945 -0.604905 1.222597 0.056750 -0.014785 -1044200.000000 0 0 1
-28.630864 21.381057 13.342988 38.143299 -0.641439 1.213426 0.060495 -0.018844 -1237900.000000 0 0 1
-28.047334 21.178857 14.599288 38.057012 -0.646764 1.177087 0.065308 -0.020226 -415969.000000 0 0 1
-27.139774 22.212657 14.876288 38.095582 -0.685893 1.169623 0.069658 -0.025130 -661934.000000 0 0 1
-26.580694 21.978657 16.257988 38.130261 -0.690909 1.130309 0.070431 -0.022043 -235822.000000 0 0 1
-25.649124 20.903457 16.369688 36.916104 -0.683807 1.111375 0.087181 -0.029804 285980.000000 0 0 1
-25.510614 20.479157 17.750788 37.219320 -0.676428 1.073645 0.078474 -0.016892 103901.000000 0 0 1
-24.494644 19.301857 17.895788 35.955646 -0.667383 1.049830 0.078976 -0.016680 301363.000000 0 0 1
-23.951744 19.304557 19.218088 36.272398 -0.678375 1.012400 0.079340 -0.017056 459408.000000 0 0 1
-23.114644 18.152757 19.453888 35.245753 -0.665735 0.986096 0.066150 -0.009731 111466.000000 0 0 1
-22.480744 18.032257 20.799788 35.541206 -0.676032 0.945632 0.070132 -0.008494 -86658.600000 0 0 1
-23.370544 17.715557 21.867088 36.581318 -0.648620 0.930084 0.084843 -0.004555 98276.700000 0 0 1
-22.755044 17.806057 23.128788 37.010654 -0.663985 0.895764 0.116258 -0.015010 -132222.000000 0 0 1
-23.516444 17.085557 24.247888 37.853659 -0.628315 0.875557 0.103285 -0.015614 -271196.000000 0 0 1
-23.272644 15.681757 24.225388 37.072940 -0.592944 0.858660 0.108948 -0.030773 -571351.000000 0 0 1
-24.063544 14.904957 25.032388 37.786669 -0.554562 0.846690 0.099287 -0.035206 -382168.000000 0 0 1
20.652656 24.605257 33.636604 46.512063 0.872512 0.762400 0.071492 -0.000889 742763.000000 0 0 1
21.610856 23.662857 33.077050 46.054871 0.830691 0.769570 0.080618 -0.012601 459439.000000 0 0 1
21.550656 22.389557 33.624217 45.785489 0.804488 0.746035 0.084731 -0.019793 519391.000000 0 0 1
20.426856 21.467957 33.039244 44.381542 0.810243 0.731106 0.082927 -0.024825 599967.000000 0 0 1
20.799656 21.120757 31.720580 43.415519 0.793058 0.751556 0.083378 -0.022015 269218.000000 0 0 1
19.957056 20.052357 31.355410 42.232012 0.787780 0.734067 0.089569 -0.027287 -107203.000000 0 0 1
20.288956 19.516657 29.947210 41.102032 0.765999 0.754511 0.081933 -0.014288 1369740.000000 0 0 1
21.594056 18.861257 29.888460 41.417029 0.717950 0.764618 0.080947 -0.012149 1194660.000000 0 0 1
21.728656 18.224557 28.597090 40.274837 0.697917 0.781229 0.068693 -0.011038 -81787.500000 0 0 1
22.895056 17.236157 28.395830 40.343424 0.645312 0.789990 0.063860 -0.007337 225487.000000 0 0 1
24.192956 17.809157 28.358170 41.311633 0.634565 0.814207 0.068269 -0.003582 -119866.000000 0 0 1
25.050256 17.058357 29.177140 42.069090 0.597836 0.804387 0.045485 0.005667 -94963.100000 0 0 1
26.467256 17.697257 29.189570 43.194207 0.589372 0.828781 0.022265 -0.001067 142187.000000 0 0 1
27.146056 17.693357 27.939750 42.785428 0.577628 0.859231 0.025995 0.005146 -146890.000000 0 0 1
28.452856 18.162557 28.141170 43.947343 0.568134 0.875858 0.017446 0.005766 -134362.000000 0 0 1
29.494256 17.744357 27.089760 43.802151 0.541610 0.904018 0.025812 0.007610 -98750.300000 0 0 1
29.641556 18.647857 25.988250 43.609099 0.561551 0.932365 0.034607 0.007214 -345580.000000 0 0 1
30.581156 18.226057 25.073470 43.543945 0.537466 0.957190 0.040404 0.017231 -638269.000000 0 0 1
30.872356 19.316757 23.995010 43.611925 0.559101 0.988200 0.040736 0.010142 349813.000000 0 0 1
29.699156 19.637757 23.241280 42.518684 0.584224 0.992482 0.037016 0.007658 433990.000000 0 0 1
29.875456 20.671157 22.237480 42.595130 0.605276 1.021525 0.036264 0.002877 -358527.000000 0 0 1
30.754156 20.283457 21.064880 42.437789 0.583049 1.051383 0.053147 0.004125 -425556.000000 0 0 1
30.054756 19.526257 20.086480 41.085639 0.576157 1.059976 0.059093 -0.014507 870679.000000 0 0 1
30.904756 19.025057 19.002480 40.965241 0.551813 1.088440 0.065456 -0.010318 1079050.000000 0 0 1
31.984056 17.915857 19.423880 41.487888 0.510602 1.083564 0.069547 -0.016383 249061.000000 0 0 1
31.514156 16.708057 19.972180 40.880181 0.487496 1.060364 0.074115 -0.021781 -438217.000000 0 0 1
32.555156 15.972057 20.512280 41.661714 0.456112 1.056005 0.062529 -0.026146 -984346.000000 0 0 1
32.112456 14.541457 20.850980 40.956406 0.425204 1.036655 0.065750 -0.032178 61959.500000 0 0 1
31.324056 14.319257 22.002880 40.870091 0.428770 1.002305 0.051355 -0.028513 1121600.000000 0 0 1
29.959756 14.777857 21.897480 39.943356 0.458239 0.990570 0.043412 -0.021485 587328.000000 0 0 1
29.094456 14.345357 23.148480 39.851333 0.458081 0.950998 0.026289 -0.016355 367160.000000 0 0 1
28.534656 13.035857 22.965180 38.878782 0.428530 0.938887 0.030834 -0.016683 95875.700000 0 0 1
27.934156 12.488957 24.126150 38.966168 0.420428 0.903128 0.019243 -0.000957 39750.200000 0 0 1
27.385956 11.063257 23.824900 37.947491 0.383929 0.892023 0.025960 -0.001164 -328619.000000 0 0 1
26.250256 11.046557 23.005680 36.610978 0.398322 0.891325 0.026694 0.001819 -209962.000000 0 0 1
25.918656 9.693157 22.820780 35.868120 0.357879 0.881180 0.020517 0.005745 -160119.000000 0 0 1
24.700556 9.456457 21.916180 34.349105 0.365630 0.878843 0.012076 -0.003834 945613.000000 0 0 1
23.365656 9.598757 22.450580 33.795245 0.389787 0.844224 0.011540 -0.000369 1275520.000000 0 0 1
22.400356 9.136557 21.515480 32.375431 0.387277 0.843889 0.011445 0.010246 478411.000000 0 0 1
20.937456 9.133557 22.043380 31.744441 0.411344 0.803209 0.020520 0.000949 238689.000000 0 0 1
20.670756 8.174257 23.086580 32.048226 0.376578 0.766461 0.027662 0.003662 1006620.000000 0 0 1
19.269156 8.256857 23.391980 31.411157 0.404832 0.730707 0.044882 -0.005211 693599.000000 0 0 1
18.868656 7.659757 24.737810 32.041493 0.385626 0.688727 0.048984 -0.006964 -157982.000000 0 0 1
19.072556 6.252057 24.662320 31.797494 0.316766 0.683122 0.049579 -0.009579 271823.000000 0 0 1
18.625456 5.727657 25.910420 32.420110 0.298339 0.644819 0.052399 -0.017051 2755.400000 0 0 1
18.734256 4.153057 25.987820 32.304598 0.218155 0.636027 0.051642 -0.024912 20477.900000 0 0 1
20.084056 3.779857 25.775160 32.894004 0.186026 0.670385 0.065050 -0.018260 201437.000000 0 0 1
20.281856 2.386557 25.761360 32.873957 0.117131 0.670292 0.061883 -0.023636 166110.000000 0 0 1
21.769056 2.142357 25.381700 33.506898 0.098097 0.711311 0.053517 -0.022822 497254.000000 0 0 1
22.595656 2.116457 26.569620 34.942636 0.093394 0.706901 0.061258 -0.028574 -77438.400000 0 0 1
23.934456 2.247957 26.166950 35.533376 0.093647 0.743055 0.057526 -0.016224 -111517.000000 0 0 1
24.823856 2.753757 27.338150 37.029467 0.110480 0.740278 0.040276 -0.012396 -333378.000000 0 0 1
25.370356 1.748257 28.260560 38.018030 0.068801 0.732737 0.051643 -0.016025 151814.000000 0 0 1
26.170056 2.233957 29.297580 39.347307 0.085157 0.730877 0.047203 -0.004048 332239.000000 0 0 1
27.617056 2.572757 28.840430 40.013639 0.092890 0.765891 0.030814 -0.000616 -736285.000000 0 0 1
27.721156 3.768557 28.071250 39.631548 0.135117 0.783701 0.023973 0.008836 527580.000000 0 0 1
29.054256 4.167857 27.739950 40.385959 0.142479 0.813621 0.021869 0.009313 795838.000000 0 0 1
29.892456 3.274257 26.762970 40.255885 0.109100 0.843542 0.039146 0.006950 -518921.000000 0 0 1
29.408056 3.202957 25.462630 39.031247 0.108487 0.860095 0.032441 0.013919 -241051.000000 0 0 1
29.827856 2.046557 24.746180 38.810602 0.068505 0.879399 0.047793 0.019513 -637622.000000 0 0 1
29.473256 2.052157 23.231980 37.584692 0.069516 0.904443 0.051058 0.005526 381304.000000 0 0 1
30.055656 3.094657 22.413480 37.620253 0.102603 0.932557 0.044559 0.005531 1048500.000000 0 0 1
31.427356 2.845157 21.998680 38.467071 0.090285 0.961996 0.052973 0.004376 1268710.000000 0 0 1
32.115156 4.105257 21.455580 38.840421 0.127140 0.985552 0.056671 -0.000891 -606881.000000 0 0 1
31.805456 4.521257 20.161480 37.927748 0.141207 1.010336 0.047673 -0.010109 -225587.000000 0 0 1
32.356156 5.733257 19.712580 38.319406 0.175372 1.030456 0.048459 -0.002504 265394.000000 0 0 1
33.911356 5.834257 19.585880 39.593248 0.170376 1.053333 0.039896 -0.004814 520378.000000 0 0 1
34.793356 5.948357 20.712980 40.926619 0.169325 1.040139 0.048114 -0.002070 658269.000000 0 0 1
34.538056 7.115457 21.440580 41.269911 0.203175 1.024506 0.038184 -0.000481 -647520.000000 0 0 1
35.054456 6.946257 22.840880 42.411923 0.195622 1.002083 0.034013 -0.000165 -283974.000000 0 0 1
34.303756 6.028757 23.556470 42.047602 0.173970 0.976129 0.042427 0.007898 -131151.000000 0 0 1
34.911556 5.672157 24.772330 43.181691 0.161065 0.959809 0.046283 0.009543 7076.700000 0 0 1
33.971956 4.759057 25.564440 42.781807 0.139182 0.930349 0.055513 0.010636 48568.100000 0 0 1
33.917156 3.454857 25.043250 42.302174 0.101512 0.937248 0.061562 0.004885 36834.100000 0 0 1
33.475956 2.518657 26.063990 42.500763 0.075096 0.910616 0.047541 0.008759 -108274.000000 0 0 1
33.472156 1.005057 25.591250 42.146263 0.030018 0.918263 0.058158 0.006234 171455.000000 0 0 1
32.412356 0.617457 24.715640 40.765242 0.019048 0.919407 0.071822 0.004543 -376826.000000 0 0 1
32.556156 -0.712943 24.248910 40.600754 -0.021895 0.930725 0.065059 -0.000157 109966.000000 0 0 1
31.469556 -1.262943 23.278280 39.163839 -0.040111 0.934299 0.066102 0.005831 -7177.180000 0 0 1
30.197556 -1.373043 23.851250 38.505321 -0.045437 0.902783 0.062483 0.009740 -699826.000000 0 0 1
29.308056 -1.957943 22.907980 37.250117 -0.066707 0.908439 0.076881 0.000503 562514.000000 0 0 1
27.808056 -1.964843 23.308980 36.338095 -0.070540 0.874413 0.037422 0.011335 630963.000000 0 0 1
27.218456 -0.687843 23.017980 35.653119 -0.025266 0.868976 0.048866 0.010645 -489016.000000 0 0 1
25.853856 -0.566543 23.307680 34.813658 -0.021910 0.837263 0.048819 0.002796 -77978.100000 0 0 1
25.300456 0.825857 22.977380 34.187061 0.032630 0.833745 0.052932 0.010545 73388.600000 0 0 1
25.377456 1.162857 21.597580 33.344010 0.045790 0.866208 0.045385 -0.000152 38469.100000 0 0 1
24.612356 2.342657 21.476180 32.748777 0.094896 0.855573 0.033434 0.003442 -89912.700000 0 0 1
24.811856 3.224957 20.223180 32.171502 0.129252 0.891038 0.035496 -0.000779 -232735.000000 0 0 1
24.367256 2.667557 19.034380 31.035249 0.109039 0.910546 0.052554 -0.004653 46181.800000 0 0 1
24.177856 3.680657 18.054280 30.398569 0.151073 0.934875 0.041761 -0.009658 -223552.000000 0 0 1
23.728356 3.207557 16.665680 29.173073 0.134364 0.962745 0.052361 -0.017336 -665686.000000 0 0 1
24.736656 2.810657 15.796880 29.484629 0.113138 1.005381 0.045558 -0.023612 -383362.000000 0 0 1
24.421356 2.897057 14.403180 28.499950 0.118076 1.040979 0.038181 -0.036308 -92478.100000 0 0 1
23.515656 1.820957 13.736980 27.294809 0.077282 1.043404 0.047753 -0.020857 -343691.000000 0 0 1
22.153356 1.826657 14.011480 26.276024 0.082269 1.008368 0.050419 -0.019956 -347374.000000 0 0 1
21.614856 0.595157 13.598980 25.543854 0.027528 1.009389 0.056944 -0.019200 -358288.000000 0 0 1
20.087956 0.429857 13.801080 24.375819 0.021395 0.968933 0.051114 -0.029304 431037.000000 0 1 0
19.171756 1.122057 12.925280 23.149041 0.058460 0.978400 0.059464 -0.029933 558288.000000 0 1 0
19.129156 0.744657 11.529680 22.347542 0.038908 1.028708 0.059995 -0.025788 -1312320.000000 0 1 0
18.984556 -0.799943 11.222880 22.068220 -0.042112 1.037292 0.059765 -0.014651 353480.000000 0 1 0
20.137156 -1.636943 11.440280 23.217766 -0.081111 1.055563 0.079677 -0.032599 711538.000000 0 1 0
21.256456 -1.472943 10.630380 23.812003 -0.069183 1.108025 0.076543 -0.027474 -603354.000000 0 1 0
22.503556 -2.306543 10.987580 25.148700 -0.102140 1.118642 0.097141 -0.044025 -188209.000000 0 0 1
22.952556 -1.849343 12.249780 26.082504 -0.080399 1.081896 0.093171 -0.050771 758024.000000 0 0 1
24.011456 -2.693543 12.780980 27.334203 -0.111710 1.084243 0.091544 -0.047421 533302.000000 0 0 1
24.511256 -2.353643 14.144880 28.397517 -0.095729 1.049387 0.109518 -0.045368 979.370000 0 0 1
25.512856 -1.356343 14.184880 29.222531 -0.053113 1.063965 0.081478 -0.043589 31957.000000 0 0 1
25.746856 -0.972243 15.536780 30.087163 -0.037744 1.028164 0.077051 -0.041496 -190195.000000 0 0 1
26.944556 -0.021743 15.661880 31.165752 -0.000807 1.044268 0.085699 -0.033977 507037.000000 0 0 1
28.190056 -0.676843 15.422780 32.140310 -0.024005 1.070304 0.078923 -0.029289 375496.000000 0 0 1
29.328656 0.062657 15.784380 33.306466 0.002136 1.077067 0.060440 -0.026624 82028.700000 0 0 1
30.680856 -0.662543 15.652480 34.449297 -0.021591 1.099139 0.052295 -0.018770 10334.600000 0 0 1
31.059056 -1.071143 14.331780 34.222978 -0.034474 1.138699 0.057542 -0.018719 -316711.000000 0 0 1
32.142156 -1.958743 14.447380 35.294216 -0.060865 1.149064 0.062231 -0.011069 -544740.000000 0 0 1
32.622256 -2.297543 13.022680 35.200575 -0.070313 1.191834 0.053241 -0.012005 -511400.000000 0 0 1
33.445556 -1.290243 12.515480 35.733838 -0.038558 1.212967 0.046725 -0.023636 -136542.000000 0 0 1
33.797856 -1.639143 11.163580 35.631550 -0.048460 1.252124 0.049010 -0.024165 -553308.000000 0 0 1
33.009956 -0.855943 10.163080 34.549646 -0.025924 1.272221 0.058429 -0.014854 -655705.000000 0 0 1
33.400356 0.501757 10.088580 34.894340 0.015021 1.277491 0.060902 -0.014890 785203.000000 0 0 1
32.351956 1.338057 9.572680 33.765007 0.041336 1.283345 0.053004 -0.022008 345806.000000 0 0 1
32.915356 2.677657 8.980280 34.223325 0.081171 1.305285 0.047365 -0.020656 172090.000000 0 0 1
33.559056 2.385857 7.750080 34.524865 0.070975 1.344389 0.068418 -0.023966 11464.300000 0 0 1
34.169156 3.565457 7.368880 35.136080 0.103971 1.359504 0.066808 -0.022612 -364739.000000 0 0 1
34.580956 3.647157 5.907580 35.271005 0.105079 1.402512 0.070674 -0.018923 -129678.000000 0 0 1
35.185856 4.862957 5.549780 35.951257 0.137338 1.415807 0.078680 -0.015608 93272.400000 0 0 1
35.494156 4.809557 4.126180 36.055406 0.134682 1.456105 0.094541 -0.026458 2527.010000 0 0 1
35.870356 6.208857 3.553180 36.576734 0.171393 1.473500 0.097946 -0.032398 477243.000000 0 0 1
34.785656 7.137157 3.628080 35.695151 0.202367 1.468980 0.092963 -0.029751 249290.000000 0 0 1
35.202256 8.393257 3.165880 36.327240 0.234059 1.483537 0.096342 -0.032859 -1170780.000000 0 0 1
34.106156 9.468357 3.138380 35.534900 0.270795 1.482363 0.103280 -0.030744 -142302.000000 0 0 1
33.112356 9.314157 2.167880 34.465655 0.274204 1.507855 0.108678 -0.032552 -42652.600000 0 0 1
32.213756 8.245457 2.354180 33.335504 0.250581 1.500117 0.107544 -0.021727 -572805.000000 0 0 1
31.081256 8.096157 1.256780 32.142989 0.254821 1.531687 0.126845 -0.024563 492707.000000 0 0 1
31.484156 7.711657 -0.037220 32.414860 0.240208 1.571945 0.128399 -0.025143 -83803.500000 0 0 1
30.412056 7.619657 -0.958120 31.366707 0.245494 1.601347 0.134615 -0.021371 10629.400000 0 0 1
30.841156 7.375857 -2.441020 31.804697 0.234747 1.647622 0.107467 -0.016329 -297217.000000 0 0 1
29.744756 6.887557 -3.176020 30.696515 0.227545 1.674447 0.115881 -0.019276 320503.000000 0 0 1
30.045556 6.579357 -4.491120 31.083654 0.215577 1.715789 0.102478 -0.022557 -773127.000000 0 0 1
28.953956 5.895557 -5.293820 30.018556 0.200872 1.748075 0.105475 -0.012605 -778559.000000 0 0 1
28.898556 4.514457 -5.016720 29.676158 0.154965 1.740661 0.107002 -0.017842 2019270.000000 0 0 1
27.770556 3.948957 -5.797320 28.642747 0.141252 1.774605 0.109430 -0.022282 1095060.000000 0 0 1
27.481556 2.458657 -5.632320 28.160326 0.089228 1.772163 0.104107 -0.011474 -170762.000000 0 0 1
26.896256 2.052057 -4.363420 27.325061 0.076148 1.731169 0.095279 -0.023717 673260.000000 0 0 1
26.811356 0.615357 -4.248720 27.152884 0.022947 1.727916 0.080485 -0.017738 -21207.000000 0 0 1
26.751256 0.209057 -2.766120 26.894699 0.007815 1.673829 0.082173 -0.018914 87018.700000 0 0 1
28.037156 0.359857 -2.198920 28.125555 0.012834 1.649058 0.099161 -0.023542 241155.000000 0 0 1
28.093356 0.268357 -0.795420 28.105896 0.009552 1.599101 0.098279 -0.019084 88416.800000 0 0 1
29.454756 0.610557 -0.127020 29.461357 0.020726 1.575108 0.106027 -0.019385 537048.000000 0 0 1
30.523756 -0.271743 -0.474320 30.528651 -0.008902 1.586334 0.098827 -0.014354 786931.000000 0 0 1
31.748356 0.260657 0.037680 31.749448 0.008210 1.569610 0.087408 -0.018436 -175738.000000 0 0 1
-2.434044 -21.009743 -8.398412 22.756696 1.455457 1.948785 0.004073 -0.006185 116916.000000 0 1 0
-3.157044 -21.763443 -7.436912 23.214695 1.426739 1.896899 0.008506 0.002641 -255183.000000 0 1 0
-2.455744 -22.893443 -7.027812 24.073441 1.463937 1.867043 0.008199 0.004308 -555998.000000 0 1 0
-3.041944 -23.627843 -5.822812 24.524142 1.442757 1.810518 0.009891 0.007859 -795886.000000 0 1 0
-3.118744 -22.818743 -4.667712 23.499131 1.434963 1.770760 0.010724 0.002530 -104776.000000 0 1 0
-3.229544 -23.560943 -3.459312 24.031539 1.434573 1.715247 0.015231 0.006557 -178571.000000 0 1 0
-3.126444 -22.813743 -2.130912 23.125361 1.434603 1.663073 0.013791 -0.002137 625942.000000 0 1 0
-1.788444 -22.324443 -1.953112 22.480969 1.490856 1.657784 0.017212 -0.017878 525674.000000 0 1 0
-1.294144 -22.528543 -0.603212 22.573745 1.513415 1.597521 0.020960 -0.008542 -192465.000000 0 1 0
0.217056 -22.479643 -0.430512 22.484813 -1.561141 1.589944 0.026201 -0.014316 -716087.000000 0 1 0
0.793356 -21.214343 -0.590412 21.237381 -1.533417 1.598600 0.010256 -0.018008 -864415.000000 0 1 0
1.986556 -21.192643 0.162888 21.286171 -1.477331 1.563144 0.010532 -0.013391 -267972.000000 0 1 0
2.810856 -20.026143 -0.402712 20.226456 -1.431348 1.590708 0.014180 -0.018987 -115311.000000 0 1 0
3.507556 -20.372243 -1.559412 20.730726 -1.400295 1.646090 0.014952 -0.018059 -384812.000000 0 1 0
4.487656 -19.465543 -2.011512 20.077167 -1.344212 1.671154 0.022853 -0.017328 -60155.300000 0 1 0
5.311456 -19.930843 -3.236812 20.878866 -1.310355 1.726452 0.032256 -0.014227 -983061.000000 0 1 0
6.218956 -20.910243 -2.784912 21.992486 -1.281716 1.697767 0.035538 -0.019655 -426940.000000 0 1 0
6.946956 -21.460243 -3.862612 22.884974 -1.257729 1.740392 0.038143 -0.019451 450301.000000 0 1 0
8.236256 -20.744843 -4.335112 22.737142 -1.192856 1.762633 0.054351 -0.021587 -254024.000000 0 1 0
7.959656 -19.811643 -5.383812 22.019146 -1.188768 1.817806 0.046520 -0.012923 -661856.000000 0 1 0
9.070456 -19.081243 -5.766312 21.900168 -1.127054 1.837238 0.055380 -0.024556 -1112620.000000 0 1 0
8.874456 -17.973943 -6.843812 21.181510 -1.112169 1.899803 0.044130 -0.018369 278723.000000 0 1 0
9.947656 -17.756943 -7.790712 21.793579 -1.060146 1.936362 0.053477 -0.013125 1000570.000000 0 1 0
9.636856 -16.548943 -8.497112 20.950834 -1.043475 1.988403 0.048743 -0.013112 -469.617000 0 1 0
10.260356 -16.405743 -9.849912 21.712763 -1.011900 2.041649 0.052184 -0.020479 -346181.000000 0 1 0
9.452756 -17.116943 -10.756312 22.316868 -1.066231 2.073711 0.054466 -0.024006 208783.000000 0 1 0
9.119856 -16.310043 -11.840012 22.121826 -1.060951 2.135563 0.045172 -0.028431 -185608.000000 0 1 0
8.647356 -17.119243 -13.038912 23.191776 -1.103057 2.167866 0.055442 -0.025342 36513.200000 0 1 0
7.354256 -17.654743 -12.839812 23.035534 -1.176096 2.162037 0.050211 -0.024649 185702.000000 0 1 0
6.940056 -18.459343 -13.922112 24.139945 -1.211180 2.185511 0.054533 -0.018864 -854977.000000 0 1 0
5.584656 -19.059743 -13.678012 24.115352 -1.285767 2.173888 0.051924 -0.017192 -787090.000000 0 1 0
5.708556 -20.191943 -12.840712 24.600530 -1.295272 2.119954 0.060845 -0.026141 -67463.400000 0 1 0
4.460656 -20.832743 -12.770012 24.838958 -1.359864 2.110769 0.077563 -0.027007 -260652.000000 0 1 0
4.530956 -22.286443 -12.308012 25.859278 -1.370224 2.066853 0.069815 -0.017090 -211386.000000 0 0 1
5.147956 -23.022243 -13.356912 27.109634 -1.350807 2.085986 0.082275 -0.027094 -69090.200000 0 0 1
5.007956 -24.409543 -13.287112 28.239206 -1.368440 2.060676 0.060740 -0.024964 465489.000000 0 0 1
3.663456 -25.052533 -13.781612 28.826779 -1.425595 2.069268 0.061942 -0.022654 45272.300000 0 0 1
2.560156 -24.561443 -13.067512 27.938840 -1.466937 2.057504 0.067504 -0.020580 146416.000000 0 0 1
1.282856 -24.789143 -13.678612 28.341697 -1.519092 2.074454 0.041896 -0.021580 851465.000000 0 0 1
0.663256 -26.114193 -13.134912 29.238962 -1.545403 2.036696 0.020808 -0.012334 -785274.000000 0 0 1
1.241056 -27.184933 -13.834512 30.527930 -1.525176 2.041121 0.032311 -0.005021 128508.000000 0 0 1
0.883456 -28.465003 -13.293312 31.428475 -1.539770 2.007517 0.024549 0.005224 1022060.000000 0 0 1
-0.580144 -28.963353 -13.631112 32.015928 1.550769 2.010598 0.019407 -0.005567 819252.000000 0 0 1
-1.652644 -28.322153 -13.030712 31.219786 1.512511 2.001364 0.011264 -0.011991 -169945.000000 0 0 1
-2.921544 -28.767543 -13.512412 31.916959 1.469586 2.007949 0.019042 -0.006277 112124.000000 0 0 1
-4.077744 -28.115243 -12.766912 31.146251 1.426764 1.993143 0.010220 -0.014008 -390965.000000 0 0 1
-4.323244 -28.404633 -11.396412 30.909413 1.419753 1.948410 0.018994 -0.017073 2700.060000 0 0 1
-4.929444 -29.652873 -11.142412 32.058473 1.406064 1.925770 0.010205 -0.017454 -547577.000000 0 0 1
-5.450544 -29.843223 -9.649012 31.834413 1.390148 1.878740 0.022405 -0.016568 -19037.700000 0 0 1
-6.737344 -29.342443 -9.362112 31.528082 1.345098 1.872288 0.031735 -0.011661 -189385.000000 0 0 1
-6.844444 -27.929523 -9.343312 30.235776 1.330471 1.884954 0.032526 -0.010972 -185741.000000 0 0 1
-8.276244 -27.550073 -8.842212 30.094642 1.278966 1.869010 0.040114 -0.007925 1958590.000000 0 0 1
-9.389044 -27.712093 -9.799112 30.856715 1.244128 1.893960 0.046303 -0.010611 1142890.000000 0 0 1
-9.817444 -29.003313 -10.075212 32.234830 1.244408 1.888680 0.053277 -0.019722 14040.300000 0 0 1
-11.089444 -29.142303 -10.977512 33.056851 1.207189 1.909304 0.050160 -0.016557 53689.000000 0 0 1
-10.787144 -28.677273 -12.261112 33.001263 1.211012 1.951458 0.061695 -0.020629 257984.000000 0 0 1
-11.613244 -29.292393 -13.237512 34.178114 1.193346 1.968508 0.066332 -0.022349 -43091.000000 0 0 1
-11.827444 -28.433093 -14.558612 34.062918 1.176595 2.012415 0.071130 -0.024588 -23908.600000 0 0 1
-12.872944 -27.469573 -14.626212 33.678127 1.132562 2.020051 0.059647 -0.034370 88724.200000 0 0 1
-12.720344 -26.346253 -13.809312 32.351651 1.120992 2.011803 0.070666 -0.021301 -135763.000000 0 0 1
-13.655544 -25.136993 -14.029112 31.861549 1.073154 2.026746 0.092281 -0.019247 -119323.000000 0 0 1
-13.293844 -24.304743 -15.105012 31.553260 1.070286 2.069987 0.079435 -0.016581 -173405.000000 0 0 1
-14.397044 -23.580243 -15.550312 31.703548 1.022652 2.083450 0.086283 -0.015801 -532180.000000 0 0 1
-14.085544 -22.820643 -16.846212 31.669846 1.017805 2.131677 0.085918 -0.014853 -109804.000000 0 0 1
-13.651544 -21.501343 -16.601712 30.402126 1.005098 2.148463 0.074102 -0.009692 302026.000000 0 0 1
-13.579544 -20.837843 -17.840012 30.608589 0.993243 2.193020 0.067580 -0.004565 -280636.000000 0 0 1
-13.578044 -19.261743 -17.705212 29.476305 0.956774 2.215122 0.056420 -0.004160 999194.000000 0 0 1
-12.273744 -18.672943 -17.469812 28.364025 0.989306 2.234342 0.062304 0.000301 1001420.000000 0 0 1
-12.333544 -17.266243 -17.661512 27.607399 0.950527 2.264954 0.055459 0.005344 253596.000000 0 0 1
-11.014744 -16.487243 -17.975312 26.763139 0.981818 2.307222 0.064592 -0.001816 445824.000000 0 0 1
-10.302544 -16.261643 -16.739912 25.510941 1.006073 2.286549 0.058707 0.006709 -20759.600000 0 0 1
-9.083044 -15.613743 -17.027312 24.823779 1.043916 2.326674 0.046128 0.003238 -202875.000000 0 1 0
-8.451444 -14.970543 -15.757512 23.320447 1.056860 2.312704 0.033149 0.004369 56007.100000 0 1 0
-8.073144 -15.805743 -14.690112 23.039023 1.098568 2.262199 0.048569 0.002140 76865.000000 0 1 0
-6.920944 -16.627443 -14.848912 23.342269 1.176372 2.260279 0.044626 -0.000829 -154131.000000 0 1 0
-6.523844 -17.396343 -13.539112 22.989146 1.212015 2.200537 0.038729 -0.007172 -536331.000000 0 1 0
-5.990344 -16.568443 -12.503212 21.603885 1.223868 2.187989 0.035051 -0.010699 338324.000000 0 1 0
-5.529744 -17.336543 -11.382712 21.463922 1.262033 2.129772 0.021156 -0.011858 -29479.500000 0 1 0
-4.449344 -18.453343 -11.513812 22.201135 1.334199 2.116025 0.023425 -0.010706 503191.000000 0 1 0
-3.124044 -17.927743 -11.735512 21.653773 1.398271 2.143566 0.022114 -0.005714 470987.000000 0 1 0
-2.217444 -19.019543 -11.797312 22.490813 1.454733 2.122970 0.005687 -0.002294 490060.000000 0 1 0
-0.780444 -18.655243 -12.241012 22.326432 1.528986 2.151096 0.017415 0.002941 -818318.000000 0 1 0
-0.796344 -18.138143 -13.561712 22.661563 1.526920 2.212356 0.026286 -0.011345 864476.000000 0 1 0
0.505656 -17.734743 -14.058512 22.636664 -1.542292 2.240879 0.031553 -0.008910 1511350.000000 0 1 0
1.659356 -18.788443 -14.113012 23.557083 -1.482707 2.213171 0.030366 -0.015011 -549104.000000 0 1 0
1.629056 -19.802743 -15.105812 24.959728 -1.488717 2.220823 0.044363 -0.011322 -13628.000000 0 1 0
0.993556 -20.974243 -14.668512 25.613888 -1.523461 2.180565 0.039660 -0.011483 -785955.000000 0 0 1
1.129156 -22.013143 -15.813112 27.127624 -1.519547 2.193109 0.049023 -0.017969 581685.000000 0 0 1
2.383456 -22.675843 -16.010512 27.860568 -1.466071 2.182992 0.076852 -0.023949 365373.000000 0 0 1
3.430156 -21.863743 -16.441012 27.569841 -1.415177 2.209731 0.077482 -0.034946 -361023.000000 0 0 1
4.748756 -22.559843 -16.904812 28.587932 -1.363329 2.203499 0.078858 -0.028651 474250.000000 0 0 1
4.765756 -23.150543 -18.208112 29.836143 -1.367773 2.227198 0.061502 -0.018826 -497338.000000 0 0 1
6.035756 -23.697543 -18.329812 30.561183 -1.321399 2.214015 0.066889 -0.019493 -560807.000000 0 0 1
6.565056 -23.554043 -19.768812 31.443582 -1.298972 2.250686 0.064079 -0.012387 -204003.000000 0 0 1
6.837856 -22.213443 -20.070212 30.708415 -1.272176 2.283093 0.069692 -0.026153 -78435.900000 0 0 1
7.177556 -22.070643 -21.426712 31.586937 -1.256376 2.316299 0.049688 -0.019599 -118730.000000 0 0 1
7.342456 -20.617343 -21.843312 30.921138 -1.228671 2.355224 0.047584 -0.021524 94785.100000 0 0 1
6.129156 -19.983243 -22.201812 30.492901 -1.273191 2.386339 0.057903 -0.022421 -109724.000000 0 0 1
6.307256 -18.599343 -22.440012 29.820650 -1.243854 2.422645 0.060025 -0.020199 480927.000000 0 0 1
5.038156 -17.709943 -22.714912 29.240252 -1.293637 2.460424 0.057160 -0.015408 -1052170.000000 0 0 1
4.417456 -18.073343 -23.980512 30.351682 -1.331078 2.481750 0.053523 -0.020539 475252.000000 0 0 1
3.201456 -17.395443 -24.249012 30.014419 -1.388793 2.511397 0.060466 -0.017548 228345.000000 0 0 1
2.075856 -17.455243 -23.210012 29.115277 -1.452428 2.493400 0.054973 -0.002670 -1530080.000000 0 0 1
2.273256 -16.849943 -21.925312 27.745406 -1.436694 2.481984 0.071435 -0.005721 -128717.000000 0 0 1
1.252656 -15.866943 -21.762712 26.961911 -1.492012 2.510130 0.068129 -0.011050 545669.000000 0 0 1
1.511256 -15.241543 -20.415612 25.522260 -1.471966 2.497948 0.073822 -0.016393 540515.000000 0 0 1
2.713956 -14.468743 -20.426112 25.178088 -1.385377 2.517109 0.074291 -0.015245 255815.000000 0 0 1
2.697756 -13.534343 -19.359312 23.774762 -1.374048 2.522284 0.068984 -0.018090 139373.000000 0 1 0
3.787256 -12.446843 -19.483612 23.428153 -1.275423 2.552837 0.067891 -0.015028 631149.000000 0 1 0
5.094456 -12.966643 -19.168612 23.696476 -1.196435 2.513113 0.054710 -0.017249 1402340.000000 0 1 0
6.220756 -12.120843 -19.527612 23.810508 -1.096622 2.532427 0.046478 -0.005821 929262.000000 0 1 0
6.505556 -10.907743 -18.611912 22.532296 -1.033016 2.542789 0.037462 -0.001616 -638186.000000 0 1 0
5.427156 -9.985343 -18.495412 21.708094 -1.072948 2.590600 0.028284 0.006723 156661.000000 0 1 0
5.630856 -8.871143 -19.337112 22.007444 -1.005225 2.643849 0.041314 -0.003239 -9871.160000 0 1 0
5.012056 -8.962743 -20.768112 23.168210 -1.060910 2.682389 0.057718 -0.015630 627147.000000 0 1 0
3.585156 -9.101343 -20.654212 22.853539 -1.195547 2.699280 0.054337 -0.017932 441698.000000 0 1 0
3.080656 -9.291643 -21.939412 24.024214 -1.250650 2.721916 0.054898 -0.020101 -190004.000000 0 1 0
1.571756 -9.013743 -21.988312 23.816042 -1.398159 2.747268 0.056921 -0.019579 -266726.000000 0 1 0
1.263556 -7.647143 -22.030312 23.354015 -1.407043 2.803292 0.051272 -0.015672 -960625.000000 0 1 0
-0.116744 -7.529243 -21.901612 23.159960 1.555292 2.810437 0.044276 -0.019392 -790191.000000 0 1 0
-0.692844 -6.526143 -22.845412 23.769380 1.465028 2.861855 0.052937 -0.019320 -315645.000000 0 1 0
-0.659544 -7.061943 -24.144812 25.165015 1.477672 2.855874 0.053335 -0.017750 -253871.000000 0 0 1
-1.221844 -6.189743 -25.115182 25.895524 1.375904 2.895475 0.056357 -0.022485 310349.000000 0 0 1
-0.415144 -4.875243 -25.403512 25.870422 1.485848 2.951316 0.054707 -0.023659 -17421.200000 0 0 1
-0.777144 -4.336343 -26.670312 27.031710 1.393462 2.977890 0.032947 -0.017954 -205311.000000 0 0 1
-0.291944 -3.074943 -27.062222 27.237921 1.476137 3.027949 0.026217 -0.016020 -638085.000000 0 0 1
-0.746344 -1.937043 -26.125122 26.207464 1.203026 3.062301 0.036150 -0.025105 473058.000000 0 0 1
-2.125244 -1.590543 -26.116502 26.251060 0.642480 3.040299 0.029161 -0.023725 568715.000000 0 0 1
-2.669444 -0.956643 -27.301232 27.448103 0.344110 3.038097 0.033892 -0.017839 937761.000000 0 0 1
-4.242944 -1.104443 -27.353352 27.702495 0.254650 2.982660 0.041520 -0.022479 1250060.000000 0 0 1
-4.938044 -0.113643 -26.567592 27.022844 0.023010 2.957775 0.037957 -0.023237 136503.000000 0 0 1
-6.323244 -0.398343 -26.694412 27.435993 0.062914 2.908560 0.052470 -0.030961 -296750.000000 0 0 1
-7.222244 0.615857 -25.961992 26.954871 -0.085066 2.869331 0.046818 -0.019989 -1023980.000000 0 0 1
-7.405144 1.890257 -26.624512 27.699708 -0.249926 2.862058 0.046418 -0.021707 1143160.000000 0 0 1
-8.453544 1.831357 -27.645202 28.966764 -0.213341 2.838361 0.074720 -0.031954 496740.000000 0 0 1
-9.892544 1.587657 -27.171482 28.959843 -0.159133 2.788324 0.082481 -0.030843 -2209800.000000 0 0 1
-10.865444 2.126757 -27.913172 30.028755 -0.193292 2.763982 0.086079 -0.042974 -675292.000000 0 0 1
-12.140144 1.700557 -27.461012 30.072947 -0.139172 2.721734 0.070486 -0.027754 -108418.000000 0 0 1
-13.257844 2.113957 -28.414272 31.426264 -0.158118 2.700198 0.055933 -0.025341 -88648.800000 0 0 1
-14.528044 1.535957 -28.086992 31.659159 -0.105332 2.661968 0.039971 -0.020255 890786.000000 0 0 1
-15.635344 2.037857 -28.809792 32.842365 -0.129606 2.640825 0.027415 -0.015156 486278.000000 0 0 1
-16.440944 3.217257 -28.164822 32.770605 -0.193244 2.604997 0.011962 -0.004582 -170598.000000 0 0 1
-15.711344 4.414757 -28.154792 32.542721 -0.273928 2.616274 0.026118 -0.011060 121302.000000 0 0 1
-15.304044 5.067757 -29.348162 33.484482 -0.319774 2.639278 0.016906 -0.004995 -468551.000000 0 0 1
-16.416144 5.702457 -30.214382 34.855654 -0.334329 2.619631 0.000954 0.006982 -8927.680000 0 0 1
-17.054944 6.797157 -29.488962 34.737175 -0.379251 2.584728 -0.000271 0.011761 164881.000000 0 0 1
-17.818744 7.538357 -30.355602 35.997180 -0.400224 2.574148 -0.001286 0.015885 -377623.000000 0 0 1
-18.824444 8.532757 -29.698602 36.182517 -0.425579 2.533606 -0.004770 0.009922 -320996.000000 0 0 1
-18.185544 9.618157 -29.116022 35.650605 -0.486492 2.526474 -0.002008 0.005625 184172.000000 0 0 1
-19.023844 10.485057 -28.368442 35.729701 -0.503728 2.488114 0.022838 0.005712 -179888.000000 0 0 1
-8.771444 24.981857 31.017640 40.781434 -1.233131 0.706587 -0.009123 0.001502 -427044.000000 0 0 1
-9.558544 26.170057 31.088680 41.746181 -1.220603 0.730700 0.000622 0.001321 236970.000000 0 0 1
-9.160344 26.968957 32.191260 42.982715 -1.243360 0.724343 0.015741 -0.008275 686108.000000 0 0 1
-7.771444 27.665457 31.962300 42.980943 -1.296946 0.732300 0.010114 -0.013024 258341.000000 0 0 1
-7.742044 28.486957 30.854700 42.701973 -1.305431 0.763299 0.029592 0.004052 -800114.000000 0 0 1
-6.469744 28.773557 30.397250 42.352898 -1.349624 0.770283 0.017167 0.001123 -881527.000000 0 0 1
-6.235244 29.843857 29.346400 42.317198 -1.364830 0.804479 0.042525 -0.010746 -475277.000000 0 0 1
-6.557844 31.115357 29.841870 43.608576 -1.363077 0.817137 0.044932 -0.007076 121034.000000 0 0 1
-6.184744 32.179957 29.021050 43.772389 -1.380919 0.845979 0.043409 -0.000616 -106462.000000 0 0 1
-6.485744 33.513157 29.750000 45.279786 -1.379631 0.853929 0.044053 -0.009736 197170.000000 0 0 1
-5.473944 33.692957 30.772220 45.957686 -1.409738 0.837157 0.047874 -0.016622 545566.000000 0 0 1
-5.836944 -33.912763 31.774830 46.837861 1.400350 0.825213 0.052038 -0.009319 1086540.000000 0 0 1
-7.049344 34.180357 32.708204 47.831126 -1.367408 0.817802 0.045587 -0.013594 941043.000000 0 0 1
-6.773344 33.265757 33.742100 47.864581 -1.369929 0.788445 0.056742 -0.018647 -21651.300000 0 0 1
-6.557144 31.966157 33.252867 46.589532 -1.368475 0.775971 0.051839 -0.015371 -910323.000000 0 0 1
-6.548644 30.936057 -34.083532 46.493133 -1.362193 2.393647 0.050167 -0.019172 20821.100000 0 0 1
-5.386744 30.894057 -33.255572 45.709876 -1.398170 2.385520 0.041644 -0.018180 246163.000000 0 0 1
-5.656844 30.317257 -31.969602 44.420619 -1.386329 2.374169 0.052385 -0.023991 -737104.000000 0 0 1
-4.387444 29.998057 -31.171452 43.483243 -1.425568 2.370086 0.051584 -0.024802 130579.000000 0 0 1
-3.545744 28.952057 -31.567332 42.980115 -1.448934 2.395672 0.043406 -0.016098 202639.000000 0 0 1
-2.719744 29.243357 -32.687052 43.943307 -1.478059 2.409603 0.041368 -0.022677 -817156.000000 0 0 1
-2.282844 27.944657 -33.418642 43.622481 -1.489286 2.443528 0.035785 -0.018130 -96818.800000 0 0 1
-1.121844 27.406957 -32.769582 42.734591 -1.529886 2.444663 0.053301 -0.018304 446164.000000 0 0 1
-0.773144 26.035957 -33.091572 42.113191 -1.541110 2.474747 0.077336 -0.020855 150671.000000 0 0 1
-0.400644 25.686457 33.901172 42.535209 -1.555200 0.648461 0.057463 -0.009737 177088.000000 0 0 1
-1.527244 25.458057 33.028907 41.729532 -1.510878 0.657538 0.046615 -0.003219 512723.000000 0 0 1
-1.192544 25.354557 31.649880 40.570810 -1.523796 0.675947 0.070010 0.000520 -345276.000000 0 0 1
-0.852844 26.665057 30.907310 40.829088 -1.538824 0.712098 0.047475 -0.003218 -432721.000000 0 0 1
-1.919044 27.536157 30.730820 41.307456 -1.501217 0.731829 0.018212 -0.009169 -407359.000000 0 0 1
-1.510444 28.705157 30.063930 41.594559 -1.518226 0.762972 0.020354 -0.009525 454606.000000 0 0 1
-2.540944 29.884857 30.240170 42.591419 -1.485976 0.781289 0.024245 -0.004976 165276.000000 0 0 1
-2.541044 30.275157 31.623570 43.853075 -1.487061 0.765371 0.037479 -0.015312 146320.000000 0 0 1
-3.452944 31.295857 31.958240 44.862931 -1.460908 0.777951 0.035442 -0.008930 -492645.000000 0 0 1
-2.867744 32.074857 33.179268 46.237260 -1.481626 0.770464 0.043269 -0.009735 -488003.000000 0 0 1
-1.594144 32.591157 32.957173 46.377797 -1.521922 0.780412 0.071774 -0.018285 -825083.000000 0 0 1
-0.986544 32.805557 34.208941 47.407061 -1.540733 0.764686 0.052575 -0.015273 16006.900000 0 0 1
0.466656 33.354557 34.065294 47.677966 1.556806 0.774906 0.058659 -0.016945 366554.000000 0 0 1
0.520156 -34.037763 33.346656 47.653325 -1.555516 0.795712 0.077955 -0.017681 874388.000000 0 0 1
1.852856 -33.527463 33.507530 47.437100 -1.515589 0.786458 0.060707 -0.008663 656560.000000 0 0 1
2.232856 -32.083363 33.106006 46.155558 -1.501313 0.770920 0.070191 -0.015341 229389.000000 0 0 1
1.497156 -31.126063 33.898814 46.045661 -1.522734 0.743358 0.070502 -0.010194 786410.000000 0 0 1
1.928156 -29.811763 33.575707 44.942042 -1.506209 0.727124 0.057862 -0.005423 -69237.300000 0 0 1
1.300056 -28.842963 -33.872772 44.508104 -1.525753 2.435722 0.053622 -0.003517 268023.000000 0 0 1
-0.080744 -28.573663 -34.057622 44.456522 1.567971 2.443529 0.044549 -0.004707 351528.000000 0 0 1
-0.528444 -27.685363 -33.051192 43.117744 1.551711 2.444222 0.051252 -0.004304 -487347.000000 0 0 1
-2.036544 -27.590963 -32.829632 42.932429 1.497118 2.441343 0.055984 -0.007764 -445388.000000 0 0 1
-2.412044 -27.304463 -31.513512 41.766650 1.482686 2.425709 0.048554 -0.012207 360629.000000 0 0 1
-3.599444 -26.520763 -31.456372 41.301455 1.435899 2.436619 0.065212 -0.020137 150940.000000 0 0 1
-3.897444 -26.001863 -30.025212 39.909902 1.422013 2.422380 0.071373 -0.025529 -140242.000000 0 0 1
-4.270844 -27.035163 -29.125582 39.967983 1.414117 2.387251 0.071582 -0.025994 88468.000000 0 0 1
-4.542544 -26.676063 -27.771022 38.774691 1.402129 2.369160 0.070729 -0.022942 46450.100000 0 0 1
-3.336344 -26.144763 -26.961392 37.704064 1.443872 2.367534 0.065680 -0.019311 49760.200000 0 0 1
-2.845544 -24.850863 -27.313292 37.036177 1.456788 2.400122 0.067077 -0.013880 196303.000000 0 0 1
-1.758544 -24.500963 -26.482522 36.120820 1.499145 2.393761 0.061678 -0.007058 -620975.000000 0 0 1
-0.915244 -23.263163 -26.946292 35.610603 1.531474 2.429036 0.061659 -0.007594 789587.000000 0 0 1
-0.029644 -23.503963 -28.053182 36.598062 1.569535 2.444203 0.033078 -0.015950 1719180.000000 0 0 1
1.160456 -24.338563 -27.854902 37.008213 -1.523153 2.422901 0.035773 -0.019653 1259160.000000 0 0 1
1.938356 -24.983363 -29.047632 38.362619 -1.493366 2.429790 0.028058 -0.024408 113748.000000 0 0 1
2.559256 -23.967263 -29.764022 38.299824 -1.464418 2.460892 0.037022 -0.014436 -85003.300000 0 0 1
3.437756 -24.432063 -30.759252 39.431909 -1.431007 2.465558 0.044426 -0.018019 -1373440.000000 0 0 1
4.219556 -23.282663 -31.400362 39.317550 -1.391511 2.495820 0.056570 -0.023078 -402417.000000 0 0 1
5.332656 -22.895863 -30.577962 38.570319 -1.341967 2.486161 0.058875 -0.028136 953927.000000 0 0 1
6.448856 -23.775863 -30.473132 39.185344 -1.305933 2.461742 0.050348 -0.019406 -393563.000000 0 0 1
7.349056 -23.842963 -31.723162 40.359070 -1.271809 2.475146 0.059765 -0.018077 -635092.000000 0 0 1
6.777956 -24.725463 -32.723902 41.570939 -1.303240 2.477023 0.048507 -0.014984 92919.300000 0 0 1
7.141856 -24.437463 -34.046372 42.512953 -1.286464 2.499505 0.063273 -0.022592 -364177.000000 0 0 1
6.481156 -23.170363 33.795878 41.485329 -1.298050 0.618677 0.066878 -0.025358 -938186.000000 0 0 1
5.108856 -23.340463 33.925741 41.494982 -1.355311 0.613589 0.070564 -0.025175 -912523.000000 0 0 1
4.469956 -22.232663 33.310976 40.297555 -1.372388 0.597712 0.084445 -0.034544 1121350.000000 0 0 1
2.940856 -22.069363 33.691288 40.383268 -1.438322 0.583956 0.065547 -0.025530 1551410.000000 0 0 1
1.997856 -22.985663 33.130028 40.372403 -1.484097 0.608317 0.055806 -0.025622 278351.000000 0 0 1
1.669156 -24.090563 33.939001 41.653297 -1.501620 0.618417 0.053947 -0.019023 -657059.000000 0 0 1
0.323856 -24.721763 33.644300 41.751759 -1.557697 0.633742 0.056151 -0.012306 -552621.000000 0 0 1
0.206056 -25.173963 32.289500 40.943653 -1.562611 0.662214 0.064682 -0.018695 -620654.000000 0 0 1
-1.098844 -25.553563 32.013820 40.976539 1.527821 0.674095 0.059265 -0.019652 -808699.000000 0 0 1
-1.217744 -26.647363 30.956460 40.864010 1.525130 0.711247 0.056046 -0.027328 -418020.000000 0 0 1
-2.499944 -26.996163 30.513000 40.817713 1.478456 0.726441 0.054946 -0.029255 -283207.000000 0 0 1
-2.542544 -28.021863 29.618500 40.852722 1.480310 0.759752 0.056613 -0.033671 -1044890.000000 0 0 1
-3.866444 -28.168163 28.931370 40.563765 1.434386 0.776698 0.056542 -0.022483 -809438.000000 0 0 1
-4.882344 -28.703763 29.779500 41.648072 1.402315 0.774133 0.051653 -0.019258 -190928.000000 0 0 1
-6.015344 -28.966463 28.982780 41.415479 1.366041 0.795671 0.028768 -0.015512 -426933.000000 0 0 1
-7.150844 -29.485963 29.908290 42.603549 1.332873 0.792575 0.025714 -0.011900 -632084.000000 0 0 1
-8.153644 -30.076463 29.111060 42.644219 1.306062 0.819414 0.048307 -0.012671 664349.000000 0 0 1
-9.413044 -30.258063 29.790220 43.492678 1.269195 0.816264 0.049179 -0.011371 729948.000000 0 0 1
-9.445944 -31.412963 30.844410 45.026412 1.278696 0.816152 0.042249 -0.001658 -709929.000000 0 0 1
-9.260444 -32.767163 30.418700 45.658955 1.295366 0.841674 0.055199 -0.005725 -44952.500000 0 0 1
-10.284144 -33.290563 29.626550 45.735738 1.271176 0.866134 0.054151 -0.002316 -288461.000000 0 0 1
-9.958944 33.815457 29.215860 45.784628 -1.284385 0.878749 0.059468 -0.003985 -567149.000000 0 0 1
-10.063044 32.888057 30.351300 45.870367 -1.273864 0.847745 0.066353 -0.004853 261949.000000 0 0 1
-9.816944 31.551057 29.924020 44.579015 -1.269147 0.834892 0.060251 -0.006145 -532374.000000 0 0 1
-10.464544 30.503857 30.848250 44.627418 -1.240321 0.807593 0.055731 -0.003464 -391226.000000 0 0 1
-11.861044 30.559557 30.724990 44.928787 -1.200565 0.817757 0.055472 0.004768 -358339.000000 0 0 1
-12.564944 29.428757 31.203010 44.694042 -1.167266 0.797990 0.048753 0.001313 130752.000000 0 0 1
-12.747644 29.209757 32.716930 45.673951 -1.159295 0.772290 0.055211 -0.007542 -937382.000000 0 0 1
-13.652344 30.066757 33.296279 46.893907 -1.144565 0.781250 0.054943 -0.004099 -245597.000000 0 0 1
-13.857444 29.653957 -33.808212 47.057210 -1.133645 2.372366 0.058039 -0.007953 -121897.000000 0 0 1
-15.094344 30.291157 -33.152882 47.376228 -1.108503 2.345884 0.051995 -0.010236 -143988.000000 0 0 1
-15.202544 29.768557 -31.840492 46.163852 -1.098632 2.331909 0.037830 -0.009866 223554.000000 0 0 1
-16.345444 30.224157 -31.130342 46.365627 -1.075038 2.306906 0.050856 -0.011856 320985.000000 0 0 1
-16.328944 29.628257 -29.712572 45.025603 -1.067088 2.291487 0.065792 -0.020820 87517.600000 0 0 1
-16.453344 28.222857 -29.678492 44.136776 -1.042986 2.308271 0.046307 -0.018946 94244.200000 0 0 1
-16.426244 27.867157 -28.315572 42.990365 -1.038172 2.289819 0.039994 -0.019603 -217800.000000 0 0 1
-16.954944 26.439757 -28.001732 42.078829 -1.000585 2.298905 0.017546 -0.021630 -459445.000000 0 0 1
-18.341344 26.423557 -28.153172 42.745881 -0.964022 2.289776 0.021408 -0.017009 -791777.000000 0 0 1
-18.741644 25.071957 -28.050692 42.032053 -0.928888 2.301460 0.006606 -0.018168 1495430.000000 0 0 1
-20.286944 24.710757 -28.201122 42.631970 -0.883395 2.293616 0.015634 -0.012379 1228600.000000 0 0 1
-21.170744 25.174157 -27.221812 42.696201 -0.871567 2.262136 0.016995 -0.018624 385865.000000 0 0 1
-22.482044 24.673057 -27.524182 43.264103 -0.831829 2.260346 0.034188 -0.022905 920686.000000 0 0 1
-23.540844 24.857257 -26.408062 43.237024 -0.812591 2.227834 0.063098 -0.032683 -50925.700000 0 0 1
-24.016544 26.199157 -26.219142 44.165977 -0.828836 2.206384 0.038013 -0.012473 368535.000000 0 0 1
-25.255624 26.258857 -25.508532 44.475378 -0.804870 2.181620 0.042467 -0.010912 478205.000000 0 0 1
-25.213394 25.869357 -23.993312 43.366091 -0.798239 2.157085 0.032649 -0.006756 -820796.000000 0 0 1
-25.022544 24.521557 -23.779812 42.342814 -0.775287 2.167117 0.030491 -0.010435 77792.900000 0 0 1
-26.209774 23.769957 -23.521512 42.487935 -0.736621 2.157483 0.032440 -0.009041 195849.000000 0 0 1
-26.860194 23.886157 -22.091512 42.190679 -0.726859 2.121880 0.020121 -0.007140 89232.600000 0 0 1
-26.127074 23.392657 -20.963312 40.857078 -0.730235 2.109576 0.003912 -0.002952 620694.000000 0 0 1
-25.128904 24.287057 -20.436212 40.484092 -0.768364 2.099942 0.009420 0.002287 367713.000000 0 0 1
-24.322244 23.816657 -19.183912 39.074636 -0.774896 2.083983 0.013641 -0.000667 -214043.000000 0 0 1
-24.924244 23.794757 -17.889012 38.825573 -0.762219 2.049640 0.005445 -0.004382 5104.130000 0 0 1
-23.991044 23.513457 -16.849212 37.581229 -0.775345 2.035705 0.013924 -0.011363 -45127.100000 0 0 1
-24.591644 23.588257 -15.422212 37.403200 -0.764575 1.995799 0.012755 -0.008374 -477190.000000 0 0 1
-24.927944 24.931957 -15.140412 38.369739 -0.785479 1.976421 0.023224 -0.015437 -35231.900000 0 0 1
-25.353094 25.048857 -13.805012 38.220452 -0.779362 1.940345 0.000884 -0.014510 140053.000000 0 0 1
-25.622594 26.535557 -13.317212 39.217358 -0.802900 1.917261 0.002946 -0.013704 -983638.000000 0 0 1
-24.492444 27.265557 -13.108112 38.924452 -0.838925 1.914268 0.030812 -0.020278 -1077250.000000 0 0 1
-24.542844 28.180357 -12.060112 39.267416 -0.854282 1.882970 0.035977 -0.013731 1884260.000000 0 0 1
-23.006144 28.524857 -11.707412 38.470945 -0.892087 1.880019 0.059501 -0.022187 2190230.000000 0 0 1
-22.206544 27.396057 -11.260212 37.019817 -0.889641 1.879860 0.063732 -0.021847 801356.000000 0 0 1
-20.987144 27.933657 -10.733312 36.550696 -0.926450 1.868845 0.068716 -0.018561 252378.000000 0 0 1
-20.157044 26.912557 -9.936912 35.061864 -0.927946 1.858145 0.081963 -0.017098 -217599.000000 0 0 1
-19.576744 26.002957 -10.838812 34.305721 -0.925463 1.892252 0.073794 -0.016855 -153634.000000 0 0 1
-18.785544 24.994057 -10.246012 32.902588 -0.926272 1.887467 0.077377 -0.012107 -188771.000000 0 0 1
-18.247544 24.129857 -11.439612 32.343277 -0.923325 1.932313 0.072392 -0.013478 -289992.000000 0 0 1
-17.794644 22.909057 -10.905212 30.990287 -0.910393 1.930387 0.052169 -0.009044 155330.000000 0 0 1
-17.305044 22.047157 -11.941712 30.465491 -0.905324 1.973574 0.072545 -0.002939 367831.000000 0 0 1
-16.784944 20.653457 -11.453312 28.973746 -0.888363 1.977190 0.055623 0.000783 66060.900000 0 0 1
-17.874844 19.844057 -11.099212 28.922122 -0.837558 1.964663 0.045766 -0.001351 107656.000000 0 0 1
-17.419944 18.523457 -10.946912 27.684071 -0.816090 1.977324 0.065102 -0.014542 -565769.000000 0 0 1
-18.596144 17.542957 -10.705112 27.715903 -0.756264 1.967353 0.053516 -0.003931 300144.000000 0 0 1
-19.220844 17.103057 -11.912712 28.352567 -0.727161 2.004422 0.029811 -0.000262 259064.000000 0 0 1
-20.052544 18.072657 -12.561012 29.774224 -0.733514 2.006309 0.024865 0.004477 -391431.000000 0 0 1
-20.768644 17.381757 -13.831312 30.409985 -0.696853 2.042975 0.028121 0.000810 677309.000000 0 0 1
-19.900444 16.992357 -14.900212 30.112857 -0.706735 2.088415 0.046265 -0.003677 316802.000000 0 0 1
-20.710744 16.789157 -16.024412 31.106148 -0.681201 2.111982 0.031165 0.005300 245444.000000 0 0 1
-19.862944 16.378057 -17.248212 30.988354 -0.689534 2.161088 0.051473 -0.003497 -119851.000000 0 0 1
-19.213044 17.512257 -17.787112 31.499231 -0.739120 2.170847 0.033906 -0.007122 -171766.000000 0 0 1
-18.259044 17.077057 -18.700812 31.220809 -0.751961 2.213030 0.033790 -0.005965 -844909.000000 0 0 1
-17.361144 18.168457 -19.264612 31.664292 -0.808117 2.224842 0.023173 0.000848 -371668.000000 0 0 1
-16.627044 18.915957 -18.314212 31.139723 -0.849708 2.199541 0.039301 -0.004771 329269.000000 0 0 1
-15.971244 20.029557 -18.904212 31.837603 -0.897653 2.206532 0.050803 -0.009359 -71249.800000 0 0 1
32.967028 31.587857 1.730788 45.690407 0.764037 1.532906 0.084344 -0.021277 -588294.000000 0 0 1
34.238238 31.288057 1.233588 46.397427 0.740406 1.544206 0.080559 -0.019651 -341081.000000 0 0 1
34.445398 31.588357 -0.146912 46.736830 0.742159 1.573940 0.064100 -0.017278 -469416.000000 0 0 1
35.867968 31.261257 -0.580612 47.582711 0.716881 1.582999 0.041404 -0.009804 -386948.000000 0 0 1
-35.595107 32.110857 -0.015112 47.938700 -0.733982 1.571112 0.038615 -0.003838 -565370.000000 0 0 1
-34.409685 31.966257 -0.722812 46.972230 -0.748603 1.586185 0.047736 -0.004706 -500644.000000 0 0 1
-33.347334 33.022757 -0.316212 46.932367 -0.780508 1.577534 0.035958 -0.001671 46957.100000 0 0 1
-32.932914 32.976357 1.004988 46.615737 -0.786057 1.549236 0.016250 0.004047 -73062.000000 0 0 1
-32.337494 34.180957 1.436688 47.075635 -0.813105 1.540273 0.010418 0.003856 -40592.200000 0 0 1
-31.697694 34.142257 2.829688 46.673811 -0.822510 1.510132 0.014631 0.003382 -231377.000000 0 0 1
-31.283814 -33.273263 3.449388 45.800495 0.816205 1.495412 0.017898 0.003502 -111172.000000 0 0 1
-30.609954 -33.565763 4.638788 45.663422 0.831424 1.469034 0.029947 0.005248 -95203.300000 0 0 1
-30.237524 -32.297863 5.502988 44.584108 0.818333 1.447051 0.041292 -0.001767 317135.000000 0 0 1
-31.374514 -31.733663 6.134188 45.044575 0.791089 1.434191 0.054692 -0.009335 267576.000000 0 0 1
-31.780644 -32.433563 7.338988 45.997892 0.795566 1.410561 0.053868 -0.018465 -634165.000000 0 0 1
-32.892114 -31.779763 8.139488 46.455310 0.768200 1.394676 0.069298 -0.020296 584152.000000 0 0 1
-34.284326 -31.779163 7.850288 47.402081 0.747496 1.404419 0.064151 -0.019185 982833.000000 0 0 1
-34.994608 -32.983763 7.558888 48.679441 0.755826 1.414887 0.049114 -0.016649 981147.000000 0 0 1
35.886318 -32.883263 7.346988 49.225147 -0.741758 1.420984 0.058126 -0.012508 1136110.000000 0 0 1
35.083608 -32.791063 8.483088 48.765523 -0.751635 1.395950 0.058693 -0.008489 1413180.000000 0 0 1
33.670668 -32.719563 8.131088 47.648697 -0.771073 1.399310 0.051675 -0.000370 1372540.000000 0 0 1
32.796748 -32.471763 9.373888 47.094712 -0.780419 1.370415 0.070206 -0.015841 341875.000000 0 0 1
31.374108 -32.461463 9.253388 46.083690 -0.802430 1.368627 0.067619 -0.018849 755111.000000 0 0 1
30.638208 -32.410063 10.451788 45.807771 -0.813494 1.340602 0.067253 -0.015076 110652.000000 0 0 1
30.591548 -31.135463 11.283288 45.084060 -0.794210 1.317835 0.072260 -0.018465 -509423.000000 0 0 1
29.858838 -30.052363 10.777988 43.713382 -0.788628 1.321667 0.060863 -0.019750 -57117.200000 0 0 1
30.366098 -29.454063 9.584988 43.376420 -0.770153 1.347985 0.063903 -0.020680 -287401.000000 0 0 1
29.768438 -28.136963 9.173188 41.976136 -0.757231 1.350485 0.057522 -0.023308 -351954.000000 0 0 1
30.234448 -27.676363 7.964488 41.755671 -0.741254 1.378880 0.060267 -0.028458 -301378.000000 0 0 1
29.575118 -26.478663 7.649888 40.426823 -0.730213 1.380420 0.062773 -0.024584 134351.000000 0 0 1
29.875368 -25.928363 6.215088 40.043039 -0.714786 1.414956 0.056404 -0.016489 708132.000000 0 0 1
31.224758 -25.551763 5.937788 40.781558 -0.685811 1.424677 0.057030 -0.019147 74408.100000 0 0 1
31.327118 -24.840063 4.734988 40.259623 -0.670412 1.452912 0.057029 -0.017129 -248386.000000 0 0 1
32.723218 -24.329563 4.359688 41.009067 -0.639325 1.464285 0.063071 -0.022268 40084.500000 0 0 1
33.644688 -25.345963 4.049688 42.317643 -0.645637 1.474952 0.048176 -0.009175 -329424.000000 0 0 1
34.994028 -24.930763 3.987388 43.151179 -0.619019 1.478259 0.037049 -0.015474 -29188.000000 0 0 1
35.829488 -26.199163 3.996388 44.565901 -0.631372 1.481002 0.035995 -0.013116 -429407.000000 0 0 1
35.825078 -26.860563 5.259088 45.084189 -0.643354 1.453880 0.033787 -0.007583 -139085.000000 0 0 1
-36.115284 -28.182963 5.131488 46.096912 0.662651 1.459246 0.031542 -0.012325 -675943.000000 0 0 1
35.662528 -29.241663 5.987588 46.505290 -0.686791 1.441687 0.049196 -0.017137 1387600.000000 0 0 1
34.292448 -29.640763 5.760888 45.691736 -0.712768 1.444378 0.035415 -0.010015 1537700.000000 0 0 1
33.184328 -28.777163 5.974988 44.328605 -0.714390 1.435596 0.045842 -0.011139 646008.000000 0 0 1
31.803848 -29.386063 5.605188 43.662840 -0.745906 1.442067 0.039905 -0.010298 -284541.000000 0 0 1
31.637128 -29.507963 4.164788 43.462320 -0.750591 1.474824 0.028594 -0.009068 -52485.500000 0 0 1
30.336718 -29.144463 3.755488 42.235292 -0.765357 1.481760 0.037499 -0.004229 492863.000000 0 0 1
29.181968 -30.170763 4.047488 42.169235 -0.802056 1.474666 0.048798 -0.005434 36047.000000 0 0 1
29.211338 -31.369763 3.324888 42.993246 -0.821012 1.493384 0.053780 0.000575 -650659.000000 0 0 1
28.129448 -32.202263 3.617388 42.910804 -0.852803 1.486396 0.062328 -0.004435 -108410.000000 0 0 1
28.147988 -33.538363 2.748088 43.871210 -0.872560 1.508115 0.065963 -0.009362 39726.700000 0 0 1
28.146618 -33.303663 1.348988 43.625519 -0.869124 1.539869 0.067226 -0.014482 189043.000000 0 0 1
28.029018 34.072357 0.633888 44.124292 0.882407 1.556430 0.056112 -0.009525 -128959.000000 0 0 1
27.804218 -34.268563 -0.880812 44.138247 -0.889165 1.590753 0.044915 -0.004385 -113522.000000 0 0 1
29.006558 -33.976863 -1.549612 44.701331 -0.864149 1.605469 0.026165 -0.005261 38248.700000 0 0 1
28.705338 -33.943063 -2.934612 44.550420 -0.868809 1.636716 0.032471 -0.001176 296152.000000 0 0 1
29.852228 -33.346563 -3.786912 44.916473 -0.840633 1.655207 0.012740 0.003909 76402.300000 0 0 1
29.950468 -31.930363 -3.657712 43.931282 -0.817383 1.654153 0.006596 0.012394 -19351.000000 0 0 1
30.794878 -31.363563 -4.627512 44.197415 -0.794547 1.675690 -0.003505 0.014900 -413908.000000 0 0 1
31.013278 -29.833863 -4.699412 43.289344 -0.766017 1.679569 -0.011831 0.024841 -324073.000000 0 0 1
29.973328 -28.980663 -5.174612 42.012568 -0.768562 1.694278 -0.003120 0.007723 149831.000000 0 0 1
30.287248 -27.595463 -5.098512 41.289488 -0.738928 1.694594 0.004381 -0.000991 523457.000000 0 0 1
31.424128 -26.982463 -5.998112 41.851004 -0.709497 1.714612 0.014860 -0.009229 551233.000000 0 0 1
32.766178 -27.302263 -5.643412 43.021903 -0.694686 1.702351 -0.001532 0.008525 867007.000000 0 0 1
33.725768 -26.988063 -6.673412 43.707178 -0.674876 1.724080 0.009287 0.001953 523562.000000 0 0 1
33.798588 -28.030863 -7.823612 44.601376 -0.692383 1.747120 0.011889 -0.012604 848184.000000 0 0 1
32.558558 -28.028463 -8.629412 43.819188 -0.710767 1.769024 0.020964 -0.011093 1464610.000000 0 0 1
32.456028 -29.043963 -9.719012 44.625158 -0.729974 1.790348 0.017537 0.001781 151262.000000 0 0 1
32.251478 -30.518863 -9.211312 45.347625 -0.757803 1.775346 0.015630 0.003406 30571.500000 0 0 1
33.473558 -31.045863 -8.753912 46.486081 -0.747789 1.760240 0.007673 0.004590 -472854.000000 0 0 1
33.212998 -32.283463 -8.002912 47.003956 -0.771207 1.741890 0.012811 -0.002350 301023.000000 0 0 1
34.326208 -32.956663 -7.153312 48.120683 -0.765046 1.720003 0.002279 -0.001060 73973.500000 0 0 1
33.957068 -34.209663 -6.537612 48.642820 -0.789104 1.705605 0.007042 -0.000923 -79793.800000 0 0 1
33.496858 -34.054463 -5.220812 48.052085 -0.793653 1.679660 0.016898 0.005395 -288165.000000 0 0 1
33.108428 33.191757 -4.577912 47.104331 0.786655 1.668137 0.015447 0.004107 -403672.000000 0 0 1
32.044818 32.537157 -5.189912 45.961638 0.793021 1.683956 0.025307 -0.003511 -295631.000000 0 0 1
32.066128 31.168957 -4.833312 44.978899 0.771211 1.678462 0.033514 -0.001894 174577.000000 0 0 1
30.869798 30.350457 -5.366812 43.622211 0.776915 1.694138 0.031804 -0.007624 -122427.000000 0 0 1
30.977548 30.141857 -6.732912 43.743252 0.771726 1.725330 0.017700 -0.000369 444568.000000 0 0 1
29.753208 29.692457 -7.327812 42.668398 0.784376 1.743391 0.014660 0.003384 405299.000000 0 0 1
29.860508 29.202957 -8.784212 42.680499 0.774266 1.778091 0.023892 0.001377 336960.000000 0 0 1
30.757068 28.060557 -8.977712 42.590978 0.739585 1.783178 0.032070 -0.006543 734779.000000 0 0 1
31.154818 27.832757 -10.327612 43.034226 0.729140 1.813148 0.029772 -0.008704 362640.000000 0 0 1
32.302348 28.729857 -10.873212 44.576598 0.726930 1.817204 0.029741 -0.008918 -1044820.000000 0 0 1
33.584388 28.371257 -10.497112 45.199875 0.701453 1.805174 0.026485 -0.013799 -873473.000000 0 0 1
34.588458 29.222057 -10.937812 46.582462 0.701497 1.807815 0.030626 -0.007169 -282898.000000 0 0 1
34.789128 30.579157 -10.155012 47.418272 0.721083 1.786626 0.022325 -0.004169 -911570.000000 0 0 1
35.351628 30.384357 -8.856612 47.448776 0.709978 1.758554 0.016217 -0.001092 34069.900000 0 0 1
35.191938 31.562057 -8.086012 47.958519 0.731075 1.740210 0.018665 -0.000104 -669340.000000 0 0 1
-36.221294 31.533957 -6.950112 48.525010 -0.716328 1.714518 0.012623 -0.001223 315618.000000 0 0 1
-34.868747 31.637557 -7.344312 47.651898 -0.736852 1.725537 0.020770 -0.000244 311662.000000 0 0 1
-34.209400 30.451057 -7.865912 46.469586 -0.727339 1.740885 0.021985 0.000534 -343192.000000 0 0 1
-32.789774 30.751057 -8.412812 45.733709 -0.753324 1.755802 0.043424 -0.003803 333107.000000 0 0 1
-31.956164 31.239657 -7.342212 45.288195 -0.774061 1.733637 0.030603 -0.012253 480445.000000 0 0 1
-30.692444 31.804157 -7.695512 44.863698 -0.803185 1.743180 0.037902 -0.018289 461001.000000 0 0 1
-30.549064 33.047657 -8.662312 45.830433 -0.824666 1.760948 0.018451 -0.015756 -577633.000000 0 0 1
-30.675934 -34.245163 -8.100912 46.683711 0.840321 1.745207 0.004432 -0.010951 286154.000000 0 0 1
-29.706994 -33.770363 -7.141812 45.540624 0.849324 1.728269 0.030452 -0.028059 345154.000000 0 0 1
-30.085704 -32.387063 -6.530412 44.684647 0.822219 1.717466 0.006416 -0.026757 178327.000000 0 0 1
-31.012134 -32.374363 -5.422412 45.158104 0.806886 1.691163 -0.001577 -0.024152 196060.000000 0 0 1
-30.548094 -32.916063 -4.186212 45.101858 0.822693 1.663747 0.009424 -0.022546 -927016.000000 0 0 1
-31.629844 -32.975463 -3.188512 45.803873 0.806223 1.640465 0.011574 -0.017694 -877257.000000 0 0 1
-32.166644 -31.779163 -2.684112 45.296939 0.779339 1.630087 0.002102 -0.014837 407836.000000 0 0 1
-33.185624 -31.900163 -1.676312 46.062089 0.765650 1.607197 0.008147 -0.007349 166651.000000 0 0 1
-33.786164 -30.581063 -1.324512 45.590137 0.735645 1.599853 0.023850 -0.004840 30189.300000 0 0 1
-34.645050 -30.548063 -0.189412 46.189821 0.722637 1.574897 0.013614 -0.002043 -252432.000000 0 0 1
-35.180414 -29.267663 0.024488 45.763066 0.693910 1.570261 0.022248 -0.003848 -785818.000000 0 0 1
-36.117454 -29.381363 1.207488 46.574596 0.682916 1.544868 0.021445 0.006464 -1941840.000000 0 0 1
35.226618 -30.247163 0.971088 46.440807 -0.709492 1.549885 0.000009 0.006286 15295.100000 0 0 1
34.240518 -30.069363 1.985488 45.612738 -0.720629 1.527253 0.006160 0.006616 331992.000000 0 0 1
33.496088 -28.682963 1.892688 44.139354 -0.708145 1.527903 -0.000511 0.020637 -1855030.000000 0 0 1
32.454048 -28.644163 0.944788 43.297182 -0.723122 1.548974 -0.009856 0.010914 67347.500000 0 0 1
31.961428 -27.322663 0.800688 42.055938 -0.707311 1.551757 -0.003055 0.006299 -1018310.000000 0 0 1
30.805628 -27.253163 -0.199312 41.131027 -0.724287 1.575642 0.001881 -0.005361 -1369960.000000 0 0 1
29.543208 -27.510963 0.289288 40.370013 -0.749794 1.563630 0.016056 0.004212 -811215.000000 0 0 1
29.273938 -28.892763 0.413888 41.133035 -0.778845 1.560734 0.024793 0.003112 -764791.000000 0 0 1
28.922338 -29.583963 -0.951112 41.383779 -0.796706 1.593781 0.016733 0.008019 440709.000000 0 0 1
27.586748 -29.363963 -1.446612 40.315800 -0.816594 1.606686 0.037847 0.008627 813373.000000 0 0 1
27.439448 -29.782963 -2.761112 40.590294 -0.826330 1.638873 0.035865 0.008357 173170.000000 0 0 1
25.977828 -30.203263 -3.028612 39.953187 -0.860468 1.646673 0.057381 0.001422 532811.000000 0 0 1
24.997928 -29.175863 -3.177612 38.551584 -0.862367 1.653315 0.074049 -0.003943 -557517.000000 0 0 1
23.793728 -29.706563 -3.592812 38.229958 -0.895471 1.664914 0.057861 -0.004069 -223240.000000 0 0 1
22.616828 -28.662163 -3.614212 36.689277 -0.902748 1.669465 0.057829 -0.007763 461171.000000 0 0 1
22.800428 -27.714463 -4.647712 36.187736 -0.882372 1.699585 0.061666 -0.017174 -5830.180000 0 0 1
22.031328 -26.573963 -4.358912 34.793032 -0.878587 1.696408 0.076033 -0.027331 74685.500000 0 0 1
21.501128 -25.776963 -5.565812 34.025411 -0.875593 1.735113 0.072812 -0.039805 -245049.000000 0 0 1
20.462328 -26.357363 -6.292212 33.955992 -0.910648 1.757178 0.077897 -0.038828 -572753.000000 0 0 1
19.876128 -25.592963 -7.304312 33.217664 -0.910472 1.792500 0.082755 -0.038046 42543.500000 0 0 1
18.376428 -25.898363 -7.466512 32.621575 -0.953683 1.801726 0.074412 -0.031103 86507.900000 0 0 1
17.465628 -25.346763 -6.544512 31.469624 -0.967445 1.780288 0.064038 -0.031582 -124912.000000 0 0 1
16.136628 -25.784863 -6.746512 31.157108 -1.011609 1.789057 0.059037 -0.032470 -242895.000000 0 0 1
15.263128 -24.856863 -5.908012 29.761239 -1.020117 1.770637 0.053883 -0.027792 -611483.000000 0 0 1
15.462828 -24.905263 -4.515512 29.660766 -1.015175 1.723629 0.049695 -0.016926 69814.300000 0 0 1
14.679528 -23.899063 -3.901112 28.317352 -1.019979 1.709000 0.050908 -0.022414 -263840.000000 0 0 1
14.400728 -24.172163 -2.392912 28.238280 -1.033503 1.655638 0.042761 -0.017591 -326145.000000 0 0 1
13.757428 -25.391363 -2.234712 28.965188 -1.074259 1.648025 0.045577 -0.017702 87812.300000 0 0 1
14.470528 -26.276263 -1.362712 30.028240 -1.067410 1.616193 0.041781 -0.014533 -56773.300000 0 0 1
13.977928 -27.731963 -1.576012 31.095467 -1.103925 1.621501 0.042453 -0.010857 614752.000000 0 0 1
12.675228 -28.063763 -1.095312 30.812918 -1.146564 1.606351 0.045659 -0.015443 491643.000000 0 0 1
12.081628 -29.297663 -1.478712 31.725469 -1.179667 1.617423 0.046372 -0.013259 176959.000000 0 0 1
12.678828 -30.555563 -0.735512 33.089819 -1.177474 1.593026 0.045344 -0.003443 -259798.000000 0 0 1
14.004628 -30.860963 -1.049312 33.906190 -1.144789 1.601749 0.045889 0.005153 -592120.000000 0 0 1
14.310628 -32.222363 -0.894612 35.268614 -1.152842 1.596165 0.046148 0.003450 267666.000000 0 0 1
15.712128 -32.607063 -1.469112 36.224989 -1.121764 1.611363 0.046363 0.007074 -354894.000000 0 0 1
16.753628 -32.017963 -0.784212 36.144834 -1.088717 1.592494 0.049422 0.007789 -1399230.000000 0 0 1
17.821628 -31.999663 -1.660712 36.665336 -1.062647 1.616106 0.056762 -0.000751 -1111650.000000 0 0 1
18.887128 -31.026463 -1.169412 36.341884 -1.023973 1.602980 0.053157 -0.001809 -563041.000000 0 0 1
18.453728 -29.677963 -1.365712 34.974087 -1.014502 1.609855 0.043327 -0.002285 -355301.000000 0 0 1
19.224828 -28.724363 -0.809912 34.573675 -0.980982 1.594224 0.044162 -0.004303 -534745.000000 0 0 1
18.619628 -27.297363 -1.148112 33.062891 -0.972183 1.605528 0.047690 -0.002783 403975.000000 0 0 1
18.849728 -26.992563 -2.529412 33.019822 -0.961192 1.647474 0.061608 -0.015190 -242902.000000 0 0 1
17.958828 -26.004963 -2.834012 31.730258 -0.966412 1.660231 0.068095 -0.016929 -683937.000000 0 0 1
31.986568 -28.888163 14.006988 45.319557 -0.734544 1.256580 0.063912 -0.030279 -304078.000000 0 0 1
32.933318 -29.756163 14.553888 46.710260 -0.734761 1.253943 0.079417 -0.012379 -276738.000000 0 0 1
32.471698 -30.151663 15.826788 47.053387 -0.748368 1.227749 0.078377 -0.012881 546500.000000 0 0 1
33.460968 -30.963863 16.736688 48.564534 -0.746658 1.218954 0.072854 -0.009866 -72701.800000 0 0 1
32.714168 -31.446563 17.801888 48.744337 -0.765644 1.196939 0.062048 -0.013398 -146811.000000 0 0 1
33.421718 -31.769463 18.953788 49.855352 -0.760059 1.180810 0.047668 -0.012224 -584218.000000 0 0 1
34.161538 -33.084063 19.088488 51.243891 -0.769377 1.189092 0.047975 -0.013425 437672.000000 0 0 1
35.324808 -33.084963 18.224588 51.716463 -0.752668 1.210668 0.059312 -0.005769 771461.000000 0 0 1
36.107338 -34.241763 18.550988 53.107226 -0.758886 1.213960 0.072654 -0.005687 866367.000000 0 0 1
-35.071691 34.108857 17.619088 51.998749 -0.771481 1.225116 0.072369 -0.003195 521008.000000 0 0 1
-34.012254 -33.611263 17.938188 51.071803 0.779468 1.211907 0.060829 -0.003263 -485937.000000 0 0 1
-33.055474 -33.669463 16.919088 50.125369 0.794600 1.226499 0.071155 0.003019 -627711.000000 0 0 1
-31.828204 -32.809163 17.226988 48.849206 0.800573 1.210388 0.044642 -0.004941 -59046.100000 0 0 1
-30.758464 -32.765463 16.303688 47.806578 0.816982 1.222779 0.032465 -0.006980 61647.900000 0 0 1
-30.962294 -31.866663 15.173988 46.951015 0.799791 1.241700 0.050055 -0.007497 -282312.000000 0 0 1
-29.736944 -31.707063 14.260588 45.749187 0.817451 1.253802 0.034728 -0.009399 263472.000000 0 0 1
-28.579894 -31.202563 14.902388 44.860801 0.829240 1.232170 0.035659 -0.012111 451813.000000 0 0 1
-27.456694 -31.183463 14.008588 43.846539 0.848866 1.245604 0.035298 -0.009590 444808.000000 0 0 1
-26.186404 -30.565563 14.589288 42.811549 0.862409 1.223051 0.034345 -0.011441 -135618.000000 0 0 1
-25.063904 -30.709263 13.772888 41.963682 0.886275 1.236389 0.027773 -0.006488 -352295.000000 0 0 1
-23.876144 -30.222563 14.359188 41.105473 0.902176 1.213945 0.023341 0.002325 3061.880000 0 0 1
-22.631844 -30.397763 13.481588 40.224092 0.930810 1.229019 0.021369 0.008599 -150348.000000 0 0 1
-22.121344 -31.674063 13.379688 40.885403 0.961141 1.237406 0.015842 0.003248 1507740.000000 0 0 1
-20.785544 -31.750063 12.782788 40.043789 0.991151 1.245890 0.004899 0.001973 1560410.000000 0 0 1
-20.557844 -33.141663 12.120288 40.839885 1.015582 1.269482 0.008004 0.005121 -139721.000000 0 0 1
-21.244744 -33.389163 10.928688 41.056200 1.004129 1.301360 0.014051 0.005433 -43269.100000 0 0 1
-21.107844 33.813157 10.610388 41.248648 -1.012737 1.310642 0.013626 0.001930 38314.200000 0 0 1
-22.254344 33.282757 9.723988 41.201379 -0.981425 1.332537 0.007329 0.005378 -9556.070000 0 0 1
-22.127944 33.661457 8.373688 41.144358 -0.989259 1.365845 0.011282 0.001070 414875.000000 0 0 1
-23.243844 33.108757 7.651588 41.170534 -0.958699 1.383858 0.016848 0.006782 32958.500000 0 0 1
-23.021844 32.993857 6.139688 40.697612 -0.961574 1.419357 0.025370 0.006395 -760686.000000 0 0 1
-22.138244 32.022057 5.575688 39.326864 -0.965904 1.428539 0.017803 0.009295 799505.000000 0 0 1
-20.741044 32.216957 5.825988 38.756488 -0.998797 1.419901 0.017181 0.003109 395167.000000 0 0 1
-20.144644 33.570357 5.226188 39.497956 -1.030324 1.438092 0.019722 -0.001831 -1066600.000000 0 0 1
-20.049044 -33.850263 6.087688 39.810356 1.036068 1.417277 0.015557 0.000670 55494.800000 0 0 1
-19.258644 -34.014063 7.243488 39.753239 1.055603 1.387561 0.017475 -0.006095 -443573.000000 0 0 1
-19.269544 -32.737963 8.150188 38.852479 1.038802 1.359454 0.010968 -0.002970 -619335.000000 0 0 1
-18.572244 -31.668563 7.558688 37.482795 1.040395 1.367746 0.022205 -0.008334 -188856.000000 0 0 1
-18.509744 -30.381063 8.181688 36.504242 1.023601 1.344746 0.022206 -0.012526 34961.200000 0 0 1
-17.931944 -30.238263 9.631088 36.450858 1.035524 1.303400 0.004870 -0.001691 272271.000000 0 0 1
-16.603944 -30.719463 9.633488 36.224032 1.075274 1.301615 0.016487 -0.017053 -464262.000000 0 0 1
-16.020444 -30.531663 10.870488 36.152519 1.087572 1.265386 0.027326 -0.007581 -442794.000000 0 0 1
-14.695444 -31.208663 11.202188 36.268799 1.130717 1.256796 0.033850 -0.005451 195880.000000 0 0 1
-13.588044 -30.547663 10.587388 35.069751 1.152263 1.264116 0.036301 -0.005214 -102530.000000 0 0 1
-12.510444 -31.412663 10.365888 35.365495 1.191790 1.273321 0.041182 0.000697 -148533.000000 0 0 1
-11.326344 -30.760063 9.612788 34.159527 1.217987 1.285534 0.049359 0.005609 -113165.000000 0 0 1
-10.644944 -29.940863 10.496788 33.465694 1.229201 1.251753 0.044156 0.005014 -880421.000000 0 0 1
-9.713244 -29.135763 9.839188 32.249797 1.249005 1.260760 0.060725 0.000902 9540.820000 0 0 1
-8.749044 -28.467563 10.849788 31.696464 1.272625 1.221430 0.047098 0.006723 13146.800000 0 0 1
-9.352044 -27.408363 11.539188 31.174220 1.241972 1.191624 0.045537 0.004756 -401406.000000 0 0 1
-8.877844 -27.242063 12.854988 31.403771 1.255762 1.149060 0.047558 0.005477 -259489.000000 0 0 1
-9.249744 -25.962863 13.587188 30.728484 1.228548 1.112781 0.048427 0.000886 123000.000000 0 0 1
-8.655544 -24.725763 13.155888 29.314829 1.234066 1.105397 0.036162 0.005592 199199.000000 0 0 1
-9.322644 -24.227263 12.002188 28.599379 1.203462 1.137719 0.034355 0.004932 286491.000000 0 0 1
-8.779844 -22.839863 11.541188 27.054464 1.203802 1.130076 0.030320 0.004904 -231378.000000 0 0 1
-7.696444 -22.918163 10.678088 26.429132 1.246807 1.154881 0.017070 0.007471 -668516.000000 0 0 1
-7.255344 -21.699063 10.144088 25.027822 1.248120 1.153476 0.019796 0.013335 -1059550.000000 0 0 1
-6.243544 -21.951463 9.111488 24.573722 1.293689 1.190946 0.008940 0.003127 -676622.000000 0 1 0
-5.100344 -22.538863 9.710688 25.066139 1.348253 1.172984 -0.002988 0.001440 -830700.000000 0 0 1
-4.106044 -22.809363 8.787588 24.786052 1.392688 1.208377 0.000351 -0.003162 -30885.600000 0 1 0
-2.938844 -23.631463 9.407288 25.604295 1.447070 1.194573 0.011720 -0.001177 524292.000000 0 0 1
-2.080244 -22.934763 10.310988 25.231870 1.480341 1.149823 0.012625 0.004655 -49846.400000 0 0 1
-1.134944 -23.813663 10.896288 26.212740 1.523173 1.142099 0.025014 -0.005012 612749.000000 0 0 1
-0.194844 -23.096163 11.963488 26.011455 1.562360 1.092878 0.029569 0.003081 417589.000000 0 0 1
-0.857244 -22.702763 13.211188 26.280902 1.533055 1.044087 0.021954 -0.000116 220507.000000 0 0 1
-0.022544 -22.437263 14.345388 26.631212 1.569792 1.001941 0.041074 -0.005978 -295287.000000 0 0 1
0.827956 -21.164363 14.327688 25.571438 -1.531696 0.976048 0.029257 -0.009536 -876306.000000 0 0 1
1.842256 -21.217463 13.416588 25.171005 -1.484186 1.008633 0.040723 -0.011841 -1104280.000000 0 0 1
2.073456 -19.886463 12.968488 23.831751 -1.466907 0.995399 0.037585 -0.017515 -340578.000000 0 1 0
3.504756 -19.519263 12.567488 23.478218 -1.393136 1.005954 0.038391 -0.018639 -258428.000000 0 1 0
3.868756 -20.099563 11.309588 23.385177 -1.380642 1.066008 0.047933 -0.011018 -736116.000000 0 1 0
5.264056 -20.012363 11.235488 23.546574 -1.313583 1.073376 0.058828 -0.019557 -377023.000000 0 1 0
5.793156 -20.711963 10.005488 23.720368 -1.298065 1.135356 0.069761 -0.026391 -581624.000000 0 1 0
5.644756 -19.965363 8.794588 22.534946 -1.295260 1.169878 0.062615 -0.030300 -260326.000000 0 1 0
5.801056 -20.790963 7.607988 22.886631 -1.298698 1.231927 0.065082 -0.034020 -379353.000000 0 1 0
7.170256 -21.437863 7.319788 23.760763 -1.248026 1.257641 0.065895 -0.017919 859232.000000 0 1 0
8.278656 -20.595963 6.852488 23.231153 -1.188606 1.271372 0.066446 -0.033385 1120910.000000 0 1 0
8.859556 -19.660763 7.762488 22.919284 -1.147426 1.225274 0.074473 -0.023108 -46646.900000 0 1 0
9.745756 -20.173863 8.927688 24.117797 -1.120769 1.191604 0.069773 -0.019521 -32586.100000 0 1 0
9.093356 -20.499163 10.103088 24.596285 -1.153280 1.147512 0.083515 -0.019663 -823384.000000 0 1 0
9.834456 -19.889963 11.068788 24.796073 -1.111604 1.108066 0.079313 -0.017618 141478.000000 0 1 0
9.013256 -19.895463 12.383488 25.108147 -1.145425 1.055025 0.079018 -0.022772 287918.000000 0 0 1
8.817956 -21.195263 12.945688 26.355007 -1.176544 1.057325 0.073350 -0.022120 -171219.000000 0 0 1
8.062056 -21.136263 14.122388 26.667963 -1.206398 1.012710 0.082841 -0.024816 73146.800000 0 0 1
8.180256 -22.425363 14.977088 28.180253 -1.221018 1.010456 0.089592 -0.015908 197218.000000 0 0 1
7.835656 -23.635863 14.219088 28.674623 -1.250683 1.051952 0.088942 -0.015273 -61797.600000 0 0 1
7.769156 -24.802963 14.981488 29.999863 -1.267242 1.047907 0.093726 -0.014813 141410.000000 0 0 1
7.592156 -26.080663 14.144088 30.625105 -1.287522 1.090721 0.086268 -0.017051 859512.000000 0 0 1
8.773156 -26.517963 13.455088 31.003388 -1.251293 1.121882 0.084989 -0.010565 503346.000000 0 0 1
8.472356 -27.808363 12.894588 31.801828 -1.275061 1.153307 0.075060 -0.009277 -30057.200000 0 0 1
9.664856 -28.354963 12.101488 32.308813 -1.242294 1.186878 0.067162 -0.008039 502149.000000 0 0 1
10.818756 -28.748963 12.826488 33.287643 -1.210871 1.175239 0.067595 -0.012215 555154.000000 0 0 1
11.810256 -29.449263 12.057188 33.942850 -1.189396 1.207647 0.056640 -0.008262 573116.000000 0 0 1
12.867156 -30.075463 12.998088 35.200107 -1.166532 1.192581 0.058463 -0.019626 13713.000000 0 0 1
13.791556 -29.163063 13.617388 35.016061 -1.129053 1.171370 0.063930 -0.016896 233996.000000 0 0 1
14.566756 -29.879163 14.567588 36.292829 -1.117181 1.157762 0.076251 -0.017188 1052670.000000 0 0 1
16.062856 -29.999763 14.090488 36.831278 -1.079206 1.178222 0.064152 -0.012811 317392.000000 0 0 1
16.801256 -28.850363 13.952288 36.184140 -1.043449 1.174948 0.055183 -0.020706 -1074780.000000 0 0 1
18.130656 -29.100263 13.681088 36.915013 -1.013607 1.191130 0.041185 -0.011526 -1094540.000000 0 0 1
18.961156 -27.828563 13.615588 36.322701 -0.972693 1.186561 0.014486 -0.015143 -437385.000000 0 0 1
20.258156 -28.080563 13.126488 37.029929 -0.945832 1.208435 -0.001484 -0.013817 -3284.280000 0 0 1
20.937056 -26.822863 12.996288 36.424303 -0.908017 1.205953 0.001558 -0.019409 125482.000000 0 0 1
22.290056 -26.864463 12.253288 36.995798 -0.878193 1.233213 0.014728 -0.012465 146779.000000 0 0 1
23.293256 -27.546363 12.958888 38.331589 -0.868861 1.225927 0.021022 -0.016096 125463.000000 0 0 1
24.317756 -28.086963 12.135888 39.083380 -0.857199 1.255064 0.021950 -0.022568 -255272.000000 0 0 1
25.359156 -28.963563 12.856588 40.586533 -0.851653 1.248474 0.043354 -0.024194 142442.000000 0 0 1
26.458056 -28.326363 13.472088 41.035457 -0.819488 1.236289 0.030814 -0.021071 1304890.000000 0 0 1
27.562456 -28.021163 12.552388 41.260599 -0.793651 1.261675 0.012659 -0.022404 1820190.000000 0 0 1
28.897856 -27.395363 13.166488 41.939819 -0.758714 1.251459 0.043063 -0.030607 744681.000000 0 0 1
28.911356 -26.055263 13.477788 41.187304 -0.733484 1.237424 0.047818 -0.027374 -93452.500000 0 0 1
28.276556 -25.782263 14.719688 40.999487 -0.739291 1.203577 0.039805 -0.025111 -531573.000000 0 0 1
29.077956 -25.750063 16.061088 42.030368 -0.724776 1.178696 0.032024 -0.016007 -86289.700000 0 0 1
29.501056 -27.041163 16.501288 43.287750 -0.741920 1.179702 0.059531 -0.010726 -83557.200000 0 0 1
30.167656 -26.975063 17.716888 44.177253 -0.729586 1.158143 0.065934 0.004928 -183314.000000 0 0 1
30.446756 -28.302763 18.398688 45.459467 -0.748921 1.154116 0.056053 0.011023 -695838.000000 0 0 1
29.326556 -29.032263 18.758488 45.329903 -0.780355 1.144148 0.033691 0.009808 -708785.000000 0 0 1
29.639756 -29.904263 19.779688 46.518987 -0.789840 1.131618 0.049612 -0.001377 -1113230.000000 0 0 1
28.495656 -30.689963 20.290088 46.535620 -0.822456 1.119634 0.052847 -0.004641 -1767020.000000 0 0 1
27.669356 -29.889763 21.137888 45.889013 -0.823955 1.092091 0.052362 0.002454 1124320.000000 0 0 1
26.447856 -30.504363 21.605888 45.791044 -0.856505 1.079424 0.054736 -0.000446 1330780.000000 0 0 1
25.352856 -30.895263 20.578288 44.952759 -0.883616 1.095304 0.067368 -0.008392 -677556.000000 0 0 1
25.603956 -32.129163 19.949588 45.670907 -0.897944 1.118745 0.058325 -0.006756 98033.000000 0 0 1
24.912456 -32.276863 18.698988 44.856198 -0.913466 1.140802 0.062056 -0.003789 -23606.400000 0 0 1
25.316556 -31.409963 17.454588 43.956529 -0.892405 1.162455 0.056924 -0.002030 393706.000000 0 0 1
26.611756 -31.668963 16.918788 44.691769 -0.871955 1.182550 0.056054 -0.015100 357352.000000 0 0 1
27.142856 -30.572363 16.130788 43.950044 -0.844750 1.194987 0.061164 -0.027091 704052.000000 0 0 1
28.527256 -30.943463 15.491088 44.847253 -0.826004 1.218111 0.073740 -0.027819 467864.000000 0 0 1
28.436056 -31.882263 14.453388 45.099761 -0.842470 1.244564 0.086565 -0.023261 155632.000000 0 0 1
28.129956 -33.267963 14.837588 46.023970 -0.868887 1.242545 0.060684 -0.026933 -124726.000000 0 0 1
27.116056 -34.099563 14.028488 45.769632 -0.898988 1.259280 0.077077 -0.031510 78898.800000 0 0 1
27.577556 34.268357 12.663988 45.773556 0.893164 1.290473 0.088121 -0.030937 248381.000000 0 0 1
26.998456 33.129157 12.057288 44.405358 0.887008 1.295816 0.093663 -0.033008 -413640.000000 0 0 1
27.605056 32.801157 10.689088 44.183839 0.871206 1.326449 0.095163 -0.036500 -235988.000000 0 0 1
28.939556 32.364457 10.787188 44.736108 0.841208 1.327267 0.100118 -0.035849 -138390.000000 0 0 1
29.417956 31.828157 9.590888 44.389558 0.824731 1.353017 0.107222 -0.039158 109373.000000 0 0 1
30.903256 31.399157 9.734788 45.118559 0.793358 1.353326 0.089525 -0.034006 239584.000000 0 0 1
31.201156 30.399857 10.724888 44.862976 0.772391 1.329400 0.085322 -0.026758 -282534.000000 0 0 1
32.574556 30.234357 10.925588 45.766653 0.748156 1.329745 0.085527 -0.023329 -284862.000000 0 0 1
32.986056 29.340257 12.091588 45.772667 0.726969 1.303457 0.069969 -0.009506 28397.000000 0 0 1
32.576556 27.995357 11.900688 44.571273 0.709909 1.300514 0.067817 -0.016187 272336.000000 0 0 1
32.915356 27.272457 13.090788 44.705439 0.691917 1.273618 0.074345 -0.021866 76954.500000 0 0 1
32.777556 25.734457 13.108288 43.685898 0.665604 1.266043 0.056124 -0.014588 335490.000000 0 0 1
33.753856 25.136657 12.238688 43.828755 0.640104 1.287795 0.057093 -0.008251 -122533.000000 0 0 1
33.623156 23.740957 12.022388 42.879919 0.614801 1.286613 0.052648 -0.013059 -910919.000000 0 0 1
32.425256 23.169857 11.301888 41.424294 0.620432 1.294460 0.042154 -0.007839 -557990.000000 0 0 1
31.353356 22.857257 12.177688 40.666733 0.629939 1.266679 0.040537 -0.010913 774647.000000 0 0 1
30.175256 22.707057 11.318088 39.424049 0.645103 1.279613 0.042814 -0.003818 1306330.000000 0 0 1
28.900956 22.279457 12.119988 38.451704 0.656737 1.250129 0.044547 0.005682 546164.000000 0 0 1
28.343656 23.299457 12.953988 38.910581 0.688033 1.231401 0.055275 -0.001198 -1251590.000000 0 0 1
27.126156 22.895557 13.403988 37.943402 0.701024 1.209740 0.060965 -0.005942 -1693240.000000 0 0 1
24.185356 9.559357 25.743270 36.592741 0.376408 0.790475 0.020970 0.001323 -439833.000000 0 0 1
24.014256 8.220857 26.109290 36.413761 0.329828 0.771283 0.033976 -0.003481 619758.000000 0 0 1
22.615956 7.938757 26.147830 35.471317 0.337587 0.741947 0.047018 -0.003103 289933.000000 0 0 1
22.349356 6.615357 26.905850 35.597492 0.287781 0.713867 0.063886 -0.011022 -157126.000000 0 0 1
22.554556 6.651857 28.280500 36.779640 0.286792 0.693650 0.065647 -0.008798 1451240.000000 0 0 1
23.955556 6.459157 28.635840 37.889322 0.263368 0.713958 0.060060 -0.008246 1245860.000000 0 0 1
24.150956 6.225557 30.121460 39.106631 0.252285 0.691580 0.070628 -0.013515 -196265.000000 0 0 1
24.094356 7.355957 30.958550 39.913405 0.296310 0.683063 0.066176 -0.007556 192036.000000 0 0 1
23.968156 6.989657 32.327110 40.845683 0.283754 0.657627 0.080573 -0.009203 -142460.000000 0 0 1
23.823856 8.208357 33.307743 41.765524 0.331806 0.647667 0.082933 -0.007532 -151325.000000 0 0 1
24.937256 9.056857 33.252572 42.539710 0.348373 0.673436 0.069778 -0.011409 -295768.000000 0 0 1
25.017656 9.687657 -33.934212 43.258115 0.369452 2.472619 0.077788 -0.009195 -242926.000000 0 0 1
26.137256 10.706357 -33.902362 44.126549 0.388772 2.446975 0.050318 -0.010490 -481514.000000 0 0 1
25.752756 11.912057 33.977767 44.267259 0.433245 0.695771 0.030177 -0.011777 150826.000000 0 0 1
25.805456 13.009257 -33.481982 44.229011 0.466945 2.429527 0.030470 -0.013855 -390744.000000 0 0 1
25.424856 14.440657 -33.966472 44.818267 0.516538 2.430840 0.030172 -0.012280 -712438.000000 0 0 1
26.377356 15.014557 33.610332 45.286380 0.517481 0.734489 0.016128 -0.012925 170929.000000 0 0 1
26.395356 16.458757 33.506172 45.719460 0.557554 0.748274 0.015970 -0.012167 -282954.000000 0 0 1
27.062356 17.075057 -33.709902 46.478878 0.562868 2.382228 0.012100 -0.020201 -270934.000000 0 0 1
26.316456 16.929557 -32.506222 45.120064 0.571656 2.375230 0.024713 -0.020808 243732.000000 0 0 1
27.178256 16.661857 -31.417072 44.758323 0.549966 2.348896 0.023953 -0.023916 -96721.600000 0 0 1
26.490656 15.943357 -30.218402 43.233058 0.541777 2.344746 0.036293 -0.021436 58087.100000 0 0 1
25.862456 14.767057 -30.737182 42.798445 0.518811 2.371986 0.043249 -0.014971 454930.000000 0 0 1
24.967256 14.200557 -29.764442 41.363531 0.517138 2.373996 0.060120 -0.020560 535422.000000 0 0 1
24.072356 13.026057 -30.259952 40.802220 0.496001 2.406286 0.058249 -0.018578 -305700.000000 0 0 1
23.003156 13.359657 -31.117592 40.938125 0.526163 2.434283 0.059646 -0.023168 544373.000000 0 0 1
22.242456 12.265957 -31.651882 40.583521 0.503968 2.465334 0.049625 -0.015989 39484.100000 0 0 1
21.435956 11.334957 -30.737292 39.150511 0.486408 2.473663 0.056742 -0.015621 -1221400.000000 0 0 1
20.415856 12.113357 -30.209452 38.420718 0.535501 2.475562 0.058403 -0.007038 -240376.000000 0 0 1
19.703556 11.354557 -29.211642 37.019942 0.522788 2.480104 0.047013 0.000229 216572.000000 0 0 1
18.433056 12.039457 -28.652502 36.134359 0.578583 2.486421 0.046578 0.000971 133253.000000 0 0 1
17.485456 12.288257 -29.661692 36.558971 0.612583 2.517234 0.028736 0.007415 1025280.000000 0 0 1
16.207156 12.692657 -29.079392 35.628450 0.664383 2.525573 0.028962 -0.007488 921489.000000 0 0 1
15.192256 13.225557 -30.127052 36.240298 0.716302 2.552263 0.031739 -0.005774 133998.000000 0 0 1
14.537756 12.194057 -30.888962 36.251473 0.697947 2.590733 0.022581 0.006666 179101.000000 0 0 1
13.415956 11.579357 -30.279882 35.084763 0.712052 2.612072 0.036607 0.001010 -208032.000000 0 0 1
12.470156 10.930557 -31.304242 35.425096 0.719700 2.654450 0.046320 0.007203 -70110.200000 0 0 1
11.980256 11.878457 -32.202652 36.354299 0.781131 2.659012 0.051795 0.008959 83959.500000 0 0 1
10.856456 11.325757 -32.889112 36.439389 0.806552 2.696499 0.070431 0.008070 532489.000000 0 0 1
10.270056 12.347157 -33.911582 37.522283 0.876978 2.699298 0.078588 0.001069 103712.000000 0 0 1
11.152056 12.434157 33.424550 37.365454 0.839703 0.463416 0.056610 0.005238 591886.000000 0 0 1
10.489056 12.591357 32.140390 36.077240 0.876233 0.471524 0.066166 -0.003901 80759.400000 0 0 1
11.501256 12.796357 30.966770 35.425506 0.838649 0.507139 0.062580 0.003703 351016.000000 0 0 1
12.103856 11.596057 30.465530 34.772408 0.763975 0.502999 0.040303 0.005773 331838.000000 0 0 1
11.696656 11.373757 29.101160 33.362428 0.771403 0.510964 0.065495 0.008363 50801.100000 0 0 1
12.374156 10.155557 28.446160 32.641065 0.687240 0.512576 0.058618 0.007475 -225151.000000 0 0 1
11.824856 8.915857 28.828740 32.410122 0.646052 0.474551 0.063172 -0.006382 205434.000000 0 0 1
12.381556 7.817957 28.147250 31.728395 0.563202 0.479705 0.033982 -0.010288 -156886.000000 0 0 1
11.620856 6.495857 28.498210 31.454545 0.509713 0.437031 0.046146 -0.010976 45674.000000 0 0 1
10.251656 6.495357 28.152130 30.656623 0.564753 0.407019 0.050788 -0.019046 -172671.000000 0 0 1
9.550856 5.269757 28.389950 30.413458 0.504192 0.366836 0.039742 -0.013624 78801.500000 0 0 1
9.975056 3.878457 27.805490 29.794118 0.370828 0.367428 0.034118 -0.010858 -213227.000000 0 0 1
11.188656 3.380457 28.349690 30.664612 0.293412 0.391053 0.021425 -0.006372 303752.000000 0 0 1
11.493256 2.093557 27.834180 30.186413 0.180180 0.397384 -0.008292 -0.002376 -181688.000000 0 0 1
11.799456 1.119257 28.961920 31.293333 0.094574 0.388448 0.007648 0.003617 -254215.000000 0 0 1
10.683156 0.916857 29.803510 31.673643 0.085613 0.345353 0.011905 -0.002065 93807.900000 0 0 1
10.867956 -0.296943 30.545040 32.422217 -0.027316 0.341951 0.014525 -0.007872 -86503.700000 0 0 1
9.720356 -0.506843 31.529210 32.997474 -0.052095 0.299434 0.031492 -0.008613 -187698.000000 0 0 1
9.733856 0.511457 32.476171 33.907392 0.052496 0.291582 0.031588 -0.010253 775590.000000 0 0 1
8.417656 0.867357 32.959737 34.028716 0.102678 0.251316 0.044775 -0.014820 457719.000000 0 0 1
8.342756 2.167857 33.737427 34.821189 0.254227 0.250146 0.039082 -0.015941 -569034.000000 0 0 1
8.526856 3.421057 33.068452 34.321035 0.381549 0.270999 0.047682 -0.021421 -287605.000000 0 0 1
9.750756 3.540657 32.413097 34.032666 0.348311 0.309745 0.037735 -0.013096 -734317.000000 0 0 1
9.895556 4.904957 31.759100 33.624709 0.460180 0.334676 0.040788 -0.012830 102678.000000 0 0 1
9.939156 6.017257 32.614104 34.621872 0.544387 0.342230 0.043286 -0.017221 27494.400000 0 0 1
10.243256 7.202057 31.898590 34.268265 0.612805 0.374066 0.037621 -0.011637 -222314.000000 0 0 1
10.546056 8.428457 32.796303 35.466261 0.674256 0.390501 0.071612 -0.019946 516319.000000 0 0 1
9.411956 9.011757 33.458379 35.906264 0.763680 0.371385 0.078416 -0.023571 429673.000000 0 0 1
8.782256 8.215557 -34.018282 36.081392 0.752071 2.801791 0.066325 -0.026898 -405275.000000 0 0 1
7.520356 8.862857 -33.438612 35.401225 0.867159 2.807051 0.071078 -0.021458 261325.000000 0 0 1
6.658856 7.954457 -32.723612 34.328538 0.873826 2.834605 0.068486 -0.017162 247812.000000 0 0 1
5.446256 8.549557 -32.347962 33.899074 1.003599 2.837915 0.058607 -0.018508 -65801.000000 0 0 1
4.763556 8.103057 -31.055162 32.446480 1.039343 2.847686 0.060252 -0.020836 -189106.000000 0 0 1
5.491556 8.493557 -29.897202 31.561691 0.996846 2.815379 0.072699 -0.028648 185442.000000 0 0 1
5.129956 7.841457 -28.642312 30.136139 0.991468 2.825414 0.062959 -0.025533 327288.000000 0 0 1
3.644656 7.768357 -28.176872 29.454490 1.132118 2.845981 0.057549 -0.017792 345678.000000 0 0 1
2.839056 6.787257 -28.829302 29.753247 1.174621 2.891730 0.042415 -0.012243 183094.000000 0 0 1
1.520056 6.862857 -28.327092 29.186187 1.352825 2.898362 0.057456 -0.004810 -127188.000000 0 0 1
0.446256 6.223457 -29.206012 29.865058 1.499213 2.931121 0.041786 -0.004810 -294165.000000 0 0 1
0.362156 6.938157 -30.395912 31.179811 1.518646 2.916883 0.037647 -0.011895 53551.500000 0 0 1
-0.198144 6.259757 -31.490392 32.107142 -1.539153 2.945272 0.051925 -0.007310 -758770.000000 0 0 1
-0.351444 7.245857 -32.639152 33.435612 -1.522332 2.922888 0.063782 -0.006621 -103882.000000 0 0 1
0.829656 7.784157 -33.190292 34.100981 1.464615 2.909966 0.045964 -0.002564 -126289.000000 0 0 1
1.739356 6.917957 -33.820762 34.564829 1.324476 2.933725 0.047300 -0.011136 -521321.000000 0 0 1
1.497156 6.473157 33.192518 33.850945 1.343506 0.197556 0.057898 -0.023434 -643588.000000 0 0 1
0.436856 5.554757 33.014486 33.481375 1.492312 0.167196 0.058049 -0.022441 -241675.000000 0 0 1
0.192456 5.253357 31.635940 32.069729 1.534178 0.164663 0.066331 -0.018239 -91995.300000 0 0 1
1.136856 4.328557 30.825420 31.148601 1.313956 0.144177 0.072814 -0.016844 -52987.700000 0 0 1
0.711956 4.153457 29.503230 29.802662 1.401033 0.141873 0.066008 -0.019859 -102410.000000 0 0 1
1.661656 3.448757 28.754720 29.008429 1.121804 0.132354 0.061063 -0.012379 -222453.000000 0 0 1
1.579056 3.795857 27.265690 27.573897 1.176578 0.149655 0.061586 -0.010869 144070.000000 0 0 1
2.072756 5.090457 26.920470 27.475822 1.184112 0.201399 0.058664 -0.014476 29492.200000 0 0 1
1.946656 5.243257 25.538820 26.144073 1.215301 0.215595 0.044842 -0.005329 -378742.000000 0 0 1
2.345256 6.608257 25.018040 25.982140 1.229765 0.273269 0.046274 0.002028 871335.000000 0 0 1
3.750956 6.922757 25.027720 26.237016 1.074247 0.304794 0.054046 0.004806 830593.000000 0 0 1
4.365156 6.750657 23.771260 25.093799 0.996796 0.326109 0.058193 -0.001691 392496.000000 0 0 1
5.919556 6.949157 23.778430 25.470486 0.865236 0.366554 0.062058 -0.001557 1146730.000000 0 0 1
6.815956 6.085857 24.510680 26.158523 0.728870 0.356840 0.060527 -0.001204 540551.000000 0 0 1
6.841356 4.693557 24.280010 25.658381 0.601306 0.329266 0.063011 -0.001876 -836144.000000 0 0 1
7.039456 4.191257 22.839580 24.264521 0.537027 0.344410 0.046848 -0.004389 -108590.000000 0 1 0
6.115756 4.460857 21.807980 23.084404 0.630189 0.334099 0.051405 -0.019999 -450919.000000 0 1 0
4.874856 3.807057 21.914080 22.770262 0.663021 0.275096 0.037596 -0.016854 -374900.000000 0 1 0
3.822656 4.130157 20.860380 21.606165 0.824045 0.263506 0.026264 -0.020401 -151748.000000 0 1 0
3.232456 5.373957 21.161280 22.070976 1.029272 0.288108 0.018961 -0.020485 252972.000000 0 1 0
1.985256 5.581157 20.493780 21.332735 1.229046 0.281381 0.016341 -0.015693 523236.000000 0 1 0
1.398956 6.954657 20.777080 21.954758 1.372292 0.329022 0.017295 -0.005157 -16937.900000 0 1 0
2.200756 7.920057 20.057680 21.676742 1.299763 0.388947 0.012943 -0.007049 300171.000000 0 1 0
1.564656 9.167657 19.877980 21.946029 1.401754 0.437611 0.021307 -0.020348 -384741.000000 0 1 0
2.499056 10.284957 19.505680 22.192277 1.332434 0.497161 0.019224 -0.023870 -680860.000000 0 1 0
2.925656 10.260057 18.118380 21.026267 1.293018 0.532182 0.021627 -0.025054 -94278.000000 0 1 0
3.792756 11.343057 17.857480 21.492779 1.248115 0.590146 0.028944 -0.023287 230410.000000 0 1 0
5.307156 11.093457 18.056880 21.846776 1.124574 0.597892 0.041938 -0.021015 -256634.000000 0 1 0
5.703756 10.228357 17.046880 20.682075 1.062105 0.601947 0.042927 -0.018233 -1241450.000000 0 1 0
6.983756 9.744157 17.215980 20.978832 0.948942 0.608274 0.044099 -0.017560 -875470.000000 0 1 0
7.027556 8.284957 17.703880 20.771481 0.867330 0.550397 0.049625 -0.019801 -283029.000000 0 1 0
6.614356 8.264057 19.050780 21.793957 0.895826 0.507152 0.061806 -0.019248 -177475.000000 0 1 0
6.667556 6.942157 19.687980 21.914981 0.805572 0.454729 0.050993 -0.021214 -34897.300000 0 1 0
8.065056 6.329857 19.910780 22.395343 0.665434 0.475511 0.064803 -0.020608 93586.000000 0 1 0
8.726656 5.915057 18.699380 21.466468 0.595681 0.513364 0.048626 -0.025129 429199.000000 0 1 0
10.045056 5.415557 18.952980 22.123446 0.494457 0.541974 0.045959 -0.023857 470852.000000 0 1 0
10.206956 3.920057 18.971680 21.896882 0.366688 0.522829 0.041244 -0.017636 -166267.000000 0 1 0
9.730056 3.183457 20.109180 22.565184 0.316200 0.470902 0.053549 -0.014019 276399.000000 0 1 0
10.174856 1.830157 19.991680 22.506542 0.177968 0.477251 0.038505 -0.025144 -28607.000000 0 1 0
9.376256 0.903857 20.900080 22.924757 0.096102 0.423438 0.040967 -0.012157 -104311.000000 0 1 0
9.546256 1.080257 22.306680 24.287568 0.112681 0.406677 0.028855 -0.001180 -109008.000000 0 1 0
8.765456 0.184757 23.051380 24.662390 0.021075 0.363446 0.034975 -0.007987 -443685.000000 0 1 0
9.172656 0.250557 24.543140 26.202407 0.027309 0.357784 0.029579 0.005903 301424.000000 0 0 1
10.400756 -0.401743 24.898110 26.986163 -0.038607 0.395964 0.027347 0.002809 498450.000000 0 0 1
10.424256 -1.826643 24.797040 26.960989 -0.173469 0.403384 0.031640 0.002134 54582.000000 0 0 1
11.857956 -2.246043 25.203050 27.943686 -0.187195 0.446595 0.035973 -0.002887 294336.000000 0 0 1
11.974456 -3.668143 25.107020 28.057180 -0.297255 0.462697 0.039108 -0.001024 -391598.000000 0 0 1
13.283756 -4.122843 25.318910 28.887770 -0.300941 0.502341 0.044852 -0.002669 -251452.000000 0 0 1
13.276456 -5.664343 25.556780 29.351288 -0.403264 0.514130 0.050692 -0.005743 -81612.200000 0 0 1
12.985556 -6.430243 24.391690 28.371240 -0.459788 0.536050 0.053620 -0.007986 153040.000000 0 0 1
12.826856 -7.804243 24.697310 28.903141 -0.546595 0.546237 0.064214 -0.013211 -49737.200000 0 0 1
12.709256 -8.549643 23.376070 27.947491 -0.592175 0.580063 0.065395 -0.020334 -40352.200000 0 0 1
12.348856 -9.871443 23.505020 28.327118 -0.674364 0.592099 0.066905 -0.011262 -555640.000000 0 0 1
12.328056 -10.495743 22.224480 27.496711 -0.705289 0.629606 0.059939 -0.012298 -174501.000000 0 0 1
11.738356 -11.897043 22.223480 27.806685 -0.792112 0.644811 0.071699 -0.010617 -513462.000000 0 0 1
10.353556 -11.737743 22.165480 27.134466 -0.847974 0.614823 0.064169 -0.014553 -1080750.000000 0 0 1
9.733256 -13.003643 22.335780 27.617351 -0.928254 0.628757 0.064234 -0.015318 -24363.900000 0 0 1
8.255956 -12.926143 22.770280 27.454174 -1.002404 0.592777 0.041263 -0.012273 -122700.000000 0 0 1
7.530556 -12.239043 21.794180 26.105359 -1.019210 0.582928 0.029186 -0.015276 -1295240.000000 0 0 1
6.188756 -12.124543 22.128880 25.980620 -1.098838 0.551488 0.014313 -0.015231 -110405.000000 0 0 1
5.403256 -10.965243 21.388680 24.635490 -1.112956 0.519221 0.011558 -0.014125 411184.000000 0 1 0
5.639856 -9.661443 21.856580 24.553239 -1.042412 0.473076 0.018119 -0.012419 -528123.000000 0 1 0
4.877056 -8.696343 21.213480 23.439791 -1.059686 0.439370 0.012071 -0.004942 -316656.000000 0 1 0
5.052856 -7.301143 21.957880 23.685155 -0.965417 0.384267 0.011547 0.001348 42222.700000 0 1 0
4.769756 -6.146743 21.233780 22.614297 -0.910874 0.351220 0.008630 -0.001733 -132512.000000 0 1 0
5.501256 -5.078043 21.821880 23.070431 -0.745416 0.330498 0.025764 -0.012672 124361.000000 0 1 0
-8.435044 -15.553143 -20.871612 27.361915 1.073856 2.438425 0.029600 0.008529 -178617.000000 0 0 1
-8.023744 -14.669443 -19.822612 25.932778 1.070282 2.440882 0.028907 0.006178 221547.000000 0 0 1
-6.924344 -13.868243 -20.211612 25.471238 1.107713 2.487347 0.015759 -0.002492 290569.000000 0 0 1
-6.115444 -13.195643 -19.058412 23.973876 1.136819 2.489748 0.009077 -0.003104 71828.900000 0 1 0
-5.430744 -14.078243 -18.244312 23.675828 1.202631 2.450560 0.025685 -0.002704 -281136.000000 0 1 0
-4.717344 -13.480643 -17.186912 22.346611 1.234180 2.448237 0.044736 -0.009818 186999.000000 0 1 0
-3.672744 -14.427943 -16.558112 22.267143 1.321533 2.409253 0.043299 -0.007077 -214052.000000 0 1 0
-2.498844 -14.616743 -17.302412 22.787428 1.401476 2.433028 0.039894 -0.007741 -476349.000000 0 1 0
-1.699644 -15.520443 -16.580212 22.774468 1.461721 2.386222 0.036938 -0.002988 -227348.000000 0 1 0
-0.331644 -15.848643 -17.231112 23.413686 1.549874 2.397853 0.042422 -0.000839 -15769.600000 0 1 0
-0.206144 -16.608743 -18.363412 24.761013 1.558385 2.406287 0.065693 -0.008121 -387668.000000 0 1 0
-0.349944 -17.945043 -18.153512 25.528357 1.551298 2.361874 0.056313 -0.004045 -288334.000000 0 0 1
-0.614444 -18.577843 -19.516812 26.952175 1.537734 2.380565 0.067561 -0.012622 106704.000000 0 0 1
-1.974744 -18.362443 -19.831112 27.098929 1.463666 2.391762 0.050353 -0.007533 -53205.000000 0 0 1
-2.271244 -18.613243 -21.189412 28.294921 1.449374 2.417162 0.035824 -0.005862 299144.000000 0 0 1
-3.303544 -17.712443 -21.930812 28.383174 1.386405 2.453832 0.034132 -0.006239 384883.000000 0 0 1
-2.857444 -16.359043 -22.009212 27.571519 1.397870 2.495195 0.035151 0.000638 -70114.600000 0 0 1
-3.370344 -15.626243 -20.921012 26.329212 1.358366 2.489133 0.022572 0.000454 -161597.000000 0 0 1
-2.565044 -14.373843 -20.486812 25.157430 1.394203 2.522395 0.042570 -0.013190 -112556.000000 0 0 1
-2.529144 -13.389943 -21.538812 25.487400 1.384112 2.577505 0.038704 -0.019696 76778.300000 0 0 1
-1.734244 -12.304143 -21.134012 24.516239 1.430771 2.610080 0.048290 -0.018126 -6171.230000 0 1 0
-1.641044 -11.336943 -22.388712 25.149030 1.427043 2.668672 0.059801 -0.015517 -120114.000000 0 0 1
-2.860544 -10.699343 -22.664912 25.226115 1.309550 2.687069 0.044899 -0.010162 -43785.900000 0 0 1
-2.716144 -9.875843 -23.824312 25.932750 1.302403 2.735562 0.048646 -0.011213 -164737.000000 0 0 1
-3.709644 -8.717643 -23.961112 25.766133 1.168474 2.765062 0.044288 -0.016176 -36862.500000 0 0 1
-5.076244 -9.107443 -23.871012 26.048781 1.062310 2.729779 0.051506 -0.017188 542756.000000 0 0 1
-5.806044 -7.881343 -23.856712 25.786981 0.935873 2.752215 0.050287 -0.023545 560252.000000 0 0 1
-7.371544 -7.919243 -23.654012 26.010889 0.821202 2.712609 0.024969 -0.017260 1287050.000000 0 0 1
-8.101144 -8.235043 -24.836212 27.391274 0.793594 2.706236 0.031297 -0.004089 106216.000000 0 0 1
-8.388144 -7.130943 -25.676102 27.936956 0.704565 2.736518 0.040969 -0.009304 131313.000000 0 0 1
-9.238844 -7.556943 -26.938322 29.464161 0.685593 2.724509 0.047277 -0.014864 486025.000000 0 0 1
-9.843944 -6.521343 -27.691932 30.104389 0.585093 2.738529 0.055359 -0.019924 -247731.000000 0 0 1
-10.568144 -7.075543 -28.739892 31.428178 0.589973 2.724974 0.057388 -0.017247 -661322.000000 0 0 1
-11.452944 -6.082543 -29.463272 32.190863 0.488209 2.726969 0.069401 -0.022148 -632537.000000 0 0 1
-10.782544 -5.101043 -30.165782 32.438531 0.441883 2.765037 0.048768 -0.015557 -331366.000000 0 0 1
-11.572044 -4.552143 -31.208802 33.594992 0.374781 2.762422 0.068086 -0.025213 -74933.200000 0 0 1
-10.832344 -3.579043 -32.137732 34.102537 0.319111 2.800487 0.059374 -0.035771 -197922.000000 0 0 1
-9.821744 -4.183543 -32.918272 34.606088 0.402673 2.827988 0.060212 -0.026789 46866.700000 0 0 1
-9.225944 -3.256743 -33.788442 35.176458 0.339344 2.859738 0.054719 -0.025023 -138931.000000 0 0 1
-8.094244 -3.806843 33.729489 34.895376 0.439619 0.259224 0.037144 -0.020810 26207.400000 0 0 1
-6.920644 -3.967843 -33.954472 34.879009 0.520582 2.910833 0.028061 -0.023302 -698362.000000 0 0 1
-5.913544 -4.458643 33.656056 34.461277 0.646038 0.216599 0.014253 -0.019225 198805.000000 0 0 1
-4.443644 -4.293143 34.135185 34.689882 0.768174 0.179070 0.017182 -0.017676 585381.000000 0 0 1
-4.038144 -2.920543 34.029229 34.392217 0.626153 0.145417 0.031012 -0.022542 -535332.000000 0 0 1
-2.661244 -2.743343 34.215286 34.428098 0.800588 0.111245 0.030702 -0.026871 -107390.000000 0 0 1
-2.340844 -1.255043 -33.992172 34.095783 0.492148 3.063614 0.049863 -0.026659 -66851.500000 0 0 1
-2.550544 -0.898643 -32.655312 32.767090 0.338753 3.058970 0.039670 -0.031553 -135226.000000 0 0 1
-3.079144 0.406757 -32.506162 32.654205 -0.131340 3.046334 0.062305 -0.037624 -192488.000000 0 0 1
-3.752744 0.668757 -31.112262 31.344906 -0.176353 3.019681 0.088788 -0.043389 383057.000000 0 0 1
-4.918744 -0.136443 -30.978162 31.366529 0.027732 2.984067 0.069698 -0.043136 -156851.000000 0 0 1
-6.003944 0.639257 -30.531412 31.122710 -0.106073 2.946352 0.075272 -0.043072 -331544.000000 0 0 1
-7.290144 -0.208443 -30.576202 31.433959 0.028585 2.907445 0.064293 -0.047702 -394177.000000 0 0 1
-7.393644 -1.163743 -29.574072 30.506491 0.156117 2.893715 0.047024 -0.042315 461379.000000 0 0 1
-8.680844 -1.773643 -29.623322 30.919962 0.201543 2.850966 0.060896 -0.029407 431601.000000 0 0 1
-9.106244 -2.553643 -28.290552 29.829517 0.273405 2.818973 0.056258 -0.022648 -159944.000000 0 0 1
-9.617444 -1.700143 -27.322882 29.015954 0.174969 2.798296 0.055099 -0.021663 127174.000000 0 0 1
-9.871644 -2.328543 -26.120842 28.020882 0.231648 2.771219 0.045439 -0.018991 -193350.000000 0 0 1
-10.947444 -1.719443 -25.206352 27.534763 0.155791 2.727390 0.061768 -0.015777 -556.122000 0 0 1
-10.505344 -0.489743 -24.625512 26.777190 0.046585 2.737972 0.053003 -0.016420 253537.000000 0 0 1
-11.487044 0.129757 -23.835812 26.459685 -0.011295 2.692485 0.068399 -0.017638 184985.000000 0 0 1
-10.856444 1.433457 -23.249312 25.699176 -0.131278 2.701404 0.059172 -0.014994 427341.000000 0 0 1
-10.538444 2.410957 -24.203312 26.507957 -0.224907 2.721518 0.048892 -0.019486 191078.000000 0 0 1
-9.844644 3.518157 -23.644512 25.852609 -0.343223 2.725287 0.035898 -0.013487 -279064.000000 0 0 1
-9.943644 4.740857 -24.586312 26.941390 -0.444894 2.720359 0.039870 -0.019414 -181103.000000 0 0 1
-11.225444 5.314557 -24.567012 27.528043 -0.442173 2.673512 0.039978 -0.020153 -134922.000000 0 0 1
-11.972144 4.869557 -25.691392 28.759214 -0.386304 2.675492 0.042741 -0.024844 -919814.000000 0 0 1
-13.185544 5.646257 -26.114782 29.794640 -0.404591 2.639324 0.035719 -0.014799 -753118.000000 0 0 1
-13.028844 7.011757 -26.465492 30.320583 -0.493717 2.631820 0.031577 -0.015707 -53294.300000 0 0 1
-14.265744 7.572757 -26.855912 31.338444 -0.488010 2.600146 0.034753 -0.011337 -26001.000000 0 0 1
-14.236244 9.055857 -26.923862 31.773786 -0.566551 2.581792 0.035530 -0.008338 -191774.000000 0 0 1
-14.027444 9.678757 -25.690202 30.829109 -0.603974 2.555865 0.043469 -0.018687 158713.000000 0 0 1
-14.579444 10.988757 -25.642282 31.477604 -0.645875 2.522870 0.038584 -0.017476 -114934.000000 0 0 1
-14.172444 11.781257 -24.384712 30.565836 -0.693525 2.494395 0.031892 -0.014061 -426456.000000 0 0 1
-14.924944 11.508257 -23.268512 29.943573 -0.656853 2.460807 0.044820 -0.011030 -144168.000000 0 0 1
-14.396144 12.161157 -22.148812 29.081137 -0.701439 2.436608 0.039821 -0.008297 -197556.000000 0 0 1
-15.337344 11.937657 -20.964212 28.587409 -0.661393 2.394014 0.043233 -0.007977 385821.000000 0 0 1
-16.634744 12.497957 -21.099512 29.632803 -0.644343 2.363185 0.034772 -0.009293 158045.000000 0 0 1
-17.290144 12.738357 -19.882012 29.266178 -0.634961 2.317674 0.031262 -0.001500 149937.000000 0 0 1
-18.772544 13.113657 -20.159112 30.508461 -0.609756 2.292642 0.035069 -0.008737 141349.000000 0 0 1
-18.958144 14.322657 -20.891812 31.638861 -0.647004 2.292043 0.028951 -0.008938 -598437.000000 0 0 1
-20.297444 14.680457 -20.871712 32.605680 -0.626171 2.265457 0.012246 -0.011027 -761049.000000 0 0 1
-20.580544 16.042457 -21.538412 33.835224 -0.662113 2.260836 0.000648 -0.011295 -156069.000000 0 0 1
-20.326044 16.026857 -22.930312 34.580448 -0.667682 2.295750 0.010282 -0.013728 45487.200000 0 0 1
-20.844044 17.162357 -23.492812 35.790122 -0.688829 2.286840 -0.008765 -0.007275 -523026.000000 0 0 1
-20.840044 17.252957 -25.019512 36.850345 -0.691508 2.317127 -0.011525 -0.009893 -567836.000000 0 0 1
-19.635544 17.538357 -25.647472 36.755154 -0.729042 2.343107 0.002352 -0.013435 -501057.000000 0 0 1
-19.604044 16.900257 -26.931362 37.352851 -0.711466 2.376039 0.001995 -0.022316 -109933.000000 0 0 1
-18.638244 17.567057 -27.922912 37.890297 -0.755820 2.399330 -0.015894 -0.011965 31692.800000 0 0 1
-19.183044 18.780357 -28.392832 39.074849 -0.774791 2.384196 -0.026021 -0.027372 449665.000000 0 0 1
-18.541044 19.873257 -27.791752 38.872845 -0.820064 2.367335 -0.035522 -0.026726 -1261070.000000 0 0 1
-19.349344 21.151957 -27.991102 40.066247 -0.829876 2.344264 0.008573 -0.021255 371733.000000 0 0 1
-20.351144 21.540357 -27.060952 40.130426 -0.813778 2.310847 0.019342 -0.010176 667415.000000 0 0 1
-21.418744 20.631057 -26.813282 40.041917 -0.766668 2.304507 0.057214 -0.032183 -1014700.000000 0 0 1
-22.451444 21.174957 -25.877972 40.275495 -0.756147 2.268584 0.053675 -0.016250 -587045.000000 0 0 1
-22.272444 20.760757 -24.520012 39.093500 -0.750284 2.248768 0.003369 -0.004615 77260.500000 0 0 1
-23.287844 21.334557 -23.716312 39.496208 -0.741652 2.214886 0.009843 -0.011714 -166522.000000 0 0 1
-23.181444 21.024657 -22.170312 38.352813 -0.736647 2.187148 0.003273 0.003181 399891.000000 0 0 1
-22.002044 21.559357 -21.551912 37.594956 -0.775236 2.181283 0.002740 0.003621 546174.000000 0 0 1
-20.843844 20.772257 -21.446312 36.412865 -0.783678 2.200588 0.001486 0.006164 -134809.000000 0 0 1
-20.906444 19.830057 -20.235412 35.210544 -0.758981 2.183031 0.013551 -0.006167 -1115020.000000 0 0 1
-21.890844 18.839357 -20.376612 35.345957 -0.710618 2.185224 0.022428 -0.007767 10393.900000 0 0 1
-22.486844 18.578557 -19.116412 34.874892 -0.690512 2.150938 0.011978 0.001840 261594.000000 0 0 1
-23.546944 19.561157 -18.522012 35.779356 -0.693200 2.114925 0.003206 0.001496 -213297.000000 0 0 1
-24.787944 19.547657 -19.188312 36.942446 -0.667748 2.116958 0.001597 0.007127 -218529.000000 0 0 1
-25.687484 20.501957 -18.719512 37.823236 -0.673600 2.088540 0.003527 0.001053 -224591.000000 0 0 1
-27.128684 20.320257 -19.322912 39.016064 -0.642881 2.088925 0.005725 0.005554 640516.000000 0 0 1
-27.866364 19.227557 -18.809512 38.730232 -0.603977 2.077908 0.009989 0.004776 200191.000000 0 0 1
-28.310214 19.329057 -17.441012 38.461273 -0.599061 2.041451 0.006857 0.000214 -368729.000000 0 0 1
-29.287484 18.179157 -17.042612 38.453726 -0.555511 2.029959 0.011319 0.003444 -123378.000000 0 0 1
-28.631034 16.952057 -16.878012 37.309189 -0.534581 2.040231 0.017233 -0.001656 -296902.000000 0 0 1
-29.488314 15.946857 -16.450912 37.342943 -0.495741 2.026992 0.019901 0.003386 -114063.000000 0 0 1
-28.733314 14.759057 -15.780012 35.950547 -0.474513 2.025211 0.044366 0.004053 -338520.000000 0 0 1
-28.157054 15.039557 -14.524512 35.070919 -0.490578 1.997802 0.051271 0.001307 478406.000000 0 0 1
-29.041994 15.228857 -13.370112 35.413491 -0.482956 1.957938 0.032845 0.005083 625005.000000 0 0 1
-28.266824 15.748657 -12.146712 34.562640 -0.508311 1.929906 0.040183 -0.007680 440721.000000 0 0 1
-27.727194 17.091457 -12.153312 34.765186 -0.552402 1.927922 0.030621 -0.002000 526956.000000 0 0 1
-28.775464 18.035857 -12.004712 36.019891 -0.559878 1.910577 0.025974 -0.002661 517523.000000 0 0 1
-28.238644 19.485457 -12.213112 36.417909 -0.604002 1.912784 0.042592 -0.018757 563112.000000 0 0 1
-27.378624 19.994357 -11.177212 35.697246 -0.630767 1.889264 0.037684 -0.029434 262313.000000 0 0 1
-26.424074 20.838057 -11.781312 35.654671 -0.667752 1.907554 0.030420 -0.024250 -245322.000000 0 0 1
-25.950604 22.027357 -10.924912 35.749014 -0.703808 1.881365 0.033232 -0.021184 -396991.000000 0 0 1
-26.796224 23.072857 -10.574012 36.908049 -0.710874 1.861364 0.040876 -0.029985 -524911.000000 0 0 1
-26.061504 24.173457 -10.075112 36.946798 -0.747832 1.846987 0.043429 -0.026291 90860.700000 0 0 1
-26.803194 25.007657 -8.995812 37.745446 -0.750756 1.811441 0.065133 -0.008428 -130057.000000 0 0 1
-26.935034 24.205257 -7.871812 37.058817 -0.732071 1.784841 0.061749 -0.010721 359371.000000 0 0 1
-27.681984 24.887657 -6.865112 37.852575 -0.732293 1.753170 0.066321 -0.019113 116313.000000 0 0 1
-27.696784 24.191957 -5.547412 37.190541 -0.717956 1.720517 0.067822 -0.019781 -62893.900000 0 0 1
-28.074264 22.835857 -5.699612 36.635041 -0.682864 1.727009 0.072788 -0.024214 2339.760000 0 0 1
-27.505254 21.997757 -4.710512 35.533494 -0.674598 1.703753 0.067201 -0.016414 203092.000000 0 0 1
-27.553314 20.581657 -5.235912 34.787993 -0.641563 1.721880 0.063513 -0.019224 -576463.000000 0 0 1
-26.448744 20.271057 -6.014312 33.861833 -0.653932 1.749357 0.066820 -0.028895 -578799.000000 0 0 1
-26.471594 20.426557 -7.438612 34.253794 -0.657208 1.789702 0.057687 -0.019487 101448.000000 0 0 1
-27.391484 19.303757 -8.125012 34.481070 -0.613897 1.808670 0.057408 -0.024157 519442.000000 0 0 1
-26.991534 18.037557 -7.646012 33.352029 -0.589110 1.802105 0.052248 -0.016866 297725.000000 0 0 1
-26.788424 17.229657 -8.776112 33.037870 -0.571563 1.839662 0.028034 -0.014765 -174374.000000 0 0 1
-26.434724 15.719857 -8.631412 31.943854 -0.536489 1.844403 0.058383 -0.005102 139343.000000 0 0 1
-27.474224 14.952457 -8.070412 32.303877 -0.498407 1.823299 0.052818 -0.005108 139362.000000 0 0 1
-27.213804 13.600657 -8.476912 31.582068 -0.463464 1.842537 0.066506 -0.018095 645299.000000 0 0 1
-28.294134 12.618857 -7.901912 31.972391 -0.419513 1.820532 0.065221 -0.026447 364208.000000 0 0 1
-29.657924 12.925357 -8.171712 33.368161 -0.410995 1.818208 0.063964 -0.018674 380475.000000 0 0 1
-30.503984 12.057057 -7.418812 33.628922 -0.376415 1.793234 0.072034 -0.027163 -111738.000000 0 0 1
-30.941974 10.795857 -8.194312 33.780216 -0.335700 1.815818 0.072136 -0.028663 -289372.000000 0 0 1
-29.879384 9.917457 -8.519612 32.614679 -0.320475 1.835082 0.083084 -0.022506 186504.000000 0 0 1
-30.439864 8.656357 -8.789712 32.844739 -0.277062 1.841712 0.076623 -0.016389 -733179.000000 0 0 1
-29.488514 7.564457 -9.165012 31.792938 -0.251108 1.863218 0.106698 -0.019571 -730890.000000 0 0 1
-28.916624 7.700157 -10.446112 31.695186 -0.260249 1.906655 0.106511 -0.028155 570705.000000 0 0 1
-27.939534 6.707157 -10.752512 30.679309 -0.235601 1.928881 0.115382 -0.035878 166700.000000 0 0 1
-27.160814 6.890757 -12.091912 30.518956 -0.248460 1.978182 0.105915 -0.030114 -567705.000000 0 0 1
-26.191364 7.858257 -11.986512 29.856594 -0.291486 1.983917 0.109777 -0.029639 -797389.000000 0 0 1
-25.275934 7.761557 -13.000012 29.463790 -0.297933 2.027754 0.108380 -0.015634 -697383.000000 0 0 1
-30.787814 25.725557 34.139393 52.680090 -0.696060 0.865774 0.008849 0.003661 -188318.000000 0 0 1
-31.491824 26.930557 34.122977 53.678370 -0.707482 0.881890 0.010030 -0.007132 206264.000000 0 0 1
-31.416974 27.404857 32.786767 53.037954 -0.717296 0.904377 0.028678 -0.012662 -126982.000000 0 0 1
-31.928274 28.854157 32.682073 54.037903 -0.734865 0.921283 0.029886 -0.023082 -49945.100000 0 0 1
-32.046204 29.345757 31.365260 53.590224 -0.741440 0.945572 0.042536 -0.017463 148203.000000 0 0 1
-32.127434 30.729857 31.473220 54.470723 -0.763168 0.954765 0.040395 -0.024367 -242503.000000 0 0 1
-32.055404 31.439757 30.144100 54.080255 -0.775702 0.979551 0.069828 -0.021065 -500283.000000 0 0 1
-30.878194 31.322357 29.404940 52.907498 -0.792539 0.981495 0.053178 -0.019986 -254494.000000 0 0 1
-30.930244 32.031357 28.183410 52.697176 -0.802885 1.006504 0.055681 -0.011332 212763.000000 0 0 1
-29.521794 32.037957 27.540660 51.540808 -0.826249 1.007062 0.045304 -0.008739 -326788.000000 0 0 1
-29.121914 30.864757 26.914580 50.250509 -0.814444 1.005569 0.057004 -0.012651 -198107.000000 0 0 1
-27.747954 30.906957 26.657590 49.353987 -0.839204 1.000204 0.033465 0.004102 -423741.000000 0 0 1
-27.237554 31.580157 25.363440 48.810805 -0.859096 1.024381 0.044495 -0.007894 -653968.000000 0 0 1
-27.498584 33.007257 25.113170 49.762661 -0.876192 1.041809 0.029127 -0.005702 187538.000000 0 0 1
-28.747764 33.229657 24.484030 50.300216 -0.857587 1.062422 0.043940 -0.011094 -131820.000000 0 0 1
-29.061774 -33.838863 24.692250 50.983944 0.861199 1.065217 0.057854 -0.014383 -166520.000000 0 0 1
-29.445554 -33.700863 26.067190 51.790803 0.852684 1.043363 0.060313 -0.021913 154205.000000 0 0 1
-29.644604 -32.369963 26.415170 51.228686 0.829317 1.029051 0.051766 -0.022449 -246163.000000 0 0 1
-30.041024 -32.213863 27.904150 52.142475 0.820286 1.006109 0.054245 -0.020181 -455851.000000 0 0 1
-31.264884 -32.818463 28.171240 53.368186 0.809637 1.014711 0.072871 -0.029855 -518288.000000 0 0 1
-31.543334 -32.869863 29.565940 54.309802 0.805989 0.995130 0.051224 -0.025130 114633.000000 0 0 1
-32.966144 -33.385663 29.881760 55.626331 0.791721 1.003697 0.062114 -0.027548 124486.000000 0 0 1
-33.319284 -33.500463 31.232510 56.638551 0.788110 0.986712 0.041935 -0.021669 338107.000000 0 0 1
-34.673669 -33.947563 31.336750 57.764109 0.774817 0.997392 0.044406 -0.020177 502363.000000 0 0 1
-35.157876 34.224457 32.745695 58.988730 -0.771946 0.982292 0.048587 -0.013101 -286720.000000 0 0 1
-34.773746 32.952357 33.183755 58.277207 -0.758511 0.965006 0.029179 0.000329 -545238.000000 0 0 1
-35.763882 32.324757 33.916439 58.942938 -0.734932 0.957689 0.033616 0.002182 -470969.000000 0 0 1
-35.362809 30.963557 -33.961702 57.988510 -0.719168 2.196494 0.022814 0.006645 -155569.000000 0 0 1
-34.387650 31.085057 -32.980752 56.890431 -0.734999 2.189186 0.008990 0.000759 -552785.000000 0 0 1
-33.798594 29.844857 -32.630672 55.658073 -0.723355 2.197243 0.007232 -0.000641 695384.000000 0 0 1
-32.797604 29.838457 -31.444402 54.357766 -0.738190 2.187650 0.003226 -0.000230 250511.000000 0 0 1
-33.511334 29.909257 -30.256282 54.157324 -0.728662 2.163582 0.004430 -0.003396 -322553.000000 0 0 1
-33.838364 31.249257 -29.861982 54.893432 -0.745640 2.145992 -0.010639 0.005252 281791.000000 0 0 1
-34.934966 31.245257 -28.770442 54.995056 -0.729703 2.121335 -0.008859 0.008271 191935.000000 0 0 1
-34.481970 30.853657 -27.512762 53.832206 -0.729922 2.107241 -0.019404 -0.003564 -149167.000000 0 0 1
-35.571812 30.712957 -26.630542 54.016898 -0.712226 2.086335 0.012173 -0.006281 -112662.000000 0 0 1
-35.026004 30.413957 -25.234622 52.807346 -0.715037 2.069015 0.024077 -0.017607 -114326.000000 0 0 1
-34.743396 31.608557 -24.511612 52.981351 -0.738188 2.051774 0.016538 -0.015204 -111399.000000 0 0 1
-34.500537 31.469257 -23.064212 52.082233 -0.739481 2.029563 0.017989 -0.019311 -246075.000000 0 0 1
-35.649579 31.057657 -22.104412 52.192677 -0.716670 2.008119 0.017376 -0.015906 951020.000000 0 0 1
35.688538 31.959557 -21.861812 52.659508 0.730331 1.998909 0.031084 -0.018452 832185.000000 0 0 1
36.098198 33.103757 -21.157912 53.353499 0.742154 1.978564 0.036301 -0.028918 -334671.000000 0 0 1
-36.207874 33.068957 -19.594512 52.806353 -0.740119 1.950950 0.036450 -0.022726 202379.000000 0 0 1
-35.037290 32.347357 -19.235912 51.419680 -0.745500 1.954218 0.027576 -0.022002 179696.000000 0 0 1
-34.797779 32.359757 -17.814912 50.748501 -0.749111 1.929481 0.043557 -0.012321 -178359.000000 0 0 1
-33.440394 31.692957 -17.551412 49.302692 -0.758576 1.934773 0.033500 -0.007968 -303784.000000 0 0 1
-33.234374 31.301357 -16.209112 48.446195 -0.755454 1.911955 0.029571 -0.001080 278646.000000 0 0 1
-32.035944 30.528257 -16.131312 47.100906 -0.761305 1.920356 0.027221 0.002156 165715.000000 0 0 1
-31.745294 30.097757 -14.662512 46.137055 -0.758764 1.894208 0.034373 -0.001152 -445779.000000 0 0 1
-32.654114 29.206057 -14.067812 46.012914 -0.729716 1.881508 0.030230 -0.002556 43248.800000 0 0 1
-32.626474 29.165257 -12.621412 45.545571 -0.729442 1.851588 0.035594 -0.000032 -25923.100000 0 0 1
-33.464324 28.005557 -11.996312 45.255758 -0.696827 1.839081 0.029140 -0.000663 -167926.000000 0 0 1
-33.392214 28.037857 -10.593412 44.870722 -0.698456 1.809134 0.027649 0.002318 344399.000000 0 0 1
-34.109340 27.075657 -9.863512 44.652291 -0.670943 1.793529 0.034917 -0.003054 -132643.000000 0 0 1
-33.101974 26.354657 -8.975412 43.253516 -0.672399 1.779822 0.031068 -0.002007 -42654.800000 0 0 1
-32.767964 27.248657 -7.934212 43.349515 -0.693693 1.754863 0.043928 -0.009278 855394.000000 0 0 1
-31.641084 26.764657 -7.163812 42.057404 -0.702099 1.741965 0.057567 -0.018199 263735.000000 0 0 1
-31.165534 27.827157 -6.177512 42.235090 -0.728869 1.717588 0.057821 -0.014293 35469.400000 0 0 1
-30.266004 27.206957 -5.222512 41.030770 -0.732222 1.698425 0.065134 -0.015123 693652.000000 0 0 1
-30.369514 27.711657 -3.884112 41.295637 -0.739669 1.664992 0.053651 -0.011817 -192466.000000 0 0 1
-29.611714 26.697457 -2.991412 39.981950 -0.733690 1.645685 0.059238 -0.007944 -278219.000000 0 0 1
-30.214444 25.453957 -2.907112 39.613985 -0.700091 1.644248 0.049824 -0.004735 160025.000000 0 0 1
-29.434354 24.580357 -2.089212 38.404947 -0.695775 1.625223 0.038297 -0.009273 373630.000000 0 0 1
-30.238734 23.306557 -1.654512 38.214055 -0.656650 1.614106 0.034457 -0.017455 131311.000000 0 0 1
-30.601114 22.476957 -2.763212 38.069372 -0.633516 1.643444 0.036066 -0.008587 -151668.000000 0 0 1
-31.348054 21.386857 -2.348512 38.021226 -0.598706 1.632604 0.029950 -0.007578 -308157.000000 0 0 1
-31.868124 20.503157 -3.513912 38.056594 -0.571704 1.663262 0.038157 -0.005776 469116.000000 0 0 1
-30.832234 19.694157 -4.097412 36.814063 -0.568427 1.682328 0.028879 -0.010655 730613.000000 0 0 1
-31.345434 19.007657 -5.231912 37.029720 -0.545107 1.712560 0.040441 -0.008682 25963.700000 0 0 1
-30.339294 17.970457 -5.740912 35.726295 -0.534751 1.732188 0.040105 -0.015430 -262013.000000 0 0 1
-30.205354 16.850157 -4.914912 34.934904 -0.508853 1.711952 0.041772 -0.008721 35990.800000 0 0 1
-29.262544 15.934257 -5.419912 33.757554 -0.498632 1.732048 0.052723 -0.018707 -387437.000000 0 0 1
-29.079064 14.806657 -4.462012 32.935370 -0.470969 1.706692 0.057069 -0.016025 -257595.000000 0 0 1
-30.269284 14.193757 -4.011712 33.671740 -0.438473 1.690222 0.056729 -0.017046 317163.000000 0 0 1
-29.973544 12.870457 -3.454312 32.802351 -0.405586 1.676299 0.058775 -0.031634 -66616.300000 0 0 1
-31.179244 12.124157 -2.858812 33.575485 -0.370861 1.656045 0.061366 -0.041970 -230883.000000 0 0 1
-32.202564 11.801757 -3.777512 34.504437 -0.351285 1.680495 0.078496 -0.025184 578710.000000 0 0 1
-33.103694 10.845857 -3.198612 34.981685 -0.316611 1.662361 0.065178 -0.026233 682680.000000 0 0 1
-34.129445 10.247757 -4.245512 35.886765 -0.291697 1.689377 0.059698 -0.015458 298681.000000 0 0 1
-33.522384 9.274757 -5.029012 35.143453 -0.269921 1.714389 0.054359 -0.020742 -141849.000000 0 0 1
-34.355539 8.789957 -6.017612 35.969126 -0.250479 1.738886 0.049935 -0.015573 -633157.000000 0 0 1
-33.683474 7.923657 -7.085812 35.320949 -0.231038 1.772779 0.056862 -0.020307 -375472.000000 0 0 1
-33.047164 6.744157 -6.554212 34.359226 -0.201312 1.762728 0.058156 -0.019442 568012.000000 0 0 1
-32.529334 5.933657 -7.611712 33.930871 -0.180426 1.797052 0.073431 -0.014476 -581750.000000 0 0 1
-31.552414 4.914357 -7.048312 32.701444 -0.154511 1.788036 0.101936 -0.018475 558841.000000 0 0 1
-30.200254 5.378957 -6.897312 31.441397 -0.176261 1.791965 0.105989 -0.026236 1469780.000000 0 0 1
-29.300544 4.359857 -6.402012 30.307028 -0.147714 1.783638 0.111705 -0.027724 -393782.000000 0 0 1
-27.852044 4.718557 -6.189512 28.919045 -0.167822 1.786494 0.112975 -0.027889 -893418.000000 0 0 1
-27.237004 5.034757 -7.405812 28.671400 -0.182787 1.832058 0.116791 -0.027699 443994.000000 0 0 1
-25.821554 4.894557 -7.218512 27.254655 -0.187331 1.838849 0.123964 -0.029379 557184.000000 0 0 1
-25.010644 5.297257 -8.448412 26.925246 -0.208716 1.889960 0.113731 -0.031087 -167778.000000 0 0 1
-25.207354 4.462057 -9.568112 27.328911 -0.175199 1.928484 0.115631 -0.036133 335950.000000 0 0 1
-24.123844 4.633557 -10.444812 26.693141 -0.189763 1.972831 0.099609 -0.038581 -23620.400000 0 0 1
-24.416144 3.750057 -11.718212 27.340949 -0.152398 2.013734 0.100017 -0.043298 -325184.000000 0 0 1
-25.420274 4.244957 -12.536612 28.659669 -0.165464 2.023536 0.126461 -0.029982 -235401.000000 0 0 1
-25.574664 3.433557 -13.606912 29.171918 -0.133458 2.056057 0.129901 -0.029501 -561900.000000 0 0 1
-26.635084 3.991957 -14.516412 30.595582 -0.148769 2.065148 0.109070 -0.022713 -1243200.000000 0 0 1
-26.255094 5.179157 -15.155712 30.754662 -0.194762 2.086094 0.102186 -0.018998 621258.000000 0 0 1
-27.111234 5.927257 -16.101812 32.084571 -0.215241 2.096539 0.136121 -0.022824 306983.000000 0 0 1
-27.862944 5.124357 -17.191712 33.138461 -0.181880 2.116225 0.079651 -0.008093 -245638.000000 0 0 1
-29.067644 4.548257 -16.730712 33.845698 -0.155213 2.087852 0.086459 -0.021348 -10719.500000 0 0 1
-29.774934 4.075957 -17.873612 34.966071 -0.136047 2.107342 0.082865 -0.010044 1358940.000000 0 0 1
-31.272054 3.595057 -17.587412 36.058048 -0.114458 2.080310 0.082307 -0.013663 1207230.000000 0 0 1
-31.353514 2.480057 -16.699912 35.610119 -0.078935 2.058915 0.087248 -0.026428 233862.000000 0 0 1
-30.961514 1.269757 -17.347312 35.512770 -0.040988 2.081144 0.093733 -0.033566 -498060.000000 0 0 1
-31.204284 0.049357 -16.439812 35.270061 -0.001582 2.055688 0.100763 -0.027740 -370389.000000 0 0 1
-30.718054 -1.132543 -17.021512 35.137065 0.036852 2.076510 0.093941 -0.017362 252088.000000 0 0 1
-30.851904 -2.228643 -16.159712 34.899042 0.072112 2.052220 0.097673 -0.023969 -104631.000000 0 0 1
-30.670014 -3.528943 -16.935012 35.212183 0.114558 2.072525 0.079252 -0.016408 -64743.400000 0 0 1
-31.668434 -3.665543 -17.927412 36.574827 0.115235 2.083066 0.084053 -0.015719 112909.000000 0 0 1
-31.581874 -4.934643 -18.608612 36.987104 0.154996 2.097991 0.072287 -0.013870 -109133.000000 0 0 1
-32.604104 -5.149643 -19.726712 38.453733 0.156651 2.109471 0.078397 -0.019303 -394126.000000 0 0 1
-32.407004 -6.366643 -20.363212 38.799593 0.193988 2.123312 0.085083 -0.019026 -51099.900000 0 0 1
-33.131114 -6.502943 -21.552112 40.055618 0.193815 2.138924 0.090882 -0.018371 -471809.000000 0 0 1
-32.841634 -7.812843 -22.352712 40.487741 0.233553 2.155660 0.096605 -0.022249 -66061.500000 0 0 1
-31.559744 -7.811043 -22.945612 39.793604 0.242625 2.185376 0.087995 -0.019938 10392.100000 0 0 1
-31.385324 -8.661643 -24.072812 40.491516 0.269275 2.207459 0.088327 -0.019461 -436770.000000 0 0 1
-30.015724 -8.378943 -24.685712 39.755940 0.272222 2.240727 0.071644 -0.014413 -721439.000000 0 0 1
-29.755184 -7.099343 -25.244022 39.661471 0.234213 2.260732 0.063799 -0.009212 136862.000000 0 0 1
-29.696054 -7.097843 -26.663242 40.535953 0.234615 2.288648 0.037954 -0.002912 473980.000000 0 0 1
-31.104934 -7.058143 -27.361302 42.023507 0.223135 2.279823 0.058086 -0.008675 428744.000000 0 0 1
-31.781494 -8.300943 -27.181522 42.635714 0.255480 2.262084 0.074061 -0.020597 -489386.000000 0 0 1
-33.089504 -8.112243 -27.667652 43.888754 0.240419 2.252870 0.076823 -0.016776 -282517.000000 0 0 1
-34.084574 -9.177143 -27.279022 44.610796 0.263009 2.228738 0.078803 -0.028001 -645274.000000 0 0 1
-33.696624 -10.440343 -27.833412 44.935087 0.300454 2.238792 0.082352 -0.019955 351575.000000 0 0 1
-34.597455 -11.551643 -27.634272 45.761090 0.322249 2.219158 0.062833 -0.017154 119043.000000 0 0 1
-35.892871 -11.592843 -28.455752 47.248513 0.312408 2.217122 0.044276 -0.012852 -787524.000000 0 0 1
35.564298 -10.748843 -27.984162 46.513119 -0.293508 2.216349 0.029600 -0.013375 -927234.000000 0 0 1
34.575768 -10.569243 -28.932732 46.306540 -0.296663 2.245683 0.022984 -0.007296 -704489.000000 0 0 1
33.503078 -9.572043 -28.538362 45.039076 -0.278292 2.257040 0.019858 -0.009125 -419561.000000 0 0 1
32.468628 -9.964043 -27.670792 43.808295 -0.297759 2.254455 0.000694 -0.002446 -258819.000000 0 0 1
31.619728 -8.917443 -27.308622 42.721058 -0.274882 2.264294 -0.005487 -0.001119 -136608.000000 0 0 1
30.512838 -9.458943 -26.382152 41.430941 -0.300605 2.261104 -0.013675 0.007036 -353882.000000 0 0 1
30.915618 -9.709243 -25.039712 40.951582 -0.304302 2.228684 -0.009353 0.003941 -271890.000000 0 0 1
29.854928 -10.180143 -24.274312 39.801938 -0.328623 2.226702 -0.028082 0.012878 -410560.000000 0 0 1
30.270698 -10.467043 -22.785312 39.307055 -0.332912 2.189126 -0.033061 0.007734 420016.000000 0 0 1
31.091278 -11.637643 -22.606912 40.164347 -0.358162 2.168638 -0.026504 0.003321 338015.000000 0 0 1
31.380628 -11.785043 -21.263512 39.695945 -0.359254 2.136085 -0.004815 -0.004249 -112894.000000 0 0 1
32.516668 -12.782043 -20.982112 40.754918 -0.374537 2.111613 0.030285 -0.007381 -878183.000000 0 0 1
33.814218 -12.369643 -21.180712 41.773580 -0.350691 2.102539 0.031443 -0.012461 -847805.000000 0 0 1
34.770748 -13.346943 -20.789812 42.653981 -0.366512 2.079913 0.049106 -0.005969 1108090.000000 0 0 1
36.162058 -12.989743 -21.466612 44.014126 -0.344855 2.080274 0.060692 -0.022411 725651.000000 0 0 1
-35.657270 -11.728843 -21.217912 43.118516 0.317785 2.085278 0.074608 -0.016387 431327.000000 0 0 1
-36.109624 -10.698543 -22.076212 43.654586 0.288040 2.100992 0.083954 -0.017572 -352806.000000 0 0 1
-35.734141 -10.793843 -23.658412 44.194528 0.293345 2.135688 0.079435 -0.022644 442225.000000 0 0 1
36.037358 -11.863643 -24.329912 45.070854 -0.318030 2.141013 0.078351 -0.017826 327412.000000 0 0 1
34.677448 -11.739143 -24.678412 44.151522 -0.326415 2.163913 0.090993 -0.014449 -152218.000000 0 0 1
34.237428 -12.809943 -25.722672 44.698456 -0.358026 2.183976 0.042424 -0.018077 -152119.000000 0 0 1
34.306718 -14.158743 -25.251742 44.889547 -0.391415 2.168240 0.050837 -0.015478 257573.000000 0 0 1
33.324818 -14.487043 -24.290212 43.708493 -0.410077 2.160040 0.033147 -0.020146 -395986.000000 0 0 1
-29.340734 7.755357 -19.638312 36.148133 -0.258411 2.145127 0.055858 0.006355 -616868.000000 0 0 1
-28.174114 7.060257 -19.889812 35.202735 -0.245537 2.171239 0.056147 0.001536 -730708.000000 0 0 1
-27.490334 7.725957 -20.945412 35.413544 -0.273975 2.203655 0.060721 -0.007825 545175.000000 0 0 1
-26.084834 7.101457 -21.243812 34.382390 -0.265803 2.236826 0.063152 -0.012489 518762.000000 0 0 1
-25.089984 7.444157 -20.309312 33.126891 -0.288425 2.230745 0.077251 -0.010150 434436.000000 0 0 1
-23.970844 6.531057 -20.327512 32.100838 -0.266002 2.256528 0.076188 -0.012527 1231040.000000 0 0 1
-22.721344 7.233157 -19.680812 30.917833 -0.308198 2.260816 0.060689 -0.013152 454778.000000 0 0 1
-22.047244 8.131657 -20.502212 31.185661 -0.353349 2.288192 0.064048 -0.010993 789529.000000 0 0 1
-20.797344 8.616657 -19.939012 30.072254 -0.392786 2.295665 0.059986 -0.005986 950138.000000 0 0 1
-20.187044 9.700257 -20.857412 30.604629 -0.447942 2.320623 0.044618 -0.004907 -202369.000000 0 0 1
-19.499244 9.161957 -21.976912 30.775747 -0.439248 2.366132 0.051445 -0.012148 -118169.000000 0 0 1
-18.943644 10.178557 -22.783812 31.329965 -0.493046 2.385061 0.043583 -0.012274 -70863.400000 0 0 1
-18.095444 9.481957 -23.855512 31.407611 -0.482660 2.433411 0.048769 -0.010546 -258101.000000 0 0 1
-18.831844 8.707457 -24.741412 32.289249 -0.433101 2.443770 0.045453 -0.008933 -329179.000000 0 0 1
-17.926944 8.119757 -25.627632 32.312246 -0.425293 2.486718 0.036181 -0.003310 -277203.000000 0 0 1
-18.544544 7.061657 -26.563772 33.157217 -0.363841 2.500004 0.017470 0.000250 -184700.000000 0 0 1
-18.784444 5.814157 -25.967352 32.572428 -0.300167 2.493470 0.043092 -0.002789 -193169.000000 0 0 1
-19.612344 5.017357 -26.746442 33.543852 -0.250455 2.493700 0.034738 -0.006879 -679784.000000 0 0 1
-20.206944 3.908757 -25.801852 33.005068 -0.191076 2.468270 0.039364 -0.001285 -114906.000000 0 0 1
-19.449844 2.751957 -25.355182 32.074210 -0.140557 2.482448 0.038322 -0.004025 501447.000000 0 0 1
-18.225644 3.031957 -24.682012 30.831292 -0.164847 2.499010 0.035574 -0.003228 191558.000000 0 0 1
-17.419144 1.784957 -24.210512 29.879115 -0.102115 2.515430 0.039987 -0.004280 78992.500000 0 0 1
-18.001344 1.044557 -23.126212 29.325094 -0.057962 2.479350 0.050477 -0.002085 28386.600000 0 0 1
-19.179944 0.350457 -23.441012 30.289835 -0.018270 2.455757 0.044097 0.001306 -306990.000000 0 0 1
-19.650144 -0.521843 -22.273512 29.707066 0.026550 2.418513 0.058309 -0.001489 -74270.600000 0 0 1
-18.733044 -1.558343 -22.000812 28.937710 0.082996 2.434543 0.067882 -0.004307 296574.000000 0 0 1
-19.180744 -2.314243 -20.885912 28.451326 0.120074 2.395126 0.065083 -0.002396 -249822.000000 0 0 1
-18.527744 -3.667043 -20.642412 27.979165 0.195396 2.400569 0.055059 -0.016952 -292213.000000 0 0 1
-18.539344 -4.532843 -21.763412 28.946503 0.239794 2.421659 0.059196 -0.023714 344253.000000 0 0 1
-18.770444 -5.811743 -21.215612 28.917263 0.300261 2.394498 0.069202 -0.021280 -239870.000000 0 0 1
-18.819044 -6.857043 -22.318012 29.987816 0.349416 2.410187 0.040270 -0.028801 159451.000000 0 0 1
-17.554744 -7.164443 -22.887712 29.721131 0.387487 2.449766 0.050354 -0.016717 233665.000000 0 0 1
-17.727344 -7.884643 -24.119412 30.954359 0.418499 2.464173 0.060266 -0.021320 23219.000000 0 0 1
-16.444544 -7.897643 -24.959512 30.915579 0.447731 2.510434 0.064064 -0.014886 -1098060.000000 0 0 1
-16.572844 -8.511043 -26.215592 32.161378 0.474432 2.523744 0.075985 -0.039549 -205155.000000 0 0 1
-15.371444 -8.573543 -26.933592 32.174606 0.508780 2.562770 0.080624 -0.034575 529306.000000 0 0 1
-14.152444 -9.396043 -26.349112 31.350486 0.586096 2.568944 0.070487 -0.030888 52861.200000 0 0 1
-13.532444 -8.824343 -25.187672 29.923484 0.577842 2.571287 0.065749 -0.014855 -166141.000000 0 0 1
-12.791644 -9.831743 -24.585512 29.406406 0.655303 2.560858 0.031683 -0.005766 -342762.000000 0 0 1
-11.933144 -9.487843 -23.348012 27.884561 0.671736 2.563140 0.051820 -0.003936 108370.000000 0 0 1
-12.655944 -9.272143 -22.126712 27.124471 0.632292 2.524816 0.050013 -0.000733 -214736.000000 0 0 1
-11.820044 -9.108643 -21.027712 25.784598 0.656562 2.524414 0.046519 -0.005598 -622343.000000 0 0 1
-12.486144 -8.637443 -19.690312 24.863982 0.605176 2.484745 0.031226 -0.002589 309090.000000 0 1 0
-13.157944 -7.349243 -19.701312 24.804930 0.509376 2.488568 0.024276 0.005763 642372.000000 0 1 0
-14.523944 -7.366843 -20.081212 25.854794 0.469407 2.460193 0.023815 -0.007522 -191014.000000 0 0 1
-15.165844 -6.051843 -19.612712 25.520307 0.379682 2.447312 0.041893 -0.012001 -363304.000000 0 0 1
-15.126344 -5.826843 -18.229412 24.394053 0.367693 2.414769 0.029944 -0.006444 407986.000000 0 1 0
-15.086444 -4.432243 -17.936312 23.852816 0.285750 2.421823 0.029113 -0.011664 -554345.000000 0 1 0
-14.944644 -4.135043 -16.441712 22.600240 0.269937 2.385470 0.037774 -0.006772 1431330.000000 0 1 0
-16.181644 -4.235943 -15.635412 22.896614 0.256030 2.322480 0.053686 -0.012627 1685520.000000 0 1 0
-16.878744 -2.976943 -15.695812 23.240325 0.174577 2.312262 0.045181 -0.018608 -176176.000000 0 1 0
-18.103144 -2.787543 -14.806212 23.552455 0.152781 2.250610 0.052468 -0.019993 -430679.000000 0 1 0
-17.749344 -2.964243 -13.461912 22.473296 0.165479 2.213071 0.054230 -0.025713 565744.000000 0 1 0
-18.590244 -2.322143 -12.526012 22.536426 0.124268 2.160136 0.045866 -0.022728 -159398.000000 0 1 0
-17.878044 -1.079943 -11.927712 21.518853 0.060333 2.158307 0.026109 -0.018757 -78544.200000 0 1 0
-17.772344 -0.060843 -12.852212 21.932607 0.003423 2.196893 0.051311 -0.021803 607970.000000 0 1 0
-16.971444 0.957657 -12.271712 20.965255 -0.056368 2.196090 0.055591 -0.015416 -667762.000000 0 1 0
-16.575244 2.088757 -13.304312 21.356646 -0.125356 2.243316 0.072918 -0.013139 381420.000000 0 1 0
-15.784744 1.679157 -14.454112 21.468560 -0.105980 2.309417 0.074482 -0.014356 1693850.000000 0 1 0
-14.482544 1.111257 -14.147612 20.276437 -0.076581 2.343029 0.064726 -0.016170 632987.000000 0 1 0
-13.927344 0.130257 -15.214412 20.626832 -0.009352 2.400310 0.055978 -0.013946 274294.000000 0 1 0
-13.296644 0.759157 -16.332712 21.074499 -0.057032 2.457510 0.047371 -0.017011 539923.000000 0 1 0
-12.709144 -0.115343 -17.289612 21.458479 0.009075 2.507693 0.026625 -0.006341 12362.400000 0 1 0
-12.233244 0.594757 -18.590012 22.261952 -0.048580 2.559034 0.047481 -0.012376 833196.000000 0 1 0
-10.882044 1.075857 -18.413512 21.415736 -0.098545 2.605698 0.015247 -0.003761 723941.000000 0 1 0
-10.565944 1.869957 -19.501012 22.258153 -0.175166 2.638569 0.017238 -0.000856 386103.000000 0 1 0
-9.182844 2.538457 -19.276312 21.502199 -0.269700 2.682559 0.005675 -0.003247 -1036720.000000 0 1 0
-8.098144 1.685957 -19.364912 21.057592 -0.205258 2.737900 0.000410 -0.000570 -78628.300000 0 1 0
-6.813244 2.259857 -19.082512 20.387974 -0.320267 2.781798 0.002766 -0.001428 912090.000000 0 1 0
-6.361144 3.312957 -20.121112 21.361155 -0.480158 2.799184 0.009051 -0.000206 -1404540.000000 0 1 0
-6.159544 2.693257 -21.375612 22.407820 -0.412200 2.836887 0.007085 -0.005898 124886.000000 0 1 0
-5.975544 3.704857 -22.282812 23.365718 -0.554998 2.835951 0.006200 -0.002645 -299446.000000 0 1 0
-5.563444 3.230257 -23.687912 24.545949 -0.526049 2.876406 0.016065 -0.011533 -655869.000000 0 1 0
-4.264144 2.755057 -23.777012 24.312950 -0.573628 2.931237 0.024343 -0.008865 -801257.000000 0 1 0
-3.829944 2.191857 -25.016512 25.402727 -0.519799 2.966994 0.035290 -0.014021 489174.000000 0 0 1
-2.384244 1.666357 -24.732712 24.903180 -0.609990 3.024519 0.031910 -0.018024 -7423.320000 0 1 0
-1.348244 2.627957 -24.696312 24.872308 -1.096772 3.022560 0.030991 -0.015044 865095.000000 0 1 0
-0.048144 2.031357 -24.833112 24.916102 -1.547100 3.059951 0.033317 -0.015648 1071700.000000 0 1 0
0.619556 1.185757 -23.660412 23.698206 1.089312 3.085109 0.040451 -0.019086 -553380.000000 0 1 0
0.057256 -0.092943 -23.514312 23.514565 -1.018672 3.136950 0.034469 -0.024477 68066.100000 0 1 0
0.791156 -0.873543 -22.589612 22.620335 -0.834849 3.089467 0.041501 -0.020764 -441779.000000 0 1 0
0.321656 -2.366443 -22.537112 22.663294 -1.435700 3.036019 0.045194 -0.028990 1198800.000000 0 1 0
-0.934444 -2.532543 -21.804112 21.970577 1.217319 3.018415 0.041023 -0.028979 1057810.000000 0 1 0
-2.074444 -2.621343 -22.630512 22.876075 0.901342 2.994938 0.052752 -0.030781 -432833.000000 0 1 0
-2.939744 -1.377543 -22.716612 22.947422 0.438208 2.999641 0.053534 -0.027894 -1916200.000000 0 1 0
-3.615444 -1.095243 -21.549012 21.877635 0.294147 2.968049 0.034083 -0.019702 -611459.000000 0 1 0
-4.392344 0.040557 -21.606812 22.048779 -0.009233 2.941032 0.011524 -0.010983 -821707.000000 0 1 0
-5.735444 -0.189643 -22.279312 23.006499 0.033053 2.889498 0.015765 -0.008758 -1588600.000000 0 1 0
-6.440644 -1.231343 -21.680712 22.650637 0.188904 2.847891 0.018911 -0.003340 -1192650.000000 0 1 0
-7.801444 -1.002943 -21.665912 23.049515 0.127857 2.793346 0.016476 -0.002218 -777100.000000 0 1 0
-8.668944 -2.251243 -21.436012 23.231902 0.254078 2.745815 0.026238 -0.002526 -203777.000000 0 1 0
-8.749544 -3.120443 -22.604312 24.438629 0.342579 2.751679 0.054036 -0.006757 18390.100000 0 1 0
-8.999744 -4.459143 -22.229412 24.393157 0.460021 2.717220 0.030378 -0.005635 -517055.000000 0 1 0
-10.125244 -5.087843 -23.033512 25.670009 0.465638 2.684394 0.041617 -0.009856 565943.000000 0 0 1
-11.498644 -4.844543 -22.691512 25.895813 0.398745 2.638845 0.038907 -0.011963 995973.000000 0 0 1
-12.336044 -5.523143 -23.624212 27.217393 0.420960 2.621921 0.046981 -0.011257 -647746.000000 0 0 1
-13.819444 -5.444543 -23.347112 27.671424 0.375303 2.574984 0.057943 -0.006853 -627506.000000 0 0 1
-14.339344 -4.127743 -23.595012 27.917371 0.280284 2.577685 0.061320 -0.019122 648710.000000 0 0 1
-15.770444 -4.066443 -23.588312 28.664461 0.252355 2.537313 0.078016 -0.017603 912837.000000 0 0 1
-16.328844 -2.718243 -24.224612 29.340276 0.164956 2.542138 0.069030 -0.020231 23461.100000 0 0 1
-16.186344 -2.663143 -25.633182 30.432714 0.163069 2.572315 0.060742 -0.024411 107872.000000 0 0 1
-16.360544 -1.401843 -26.152092 30.879839 0.085476 2.580922 0.055456 -0.017229 -537552.000000 0 0 1
-17.752644 -1.024443 -26.663792 32.049394 0.057643 2.553426 0.062275 -0.013550 -606918.000000 0 0 1
-18.093744 -1.587843 -27.890372 33.283294 0.087532 2.564347 0.068327 -0.020118 119281.000000 0 0 1
-17.632044 -0.965043 -29.078502 34.020281 0.054678 2.595846 0.058597 -0.016904 -359160.000000 0 0 1
-17.830244 -1.813643 -30.325662 35.225738 0.101369 2.607822 0.043523 -0.017651 583347.000000 0 0 1
-19.173244 -1.838943 -30.820832 36.344445 0.095619 2.583035 0.028055 -0.017152 686927.000000 0 0 1
-19.182944 -2.652643 -31.957962 37.367542 0.137410 2.596797 0.030086 -0.024715 -382887.000000 0 0 1
-20.528544 -3.351143 -32.202532 38.336071 0.161816 2.568091 0.005032 -0.015497 414133.000000 0 0 1
-21.724944 -2.635643 -32.504142 39.184678 0.120729 2.549029 0.004705 -0.015814 864367.000000 0 0 1
-22.359344 -2.065243 -31.373002 38.580704 0.092105 2.520389 -0.001293 -0.003622 -557292.000000 0 0 1
-23.400644 -0.996443 -31.724412 39.433759 0.042556 2.505627 -0.005352 -0.005125 -329792.000000 0 0 1
-22.888544 0.274457 -32.127862 39.448197 -0.011990 2.522545 0.006534 -0.013416 218101.000000 0 0 1
-23.846844 1.089857 -32.804722 40.571043 -0.045671 2.512522 0.011031 -0.014046 -29164.400000 0 0 1
-23.338444 2.396857 -33.503352 40.901130 -0.102341 2.530689 0.017473 -0.014581 -462889.000000 0 0 1
-22.822044 3.472357 -32.649122 39.985849 -0.150991 2.526148 0.018213 -0.014821 1180390.000000 0 0 1
-23.788344 4.181557 -31.825192 39.952641 -0.174004 2.492401 0.022014 -0.020257 -117825.000000 0 0 1
-24.912944 4.981757 -32.476772 41.233644 -0.197363 2.477746 0.029187 -0.022634 -433070.000000 0 0 1
-25.956064 4.147157 -32.949232 42.149354 -0.158437 2.468225 0.025750 -0.027278 -642.978000 0 0 1
-26.794154 4.861057 -33.848272 43.442629 -0.179470 2.464103 0.042184 -0.037877 -49842.600000 0 0 1
-28.169924 4.189657 -33.983452 44.339292 -0.147646 2.444078 0.052717 -0.038695 -333005.000000 0 0 1
-28.016174 3.007057 33.726111 43.947684 -0.106924 0.695997 0.043491 -0.031024 -195664.000000 0 0 1
-29.217804 2.550557 33.189124 44.291121 -0.087074 0.723731 0.051297 -0.030380 -536398.000000 0 0 1
-29.301804 1.028557 32.845964 44.028525 -0.035088 0.728738 0.054785 -0.002103 -71446.900000 0 0 1
-29.279044 0.140357 33.933341 44.819123 -0.004794 0.711907 0.040906 0.005440 -841.100000 0 0 1
-29.185114 -1.157943 33.417331 44.382764 0.039655 0.718286 0.028742 0.009182 -720772.000000 0 0 1
-28.843814 -2.135643 -33.862422 44.533023 0.073907 2.434708 -0.010453 0.019424 861501.000000 0 0 1
-27.511924 -2.081243 -33.309902 43.252596 0.075505 2.449833 0.003287 0.009145 1105320.000000 0 0 1
-27.209794 -0.825443 -32.597162 42.469156 0.030327 2.445805 0.007239 0.010385 -693791.000000 0 0 1
-27.569164 -0.745943 -31.097512 41.565255 0.027051 2.416083 0.017339 0.007554 26487.000000 0 0 1
-26.533814 -1.290543 -30.296772 40.293959 0.048599 2.421726 0.001638 0.000988 486272.000000 0 0 1
-26.790754 -0.929543 -28.960172 39.462642 0.034683 2.394788 0.002588 -0.000439 132393.000000 0 0 1
-25.676734 -1.243843 -27.914062 37.947815 0.048405 2.397335 0.006162 -0.000850 125523.000000 0 0 1
-25.802074 -2.605543 -27.504002 37.802195 0.100641 2.385579 -0.003226 0.006065 936861.000000 0 0 1
-24.836544 -2.976243 -26.484672 36.430067 0.119265 2.384740 0.021767 -0.005514 421774.000000 0 0 1
-25.125474 -4.434643 -26.071122 36.478197 0.174701 2.366997 0.022124 -0.008023 869975.000000 0 0 1
-26.296664 -4.466843 -25.223172 36.710702 0.168257 2.328258 0.026779 -0.004248 716702.000000 0 0 1
-26.417034 -5.595543 -24.414612 36.403888 0.208731 2.305894 0.020182 -0.005168 536311.000000 0 0 1
-27.536814 -5.400343 -23.331612 36.493889 0.193656 2.264422 0.037803 -0.009108 501340.000000 0 0 1
-27.586754 -6.474543 -22.406112 36.124542 0.230525 2.239853 0.036562 -0.011516 220449.000000 0 0 1
-28.700104 -6.312543 -21.537912 36.433855 0.216501 2.203282 0.060432 -0.011725 233268.000000 0 0 1
-29.103924 -7.582043 -20.776112 36.553695 0.254852 2.175323 0.055070 -0.015610 175424.000000 0 0 1
-28.038674 -7.976743 -19.900712 35.296374 0.277168 2.169797 0.047659 -0.016131 432775.000000 0 0 1
-28.356534 -8.886843 -18.854712 35.193311 0.303702 2.136189 0.060813 -0.016637 -186707.000000 0 0 1
-29.035394 -8.270143 -17.610412 34.951051 0.277482 2.098857 0.058399 -0.013266 -108137.000000 0 0 1
-28.232234 -7.354143 -16.926012 33.728806 0.254825 2.096506 0.059834 -0.018083 275794.000000 0 0 1
-28.966884 -6.762043 -15.840312 33.700461 0.229334 2.060124 0.061636 -0.014941 -162188.000000 0 0 1
-28.217684 -5.755343 -14.988912 32.465815 0.201203 2.050688 0.079792 -0.014607 -275010.000000 0 0 1
-27.885134 -4.552743 -15.673512 32.310480 0.161840 2.077263 0.076374 -0.013700 35230.800000 0 0 1
-27.144064 -3.746843 -14.803112 31.144360 0.137169 2.066109 0.091067 -0.013080 -125543.000000 0 0 1
-13.913444 21.224357 -5.500612 25.967556 -0.990535 1.784240 0.051670 -0.016819 13772.100000 0 0 1
-14.125744 20.490157 -6.664812 25.764372 -0.967226 1.832455 0.074994 -0.017648 124638.000000 0 0 1
-15.002444 19.410257 -6.397212 25.352627 -0.912791 1.825883 0.072885 -0.034979 -103502.000000 0 0 1
-15.188944 18.570657 -7.727312 25.204854 -0.885236 1.882395 0.090079 -0.041204 -521316.000000 0 0 1
-13.984944 18.052257 -8.234112 24.274744 -0.911679 1.916868 0.077147 -0.033442 -397926.000000 0 1 0
-14.096444 17.021057 -9.243112 23.955400 -0.879109 1.966922 0.063758 -0.037374 -304791.000000 0 1 0
-14.588444 15.603857 -8.730712 23.076576 -0.819017 1.958795 0.066270 -0.045960 225724.000000 0 1 0
-15.954044 15.717257 -8.347412 23.900689 -0.777922 1.927571 0.064799 -0.034107 330190.000000 0 1 0
-16.463144 14.661257 -7.527812 23.294967 -0.727570 1.899854 0.078943 -0.030555 -1177740.000000 0 1 0
-17.870744 14.934557 -7.112012 24.351287 -0.696133 1.867175 0.097312 -0.025718 -1213000.000000 0 1 0
-18.781444 14.780257 -8.164212 25.255751 -0.666739 1.899970 0.089695 -0.014649 -1220930.000000 0 0 1
-19.999544 15.374257 -7.960812 26.452297 -0.655381 1.876485 0.060836 -0.011689 -1273700.000000 0 0 1
-21.103444 14.803557 -8.835712 27.250145 -0.611716 1.901009 0.058982 -0.000647 -471708.000000 0 0 1
-21.508644 13.526857 -8.474912 26.784730 -0.561401 1.892737 0.080224 -0.004665 337593.000000 0 0 1
-22.308044 12.785957 -9.405812 27.378802 -0.520446 1.921484 0.074975 -0.007344 374924.000000 0 0 1
-22.874644 11.435557 -8.847912 27.061168 -0.463586 1.903881 0.079669 -0.009787 -164576.000000 0 0 1
-21.922844 10.424557 -8.701912 25.787705 -0.443865 1.914997 0.083834 -0.015100 -7096.060000 0 0 1
-22.558144 9.373557 -8.052312 25.721064 -0.393821 1.889213 0.095272 -0.028109 286246.000000 0 0 1
-21.510144 8.355357 -7.448712 24.248331 -0.370500 1.883029 0.108606 -0.011656 714272.000000 0 1 0
-20.978744 7.314457 -8.314212 23.722038 -0.335481 1.928885 0.069307 -0.012256 1366590.000000 0 1 0
-19.912844 6.563557 -7.663212 22.323226 -0.318400 1.921208 0.058691 -0.008014 566728.000000 0 1 0
-19.414044 5.341357 -8.440812 21.833060 -0.268486 1.967746 0.024413 -0.014131 -534271.000000 0 1 0
-20.402944 4.367157 -8.607912 22.570962 -0.210864 1.962075 0.039547 -0.008891 -3634.020000 0 1 0
-20.186144 3.460657 -9.644012 22.637657 -0.169787 2.010881 0.029387 -0.003492 -655309.000000 0 1 0
-20.971644 2.168057 -9.720112 23.216177 -0.103014 2.002786 0.015149 -0.000870 -162363.000000 0 1 0
-20.631844 1.282957 -8.638712 22.404158 -0.062103 1.966638 0.024860 -0.011099 19576.200000 0 1 0
-21.597744 0.292257 -8.420512 23.183032 -0.013531 1.942517 0.040177 -0.006337 -296778.000000 0 1 0
-21.472944 -1.062543 -9.074212 23.335759 0.049443 1.970184 0.024207 -0.014495 336107.000000 0 1 0
-20.305844 -1.840943 -8.782012 22.200002 0.090414 1.977502 0.010996 -0.007270 693785.000000 0 1 0
-20.411244 -3.148943 -9.233012 22.622626 0.153068 1.991203 0.017910 -0.008829 -21829.100000 0 1 0
-21.500244 -4.047443 -8.555912 23.491401 0.186073 1.943586 0.039654 -0.009207 362968.000000 0 1 0
-21.120444 -4.297243 -7.172312 22.715226 0.200724 1.892042 0.027667 -0.013594 179471.000000 0 1 0
-22.097944 -4.892643 -6.371212 23.512750 0.217892 1.845195 0.044525 -0.011683 -838451.000000 0 1 0
-22.368244 -6.364943 -6.679712 24.196475 0.277225 1.850490 0.059424 -0.015026 -164983.000000 0 1 0
-21.350044 -7.279443 -6.289612 23.417384 0.328596 1.842722 0.056360 -0.023405 930796.000000 0 1 0
-21.593644 -8.514143 -6.912112 24.218864 0.375574 1.860222 0.069777 -0.025830 -198942.000000 0 1 0
-20.747344 -9.568143 -6.185512 23.669859 0.432108 1.835190 0.075129 -0.022749 581908.000000 0 1 0
-19.343944 -9.556243 -6.435412 22.514983 0.458850 1.860667 0.065517 -0.021212 852278.000000 0 1 0
-18.553744 -10.383343 -5.601912 21.987193 0.510211 1.828417 0.071683 -0.015322 10889.000000 0 1 0
-17.730244 -11.529543 -6.215012 22.043554 0.576569 1.856614 0.053537 -0.013777 1424140.000000 0 1 0
-16.489644 -11.161043 -6.941912 21.087138 0.595021 1.906254 0.046970 -0.024162 2036420.000000 0 1 0
-16.639644 -10.479243 -8.159412 21.290098 0.562026 1.964108 0.030290 -0.035279 -272918.000000 0 1 0
-15.721744 -10.930143 -9.363612 21.314748 0.607514 2.025618 0.033750 -0.023326 428539.000000 0 1 0
-15.990844 -12.279043 -9.785112 22.410498 0.654846 2.022646 0.048996 -0.024498 -178138.000000 0 1 0
-15.181144 -12.659343 -10.836812 22.542462 0.695064 2.072282 0.046663 -0.008765 -378151.000000 0 1 0
-15.485244 -13.999243 -11.603712 23.883419 0.735041 2.078129 0.066290 -0.006375 22147.800000 0 1 0
-16.381544 -14.039943 -12.709012 25.039848 0.708578 2.103137 0.054578 -0.012496 449693.000000 0 0 1
-16.334044 -15.265243 -13.339312 26.033937 0.751587 2.108752 0.036007 -0.008416 -49031.800000 0 0 1
-16.973544 -15.222943 -14.775112 27.168790 0.731079 2.145787 0.063461 -0.008278 -88772.100000 0 0 1
-16.936744 -16.445143 -15.457212 28.217396 0.770673 2.150517 0.048805 0.001088 334306.000000 0 0 1
-17.161944 -16.236443 -16.833312 29.008874 0.757694 2.189871 0.045872 0.001479 -585985.000000 0 0 1
-17.385344 -17.585043 -17.633512 30.371445 0.791109 2.190256 0.041787 -0.005045 -435462.000000 0 0 1
-18.584944 -18.234143 -17.316012 31.268649 0.775871 2.157696 0.002053 -0.000799 -719957.000000 0 0 1
-19.545444 -18.074543 -18.310312 32.310695 0.746319 2.173285 0.000943 -0.000595 -128834.000000 0 0 1
-20.991944 -17.885743 -17.793412 32.820223 0.705671 2.143787 -0.008448 0.000145 -112514.000000 0 0 1
-21.195044 -16.614243 -17.191712 31.950241 0.664830 2.138951 -0.008796 -0.003351 271835.000000 0 0 1
-20.705444 -16.457443 -15.857312 30.838567 0.671585 2.110876 -0.020582 0.000380 -579110.000000 0 0 1
-20.968744 -15.050843 -15.395712 30.054019 0.622556 2.108620 0.002211 -0.011451 1176680.000000 0 0 1
-22.375844 -14.709143 -15.272712 30.826823 0.581537 2.089133 0.011748 -0.010858 1490780.000000 0 0 1
-22.433444 -13.386443 -14.837012 30.043189 0.538003 2.087315 0.019390 -0.015071 606854.000000 0 0 1
-23.834444 -12.858443 -14.349312 30.648377 0.494738 2.058039 0.041099 -0.022312 601758.000000 0 0 1
-24.356944 -13.475743 -13.163712 30.791877 0.505343 2.012528 0.050539 -0.021483 -34325.100000 0 0 1
-25.507264 -12.773543 -12.826512 31.277841 0.464272 1.993341 0.068397 -0.030484 -456222.000000 0 0 1
-26.224414 -13.132643 -11.476612 31.494425 0.464271 1.943786 0.078511 -0.038383 149020.000000 0 0 1
-27.323494 -12.283443 -11.195912 31.981319 0.422485 1.928449 0.080609 -0.034193 211789.000000 0 0 1
-27.785184 -12.666443 -9.894412 32.099137 0.427725 1.884144 0.066705 -0.033548 211040.000000 0 0 1
-28.703914 -11.591643 -9.291512 32.320474 0.383808 1.862392 0.069786 -0.029502 34931.800000 0 0 1
-27.887534 -10.485143 -9.011112 31.126402 0.359629 1.864501 0.072725 -0.029566 274786.000000 0 0 1
-28.663104 -9.495343 -8.387012 31.338108 0.319896 1.841729 0.082291 -0.027338 -489704.000000 0 0 1
-27.889554 -8.298343 -7.904812 30.152542 0.289201 1.836057 0.090264 -0.022502 -723946.000000 0 0 1
-27.281724 -8.656443 -6.702412 29.396408 0.307250 1.800820 0.092314 -0.028244 133346.000000 0 0 1
-26.479434 -7.621043 -6.054312 28.211618 0.280236 1.787082 0.085473 -0.026948 84626.700000 0 0 1
-27.126334 -6.341843 -5.487312 28.393090 0.229664 1.765282 0.092837 -0.027407 -1077250.000000 0 0 1
-27.977824 -6.575943 -4.417412 29.077744 0.230851 1.723304 0.092229 -0.020139 -53703.000000 0 0 1
-27.442454 -6.912843 -3.121412 28.471370 0.246769 1.680650 0.097822 -0.011007 -278955.000000 0 0 1
-26.665804 -5.823343 -2.279312 27.389262 0.215007 1.654112 0.097045 -0.006540 485498.000000 0 0 1
-27.529744 -4.833643 -1.748712 28.005516 0.173807 1.633279 0.106983 -0.011493 183792.000000 0 0 1
-26.808054 -3.879743 -1.027512 27.106825 0.143725 1.608711 0.092390 -0.018907 177662.000000 0 0 1
-27.742974 -2.781443 -0.393212 27.884828 0.099924 1.584898 0.102458 -0.021584 310989.000000 0 0 1
-28.579204 -3.052243 0.709588 28.750489 0.106396 1.546113 0.104685 -0.019363 30763.800000 0 0 1
-27.948414 -3.479443 1.924288 28.229829 0.123858 1.502578 0.095537 -0.015744 -430329.000000 0 0 1
-28.911724 -3.796343 3.045488 29.318510 0.130561 1.466733 0.097342 -0.012648 -227067.000000 0 0 1
-29.576414 -5.037843 2.890288 30.141299 0.168714 1.474757 0.093610 -0.003478 -123323.000000 0 0 1
-30.529774 -5.228143 3.900188 31.218777 0.169602 1.445538 0.107902 -0.013204 312240.000000 0 0 1
-31.375714 -6.565643 3.673988 32.265171 0.206282 1.456680 0.089370 -0.004867 319646.000000 0 0 1
-30.585244 -7.716243 3.895488 31.783209 0.247129 1.447923 0.073650 0.004615 96455.000000 0 0 1
-31.310564 -8.935343 3.866288 32.789327 0.277989 1.452608 0.084189 0.005411 -253895.000000 0 0 1
-30.579644 -10.193543 4.309788 32.520720 0.321760 1.437881 0.063683 0.014322 -334901.000000 0 0 1
-30.451764 -10.241443 5.676388 32.625427 0.324433 1.395920 0.049239 0.017945 156519.000000 0 0 1
-29.554744 -11.242043 6.073088 32.198584 0.363479 1.381046 0.042486 0.018043 -333085.000000 0 0 1
-29.546484 -11.538843 7.574588 32.611563 0.372318 1.336389 0.041182 0.002295 -16040.700000 0 0 1
-29.453594 -10.336143 8.357888 32.314151 0.337503 1.309177 0.053348 0.004767 324192.000000 0 0 1
-29.651744 -10.624543 9.724088 32.964598 0.344059 1.271356 0.058308 -0.005099 -202535.000000 0 0 1
-29.710814 -9.429943 10.721788 32.963814 0.307334 1.239510 0.055027 -0.003554 578921.000000 0 0 1
-28.548874 -8.575243 10.642688 31.651853 0.291797 1.227872 0.062395 -0.001241 705720.000000 0 0 1
-28.531204 -7.557843 11.621688 31.720880 0.258950 1.195688 0.072395 -0.014223 -166993.000000 0 0 1
-27.526014 -6.402743 11.544588 30.527923 0.228543 1.182983 0.075875 -0.010893 121453.000000 0 0 1
-27.939154 -5.474643 10.519388 30.351698 0.193497 1.216870 0.081882 -0.015123 906574.000000 0 0 1
-27.035854 -4.365143 10.647988 29.383184 0.160076 1.199972 0.087140 -0.018257 342790.000000 0 0 1
-27.106394 -3.475743 9.393288 28.897599 0.127530 1.239727 0.102835 -0.023945 9517.020000 0 0 1
-26.444254 -4.102543 8.322488 28.024868 0.153912 1.269281 0.073958 -0.007232 126363.000000 0 0 1
-26.624034 -3.322043 7.147488 27.766198 0.124135 1.310448 0.078398 -0.024492 -123796.000000 0 0 1
-25.894944 -3.878143 5.901088 26.840472 0.148660 1.349128 0.064446 -0.007082 1698540.000000 0 0 1
-24.432144 -3.767543 5.993188 25.437027 0.152999 1.332951 0.078842 -0.029309 2216780.000000 0 0 1
-23.943244 -4.405943 4.777688 24.809627 0.181980 1.377012 0.090577 -0.018986 -404983.000000 0 1 0
-22.447544 -4.194843 4.534488 23.281979 0.184742 1.374780 0.087804 -0.021168 -251779.000000 0 1 0
-22.220044 -2.780543 4.455188 22.832225 0.124490 1.374409 0.067054 -0.024148 449372.000000 0 1 0
-20.856944 -2.466943 4.225088 21.423102 0.117732 1.372274 0.059044 -0.016110 -249833.000000 0 1 0
-20.414044 -1.010643 4.633688 20.957711 0.049467 1.347857 0.046003 -0.026733 -338961.000000 0 1 0
-20.803544 0.077157 3.731388 21.135672 -0.003709 1.393322 0.063998 -0.025928 589560.000000 0 1 0
-22.138344 0.510857 3.908288 22.486484 -0.023072 1.396103 0.063652 -0.046159 -167364.000000 0 1 0
-22.434444 1.626857 2.923788 22.682581 -0.072389 1.441537 0.100436 -0.030834 28817.700000 0 1 0
-21.791644 2.870657 3.367988 22.236451 -0.130978 1.418749 0.081304 -0.034427 609645.000000 0 1 0
-21.868744 3.975457 2.503888 22.367737 -0.179823 1.458619 0.092285 -0.019234 942306.000000 0 1 0
-20.668544 4.054057 1.445588 21.111935 -0.193687 1.502270 0.072833 -0.012859 595362.000000 0 1 0
-20.822344 5.015057 0.416788 21.421823 -0.236348 1.551339 0.081263 -0.012907 885098.000000 0 1 0
-21.882144 4.702257 -0.516212 22.387629 -0.211671 1.593856 0.101998 -0.013397 387900.000000 0 1 0
-21.578144 3.577457 -1.572612 21.929149 -0.164296 1.642571 0.102373 -0.010421 -211029.000000 0 1 0
-21.437144 2.331657 -0.919112 21.583154 -0.108341 1.613394 0.075660 -0.012861 626028.000000 0 1 0
-20.871244 1.378957 -1.827912 20.996466 -0.065974 1.657965 0.057313 -0.009098 253933.000000 0 1 0
-19.882544 0.395657 -1.108712 19.917363 -0.019897 1.626491 0.042461 -0.015055 250006.000000 0 1 0
-20.610844 -0.516243 -0.258512 20.618929 0.025042 1.583334 0.047109 -0.021137 851724.000000 0 1 0
-19.836244 -1.185243 0.712888 19.884406 0.059680 1.534937 0.041017 -0.022015 -452024.000000 0 1 0
-19.008744 -2.424443 0.311388 19.165261 0.126859 1.554548 0.019449 -0.017261 -245752.000000 0 1 0
-18.350044 -2.993543 1.406688 18.645755 0.161711 1.495282 0.031096 -0.014229 321215.000000 0 1 0
-17.553644 -4.112343 1.110488 18.063083 0.230123 1.509279 0.016458 -0.012677 -218865.000000 0 1 0
-18.355244 -5.356543 0.609288 19.130572 0.283941 1.538942 0.007151 -0.012747 -654752.000000 0 1 0
-19.429144 -5.635243 1.426388 20.280093 0.282295 1.500404 0.071240 -0.020751 -269458.000000 0 1 0
-19.973944 -6.871343 1.034488 21.148143 0.331333 1.521861 0.035730 -0.015545 -212527.000000 0 1 0
-20.927544 -7.364443 2.161088 22.290523 0.338368 1.473693 0.064623 -0.014070 -268695.000000 0 1 0
-20.213744 -7.916543 3.220888 21.946326 0.373280 1.423502 0.064948 -0.014560 602873.000000 0 1 0
-21.100644 -8.395943 4.205388 23.095764 0.378695 1.387690 0.080360 -0.020294 96848.800000 0 1 0
-20.365844 -9.261243 5.248688 22.980143 0.426792 1.340361 0.068476 -0.009659 -103719.000000 0 1 0
-19.946444 -10.446843 4.656388 22.993023 0.482462 1.366873 0.071398 -0.009285 373582.000000 0 1 0
-18.930844 -11.022843 5.473688 22.579663 0.527280 1.325940 0.080192 -0.013481 183297.000000 0 1 0
-18.357544 -12.332843 4.836088 22.638158 0.591557 1.355512 0.062437 -0.009422 710270.000000 0 1 0
-19.269944 -13.458643 4.882988 24.006445 0.609669 1.365964 0.071266 -0.004366 1036750.000000 0 1 0
-18.412544 -14.524643 4.547288 23.888593 0.667902 1.379274 0.054090 -0.005821 528146.000000 0 1 0
-19.114644 -15.931643 4.685188 25.320700 0.694824 1.384690 0.059957 -0.002808 -240060.000000 0 0 1
-18.228144 -16.993843 4.404288 25.307187 0.750369 1.395873 0.055818 -0.018592 -47461.000000 0 0 1
-18.592944 -18.306543 4.848688 26.539346 0.777637 1.387066 0.053283 -0.016399 -793661.000000 0 0 1
-17.497744 -19.322043 4.669988 26.482470 0.834904 1.393527 0.044087 -0.020241 -950489.000000 0 0 1
-17.253544 -19.792543 3.324288 26.466591 0.853827 1.444861 0.051497 -0.023359 667222.000000 0 0 1
-16.440144 -20.990143 3.232388 26.857267 0.906364 1.450150 0.042846 -0.020060 574709.000000 0 0 1
-14.934244 -20.971343 3.568488 25.991595 0.951978 1.433067 0.043541 -0.018153 -100673.000000 0 0 1
-14.432144 -22.271043 3.772688 26.805211 0.995812 1.429583 0.044924 -0.018438 -765090.000000 0 0 1
-13.094444 -22.376043 4.107988 26.249331 1.041331 1.413652 0.050728 -0.010515 -890203.000000 0 0 1
-12.578444 -23.796743 4.260088 27.251617 1.084548 1.413828 0.045318 -0.005262 -408995.000000 0 0 1
-12.784244 -24.593743 3.076688 27.888261 1.091421 1.460249 0.047355 -0.013936 202633.000000 0 0 1
-12.344444 -25.879903 3.413688 28.875733 1.125726 1.452299 0.043797 -0.008591 -94629.000000 0 0 1
18.695256 19.089557 -24.085312 35.972573 0.795833 2.304394 0.064418 -0.016010 184997.000000 0 0 1
17.661756 19.164357 -25.072212 36.163877 0.826178 2.336847 0.055581 -0.022509 898556.000000 0 0 1
18.336456 19.076157 -26.334992 37.331718 0.805167 2.353829 0.057354 -0.021950 318775.000000 0 0 1
17.314856 19.348357 -27.425452 37.766633 0.840806 2.383549 0.052405 -0.022954 -33888.300000 0 0 1
17.136256 20.773357 -27.661642 38.605052 0.881047 2.369610 0.043007 -0.018540 -92187.000000 0 0 1
16.215656 20.961857 -28.695892 39.061504 0.912375 2.395923 0.041436 -0.023749 -266137.000000 0 0 1
15.898756 22.460257 -29.094112 40.046234 0.954813 2.384030 0.044306 -0.015400 -476556.000000 0 0 1
15.081956 23.182957 -28.257012 39.539519 0.994026 2.366923 0.043397 -0.022817 -76129.700000 0 0 1
14.927756 24.546557 -28.658162 40.579078 1.024413 2.354955 0.040565 -0.012792 -211768.000000 0 0 1
14.041456 25.417757 -27.765162 40.176225 1.066092 2.333785 0.034672 -0.009998 368942.000000 0 0 1
12.665956 25.022457 -27.731212 39.440713 1.102214 2.350560 0.040917 -0.022858 106791.000000 0 0 1
12.019156 25.863657 -26.857692 39.175559 1.135775 2.326186 0.033531 -0.009098 -173075.000000 0 0 1
10.571956 25.403957 -26.440602 38.160617 1.176442 2.336267 0.042679 -0.018314 1006310.000000 0 0 1
9.815356 26.186857 -25.523562 37.862183 1.212184 2.310566 0.034516 -0.006808 295977.000000 0 0 1
9.499456 27.477657 -26.063602 39.045776 1.237943 2.301661 0.036216 -0.015647 -672182.000000 0 0 1
8.935556 28.429157 -24.959112 38.871820 1.266264 2.268015 0.040997 -0.011539 -103269.000000 0 0 1
9.941656 28.976357 -24.110512 38.984388 1.240286 2.237585 0.034108 -0.003981 26406.000000 0 0 1
9.482256 29.675857 -22.978012 38.711221 1.261522 2.206290 0.060844 -0.010582 -205044.000000 0 0 1
10.588056 30.176157 -22.012312 38.823308 1.233342 2.173640 0.038798 -0.012645 -464859.000000 0 0 1
11.475456 31.127457 -22.423912 40.042933 1.217595 2.165178 0.011959 -0.014500 -177281.000000 0 0 1
12.188956 31.744257 -21.366112 40.159422 1.204182 2.131795 0.002222 -0.004749 -663224.000000 0 0 1
13.491556 32.375857 -21.783512 41.288492 1.175963 2.126561 0.010781 -0.000968 -304547.000000 0 0 1
14.571356 31.512757 -22.119712 41.166247 1.137682 2.138060 0.006893 -0.004894 1197180.000000 0 0 1
15.698256 32.243157 -22.686712 42.435165 1.117707 2.134855 0.004892 -0.005221 742651.000000 0 0 1
16.857056 31.410257 -23.233112 42.550464 1.078242 2.148394 -0.003940 -0.002479 -219034.000000 0 0 1
17.685956 30.865357 -22.262212 41.965097 1.050464 2.129979 0.005873 0.004530 -302570.000000 0 0 1
18.906556 30.464057 -22.836012 42.508823 1.015354 2.137918 0.016947 0.003501 94842.300000 0 0 1
19.887056 29.579357 -21.993312 41.882444 0.978884 2.123653 0.023488 0.005151 729394.000000 0 0 1
20.654956 30.329557 -21.012412 42.285111 0.972924 2.090845 0.025066 0.006811 397632.000000 0 0 1
21.589256 29.487757 -20.369912 41.839659 0.938822 2.079284 0.029781 0.006223 277733.000000 0 0 1
22.288956 30.230057 -19.177712 42.171537 0.935466 2.042893 0.037707 -0.002354 -52135.900000 0 0 1
23.212856 31.223857 -19.554712 43.544835 0.931511 2.036521 0.039053 0.001893 150977.000000 0 0 1
23.797356 31.826157 -18.417112 43.799639 0.928750 2.004777 0.043919 -0.004090 281154.000000 0 0 1
25.036556 32.771557 -18.578012 45.232141 0.918413 1.994046 0.047637 -0.000168 758672.000000 0 0 1
26.209756 32.061057 -18.933112 45.533783 0.885478 1.999623 0.052346 0.001080 370534.000000 0 0 1
27.393956 32.734157 -18.456312 46.503648 0.873979 1.978910 0.053731 -0.004087 539937.000000 0 0 1
28.662856 32.075757 -19.010012 47.029714 0.841529 1.986914 0.060002 -0.011303 -362678.000000 0 0 1
28.886756 30.787257 -18.525912 46.103245 0.817235 1.984317 0.051277 -0.001834 -1074980.000000 0 0 1
30.113056 30.339457 -18.947612 46.757788 0.789143 1.988026 0.040830 -0.011214 -951040.000000 0 0 1
30.549056 29.048157 -18.216712 45.922639 0.760219 1.978696 0.043631 -0.013745 -90953.000000 0 0 1
30.961056 29.358257 -16.877612 45.884071 0.758833 1.947472 0.047548 -0.009798 84757.000000 0 0 1
31.421356 28.206757 -16.244512 45.241650 0.731539 1.938058 0.059454 -0.017985 -550363.000000 0 0 1
31.880356 28.428457 -14.821712 45.213022 0.728223 1.904791 0.059001 -0.007379 558101.000000 0 0 1
33.187056 28.987757 -14.654512 46.437328 0.717960 1.891860 0.023801 0.003327 420838.000000 0 0 1
33.239256 30.396357 -14.850912 47.427167 0.740753 1.889284 0.034395 -0.004438 -915829.000000 0 0 1
34.645956 30.946257 -14.866312 48.775202 0.729053 1.880517 0.027507 -0.006965 -620409.000000 0 0 1
35.200456 31.190957 -13.586512 48.954481 0.725080 1.852022 0.024996 -0.005906 1418350.000000 0 0 1
-35.873416 31.664457 -13.743612 49.783799 -0.723159 1.850495 0.028811 -0.010523 1578620.000000 0 0 1
-35.027416 32.049757 -12.499712 49.095311 -0.741036 1.828231 0.017608 -0.002089 -247518.000000 0 0 1
-35.546116 33.154857 -11.807212 50.021807 -0.750605 1.809086 0.034420 -0.011254 238362.000000 0 0 1
-34.757516 33.651757 -10.714812 49.551315 -0.769236 1.788755 0.015354 -0.007809 -292941.000000 0 0 1
-35.503916 -33.839063 -9.965212 50.049133 0.761394 1.771245 0.019734 -0.002959 -146151.000000 0 0 1
-34.737216 -33.103363 -9.046412 48.829749 0.761319 1.757137 0.012167 -0.003271 42336.400000 0 0 1
-34.198716 -33.761963 -7.866312 48.696008 0.778972 1.733046 0.001995 -0.001823 332004.000000 0 0 1
-33.838016 -32.690263 -6.791812 47.537284 0.768148 1.714160 0.003248 -0.011962 -60667.900000 0 0 1
-35.012416 -32.090263 -6.258112 47.904261 0.741878 1.701809 -0.003462 0.003465 139719.000000 0 0 1
-34.672116 -30.940763 -5.508712 46.795645 0.728590 1.688788 0.017450 -0.001134 -461467.000000 0 0 1
-35.900416 -30.192363 -5.054312 47.180131 0.699248 1.678130 0.011117 0.005506 -806616.000000 0 0 1
35.665056 -30.914963 -4.257412 47.390471 -0.714175 1.660754 -0.003986 0.004607 -728266.000000 0 0 1
34.530656 -30.195263 -3.891312 46.035448 -0.718517 1.655426 -0.004273 0.013205 -840736.000000 0 0 1
34.521756 -29.242463 -2.691412 45.322368 -0.702793 1.630215 -0.010019 0.008033 -384387.000000 0 0 1
35.322756 -28.083363 -2.823012 45.214398 -0.671715 1.633273 -0.000069 0.002327 388745.000000 0 0 1
34.867056 -27.133563 -1.883112 44.220900 -0.661307 1.613393 -0.012596 0.001547 -181585.000000 0 0 1
35.108056 -25.715863 -2.408512 43.585343 -0.632192 1.626084 0.002857 -0.007536 -579716.000000 0 0 1
34.254156 -25.236463 -3.397012 42.682151 -0.634962 1.650469 0.017521 -0.007614 85083.500000 0 0 1
34.475056 -23.893363 -3.699612 42.108306 -0.606055 1.658769 0.027023 -0.019228 -307593.000000 0 0 1
34.075256 -23.467063 -5.134612 41.691610 -0.603090 1.694267 0.031661 -0.028986 272675.000000 0 0 1
35.127456 -23.712163 -6.088712 42.816787 -0.593772 1.713484 0.033058 -0.031632 697508.000000 0 0 1
34.712056 -23.229063 -7.360812 42.411057 -0.589750 1.745238 0.032375 -0.033781 224663.000000 0 0 1
35.930956 -23.017263 -8.305812 43.471997 -0.569737 1.763039 0.034933 -0.025066 203332.000000 0 0 1
-35.982616 -24.294363 -8.737512 44.286667 0.593866 1.769394 0.022216 -0.014317 -94585.300000 0 0 1
-34.969416 -24.113863 -9.693212 43.569448 0.603692 1.795151 0.030887 -0.007129 -75497.100000 0 0 1
-34.438616 -25.497263 -10.239212 44.056443 0.637308 1.805352 0.017051 0.000528 -81347.600000 0 0 1
-33.665716 -26.219163 -9.294912 43.671734 0.661685 1.785273 0.019230 -0.002440 -245863.000000 0 0 1
-34.341716 -27.272763 -8.684512 44.705456 0.671169 1.766300 0.007296 -0.000639 -529284.000000 0 0 1
-33.468616 -28.460363 -8.276912 44.706239 0.704703 1.757011 -0.009304 0.001118 -545166.000000 0 0 1
-33.039516 -29.290563 -9.364512 45.135804 0.725324 1.779789 -0.000859 -0.004649 227768.000000 0 0 1
-32.369716 -30.436663 -8.873112 45.309172 0.754630 1.767905 0.002869 -0.011075 -244322.000000 0 0 1
-32.018116 -31.414263 -10.024412 45.961990 0.775879 1.790666 0.007599 -0.005818 -880111.000000 0 0 1
-30.858016 -31.184263 -10.736512 45.165785 0.790657 1.810807 -0.008634 0.012837 -799061.000000 0 0 1
-30.725216 -32.021363 -11.893312 45.944069 0.806052 1.832643 -0.010085 0.007512 -264485.000000 0 0 1
-30.936016 -31.221563 -13.166212 45.882156 0.789992 1.861845 -0.017068 0.012024 -543373.000000 0 0 1
-29.895716 -30.316563 -13.388312 44.632889 0.792387 1.875452 -0.013777 0.013111 -346392.000000 0 0 1
-30.147616 -29.588863 -14.572612 44.684904 0.776045 1.902992 -0.023605 0.026188 259201.000000 0 0 1
-29.104316 -28.490363 -14.920112 43.374782 0.774739 1.921950 -0.007882 0.002942 893316.000000 0 0 1
-27.817116 -28.974063 -15.349712 42.998860 0.805767 1.935829 0.008679 -0.005399 537464.000000 0 0 1
-27.166916 -27.897863 -15.998712 42.098585 0.798672 1.960625 0.025409 0.005772 53647.400000 0 0 1
-25.808116 -28.274663 -16.635512 41.740337 0.830973 1.980729 0.034483 0.000047 -36209.400000 0 0 1
-25.969516 -29.155063 -17.767712 42.896679 0.843122 1.997858 0.020467 0.001774 134541.000000 0 0 1
-26.337916 -28.429163 -18.950612 43.139643 0.823564 2.025599 0.010292 0.001830 607116.000000 0 0 1
-25.105816 -27.786863 -19.732012 42.329234 0.836043 2.055737 0.026059 0.003822 780323.000000 0 0 1
-24.578716 -26.647363 -19.133912 40.991485 0.825759 2.056440 0.028380 0.002274 -935452.000000 0 0 1
-23.199116 -26.650163 -19.337712 40.278745 0.854518 2.071562 0.044490 -0.010383 -707937.000000 0 0 1
-22.605916 -25.573663 -18.450512 38.800272 0.846918 2.066357 0.038408 -0.012561 -469986.000000 0 0 1
-22.820716 -25.892963 -17.085612 38.511670 0.848382 2.030461 0.050734 -0.009132 344515.000000 0 0 1
-22.185616 -24.927663 -16.248212 37.115958 0.843534 2.023912 0.044906 -0.008707 38850.500000 0 0 1
-22.615216 -24.964063 -14.721912 36.761218 0.834725 1.982830 0.042109 -0.010105 -601848.000000 0 0 1
-23.972516 -24.787463 -14.471912 37.397006 0.802110 1.968151 0.011911 0.002563 -649174.000000 0 0 1
-24.308116 -24.550863 -13.119812 36.956175 0.790366 1.933721 0.013837 0.005083 -329983.000000 0 0 1
-25.814816 -24.334263 -12.955512 37.767796 0.755884 1.920938 0.005604 0.024069 -726660.000000 0 0 1
-26.556716 -25.485363 -13.421312 39.177730 0.764815 1.920453 0.018685 0.014754 723042.000000 0 0 1
-27.879016 -25.623763 -12.912212 40.006774 0.743271 1.899431 0.005268 0.017391 135514.000000 0 0 1
-28.937616 -24.594463 -13.314112 40.243494 0.704444 1.907989 0.012315 0.015963 -1413500.000000 0 0 1
-29.037716 -23.357863 -12.585512 39.334131 0.677417 1.896488 0.015914 0.015409 133500.000000 0 0 1
-29.611516 -23.406463 -11.304112 39.401616 0.668891 1.861780 0.029667 0.009885 -157522.000000 0 0 1
-31.097416 -23.805963 -11.046812 40.691587 0.653366 1.845723 0.011831 0.013965 787335.000000 0 0 1
-32.156816 -22.934663 -11.484312 41.133308 0.619539 1.853754 0.045608 0.001990 665193.000000 0 0 1
-32.302216 -22.838063 -12.866712 41.600031 0.615417 1.885249 0.046094 0.003946 -365676.000000 0 0 1
-33.743916 -22.438563 -13.321712 42.656875 0.586824 1.888409 0.021838 -0.000879 493559.000000 0 0 1
-34.668616 -23.465763 -13.087312 43.861518 0.595026 1.873789 0.031790 0.006033 14843.600000 0 0 1
-36.002816 -23.069563 -13.371612 44.801870 0.569860 1.873876 0.055024 -0.009316 300907.000000 0 0 1
35.376756 -24.078963 -12.859712 44.684265 -0.597617 1.862715 0.046130 -0.002677 -235377.000000 0 0 1
35.443156 -25.274263 -13.600712 45.606853 -0.619459 1.873620 0.021136 0.005804 79215.400000 0 0 1
34.727256 -26.313763 -12.983012 45.463777 -0.648428 1.860396 0.023087 -0.001954 -17057.000000 0 0 1
34.591556 -27.561863 -13.917012 46.367179 -0.672774 1.875644 0.022345 -0.012547 120316.000000 0 0 1
33.751956 -27.364463 -15.030212 45.977338 -0.681263 1.903823 0.031182 -0.016392 -91902.900000 0 0 1
33.603556 -28.481263 -15.906512 46.833732 -0.703080 1.917328 0.023301 -0.003650 47741.300000 0 0 1
32.648056 -28.294863 -17.111212 46.468144 -0.714089 1.947907 0.027201 -0.006490 1540020.000000 0 0 1
31.222456 -28.514963 -16.940412 45.551317 -0.740106 1.951848 0.063309 -0.009252 1430590.000000 0 0 1
30.518756 -28.307463 -18.183512 45.424080 -0.747826 1.982647 0.063466 -0.014764 854804.000000 0 0 1
28.981156 -28.461563 -17.930312 44.401172 -0.776353 1.986491 0.071333 -0.014318 613070.000000 0 0 1
28.560356 -27.314963 -17.187112 43.095220 -0.763113 1.981023 0.067269 -0.019164 211551.000000 0 0 1
27.173056 -27.402663 -16.864312 42.115151 -0.789605 1.982786 0.068587 -0.015032 535930.000000 0 0 1
26.718456 -26.454963 -15.761912 40.769827 -0.780443 1.967746 0.057147 -0.016461 -133620.000000 0 0 1
26.342856 -25.160763 -16.195812 39.866206 -0.762451 1.989147 0.077688 -0.027492 108015.000000 0 0 1
26.262556 -24.261263 -15.125012 38.821344 -0.745808 1.971000 0.064764 -0.017757 -247987.000000 0 0 1
25.965256 -22.852063 -15.629112 37.956297 -0.721712 1.995187 0.061543 -0.021936 707231.000000 0 0 1
24.572756 -22.624863 -15.893412 36.990611 -0.744151 2.014913 0.059613 -0.025388 685044.000000 0 0 1
24.291856 -21.313063 -16.193712 36.146607 -0.720173 2.035324 0.060190 -0.030243 -142590.000000 0 0 1
22.804856 -20.942063 -16.067512 34.882609 -0.742843 2.049486 0.042413 -0.030165 -215632.000000 0 0 1
22.346356 -20.706363 -14.745912 33.846049 -0.747324 2.021586 0.039869 -0.026492 222563.000000 0 0 1
21.048356 -20.137163 -14.745212 32.649041 -0.763278 2.039385 0.029573 -0.027379 76516.300000 0 0 1
20.943356 -18.777363 -14.081812 31.456493 -0.730922 2.034943 0.021609 -0.021445 -179362.000000 0 0 1
20.671256 -18.888963 -12.654212 30.728209 -0.740376 1.995237 0.028292 -0.033820 133633.000000 0 0 1
20.182256 -17.673063 -12.089112 29.424603 -0.719211 1.994183 0.028987 -0.036283 -200119.000000 0 0 1
19.353156 -17.843363 -10.765912 28.440027 -0.744831 1.959023 0.036848 -0.028057 -335577.000000 0 0 1
20.034756 -18.414463 -9.641312 28.869340 -0.743282 1.911302 0.048161 -0.035105 151756.000000 0 0 1
19.221356 -18.546563 -8.479212 28.023786 -0.767533 1.878186 0.052824 -0.048237 -316441.000000 0 0 1
19.922856 -19.246363 -7.331312 28.654682 -0.768129 1.829524 0.062482 -0.042385 -501060.000000 0 0 1
20.997456 -18.526163 -6.824012 28.821503 -0.722952 1.809834 0.069795 -0.041129 -460358.000000 0 0 1
21.734856 -19.233763 -5.869512 29.610687 -0.724425 1.770341 0.076992 -0.033320 -765457.000000 0 0 1
23.008256 -18.490363 -5.508612 30.026958 -0.676957 1.755297 0.069903 -0.029351 -602823.000000 0 0 1
23.915656 -18.556263 -6.609512 30.983530 -0.659875 1.785772 0.051998 -0.035383 677818.000000 0 0 1
24.970456 -17.590763 -6.482212 31.224633 -0.613715 1.779916 0.054959 -0.027872 17653.500000 0 0 1
25.999956 -17.580463 -7.631712 32.300363 -0.594555 1.809325 0.042122 -0.033540 -201051.000000 0 0 1
26.925056 -18.649163 -7.452112 33.589938 -0.605764 1.794513 0.058743 -0.043290 86402.700000 0 0 1
26.523456 -19.899763 -7.996712 34.109261 -0.643674 1.807443 0.063226 -0.052076 -276628.000000 0 0 1
27.538456 -21.076863 -7.793512 35.543488 -0.653260 1.791859 0.067204 -0.052200 977653.000000 0 0 1
28.768156 -20.785763 -8.485512 36.491899 -0.625685 1.805476 0.057147 -0.037429 525412.000000 0 0 1
29.689456 -21.853663 -8.368412 37.803131 -0.634529 1.794014 0.063879 -0.041747 -54987.600000 0 0 1
-29.179804 30.141657 4.146888 42.156578 -0.801611 1.472268 0.025050 0.004260 302301.000000 0 0 1
-28.509284 31.063957 3.313988 42.293394 -0.828255 1.492359 0.019577 0.012712 -308853.000000 0 0 1
-27.430754 31.665857 3.985588 42.083936 -0.856940 1.475948 0.012484 0.020869 -64498.400000 0 0 1
-27.063814 32.873357 3.112088 42.694176 -0.882024 1.497839 0.018875 0.015804 -612329.000000 0 0 1
-26.448714 32.450257 1.910488 41.907083 -0.886943 1.525192 0.020608 0.019610 231298.000000 0 0 1
-25.874324 33.568257 1.178888 42.399272 -0.914117 1.542988 0.041379 0.000148 436006.000000 0 0 1
-24.582344 34.230857 1.759688 42.179849 -0.948003 1.529066 0.043033 0.003009 358138.000000 0 0 1
-23.360744 33.612857 1.374988 40.956551 -0.963438 1.537218 0.045386 0.004840 617154.000000 0 0 1
-22.264744 33.987757 2.240088 40.692805 -0.990857 1.515720 0.045837 0.000111 624843.000000 0 0 1
-20.889044 33.541057 1.728088 39.551750 -1.013788 1.527091 0.053791 -0.001690 -129501.000000 0 0 1
-20.509044 -34.234663 0.614788 39.912542 1.031059 1.555392 0.072557 -0.012175 -534682.000000 0 0 1
-19.173944 34.115057 0.304688 39.135279 -1.058758 1.563011 0.073869 -0.011830 -646108.000000 0 0 1
-18.557344 -33.661763 -0.862012 38.447788 1.066964 1.593219 0.088654 -0.017429 -168048.000000 0 0 1
-18.418244 -32.236863 -0.815512 37.136399 1.051716 1.592758 0.090928 -0.026376 173992.000000 0 0 1
-17.716144 -31.655063 0.243688 36.276220 1.060565 1.564079 0.082522 -0.018821 -336614.000000 0 0 1
-17.421644 -30.169263 0.059788 34.838222 1.047113 1.569080 0.083677 -0.030914 -221487.000000 0 0 1
-16.517444 -29.823263 -0.958812 34.105312 1.065006 1.598913 0.067791 -0.021978 -16517.800000 0 0 1
-16.365044 -28.421663 -1.051812 32.813289 1.048365 1.602856 0.059210 -0.015193 -90767.400000 0 0 1
-15.512044 -27.926763 -2.236212 32.023870 1.063775 1.640683 0.047746 -0.006327 -364796.000000 0 0 1
-16.033944 -28.344763 -3.482612 32.751207 1.055998 1.677333 0.049078 -0.013779 47000.800000 0 0 1
-15.201444 -27.913563 -4.542412 32.107389 1.072116 1.712748 0.042216 -0.007469 -66389.900000 0 0 1
-15.945344 -27.916763 -5.904512 32.687351 1.051842 1.752429 0.071348 -0.017655 -159240.000000 0 0 1
-16.778944 -26.779763 -5.959112 32.158975 1.011081 1.757175 0.072531 -0.008378 -430174.000000 0 0 1
-17.294444 -26.691063 -7.238112 32.617494 0.995864 1.794568 0.082149 -0.015916 -77566.500000 0 0 1
-18.200144 -25.438663 -7.484312 32.161868 0.949775 1.805657 0.062315 -0.008039 96196.300000 0 0 1
-17.504744 -24.196863 -7.434012 30.776107 0.944518 1.814761 0.038317 0.007969 -209168.000000 0 0 1
-18.262444 -23.082463 -7.723312 30.429698 0.901455 1.827412 0.025370 0.021905 -346494.000000 0 0 1
-17.418644 -21.804763 -7.434512 28.881288 0.896760 1.831144 0.022312 0.026539 488142.000000 0 0 1
-16.284444 -21.741563 -8.277812 28.397198 0.927935 1.866592 0.038596 0.015822 -405540.000000 0 0 1
-15.219544 -21.007363 -7.741112 27.071547 0.943825 1.860794 0.082210 -0.002515 669672.000000 0 0 1
-14.001744 -20.862263 -8.718712 26.595090 0.979695 1.904804 0.092842 -0.001672 579139.000000 0 0 1
-14.284644 -19.970063 -9.732812 26.411780 0.949874 1.948194 0.086871 -0.002845 -10624.200000 0 0 1
-13.240544 -19.917863 -10.708012 26.204862 0.984117 1.991745 0.085870 -0.004234 397747.000000 0 0 1
-13.591444 -19.140563 -12.001112 26.365037 0.953333 2.043382 0.086936 -0.007499 339905.000000 0 0 1
-14.618044 -19.769663 -12.806712 27.722530 0.934102 2.051001 0.069596 0.014959 174971.000000 0 0 1
-15.048744 -19.059563 -13.842012 27.952333 0.902451 2.088862 0.065758 -0.007239 -592938.000000 0 0 1
-16.084544 -19.787063 -14.701712 29.434346 0.888250 2.093789 0.059026 -0.006263 -624172.000000 0 0 1
-17.292344 -19.654763 -14.015712 29.694697 0.849252 2.062347 0.035092 0.000224 -324098.000000 0 0 1
-18.400644 -20.079863 -14.808012 31.000997 0.829009 2.068788 0.019844 0.003248 459328.000000 0 0 1
-19.817244 -19.950663 -14.220312 31.511417 0.788753 2.038990 -0.000755 0.016888 -219042.000000 0 0 1
-20.786944 -20.699563 -14.867912 32.888049 0.783292 2.039888 -0.000200 0.009431 -475136.000000 0 0 1
-22.092844 -20.346363 -14.456112 33.332378 0.744269 2.019387 -0.012591 0.011897 -596387.000000 0 0 1
-23.078744 -20.926463 -15.456512 34.777134 0.736527 2.031351 -0.005905 0.003490 -816172.000000 0 0 1
-22.928644 -20.469463 -16.818212 35.036750 0.728793 2.071470 -0.004946 -0.008010 394941.000000 0 0 1
-23.704344 -21.209863 -17.769612 36.435056 0.729916 2.080257 0.015174 -0.020883 -316594.000000 0 0 1
-24.064644 -20.369563 -19.003612 36.812545 0.702431 2.113235 0.009944 -0.015842 -368098.000000 0 0 1
-23.007344 -20.039263 -19.871312 36.411248 0.716557 2.148076 -0.007734 -0.011152 136197.000000 0 0 1
-23.458544 -19.577663 -21.186112 37.181171 0.695464 2.177068 0.000930 -0.014360 -501395.000000 0 0 1
-22.338144 -18.811063 -21.871812 36.485955 0.699893 2.213621 -0.011514 0.000323 259554.000000 0 0 1
-21.271944 -19.680963 -22.271512 36.549366 0.746569 2.226042 -0.020888 -0.001073 582341.000000 0 0 1
-20.185744 -18.968963 -22.892212 35.935208 0.754332 2.261450 -0.015419 -0.007973 986631.000000 0 0 1
-18.891544 -19.849663 -22.899112 35.710907 0.810124 2.266904 0.007051 -0.003817 156992.000000 0 0 1
-18.991044 -20.868563 -23.868312 36.957448 0.832467 2.272909 -0.000406 -0.001377 -86742.100000 0 0 1
-17.769444 -21.547663 -23.870112 36.740130 0.881200 2.277988 0.012905 -0.000861 -215627.000000 0 0 1
-17.917444 -22.967263 -24.520712 38.076177 0.908289 2.270500 0.028187 -0.003510 -101312.000000 0 0 1
-17.948944 -22.920163 -25.928162 38.984202 0.906441 2.298416 0.033364 -0.009432 127478.000000 0 0 1
-18.216344 -24.228863 -26.452912 40.232195 0.926116 2.288300 0.046888 -0.011703 -95420.500000 0 0 1
-18.084044 -24.190463 -27.939942 41.144277 0.928853 2.317295 0.037645 -0.004868 568381.000000 0 0 1
-16.745644 -24.217963 -28.454882 40.946387 0.965828 2.339119 0.041770 -0.008611 564448.000000 0 0 1
-16.745944 -24.224163 -29.848332 41.930414 0.965939 2.362931 0.050202 -0.017542 358851.000000 0 0 1
-15.295944 -23.850563 -30.282982 41.471367 1.000544 2.389432 0.036497 -0.021006 492968.000000 0 0 1
-14.357144 -24.816863 -29.857912 41.394434 1.046318 2.376477 0.039971 -0.017127 -1082890.000000 0 0 1
-13.186344 -24.725663 -30.560612 41.463105 1.080860 2.399499 0.043660 -0.015572 -1207090.000000 0 0 1
-12.069944 -25.647463 -30.166612 41.394449 1.130936 2.387305 0.054696 -0.015231 -1169930.000000 0 0 1
-12.454344 -26.965663 -30.584582 42.634192 1.138124 2.370819 0.049272 -0.004419 -55459.800000 0 0 1
-11.645844 -28.040563 -30.247312 42.857890 1.177152 2.354289 0.044098 -0.003566 -954529.000000 0 0 1
-10.364144 -28.186463 -31.050092 43.197227 1.218442 2.372869 0.036344 -0.009629 -131539.000000 0 0 1
-9.418344 -27.156063 -30.736332 42.081814 1.236955 2.389696 0.056375 -0.018584 29004.900000 0 0 1
-8.492244 -26.862463 -31.749092 42.446613 1.264601 2.415805 0.046842 -0.017653 451619.000000 0 0 1
-7.468644 -25.660263 -31.428012 41.254693 1.287563 2.436890 0.077182 -0.017727 498445.000000 0 0 1
-7.924744 -24.301163 -31.255162 40.376147 1.255565 2.456088 0.086192 -0.021326 -97396.200000 0 0 1
-8.747844 -24.092763 -30.127692 39.555832 1.222508 2.436652 0.077139 -0.019975 -122160.000000 0 0 1
-9.240844 -22.594863 -29.968992 38.653092 1.182573 2.458037 0.089384 -0.029299 254275.000000 0 0 1
-10.235544 -22.117463 -30.862912 39.325155 1.137365 2.473191 0.071747 -0.029347 3617.820000 0 0 1
-10.378744 -20.729663 -30.904502 38.633217 1.106612 2.498002 0.079382 -0.030127 157709.000000 0 0 1
-11.466344 -20.162063 -31.841062 39.393388 1.053703 2.512029 0.055000 -0.028611 231734.000000 0 0 1
-11.920744 -18.800263 -31.699132 38.734855 1.005699 2.529351 0.063453 -0.030848 76304.600000 0 0 1
-12.584444 -18.375263 -32.839162 39.679076 0.970305 2.545649 0.055626 -0.017526 -335214.000000 0 0 1
-13.373544 -17.045763 -32.839232 39.342405 0.905537 2.558390 0.073255 -0.027670 83837.000000 0 0 1
-12.618044 -15.823563 -32.949482 38.668702 0.897630 2.590775 0.071644 -0.028591 65301.100000 0 0 1
-11.846244 -15.389963 -31.864842 37.316921 0.914782 2.594226 0.067755 -0.022318 -44602.200000 0 0 1
-11.350644 -13.962163 -31.980842 36.695413 0.888204 2.629093 0.062440 -0.023028 292805.000000 0 0 1
-10.388744 -13.576763 -32.977662 37.145399 0.917647 2.663338 0.071138 -0.027263 246539.000000 0 0 1
-10.774544 -13.648063 34.115722 38.291552 0.902518 0.471371 0.078603 -0.025979 -282787.000000 0 0 1
-11.535844 -12.405363 33.538761 37.574156 0.821701 0.467713 0.070548 -0.019278 5918.470000 0 0 1
-12.811844 -12.183963 34.082541 38.395467 0.760284 0.478534 0.051134 -0.017949 -291148.000000 0 0 1
-13.504344 -11.256363 33.226872 37.591196 0.694858 0.486659 0.049800 -0.020454 756103.000000 0 0 1
-14.781444 -10.657663 33.878747 38.468772 0.624692 0.493497 0.063193 -0.016370 523725.000000 0 0 1
-14.428844 -9.627663 -33.628862 37.838919 0.588407 2.665380 0.072330 -0.018882 -129856.000000 0 0 1
-15.528344 -9.047163 -32.975552 37.554862 0.527544 2.642597 0.075788 -0.021631 -32998.200000 0 0 1
-15.061244 -7.955063 -32.013372 36.262654 0.485937 2.652627 0.067482 -0.029972 -6764.180000 0 0 1
-14.663744 -6.751163 -32.677232 36.447291 0.431467 2.682740 0.066225 -0.036744 437242.000000 0 0 1
-15.663944 -5.719563 -32.738782 36.740990 0.350100 2.670493 0.066987 -0.029935 335274.000000 0 0 1
-15.948544 -4.930163 -31.404622 35.565613 0.299811 2.653023 0.071093 -0.031163 -37012.300000 0 0 1
-16.349844 -5.830263 -30.399532 35.006298 0.342537 2.622766 0.072350 -0.030806 -138579.000000 0 0 1
-16.781044 -5.321563 -29.150632 34.054101 0.307086 2.598297 0.081363 -0.033235 23736.300000 0 0 1
-15.693244 -4.695263 -28.243512 32.649952 0.290714 2.616026 0.080695 -0.031767 99784.800000 0 0 1
-15.235944 -3.498563 -28.896352 32.853814 0.225713 2.645698 0.080192 -0.028531 377715.000000 0 0 1
-13.965944 -3.086563 -28.389792 31.789223 0.217510 2.674905 0.077135 -0.030300 426283.000000 0 0 1
-13.395044 -1.765563 -28.929552 31.929036 0.131052 2.704669 0.063991 -0.018870 -100818.000000 0 0 1
-13.106344 -1.884563 -30.296402 33.063572 0.142811 2.729557 0.062513 -0.021028 61143.800000 0 0 1
-12.999444 -0.674563 -30.991942 33.614595 0.051845 2.743956 0.056698 -0.030331 -128869.000000 0 0 1
-13.201344 -0.920563 -32.509382 35.099613 0.069620 2.755011 0.055870 -0.032178 512885.000000 0 0 1
-14.543144 -1.191563 -32.984252 36.067766 0.081750 2.725086 0.052003 -0.030426 1183120.000000 0 0 1
-14.571844 -1.481563 34.084032 37.097910 0.101325 0.405871 0.035518 -0.027005 -363587.000000 0 0 1
-15.986644 -1.885563 33.654341 37.306069 0.117404 0.446152 0.023105 -0.025866 -197970.000000 0 0 1
-16.144044 -1.954563 32.250530 36.118516 0.120484 0.467032 0.040154 -0.030130 91456.000000 0 0 1
-17.468344 -2.016563 31.755330 36.298906 0.114932 0.505714 0.031887 -0.023943 83638.500000 0 0 1
-17.528644 -2.004563 30.232330 35.003792 0.113865 0.528256 0.049213 -0.021130 45614.800000 0 0 1
-17.166944 -0.707563 29.668350 34.284335 0.041193 0.524925 0.062492 -0.011200 -17702.500000 0 0 1
-17.043044 -0.712563 28.244540 32.995866 0.041785 0.543310 0.064347 -0.017270 -98190.600000 0 0 1
-16.381244 0.587437 27.703120 32.189332 -0.035845 0.534290 0.050589 -0.015989 128098.000000 0 0 1
-17.093144 1.744437 28.115030 32.949561 -0.101703 0.548563 0.042486 -0.012556 -312031.000000 0 0 1
-18.318344 2.034437 27.515300 33.117856 -0.110607 0.590199 0.040836 -0.018602 -393773.000000 0 0 1
-18.177844 2.914437 26.270840 32.079355 -0.158976 0.611247 0.061130 -0.021447 -201530.000000 0 0 1
-17.744844 4.231437 26.517540 32.186402 -0.234088 0.602584 0.046183 -0.016734 194679.000000 0 0 1
-18.397544 5.129437 25.620730 31.956260 -0.271906 0.640589 0.062313 -0.013770 -400409.000000 0 0 1
-18.164144 6.646437 25.950460 32.365686 -0.350777 0.640513 0.059227 -0.010664 536209.000000 0 0 1
-16.871344 7.217437 25.715040 31.591089 -0.404234 0.619797 0.038330 -0.013905 429791.000000 0 0 1
-16.397944 7.164437 24.397850 30.256847 -0.411916 0.632828 0.033022 -0.009230 -854975.000000 0 0 1
-15.175944 8.031437 24.183070 29.658627 -0.486751 0.617410 0.010631 -0.002582 -299612.000000 0 0 1
-13.941044 7.427437 24.533810 29.179228 -0.489522 0.572042 0.003666 -0.000561 -146070.000000 0 0 1
-12.920044 8.199437 23.946980 28.418588 -0.565494 0.568607 0.007848 0.006482 -298352.000000 0 0 1
-11.471744 7.829437 24.317120 28.003988 -0.598882 0.518941 -0.001529 0.002562 -153519.000000 0 0 1
-10.600244 8.825437 23.829730 27.533789 -0.694287 0.524704 -0.006570 0.012105 -566427.000000 0 0 1
-9.377244 8.793437 24.503170 27.670609 -0.753280 0.483161 -0.002382 0.005065 -474480.000000 0 0 1
-9.159644 10.082437 25.276180 28.713061 -0.833318 0.494297 -0.005438 -0.004140 -376478.000000 0 0 1
-10.151444 10.231437 26.291720 29.983140 -0.789323 0.501456 -0.011050 -0.004074 377396.000000 0 0 1
-9.972944 11.433437 27.030680 30.997431 -0.853520 0.511462 -0.015250 -0.007725 -604836.000000 0 0 1
-10.563344 12.679437 26.318580 31.064771 -0.876191 0.560073 -0.028693 -0.007150 -669100.000000 0 0 1
-11.938244 12.704437 26.094680 31.382427 -0.816480 0.588983 -0.013568 -0.010239 -489005.000000 0 0 1
-12.306944 11.910437 24.996150 30.300609 -0.769027 0.600702 -0.011720 -0.000157 -704758.000000 0 0 1
-13.804544 11.896437 24.609330 30.622047 -0.711292 0.637397 0.005928 -0.008401 120220.000000 0 0 1
-14.246744 12.984437 23.844440 30.661419 -0.739076 0.679847 -0.008989 -0.006942 -374448.000000 0 0 1
-15.592144 12.905437 23.442320 30.971077 -0.691398 0.712224 0.010028 0.002871 37617.400000 0 0 1
-15.819144 12.054437 22.100380 29.731827 -0.651147 0.732771 0.012597 0.002363 -328508.000000 0 0 1
-15.986844 10.653437 22.129480 29.305098 -0.587809 0.714927 0.024277 -0.002194 72868.600000 0 0 1
-15.790144 10.110437 20.797580 28.001588 -0.569526 0.733660 0.020247 -0.007928 -483546.000000 0 0 1
-16.289544 8.681437 20.626680 27.679894 -0.489655 0.729982 0.019829 -0.003757 -86527.800000 0 0 1
-17.685144 8.650437 20.781980 28.626650 -0.454919 0.758358 0.034749 -0.006757 -653830.000000 0 0 1
-18.142144 7.320437 20.558080 28.378880 -0.383524 0.760611 0.032689 -0.004428 -11647.400000 0 0 1
-19.623044 7.180437 20.944480 29.585364 -0.350785 0.784228 0.058593 -0.010715 -112614.000000 0 0 1
-19.832444 7.598437 22.265880 30.770627 -0.365881 0.761780 0.065888 -0.017479 -159011.000000 0 0 1
-21.154844 7.587437 22.761780 31.987423 -0.344371 0.779044 0.067161 -0.013811 -126330.000000 0 0 1
-21.223644 8.122437 24.241030 33.227166 -0.365510 0.753126 0.075991 -0.015890 -679958.000000 0 0 1
-21.465844 9.536437 24.366760 33.844720 -0.418071 0.767055 0.079697 -0.021658 899068.000000 0 0 1
-20.453744 10.426437 23.778830 33.052972 -0.471423 0.767835 0.068728 -0.017423 1344530.000000 0 0 1
-18.975744 10.308437 24.263450 32.481652 -0.497641 0.727274 0.074635 -0.019249 139866.000000 0 0 1
-18.548544 10.798437 25.567320 33.381770 -0.527207 0.698346 0.099970 -0.020930 -4005.850000 0 0 1
-19.189144 10.212437 26.652710 34.393082 -0.489074 0.684170 0.061699 -0.013613 -307367.000000 0 0 1
-29.799004 -13.867343 20.594480 38.786808 0.435556 1.011056 0.066200 0.005565 -15483.200000 0 0 1
-29.778844 -15.253343 20.773980 39.382766 0.473376 1.015154 0.088937 -0.001307 86098.400000 0 0 1
-30.513994 -16.078143 19.845580 39.792682 0.484944 1.048670 0.086969 0.001831 231219.000000 0 0 1
-30.235284 -16.022043 18.340080 38.823148 0.487290 1.078784 0.091830 0.000276 61151.300000 0 0 1
-30.883584 -14.906043 17.742880 38.610823 0.449674 1.093329 0.101958 -0.013511 -97284.900000 0 0 1
-30.433274 -14.711343 16.440380 37.588481 0.450277 1.118115 0.096841 -0.019746 -751933.000000 0 0 1
-31.258494 -13.647243 15.674680 37.537132 0.411649 1.140018 0.083676 -0.015753 987895.000000 0 0 1
-32.591434 -14.067643 15.283880 38.648378 0.407478 1.164228 0.097600 -0.018517 1584970.000000 0 0 1
-33.591124 -14.030443 16.311480 39.890868 0.395657 1.149545 0.105741 -0.015336 -136236.000000 0 0 1
-34.116097 -12.726943 16.921780 40.152582 0.357058 1.135767 0.086964 -0.018894 -534457.000000 0 0 1
-35.170031 -12.921943 17.836980 41.497778 0.352103 1.126492 0.067707 -0.016173 144965.000000 0 0 1
-35.731566 -11.652043 18.241380 41.776343 0.315226 1.118932 0.060402 -0.016548 502668.000000 0 0 1
35.615508 -11.816243 19.337080 42.213869 -0.320345 1.094969 0.052687 -0.011054 248866.000000 0 0 1
36.186928 -12.385743 20.476380 43.384128 -0.329773 1.079263 0.036738 -0.002942 192362.000000 0 0 1
35.464918 -11.941143 21.637880 43.226719 -0.324780 1.046542 0.021786 -0.008669 -496616.000000 0 0 1
-36.219084 -12.368243 22.929480 44.615654 0.329068 1.031032 0.016319 -0.005565 826033.000000 0 0 1
-34.908178 -11.865943 23.171780 43.546675 0.327666 1.009701 0.030759 -0.009069 356569.000000 0 0 1
-33.906004 -12.431443 22.346580 42.467959 0.351425 1.016672 0.047086 -0.012933 -1063690.000000 0 0 1
-32.670274 -11.539143 22.334280 41.222793 0.339523 0.998226 0.060843 -0.012521 -677313.000000 0 0 1
-32.929944 -10.314943 21.731680 40.780451 0.303558 1.008779 0.066455 -0.014909 179351.000000 0 0 1
-31.779414 -9.491143 21.634480 39.598784 0.290224 0.992806 0.073811 -0.017761 -188549.000000 0 0 1
-32.036994 -8.175043 20.887680 39.108765 0.249843 1.007363 0.058370 -0.014770 -85029.500000 0 0 1
-32.194794 -8.290743 19.482280 38.533108 0.252042 1.040721 0.058435 -0.014728 609353.000000 0 0 1
-33.467384 -8.734643 19.015180 39.470709 0.255295 1.068141 0.058440 -0.017401 -26776.000000 0 0 1
-33.590974 -8.486843 17.507880 38.818886 0.247474 1.102895 0.068033 -0.020419 1081420.000000 0 0 1
-34.967604 -8.784543 17.160480 39.929733 0.246126 1.126562 0.032349 -0.017351 1365750.000000 0 0 1
-35.366953 -8.597243 15.783780 39.671925 0.238462 1.161616 0.034348 -0.016354 -207755.000000 0 0 1
35.574408 -8.739243 15.551680 39.796579 -0.240891 1.169318 0.040504 -0.017850 -382571.000000 0 0 1
35.058268 -10.032243 15.721280 39.710033 -0.278711 1.163746 0.035913 -0.001494 110307.000000 0 0 1
33.647158 -9.948243 15.632280 38.411808 -0.287474 1.151667 0.021975 -0.000804 117322.000000 0 0 1
32.843278 -11.208243 15.963080 38.198502 -0.328871 1.139666 0.017722 0.002622 -64218.100000 0 0 1
32.732708 -11.500143 17.324480 38.779132 -0.337864 1.107670 0.007675 -0.009402 -168398.000000 0 0 1
31.653048 -12.353543 17.566280 38.250486 -0.372099 1.093653 0.008855 -0.009748 -151769.000000 0 0 1
31.382188 -12.811443 19.047880 38.881828 -0.387589 1.058831 0.009106 -0.007772 239513.000000 0 0 1
32.388968 -13.720943 19.467380 40.203090 -0.400710 1.065318 0.000191 0.001406 47923.700000 0 0 1
32.285028 -13.779243 20.889280 40.847921 -0.403394 1.033993 -0.000254 0.001689 -210574.000000 0 0 1
32.692378 -15.197243 21.378580 41.914097 -0.435139 1.035545 -0.002466 0.003220 116791.000000 0 0 1
32.843828 -15.262943 22.795380 42.793736 -0.435021 1.009032 -0.013411 -0.002789 -270413.000000 0 0 1
33.167908 -16.562243 23.136280 43.700178 -0.463124 1.012865 -0.000209 0.002953 45412.500000 0 0 1
33.691688 -16.648743 24.608550 44.920945 -0.458957 0.991041 0.000823 0.005223 703795.000000 0 0 1
34.884168 -15.876643 24.795780 45.648699 -0.427107 0.996568 0.014494 0.009367 332924.000000 0 0 1
35.374408 -15.881143 26.081190 46.731017 -0.421976 0.978686 0.005499 0.009436 -530520.000000 0 0 1
-35.977419 -14.840543 26.282010 46.961266 0.391232 0.976829 0.011609 0.008441 -1169980.000000 0 0 1
-34.711801 -15.196643 25.832110 45.860059 0.412658 0.972445 0.008071 0.006775 -1136500.000000 0 0 1
-33.913304 -14.079543 26.105170 45.053586 0.393509 0.952773 0.015949 -0.003559 53500.200000 0 0 1
-32.416454 -14.410843 25.823920 43.879081 0.418315 0.941564 0.035887 -0.002354 -280880.000000 0 0 1
-32.287294 -14.589643 24.433820 43.038804 0.424408 0.967068 0.038490 0.002990 840852.000000 0 0 1
-30.981604 -15.088043 24.053090 42.024516 0.453194 0.961417 0.063876 -0.005038 1033730.000000 0 0 1
-30.642404 -16.521043 24.481940 42.558985 0.494480 0.957890 0.068456 -0.004045 -558722.000000 0 0 1
-30.391064 -16.644843 25.911570 43.267506 0.501067 0.928708 0.067187 -0.013747 29257.200000 0 0 1
-30.195474 -18.004043 26.301730 43.905503 0.537657 0.928478 0.076853 -0.017730 -178655.000000 0 0 1
-29.759134 -18.160043 27.780100 44.577205 0.547911 0.897980 0.058363 -0.020360 142414.000000 0 0 1
-28.463994 -17.649843 28.060660 43.693439 0.555051 0.873410 0.064316 -0.018983 124106.000000 0 0 1
-28.130624 -18.078343 29.384370 44.515163 0.571196 0.849847 0.051726 -0.025800 -310429.000000 0 0 1
-26.866914 -17.383043 29.870520 43.774984 0.574267 0.819803 0.052517 -0.025635 -482730.000000 0 0 1
-27.012654 -16.096043 30.455180 43.775382 0.537378 0.801382 0.060662 -0.031422 94906.100000 0 0 1
-25.879714 -15.287743 30.163500 42.582995 0.533570 0.783644 0.053300 -0.023933 9320.820000 0 0 1
-25.757684 -13.899343 30.917170 42.573718 0.494838 0.758013 0.057742 -0.024664 -45914.200000 0 0 1
-25.046164 -13.920343 32.155670 43.070563 0.507276 0.727888 0.050732 -0.024419 85133.200000 0 0 1
-24.792744 -12.634043 32.520465 42.800466 0.471287 0.707767 0.054900 -0.020447 -176665.000000 0 0 1
-24.163744 -12.476843 33.937632 43.489321 0.476638 0.675544 0.058352 -0.021205 509863.000000 0 0 1
-22.806444 -12.900043 34.059062 42.971673 0.514765 0.655746 0.034481 -0.015990 352535.000000 0 0 1
-22.574944 -14.309243 -34.196247 43.402371 0.564942 2.478170 0.027500 -0.014513 -341651.000000 0 0 1
-22.795344 -14.855943 -32.766812 42.590970 0.577576 2.448599 0.022145 -0.013968 -1008500.000000 0 0 1
-21.797844 -14.459643 -31.862452 41.224302 0.585704 2.454202 0.010233 -0.009551 -50912.700000 0 0 1
-21.893544 -15.221843 -30.686082 40.653012 0.607542 2.426190 0.019304 -0.012459 -299005.000000 0 0 1
-20.557544 -15.239743 -29.937632 39.384314 0.637924 2.434326 0.005973 -0.014403 -73472.200000 0 0 1
-20.095744 -14.047943 -29.294452 38.201421 0.610089 2.444703 0.032371 -0.018572 155410.000000 0 0 1
-20.597144 -13.863643 -27.980762 37.408100 0.592433 2.415820 0.033785 -0.009397 -212298.000000 0 0 1
-19.957344 -12.717543 -27.155952 36.020511 0.567350 2.424778 0.032042 -0.015173 -694128.000000 0 0 1
-18.663744 -12.996343 -26.704412 35.076572 0.608267 2.436139 0.026412 -0.017757 -632125.000000 0 0 1
-18.247744 -11.804843 -26.116862 33.976830 0.574207 2.447551 0.038768 -0.021777 -82684.000000 0 0 1
-16.868944 -11.998443 -25.453742 32.808793 0.618252 2.458811 0.059265 -0.030813 -986792.000000 0 0 1
-16.827444 -12.743343 -24.235712 32.139157 0.648154 2.425059 0.063793 -0.034050 1370290.000000 0 0 1
-15.531444 -13.150243 -23.666612 31.213189 0.702566 2.431382 0.081706 -0.039275 1734200.000000 0 0 1
-14.606444 -13.963843 -24.645812 31.870883 0.762910 2.454829 0.064281 -0.027849 -656293.000000 0 0 1
-13.913344 -13.088843 -25.531062 31.886268 0.754873 2.499245 0.072612 -0.024553 -124105.000000 0 0 1
-13.256544 -13.854643 -26.483342 32.696399 0.807456 2.514910 0.071372 -0.021748 -451281.000000 0 0 1
-12.310244 -13.189243 -27.513232 32.901005 0.819856 2.561192 0.072774 -0.027705 -84439.700000 0 0 1
-12.946144 -12.355343 -28.431342 33.594618 0.762052 2.579809 0.090146 -0.033184 -258561.000000 0 0 1
-11.979344 -11.578343 -29.060662 33.497534 0.768378 2.621044 0.083361 -0.026794 119732.000000 0 0 1
-12.695444 -10.580443 -30.044302 34.289651 0.694780 2.638699 0.061952 -0.023945 100411.000000 0 0 1
-11.866444 -9.606043 -30.618712 34.213945 0.680515 2.679046 0.065916 -0.016651 -236565.000000 0 0 1
-11.535844 -10.142143 -31.915462 35.419422 0.721195 2.693032 0.070267 -0.010758 48652.500000 0 0 1
-10.683844 -9.162043 -32.759532 35.654936 0.708867 2.735810 0.058019 -0.013584 -287133.000000 0 0 1
-9.436144 -8.893343 -32.210162 34.722138 0.755793 2.758880 0.046099 -0.012404 -855569.000000 0 0 1
-8.920144 -7.675043 -32.668722 34.723488 0.710511 2.795853 0.038646 -0.012600 -602066.000000 0 0 1
-7.442344 -7.401043 -32.430902 34.087055 0.782616 2.828592 0.036572 -0.013664 -646508.000000 0 0 1
-6.987644 -7.269343 -31.086712 32.681098 0.805154 2.827943 0.033615 -0.009712 -25339.500000 0 0 1
-7.426044 -6.080343 -30.359732 31.840697 0.686092 2.835400 0.047772 -0.013795 -418909.000000 0 0 1
-6.721644 -4.741643 -30.710702 31.793252 0.614360 2.879888 0.030897 -0.020092 157365.000000 0 0 1
-5.393344 -4.637743 -30.228052 31.053694 0.710214 2.910481 0.038507 -0.023107 93264.500000 0 0 1
-4.804244 -3.464043 -30.757802 31.322878 0.624706 2.951357 0.040450 -0.032037 -408156.000000 0 0 1
-3.361244 -3.234043 -30.350292 30.706631 0.766114 2.989099 0.020399 -0.016284 -1266060.000000 0 0 1
-2.336544 -4.100243 -30.847412 31.206317 1.052837 2.989782 0.011393 -0.013018 -96518.900000 0 0 1
-1.067944 -3.714143 -30.431902 30.676310 1.290815 3.015276 0.022510 -0.015857 -260693.000000 0 0 1
-0.544644 -2.283043 -30.937062 31.025968 1.336613 3.065870 0.018964 -0.014169 197496.000000 0 0 1
0.825956 -1.970043 -30.488362 30.563106 -1.173799 3.071641 0.035363 -0.013506 1695250.000000 0 0 1
1.209956 -0.738443 -31.024592 31.056957 -0.547963 3.095935 0.008825 -0.011546 14581.100000 0 0 1
1.375656 0.373657 -30.010462 30.044298 0.265222 3.094128 0.020783 -0.012165 -305373.000000 0 0 1
0.205256 0.635457 -29.284732 29.292344 1.258369 3.118793 0.031336 -0.017199 -388734.000000 0 0 1
0.369656 1.859457 -28.564882 28.627726 1.374557 3.075320 0.049550 -0.022050 150741.000000 0 0 1
-0.996644 2.409157 -28.101962 28.222643 -1.178544 3.049082 0.034703 -0.017464 -288969.000000 0 0 1
-1.909744 2.712857 -29.106872 29.295336 -0.957417 3.028101 0.026031 -0.028899 267578.000000 0 0 1
-2.870144 3.662357 -28.589992 28.966156 -0.906081 2.980257 0.064743 -0.029886 78235.400000 0 0 1
-4.141744 3.929357 -29.363072 29.912938 -0.759090 2.949557 0.087000 -0.029679 -630577.000000 0 0 1
-3.806044 4.688957 -30.512262 31.104186 -0.888960 2.946190 0.078673 -0.025770 868635.000000 0 0 1
-4.933444 4.879857 -31.387092 32.145006 -0.779938 2.924010 0.099355 -0.019085 211932.000000 0 0 1
-4.504544 5.721557 -32.612472 33.415572 -0.903851 2.921908 0.094852 -0.012550 160960.000000 0 0 1
-4.151644 5.039157 -33.821912 34.446349 -0.881665 2.950895 0.098481 -0.017533 -9840.630000 0 0 1
-2.979244 4.269257 -33.753382 34.152499 -0.961524 2.988562 0.076278 -0.021354 -867305.000000 0 0 1
-2.577944 3.668057 33.377205 33.676969 -0.958187 0.133525 0.062392 -0.016398 -597782.000000 0 0 1
-3.338244 2.574057 32.891672 33.160696 -0.656857 0.127465 0.056579 -0.020987 -219404.000000 0 0 1
-2.904844 1.911457 31.693650 31.883840 -0.581995 0.109280 0.051493 -0.014844 -60917.000000 0 0 1
-2.580144 2.761257 30.424440 30.658249 -0.819293 0.123580 0.050539 -0.009445 318229.000000 0 0 1
-3.734744 3.563857 30.195510 30.633613 -0.761989 0.169326 0.047023 -0.009880 241853.000000 0 0 1
-3.632244 4.502557 29.136990 29.705730 -0.891979 0.195996 0.045234 -0.016194 -85109.100000 0 0 1
-4.898444 5.347657 28.935850 29.830783 -0.829212 0.245567 0.049243 -0.009143 -113856.000000 0 0 1
-4.904844 6.115057 27.769470 28.854720 -0.894780 0.275133 0.048680 -0.002851 -62363.200000 0 0 1
-6.041244 6.961757 27.627840 29.124907 -0.856073 0.322019 0.031420 0.000984 -176556.000000 0 0 1
-6.131744 7.679057 26.282760 28.059752 -0.896969 0.357795 0.026221 0.001735 -558956.000000 0 0 1
-5.155844 8.641957 26.098620 27.971488 -1.032876 0.368014 0.030528 -0.001219 -577091.000000 0 0 1
-5.136444 9.251357 24.840700 27.000575 -1.063962 0.402700 0.031187 -0.004819 41713.000000 0 0 1
-4.756344 10.740657 24.990770 27.613821 -1.153916 0.439394 0.036434 -0.009531 -281965.000000 0 0 1
-4.726944 11.519057 23.791280 26.852517 -1.181392 0.482154 0.040103 -0.009267 294964.000000 0 0 1
-4.141744 12.835557 23.799040 27.355070 -1.258667 0.515584 0.037765 -0.009710 392144.000000 0 0 1
-2.572144 12.974857 23.851020 27.273320 -1.375093 0.506354 0.033593 -0.006318 669849.000000 0 0 1
-1.971244 12.463957 25.049660 28.048556 -1.413940 0.466647 0.043496 -0.005124 74134.500000 0 0 1
-2.349944 13.114657 26.264620 29.450751 -1.393493 0.469455 0.043218 -0.006046 -714476.000000 0 0 1
-1.392444 12.641457 27.386250 30.195232 -1.461090 0.434756 0.040250 -0.002848 2600780.000000 0 0 1
0.037756 12.979557 27.203310 30.141174 1.567887 0.445188 0.035717 -0.003820 2045430.000000 0 0 1
0.864056 12.312057 28.141310 30.728922 1.500732 0.413320 0.035879 -0.006594 -299770.000000 0 0 1
2.356356 12.576557 28.064050 30.843364 1.385583 0.427779 0.039186 -0.005128 -452991.000000 0 0 1
2.710556 13.904957 28.315330 31.661536 1.378276 0.463902 0.036769 -0.004771 28722.600000 0 0 1
4.112556 14.084457 28.228680 31.814202 1.286702 0.479343 0.046278 -0.005383 -114201.000000 0 0 1
4.475656 15.507757 28.605770 32.845275 1.289824 0.513715 0.051429 -0.002615 -267121.000000 0 0 1
4.089856 15.939757 29.920290 34.147131 1.319632 0.502841 0.054913 0.000870 669700.000000 0 0 1
3.016356 16.883457 30.067010 34.614659 1.394004 0.518385 0.048723 0.000575 400842.000000 0 0 1
3.289556 18.270557 29.431580 34.797303 1.392658 0.562732 0.056047 0.003223 -135339.000000 0 0 1
4.379856 18.866857 30.100280 35.793411 1.342691 0.571770 0.078882 0.003582 4500.540000 0 0 1
4.905356 19.914657 29.296400 35.762202 1.329285 0.610781 0.060241 -0.000325 -9080.560000 0 0 1
6.129656 20.574757 29.944320 36.845021 1.281248 0.622008 0.077638 -0.004103 -447352.000000 0 0 1
5.756556 21.339357 31.059740 38.121038 1.307306 0.618470 0.075928 -0.015896 899314.000000 0 0 1
6.821656 22.056457 31.750490 39.257049 1.270846 0.628714 0.063672 -0.019040 516574.000000 0 0 1
7.191656 23.378357 31.064950 39.538571 1.272363 0.666990 0.061954 -0.006833 -121338.000000 0 0 1
7.639456 23.315357 29.717330 38.536825 1.254163 0.690165 0.044966 -0.004227 243375.000000 0 0 1
7.908856 24.572257 29.187600 38.964879 1.259406 0.724132 0.042047 -0.006841 -92640.700000 0 0 1
8.368456 24.565357 27.730850 37.980098 1.242466 0.752267 0.043568 -0.009882 -2721.690000 0 0 1
7.297456 24.398357 26.812110 36.978668 1.280169 0.759661 0.031021 -0.010733 288273.000000 0 0 1
7.661556 24.709757 25.496910 36.323050 1.270134 0.792667 0.034796 -0.013574 -226647.000000 0 0 1
28.122228 2.400757 6.834188 29.040136 0.085162 1.333232 0.069354 -0.000716 246338.000000 0 0 1
28.658608 3.122557 7.931788 29.899489 0.108529 1.302300 0.063145 -0.011080 333630.000000 0 0 1
27.728808 3.015357 8.976288 29.301074 0.108319 1.259443 0.062456 -0.012500 -44395.600000 0 0 1
28.103678 3.934757 10.167488 30.144268 0.139104 1.226755 0.056954 -0.021946 57500.900000 0 0 1
28.091988 5.378357 10.045888 30.315118 0.189166 1.233028 0.054004 -0.020904 -112003.000000 0 0 1
29.191548 5.901857 9.346588 31.214374 0.199488 1.266699 0.068006 -0.024029 -303771.000000 0 0 1
29.095208 7.394357 9.006788 31.342143 0.248875 1.279317 0.070575 -0.025272 -522624.000000 0 0 1
28.093928 7.679957 8.074288 30.223247 0.266848 1.300357 0.072036 -0.014560 -284480.000000 0 0 1
28.274888 8.958757 7.555188 30.607344 0.306838 1.321376 0.087356 -0.034831 231130.000000 0 0 1
27.330528 9.267157 6.351888 29.549695 0.326911 1.354149 0.083133 -0.023314 -633642.000000 0 0 1
26.010428 9.550757 6.621688 28.488701 0.351906 1.336219 0.070654 -0.013615 -798359.000000 0 0 1
25.270928 9.859357 5.447388 27.667685 0.371983 1.372615 0.084026 -0.020209 849919.000000 0 0 1
23.820728 10.363457 5.740588 26.604186 0.410361 1.353308 0.043938 -0.011086 644375.000000 0 0 1
23.845128 11.704757 6.096688 27.253644 0.456314 1.345185 0.042679 -0.010895 58665.600000 0 0 1
22.565728 12.149257 6.488588 26.437063 0.493889 1.322828 0.046961 -0.006183 -23878.300000 0 0 1
22.554928 13.690457 6.802788 27.247593 0.545538 1.318461 0.061057 0.005290 -37537.400000 0 0 1
22.349228 14.415757 5.604088 27.179181 0.572868 1.363116 0.059826 0.005977 236361.000000 0 0 1
22.155328 15.764957 5.924288 27.829654 0.618446 1.356278 0.079561 -0.002328 -165610.000000 0 0 1
21.957528 16.594957 4.648788 27.913023 0.647187 1.403471 0.079532 -0.007586 -596235.000000 0 0 1
20.585928 16.629757 4.389788 26.825352 0.679492 1.406414 0.099408 -0.006135 -219945.000000 0 0 1
20.362128 17.569257 3.370088 27.104475 0.711901 1.446137 0.094385 -0.004019 -184531.000000 0 0 1
18.904128 17.630957 2.891388 26.011090 0.750564 1.459406 0.090501 -0.003548 34929.600000 0 0 1
17.973428 18.233557 3.796288 25.882784 0.792583 1.423593 0.087713 -0.007833 -411228.000000 0 0 1
16.704728 18.156757 3.273888 24.888433 0.827025 1.438871 0.074076 -0.015749 -1436990.000000 0 1 0
15.756728 19.219457 3.778488 25.138396 0.884079 1.419917 0.081904 -0.017606 -1656940.000000 0 0 1
14.428428 18.902257 3.675488 24.062088 0.918826 1.417446 0.079645 -0.028352 -1143400.000000 0 1 0
13.673228 19.865257 4.396188 24.513508 0.967967 1.390483 0.061293 -0.031432 -119646.000000 0 1 0
12.177028 19.859457 4.053088 23.645413 1.020756 1.398534 0.048626 -0.018580 -193345.000000 0 1 0
11.465128 18.922257 4.849788 22.649976 1.026045 1.355007 0.035529 -0.034543 -555085.000000 0 1 0
10.091728 19.107857 4.656588 22.105135 1.084887 1.358550 0.029006 -0.022590 -357319.000000 0 1 0
9.237428 18.611057 5.845588 21.584078 1.110080 1.296542 0.014801 -0.018166 -1191920.000000 0 1 0
9.385928 19.405557 6.946988 22.648000 1.120296 1.259033 0.026423 -0.023612 -34964.700000 0 1 0
8.822728 18.816657 8.073388 22.295441 1.132354 1.200266 0.030109 -0.018537 59630.300000 0 1 0
7.801628 19.708157 8.887188 22.983885 1.193866 1.173778 0.017404 -0.019635 423415.000000 0 1 0
6.515328 19.873757 8.374988 22.529006 1.254002 1.189911 0.018183 -0.024520 -486145.000000 0 1 0
6.443428 20.917757 7.406088 23.106719 1.271983 1.244521 0.016449 -0.024087 -686432.000000 0 1 0
5.055228 21.085257 6.779388 22.717911 1.335486 1.267764 0.002780 -0.010399 412874.000000 0 1 0
3.891928 21.478957 7.504788 23.082776 1.391544 1.239652 0.005311 -0.002616 458519.000000 0 1 0
3.949028 22.752757 8.032188 24.449924 1.398946 1.236065 0.006273 -0.008089 -590564.000000 0 1 0
3.977728 23.976757 7.063788 25.310162 1.406394 1.287951 0.005323 -0.007291 74596.900000 0 0 1
2.792728 24.062157 6.289888 25.026974 1.455250 1.316748 0.011462 -0.005633 266732.000000 0 0 1
2.934528 25.099457 5.347188 25.829955 1.454409 1.362273 0.017372 0.001290 527591.000000 0 0 1
1.702928 25.319557 4.371688 25.750564 1.503640 1.400199 0.027111 -0.003386 74498.500000 0 0 1
0.671628 25.927857 5.073488 26.428112 1.544898 1.377624 0.043353 -0.009544 -198004.000000 0 0 1
-0.460172 26.160857 4.236288 26.505628 -1.553208 1.410282 0.050688 -0.009117 1049000.000000 0 0 1
-1.689272 26.914857 4.865988 27.403302 -1.508115 1.392280 0.060570 -0.009236 838448.000000 0 0 1
-2.688072 27.193757 3.906088 27.604051 -1.472268 1.428816 0.076983 -0.015556 210953.000000 0 0 1
-3.846972 27.784557 4.466788 28.403045 -1.433214 1.412876 0.072938 -0.019009 -285552.000000 0 0 1
-4.861472 28.269857 3.471188 28.894080 -1.400495 1.450371 0.076486 -0.031078 -725293.000000 0 0 1
-4.348872 29.319057 2.751288 29.767253 -1.423541 1.478238 0.070467 -0.033487 -148624.000000 0 0 1
-4.936472 29.566557 1.453088 30.011023 -1.405361 1.522359 0.083684 -0.037742 -193437.000000 0 0 1
-4.249372 30.592357 0.563988 30.891221 -1.432776 1.552538 0.072703 -0.028688 -225985.000000 0 0 1
-4.051872 31.931257 0.982788 32.202309 -1.444577 1.540272 0.066500 -0.019774 704894.000000 0 0 1
-3.116372 32.165157 2.085788 32.383014 -1.474211 1.506342 0.058483 -0.026461 218324.000000 0 0 1
-2.247972 33.433557 1.962988 33.566492 -1.503660 1.512282 0.049656 -0.022938 -1140720.000000 0 0 1
-1.463372 33.315657 0.828488 33.358070 -1.526900 1.545958 0.029738 -0.010728 459879.000000 0 0 1
-0.534372 -34.146263 0.617188 34.156021 1.555148 1.552726 0.014063 -0.012822 792159.000000 0 0 1
0.726728 -34.164863 1.496688 34.205352 -1.549528 1.527026 0.006629 -0.007114 -917479.000000 0 0 1
0.465428 -33.957863 2.922388 34.086558 -1.557091 1.484957 0.008034 -0.013226 994112.000000 0 0 1
1.651428 -34.220163 3.723988 34.461789 -1.522575 1.462524 -0.005876 -0.009221 893316.000000 0 0 1
1.394428 -33.977163 5.169688 34.396478 -1.529779 1.419928 -0.007210 -0.017090 366216.000000 0 0 1
0.321528 33.798957 5.693988 34.276732 1.561284 1.403904 0.017102 -0.022782 603061.000000 0 0 1
-0.050172 34.040957 7.017988 34.756890 -1.569322 1.367482 0.021843 -0.030374 183811.000000 0 0 1
1.059028 33.621257 8.031788 34.583523 1.539308 1.336413 0.003160 -0.022443 -54050.000000 0 0 1
1.270628 32.277857 8.215888 33.331297 1.531451 1.321738 0.004034 -0.023396 7608.810000 0 0 1
2.247228 32.116357 9.225388 33.490569 1.500939 1.291726 0.014702 -0.017344 -295370.000000 0 0 1
2.793628 30.675757 9.319188 32.181573 1.479977 1.277007 0.008305 -0.013289 -88333.200000 0 0 1
1.933228 29.780857 9.959888 31.461662 1.505972 1.248683 0.020233 -0.021014 312467.000000 0 0 1
2.559928 28.515957 9.822388 30.268669 1.481265 1.240306 0.022155 -0.017655 167865.000000 0 0 1
2.255328 27.710857 11.096088 29.934950 1.489587 1.191062 0.018472 -0.021921 -200831.000000 0 0 1
2.678428 28.238057 12.348588 30.936216 1.476228 1.160193 0.025131 -0.015892 -211577.000000 0 0 1
2.670728 27.297957 13.396988 30.525244 1.473271 1.116442 0.021538 -0.013449 -399914.000000 0 0 1
1.272528 26.872557 13.926588 30.293621 1.523477 1.093116 0.011258 -0.011449 769551.000000 0 0 1
0.467728 27.890157 14.647988 31.506240 1.554028 1.087248 0.012623 -0.018380 767423.000000 0 0 1
0.006228 28.928357 13.804788 32.053425 1.570581 1.125550 0.013842 -0.018756 -612395.000000 0 0 1
-0.747672 30.111657 14.527688 33.441361 -1.545971 1.121399 0.006235 -0.013616 255946.000000 0 0 1
-2.018572 29.745457 15.004888 33.376841 -1.503039 1.104524 0.007394 -0.011692 -207900.000000 0 0 1
-2.783972 30.868057 15.408188 34.612132 -1.480850 1.109435 0.004793 -0.006624 400975.000000 0 0 1
-4.146372 30.516657 16.073088 34.739069 -1.435751 1.089780 0.006041 -0.006414 251819.000000 0 0 1
-5.040372 29.830957 15.212888 33.863303 -1.403413 1.104877 0.025133 -0.014345 -363090.000000 0 0 1
-6.192972 29.586857 15.966388 34.185677 -1.364460 1.084846 0.035932 -0.015438 -1425610.000000 0 0 1
-7.334572 29.087057 15.133588 33.598784 -1.323786 1.103560 0.045926 -0.020799 -1492390.000000 0 0 1
-8.521672 29.057857 15.847188 34.177643 -1.285529 1.088662 0.047148 -0.017635 -728131.000000 0 0 1
-9.555572 28.651757 14.956688 33.703629 -1.248889 1.110994 0.039882 -0.013466 78082.600000 0 0 1
-10.873272 28.278957 15.666888 34.108339 -1.203723 1.093559 0.046787 -0.013015 -352814.000000 0 0 1
-11.518872 29.398657 16.298688 35.533261 -1.197365 1.094278 0.035015 -0.023042 354118.000000 0 0 1
-11.267772 29.553357 17.692088 36.240496 -1.206541 1.060787 0.043275 -0.024431 75711.200000 0 0 1
-12.206272 30.663857 18.324488 37.749861 -1.191957 1.063954 0.050131 -0.020644 420934.000000 0 0 1
-13.574772 30.309457 18.228888 37.884429 -1.149713 1.068806 0.066247 -0.013360 324434.000000 0 0 1
-14.443872 31.262457 18.812288 39.241162 -1.137992 1.070823 0.065664 -0.011811 287379.000000 0 0 1
-15.113372 30.934057 20.207188 39.920675 -1.116337 1.040043 0.057212 -0.013696 92933.300000 0 0 1
-14.333872 31.097257 21.374788 40.365590 -1.138885 1.012750 0.061025 -0.014527 292313.000000 0 0 1
-15.184872 30.893257 22.516388 41.133458 -1.113950 0.991544 0.059957 -0.006920 -248950.000000 0 0 1
-14.533672 30.972657 23.873688 41.719133 -1.132056 0.961552 0.057736 0.000165 -179851.000000 0 0 1
-13.546972 29.891757 23.988088 40.650534 -1.145284 0.939607 0.056751 -0.009393 1180380.000000 0 0 1
-13.186572 29.501357 25.332188 41.060145 -1.150455 0.905931 0.058140 -0.007915 254568.000000 0 0 1
-12.515772 30.596857 26.233188 42.201805 -1.182509 0.899996 0.054582 -0.002683 -1003030.000000 0 0 1
-13.520172 31.398157 26.696588 43.374498 -1.164189 0.907788 0.059722 -0.000019 -68964.400000 0 0 1
-13.072372 32.643257 27.327888 44.534061 -1.189892 0.910134 0.056958 -0.001265 109356.000000 0 0 1
-14.317172 33.468557 27.771388 45.786195 -1.166574 0.919089 0.067396 -0.005827 288747.000000 0 0 1
-15.076372 32.934257 28.839488 46.299874 -1.141498 0.898371 0.048385 -0.008477 228623.000000 0 0 1
-14.461372 32.894657 30.134188 46.896258 -1.156602 0.872947 0.062348 -0.005783 -213270.000000 0 0 1
-15.380572 32.173257 31.120288 47.330252 -1.124859 0.853282 0.044942 -0.005945 -666001.000000 0 0 1
-16.492872 32.834257 31.603988 48.465609 -1.105305 0.860457 0.048175 -0.002542 -717054.000000 0 0 1
-16.964472 32.239457 32.791188 49.014670 -1.086407 0.837924 0.037486 0.001456 92875.900000 0 0 1
-18.384472 32.582857 33.293088 50.080546 -1.057088 0.843583 0.034630 -0.001852 -100704.000000 0 0 1
-18.560472 33.979557 33.496888 51.197099 -1.070856 0.857575 0.040764 -0.000854 -834485.000000 0 0 1
-19.906872 34.216657 33.724988 52.004211 -1.043875 0.865178 0.032870 -0.008966 -739385.000000 0 0 1
-20.270472 -32.875663 33.989288 51.448741 1.018275 0.849120 0.043310 -0.007044 -32159.200000 0 0 1
-19.702572 -32.216863 -33.321203 50.362885 1.021920 2.293776 0.049111 -0.005951 131794.000000 0 0 1
-20.472572 -32.293763 -32.122803 49.938841 1.005788 2.269522 0.053003 -0.003278 65530.000000 0 0 1
-19.989072 -31.304563 -31.050003 48.411170 1.002523 2.267093 0.070887 -0.002616 109553.000000 0 0 1
-20.321572 -29.941163 -31.414603 47.919900 0.974498 2.285727 0.074999 -0.005192 21067.000000 0 0 1
-19.769572 -28.977963 -30.564103 46.526581 0.972098 2.287519 0.064568 -0.000470 -432819.000000 0 0 1
-20.328772 -27.626563 -30.830803 46.119675 0.936418 2.302981 0.055446 -0.008977 996563.000000 0 0 1
-21.651172 -27.477263 -30.249403 46.247158 0.903436 2.283764 0.049172 -0.005914 867949.000000 0 0 1
-22.129372 -26.167363 -30.441803 45.838231 0.868812 2.297104 0.045377 -0.008543 259422.000000 0 0 1
-23.427172 -25.804663 -29.662203 45.766356 0.833652 2.275913 0.040197 -0.010730 -229054.000000 0 0 1
-23.436072 -25.954363 -28.254203 44.957518 0.836341 2.250374 0.036375 -0.008383 76577.200000 0 0 1
-22.691072 -24.973163 -27.545303 43.557862 0.833240 2.255423 0.048999 -0.015866 -518928.000000 0 0 1
-22.415072 -25.311963 -26.095303 42.709434 0.846021 2.228115 0.042109 -0.010399 -370361.000000 0 0 1
-23.506272 -25.160463 -25.233803 42.688857 0.819375 2.203230 0.026673 -0.014345 -165958.000000 0 0 1
-23.248872 -25.829063 -23.976703 42.220053 0.837923 2.174747 0.028815 -0.003825 -79126.000000 0 0 1
-24.443772 -25.802563 -22.949703 42.307909 0.812434 2.144141 0.017490 -0.003423 1956020.000000 0 0 1
-25.678372 -26.472263 -23.370003 43.661385 0.800620 2.135607 0.008906 0.004406 1088750.000000 0 0 1
-25.569772 -27.843563 -23.449103 44.485252 0.827942 2.126005 0.023273 0.013221 -568718.000000 0 0 1
-26.900272 -28.687863 -23.364103 45.743846 0.817545 2.106864 -0.009774 0.021924 977768.000000 0 0 1
-27.644272 -28.499063 -22.165103 45.471905 0.800622 2.079959 -0.008553 0.021938 71143.800000 0 0 1
-28.611072 -27.471563 -22.291203 45.499208 0.765083 2.082800 -0.002466 0.020742 -292452.000000 0 0 1
-29.168172 -26.977763 -20.925003 44.904763 0.746405 2.055545 0.001630 0.018436 144981.000000 0 0 1
-29.874872 -28.001363 -20.193803 45.654945 0.753039 2.028973 0.001092 0.021154 366231.000000 0 0 1
-30.245372 -27.473763 -18.924303 45.030206 0.737416 2.004526 0.001620 0.015909 -1817850.000000 0 0 1
-31.153672 -28.458163 -18.195403 45.950963 0.740211 1.977925 -0.007161 0.013211 -423241.000000 0 0 1
-32.450072 -28.547763 -18.752403 47.112998 0.721511 1.980165 -0.007303 0.018550 342858.000000 0 0 1
-33.296072 -27.408363 -18.724103 47.015304 0.688711 1.980411 -0.009389 0.020568 -1170410.000000 0 0 1
-33.958072 -26.973763 -17.382103 46.721216 0.671271 1.952001 0.005284 0.017668 -553144.000000 0 0 1
-33.090172 -26.546163 -16.340303 45.460574 0.676104 1.938463 0.000538 0.023772 18239.300000 0 0 1
-33.761172 -26.107263 -15.192803 45.301514 0.658242 1.912795 0.004361 0.020227 -235847.000000 0 0 1
-33.642272 -26.963163 -13.919903 45.305390 0.675635 1.883094 0.029574 0.025477 -180405.000000 0 0 1
-34.307472 -28.185563 -13.870703 46.516932 0.687748 1.873588 0.019854 0.009707 351089.000000 0 0 1
-33.835472 -28.870863 -12.738403 46.266973 0.706391 1.849723 0.002249 -0.003203 -149946.000000 0 0 1
-34.566272 -30.211263 -12.707603 47.634344 0.718269 1.840840 0.016405 0.001530 -326625.000000 0 0 1
-34.159372 -31.179163 -13.642303 48.219450 0.739818 1.857635 0.007404 -0.001191 -940.948000 0 0 1
-34.774872 -32.416763 -13.460903 49.409859 0.750317 1.846718 0.009202 -0.008319 -378807.000000 0 0 1
-34.159072 -33.456863 -14.441503 49.947581 0.775013 1.864118 0.006223 0.019056 -18049.300000 0 0 1
-32.792872 -33.695763 -14.137203 49.098242 0.798977 1.862868 -0.003555 0.012981 -169857.000000 0 0 1
-32.329172 -34.220763 -15.386003 49.527417 0.813814 1.886680 0.020318 -0.010723 240654.000000 0 0 1
-30.789372 34.122657 -15.311103 48.443482 -0.836704 1.892371 0.023365 -0.007268 560753.000000 0 0 1
-30.350172 33.361657 -16.434003 48.002182 -0.832630 1.920223 0.032862 -0.007741 -583032.000000 0 0 1
-29.037272 32.893757 -16.272603 46.797008 -0.847589 1.925943 0.025013 -0.006958 -356505.000000 0 0 1
9.468956 20.103457 -9.154412 24.033588 1.130607 1.961567 0.019333 -0.015324 -716520.000000 0 1 0
8.090656 19.896157 -9.078612 23.318168 1.184575 1.970707 0.020849 -0.020866 -63039.200000 0 1 0
7.305956 20.049157 -10.280512 23.686169 1.221349 2.019758 0.026422 -0.016816 465139.000000 0 1 0
7.358756 18.726257 -11.153712 23.004983 1.196370 2.076975 0.018441 -0.012149 403272.000000 0 1 0
8.695556 18.479657 -11.647312 23.511067 1.130987 2.089088 0.030284 -0.011763 940840.000000 0 1 0
8.714856 17.219657 -12.319312 22.896085 1.102281 2.138922 0.032610 -0.020192 -5631.630000 0 1 0
9.911056 16.926857 -13.262612 23.677930 1.041090 2.165334 0.040826 -0.011675 238211.000000 0 1 0
9.805456 15.638057 -13.863612 23.084530 1.010742 2.214996 0.048763 -0.028439 117550.000000 0 1 0
10.955756 15.391357 -14.646912 23.905114 0.952187 2.230282 0.061869 -0.025099 -410352.000000 0 1 0
10.920356 13.996757 -15.304612 23.439166 0.908242 2.282270 0.061564 -0.036740 -269358.000000 0 1 0
11.026656 12.860357 -14.440712 22.260055 0.862013 2.276708 0.079059 -0.046840 341747.000000 0 1 0
12.340456 12.533857 -14.017612 22.491728 0.793173 2.243668 0.095435 -0.039595 88528.200000 0 1 0
13.229456 11.731757 -15.006212 23.191356 0.725469 2.274519 0.093021 -0.040614 -243525.000000 0 1 0
13.731356 12.551257 -16.109812 24.609149 0.740528 2.284485 0.068557 -0.027289 235431.000000 0 1 0
14.581256 11.805957 -16.927112 25.268968 0.680607 2.304840 0.067420 -0.033823 -349575.000000 0 0 1
15.161856 12.573557 -18.137312 26.775703 0.692347 2.314991 0.040235 -0.029988 436249.000000 0 0 1
16.167456 13.467257 -17.643712 27.460047 0.694533 2.268583 0.024277 -0.013480 636482.000000 0 0 1
16.875056 14.253157 -18.618112 28.888649 0.701367 2.271137 0.026696 -0.011712 298633.000000 0 0 1
17.926556 15.280957 -18.095712 29.703936 0.705897 2.225851 0.022306 -0.001952 -216046.000000 0 0 1
17.602556 16.520957 -17.526212 29.832199 0.753712 2.198754 0.026662 -0.001160 -111004.000000 0 0 1
17.159656 17.389257 -18.539612 30.668506 0.792044 2.219955 0.033583 0.001276 -96951.700000 0 0 1
16.926656 18.870157 -18.068912 31.130051 0.839637 2.190057 0.036683 0.003031 -52726.400000 0 0 1
18.149356 19.509957 -17.796912 32.043214 0.821512 2.159644 0.040195 0.005130 201328.000000 0 0 1
17.929356 20.909657 -17.416712 32.588608 0.861983 2.134643 0.031463 0.010315 -49703.300000 0 0 1
19.234256 21.690857 -17.640712 33.935889 0.845353 2.117442 0.043696 0.004309 176225.000000 0 0 1
20.215456 21.591257 -16.635212 33.934898 0.818295 2.083127 0.041156 0.001458 -295243.000000 0 0 1
20.051656 22.646957 -15.614312 34.040568 0.846105 2.047325 0.044618 -0.005789 -565228.000000 0 0 1
21.326256 23.097357 -14.924512 34.799973 0.825246 2.014033 0.042305 -0.013749 -1130650.000000 0 0 1
21.678056 22.376957 -13.746912 34.053544 0.801261 1.986338 0.049151 -0.013684 144718.000000 0 0 1
22.787956 22.971157 -13.070812 34.897150 0.789402 1.954710 0.049328 -0.018852 513407.000000 0 0 1
24.170256 22.532557 -13.612112 35.738032 0.750346 1.961551 0.057522 -0.020028 -550682.000000 0 0 1
24.434356 23.001557 -14.908412 36.720159 0.755202 1.988870 0.051839 -0.014525 624999.000000 0 0 1
25.645056 23.791857 -14.915912 38.029012 0.747930 1.973845 0.051498 -0.020200 670960.000000 0 0 1
26.148856 24.458157 -16.211312 39.303571 0.752002 1.995954 0.044557 -0.008414 -51211.000000 0 0 1
26.742056 23.552457 -17.128212 39.537721 0.722065 2.018850 0.050745 -0.012270 199093.000000 0 0 1
26.879856 24.200957 -18.400012 40.580456 0.733002 2.041396 0.041465 -0.004312 -1054200.000000 0 0 1
27.372256 23.309157 -19.508112 40.903834 0.705400 2.067951 0.044655 -0.010496 -1789390.000000 0 0 1
28.717456 23.122157 -19.469812 41.694124 0.677880 2.056655 0.042022 -0.015924 -1863310.000000 0 0 1
29.014956 22.168057 -20.433012 41.842543 0.652415 2.080973 0.059807 -0.012111 -658429.000000 0 0 1
30.454856 22.083857 -20.890112 43.030126 0.627396 2.077704 0.074098 -0.013039 -763717.000000 0 0 1
30.794756 23.251457 -21.634112 44.237789 0.646723 2.081787 0.056858 -0.017420 -449683.000000 0 0 1
32.187756 23.400557 -21.596012 45.277206 0.628619 2.068004 0.082020 -0.016282 -85584.900000 0 0 1
32.732456 24.739857 -22.177912 46.640475 0.647216 2.066338 0.070189 -0.016704 -4136.540000 0 0 1
33.033156 24.690557 -23.557812 47.495089 0.641866 2.089788 0.057577 -0.014274 203630.000000 0 0 1
31.893256 24.564657 -24.401912 47.074998 0.656314 2.115731 0.051534 -0.016664 -45668.200000 0 0 1
31.908856 25.168357 -25.833492 48.155898 0.667848 2.137028 0.051492 -0.021315 -468984.000000 0 0 1
31.729156 26.557657 -26.028262 48.882705 0.696905 2.132305 0.053013 -0.021322 -37951.200000 0 0 1
30.432556 27.069057 -26.298752 48.481941 0.726971 2.144140 0.056369 -0.012718 310145.000000 0 0 1
29.909556 26.891857 -27.756072 48.868732 0.732321 2.174836 0.053214 -0.007721 -194384.000000 0 0 1
29.786856 25.539357 -28.010692 48.209069 0.708777 2.190784 0.035783 -0.016213 -105660.000000 0 0 1
29.547456 25.352357 -29.386742 48.778835 0.709133 2.217362 0.040638 -0.019772 -466585.000000 0 0 1
28.839856 24.053557 -29.783142 47.930642 0.695154 2.241299 0.040689 -0.026290 -278632.000000 0 0 1
27.509256 24.035257 -29.316512 46.839199 0.718102 2.247077 0.048011 -0.022762 -31597.100000 0 0 1
26.985456 22.702157 -29.290312 45.842394 0.699406 2.263909 0.051720 -0.030911 -613506.000000 0 0 1
25.588856 22.627657 -28.708552 44.620414 0.724061 2.269721 0.043504 -0.019525 -717061.000000 0 0 1
25.437156 22.764857 -27.340782 43.735637 0.730015 2.246104 0.051955 -0.009697 74400.900000 0 0 1
24.083656 22.873757 -26.945172 42.770007 0.759638 2.252352 0.053168 -0.008003 7765.770000 0 0 1
23.959256 23.061557 -25.340072 41.809097 0.766309 2.221932 0.046547 -0.001873 -120425.000000 0 0 1
24.144956 21.783357 -24.743312 40.862269 0.734024 2.221227 0.051960 -0.004898 185378.000000 0 0 1
24.634256 21.999557 -23.431912 40.495451 0.728961 2.187845 0.043899 -0.000183 30462.200000 0 0 1
25.130056 20.715657 -22.670012 39.681073 0.689406 2.178892 0.060637 0.002148 236569.000000 0 0 1
26.396456 20.300957 -23.155412 40.559522 0.655600 2.178397 0.051675 0.000531 109587.000000 0 0 1
26.533356 18.909057 -22.907912 39.828932 0.619167 2.183593 0.089022 -0.002194 1277980.000000 0 0 1
27.963356 18.383357 -23.346612 40.803938 0.581566 2.179940 0.095987 -0.015701 1609870.000000 0 0 1
29.131056 18.680757 -22.587812 41.325517 0.570211 2.149074 0.106104 -0.027853 901819.000000 0 0 1
30.269856 18.024557 -23.173912 42.168460 0.537076 2.152629 0.092434 -0.021591 710572.000000 0 0 1
31.529856 17.788957 -22.323112 42.531166 0.513675 2.123353 0.095749 -0.021545 372052.000000 0 0 1
32.334956 18.984057 -22.227312 43.588957 0.530885 2.105900 0.076269 -0.022284 -259847.000000 0 0 1
33.546756 18.670257 -21.600712 44.051720 0.507854 2.083286 0.073871 -0.021733 -254755.000000 0 0 1
34.056356 19.779057 -20.683012 44.484081 0.526163 2.054378 0.074379 -0.026192 286020.000000 0 0 1
33.206156 19.859857 -19.534412 43.343465 0.539005 2.038333 0.088795 -0.022089 320736.000000 0 0 1
33.496956 20.922057 -18.676412 43.687377 0.558309 2.012523 0.069206 -0.010355 -371105.000000 0 0 1
32.823256 20.632757 -17.340812 42.470937 0.561185 1.991385 0.078597 -0.025112 12642.500000 0 0 1
33.282956 19.432957 -16.796312 42.041777 0.528476 1.981784 0.076783 -0.033130 59317.400000 0 0 1
32.866156 19.410057 -15.491912 41.193857 0.533463 1.956351 0.076010 -0.034380 -319141.000000 0 0 1
33.360456 18.228757 -14.654512 40.742635 0.500089 1.938727 0.062511 -0.019841 233619.000000 0 0 1
34.791256 18.104257 -14.648812 41.866255 0.479809 1.928256 0.047398 -0.022117 766689.000000 0 0 1
35.203456 17.118157 -13.699312 41.472711 0.452598 1.907440 0.032562 -0.006641 -62569.100000 0 0 1
35.224056 17.567957 -12.192512 41.207094 0.462646 1.871177 0.039328 -0.020471 -486927.000000 0 0 1
36.034756 18.707957 -12.044812 42.350546 0.478861 1.859185 0.031348 -0.031838 -175653.000000 0 0 1
35.855156 19.388557 -10.763312 42.158715 0.495711 1.828959 0.019644 -0.026789 -1164740.000000 0 0 1
34.678156 20.330357 -10.647712 41.584512 0.530254 1.829730 0.021117 -0.027151 -835723.000000 0 0 1
33.458556 19.672257 -10.594112 40.233169 0.531519 1.837256 0.060334 -0.038165 -87305.900000 0 0 1
32.302256 20.501857 -10.414212 39.651200 0.565536 1.836559 0.049945 -0.025341 504268.000000 0 0 1
30.924856 19.858857 -10.540212 38.233715 0.570847 1.850092 0.053963 -0.022413 -141775.000000 0 0 1
30.531756 19.722257 -11.930212 38.255529 0.573529 1.887942 0.069342 -0.030667 277300.000000 0 0 1
29.460756 18.775357 -12.014012 36.943019 0.567396 1.902024 0.071314 -0.028171 324712.000000 0 0 1
29.243256 18.170957 -13.406012 36.946892 0.555987 1.942116 0.107202 -0.026275 -29121.000000 0 0 1
30.192656 17.179857 -13.741112 37.357223 0.517319 1.947471 0.099652 -0.022790 70539.300000 0 0 1
29.742156 16.370557 -14.778012 37.026755 0.503162 1.981350 0.091747 -0.020042 -223027.000000 0 0 1
30.939356 15.701557 -15.444812 37.977952 0.469625 1.989612 0.106088 -0.027599 -270148.000000 0 0 1
31.625056 14.746257 -14.648812 37.844206 0.436313 1.968261 0.087523 -0.024925 1288180.000000 0 0 1
32.907556 14.496057 -15.309312 39.082194 0.414933 1.973298 0.090244 -0.021828 1272950.000000 0 0 1
33.838256 13.546257 -14.523512 39.235966 0.380785 1.949976 0.066274 -0.025874 3805.110000 0 0 1
34.679256 14.160257 -13.569812 39.840977 0.387659 1.918351 0.056370 -0.011313 273635.000000 0 0 1
35.162856 13.261957 -12.555112 39.622428 0.360661 1.893223 0.036928 -0.011453 293174.000000 0 0 1
36.072556 13.855857 -11.416012 40.293168 0.366734 1.858054 0.048619 -0.009774 583152.000000 0 0 1
-35.086116 14.111357 -11.962312 39.664377 -0.382395 1.877154 0.039212 -0.009738 -255695.000000 0 0 1
-34.203116 14.580257 -10.996612 38.773219 -0.402958 1.858357 0.025858 -0.010412 -431369.000000 0 0 1
-32.769816 14.797057 -11.535212 37.760758 -0.424138 1.881240 0.054933 -0.021344 432122.000000 0 0 1
-31.983116 13.697457 -12.029112 36.813579 -0.404638 1.903667 0.049692 -0.014385 475524.000000 0 0 1
-31.753316 12.531957 -11.196712 35.926166 -0.375900 1.887735 0.065591 -0.009399 -433288.000000 0 0 1
-30.719416 11.531557 -11.780112 34.863023 -0.359107 1.915478 0.084916 -0.011905 -28781.700000 0 0 1
-31.036916 10.888057 -13.028912 35.377853 -0.337396 1.947953 0.064751 0.002025 248936.000000 0 0 1
-30.391016 9.609657 -13.150612 34.480400 -0.306253 1.962100 0.085920 -0.011979 -37364.700000 0 0 1
-30.406116 9.060757 -14.580512 34.917339 -0.289613 2.001568 0.088889 -0.014314 -639675.000000 0 0 1
-31.662716 8.583457 -14.926712 36.041782 -0.264728 1.997805 0.058517 -0.005299 -343701.000000 0 0 1
-31.691216 7.893457 -16.175312 36.445583 -0.244107 2.030654 0.079701 -0.022878 -981520.000000 0 0 1
-33.043316 7.355257 -16.557312 37.684282 -0.219024 2.025693 0.087488 -0.026125 -1115680.000000 0 0 1
-33.465216 6.318857 -15.622312 37.468724 -0.186621 2.000875 0.086133 -0.027941 1251430.000000 0 0 1
-34.664116 5.659557 -16.110712 38.641772 -0.161840 2.000856 0.048084 -0.033592 661551.000000 0 0 1
-35.313916 4.590057 -15.228812 38.730582 -0.129254 1.974904 0.046401 -0.031333 635065.000000 0 0 1
35.966856 3.983957 -15.845812 39.504131 0.110318 1.983533 0.046150 -0.028236 710642.000000 0 0 1
34.921156 3.867357 -14.894212 38.161252 0.110296 1.971750 0.051818 -0.024654 -193288.000000 0 0 1
33.935456 2.809557 -15.351412 37.352036 0.082603 1.994339 0.052913 -0.021164 -468220.000000 0 0 1
34.609156 1.538957 -15.429412 37.923987 0.044437 1.989801 0.063516 -0.019831 125340.000000 0 0 1
33.804256 0.386457 -15.504112 37.192130 0.011432 2.000790 0.052186 -0.015045 -113822.000000 0 0 1
33.225356 -0.001443 -14.098912 36.092985 -0.000043 1.972109 0.059645 -0.022215 132661.000000 0 0 1
34.265856 -0.292943 -13.167512 36.709918 -0.008549 1.937661 0.082182 -0.023000 638257.000000 0 0 1
33.796656 -0.237943 -11.820812 35.805058 -0.007040 1.907252 0.082321 -0.016547 -2792.560000 0 0 1
34.194056 1.175057 -11.247312 36.015500 0.034351 1.888400 0.080544 -0.023908 55534.300000 0 0 1
33.334456 2.129957 -11.839712 35.438700 0.063810 1.911436 0.061633 -0.024472 434472.000000 0 0 1
33.493956 3.395157 -11.232312 35.489956 0.101021 1.892826 0.069038 -0.023118 5432.400000 0 0 1
32.393056 4.401057 -11.692912 34.718922 0.135037 1.914300 0.066030 -0.021526 150512.000000 0 0 1
32.499356 4.891057 -13.001612 35.343634 0.149376 1.947506 0.055214 -0.021637 203785.000000 0 0 1
31.390656 5.698857 -13.309412 34.568637 0.179590 1.966019 0.055829 -0.021487 -123572.000000 0 0 1
31.567856 6.239257 -14.712112 35.382257 0.195131 1.999624 0.036058 -0.015155 -158724.000000 0 0 1
31.373856 5.284857 -15.710612 35.483403 0.166881 2.029470 0.024596 -0.008077 149312.000000 0 0 1
31.778456 5.814557 -16.979612 36.496391 0.180970 2.054703 0.023067 -0.009282 -512920.000000 0 0 1
30.937156 6.950157 -17.674512 36.301524 0.220985 2.079311 0.040470 -0.011748 1332240.000000 0 0 1
29.651356 6.645257 -18.257112 35.449746 0.220470 2.111820 0.022989 -0.008213 1552000.000000 0 0 1
28.605256 6.069257 -17.464712 34.060427 0.209072 2.109189 0.011149 -0.003075 -387365.000000 0 0 1
27.300456 6.084057 -18.268412 33.407567 0.219272 2.149375 0.007208 -0.009986 -489426.000000 0 0 1
27.145256 5.055357 -19.266312 33.669160 0.184124 2.180012 0.013553 -0.001194 1180790.000000 0 0 1
25.856556 5.160357 -19.927912 33.050150 0.196988 2.218002 0.013780 0.001193 1070510.000000 0 0 1
25.557256 3.854457 -20.737112 33.136958 0.149688 2.246953 0.019523 0.005023 9280.600000 0 0 1
25.144156 2.741357 -19.936812 32.205901 0.108597 2.238319 0.019856 -0.001233 272219.000000 0 0 1
24.684656 1.624957 -20.652012 32.225430 0.065734 2.266415 0.032238 -0.006506 -545013.000000 0 0 1
23.745856 0.696157 -19.889412 30.982883 0.029309 2.267833 0.037268 -0.011122 -579744.000000 0 0 1
22.535456 1.342357 -19.647712 29.927935 0.059496 2.286967 0.039739 -0.014062 -532774.000000 0 0 1
21.655156 0.567457 -18.871012 28.729477 0.026198 2.287432 0.042538 -0.010567 664524.000000 0 0 1
20.287856 1.284257 -18.556812 27.524565 0.063217 2.310665 0.042781 -0.015549 81584.900000 0 0 1
19.533356 1.533557 -19.739712 27.812947 0.078349 2.359913 0.050925 -0.013628 -10072.100000 0 0 1
18.450256 2.409757 -19.576512 27.008493 0.129873 2.381581 0.030291 -0.010016 588494.000000 0 0 1
17.142056 1.824557 -18.948512 25.616893 0.106038 2.403403 0.047927 -0.013547 -400006.000000 0 0 1
17.218256 1.804057 -17.536012 24.642132 0.104395 2.362608 0.039989 -0.021089 238185.000000 0 1 0
16.001956 1.606357 -16.832412 23.280315 0.100050 2.378978 0.027822 -0.015573 240265.000000 0 1 0
15.129856 2.852957 -16.600412 22.641236 0.186376 2.393803 0.044744 -0.019771 -151846.000000 0 1 0
14.666156 3.514157 -17.752612 23.293790 0.235176 2.437374 0.051478 -0.007869 158313.000000 0 1 0
13.757756 4.536357 -17.431912 22.665523 0.318505 2.448218 0.061653 -0.014833 -73661.400000 0 1 0
-19.739044 -21.946743 -17.648412 34.391217 0.838309 2.109666 0.017475 -0.006576 -56231.500000 0 0 1
-19.591344 -22.516243 -18.910312 35.332731 0.854749 2.135549 0.032248 -0.009740 379792.000000 0 0 1
-20.741144 -22.372943 -19.738812 36.336818 0.823229 2.145061 0.027406 -0.007667 13651.300000 0 0 1
-20.534844 -23.108143 -21.086912 37.420903 0.844292 2.169420 0.029359 -0.004168 10177.800000 0 0 1
-20.646544 -24.511043 -21.005012 38.318162 0.870768 2.150975 0.034810 -0.008870 351545.000000 0 0 1
-19.990244 -25.211003 -22.083312 39.024059 0.900389 2.172308 0.040202 -0.012683 141586.000000 0 0 1
-19.829844 -26.744273 -21.843012 39.819543 0.932782 2.151425 0.051072 0.000801 -341184.000000 0 0 1
-21.061244 -27.413193 -21.902512 40.924066 0.915693 2.135539 0.040864 0.011848 -78612.900000 0 0 1
-20.852844 -28.793283 -21.639412 41.619207 0.943996 2.117575 0.082317 -0.004743 236602.000000 0 0 1
-22.198644 -29.565843 -21.678612 42.858851 0.926770 2.101122 0.066438 -0.000660 383321.000000 0 0 1
-22.914944 -29.526053 -22.900912 43.833027 0.910804 2.120527 0.032195 0.010027 236569.000000 0 0 1
-22.387044 -30.379683 -23.965212 44.703873 0.935727 2.136592 0.041293 0.008469 -281501.000000 0 0 1
-22.628944 -29.766513 -25.369882 45.185676 0.920790 2.166944 0.028025 0.016564 544618.000000 0 0 1
-23.952644 -29.926013 -25.898392 46.260373 0.895814 2.164989 0.024584 0.020099 905745.000000 0 0 1
-24.281644 -29.068203 -26.978922 46.501838 0.874879 2.189732 0.022789 0.023808 -251803.000000 0 0 1
-23.666144 -29.546913 -28.311512 47.272065 0.895465 2.212930 0.035518 0.002502 -355289.000000 0 0 1
-24.097044 -30.769653 -28.925492 48.622250 0.906419 2.207941 0.028939 0.009767 217198.000000 0 0 1
-23.772244 -30.722483 -30.320492 49.278015 0.912253 2.233556 0.051180 0.003494 -51644.300000 0 0 1
-24.421744 -31.897813 -31.032912 50.763507 0.917370 2.228528 0.021864 -0.001780 1461.340000 0 0 1
-23.858844 -33.091693 -30.532592 50.956293 0.946120 2.213288 0.027197 -0.006852 -74392.000000 0 0 1
-24.603044 -34.210732 -30.946842 52.281842 0.947326 2.204239 0.027988 -0.011129 -375082.000000 0 0 1
-24.015244 32.951430 -30.811342 51.106433 -0.940997 2.217910 0.042202 -0.013606 -198659.000000 0 0 1
-23.036444 32.741192 -31.803452 51.128495 -0.957664 2.242129 0.043595 -0.025006 -317994.000000 0 0 1
-22.483944 31.493826 -31.665022 50.000624 -0.950792 2.256597 0.056385 -0.018930 -693174.000000 0 0 1
-21.370044 31.109026 -32.629392 49.891156 -0.968889 2.283672 0.049083 -0.009298 -308516.000000 0 0 1
-21.764844 30.908686 -33.977962 50.828704 -0.957280 2.302959 0.033174 -0.000203 695785.000000 0 0 1
-20.802244 29.985116 33.920315 49.823973 -0.964276 0.821938 0.021256 0.006287 356338.000000 0 0 1
-20.852644 29.716556 32.366374 48.636289 -0.958918 0.842662 0.010830 0.006937 -215868.000000 0 0 1
-20.413744 30.858476 31.663910 48.698765 -0.986360 0.862949 0.015506 0.004447 270503.000000 0 0 1
-20.165744 30.670326 30.272800 47.579077 -0.989167 0.881152 0.027564 0.007626 -219525.000000 0 0 1
-19.801544 31.947306 29.566950 47.821920 -1.015931 0.904254 0.023262 -0.000921 -572659.000000 0 0 1
-20.839344 32.846552 29.445510 48.787420 -1.005434 0.922854 0.020095 0.007335 -341208.000000 0 0 1
-20.361444 34.042676 29.019350 49.148905 -1.031764 0.939196 0.026796 -0.005356 -650176.000000 0 0 1
-21.529044 -33.600753 29.103170 49.391344 1.000965 0.940683 0.029092 -0.014602 -584659.000000 0 0 1
-21.769444 -33.251913 30.419650 50.049511 0.991136 0.917520 0.030949 -0.006351 -193414.000000 0 0 1
-22.792044 -32.309743 30.672240 50.041814 0.956440 0.911030 0.037240 -0.013729 -116387.000000 0 0 1
-22.458144 -30.794583 30.498400 48.814209 0.940683 0.895940 0.053495 -0.013666 -496803.000000 0 0 1
-22.382744 -30.424963 29.169770 47.723591 0.936529 0.913191 0.025816 -0.006728 10878.800000 0 0 1
-22.116244 -29.002543 29.111470 46.666406 0.919304 0.897175 0.044957 -0.019897 110.007000 0 0 1
-23.281344 -28.249263 28.381590 46.320152 0.881508 0.911290 0.042816 -0.021998 923411.000000 0 0 1
-24.493244 -28.088993 29.155380 47.317510 0.853675 0.906932 0.044943 -0.017224 1034080.000000 0 0 1
-25.398324 -29.182993 29.167740 48.450790 0.854627 0.924783 0.028269 -0.002584 -201156.000000 0 0 1
-26.397764 -29.186413 27.953390 48.270909 0.835526 0.953179 0.012414 -0.006415 -321614.000000 0 0 1
-25.765424 -29.350903 26.685260 47.301540 0.850360 0.971390 0.011452 -0.006372 -6193.690000 0 0 1
-26.648644 -29.713003 25.655580 47.447040 0.839714 0.999503 0.004405 -0.004096 -281161.000000 0 0 1
-25.899354 -30.068203 24.344560 46.556750 0.859748 1.020546 0.004563 -0.009309 -888335.000000 0 0 1
-25.341264 -28.884493 23.777780 45.187127 0.850648 1.016662 0.007623 -0.008723 308154.000000 0 0 1
-24.818144 -29.062423 22.460380 44.328697 0.864008 1.039469 0.022108 -0.014421 60854.900000 0 0 1
-23.724344 -30.157333 22.283880 44.372070 0.904227 1.044649 0.025101 -0.019586 -1150810.000000 0 0 1
-24.172444 -31.475413 21.956980 45.355459 0.915888 1.065452 0.014496 -0.019937 610958.000000 0 0 1
-23.082444 -32.398283 21.827680 45.375055 0.951758 1.068944 0.028197 -0.011142 291270.000000 0 0 1
-22.497244 -32.917303 23.166480 46.112478 0.971266 1.044435 0.023670 -0.009149 -506529.000000 0 0 1
-21.546844 -32.004413 23.614940 45.235101 0.978253 1.021545 0.043007 -0.017266 -317547.000000 0 0 1
-20.906244 -32.601093 24.706470 45.938132 1.000580 1.002947 0.047028 -0.025200 -307681.000000 0 0 1
-19.872844 -31.782513 25.508840 45.340479 1.011999 0.973261 0.048994 -0.021957 -1549140.000000 0 0 1
-18.659944 -31.614403 24.848910 44.329813 1.037588 0.975751 0.058696 -0.022560 -938374.000000 0 0 1
-17.839544 -30.770063 25.570830 43.805405 1.045385 0.947473 0.076556 -0.023751 -407156.000000 0 0 1
-16.982144 -31.541373 26.638540 44.641497 1.076896 0.931387 0.068238 -0.027062 -719533.000000 0 0 1
-17.823044 -32.026943 27.662020 45.919205 1.062975 0.924284 0.051783 -0.016529 256404.000000 0 0 1
-17.039944 -32.631573 28.687260 46.670528 1.089553 0.908821 0.054079 -0.012104 67734.700000 0 0 1
-17.360944 -32.115853 30.090420 47.310293 1.075220 0.881463 0.065426 -0.014400 -6629.630000 0 0 1
-16.870944 -30.824733 30.249710 46.366345 1.070014 0.860041 0.064138 -0.010524 343044.000000 0 0 1
-17.516044 -30.208613 31.388540 46.953302 1.045335 0.838599 0.070247 -0.010337 275186.000000 0 0 1
-17.257544 -28.673963 31.496660 45.957139 1.029015 0.815714 0.071269 -0.009296 -54036.800000 0 0 1
-18.100344 -27.854763 30.704340 45.235681 0.994554 0.824718 0.093215 -0.011783 154195.000000 0 0 1
-18.190944 -27.969193 29.279900 44.390301 0.994145 0.850508 0.088850 -0.013489 403646.000000 0 0 1
-16.858944 -27.723293 28.475290 43.169980 1.024431 0.850498 0.085059 -0.006119 507769.000000 0 0 1
-16.528244 -26.366193 28.464620 42.173376 1.010852 0.829909 0.069868 -0.007545 671537.000000 0 0 1
-15.324544 -26.015003 27.757140 41.013179 1.038456 0.827408 0.051732 -0.007765 615844.000000 0 0 1
-15.369044 -24.677643 27.042550 39.705077 1.013786 0.821552 0.048972 0.003148 -825226.000000 0 0 1
-16.302244 -24.642843 26.029860 39.377487 0.986351 0.848600 0.082186 -0.016432 -494901.000000 0 0 1
-16.167644 -23.512243 25.194910 38.065756 0.968423 0.847474 0.054054 -0.006927 -85848.800000 0 0 1
-16.683844 -22.180843 25.795920 37.891555 0.925906 0.821965 0.061450 -0.003729 -605448.000000 0 0 1
-16.420544 -21.064343 25.006600 36.587852 0.908655 0.818294 0.036801 0.000115 -106293.000000 0 0 1
-16.952044 -19.891543 25.508380 36.520169 0.865013 0.797534 0.047714 0.004017 -333157.000000 0 0 1
-16.743944 -18.654643 24.635810 35.146529 0.839323 0.794074 0.027113 -0.001026 -632311.000000 0 0 1
-15.426344 -18.374243 24.307620 34.153262 0.872392 0.778850 0.018418 -0.001012 -869621.000000 0 0 1
-15.321744 -17.158643 23.613050 32.965907 0.841892 0.772330 0.020558 0.001240 -82360.700000 0 0 1
-13.956344 -16.456743 23.740550 32.081422 0.867428 0.737712 0.037831 -0.005242 442695.000000 0 0 1
-12.836344 -17.256443 23.330280 31.731034 0.931238 0.744759 0.009312 -0.000201 769708.000000 0 0 1
-11.578244 -16.595043 23.442080 30.967440 0.961620 0.712100 0.016157 -0.010805 206060.000000 0 0 1
-11.044944 -15.663943 22.347080 29.440481 0.956643 0.708929 0.027982 -0.016126 -302183.000000 0 0 1
-10.516644 -16.280443 21.192480 28.718876 0.997261 0.740800 0.040174 -0.014834 1591480.000000 0 0 1
-9.129844 -16.738543 21.368380 28.638096 1.071462 0.728532 0.038206 -0.010518 1014780.000000 0 0 1
-8.724144 -17.913843 20.487780 28.579111 1.117598 0.771480 0.032067 -0.012133 -80076.200000 0 0 1
-8.450644 -17.609643 19.185080 27.378463 1.123368 0.794367 0.032325 -0.015004 -245698.000000 0 0 1
-8.252544 -18.808543 18.463480 27.618217 1.157324 0.838572 0.026235 -0.009681 192664.000000 0 0 1
-7.930344 -18.576043 16.958480 26.373278 1.167307 0.872364 0.029676 -0.018466 1013130.000000 0 0 1
-6.681544 -17.897243 16.704780 25.377235 1.213492 0.852293 0.036904 -0.017696 627355.000000 0 0 1
-6.631644 -17.723743 15.271280 24.317109 1.212756 0.891809 0.047237 -0.023349 -151289.000000 0 1 0
-5.793244 -16.508943 14.915380 22.990769 1.233306 0.864849 0.036642 -0.027228 -243171.000000 0 1 0
-6.215544 -15.355743 15.553480 22.723173 1.186185 0.816911 0.036373 -0.034934 -126894.000000 0 1 0
-5.272544 -14.319743 15.438880 21.707459 1.218000 0.779558 0.027449 -0.033883 -504541.000000 0 1 0
-5.552144 -13.201843 16.501580 21.849877 1.172694 0.714799 0.014895 -0.025869 -83761.100000 0 1 0
-5.198644 -13.529443 17.859680 23.000868 1.203944 0.681738 0.019557 -0.027370 638599.000000 0 1 0
-6.006344 -14.560843 18.568680 24.349337 1.179561 0.703481 0.039302 -0.028020 411774.000000 0 1 0
-7.383644 -14.200743 19.128880 24.941800 1.091318 0.696736 0.051447 -0.032658 -160687.000000 0 1 0
-7.176544 -13.312543 20.149380 25.193732 1.076375 0.643872 0.049284 -0.037127 510388.000000 0 0 1
-8.386344 -12.851143 20.777380 25.829870 0.992613 0.636142 0.050277 -0.029928 784395.000000 0 0 1
-8.088244 -11.948643 21.967580 26.282396 0.975731 0.581156 0.051977 -0.025588 -673721.000000 0 0 1
-7.498844 -10.758643 21.621280 25.287563 0.962082 0.545214 0.036768 -0.020576 -251337.000000 0 0 1
-7.167244 -9.942643 22.709580 25.806018 0.946208 0.494911 0.035123 -0.022787 33991.600000 0 0 1
-5.734444 -10.209343 23.239780 26.023104 1.059026 0.466731 0.039852 -0.020283 -75136.900000 0 0 1
-5.605144 -11.395343 23.976320 27.131816 1.113666 0.487092 0.048205 -0.020826 -121367.000000 0 0 1
-4.306644 -11.458543 24.528590 27.413448 1.211284 0.462892 0.044962 -0.014040 -133052.000000 0 0 1
-4.143544 -12.699943 25.391150 28.690905 1.255421 0.484325 0.045489 -0.013188 45700.300000 0 0 1
-2.833944 -12.973643 25.877110 29.085589 1.355736 0.474134 0.045523 -0.013336 297401.000000 0 0 1
-2.690144 -14.182443 26.633750 30.294145 1.383342 0.496676 0.044385 -0.014213 -69250.800000 0 0 1
-2.534344 -15.508143 25.888730 30.284514 1.408808 0.545534 0.040489 -0.018098 617356.000000 0 0 1
-1.388844 -15.597543 24.987300 29.488598 1.481988 0.559813 0.023494 -0.017019 1019260.000000 0 0 1
-1.422444 -16.825743 24.262890 29.560393 1.486457 0.608003 0.023567 -0.010954 183561.000000 0 0 1
-0.442344 -17.932043 24.826620 30.628662 1.546134 0.625675 0.027776 -0.023253 87282.200000 0 0 1
-0.414744 -18.224243 26.187160 31.907090 1.548042 0.608106 0.029537 -0.027933 225749.000000 0 0 1
0.514656 -17.385843 26.905740 32.038278 -1.541203 0.573882 0.051903 -0.027111 234549.000000 0 0 1
0.940356 -17.893043 28.332730 33.522960 -1.518290 0.563906 0.047335 -0.022618 -468023.000000 0 0 1
1.904956 -18.947443 28.335600 34.140016 -1.470594 0.591721 0.038310 -0.020190 324471.000000 0 0 1
2.619256 -19.086643 29.563830 35.287115 -1.434418 0.577540 0.050216 -0.032023 773089.000000 0 0 1
3.793556 -18.041243 29.720380 34.973969 -1.363544 0.555218 0.077175 -0.029016 -279892.000000 0 0 1
3.331956 -16.726143 29.827950 34.359459 -1.374164 0.519405 0.069449 -0.034101 -422793.000000 0 0 1
4.278756 -15.821543 30.336760 34.481125 -1.306676 0.495339 0.077818 -0.040828 -287080.000000 0 0 1
3.549756 -14.633543 30.977890 34.443737 -1.332816 0.452455 0.074299 -0.036314 617181.000000 0 0 1
2.847256 -15.061343 32.177500 35.641864 -1.383957 0.444558 0.071262 -0.037922 392854.000000 0 0 1
1.737956 -14.282543 32.581221 35.616675 -1.449708 0.415847 0.056437 -0.024919 -219414.000000 0 0 1
0.900556 -14.941643 33.702246 36.876891 -1.510598 0.417976 0.040736 -0.021763 113404.000000 0 0 1
1.623856 -15.052443 -33.514432 36.775401 -1.463332 2.717293 0.068531 -0.021538 -313900.000000 0 0 1
0.915956 -15.659243 -32.480412 36.069766 -1.512370 2.691688 0.033217 -0.023646 46271.000000 0 0 1
1.705656 -15.555443 -31.151302 34.860933 -1.461583 2.676071 0.045284 -0.017468 484341.000000 0 0 1
1.052656 -16.293843 -30.144672 34.282629 -1.506281 2.645184 0.040199 -0.016498 248456.000000 0 0 1
1.804656 -16.001643 -28.932102 33.111567 -1.458491 2.633710 0.033623 -0.021493 547214.000000 0 0 1
1.570556 -17.063943 -27.827952 32.680877 -1.479015 2.589646 0.049962 -0.020508 -64148.100000 0 0 1
2.122756 -18.321743 -28.200252 33.696388 -1.455451 2.562377 0.052318 -0.020977 7429.120000 0 0 1
1.813856 -19.291743 -27.205612 33.400700 -1.477050 2.522701 0.059871 -0.024595 -427356.000000 0 0 1
2.424656 -20.703143 -27.450522 34.467815 -1.454212 2.492132 0.050190 -0.023519 1003700.000000 0 0 1
3.809856 -20.987443 -27.166442 34.539880 -1.391222 2.475956 0.049108 -0.019746 819016.000000 0 0 1
4.112556 -21.016143 -25.831442 33.553760 -1.377553 2.449406 0.053790 -0.020347 -133762.000000 0 0 1
5.637956 -21.263443 -25.523782 33.695460 -1.311612 2.430247 0.044674 -0.019520 688292.000000 0 0 1
5.993956 -22.616743 -25.609372 34.688392 -1.311729 2.401297 0.044634 -0.017799 10462.000000 0 0 1
6.157856 -23.047243 -26.943632 35.986857 -1.309711 2.416907 0.048224 -0.018521 -830646.000000 0 0 1
5.583756 -24.465943 -27.111352 36.943012 -1.346414 2.394797 0.033955 -0.014182 -30377.300000 0 0 1
6.238156 -25.516003 -26.408342 37.247571 -1.331020 2.358868 0.046948 -0.006728 -146341.000000 0 0 1
5.575456 -26.743213 -26.640832 38.157818 -1.365259 2.343641 0.042118 -0.005653 53460.100000 0 0 1
5.980256 -27.963483 -25.748322 38.479812 -1.360111 2.303845 0.041939 -0.005950 1347030.000000 0 0 1
7.355456 -28.361283 -26.015182 39.182328 -1.317039 2.296888 0.042859 -0.002047 1172610.000000 0 0 1
7.733856 -29.413473 -25.102022 39.434458 -1.313680 2.260814 0.047689 0.001407 -131627.000000 0 0 1
9.088256 -29.987023 -25.549042 40.429834 -1.276523 2.254844 0.055666 -0.008285 -141978.000000 0 0 1
9.073756 -30.689073 -26.795312 41.738963 -1.283319 2.267866 0.051078 0.001253 -675263.000000 0 0 1
10.372556 -30.817123 -27.282612 42.445564 -1.246123 2.268901 0.060885 -0.010641 -306383.000000 0 0 1
10.483856 -30.567453 -28.832192 43.307918 -1.240394 2.299293 0.058830 -0.008503 -134177.000000 0 0 1
9.981056 -31.639353 -29.598582 44.460614 -1.265214 2.299263 0.055665 -0.018643 115249.000000 0 0 1
10.015756 -31.220973 -30.973452 45.104537 -1.260366 2.327741 0.061180 -0.010336 -39686.600000 0 0 1
-34.563288 -4.479043 -5.472212 35.279283 0.128871 1.726536 0.119930 -0.012161 -110659.000000 0 0 1
-34.208408 -3.613343 -4.425112 34.682172 0.105237 1.698735 0.116747 -0.020814 402235.000000 0 0 1
-33.454104 -2.515343 -4.910312 33.905976 0.075047 1.716129 0.132782 -0.020436 -320235.000000 0 0 1
-34.309631 -1.394743 -5.545012 34.782801 0.040629 1.730898 0.144111 -0.017730 -153790.000000 0 0 1
-35.071325 -0.741243 -4.555412 35.373706 0.021132 1.699935 0.116578 -0.013769 -40146.700000 0 0 1
-36.055354 0.080857 -5.120012 36.417161 -0.002243 1.711857 0.114265 -0.021996 -111632.000000 0 0 1
35.625168 0.870657 -4.050912 35.865311 0.024435 1.683986 0.119505 -0.026098 -115187.000000 0 0 1
-36.107734 1.970157 -3.545312 36.334821 -0.054509 1.668525 0.116771 -0.023749 47176.100000 0 0 1
35.502518 2.782057 -2.791912 35.720630 0.078202 1.649036 0.104644 -0.023329 -360528.000000 0 0 1
36.220508 4.095257 -2.466012 36.534608 0.112586 1.638346 0.089274 -0.024044 -221395.000000 0 0 1
-36.008587 5.000457 -3.541312 36.526207 -0.137986 1.667901 0.097482 -0.017108 65476.900000 0 0 1
-34.670195 5.048057 -3.962212 35.259104 -0.144586 1.683408 0.078563 -0.016125 -124913.000000 0 0 1
-33.752754 6.100157 -3.251912 34.453378 -0.178801 1.665323 0.062942 -0.019330 -254451.000000 0 0 1
-33.421944 5.803257 -1.906412 33.975558 -0.171922 1.626937 0.075132 -0.023032 336771.000000 0 0 1
-33.332804 7.021857 -1.199312 34.085490 -0.207623 1.605989 0.080946 -0.036162 -130131.000000 0 0 1
-32.372254 7.075557 0.014988 33.136484 -0.215185 1.570344 0.077148 -0.040709 749931.000000 0 0 1
-30.961154 6.981057 -0.298912 31.739842 -0.221769 1.580214 0.082143 -0.037468 1573530.000000 0 0 1
-30.109544 7.361857 0.782188 31.006344 -0.239798 1.545567 0.087639 -0.038455 129632.000000 0 0 1
-29.868584 8.895457 0.987088 31.180696 -0.289455 1.539134 0.088579 -0.039625 -310827.000000 0 0 1
-31.095634 9.541757 1.335788 32.554076 -0.297731 1.529752 0.084096 -0.045766 474726.000000 0 0 1
-30.964324 10.839657 1.832488 32.857960 -0.336736 1.514997 0.081984 -0.033493 -171179.000000 0 0 1
-32.253854 11.650657 1.628088 34.332194 -0.346633 1.523357 0.079137 -0.043505 -343085.000000 0 0 1
-32.618514 11.806457 0.225488 34.690211 -0.347286 1.564296 0.071958 -0.038985 1079910.000000 0 0 1
-33.756824 12.667957 0.033488 36.055532 -0.359008 1.569868 0.070906 -0.026332 1456280.000000 0 0 1
-35.228685 12.153357 0.229288 37.266834 -0.332200 1.564644 0.090751 -0.041780 730897.000000 0 0 1
-35.665036 11.178157 -0.702312 37.382338 -0.303723 1.589585 0.081234 -0.039022 -61436.400000 0 0 1
35.540058 10.626057 -0.316212 37.095941 0.290528 1.579321 0.092465 -0.039147 203815.000000 0 0 1
35.028398 9.467057 -1.255212 36.306878 0.263962 1.605375 0.087256 -0.032575 222650.000000 0 0 1
34.639598 9.915257 -2.541712 36.120277 0.278786 1.641223 0.075159 -0.026697 144729.000000 0 0 1
34.396808 8.816857 -3.394312 35.670699 0.250925 1.666097 0.068668 -0.037722 -132038.000000 0 0 1
33.884608 9.130757 -4.823512 35.423208 0.263214 1.707389 0.052273 -0.029886 211466.000000 0 0 1
32.530188 9.541057 -4.737212 34.229901 0.285297 1.709636 0.073393 -0.034265 254080.000000 0 0 1
31.990498 9.781357 -6.035712 33.992598 0.296731 1.749302 0.059339 -0.023910 -397714.000000 0 0 1
30.558368 10.307857 -6.006312 32.804597 0.325332 1.754929 0.082231 -0.022036 -994865.000000 0 0 1
29.589578 9.342057 -5.903912 31.585968 0.305817 1.758818 0.088369 -0.017531 -285493.000000 0 0 1
28.308688 9.896457 -6.087512 30.600318 0.336310 1.771069 0.110144 -0.011550 -162323.000000 0 0 1
27.124428 8.928157 -6.217012 29.224952 0.317986 1.785164 0.124966 -0.002066 -180753.000000 0 0 1
27.176828 8.196257 -7.417412 29.338995 0.292915 1.826388 0.116344 -0.011929 242751.000000 0 0 1
26.105728 7.277057 -7.482512 28.114989 0.271852 1.840182 0.122565 -0.012649 -21876.600000 0 0 1
26.163228 6.343657 -8.732812 28.302270 0.237874 1.884470 0.108878 -0.018367 537697.000000 0 0 1
27.217928 5.368057 -8.580012 29.038737 0.194726 1.870741 0.107996 -0.020487 1146810.000000 0 0 1
27.021428 4.353357 -9.530112 28.981586 0.159735 1.905864 0.097826 -0.019731 126654.000000 0 0 1
27.962188 3.058857 -9.442912 29.671690 0.108959 1.894676 0.082528 -0.014648 -278561.000000 0 0 1
29.274408 3.267857 -9.900012 31.075394 0.111168 1.895028 0.102677 -0.010385 195883.000000 0 0 1
30.255108 3.000957 -8.918312 31.684596 0.098865 1.856124 0.079697 -0.024083 -25494.100000 0 0 1
30.619348 1.527157 -8.643612 31.852609 0.049834 1.845605 0.085264 -0.022015 -292207.000000 0 0 1
29.543378 0.993357 -7.848012 30.584134 0.033611 1.830303 0.098186 -0.024435 809256.000000 0 0 1
29.611388 -0.355543 -7.426412 30.530515 -0.012006 1.816507 0.093474 -0.018380 -342262.000000 0 0 1
29.426008 -1.505843 -8.475612 30.659314 -0.051129 1.850889 0.081872 -0.017514 -751831.000000 0 0 1
30.426678 -1.714043 -9.421812 31.898138 -0.056274 1.870641 0.081805 -0.021508 -376297.000000 0 0 1
30.226018 -2.851843 -10.168212 32.017772 -0.094072 1.893973 0.063197 -0.021361 -269732.000000 0 0 1
31.243698 -3.157443 -11.307812 33.376710 -0.100717 1.916431 0.064358 -0.019526 -64861.400000 0 0 1
32.424668 -3.769943 -10.791212 34.380545 -0.115748 1.890068 0.091995 -0.008064 489766.000000 0 0 1
33.202858 -4.285843 -11.891012 35.527376 -0.128371 1.912083 0.073986 -0.017582 834009.000000 0 0 1
34.687008 -4.633243 -11.510612 36.839512 -0.132787 1.888570 0.096773 -0.014846 554441.000000 0 0 1
34.741458 -5.707743 -10.628612 36.776550 -0.162837 1.863984 0.093375 -0.020096 445691.000000 0 0 1
36.097288 -5.970543 -10.297512 38.009214 -0.163917 1.845146 0.104215 -0.012227 184918.000000 0 0 1
-36.084184 -7.148643 -9.417212 37.971770 0.195578 1.821417 0.096938 -0.023848 -277778.000000 0 0 1
35.767878 -6.870843 -8.157012 37.324073 -0.189784 1.791120 0.083105 -0.009328 614401.000000 0 0 1
35.374858 -8.061243 -7.512112 37.051263 -0.224055 1.774961 0.083863 -0.010439 -181779.000000 0 0 1
35.187128 -8.035043 -5.996712 36.587655 -0.224502 1.735439 0.076340 -0.008337 -318596.000000 0 0 1
-36.001745 -7.988043 -5.348812 37.263176 0.218342 1.714835 0.077292 -0.003366 454115.000000 0 0 1
-35.974752 -8.732743 -4.130112 37.249180 0.238140 1.681903 0.080450 -0.014174 -3565.170000 0 0 1
-35.373897 -10.161443 -4.331312 37.058437 0.279727 1.687942 0.082176 -0.015125 -140450.000000 0 0 1
-36.159654 -10.787043 -5.326112 38.108376 0.289912 1.711018 0.069405 -0.016324 274367.000000 0 0 1
-35.509937 -11.841643 -6.016312 37.912744 0.321877 1.730158 0.064429 -0.013850 -222050.000000 0 0 1
36.209558 -12.354743 -7.271012 38.944055 -0.328815 1.758602 0.067758 -0.022695 -92453.400000 0 0 1
-36.205634 -11.400143 -8.352212 38.866060 0.305044 1.787383 0.075826 -0.021526 255952.000000 0 0 1
35.683548 -11.947643 -9.548012 38.823013 -0.323090 1.819282 0.083144 -0.016752 144962.000000 0 0 1
36.017428 -11.081543 -10.814412 39.204684 -0.298480 1.850265 0.070848 -0.025256 -151654.000000 0 0 1
34.981738 -10.128543 -10.984912 38.039160 -0.281831 1.863748 0.072365 -0.020768 513486.000000 0 0 1
35.187238 -9.513143 -12.208812 38.440821 -0.264045 1.893994 0.068906 -0.020264 -55418.900000 0 0 1
34.179428 -8.410843 -12.643012 37.400820 -0.241285 1.915631 0.062114 -0.017181 -84418.500000 0 0 1
34.391568 -7.845543 -13.922012 37.923013 -0.224286 1.946699 0.071398 -0.013443 202295.000000 0 0 1
33.291888 -7.071743 -14.313912 36.922181 -0.209305 1.968907 0.062195 -0.014850 -162909.000000 0 0 1
33.582108 -6.291943 -15.640012 37.576010 -0.185213 2.000084 0.059412 -0.017196 118658.000000 0 0 1
34.681458 -5.411943 -15.476912 38.361797 -0.154799 1.986076 0.056932 -0.013341 699195.000000 0 0 1
34.243188 -4.081243 -15.912512 37.979738 -0.118625 2.003111 0.063957 -0.016668 532228.000000 0 0 1
35.388048 -3.024043 -15.923112 38.923056 -0.085247 1.992255 0.065736 -0.021741 -21560.100000 0 0 1
-36.220574 -3.123443 -17.078012 40.166458 0.086021 2.009958 0.074149 -0.018861 160283.000000 0 0 1
-34.900195 -2.660643 -17.019612 38.920044 0.076089 2.023387 0.081633 -0.015868 -122573.000000 0 0 1
-34.721385 -1.161843 -16.660212 38.529042 0.033449 2.017956 0.069236 -0.010851 -1112050.000000 0 0 1
-35.118198 -0.282343 -17.684012 39.320374 0.008040 2.037272 0.062641 -0.010962 225873.000000 0 0 1
-35.140033 1.116957 -17.356812 39.208780 -0.031775 2.029378 0.070715 -0.020017 -170785.000000 0 0 1
-35.564863 2.064257 -18.465812 40.126136 -0.057977 2.049010 0.045007 -0.017388 -548710.000000 0 0 1
-34.623918 2.256357 -19.475912 39.789672 -0.065076 2.082280 0.058455 -0.016112 -2496.880000 0 0 1
-34.351031 3.596157 -19.707512 39.765710 -0.104309 2.089311 0.050670 -0.004574 156507.000000 0 0 1
-33.446374 3.913757 -20.953312 39.661300 -0.116486 2.127401 0.046296 0.000536 181523.000000 0 0 1
-32.050944 3.858957 -20.811512 38.409290 -0.119824 2.143416 0.051211 -0.003078 61366.200000 0 0 1
-31.356004 4.166257 -22.001412 38.530751 -0.132096 2.178531 0.049947 -0.000297 -639511.000000 0 0 1
-29.864744 4.366757 -21.855412 37.264333 -0.145189 2.197523 0.071338 -0.006748 -363819.000000 0 0 1
-29.089294 3.243257 -21.365912 36.238211 -0.111035 2.201355 0.068353 0.003778 829837.000000 0 0 1
-27.696494 3.541557 -21.488312 35.233307 -0.127180 2.226713 0.057425 0.004321 236610.000000 0 0 1
-26.936424 2.522557 -20.648512 34.033737 -0.093376 2.222708 0.076302 -0.007812 -551189.000000 0 0 1
-26.835134 2.907757 -19.330912 33.200355 -0.107935 2.192290 0.083236 -0.004586 -42255.900000 0 0 1
-26.109474 1.936257 -18.644112 32.141198 -0.074024 2.189610 0.079000 -0.008502 -331802.000000 0 0 1
-25.221564 2.483657 -17.510812 30.804616 -0.098157 2.175414 0.078969 -0.013919 663284.000000 0 0 1
-24.032744 3.235757 -17.834712 30.101824 -0.133835 2.204929 0.073762 -0.008448 987253.000000 0 0 1
-23.400044 3.694457 -16.643312 28.951872 -0.156590 2.183231 0.077294 -0.016589 -933855.000000 0 0 1
-22.215444 4.580857 -16.743912 28.193417 -0.203351 2.206687 0.063474 -0.013956 -1297230.000000 0 0 1
-21.137844 4.031657 -17.418212 27.684956 -0.188468 2.251266 0.073366 -0.009700 -59964.400000 0 0 1
-19.980344 4.880957 -17.337412 26.900255 -0.239595 2.271175 0.059118 -0.007168 53414.400000 0 0 1
-18.770344 4.123157 -17.872112 26.243830 -0.216229 2.319927 0.074377 -0.010123 -593066.000000 0 0 1
-18.332644 3.102357 -16.992712 25.188543 -0.167638 2.311247 0.090670 -0.012322 349811.000000 0 0 1
-17.280844 2.258357 -17.473412 24.678895 -0.129949 2.357502 0.075017 -0.015502 -173452.000000 0 1 0
-17.337044 0.762557 -17.088912 24.355399 -0.043956 2.348504 0.080227 -0.013822 423992.000000 0 1 0
-18.261244 -0.172343 -17.704612 25.435330 0.009437 2.340697 0.064845 -0.013353 28293.000000 0 0 1
-19.599244 0.081857 -17.413912 26.217959 -0.004176 2.297217 0.069252 -0.020007 -1060150.000000 0 0 1
-20.537744 -0.988943 -17.974012 27.310109 0.048115 2.289149 0.072087 -0.024379 -470136.000000 0 0 1
-20.528544 -2.209943 -17.253612 26.907101 0.107239 2.266895 0.061333 -0.018571 1008210.000000 0 0 1
-21.552244 -3.152343 -17.655212 28.038241 0.145235 2.251942 0.077636 -0.007168 524445.000000 0 0 1
-21.651044 -4.321843 -16.676712 27.668732 0.197024 2.217711 0.089398 -0.007270 3553.620000 0 0 1
-22.061044 -3.840843 -15.365412 27.157644 0.172373 2.172182 0.079974 -0.011155 521660.000000 0 0 1
-22.560444 -4.884843 -14.532812 27.277059 0.213231 2.132685 0.089340 -0.019685 -59897.900000 0 0 1
-23.022544 -4.419043 -13.153112 26.880659 0.189638 2.082101 0.085474 -0.021481 174322.000000 0 0 1
-24.062244 -3.445643 -13.187112 27.654366 0.142230 2.067869 0.083881 -0.016240 603709.000000 0 0 1
-24.246144 -2.942743 -11.840512 27.142825 0.120779 2.022201 0.093943 -0.024329 -135284.000000 0 0 1
-25.022044 -1.618643 -11.665312 27.655057 0.064599 2.006242 0.112506 -0.031546 -151267.000000 0 0 1
-25.096284 -1.167843 -10.363012 27.176816 0.046501 1.962018 0.102020 -0.030004 657010.000000 0 0 1
-25.804164 0.078657 -10.274312 27.774494 -0.003048 1.949718 0.116968 -0.029383 -2251.040000 0 0 1
-26.208304 0.569757 -8.888712 27.680481 -0.021736 1.897707 0.125570 -0.025358 209441.000000 0 0 1
-25.082184 0.816357 -8.038512 26.351472 -0.032536 1.880787 0.100814 -0.018261 676386.000000 0 0 1
-25.494154 1.019957 -6.681112 26.374788 -0.039986 1.826901 0.100705 -0.024554 -387639.000000 0 0 1
-24.366444 1.233057 -5.674012 25.048721 -0.050562 1.799299 0.072515 -0.019071 -371387.000000 0 0 1
-23.738344 2.502057 -5.880012 24.583405 -0.105014 1.812324 0.075920 -0.019597 -119169.000000 0 1 0
-22.593044 2.509557 -5.077412 23.292136 -0.110623 1.790549 0.070119 -0.010423 -620605.000000 0 1 0
-21.910344 3.897257 -5.074712 22.825522 -0.176032 1.794996 0.064170 -0.013257 -234272.000000 0 1 0
-22.607544 4.873957 -4.306112 23.524436 -0.212340 1.754883 0.076261 -0.019106 811434.000000 0 1 0
-22.073844 6.182457 -4.547412 23.369987 -0.273083 1.766629 0.061140 -0.023345 -200952.000000 0 1 0
-22.753744 7.264357 -3.677812 24.166713 -0.309031 1.723575 0.082084 -0.023658 -400162.000000 0 1 0
-22.378644 7.415657 -2.315112 23.688719 -0.319984 1.668683 0.091798 -0.025142 1825160.000000 0 1 0
-21.019844 7.913957 -2.094812 22.557765 -0.360084 1.663795 0.103258 -0.024175 1182900.000000 0 1 0
-20.676244 9.391957 -2.406812 22.836564 -0.426373 1.676385 0.102691 -0.023293 -521463.000000 0 1 0
-20.692344 9.780757 -3.796812 23.200260 -0.441550 1.735190 0.095980 -0.016259 559898.000000 0 1 0
-20.138444 11.057057 -3.974412 23.315475 -0.502115 1.742095 0.105252 -0.008074 -385664.000000 0 1 0
-19.815744 11.443357 -5.463912 23.525910 -0.523702 1.805187 0.090753 -0.014394 12609.500000 0 1 0
-18.680944 10.738357 -5.948512 22.353406 -0.521706 1.840154 0.065134 -0.016164 417535.000000 0 1 0
-18.431144 11.337857 -7.209812 22.808670 -0.551482 1.892412 0.059091 -0.010075 319487.000000 0 1 0
-17.152544 10.875357 -7.978212 21.820518 -0.565072 1.945105 0.049601 -0.016403 63244.900000 0 1 0
-17.171544 9.506457 -8.387512 21.344437 -0.505616 1.974645 0.054048 -0.015826 445464.000000 0 1 0
-18.144244 9.042457 -9.331912 22.317352 -0.462339 2.002200 0.058395 -0.013675 -127842.000000 0 1 0
-18.102644 9.747457 -10.701912 23.178644 -0.493936 2.050723 0.062408 -0.013146 -384153.000000 0 1 0
-17.059844 9.307357 -11.518212 22.590581 -0.499436 2.105828 0.063198 -0.015955 -303734.000000 0 1 0
-16.974244 10.218857 -12.597112 23.478441 -0.541904 2.137127 0.054670 -0.018480 -301323.000000 0 1 0
-15.844744 9.985657 -13.587612 23.138549 -0.562343 2.198427 0.039312 -0.009791 -622939.000000 0 1 0
-15.928844 8.743457 -14.261712 23.099189 -0.502004 2.236245 0.039385 -0.012332 84942.600000 0 1 0
-15.609544 7.513557 -13.606912 22.028605 -0.448612 2.236602 0.030285 -0.008889 -217388.000000 0 1 0
-15.735044 6.292057 -14.528612 22.321786 -0.380399 2.279528 0.045791 -0.007578 268814.000000 0 1 0
-14.813344 6.300757 -15.626312 22.434712 -0.402161 2.341338 0.063123 -0.004850 453512.000000 0 1 0
-14.738444 5.013857 -16.167212 22.444135 -0.327908 2.375076 0.052548 -0.010059 -75947.300000 0 1 0
32.058088 -16.190043 28.460490 45.823990 -0.467657 0.900673 -0.010899 0.003977 -253885.000000 0 0 1
31.640228 -14.856343 28.802510 45.292379 -0.438984 0.881591 -0.011172 0.009822 246693.000000 0 0 1
30.519878 -14.821143 29.693920 45.087228 -0.452080 0.851855 -0.000164 0.003015 329191.000000 0 0 1
30.883688 -14.912143 31.202530 46.365635 -0.449833 0.832584 -0.010813 -0.000232 175117.000000 0 0 1
31.559708 -13.711643 31.620330 46.731891 -0.409862 0.827616 -0.025306 0.001913 138332.000000 0 0 1
31.654558 -13.715943 33.033080 47.763193 -0.408880 0.807093 -0.029377 0.000876 -335902.000000 0 0 1
31.942528 -12.295743 33.602934 47.965275 -0.367451 0.794603 -0.021965 0.000314 45044.800000 0 0 1
31.710518 -12.217743 -33.442672 47.678533 -0.367761 2.348184 -0.026945 -0.007370 56603.600000 0 0 1
31.861908 -10.877843 -33.066882 47.190331 -0.328998 2.347193 -0.006825 -0.001964 -466053.000000 0 0 1
31.441158 -10.597743 -31.605252 45.823035 -0.325106 2.331904 0.003813 -0.004517 -274786.000000 0 0 1
30.059278 -10.816543 -31.461402 44.837235 -0.345414 2.348549 0.039289 -0.007575 -339953.000000 0 0 1
29.741498 -10.292443 -30.174752 43.600536 -0.333164 2.335153 0.025789 -0.004694 -84397.000000 0 0 1
28.324668 -10.701043 -29.707922 42.418861 -0.361223 2.346680 0.028213 0.011881 43074.100000 0 0 1
28.164278 -10.348543 -28.374532 41.296888 -0.352122 2.328268 0.019241 0.010091 482236.000000 0 0 1
27.330228 -11.321843 -27.686362 40.517405 -0.392739 2.323097 0.049087 0.008561 -805160.000000 0 0 1
26.812528 -10.907543 -26.267502 39.087950 -0.386361 2.307716 0.034266 0.014377 -699956.000000 0 0 1
25.977328 -9.728743 -26.173662 38.138309 -0.358340 2.327162 0.025515 0.008717 885995.000000 0 0 1
24.803528 -9.577143 -26.957332 37.863365 -0.368484 2.363087 0.026075 -0.000428 23752.200000 0 0 1
23.791328 -10.725843 -26.986432 37.541158 -0.423544 2.372942 0.035614 0.007124 -1529830.000000 0 0 1
24.242828 -11.780143 -27.758952 38.691677 -0.452323 2.370917 0.032993 0.007299 -609442.000000 0 0 1
23.500028 -12.932143 -27.570632 38.465977 -0.503076 2.369932 0.051452 -0.005850 -528624.000000 0 0 1
24.098928 -14.133443 -28.237942 39.722713 -0.530416 2.361540 0.037702 0.009320 -73801.200000 0 0 1
24.216528 -14.074043 -29.667262 40.800311 -0.526463 2.384933 0.035465 0.000466 -216716.000000 0 0 1
25.124328 -15.008243 -30.126082 42.000715 -0.538475 2.370681 0.032022 0.011333 -492274.000000 0 0 1
25.125628 -15.199343 -31.680482 43.196877 -0.544039 2.394103 0.050395 -0.006313 740212.000000 0 0 1
23.862728 -15.616543 -32.253972 43.053745 -0.579485 2.417583 0.064657 -0.011800 887463.000000 0 0 1
23.896428 -15.903343 -33.644552 44.225688 -0.587202 2.435259 0.065705 -0.009568 110684.000000 0 0 1
24.208628 -14.784143 33.778629 44.109232 -0.548248 0.698520 0.056329 -0.019940 443360.000000 0 0 1
23.134928 -13.852443 33.766463 43.212141 -0.539513 0.673872 0.076110 -0.024197 304529.000000 0 0 1
23.216328 -13.088843 32.593411 42.102805 -0.513359 0.685443 0.074259 -0.022710 -553507.000000 0 0 1
22.265628 -11.830043 32.591325 41.205614 -0.488384 0.658446 0.094077 -0.030636 824224.000000 0 0 1
20.881828 -12.156143 32.573031 40.556441 -0.527183 0.638227 0.085110 -0.022844 326592.000000 0 0 1
20.387228 -12.782143 31.392990 39.554293 -0.560013 0.653981 0.073719 -0.016476 -778334.000000 0 0 1
18.852528 -12.891843 31.512590 38.918643 -0.599788 0.627148 0.068142 -0.012748 -287725.000000 0 0 1
18.004328 -11.827143 31.505230 38.165648 -0.581214 0.599733 0.074753 -0.013119 -886806.000000 0 0 1
17.143728 -11.861043 32.588648 38.686067 -0.605241 0.569098 0.046425 -0.011785 -451196.000000 0 0 1
16.447128 -10.536043 32.743133 38.126487 -0.569739 0.537868 0.054909 -0.017574 -568970.000000 0 0 1
15.628528 -10.204643 31.620480 36.718393 -0.578446 0.533245 0.062708 -0.015919 276099.000000 0 0 1
14.835528 -9.016043 31.657280 36.104921 -0.546086 0.501602 0.065864 -0.016339 1351460.000000 0 0 1
13.648328 -9.047343 32.725924 36.593953 -0.585384 0.463935 0.065699 -0.018749 242321.000000 0 0 1
12.660228 -10.038443 32.480200 36.276923 -0.670404 0.461601 0.057753 -0.015634 157403.000000 0 0 1
11.461328 -9.913743 33.203910 36.498548 -0.713123 0.428157 0.046008 -0.015076 665372.000000 0 0 1
10.354628 -9.011743 32.576051 35.350091 -0.716168 0.398803 0.067309 -0.020309 49960.100000 0 0 1
10.708828 -7.623343 32.856602 35.388567 -0.618651 0.380572 0.072846 -0.021889 261987.000000 0 0 1
9.715328 -6.750343 32.361770 34.456333 -0.607237 0.350471 0.080071 -0.017222 30663.400000 0 0 1
10.105128 -5.274143 32.374964 34.323003 -0.481035 0.338530 0.075098 -0.020974 24773.700000 0 0 1
10.200928 -4.805343 33.764283 35.597431 -0.440236 0.322319 0.070492 -0.024154 101624.000000 0 0 1
10.593228 -3.467643 33.741564 35.534971 -0.316352 0.319058 0.047717 -0.020463 -305830.000000 0 0 1
10.459728 -2.690843 -33.401092 35.103838 -0.251797 2.828852 0.043917 -0.021562 -676084.000000 0 0 1
9.114428 -2.451343 -33.141742 34.459497 -0.262735 2.864151 0.044233 -0.005737 -673893.000000 0 0 1
8.954428 -1.485543 -32.137222 33.394455 -0.164403 2.866323 0.051310 -0.006825 544382.000000 0 0 1
7.445228 -1.213143 -31.859292 32.740153 -0.161523 2.909101 0.041860 -0.004329 607057.000000 0 0 1
6.765528 -0.386443 -32.801102 33.493790 -0.057057 2.937863 0.050935 -0.007448 264645.000000 0 0 1
5.395028 -0.183643 -32.484602 32.930068 -0.034026 2.976922 0.059538 -0.004659 369845.000000 0 0 1
4.829328 0.828457 -33.503582 33.859987 0.169893 2.996373 0.047713 -0.004378 -161741.000000 0 0 1
5.467428 2.082757 -33.421862 33.930097 0.363967 2.968293 0.052167 -0.009166 166242.000000 0 0 1
4.765928 2.980457 34.151364 34.610878 0.558864 0.163132 0.046483 -0.010998 144200.000000 0 0 1
5.368228 4.405857 34.212293 34.910034 0.687253 0.200269 0.054828 -0.015962 -31447.600000 0 0 1
4.821628 5.258157 33.245813 34.002653 0.828678 0.211383 0.067009 -0.033562 -953524.000000 0 0 1
5.650128 6.263257 32.919180 33.982713 0.836818 0.250842 0.066316 -0.033291 -1026670.000000 0 0 1
5.132728 7.339657 31.947810 33.179482 0.960531 0.273326 0.059394 -0.032150 -1323060.000000 0 0 1
3.979628 7.954657 32.364278 33.564274 1.106917 0.268206 0.065230 -0.025372 -1111960.000000 0 0 1
3.863328 9.232457 31.654810 33.199256 1.174486 0.306221 0.067718 -0.031284 -262145.000000 0 0 1
3.635428 9.285657 30.111690 31.719925 1.197630 0.319798 0.067769 -0.023117 109225.000000 0 0 1
2.455428 8.575857 29.735380 31.044601 1.291938 0.291452 0.062980 -0.022363 208417.000000 0 0 1
2.294828 8.514557 28.357130 29.696645 1.307534 0.301496 0.049175 -0.005204 297672.000000 0 0 1
0.886428 7.988757 27.985210 29.116627 1.460289 0.279687 0.046430 -0.008628 469698.000000 0 0 1
-0.223572 8.867257 28.116920 29.482867 -1.545589 0.305589 0.048648 -0.003665 -466063.000000 0 0 1
-1.330772 8.379357 27.432810 28.714868 -1.413296 0.299947 0.044242 -0.003483 -1080300.000000 0 0 1
-2.611672 8.600357 28.171810 29.570895 -1.275976 0.308839 0.039392 -0.005777 -1079150.000000 0 0 1
-2.991872 9.966757 28.364510 30.213126 -1.279170 0.351625 0.036994 -0.002389 -584460.000000 0 0 1
-4.258372 10.067357 28.935200 30.931072 -1.170631 0.361200 0.032202 0.001526 -605317.000000 0 0 1
-4.428572 11.308557 29.861000 32.236238 -1.197541 0.386278 0.022138 -0.004267 -261339.000000 0 0 1
-4.594772 12.591557 29.179430 32.110720 -1.220902 0.430606 0.013450 -0.012193 259208.000000 0 0 1
-5.801072 12.793857 28.451690 31.730646 -1.145097 0.458623 0.008233 -0.014029 -85733.600000 0 0 1
-5.999772 14.241857 27.956250 31.943382 -1.172083 0.504986 -0.003668 -0.014314 70152.900000 0 0 1
-5.200572 14.635557 26.831570 31.002881 -1.229374 0.524740 0.005589 -0.003416 -78831.400000 0 0 1
-5.457272 15.891057 26.383700 31.279500 -1.239997 0.567063 -0.012540 0.000634 -822567.000000 0 0 1
-4.330872 16.491457 25.596640 30.755692 -1.313982 0.587630 0.024432 -0.001944 -656286.000000 0 0 1
-4.251272 16.104157 24.245790 29.415566 -1.312698 0.601919 0.031119 -0.001118 -165742.000000 0 0 1
-3.245172 16.915057 23.663180 29.267668 -1.381248 0.629182 0.047590 -0.004085 62100.000000 0 0 1
-2.960372 16.707757 22.165280 27.914379 -1.395431 0.653361 0.042621 -0.006002 -20654.700000 0 0 1
-2.189472 15.556957 21.784380 26.858367 -1.430976 0.624794 0.035028 -0.013258 109704.000000 0 0 1
-2.285272 15.476857 20.405480 25.712627 -1.424198 0.654097 0.039283 -0.014156 63566.100000 0 0 1
-1.430472 14.350457 19.799680 24.495085 -1.471443 0.629516 0.035833 -0.019293 -23496.100000 0 1 0
-1.838472 13.025857 20.127980 24.045551 -1.430582 0.578878 0.038017 -0.013542 50928.100000 0 1 0
-1.192072 12.092257 19.262280 22.774528 -1.472532 0.562768 0.036725 -0.014663 186409.000000 0 1 0
-2.110472 10.856057 18.889880 21.889167 -1.378786 0.529661 0.025166 -0.021179 -22692.400000 0 1 0
-2.439372 9.930657 19.937080 22.406598 -1.329925 0.473920 0.041152 -0.022823 160032.000000 0 1 0
-3.337672 10.362257 20.953780 23.613075 -1.259191 0.479165 0.045430 -0.012873 19969.300000 0 1 0
-4.832672 10.040857 20.719780 23.526215 -1.122220 0.493437 0.033572 -0.009463 84265.000000 0 1 0
-5.266172 8.716357 20.971080 23.312950 -1.027315 0.452066 0.019330 -0.012000 1711430.000000 0 1 0
-6.733372 8.734157 21.057180 23.770331 -0.914038 0.482452 0.017838 -0.002997 1945620.000000 0 1 0
-7.341272 7.337657 21.200080 23.604637 -0.785152 0.455293 0.012993 -0.000864 -183284.000000 0 1 0
-7.418772 6.860457 22.511180 24.675033 -0.746318 0.421916 0.011001 0.002669 113458.000000 0 1 0
-7.911772 5.506857 22.520480 24.496808 -0.608059 0.404440 0.008458 0.005171 179457.000000 0 1 0
-7.909372 4.822357 23.899380 25.631887 -0.547523 0.369777 0.007474 0.002572 -514027.000000 0 0 1
-8.702772 5.486257 24.820380 26.867983 -0.562475 0.392932 -0.007877 0.006980 -217635.000000 0 0 1
-8.739572 4.846557 26.119940 27.966417 -0.506332 0.365416 -0.001666 0.010077 -100866.000000 0 0 1
-9.727272 5.475857 27.119720 29.327189 -0.512723 0.390472 0.004397 0.005551 6957.210000 0 0 1
-9.184472 6.640157 27.652290 29.884701 -0.625981 0.388973 0.007508 -0.002430 278606.000000 0 0 1
-10.057872 7.054257 28.708930 31.227007 -0.611643 0.404340 0.015959 -0.007492 372733.000000 0 0 1
-9.462072 8.258757 29.432870 32.000495 -0.717598 0.403320 0.017980 -0.002277 545226.000000 0 0 1
-8.302572 7.893857 30.188970 32.289620 -0.760169 0.362697 0.025044 -0.001205 291842.000000 0 0 1
-7.899172 8.910357 31.073960 33.277355 -0.845481 0.365942 0.031668 -0.008220 -459797.000000 0 0 1
-6.903772 8.333957 32.082170 33.858271 -0.878982 0.325337 0.050797 -0.008256 234134.000000 0 0 1
-5.633672 8.264557 31.405900 32.960153 -0.972481 0.308321 0.048067 -0.007769 -117280.000000 0 0 1
-4.694972 7.753457 32.316620 33.563712 -1.026319 0.273453 0.062486 -0.007865 -114703.000000 0 0 1
-3.240972 7.708957 31.809000 32.889883 -1.172814 0.257081 0.047921 -0.009616 90508.100000 0 0 1
-2.653272 8.993557 31.822110 33.174849 -1.283915 0.286553 0.042539 -0.008533 -161272.000000 0 0 1
-1.253572 8.878957 31.608270 32.855594 -1.430539 0.276429 0.044554 -0.013524 443992.000000 0 0 1
-0.680072 10.272257 31.196430 32.851164 -1.504688 0.318745 0.048368 -0.016909 -44847.000000 0 0 1
-0.785872 11.155357 32.277910 34.160256 -1.500465 0.333518 0.039017 -0.028777 466106.000000 0 0 1
-1.549972 12.308757 31.792670 34.127434 -1.445531 0.372042 0.027874 -0.026560 239075.000000 0 0 1
-1.649372 13.383257 32.900378 35.556531 -1.448173 0.388976 0.025340 -0.030879 -294105.000000 0 0 1
-0.386472 13.956057 33.148540 35.968689 -1.543111 0.398628 0.060824 -0.027793 -113909.000000 0 0 1
-0.512572 14.666457 -34.097602 37.121612 -1.535862 2.735162 0.055372 -0.029831 169371.000000 0 0 1
0.853428 15.052457 -33.478652 36.716820 1.514160 2.718460 0.057984 -0.026146 -198961.000000 0 0 1
1.443728 16.074757 34.201667 37.818464 1.481223 0.440909 0.062399 -0.025702 -187940.000000 0 0 1
2.687528 16.328657 -33.618432 37.470612 1.407669 2.684172 0.076865 -0.027008 201560.000000 0 0 1
3.543728 17.353457 33.990406 38.328164 1.369357 0.480366 0.092111 -0.017383 218393.000000 0 0 1
3.077828 18.710757 34.048847 38.972932 1.407761 0.508134 0.087627 -0.013890 -28465.100000 0 0 1
3.836828 19.580757 33.245042 38.773188 1.377299 0.540554 0.078565 -0.005556 53466.400000 0 0 1
3.347528 21.052957 33.414125 39.635044 1.413111 0.567876 0.082983 -0.010323 -60345.000000 0 0 1
3.600328 21.565057 -33.754042 40.216282 1.405370 2.566814 0.087608 -0.024984 244497.000000 0 0 1
3.068628 22.853657 -33.579032 40.733984 1.437322 2.539848 0.081654 -0.022716 -97853.600000 0 0 1
3.264928 23.434457 -32.189492 39.949930 1.432366 2.507730 0.070666 -0.024062 -123477.000000 0 0 1
2.870728 24.739657 -31.942382 40.504412 1.455275 2.479349 0.068911 -0.029947 170559.000000 0 0 1
3.275228 25.003857 -30.639082 39.682153 1.440549 2.452955 0.082237 -0.035061 -237887.000000 0 0 1
2.901828 26.445557 -30.200652 40.247577 1.461505 2.419421 0.085714 -0.036194 1032.870000 0 0 1
3.705228 27.495357 -30.691192 41.372365 1.436845 2.406589 0.085303 -0.039007 268167.000000 0 0 1
3.188928 28.690457 -30.132452 41.728602 1.460101 2.377637 0.077833 -0.037037 180909.000000 0 0 1
4.291528 29.813357 -30.087922 42.573894 1.427832 2.355651 0.080126 -0.041128 1005980.000000 0 0 1
5.395828 29.426957 -29.238492 41.832405 1.389447 2.344716 0.067867 -0.046222 315994.000000 0 0 1
6.112428 30.577857 -28.870042 42.495251 1.373500 2.317701 0.071580 -0.041453 -253307.000000 0 0 1
7.409128 30.346357 -28.060282 41.990189 1.331329 2.302661 0.063011 -0.038944 53437.300000 0 0 1
8.452828 29.791557 -28.849982 42.323854 1.294330 2.320809 0.059103 -0.038037 1556410.000000 0 0 1
9.686128 30.608157 -28.887942 43.187886 1.264312 2.303511 0.069930 -0.032784 1518820.000000 0 0 1
9.683128 31.898557 -29.774372 44.696690 1.276077 2.299821 0.076184 -0.034419 -575039.000000 0 0 1
8.936328 32.926257 -29.107162 44.846663 1.305776 2.277115 0.074438 -0.030484 283902.000000 0 0 1
8.634528 34.009957 -29.914342 46.109653 1.322167 2.276757 0.059734 -0.021979 -87117.100000 0 0 1
7.301628 34.009757 -30.699112 46.394103 1.359314 2.293884 0.053943 -0.020507 -199654.000000 0 0 1
7.248028 32.909457 -31.638382 46.222867 1.354016 2.324679 0.039770 -0.012845 433800.000000 0 0 1
6.023528 32.897257 -32.375172 46.547439 1.389701 2.339955 0.052841 -0.015745 325036.000000 0 0 1
6.033828 32.107857 -33.679122 46.921261 1.385039 2.371404 0.059683 -0.025012 172666.000000 0 0 1
6.647028 32.909357 33.751632 47.606527 1.371498 0.782759 0.060183 -0.021070 233070.000000 0 0 1
6.474928 32.251057 32.529534 46.262576 1.372664 0.790978 0.068160 -0.024357 -343151.000000 0 0 1
5.742128 33.031157 31.501560 46.004105 1.398677 0.816528 0.061623 -0.028541 -328940.000000 0 0 1
6.601628 33.989057 30.966560 46.451752 1.378957 0.841105 0.061434 -0.020687 22585.100000 0 0 1
5.948728 -33.793563 29.987620 45.570272 -1.396550 0.852567 0.037506 -0.025993 -105802.000000 0 0 1
17.850756 -22.436743 29.946350 41.458905 -0.898742 0.763654 0.073011 -0.007880 -398940.000000 0 0 1
17.027756 -21.292243 30.213440 40.695898 -0.896228 0.734121 0.065943 -0.011570 -1022070.000000 0 0 1
15.693556 -21.577143 30.199360 40.297173 -0.941967 0.723616 0.066832 -0.012204 -959322.000000 0 0 1
15.044756 -22.183043 31.505540 41.364612 -0.974845 0.704934 0.073989 -0.011787 -620117.000000 0 0 1
15.620656 -23.440443 31.843880 42.514609 -0.982980 0.724229 0.090181 -0.012146 204678.000000 0 0 1
15.418356 -23.658743 33.230804 43.609038 -0.993228 0.704375 0.065167 -0.011489 95300.400000 0 0 1
16.395956 -24.743543 33.756381 44.950680 -0.985590 0.721274 0.065928 -0.010914 286194.000000 0 0 1
16.023956 -26.076003 33.333641 45.253251 -1.019776 0.742764 0.074935 -0.011613 -128305.000000 0 0 1
16.773156 -26.999413 34.059401 46.587014 -1.014904 0.750875 0.072382 -0.011331 -91705.300000 0 0 1
16.478256 -28.508573 33.831892 47.210895 -1.046702 0.771864 0.071418 -0.005750 215753.000000 0 0 1
17.051256 -28.878583 32.566520 46.747151 -1.037431 0.800076 0.065457 -0.011426 214298.000000 0 0 1
16.728556 -30.228933 32.374311 47.346901 -1.065350 0.817882 0.071277 -0.019546 55353.800000 0 0 1
17.479756 -30.876103 31.185420 47.237761 -1.055657 0.849738 0.073654 -0.022252 446709.000000 0 0 1
18.794156 -31.329233 31.453510 48.208552 -1.030456 0.859988 0.073452 -0.027764 4654.850000 0 0 1
19.444956 -31.934493 30.394140 48.184250 -1.023857 0.888226 0.063870 -0.024553 107364.000000 0 0 1
20.871156 -32.429143 30.780730 49.342759 -0.998939 0.897182 0.057388 -0.021846 588646.000000 0 0 1
21.846156 -31.411233 30.955130 49.215244 -0.963105 0.890563 0.054087 -0.021307 -184340.000000 0 0 1
22.997956 -31.826323 31.613920 50.410919 -0.945058 0.892940 0.052439 -0.021724 -968430.000000 0 0 1
23.998256 -30.682523 31.645350 50.187267 -0.907036 0.888541 0.048823 -0.016503 -525835.000000 0 0 1
24.909356 -30.690303 30.572670 49.970580 -0.889000 0.912445 0.045656 -0.012383 -272925.000000 0 0 1
25.681656 -29.515773 30.561070 49.645819 -0.854749 0.907672 0.034738 -0.008793 -15767.600000 0 0 1
26.800356 -29.507083 29.500620 49.590459 -0.833432 0.933674 0.027191 -0.006427 -240370.000000 0 0 1
27.901756 -30.301113 29.839840 50.863361 -0.826599 0.943860 0.021039 0.001763 -539402.000000 0 0 1
28.783456 -30.404063 28.771110 50.800307 -0.812772 0.968717 0.019688 -0.009992 -118014.000000 0 0 1
29.989756 -31.335073 28.937220 52.140531 -0.807332 0.982451 0.000635 0.000231 118371.000000 0 0 1
29.505356 -32.647783 29.041120 52.724098 -0.835915 0.987458 0.013371 -0.001786 51154.200000 0 0 1
30.576656 -33.542503 29.065750 53.896654 -0.831620 1.001206 0.021478 -0.004792 -644926.000000 0 0 1
30.007756 33.621553 29.436680 53.827432 0.842132 0.992174 0.024065 -0.002584 -204600.000000 0 0 1
29.661456 33.522180 30.822990 54.346989 0.846426 0.967753 0.029117 0.005702 1231150.000000 0 0 1
28.536156 -34.283339 31.344450 54.517283 -0.876631 0.958259 0.012369 0.011937 831080.000000 0 0 1
27.123656 34.157531 30.754710 53.369297 0.899678 0.956649 0.019376 0.006991 -279079.000000 0 0 1
26.474756 32.917067 30.996590 52.394987 0.893447 0.937761 0.018022 0.010963 -53959.100000 0 0 1
25.196156 32.945931 30.378250 51.411271 0.917907 0.938638 0.014189 0.008475 526587.000000 0 0 1
24.414356 31.602676 30.459730 50.225343 0.913025 0.919194 0.023488 -0.001494 171188.000000 0 0 1
24.505756 30.850036 29.249590 49.069291 0.899509 0.932177 0.020089 0.001786 -135443.000000 0 0 1
23.752456 29.680626 29.383320 48.046834 0.895892 0.912771 0.057731 -0.015199 -460046.000000 0 0 1
23.401356 29.072916 28.090120 46.710949 0.893063 0.925593 0.062221 -0.020295 -795911.000000 0 0 1
22.265156 29.712516 27.575060 46.248835 0.927710 0.931996 0.071986 -0.020386 -464618.000000 0 0 1
21.872956 28.989606 26.455460 44.930111 0.924415 0.941206 0.072533 -0.022264 483900.000000 0 0 1
20.407256 29.408256 26.093160 44.296215 0.964156 0.940900 0.081296 -0.023331 477434.000000 0 0 1
20.360956 30.775416 25.565180 44.891795 0.986311 0.964918 0.075076 -0.029706 -321954.000000 0 0 1
19.088956 31.363166 25.542380 44.726386 1.024046 0.962974 0.068552 -0.021073 -467568.000000 0 0 1
19.152256 32.853730 25.047970 45.536549 1.043004 0.988357 0.077974 -0.022070 -69657.400000 0 0 1
19.586456 33.060923 23.715080 45.155940 1.035958 1.017868 0.083893 -0.018196 24229.200000 0 0 1
20.982556 33.276112 23.776140 45.965989 1.008209 1.027156 0.080548 -0.016082 -242937.000000 0 0 1
21.540856 33.705757 22.399680 45.845744 1.002132 1.060326 0.086777 -0.017992 -39645.400000 0 0 1
21.165056 -33.538493 21.985780 45.344952 -1.007846 1.064598 0.080076 -0.011506 421745.000000 0 0 1
21.503456 -33.357673 20.615980 44.723055 -0.998203 1.091709 0.089097 -0.010325 -34889.000000 0 0 1
20.996956 -31.993543 20.092280 43.222202 -0.990014 1.087320 0.069034 -0.011584 -240890.000000 0 0 1
21.624656 -30.873123 20.703580 43.004811 -0.959778 1.068517 0.061227 -0.004079 144715.000000 0 0 1
21.389556 -29.671263 20.086680 41.729746 -0.946191 1.068600 0.064668 -0.017184 86050.100000 0 0 1
22.287456 -29.245333 18.844480 41.317486 -0.919605 1.097200 0.054002 -0.010760 -29239.600000 0 0 1
21.884256 -29.879803 17.671980 41.036840 -0.938648 1.125598 0.037353 -0.021765 342018.000000 0 0 1
22.440556 -29.239503 16.522780 40.392195 -0.916205 1.149374 0.033166 -0.020033 -331055.000000 0 0 1
21.995156 -29.825153 15.169880 40.043126 -0.935363 1.182255 0.012278 -0.015544 -146083.000000 0 0 1
22.556756 -31.107893 14.904080 41.214559 -0.943414 1.200790 0.046878 -0.014792 35766.400000 0 0 1
22.799856 -31.487753 13.554280 41.170749 -0.944087 1.235318 0.045033 -0.014590 55675.400000 0 0 1
21.620556 -31.527753 12.516880 40.225862 -0.969690 1.254378 0.027819 -0.016691 -343962.000000 0 0 1
20.692956 -32.457223 12.871680 40.587559 -1.003226 1.248091 0.032098 -0.011506 -785731.000000 0 0 1
19.509356 -32.459513 12.115480 39.762040 -1.029615 1.261173 0.040621 -0.002159 277652.000000 0 0 1
18.429456 -33.417373 12.713380 40.224318 -1.066807 1.249220 0.050379 -0.002274 264839.000000 0 0 1
17.859656 -32.908563 13.946480 39.955540 -1.073571 1.214239 0.047525 0.004856 693165.000000 0 0 1
18.417356 -33.625093 15.097180 41.204014 -1.069700 1.195659 0.028953 -0.002427 -615779.000000 0 0 1
18.429256 -32.742203 16.407380 40.998677 -1.058134 1.159069 0.039382 -0.009020 770588.000000 0 0 1
17.183456 -32.175243 16.901980 40.201920 -1.080275 1.136880 0.048073 -0.007760 1277300.000000 0 0 1
16.140256 -33.099083 17.243380 40.661915 -1.117090 1.132865 0.051872 -0.003268 -169281.000000 0 0 1
16.299856 -34.030863 18.515280 42.030948 -1.124112 1.114624 0.042030 -0.005547 -815740.000000 0 0 1
17.083556 33.430211 18.333080 41.779525 1.098370 1.116528 0.038429 -0.000058 -246331.000000 0 0 1
17.437156 32.862138 19.587080 42.043171 1.082957 1.086167 0.034910 0.002222 146395.000000 0 0 1
18.247456 31.539526 19.480280 41.318188 1.046292 1.079840 0.052263 -0.004924 34274.300000 0 0 1
17.546256 30.320366 19.208880 39.952181 1.046189 1.069233 0.028742 -0.005324 -238415.000000 0 0 1
18.390356 29.342446 18.659080 39.336314 1.010940 1.076574 0.041006 -0.015605 150824.000000 0 0 1
17.673256 27.953726 18.414480 37.852977 1.007013 1.062747 0.048339 -0.018001 279334.000000 0 0 1
17.570056 27.231556 19.620880 37.884607 0.997796 1.026388 0.058258 -0.020224 -82284.000000 0 0 1
16.947656 25.996596 19.333980 36.562944 0.993074 1.013626 0.051391 -0.018345 -371711.000000 0 0 1
16.946656 25.158236 20.639680 36.689541 0.978007 0.973330 0.061219 -0.020591 109035.000000 0 0 1
15.799956 25.431466 21.432580 36.820559 1.014880 0.949510 0.058544 -0.019824 351256.000000 0 0 1
14.755556 24.495096 21.125980 35.553385 1.028623 0.934520 0.048515 -0.017258 92318.500000 0 0 1
13.504356 24.802516 21.966080 35.777662 1.072205 0.909728 0.055273 -0.027204 41965.500000 0 0 1
12.733456 25.942986 21.638580 36.102737 1.114516 0.928093 0.051720 -0.024934 123129.000000 0 0 1
11.527256 26.088186 22.366680 36.245544 1.154734 0.905760 0.044401 -0.023517 229515.000000 0 0 1
10.639856 27.242726 21.808180 36.482453 1.198456 0.930078 0.024258 -0.016321 -347145.000000 0 0 1
11.147556 28.534016 21.798880 37.598527 1.198354 0.952337 0.019874 -0.017216 -378469.000000 0 0 1
10.546656 29.337716 20.793680 37.474134 1.225691 0.982577 0.027418 -0.019401 42415.800000 0 0 1
11.067656 30.770236 20.861680 38.788016 1.225518 1.002925 0.018308 -0.015806 -90369.300000 0 0 1
10.533856 31.475446 21.960180 39.798434 1.247844 0.986293 0.028731 -0.015756 -285451.000000 0 0 1
11.334656 31.273396 23.098480 40.497402 1.223084 0.963841 0.032253 -0.023064 -14276.300000 0 0 1
10.851956 32.187486 24.262220 41.742719 1.245616 0.950554 0.025465 -0.029917 1452880.000000 0 0 1
9.532456 31.838996 24.775790 41.453941 1.279894 0.930204 0.023942 -0.022685 878027.000000 0 0 1
9.240956 32.657677 25.857510 42.667669 1.295041 0.919747 0.024905 -0.033105 -1604380.000000 0 0 1
7.889656 32.455086 26.467380 42.615743 1.332327 0.900689 0.068605 -0.042359 -1099570.000000 0 0 1
6.885656 33.385448 26.041120 42.896857 1.367401 0.918436 0.062064 -0.028898 601630.000000 0 0 1
6.164156 33.093346 24.832270 41.830707 1.386641 0.935225 0.050816 -0.037628 294439.000000 0 0 1
5.163956 31.881466 24.808860 40.725592 1.410217 0.915781 0.042238 -0.034475 -147947.000000 0 0 1
5.824856 30.674616 25.076290 40.045991 1.383139 0.894143 0.035289 -0.037919 -1038800.000000 0 0 1
5.046656 29.572396 24.791600 38.918104 1.401770 0.880170 0.024836 -0.029448 -1427720.000000 0 0 1
5.805756 28.195566 24.785750 37.987237 1.367724 0.859950 0.034496 -0.023201 -551235.000000 0 0 1
6.794356 28.143486 23.812740 37.486874 1.333911 0.882492 0.040038 -0.024171 -164853.000000 0 0 1
7.981356 28.870676 24.061420 38.420957 1.301081 0.894053 0.046111 -0.025302 -721630.000000 0 0 1
9.063156 28.276136 24.992420 38.811103 1.260619 0.871146 0.029252 -0.034436 -976909.000000 0 0 1
8.784956 28.328206 26.392350 39.701623 1.270087 0.843614 0.036455 -0.033216 337890.000000 0 0 1
9.884456 27.945066 27.213050 40.239027 1.230820 0.828089 0.049283 -0.021464 -173131.000000 0 0 1
11.109056 28.822506 27.258460 41.196743 1.202913 0.847759 0.051992 -0.023566 -991137.000000 0 0 1
10.852856 30.090746 27.732180 42.335698 1.224647 0.856542 0.053190 -0.036768 -998250.000000 0 0 1
12.000756 30.832196 27.700550 43.150469 1.199610 0.873754 0.053635 -0.033108 -1097110.000000 0 0 1
11.871256 32.161506 28.532730 44.602757 1.217196 0.876678 0.039285 -0.039433 -117399.000000 0 0 1
11.656156 31.896466 29.932680 45.268266 1.220436 0.848341 0.042540 -0.046373 -775427.000000 0 0 1
10.357256 31.607036 30.293510 44.988601 1.254135 0.832053 0.068741 -0.044480 -1112470.000000 0 0 1
10.145356 31.438656 31.837160 45.879430 1.258643 0.803862 0.084940 -0.038573 -120478.000000 0 0 1
10.463556 30.165026 32.403835 45.490915 1.236906 0.778006 0.071701 -0.034765 220220.000000 0 0 1
10.515756 30.237116 33.825396 46.572758 1.236104 0.757885 0.086555 -0.033024 -14419.600000 0 0 1
10.554556 28.877596 -33.925802 45.785087 1.220387 2.405324 0.075837 -0.027220 1332960.000000 0 0 1
11.813056 28.181726 -34.211721 45.871558 1.173870 2.412555 0.078278 -0.019449 1318600.000000 0 0 1
11.737356 26.860146 -33.776402 44.722235 1.158822 2.426830 0.075085 -0.021065 656032.000000 0 0 1
13.070856 26.072966 -34.095719 44.868306 1.106095 2.433966 0.076654 -0.016813 772993.000000 0 0 1
12.981656 24.690676 -33.829692 43.847473 1.086745 2.452041 0.060738 -0.020135 -46814.700000 0 0 1
13.044756 24.325246 -32.442712 42.595925 1.078560 2.436635 0.060714 -0.019433 -220920.000000 0 0 1
13.077556 22.773276 -32.176102 41.532470 1.049526 2.457071 0.053663 -0.042582 -724319.000000 0 0 1
14.301356 22.226676 -32.526592 41.911014 0.999052 2.459233 0.048928 -0.030994 -695385.000000 0 0 1
14.393156 20.810376 -32.631602 41.292325 0.965707 2.482027 0.046931 -0.034279 72566.600000 0 0 1
15.761056 20.229676 -33.105162 41.876036 0.908926 2.482505 0.065594 -0.046617 445935.000000 0 0 1
16.794256 20.550576 -32.192542 41.722092 0.885646 2.452140 0.065617 -0.041613 189714.000000 0 0 1
17.956356 19.762576 -32.436492 42.013285 0.833248 2.452862 0.078042 -0.039715 -303803.000000 0 0 1
19.137756 20.043576 -31.536312 41.982587 0.808513 2.420638 0.064611 -0.030854 -356897.000000 0 0 1
19.839356 21.247876 -31.900242 43.158982 0.819666 2.402579 0.068119 -0.017484 334084.000000 0 0 1
20.893256 21.679176 -31.047162 43.248596 0.803857 2.371544 0.053634 -0.005075 386075.000000 0 0 1
20.477856 22.059276 -29.624872 42.232538 0.822558 2.348255 0.055836 -0.018385 -26848.900000 0 0 1
19.702656 23.255476 -29.579222 42.472841 0.867915 2.341202 0.045833 -0.003511 -5764.100000 0 0 1
19.371956 23.735776 -28.289862 41.701031 0.886285 2.316375 0.047295 -0.001998 -194965.000000 0 0 1
20.481956 24.415696 -27.455372 42.064643 0.872791 2.281932 0.037785 -0.002532 44121.200000 0 0 1
21.131356 25.517196 -28.092222 43.437707 0.879141 2.274078 0.039561 0.004385 -236392.000000 0 0 1
20.374556 26.707386 -28.184932 43.849714 0.919102 2.268895 0.033827 0.008231 -419507.000000 0 0 1
21.114756 27.851686 -28.942542 45.378630 0.922122 2.262436 0.036737 0.002759 -354710.000000 0 0 1
21.112956 27.762756 -30.390092 46.261055 0.920623 2.287531 0.041975 0.002399 306492.000000 0 0 1
21.767056 26.618536 -31.003562 46.298726 0.885331 2.304523 0.047635 0.002913 233263.000000 0 0 1
23.155356 26.131356 -30.518852 46.372606 0.845706 2.289119 0.060884 -0.009731 -1319990.000000 0 0 1
24.139056 26.989966 -30.843752 47.565632 0.841100 2.276338 0.050087 -0.006911 -1202580.000000 0 0 1
25.400956 26.444736 -30.506032 47.698539 0.805528 2.264721 0.058873 -0.013286 51505.800000 0 0 1
26.604556 27.275196 -30.976932 49.105081 0.797845 2.253418 0.050048 -0.000104 -370676.000000 0 0 1
26.789156 28.431736 -30.201012 49.377359 0.815135 2.228924 0.040225 -0.000766 -107441.000000 0 0 1
27.921556 29.118366 -30.677452 50.681344 0.806377 2.220940 0.047222 -0.005952 30953.700000 0 0 1
28.210456 30.417516 -29.965862 51.176244 0.823026 2.196345 0.047666 -0.001672 -118674.000000 0 0 1
28.647856 30.182466 -28.669062 50.533118 0.811478 2.174059 0.062566 -0.009523 -73734.900000 0 0 1
28.150756 31.105396 -27.749962 50.299812 0.835219 2.155187 0.054014 -0.005731 -351549.000000 0 0 1
28.634356 30.895266 -26.266232 49.642308 0.823360 2.128347 0.062359 -0.003212 -157263.000000 0 0 1
28.174056 29.757246 -25.550922 48.292036 0.812720 2.128326 0.061042 0.005750 266041.000000 0 0 1
26.778156 29.711406 -25.304902 47.330491 0.837277 2.134881 0.058835 0.003598 -56298.400000 0 0 1
26.321856 29.877186 -23.836412 46.407552 0.848577 2.110209 0.058596 0.008757 -222558.000000 0 0 1
26.380956 31.201106 -23.339412 47.055202 0.868913 2.089783 0.069816 0.003471 94870.000000 0 0 1
25.983856 31.376676 -22.018612 46.308486 0.879139 2.066302 0.055368 0.006933 -40023.200000 0 0 1
3.043556 -26.208693 -19.957112 33.082399 -1.455186 2.218372 0.051937 -0.004047 -198053.000000 0 0 1
2.967956 -27.085423 -18.892912 33.156765 -1.461654 2.177066 0.049390 0.006585 276558.000000 0 0 1
3.148556 -26.507033 -17.619312 31.984002 -1.452568 2.154213 0.074422 0.002161 -221650.000000 0 0 1
3.128256 -27.540083 -16.422612 32.217144 -1.457692 2.105688 0.067891 -0.012188 1003540.000000 0 0 1
4.399856 -28.163773 -16.087112 32.731514 -1.415825 2.084593 0.077396 -0.006096 1048510.000000 0 0 1
4.222556 -29.190903 -15.168612 33.166634 -1.427140 2.045804 0.074028 -0.012364 -245180.000000 0 0 1
5.541656 -29.795563 -14.695912 33.681677 -1.386908 2.022299 0.108069 -0.003860 -135892.000000 0 0 1
6.452556 -28.906503 -14.053612 32.783005 -1.351175 2.013834 0.088712 -0.000437 64060.900000 0 0 1
7.752056 -29.423643 -13.872712 33.440952 -1.313187 1.998565 0.090954 -0.000422 213022.000000 0 0 1
8.024656 -30.299783 -12.621212 33.790042 -1.311898 1.953596 0.078010 0.001173 -875636.000000 0 0 1
8.359356 -29.626423 -11.432912 32.837711 -1.295787 1.926408 0.076132 -0.009527 266323.000000 0 0 1
8.937556 -30.434813 -10.415612 33.386266 -1.285164 1.888065 0.082486 -0.005642 529505.000000 0 0 1
10.284956 -31.196423 -10.570912 34.507120 -1.252334 1.882142 0.072201 -0.003498 -110549.000000 0 0 1
11.322256 -30.654233 -9.817812 34.121327 -1.216985 1.862655 0.075225 -0.005297 -35514.100000 0 0 1
12.514056 -31.440403 -9.774212 35.222660 -1.191994 1.851985 0.064290 -0.010404 255686.000000 0 0 1
13.486756 -30.806663 -8.767312 34.753545 -1.158145 1.825823 0.062607 -0.012175 -375088.000000 0 0 1
14.508256 -30.036443 -9.363812 34.646189 -1.120823 1.844469 0.057730 -0.016545 -216148.000000 0 0 1
15.514056 -29.829573 -8.406312 34.657690 -1.091206 1.815792 0.056612 -0.012148 -306820.000000 0 0 1
16.778756 -29.203983 -9.028712 34.870001 -1.049310 1.832705 0.056386 -0.020847 -299555.000000 0 0 1
16.733156 -27.851333 -9.486512 33.848031 -1.029787 1.854869 0.060074 -0.023081 21338.600000 0 0 1
15.851856 -27.531393 -10.551312 33.475202 -1.048381 1.891461 0.050600 -0.020599 -244759.000000 0 0 1
15.526956 -26.006523 -10.658812 32.109748 -1.032556 1.909166 0.059096 -0.024032 -625977.000000 0 0 1
14.630256 -25.526583 -9.677912 30.972776 -1.050362 1.888583 0.051585 -0.023804 554441.000000 0 0 1
13.968456 -24.239643 -9.861212 29.663472 -1.048012 1.909682 0.039866 -0.018294 784172.000000 0 0 1
13.286956 -23.920543 -11.249512 29.585252 -1.063769 1.960853 0.043354 -0.014024 498884.000000 0 0 1
14.222656 -23.361043 -12.227212 29.958755 -1.023917 1.991206 0.034255 -0.015246 643126.000000 0 0 1
13.675856 -23.501343 -13.532112 30.372030 -1.043778 2.032579 0.053563 -0.021781 -49462.200000 0 0 1
14.490156 -22.895343 -14.718512 30.834979 -1.006546 2.068412 0.030610 -0.022637 -50699.300000 0 0 1
15.589456 -23.646543 -15.159712 32.124866 -0.987932 2.062240 0.025665 -0.019291 -204852.000000 0 0 1
16.167056 -22.986043 -16.251412 32.462906 -0.957831 2.095105 0.027315 -0.019223 -1581830.000000 0 0 1
16.822956 -24.009043 -17.212912 33.996034 -0.959606 2.101710 0.022948 -0.013333 240687.000000 0 0 1
18.088056 -24.502743 -16.816312 34.790093 -0.934887 2.075291 0.034759 -0.013862 -400487.000000 0 0 1
19.083956 -23.555843 -16.939512 34.727830 -0.889892 2.080340 0.037253 -0.014785 -121216.000000 0 0 1
20.535356 -23.885143 -16.350012 35.489770 -0.860667 2.049576 0.036077 -0.009615 1682450.000000 0 0 1
21.245956 -24.822943 -17.119912 36.887133 -0.862887 2.053433 0.049322 -0.008757 -843180.000000 0 0 1
22.528656 -25.116843 -16.682112 37.638930 -0.839667 2.029978 0.050329 0.004039 -370805.000000 0 0 1
23.234756 -26.181553 -17.571312 39.167316 -0.844960 2.036019 0.051978 -0.000366 -64620.900000 0 0 1
23.677756 -25.646093 -18.830312 39.660293 -0.825283 2.065522 0.072981 -0.004712 -14353.000000 0 0 1
24.007856 -26.626113 -19.784112 40.947993 -0.837062 2.075048 0.071178 -0.010266 -768792.000000 0 0 1
25.316056 -26.479373 -20.536812 41.997864 -0.807854 2.081735 0.071909 -0.022930 -643741.000000 0 0 1
25.353056 -25.409833 -21.466112 41.823809 -0.786517 2.109765 0.076916 -0.025140 8044.940000 0 0 1
25.826756 -24.173543 -20.933712 41.104766 -0.752346 2.105141 0.086273 -0.024674 -511335.000000 0 0 1
24.817056 -23.004843 -21.046812 39.850689 -0.747521 2.127207 0.102194 -0.021372 -33597.500000 0 0 1
24.540456 -22.490643 -22.295312 40.064248 -0.741842 2.160950 0.099484 -0.018974 122885.000000 0 0 1
23.678856 -23.264143 -23.121312 40.453722 -0.776564 2.179189 0.070865 -0.017418 34595.100000 0 0 1
22.850956 -22.419343 -24.153812 40.102366 -0.775864 2.217180 0.061613 -0.012484 185875.000000 0 0 1
23.681756 -21.689243 -25.009712 40.703004 -0.741510 2.232477 0.057318 -0.005059 -96742.800000 0 0 1
22.890056 -20.862543 -25.837712 40.333457 -0.739091 2.266079 0.050106 0.000063 34298.200000 0 0 1
23.601356 -20.305643 -27.069062 41.256239 -0.710477 2.286463 0.042742 0.001721 -50084.000000 0 0 1
22.748956 -19.480043 -27.858022 40.903013 -0.708143 2.320026 0.031319 0.007605 176794.000000 0 0 1
23.403256 -18.883643 -28.990782 41.770442 -0.678923 2.337896 0.036359 0.005207 -142575.000000 0 0 1
22.676756 -17.772343 -29.794242 41.446210 -0.664738 2.372965 0.059330 -0.001306 -358831.000000 0 0 1
21.420456 -18.143143 -30.314812 41.315825 -0.702750 2.394597 0.055958 -0.005255 70474.900000 0 0 1
20.774756 -17.161843 -31.065632 41.124115 -0.690449 2.427078 0.067673 -0.008685 -966191.000000 0 0 1
19.536456 -17.785943 -31.641172 41.221070 -0.738530 2.445880 0.058360 -0.008803 -962134.000000 0 0 1
19.719756 -18.431943 -32.922712 42.573586 -0.751656 2.454846 0.056279 -0.007371 357595.000000 0 0 1
18.560956 -19.176343 -33.254232 42.639010 -0.801704 2.465305 0.055818 -0.008353 26776.300000 0 0 1
18.794456 -20.281743 34.152838 43.943112 -0.823441 0.680583 0.071669 -0.010404 -323213.000000 0 0 1
19.737356 -21.258443 -33.990612 44.686086 -0.822485 2.435115 0.067994 -0.005244 -348581.000000 0 0 1
19.859356 -22.230343 33.374006 44.748257 -0.841670 0.729036 0.074824 -0.012119 -279293.000000 0 0 1
20.557656 -23.527643 33.663381 45.928101 -0.852666 0.748136 0.062920 -0.001866 -209350.000000 0 0 1
19.923556 -24.410343 -33.847652 46.243664 -0.886259 2.391963 0.075174 -0.006343 123731.000000 0 0 1
20.147256 -24.039743 -32.499772 45.166983 -0.873263 2.373946 0.074577 -0.005449 122431.000000 0 0 1
19.121356 -24.741243 -31.564722 44.430699 -0.912829 2.360900 0.072473 -0.009042 -23035.000000 0 0 1
19.128956 -26.172083 -31.455702 45.170301 -0.939637 2.341138 0.073120 -0.013660 -491208.000000 0 0 1
20.268856 -26.730933 -30.887062 45.600218 -0.922033 2.314943 0.069724 -0.023660 -604993.000000 0 0 1
20.353656 -28.271983 -30.987142 46.623806 -0.946824 2.297782 0.071946 -0.031122 -1162950.000000 0 0 1
19.366156 -28.898093 -30.338272 46.157974 -0.980384 2.287988 0.068815 -0.033189 -1259210.000000 0 0 1
19.547156 -30.291603 -30.479712 47.208954 -0.997733 2.272650 0.071242 -0.031223 47475.400000 0 0 1
18.370856 -31.172623 -29.965132 46.980101 -1.038262 2.262469 0.086446 -0.030466 1728200.000000 0 0 1
17.137156 -31.244873 -30.768712 47.081184 -1.069122 2.283028 0.086680 -0.033676 1275590.000000 0 0 1
17.261756 -31.807933 -32.075922 48.358842 -1.073585 2.296002 0.088631 -0.035945 53816.000000 0 0 1
15.904856 -32.292753 -32.700642 48.632482 -1.113150 2.308247 0.088562 -0.036183 661371.000000 0 0 1
15.033356 -31.248983 -33.103662 47.941143 -1.122396 2.332985 0.085796 -0.027743 -603529.000000 0 0 1
13.819756 -31.792123 -33.506492 48.212133 -1.160746 2.339189 0.058704 -0.014821 -577366.000000 0 0 1
12.865556 -30.758463 -34.165339 47.737574 -1.174634 2.368409 0.054110 -0.006472 465694.000000 0 0 1
12.119756 -29.927723 -33.232672 46.335382 -1.186015 2.370601 0.066248 -0.006836 432771.000000 0 0 1
11.637056 -28.781693 -33.919492 45.981941 -1.186570 2.400409 0.049840 -0.003690 -483797.000000 0 0 1
10.751856 -27.830773 -33.178602 44.620331 -1.202130 2.409199 0.051856 -0.006633 -373172.000000 0 0 1
9.491956 -28.364723 -32.862992 44.436820 -1.247871 2.403189 0.055547 -0.002777 -175797.000000 0 0 1
8.563456 -27.412023 -32.401012 43.296390 -1.268005 2.416373 0.034777 0.000369 755102.000000 0 0 1
7.360856 -28.039533 -31.604002 42.886018 -1.314072 2.399314 0.026943 0.002219 1158070.000000 0 0 1
6.322356 -28.820863 -32.220632 43.689626 -1.354850 2.400142 0.037266 -0.003330 645739.000000 0 0 1
6.729956 -30.135863 -32.554132 44.869077 -1.351081 2.382609 0.031570 -0.002343 -77975.800000 0 0 1
5.586256 -31.130253 -32.963552 45.682542 -1.393238 2.376876 0.036324 -0.002405 564040.000000 0 0 1
4.916156 -31.558563 -31.749832 45.035134 -1.416260 2.353221 0.039930 -0.013755 301442.000000 0 0 1
3.961756 -32.574023 -32.021982 45.849426 -1.449768 2.343978 0.056199 -0.032136 -300994.000000 0 0 1
3.070856 -32.855593 -30.771832 45.120126 -1.477602 2.321287 0.045035 -0.038338 757337.000000 0 0 1
2.063256 -31.926293 -30.325732 44.081688 -1.506260 2.329449 0.057605 -0.038233 127213.000000 0 0 1
0.851856 -32.038043 -31.009142 44.595165 -1.544214 2.339700 0.043259 -0.013487 -490424.000000 0 0 1
-0.217844 -30.999553 -30.585052 43.548423 1.563769 2.349452 0.037719 -0.016477 -259970.000000 0 0 1
-0.755544 -31.215813 -29.334672 42.842979 1.546597 2.324991 0.020283 -0.025675 -37500.100000 0 0 1
-1.615744 -30.135383 -28.942842 41.814352 1.517231 2.335294 0.050000 -0.020542 586197.000000 0 0 1
-2.370744 -30.415073 -27.598522 41.138492 1.493007 2.306176 0.047975 -0.022516 542373.000000 0 0 1
-1.435444 -30.576993 -26.520702 40.501366 1.523886 2.284728 0.032097 -0.016329 2392.640000 0 0 1
-2.079644 -30.588733 -25.316162 39.760578 1.502914 2.261027 0.030568 -0.016885 57503.500000 0 0 1
-1.139844 -31.087723 -24.181912 39.401912 1.534147 2.231566 0.023050 -0.008244 30789.000000 0 0 1
-1.501644 -30.599283 -22.949112 38.278360 1.521761 2.213713 0.040263 -0.012718 69589.800000 0 0 1
-0.801444 -31.216563 -21.818812 38.094313 1.545128 2.180662 0.044111 -0.008152 330374.000000 0 0 1
-1.437944 -30.952223 -20.423212 37.110853 1.524373 2.153556 0.016498 0.000586 -5350.650000 0 0 1
-1.628744 -29.582033 -20.075712 35.788039 1.515793 2.166343 0.015835 0.002847 1409360.000000 0 0 1
-0.357944 -28.980083 -19.662512 35.022674 1.558446 2.166900 0.038196 -0.004410 1292060.000000 0 0 1
-0.454044 -27.576743 -19.072412 33.532668 1.554333 2.175807 0.028984 -0.011202 30286.700000 0 0 1
-1.151544 -27.574353 -17.806112 32.844005 1.529059 2.143780 0.023691 -0.008409 385190.000000 0 0 1
-0.938644 -26.288233 -17.197912 31.428020 1.535106 2.149831 0.028289 -0.013616 -173721.000000 0 0 1
-2.016444 -25.954643 -16.162012 30.641805 1.493261 2.126392 0.021766 -0.014406 -432811.000000 0 0 1
-2.038244 -24.621443 -15.764712 29.306928 1.488201 2.138761 0.013846 -0.012235 -226850.000000 0 0 1
-3.022844 -24.530143 -14.787112 28.801462 1.448185 2.109956 0.015855 -0.014208 -517857.000000 0 0 1
-2.856144 -23.465743 -13.695712 27.319795 1.449677 2.095909 0.013351 -0.014242 -496324.000000 0 0 1
-1.740344 -23.764443 -12.896012 27.093997 1.497694 2.066866 0.017455 -0.009408 -207252.000000 0 0 1
-1.723844 -22.771243 -11.887912 25.745361 1.495238 2.050763 0.020197 -0.012171 319775.000000 0 0 1
-0.350844 -22.728343 -11.167712 25.326241 1.555361 2.027458 0.009106 -0.009896 235062.000000 0 0 1
0.008656 -21.425143 -10.842212 24.012297 -1.570392 2.039273 0.011655 -0.007591 -335563.000000 0 1 0
1.274056 -21.389343 -10.221212 23.740270 -1.511302 2.015891 0.007974 -0.006786 12107.100000 0 1 0
1.796156 -20.027343 -9.786312 22.362749 -1.481350 2.023743 0.013852 -0.011832 -1382180.000000 0 1 0
2.270156 -19.194343 -10.834112 22.157491 -1.453071 2.081693 0.018510 -0.010160 -50004.500000 0 1 0
3.176856 -18.168243 -10.493512 21.220068 -1.397689 2.088066 0.008162 -0.008044 -558918.000000 0 1 0
4.485556 -18.648643 -9.895212 21.582570 -1.334750 2.047082 0.020871 -0.020833 -1714540.000000 0 1 0
4.455956 -19.068043 -8.538312 21.362317 -1.341229 1.981975 0.028436 -0.017549 -98556.900000 0 1 0
5.654156 -19.729043 -8.179912 22.093338 -1.291687 1.950067 0.049108 -0.021348 -11462.400000 0 1 0
5.349156 -20.761843 -7.062412 22.573110 -1.318637 1.889008 0.048008 -0.023929 14695.500000 0 1 0
4.552756 -21.799143 -7.599812 23.530563 -1.364906 1.899669 0.041291 -0.018177 -10589.900000 0 1 0
4.421556 -22.936143 -6.765312 24.318435 -1.380356 1.852713 0.045449 -0.019220 301097.000000 0 1 0
3.399356 -24.004743 -7.284312 25.314907 -1.430120 1.862671 0.042208 -0.013838 404701.000000 0 0 1
3.820256 -24.525843 -8.543912 26.250901 -1.416274 1.902306 0.054734 -0.017038 68839.800000 0 0 1
2.894956 -25.450313 -9.052712 27.167091 -1.457534 1.910517 0.037128 -0.013069 -36667.200000 0 0 1
3.417256 -26.196523 -10.319912 28.362582 -1.441082 1.943201 0.043162 -0.011049 485755.000000 0 0 1
4.527456 -27.022633 -9.906912 29.135330 -1.404795 1.917746 0.052152 -0.012093 432370.000000 0 0 1
4.982556 -27.701983 -11.063812 30.242911 -1.392836 1.945322 0.072249 -0.006970 -15584.000000 0 0 1
4.813856 -29.226943 -10.991112 31.594176 -1.407556 1.926110 0.060108 0.000222 -254556.000000 0 0 1
3.499156 -29.686363 -11.182712 31.915158 -1.453467 1.928782 0.060392 0.004478 -167819.000000 0 0 1
3.466956 -31.096223 -11.152212 33.216964 -1.459764 1.913185 0.063220 -0.001981 -237311.000000 0 0 1
2.162656 -31.776023 -11.591012 33.893131 -1.502842 1.919827 0.048939 -0.008491 -273480.000000 0 0 1
1.999456 -31.807653 -12.994112 34.417606 -1.508018 1.957937 0.058202 -0.009431 925468.000000 0 0 1
1.140556 -32.918763 -13.434312 35.572835 -1.536163 1.958060 0.058097 -0.009516 265998.000000 0 0 1
0.842556 -32.771543 -14.960912 36.034884 -1.545092 1.998935 0.061782 -0.006079 -171861.000000 0 0 1
-0.245944 -31.927173 -15.222912 35.371485 1.563093 2.015702 0.055520 -0.001303 -176490.000000 0 0 1
-0.709744 -31.978523 -16.539012 36.009285 1.548606 2.048002 0.035590 -0.005317 247917.000000 0 0 1
-1.987844 -31.119333 -16.722812 35.383850 1.507005 2.063048 0.032456 -0.001117 305954.000000 0 0 1
-3.184044 -31.604713 -16.149712 35.634383 1.470389 2.041155 0.030214 -0.005348 64116.600000 0 0 1
-4.301244 -31.142723 -16.890312 35.688269 1.433551 2.063799 0.029644 -0.000564 -44105.500000 0 0 1
-5.642644 -31.145503 -16.169912 35.543605 1.391570 2.043092 0.029669 -0.010798 -727423.000000 0 0 1
-5.751044 -30.091903 -15.254212 34.224087 1.381957 2.032770 0.015524 -0.008186 -162373.000000 0 0 1
-7.081944 -29.920943 -14.835612 34.139598 1.338385 2.020343 0.032996 -0.015315 -126613.000000 0 0 1
-7.635044 -30.849863 -13.759812 34.631494 1.328181 1.979392 0.029454 -0.021078 -259461.000000 0 0 1
-7.917644 -32.118493 -14.336212 36.052929 1.329102 1.979743 0.035439 -0.023423 -439272.000000 0 0 1
-8.699144 -32.876213 -13.458512 36.573926 1.312122 1.947633 0.033891 -0.019695 -164761.000000 0 0 1
-8.969444 34.249045 -13.900712 38.035218 -1.314660 1.944933 0.062836 -0.028017 417392.000000 0 0 1
-7.779744 33.447944 -14.017612 37.091546 -1.342267 1.958344 0.052350 -0.024040 449931.000000 0 0 1
-8.031744 32.049056 -14.120512 35.931042 -1.325246 1.974676 0.060764 -0.034053 -468321.000000 0 0 1
-7.918644 -22.172443 -3.676112 23.829309 1.227776 1.725683 0.056188 0.005437 58448.900000 0 1 0
-7.368244 -21.093343 -4.362412 22.765122 1.234731 1.763616 0.039823 -0.000115 -475999.000000 0 1 0
-6.234444 -21.456943 -5.091512 22.917072 1.288026 1.794837 0.031410 0.009485 -6466.820000 0 1 0
-5.853044 -20.387143 -6.182512 22.093374 1.291221 1.854419 0.022506 0.004662 -277750.000000 0 1 0
-6.854244 -20.386643 -7.131712 22.659594 1.246457 1.890971 0.037492 -0.002192 -625330.000000 0 1 0
-6.709344 -19.329343 -8.068512 21.994083 1.236701 1.946416 0.024820 -0.001226 -474493.000000 0 1 0
-7.690244 -19.331243 -9.225612 22.758487 1.192176 1.988180 0.034621 -0.012315 -201266.000000 0 1 0
-7.255244 -20.194543 -10.283512 23.795142 1.225889 2.017692 0.033069 -0.006512 -388400.000000 0 1 0
-8.178144 -20.285543 -11.323512 24.629398 1.187576 2.048517 0.053862 -0.010436 -266003.000000 0 1 0
-7.812944 -21.256343 -12.505612 25.870148 1.218566 2.075330 0.046416 -0.010198 4426.820000 0 0 1
-6.781744 -20.699143 -13.317712 25.530531 1.254184 2.119567 0.048359 -0.012700 158002.000000 0 0 1
-6.407044 -21.606743 -14.344212 26.714378 1.282526 2.137611 0.036149 -0.008251 -348872.000000 0 0 1
-5.447844 -20.879443 -15.284612 26.443326 1.315568 2.187089 0.023523 -0.000911 224322.000000 0 0 1
-4.134244 -20.830643 -14.710612 25.834275 1.374873 2.176599 0.015986 -0.008162 559647.000000 0 0 1
-3.127344 -20.024043 -15.290212 25.387658 1.415868 2.217137 0.028446 -0.007865 181472.000000 0 0 1
-3.332044 -18.497543 -15.300812 24.235851 1.392573 2.254063 0.038673 -0.006679 92978.100000 0 1 0
-4.374044 -17.907543 -16.159312 24.513990 1.331230 2.290534 0.035046 -0.002928 889007.000000 0 1 0
-4.212644 -18.164043 -17.538612 25.598471 1.342903 2.325596 0.046311 -0.008702 808180.000000 0 0 1
-5.644144 -18.094043 -18.250012 26.311855 1.268427 2.337277 0.031807 0.009327 717257.000000 0 0 1
-6.498744 -18.987443 -17.674312 26.742064 1.241029 2.292838 0.028034 0.005404 -921384.000000 0 0 1
-7.722044 -18.950743 -18.376612 27.503827 1.183859 2.302512 0.020213 0.013702 466691.000000 0 0 1
-8.802244 -19.908643 -17.749912 28.087238 1.154505 2.254871 0.052675 0.000705 481631.000000 0 0 1
-8.353644 -21.228543 -17.952612 29.029824 1.195897 2.237526 0.048477 -0.002832 277872.000000 0 0 1
-9.324244 -22.159943 -17.587112 29.787768 1.172514 2.202368 0.062983 -0.002748 -115468.000000 0 0 1
-8.851344 -23.574343 -17.976712 30.939588 1.211618 2.190785 0.061364 -0.010237 -326898.000000 0 0 1
-8.711944 -23.591143 -19.370012 31.743304 1.217042 2.227119 0.060624 -0.015274 548180.000000 0 0 1
-7.893644 -24.616943 -19.931112 32.642805 1.260496 2.227592 0.061182 -0.022360 2102220.000000 0 0 1
-6.289844 -24.520543 -19.822112 32.151754 1.319697 2.235108 0.051987 -0.015571 1696280.000000 0 0 1
-5.605644 -23.502643 -20.520912 31.700241 1.336660 2.274889 0.043240 -0.011180 169812.000000 0 0 1
-5.575044 -22.223743 -19.841612 30.309494 1.325009 2.284494 0.048255 -0.006211 -467359.000000 0 0 1
-4.455244 -22.030643 -18.816312 29.313001 1.371258 2.267783 0.029464 -0.000852 576777.000000 0 0 1
-3.121444 -22.185643 -19.346512 29.601245 1.431017 2.283089 0.030395 -0.011650 438568.000000 0 0 1
-2.236344 -22.031343 -18.281912 28.716017 1.469635 2.260936 0.026627 -0.011936 25422.200000 0 0 1
-0.898244 -22.809443 -18.514212 29.391386 1.531436 2.252246 0.045202 -0.016585 805576.000000 0 0 1
-0.005444 -22.165843 -19.452612 29.491164 1.570551 2.291094 0.060303 -0.017332 857132.000000 0 0 1
1.237656 -22.863043 -19.651512 30.173373 -1.516716 2.280075 0.050740 -0.020307 1290530.000000 0 0 1
2.119256 -22.221143 -20.798012 30.509470 -1.475713 2.320867 0.059541 -0.021942 471320.000000 0 0 1
1.596456 -22.392643 -22.089812 31.495062 -1.499623 2.348119 0.049684 -0.023561 -207884.000000 0 0 1
1.033956 -21.310043 -22.749412 31.188503 -1.522315 2.388265 0.063474 -0.019428 -224239.000000 0 0 1
0.393556 -21.598943 -24.139412 32.394142 -1.552577 2.411598 0.062504 -0.021888 -32704.100000 0 0 1
-0.122444 -20.565243 -24.926012 32.314862 1.564842 2.451753 0.053709 -0.019429 853745.000000 0 0 1
-1.356744 -19.968543 -24.458912 31.604143 1.502957 2.455796 0.040152 -0.015708 597262.000000 0 0 1
-1.934744 -18.837143 -25.308152 31.608286 1.468446 2.499227 0.033313 -0.007898 23821.700000 0 0 1
-1.187244 -17.662543 -25.131862 30.740616 1.503679 2.527933 0.031050 -0.012333 294660.000000 0 0 1
-1.775144 -16.560943 -25.826112 30.731157 1.464015 2.568796 0.037465 -0.010047 -2897.690000 0 0 1
-1.221544 -15.283143 -25.215802 29.511071 1.491038 2.595292 0.042419 -0.010633 600709.000000 0 0 1
0.182356 -15.071443 -25.447182 29.576016 -1.558697 2.606849 0.052074 -0.023288 596694.000000 0 0 1
0.669156 -13.832643 -24.889012 28.482498 -1.522459 2.633832 0.053231 -0.025461 329163.000000 0 0 1
0.305656 -12.510743 -25.617462 28.510813 -1.546370 2.687176 0.050219 -0.016634 -129419.000000 0 0 1
1.060256 -11.406143 -25.162302 27.647164 -1.478108 2.714376 0.040649 -0.014514 -63013.900000 0 0 1
0.792756 -10.210043 -25.944822 27.892781 -1.493307 2.765652 0.026961 -0.008670 -132496.000000 0 0 1
1.820556 -9.052243 -25.741412 27.347355 -1.372327 2.797186 0.038000 -0.012337 206754.000000 0 0 1
3.102356 -9.184243 -26.291442 28.021685 -1.245039 2.788343 0.046665 -0.016694 -510481.000000 0 0 1
3.230356 -9.245543 -27.710532 29.390285 -1.234660 2.801869 0.035342 -0.009162 500916.000000 0 0 1
4.680056 -8.944743 -28.267892 30.016413 -1.088747 2.798586 0.030203 -0.008234 326830.000000 0 0 1
4.855456 -7.547843 -28.334942 29.722286 -0.999152 2.834853 0.023344 -0.005410 994393.000000 0 0 1
6.194556 -7.244743 -28.755952 30.294613 -0.863383 2.821512 0.032239 -0.013695 802130.000000 0 0 1
7.460356 -7.383943 -27.870432 29.781546 -0.780251 2.781400 0.029260 -0.016777 -70022.200000 0 0 1
7.855456 -8.696943 -27.488292 29.882289 -0.836192 2.738585 0.027132 -0.019501 396297.000000 0 0 1
8.377856 -9.576643 -28.523032 31.232418 -0.852067 2.721990 0.023495 -0.024292 -444436.000000 0 0 1
8.770356 -10.969843 -27.958462 31.287892 -0.896362 2.676070 0.043154 -0.036749 -688141.000000 0 0 1
7.734456 -11.795643 -27.564852 30.964174 -0.990421 2.668619 0.035734 -0.027199 -733341.000000 0 0 1
8.094156 -12.888143 -26.718652 30.749080 -1.010020 2.623823 0.046458 -0.026322 -352000.000000 0 0 1
8.977756 -14.014543 -27.313622 31.985019 -1.001056 2.594327 0.042868 -0.031025 -459999.000000 0 0 1
8.448656 -14.688143 -28.406102 33.076093 -1.048810 2.603740 0.049908 -0.033591 -532238.000000 0 0 1
9.383656 -15.547043 -29.027032 34.239336 -1.027759 2.582560 0.048465 -0.034121 7737.790000 0 0 1
8.809456 -16.182543 -30.333732 35.491076 -1.072278 2.595742 0.061988 -0.037175 15695.000000 0 0 1
8.559556 -15.268943 -31.368202 35.921730 -1.059862 2.632603 0.061056 -0.033501 334764.000000 0 0 1
7.851056 -15.918943 -32.404082 36.946940 -1.112612 2.640470 0.079781 -0.031999 414376.000000 0 0 1
6.634656 -15.079843 -32.944482 36.834212 -1.156316 2.677882 0.092364 -0.029773 764749.000000 0 0 1
7.071556 -14.045043 -33.842292 37.317166 -1.104360 2.706623 0.092146 -0.026508 907205.000000 0 0 1
5.908356 -13.449443 33.985811 37.024743 -1.156875 0.407986 0.074948 -0.028701 858292.000000 0 0 1
6.146356 -12.297843 32.974576 35.725863 -1.107316 0.395020 0.098395 -0.023117 129071.000000 0 0 1
6.940656 -12.653543 31.841230 34.959245 -1.069094 0.425554 0.084001 -0.023411 363119.000000 0 0 1
7.178056 -11.510343 31.066570 33.899031 -1.013192 0.411694 0.082052 -0.020172 -72841.300000 0 0 1
7.601356 -11.718343 29.638530 32.764961 -0.995356 0.440403 0.065523 -0.018149 885686.000000 0 0 1
6.509456 -12.098543 28.764520 31.877036 -1.077185 0.445585 0.065616 -0.015997 1047460.000000 0 0 1
7.067256 -12.149843 27.508770 30.891702 -1.043960 0.472374 0.056812 -0.017925 -250805.000000 0 0 1
6.110056 -12.784143 26.530880 30.077479 -1.124952 0.490527 0.049958 -0.020266 -240118.000000 0 0 1
6.052256 -14.182743 26.590570 30.738224 -1.167458 0.525516 0.059042 -0.018414 -41794.100000 0 0 1
5.930356 -14.775243 25.328810 29.916978 -1.189109 0.561163 0.038585 -0.014288 -15474.500000 0 0 1
4.499856 -15.196743 24.922450 29.535034 -1.282915 0.566421 0.027336 -0.017385 321663.000000 0 0 1
3.668956 -14.029843 24.737000 28.674325 -1.315014 0.530235 0.010671 -0.018017 135630.000000 0 0 1
2.317356 -14.443843 24.585480 28.608401 -1.411713 0.536741 0.012768 -0.012939 547749.000000 0 0 1
1.374456 -13.207043 24.601410 27.956118 -1.467100 0.494932 0.025684 -0.012755 -464051.000000 0 0 1
1.432056 -12.549843 23.337980 26.536968 -1.457178 0.496087 0.007991 -0.013443 317884.000000 0 0 1
0.424856 -11.524243 23.138680 25.853186 -1.533947 0.462358 0.025550 -0.006200 1987220.000000 0 0 1
-1.027844 -12.133543 22.907180 25.942595 1.486287 0.488591 0.021751 -0.001155 461707.000000 0 0 1
-1.008344 -12.835343 21.675980 25.211325 1.492397 0.535974 0.024392 -0.006144 31725.000000 0 0 1
-2.181844 -13.622643 21.556180 25.593080 1.411982 0.569323 0.042083 -0.010986 191354.000000 0 0 1
-2.480444 -14.037443 20.089780 24.633345 1.395900 0.617113 0.044190 -0.025866 195608.000000 0 1 0
-1.590144 -14.937543 19.415180 24.548075 1.464743 0.658511 0.049004 -0.043708 -192831.000000 0 1 0
-1.917344 -15.170343 18.064980 23.667679 1.445075 0.702427 0.045867 -0.047127 141198.000000 0 1 0
-2.948444 -16.300143 17.857480 24.357290 1.391847 0.747858 0.033909 -0.050135 60777.700000 0 1 0
-2.437744 -17.640343 17.800280 25.178846 1.433475 0.785615 0.022153 -0.029359 45724.900000 0 0 1
-3.516044 -18.565243 17.919280 26.040957 1.383625 0.811903 0.031025 -0.015901 436583.000000 0 0 1
-3.165244 -19.945643 17.332580 26.613264 1.413415 0.861532 0.033135 -0.005080 439829.000000 0 0 1
-2.160244 -20.683143 18.035180 27.526838 1.466729 0.856368 0.029932 -0.015149 61826.100000 0 0 1
-2.200544 -22.079543 17.797580 28.444727 1.471460 0.894781 0.022091 -0.017922 -100118.000000 0 0 1
-1.008444 -22.893543 18.328480 29.343900 1.526776 0.896165 0.039016 -0.013758 681614.000000 0 0 1
0.196656 -22.862343 17.581580 28.841591 -1.562195 0.915252 0.052588 -0.017701 42968.400000 0 0 1
1.248156 -23.694943 17.994780 29.779529 -1.518169 0.921951 0.060584 -0.020483 480428.000000 0 0 1
2.564456 -23.527543 17.180680 29.245470 -1.462227 0.942874 0.062513 -0.025299 531772.000000 0 0 1
3.321656 -22.385443 17.592480 28.664208 -1.423487 0.910002 0.049320 -0.023787 143534.000000 0 0 1
4.523556 -22.208243 16.871280 28.254358 -1.369857 0.930889 0.061196 -0.016209 232359.000000 0 0 1
5.144256 -20.796043 17.051680 27.380624 -1.328297 0.898525 0.071980 -0.020020 -502396.000000 0 0 1
5.867956 -20.707543 18.282080 28.239506 -1.294663 0.866636 0.078665 -0.016463 -17151.400000 0 0 1
6.268656 -19.385543 18.576280 27.571245 -1.258042 0.831517 0.071277 -0.012912 1292860.000000 0 0 1
7.350956 -18.690243 17.583080 26.693191 -1.196075 0.851693 0.079180 -0.019995 326582.000000 0 0 1
6.776256 -18.089243 16.456480 25.376251 -1.212375 0.865185 0.060907 -0.023927 -664327.000000 0 0 1
7.687756 -17.511743 15.555980 24.652612 -1.157123 0.887945 0.062780 -0.020204 -467629.000000 0 1 0
7.092556 -16.560743 14.502880 23.127821 -1.166155 0.893004 0.038417 -0.023332 -387864.000000 0 1 0
6.066656 -17.174943 13.741280 22.816787 -1.231249 0.924487 0.039030 -0.018273 289494.000000 0 1 0
5.525856 -16.243443 12.771580 21.389198 -1.242888 0.930910 0.023884 -0.021857 84439.000000 0 1 0
6.056056 -16.540843 11.340480 20.949506 -1.219827 0.998785 0.025333 -0.018818 1228530.000000 0 1 0
7.463756 -16.203743 11.298480 21.116927 -1.139147 1.006237 0.035537 -0.011393 1303090.000000 0 1 0
8.182656 -16.680243 10.165680 21.178466 -1.114729 1.070141 0.045409 -0.006471 1303890.000000 0 1 0
9.561256 -15.996643 9.816080 21.063372 -1.032067 1.086002 0.044567 -0.009153 1266780.000000 0 1 0
10.298456 -16.722943 8.847480 21.540495 -1.018820 1.147534 0.056098 -0.004191 -912534.000000 0 1 0
11.503056 -16.087443 8.558080 21.549173 -0.950052 1.162396 0.050896 -0.008717 -338048.000000 0 1 0
12.398256 -17.101943 7.813280 22.522002 -0.943513 1.216514 0.051968 -0.009310 -169012.000000 0 1 0
12.820556 -18.223443 8.549880 23.865477 -0.957712 1.204400 0.067116 -0.017195 -495848.000000 0 1 0
13.880156 -18.861043 7.935480 24.725888 -0.936370 1.244076 0.078930 -0.019354 -485286.000000 0 1 0
14.239656 -20.131143 8.716380 26.153509 -0.955158 1.231018 0.064868 -0.016405 349581.000000 0 0 1
13.161056 -21.076543 8.872880 26.384884 -1.012599 1.227825 0.069574 -0.020782 405274.000000 0 0 1
13.645556 -22.319543 9.308380 27.767052 -1.022057 1.228946 0.058644 -0.015189 -13488.800000 0 0 1
12.620856 -23.153443 10.089680 28.234192 -1.071726 1.205360 0.067236 -0.020220 -24288.500000 0 0 1
12.504856 -22.648243 11.367680 28.258424 -1.066317 1.156795 0.082731 -0.028894 -179782.000000 0 0 1
11.509156 -23.249443 12.203580 28.669229 -1.111133 1.131096 0.090330 -0.024231 275972.000000 0 0 1
11.747156 -24.706543 12.651980 30.141028 -1.126967 1.137616 0.069157 -0.024141 -29300.800000 0 0 1
12.820056 -24.860243 13.546280 31.078727 -1.094680 1.119792 0.052929 -0.024510 -202068.000000 0 0 1
12.752756 -26.114563 14.148580 32.323142 -1.116521 1.117732 0.057308 -0.028275 639868.000000 0 0 1
14.003756 -26.399413 15.056180 33.462259 -1.083081 1.104092 0.069643 -0.024415 471505.000000 0 0 1
14.023556 -25.700913 16.276580 33.498121 -1.071303 1.063409 0.065534 -0.019640 584181.000000 0 0 1
14.924056 -26.204883 17.295480 34.764306 -1.053094 1.050074 0.063501 -0.022339 247658.000000 0 0 1
14.746356 -25.484733 18.648980 34.852706 -1.046235 1.006194 0.065696 -0.014847 98863.900000 0 0 1
15.200856 -24.101043 18.639180 34.049161 -1.008099 0.991519 0.035012 -0.016264 391737.000000 0 0 1
16.468556 -24.041243 19.277480 34.940177 -0.970200 0.986361 0.030636 -0.012204 93270.200000 0 0 1
16.831056 -22.579443 19.759280 34.402687 -0.930236 0.958983 0.022398 -0.011454 -194730.000000 0 0 1
16.916956 -21.599443 18.720480 33.214089 -0.906376 0.972022 0.017825 -0.010450 259630.000000 0 0 1
15.706256 -21.026243 18.271980 31.978972 -0.929229 0.962616 0.039758 -0.006655 -604080.000000 0 0 1
15.959256 -19.971843 17.140780 30.779518 -0.896612 0.980161 0.025957 -0.008832 5957.210000 0 0 1
16.778056 -18.868743 17.459180 30.697811 -0.843981 0.965819 0.023930 -0.007156 -468620.000000 0 0 1
18.141156 -19.118743 17.296280 31.524422 -0.811629 0.990032 0.029318 -0.013275 -1094150.000000 0 0 1
18.908656 -17.855943 17.660680 31.436788 -0.756772 0.974256 0.042057 -0.013984 -535156.000000 0 0 1
19.019856 -17.561343 19.027380 32.127821 -0.745549 0.936960 0.037657 -0.009767 52327.800000 0 0 1
19.620656 -16.313743 19.215380 31.942749 -0.693630 0.925348 0.055229 -0.015567 -217336.000000 0 0 1
20.188556 -16.153643 20.649080 33.089311 -0.674825 0.896893 0.048759 -0.012306 281153.000000 0 0 1
21.523756 -16.636543 20.697280 34.182219 -0.658021 0.920404 0.046834 -0.008981 -136925.000000 0 0 1
22.115856 -16.361443 21.952880 35.195694 -0.636945 0.897281 0.054273 -0.001849 -49788.100000 0 0 1
33.514188 -1.336743 -8.138412 34.514076 -0.039865 1.808838 0.104452 -0.012803 -245109.000000 0 0 1
34.820598 -0.993043 -8.526012 35.862976 -0.028511 1.810833 0.103551 -0.014111 -437290.000000 0 0 1
35.657348 -2.093943 -8.422812 36.698431 -0.058657 1.802375 0.120715 -0.026482 -118258.000000 0 0 1
-35.390697 -1.850243 -9.056812 36.578008 0.052233 1.821001 0.099792 -0.024055 256452.000000 0 0 1
-34.440365 -2.785543 -8.592912 35.605282 0.080705 1.814541 0.116517 -0.013900 -101746.000000 0 0 1
-33.235764 -2.697943 -9.312412 34.621033 0.080998 1.843132 0.166546 -0.021707 -282992.000000 0 0 1
-32.141814 -3.670143 -8.849912 33.539336 0.113694 1.837825 0.155435 -0.017165 -449464.000000 0 0 1
-31.630954 -3.266343 -7.614112 32.698027 0.102899 1.805815 0.141038 -0.013087 420415.000000 0 0 1
-30.463844 -3.990543 -7.248312 31.567519 0.130251 1.802476 0.131598 -0.021586 252413.000000 0 0 1
-29.959334 -3.852443 -5.808812 30.759475 0.127887 1.760783 0.121970 -0.032258 -117486.000000 0 0 1
-29.330284 -2.635743 -5.378812 29.935670 0.089623 1.751456 0.125099 -0.026556 701982.000000 0 0 1
-29.623224 -2.453143 -4.000812 29.992662 0.082623 1.704588 0.122062 -0.020466 1374.750000 0 0 1
-29.095314 -1.041243 -3.558512 29.330607 0.035772 1.692420 0.137321 -0.027497 -113115.000000 0 0 1
-27.749314 -0.766643 -3.247512 27.949213 0.027620 1.687253 0.116083 -0.023617 248907.000000 0 0 1
-27.562324 0.569957 -2.747312 27.704770 -0.020676 1.670123 0.116184 -0.029299 -732914.000000 0 0 1
-26.106674 0.793557 -2.392112 26.228045 -0.030387 1.662128 0.108674 -0.022080 -829765.000000 0 0 1
-25.758314 0.109857 -1.244212 25.788580 -0.004265 1.619062 0.097452 -0.024120 364733.000000 0 0 1
-24.386344 0.156857 -0.874412 24.402520 -0.006432 1.606637 0.081383 -0.024951 164066.000000 0 1 0
-24.110744 -0.696743 0.325188 24.123001 0.028890 1.557315 0.075684 -0.029686 -185912.000000 0 1 0
-24.030944 -2.029143 0.010688 24.116463 0.084239 1.570353 0.075507 -0.026502 280493.000000 0 1 0
-23.323944 -2.690443 1.039788 23.501617 0.114844 1.526539 0.061687 -0.022874 -117125.000000 0 1 0
-23.243244 -4.241443 0.787488 23.640185 0.180495 1.537479 0.053953 -0.009227 -106628.000000 0 1 0
-24.458144 -4.858943 1.158988 24.963040 0.196110 1.524351 0.061703 -0.006852 167322.000000 0 1 0
-24.350044 -6.275843 1.231788 25.175944 0.252245 1.521850 0.042804 0.004171 -296107.000000 0 0 1
-25.597264 -7.018643 1.753088 26.599898 0.267618 1.504843 0.061178 0.003130 -96474.500000 0 0 1
-25.754184 -6.960243 3.156388 26.864210 0.263951 1.453030 0.055510 0.003120 -628355.000000 0 0 1
-26.919794 -7.541643 3.609588 28.188310 0.273150 1.442391 0.071438 0.016117 -596233.000000 0 0 1
-27.203724 -7.532743 5.092988 28.683154 0.270133 1.392290 0.054691 0.009936 -75666.100000 0 0 1
-26.409394 -8.486443 5.753188 28.329754 0.310920 1.366295 0.050894 0.031706 -60502.800000 0 0 1
-26.691444 -8.567943 7.177388 28.937134 0.310609 1.320146 0.029665 0.017137 134738.000000 0 0 1
-26.059894 -7.459143 8.081388 28.285433 0.278777 1.281051 0.049617 0.013248 20203.800000 0 0 1
-24.656544 -7.524443 8.208688 27.054482 0.296193 1.262524 0.064159 0.006117 -205652.000000 0 0 1
-24.168244 -6.279843 8.576588 26.402619 0.254217 1.239955 0.062537 -0.009530 -572424.000000 0 0 1
-22.775744 -5.926443 8.055188 24.874551 0.254563 1.241019 0.084843 -0.020130 -433828.000000 0 1 0
-21.740944 -6.626243 8.694788 24.334648 0.295838 1.205420 0.080666 -0.023467 -131387.000000 0 1 0
-20.507544 -6.374543 8.029688 22.927496 0.301371 1.212989 0.078205 -0.022147 542988.000000 0 1 0
-19.297444 -6.707543 8.952888 22.305531 0.334524 1.157778 0.090523 -0.022408 133458.000000 0 1 0
-18.966044 -5.681143 9.861988 22.118884 0.291037 1.108658 0.068676 -0.021273 -325684.000000 0 1 0
-17.918944 -6.045243 10.693888 21.725395 0.325376 1.056147 0.064595 -0.024516 -615359.000000 0 1 0
-17.703144 -4.894543 11.693388 21.773681 0.269740 1.003869 0.053974 -0.018172 123896.000000 0 1 0
-18.834344 -4.701243 12.523988 23.101612 0.244612 0.997831 0.066898 -0.015329 187052.000000 0 1 0
-18.860744 -3.493643 13.217788 23.294702 0.183158 0.967432 0.061057 -0.005267 -778864.000000 0 1 0
-20.170344 -3.411243 13.955388 24.763526 0.167536 0.972124 0.066907 -0.013140 -998182.000000 0 1 0
-20.215644 -4.332843 14.997988 25.541837 0.211137 0.943210 0.071013 -0.015445 -240963.000000 0 0 1
-21.157344 -3.985743 15.949288 26.793640 0.186204 0.933202 0.051693 -0.003317 -499359.000000 0 0 1
-21.066044 -4.974843 17.148588 27.615238 0.231906 0.900800 0.053527 -0.003293 -536541.000000 0 0 1
-21.944444 -4.652143 18.151788 28.856342 0.208904 0.890479 0.041324 -0.005229 -90859.000000 0 0 1
-21.646744 -5.401243 19.309888 29.506385 0.244525 0.857367 0.046580 -0.002652 -216908.000000 0 0 1
-22.602844 -5.119243 20.521388 30.955171 0.222729 0.846059 0.040981 -0.002193 -10564.800000 0 0 1
-22.452444 -3.741743 20.899688 30.901616 0.165134 0.828028 0.047632 -0.001524 37182.900000 0 0 1
-23.235444 -3.412443 21.993388 32.175142 0.145821 0.818178 0.051924 -0.001525 -436505.000000 0 0 1
-23.284244 -1.891543 22.418088 32.377533 0.081059 0.805991 0.045564 0.001983 245406.000000 0 0 1
-24.267344 -1.240643 21.605088 32.514966 0.051080 0.844017 0.052102 -0.002226 -49174.600000 0 0 1
-24.299644 0.100657 21.835888 32.669387 -0.004142 0.838754 0.054194 -0.010377 -90462.100000 0 0 1
-25.628354 0.851057 21.516488 33.473812 -0.033195 0.872667 0.078848 -0.015405 -97098.800000 0 0 1
-26.577374 0.555257 22.476788 34.811939 -0.020889 0.868905 0.081698 -0.017057 -1189160.000000 0 0 1
-27.776864 1.221957 22.253388 35.612647 -0.043964 0.895827 0.067778 -0.015284 -445154.000000 0 0 1
-28.789074 1.126457 23.406688 37.120786 -0.039108 0.888529 0.053404 -0.010600 -343715.000000 0 0 1
-28.382814 1.997957 24.416688 37.493341 -0.070277 0.861596 0.048227 -0.011005 248731.000000 0 0 1
-29.160794 1.875457 25.608788 38.854592 -0.064226 0.851184 0.048852 -0.009886 -199216.000000 0 0 1
-28.689074 2.819557 26.744288 39.322638 -0.097965 0.822864 0.062217 -0.011446 -431840.000000 0 0 1
-27.509064 2.400557 27.357488 38.870856 -0.087044 0.790057 0.049549 -0.014646 -195013.000000 0 0 1
-27.010444 3.457657 28.177688 39.185477 -0.127319 0.768312 0.048852 -0.015096 -703867.000000 0 0 1
-25.748434 3.142157 28.940688 38.864102 -0.121433 0.730765 0.053575 -0.015418 -968028.000000 0 0 1
-26.013684 2.246757 29.999588 39.771032 -0.086154 0.716198 0.044034 -0.015462 270232.000000 0 0 1
-24.839044 1.982657 30.758688 39.585426 -0.079651 0.680878 0.033605 -0.015716 388438.000000 0 0 1
-25.032024 0.836957 31.811888 40.488257 -0.033423 0.666959 0.038691 -0.014156 154958.000000 0 0 1
-25.181794 -0.448743 31.190388 40.089456 0.017818 0.679289 0.042078 -0.020960 -102544.000000 0 0 1
-25.731134 -1.390443 32.053188 41.127016 0.053985 0.677136 0.038881 -0.016328 -636029.000000 0 0 1
-26.438414 -2.561643 31.348588 41.088754 0.096589 0.702935 0.031728 -0.003722 539611.000000 0 0 1
-27.759964 -2.419243 30.818188 41.547913 0.086929 0.735120 0.037285 0.000102 659455.000000 0 0 1
-27.867664 -1.510943 29.721588 40.770853 0.054165 0.753949 0.036391 -0.003829 -1026730.000000 0 0 1
-29.266844 -1.428343 29.126888 41.315420 0.048765 0.788390 0.037268 -0.007899 289906.000000 0 0 1
-30.168484 -0.629043 29.934588 42.504267 0.020848 0.789398 0.051164 -0.012333 -983476.000000 0 0 1
-31.484234 -0.887243 29.630388 43.243544 0.028173 0.815921 0.042109 -0.008501 -730491.000000 0 0 1
-32.426134 -0.441643 30.785088 44.714325 0.013619 0.811400 0.047493 -0.008086 -6181.930000 0 0 1
-32.476944 -1.489643 31.751488 45.443679 0.045836 0.797218 0.048257 0.000783 158903.000000 0 0 1
-33.282284 -1.151943 32.886188 46.803192 0.034598 0.791684 0.058005 -0.005673 235495.000000 0 0 1
-33.547044 -2.343043 33.830388 47.701040 0.069730 0.782409 0.060086 0.001880 968043.000000 0 0 1
-34.618796 -3.173343 33.281888 48.127074 0.091410 0.807175 0.038474 0.002673 592825.000000 0 0 1
-34.787364 -4.356343 34.041788 48.866980 0.124579 0.800119 0.023797 0.008781 -233999.000000 0 0 1
-35.861072 -5.387743 33.597488 49.435164 0.149124 0.823542 0.020472 0.009396 -540476.000000 0 0 1
35.384638 -4.781143 33.919988 49.249341 -0.134306 0.811047 0.029649 -0.005580 -1605640.000000 0 0 1
34.277168 -5.326643 33.278388 48.070246 -0.154166 0.806143 0.018567 -0.005277 -821827.000000 0 0 1
32.944908 -4.990943 33.944588 47.565866 -0.150350 0.776125 0.043634 -0.010334 -674949.000000 0 0 1
32.588738 -5.631043 -33.281103 46.918721 -0.171102 2.359351 0.047581 -0.010329 97585.400000 0 0 1
32.210108 -7.015643 -33.344803 46.889085 -0.214459 2.361918 0.028384 -0.011844 -16351.900000 0 0 1
30.850828 -7.383943 -34.027703 46.520757 -0.234924 2.391245 0.030172 -0.017769 657784.000000 0 0 1
29.790788 -7.105743 -33.127303 45.115417 -0.234147 2.395400 0.047323 -0.023908 283628.000000 0 0 1
28.462658 -7.387043 -33.537503 44.603312 -0.253932 2.421745 0.052991 -0.018293 521741.000000 0 0 1
27.424618 -7.092543 -32.421803 43.053307 -0.253075 2.423500 0.060362 -0.020873 -354445.000000 0 0 1
26.138128 -7.428543 -32.825903 42.613671 -0.276902 2.450130 0.062433 -0.024212 -108566.000000 0 0 1
25.116128 -7.091743 -31.855303 41.180980 -0.275194 2.455211 0.072798 -0.027994 768478.000000 0 0 1
23.707428 -7.596443 -32.262403 40.750592 -0.310088 2.484389 0.083845 -0.032768 23522.900000 0 0 1
23.469528 -8.978643 -32.346303 40.959958 -0.365387 2.481125 0.082559 -0.036562 144445.000000 0 0 1
23.494428 -9.735943 -31.137603 40.203571 -0.392853 2.456718 0.073855 -0.029246 -495749.000000 0 0 1
23.241228 -11.264043 -31.308503 40.586399 -0.451299 2.451841 0.081910 -0.026418 29961.200000 0 0 1
21.866428 -11.442843 -31.588103 40.086003 -0.482118 2.478364 0.095747 -0.038192 -34525.100000 0 0 1
21.620528 -12.775243 -31.907603 40.604793 -0.533690 2.474799 0.085589 -0.025101 -478671.000000 0 0 1
20.432928 -12.988343 -32.876003 40.829318 -0.566226 2.506819 0.092896 -0.024590 622268.000000 0 0 1
19.125428 -12.804743 -32.342903 39.696434 -0.589971 2.523104 0.084331 -0.019851 429123.000000 0 0 1
18.792828 -11.377543 -32.177403 38.961573 -0.544395 2.542549 0.087637 -0.035578 287213.000000 0 0 1
17.406028 -11.182743 -31.402803 37.605314 -0.571059 2.559043 0.073267 -0.037017 1035610.000000 0 0 1
16.380428 -11.256843 -32.364003 37.979780 -0.602092 2.590853 0.055061 -0.011520 78225.600000 0 0 1
15.076628 -11.179243 -31.763803 36.894707 -0.638036 2.607894 0.064782 -0.022244 568081.000000 0 0 1
13.987328 -11.634443 -32.730403 37.447095 -0.693824 2.634261 0.048413 -0.010138 -955889.000000 0 0 1
13.920828 -13.010643 -32.921903 38.038376 -0.751615 2.616928 0.055339 -0.012351 -60631.300000 0 0 1
12.792828 -13.401443 -33.657903 38.420172 -0.808629 2.638401 0.036050 -0.012961 1559470.000000 0 0 1
11.396128 -13.455643 -32.839303 37.273931 -0.868081 2.648823 0.027993 -0.008634 1053780.000000 0 0 1
10.824828 -12.202143 -32.654303 36.501681 -0.845140 2.678325 0.076592 -0.015702 -287937.000000 0 0 1
9.828228 -12.273143 -31.645103 35.336054 -0.895573 2.680456 0.069659 -0.022752 330066.000000 0 0 1
8.516028 -11.557143 -32.043503 35.112340 -0.935756 2.720394 0.056111 -0.013709 -101945.000000 0 0 1
8.716328 -10.194843 -31.881903 34.588509 -0.863422 2.743362 0.056506 -0.016741 255684.000000 0 0 1
7.677328 -9.428543 -32.451203 34.654284 -0.887418 2.783100 0.051505 -0.011160 47730.400000 0 0 1
8.109228 -7.964243 -32.655203 34.576742 -0.776378 2.806643 0.065210 -0.012413 -158781.000000 0 0 1
8.370628 -7.242343 -31.528903 33.415426 -0.713258 2.803966 0.055662 -0.017771 132482.000000 0 0 1
8.694828 -5.949343 -31.908103 33.602407 -0.600070 2.822683 0.049585 -0.011420 -228861.000000 0 0 1
8.923528 -5.037243 -30.740303 32.403232 -0.513900 2.819832 0.041677 -0.014208 -833643.000000 0 0 1
7.776328 -4.701243 -30.070003 31.413024 -0.543764 2.848124 0.054214 -0.013516 -941238.000000 0 0 1
8.119628 -3.771243 -29.098303 30.444407 -0.434814 2.843114 0.054248 -0.010189 49194.800000 0 0 1
6.923328 -3.124243 -28.371403 29.370562 -0.423904 2.880006 0.042322 -0.006141 -527183.000000 0 0 1
6.229828 -2.255243 -29.288603 30.028639 -0.347331 2.919124 0.040062 0.001816 686219.000000 0 0 1
4.985928 -1.769943 -28.772103 29.254506 -0.341111 2.959739 0.042407 -0.002762 1196010.000000 0 0 1
3.762528 -2.751043 -28.708303 29.084215 -0.631340 2.980640 0.026390 -0.006558 -139635.000000 0 0 1
3.872928 -3.656543 -27.667303 28.175336 -0.756668 2.951406 0.033935 -0.009387 -98241.400000 0 0 1
3.037228 -4.797543 -27.760703 28.335452 -1.006408 2.939837 0.049850 -0.011812 47436.700000 0 0 1
3.194928 -5.682843 -26.497703 27.287920 -1.058630 2.900349 0.038975 -0.018325 -89995.600000 0 0 1
2.860428 -5.076943 -25.280603 25.943522 -1.057712 2.915045 0.051824 -0.025173 73465.100000 0 0 1
3.224228 -5.903543 -24.173403 25.091849 -1.070913 2.870193 0.055582 -0.034518 -114531.000000 0 0 1
3.111228 -5.129943 -22.834303 23.609351 -1.025623 2.884652 0.064150 -0.042442 -70543.400000 0 1 0
4.153428 -4.202243 -22.621703 23.380575 -0.791240 2.886115 0.051666 -0.033933 -117953.000000 0 1 0
3.939228 -3.407743 -21.500003 22.121943 -0.713183 2.903908 0.052307 -0.031086 -44492.000000 0 1 0
5.013428 -2.368243 -21.112203 21.828151 -0.441309 2.884765 0.067550 -0.033111 -597282.000000 0 1 0
6.246928 -2.826643 -20.670803 21.778341 -0.424919 2.821305 0.058332 -0.036739 -671415.000000 0 1 0
7.102128 -1.694443 -20.525603 21.785586 -0.234204 2.799827 0.075184 -0.020028 99717.200000 0 1 0
8.523528 -2.167043 -20.136403 21.973196 -0.248968 2.729807 0.064009 -0.024286 -831497.000000 0 1 0
9.177228 -2.838443 -21.200503 23.275301 -0.299960 2.716156 0.063590 -0.030574 700561.000000 0 1 0
10.441828 -3.462943 -20.959503 23.671175 -0.320227 2.658245 0.050584 -0.031686 1307200.000000 0 1 0
11.615228 -2.650043 -20.309903 23.546304 -0.224313 2.611088 0.038142 -0.021273 -486732.000000 0 1 0
11.448728 -2.570943 -18.888403 22.236342 -0.220897 2.585716 0.049131 -0.018933 254906.000000 0 1 0
12.497528 -1.891143 -18.219703 22.174811 -0.150182 2.535078 0.038853 -0.022500 -4367.010000 0 1 0
12.630728 -0.360443 -18.399303 22.320385 -0.028529 2.539809 0.038061 -0.016794 -78852.600000 0 1 0
12.916028 0.075157 -19.758003 23.605257 0.005819 2.562605 0.020760 -0.008883 172106.000000 0 1 0
12.984228 1.501657 -19.665603 23.613156 0.115141 2.554986 0.050585 -0.021424 -29643.800000 0 1 0
13.478128 2.322257 -20.880203 24.960683 0.170623 2.561704 0.045100 -0.013511 423497.000000 0 1 0
14.863728 2.263357 -21.228103 26.013181 0.151113 2.525343 0.040178 -0.002370 532658.000000 0 0 1
15.056728 3.334257 -22.115003 26.961004 0.217929 2.532660 0.044561 -0.013891 -108558.000000 0 0 1
16.484228 3.500457 -22.694603 28.267083 0.209244 2.502879 0.041405 -0.008048 267754.000000 0 0 1
16.896228 2.786257 -23.844503 29.356534 0.163433 2.518776 0.028908 -0.010405 65314.400000 0 0 1
17.267828 1.455357 -23.580303 29.263060 0.084083 2.507829 0.028277 0.000840 -550996.000000 0 0 1
9.061856 26.740457 2.883188 28.381015 1.244060 1.469032 -0.007713 0.011275 62297.300000 0 0 1
9.031456 27.193657 4.218188 28.962998 1.250142 1.424636 -0.003102 0.007385 81327.200000 0 0 1
10.284056 27.721857 4.600788 29.923743 1.215561 1.416434 0.013111 -0.004622 -116174.000000 0 0 1
10.186956 28.458957 5.942688 30.805873 1.227054 1.376672 0.011063 -0.007646 -47828.900000 0 0 1
10.268056 27.569257 7.032288 30.248140 1.214267 1.336163 0.006600 -0.011552 161355.000000 0 0 1
10.015156 28.213057 8.325288 31.073949 1.229689 1.299564 0.025243 -0.020802 -652283.000000 0 0 1
10.197056 27.240557 9.513688 30.602911 1.212610 1.254683 0.024013 -0.025776 141080.000000 0 0 1
11.506256 26.852157 9.880388 30.839169 1.165962 1.244661 0.023035 -0.022615 22092.500000 0 0 1
12.120456 25.987557 8.939788 30.036284 1.134393 1.268584 0.025814 -0.016458 285237.000000 0 0 1
13.333356 25.221957 9.644488 30.115472 1.084499 1.244803 0.038788 -0.016812 287561.000000 0 0 1
14.360456 26.069957 10.035688 31.409877 1.067306 1.245587 0.045610 -0.023549 -113410.000000 0 0 1
15.322756 25.294457 10.799988 31.483903 1.026141 1.220653 0.053194 -0.019828 384099.000000 0 0 1
16.489256 26.167857 11.276888 32.921429 1.008514 1.221178 0.054593 -0.021092 -755995.000000 0 0 1
17.353056 26.585757 10.264588 33.366042 0.992511 1.258089 0.053582 -0.020247 1356490.000000 0 0 1
18.792756 26.551457 10.452888 34.167388 0.954864 1.259879 0.060359 -0.029918 1706490.000000 0 0 1
19.379956 27.447357 11.572788 35.536875 0.956003 1.239091 0.055081 -0.024637 -860039.000000 0 0 1
19.336856 28.873357 11.440688 36.585162 0.980688 1.252747 0.046757 -0.027062 666314.000000 0 0 1
18.056256 29.505057 11.250888 36.375256 1.021621 1.256339 0.038034 -0.017428 512785.000000 0 0 1
18.171456 31.046857 11.522488 37.774024 1.041262 1.260819 0.031405 -0.005922 -325410.000000 0 0 1
18.791756 31.839557 10.458088 38.422117 1.037613 1.295129 0.043179 -0.027941 147437.000000 0 0 1
17.985656 32.059757 9.340088 37.928209 1.059544 1.321980 0.060343 -0.036670 1039410.000000 0 0 1
16.557656 32.728057 9.522788 37.894131 1.102427 1.316773 0.052427 -0.024353 878285.000000 0 0 1
16.656656 34.089857 9.890388 39.209467 1.116302 1.315797 0.049254 -0.023163 -698472.000000 0 0 1
15.418956 -33.948963 10.167888 38.647927 -1.144471 1.304573 0.062212 -0.012266 -603568.000000 0 0 1
15.434656 -32.401563 10.286388 37.334966 -1.126243 1.291670 0.070887 -0.007761 404136.000000 0 0 1
16.036956 -31.854863 9.055788 36.795701 -1.104402 1.322132 0.073721 -0.018468 535591.000000 0 0 1
16.089056 -30.435063 9.094888 35.607131 -1.084504 1.312511 0.055309 -0.010829 -276328.000000 0 0 1
16.804656 -29.848163 7.929088 35.159348 -1.058024 1.343321 0.047519 -0.001484 -517678.000000 0 0 1
16.072656 -29.920163 6.747088 34.627585 -1.077845 1.374695 0.047026 -0.000228 -317931.000000 0 0 1
16.702456 -29.284563 5.669288 34.186233 -1.052464 1.404191 0.045740 -0.004045 -222383.000000 0 0 1
16.225256 -29.656663 4.280088 34.074855 -1.070180 1.444855 0.051618 -0.011024 -189244.000000 0 0 1
16.453956 -30.995463 4.007888 35.320172 -1.082774 1.457078 0.045726 -0.010565 88080.800000 0 0 1
16.372756 -31.206163 2.629088 35.338419 -1.087613 1.496330 0.042957 -0.006014 -119092.000000 0 0 1
16.579956 -32.737463 2.264088 36.766323 -1.102000 1.509177 0.043133 -0.009355 -286937.000000 0 0 1
17.943856 -33.069263 2.274188 37.692573 -1.073641 1.510424 0.053957 -0.004003 -124279.000000 0 0 1
18.141156 34.238457 1.681488 38.784028 1.083557 1.527428 0.067674 -0.007109 435403.000000 0 0 1
19.572056 33.675757 1.960488 38.999557 1.044322 1.520506 0.080156 -0.014044 517865.000000 0 0 1
19.801456 33.337057 3.299788 38.914594 1.034817 1.485899 0.067885 -0.039374 363016.000000 0 0 1
21.162356 32.953857 3.469588 39.317172 0.999937 1.482435 0.064114 -0.026079 195875.000000 0 0 1
21.531756 32.976757 4.977288 39.697058 0.992359 1.445084 0.059070 -0.016194 -289352.000000 0 0 1
21.183256 31.945957 5.855288 38.775751 0.985269 1.419213 0.067590 -0.023547 -127472.000000 0 0 1
21.998956 30.828657 5.681788 38.296773 0.951009 1.421885 0.051509 -0.027956 -230345.000000 0 0 1
21.373756 29.606257 6.397488 37.071495 0.945501 1.397356 0.059775 -0.034194 -304030.000000 0 0 1
20.124956 29.208757 5.942888 35.965028 0.967488 1.404794 0.069472 -0.030119 -664715.000000 0 0 1
19.237956 28.956757 7.028188 35.468128 0.984386 1.371321 0.065043 -0.038517 458503.000000 0 0 1
17.745856 29.056757 6.589388 34.678964 1.022524 1.379623 0.080744 -0.036760 -42985.300000 0 0 1
17.204556 30.362657 6.463388 35.491732 1.055271 1.387665 0.074906 -0.044112 70044.700000 0 0 1
17.537856 31.080557 5.285588 36.076514 1.057063 1.423757 0.080351 -0.036582 -406752.000000 0 0 1
17.408356 32.638257 5.517188 37.399813 1.080808 1.422737 0.081765 -0.036595 -371131.000000 0 0 1
16.112656 33.147157 5.613588 37.280880 1.118335 1.419646 0.082932 -0.036255 -612490.000000 0 0 1
16.118856 -34.037963 5.756888 38.099111 -1.128527 1.419112 0.076459 -0.034122 -118240.000000 0 0 1
14.692156 -33.464963 5.896088 37.020630 -1.157102 1.410850 0.068625 -0.029892 302755.000000 0 0 1
13.931356 -33.507463 4.686788 36.589599 -1.176771 1.442353 0.059940 -0.014994 -510849.000000 0 0 1
12.863556 -32.618963 4.733688 35.381855 -1.195163 1.436605 0.044096 -0.008766 314439.000000 0 0 1
12.020156 -32.607863 3.362488 34.915086 -1.217624 1.474342 0.041949 -0.004080 1162390.000000 0 0 1
10.838256 -31.794263 3.344888 33.756944 -1.242263 1.471546 0.032224 -0.006461 542383.000000 0 0 1
10.483456 -31.474863 2.011488 33.235763 -1.249279 1.510238 0.034472 -0.000847 142608.000000 0 0 1
9.423456 -30.286963 2.019788 31.783348 -1.269152 1.507205 0.033344 0.001847 757127.000000 0 0 1
8.936156 -29.850263 0.679588 31.166568 -1.279921 1.548990 0.048767 -0.001269 -271314.000000 0 0 1
8.014756 -30.718363 0.142788 31.747040 -1.315575 1.566299 0.033994 -0.001145 -1313270.000000 0 0 1
8.317856 -31.205363 -1.303612 32.321213 -1.310301 1.611140 0.051235 -0.008696 -236758.000000 0 0 1
9.353956 -32.155363 -1.140312 33.507674 -1.287710 1.604834 0.043755 -0.004527 -147174.000000 0 0 1
9.629956 -32.878563 -2.311412 34.337714 -1.285871 1.638161 0.041843 -0.000222 -304936.000000 0 0 1
10.940156 -33.665863 -2.163912 35.464911 -1.256598 1.631850 0.038171 0.006945 -367209.000000 0 0 1
10.855756 33.797257 -1.327612 35.522733 1.260003 1.608179 0.028882 0.006719 14435.000000 0 0 1
12.065756 33.060557 -1.248512 35.215645 1.220857 1.606257 0.049436 -0.002575 -65706.200000 0 0 1
12.227256 31.982457 -0.149112 34.240408 1.205631 1.575151 0.028984 -0.000418 -472272.000000 0 0 1
12.397956 32.438257 1.201288 34.747560 1.205727 1.536218 0.043616 -0.003184 -556348.000000 0 0 1
13.572856 33.073457 1.562388 35.784312 1.181369 1.527121 0.052226 -0.007774 -1072070.000000 0 0 1
14.814656 32.219257 1.729188 35.504149 1.139816 1.522073 0.063721 -0.015037 -919362.000000 0 0 1
15.434256 31.756757 0.569088 35.313336 1.118399 1.554680 0.059252 -0.016581 -40820.200000 0 0 1
16.295556 30.668257 0.776788 34.737451 1.082385 1.548433 0.070319 -0.012713 30837.300000 0 0 1
17.023156 30.037757 -0.452912 34.529115 1.055203 1.583914 0.062485 -0.006591 -508607.000000 0 0 1
17.991456 30.760757 -1.128812 35.653763 1.041566 1.602462 0.044162 0.001394 -642669.000000 0 0 1
17.637856 31.928957 -1.819812 36.522102 1.066105 1.620645 0.058888 -0.006785 -114097.000000 0 0 1
18.898456 32.480657 -2.558412 37.665504 1.043839 1.638773 0.052423 -0.005983 230425.000000 0 0 1
19.712256 33.150657 -1.643412 38.603625 1.034337 1.613381 0.044007 -0.002284 -420307.000000 0 0 1
20.601456 34.009357 -2.322612 39.830276 1.026153 1.629142 0.047800 -0.001862 -1052670.000000 0 0 1
21.597656 -33.819363 -1.420412 40.152530 -1.002464 1.606179 0.059245 -0.003151 -344143.000000 0 0 1
22.651556 34.025757 -0.785112 40.883511 0.983451 1.590001 0.059115 -0.006434 854190.000000 0 0 1
23.539756 33.244057 -1.577412 40.764882 0.954662 1.609501 0.058199 -0.004844 -369555.000000 0 0 1
24.427456 34.057857 -2.544512 41.989436 0.948597 1.631432 0.047643 0.003060 -831568.000000 0 0 1
23.709656 -33.890363 -3.621212 41.518884 -0.960340 1.658126 0.049721 -0.006273 -14341.600000 0 0 1
24.626556 -33.351763 -4.522512 41.704442 -0.934768 1.679452 0.038524 -0.001979 -287098.000000 0 0 1
24.044056 -32.897063 -5.875812 41.168660 -0.939640 1.714011 0.038839 -0.010221 -508137.000000 0 0 1
23.136456 -31.862663 -5.717312 39.789604 -0.942747 1.714984 0.048457 -0.009177 -126916.000000 0 0 1
22.474256 -31.574163 -6.940012 39.372373 -0.952200 1.747988 0.044290 -0.011576 -672434.000000 0 0 1
21.423356 -30.526863 -6.842112 37.916541 -0.958872 1.752242 0.052596 -0.021628 -179013.000000 0 0 1
20.248956 -30.792263 -6.071712 37.350360 -0.989098 1.734082 0.064165 -0.017194 198712.000000 0 0 1
19.649756 -29.561263 -5.789012 35.965176 -0.984147 1.732461 0.069503 -0.023167 251610.000000 0 0 1
18.391756 -29.521363 -4.868312 35.120764 -1.013638 1.709860 0.056332 -0.008740 398698.000000 0 0 1
17.220556 -30.059963 -5.449412 35.069146 -1.050562 1.726819 0.058081 -0.015408 -33119.100000 0 0 1
16.208856 -30.029663 -4.449912 34.413797 -1.075848 1.700465 0.039953 -0.005734 405178.000000 0 0 1
14.924956 -30.824163 -4.815512 34.584281 -1.119871 1.710490 0.030491 -0.007151 386583.000000 0 0 1
14.980756 -32.204963 -4.538812 35.807590 -1.135400 1.697894 0.027618 0.009991 110779.000000 0 0 1
13.713056 -32.734963 -4.882612 35.825488 -1.174094 1.707511 0.037016 0.013958 156660.000000 0 0 1
13.782156 -34.226263 -5.183212 37.259235 -1.187984 1.710361 0.031604 0.005670 -147683.000000 0 0 1
13.850356 33.564957 -3.953712 36.524930 1.179438 1.679256 0.045463 -0.001466 -29207.800000 0 0 1
14.336356 32.229257 -4.150212 35.517324 1.152255 1.687914 0.038030 -0.005235 483492.000000 0 0 1
13.319056 31.174657 -4.746512 34.231358 1.167030 1.709904 0.035226 -0.012107 569416.000000 0 0 1
12.261756 30.662757 -3.955012 33.259546 1.190384 1.689992 0.026476 -0.008762 97080.600000 0 0 1
12.664256 29.463757 -3.280112 32.237485 1.164846 1.672721 0.033310 -0.014153 -56254.600000 0 0 1
11.521756 28.640957 -2.640112 30.984277 1.188324 1.656108 0.032210 -0.009968 270605.000000 0 0 1
10.868556 29.306457 -1.549512 31.295285 1.215661 1.620329 0.019339 -0.007552 -249540.000000 0 0 1
9.889956 28.482457 -0.966912 30.166148 1.236592 1.602855 0.003837 0.002515 -53463.300000 0 0 1
8.759456 29.331057 -0.321812 30.612783 1.280587 1.581309 -0.009524 0.012309 239939.000000 0 0 1
7.787056 28.511957 0.312788 29.557871 1.304183 1.560214 -0.013828 0.010301 -313261.000000 0 0 1
6.685256 29.310257 0.649688 30.070016 1.346547 1.549189 -0.009555 0.013431 -192668.000000 0 0 1
5.529856 28.597457 1.386288 29.160172 1.379785 1.523238 -0.017080 0.014368 139193.000000 0 0 1
4.871456 27.683357 0.516488 28.113450 1.396609 1.552424 -0.008346 0.007102 434466.000000 0 0 1
3.785556 27.068557 1.235888 27.359909 1.431847 1.525609 0.001743 0.002240 464753.000000 0 0 1
3.160756 25.897957 0.499888 26.094912 1.449350 1.551639 0.010556 -0.004205 54378.100000 0 0 1
2.015856 25.413157 1.186088 25.520560 1.491639 1.524304 0.029225 -0.002013 40770.300000 0 0 1
1.548656 24.258957 0.543788 24.314420 1.507044 1.548430 0.029632 -0.012941 222214.000000 0 1 0
0.156756 23.837757 1.088188 23.863096 1.564220 1.525179 0.034109 -0.011257 910596.000000 0 1 0
-0.945244 24.720157 0.746288 24.749476 -1.532577 1.540638 0.047456 -0.017666 772924.000000 0 1 0
-2.160344 23.976057 0.882988 24.089376 -1.480935 1.534133 0.047649 -0.017702 -373038.000000 0 1 0
-3.326744 24.914757 1.117288 25.160697 -1.438056 1.526376 0.070447 -0.024152 33383.300000 0 0 1
-4.610144 24.256957 1.070188 24.714341 -1.382982 1.527480 0.060489 -0.019796 519163.000000 0 1 0
-5.458944 24.937557 1.962988 25.603420 -1.355291 1.494052 0.065672 -0.018504 691977.000000 0 0 1
-6.867644 25.332657 1.391188 26.283900 -1.306061 1.517842 0.077395 -0.023191 568819.000000 0 0 1
-6.627444 26.299957 0.416988 27.125350 -1.323941 1.555423 0.090610 -0.029787 -176264.000000 0 0 1
-7.630044 26.347757 -0.543512 27.435693 -1.288917 1.590608 0.093868 -0.023886 -499374.000000 0 0 1
-7.314644 27.541957 -1.519712 28.537220 -1.311207 1.624075 0.088310 -0.031304 34998.200000 0 0 1
-7.609544 28.865957 -1.045312 29.870408 -1.313044 1.605798 0.087208 -0.038996 -38986.900000 0 0 1
-7.382944 29.648857 -2.186712 30.632405 -1.326747 1.642243 0.084014 -0.033626 -256950.000000 0 0 1
-7.458844 31.162957 -1.770812 32.092055 -1.335866 1.626003 0.064411 -0.036264 -906659.000000 0 0 1
-7.173344 32.140657 -2.742512 33.045424 -1.351209 1.653884 0.060281 -0.026438 -166363.000000 0 0 1
-5.867044 32.168857 -3.278612 32.863457 -1.390396 1.670727 0.053270 -0.023392 -455521.000000 0 0 1
-4.840044 32.717257 -2.295912 33.152920 -1.423926 1.640104 0.054498 -0.021308 -1419730.000000 0 0 1
-4.831744 34.118057 -2.283612 34.534076 -1.430113 1.636971 0.045180 -0.014512 115355.000000 0 0 1
-4.119044 -34.011963 -1.158312 34.280050 1.450278 1.604592 0.046223 -0.016004 -127174.000000 0 0 1
-4.059944 -32.475063 -1.175112 32.748951 1.446424 1.606686 0.038952 -0.003790 284740.000000 0 0 1
-5.339044 -31.927863 -0.901912 32.383750 1.405107 1.598651 0.038105 -0.003477 -127349.000000 0 0 1
-5.432944 -30.537663 -1.196612 31.040258 1.394729 1.609356 0.044274 0.002138 -426886.000000 0 0 1
-6.777144 -29.839263 -1.003012 30.615639 1.347463 1.603564 0.060195 -0.000532 -385640.000000 0 0 1
-7.026544 -29.667863 0.378288 30.490942 1.338241 1.558389 0.055914 -0.003891 -8488.050000 0 0 1
-8.255744 -29.017663 0.603088 30.175252 1.293613 1.550809 0.026650 0.001530 -63471.000000 0 0 1
-8.258444 -28.160763 1.887988 29.407397 1.285534 1.506551 0.036162 -0.004972 89775.000000 0 0 1
-7.298344 -27.124963 1.821988 28.148696 1.307957 1.506024 0.049132 0.001453 -154993.000000 0 0 1
-7.159744 -26.357263 3.009788 27.477738 1.305555 1.461041 0.050377 -0.005125 -145535.000000 0 0 1
-8.137644 -25.219763 3.390288 26.716133 1.258674 1.443553 0.041203 -0.007050 18390.700000 0 0 1
-8.049544 -24.000663 2.647188 25.452595 1.247197 1.466603 0.035338 -0.007610 198601.000000 0 0 1
-9.039444 -23.105963 3.211288 25.018183 1.197884 1.442083 0.038248 -0.012134 269587.000000 0 0 1
-8.475644 -21.732563 3.531988 23.592706 1.198942 1.420525 0.017055 -0.005988 -197996.000000 0 1 0
-7.722944 -21.830263 4.687688 23.625805 1.230765 1.371057 0.008743 -0.001056 -223731.000000 0 1 0
-7.060544 -20.600663 5.140988 22.375620 1.240609 1.338967 0.001162 -0.004667 82214.100000 0 1 0
-7.968044 -19.561963 5.772088 21.896966 1.183993 1.304042 0.007505 -0.005603 -349016.000000 0 1 0
-8.342644 -19.925663 7.045588 22.721621 1.174284 1.255516 0.013771 -0.000327 -15592.200000 0 1 0
-9.094644 -18.902463 7.669788 22.334756 1.122354 1.220260 0.015076 -0.006781 -319752.000000 0 1 0
-27.401544 28.589657 -5.919112 40.040591 -0.806615 1.719168 0.072729 -0.010320 68832.100000 0 0 1
-26.670054 29.594857 -5.134112 40.168475 -0.837334 1.698961 0.059944 -0.017371 428589.000000 0 0 1
-25.671674 28.942557 -4.364412 38.932692 -0.845217 1.683134 0.046513 -0.009958 273325.000000 0 0 1
-24.809144 29.965357 -3.570412 39.066150 -0.879257 1.662318 0.047883 -0.008991 -383801.000000 0 0 1
-25.565744 30.545557 -2.531912 39.913016 -0.873915 1.634275 0.037248 -0.010873 -9140.410000 0 0 1
-24.909344 31.563057 -1.863212 40.251379 -0.902680 1.617102 0.042252 -0.006247 1023980.000000 0 0 1
-23.541944 31.250557 -1.115312 39.141593 -0.925168 1.599294 0.025353 0.007854 1505900.000000 0 0 1
-22.393944 30.929357 -1.902712 38.232632 -0.944121 1.620584 0.047991 -0.001548 131993.000000 0 0 1
-21.267644 30.762757 -1.090812 37.414566 -0.965903 1.599955 0.047148 0.005280 459837.000000 0 0 1
-20.038944 30.086757 -1.824012 36.195293 -0.983229 1.621211 0.045914 -0.003174 1115190.000000 0 0 1
-18.850844 30.056057 -1.022112 35.493176 -1.010624 1.599598 0.047883 -0.003922 259017.000000 0 0 1
-17.819544 29.399457 -1.702812 34.420397 -1.025890 1.620288 0.048640 -0.006484 -432290.000000 0 0 1
-16.421144 29.763457 -1.198012 34.014005 -1.066632 1.606025 0.045922 -0.017011 -396388.000000 0 0 1
-16.012544 29.282457 0.051488 33.374638 -1.070390 1.569254 0.038249 -0.009868 217475.000000 0 0 1
-14.831244 29.960057 0.484088 33.433593 -1.111129 1.556317 0.038924 -0.015361 507502.000000 0 0 1
-14.108244 29.102257 1.581188 32.380303 -1.119397 1.521945 0.051017 -0.021046 319905.000000 0 0 1
-14.854444 29.155857 2.832088 32.844165 -1.099590 1.484461 0.040168 -0.017155 202651.000000 0 0 1
-14.308044 28.458057 3.929088 32.093907 -1.104930 1.448064 0.045229 -0.027267 472539.000000 0 0 1
-13.099844 29.156957 4.647488 32.300668 -1.148535 1.426413 0.056786 -0.024413 480261.000000 0 0 1
-13.359044 30.257857 5.528088 33.534485 -1.155028 1.405193 0.053263 -0.031634 -420118.000000 0 0 1
-13.464344 31.520057 4.838388 34.615207 -1.167091 1.430561 0.058802 -0.033665 -31743.100000 0 0 1
-13.364644 32.757457 5.786788 35.849011 -1.183423 1.408666 0.058342 -0.031490 -588061.000000 0 0 1
-14.486044 33.051957 6.535088 36.674033 -1.157731 1.391646 0.062912 -0.027843 -738658.000000 0 0 1
-14.220644 34.233857 7.281388 37.778331 -1.177087 1.376843 0.066258 -0.025684 239618.000000 0 0 1
-15.384944 -33.857463 8.169988 38.075885 1.144287 1.354544 0.046967 -0.015066 64915.700000 0 0 1
-15.427444 33.868357 9.325188 38.367053 -1.143368 1.325285 0.032924 -0.017973 -409442.000000 0 0 1
-16.652344 34.075057 9.953888 39.210839 -1.116233 1.314132 0.043724 -0.016691 -1277980.000000 0 0 1
-16.852944 33.287257 11.314488 38.988214 -1.102131 1.276358 0.045216 -0.008504 -147456.000000 0 0 1
-15.955844 33.639857 12.301888 39.211801 -1.127908 1.251678 0.042421 -0.014745 754054.000000 0 0 1
-14.555444 33.338957 12.056688 38.323762 -1.159150 1.250760 0.047450 -0.016023 909545.000000 0 0 1
-13.838944 33.259557 13.483488 38.464515 -1.176497 1.212645 0.047838 -0.013085 -286839.000000 0 0 1
-14.432944 32.360157 14.368488 38.235364 -1.151266 1.185547 0.041382 -0.009165 -347211.000000 0 0 1
-13.959944 31.050057 14.402888 36.965244 -1.148279 1.170563 0.045149 -0.016567 -459538.000000 0 0 1
-14.637144 30.091857 13.423788 36.055012 -1.118075 1.189295 0.054051 -0.023760 -120166.000000 0 0 1
-14.331244 30.288157 12.072588 35.616069 -1.128848 1.224980 0.052896 -0.017930 -124237.000000 0 0 1
-15.379944 29.866557 11.260188 35.430858 -1.095256 1.247380 0.026060 -0.013791 -255977.000000 0 0 1
-14.896544 29.606757 9.810188 34.564532 -1.104634 1.283018 0.022631 -0.012579 -731031.000000 0 0 1
-13.977044 28.605657 9.691288 33.280060 -1.116301 1.275311 0.007142 -0.008789 -580565.000000 0 0 1
-13.950744 28.157357 8.395588 32.526080 -1.110790 1.309722 0.018658 -0.009155 -289871.000000 0 0 1
-13.056144 26.940557 8.118088 31.018701 -1.119522 1.305997 0.031869 -0.001881 1255220.000000 0 0 1
-11.636944 27.194257 7.961488 30.632195 -1.166456 1.307872 0.032640 -0.002646 1625360.000000 0 0 1
-10.866644 26.013757 7.645888 29.210599 -1.175102 1.305961 0.049490 -0.002778 -15391.700000 0 0 1
-9.837344 26.270557 6.563688 28.809677 -1.212497 1.340949 0.058804 -0.010210 -824966.000000 0 0 1
-10.440044 26.608257 5.314788 29.073025 -1.196893 1.386954 0.062267 -0.017946 366373.000000 0 0 1
-9.633044 26.252757 4.216688 28.280439 -1.219115 1.421136 0.075910 -0.013428 -155575.000000 0 0 1
-10.177944 26.695257 2.839988 28.710500 -1.206545 1.471716 0.075454 -0.027374 -118753.000000 0 0 1
-9.956344 28.089057 2.613288 29.915768 -1.230157 1.483330 0.083245 -0.026742 134494.000000 0 0 1
-10.175344 28.433857 1.245788 30.225384 -1.227136 1.529568 0.082876 -0.029481 123.412000 0 0 1
-9.693644 29.824657 0.871088 31.372530 -1.256545 1.543027 0.091098 -0.038901 -14373.000000 0 0 1
-10.589644 30.764357 1.454288 32.568407 -1.239282 1.526128 0.077123 -0.040007 97819.600000 0 0 1
-10.065744 32.055857 1.461088 33.630818 -1.266540 1.527338 0.071097 -0.037816 -710033.000000 0 0 1
-10.711544 33.034457 2.376488 34.808910 -1.257240 1.502471 0.059021 -0.034186 188388.000000 0 0 1
-12.066644 33.363257 2.078988 35.539175 -1.223759 1.512264 0.069516 -0.023778 172522.000000 0 0 1
-12.242744 -34.250763 1.044588 36.388057 1.227505 1.542085 0.058508 -0.027561 -492872.000000 0 0 1
-13.710544 -33.837463 0.833888 36.519150 1.185825 1.547960 0.064255 -0.024550 282361.000000 0 0 1
-14.555644 33.777257 0.199688 36.780561 -1.163913 1.565367 0.057529 -0.027404 99824.300000 0 0 1
-14.578244 33.781157 -1.239112 36.813410 -1.163391 1.604462 0.062416 -0.025493 279320.000000 0 0 1
-13.277844 33.293757 -1.964012 35.897531 -1.191317 1.625535 0.059137 -0.028945 338295.000000 0 0 1
-13.232944 31.895557 -2.078212 34.594166 -1.177525 1.630907 0.054076 -0.028287 -164340.000000 0 0 1
-11.930244 31.362657 -2.097312 33.620614 -1.207303 1.633219 0.062641 -0.030743 -224622.000000 0 0 1
-11.737744 29.876557 -2.525812 32.198804 -1.196447 1.649321 0.076862 -0.040643 -171157.000000 0 0 1
-11.788244 29.568957 -3.920212 32.072635 -1.191437 1.693332 0.067232 -0.037544 624614.000000 0 0 1
-10.580244 29.780157 -4.703012 31.951801 -1.229427 1.718524 0.049555 -0.030682 841019.000000 0 0 1
-10.667444 29.057057 -6.051712 31.539342 -1.218951 1.763872 0.055839 -0.027186 -69172.000000 0 0 1
-10.915044 27.650857 -5.957812 30.318370 -1.194828 1.768592 0.048243 -0.019672 147729.000000 0 0 1
-10.905744 27.147757 -7.277012 30.147816 -1.188810 1.814582 0.032658 -0.014196 -3831.190000 0 0 1
-11.257544 25.601857 -7.266012 28.896060 -1.156527 1.824978 0.053548 -0.015767 -65150.400000 0 0 1
-10.310844 24.707557 -6.770512 27.615515 -1.175453 1.818492 0.034516 -0.016371 -210014.000000 0 0 1
-10.826544 23.399657 -6.937112 26.699841 -1.137448 1.833631 0.066941 -0.021772 183180.000000 0 0 1
-10.196444 22.411857 -5.895612 25.318314 -1.143827 1.805813 0.052528 -0.020105 433613.000000 0 0 1
-8.783444 22.192157 -5.956912 24.599299 -1.193924 1.815386 0.066139 -0.023848 737671.000000 0 1 0
-8.462644 20.892857 -5.493912 23.201527 -1.185944 1.809858 0.071339 -0.021076 -229638.000000 0 1 0
-8.328144 20.719657 -3.969012 22.680723 -1.188615 1.746697 0.052699 -0.028251 523724.000000 0 1 0
-9.563744 20.682957 -3.233812 23.015374 -1.137681 1.711769 0.052239 -0.026739 860095.000000 0 1 0
-10.292444 19.429057 -3.214612 22.220629 -1.083637 1.715974 0.056813 -0.026011 1014430.000000 0 1 0
-11.614844 19.561057 -2.355012 22.871065 -1.034967 1.673948 0.057924 -0.020414 610611.000000 0 1 0
-11.422844 19.547857 -0.984712 22.662077 -1.041962 1.614262 0.049341 -0.017315 115517.000000 0 1 0
-11.189144 18.264657 -0.482612 21.424928 -1.021155 1.593324 0.048967 -0.019466 -242148.000000 0 1 0
-10.790844 18.204557 1.023988 21.187183 -1.035721 1.522447 0.039303 -0.019259 298650.000000 0 1 0
-11.906944 18.527057 1.853488 22.101189 -0.999585 1.486834 0.050381 -0.013754 664233.000000 0 1 0
-11.513444 18.726657 3.205188 22.215317 -1.019554 1.426013 0.035058 -0.003318 -388807.000000 0 1 0
-12.704544 18.568257 4.143788 22.876988 -0.970748 1.388657 0.056444 -0.015990 110642.000000 0 1 0
-13.342544 17.294557 4.188788 22.241203 -0.913684 1.381330 0.025707 -0.019559 736054.000000 0 1 0
-14.574644 17.304357 4.902488 23.149415 -0.870817 1.357405 0.048195 -0.025491 637376.000000 0 1 0
-15.160444 15.873557 5.343688 22.591234 -0.808373 1.331995 0.035296 -0.026675 -8352.900000 0 1 0
-14.555444 15.304557 6.502588 22.099187 -0.810480 1.272130 0.035654 -0.024533 -28161.900000 0 1 0
-15.073144 15.817557 7.725688 23.175009 -0.809492 1.230928 0.032294 -0.024417 -1105150.000000 0 1 0
-14.125144 15.549957 8.914488 22.820801 -0.833375 1.169481 0.024434 -0.019920 385657.000000 0 1 0
-12.874544 16.203557 8.851888 22.509222 -0.899387 1.166626 0.020028 -0.023393 266694.000000 0 1 0
-11.944144 15.736957 7.889288 21.273346 -0.921568 1.190869 0.019265 -0.026645 -1099490.000000 0 1 0
-10.783044 16.658257 7.533188 21.225468 -0.996315 1.207976 0.026826 -0.036844 -253034.000000 0 1 0
-9.837544 16.873657 8.537688 21.316418 -1.042962 1.158710 0.025236 -0.030678 -391953.000000 0 1 0
-9.202344 18.094557 8.402288 21.970311 -1.100316 1.178363 0.029858 -0.029421 -133858.000000 0 1 0
-7.923244 18.219857 9.273088 21.925582 -1.160597 1.134115 0.038080 -0.022274 -406745.000000 0 1 0
-6.871044 17.451457 8.757488 20.699231 -1.195713 1.133951 0.024377 -0.016862 -335415.000000 0 1 0
-5.650144 17.497057 9.473188 20.683627 -1.258447 1.095048 0.029777 -0.022648 534350.000000 0 1 0
-4.692444 18.655157 8.991088 21.233784 -1.324373 1.133565 0.025116 -0.020102 -630332.000000 0 1 0
-5.009544 20.013257 9.233688 22.602809 -1.325525 1.149965 0.031575 -0.019844 -470470.000000 0 1 0
-4.301444 20.968257 8.532988 23.043049 -1.368463 1.191457 0.034629 -0.020182 95788.600000 0 1 0
-2.869544 21.437257 8.918288 23.395002 -1.437730 1.179697 0.041252 -0.016892 480476.000000 0 1 0
-1.829344 20.574357 8.522288 22.344575 -1.482116 1.179483 0.027737 -0.004918 434077.000000 0 1 0
-0.691044 21.315057 8.027688 22.787123 -1.538387 1.210779 0.025537 -0.012970 857491.000000 0 1 0
0.618556 20.497757 7.992288 22.009482 1.540629 1.199172 0.017072 -0.007884 208578.000000 0 1 0
1.007956 20.104257 9.295188 22.172001 1.520702 1.138198 0.017706 -0.002173 -355796.000000 0 1 0
2.238456 19.400857 9.214188 21.594101 1.455925 1.129956 0.013868 -0.014154 -68349.900000 0 1 0
2.810256 19.044857 10.547188 21.951020 1.424294 1.069586 0.000419 -0.020579 56693.000000 0 1 0
4.076056 18.392057 10.522888 21.578071 1.352701 1.061382 0.017005 -0.012024 391260.000000 0 1 0
4.540356 18.115157 11.874688 22.131018 1.325217 1.004437 0.010759 -0.008684 127112.000000 0 1 0
6.074756 18.109657 11.985188 22.550101 1.247148 1.010436 0.021852 -0.010864 168889.000000 0 1 0
6.778556 17.062457 11.260288 21.537649 1.192638 1.020642 0.014355 -0.009724 381944.000000 0 1 0
7.870156 16.660257 12.087188 22.036416 1.129479 0.990215 0.026013 -0.002683 -394436.000000 0 1 0
9.074256 16.095857 11.350588 21.685354 1.057448 1.019934 0.032213 -0.008990 -565287.000000 0 1 0
9.803456 17.144657 10.759388 22.490252 1.051364 1.071962 0.034883 -0.014951 -20690.200000 0 1 0
11.041056 16.547857 10.348688 22.423912 0.982411 1.091108 0.039220 -0.013113 67831.700000 0 1 0
12.057456 17.598957 9.886188 23.512597 0.970125 1.136840 0.046680 -0.004869 -367990.000000 0 1 0
13.104456 16.944857 9.216788 23.319608 0.912512 1.164470 0.048109 -0.007587 -439557.000000 0 1 0
13.916856 17.894257 8.572688 24.235806 0.909784 1.209251 0.050892 -0.005688 123163.000000 0 1 0
14.875156 17.405357 7.450388 24.077479 0.863620 1.256199 0.062322 -0.017997 509921.000000 0 1 0
16.068956 16.802757 7.929988 24.564786 0.807718 1.242089 0.080673 -0.017239 660948.000000 0 1 0
16.990656 16.524357 6.844488 24.669491 0.771486 1.289660 0.100762 -0.013980 142386.000000 0 1 0
18.419956 16.307957 7.344588 25.674641 0.724657 1.280680 0.088514 -0.012881 -534481.000000 0 0 1
18.627456 15.131357 8.031688 25.307076 0.682205 1.247842 0.081266 -0.015447 642880.000000 0 0 1
19.683956 15.386457 8.982088 26.549559 0.663467 1.225672 0.086631 -0.014587 425139.000000 0 0 1
19.740556 14.271157 10.018688 26.338747 0.625954 1.180591 0.059497 -0.016287 224270.000000 0 0 1
20.421556 13.072857 9.584888 26.073159 0.569420 1.194353 0.070856 -0.015899 490220.000000 0 0 1
20.539156 12.181157 10.653788 26.148436 0.535308 1.151153 0.067245 -0.015092 283808.000000 0 0 1
21.429256 10.967357 10.110988 26.109922 0.473038 1.173153 0.061839 -0.009447 93107.700000 0 0 1
22.816556 11.274257 10.110688 27.384852 0.458937 1.192640 0.057848 -0.017886 611296.000000 0 0 1
23.533656 10.330057 9.304188 27.333331 0.413625 1.223457 0.065949 -0.015258 -127582.000000 0 0 1
23.768856 8.863457 9.855688 27.214959 0.356930 1.200231 0.074711 -0.020656 -789675.000000 0 0 1
22.624056 8.033357 9.910188 25.972958 0.341194 1.179315 0.079340 -0.020012 185587.000000 0 0 1
22.724556 6.673457 10.183388 25.780649 0.285637 1.164727 0.084839 -0.027885 -359368.000000 0 0 1
23.701056 5.886257 9.262388 26.118574 0.243429 1.208280 0.098397 -0.031334 166642.000000 0 0 1
23.390356 5.919957 7.890888 25.385444 0.247888 1.254716 0.076423 -0.014534 800053.000000 0 0 1
24.470056 5.366757 7.099288 26.038157 0.215901 1.294651 0.081571 -0.012952 622924.000000 0 0 1
24.068456 4.895857 5.695388 25.213041 0.200676 1.342939 0.070034 -0.011408 -549824.000000 0 0 1
23.427656 3.682757 5.566788 24.359945 0.155921 1.340237 0.087229 -0.013653 216029.000000 0 1 0
23.121256 3.507457 4.208988 23.761530 0.150551 1.392722 0.083212 -0.012840 -414705.000000 0 1 0
22.170556 2.347057 3.929988 22.638177 0.105471 1.396312 0.071387 -0.010948 -472995.000000 0 1 0
22.856156 1.178857 4.141488 23.258235 0.051532 1.391776 0.089160 -0.011698 326535.000000 0 1 0
22.081856 0.067457 3.693188 22.388670 0.003055 1.405081 0.079856 -0.014060 34115.800000 0 1 0
22.678956 -1.269843 4.156988 23.091732 -0.055934 1.389789 0.084070 -0.016759 -343153.000000 0 1 0
22.601156 -1.589143 5.540688 23.324598 -0.070197 1.330957 0.086971 -0.017127 495883.000000 0 1 0
22.635856 -2.996343 5.658188 23.523927 -0.131606 1.327885 0.072659 -0.018950 -268180.000000 0 1 0
22.453156 -3.415743 7.131488 23.804824 -0.150970 1.266542 0.100438 -0.026751 -55820.500000 0 1 0
22.312856 -4.768843 7.270388 23.947108 -0.210558 1.262326 0.081093 -0.024818 375891.000000 0 1 0
22.712156 -5.187543 8.560888 24.820182 -0.224552 1.218647 0.128046 -0.032568 -47470.100000 0 1 0
22.301556 -6.656743 8.879488 24.910178 -0.290069 1.206320 0.120113 -0.031689 945900.000000 0 1 0
20.931756 -6.756043 9.308288 23.883609 -0.312209 1.170452 0.099644 -0.014512 1120940.000000 0 1 0
20.600856 -8.132343 9.518488 24.106678 -0.375979 1.164893 0.096421 -0.018973 -34935.100000 0 1 0
-26.027004 -32.749963 5.352388 42.173607 0.899284 1.443540 0.037748 -0.005482 -173272.000000 0 0 1
-26.718674 -33.860963 5.805388 43.521890 0.902756 1.437007 0.035802 -0.005823 -108045.000000 0 0 1
-26.965334 -33.816263 7.168788 43.841310 0.897638 1.406542 0.028948 0.004933 -71335.800000 0 0 1
-27.833924 33.638157 7.777588 44.347985 -0.879540 1.394508 0.028622 0.015785 149587.000000 0 0 1
-29.191014 33.649457 7.386188 45.154811 -0.856228 1.406483 0.036460 -0.001396 -335650.000000 0 0 1
-29.789944 32.454957 7.873288 44.752135 -0.828187 1.393945 0.044512 0.002296 257823.000000 0 0 1
-31.331614 32.536157 7.774788 45.833600 -0.804256 1.400341 0.056125 -0.005305 11056.300000 0 0 1
-31.817834 32.687457 6.492788 46.076031 -0.798879 1.429411 0.040491 -0.002265 818637.000000 0 0 1
-33.265004 32.696657 6.499288 47.094295 -0.776782 1.432349 0.044997 -0.004055 986521.000000 0 0 1
-33.896964 32.568457 5.130488 47.286683 -0.765413 1.462085 0.040438 0.002152 -549192.000000 0 0 1
-33.547714 31.367457 4.569388 46.154585 -0.751825 1.471632 0.042323 -0.002924 -58828.700000 0 0 1
-34.189421 31.143157 3.363188 46.369427 -0.738805 1.498202 0.054486 0.002640 -322837.000000 0 0 1
-33.788554 29.830157 2.659288 45.150597 -0.723258 1.511864 0.059082 -0.002327 -292098.000000 0 0 1
-34.370086 28.694357 3.253488 44.891581 -0.695641 1.498258 0.069195 -0.015869 94927.700000 0 0 1
-33.913944 27.472257 2.706788 43.728791 -0.680844 1.508857 0.051501 -0.011700 -453268.000000 0 0 1
-34.385968 26.225557 3.425088 43.380939 -0.651568 1.491760 0.065768 -0.016535 -1269570.000000 0 0 1
-35.752495 26.016357 3.396988 44.346716 -0.629062 1.494121 0.070402 -0.011439 -1045650.000000 0 0 1
-36.071404 25.004357 4.302888 44.100781 -0.606141 1.473071 0.073760 -0.019323 -64890.100000 0 0 1
34.836498 24.810257 4.302888 42.984245 0.618861 1.470525 0.078899 -0.022606 -290580.000000 0 0 1
34.341148 24.060757 3.207788 42.053827 0.611155 1.494444 0.075957 -0.019309 82127.400000 0 0 1
34.693298 22.682957 3.176388 41.571997 0.579052 1.494315 0.066258 -0.021174 -577898.000000 0 0 1
33.861158 22.022257 2.013088 40.442680 0.576635 1.520999 0.073976 -0.021184 1714310.000000 0 0 1
32.467838 21.725257 2.333888 39.135589 0.589707 1.511125 0.062759 -0.018658 1620640.000000 0 0 1
32.201348 20.663657 3.310688 38.404091 0.570519 1.484483 0.041512 -0.003904 -457682.000000 0 0 1
32.612808 19.228457 2.857788 37.967035 0.532736 1.495455 0.053036 -0.011712 -363828.000000 0 0 1
31.712938 18.615957 1.958788 36.825279 0.530817 1.517580 0.041290 -0.009146 256097.000000 0 0 1
31.908368 17.235857 1.781388 36.309669 0.495263 1.521716 0.045517 -0.011271 -439216.000000 0 0 1
31.354308 16.333957 2.893088 35.471971 0.480265 1.489146 0.056775 -0.015304 -376383.000000 0 0 1
29.975078 16.086157 2.782688 34.132288 0.492537 1.489179 0.030288 0.000840 -169202.000000 0 0 1
29.598128 15.020557 3.641488 33.390519 0.469616 1.461521 0.030424 -0.001007 451167.000000 0 0 1
28.061108 14.781557 3.643688 31.924860 0.484828 1.456414 0.025651 0.000108 439131.000000 0 0 1
27.455738 14.360557 2.434288 31.080040 0.481912 1.492393 0.027200 -0.018084 639545.000000 0 0 1
26.074428 14.697857 2.342188 30.023135 0.513292 1.492704 0.017998 -0.005973 280856.000000 0 0 1
25.330128 14.150857 1.127888 29.036775 0.509465 1.531943 0.035719 -0.013406 -573318.000000 0 0 1
25.736328 14.653257 -0.149912 29.615857 0.517586 1.575858 0.044951 -0.015442 354170.000000 0 0 1
27.011228 14.228357 -0.600312 30.535438 0.484823 1.590457 0.047559 -0.017718 -924223.000000 0 0 1
27.374528 15.060757 -1.827312 31.297448 0.502977 1.629215 0.061189 -0.020244 -229267.000000 0 0 1
27.662348 16.459857 -1.595412 32.228524 0.536755 1.620320 0.033012 -0.017262 704214.000000 0 0 1
28.702418 16.644357 -0.621812 33.185088 0.525504 1.589535 0.037889 -0.017830 -510795.000000 0 0 1
29.112188 18.058357 -0.383612 34.260340 0.555214 1.581994 0.046136 -0.001295 -375865.000000 0 0 1
29.761218 18.516957 -1.552812 35.085881 0.556572 1.615068 0.053986 0.004766 470922.000000 0 0 1
30.388478 19.820057 -1.388612 36.307334 0.577936 1.609052 0.048179 0.022724 442963.000000 0 0 1
30.293268 20.616557 -2.695612 36.742221 0.597563 1.644228 0.051428 0.016266 -268044.000000 0 0 1
31.236578 21.650157 -2.723412 38.103413 0.606082 1.642332 0.038216 0.019534 -35540.000000 0 0 1
31.137058 22.541257 -3.794512 38.626713 0.626611 1.669190 0.040607 0.013207 -37971.300000 0 0 1
32.221488 23.656257 -3.756912 40.149186 0.633297 1.664507 0.021022 0.020463 44398.600000 0 0 1
32.164548 24.529157 -2.607712 40.534403 0.651526 1.635174 0.040457 0.019812 400443.000000 0 0 1
33.013188 24.098057 -1.546212 40.902050 0.630547 1.608608 0.053844 0.019766 101250.000000 0 0 1
32.642918 24.971357 -0.302312 41.100124 0.653023 1.578152 0.064182 0.001072 161728.000000 0 0 1
33.237788 26.274657 -0.268612 42.369568 0.668925 1.577136 0.072436 0.000625 597827.000000 0 0 1
34.361208 26.321757 0.648488 43.289122 0.653682 1.555815 0.080584 -0.008735 928733.000000 0 0 1
35.448138 27.362557 0.264088 44.781132 0.657373 1.564899 0.071470 -0.004637 252586.000000 0 0 1
36.110408 27.245957 -0.973612 45.246565 0.646386 1.592316 0.053437 -0.003272 -137381.000000 0 0 1
35.243038 27.564357 -2.022412 44.787896 0.663744 1.615967 0.045195 -0.005640 -553368.000000 0 0 1
35.685488 27.268757 -3.455912 45.044228 0.652490 1.647594 0.043324 0.001982 242302.000000 0 0 1
-35.715688 28.062457 -4.025212 45.599497 -0.665971 1.659185 0.044551 0.002836 428785.000000 0 0 1
-35.277295 27.723057 -5.341812 45.183961 -0.666060 1.689297 0.042679 -0.000145 199794.000000 0 0 1
36.104798 27.746357 -6.490112 45.994981 0.655233 1.712374 0.027167 0.003576 9361.080000 0 0 1
35.082268 26.808357 -6.376212 44.610645 0.652500 1.714218 0.019384 0.010748 -941690.000000 0 0 1
34.081288 26.963657 -7.310112 44.068251 0.669326 1.737448 0.008574 0.008105 -431299.000000 0 0 1
32.867008 26.070857 -6.998612 42.531287 0.670595 1.736100 0.006862 0.008412 -537868.000000 0 0 1
32.953358 24.683157 -7.373412 41.827613 0.642882 1.748003 0.009276 0.004003 -492074.000000 0 0 1
34.054128 23.945157 -6.909712 42.199506 0.612837 1.735276 0.012617 0.009979 -321471.000000 0 0 1
34.025068 22.427457 -7.303512 41.400934 0.582777 1.748134 0.013848 0.014724 -141844.000000 0 0 1
33.049758 21.772557 -6.512812 40.109194 0.582523 1.733895 0.022130 0.019902 265497.000000 0 0 1
33.219338 20.371357 -6.651912 39.531817 0.550096 1.739868 0.031038 0.009626 -294843.000000 0 0 1
32.103368 19.517157 -6.054912 38.055323 0.546243 1.730584 0.042307 0.010118 -449797.000000 0 0 1
30.881058 19.539957 -6.729812 37.158310 0.564152 1.752913 0.033262 0.003146 -481339.000000 0 0 1
29.898588 18.773657 -6.072512 35.822495 0.560690 1.741136 0.081078 -0.006899 -390357.000000 0 0 1
28.676718 18.628757 -6.971112 34.899587 0.576103 1.771897 0.062714 -0.020131 -508098.000000 0 0 1
28.734658 17.562057 -7.878412 34.585774 0.548600 1.800607 0.051924 -0.019509 209960.000000 0 0 1
27.696938 17.572357 -8.861212 33.976892 0.565367 1.834648 0.058091 -0.023532 181390.000000 0 0 1
27.701358 16.416257 -9.891812 33.685407 0.534972 1.868842 0.063941 -0.024224 276861.000000 0 0 1
26.684428 16.550457 -10.907512 33.240790 0.555161 1.905126 0.062133 -0.021564 782338.000000 0 0 1
26.796928 15.398157 -11.711012 33.050361 0.521552 1.933003 0.070232 -0.022743 104482.000000 0 0 1
25.837128 15.441257 -12.927312 32.758281 0.538681 1.976459 0.065771 -0.013337 33799.600000 0 0 1
24.444728 15.388357 -12.668312 31.540964 0.561840 1.984110 0.052619 -0.006982 538027.000000 0 0 1
23.598728 15.297557 -13.807912 31.330076 0.575134 2.027201 0.051947 -0.009289 69080.900000 0 0 1
23.508428 13.846457 -14.363712 30.833209 0.532292 2.055394 0.055920 -0.009806 53215.000000 0 0 1
24.732528 13.394957 -14.977112 31.865917 0.496366 2.060092 0.068688 -0.013476 845982.000000 0 0 1
24.951828 13.889457 -16.304212 32.883705 0.507935 2.089569 0.089655 -0.022456 -762384.000000 0 0 1
26.413928 13.677357 -16.695712 34.110299 0.477793 2.082270 0.107417 -0.024131 -427911.000000 0 0 1
26.665328 12.294457 -16.934712 33.896576 0.432018 2.093933 0.115174 -0.030247 726817.000000 0 0 1
28.028978 12.145157 -17.362712 35.136764 0.408886 2.087649 0.102434 -0.016796 862995.000000 0 0 1
28.256108 10.746457 -18.013612 35.190683 0.363429 2.108175 0.074447 -0.012270 -195628.000000 0 0 1
27.711098 10.596957 -19.323612 35.406248 0.365250 2.148102 0.061115 -0.018653 -8653.870000 0 0 1
27.840288 9.311057 -19.880012 35.454087 0.322751 2.166058 0.032784 -0.005422 1000850.000000 0 0 1
29.252278 8.963657 -20.526012 36.842368 0.297342 2.161723 0.045961 -0.007972 239460.000000 0 0 1
29.416498 9.732557 -21.689112 37.821563 0.319517 2.181518 0.056013 -0.011805 -68037.500000 0 0 1
30.049708 9.166557 -22.776612 38.804443 0.296080 2.198094 0.038665 -0.009470 -2431.680000 0 0 1
31.503858 8.611457 -22.617212 39.726421 0.266828 2.176480 0.036439 -0.005003 -226781.000000 0 0 1
32.469078 9.606557 -22.598712 40.709075 0.287662 2.159312 0.041457 -0.008679 -1217050.000000 0 0 1
33.762748 9.146357 -22.679912 41.688816 0.264551 2.146027 0.033151 -0.002424 -53603.300000 0 0 1
34.888288 10.217357 -22.338412 42.668392 0.284893 2.121791 0.045653 -0.005090 641908.000000 0 0 1
34.945888 10.795557 -21.013512 42.182068 0.299622 2.092274 0.040066 -0.005724 284984.000000 0 0 1
35.946898 11.805857 -20.949112 43.248388 0.317326 2.076463 0.026610 0.002258 226112.000000 0 0 1
36.060058 12.445657 -19.555412 42.867660 0.332336 2.044495 0.028304 0.009141 -47074.900000 0 0 1
-35.780547 11.574557 -18.638712 41.971651 -0.312863 2.030942 0.026649 0.003659 210808.000000 0 0 1
-35.994310 12.072057 -17.323412 41.730390 -0.323599 1.998879 0.030694 -0.001355 -238464.000000 0 0 1
-35.580215 11.131157 -16.217312 40.655326 -0.303201 1.981111 0.028139 -0.007691 -775285.000000 0 0 1
35.904758 10.211257 -15.878812 40.565479 0.277083 1.972989 0.023334 -0.006184 -403889.000000 0 0 1
-36.069754 9.241557 -14.943712 40.121665 -0.250818 1.952455 0.025278 -0.005711 429061.000000 0 0 1
35.342358 8.059057 -14.724912 39.126126 0.224195 1.956644 0.048280 -0.002426 437.448000 0 0 1
34.231968 8.357957 -13.949712 37.898253 0.239471 1.947743 0.049761 -0.009264 -70800.000000 0 0 1
34.420198 8.134557 -12.546012 37.527636 0.232073 1.911674 0.047555 -0.013800 -708382.000000 0 0 1
33.311108 8.796457 -11.736412 36.397128 0.258176 1.899117 0.057390 -0.019114 -386958.000000 0 0 1
33.361598 10.226057 -11.770612 36.825477 0.297429 1.896138 0.059628 -0.024351 679542.000000 0 0 1
32.416628 10.840257 -10.855812 35.863597 0.322714 1.878318 0.051387 -0.020573 112914.000000 0 0 1
32.763398 10.658257 -9.318612 35.691389 0.314512 1.834946 0.061289 -0.018571 540176.000000 0 0 1
33.907248 11.415857 -8.859312 36.857980 0.324759 1.813537 0.054211 -0.016575 656717.000000 0 0 1
33.712378 12.818157 -8.547712 37.066062 0.363340 1.803498 0.058179 -0.018221 -451713.000000 0 0 1
33.328578 13.086057 -7.054712 36.493944 0.374144 1.765333 0.047042 -0.016054 -290643.000000 0 0 1
34.448948 12.852657 -6.254912 37.296712 0.357098 1.739299 0.056995 -0.015534 -116632.000000 0 0 1
34.143198 12.972457 -4.887612 36.850120 0.363097 1.703823 0.055506 -0.013911 -186001.000000 0 0 1
35.361038 12.796457 -3.968112 37.813995 0.347219 1.675928 0.066083 -0.003003 388260.000000 0 0 1
-36.195084 13.945257 -4.026112 38.996972 -0.367753 1.674222 0.063040 0.001453 -181907.000000 0 0 1
-35.038011 13.727957 -3.295512 37.775381 -0.373419 1.658147 0.049708 -0.005499 -462898.000000 0 0 1
-34.072440 14.948657 -3.239712 37.348216 -0.413444 1.657649 0.051967 -0.017975 281760.000000 0 0 1
-34.217813 15.864057 -2.165112 37.778495 -0.434122 1.628138 0.076206 -0.018890 -186288.000000 0 0 1
-33.137964 16.738057 -2.209012 37.190952 -0.467721 1.630228 0.061180 -0.014824 -364576.000000 0 0 1
-33.249764 17.862657 -1.115012 37.760622 -0.492983 1.600329 0.076076 -0.006988 337151.000000 0 0 1
-34.438413 18.636157 -1.297412 39.178998 -0.496019 1.603917 0.052611 0.002659 621810.000000 0 0 1
-34.803330 19.551257 -0.256012 39.919781 -0.511830 1.577210 0.045277 0.010497 252615.000000 0 0 1
36.209148 20.134357 -0.518412 41.433845 0.507482 1.583308 0.040699 0.008869 622138.000000 0 0 1
36.188068 21.212357 -1.403412 41.970346 0.530188 1.604241 0.050529 0.012326 -37721.200000 0 0 1
36.010908 20.791657 -2.742112 41.672505 0.523614 1.636645 0.026693 0.024466 -176750.000000 0 0 1
36.194908 21.948257 -3.696912 42.490758 0.545105 1.657912 0.051693 -0.011907 175127.000000 0 0 1
-34.872744 22.235757 -3.825612 41.535195 -0.567627 1.663032 0.048059 0.000112 -112573.000000 0 0 1
-34.627623 23.472457 -4.474412 42.071948 -0.595707 1.677349 0.054578 -0.009832 -321528.000000 0 0 1
-33.155004 23.802557 -4.728012 41.087347 -0.622650 1.686124 0.047663 -0.022164 -158945.000000 0 0 1
-32.717434 22.991657 -5.837312 40.411891 -0.612559 1.715749 0.038196 -0.013282 -624622.000000 0 0 1
-31.409724 23.315757 -6.194012 39.605063 -0.638561 1.727835 0.065224 -0.009787 -462738.000000 0 0 1
-30.763134 22.570257 -7.398212 38.865414 -0.632973 1.762320 0.068368 -0.029441 -282816.000000 0 0 1
-31.495104 22.708957 -8.591212 39.767414 -0.624702 1.788550 0.063990 -0.040025 -69755.900000 0 0 1
-30.788074 22.357457 -9.776412 39.285361 -0.628076 1.822296 0.041174 -0.036307 -19566.200000 0 0 1
-31.735114 22.216457 -10.966312 40.261003 -0.610766 1.846663 0.024930 -0.017941 -186607.000000 0 0 1
-32.205314 23.454157 -11.466412 41.457910 -0.629448 1.851029 0.031614 -0.021033 -52666.000000 0 0 1
-32.731394 23.332257 -12.756512 42.171874 -0.619292 1.878099 0.024522 -0.012589 -712727.000000 0 0 1
-33.107604 24.727757 -13.317912 43.415920 -0.641508 1.882575 0.033148 -0.010927 -510870.000000 0 0 1
-32.118474 25.700057 -13.421012 43.269075 -0.674841 1.886174 0.028697 -0.012626 -859243.000000 0 0 1
-31.194874 25.613357 -14.460912 42.875193 -0.687461 1.914822 0.020724 -0.016711 -281809.000000 0 0 1
-29.847964 26.234357 -14.072712 42.156656 -0.721053 1.911149 0.004896 -0.009040 141613.000000 0 0 1
-28.906054 25.617557 -13.177912 40.810250 -0.725158 1.899596 0.016831 -0.015194 851232.000000 0 0 1
-29.353514 25.455657 -11.782512 40.601069 -0.714401 1.865234 0.033774 -0.015804 -183322.000000 0 0 1
-29.725424 26.680257 -10.948612 41.416289 -0.731464 1.838332 0.055664 -0.003474 247886.000000 0 0 1
-28.557974 27.382957 -10.553612 40.948295 -0.764397 1.831469 0.054955 0.001521 455281.000000 0 0 1
-28.929964 28.592757 -9.908912 41.864962 -0.779536 1.809751 0.038142 -0.001355 452646.000000 0 0 1
-27.652904 29.367157 -9.488712 41.438492 -0.815453 1.801829 0.041347 -0.007866 416850.000000 0 0 1
-27.899264 30.703257 -9.165812 42.486127 -0.833209 1.788242 0.028257 -0.017351 -721114.000000 0 0 1
-26.716884 31.261657 -8.721112 42.037374 -0.863625 1.779775 0.055809 -0.017455 -707909.000000 0 0 1
34.791348 -24.862943 33.892134 54.564463 -0.620477 0.900601 0.015184 -0.001601 -93174.700000 0 0 1
34.098258 -23.699543 -34.127218 53.749666 -0.607387 2.258713 0.014093 -0.007838 16380.400000 0 0 1
32.974078 -24.001743 -33.334542 52.674142 -0.629205 2.256018 0.011129 -0.004630 134370.000000 0 0 1
32.246328 -22.706343 -32.883682 51.349199 -0.613508 2.265807 0.004761 -0.007686 120785.000000 0 0 1
31.746558 -21.892943 -33.965082 51.388439 -0.603723 2.292878 0.001776 -0.008085 131430.000000 0 0 1
31.564288 -20.596243 -33.600622 50.492686 -0.578143 2.298900 -0.003400 0.000792 -4649.720000 0 0 1
31.300968 -19.570643 33.711604 49.992329 -0.558772 0.830732 -0.009294 0.002137 -101681.000000 0 0 1
32.410058 -19.279143 32.873697 50.027765 -0.536625 0.853819 0.011370 -0.009665 86860.800000 0 0 1
32.102398 -18.836543 31.550810 48.793780 -0.530631 0.867657 0.005133 -0.008382 78855.500000 0 0 1
33.381098 -18.696243 30.656600 49.027282 -0.510553 0.895285 0.005448 -0.007428 434615.000000 0 0 1
34.125608 -17.500143 30.878160 49.236906 -0.473847 0.892928 -0.000400 -0.011714 460189.000000 0 0 1
35.276248 -17.584743 30.053770 49.566783 -0.462436 0.919360 0.010547 -0.006991 336696.000000 0 0 1
-36.024856 -16.550443 30.216850 49.847422 0.430658 0.919539 0.010348 -0.010759 122370.000000 0 0 1
-34.823867 -16.744243 29.470120 48.595878 0.448192 0.919230 0.020517 -0.010973 135537.000000 0 0 1
-33.971144 -15.689143 29.784960 47.826057 0.432654 0.898509 0.021580 -0.013983 -706116.000000 0 0 1
-32.799364 -16.210743 30.616190 47.706788 0.459029 0.874009 0.056887 -0.025073 -682975.000000 0 0 1
-31.911554 -15.183343 31.064380 47.051853 0.444096 0.849690 0.051939 -0.025872 37074.700000 0 0 1
-30.681074 -15.772743 31.411710 46.656224 0.474854 0.832189 0.058088 -0.028193 -132002.000000 0 0 1
-29.688574 -14.696043 31.932620 46.011709 0.459645 0.803751 0.057519 -0.032349 -292938.000000 0 0 1
-29.949584 -14.109843 33.194718 46.882348 0.440278 0.784073 0.062472 -0.031364 3193.570000 0 0 1
-29.267784 -12.926843 33.490324 46.317473 0.415909 0.762574 0.059569 -0.031343 -243179.000000 0 0 1
-29.800614 -12.399043 -33.622162 46.607538 0.394280 2.376602 0.054394 -0.015204 -128312.000000 0 0 1
-29.487244 -13.236943 -32.547752 45.870147 0.421942 2.359674 0.064688 -0.019125 419121.000000 0 0 1
-30.040664 -12.760443 -31.292492 45.216042 0.401678 2.335144 0.070251 -0.010780 -747034.000000 0 0 1
-29.974914 -13.720143 -30.094942 44.636793 0.429256 2.310702 0.067387 -0.016258 -148003.000000 0 0 1
-31.008664 -14.671143 -30.054842 45.607819 0.441922 2.290264 0.071289 -0.014371 -77994.100000 0 0 1
-31.007764 -15.387843 -28.852812 45.063865 0.460649 2.265639 0.071981 -0.014278 -43092.000000 0 0 1
-32.067914 -16.482743 -28.830062 46.164969 0.474781 2.245289 0.068235 -0.017497 -60983.500000 0 0 1
-31.808164 -17.625443 -29.649522 46.920248 0.505999 2.254816 0.064131 -0.017442 142666.000000 0 0 1
-32.981244 -18.401043 -29.677972 48.032727 0.508907 2.236827 0.052804 -0.016433 105484.000000 0 0 1
-32.729634 -19.785243 -30.329292 48.811379 0.543726 2.241270 0.049877 -0.014610 325396.000000 0 0 1
-33.914594 -20.564243 -30.248162 49.880247 0.545078 2.222341 0.056063 -0.013323 248759.000000 0 0 1
-33.878444 -21.615343 -31.162072 50.853188 0.567912 2.230376 0.047378 -0.009583 226222.000000 0 0 1
-35.185206 -22.464943 -31.236842 52.138399 0.568232 2.213190 0.038849 -0.006282 440481.000000 0 0 1
-35.644125 -23.011043 -29.996222 51.959456 0.573260 2.186215 0.041558 -0.008077 26780.600000 0 0 1
35.865498 -24.085043 -30.021692 52.609175 -0.591367 2.178100 0.048085 -0.012785 323244.000000 0 0 1
-36.021457 -25.492573 -30.480112 53.632582 0.615879 2.175251 0.043298 -0.009844 164553.000000 0 0 1
-35.616021 -25.479813 -31.861752 54.156191 0.620989 2.199789 0.039148 -0.009326 42269.600000 0 0 1
-34.788583 -26.634193 -32.082222 54.303726 0.653412 2.202837 0.021762 -0.004986 114542.000000 0 0 1
-35.189790 -27.447643 -33.326002 55.698445 0.662419 2.212210 0.026071 -0.006803 620153.000000 0 0 1
35.996488 -28.118583 -33.232692 56.487288 -0.663140 2.199778 0.023506 -0.001096 -31862.800000 0 0 1
35.916438 -29.302473 -34.101383 57.545893 -0.684332 2.205072 0.019723 -0.002165 337382.000000 0 0 1
-35.755863 -30.600043 -33.609442 57.831124 0.707854 2.190956 0.022803 -0.006666 205948.000000 0 0 1
36.116458 -31.100753 -32.394042 57.628373 -0.710917 2.167743 0.029503 -0.005852 129617.000000 0 0 1
-35.432932 -31.827493 -31.532562 57.120788 0.731845 2.155597 0.017188 -0.010622 40671.700000 0 0 1
-35.934626 -32.059463 -30.066752 56.772494 0.728467 2.128926 0.014190 -0.004826 -352893.000000 0 0 1
35.456698 -32.955133 -30.043332 56.972099 -0.748848 2.126256 0.025696 -0.002867 -280309.000000 0 0 1
34.884708 -33.155393 -28.743752 56.057348 -0.759988 2.109188 0.030265 -0.007504 284396.000000 0 0 1
33.875818 34.239797 -28.689192 56.062505 0.790742 2.108000 0.033800 -0.011334 583798.000000 0 0 1
32.777148 -34.095534 -29.570962 55.778927 -0.805110 2.129569 0.041307 -0.013549 428485.000000 0 0 1
31.591928 33.824332 -29.103012 54.672851 0.819511 2.132126 0.053234 -0.012584 451938.000000 0 0 1
30.346038 -34.256910 -29.829462 54.627967 -0.845861 2.148435 0.050896 -0.004334 -469387.000000 0 0 1
30.175918 34.002649 -31.188862 55.131763 0.844954 2.172096 0.049054 -0.003883 96384.000000 0 0 1
29.000478 -34.122523 -31.864192 54.960905 -0.866365 2.189232 0.044721 0.009675 197368.000000 0 0 1
28.860648 33.746239 -33.236342 55.465305 0.863276 2.213332 0.034070 -0.006553 81791.900000 0 0 1
28.591778 32.334166 -33.031652 54.351432 0.846746 2.224011 0.032997 0.002428 194872.000000 0 0 1
28.050978 31.818676 34.159763 54.462602 0.848247 0.892824 0.036211 0.004237 356095.000000 0 0 1
27.937468 30.256956 -34.214195 53.540608 0.825235 2.264036 0.036219 0.003465 1732160.000000 0 0 1
29.249178 29.581556 -34.113928 53.799098 0.791048 2.257638 0.038337 0.002679 1448770.000000 0 0 1
29.140238 28.203716 -33.895782 52.853828 0.769068 2.267003 0.036163 0.002745 -496432.000000 0 0 1
30.454898 27.461516 -33.721752 53.092299 0.733760 2.259003 0.050277 -0.004281 -291943.000000 0 0 1
31.034948 27.671696 -32.443362 52.739573 0.728172 2.233387 0.049535 -0.005920 -47593.200000 0 0 1
32.126558 26.795406 -32.198802 52.790836 0.695166 2.226771 0.054666 -0.011115 346364.000000 0 0 1
32.885278 27.094756 -30.878982 52.622038 0.689156 2.197906 0.057443 -0.015671 289998.000000 0 0 1
33.664018 28.360966 -30.831332 53.741805 0.700107 2.181805 0.035005 -0.007137 664747.000000 0 0 1
32.979258 29.631816 -30.955282 54.073149 0.731985 2.180312 0.056183 -0.001737 47968.300000 0 0 1
32.131728 29.950536 -29.707452 53.028438 0.750279 2.165445 0.055869 0.005750 -41253.800000 0 0 1
32.904428 30.254586 -28.568712 53.049153 0.743468 2.139491 0.039072 0.004334 -200899.000000 0 0 1
32.103418 30.310536 -27.432342 51.979722 0.756680 2.126747 0.046471 -0.000563 -470781.000000 0 0 1
32.901928 30.679586 -26.175722 52.047501 0.750460 2.097770 0.049990 -0.007930 -141263.000000 0 0 1
33.287168 32.043596 -26.139452 53.085766 0.766365 2.085642 0.042309 -0.003304 8314.770000 0 0 1
33.873578 32.207966 -24.861812 52.942252 0.760198 2.059637 0.032367 -0.015068 -115155.000000 0 0 1
34.267428 33.643791 -24.585612 53.950103 0.776215 2.043966 0.043507 -0.013802 962114.000000 0 0 1
33.082588 -34.090879 -24.463412 53.433175 -0.800407 2.046351 0.060077 -0.010598 1057760.000000 0 0 1
33.317458 -32.738463 -24.096612 52.559554 -0.776633 2.047061 0.048302 -0.012344 -1142930.000000 0 0 1
33.542348 -31.870403 -25.314372 52.741152 -0.759844 2.071421 0.038798 -0.013526 77377.100000 0 0 1
34.836368 -32.033833 -25.832222 53.916998 -0.743513 2.070438 0.041916 -0.017985 -229251.000000 0 0 1
35.897428 -31.375143 -25.172772 53.913759 -0.718276 2.056587 0.039043 -0.009706 -309340.000000 0 0 1
-35.132466 -31.756693 -25.707732 53.885668 0.734973 2.068125 0.006661 -0.009344 -161583.000000 0 0 1
-34.637469 -33.058173 -25.434622 54.217313 0.762073 2.059094 0.006716 -0.011529 -167018.000000 0 0 1
-34.337093 -33.289083 -24.035212 53.524671 0.769902 2.036497 0.017316 -0.013707 -1009710.000000 0 0 1
-33.080784 -32.688053 -23.467212 52.091814 0.779427 2.038118 0.005237 -0.004649 -867190.000000 0 0 1
-33.203764 -31.286593 -23.501912 51.319399 0.755679 2.046488 -0.006113 -0.002585 -377003.000000 0 0 1
-32.727304 -30.736803 -22.308812 50.134924 0.754044 2.031943 0.006799 -0.008346 -615515.000000 0 0 1
-32.662184 -29.204543 -22.294312 49.160553 0.729568 2.041485 0.004447 0.005612 303469.000000 0 0 1
-33.907934 -28.543023 -22.467512 49.691461 0.699703 2.039960 -0.014509 0.008621 -50148.400000 0 0 1
-34.345509 -28.505063 -23.810812 50.587621 0.692738 2.060863 0.002663 0.006563 194516.000000 0 0 1
-35.594114 -27.607143 -24.064412 51.070454 0.659691 2.061447 0.006195 0.005283 242672.000000 0 0 1
-35.320998 -26.278753 -23.766312 50.029825 0.639649 2.065809 -0.000412 0.009824 -103349.000000 0 0 1
-36.208234 -25.251833 -24.226812 50.355036 0.608983 2.072728 0.018262 0.001863 26911.300000 0 0 1
-35.933626 -24.728643 -25.730122 50.643563 0.602746 2.103731 0.021837 -0.000573 -152584.000000 0 0 1
-34.809438 -23.897743 -25.825922 49.495225 0.601629 2.119740 0.023618 -0.004987 -316130.000000 0 0 1
-34.763520 -23.264843 -27.047142 49.812680 0.589776 2.144775 0.049337 -0.013949 635248.000000 0 0 1
-33.494274 -22.323543 -27.090722 48.519214 0.587879 2.163192 0.038986 -0.018181 405718.000000 0 0 1
-33.491374 -21.223843 -26.174592 47.510345 0.564839 2.154267 0.047242 -0.012728 -358185.000000 0 0 1
-34.309691 -20.132843 -26.496092 47.796748 0.530655 2.158377 0.050269 -0.012466 -198797.000000 0 0 1
-35.544433 -20.009743 -25.578712 48.146309 0.512731 2.130896 0.035905 -0.006288 -146328.000000 0 0 1
-35.334231 -19.522143 -24.285312 47.110491 0.504760 2.112384 0.037638 -0.018373 293143.000000 0 0 1
-34.490001 -20.194143 -23.302312 46.264039 0.529695 2.098651 0.023370 -0.011088 412966.000000 0 0 1
-35.137121 -21.465543 -22.655412 46.996324 0.548401 2.073810 0.032855 -0.006938 1006690.000000 0 0 1
-36.172644 -21.213343 -21.670112 47.202329 0.530395 2.047767 0.018096 -0.002913 398397.000000 0 0 1
35.677218 -22.404943 -21.248012 47.183932 -0.560747 2.037923 0.010891 0.011423 -53973.900000 0 0 1
34.671418 -22.085443 -20.117412 45.766629 -0.567177 2.025911 0.015929 0.003992 464771.000000 0 0 1
33.398978 -21.602043 -20.550912 44.771420 -0.574114 2.047686 0.038462 0.000793 155985.000000 0 0 1
32.411738 -21.660143 -19.560112 43.615142 -0.589119 2.035850 0.051869 -0.005563 381750.000000 0 0 1
31.063418 -21.014343 -20.001112 42.503918 -0.594778 2.060734 0.058036 -0.009236 -174781.000000 0 0 1
30.547688 -21.608043 -21.185612 42.998825 -0.615645 2.085989 0.053107 -0.006774 -173191.000000 0 0 1
29.256008 -21.144343 -21.459012 41.993886 -0.625822 2.107148 0.076724 -0.012933 -317796.000000 0 0 1
29.215958 -19.823443 -22.299312 41.758837 -0.596160 2.134124 0.063545 -0.017115 -396227.000000 0 0 1
29.736538 -18.609443 -21.697612 41.247539 -0.559182 2.124727 0.077342 -0.013381 236203.000000 0 0 1
29.780538 -17.520643 -22.545712 41.257272 -0.531791 2.148935 0.054897 -0.015411 -420122.000000 0 0 1
30.501978 -16.438543 -21.831112 40.953557 -0.494307 2.133021 0.050919 -0.022137 -852853.000000 0 0 1
29.927008 -16.125243 -20.583412 39.740737 -0.494219 2.115240 0.051757 -0.023841 723573.000000 0 0 1
30.847148 -15.777143 -19.508112 39.762184 -0.472775 2.083597 0.045451 -0.025753 10505.300000 0 0 1
31.798028 -16.820443 -18.968012 40.667277 -0.486560 2.056035 0.055136 -0.029395 -226035.000000 0 0 1
32.875508 -17.032143 -19.862612 42.016857 -0.478007 2.063182 0.048485 -0.026092 -203748.000000 0 0 1
33.734598 -18.095643 -19.601612 43.008123 -0.492351 2.044028 0.047565 -0.020321 663431.000000 0 0 1
34.964258 -18.157343 -20.590912 44.454180 -0.478977 2.052392 0.030676 -0.014228 1122580.000000 0 0 1
35.983488 -17.153743 -20.444912 44.800187 -0.444844 2.044694 0.036412 -0.019369 509030.000000 0 0 1
-35.576829 -17.296143 -21.536312 45.040871 0.452517 2.069344 0.031962 -0.008202 -42732.000000 0 0 1
-34.666427 -16.059843 -21.760612 43.968215 0.433833 2.088535 0.046338 -0.013267 -243676.000000 0 0 1
-33.669874 -15.947243 -20.796012 42.666721 0.442334 2.079913 0.058721 -0.016934 -212000.000000 0 0 1
-32.640674 -15.046443 -21.124612 41.690026 0.431941 2.102157 0.064065 -0.022084 -177324.000000 0 0 1
-31.483194 -14.924243 -20.131912 40.239513 0.442663 2.094744 0.065720 -0.022985 -369871.000000 0 0 1
-30.533644 -15.976843 -20.111512 39.900324 0.482077 2.099071 0.060543 -0.026731 372281.000000 0 0 1
-30.962904 -17.270643 -19.677012 40.548259 0.508801 2.077473 0.051878 -0.028231 -621451.000000 0 0 1
-29.839064 -18.254943 -19.960412 40.274443 0.549036 2.089333 0.037303 -0.034008 31663.900000 0 0 1
-30.291774 -19.518243 -19.576312 41.009577 0.572387 2.068444 0.041718 -0.028948 -576312.000000 0 0 1
-29.226734 -20.364243 -19.572612 40.644698 0.608553 2.073223 0.040180 -0.029687 -913888.000000 0 0 1
-29.636554 -21.780843 -19.049612 41.420021 0.633787 2.048694 0.026815 -0.011834 -472870.000000 0 0 1
-30.505174 -22.347843 -19.953412 42.756641 0.632267 2.056323 0.023458 -0.006211 -419680.000000 0 0 1
-30.857634 -23.663443 -19.674012 43.580028 0.654204 2.039181 0.014298 0.007869 -132320.000000 0 0 1
-31.950814 -24.163243 -20.623412 45.055987 0.647498 2.046235 0.002461 0.011458 -183483.000000 0 0 1
-31.437884 -24.236243 -21.929912 45.350381 0.656759 2.075521 -0.000711 0.002867 91604.600000 0 0 1
-32.291244 -24.997243 -22.735912 46.738724 0.658759 2.078815 0.006028 0.007851 -121688.000000 0 0 1
-31.790654 -25.151383 -24.205512 47.213817 0.669325 2.109098 0.011240 0.006593 292250.000000 0 0 1
-30.566174 -25.848923 -24.341112 46.850267 0.701975 2.117122 0.006548 0.004034 -166735.000000 0 0 1
-30.416144 -26.107373 -25.689352 47.609658 0.709316 2.140738 0.006108 0.008892 -182179.000000 0 0 1
-28.969944 -26.243413 -26.177702 47.045153 0.736057 2.160889 0.009214 0.008360 -26716.200000 0 0 1
-28.303404 -25.000143 -26.362152 46.054890 0.723507 2.180235 0.016781 -0.002074 783360.000000 0 0 1
-26.889564 -25.157833 -26.558762 45.401906 0.752138 2.195640 0.008718 -0.000112 1047260.000000 0 0 1
-26.043074 -23.912843 -26.825392 44.380935 0.742782 2.219853 0.013092 0.000317 -458248.000000 0 0 1
-26.231904 -23.347243 -28.116772 44.986214 0.727281 2.245939 0.010025 -0.004384 -3567.110000 0 0 1
-25.375364 -22.260043 -28.405702 44.116919 0.720092 2.270346 0.014632 -0.017869 30494.000000 0 0 1
-25.383834 -21.938943 -29.939152 44.966755 0.712731 2.299370 0.005597 -0.013425 212774.000000 0 0 1
-24.550344 -22.815743 -30.710982 45.458134 0.748793 2.312559 0.018503 -0.017853 335934.000000 0 0 1
-24.442444 -22.568443 -32.110702 46.237051 0.745556 2.338493 0.024250 -0.020229 -169800.000000 0 0 1
-23.889644 -23.777543 -32.973682 47.152416 0.783046 2.345214 0.026968 -0.017434 177201.000000 0 0 1
-24.786944 -24.876843 -33.025772 48.207380 0.787208 2.325506 0.013315 -0.015194 -6677.410000 0 0 1
-24.493344 -25.807653 -34.042002 49.242428 0.811521 2.334103 0.040234 -0.022720 -128950.000000 0 0 1
-19.812144 -14.484043 -11.965312 27.303429 0.631275 2.024430 -0.001287 0.013339 -96014.900000 0 0 1
-20.139144 -14.095143 -10.664312 26.795256 0.610651 1.980124 0.007774 0.003559 14741.200000 0 0 1
-19.173544 -14.547643 -9.760812 25.971757 0.649068 1.956082 0.013883 -0.004117 -394473.000000 0 0 1
-19.454344 -13.960143 -8.368612 25.365149 0.622431 1.907021 0.044510 -0.021561 -465533.000000 0 0 1
-20.632744 -14.466143 -7.811212 26.381707 0.611481 1.871387 0.047151 -0.018331 -94112.100000 0 0 1
-21.045944 -13.747243 -6.671012 26.008092 0.578623 1.830193 0.061454 -0.028956 -639372.000000 0 0 1
-22.419644 -14.181943 -6.187612 27.240677 0.564023 1.799942 0.056067 -0.028376 -889907.000000 0 0 1
-22.409444 -15.520243 -5.710812 27.850934 0.605726 1.777310 0.044078 -0.016831 374207.000000 0 0 1
-21.974444 -15.660343 -4.372512 27.335717 0.619173 1.731442 0.063331 -0.024951 -457239.000000 0 0 1
-21.819044 -17.066843 -3.682512 27.944744 0.663792 1.702959 0.043314 -0.009412 245855.000000 0 0 1
-22.983044 -17.812943 -3.347812 29.269935 0.659340 1.685424 0.031102 -0.007406 425021.000000 0 0 1
-22.561044 -18.849343 -2.421112 29.498478 0.696005 1.652965 0.038617 -0.006578 444512.000000 0 0 1
-23.573144 -20.002443 -2.132812 30.989349 0.703638 1.639675 0.023290 -0.008140 125884.000000 0 0 1
-23.662844 -21.006043 -3.165212 31.799412 0.725991 1.670498 0.011306 -0.002774 20737.000000 0 0 1
-24.635944 -21.998343 -2.928612 33.157708 0.728899 1.659235 0.032434 0.000485 -68805.300000 0 0 1
-24.560344 -23.288643 -3.899612 34.070198 0.758827 1.685506 0.032140 0.002484 -311744.000000 0 0 1
-23.305344 -23.936443 -3.860612 33.630294 0.798756 1.685846 0.034913 0.001509 -302528.000000 0 0 1
-23.141744 -24.796343 -4.955512 34.277632 0.819900 1.715875 0.036874 0.003915 -85333.900000 0 0 1
-21.789144 -24.631043 -5.681912 33.372732 0.846543 1.741886 0.026948 0.007557 -1044.990000 0 0 1
-21.595744 -23.379043 -6.314612 32.447344 0.825028 1.766657 0.008314 0.019335 106606.000000 0 0 1
-21.243744 -22.310143 -5.436212 31.282448 0.809878 1.745461 0.003689 0.022720 -610455.000000 0 0 1
-21.406044 -20.842743 -5.916912 30.457323 0.772066 1.766308 0.002177 0.032766 -345823.000000 0 0 1
-20.351144 -20.502243 -6.768912 29.670342 0.789097 1.800960 -0.006671 0.033148 -413008.000000 0 0 1
-20.532344 -19.307543 -7.543912 29.176514 0.754665 1.832329 -0.016191 0.030962 742159.000000 0 0 1
-19.307444 -18.914443 -8.467912 28.323825 0.775116 1.874407 -0.003954 0.023117 572419.000000 0 0 1
-19.248444 -19.672643 -9.680912 29.175941 0.796297 1.909020 -0.020001 0.019902 -384288.000000 0 0 1
-18.045444 -19.514943 -10.385312 28.536394 0.824502 1.943282 0.034543 0.012238 -225221.000000 0 0 1
-17.776744 -18.162243 -11.084612 27.726311 0.796124 1.982081 0.022580 0.014412 -8557.220000 0 0 1
-17.300144 -17.056843 -10.276712 26.378811 0.778317 1.970974 0.027394 0.006517 1287090.000000 0 0 1
-15.939044 -17.108243 -9.777412 25.344484 0.820763 1.966850 0.068470 0.005831 949790.000000 0 0 1
-15.570244 -15.989143 -8.648112 23.934808 0.798671 1.940479 0.053981 0.000072 -85683.300000 0 1 0
-16.169444 -16.313843 -7.450212 24.147423 0.789843 1.884444 0.039576 0.000542 51724.000000 0 1 0
-16.381744 -15.090243 -6.711212 23.261929 0.744385 1.863463 0.052983 -0.008479 39918.600000 0 1 0
-16.898344 -15.267243 -5.239712 23.368725 0.734732 1.796938 0.043759 -0.017582 65501.500000 0 1 0
-17.256244 -14.130643 -4.516612 22.756380 0.686142 1.770600 0.048219 -0.017623 7207.040000 0 1 0
-17.717344 -14.539643 -3.276712 23.152588 0.687203 1.712800 0.044552 -0.017226 -306491.000000 0 1 0
-18.639344 -13.549343 -2.576512 23.187244 0.628567 1.682144 0.052821 -0.015000 468004.000000 0 1 0
-19.921444 -13.342943 -3.190512 24.188374 0.590153 1.703085 0.074443 -0.027767 1248540.000000 0 1 0
-20.794044 -12.600743 -2.365612 24.428817 0.544804 1.667785 0.083863 -0.022314 -783107.000000 0 1 0
-22.269244 -12.527843 -2.686912 25.692131 0.512437 1.675569 0.075462 -0.018323 -753789.000000 0 0 1
-22.608644 -11.784543 -3.846412 25.784125 0.480495 1.720533 0.082792 -0.029864 1136450.000000 0 0 1
-24.036444 -11.814243 -4.019512 27.082900 0.456836 1.719762 0.075707 -0.025011 672701.000000 0 0 1
-24.670844 -10.965243 -5.138612 27.482584 0.418239 1.758880 0.084223 -0.034866 -188253.000000 0 0 1
-24.243644 -11.293943 -6.459612 27.514251 0.435958 1.807782 0.080793 -0.043694 315121.000000 0 0 1
-24.881844 -10.699243 -7.577212 28.124617 0.406100 1.843583 0.090933 -0.041378 -141726.000000 0 0 1
-24.148744 -11.271643 -8.831012 28.074874 0.436703 1.890781 0.092947 -0.043138 871504.000000 0 0 1
-22.818244 -10.777243 -9.016112 26.797603 0.441250 1.913943 0.088989 -0.034130 955780.000000 0 0 1
-22.164444 -11.413243 -10.163112 26.922361 0.475524 1.957888 0.064539 -0.027086 -547657.000000 0 0 1
-20.755444 -10.860043 -10.248112 25.568590 0.482065 1.983196 0.069001 -0.023131 -972448.000000 0 0 1
-20.662344 -9.592243 -10.781012 25.202655 0.434631 2.012824 0.070979 -0.025337 712554.000000 0 0 1
-19.397944 -9.048543 -10.410112 23.801823 0.436465 2.023464 0.062650 -0.010670 238931.000000 0 1 0
-19.088144 -7.689843 -11.055112 23.360360 0.382969 2.063764 0.020395 -0.003144 -81986.600000 0 1 0
-18.829344 -7.682643 -12.446212 23.842722 0.387396 2.120006 0.044184 -0.008561 410704.000000 0 1 0
-18.443344 -6.409343 -13.004712 23.459734 0.334460 2.158368 0.053722 -0.014158 -17648.100000 0 1 0
-17.899644 -6.513643 -14.451112 23.909400 0.349002 2.219823 0.044977 -0.006304 -45419.500000 0 1 0
-18.884444 -6.919943 -15.382612 25.320596 0.351242 2.223723 0.078244 -0.022047 498630.000000 0 0 1
-18.397444 -6.810943 -16.695512 25.760338 0.354566 2.275895 0.077308 -0.033192 356217.000000 0 0 1
-19.215544 -7.766743 -17.656512 27.227042 0.384114 2.276398 0.080451 -0.034797 336690.000000 0 0 1
-20.466744 -7.313143 -18.132712 28.304857 0.343180 2.266104 0.089595 -0.036052 317786.000000 0 0 1
-20.903144 -8.143343 -19.164512 29.504813 0.371487 2.277774 0.095713 -0.034643 -500958.000000 0 0 1
-22.342744 -7.871643 -19.617012 30.756920 0.338734 2.262445 0.085739 -0.029943 -675302.000000 0 0 1
-22.583144 -6.581943 -20.221612 31.019896 0.283598 2.280873 0.085329 -0.031750 1506660.000000 0 0 1
-23.871044 -6.384243 -20.880112 32.350647 0.261331 2.272384 0.069329 -0.026648 1460010.000000 0 0 1
-25.092464 -6.074343 -19.992012 32.652870 0.237509 2.229711 0.075707 -0.024206 -260103.000000 0 0 1
-25.122514 -4.721843 -19.541612 32.176250 0.185785 2.223492 0.079408 -0.023298 67151.800000 0 0 1
-26.255924 -4.431943 -18.761812 32.573321 0.167222 2.184607 0.094224 -0.016796 -333753.000000 0 0 1
-26.286124 -2.911843 -18.251912 32.133649 0.110325 2.174870 0.083228 -0.010737 81755.900000 0 0 1
-26.654924 -1.803443 -19.118812 32.852189 0.067556 2.191939 0.085811 -0.020346 894538.000000 0 0 1
-27.954614 -1.896243 -19.724812 34.265498 0.067729 2.184191 0.083431 -0.018051 653805.000000 0 0 1
-28.400604 -0.668243 -20.591612 35.086398 0.023525 2.198000 0.077407 -0.011792 -321862.000000 0 0 1
-27.699554 -0.504743 -21.805912 35.256458 0.018220 2.237621 0.070877 -0.008198 107727.000000 0 0 1
-28.174644 -1.363643 -22.833212 36.290848 0.048362 2.251285 0.058336 -0.003186 -150762.000000 0 0 1
-27.403934 -1.369843 -24.196112 36.582836 0.049946 2.293488 0.050870 -0.001048 -552042.000000 0 0 1
-27.569404 -0.153243 -25.000012 37.216879 0.005558 2.307349 0.040700 0.007053 98491.800000 0 0 1
-27.094204 1.094657 -24.616412 36.623242 -0.040380 2.307909 0.049005 0.006047 -509923.000000 0 0 1
-25.616484 1.250957 -24.249412 35.295936 -0.048795 2.328192 0.048311 -0.007026 -540183.000000 0 0 1
-24.684044 1.069457 -25.282332 35.350277 -0.043299 2.367699 0.040926 -0.004216 -1161990.000000 0 0 1
-23.426344 0.912557 -24.743212 34.085963 -0.038935 2.383147 0.039433 -0.001911 -721174.000000 0 0 1
-22.474144 0.136357 -25.704042 34.143865 -0.006067 2.423126 0.039628 -0.005518 -112339.000000 0 0 1
-22.202644 0.949757 -26.789692 34.807284 -0.042751 2.449101 0.018862 -0.003435 -205438.000000 0 0 1
-21.321344 0.340157 -27.684872 34.945207 -0.015952 2.485262 0.010166 -0.008449 -229227.000000 0 0 1
-21.196344 1.138357 -29.034732 35.966602 -0.053654 2.510307 0.013951 -0.003485 -36239.500000 0 0 1
-20.377244 2.296857 -28.872882 35.413993 -0.112243 2.524036 0.019332 -0.003594 460804.000000 0 0 1
-20.491644 3.203857 -29.952242 36.432251 -0.155094 2.535948 0.000457 -0.004637 40310.700000 0 0 1
-19.930244 2.764157 -31.390172 37.285360 -0.137812 2.571572 -0.000179 0.000591 203922.000000 0 0 1
-18.523444 2.596057 -31.318992 36.479264 -0.139243 2.603216 -0.010947 0.003675 155383.000000 0 0 1
-18.021044 1.821257 -32.389072 37.109661 -0.100721 2.631693 -0.005585 0.004905 -262230.000000 0 0 1
-16.496344 1.710657 -32.341942 36.346346 -0.103330 2.667761 0.002610 -0.008254 -653105.000000 0 0 1
-15.815244 2.857157 -32.590352 36.337533 -0.178731 2.683457 0.003151 -0.002044 -542951.000000 0 0 1
-14.437444 2.660957 -32.812072 35.946523 -0.182264 2.720890 0.026123 -0.007824 -137832.000000 0 0 1
-13.811444 4.004057 -33.166572 36.149826 -0.282173 2.732483 0.035583 0.002469 -557830.000000 0 0 1
-13.685544 4.922257 -32.067692 35.211640 -0.345262 2.715803 0.031158 -0.012540 382286.000000 0 0 1
-13.010044 6.095657 -32.565102 35.593597 -0.438160 2.726093 0.040078 -0.004567 -157567.000000 0 0 1
-12.740444 7.110857 -31.396742 34.621360 -0.509066 2.706570 0.047080 -0.014535 -696672.000000 0 0 1
-11.509444 6.825757 -30.800342 33.581532 -0.535299 2.731744 0.068667 -0.025434 -186718.000000 0 0 1
-11.501744 5.892757 -29.755232 32.440538 -0.473468 2.731851 0.065883 -0.028062 -833993.000000 0 0 1
-10.166544 5.171857 -29.581252 31.704214 -0.470594 2.773564 0.084876 -0.040339 -282589.000000 0 0 1
-9.583044 4.440657 -30.674762 32.442182 -0.433930 2.809987 0.081132 -0.040216 651254.000000 0 0 1
-10.419844 3.376557 -31.138822 33.009097 -0.313373 2.803354 0.086649 -0.034930 -259949.000000 0 0 1
-9.863844 2.608857 -32.299192 33.872398 -0.258566 2.835622 0.078904 -0.036605 -124657.000000 0 0 1
-10.638244 1.429557 -32.469302 34.197535 -0.133579 2.822318 0.082950 -0.038427 398410.000000 0 0 1
-10.246544 0.681557 -33.645102 35.177394 -0.066418 2.845353 0.071568 -0.026861 -337562.000000 0 0 1
-10.651144 1.270657 33.422685 35.101814 -0.118736 0.310555 0.073652 -0.022403 890391.000000 0 0 1
-12.065544 1.198857 33.175836 35.322100 -0.099037 0.350394 0.062089 -0.024654 609020.000000 0 0 1
-12.356044 1.399957 31.800830 34.145637 -0.112820 0.372750 0.046708 -0.014518 249078.000000 0 0 1
-13.812144 1.134257 31.344930 34.271949 -0.081936 0.416293 0.040477 -0.011342 369379.000000 0 0 1
-14.774544 2.113657 31.734800 35.069249 -0.142097 0.439609 0.033823 0.003264 409088.000000 0 0 1
-16.020844 1.594157 31.232140 35.137663 -0.099179 0.475965 0.027438 0.000650 838000.000000 0 0 1
-17.083744 2.728857 30.991420 35.493226 -0.158396 0.509139 0.021757 0.011982 115491.000000 0 0 1
-17.512644 3.478357 32.123920 36.752386 -0.196068 0.507292 0.004874 0.012083 997672.000000 0 0 1
-16.533644 4.476557 32.544639 36.777092 -0.264415 0.484483 0.006750 0.010742 507858.000000 0 0 1
-17.023444 5.084957 33.866257 38.243664 -0.290267 0.483143 -0.001761 0.017168 -94126.300000 0 0 1
-18.252644 5.778957 33.764095 38.814552 -0.306624 0.515833 -0.007729 0.019990 135177.000000 0 0 1
-18.892444 5.617257 -33.400092 38.782008 -0.289004 2.608474 -0.020406 0.021798 130073.000000 0 0 1
-20.301444 6.257757 -33.280562 39.482957 -0.299001 2.573464 -0.019674 0.013090 117640.000000 0 0 1
-20.589944 7.657057 -33.210282 39.818326 -0.356035 2.557196 -0.017959 0.009879 79711.700000 0 0 1
-20.132544 8.345757 34.088503 40.459820 -0.392978 0.568838 -0.013400 0.008658 -353436.000000 0 0 1
-20.070044 9.825657 -34.030482 40.711471 -0.455267 2.560556 0.003604 0.010096 -202144.000000 0 0 1
-18.995944 10.224357 -33.180082 39.576523 -0.493769 2.565097 -0.003040 0.014488 374350.000000 0 0 1
-18.911244 11.614357 -32.893212 39.679866 -0.550760 2.548051 0.020043 0.003398 -107757.000000 0 0 1
-18.206344 12.412657 -34.039092 40.548795 -0.598390 2.567085 0.012648 -0.000567 -277720.000000 0 0 1
-18.947744 12.507157 33.192975 40.214669 -0.583433 0.599895 0.027366 -0.004032 73965.200000 0 0 1
-18.156644 12.683057 32.021890 38.934883 -0.609742 0.605096 0.034163 -0.000090 143853.000000 0 0 1
-18.863344 12.209457 30.698930 38.043671 -0.574445 0.631845 0.044831 -0.005342 -1811.100000 0 0 1
-19.103944 10.772357 30.694490 37.724741 -0.513438 0.620404 0.032966 -0.003281 124147.000000 0 0 1
-17.977044 9.957057 30.398370 36.693024 -0.505814 0.594460 0.024386 -0.014298 176146.000000 0 0 1
-18.173144 8.441857 30.538140 36.525417 -0.434866 0.580699 0.016406 0.003535 8605.200000 0 0 1
-18.928444 7.739157 29.575530 35.956815 -0.388124 0.604952 0.022333 -0.005405 82330.600000 0 0 1
-19.052944 6.353357 29.927560 36.042179 -0.321863 0.591064 0.018403 -0.001594 -85591.800000 0 0 1
-19.709644 5.439557 28.877560 35.383221 -0.269281 0.616102 0.030032 -0.011534 633116.000000 0 0 1
-21.036844 5.839057 28.512470 35.911062 -0.270748 0.653477 0.048836 -0.019912 647618.000000 0 0 1
-21.796244 4.808057 27.896520 35.726874 -0.217114 0.674807 0.051053 -0.019459 2252510.000000 0 0 1
-23.355544 5.146557 27.640490 36.550857 -0.216891 0.713280 0.055694 -0.015367 1520420.000000 0 0 1
-23.560944 5.791757 26.409040 35.862235 -0.241041 0.743059 0.059273 -0.026992 -697478.000000 0 0 1
-24.852544 6.275457 26.346170 36.758006 -0.247337 0.771671 0.069252 -0.021754 -971580.000000 0 0 1
-25.143944 7.090757 25.014470 36.169330 -0.274868 0.807104 0.071771 -0.020003 -72922.500000 0 0 1
-25.312664 6.381457 23.745910 35.289123 -0.246959 0.832680 0.068544 -0.018325 364752.000000 0 0 1
-26.361494 5.417057 23.681590 35.848160 -0.202670 0.849168 0.056722 -0.019259 53216.000000 0 0 1
-26.568404 4.584857 22.393080 35.047839 -0.170885 0.877691 0.061876 -0.014804 -41117.800000 0 0 1
-27.275814 5.283057 21.393580 35.065168 -0.191321 0.914598 0.059722 -0.006709 -79771.700000 0 0 1
-27.344154 4.563657 20.177980 34.288199 -0.165373 0.941617 0.079083 -0.013274 152439.000000 0 0 1
-28.302074 5.262457 19.147480 34.573499 -0.183839 0.983852 0.071723 -0.010755 236149.000000 0 0 1
-29.638904 5.203657 19.586180 35.904890 -0.173797 0.993809 0.076077 -0.009242 -278888.000000 0 0 1
-30.500134 5.742057 18.596280 36.180810 -0.186085 1.030976 0.079411 -0.008389 327869.000000 0 0 1
-31.979784 5.842657 19.057380 37.683245 -0.180705 1.040574 0.077604 -0.007096 248954.000000 0 0 1
-32.184694 6.933157 19.926380 38.483552 -0.212175 1.026531 0.062747 -0.014022 909746.000000 0 0 1
-33.543864 6.917957 20.403580 39.866716 -0.203385 1.033524 0.055905 -0.007557 895696.000000 0 0 1
-33.894854 8.144757 21.279980 40.841593 -0.235824 1.022731 0.063749 -0.007040 191195.000000 0 0 1
-33.111654 8.242757 22.467380 40.854716 -0.243979 0.988512 0.058331 0.003600 262444.000000 0 0 1
-33.680994 9.200757 23.279280 41.964129 -0.266667 0.982743 0.068887 0.012778 -172839.000000 0 0 1
-0.636544 32.225757 11.396188 34.187391 -1.551046 1.230947 0.026069 -0.003403 -421600.000000 0 0 1
-0.281444 32.478657 12.752888 34.893818 -1.562131 1.196651 0.013409 -0.003907 232216.000000 0 0 1
-0.563144 33.843657 13.093388 36.292520 -1.554158 1.201699 0.019390 -0.011168 -426336.000000 0 0 1
-0.251744 34.126657 14.570388 37.107793 -1.563420 1.167285 0.015825 -0.006769 -334241.000000 0 0 1
-1.245844 33.840357 15.519788 37.250311 -1.533998 1.141056 0.017719 0.002262 -396949.000000 0 0 1
-0.812844 34.073457 16.821288 38.008116 -1.546945 1.112333 0.009468 -0.013329 -32208.900000 0 0 1
-1.953044 -34.156263 17.783888 38.558156 1.513679 1.091424 0.018713 -0.008976 -220696.000000 0 0 1
-2.845644 33.388857 18.097988 38.084782 -1.485774 1.075602 0.001852 -0.010275 -146789.000000 0 0 1
-3.834044 33.932057 18.955588 39.056353 -1.458282 1.064045 0.009296 -0.009991 -354515.000000 0 0 1
-4.930244 32.976857 19.353788 38.553203 -1.422389 1.044884 0.014642 -0.015316 -404860.000000 0 0 1
-5.863644 32.615257 18.357388 37.883123 -1.392914 1.064914 0.022687 -0.019056 214963.000000 0 0 1
-7.040544 32.130957 18.973388 37.973110 -1.355085 1.047598 0.038964 -0.033699 -294411.000000 0 0 1
-8.232544 31.869757 18.064088 37.546870 -1.318004 1.068879 0.031405 -0.034918 -159495.000000 0 0 1
-8.902844 33.069457 17.579688 38.495390 -1.307815 1.096548 0.032159 -0.026791 -185517.000000 0 0 1
-9.730244 32.763957 16.498188 37.951874 -1.282112 1.121076 0.036910 -0.012758 -144364.000000 0 0 1
-10.735444 33.930757 16.241188 39.119333 -1.264369 1.142666 0.054441 -0.021836 132603.000000 0 0 1
-11.885244 33.946357 17.051088 39.803942 -1.234016 1.128101 0.051096 -0.014607 57876.900000 0 0 1
-12.737744 -33.529963 16.742388 39.583028 1.207744 1.134077 0.032620 -0.009968 524525.000000 0 0 1
-14.060944 -33.560063 17.578988 40.410504 1.174037 1.120747 0.054349 -0.011387 458323.000000 0 0 1
-13.948044 -33.516563 18.999188 40.974103 1.176442 1.088643 0.055302 -0.007812 424572.000000 0 0 1
-15.257844 -33.633363 19.576388 41.799999 1.144910 1.083391 0.043298 -0.015157 749753.000000 0 0 1
-15.399944 -33.253363 21.024588 42.248997 1.137094 1.049926 0.052099 -0.024369 -332445.000000 0 0 1
-15.195544 -31.870363 21.270788 41.219790 1.125887 1.028583 0.061676 -0.021031 58123.100000 0 0 1
-15.059944 -31.568663 22.619888 41.653833 1.125674 0.996738 0.057983 -0.015311 139206.000000 0 0 1
-15.168544 -30.060263 22.974488 40.761885 1.103472 0.972026 0.064856 -0.021998 -133955.000000 0 0 1
-15.143744 -29.716863 24.337588 41.288535 1.099497 0.940417 0.067199 -0.033406 -284107.000000 0 0 1
-15.160844 -28.277963 24.617188 40.441320 1.078659 0.916358 0.046159 -0.022645 140041.000000 0 0 1
-16.405944 -27.396363 24.272988 40.111017 1.031233 0.920848 0.071750 -0.020430 161221.000000 0 0 1
-17.464744 -27.525963 25.202588 41.205174 1.005407 0.912669 0.081364 -0.021777 -468620.000000 0 0 1
-18.483844 -26.673863 24.798088 40.842290 0.964813 0.918306 0.087228 -0.022269 -1190710.000000 0 0 1
-19.548344 -26.504963 25.918688 41.909775 0.935321 0.904040 0.074150 -0.017252 398097.000000 0 0 1
-20.357644 -27.668563 26.243988 43.228810 0.936466 0.918397 0.072924 -0.017460 915759.000000 0 0 1
-21.196344 -28.172063 25.181988 43.325312 0.925768 0.950556 0.065402 -0.017920 172632.000000 0 0 1
-22.611044 -27.526063 25.039788 43.542330 0.883117 0.958109 0.056571 -0.006895 -739.735000 0 0 1
-22.595644 -26.210363 24.523988 42.414293 0.859326 0.954274 0.063261 -0.011158 435210.000000 0 0 1
-23.821844 -25.991963 23.835288 42.558000 0.828935 0.976331 0.058934 -0.010874 17252.200000 0 0 1
-24.079144 -24.575063 23.300188 41.552830 0.795591 0.975521 0.064639 0.001198 -133257.000000 0 0 1
-24.308644 -23.663363 24.346088 41.756400 0.771948 0.948318 0.059658 -0.004114 123631.000000 0 0 1
-24.788844 -22.436263 23.893688 41.094781 0.735623 0.950313 0.051950 -0.000075 86177.100000 0 0 1
-25.418404 -21.519163 24.991088 41.638013 0.702516 0.927047 0.058372 0.000583 455244.000000 0 0 1
-26.598754 -22.050063 25.589788 42.994607 0.692169 0.933299 0.044931 0.005230 307531.000000 0 0 1
-27.068444 -21.203463 26.561088 43.448578 0.664492 0.913066 0.039755 0.003252 -998057.000000 0 0 1
-28.151884 -21.836463 27.446688 44.974219 0.659726 0.914387 0.026249 -0.003873 -1007070.000000 0 0 1
-29.464104 -21.717763 27.051888 45.514825 0.635189 0.934335 0.018507 -0.003524 -754317.000000 0 0 1
-29.878934 -22.482263 25.961188 45.521271 0.645064 0.963914 0.010059 0.003100 -496367.000000 0 0 1
-31.414944 -22.736963 25.927688 46.648829 0.626497 0.981464 0.015589 0.004763 462637.000000 0 0 1
-32.021264 -23.453063 24.841988 46.824480 0.632156 1.011566 0.016924 0.003350 388069.000000 0 0 1
-31.721364 -24.827763 24.792688 47.300530 0.664092 1.019077 0.015982 -0.001030 -494045.000000 0 0 1
-32.001614 -25.531863 23.435488 47.172041 0.673417 1.050878 0.022311 0.007553 -775225.000000 0 0 1
-33.344154 -25.730263 23.186388 48.077933 0.657218 1.067556 0.021192 0.002008 -996383.000000 0 0 1
-33.620694 -26.131763 21.844988 47.858371 0.660716 1.096794 0.028734 0.005805 396833.000000 0 0 1
-35.004742 -26.841563 21.703588 49.161441 0.654165 1.113554 0.037790 -0.001844 22748.100000 0 0 1
-35.212143 -28.004863 22.517888 50.311258 0.671880 1.106748 0.038304 -0.002369 365475.000000 0 0 1
-34.207783 -29.013663 22.460688 50.164206 0.703425 1.106556 0.028418 -0.001162 -142704.000000 0 0 1
-34.549650 -30.073063 21.399488 50.556953 0.716236 1.133739 0.042728 -0.008139 -198031.000000 0 0 1
-34.425018 -29.708663 20.057888 49.699149 0.711991 1.155363 0.031898 -0.003722 343407.000000 0 0 1
-34.719245 -30.791163 19.146188 50.200580 0.725509 1.179493 0.045909 -0.001687 -83120.900000 0 0 1
-35.098712 -30.371263 17.684288 49.669581 0.713315 1.206771 0.052702 0.004309 -258547.000000 0 0 1
-34.003654 -29.924163 16.895988 48.344374 0.721671 1.213767 0.053891 0.003443 203016.000000 0 0 1
-34.288654 -29.400263 15.617588 47.791174 0.708794 1.237893 0.076459 0.001390 92709.500000 0 0 1
-35.031470 -30.287863 14.553988 48.542529 0.712904 1.266293 0.075532 -0.008202 88758.500000 0 0 1
-34.147194 -31.252563 14.085588 48.385508 0.741166 1.275408 0.075873 -0.013530 -92230.700000 0 0 1
-34.511158 -31.886963 12.842388 48.710629 0.745897 1.303996 0.090094 -0.016905 77736.300000 0 0 1
-34.814672 -31.065563 11.554788 48.069156 0.728552 1.328041 0.088274 -0.018472 1162590.000000 0 0 1
-36.131794 -30.464063 11.538688 48.648813 0.700496 1.331331 0.091022 -0.021654 1052800.000000 0 0 1
36.102098 -29.831463 10.273588 47.946056 -0.690578 1.354848 0.069844 -0.019991 419249.000000 0 0 1
34.842358 -28.908163 10.272588 46.424109 -0.692581 1.347673 0.102780 -0.015475 365771.000000 0 0 1
34.923108 -27.967363 9.267488 45.691173 -0.675245 1.366550 0.110260 -0.050301 74536.200000 0 0 1
33.810108 -27.107863 9.264688 44.314717 -0.675818 1.360177 0.091269 -0.043409 -159062.000000 0 0 1
33.904188 -25.915063 8.274788 43.469031 -0.652629 1.379267 0.087409 -0.043286 21764.000000 0 0 1
34.783198 -24.894363 8.680388 43.645726 -0.621186 1.370578 0.095075 -0.049335 51541.500000 0 0 1
35.033008 -24.064863 7.558588 43.168989 -0.601893 1.394796 0.083179 -0.044780 -105834.000000 0 0 1
35.737808 -22.748063 7.823088 43.079764 -0.566845 1.388188 0.083253 -0.048498 -119024.000000 0 0 1
34.841988 -21.714963 8.262288 41.878028 -0.557334 1.372199 0.080978 -0.051698 -62398.200000 0 0 1
35.183978 -20.385563 8.030488 41.448429 -0.525134 1.375817 0.082827 -0.038009 5981.360000 0 0 1
34.308968 -19.392463 8.846088 40.390918 -0.514461 1.349995 0.095525 -0.027018 123860.000000 0 0 1
34.517008 -19.485563 10.285288 40.949948 -0.513923 1.316910 0.085364 -0.046741 -367247.000000 0 0 1
33.639818 -18.797763 11.145588 40.115052 -0.509571 1.289251 0.085855 -0.030690 -131920.000000 0 0 1
34.146618 -18.853963 12.603488 40.991602 -0.504490 1.258268 0.071603 -0.042103 536097.000000 0 0 1
35.264468 -18.017163 12.922388 41.655600 -0.472342 1.255372 0.038880 -0.023150 390913.000000 0 0 1
35.703938 -18.350463 14.181988 42.575104 -0.474755 1.231201 0.044061 -0.014920 -558334.000000 0 0 1
-35.541753 -17.561163 14.724588 42.289764 0.458916 1.215164 0.068499 -0.019027 435191.000000 0 0 1
-34.290183 -18.012263 14.188288 41.250040 0.483674 1.219667 0.074908 -0.020775 1164280.000000 0 0 1
-33.197854 -17.301363 14.804588 40.256807 0.480431 1.194204 0.087701 -0.020395 881587.000000 0 0 1
-31.821714 -17.285363 14.083188 38.855392 0.497603 1.199900 0.088580 -0.022937 428891.000000 0 0 1
-31.221204 -18.559263 13.931788 38.901215 0.536324 1.204529 0.071824 -0.022992 724105.000000 0 0 1
-30.171494 -18.595163 12.943388 37.731028 0.552330 1.220641 0.046236 -0.019971 630436.000000 0 0 1
-29.403124 -19.893763 12.581788 37.664398 0.594839 1.230199 0.029458 -0.019732 616651.000000 0 0 1
-30.195574 -20.780063 11.793588 38.505486 0.602751 1.259510 0.037545 -0.015911 -250261.000000 0 0 1
-29.314214 -21.583463 11.060188 38.045983 0.634662 1.275832 0.025584 -0.011586 -389968.000000 0 0 1
-29.884894 -22.559263 10.040088 38.766359 0.646612 1.308820 0.037957 -0.012641 146556.000000 0 0 1
-30.576804 -23.688763 10.543188 40.090613 0.659141 1.304683 0.048845 -0.012074 -378124.000000 0 0 1
-31.905954 -23.554663 10.955888 41.144180 0.635940 1.301264 0.074344 -0.025539 -857357.000000 0 0 1
-32.618954 -24.882663 10.968188 42.466978 0.651661 1.309559 0.095458 -0.031254 -372155.000000 0 0 1
-32.720034 -25.390563 9.650688 42.525488 0.659931 1.341863 0.089697 -0.028891 -208567.000000 0 0 1
-33.518724 -26.543463 9.654588 43.832310 0.669782 1.348713 0.105380 -0.025157 131400.000000 0 0 1
-33.773614 -27.253963 8.337188 44.192128 0.678971 1.381001 0.094602 -0.024142 415587.000000 0 0 1
-32.538844 -27.739163 7.828788 43.468695 0.705940 1.389706 0.080138 -0.024171 99167.300000 0 0 1
-32.648624 -28.339463 6.568288 43.728712 0.714860 1.420020 0.068709 -0.023014 587824.000000 0 0 1
-31.284924 -28.669963 5.844188 42.835357 0.741810 1.433936 0.056099 -0.017684 870109.000000 0 0 1
-30.645954 -27.582363 5.209288 41.558368 0.732833 1.445117 0.058648 -0.008216 105650.000000 0 0 1
-29.405314 -27.973363 4.630988 40.848838 0.760447 1.457183 0.055710 -0.014148 -104369.000000 0 0 1
-28.741424 -26.818263 3.973488 39.510471 0.750798 1.470058 0.044619 -0.011328 -272106.000000 0 0 1
-29.345174 -26.347063 2.775388 39.534918 0.731617 1.500538 0.049510 -0.007423 165924.000000 0 0 1
-28.552454 -25.265263 2.280888 38.193960 0.724394 1.511042 0.053771 -0.012322 101913.000000 0 0 1
-29.041444 -24.634963 0.972988 38.095060 0.703488 1.545252 0.058244 -0.008599 -279603.000000 0 0 1
-28.907274 -25.398763 -0.207812 38.480785 0.720882 1.576197 0.052800 -0.013878 -2719.470000 0 0 1
-28.902264 -24.641063 -1.426312 38.007331 0.705981 1.608332 0.057087 -0.013071 940298.000000 0 0 1
-30.340024 -24.373163 -2.014012 38.969531 0.676770 1.622501 0.055994 -0.009552 865322.000000 0 0 1
-31.177754 -23.400663 -1.428412 39.008765 0.643857 1.607422 0.046189 -0.010849 53923.200000 0 0 1
-32.450194 -23.512263 -2.051612 40.125437 0.627023 1.621949 0.040693 -0.009235 -19524.500000 0 0 1
-33.262464 -22.229563 -1.803512 40.047442 0.589138 1.615846 0.049951 -0.016719 -419037.000000 0 0 1
-33.438784 -21.957663 -0.428212 40.005932 0.581038 1.581500 0.050807 -0.023499 241582.000000 0 0 1
-34.036928 -20.663163 -0.261012 39.818926 0.545610 1.577351 0.052318 -0.020497 -291859.000000 0 0 1
-34.113114 -20.204163 1.208188 39.665759 0.534716 1.540332 0.055583 -0.021172 -253851.000000 0 0 1
-34.879506 -20.995263 2.083388 40.764219 0.541843 1.519666 0.055966 -0.029026 167635.000000 0 0 1
-35.053571 -20.305363 3.327388 40.646428 0.525035 1.488843 0.067151 -0.038239 -369067.000000 0 0 1
-36.090534 -21.070763 4.254288 42.007174 0.528445 1.469347 0.082235 -0.020883 1183120.000000 0 0 1
35.033488 -21.225263 3.759088 41.133780 -0.544715 1.479282 0.073230 -0.024447 453138.000000 0 0 1
34.262818 -20.013263 3.712288 39.852886 -0.528654 1.477511 0.090527 -0.040150 -487296.000000 0 0 1
33.148098 -20.047463 2.638788 38.828603 -0.543930 1.502784 0.092821 -0.030004 -38279.900000 0 0 1
32.174178 -21.001663 2.987288 38.537923 -0.578305 1.493203 0.072369 -0.021199 143885.000000 0 0 1
30.891248 -20.607663 2.464588 37.215846 -0.588305 1.504524 0.074065 -0.031206 352640.000000 0 0 1
29.782468 -21.534163 2.934888 36.869082 -0.626028 1.491109 0.061299 -0.016643 -460416.000000 0 0 1
29.785758 -22.736463 2.164788 37.534311 -0.651980 1.513089 0.039599 -0.016745 334680.000000 0 0 1
28.667078 -23.555563 2.539988 37.190288 -0.687830 1.502446 0.037447 -0.004964 570741.000000 0 0 1
28.232518 -24.642663 1.476288 37.503538 -0.717609 1.531422 0.027042 0.002794 -171333.000000 0 0 1
27.581528 -24.095563 0.395988 36.626407 -0.718044 1.559985 0.022155 -0.011126 -194731.000000 0 0 1
27.553588 -25.143063 -0.572212 37.305513 -0.739687 1.586135 0.030430 -0.010208 31959.000000 0 0 1
26.583928 -24.880163 -1.766812 36.453387 -0.752304 1.619283 0.053257 -0.019282 131930.000000 0 0 1
27.160728 -24.104563 -2.790812 36.421474 -0.725854 1.647497 0.036822 -0.035918 387322.000000 0 0 1
27.825428 -24.777763 -3.898212 37.461822 -0.727526 1.675043 0.037291 -0.038412 -58616.600000 0 0 1
26.931228 -25.315063 -5.081912 37.309105 -0.754474 1.707432 0.044983 -0.036821 158686.000000 0 0 1
26.263828 -24.360663 -5.869612 36.299903 -0.747822 1.733207 0.051104 -0.044151 16974.900000 0 0 1
24.995428 -24.009063 -5.409212 35.078001 -0.765273 1.725619 0.059956 -0.041296 -1025170.000000 0 0 1
24.106328 -23.082163 -6.204912 33.947051 -0.763698 1.754612 0.062151 -0.049503 -528915.000000 0 0 1
23.592328 -23.715863 -7.393012 34.259258 -0.788009 1.788303 0.060749 -0.049573 385798.000000 0 0 1
22.475028 -23.087063 -8.009112 33.200682 -0.798830 1.814433 0.060471 -0.051864 -112973.000000 0 0 1
22.613928 -21.614863 -8.487412 32.413396 -0.762813 1.835734 0.053724 -0.045326 -981780.000000 0 0 1
23.316428 -21.496363 -9.673012 33.155944 -0.744806 1.866845 0.042657 -0.039283 44091.400000 0 0 1
23.151528 -20.186863 -10.212612 32.369741 -0.717097 1.891778 0.039356 -0.035613 -178422.000000 0 0 1
23.806128 -19.954263 -11.591012 33.155029 -0.697603 1.927941 0.026165 -0.036657 640803.000000 0 0 1
25.216028 -19.737263 -11.662212 34.079537 -0.664119 1.920060 0.049495 -0.027887 567865.000000 0 0 1
25.686928 -19.532563 -12.952612 34.772251 -0.650129 1.952496 0.058639 -0.027267 1280440.000000 0 0 1
27.229828 -19.847963 -13.179212 36.181443 -0.629863 1.943627 0.066735 -0.033712 1202230.000000 0 0 1
27.506638 -21.199963 -13.305412 37.189885 -0.656632 1.936675 0.045739 -0.025128 130773.000000 0 0 1
28.346988 -21.671163 -12.263612 37.730455 -0.652714 1.901842 0.063364 -0.046078 -63225.100000 0 0 1
28.451898 -23.195063 -12.222612 38.689969 -0.683963 1.892214 0.050361 -0.024929 -50025.300000 0 0 1
29.290148 -23.693463 -13.267612 39.941489 -0.680158 1.909406 0.056620 -0.032039 495065.000000 0 0 1
29.456848 -25.058763 -12.985812 40.795574 -0.704897 1.894747 0.042285 -0.018055 -286665.000000 0 0 1
-4.631644 -8.764443 -27.555492 29.284342 1.084642 2.796261 0.061989 -0.007013 226277.000000 0 0 1
-4.071644 -7.521343 -27.188082 28.501591 1.074622 2.836818 0.031100 -0.006066 190815.000000 0 0 1
-4.792744 -6.522843 -27.856952 29.009096 0.937118 2.858812 0.024267 -0.003364 -65428.800000 0 0 1
-4.529744 -5.173443 -27.145812 28.003182 0.851640 2.893502 0.024052 -0.016647 122735.000000 0 0 1
-5.095244 -5.194743 -25.847882 26.852558 0.795067 2.867183 0.020363 -0.012691 211638.000000 0 0 1
-4.922044 -3.992843 -25.170582 25.956261 0.681543 2.894922 0.022864 -0.025134 -174339.000000 0 0 1
-5.472744 -4.042543 -23.774312 24.728748 0.636209 2.862856 0.016557 -0.018633 -258813.000000 0 1 0
-4.724444 -4.849443 -22.880412 23.861071 0.798454 2.853901 0.017182 -0.024962 474335.000000 0 1 0
-5.351744 -4.841743 -21.629412 22.801647 0.735408 2.819547 0.023264 -0.015139 -335302.000000 0 1 0
-4.794844 -5.950143 -20.736312 22.099533 0.892507 2.788519 0.030222 -0.015788 -551562.000000 0 1 0
-5.305344 -7.250743 -20.913212 22.761423 0.939113 2.735828 0.022986 -0.013114 173156.000000 0 1 0
-4.595544 -8.238843 -20.210512 22.303864 1.061992 2.704873 0.031799 -0.019019 -979017.000000 0 1 0
-5.245144 -9.636243 -20.414412 23.175783 1.072329 2.648453 0.030492 -0.009686 725271.000000 0 1 0
-6.417544 -10.003143 -19.684612 22.994166 1.000382 2.598413 0.032611 -0.000374 827316.000000 0 1 0
-7.580144 -9.201743 -19.914312 23.210137 0.881727 2.602161 0.024914 -0.004341 -117683.000000 0 1 0
-8.553344 -9.295443 -18.690712 22.558982 0.826951 2.547267 0.016153 -0.000922 -173141.000000 0 1 0
-9.210944 -10.522443 -18.574512 23.250286 0.851762 2.496250 0.034792 -0.004585 -80750.600000 0 1 0
-9.976844 -10.579343 -17.412612 22.686096 0.814700 2.445799 0.026532 -0.002328 139692.000000 0 1 0
-10.809044 -11.906943 -17.328212 23.640593 0.833692 2.393497 0.036843 0.000279 -306143.000000 0 1 0
-11.717544 -12.208543 -18.316512 24.936799 0.805917 2.395751 0.044447 -0.009855 -249875.000000 0 1 0
-11.186044 -12.923543 -19.446212 25.890166 0.857341 2.420529 0.048805 -0.003273 -911128.000000 0 0 1
-12.197144 -12.915043 -20.618812 27.215879 0.813978 2.430428 0.054727 -0.019050 1356740.000000 0 0 1
-13.355044 -13.790843 -20.610012 28.165886 0.801451 2.391663 0.055415 -0.008483 998427.000000 0 0 1
-14.208444 -13.572043 -19.470312 27.661766 0.762494 2.351629 0.039411 0.001502 -641926.000000 0 0 1
-15.622544 -14.166943 -19.752012 28.894777 0.736574 2.323458 0.038808 0.000984 240772.000000 0 0 1
-15.620844 -15.576043 -19.834612 29.665396 0.783962 2.303136 0.040794 0.001820 -839.244000 0 0 1
-16.480844 -16.081443 -20.855412 31.067334 0.773133 2.306754 0.039505 -0.004661 82861.500000 0 0 1
-16.015444 -17.436743 -21.409612 31.920306 0.827860 2.305976 0.052923 -0.003062 64456.400000 0 0 1
-16.361944 -18.531643 -20.530612 32.134732 0.847499 2.263853 0.052812 0.003401 411966.000000 0 0 1
-15.719644 -19.741243 -20.919412 32.778738 0.898325 2.262955 0.055855 0.003039 -421469.000000 0 0 1
-16.390244 -20.893943 -20.246412 33.393325 0.905610 2.222197 0.045865 -0.000727 -749439.000000 0 0 1
-15.919644 -22.176643 -20.549612 34.169067 0.948187 2.216061 0.048932 0.003220 -239848.000000 0 0 1
-16.566744 -23.266743 -19.985112 34.859762 0.952039 2.181324 0.058484 0.002767 -370949.000000 0 0 1
-16.040544 -24.568243 -20.598212 35.849462 0.992387 2.182881 0.066107 -0.003265 105634.000000 0 0 1
-16.469544 -24.850743 -21.938412 37.014851 0.985518 2.205194 0.053735 -0.004702 322031.000000 0 0 1
-15.748844 -26.020423 -22.265212 37.693874 1.026526 2.202704 0.064023 -0.002969 22820.600000 0 0 1
-16.107344 -26.635083 -23.609112 39.067433 1.026898 2.219705 0.068555 -0.008100 139004.000000 0 0 1
-17.356744 -27.308203 -23.730412 40.126387 1.004620 2.203580 0.081026 -0.004756 197614.000000 0 0 1
-17.237844 -28.723783 -23.723712 41.048916 1.030285 2.186996 0.089957 0.004895 75728.000000 0 0 1
-18.236044 -29.381823 -24.743112 42.521364 1.015326 2.191857 0.093232 -0.000027 206630.000000 0 0 1
-17.909544 -29.348783 -26.146712 43.194367 1.022888 2.220973 0.085782 0.000500 -112852.000000 0 0 1
-17.922244 -28.031593 -26.675342 42.644471 1.001938 2.246605 0.098542 -0.012101 -62232.400000 0 0 1
-16.807544 -27.735193 -27.705872 42.653837 1.025976 2.277791 0.104542 -0.013616 -244068.000000 0 0 1
-16.940644 -28.270453 -29.001072 43.900639 1.030940 2.292423 0.096377 -0.004220 -333496.000000 0 0 1
-15.810744 -27.981243 -29.776002 43.812554 1.056473 2.318044 0.057566 -0.001726 -352237.000000 0 0 1
-15.927344 -28.222363 -31.346372 45.086329 1.057001 2.339567 0.065085 -0.000389 -118918.000000 0 0 1
-15.880044 -29.549793 -31.720372 46.168691 1.077679 2.328223 0.047294 0.001636 -101239.000000 0 0 1
-16.483844 -29.750143 -32.914612 47.330326 1.064829 2.339805 0.051702 0.001856 -499297.000000 0 0 1
-16.450444 -31.173403 -33.458772 48.599255 1.085229 2.330164 0.052298 -0.000788 372986.000000 0 0 1
-15.190144 -31.683603 -33.896992 48.822098 1.123738 2.338238 0.045647 0.003457 250416.000000 0 0 1
-15.370744 -32.901113 33.889329 49.671216 1.133748 0.819929 0.043298 -0.000278 298542.000000 0 0 1
-14.088544 -33.493043 33.238725 49.245141 1.172624 0.829880 0.040794 -0.008930 693992.000000 0 0 1
-13.168544 -34.137000 34.144579 50.045955 1.202629 0.819941 0.050626 -0.008870 329316.000000 0 0 1
-12.204744 33.757508 33.367243 49.009163 -1.223877 0.821892 0.051211 -0.010740 301440.000000 0 0 1
-11.163344 32.987660 -34.195460 48.807125 -1.244484 2.347068 0.060576 -0.012104 736298.000000 0 0 1
-10.400844 33.827150 -33.297042 48.591631 -1.272500 2.325733 0.062330 -0.008356 569614.000000 0 0 1
-9.555144 33.103412 -32.387842 47.287514 -1.289789 2.325281 0.061088 -0.020558 572352.000000 0 0 1
-8.813544 34.088077 -31.415222 47.186775 -1.317785 2.299313 0.056263 -0.018557 734573.000000 0 0 1
-9.701344 -33.892783 -30.432792 46.572434 1.292014 2.282930 0.062856 -0.017467 425004.000000 0 0 1
-9.208844 -32.635743 -30.047592 45.307310 1.295776 2.295876 0.053134 -0.017101 -121383.000000 0 0 1
-10.046744 -31.913323 -28.981142 44.264024 1.265805 2.284626 0.055636 -0.009195 -120407.000000 0 0 1
-10.020144 -32.413903 -27.629062 43.754194 1.270984 2.254232 0.077220 -0.016344 -6770.340000 0 0 1
-10.515144 -33.721093 -27.359402 44.679047 1.268525 2.229831 0.083706 -0.018585 -89070.700000 0 0 1
-10.677944 -34.043893 -25.854522 44.062018 1.266862 2.197868 0.080572 -0.024374 936136.000000 0 0 1
-9.446044 -34.127033 -25.114442 43.412180 1.300766 2.187699 0.081161 -0.030131 720357.000000 0 0 1
-9.792844 -34.156771 -23.753412 42.741191 1.291583 2.160061 0.070197 -0.030628 950621.000000 0 0 1
-8.515344 -34.187005 -22.822412 41.977671 1.326683 2.145612 0.068910 -0.034366 706394.000000 0 0 1
-7.938644 33.140417 -22.693412 40.942646 -1.335681 2.158286 0.059678 -0.037537 43834.900000 0 0 1
-6.850644 33.159848 -21.780512 40.260372 -1.367068 2.142412 0.063924 -0.040267 -10213.900000 0 0 1
-6.118344 31.790896 -21.633812 38.937347 -1.380665 2.159888 0.072634 -0.047361 -48763.000000 0 0 1
-5.110744 31.502146 -22.584112 39.096637 -1.409963 2.186641 0.064887 -0.054210 177377.000000 0 0 1
-4.936644 30.093686 -22.593112 37.953249 -1.408202 2.208420 0.047469 -0.043976 -1240440.000000 0 0 1
-3.546744 29.705206 -23.043512 37.762178 -1.451961 2.227144 0.051090 -0.051158 -798076.000000 0 0 1
-3.023444 29.870286 -24.369112 38.668189 -1.469921 2.252621 0.066019 -0.052946 168950.000000 0 0 1
-2.651944 31.211116 -24.579112 39.815817 -1.486032 2.236128 0.060855 -0.062485 -556336.000000 0 0 1
-2.223644 31.300466 -26.051362 40.784031 -1.499874 2.263687 0.055990 -0.036167 -78398.800000 0 0 1
-1.175644 32.174116 -26.440442 41.661167 -1.534273 2.258358 0.061306 -0.049711 360413.000000 0 0 1
-1.614244 33.499457 -26.276982 42.606327 -1.522646 2.235390 0.042502 -0.036958 -320890.000000 0 0 1
-0.754244 -33.936573 -26.892192 43.306465 1.548575 2.240781 0.020092 -0.017409 -773748.000000 0 0 1
0.471756 -33.708853 -26.283972 42.747591 -1.556802 2.233010 0.037880 -0.020667 -477929.000000 0 0 1
1.157356 -32.658393 -26.910012 42.332716 -1.535373 2.259684 0.028183 -0.005486 -351103.000000 0 0 1
2.403356 -32.120733 -26.219042 41.532587 -1.496113 2.254010 0.035053 -0.002708 -650379.000000 0 0 1
2.159856 -31.299713 -25.069112 40.159649 -1.501900 2.244950 0.031077 -0.008729 714099.000000 0 0 1
3.354356 -30.752483 -24.464412 39.439503 -1.462150 2.239924 0.025707 -0.003577 488992.000000 0 0 1
3.178856 -30.070023 -23.098112 38.050417 -1.465472 2.223126 0.041602 -0.004206 -244861.000000 0 0 1
3.060656 -30.945713 -22.009712 38.097667 -1.472213 2.186727 0.053208 -0.004453 426232.000000 0 0 1
3.219356 -30.274833 -20.755612 36.847323 -1.464857 2.169155 0.057703 -0.002048 -242866.000000 0 0 1
3.258656 -31.258023 -19.509712 36.990698 -1.466921 2.126360 0.058781 0.003623 -504948.000000 0 0 1
1.985056 -31.762963 -19.234712 37.186025 -1.508382 2.114438 0.057024 0.001907 -133002.000000 0 0 1
1.844956 -33.118423 -19.425912 38.439561 -1.515146 2.100598 0.062628 0.005455 -171166.000000 0 0 1
2.641556 -34.165511 -18.554112 38.968129 -1.493633 2.067051 0.047264 -0.008219 843629.000000 0 0 1
4.049456 -34.163447 -18.797812 39.203277 -1.452815 2.070877 0.051813 0.004907 363713.000000 0 0 1
4.663456 33.444203 -18.017112 38.273736 1.432250 2.060930 0.064059 -0.010583 -323782.000000 0 0 1
5.902656 32.726696 -18.518712 38.063377 1.392353 2.078902 0.062019 -0.008193 -481864.000000 0 0 1
7.063456 33.498699 -18.621912 38.972180 1.362983 2.068974 0.102330 -0.008798 -894361.000000 0 0 1
7.960856 32.818521 -19.440512 38.966191 1.332821 2.093134 0.064183 -0.011917 -688859.000000 0 0 1
9.223956 33.598784 -19.806312 40.078044 1.302865 2.087703 0.046188 -0.017657 -264568.000000 0 0 1
9.943056 33.799627 -18.583912 39.832662 1.284691 2.056182 0.043211 -0.005574 204332.000000 0 0 1
11.250656 -34.263244 -18.767412 40.654187 -1.253529 2.050634 0.037690 0.004073 417475.000000 0 0 1
12.133856 -34.171501 -17.503812 40.265437 -1.229597 2.020513 0.011772 0.001801 -295989.000000 0 0 1
12.733656 33.191619 -17.098712 39.448644 1.204472 2.019105 0.006069 -0.004088 -60674.300000 0 0 1
13.231756 33.185422 -15.776012 39.054246 1.191392 1.986628 0.011457 -0.011489 -8020.630000 0 0 1
14.319956 32.122386 -15.476112 38.424196 1.151446 1.985337 0.014887 -0.011669 74605.700000 0 0 1
13.968356 30.855136 -14.985212 37.036617 1.145693 1.987344 0.024928 -0.012984 -631606.000000 0 0 1
15.100756 30.042286 -14.865312 36.763423 1.105031 1.987065 0.018863 -0.003277 -344359.000000 0 0 1
14.944456 28.915646 -13.852612 35.374372 1.093776 1.973166 0.035768 -0.015046 -400188.000000 0 0 1
14.925256 29.358786 -12.507512 35.229809 1.100472 1.933739 0.036272 -0.019839 -355562.000000 0 0 1
13.647756 29.294536 -11.926512 34.448117 1.134815 1.924332 0.051937 -0.020090 -212271.000000 0 0 1
13.133456 27.931096 -11.464312 32.925131 1.131264 1.926439 0.041605 -0.022000 -573438.000000 0 0 1
12.618956 27.128426 -12.512212 32.430618 1.135410 1.966887 0.035898 -0.020039 -12750.200000 0 0 1
12.266356 25.754646 -12.273712 31.054940 1.126306 1.977110 0.050060 -0.018417 958639.000000 0 0 1
11.153556 25.521746 -11.151612 30.001996 1.158787 1.951631 0.039439 -0.020770 385666.000000 0 0 1
9.962456 26.275366 -11.324812 30.296811 1.208387 1.953894 0.035492 -0.012817 279912.000000 0 0 1
9.380056 26.539566 -10.058612 29.891633 1.231063 1.913997 0.016342 -0.005830 -288167.000000 0 0 1
8.166456 27.459876 -10.101012 30.377068 1.281730 1.909772 0.022447 -0.004128 -396935.000000 0 0 1
8.532256 28.785086 -10.523412 31.813877 1.282634 1.907927 0.029496 -0.015861 -224775.000000 0 0 1
7.520356 29.774086 -10.610412 32.490503 1.323390 1.903468 0.026919 -0.011144 -223662.000000 0 0 1
8.057056 31.149676 -11.055012 34.021049 1.317687 1.901751 0.059761 -0.012488 -15358.300000 0 0 1
8.970856 31.839576 -10.233812 34.626085 1.296164 1.870830 0.051728 -0.012316 -210012.000000 0 0 1
9.482956 33.051802 -10.747812 36.025873 1.291390 1.873745 0.059346 -0.009135 -73820.600000 0 0 1
10.676856 33.021790 -11.701912 36.624700 1.258078 1.896007 0.049313 -0.015083 182730.000000 0 0 1
11.973656 33.019375 -11.095012 36.834045 1.222919 1.876764 0.037276 -0.004676 418467.000000 0 0 1
12.957556 33.156929 -12.109912 37.602263 1.198251 1.898693 0.039815 -0.007207 1723330.000000 0 0 1
14.465356 32.989926 -11.601812 37.844204 1.157565 1.882381 0.043110 -0.007874 1609050.000000 0 0 1
14.885256 33.934539 -10.650612 38.555925 1.157424 1.850674 0.051630 -0.004387 441607.000000 0 0 1
16.315256 33.940860 -10.586512 39.118331 1.122710 1.844842 0.045063 -0.015270 798641.000000 0 0 1
16.893456 -33.539933 -9.642012 38.772212 -1.104208 1.822117 0.053206 -0.012531 68752.400000 0 0 1
16.833256 -34.056824 -8.362012 38.899216 -1.111743 1.787453 0.052545 -0.006040 360419.000000 0 0 1
17.472956 -33.211093 -7.391212 38.248019 -1.086473 1.765264 0.048331 -0.007905 -763849.000000 0 0 1
17.608156 -33.774833 -5.966712 38.553705 -1.090223 1.726185 0.051459 -0.003198 268308.000000 0 0 1
18.634956 33.831514 -5.873412 39.068272 1.067326 1.721706 0.042032 -0.010602 1335230.000000 0 0 1
19.997656 -34.240975 -5.968312 40.099519 -1.042204 1.720189 0.044253 -0.010342 543961.000000 0 0 1
20.879156 33.380974 -6.814812 39.958357 1.011851 1.742182 0.028123 -0.004572 32028.900000 0 0 1
20.920356 32.044836 -6.272212 38.779808 0.992423 1.733249 0.030207 -0.001529 -410078.000000 0 0 1
21.884556 31.896976 -5.276312 39.040881 0.969459 1.706360 0.043440 -0.001813 -652344.000000 0 0 1
22.281456 30.485186 -4.821112 38.066429 0.939635 1.697787 0.029302 -0.010256 -489411.000000 0 0 1
23.028656 29.851936 -5.790312 38.144263 0.913721 1.723186 0.022424 -0.007585 -380479.000000 0 0 1
23.608356 28.681946 -5.275012 37.521118 0.882123 1.711851 0.020909 -0.003804 -360155.000000 0 0 1
24.422756 27.958786 -6.311912 37.656407 0.852801 1.739210 0.018299 0.005185 -294110.000000 0 0 1
25.672456 28.593676 -6.604712 38.990967 0.839178 1.741008 0.031046 0.003598 565072.000000 0 0 1
26.579256 27.727156 -7.280212 39.092883 0.806532 1.758118 0.029360 0.006343 45558.400000 0 0 1
27.299956 26.628976 -6.439012 38.676231 0.772957 1.738060 0.035532 0.006053 -1066200.000000 0 0 1
28.259456 27.271776 -5.668612 39.679715 0.767614 1.714146 0.033403 0.004566 -641393.000000 0 0 1
28.918556 26.416646 -4.809112 39.462003 0.740215 1.692967 0.031815 0.015064 -394248.000000 0 0 1
30.032456 27.044686 -3.963412 40.608769 0.733100 1.668552 0.033376 0.013222 -294405.000000 0 0 1
29.657156 27.950466 -2.986212 40.861876 0.755781 1.643942 0.037886 -0.003820 69663.600000 0 0 1
30.711156 28.130226 -2.037212 41.696942 0.741564 1.619673 0.052315 -0.005600 345810.000000 0 0 1
30.499556 29.254196 -1.047312 42.274434 0.764560 1.595573 0.077719 -0.013688 -13470.700000 0 0 1
30.733756 30.548396 -1.608712 43.363075 0.782373 1.607903 0.047107 -0.001908 25160.400000 0 0 1
30.440256 31.569976 -0.719612 43.861035 0.803614 1.587204 0.053113 -0.004077 -364577.000000 0 0 1
33.315678 22.380557 19.318080 44.542249 0.591529 1.122199 0.065414 -0.003141 48838.600000 0 0 1
33.483238 22.471557 20.750080 45.350457 0.591085 1.095559 0.037507 -0.000303 -44996.500000 0 0 1
34.192058 23.635457 21.052180 46.593196 0.604833 1.101981 0.051439 0.003500 -49596.500000 0 0 1
34.396888 23.924857 22.535880 47.575315 0.607735 1.077322 0.039076 0.006069 846194.000000 0 0 1
33.162378 24.238957 23.222880 47.186571 0.631176 1.056238 0.035553 0.009305 929403.000000 0 0 1
33.361298 24.532857 24.600320 48.166514 0.634071 1.034757 0.030124 0.008799 702211.000000 0 0 1
31.980188 24.855157 25.278750 47.744387 0.660686 1.012832 0.043055 0.002816 792045.000000 0 0 1
31.442388 26.087457 24.803360 47.795249 0.692585 1.025174 0.034179 0.006583 238363.000000 0 0 1
30.247168 26.492257 25.438360 47.579838 0.719316 1.006708 0.036027 -0.000572 1803.780000 0 0 1
30.193078 28.014157 25.715160 48.555993 0.747982 1.012670 0.032611 -0.006526 -167820.000000 0 0 1
29.877228 28.854557 24.580260 48.264101 0.767987 1.036441 0.033946 -0.016799 318468.000000 0 0 1
29.649858 30.224557 24.908170 49.122855 0.794996 1.039028 0.029048 -0.016571 -128101.000000 0 0 1
29.778228 31.299257 23.805110 49.326156 0.810296 1.067168 0.036366 -0.015799 101264.000000 0 0 1
31.119658 31.456557 23.374250 50.043018 0.790782 1.084807 0.033842 -0.024625 -76982.400000 0 0 1
31.216018 32.171157 22.166280 50.007670 0.800465 1.111567 0.032088 -0.020587 -538303.000000 0 0 1
32.638938 32.499757 21.742680 50.934061 0.783261 1.129758 0.038086 -0.032189 -554471.000000 0 0 1
33.115588 33.529857 22.562580 52.249053 0.791614 1.124278 0.037377 -0.015459 -46970.800000 0 0 1
34.500658 33.704357 22.308780 53.140952 0.773724 1.137567 0.041431 -0.011454 92031.500000 0 0 1
35.082008 -33.725163 23.066080 53.853301 -0.765681 1.128171 0.040905 -0.006629 -249240.000000 0 0 1
34.660368 -32.533963 22.466580 52.578961 -0.753763 1.129301 0.020885 -0.003890 228457.000000 0 0 1
35.090028 -31.425763 23.253580 52.532063 -0.730365 1.112239 0.033591 -0.007512 -219747.000000 0 0 1
34.004198 -30.280063 23.215980 51.109192 -0.727531 1.099274 0.020278 -0.004551 1262570.000000 0 0 1
32.703638 -30.693163 23.664120 50.710835 -0.753696 1.085299 0.016474 -0.003733 389922.000000 0 0 1
31.888618 -30.993163 22.576080 49.871230 -0.771159 1.101019 0.031237 -0.000918 -1089730.000000 0 0 1
31.047708 -32.247163 22.761480 50.218769 -0.804346 1.100392 0.024881 0.000854 -262463.000000 0 0 1
30.034428 -32.089363 23.744870 49.956111 -0.818464 1.075475 0.016668 0.000326 36650.600000 0 0 1
29.433098 -33.362863 23.946950 50.525680 -0.847897 1.077018 0.014856 0.001968 94008.000000 0 0 1
28.311438 -33.275563 25.017710 50.345670 -0.865828 1.050752 0.002877 0.001991 71785.800000 0 0 1
28.115348 33.979157 25.494250 50.941267 0.879553 1.046662 0.002490 -0.009716 202179.000000 0 0 1
27.150428 33.894257 26.536750 50.893669 0.895426 1.022287 -0.005071 -0.004778 -330137.000000 0 0 1
26.884928 32.518057 27.063790 50.126561 0.879944 1.000467 -0.004473 0.018948 506466.000000 0 0 1
26.213728 31.662057 26.127840 48.706359 0.879260 1.004588 0.010380 0.001983 -425988.000000 0 0 1
24.869428 31.813957 25.795760 47.916986 0.907305 1.002327 0.018456 0.001566 -626479.000000 0 0 1
24.440928 31.026257 24.483600 46.469713 0.903570 1.015880 0.051128 -0.017846 62290.700000 0 0 1
24.680228 31.725857 23.309980 46.465028 0.909664 1.045271 0.063229 -0.024912 859747.000000 0 0 1
26.049628 31.948257 22.912580 47.162067 0.886754 1.063488 0.039346 -0.019822 611803.000000 0 0 1
26.206828 32.868857 21.673280 47.295778 0.897695 1.094771 0.045718 -0.011653 881938.000000 0 0 1
27.586798 33.062857 21.305380 48.042722 0.875444 1.111333 0.056426 -0.013476 861783.000000 0 0 1
27.786198 33.746657 20.062580 48.097991 0.881963 1.140523 0.049208 -0.018691 -354144.000000 0 0 1
29.188148 34.287657 19.771180 49.178155 0.865564 1.157062 0.067794 -0.033291 -279632.000000 0 0 1
30.040908 33.327357 19.189380 48.799602 0.837214 1.166656 0.084227 -0.040279 -437852.000000 0 0 1
30.874738 33.895557 18.217680 49.336012 0.832003 1.192587 0.088235 -0.031510 -107927.000000 0 0 1
31.779508 32.790757 17.561380 48.924155 0.801058 1.203652 0.077728 -0.025057 21661.400000 0 0 1
32.632868 32.184957 18.511380 49.431232 0.778488 1.186952 0.069058 -0.026381 -330033.000000 0 0 1
33.446678 31.257357 17.868780 49.142608 0.751575 1.198655 0.094368 -0.029081 264070.000000 0 0 1
34.433378 30.515757 18.843880 49.718817 0.725153 1.182071 0.091983 -0.032910 655359.000000 0 0 1
35.402578 31.346057 19.467080 51.135947 0.724700 1.180251 0.094583 -0.027179 91369.500000 0 0 1
-36.166524 30.695357 20.353580 51.618704 -0.703752 1.165483 0.085036 -0.022930 113680.000000 0 0 1
-35.019159 31.609657 20.808080 51.560528 -0.734271 1.155385 0.095938 -0.019819 -160253.000000 0 0 1
-34.137915 32.091257 19.816580 50.871827 -0.754505 1.170665 0.088530 -0.018744 971101.000000 0 0 1
-32.836044 32.509557 20.283380 50.462784 -0.780402 1.157154 0.065503 -0.008382 1054230.000000 0 0 1
-32.711054 33.865657 21.040280 51.571204 -0.802739 1.150550 0.064748 -0.009671 -586467.000000 0 0 1
-33.306384 33.937157 22.291980 52.516456 -0.794778 1.132413 0.073943 -0.012291 25444.700000 0 0 1
-33.065424 -33.385663 22.891280 52.267920 0.790217 1.117468 0.073217 -0.013553 -52152.100000 0 0 1
-33.062024 -33.376663 24.439230 52.956350 0.790134 1.091114 0.080208 -0.020043 -81210.400000 0 0 1
-34.321671 -33.781263 24.925040 54.225533 0.777463 1.093190 0.078285 -0.014024 -199110.000000 0 0 1
-34.286579 34.201557 26.225970 55.073746 -0.784157 1.074471 0.090033 -0.020470 -878530.000000 0 0 1
-35.631811 33.978657 26.844840 56.078699 -0.761654 1.071624 0.069778 -0.023985 -771252.000000 0 0 1
-35.612036 32.985157 27.871260 55.973608 -0.747123 1.049580 0.085800 -0.027432 1220810.000000 0 0 1
35.503438 32.877257 28.483300 56.148967 0.747012 1.038770 0.069954 -0.025380 1133350.000000 0 0 1
35.427418 32.040057 29.772160 56.285422 0.735233 1.013434 0.071915 -0.020990 -111588.000000 0 0 1
35.579298 30.640357 29.580190 55.495095 0.710952 1.008626 0.070771 -0.023671 584524.000000 0 0 1
-35.657910 30.162857 28.979660 54.964581 -0.702106 1.015444 0.077246 -0.021356 219341.000000 0 0 1
-35.921052 28.677057 28.560060 54.114440 -0.673725 1.014822 0.076673 -0.024136 -383772.000000 0 0 1
35.659028 28.450757 27.478600 53.254909 0.673432 1.028642 0.069415 -0.021343 190829.000000 0 0 1
35.316948 27.105057 27.091700 52.114596 0.654595 1.024123 0.075490 -0.024155 191051.000000 0 0 1
34.702838 26.120757 28.103620 51.733880 0.645226 0.996512 0.075207 -0.023291 -525959.000000 0 0 1
35.696398 25.699857 28.980300 52.674218 0.623994 0.988217 0.064428 -0.022730 -138570.000000 0 0 1
35.340808 24.471457 29.566310 52.172710 0.605635 0.968300 0.061077 -0.012068 -70755.400000 0 0 1
35.908748 23.259557 28.801100 51.574689 0.574785 0.978299 0.042577 -0.002299 -127024.000000 0 0 1
35.312738 23.091757 27.532390 50.381060 0.579127 0.992637 0.040583 -0.005016 -198016.000000 0 0 1
35.750118 21.969257 26.838730 49.810005 0.551030 1.001758 0.036808 -0.001414 -555632.000000 0 0 1
35.266418 20.558957 27.298240 49.107890 0.527797 0.981372 0.042773 -0.002978 -274543.000000 0 0 1
33.925248 20.302857 26.874060 47.805267 0.539285 0.973805 0.036996 0.000911 254311.000000 0 0 1
33.456738 19.154557 27.499800 47.354930 0.519966 0.951188 0.050798 -0.002596 -359226.000000 0 0 1
33.188458 19.052657 29.030880 48.034045 0.521139 0.921807 0.046189 -0.015075 18565.600000 0 0 1
32.045618 19.784857 29.504490 47.842211 0.553113 0.906247 0.041866 -0.011231 735750.000000 0 0 1
32.145098 21.192757 29.334450 48.404031 0.582874 0.919732 0.035396 -0.009229 -1182470.000000 0 0 1
30.959888 21.924257 29.888540 48.296092 0.616175 0.903505 0.032973 -0.014615 -443425.000000 0 0 1
29.665618 21.815057 29.320030 47.070264 0.634069 0.898353 0.031333 -0.020166 498809.000000 0 0 1
29.335888 22.601857 28.181820 46.536580 0.656462 0.920296 0.035417 -0.011039 -139079.000000 0 0 1
29.258318 24.113257 28.356080 47.345175 0.689294 0.928642 0.036014 0.000523 -53028.000000 0 0 1
30.552338 24.702057 28.429260 48.495977 0.679912 0.944413 0.039841 -0.001160 220082.000000 0 0 1
30.647048 25.957657 29.137310 49.618790 0.702742 0.943172 0.034300 0.003337 -1603.600000 0 0 1
31.015608 25.851057 30.654280 50.694477 0.694828 0.921424 0.036881 -0.004318 -103371.000000 0 0 1
32.369858 25.504157 30.815940 51.457671 0.667318 0.928719 0.042780 -0.007606 -331210.000000 0 0 1
32.763908 25.238457 32.164560 52.392865 0.656375 0.909791 0.049119 -0.007467 76833.200000 0 0 1
32.128138 24.016257 32.926957 51.895880 0.641909 0.883459 0.047379 -0.008228 -158825.000000 0 0 1
32.491128 23.882557 -34.133744 52.831453 0.633863 2.273244 0.036398 -0.013481 2109.500000 0 0 1
31.923098 22.809057 -33.427642 51.543617 0.620391 2.276449 0.017430 -0.013083 -734276.000000 0 0 1
32.458868 22.510357 -32.040982 50.861762 0.606353 2.252301 0.010634 -0.013717 -641417.000000 0 0 1
32.047578 23.439757 -31.128732 50.452625 0.631494 2.235708 -0.003279 -0.014295 110386.000000 0 0 1
32.495608 23.182157 -29.800462 49.814099 0.619658 2.212091 0.028921 -0.025032 164091.000000 0 0 1
33.938248 23.601957 -29.360522 50.704016 0.607658 2.188368 0.032207 -0.005256 396276.000000 0 0 1
34.271988 23.084757 -28.133872 49.989898 0.592770 2.168555 0.029883 -0.012232 -421812.000000 0 0 1
35.499128 23.654657 -27.742702 50.886033 0.587780 2.147415 0.042023 -0.010868 -249330.000000 0 0 1
36.154408 22.980457 -26.568922 50.409823 0.566200 2.125932 0.034333 -0.013253 -841522.000000 0 0 1
-35.418076 21.987557 -26.968712 49.650822 -0.555574 2.145001 0.029013 -0.015421 -363882.000000 0 0 1
-35.642718 20.793357 -26.264922 48.914345 -0.528112 2.137623 0.014945 -0.008913 -318881.000000 0 0 1
-34.567524 19.718657 -26.578402 47.855517 -0.518400 2.159626 0.033522 -0.004559 47172.300000 0 0 1
-33.300274 20.013157 -26.041572 46.771766 -0.541148 2.161300 0.037038 -0.007292 -688602.000000 0 0 1
-32.451214 18.933457 -26.185342 45.795515 -0.528157 2.179480 0.028433 -0.023432 -605377.000000 0 0 1
-31.019184 19.180257 -25.726662 44.631078 -0.553792 2.185149 0.033646 -0.024427 -399278.000000 0 0 1
-31.038784 19.391057 -24.308912 43.935662 -0.558410 2.157098 0.036524 -0.023794 726006.000000 0 0 1
-29.722814 19.610757 -23.788312 42.824189 -0.583225 2.159746 0.032920 -0.017731 803652.000000 0 0 1
-29.825384 19.969157 -22.269512 42.240406 -0.589986 2.126109 0.022317 -0.014926 728285.000000 0 0 1
-30.649604 18.995557 -21.529612 41.997066 -0.554826 2.109060 0.022384 -0.006111 710255.000000 0 0 1
-30.907314 19.565557 -20.292612 41.831365 -0.564360 2.077280 0.024558 -0.003894 -400086.000000 0 0 1
-31.845464 18.684157 -19.406412 41.711390 -0.530593 2.054718 0.023443 -0.003512 422474.000000 0 0 1
-32.623034 19.304257 -18.371312 42.123886 -0.534322 2.022085 0.019005 -0.008118 507830.000000 0 0 1
-33.689234 20.128357 -18.831712 43.528710 -0.538558 2.018201 0.008541 -0.011490 -565236.000000 0 0 1
-34.800594 20.153057 -17.754912 43.959799 -0.524911 1.986561 0.017458 -0.015623 -452929.000000 0 0 1
-34.666658 20.776357 -16.474412 43.644477 -0.539918 1.957857 0.020889 -0.025702 442515.000000 0 0 1
-35.829579 20.502857 -15.686712 44.161055 -0.519752 1.933941 0.028913 -0.014347 130046.000000 0 0 1
-35.728587 21.195257 -14.331912 43.945131 -0.535426 1.903005 0.029952 -0.014871 -143349.000000 0 0 1
-35.602772 22.630457 -14.384612 44.571426 -0.566212 1.899411 0.029755 -0.027752 1725070.000000 0 0 1
35.513008 23.217057 -14.559912 44.857513 0.579015 1.901365 0.029563 -0.021845 1425110.000000 0 0 1
35.513478 24.722057 -14.756412 45.718037 0.608125 1.899451 0.015145 -0.025492 -221569.000000 0 0 1
36.099968 25.459657 -13.708812 46.252928 0.614244 1.871705 0.020847 -0.018243 108118.000000 0 0 1
35.766088 26.823257 -13.924312 46.825064 0.643478 1.872732 0.037859 -0.006411 -3228.790000 0 0 1
-35.647282 27.541357 -14.813212 47.420315 -0.657814 1.888495 0.036293 -0.003077 -211454.000000 0 0 1
-35.818984 27.332257 -16.206812 47.882279 -0.651811 1.916089 0.050177 -0.003118 -337942.000000 0 0 1
-34.754996 27.880257 -16.915412 47.658678 -0.676077 1.933634 0.053158 -0.005222 -923801.000000 0 0 1
-34.611786 27.344457 -18.384312 47.787843 -0.668634 1.965687 0.049622 -0.014561 -192021.000000 0 0 1
-33.941284 26.120257 -18.467912 46.640565 -0.655910 1.977912 0.041564 -0.019227 742494.000000 0 0 1
-32.510134 26.205957 -18.451312 45.652074 -0.678441 1.986870 0.030802 -0.006608 546125.000000 0 0 1
-31.897884 24.841057 -18.825112 44.597510 -0.661660 2.006569 0.022162 -0.009033 -345760.000000 0 0 1
-32.095674 24.661457 -20.183012 45.229124 -0.655157 2.033355 0.019904 -0.007690 225643.000000 0 0 1
-31.738844 23.363557 -20.644912 44.490700 -0.634558 2.053333 0.023519 -0.007225 -434651.000000 0 0 1
-31.324374 23.219157 -22.130312 44.834098 -0.637877 2.087026 0.019229 -0.001366 358356.000000 0 0 1
-32.455604 23.370657 -22.979012 46.125793 -0.624076 2.092296 0.031303 -0.007464 444502.000000 0 0 1
-31.999114 23.178457 -24.312512 46.392697 -0.626880 2.122406 0.033720 -0.008451 249114.000000 0 0 1
-32.972874 23.831357 -25.320852 47.919615 -0.625836 2.127514 0.011511 0.002842 -101231.000000 0 0 1
-32.847684 25.205757 -25.236682 48.489077 -0.654515 2.118187 0.007864 0.005464 334285.000000 0 0 1
-33.641774 25.866957 -26.248362 49.898345 -0.655484 2.124730 0.006655 -0.001477 211697.000000 0 0 1
-33.335914 27.443057 -26.436432 50.628939 -0.688745 2.120179 -0.000502 0.007197 997647.000000 0 0 1
-31.985104 27.587857 -26.929642 50.093336 -0.711719 2.138372 -0.009204 0.002567 574785.000000 0 0 1
-31.779384 28.917657 -27.337642 50.926484 -0.738285 2.137443 -0.002242 0.002109 -299019.000000 0 0 1
-30.428224 29.106157 -28.034262 50.586213 -0.763195 2.158183 0.006943 0.000512 -873937.000000 0 0 1
-29.439104 28.701157 -27.153382 49.271933 -0.772706 2.154469 -0.026020 0.001672 18152.500000 0 0 1
-28.148814 28.456757 -27.781382 48.723176 -0.790838 2.177531 0.014308 0.000736 1664130.000000 0 0 1
-27.214164 29.719857 -27.655452 48.874376 -0.829380 2.172257 0.012627 -0.014729 -87157.300000 0 0 1
-26.534594 29.910257 -26.406382 47.916647 -0.845132 2.154466 0.018876 -0.015331 -294978.000000 0 0 1
-27.381844 30.188457 -25.332802 47.988114 -0.834111 2.126919 0.001262 -0.007391 -102085.000000 0 0 1
-26.601304 30.531557 -24.003712 47.074234 -0.854081 2.105879 -0.015300 -0.010684 519785.000000 0 0 1
-25.950244 31.802157 -24.014112 47.554914 -0.886381 2.100151 -0.013353 -0.004319 130296.000000 0 0 1
-25.279254 32.120957 -22.814712 46.811404 -0.904031 2.079877 0.012798 0.006929 -78758.900000 0 0 1
-24.687344 33.559357 -22.874812 47.528437 -0.936554 2.072919 0.010613 0.016664 -245193.000000 0 0 1
-25.600804 -33.944763 -22.917712 48.299789 0.924619 2.065180 -0.007136 0.008699 -286870.000000 0 0 1
-25.020144 -32.797263 -23.428812 47.440250 0.919107 2.087319 0.004052 0.011016 -489570.000000 0 0 1
17.160756 8.724457 -25.740882 32.143439 0.470342 2.499448 0.049573 -0.017688 930720.000000 0 0 1
15.793456 8.259557 -25.763532 31.327513 0.481857 2.536401 0.040826 -0.021773 827880.000000 0 0 1
15.746756 6.844557 -25.480202 30.725380 0.410028 2.548629 0.035814 -0.023840 169378.000000 0 0 1
14.363756 6.190957 -25.248322 29.700558 0.406952 2.586964 0.055297 -0.027337 -34720.200000 0 0 1
13.784056 6.395757 -23.993412 28.400523 0.434432 2.577030 0.077961 -0.035501 -884589.000000 0 0 1
12.581456 5.725557 -24.044012 27.734266 0.427070 2.619831 0.080386 -0.037228 -893148.000000 0 0 1
11.675456 5.785557 -22.791112 26.253070 0.460066 2.622221 0.084211 -0.042249 -70936.200000 0 0 1
12.142556 5.078957 -21.649112 25.336170 0.396163 2.595335 0.082654 -0.027719 -210259.000000 0 0 1
11.407456 5.304557 -20.481312 24.036483 0.435264 2.590767 0.087743 -0.026554 -180279.000000 0 1 0
11.588956 6.685057 -19.831912 23.922763 0.523221 2.548109 0.072616 -0.037574 -13600.400000 0 1 0
11.103556 6.750257 -18.492312 22.601339 0.546235 2.529062 0.060882 -0.029097 -376739.000000 0 1 0
11.227956 8.072857 -18.008012 22.705208 0.623362 2.486715 0.056253 -0.031221 95606.600000 0 1 0
12.642656 8.477557 -17.547312 23.229590 0.590688 2.427040 0.038207 -0.032923 10739.800000 0 1 0
13.181256 7.754157 -16.433212 22.448227 0.531751 2.392122 0.051180 -0.030939 -141166.000000 0 1 0
14.530256 8.056457 -16.273212 23.256230 0.506262 2.345824 0.034474 -0.024240 -569506.000000 0 1 0
15.216156 7.475057 -14.985912 22.627095 0.456629 2.294680 0.040718 -0.028926 -344602.000000 0 1 0
16.619456 7.581357 -15.065012 23.677793 0.427976 2.260425 0.031795 -0.028759 136868.000000 0 1 0
17.213656 7.702257 -13.810012 23.374155 0.420732 2.202876 0.040229 -0.020386 -203528.000000 0 1 0
17.614256 9.182757 -13.447512 23.987926 0.480562 2.165900 0.046738 -0.021083 -514306.000000 0 1 0
16.535656 10.075557 -13.255012 23.465722 0.547247 2.171068 0.042534 -0.019480 579651.000000 0 1 0
17.058356 11.391157 -13.086412 24.331053 0.588770 2.138679 0.064880 -0.023250 -251114.000000 0 1 0
15.956456 12.378557 -12.768912 23.893142 0.659792 2.134615 0.075051 -0.019162 -543738.000000 0 1 0
15.326856 12.306257 -11.502712 22.774302 0.676520 2.100264 0.098874 -0.016981 184578.000000 0 1 0
15.818856 13.278157 -10.644412 23.234654 0.698301 2.046683 0.097535 -0.012279 -283390.000000 0 1 0
15.403156 14.744657 -10.810312 23.906588 0.763559 2.040015 0.094564 -0.009380 63479.900000 0 1 0
14.069956 14.966557 -10.372512 23.011964 0.816267 2.038395 0.098278 -0.020212 408478.000000 0 1 0
13.769656 16.334657 -10.481412 23.796731 0.870397 2.026903 0.082098 -0.024713 -303887.000000 0 1 0
12.606856 16.813557 -9.630312 23.116475 0.927421 2.000498 0.062345 -0.025528 -435378.000000 0 1 0
12.877656 16.717457 -8.234612 22.652068 0.914422 1.942846 0.073466 -0.024412 849978.000000 0 1 0
11.825356 17.246857 -7.388212 22.178340 0.969764 1.910415 0.060949 -0.015832 730850.000000 0 1 0
12.171056 17.076957 -5.877412 21.778453 0.951586 1.844057 0.055783 -0.013977 636416.000000 0 1 0
13.176356 18.000757 -5.423312 22.957698 0.938922 1.809281 0.065728 -0.014989 502793.000000 0 1 0
13.578656 17.731957 -4.101812 22.707423 0.917277 1.752431 0.064537 -0.011755 678026.000000 0 1 0
14.718556 18.766257 -3.683712 24.132509 0.905696 1.724041 0.062887 -0.019846 1108340.000000 0 1 0
15.950456 18.691357 -4.408812 24.964404 0.864355 1.748331 0.069743 -0.028393 931664.000000 0 1 0
16.704256 19.908457 -4.510412 26.376554 0.872692 1.742642 0.050858 -0.029403 350103.000000 0 0 1
17.938356 19.783757 -5.444812 27.254864 0.834280 1.771924 0.051070 -0.021585 28725.500000 0 0 1
19.046356 19.154757 -4.835212 27.441714 0.788236 1.747920 0.054493 -0.034750 -115135.000000 0 0 1
19.156656 17.747057 -5.088312 26.605007 0.747220 1.763236 0.063019 -0.042645 -91408.600000 0 0 1
20.296556 16.976257 -4.360912 26.817178 0.696552 1.734138 0.085643 -0.043326 1170820.000000 0 0 1
21.601256 17.258257 -4.918012 28.082887 0.674098 1.746829 0.069480 -0.041548 734067.000000 0 0 1
22.626856 16.599557 -4.239512 28.381215 0.632936 1.720735 0.069955 -0.043015 244326.000000 0 0 1
24.081356 16.842357 -4.747512 29.767693 0.610319 1.730966 0.056858 -0.034120 497133.000000 0 0 1
24.578856 18.003657 -4.110312 30.743235 0.632197 1.704896 0.054668 -0.029243 514557.000000 0 0 1
26.009456 17.964057 -4.087712 31.873320 0.604439 1.699399 0.055274 -0.016440 573459.000000 0 0 1
26.589656 19.217457 -3.373312 32.980292 0.625826 1.673258 0.065672 -0.013787 -264160.000000 0 0 1
26.662456 20.299057 -4.252712 33.779044 0.650716 1.697029 0.069134 -0.017007 189539.000000 0 0 1
26.635756 21.511057 -3.522412 34.417967 0.679358 1.673318 0.069182 0.006483 -279991.000000 0 0 1
26.379556 22.818357 -4.350512 35.149471 0.713139 1.694886 0.051200 0.001447 -251643.000000 0 0 1
27.353656 23.277057 -5.261412 36.300500 0.705055 1.716249 0.049755 0.005294 -28137.600000 0 0 1
27.688756 22.400257 -6.341412 36.175298 0.680206 1.747003 0.059005 -0.001280 -38894.400000 0 0 1
28.883156 22.758757 -7.257512 37.481585 0.667356 1.765656 0.042097 0.003024 -188836.000000 0 0 1
28.716556 23.962257 -8.010312 38.249123 0.695391 1.781783 0.036871 -0.002878 -616027.000000 0 0 1
29.902156 24.573257 -8.396412 39.604086 0.687886 1.784426 0.035491 -0.005263 -577217.000000 0 0 1
30.722156 23.901657 -9.542212 40.077348 0.661178 1.811200 0.038012 -0.013020 119293.000000 0 0 1
30.016656 23.897557 -10.793112 39.857046 0.672385 1.845016 0.041863 -0.011643 311965.000000 0 0 1
30.904856 23.504257 -11.814412 40.584979 0.650210 1.866176 0.033760 -0.013072 -130539.000000 0 0 1
30.200356 22.893857 -13.005712 40.066678 0.648643 1.901387 0.049945 -0.015507 -74500.300000 0 0 1
29.902556 23.724857 -14.133512 40.703659 0.670707 1.925412 0.052208 -0.019467 176921.000000 0 0 1
30.045856 22.895257 -15.277712 40.747450 0.651144 1.955125 0.062280 -0.019636 -2476.210000 0 0 1
30.147556 23.804357 -16.495412 41.804559 0.668364 1.976411 0.060629 -0.020031 695189.000000 0 0 1
31.497556 24.133757 -16.873612 43.119056 0.653795 1.972868 0.061006 -0.017306 604842.000000 0 0 1
31.593756 24.928857 -17.998012 44.085618 0.668025 1.991334 0.069501 -0.022867 390657.000000 0 0 1
33.056856 25.394057 -18.280412 45.516890 0.655044 1.984079 0.067423 -0.026838 432612.000000 0 0 1
33.895256 24.323857 -18.551512 45.658482 0.622453 1.989209 0.065388 -0.019831 -841351.000000 0 0 1
35.258756 24.622857 -18.407012 46.779087 0.609616 1.975219 0.064586 -0.018503 -110044.000000 0 0 1
36.145656 23.352757 -18.539012 46.856746 0.573610 1.977575 0.051461 -0.027854 -228177.000000 0 0 1
-36.222416 22.706257 -19.834412 47.127926 -0.559933 2.005193 0.042078 -0.019372 203593.000000 0 0 1
-35.311016 23.302557 -20.754512 47.123527 -0.583319 2.026871 0.044120 -0.016847 -279435.000000 0 0 1
-35.161516 22.459857 -22.060012 47.195566 -0.568435 2.057163 0.046057 -0.022555 -525449.000000 0 0 1
-34.703316 21.151157 -21.742612 46.091569 -0.547365 2.062044 0.035564 -0.021240 144092.000000 0 0 1
-34.542616 20.460057 -22.942312 46.240198 -0.534748 2.089961 0.035028 -0.021633 6041.230000 0 0 1
-34.383016 18.942357 -22.761912 45.377410 -0.503551 2.096259 0.026063 -0.015452 771199.000000 0 0 1
-35.609616 18.253757 -22.486712 45.900943 -0.473683 2.082767 0.026414 -0.016500 682123.000000 0 0 1
-35.354016 16.868157 -22.694312 45.271105 -0.445178 2.095894 0.023944 -0.011600 650962.000000 0 0 1
35.862656 15.954057 -22.283212 45.135391 0.418576 2.087132 0.035374 -0.010452 236807.000000 0 0 1
34.896256 15.990057 -23.276812 44.891431 0.429666 2.115908 0.062004 -0.009485 -185959.000000 0 0 1
33.882656 14.999457 -23.289312 43.765399 0.416757 2.131922 0.067972 -0.002967 53602.000000 0 0 1
34.270756 13.684957 -24.020612 44.031268 0.379919 2.147824 0.043197 -0.004758 -298400.000000 0 0 1
34.197256 13.652857 -25.439742 44.755260 0.379850 2.175379 0.043847 -0.008460 147885.000000 0 0 1
34.692656 12.389857 -25.814812 44.983257 0.343014 2.182027 0.036519 -0.003656 -211673.000000 0 0 1
34.755556 12.138557 -27.338722 45.855195 0.336011 2.209552 0.046040 -0.006309 1118410.000000 0 0 1
33.446056 11.869657 -27.931732 45.163138 0.341024 2.237582 0.041251 -0.006671 1447930.000000 0 0 1
32.804656 13.035457 -28.458672 45.342746 0.378234 2.249307 0.050603 -0.011231 -23722.400000 0 0 1
33.240056 13.374457 -29.893522 46.662619 0.382539 2.266116 0.054497 -0.023802 683956.000000 0 0 1
34.639156 13.722157 -29.971022 47.816638 0.377179 2.248224 0.048776 -0.013278 990652.000000 0 0 1
35.035856 13.782157 -31.352762 48.994435 0.374780 2.265197 0.045105 -0.016652 125676.000000 0 0 1
-35.891816 14.097857 -31.496242 49.789409 -0.374273 2.255688 0.064177 -0.020566 750890.000000 0 0 1
-34.997816 13.012657 -31.204912 48.661308 -0.355974 2.266945 0.056001 -0.016118 389715.000000 0 0 1
-34.619116 12.873257 -29.875052 47.504975 -0.356010 2.250912 0.047010 -0.012906 6928.960000 0 0 1
-33.533016 11.766457 -29.673152 46.296961 -0.337469 2.266507 0.035855 -0.013261 798249.000000 0 0 1
-34.092216 10.494257 -30.071412 46.655101 -0.298615 2.271227 0.029768 -0.014481 147221.000000 0 0 1
-33.022716 9.631857 -30.039842 45.669076 -0.283801 2.288653 0.029035 -0.013638 -436274.000000 0 0 1
-33.364316 8.232257 -30.592462 46.009199 -0.241907 2.298184 0.032183 -0.016919 -630658.000000 0 0 1
-33.574416 8.178357 -31.991392 47.091146 -0.238936 2.317673 0.024859 -0.022670 157156.000000 0 0 1
-33.982316 6.958557 -32.593892 47.598121 -0.201978 2.325088 0.028710 -0.027514 -500733.000000 0 0 1
-35.247816 6.173057 -32.165822 48.116060 -0.173375 2.302993 0.034219 -0.014009 -225966.000000 0 0 1
-35.266216 5.720157 -30.826942 47.188203 -0.160799 2.282700 0.032657 -0.010461 851253.000000 0 0 1
35.883256 5.125557 -30.652302 47.470443 0.141880 2.272754 0.035125 0.000034 580647.000000 0 0 1
35.619256 4.358057 -29.361132 46.365937 0.121746 2.256539 0.045230 -0.010810 348676.000000 0 0 1
-35.854716 3.317657 -29.180062 46.346990 -0.092268 2.251834 0.040656 0.002847 896773.000000 0 0 1
-36.184216 2.637557 -27.991932 45.823601 -0.072764 2.227946 0.054030 0.008725 931458.000000 0 0 1
-35.093016 1.475657 -27.811692 44.801647 -0.042025 2.240526 0.081171 0.004528 1801850.000000 0 0 1
-33.806316 1.861857 -27.283312 43.482325 -0.055019 2.249080 0.069443 0.001601 1161390.000000 0 0 1
-33.027316 0.686657 -27.012482 42.672582 -0.020788 2.256241 0.068427 0.006354 370107.000000 0 0 1
-31.855016 0.767757 -26.025122 41.141688 -0.024097 2.255667 0.055921 0.004904 -63488.700000 0 0 1
-32.330016 0.946657 -24.707012 40.700891 -0.029273 2.223125 0.055788 0.005988 -36513.900000 0 0 1
-31.331716 0.899957 -23.718212 39.306996 -0.028716 2.218566 0.072248 0.005020 -308634.000000 0 0 1
-31.719416 0.272957 -22.339812 38.797720 -0.008605 2.184381 0.065187 0.002758 -672928.000000 0 0 1
-31.781916 -1.136643 -22.307912 38.846172 0.035749 2.182500 0.071983 -0.005104 275529.000000 0 0 1
-32.144716 -1.720443 -21.041712 38.457721 0.053471 2.149739 0.075726 -0.009485 315781.000000 0 0 1
-33.595316 -1.400943 -20.538012 39.400734 0.041676 2.119123 0.071405 -0.006935 36794.100000 0 0 1
-34.501316 -2.386443 -21.001312 40.460981 0.069060 2.116537 0.066785 -0.013295 -455347.000000 0 0 1
-35.803016 -2.041943 -20.638812 41.376153 0.056971 2.093021 0.058341 -0.010773 -255534.000000 0 0 1
35.738656 -3.274343 -20.326012 41.244631 -0.091364 2.086119 0.051277 -0.015336 -224672.000000 0 0 1
35.141156 -3.999043 -21.367712 41.321572 -0.113312 2.114265 0.041117 -0.013561 680423.000000 0 0 1
36.063656 -4.867543 -22.041612 42.545422 -0.134160 2.115392 0.055218 -0.019625 -85626.900000 0 0 1
35.335756 -5.607443 -23.143712 42.610920 -0.157378 2.144969 0.055254 -0.024154 -574761.000000 0 0 1
34.668756 -6.761543 -22.605712 41.936372 -0.192615 2.140103 0.053966 -0.020840 891820.000000 0 0 1
33.933356 -7.631443 -23.519412 41.986597 -0.221215 2.165381 0.070651 -0.019816 563585.000000 0 0 1
32.672456 -7.019243 -24.172912 41.244258 -0.211620 2.197023 0.037468 -0.014249 -545231.000000 0 0 1
32.938256 -6.012843 -25.170142 41.888173 -0.180561 2.215409 0.040082 -0.011726 140741.000000 0 0 1
31.709056 -5.463743 -25.606102 41.121639 -0.170633 2.242974 0.010876 -0.004747 265993.000000 0 0 1
31.894756 -4.332043 -26.631082 41.776268 -0.134997 2.262005 0.046268 -0.033820 -40893.200000 0 0 1
32.176056 -4.755243 -27.960352 42.891633 -0.146726 2.280862 0.057715 -0.031915 192301.000000 0 0 1
31.925656 -3.701443 -28.873992 43.204810 -0.115424 2.302724 0.055017 -0.030082 -121209.000000 0 0 1
31.658056 -4.138643 -30.338782 44.043190 -0.129992 2.330686 0.068461 -0.018761 -64530.500000 0 0 1
31.218556 -3.114243 -31.130272 44.197178 -0.099427 2.352303 0.062070 -0.034915 -267616.000000 0 0 1
30.372756 -3.599443 -32.152712 44.376313 -0.117959 2.381173 0.057302 -0.031394 -760066.000000 0 0 1
29.771656 -2.405643 -32.921502 44.451815 -0.080628 2.404775 0.062850 -0.031502 -912094.000000 0 0 1
28.790756 -1.606743 -32.300502 43.299095 -0.055750 2.412810 0.062501 -0.034259 981205.000000 0 0 1
27.518156 -2.224543 -31.973282 42.243204 -0.080664 2.429331 0.077372 -0.042355 638136.000000 0 0 1
26.626056 -2.600843 -33.165442 42.610536 -0.097371 2.462812 0.079987 -0.044507 -1476040.000000 0 0 1
27.169756 -3.600843 -33.975592 43.652062 -0.131763 2.462794 0.078984 -0.039187 -387414.000000 0 0 1
26.690456 -3.622043 33.136999 42.703166 -0.134882 0.682522 0.067796 -0.034509 -474221.000000 0 0 1
27.017056 -4.902143 32.335400 42.420873 -0.179493 0.704011 0.055871 -0.031369 1223620.000000 0 0 1
28.405356 -5.057443 31.918860 43.026220 -0.176199 0.734976 0.049858 -0.024735 1273160.000000 0 0 1
28.883756 -4.323343 30.798000 42.443839 -0.148578 0.758865 0.073396 -0.028119 -281276.000000 0 0 1
29.432356 -2.920743 31.050150 42.882469 -0.098912 0.761103 0.049576 -0.019615 -421377.000000 0 0 1
30.604156 -2.888143 31.841360 44.258648 -0.094092 0.767803 0.046013 -0.022891 -122663.000000 0 0 1
30.946056 -1.552543 32.168140 44.663833 -0.050127 0.766666 0.039367 -0.015522 -911501.000000 0 0 1
32.367956 -1.504443 32.661006 46.007491 -0.046446 0.781431 0.030540 -0.012990 -1037210.000000 0 0 1
33.300356 -1.946143 31.711520 46.025229 -0.058376 0.810684 0.040461 -0.009267 -628124.000000 0 0 1
34.604656 -1.824543 32.238770 47.330217 -0.052677 0.821470 0.037563 -0.010557 -515655.000000 0 0 1
35.603156 -2.384243 31.262850 47.440859 -0.066867 0.851327 0.034482 -0.001502 -758775.000000 0 0 1
35.843256 -1.625343 30.123630 46.848840 -0.045315 0.872392 0.029765 -0.000328 -333410.000000 0 0 1
-35.565316 -2.199843 29.388150 46.188683 0.061775 0.881152 0.041538 -0.001231 -295628.000000 0 0 1
-35.284716 -1.606443 28.021250 45.086387 0.045497 0.900139 0.054534 -0.001725 601002.000000 0 0 1
36.183156 -1.851143 26.969800 45.166554 -0.051116 0.930892 0.063518 -0.011009 458084.000000 0 0 1
-35.875316 -1.158943 25.785130 44.195638 0.032294 0.947849 0.064149 -0.008790 -96415.600000 0 0 1
-26.536994 15.216157 11.995688 32.857876 -0.520627 1.197080 0.058369 -0.020391 1193510.000000 0 0 1
-27.803394 14.696457 12.499288 33.841495 -0.486253 1.192489 0.038422 -0.006241 1176820.000000 0 0 1
-28.698134 15.693457 12.972688 35.187471 -0.500418 1.193215 0.055078 -0.011681 -290728.000000 0 0 1
-29.890504 14.895157 13.501788 36.022301 -0.462306 1.186596 0.066307 -0.012222 198318.000000 0 0 1
-30.884064 15.656357 14.229688 37.435691 -0.469184 1.180881 0.063117 -0.015269 352912.000000 0 0 1
-31.919104 14.814757 14.723188 38.145491 -0.434546 1.174532 0.068311 -0.007258 600947.000000 0 0 1
-33.011314 15.480657 15.603888 39.659537 -0.438501 1.166419 0.065338 -0.008617 21224.000000 0 0 1
-32.478444 15.875457 16.801788 39.864515 -0.454647 1.135728 0.055878 -0.002949 15116.200000 0 0 1
-33.448544 16.295157 17.760988 41.228509 -0.453332 1.125424 0.044942 -0.007664 192762.000000 0 0 1
-32.814454 16.666857 19.109888 41.469993 -0.469957 1.091886 0.046793 -0.001640 -49883.800000 0 0 1
-32.264704 15.546657 19.743788 40.896538 -0.449020 1.066977 0.045842 0.004687 356880.000000 0 0 1
-31.056474 15.810457 20.468888 40.415968 -0.470891 1.039727 0.049028 0.003556 595056.000000 0 0 1
-31.185534 16.405557 21.895288 41.485943 -0.484280 1.014816 0.055515 -0.005869 -294949.000000 0 0 1
-31.811574 17.699457 21.915488 42.491595 -0.507731 1.028901 0.046491 -0.001798 285154.000000 0 0 1
-32.084614 18.269457 23.206788 43.609065 -0.517627 1.009652 0.045240 -0.010219 -449298.000000 0 0 1
-32.921714 17.432557 24.244888 44.447136 -0.486980 0.993838 0.026069 -0.009777 77027.400000 0 0 1
-34.235856 17.092157 23.850988 45.089969 -0.463045 1.013417 0.049663 -0.005909 406445.000000 0 0 1
-35.191323 18.167357 23.998588 46.307821 -0.476559 1.026004 0.048320 -0.007013 -638932.000000 0 0 1
35.866638 17.634757 23.668488 46.449949 0.456966 1.036137 0.019174 -0.013850 -256237.000000 0 0 1
35.278408 16.867057 24.755888 46.280857 0.445985 1.006400 0.039280 -0.008827 -1281260.000000 0 0 1
34.130538 16.235857 24.451688 45.015350 0.444018 0.996570 0.056781 -0.009580 -1118980.000000 0 0 1
33.616958 15.195257 25.536388 44.867615 0.424526 0.965325 0.051847 -0.013108 72566.700000 0 0 1
32.901468 15.905857 26.565688 45.180070 0.450311 0.942218 0.053742 -0.015633 466134.000000 0 0 1
32.386698 15.138957 27.703188 45.227789 0.437265 0.911544 0.044597 -0.012799 974773.000000 0 0 1
31.413228 13.894757 27.444988 43.966835 0.416450 0.896663 0.034174 -0.008060 484940.000000 0 0 1
32.054258 12.798957 26.841188 43.723428 0.379894 0.909823 0.032685 -0.008834 -83839.600000 0 0 1
31.152788 11.728057 26.840188 42.760253 0.360058 0.892214 0.024430 -0.003200 -92013.400000 0 0 1
31.849828 10.443457 26.383088 42.656122 0.316850 0.903956 0.037589 0.002888 -253579.000000 0 0 1
32.643318 9.934957 27.440188 43.786454 0.295442 0.893508 0.053966 0.004906 -240701.000000 0 0 1
33.007598 8.610957 27.182488 43.618090 0.255190 0.897977 0.041352 0.006508 -114027.000000 0 0 1
34.119378 8.174457 28.164688 44.991148 0.235152 0.894377 0.057953 -0.001082 82567.700000 0 0 1
35.342248 8.873157 28.107788 46.020161 0.245980 0.913762 0.077216 -0.006723 -429183.000000 0 0 1
-36.214424 8.297657 29.010988 47.137809 -0.225238 0.907839 0.064262 -0.012232 -156459.000000 0 0 1
-34.866589 9.016557 29.171588 46.346077 -0.253058 0.889978 0.065305 -0.016903 29147.000000 0 0 1
-33.981934 8.970057 28.070888 44.980090 -0.258079 0.896851 0.061611 -0.010095 -59862.600000 0 0 1
-32.749784 9.573957 28.374188 44.376836 -0.284411 0.877089 0.073626 -0.011604 -121315.000000 0 0 1
-32.061364 10.239457 27.171288 43.255710 -0.309132 0.891617 0.066578 -0.009306 -202886.000000 0 0 1
-31.655764 9.305157 26.240988 42.157595 -0.285896 0.898927 0.060268 -0.012770 252612.000000 0 0 1
-30.717874 9.928657 25.382488 41.066248 -0.312622 0.904490 0.045074 -0.007889 -27209.500000 0 0 1
-30.048684 9.018657 24.343388 39.709698 -0.291580 0.910901 0.058557 -0.009422 -58073.300000 0 0 1
-28.830844 9.510857 23.849088 38.606385 -0.318644 0.904918 0.052972 -0.013296 258312.000000 0 0 1
-28.158544 8.582757 22.970488 37.339130 -0.295856 0.908175 0.056757 -0.005971 646401.000000 0 0 1
-26.995174 9.130857 22.095188 36.059802 -0.326160 0.911277 0.057830 -0.001496 -539214.000000 0 0 1
-25.925694 9.639657 22.836588 35.868849 -0.355979 0.880625 0.061829 -0.012400 1439800.000000 0 0 1
-24.658744 9.976757 22.185088 34.637660 -0.384460 0.875660 0.061377 -0.000749 1926610.000000 0 0 1
-24.035944 9.092457 21.091688 33.245431 -0.361648 0.883534 0.062055 0.003511 -1184330.000000 0 0 1
-24.696644 9.256857 19.862588 33.017208 -0.358615 0.925315 0.057321 -0.003851 -22394.300000 0 0 1
-24.223744 8.559357 18.721488 31.789094 -0.339652 0.941065 0.061178 -0.010944 -353930.000000 0 0 1
-24.250344 6.968757 18.832088 31.484763 -0.279827 0.929626 0.059294 -0.002662 -1081470.000000 0 0 1
-23.175244 6.473157 19.528588 30.989667 -0.272372 0.889031 0.062878 -0.005173 -566532.000000 0 0 1
-23.276944 5.160157 20.083488 31.173544 -0.218157 0.870757 0.080983 -0.005963 -192583.000000 0 0 1
-23.194744 4.029457 19.007988 30.257830 -0.172006 0.891558 0.070345 -0.009274 112073.000000 0 0 1
-24.340644 3.947957 18.157388 30.622607 -0.160796 0.936091 0.084893 -0.007865 667009.000000 0 0 1
-24.127044 3.102357 17.053688 29.708032 -0.127882 0.959361 0.085084 -0.010715 -54404.100000 0 0 1
-24.099444 1.550957 17.345388 29.732998 -0.064268 0.947923 0.080609 -0.009395 258947.000000 0 0 1
-22.839744 1.118157 17.853688 29.011349 -0.048918 0.907898 0.054301 -0.001514 838191.000000 0 0 1
-23.031144 -0.205443 18.390388 29.473415 0.008920 0.896990 0.065509 -0.006242 270732.000000 0 0 1
-21.674844 -0.812243 18.824888 28.719941 0.037456 0.855999 0.059323 0.006139 219975.000000 0 0 1
-20.854444 -0.200343 19.822488 28.772887 0.009606 0.810785 0.051647 0.005181 717399.000000 0 0 1
-19.806644 -1.167743 20.076888 28.226729 0.058889 0.779490 0.046670 0.007291 208205.000000 0 0 1
-18.857144 -0.733843 21.163388 28.355236 0.038896 0.728211 0.055742 0.004550 -349876.000000 0 0 1
-19.373044 -0.907143 22.448888 29.666316 0.046791 0.712526 0.063692 -0.001648 -37395.000000 0 0 1
-18.364244 -0.811543 23.455788 29.800639 0.044163 0.664719 0.073746 -0.003719 -463552.000000 0 0 1
-18.769444 -1.040643 24.908188 31.205654 0.055387 0.646504 0.074985 0.000809 11710.400000 0 0 1
-19.591144 -0.012443 25.435888 32.106035 0.000635 0.656315 0.070337 -0.008440 684059.000000 0 0 1
-20.992844 -0.193343 25.137388 32.750957 0.009210 0.695815 0.084355 -0.011849 302322.000000 0 0 1
-21.797244 0.979157 25.683988 33.700829 -0.044891 0.704219 0.075541 -0.020126 -641765.000000 0 0 1
-21.478344 2.208057 25.132288 33.133468 -0.102444 0.709762 0.073153 -0.021164 -447791.000000 0 0 1
-22.579344 2.859557 24.589988 33.506288 -0.125974 0.746763 0.072008 -0.020587 -1029150.000000 0 0 1
-22.116844 4.154857 23.892388 32.821698 -0.185695 0.755476 0.082814 -0.020335 246520.000000 0 0 1
-21.407544 4.086357 22.659688 31.439509 -0.188615 0.765928 0.094928 -0.021748 977212.000000 0 0 1
-20.153244 3.386757 22.708488 30.549940 -0.166495 0.732771 0.074068 -0.009144 -89723.400000 0 0 1
-19.819144 2.775257 21.312588 29.235713 -0.139124 0.753949 0.067583 -0.004034 -107291.000000 0 0 1
-19.226344 3.640857 20.373188 28.248450 -0.187152 0.765243 0.054187 0.001760 160207.000000 0 0 1
-18.906344 2.948357 19.257388 27.147553 -0.154699 0.782207 0.048434 0.010689 -115350.000000 0 0 1
-18.656244 3.825257 18.025088 26.221972 -0.202236 0.812888 0.044064 -0.000175 845393.000000 0 0 1
-17.337944 4.407657 17.936188 25.332560 -0.248947 0.784093 0.037780 -0.005516 872394.000000 0 0 1
-17.023144 4.951757 16.674988 24.338500 -0.283072 0.816017 0.047358 -0.004499 199845.000000 0 1 0
-15.548544 5.451157 16.656288 23.428706 -0.337200 0.779969 0.048085 -0.005506 130965.000000 0 1 0
-15.137844 6.519457 17.449788 24.003182 -0.406666 0.756886 0.044531 -0.005898 -4880.200000 0 1 0
-15.778244 7.784157 17.282288 24.662189 -0.458311 0.794333 0.046587 -0.011236 -409362.000000 0 1 0
-15.486244 8.614157 15.993188 23.870683 -0.507626 0.836597 0.033662 -0.012099 21353.000000 0 1 0
-15.929144 8.111557 14.725688 23.159898 -0.471002 0.881717 0.052685 -0.012436 -360505.000000 0 1 0
-17.311944 8.272157 14.605788 24.113503 -0.445754 0.920139 0.047835 -0.010407 -600006.000000 0 1 0
-17.790744 7.648357 13.257588 23.468523 -0.406019 0.970473 0.054564 -0.013588 -88280.800000 0 1 0
-17.540244 6.293957 13.418488 22.963664 -0.344519 0.946735 0.055970 -0.010584 260202.000000 0 1 0
-17.801144 5.548157 12.204788 22.284964 -0.302132 0.991220 0.041680 -0.015351 -73775.900000 0 1 0
-17.401644 4.127257 12.339888 21.728422 -0.232873 0.966826 0.037861 -0.006501 -444940.000000 0 1 0
-18.141644 3.381057 13.241588 22.713222 -0.184256 0.948392 0.041785 -0.005242 -360635.000000 0 1 0
-17.702044 2.108357 13.495588 22.359303 -0.118544 0.922815 0.033365 -0.005847 -597047.000000 0 1 0
-18.611144 1.348757 14.460588 23.607254 -0.072344 0.911516 0.041001 -0.001770 -39212.100000 0 1 0
-19.864244 1.013057 13.899188 24.265241 -0.050955 0.960876 0.050448 -0.004811 -149287.000000 0 1 0
-20.822044 0.833457 14.920788 25.629711 -0.040006 0.949404 0.054513 -0.003868 -635675.000000 0 0 1
-22.128544 0.447857 14.229588 26.312625 -0.020236 0.999421 0.063446 -0.012133 -792175.000000 0 0 1
-22.178644 -0.834743 13.570188 26.014209 0.037620 1.022018 0.070721 -0.019793 1121300.000000 0 0 1
-23.464644 -1.083343 12.956388 26.825942 0.046136 1.066742 0.099349 -0.026284 912739.000000 0 0 1
-23.448444 -2.490343 12.258788 26.576479 0.105808 1.091376 0.091882 -0.028285 -167356.000000 0 0 1
-23.477444 -3.685043 12.985188 27.081083 0.155691 1.070720 0.080424 -0.023437 157399.000000 0 0 1
-23.211544 -4.730543 12.107188 26.603342 0.201048 1.098312 0.086779 -0.025629 -184366.000000 0 0 1
-23.187144 -6.083943 12.755088 27.154195 0.256600 1.081814 0.082983 -0.023489 -525957.000000 0 0 1
-24.347444 -6.435843 13.432288 28.541977 0.258423 1.080808 0.069038 -0.019634 -411244.000000 0 0 1
-24.531744 -7.843443 13.636188 29.142267 0.309455 1.083863 0.076896 -0.024397 91685.300000 0 0 1
-25.584534 -8.160243 14.706888 30.617814 0.308752 1.069757 0.087360 -0.022445 1329840.000000 0 0 1
-26.912954 -7.578243 14.640588 31.560794 0.274476 1.088420 0.081120 -0.026716 939926.000000 0 0 1
-27.653744 -7.852243 15.771388 32.789083 0.276667 1.069007 0.088485 -0.022887 -1042690.000000 0 0 1
-29.114204 -7.350343 15.706588 33.887481 0.247298 1.088864 0.092730 -0.028725 430094.000000 0 0 1
-29.978144 -8.018243 14.748988 34.358609 0.261352 1.127116 0.087974 -0.025565 646780.000000 0 0 1
-30.098284 -9.441043 14.711188 34.806020 0.303954 1.134416 0.086281 -0.030750 -778246.000000 0 0 1
-30.356104 -10.267043 16.033688 35.832728 0.326142 1.106874 0.083564 -0.030977 -408776.000000 0 0 1
-29.284914 -10.234743 16.958188 35.354438 0.336219 1.070527 0.093102 -0.017775 -33858.400000 0 0 1
-29.509604 -10.824443 18.174988 36.308615 0.351572 1.046540 0.092277 -0.012093 -829246.000000 0 0 1
-28.238624 -10.766143 18.977588 35.685832 0.364244 1.010076 0.092375 -0.007262 -401732.000000 0 0 1
-27.321784 -11.785243 18.575988 35.077617 0.407237 1.012705 0.085743 -0.008291 433766.000000 0 0 1
-26.098984 -11.624443 19.298988 34.478045 0.419021 0.976716 0.084133 -0.008855 80472.100000 0 0 1
-24.966044 -12.568243 18.953788 33.771440 0.466375 0.974916 0.066384 -0.001608 -568940.000000 0 0 1
-24.670944 -12.471643 17.539888 32.739045 0.468053 1.005403 0.055193 -0.005775 8948.380000 0 0 1
-23.423744 -13.080843 17.299088 31.922386 0.509303 0.998087 0.046386 -0.011516 -257078.000000 0 0 1
-23.088244 -13.162643 15.829888 30.933922 0.518145 1.033596 0.049671 -0.014349 -298991.000000 0 0 1
-22.639244 -11.915043 15.286288 29.802252 0.484466 1.032209 0.037585 -0.018829 4539.220000 0 0 1
-22.491144 -11.919043 13.861388 28.983672 0.487315 1.072137 0.045061 -0.023208 444987.000000 0 0 1
-21.180644 -11.126543 13.543888 27.492846 0.483695 1.055683 0.034278 -0.026552 97364.100000 0 0 1
-21.229844 -9.681443 13.722788 27.069384 0.427857 1.039155 0.043409 -0.029173 -306473.000000 0 0 1
-20.048944 -8.960243 13.500188 25.777921 0.420288 1.019595 0.050590 -0.027587 -771850.000000 0 0 1
-19.531944 -8.835443 12.093588 24.613345 0.424814 1.057166 0.071581 -0.019382 -619105.000000 0 1 0
-18.841244 -9.992943 11.722388 24.336511 0.487652 1.068227 0.059117 -0.028175 -151593.000000 0 1 0
-18.822144 -9.955643 10.339588 23.670552 0.486525 1.118744 0.082533 -0.020318 -1215900.000000 0 1 0
-18.144944 -11.122543 9.669488 23.376248 0.549911 1.144341 0.070565 -0.021701 875673.000000 0 1 0
-16.705944 -11.107843 9.706288 22.286426 0.586781 1.120175 0.083797 -0.032960 1370010.000000 0 1 0
-16.155444 -11.331443 11.023488 22.603479 0.611666 1.061355 0.077507 -0.024604 147458.000000 0 1 0
-14.678044 -11.910143 11.019888 21.880001 0.681669 1.042976 0.078911 -0.025135 1099460.000000 0 1 0
-14.540144 -13.200243 10.531688 22.284045 0.737134 1.078545 0.071098 -0.032831 -259280.000000 0 1 0
-13.237444 -13.636943 10.783488 21.851311 0.800263 1.054694 0.088069 -0.029377 -307844.000000 0 1 0
-12.788244 -15.119843 10.573388 22.448728 0.868750 1.080370 0.088879 -0.029681 -14818.800000 0 1 0
-12.919644 -15.697343 9.298188 22.355762 0.882160 1.141843 0.056084 -0.027900 63649.600000 0 1 0
-12.620744 -17.080143 9.425188 23.234643 0.934429 1.153104 0.043736 -0.015939 111017.000000 0 1 0
-12.869444 -17.940243 8.185988 23.547512 0.948520 1.215747 0.026383 -0.009724 76165.400000 0 1 0
-12.145944 -17.549143 7.024688 22.468704 0.965385 1.252822 0.030968 -0.026021 126825.000000 0 1 0
-12.517744 -18.391043 5.974088 23.035063 0.973180 1.308450 0.020222 -0.014770 -152546.000000 0 1 0
-11.699844 -18.114043 4.706488 22.071610 0.997309 1.355909 0.021423 -0.019492 -231009.000000 0 1 0
-11.952344 -19.013643 3.669588 22.756165 1.009599 1.408832 0.033885 -0.019194 176574.000000 0 1 0
-11.128644 -18.798643 2.563188 21.995582 1.036286 1.453999 0.032325 -0.032734 -205646.000000 0 1 0
-11.500144 -19.798743 1.443688 22.941835 1.044575 1.507827 0.039266 -0.024182 141853.000000 0 1 0
-11.107144 -21.155943 1.732688 23.957145 1.087339 1.498409 0.033736 -0.024483 -437633.000000 0 1 0
-11.692244 -22.064043 0.889588 24.986435 1.083498 1.535186 0.043678 -0.022085 -625412.000000 0 1 0
-10.946844 -22.451043 -0.400712 24.980859 1.117128 1.586838 0.057203 -0.011178 -197955.000000 0 1 0
-10.714544 -21.513143 -1.364912 24.072386 1.108713 1.627527 0.055108 -0.018976 269818.000000 0 1 0
-11.742344 -21.338643 -2.344812 24.468725 1.067734 1.666773 0.071232 -0.017849 640103.000000 0 1 0
-12.764244 -20.164143 -2.118712 23.958455 1.006453 1.659345 0.070961 -0.022821 162708.000000 0 1 0
-13.709844 -20.425143 -1.117712 24.625101 0.979645 1.616201 0.064778 -0.019471 -428970.000000 0 1 0
-14.644444 -19.384743 -1.162012 24.322382 0.923808 1.618590 0.073613 -0.015540 -141049.000000 0 1 0
26.459956 -20.015443 -4.101012 33.430010 -0.647612 1.693781 0.069161 -0.026158 -789893.000000 0 0 1
25.247856 -20.367643 -3.539412 32.631619 -0.678818 1.679476 0.074057 -0.024186 -487891.000000 0 0 1
25.387256 -21.533043 -2.708012 33.399372 -0.703438 1.651965 0.061514 -0.019509 82166.700000 0 0 1
24.055756 -21.918743 -2.016312 32.606383 -0.738949 1.632674 0.058321 -0.019548 314809.000000 0 0 1
23.029756 -22.288143 -2.910612 32.180781 -0.769035 1.661366 0.066905 -0.026793 951803.000000 0 0 1
21.768956 -22.511243 -2.219112 31.393757 -0.802160 1.641542 0.059955 -0.019490 1653010.000000 0 0 1
20.694456 -23.184443 -3.155012 31.236726 -0.842084 1.671972 0.069369 -0.027862 760368.000000 0 0 1
19.770156 -22.287343 -3.788412 30.032263 -0.845178 1.697278 0.070632 -0.035100 -282186.000000 0 0 1
18.809056 -22.982443 -4.519512 30.039961 -0.884930 1.721820 0.066550 -0.037998 -605504.000000 0 0 1
17.791056 -21.987943 -5.061612 28.733452 -0.890514 1.747878 0.052846 -0.028678 -673877.000000 0 0 1
16.864156 -21.484343 -4.128912 27.622901 -0.905299 1.720833 0.054327 -0.026078 158824.000000 0 0 1
17.281256 -20.390243 -3.327712 26.934690 -0.867740 1.694660 0.052733 -0.023883 -319630.000000 0 0 1
16.116556 -20.012643 -2.396512 25.806831 -0.892821 1.663794 0.049499 -0.012412 40838.400000 0 0 1
15.825556 -21.030143 -1.418112 26.357659 -0.925686 1.624625 0.055969 -0.019839 -161274.000000 0 0 1
15.016356 -20.452243 -0.444512 25.376816 -0.937474 1.588314 0.052283 -0.008941 -337281.000000 0 0 1
14.590056 -21.315643 0.798888 25.843077 -0.970565 1.539878 0.054647 -0.009481 158657.000000 0 0 1
13.663056 -22.345543 0.499888 26.196418 -1.022004 1.551713 0.048568 -0.008262 -237678.000000 0 0 1
12.960456 -22.604643 1.701988 26.112068 -1.050200 1.505570 0.049972 -0.006298 -52224.000000 0 0 1
12.078056 -23.848343 1.498788 26.774415 -1.102000 1.514789 0.048454 -0.006780 -50355.900000 0 0 1
12.733056 -25.068923 1.828788 28.176694 -1.100831 1.505846 0.038277 -0.003488 95013.100000 0 0 1
11.924556 -26.211023 1.628588 28.842072 -1.143838 1.514301 0.035102 -0.005884 -102429.000000 0 0 1
12.330756 -27.481113 2.387188 30.215192 -1.149025 1.491708 0.032751 0.002099 -26555.600000 0 0 1
12.016056 -27.388823 3.763388 30.144591 -1.157361 1.445625 0.046758 -0.004704 124770.000000 0 0 1
12.242556 -28.636663 4.326088 31.442864 -1.166799 1.432773 0.048051 0.000058 -18941.200000 0 0 1
12.092656 -28.668233 5.850888 31.659641 -1.171628 1.384922 0.058049 -0.001715 -34184.000000 0 0 1
12.065456 -29.985733 6.295488 32.929510 -1.188246 1.378431 0.048070 -0.003091 -175050.000000 0 0 1
12.061756 -30.053703 7.720888 33.291488 -1.189135 1.336748 0.049812 -0.003437 -78607.200000 0 0 1
11.700056 -31.417203 8.270488 34.530175 -1.214299 1.328930 0.048430 -0.010005 30376.500000 0 0 1
11.483956 -31.465793 9.694488 34.870625 -1.220851 1.289071 0.047790 -0.006619 -1965.130000 0 0 1
11.003056 -32.756303 10.069088 35.992071 -1.246732 1.287254 0.048717 -0.004138 124878.000000 0 0 1
10.865256 -33.013613 11.560688 36.627885 -1.252848 1.249681 0.043776 -0.010106 -320927.000000 0 0 1
12.086356 -33.343553 12.165288 37.494890 -1.223047 1.240364 0.043746 -0.010806 -211013.000000 0 0 1
11.966956 -33.792083 13.540988 38.320638 -1.230443 1.209636 0.044808 -0.007370 64872.100000 0 0 1
11.003156 33.604198 13.828488 37.967600 1.254365 1.198003 0.037891 -0.006953 254909.000000 0 0 1
11.340156 32.484496 13.034188 36.793093 1.234928 1.208678 0.041982 -0.005049 -174288.000000 0 0 1
10.310256 31.538196 13.101288 35.673561 1.254835 1.194740 0.040331 -0.002003 -236318.000000 0 0 1
10.377756 30.480556 11.925288 34.336200 1.242635 1.216096 0.034130 -0.005668 -357799.000000 0 0 1
9.985756 30.797056 10.609488 34.069565 1.257248 1.254123 0.044424 -0.008406 484925.000000 0 0 1
10.774556 31.831296 9.936288 35.043577 1.244413 1.283312 0.030656 -0.013880 424020.000000 0 0 1
10.211856 32.074476 8.552588 34.730402 1.262564 1.321980 0.029411 -0.016150 1354130.000000 0 0 1
8.867856 32.637977 8.537688 34.882210 1.305497 1.323527 0.021838 -0.006273 985818.000000 0 0 1
8.234056 32.750433 7.301188 34.549934 1.324483 1.357868 0.001545 -0.000848 -77523.100000 0 0 1
8.579456 34.029399 6.453388 35.682675 1.323824 1.388941 0.016248 0.004468 35920.500000 0 0 1
8.056556 -33.370623 7.047688 35.045349 -1.333903 1.368314 0.019050 0.003220 310789.000000 0 0 1
8.563256 -32.265733 6.259388 33.964494 -1.311379 1.385445 0.040846 -0.001587 251160.000000 0 0 1
8.032156 -30.897113 6.761688 32.632309 -1.316461 1.362076 0.025624 0.000446 -94319.300000 0 0 1
8.561056 -30.441283 7.992488 32.616611 -1.296646 1.323232 0.041799 0.002591 -198691.000000 0 0 1
8.099756 -29.157853 8.397288 31.405428 -1.299838 1.300120 0.059829 0.003609 129472.000000 0 0 1
9.070756 -28.016953 7.979088 30.510558 -1.257687 1.306201 0.065129 -0.002302 -216096.000000 0 0 1
9.167856 -26.937573 8.926688 29.822277 -1.242756 1.266806 0.067096 -0.000885 -255817.000000 0 0 1
10.039556 -25.910863 8.597088 29.087376 -1.201142 1.270754 0.068284 -0.011645 -244667.000000 0 0 1
9.488256 -24.971443 7.510888 27.749116 -1.207681 1.296706 0.064782 -0.011726 9873.650000 0 0 1
9.326456 -25.534863 6.255088 27.895128 -1.220606 1.344637 0.061530 -0.007610 -281776.000000 0 0 1
8.749756 -24.586443 5.383888 26.646532 -1.228895 1.367347 0.064129 -0.007321 183636.000000 0 0 1
8.480456 -25.126633 3.964488 26.813859 -1.245293 1.422400 0.052080 -0.008539 869755.000000 0 0 1
7.547056 -26.227693 3.756088 27.549195 -1.290614 1.434029 0.053326 -0.005489 575894.000000 0 0 1
8.022156 -27.471363 4.288188 28.938199 -1.286678 1.422064 0.049876 0.000190 239615.000000 0 0 1
7.031456 -28.588763 3.885188 29.696018 -1.329631 1.439588 0.042881 -0.003738 64003.400000 0 0 1
5.812556 -28.542773 4.604688 29.490318 -1.369900 1.414012 0.032565 0.000992 26314.100000 0 0 1
4.778556 -29.383893 4.086888 30.049134 -1.409583 1.434367 0.026667 0.001396 442606.000000 0 0 1
4.824556 -30.945243 4.127988 31.589947 -1.416135 1.439747 0.021885 0.002233 31412.900000 0 0 1
5.864356 -31.527593 3.326088 32.240389 -1.386891 1.467447 0.017564 0.004733 367005.000000 0 0 1
5.855656 -32.913283 3.525388 33.615492 -1.394727 1.465729 0.007013 0.006079 -393821.000000 0 0 1
7.025756 -33.608543 2.864188 34.454303 -1.364717 1.487570 0.003807 0.008716 -315353.000000 0 0 1
6.750856 -33.884803 1.480188 34.582437 -1.374142 1.527982 0.012518 0.005419 -685985.000000 0 0 1
7.764056 33.933846 0.976388 34.824414 1.345868 1.542755 0.006406 0.003979 -974865.000000 0 0 1
7.397856 33.321416 -0.420912 34.135352 1.352325 1.583127 0.024725 0.003008 1106140.000000 0 0 1
6.309056 32.359246 -0.515612 32.972577 1.378243 1.586435 0.000260 0.001932 -622533.000000 0 0 1
5.068756 32.941094 -0.546812 33.333271 1.418120 1.587201 0.012775 -0.004676 -1444830.000000 0 0 1
3.988956 31.862846 -0.377312 32.113784 1.446253 1.582546 0.012748 -0.001541 -286409.000000 0 0 1
3.872056 31.011676 -1.489712 31.287955 1.446581 1.618427 0.020011 -0.005506 -15569.000000 0 0 1
2.755756 30.137676 -1.387712 30.295205 1.479611 1.616619 0.020443 -0.010742 279301.000000 0 0 1
2.684256 29.060996 -2.532712 29.294391 1.478691 1.657362 0.025784 -0.010924 -82701.300000 0 0 1
2.158656 29.679806 -3.701712 29.987554 1.498193 1.694554 0.038360 -0.032411 3409.870000 0 0 1
2.096156 28.785606 -4.774312 29.254043 1.498105 1.734731 0.043022 -0.041725 -62525.100000 0 0 1
1.894356 29.502726 -6.093012 30.184834 1.506675 1.774050 0.040633 -0.037958 -139617.000000 0 0 1
0.555756 29.920556 -6.272112 30.575937 1.552224 1.777395 0.050729 -0.035171 59319.200000 0 0 1
0.378856 30.648786 -7.442212 31.541689 1.558436 1.808991 0.045081 -0.036392 -319309.000000 0 0 1
0.078156 29.841096 -8.709112 31.086102 1.568177 1.854758 0.049043 -0.033627 -1885400.000000 0 0 1
-1.220744 29.397366 -8.836812 30.721077 -1.529295 1.862565 0.054661 -0.031304 -848470.000000 0 0 1
-1.646944 29.052086 -10.143012 30.815853 -1.514168 1.906199 0.060997 -0.020244 -98262.500000 0 0 1
-1.662444 30.226226 -11.099812 32.242740 -1.515852 1.922244 0.056022 -0.018764 -926742.000000 0 0 1
-0.350544 30.646376 -11.391712 32.697008 -1.559358 1.926662 0.051632 -0.016448 -171728.000000 0 0 1
-0.189444 32.024246 -11.719112 34.101698 -1.564881 1.921599 0.048364 -0.023160 -222715.000000 0 0 1
-0.325244 33.088272 -10.604712 34.747654 -1.560967 1.880937 0.047451 -0.024964 117784.000000 0 0 1
0.740256 33.341405 -9.688212 34.728356 1.548598 1.853519 0.039547 -0.034602 -74316.900000 0 0 1
0.409256 -34.281802 -8.738412 35.380352 -1.558859 1.820364 0.040545 -0.022979 -331073.000000 0 0 1
1.548656 -33.957133 -7.742012 34.862932 -1.525222 1.794733 0.050617 -0.025891 519113.000000 0 0 1
2.665456 -33.297363 -8.360212 34.434172 -1.490917 1.816035 0.051931 -0.019111 213498.000000 0 0 1
3.558656 -32.917043 -7.297812 33.903596 -1.463105 1.787746 0.049855 -0.021947 -493534.000000 0 0 1
4.820956 -32.325453 -7.938312 33.633218 -1.422749 1.809071 0.036029 -0.005318 330213.000000 0 0 1
5.761256 -33.185113 -8.616112 34.766093 -1.398900 1.821237 0.058233 -0.010930 686315.000000 0 0 1
6.628156 -33.918413 -7.756512 35.419694 -1.377814 1.791574 0.065355 -0.009726 -865665.000000 0 0 1
6.835356 33.210024 -8.256212 34.896889 1.367809 1.809650 0.055762 -0.015932 950476.000000 0 0 1
5.729656 32.254896 -8.274612 33.788704 1.394993 1.818205 0.056522 -0.020151 187754.000000 0 0 1
4.562756 32.516166 -8.977012 34.039779 1.431384 1.837674 0.055307 -0.033973 -218205.000000 0 0 1
3.717556 31.249286 -9.198212 32.786357 1.452388 1.855163 0.048272 -0.035857 -329447.000000 0 0 1
4.291556 30.536746 -10.234512 32.490853 1.431173 1.891250 0.036412 -0.030083 -389951.000000 0 0 1
3.552956 29.418516 -10.585112 31.466128 1.450606 1.913885 0.018727 -0.021247 -150176.000000 0 0 1
4.169456 28.575736 -11.743312 31.174708 1.425910 1.957021 0.014550 -0.015968 -171943.000000 0 0 1
4.006556 29.144466 -13.022912 32.172172 1.434180 1.987543 0.028566 -0.012742 -616371.000000 0 0 1
5.085856 28.925216 -13.855612 32.473251 1.396748 2.011612 0.039290 -0.013261 -799250.000000 0 0 1
4.834756 29.419126 -15.283312 33.502828 1.407912 2.044494 0.042943 -0.006724 225659.000000 0 0 1
3.867956 28.691566 -16.052612 33.103677 1.436793 2.077067 0.037111 -0.005438 348141.000000 0 0 1
3.726556 29.196976 -17.385312 34.184788 1.443848 2.104318 0.066608 -0.002717 180042.000000 0 0 1
2.826356 28.244046 -18.255112 33.748534 1.471059 2.142322 0.057169 -0.013999 251278.000000 0 0 1
3.302156 26.970956 -18.601812 32.929684 1.448969 2.171102 0.066763 0.001967 280045.000000 0 0 1
2.308856 26.327236 -19.386512 32.776379 1.483322 2.203687 0.048440 -0.011414 185385.000000 0 0 1
3.002856 25.298736 -20.219212 32.524755 1.452653 2.241652 0.057817 -0.011765 60404.400000 0 0 1
3.217556 24.177106 -19.346612 31.131600 1.438491 2.241383 0.052178 -0.013749 -566041.000000 0 0 1
4.349656 23.500276 -19.765712 31.013962 1.387778 2.261807 0.052569 -0.012288 -654377.000000 0 0 1
4.736456 22.207676 -18.988312 29.600184 1.360665 2.267239 0.057419 -0.012519 -233860.000000 0 0 1
3.802256 21.132476 -18.955212 28.641556 1.392776 2.294024 0.075313 -0.013343 -69412.300000 0 0 1
4.435856 20.100576 -18.214512 27.485968 1.353595 2.295193 0.062299 -0.008116 129975.000000 0 0 1
3.533656 18.901676 -17.898312 26.269938 1.385980 2.320365 0.070444 -0.017371 55691.700000 0 0 1
2.734756 19.225476 -16.779812 25.664370 1.429498 2.283415 0.062095 -0.014808 -292430.000000 0 0 1
1.834056 18.248276 -16.291812 24.531337 1.470627 2.297116 0.045673 -0.005381 702340.000000 0 1 0
2.565256 17.125576 -15.436812 23.198299 1.422111 2.298864 0.028352 -0.004639 436888.000000 0 1 0
3.487356 16.277576 -16.098312 23.157651 1.359744 2.339441 0.039533 -0.012456 -305713.000000 0 1 0
2.905556 15.170276 -16.791012 22.814855 1.381559 2.397892 0.051632 -0.023568 -104492.000000 0 1 0
2.911156 15.386376 -18.347912 24.121801 1.383803 2.435089 0.052422 -0.018419 791429.000000 0 1 0
4.226556 15.452576 -18.934412 24.802376 1.303809 2.439374 0.060564 -0.019339 508297.000000 0 1 0
4.188856 16.040576 -20.224612 26.151128 1.315360 2.454943 0.070059 -0.015129 -322778.000000 0 0 1
4.391056 15.071476 -21.423412 26.559242 1.287295 2.509220 0.061027 -0.026121 -380048.000000 0 0 1
3.439456 14.117676 -21.729912 26.140537 1.331824 2.552189 0.062937 -0.019259 103571.000000 0 0 1
2.279056 14.656676 -22.407612 26.872166 1.416536 2.556860 0.079485 -0.024616 686803.000000 0 0 1
1.331756 13.604776 -23.032812 26.783837 1.473218 2.605972 0.078787 -0.018119 155067.000000 0 0 1
0.694756 12.831776 -22.017112 25.492947 1.516706 2.613272 0.066431 -0.006555 80287.600000 0 0 1
-0.115644 11.795676 -22.496312 25.401484 -1.560993 2.658645 0.044436 -0.003722 -101395.000000 0 0 1
-0.631444 10.788876 -21.424412 23.995916 -1.512336 2.674399 0.031424 -0.007554 -921695.000000 0 1 0
-1.555544 11.441276 -20.571812 23.590717 -1.435666 2.630131 0.026629 -0.006513 -13327.600000 0 1 0
-1.905644 10.610976 -19.463212 22.249515 -1.393099 2.635758 0.009987 -0.002542 709969.000000 0 1 0
-3.024444 9.540276 -19.785012 22.172298 -1.263800 2.673278 0.003919 -0.007976 332806.000000 0 1 0
-2.488744 8.443776 -20.519712 22.328228 -1.284169 2.736341 0.008033 -0.009235 395245.000000 0 1 0
-3.575244 7.630976 -20.976812 22.606211 -1.132651 2.759597 0.006903 0.000447 624110.000000 0 1 0
-3.034244 6.419576 -21.722612 22.853653 -1.129263 2.825668 0.006308 -0.004097 338360.000000 0 1 0
-2.391744 5.369076 -20.990212 21.797624 -1.151719 2.868564 0.014636 -0.005218 191101.000000 0 1 0
-2.234444 4.228876 -21.824412 22.342361 -1.084705 2.925850 0.018706 -0.005595 -260782.000000 0 1 0
-1.444044 3.003476 -21.224512 21.484553 -1.122634 2.985848 0.020477 0.001758 -535787.000000 0 1 0
-0.129244 3.387976 -21.015612 21.287344 -1.532667 2.981641 0.029387 -0.000903 -966864.000000 0 1 0
0.528456 2.440176 -20.191512 20.345291 1.357525 3.018564 0.036203 -0.002158 1115070.000000 0 1 0
2.099556 2.418376 -20.130712 20.383872 0.855849 2.983824 0.039653 -0.009979 1208100.000000 0 1 0
2.766756 1.983176 -21.301512 21.571795 0.621904 2.983127 0.050267 -0.012064 1101390.000000 0 1 0
4.211656 2.001876 -21.153512 21.661408 0.443708 2.924617 0.070749 -0.012296 1497730.000000 0 1 0
4.963556 1.365576 -22.343312 22.928699 0.268478 2.915141 0.073034 -0.008050 -658223.000000 0 1 0
6.338256 1.267076 -22.191312 23.113487 0.197308 2.858164 0.067643 -0.014673 -481965.000000 0 1 0
6.992656 0.843976 -23.377912 24.415902 0.120114 2.848958 0.059743 -0.011158 862002.000000 0 1 0
8.548756 0.640876 -23.290012 24.817667 0.074827 2.788897 0.050768 -0.016516 984484.000000 0 1 0
9.210756 1.897976 -23.175312 25.010706 0.203216 2.756106 0.055826 -0.024072 -520185.000000 0 0 1
10.576656 1.786376 -23.434112 25.772357 0.167319 2.712331 0.044145 -0.015764 -944479.000000 0 0 1
14.206156 -20.876543 22.843980 34.051320 -0.973289 0.835416 0.099763 -0.000146 -816889.000000 0 0 1
13.198556 -21.772843 23.201380 34.446519 -1.025835 0.831798 0.103204 -0.003192 918769.000000 0 0 1
11.829356 -21.306843 23.153780 33.615663 -1.063977 0.810992 0.086606 -0.014905 1473040.000000 0 0 1
11.278656 -21.191343 21.694580 32.356389 -1.081699 0.835930 0.080228 -0.016864 -616536.000000 0 0 1
11.641956 -19.991443 20.993880 31.239974 -1.043458 0.833863 0.074889 -0.010797 -19248.800000 0 0 1
11.297856 -20.151543 19.667580 30.340402 -1.059817 0.865538 0.090215 -0.012364 77782.000000 0 0 1
11.544356 -18.760043 18.964280 29.066395 -1.019152 0.859988 0.089104 -0.012541 61887.100000 0 0 1
10.716756 -17.707243 19.422780 28.383793 -1.026548 0.817165 0.096669 -0.013532 -23216.700000 0 0 1
10.868756 -16.600443 18.589880 27.189855 -0.991105 0.817967 0.088731 -0.018657 78549.100000 0 0 1
9.791456 -15.543243 18.894980 26.353089 -1.008646 0.771317 0.087203 -0.017324 -179012.000000 0 0 1
8.525556 -15.741143 18.331680 25.622631 -1.074418 0.773530 0.067798 -0.014870 -854132.000000 0 0 1
7.716056 -14.682143 18.807680 25.076517 -1.086926 0.722717 0.043576 -0.017562 210304.000000 0 0 1
6.248956 -14.828143 18.315280 24.379762 -1.171957 0.720843 0.025838 -0.017141 79621.000000 0 1 0
6.024356 -14.870043 16.956880 23.344097 -1.185872 0.757744 0.020850 -0.015986 -817901.000000 0 1 0
4.681356 -15.035743 16.629080 22.902292 -1.268961 0.758181 0.005041 -0.015099 -701447.000000 0 1 0
4.082056 -16.449543 16.528080 23.673363 -1.327554 0.797955 0.004307 -0.015270 -713107.000000 0 1 0
2.707556 -16.496143 16.239980 23.306449 -1.408114 0.799867 0.002740 -0.009076 -386392.000000 0 1 0
2.177256 -17.804043 16.384380 24.293463 -1.449111 0.830596 0.004661 -0.014949 -286833.000000 0 1 0
0.672256 -17.735943 16.149980 23.996614 -1.532911 0.832524 0.008650 -0.006156 -490742.000000 0 1 0
0.285156 -17.505643 14.848280 22.956487 -1.554508 0.867414 0.015652 -0.007253 -392427.000000 0 1 0
-1.077044 -17.843543 14.718080 23.155430 1.510509 0.881984 0.016820 0.004743 -318073.000000 0 1 0
-1.535544 -17.954343 13.278980 22.384094 1.485479 0.935728 0.012122 -0.012588 -50257.700000 0 1 0
-2.942244 -18.000743 13.125580 22.471413 1.408778 0.947024 0.009815 -0.015191 -5635.190000 0 1 0
-3.259644 -19.227343 12.545680 23.188577 1.402861 0.999137 0.020610 -0.019549 -890520.000000 0 1 0
-4.756644 -19.439543 12.426380 23.557089 1.330822 1.015140 0.024282 -0.017636 -836851.000000 0 1 0
-5.458044 -19.749843 13.589380 24.586944 1.301167 0.985187 0.024178 -0.015886 -193504.000000 0 1 0
-5.639744 -21.167743 13.697580 25.836094 1.310414 1.011993 -0.007271 0.004619 -97867.500000 0 0 1
-6.428044 -21.679243 14.942880 27.103487 1.282547 0.986843 0.006823 0.001091 735033.000000 0 0 1
-7.838444 -21.527443 14.837980 27.295378 1.221604 0.996067 0.022989 0.003213 298428.000000 0 0 1
-8.581444 -22.299543 15.770480 28.628986 1.203439 0.987405 0.022491 -0.000481 464463.000000 0 0 1
-10.097144 -21.985843 15.674280 28.827291 1.140271 0.995920 0.037811 -0.007352 327259.000000 0 0 1
-10.389844 -20.645843 16.061780 28.145701 1.104559 0.963480 0.024550 -0.007790 -595678.000000 0 0 1
-11.761744 -20.357643 16.064180 28.475080 1.046894 0.971394 0.038766 -0.013303 -214854.000000 0 0 1
-12.065244 -19.127743 16.915080 28.241116 1.008057 0.928604 0.038225 -0.011069 -627012.000000 0 0 1
-12.039344 -19.387243 18.314980 29.261741 1.015084 0.894509 0.032410 -0.012012 -115756.000000 0 0 1
-12.412044 -18.318043 19.099280 29.229986 0.975272 0.858711 0.035271 -0.010386 -189791.000000 0 0 1
-12.979444 -18.769643 20.466380 30.653519 0.965789 0.839724 0.034736 -0.010209 401592.000000 0 0 1
-14.190844 -19.518743 20.353480 31.569377 0.942154 0.870136 0.030835 -0.006013 303505.000000 0 0 1
-14.398444 -20.194943 21.560380 32.863367 0.951417 0.855208 0.025586 0.001223 158020.000000 0 0 1
-15.746844 -20.957743 21.534080 33.925016 0.926424 0.883105 0.034071 -0.003191 -362439.000000 0 0 1
-15.637644 -21.946543 20.455480 33.832135 0.951708 0.921512 0.028251 -0.007533 138478.000000 0 0 1
-16.890444 -22.185843 19.868480 34.238213 0.920092 0.951698 0.041185 -0.004521 -392818.000000 0 0 1
-17.939344 -22.983343 20.614780 35.707468 0.908036 0.955349 0.047970 -0.012191 -831692.000000 0 0 1
-18.570944 -22.214943 21.625980 36.139545 0.874506 0.929291 0.043249 -0.006825 -84441.400000 0 0 1
-19.337944 -22.951743 22.556080 37.543513 0.870645 0.926297 0.057742 -0.003427 119154.000000 0 0 1
-20.005644 -22.046843 23.642500 38.016535 0.833899 0.899629 0.057061 -0.002157 641670.000000 0 0 1
-20.968044 -21.092443 23.136480 37.680854 0.788356 0.909663 0.061537 0.004523 613528.000000 0 0 1
-21.105644 -20.013343 24.066750 37.751696 0.758840 0.879546 0.059547 0.004797 105246.000000 0 0 1
-22.009344 -18.835543 23.638220 37.389228 0.707850 0.886381 0.070500 0.001111 125375.000000 0 0 1
-21.566344 -18.148243 22.467480 36.045161 0.699543 0.897822 0.049954 0.009638 230337.000000 0 0 1
-22.564244 -17.225543 21.992680 35.910200 0.652022 0.911659 0.067309 0.005147 213342.000000 0 0 1
-22.203244 -16.488543 20.683680 34.535065 0.638760 0.928647 0.054383 0.009646 590778.000000 0 0 1
-21.120044 -15.521443 20.670680 33.380361 0.633777 0.903013 0.053484 0.008973 279334.000000 0 0 1
-21.033644 -15.024443 19.334380 32.279503 0.620262 0.928585 0.036112 0.007301 360868.000000 0 0 1
-19.845044 -14.073743 18.998980 30.868386 0.616862 0.907797 0.020486 -0.000466 261443.000000 0 0 1
-19.567744 -14.078443 17.594680 29.844127 0.623675 0.940292 0.020969 -0.003281 -260400.000000 0 0 1
-18.785344 -12.997943 17.184080 28.585456 0.605282 0.925860 0.034220 -0.016909 -630523.000000 0 0 1
-18.240044 -13.210343 15.735280 27.473832 0.626816 0.960955 0.029059 -0.024790 293765.000000 0 0 1
-17.672244 -12.036443 15.137780 26.198026 0.597924 0.954739 0.032483 -0.024493 265351.000000 0 0 1
-16.464444 -11.519343 15.648180 25.468387 0.610491 0.909151 0.027200 -0.030441 -454009.000000 0 0 1
-16.194244 -10.164643 15.077580 24.349680 0.560517 0.903059 0.045652 -0.035598 279044.000000 0 1 0
-17.104044 -9.136443 15.494480 24.821399 0.490607 0.896640 0.056899 -0.031315 191128.000000 0 1 0
-16.841144 -7.993643 14.695280 23.737601 0.443162 0.903236 0.061185 -0.027288 -664254.000000 0 1 0
-17.054444 -6.672343 15.501580 23.993191 0.372930 0.868356 0.058164 -0.012887 695466.000000 0 1 0
-16.131344 -6.360043 16.570180 23.984188 0.375554 0.808092 0.057391 -0.012047 770080.000000 0 1 0
-14.760444 -6.162143 16.225980 22.784318 0.395481 0.778232 0.063086 -0.020114 47347.300000 0 1 0
-13.876544 -6.065343 17.480480 23.128209 0.412069 0.713909 0.061930 -0.021816 -148246.000000 0 1 0
-13.875344 -7.191943 18.363280 24.113467 0.478200 0.705116 0.054174 -0.025107 257439.000000 0 1 0
-13.235944 -8.378643 17.820380 23.726732 0.564347 0.721119 0.055559 -0.026394 -496607.000000 0 1 0
-13.305644 -9.665943 18.741880 24.934488 0.628261 0.720244 0.046754 -0.024265 -53429.800000 0 1 0
-14.527744 -10.355143 18.857880 25.959661 0.619254 0.757683 0.043830 -0.022437 -139594.000000 0 0 1
-15.350944 -9.743943 19.836280 26.908622 0.565577 0.741921 0.038827 -0.015794 -1585440.000000 0 0 1
-16.744544 -10.262443 20.117580 28.114312 0.549838 0.773366 0.028613 -0.010550 -270096.000000 0 0 1
-17.763444 -10.114643 19.152480 28.011845 0.517621 0.817937 0.030549 -0.012237 267663.000000 0 0 1
-18.090244 -8.810743 18.771380 27.518191 0.453229 0.820105 0.038510 -0.018401 -1099670.000000 0 0 1
-19.115044 -8.859443 17.633080 27.473627 0.434007 0.873929 0.054838 -0.020540 343200.000000 0 0 1
-20.458644 -9.052943 18.102080 28.778416 0.416599 0.890510 0.044560 -0.015331 -113543.000000 0 0 1
-21.368944 -9.082543 17.070280 28.818724 0.401900 0.936845 0.057438 -0.017869 -463989.000000 0 0 1
-22.797144 -9.272443 17.614380 30.264738 0.386301 0.949598 0.057762 -0.010378 -283089.000000 0 0 1
-23.365744 -8.179943 18.298980 30.785096 0.336749 0.934264 0.066523 -0.010475 781617.000000 0 0 1
-24.771344 -8.439843 18.403380 31.992731 0.328375 0.957903 0.073975 -0.008556 869328.000000 0 0 1
-25.578984 -7.316943 19.192480 32.805082 0.278613 0.945860 0.068419 -0.012850 134700.000000 0 0 1
-25.536264 -7.538343 20.625880 33.680177 0.287049 0.911698 0.069529 -0.009730 867453.000000 0 0 1
-26.347544 -6.534743 21.316980 34.515353 0.243115 0.905098 0.064200 -0.014068 -42669.500000 0 0 1
-26.411424 -6.747243 22.851680 35.570885 0.250117 0.873136 0.055302 -0.008711 52377.900000 0 0 1
-25.337034 -6.343943 23.683310 35.257766 0.245338 0.834270 0.058529 -0.011718 720534.000000 0 0 1
-24.103344 -7.077343 23.512330 34.407698 0.285598 0.818462 0.056746 -0.007098 485294.000000 0 0 1
-23.124044 -6.797043 24.677820 34.495159 0.285886 0.773601 0.054884 -0.005639 68427.100000 0 0 1
-22.470644 -5.547343 24.582910 33.764217 0.242031 0.755286 0.048122 -0.008444 -452055.000000 0 0 1
-21.590844 -5.358043 25.616400 33.927469 0.243249 0.715090 0.065206 -0.015251 -246741.000000 0 0 1
-21.051144 -3.879643 25.755290 33.489360 0.182251 0.693429 0.068567 -0.019537 508469.000000 0 0 1
-20.107744 -3.635243 26.829000 33.724347 0.178856 0.650901 0.058953 -0.018751 511746.000000 0 0 1
-20.608444 -3.461343 28.189350 35.090288 0.166404 0.637918 0.049792 -0.017387 147410.000000 0 0 1
-21.444144 -2.185443 28.494810 35.729283 0.101563 0.647623 0.056732 -0.022789 250316.000000 0 0 1
-22.651344 -2.125743 27.771090 35.900357 0.093572 0.686356 0.068279 -0.021964 -725219.000000 0 0 1
-23.366144 -1.037143 28.262330 36.685306 0.044357 0.691329 0.063657 -0.021915 269251.000000 0 0 1
-24.757844 -0.762943 27.634660 37.110745 0.030806 0.730780 0.055847 -0.016831 -272114.000000 0 0 1
-24.602144 -0.299543 26.337170 36.041667 0.012175 0.751388 0.056309 -0.016238 338184.000000 0 0 1
-25.776964 -0.146443 25.515100 36.269735 0.005681 0.790512 0.049488 -0.017232 384179.000000 0 0 1
-26.443144 -1.524043 25.130590 36.511767 0.057571 0.811671 0.040327 -0.010784 -321083.000000 0 0 1
-27.306254 -1.992643 26.139840 37.853578 0.072845 0.808545 0.029031 -0.005579 -149694.000000 0 0 1
-27.675044 -3.360543 25.970920 38.101050 0.120837 0.820805 0.016804 0.002309 381276.000000 0 0 1
-26.668144 -4.513043 26.382440 37.783470 0.167641 0.797841 0.036588 -0.011145 408580.000000 0 0 1
-26.577624 -4.578843 27.771960 38.711984 0.170607 0.770734 0.041735 -0.012169 152629.000000 0 0 1
-25.668844 -5.635843 28.117380 38.486872 0.216130 0.751639 0.044533 -0.012953 62853.800000 0 0 1
-25.492614 -5.913643 29.645650 39.543762 0.227943 0.723199 0.044757 -0.011476 74852.100000 0 0 1
-26.649554 -6.457943 30.260700 40.836427 0.237745 0.736205 0.052315 -0.012060 -18103.900000 0 0 1
-26.327574 -7.404943 31.257870 41.533466 0.274178 0.718803 0.069442 -0.003632 -658990.000000 0 0 1
-27.528074 -8.049543 31.932450 42.921689 0.284481 0.731804 0.043820 -0.011964 -348292.000000 0 0 1
-28.175294 -8.992643 31.101430 42.918688 0.308948 0.760256 0.040729 -0.020334 875142.000000 0 0 1
-29.600434 -9.005743 31.270230 43.989958 0.295345 0.780091 0.056417 -0.012934 703935.000000 0 0 1
-30.350764 -9.811443 30.194100 43.921714 0.312665 0.812821 0.035330 -0.022024 -259884.000000 0 0 1
-30.033194 -11.165443 30.219480 44.044033 0.355936 0.814655 0.046341 -0.027076 -93734.100000 0 0 1
-30.847204 -11.956743 29.405040 44.262513 0.369782 0.844195 0.023942 -0.017513 -508145.000000 0 0 1
-30.135084 -13.114243 28.712100 43.640478 0.410463 0.852738 0.036794 -0.023393 711579.000000 0 0 1
-29.113134 -12.664443 27.764880 42.176430 0.410317 0.852234 0.050984 -0.023848 90911.600000 0 0 1
-28.293894 -13.669243 27.374720 41.674548 0.450050 0.854138 0.062461 -0.018846 -529958.000000 0 0 1
-26.901014 -13.154143 26.921530 40.267416 0.454795 0.838514 0.078237 -0.018838 756021.000000 0 0 1
-25.995254 -12.513543 27.875410 40.117085 0.448639 0.802583 0.076015 -0.021694 689832.000000 0 0 1
-26.412114 -11.255543 28.367930 40.361200 0.402845 0.791398 0.073710 -0.022850 -814466.000000 0 0 1
-26.548524 -10.040343 27.431870 39.473284 0.361563 0.802449 0.080484 -0.020551 295835.000000 0 0 1
-25.330354 -9.511943 26.907250 38.158931 0.359223 0.788181 0.068817 -0.017759 585380.000000 0 0 1
-24.663944 -10.348443 25.935540 37.256579 0.397269 0.800799 0.063142 -0.019637 -2516.410000 0 0 1
-25.337514 -10.321043 24.524710 36.742005 0.386820 0.839971 0.064501 -0.007678 -126439.000000 0 0 1
-26.600264 -10.942043 24.481450 37.770938 0.390253 0.865636 0.075042 -0.013277 -218081.000000 0 0 1
-27.144574 -10.851443 23.193280 37.316350 0.380304 0.900100 0.085139 -0.008840 25338.300000 0 0 1
-28.553384 -11.476543 23.052180 38.450095 0.382172 0.927876 0.089074 -0.020136 -476035.000000 0 0 1
-29.689094 -10.966243 23.620040 39.491861 0.353825 0.929669 0.076080 -0.009772 -814111.000000 0 0 1
-29.746244 -11.119543 25.058480 40.452574 0.357730 0.902750 0.076390 -0.012357 -940973.000000 0 0 1
-31.202604 -11.025743 25.515800 41.787864 0.339665 0.913974 0.036239 -0.010301 -628092.000000 0 0 1
-31.672904 -9.666843 25.278520 41.660824 0.296228 0.918806 0.032767 -0.015450 -254309.000000 0 0 1
-33.065394 -9.540543 25.413250 42.780551 0.280906 0.934728 0.023994 -0.009251 169328.000000 0 0 1
-33.784554 -9.590943 26.807970 44.182005 0.276608 0.918815 -0.000035 0.000266 -256800.000000 0 0 1
-33.733564 -10.852043 27.379280 44.781080 0.311243 0.912964 0.004927 -0.009340 -13658.300000 0 0 1
-34.406128 -10.737243 28.600430 46.011462 0.302496 0.900021 -0.000567 -0.007901 -1078970.000000 0 0 1
-34.908643 -12.119943 29.163860 47.074803 0.334170 0.902663 0.000269 -0.000386 498078.000000 0 0 1
-36.026285 -12.681543 28.466950 47.634882 0.338463 0.930283 -0.011887 -0.001230 554864.000000 0 0 1
35.201128 -11.998943 28.715410 46.985837 -0.328516 0.913283 -0.020744 0.001987 -409553.000000 0 0 1
33.954428 -12.588343 28.024070 45.789935 -0.355033 0.912192 -0.011884 0.001249 -90011.300000 0 0 1
33.951978 -12.473143 26.602400 44.899931 -0.352070 0.936660 -0.004357 0.001118 143889.000000 0 0 1
32.786088 -13.060243 26.028290 43.851675 -0.379081 0.935330 0.004825 0.004696 323162.000000 0 0 1
32.617878 -12.535543 24.603180 42.736194 -0.366912 0.957338 0.012412 0.000516 57514.200000 0 0 1
32.201638 -11.137043 24.549600 41.995977 -0.332976 0.946446 0.030952 -0.010655 104773.000000 0 0 1
32.430928 -10.471843 23.373240 41.324726 -0.312328 0.969636 0.027663 -0.015964 -553332.000000 0 0 1
32.234418 -8.916343 23.377870 40.805437 -0.269862 0.960744 0.061109 -0.004447 -1195450.000000 0 0 1
30.890558 -8.626143 23.464090 39.739155 -0.272312 0.939177 0.062266 -0.014677 -1229440.000000 0 0 1
30.627098 -7.364743 22.884580 38.935365 -0.235985 0.942511 0.078234 -0.002831 1037030.000000 0 0 1
29.070668 -7.113343 22.824680 37.638670 -0.239976 0.919251 0.059665 0.012817 941310.000000 0 0 1
28.475288 -7.913543 21.856380 36.758231 -0.271069 0.934030 0.056928 0.012671 -683248.000000 0 0 1
27.081828 -7.757143 21.877680 35.668356 -0.278964 0.910484 0.058258 -0.006171 -234998.000000 0 0 1
14.328056 -17.342443 26.770200 34.967087 -0.880292 0.698850 0.067259 -0.010128 65762.200000 0 0 1
13.848456 -18.682343 26.605680 35.336552 -0.932913 0.718305 0.060399 -0.012397 4587.180000 0 0 1
14.882656 -19.625643 26.605980 36.256551 -0.921987 0.746860 0.066832 -0.010091 -707776.000000 0 0 1
14.363056 -21.097343 26.571560 36.843495 -0.973073 0.765262 0.056404 -0.017885 444750.000000 0 0 1
13.510256 -21.557943 27.625860 37.556093 -1.010979 0.744260 0.049009 -0.015012 1373190.000000 0 0 1
12.166156 -21.027443 27.593460 36.763675 -1.046272 0.721882 0.049399 -0.008856 719257.000000 0 0 1
11.309256 -21.527243 28.796000 37.689934 -1.087078 0.701270 0.039555 -0.009440 1057.060000 0 0 1
11.855656 -20.939743 29.938270 38.410018 -1.055616 0.677026 0.038286 -0.016921 149940.000000 0 0 1
11.167756 -19.851843 30.573470 38.125471 -1.058365 0.640299 0.047565 -0.018537 73113.500000 0 0 1
11.009556 -18.453843 29.908790 36.827848 -1.032881 0.623013 0.046206 -0.014225 1607730.000000 0 0 1
12.249456 -17.689643 30.074160 36.978748 -0.965145 0.621025 0.040967 -0.002230 1216430.000000 0 0 1
12.028856 -16.387743 29.626920 35.930571 -0.937604 0.601372 0.048853 -0.005977 405673.000000 0 0 1
13.189056 -15.395843 29.965150 36.178632 -0.862446 0.594809 0.040564 -0.006077 420146.000000 0 0 1
12.860256 -14.130443 29.464590 35.117199 -0.832424 0.575288 0.055381 -0.009256 -160107.000000 0 0 1
13.672056 -13.108243 29.974350 35.457197 -0.764348 0.563544 0.051926 -0.009557 15905.200000 0 0 1
13.034956 -11.660943 29.794810 34.548783 -0.729818 0.530808 0.048328 -0.010683 318506.000000 0 0 1
13.158156 -11.086443 28.416440 33.219578 -0.700155 0.544450 0.069063 -0.014727 -483445.000000 0 0 1
14.473456 -10.827343 28.022310 33.346097 -0.642273 0.572872 0.068235 -0.013636 -657212.000000 0 0 1
14.690856 -9.637643 27.087980 32.287213 -0.580603 0.575410 0.071458 -0.008350 -17599.900000 0 0 1
14.764556 -8.405143 27.788750 32.570741 -0.517524 0.548742 0.066473 -0.014991 -374409.000000 0 0 1
16.057556 -8.176243 28.270320 33.524723 -0.470967 0.567462 0.068924 -0.015900 -606708.000000 0 0 1
16.508556 -6.613743 28.237360 33.370983 -0.381045 0.562049 0.069366 -0.016552 -1140240.000000 0 0 1
17.871156 -6.535343 28.144770 33.973770 -0.350586 0.594504 0.070061 -0.022311 -1414250.000000 0 0 1
18.278356 -5.242043 27.781420 33.665778 -0.279294 0.600218 0.066147 -0.020227 -2479.030000 0 0 1
19.805156 -5.115443 27.602390 34.355551 -0.252764 0.637757 0.058520 -0.018079 -312581.000000 0 0 1
20.350556 -5.926743 26.554410 33.976582 -0.283394 0.673649 0.057169 -0.010088 50963.100000 0 0 1
21.709356 -5.837243 26.232760 34.547464 -0.262669 0.708521 0.047080 -0.000787 196177.000000 0 0 1
22.846156 -6.087543 27.251710 36.078536 -0.260408 0.714617 0.049701 -0.003494 -374661.000000 0 0 1
23.116856 -4.937143 28.059870 36.689518 -0.210412 0.700077 0.051407 -0.006012 355601.000000 0 0 1
24.197156 -5.217143 28.962020 38.098813 -0.212359 0.707204 0.075072 -0.021300 381677.000000 0 0 1
24.916056 -3.953343 29.495050 38.812327 -0.157355 0.707575 0.075125 -0.022828 -174328.000000 0 0 1
25.577456 -3.345443 28.389400 38.358262 -0.130058 0.737560 0.062272 -0.008336 -35184.600000 0 0 1
25.869856 -2.026243 28.756330 38.733469 -0.078165 0.734128 0.049675 -0.013095 -434732.000000 0 0 1
26.598556 -1.288843 27.624990 38.370358 -0.048418 0.767057 0.046768 -0.013546 395068.000000 0 0 1
27.961756 -1.672243 27.618250 39.337310 -0.059734 0.792471 0.058739 -0.013681 726187.000000 0 0 1
28.926856 -0.886143 26.837810 39.469182 -0.030624 0.823076 0.054863 0.002448 1936900.000000 0 0 1
30.388256 -1.049043 27.387170 40.921922 -0.034508 0.837592 0.046337 0.005146 711744.000000 0 0 1
30.688856 -0.207243 28.503560 41.884386 -0.006753 0.822311 0.028329 0.014385 48284.700000 0 0 1
32.071156 -0.176243 28.808990 43.110881 -0.005495 0.838938 0.036734 0.003777 456730.000000 0 0 1
32.539156 0.995057 29.737700 44.092149 0.030571 0.830584 0.037049 -0.004710 116381.000000 0 0 1
32.352856 2.298357 29.163970 43.617965 0.070921 0.838441 0.027568 0.002665 42328.600000 0 0 1
32.724856 3.320657 30.059970 44.559452 0.101126 0.830369 0.022331 0.003028 43181.800000 0 0 1
32.738256 4.681057 29.312660 44.192055 0.142022 0.845574 0.021626 0.005323 758.661000 0 0 1
32.996856 5.818057 30.051120 45.007912 0.174528 0.839701 0.031672 0.001331 790666.000000 0 0 1
31.830656 6.254257 30.808150 44.737551 0.194014 0.811182 0.022168 0.008014 540948.000000 0 0 1
32.019556 7.241257 31.912070 45.782835 0.222410 0.799547 0.032056 -0.002590 -277471.000000 0 0 1
32.647356 6.608657 32.994188 46.884333 0.199727 0.790154 0.028040 -0.003247 12582.100000 0 0 1
32.637856 7.466557 34.124775 47.806688 0.224900 0.775876 0.027735 -0.012327 -124641.000000 0 0 1
33.339256 6.839357 -33.043812 47.436023 0.202337 2.341440 0.041244 -0.012950 -416011.000000 0 0 1
32.701856 5.793057 -32.411982 46.405899 0.175329 2.344019 0.026311 -0.013123 -48196.100000 0 0 1
32.664056 4.573257 -33.099322 46.727083 0.139105 2.357960 0.046930 -0.015092 -99475.400000 0 0 1
32.273856 3.384557 -32.162752 45.689163 0.104488 2.351736 0.039280 -0.020872 -123778.000000 0 0 1
32.576256 2.112557 -32.648872 46.169516 0.064759 2.356259 0.039539 -0.026818 -221.373000 0 0 1
32.633456 1.225957 -31.580202 45.428565 0.037550 2.339441 0.037386 -0.028415 -96699.400000 0 0 1
32.995456 -0.261343 -31.820382 45.839995 -0.007920 2.338051 0.037841 -0.031761 -909662.000000 0 0 1
34.137456 -0.485443 -32.584832 47.195051 -0.014219 2.332878 0.042735 -0.028766 -555001.000000 0 0 1
34.754056 -1.721343 -32.326872 47.495622 -0.049489 2.319416 0.048246 -0.022046 411352.000000 0 0 1
35.581156 -1.966143 -31.014522 47.241771 -0.055202 2.286974 0.056137 -0.023445 -306787.000000 0 0 1
34.826456 -1.881443 -29.822062 45.888748 -0.053971 2.278219 0.054856 -0.023376 64506.300000 0 0 1
35.636056 -1.797943 -28.672692 45.774276 -0.050410 2.247714 0.067988 -0.024490 176398.000000 0 0 1
34.753156 -1.462643 -27.418282 44.290895 -0.042062 2.238329 0.070684 -0.024872 78901.600000 0 0 1
34.331256 -0.135443 -27.454802 43.959295 -0.003945 2.245352 0.049012 -0.018459 641594.000000 0 0 1
33.401956 0.174357 -26.408492 42.580858 0.005220 2.239789 0.062491 -0.016219 141766.000000 0 0 1
32.872956 1.572457 -26.296292 42.125987 0.047798 2.244941 0.038662 -0.009771 92181.000000 0 0 1
32.164456 1.972457 -27.471312 42.345198 0.061247 2.276733 0.049727 -0.026731 49047.100000 0 0 1
31.177556 2.910457 -27.221112 41.490959 0.093081 2.286400 0.031120 -0.008434 -290796.000000 0 0 1
30.491256 3.439357 -28.531952 41.900097 0.112323 2.319858 0.041870 -0.016583 59433.100000 0 0 1
29.377656 4.216457 -28.142302 40.900053 0.142552 2.329629 0.039113 -0.012335 15087.300000 0 0 1
28.611356 4.568657 -29.253702 41.173552 0.158343 2.361001 0.047689 -0.016737 -412978.000000 0 0 1
27.361456 5.396457 -28.930692 40.184026 0.194729 2.374534 0.045845 -0.019764 -68884.400000 0 0 1
26.278156 4.656357 -28.373162 38.952015 0.175375 2.386799 0.060765 -0.023192 165877.000000 0 0 1
25.390156 5.500157 -27.703712 37.979039 0.213329 2.388310 0.062702 -0.028042 -423038.000000 0 0 1
23.986156 4.893757 -27.533722 36.842779 0.201262 2.414831 0.068880 -0.022164 -485565.000000 0 0 1
23.193156 4.795757 -28.652782 37.173965 0.203901 2.450854 0.068132 -0.016411 -281966.000000 0 0 1
21.952856 4.188857 -28.460872 36.186954 0.188545 2.475910 0.068231 -0.013085 -41914.000000 0 0 1
21.009156 3.971157 -29.684382 36.583018 0.186816 2.517383 0.063992 -0.008454 259398.000000 0 0 1
21.260856 2.708857 -30.293502 37.108734 0.126728 2.525849 0.074506 -0.018495 -19252.200000 0 0 1
20.462656 2.454757 -31.401902 37.560958 0.119392 2.560795 0.049925 -0.019383 -508342.000000 0 0 1
20.767756 3.121557 -32.761282 38.914591 0.149191 2.571547 0.054137 -0.014382 -727881.000000 0 0 1
21.957056 2.717957 -33.357632 40.027880 0.123159 2.555955 0.089215 -0.018644 -560193.000000 0 0 1
22.382856 3.492257 34.006722 40.861293 0.154776 0.587646 0.073307 -0.026395 -915697.000000 0 0 1
23.777756 3.242357 33.497763 41.206731 0.135525 0.621648 0.083196 -0.022793 -717498.000000 0 0 1
23.869956 1.927357 32.972429 40.751326 0.080569 0.628155 0.094186 -0.029864 -189751.000000 0 0 1
25.238356 1.603857 32.927421 41.518213 0.063463 0.654941 0.086247 -0.031817 -312066.000000 0 0 1
25.404556 0.107357 32.824325 41.507100 0.004226 0.658661 0.069588 -0.026445 -616859.000000 0 0 1
24.991256 -0.410943 31.590410 40.282574 -0.016442 0.669358 0.063518 -0.025811 -7005.680000 0 0 1
23.616756 -0.595243 31.359530 39.262267 -0.025199 0.645633 0.086421 -0.038983 -490675.000000 0 0 1
22.809256 -1.619343 32.175750 39.473578 -0.070876 0.617858 0.088087 -0.047950 -638949.000000 0 0 1
22.936256 -2.995743 31.782430 39.308640 -0.129876 0.629137 0.085628 -0.046892 212609.000000 0 0 1
22.323156 -3.863743 32.744407 39.817685 -0.171384 0.605253 0.094187 -0.045021 32928.100000 0 0 1
22.428356 -5.352843 32.492081 39.842433 -0.234281 0.617179 0.091190 -0.038085 -1221.990000 0 0 1
23.695056 -5.876243 32.802173 40.889711 -0.243090 0.639807 0.085141 -0.021780 -197809.000000 0 0 1
23.609156 -7.264543 32.465170 40.794033 -0.298506 0.650417 0.108373 -0.031984 569418.000000 0 0 1
24.983456 -7.972543 32.220920 41.544220 -0.308898 0.683161 0.079019 -0.022891 518763.000000 0 0 1
25.295456 -7.804043 30.840160 40.643310 -0.299251 0.709327 0.097501 -0.023360 54440.800000 0 0 1
26.492056 -8.496343 30.478190 41.266657 -0.310349 0.739854 0.079893 -0.021145 594803.000000 0 0 1
26.921756 -8.258943 28.974880 40.404638 -0.297661 0.771138 0.071112 -0.010598 98699.900000 0 0 1
26.109456 -8.949443 28.073690 39.369129 -0.330216 0.776902 0.060687 -0.003305 -378693.000000 0 0 1
26.277056 -8.345543 26.776740 38.433392 -0.307523 0.800002 0.066157 0.003904 156774.000000 0 0 1
25.487856 -8.934643 25.587910 37.204836 -0.337160 0.812401 0.037161 0.005279 -13587.100000 0 0 1
24.116956 -8.651343 25.439560 36.106018 -0.344426 0.788966 0.055170 0.001989 -273950.000000 0 0 1
23.591656 -9.655643 24.574410 35.407617 -0.388483 0.803707 0.065351 -0.006972 720160.000000 0 0 1
22.113256 -9.363443 24.146850 34.054964 -0.400541 0.782639 0.032821 -0.000119 816164.000000 0 0 1
21.140556 -9.520443 25.173960 34.224118 -0.423137 0.744300 0.031684 0.009388 -379879.000000 0 0 1
19.890756 -9.033043 24.773930 33.030072 -0.426285 0.722671 0.042843 0.009920 110596.000000 0 0 1
18.811256 -9.045643 25.892770 33.258421 -0.448221 0.678472 0.046361 -0.001401 5914.910000 0 0 1
18.308156 -10.271243 26.301590 33.652053 -0.511265 0.673610 0.061679 -0.004305 677952.000000 0 0 1
19.292056 -11.114343 26.943750 34.952507 -0.522668 0.690594 0.053816 -0.004856 672739.000000 0 0 1
18.500056 -12.100043 27.851110 35.557664 -0.579220 0.670894 0.057958 -0.009503 578180.000000 0 0 1
17.751656 -13.050943 27.097830 34.924788 -0.633959 0.682670 0.066803 -0.008953 201031.000000 0 0 1
16.885256 -13.845643 27.890570 35.421711 -0.686808 0.664239 0.067698 -0.008471 -98646.800000 0 0 1
17.545956 -15.114843 28.538810 36.752997 -0.711100 0.681700 0.070379 -0.000773 -96674.900000 0 0 1
16.728256 -15.922343 29.403390 37.388701 -0.760720 0.665797 0.059436 0.000041 180763.000000 0 0 1
17.338456 -17.068543 29.984780 38.614043 -0.777554 0.681664 0.060109 -0.002792 -336442.000000 0 0 1
17.723156 -18.259243 29.091200 38.649815 -0.800296 0.718663 0.069718 -0.003400 83340.100000 0 0 1
18.740956 -17.946943 28.154270 38.288107 -0.763759 0.744648 0.073614 -0.007369 360245.000000 0 0 1
18.995756 -19.066943 27.374570 38.389506 -0.787268 0.776923 0.060943 -0.002163 95531.500000 0 0 1
20.113656 -18.790343 26.344370 38.100683 -0.751396 0.807315 0.051205 -0.005301 -385808.000000 0 0 1
21.416056 -18.517643 26.753460 38.952512 -0.712945 0.813688 0.059388 -0.004073 -497694.000000 0 0 1
22.175056 -17.966343 25.695110 38.402621 -0.680933 0.837802 0.050323 -0.006321 -35388.100000 0 0 1
23.623556 -17.802243 26.201080 39.515679 -0.645788 0.845903 0.038571 -0.003827 -37935.400000 0 0 1
24.320556 -19.058043 26.244580 40.539813 -0.664672 0.866657 0.033437 -0.011552 297102.000000 0 0 1
25.688156 -18.845243 26.545760 41.469289 -0.632933 0.876128 0.022752 -0.005969 410663.000000 0 0 1
26.533356 -20.112643 26.852830 42.773963 -0.648610 0.892093 0.019586 -0.005906 127025.000000 0 0 1
26.293856 -20.699143 28.101730 43.698154 -0.666902 0.872273 0.030571 -0.006536 172337.000000 0 0 1
27.247856 -21.710343 28.401460 44.949167 -0.672770 0.886849 0.032005 -0.005905 215652.000000 0 0 1
26.648556 -22.822943 29.297220 45.709511 -0.708222 0.875069 0.038445 -0.005471 137549.000000 0 0 1
26.671456 -22.569343 30.653850 46.480107 -0.702283 0.850637 0.031763 -0.006495 -196586.000000 0 0 1
25.878856 -23.481843 31.361220 46.953576 -0.736875 0.839386 0.045632 -0.003552 -342021.000000 0 0 1
25.677956 -23.286343 32.888375 47.783433 -0.736593 0.811681 0.036088 -0.003409 -157016.000000 0 0 1
25.116756 -24.440743 33.363371 48.387146 -0.771758 0.809985 0.045093 -0.009451 -203037.000000 0 0 1
24.850656 -24.415643 -33.704792 48.473619 -0.776569 2.339665 0.048105 -0.006977 -191967.000000 0 0 1
24.503056 -25.790273 -33.083332 48.580292 -0.810987 2.319928 0.052179 -0.011188 1204790.000000 0 0 1
23.210556 -26.364493 -33.388412 48.462382 -0.848932 2.330843 0.058959 -0.011572 840204.000000 0 0 1
22.904056 -26.822423 33.712629 48.791183 -0.864034 0.807984 0.059327 -0.009688 303112.000000 0 0 1
21.620856 -27.705283 33.658071 48.661175 -0.908129 0.806981 0.083041 -0.011668 579738.000000 0 0 1
21.837056 -29.081953 34.038247 49.811839 -0.926732 0.818474 0.085629 -0.022003 -1482490.000000 0 0 1
20.644356 -29.683913 33.969532 49.611020 -0.963115 0.816580 0.096776 -0.027541 -1759610.000000 0 0 1
20.632156 -31.257723 34.188729 50.710949 -0.987377 0.830931 0.073466 -0.029731 -366043.000000 0 0 1
21.051356 -31.708023 -32.993712 50.370064 -0.984703 2.285014 0.058216 -0.036268 795299.000000 0 0 1
22.323456 -32.363273 -33.092022 51.388715 -0.966964 2.270453 0.047639 -0.030405 75078.100000 0 0 1
22.987256 -33.051803 -31.934052 51.386957 -0.963102 2.241379 0.034295 -0.030912 -274014.000000 0 0 1
24.140756 -33.750503 -32.485122 52.698726 -0.949895 2.234998 0.035715 -0.023821 816962.000000 0 0 1
24.971656 34.285618 -31.496792 52.831194 0.941301 2.209528 0.035165 -0.013376 326127.000000 0 0 1
25.763356 -33.286013 -30.563322 52.017553 -0.912112 2.198834 0.039018 -0.021210 -721895.000000 0 0 1
26.052356 -33.805653 -29.313772 51.776874 -0.914209 2.172631 0.049692 -0.003622 -550676.000000 0 0 1
26.882656 -32.918393 -28.653892 51.257617 -0.885988 2.163996 0.050269 -0.003239 -407344.000000 0 0 1
27.265056 -33.190833 -27.242002 50.863950 -0.883104 2.135997 0.051261 -0.000176 100500.000000 0 0 1
28.320056 -34.130895 -27.201752 52.027674 -0.878177 2.120967 0.051358 0.009167 -145379.000000 0 0 1
29.013456 -34.060346 -25.969742 51.733116 -0.865244 2.096700 0.053778 0.007595 345015.000000 0 0 1
-26.174654 -30.729263 9.561988 41.482909 0.865268 1.338200 0.038793 -0.008437 -414776.000000 0 0 1
-26.015214 -32.114663 9.871488 42.492226 0.889944 1.336341 0.032919 -0.008115 -205037.000000 0 0 1
-25.047784 -32.273563 10.852888 42.270079 0.910794 1.311137 0.017249 -0.000361 -406554.000000 0 0 1
-25.371884 -33.484863 11.709888 43.612957 0.922378 1.298965 0.001851 0.005876 151560.000000 0 0 1
-25.204824 33.820457 11.130688 43.623373 -0.930340 1.312789 0.006073 0.011625 289514.000000 0 0 1
-26.234884 32.931257 11.563188 43.662846 -0.898098 1.302770 0.002090 0.002957 341308.000000 0 0 1
-26.107964 31.474157 11.043888 42.358184 -0.878322 1.307022 0.009073 0.004792 113913.000000 0 0 1
-26.345064 31.293057 9.658888 42.031083 -0.871034 1.338921 0.023845 0.003522 -81716.400000 0 0 1
-26.502864 29.977157 9.200788 41.057109 -0.846834 1.344780 0.038444 0.006450 -196217.000000 0 0 1
-25.903054 29.699557 7.816088 40.176151 -0.853572 1.375002 0.031348 0.014111 -1483300.000000 0 0 1
-24.567844 29.423857 7.889788 39.135547 -0.875097 1.367804 0.022235 0.012047 -1366490.000000 0 0 1
-24.060944 29.282057 6.584088 38.467104 -0.882966 1.398788 0.027692 0.011015 295748.000000 0 0 1
-22.616744 28.685557 6.565788 37.114523 -0.903146 1.392954 0.027131 0.012969 194652.000000 0 0 1
-22.510844 27.253457 6.774088 35.991350 -0.880413 1.381453 0.037214 0.003663 154513.000000 0 0 1
-22.861344 26.515157 5.650188 35.462927 -0.859263 1.410788 0.023001 0.002440 -1001900.000000 0 0 1
-23.208444 25.063857 6.028888 34.686831 -0.823816 1.396100 0.035554 -0.002663 -6425.130000 0 0 1
-24.408544 24.948357 6.804588 35.559808 -0.796335 1.378253 0.045862 -0.008982 582807.000000 0 0 1
-24.667844 23.613257 7.231188 34.905279 -0.763559 1.362119 0.054829 -0.026849 177158.000000 0 0 1
-25.315904 22.688757 6.121988 34.542053 -0.730726 1.392622 0.045195 -0.033151 -415815.000000 0 0 1
-26.602864 23.062457 5.683988 35.663665 -0.714233 1.410736 0.051203 -0.032618 60093.400000 0 0 1
-26.983174 22.445257 4.448388 35.378940 -0.693847 1.444727 0.043181 -0.032860 -31457.800000 0 0 1
-26.576684 23.298357 3.241788 35.491446 -0.719762 1.479329 0.032278 -0.030581 596950.000000 0 0 1
-25.152654 23.395557 3.057488 34.487045 -0.749221 1.482024 0.030874 -0.027671 1043200.000000 0 0 1
-24.904844 24.035557 1.798888 34.658263 -0.767638 1.518869 0.020742 -0.017633 -200227.000000 0 0 1
-23.725944 24.994857 1.879488 34.513704 -0.811437 1.516313 0.027608 -0.004787 -232214.000000 0 0 1
-23.218944 25.518757 0.660088 34.507420 -0.832551 1.551666 0.018423 -0.006968 678629.000000 0 0 1
-21.991544 26.254357 0.870188 34.258962 -0.873525 1.545393 0.034554 -0.008205 334766.000000 0 0 1
-21.518144 26.901657 -0.456512 34.451967 -0.896127 1.584047 0.046618 -0.001901 153633.000000 0 0 1
-21.102444 25.946357 -1.457812 33.476137 -0.887992 1.614358 0.051904 -0.009214 825897.000000 0 0 1
-19.934544 25.122457 -1.273312 32.095875 -0.900034 1.610479 0.058496 -0.014527 276711.000000 0 0 1
-19.861444 24.044157 -2.331312 31.273526 -0.880378 1.645411 0.057230 -0.026804 55402.500000 0 0 1
-20.879544 23.057057 -2.461712 31.203257 -0.834918 1.649771 0.060132 -0.024248 -16454.200000 0 0 1
-20.479144 21.998557 -3.299412 30.236037 -0.821153 1.680136 0.066767 -0.023210 345689.000000 0 0 1
-21.647044 21.508657 -4.216312 30.805748 -0.782191 1.708095 0.066246 -0.020820 324688.000000 0 0 1
-22.010044 22.407257 -5.227212 31.841026 -0.794341 1.735709 0.056664 -0.017783 -507127.000000 0 0 1
-23.210844 22.093057 -5.853212 32.574630 -0.760730 1.751464 0.056582 -0.013392 -256109.000000 0 0 1
-23.352144 22.841557 -7.185612 33.446858 -0.774345 1.787321 0.054469 -0.010862 -122236.000000 0 0 1
-22.641144 22.214757 -8.183912 32.758101 -0.775893 1.823300 0.040813 -0.014548 -151376.000000 0 0 1
-22.320644 23.034957 -9.271912 33.388452 -0.801146 1.852194 0.047628 -0.016971 153094.000000 0 0 1
-21.648144 22.286157 -10.491212 32.792994 -0.799919 1.896444 0.039894 -0.015544 499310.000000 0 0 1
-22.564544 21.795157 -11.461112 33.399769 -0.768056 1.921064 0.010480 -0.010706 592765.000000 0 0 1
-21.800544 21.248557 -12.532912 32.921706 -0.772577 1.961337 0.004394 -0.003061 431575.000000 0 0 1
-22.759644 20.923457 -13.680112 33.807364 -0.743389 1.987391 -0.016968 -0.007554 39644.800000 0 0 1
-23.479444 19.714257 -13.628112 33.550881 -0.698448 1.989080 -0.005902 -0.000867 713907.000000 0 0 1
-24.554144 19.763257 -14.600812 34.737242 -0.677712 2.004596 -0.004492 -0.008934 932114.000000 0 0 1
-25.333244 18.421757 -14.742712 34.619097 -0.628734 2.010703 0.033786 -0.011239 81976.600000 0 0 1
-24.691244 17.616857 -15.642812 34.127829 -0.619720 2.046945 0.022037 -0.008634 -479310.000000 0 0 1
-25.421314 16.471357 -15.781212 34.155460 -0.574922 2.051091 0.043677 -0.015107 -613867.000000 0 0 1
-25.010244 15.670157 -16.978912 34.049222 -0.559713 2.092846 0.046904 -0.004551 -810936.000000 0 0 1
-23.786044 15.101557 -16.688112 32.746389 -0.565681 2.105536 0.047956 -0.004614 -812396.000000 0 0 1
-23.275244 14.572857 -17.916612 32.788872 -0.559397 2.148884 0.054515 -0.010647 -426429.000000 0 0 1
-22.632544 13.193957 -17.840712 31.695481 -0.527799 2.168661 0.062845 -0.006146 -14943.100000 0 0 1
-21.451744 13.403457 -17.071012 30.516379 -0.558469 2.164464 0.056333 -0.013543 -151427.000000 0 0 1
-20.737344 12.207557 -16.930712 29.422965 -0.532051 2.183920 0.065293 -0.013446 -200479.000000 0 0 1
-19.525044 12.405257 -15.984212 28.117837 -0.566008 2.175444 0.054668 -0.016045 12128.300000 0 0 1
-18.571144 13.278757 -16.548212 28.196739 -0.620736 2.198001 0.045284 -0.008886 -45562.100000 0 0 1
-17.429044 13.454757 -15.741212 27.066359 -0.657416 2.191464 0.044975 -0.002880 -54332.800000 0 0 1
-16.576544 14.622657 -16.229812 27.422813 -0.722854 2.204131 0.027742 0.002232 -521192.000000 0 0 1
-15.821444 14.383357 -17.359112 27.541565 -0.737823 2.252720 0.036027 -0.002723 -427857.000000 0 0 1
-14.915144 15.424157 -17.584312 27.741199 -0.802174 2.257343 0.042975 -0.000925 303025.000000 0 0 1
-13.906944 15.084257 -18.757912 27.799229 -0.825985 2.311441 0.044342 -0.005296 37242.100000 0 0 1
-12.952644 14.128457 -18.502712 26.640845 -0.828789 2.338555 0.042213 -0.005170 -1623250.000000 0 0 1
-12.028844 14.160357 -19.471412 26.913652 -0.866608 2.379622 0.038339 -0.006731 -656109.000000 0 0 1
-11.222744 12.829057 -19.594212 25.970518 -0.852085 2.425656 0.028162 -0.013334 -194515.000000 0 0 1
-11.952344 11.856157 -20.214912 26.307216 -0.781358 2.447160 0.033367 -0.008002 -456902.000000 0 0 1
-11.364544 10.576957 -20.010312 25.326615 -0.749519 2.481753 0.019422 0.001043 -67798.700000 0 0 1
-11.861344 9.523957 -20.969712 25.906100 -0.676532 2.514012 0.028653 -0.001419 -88670.700000 0 0 1
-11.348244 9.709557 -22.288912 26.830090 -0.707736 2.551238 0.024933 -0.003008 18462.000000 0 0 1
-11.863144 8.775157 -23.196912 27.492440 -0.636876 2.575040 0.017248 0.013883 48218.600000 0 0 1
-11.223444 8.928757 -24.617212 28.490270 -0.672019 2.614070 0.023178 -0.010011 226628.000000 0 0 1
-9.847144 8.537557 -24.689912 27.918593 -0.714286 2.655904 0.022047 -0.005437 326929.000000 0 0 1
-9.555144 8.138857 -26.040702 28.907783 -0.705525 2.692450 0.003667 -0.016984 -92125.900000 0 0 1
-9.415344 9.175257 -27.194722 30.205743 -0.772484 2.691292 0.035979 -0.018486 -198681.000000 0 0 1
-8.165544 9.811857 -27.379372 30.208916 -0.876720 2.705323 0.034824 -0.022779 209873.000000 0 0 1
-8.054944 11.003657 -26.618122 29.907975 -0.938899 2.668143 0.015150 -0.020245 -203286.000000 0 0 1
-6.631844 11.579257 -26.735632 29.880672 -1.050666 2.678660 0.015988 -0.018633 -123226.000000 0 0 1
-6.347044 12.039757 -28.033272 31.162558 -1.085647 2.689607 0.018785 -0.025406 -456988.000000 0 0 1
-5.041144 12.499557 -28.142952 31.203810 -1.187443 2.694962 0.039967 -0.024745 -636869.000000 0 0 1
-4.512644 12.780757 -29.591122 32.547599 -1.231379 2.712070 0.042293 -0.023375 848307.000000 0 0 1
-3.144844 13.273157 -29.578022 32.571860 -1.338154 2.709485 0.059976 -0.035389 867662.000000 0 0 1
-2.557044 12.967557 -30.784182 33.501669 -1.376106 2.736041 0.062701 -0.030130 -523094.000000 0 0 1
-1.033744 12.854557 -30.802842 33.393462 -1.490551 2.745100 0.070748 -0.042906 -714114.000000 0 0 1
-0.595944 11.754457 -30.079262 32.299913 -1.520140 2.768622 0.058598 -0.018805 152293.000000 0 0 1
0.793156 11.469857 -30.155452 32.272867 1.501755 2.777340 0.069204 -0.026429 412356.000000 0 0 1
1.337356 10.777057 -31.408212 33.232653 1.447335 2.808700 0.072433 -0.022012 -521391.000000 0 0 1
1.576756 11.643557 -32.489232 34.548643 1.436196 2.794574 0.080914 -0.032640 250925.000000 0 0 1
1.714656 10.933557 -33.689212 35.460481 1.415238 2.824191 0.079046 -0.021934 -68199.400000 0 0 1
1.998056 11.906657 33.590041 35.693859 1.404535 0.345047 0.069171 -0.022107 -131230.000000 0 0 1
3.300856 12.475957 33.609911 36.002379 1.312146 0.366613 0.074672 -0.023937 262252.000000 0 0 1
3.379156 13.137957 32.360770 35.089087 1.319047 0.396946 0.071596 -0.020967 602682.000000 0 0 1
4.866156 13.175757 31.881830 34.838644 1.217009 0.414970 0.065129 -0.017707 527900.000000 0 0 1
5.428156 11.982857 31.415680 34.058754 1.145456 0.396556 0.070467 -0.015925 -307317.000000 0 0 1
6.823456 11.962957 31.576120 34.448850 1.052439 0.411283 0.077665 -0.001077 -340663.000000 0 0 1
7.396056 10.615557 31.192210 33.769004 0.962276 0.393185 0.072155 0.000441 -281857.000000 0 0 1
7.149456 10.353357 29.818010 32.363876 0.966444 0.399293 0.062622 -0.011069 612268.000000 0 0 1
8.036456 9.291957 29.410200 31.872950 0.857725 0.395686 0.060777 -0.003921 531961.000000 0 0 1
7.404456 8.490757 28.267850 30.430088 0.853633 0.379246 0.054983 -0.005930 18043.400000 0 0 1
6.453356 7.573357 28.740640 30.414239 0.865077 0.333284 0.058287 -0.010825 -389713.000000 0 0 1
6.032156 6.775857 27.683440 29.131976 0.843398 0.316673 0.069889 -0.006647 -354074.000000 0 0 1
5.192156 5.640557 28.170890 29.195435 0.826768 0.265706 0.071712 -0.019322 -479316.000000 0 0 1
5.989356 4.698757 28.849440 29.836905 0.665229 0.257991 0.058670 -0.020071 186750.000000 0 0 1
5.270956 4.063857 29.886480 30.618615 0.656800 0.219123 0.057083 -0.027876 -67693.700000 0 0 1
5.970956 2.772857 30.403050 31.107660 0.434757 0.213245 0.072144 -0.022845 114073.000000 0 0 1
5.995556 1.647657 29.522960 30.170625 0.268192 0.207576 0.063318 -0.010124 973463.000000 0 0 1
7.331756 1.355757 29.049540 29.991140 0.182850 0.251243 0.062404 -0.003962 893449.000000 0 0 1
7.452256 0.082457 28.159680 29.129204 0.011064 0.258727 0.043532 -0.002773 28949.300000 0 0 1
7.186156 -1.132843 28.860070 29.762860 -0.156356 0.246931 0.030978 -0.001616 59960.700000 0 0 1
7.498356 -2.296943 28.107830 29.181354 -0.297251 0.272087 0.035424 -0.001420 -507697.000000 0 0 1
7.959056 -3.453843 29.071740 30.338782 -0.409428 0.290024 0.033798 -0.000555 -8533.700000 0 0 1
9.293156 -3.325043 29.508770 31.115690 -0.343602 0.322782 0.030507 -0.009384 139817.000000 0 0 1
10.205156 -4.056943 28.665090 30.696765 -0.378383 0.365865 0.038208 -0.002333 132166.000000 0 0 1
11.655756 -4.124543 29.184500 31.695482 -0.340112 0.400726 0.035313 -0.009056 326960.000000 0 0 1
12.469056 -5.151543 28.616880 31.637661 -0.391788 0.440545 0.051899 -0.012282 204508.000000 0 0 1
12.582056 -6.370743 29.388080 32.596837 -0.468703 0.447429 0.059443 -0.012572 -360831.000000 0 0 1
11.709756 -7.549643 28.961270 32.138305 -0.572662 0.448393 0.061219 -0.011474 646808.000000 0 0 1
10.286556 -7.372443 29.044530 31.682028 -0.621851 0.410927 0.053342 -0.007659 522539.000000 0 0 1
9.650756 -8.569543 28.594810 31.372557 -0.726127 0.423979 0.052993 -0.012377 -477621.000000 0 0 1
8.138556 -8.410543 28.604780 30.906420 -0.801832 0.388367 0.061651 -0.012040 -651981.000000 0 0 1
7.615556 -8.139143 29.855500 31.868374 -0.818620 0.357319 0.067155 -0.015410 -126277.000000 0 0 1
6.218956 -7.924943 29.837470 31.492138 -0.905435 0.325604 0.049096 -0.013233 293563.000000 0 0 1
5.635256 -7.139343 31.056210 32.360694 -0.902599 0.284902 0.044335 -0.013872 165242.000000 0 0 1
5.488056 -7.871943 32.315020 33.709743 -0.961975 0.288662 0.049616 -0.005275 -30830.500000 0 0 1
4.802656 -7.121943 33.296587 34.386775 -0.977496 0.252478 0.049956 -0.010071 252239.000000 0 0 1
5.634156 -5.989743 34.001866 34.982105 -0.815980 0.237289 0.045335 -0.011510 146380.000000 0 0 1
6.006456 -4.863743 33.236083 34.122877 -0.680659 0.228480 0.051282 -0.004224 -180143.000000 0 0 1
6.377356 -3.718143 33.949498 34.742822 -0.527843 0.214110 0.049669 -0.005100 -147331.000000 0 0 1
6.404756 -2.505543 33.004417 33.713353 -0.372898 0.205438 0.044945 -0.007705 492206.000000 0 0 1
5.125356 -2.076643 32.532379 32.999052 -0.384956 0.168377 0.049997 -0.013702 295299.000000 0 0 1
5.258056 -0.975443 31.666850 32.115231 -0.183429 0.167297 0.056854 -0.012730 449120.000000 0 0 1
3.844156 -0.518643 31.169280 31.409721 -0.134108 0.123812 0.045900 -0.017200 762198.000000 0 0 1
3.042756 -0.092643 32.258890 32.402206 -0.030438 0.094088 0.036919 -0.015513 -282492.000000 0 0 1
1.788656 0.397957 31.851090 31.903755 0.218923 0.057467 0.042688 -0.018555 295350.000000 0 0 1
0.858156 0.858757 33.015031 33.037345 0.785748 0.036756 0.036142 -0.020595 131417.000000 0 0 1
1.379356 1.936757 33.695833 33.779621 0.951930 0.070448 0.028507 -0.013005 373957.000000 0 0 1
0.567656 2.156957 -33.591102 33.665068 1.313457 3.075291 0.017902 -0.017292 113135.000000 0 0 1
1.222756 3.158957 -32.668032 32.843179 1.201481 3.038272 0.015210 -0.012845 -231220.000000 0 0 1
2.341856 2.719657 -31.933142 32.134193 0.859902 3.029672 0.010676 -0.004479 -104169.000000 0 0 1
2.742756 3.806857 -31.095942 31.447932 0.946459 2.991834 0.017611 -0.002777 394351.000000 0 0 1
3.922756 3.593257 -30.067852 30.534820 0.741587 2.966481 0.028120 0.000305 535721.000000 0 0 1
3.584856 2.654557 -29.076792 29.416962 0.637388 2.989368 0.021838 -0.007235 -102463.000000 0 0 1
4.502856 2.738557 -28.028452 28.519634 0.546414 2.955731 0.045362 -0.012545 -463170.000000 0 0 1
4.099456 2.124657 -26.648462 27.045521 0.478163 2.970028 0.035898 -0.014812 -206477.000000 0 0 1
4.174956 0.684557 -26.716872 27.049771 0.162521 2.984543 0.044788 -0.012735 377978.000000 0 0 1
3.580556 0.063357 -25.556932 25.806611 0.017693 3.002376 0.058256 -0.018901 -252522.000000 0 0 1
3.991156 -1.386543 -25.398152 25.747193 -0.334360 2.976746 0.055814 -0.018132 -551344.000000 0 0 1
5.372856 -1.426043 -25.204412 25.810144 -0.259435 2.924516 0.041031 -0.016386 -507308.000000 0 0 1
5.717356 -2.811643 -25.058212 25.855511 -0.457045 2.892609 0.039364 -0.015975 96999.800000 0 0 1
7.031356 -3.104743 -24.267312 25.455487 -0.415810 2.834854 0.040639 -0.025638 1072090.000000 0 0 1
8.156056 -2.878643 -25.139852 26.586086 -0.339296 2.810236 0.034683 -0.011420 -133446.000000 0 0 1
9.390356 -3.212343 -24.583712 26.511447 -0.329610 2.757895 0.027945 -0.014919 -114720.000000 0 0 1
-29.544444 -4.077043 17.629280 34.645172 0.137131 1.036945 0.091945 -0.021354 520690.000000 0 0 1
-30.953604 -3.886143 17.692580 35.864399 0.124894 1.054895 0.093058 -0.013066 88067.200000 0 0 1
-31.464014 -4.918443 18.494480 36.826907 0.155065 1.044655 0.080271 -0.016339 791793.000000 0 0 1
-33.001334 -4.790643 18.827880 38.295266 0.144158 1.056812 0.074662 -0.014364 581699.000000 0 0 1
-33.813264 -5.193243 17.772680 38.550937 0.152395 1.091654 0.067159 -0.006564 -784489.000000 0 0 1
-35.127898 -5.037943 18.210280 39.886895 0.142446 1.096685 0.055701 -0.002574 -1061520.000000 0 0 1
-36.203974 -5.230043 17.164080 40.406518 0.143468 1.132072 0.036590 -0.008254 -827483.000000 0 0 1
34.953488 -5.059343 17.686280 39.498707 -0.143747 1.106528 0.041265 -0.000387 -250173.000000 0 0 1
34.036488 -5.095843 16.552980 38.189676 -0.148613 1.122488 0.026807 -0.000963 401357.000000 0 0 1
32.642668 -5.530543 17.042880 37.236950 -0.167833 1.095404 0.026360 -0.000373 -130654.000000 0 0 1
31.987968 -4.645543 17.931380 36.964112 -0.144220 1.064316 0.042132 -0.003731 -8120.480000 0 0 1
30.745798 -5.156443 18.349280 36.174426 -0.166166 1.038812 0.062629 -0.010976 32300.700000 0 0 1
30.166148 -4.597143 19.664880 36.302035 -0.151231 0.998336 0.075845 -0.004948 -26231.500000 0 0 1
29.273448 -3.503243 19.630380 35.419759 -0.119107 0.983369 0.075453 -0.006290 147794.000000 0 0 1
29.773458 -2.236143 19.132380 35.461347 -0.074965 1.000920 0.070079 -0.011479 510692.000000 0 0 1
28.704998 -1.122143 19.452180 34.693277 -0.039072 0.975577 0.058260 -0.002630 381551.000000 0 0 1
29.174098 0.169357 19.163180 34.905360 0.005805 0.989624 0.059508 -0.009536 -229419.000000 0 0 1
28.274988 1.163557 19.557480 34.399475 0.041128 0.966066 0.060764 -0.009599 -86366.700000 0 0 1
28.582228 2.510457 18.967880 34.395154 0.087608 0.986671 0.059136 -0.012741 93184.400000 0 0 1
28.628508 2.453457 17.566780 33.677926 0.085491 1.022058 0.052560 -0.016395 98741.100000 0 0 1
28.292108 3.682857 16.909880 33.165507 0.129445 1.035770 0.045693 -0.019239 91678.000000 0 0 1
28.229408 3.579957 15.390780 32.351070 0.126143 1.074988 0.045050 -0.024639 -92149.200000 0 0 1
28.066648 4.879857 14.839580 32.121066 0.172146 1.090560 0.046424 -0.024408 223196.000000 0 0 1
27.484228 4.773957 13.536480 31.006608 0.171982 1.119016 0.050359 -0.025928 -140792.000000 0 0 1
26.921028 6.099657 12.990280 30.507294 0.222814 1.130941 0.048193 -0.016852 91621.000000 0 0 1
25.916228 6.566257 13.902580 30.133841 0.248143 1.091268 0.041341 -0.015145 -58699.800000 0 0 1
25.391928 7.803357 13.495580 29.795521 0.298156 1.100736 0.060793 -0.022100 -915898.000000 0 0 1
24.251328 8.336857 14.423480 29.422218 0.331113 1.058449 0.057529 -0.019860 588350.000000 0 0 1
22.994428 7.699557 14.214280 28.108231 0.323110 1.040605 0.058988 -0.009804 497307.000000 0 0 1
22.940228 6.335957 14.414480 27.824012 0.269476 1.026216 0.060751 -0.017738 -654480.000000 0 0 1
21.500128 5.689257 14.262780 26.420637 0.258686 1.000555 0.071224 -0.011067 894565.000000 0 0 1
20.991628 5.760057 12.932980 25.319729 0.267806 1.034697 0.074415 -0.008682 839463.000000 0 0 1
19.910128 4.850857 12.722980 24.120909 0.238982 1.015180 0.069927 -0.012418 125702.000000 0 1 0
19.515628 4.643157 11.254180 23.001635 0.233577 1.059535 0.067505 -0.013428 -125118.000000 0 1 0
20.514428 3.946657 10.526280 23.392743 0.190062 1.104053 0.074479 -0.021340 490959.000000 0 1 0
20.115528 3.547457 9.218080 22.409639 0.174559 1.146868 0.075700 -0.018838 485539.000000 0 1 0
21.230628 2.905757 8.262780 22.966422 0.136021 1.202768 0.079872 -0.017121 -201327.000000 0 1 0
21.491328 1.546557 8.552980 23.182375 0.071838 1.192925 0.079196 -0.022905 620853.000000 0 1 0
22.393228 0.990157 7.616680 23.673844 0.044188 1.243236 0.083601 -0.015426 1535870.000000 0 1 0
23.951628 1.352157 7.805980 25.227805 0.056394 1.256214 0.086371 -0.015504 996160.000000 0 0 1
24.608928 0.552757 8.753580 26.125276 0.022458 1.229126 0.080680 -0.013837 123168.000000 0 0 1
24.354228 0.860657 10.109680 26.383230 0.035324 1.177553 0.082360 -0.020294 -532720.000000 0 0 1
25.322528 0.070357 11.016880 27.615341 0.002778 1.160435 0.073695 -0.025995 296099.000000 0 0 1
26.675328 0.529457 10.960980 28.844351 0.019846 1.180995 0.080786 -0.037837 598726.000000 0 0 1
27.437308 -0.209143 11.907080 29.910336 -0.007622 1.161360 0.068508 -0.033552 68313.600000 0 0 1
28.941528 0.131057 12.006280 31.333369 0.004528 1.177561 0.060494 -0.034509 204341.000000 0 0 1
29.249638 1.451957 12.407880 31.805739 0.049599 1.170040 0.059602 -0.029071 494831.000000 0 0 1
30.660858 1.556957 12.630280 33.196933 0.050736 1.180497 0.047637 -0.024394 680728.000000 0 0 1
31.185328 2.927557 13.061880 33.936824 0.093602 1.175710 0.052431 -0.024685 -322437.000000 0 0 1
31.211588 3.934557 12.036680 33.682720 0.125399 1.205362 0.060692 -0.026664 56135.300000 0 0 1
31.874268 5.145657 12.362980 34.572967 0.160055 1.205109 0.061516 -0.028516 64800.000000 0 0 1
33.309848 5.172457 11.798480 35.714205 0.154053 1.234113 0.057171 -0.024641 134598.000000 0 0 1
34.144568 4.154957 12.389380 36.559704 0.121092 1.225069 0.042207 -0.025800 547415.000000 0 0 1
35.462518 4.237457 11.870480 37.635815 0.118927 1.249914 0.044623 -0.019505 347661.000000 0 0 1
-35.920997 3.334457 12.557580 38.198553 -0.092562 1.235822 0.081225 -0.013224 -253011.000000 0 0 1
-35.938969 1.931157 12.299180 38.034309 -0.053683 1.241507 0.083911 -0.014439 432931.000000 0 0 1
35.391788 1.153957 12.772580 37.643713 0.032594 1.224622 0.061122 -0.006649 146159.000000 0 0 1
35.160628 0.965257 14.296880 37.968438 0.027446 1.184731 0.053965 -0.001186 -775020.000000 0 0 1
35.996458 0.097157 14.953980 38.979174 0.002699 1.177061 0.065422 -0.004034 -374003.000000 0 0 1
35.719588 -0.085243 16.376980 39.295060 -0.002386 1.140908 0.062945 -0.008774 -506442.000000 0 0 1
-35.749125 -1.090543 17.026680 39.611830 0.030496 1.126483 0.069094 -0.006091 111626.000000 0 0 1
-34.427961 -0.570843 17.002880 38.401931 0.016579 1.112121 0.073563 -0.006072 -109895.000000 0 0 1
-33.458774 -1.217743 17.790380 37.913983 0.036379 1.082378 0.071737 -0.006060 123945.000000 0 0 1
-33.444364 -1.020943 19.348380 38.651360 0.030517 1.046519 0.064848 -0.007319 44884.500000 0 0 1
-34.602206 -1.535043 20.006380 39.999053 0.044334 1.047000 0.067035 -0.008597 312146.000000 0 0 1
-34.448779 -1.332343 21.381180 40.566592 0.038657 1.015655 0.062625 -0.007254 242619.000000 0 0 1
-34.942863 -2.526543 22.249680 41.502233 0.072179 1.004977 0.060243 -0.003362 236264.000000 0 0 1
-34.171668 -3.706243 22.014280 40.817492 0.108037 1.001150 0.067013 -0.009556 194252.000000 0 0 1
-34.566776 -4.873543 22.753080 41.669126 0.140066 0.993164 0.058171 -0.004964 -28612.400000 0 0 1
-34.515643 -4.926443 24.301360 42.498889 0.141773 0.962084 0.056348 -0.011266 -306903.000000 0 0 1
-33.228094 -4.763543 24.804660 41.738097 0.142389 0.934410 0.053607 -0.015678 -706539.000000 0 0 1
-33.329334 -4.637143 26.220400 42.659782 0.138244 0.908867 0.043159 -0.013448 -80385.900000 0 0 1
-32.111764 -3.897743 26.767140 41.986159 0.120790 0.879518 0.036905 -0.007009 -83568.200000 0 0 1
-32.230134 -2.467143 26.753540 41.959745 0.076399 0.879417 0.046569 -0.006690 -51334.500000 0 0 1
-31.720934 -1.976843 25.511290 40.754773 0.062239 0.894421 0.054888 -0.010269 -101427.000000 0 0 1
-31.821924 -0.449043 25.476120 40.766030 0.014110 0.895748 0.053558 -0.009375 407402.000000 0 0 1
-33.129814 0.145957 25.493920 41.803658 -0.004406 0.914926 0.064590 -0.011402 290282.000000 0 0 1
-33.138964 1.525457 25.120550 41.612017 -0.046000 0.922681 0.063129 -0.002351 -658048.000000 0 0 1
-34.491339 2.053257 24.673070 42.457375 -0.059459 0.950685 0.057640 -0.003646 -514792.000000 0 0 1
-34.859338 1.445657 23.455700 42.040852 -0.041447 0.978911 0.053555 0.002672 -266105.000000 0 0 1
-36.109834 1.847957 22.952380 42.826940 -0.051131 1.005184 0.050433 0.006673 123401.000000 0 0 1
-35.961592 3.074457 22.032380 42.286099 -0.085285 1.022738 0.047426 -0.001033 122624.000000 0 0 1
-35.240442 2.762057 20.846580 41.037758 -0.078218 1.037952 0.050826 -0.012962 -281993.000000 0 0 1
-35.914105 3.141957 19.715480 41.090084 -0.087263 1.070357 0.063033 -0.006985 -580510.000000 0 0 1
-35.262312 2.662057 18.433880 39.878881 -0.075350 1.090269 0.075485 -0.007492 208739.000000 0 0 1
-34.059928 3.363057 18.101780 38.717739 -0.098420 1.084300 0.071120 -0.014377 363262.000000 0 0 1
-33.793954 2.824757 16.815080 37.851783 -0.083394 1.110476 0.095439 -0.007872 -1038220.000000 0 0 1
-32.730204 3.568257 16.108180 36.653406 -0.108591 1.115784 0.098889 -0.017894 -753328.000000 0 0 1
-33.192244 4.852257 15.736080 37.052580 -0.145158 1.132170 0.100820 -0.024617 640856.000000 0 0 1
-32.265594 5.405157 14.773080 35.896075 -0.165980 1.146641 0.105944 -0.019984 418372.000000 0 0 1
-32.736014 6.770057 14.213280 36.324890 -0.203933 1.168772 0.108960 -0.024324 -110570.000000 0 0 1
-31.962794 7.271257 13.158280 35.321830 -0.223684 1.189067 0.114667 -0.019289 -227640.000000 0 0 1
-32.396084 8.570257 12.753680 35.855431 -0.258622 1.207136 0.106818 -0.015257 -65835.700000 0 0 1
-31.404354 9.316057 11.858080 34.837285 -0.288379 1.223470 0.110353 -0.012794 -345295.000000 0 0 1
-31.936224 10.550357 11.485680 35.540868 -0.319070 1.241721 0.089988 -0.003242 52323.500000 0 0 1
-31.053524 11.268657 10.637980 34.705484 -0.348101 1.259260 0.075693 -0.012800 -156367.000000 0 0 1
-31.319984 12.755257 10.491980 35.407903 -0.386746 1.269962 0.075853 -0.008262 161186.000000 0 0 1
-30.600474 13.381057 9.430380 34.704088 -0.412228 1.295599 0.067198 -0.010470 57121.100000 0 0 1
-30.644424 14.817457 9.550480 35.353209 -0.450384 1.297253 0.064634 -0.010750 167645.000000 0 0 1
-29.870744 15.483857 8.376480 34.672418 -0.478229 1.326793 0.065745 -0.015308 772116.000000 0 0 1
-28.443414 15.528557 8.521580 33.507927 -0.499725 1.313657 0.071325 -0.006925 640420.000000 0 0 1
-27.881244 16.622057 7.792680 33.382366 -0.537601 1.335185 0.056447 -0.027488 -525666.000000 0 0 1
-26.491584 16.911957 8.337780 32.516717 -0.568170 1.311485 0.069065 -0.020936 -706616.000000 0 0 1
-26.458744 17.344957 9.656180 33.078006 -0.580265 1.274561 0.058660 -0.022132 85516.400000 0 0 1
-26.550114 18.734057 9.829080 33.948258 -0.614482 1.277059 0.057436 -0.031647 -33231.000000 0 0 1
-26.503734 18.997257 11.375280 34.536078 -0.621897 1.235156 0.072657 -0.021216 870707.000000 0 0 1
-25.152824 18.947157 11.877980 33.656288 -0.645598 1.210106 0.062182 -0.014398 858540.000000 0 0 1
-25.007244 19.435157 13.214780 34.317896 -0.660671 1.175513 0.079143 -0.022937 -31692.300000 0 0 1
-25.488824 18.438157 14.289280 34.551835 -0.626247 1.144435 0.066032 -0.016070 179974.000000 0 0 1
-24.718344 17.238357 14.248580 33.334359 -0.608973 1.129132 0.068807 -0.021706 102794.000000 0 0 1
-25.281334 16.337157 15.195080 33.718526 -0.573709 1.103309 0.072023 -0.019980 -214403.000000 0 0 1
-24.257144 15.318257 15.673680 32.691318 -0.563256 1.070774 0.072619 -0.003927 428032.000000 0 0 1
-23.223544 15.901257 16.502280 32.626802 -0.600386 1.040500 0.065578 0.002117 37387.900000 0 0 1
-22.229944 15.018557 16.914780 31.714937 -0.594162 1.008255 0.044651 -0.007975 -413723.000000 0 0 1
-22.479844 13.971657 18.003480 32.010559 -0.556092 0.973483 0.063225 -0.001621 -537101.000000 0 0 1
-22.278544 14.412157 19.314780 32.819270 -0.574198 0.941570 0.076754 0.000293 128128.000000 0 0 1
-22.508444 13.309657 20.199680 33.042459 -0.534011 0.913063 0.069324 -0.003176 -361731.000000 0 0 1
-22.258544 13.625057 21.685680 33.931603 -0.549289 0.877469 0.081331 -0.008984 667956.000000 0 0 1
-20.883344 13.746657 22.060680 33.343039 -0.582160 0.847809 0.095354 -0.011883 328949.000000 0 0 1
-20.422044 15.070057 22.183080 33.708390 -0.635732 0.852520 0.081358 0.002366 -284176.000000 0 0 1
-18.900044 15.127257 22.507180 33.054783 -0.674974 0.821798 0.071348 -0.002714 504661.000000 0 0 1
-17.984844 14.638457 21.566680 31.667976 -0.683179 0.821635 0.043897 -0.001636 -121244.000000 0 0 1
-17.881144 15.521457 20.473180 31.301790 -0.714872 0.857860 0.049529 -0.000134 -1694410.000000 0 0 1
-16.709344 15.104057 19.513080 29.800923 -0.734981 0.856903 0.037701 0.002963 356189.000000 0 0 1
-15.449444 14.919857 20.102180 29.417428 -0.767962 0.818465 0.026886 0.006147 -411504.000000 0 0 1
-14.904644 16.124657 20.537980 30.065954 -0.824696 0.818801 0.007958 0.006210 -1099290.000000 0 0 1
-13.756544 15.939057 21.582980 30.151634 -0.858762 0.773006 -0.019567 0.009212 388061.000000 0 0 1
-12.497944 15.525557 21.106680 29.029872 -0.893019 0.756755 -0.003992 0.016883 229580.000000 0 0 1
-11.693144 14.875857 22.122380 29.110487 -0.904621 0.707567 0.006912 0.011505 1637400.000000 0 0 1
-10.425344 14.107157 21.528780 27.770273 -0.934365 0.683693 0.003050 0.010653 577665.000000 0 0 1
-9.914444 13.143757 22.414380 27.811130 -0.924544 0.633518 0.008971 0.001383 -1289750.000000 0 0 1
-8.695544 12.606857 22.181480 26.954840 -0.966985 0.604278 0.014566 0.012289 -488430.000000 0 0 1
-7.420644 13.445057 22.549680 27.282294 -1.066477 0.597878 0.013705 0.016727 -92732.900000 0 0 1
-7.131644 14.400657 21.566880 26.895531 -1.110972 0.640368 0.018277 0.020030 -333187.000000 0 0 1
-6.452744 15.535957 22.074180 27.753798 -1.177134 0.651200 0.020430 0.017212 -336579.000000 0 0 1
-7.354744 16.652957 22.697180 29.095965 -1.154910 0.676003 0.009868 -0.000227 441785.000000 0 0 1
-8.320444 17.132157 21.773780 28.928154 -1.118684 0.718666 -0.012467 0.007702 -409931.000000 0 0 1
-7.797444 18.062957 20.812180 28.639437 -1.163280 0.757296 0.012494 0.007530 -1370020.000000 0 0 1
-8.723144 18.295657 19.601680 28.196634 -1.125890 0.802129 0.021242 0.008294 639135.000000 0 0 1
-9.889044 19.093857 19.802480 29.231948 -1.092918 0.826539 0.003858 0.011151 153749.000000 0 0 1
-10.847944 18.343057 20.526280 29.588406 -1.036730 0.804145 0.001684 0.009751 -1159610.000000 0 0 1
-12.241244 18.993657 20.703480 30.647041 -0.998303 0.829092 -0.002600 0.004599 244968.000000 0 0 1
-13.035144 19.094557 19.561680 30.284920 -0.971801 0.868567 0.001769 0.009994 391333.000000 0 0 1
-14.221144 19.887657 19.632180 31.355738 -0.950025 0.894240 -0.017128 0.003778 569913.000000 0 0 1
-15.076244 19.923357 18.337180 30.991700 -0.923013 0.937655 0.015044 0.006819 211642.000000 0 0 1
-15.874044 18.757157 18.127980 30.535878 -0.868459 0.935195 0.032146 0.008652 174972.000000 0 0 1
-16.449244 18.668557 16.869980 30.061418 -0.848510 0.974981 0.042890 -0.001365 -1455590.000000 0 0 1
-17.001144 17.265457 16.543880 29.339987 -0.793111 0.971734 0.044211 -0.006903 143271.000000 0 0 1
-18.011044 16.776357 17.409080 30.148299 -0.749921 0.955197 0.041720 -0.004662 -190679.000000 0 0 1
-19.213744 17.495557 17.265580 31.198761 -0.738627 0.984348 0.046648 -0.006794 -1219400.000000 0 0 1
34.583348 -9.433243 11.629988 37.686214 -0.266290 1.257075 0.045420 -0.017981 222924.000000 0 0 1
33.328958 -10.036843 11.347488 36.610425 -0.292507 1.255653 0.047426 -0.008054 371178.000000 0 0 1
32.758448 -10.822343 12.371488 36.650959 -0.319079 1.226485 0.037454 -0.006999 -272253.000000 0 0 1
31.446278 -11.547643 12.020488 35.590850 -0.351931 1.226281 0.043592 0.004579 329861.000000 0 0 1
30.351688 -10.587343 11.989388 34.308341 -0.335625 1.213802 0.041340 -0.000131 1148170.000000 0 0 1
29.040528 -11.135943 11.928988 33.311594 -0.366169 1.204561 0.043144 0.008873 696960.000000 0 0 1
28.485468 -11.812043 13.252588 33.564526 -0.393088 1.164904 0.030051 0.011520 -593489.000000 0 0 1
28.227018 -10.856743 14.236288 33.426118 -0.367180 1.130836 0.040279 -0.005905 -84202.800000 0 0 1
28.140418 -11.547243 15.490288 34.134601 -0.389391 1.099771 0.048430 -0.012229 139938.000000 0 0 1
26.716728 -11.519443 16.150888 33.276604 -0.407085 1.064030 0.056723 -0.012346 728966.000000 0 0 1
26.178928 -10.261643 16.480888 32.592289 -0.373574 1.040640 0.047536 -0.008340 -193876.000000 0 0 1
25.712728 -9.485643 15.440088 31.456608 -0.353419 1.057745 0.071227 -0.014524 -537708.000000 0 0 1
25.214728 -8.125043 15.838988 30.865392 -0.311728 1.031930 0.114793 -0.029703 510795.000000 0 0 1
26.323828 -7.271243 16.089388 31.696740 -0.269503 1.038395 0.085366 -0.023964 409257.000000 0 0 1
25.810028 -5.984743 16.298288 31.106413 -0.227850 1.019311 0.089265 -0.023163 224302.000000 0 0 1
26.879628 -4.900543 16.091288 31.708978 -0.180334 1.038553 0.089125 -0.023355 50401.600000 0 0 1
27.310228 -4.722543 14.753188 31.397573 -0.171229 1.081638 0.098104 -0.027837 284346.000000 0 0 1
28.531108 -4.003043 14.799288 32.389311 -0.139395 1.096268 0.082230 -0.021860 182285.000000 0 0 1
28.952448 -3.434243 13.397388 32.086264 -0.118065 1.140057 0.075634 -0.030261 -255973.000000 0 0 1
29.318798 -4.429743 12.402188 32.140766 -0.149955 1.174645 0.060677 -0.030720 345682.000000 0 0 1
29.440778 -3.764043 11.190288 31.719868 -0.127161 1.210251 0.063626 -0.030256 -157478.000000 0 0 1
29.998778 -4.558643 9.998288 31.947984 -0.150807 1.252493 0.070993 -0.029383 509089.000000 0 0 1
31.355408 -5.044043 10.130888 33.335250 -0.159500 1.262003 0.062877 -0.025483 1079230.000000 0 0 1
31.803378 -5.611843 8.887388 33.495273 -0.174656 1.302247 0.059847 -0.025218 -356796.000000 0 0 1
33.135268 -6.344643 9.069088 34.934923 -0.189187 1.308189 0.054717 -0.017551 -1115670.000000 0 0 1
34.199668 -5.494043 8.918588 35.767905 -0.159285 1.318791 0.059895 -0.017518 -903440.000000 0 0 1
35.421248 -6.212743 8.813388 37.026191 -0.173630 1.330458 0.081019 -0.026606 174204.000000 0 0 1
-35.851514 -5.250243 8.576988 37.235210 0.145411 1.338363 0.074215 -0.015994 -321071.000000 0 0 1
-35.990072 -4.534143 7.402988 37.022263 0.125323 1.369479 0.083027 -0.016017 140621.000000 0 0 1
-34.898688 -3.676943 7.093088 35.801540 0.104973 1.371354 0.089210 -0.011361 46939.900000 0 0 1
-35.041943 -2.956343 5.715488 35.627862 0.084167 1.409678 0.099546 -0.019986 -153494.000000 0 0 1
-34.541148 -3.700743 4.634488 35.046610 0.106733 1.438170 0.095869 -0.020847 66745.700000 0 0 1
-34.346456 -2.851243 3.485088 34.640359 0.082824 1.470018 0.101099 -0.024081 -364476.000000 0 0 1
-33.521954 -3.494843 2.397288 33.788790 0.103880 1.499787 0.118100 -0.016198 -502304.000000 0 0 1
-34.081105 -4.632843 1.771388 34.440133 0.135108 1.519340 0.108313 -0.005410 290021.000000 0 0 1
-35.031649 -4.255943 0.738088 35.296944 0.120896 1.549884 0.098041 -0.015228 447340.000000 0 0 1
-34.589233 -4.654443 -0.681712 34.907644 0.133760 1.590327 0.112044 -0.014944 -905736.000000 0 0 1
-34.668220 -6.054243 -0.954112 35.205819 0.172890 1.597901 0.107700 -0.017829 252818.000000 0 0 1
-34.001014 -6.374043 -2.179612 34.661911 0.185315 1.633720 0.093443 -0.016514 -165230.000000 0 0 1
-32.485854 -6.097943 -2.290012 33.132458 0.185552 1.639968 0.095046 -0.015144 -621647.000000 0 0 1
-31.781874 -6.923843 -1.357912 32.555661 0.214504 1.612519 0.087546 -0.011304 1306640.000000 0 0 1
-30.461934 -6.358143 -1.067612 31.136718 0.205770 1.605091 0.095235 -0.019032 1003040.000000 0 0 1
-29.702764 -7.288743 -0.107612 30.584171 0.240635 1.574315 0.084563 -0.011399 -332121.000000 0 0 1
-29.233414 -8.435443 -0.844612 30.437848 0.280924 1.598549 0.088688 -0.004763 390283.000000 0 0 1
-28.893244 -9.419043 0.182688 30.390316 0.315131 1.564785 0.082163 -0.000080 -92547.000000 0 0 1
-28.503974 -10.813943 -0.343312 30.488289 0.362608 1.582057 0.069462 -0.000438 -135385.000000 0 0 1
-27.376844 -10.763943 -1.202612 29.441473 0.374611 1.611655 0.086674 -0.007382 415555.000000 0 0 1
-26.760594 -12.043943 -1.465912 29.382560 0.422906 1.620708 0.065987 0.001665 -168191.000000 0 0 1
-27.481464 -13.091543 -2.369712 30.532522 0.444571 1.648487 0.051744 -0.003978 -593798.000000 0 0 1
-28.491144 -13.772443 -1.663512 31.689000 0.450275 1.623315 0.053639 -0.005464 159279.000000 0 0 1
-28.942914 -14.798143 -2.572212 32.608183 0.472637 1.649761 0.038956 -0.010684 -515.785000 0 0 1
-29.795174 -15.906543 -1.916912 33.829648 0.490370 1.627490 0.052358 -0.013504 -75474.800000 0 0 1
-28.980114 -16.570743 -0.991012 33.397884 0.519424 1.600474 0.035299 -0.005245 248511.000000 0 0 1
-29.648744 -17.107343 0.142188 34.230534 0.523336 1.566642 0.022640 0.000214 -155303.000000 0 0 1
-30.255064 -18.501143 -0.060112 35.463570 0.548837 1.572491 0.032896 -0.004305 90579.400000 0 0 1
-29.285994 -19.563843 -0.054512 35.219545 0.588944 1.572344 0.044991 -0.008771 453241.000000 0 0 1
-29.770584 -20.903243 -0.179112 36.376714 0.612164 1.575720 0.052174 -0.007602 -322434.000000 0 0 1
-30.613364 -21.455743 0.985888 37.396510 0.611304 1.544430 0.049713 -0.010976 -872743.000000 0 0 1
-29.944144 -21.749743 2.172588 37.073215 0.628188 1.512160 0.065519 -0.013132 -740670.000000 0 0 1
-30.789954 -22.090743 3.219588 38.031408 0.622352 1.486039 0.064400 -0.012258 -331277.000000 0 0 1
-30.127804 -22.268843 4.619788 37.748224 0.636518 1.448104 0.065725 -0.013961 -32277.700000 0 0 1
-29.513144 -21.112543 5.167688 36.653379 0.620961 1.429337 0.052700 -0.010067 329183.000000 0 0 1
-28.652064 -21.416343 6.284188 36.319300 0.641875 1.396895 0.048580 -0.010648 479468.000000 0 0 1
-28.215504 -20.118743 6.921488 35.338159 0.619423 1.373657 0.046312 -0.003084 53539.000000 0 0 1
-27.250294 -20.238143 7.945788 34.861103 0.638797 1.340848 0.053678 -0.007422 -57959.400000 0 0 1
-26.935034 -18.920143 8.447388 33.982735 0.612359 1.319584 0.053051 -0.012978 -192505.000000 0 0 1
-25.895554 -19.006743 9.542188 33.509541 0.633167 1.282040 0.056409 -0.008268 -381053.000000 0 0 1
-26.388704 -19.449443 10.769888 34.505580 0.635153 1.253372 0.052822 -0.012661 -197790.000000 0 0 1
-25.381264 -19.507143 11.739788 34.096332 0.655277 1.219290 0.052696 0.001596 -137928.000000 0 0 1
-25.053214 -18.228243 12.552488 33.428990 0.628998 1.185863 0.049492 -0.011150 -454292.000000 0 0 1
-24.273044 -17.245343 11.881588 32.058613 0.617720 1.191119 0.042637 -0.010599 183474.000000 0 0 1
-23.801244 -16.171343 12.663588 31.438480 0.596789 1.156217 0.040534 -0.001049 479478.000000 0 0 1
-22.904744 -16.423743 13.928688 31.438432 0.622075 1.111802 0.041703 -0.005930 -166494.000000 0 0 1
-23.598144 -17.056543 14.975488 32.742378 0.625859 1.095757 0.040858 -0.017990 -213618.000000 0 0 1
-22.710544 -17.441043 15.994188 32.798977 0.654904 1.061408 0.050512 -0.013224 -54841.100000 0 0 1
-23.460744 -18.320043 17.044788 34.300952 0.662974 1.050752 0.047584 0.010849 334215.000000 0 0 1
-24.301144 -17.526243 17.835888 34.868807 0.624820 1.033850 0.050838 0.002891 -277614.000000 0 0 1
-25.270574 -18.206343 18.590788 36.272445 0.624323 1.032665 0.058648 0.009210 -137937.000000 0 0 1
-26.121584 -17.243443 19.409888 36.829570 0.583458 1.015707 0.083125 0.008096 -49406.200000 0 0 1
-25.417774 -16.749643 20.519288 36.710421 0.582658 0.977677 0.091985 0.000850 67030.900000 0 0 1
-26.237834 -15.731443 21.075688 37.149521 0.540104 0.967548 0.091944 -0.003863 160007.000000 0 0 1
-25.575904 -14.922643 22.205288 37.011984 0.528173 0.927359 0.080853 -0.001581 320950.000000 0 0 1
-24.513444 -14.074643 21.747488 35.664517 0.521203 0.915014 0.077132 -0.000219 333819.000000 0 0 1
-23.907344 -13.288343 22.733988 35.566493 0.507306 0.877343 0.076672 -0.003681 342348.000000 0 0 1
-22.700344 -12.493243 22.133988 34.077855 0.503116 0.863853 0.064870 0.000103 135084.000000 0 0 1
-23.129744 -11.467643 21.250888 33.437885 0.460279 0.882097 0.062363 0.002923 -262641.000000 0 0 1
-22.143644 -10.588443 20.833788 32.194764 0.446032 0.866999 0.048189 0.001107 -848048.000000 0 0 1
-21.862444 -9.229643 21.566488 32.066590 0.399470 0.833143 0.054120 -0.000233 8958.170000 0 0 1
-21.426744 -9.467543 22.895688 32.755950 0.416061 0.796829 0.058092 -0.001999 668373.000000 0 0 1
-20.012444 -9.500843 23.075588 31.988228 0.443242 0.765007 0.038856 0.002311 425001.000000 0 0 1
-19.423144 -9.695443 24.506488 32.738786 0.462983 0.724930 0.046863 -0.005362 200227.000000 0 0 1
-19.654544 -10.972243 25.023188 33.657855 0.509159 0.732571 0.042700 -0.003755 -113244.000000 0 0 1
-18.802544 -11.225243 26.090188 34.062291 0.538216 0.698271 0.053460 -0.007625 -511068.000000 0 0 1
-19.193044 -12.567743 26.757788 35.246281 0.579747 0.708765 0.044525 -0.018206 285661.000000 0 0 1
-20.369444 -12.675043 27.553888 36.534747 0.556625 0.716387 0.054346 -0.013956 -332990.000000 0 0 1
-21.384044 -13.250843 26.756788 36.725848 0.554750 0.754587 0.047620 -0.007021 -142440.000000 0 0 1
-22.693144 -13.404443 27.583688 38.151248 0.533540 0.762649 0.049962 -0.008617 103869.000000 0 0 1
-22.877344 -14.434043 28.580188 39.351514 0.562854 0.757903 0.048676 -0.008994 -303929.000000 0 0 1
-22.005044 -14.305643 29.680888 39.621062 0.576451 0.724065 0.040541 -0.005160 -33349.300000 0 0 1
-22.195944 -15.305743 30.860888 40.979509 0.603694 0.718064 0.025465 -0.010111 -429150.000000 0 0 1
-22.112644 -16.631743 30.429288 41.128160 0.644868 0.737927 0.026288 -0.014476 -57562.600000 0 0 1
-22.242644 -17.611143 31.496388 42.389976 0.669705 0.733232 0.026793 -0.013578 -21016.200000 0 0 1
-23.606144 -17.863143 32.186288 43.729842 0.647785 0.743616 0.031060 -0.011285 51801.900000 0 0 1
-24.023844 -16.894443 33.123788 44.269094 0.612895 0.725395 0.037565 -0.013252 -493973.000000 0 0 1
-25.376144 -17.132943 33.414288 45.321089 0.593859 0.741762 0.040601 -0.018139 -64292.900000 0 0 1
-26.141464 -16.036843 -34.210203 45.944472 0.550261 2.410730 0.038586 -0.019442 7293.580000 0 0 1
-25.677854 -15.903243 -32.897203 44.659728 0.554517 2.398854 0.037536 -0.023376 -34285.000000 0 0 1
-26.412564 -14.835043 -32.256303 44.251228 0.511756 2.387562 0.048842 -0.023658 57484.800000 0 0 1
-25.900084 -14.520243 -30.832303 42.805172 0.510964 2.375022 0.046166 -0.019345 -61583.700000 0 0 1
-26.385334 -15.292543 -29.768803 42.617243 0.525273 2.344117 0.041165 -0.013056 267513.000000 0 0 1
-25.616844 -14.910943 -28.651803 41.224808 0.527136 2.339235 0.043039 -0.005998 64165.300000 0 0 1
-25.966564 -15.906543 -27.531303 41.051836 0.549617 2.305877 0.038405 -0.007265 424730.000000 0 0 1
-27.144124 -15.630543 -26.766603 41.201558 0.522462 2.277921 0.042083 -0.006499 511825.000000 0 0 1
-27.283954 -14.475243 -25.980103 40.359789 0.487780 2.270136 0.049283 -0.000706 9644.390000 0 0 1
-26.202324 -14.333543 -24.836003 38.843781 0.500563 2.264490 0.032358 -0.013423 495316.000000 0 0 1
-24.900444 -13.956043 -25.273003 38.125162 0.510849 2.295476 0.024226 -0.015716 292253.000000 0 0 1
-23.896644 -14.069643 -24.312703 36.879696 0.532122 2.290609 0.019526 -0.014640 -209359.000000 0 0 1
-23.273044 -15.510643 -24.278503 37.035933 0.587862 2.285693 0.011587 -0.016642 -832644.000000 0 0 1
-22.492444 -15.746343 -25.439803 37.430482 0.610775 2.318088 0.005987 -0.008274 9415.870000 0 0 1
-22.108644 -17.086843 -25.436703 37.785953 0.657970 2.309295 0.016624 -0.010914 67790.900000 0 0 1
-21.228244 -17.513743 -26.640803 38.302767 0.689812 2.339957 0.010511 -0.010360 71995.600000 0 0 1
-21.963344 -17.492843 -27.840503 39.540886 0.672576 2.351943 0.018348 -0.010640 33154.800000 0 0 1
-22.834944 -18.592743 -27.977003 40.618192 0.683354 2.330601 0.014641 -0.018852 -438104.000000 0 0 1
-23.648344 -18.432543 -29.262003 41.895915 0.662080 2.344019 0.023723 -0.020009 -141822.000000 0 0 1
-22.980644 -18.861843 -30.462703 42.565895 0.687278 2.368365 0.017016 -0.013170 442604.000000 0 0 1
-23.805044 -18.579843 -31.563703 43.682469 0.662737 2.378311 0.020691 -0.008078 -593200.000000 0 0 1
-23.108644 -18.978943 -32.859703 44.429380 0.687590 2.403263 0.019812 -0.015241 -83821.300000 0 0 1
-21.947544 -18.174843 -33.058403 43.644904 0.691644 2.430180 0.021121 -0.013706 1313370.000000 0 0 1
-20.649844 -18.669643 -32.652703 42.908865 0.735079 2.435616 0.030983 -0.012361 926784.000000 0 0 1
-20.047744 -19.812143 -33.503803 43.782849 0.779488 2.442190 0.036773 -0.014410 -710725.000000 0 0 1
-19.570544 -19.436643 33.642088 43.503786 0.781965 0.686745 0.030488 -0.012178 73284.800000 0 0 1
-19.274544 -20.557943 32.860888 43.289434 0.817607 0.708871 0.043790 -0.011578 -842529.000000 0 0 1
-20.438244 -21.047243 32.039488 43.442342 0.800077 0.741409 0.053668 -0.014587 -457127.000000 0 0 1
-21.416844 -21.645443 32.884388 44.817289 0.790707 0.746981 0.047574 -0.019078 353324.000000 0 0 1
-22.618544 -22.074643 32.252888 45.156807 0.773229 0.775256 0.040763 -0.010493 179412.000000 0 0 1
-22.552244 -23.313643 31.294988 45.072231 0.801997 0.803308 0.052342 -0.007148 -755665.000000 0 0 1
-22.095844 -24.500143 31.934088 45.915894 0.836951 0.801693 0.051443 -0.008859 145475.000000 0 0 1
-22.430544 -25.770403 31.363788 46.378122 0.854578 0.828119 0.052911 -0.001618 -34395.000000 0 0 1
-21.550544 -26.883373 31.949588 46.988487 0.895062 0.823109 0.081713 -0.007118 -292451.000000 0 0 1
-22.232744 -27.424213 33.021488 48.340470 0.889566 0.818794 0.060747 -0.012284 -460753.000000 0 0 1
-21.557944 -28.464293 33.603588 49.032256 0.922596 0.815731 0.068351 -0.014737 -956083.000000 0 0 1
-22.484244 -29.333053 -33.949303 50.184903 0.916809 2.313775 0.055452 -0.014096 137820.000000 0 0 1
-23.365844 -30.220253 33.749988 50.973406 0.912621 0.847166 0.044485 -0.015685 512231.000000 0 0 1
-24.525844 -29.615103 33.241488 50.828810 0.879123 0.857951 0.029160 -0.012049 -140931.000000 0 0 1
-25.703564 -29.378573 -34.189003 51.890864 0.852018 2.290103 0.018376 -0.016344 563960.000000 0 0 1
-26.898694 -28.742053 33.795388 51.882306 0.818516 0.861387 0.012497 -0.006883 801610.000000 0 0 1
-27.854004 -28.563063 -33.625303 52.176193 0.797966 2.271109 0.011975 0.004350 151224.000000 0 0 1
-28.817574 -27.386513 -33.961703 52.286432 0.759942 2.277765 -0.000803 -0.001086 567468.000000 0 0 1
-29.981694 -27.731773 33.723388 52.964329 0.746434 0.880561 -0.000783 0.000822 148788.000000 0 0 1
-30.763364 -26.665533 33.299288 52.595417 0.714164 0.885217 0.008386 -0.000122 -107508.000000 0 0 1
