# x y z rho theta phi s1 s2 stress_xx np intf bulk
-0.775218 -10.807044 -14.329512 17.964634 1.499186 2.494187 -0.009903 0.005735 -134792.000000 1 0 0
1.971282 -13.464844 -13.013412 18.829150 -1.425427 2.333849 -0.004121 0.007004 210228.000000 1 0 0
2.107082 -11.200944 -14.681912 18.586541 -1.384853 2.481478 -0.007490 0.009591 1326600.000000 1 0 0
-5.521718 -6.380044 -16.478812 18.513389 0.857391 2.668366 0.015935 -0.001178 -143092.000000 1 0 0
4.329182 -14.165544 -11.475512 18.737445 -1.274198 2.229937 -0.012446 0.008741 91959.600000 1 0 0
13.972882 -10.638844 -7.921212 19.265826 -0.650752 1.994515 0.025453 -0.005477 830865.000000 1 0 0
7.088682 10.879556 -10.815812 16.899584 0.993325 2.265301 0.016566 -0.014797 211876.000000 1 0 0
5.691982 -4.198444 -12.603012 14.452041 -0.635522 2.630187 -0.007701 0.003344 1969260.000000 1 0 0
13.643482 0.586556 -10.046312 16.953378 0.042965 2.205060 0.017772 0.000900 585492.000000 1 0 0
14.095282 5.170256 -10.420412 18.275489 0.351569 2.177528 0.017124 -0.008135 -18117.900000 1 0 0
4.103582 4.331656 -13.424312 14.690636 0.812430 2.723341 0.001112 -0.005386 1688300.000000 1 0 0
10.223882 -4.976344 -13.768312 17.856600 -0.452981 2.451283 0.017315 0.002584 369410.000000 1 0 0
2.599782 -7.601344 -12.079212 14.506780 -1.241252 2.554690 -0.008092 0.006846 848269.000000 1 0 0
-5.504518 -2.073344 -15.197612 16.296192 0.360227 2.772310 0.010542 -0.000363 -834209.000000 1 0 0
10.662482 0.088956 -9.679712 14.401155 0.008343 2.307903 0.013119 -0.002738 1744180.000000 1 0 0
-1.656718 -9.578244 -16.847412 19.450521 1.399524 2.618278 -0.001497 0.004259 230769.000000 1 0 0
8.526382 1.683656 -17.945812 19.939560 0.194956 2.690590 0.022276 -0.004303 -1061640.000000 1 0 0
16.329082 -5.925044 -8.824612 19.483810 -0.348078 2.040834 0.020260 0.000041 509275.000000 1 0 0
10.163182 7.563356 -9.911412 16.085108 0.639773 2.234687 0.020182 -0.009990 859549.000000 1 0 0
13.809582 -2.247044 -10.690912 17.608218 -0.161303 2.223271 0.030121 -0.000081 1173130.000000 1 0 0
7.232982 -1.841644 -13.669012 15.574003 -0.249320 2.641799 0.006382 -0.002468 887911.000000 1 0 0
-2.759818 6.779356 -13.739612 15.567697 -1.184192 2.652101 -0.005013 0.000074 -145805.000000 1 0 0
11.254782 1.818456 -13.905212 17.981430 0.160187 2.454841 0.021508 -0.004718 -701469.000000 1 0 0
-2.291918 10.702456 -12.844412 16.875259 -1.359834 2.435863 -0.000701 -0.002491 -885352.000000 1 0 0
2.898082 -0.963044 -15.248112 15.550924 -0.320824 2.943927 -0.005099 -0.001434 805812.000000 1 0 0
-9.070618 0.378356 -15.251212 17.748767 -0.041688 2.604662 0.010359 0.009604 -619799.000000 1 0 0
2.335482 -1.685344 -18.023012 18.251680 -0.625093 2.983132 -0.001351 -0.007874 1229680.000000 1 0 0
1.102782 7.881056 -13.099512 15.327243 1.431771 2.595683 -0.000286 -0.002477 -398026.000000 1 0 0
9.307582 -9.130844 -9.985212 16.422785 -0.775813 2.224348 0.009767 0.006005 338151.000000 1 0 0
3.976482 7.228256 -13.409012 15.743624 1.067853 2.590038 0.000036 -0.003949 -40103.200000 1 0 0
-2.590918 9.183356 -15.494012 18.196464 -1.295812 2.589607 -0.004148 0.002933 57905.400000 1 0 0
5.484982 -7.664644 -15.294512 17.965353 -0.949663 2.589319 0.001289 0.003972 456167.000000 1 0 0
4.122482 7.232956 -16.374612 18.369497 1.052759 2.671226 0.006867 -0.001527 -437797.000000 1 0 0
-0.236218 5.150456 -13.423212 14.379347 -1.524965 2.774867 -0.002373 -0.003269 1427630.000000 1 0 0
8.781482 4.256756 -16.551912 19.214582 0.451367 2.608864 0.028111 -0.003487 -152443.000000 1 0 0
5.311482 0.419556 -14.272612 15.234675 0.078827 2.784310 0.000305 -0.001531 -269753.000000 1 0 0
6.323082 7.992756 -11.546712 15.401041 0.901505 2.418459 0.002225 -0.006940 -10183.100000 1 0 0
2.690782 -8.415144 -15.078812 17.476428 -1.261316 2.611596 -0.006496 0.004717 753656.000000 1 0 0
4.132982 11.317156 -13.763312 18.291755 1.220648 2.422544 0.006542 -0.017249 -116150.000000 1 0 0
0.643382 -4.503344 -13.751012 14.483935 -1.428889 2.822108 -0.003275 0.002111 128180.000000 1 0 0
8.464282 -0.075144 -11.628512 14.383046 -0.008878 2.512374 0.003991 -0.002750 401713.000000 1 0 0
-0.883518 -5.124244 -16.263712 17.074742 1.400056 2.832143 -0.003649 -0.002569 474621.000000 1 0 0
4.450082 0.980056 -11.595512 12.458717 0.216773 2.767159 -0.000118 -0.005070 202064.000000 1 0 0
-2.843618 -7.219244 -15.501212 17.334683 1.195565 2.677507 -0.004534 0.000813 1365930.000000 1 0 0
11.355082 -3.740444 -11.465812 16.564832 -0.318213 2.335299 0.022811 -0.001348 727449.000000 1 0 0
6.481682 -7.098444 -12.603612 15.850904 -0.830784 2.490027 -0.002380 0.006430 -1820460.000000 1 0 0
3.473582 -3.901044 -14.659112 15.561924 -0.843297 2.799295 -0.005488 0.000706 3208820.000000 1 0 0
-0.538518 -1.426644 -18.377112 18.440270 1.209860 3.058804 0.001707 -0.007518 96860.200000 1 0 0
14.975382 2.987656 -8.541812 17.497163 0.196919 2.080803 0.015660 -0.002721 -1438520.000000 1 0 0
6.950182 4.432256 -14.235512 16.449915 0.567693 2.616715 0.009280 -0.007323 2523140.000000 1 0 0
10.003782 -9.726344 -14.099512 19.836171 -0.771337 2.361428 0.027897 0.000598 -2441890.000000 1 0 0
8.910782 -3.216244 -15.605512 18.255910 -0.346386 2.596000 0.019476 -0.006299 -621046.000000 1 0 0
-5.232918 -2.161844 -18.148012 19.010717 0.391769 2.839178 0.002763 0.006356 702389.000000 1 0 0
5.010182 -9.215144 -11.178812 15.329274 -1.072811 2.388016 -0.006239 0.007382 1442210.000000 1 0 0
-2.444018 4.021156 -17.140412 17.774607 -1.024669 2.873660 -0.003532 0.007854 2180490.000000 1 0 0
9.412982 9.421256 -14.373912 19.595245 0.785837 2.394314 0.038930 -0.018782 930907.000000 1 0 0
9.828482 10.066556 -11.520312 18.183844 0.797364 2.256925 0.027450 -0.016346 -115385.000000 1 0 0
11.907982 -5.921644 -9.814312 16.528358 -0.461472 2.206553 0.025824 0.002168 236860.000000 1 0 0
8.215782 6.989756 -13.553912 17.322364 0.704942 2.469390 0.015698 -0.007061 -407052.000000 1 0 0
4.042682 -4.036344 -17.632712 18.535045 -0.784614 2.828279 0.003767 -0.002488 -211079.000000 1 0 0
9.320982 -7.484144 -12.466412 17.271495 -0.676528 2.377183 0.013680 0.003138 1620430.000000 1 0 0
11.940382 -8.627044 -8.849812 17.184813 -0.625674 2.111779 0.020158 -0.000965 313784.000000 1 0 0
-2.915918 -2.475044 -14.006912 14.519711 0.703800 2.875032 0.008674 -0.004103 -1930290.000000 1 0 0
-0.429918 6.209756 -17.552712 18.623737 -1.501674 2.800804 0.001224 0.003475 2413410.000000 1 0 0
1.045682 -8.532744 -17.476012 19.475938 -1.448855 2.684440 -0.007643 0.004803 1868950.000000 1 0 0
0.158582 8.542656 -15.886112 18.038034 1.552235 2.648136 -0.005244 0.003493 -290653.000000 1 0 0
1.750382 3.352656 -14.955012 15.425839 1.089635 2.893889 0.003926 -0.000621 2600780.000000 1 0 0
-1.926918 -0.417244 -15.910612 16.032301 0.213242 3.018305 0.003811 -0.002836 918037.000000 1 0 0
14.042682 -4.295744 -8.565912 17.000741 -0.296867 2.098852 0.021107 0.001315 876599.000000 1 0 0
0.546882 0.629256 -14.558212 14.582064 0.855322 3.084389 -0.000223 -0.003630 2836380.000000 1 0 0
8.871082 2.782856 -12.542912 15.612976 0.303977 2.503720 0.007230 -0.003076 988326.000000 1 0 0
5.827882 1.101256 -17.051912 18.053938 0.186761 2.806860 0.011288 0.000106 707462.000000 1 0 0
15.296882 1.665356 -12.389812 19.755390 0.108442 2.248699 0.025430 -0.007867 -416281.000000 1 0 0
8.746482 -11.350044 -11.921412 18.639864 -0.914233 2.264729 0.017682 0.004795 1641260.000000 1 0 0
-4.670718 0.720256 -15.141112 15.861515 -0.153001 2.839049 0.009041 0.002113 725817.000000 1 0 0
2.292182 5.045156 -17.277812 18.144709 1.144345 2.831231 0.005100 0.000590 2370790.000000 1 0 0
5.921882 -11.871244 -12.352812 18.126971 -1.108075 2.320552 0.003875 0.006323 -1254950.000000 1 0 0
12.822382 7.212256 -8.665812 17.074144 0.512370 2.103124 0.012629 -0.008668 -50141.600000 1 0 0
-5.016218 3.627656 -15.723312 16.898073 -0.626118 2.766516 0.000364 0.008659 1315680.000000 1 0 0
-0.474618 -4.348144 -19.031912 19.528064 1.462073 2.915692 -0.000295 -0.004100 -866558.000000 1 0 0
9.839982 4.488556 -10.284412 14.924527 0.427961 2.331035 0.005061 -0.002334 471440.000000 1 0 0
13.339482 3.699656 -12.791212 18.847926 0.270546 2.316724 0.024696 -0.009834 1651950.000000 1 0 0
-6.004718 6.016556 -17.187612 19.174712 -0.786383 2.682305 -0.004147 0.013675 -1500000.000000 1 0 0
-10.165518 3.169756 -15.457212 18.769936 -0.302260 2.538365 0.015496 0.013120 -48036.200000 1 0 0
10.741882 13.342356 -8.308412 19.037757 0.892956 2.022410 0.032112 -0.012947 -482620.000000 1 0 0
7.502682 13.485356 -12.365212 19.774820 1.063085 2.246313 0.035294 -0.014866 154518.000000 1 0 0
5.434482 15.194556 -11.157512 19.618822 1.227314 2.175739 0.020944 -0.017044 723882.000000 1 0 0
14.226482 9.483056 -9.902612 19.758108 0.587941 2.095772 0.041386 -0.016836 -1504500.000000 1 0 0
8.209182 -17.316744 -2.099012 19.278645 -1.128115 1.679890 0.020309 0.008404 -1238870.000000 1 0 0
0.636382 -16.048644 0.087888 16.061497 -1.531164 1.565324 0.004268 -0.006349 2233670.000000 1 0 0
-9.094318 -11.604544 7.514488 16.548100 0.906082 1.099435 0.008522 -0.007503 764976.000000 1 0 0
1.986382 -15.966944 -2.491612 16.281804 -1.447026 1.724430 0.006267 -0.003406 2227510.000000 1 0 0
-1.224818 -11.126344 -9.439112 14.642150 1.461155 2.271366 -0.005912 0.002297 -14700.800000 1 0 0
-4.786018 -12.653744 -12.840212 18.651924 1.209197 2.330094 0.006479 -0.005136 663628.000000 1 0 0
-8.243218 -17.842744 -1.808412 19.737896 1.138014 1.662546 0.010102 -0.012366 -2210080.000000 1 0 0
-11.325818 -7.111244 -8.843812 16.032996 0.560667 2.155078 0.008945 -0.004968 3554620.000000 1 0 0
-13.593518 -11.528344 -4.580012 18.402798 0.703376 1.822316 0.000973 -0.003644 -259195.000000 1 0 0
-5.810218 -13.266344 9.738588 17.452640 1.157994 0.978822 0.003217 -0.014207 492566.000000 1 0 0
0.059182 -14.062344 -3.645012 14.527186 -1.566588 1.824416 0.000846 -0.002479 -232693.000000 1 0 0
-14.657618 -11.693544 1.963888 18.853159 0.673385 1.466439 -0.005340 0.001053 -229077.000000 1 0 0
-3.979018 -16.519344 -7.513912 18.579026 1.334429 1.987152 -0.005824 -0.006924 377716.000000 1 0 0
0.389782 -15.385744 -9.234812 17.948672 -1.545468 2.111235 -0.008768 0.009379 364639.000000 1 0 0
4.442482 -14.276744 -2.695112 15.192916 -1.269124 1.749133 0.000911 0.003250 224092.000000 1 0 0
-3.522118 -18.052944 -2.543312 18.568321 1.378117 1.708199 -0.000454 -0.013947 855394.000000 1 0 0
-1.040618 -13.565144 0.700288 13.623011 1.494234 1.519369 0.005843 -0.002127 3035180.000000 1 0 0
-8.373418 -11.295744 -10.387812 17.481837 0.932893 2.207074 0.008766 -0.014417 1476250.000000 1 0 0
-3.789318 -14.203944 -0.415612 14.706587 1.310089 1.599060 0.002028 -0.002040 3416620.000000 1 0 0
-1.566418 -14.955444 -7.240512 16.689637 1.466438 2.019539 -0.011163 0.003391 -17920.700000 1 0 0
-14.142818 -7.989444 -1.794712 16.342323 0.514220 1.680838 0.000404 0.000286 1235610.000000 1 0 0
-10.620118 -7.360644 -11.665212 17.408135 0.606070 2.305141 0.008504 -0.005476 -1946670.000000 1 0 0
-9.547118 -14.553644 6.850888 18.705366 0.990218 1.195818 -0.000690 -0.007543 -207523.000000 1 0 0
-2.509518 -14.484844 -12.335712 19.190576 1.399248 2.268945 0.006758 0.003391 -501824.000000 1 0 0
2.257982 -17.937644 -4.551612 18.643356 -1.445575 1.817430 0.000138 -0.007499 643246.000000 1 0 0
-6.553418 -9.539944 -9.126912 14.739686 0.968886 2.238528 0.004515 -0.009514 167803.000000 1 0 0
-11.081418 -15.473444 0.520388 19.039331 0.949309 1.543461 0.004238 0.000616 1520100.000000 1 0 0
-12.619818 -11.053744 4.104588 17.271153 0.719342 1.330845 0.010269 0.000352 1445440.000000 1 0 0
-16.948918 -8.957444 -1.592512 19.236365 0.486184 1.653678 0.000812 -0.000004 -908224.000000 1 0 0
-1.393418 -19.252744 -3.968612 19.706843 1.498547 1.773565 0.001709 -0.011538 -1146090.000000 1 0 0
3.176682 -14.337644 -8.778412 17.109058 -1.352756 2.109572 -0.013406 0.010285 1541390.000000 1 0 0
-4.269018 -7.983544 -12.962012 15.810606 1.079754 2.531911 -0.000235 -0.000617 1112650.000000 1 0 0
5.496082 -16.560344 1.257788 17.493826 -1.250352 1.498835 0.020041 -0.004130 4749910.000000 1 0 0
-2.892318 -13.849344 -3.229312 14.512005 1.364914 1.795202 -0.003025 -0.004911 -540729.000000 1 0 0
-0.457218 -13.890144 3.721388 14.387282 1.537891 1.309163 0.004159 -0.001786 -2708690.000000 1 0 0
1.124382 -16.078944 7.171288 17.641544 -1.500981 1.152176 0.021159 -0.015616 1956030.000000 1 0 0
-5.427918 -10.285844 -14.461712 18.558071 1.085229 2.464293 0.004676 -0.006209 -414938.000000 1 0 0
-0.277018 -17.303844 -5.859612 18.271147 1.554789 1.897268 0.000726 -0.006960 358407.000000 1 0 0
-6.575318 -13.383344 -1.271112 14.965442 1.114128 1.655835 0.003095 -0.003020 2508630.000000 1 0 0
-1.788118 -17.764044 -0.191012 17.854835 1.470475 1.581495 0.006232 -0.007811 1446800.000000 1 0 0
-9.520918 -9.795344 -4.830812 14.489079 0.799604 1.910715 0.010610 -0.008544 1794140.000000 1 0 0
-0.863618 -16.594144 4.943088 17.336251 1.518800 1.281654 0.018679 -0.012403 3071260.000000 1 0 0
-6.806718 -9.871644 -6.287712 13.539428 0.967137 2.053753 0.011762 -0.008108 2662500.000000 1 0 0
-6.014618 -14.491244 -8.531712 17.859505 1.177382 2.068846 0.003202 -0.011306 -688852.000000 1 0 0
-5.605218 -12.058144 -10.153612 16.730605 1.135663 2.222936 0.002857 -0.010561 1866410.000000 1 0 0
-10.532118 -12.197944 -8.623212 18.277723 0.858555 2.062114 0.011252 -0.022493 122850.000000 1 0 0
3.879182 -16.959744 6.604888 18.609286 -1.345936 1.207963 0.036882 -0.019498 703928.000000 1 0 0
-6.779718 -14.410544 -4.105212 16.446311 1.131051 1.823077 0.004394 -0.009465 204458.000000 1 0 0
-2.802618 -12.252044 -7.119512 14.444885 1.345918 2.086186 -0.002672 -0.001096 1356310.000000 1 0 0
-7.027518 -12.819244 4.431988 15.276176 1.069336 1.276440 -0.001962 -0.001761 3783390.000000 1 0 0
2.531082 -16.327144 2.417388 16.698077 -1.416998 1.425515 0.008779 -0.010163 2435370.000000 1 0 0
-6.146818 -11.927044 7.203288 15.229088 1.094930 1.078109 -0.002552 -0.005450 2156340.000000 1 0 0
-11.357718 -12.945044 -0.937012 17.246737 0.850620 1.625153 -0.002269 0.003129 693355.000000 1 0 0
-14.261418 -8.699844 4.560288 17.316800 0.547759 1.304309 0.008436 -0.003557 -190342.000000 1 0 0
-8.013018 -15.537944 4.429888 18.034968 1.094663 1.322629 -0.002528 0.001719 926395.000000 1 0 0
-16.439418 -9.364044 1.163688 18.955051 0.517774 1.509366 -0.003467 0.002627 -485863.000000 1 0 0
-6.660218 -17.005044 2.354888 18.414004 1.197499 1.442559 -0.002268 -0.000959 1850420.000000 1 0 0
-11.693618 -14.977844 -4.667712 19.566913 0.907918 1.811670 0.016577 -0.005756 562327.000000 1 0 0
-10.057418 -10.104044 -12.453712 18.929826 0.787711 2.288808 0.008833 -0.009437 -1124310.000000 1 0 0
-4.408918 -16.020444 -4.526712 17.221624 1.302239 1.836772 -0.005304 -0.007795 372049.000000 1 0 0
-11.777318 -8.277344 0.052088 14.395220 0.612617 1.567178 -0.005042 0.000894 1497710.000000 1 0 0
-9.610818 -11.199044 3.514488 15.170302 0.861571 1.337003 -0.000328 0.000478 2877740.000000 1 0 0
-14.274218 -12.972944 -0.617912 19.298508 0.737676 1.602820 0.000076 0.003843 -548588.000000 1 0 0
5.505982 -15.037744 -7.148512 17.537127 -1.219812 1.990644 -0.001979 0.002858 -22124.300000 1 0 0
-7.517218 -10.559344 -1.285112 13.025354 0.952127 1.669619 0.000909 -0.000548 547186.000000 1 0 0
-11.611318 -8.209244 -6.057112 15.456488 0.615411 1.973472 0.007370 -0.006152 1707280.000000 1 0 0
-14.304518 -6.626244 -9.257112 18.281698 0.433799 2.101754 0.009945 -0.004504 2009060.000000 1 0 0
-3.928618 -16.466344 1.411288 16.987239 1.336590 1.487621 0.002797 -0.005749 955889.000000 1 0 0
-7.999518 -15.520844 0.112488 17.461431 1.094901 1.564354 0.007187 -0.003132 3226410.000000 1 0 0
1.009082 -18.518844 3.781388 18.927883 -1.516361 1.369664 0.020000 -0.012267 1987850.000000 1 0 0
-14.113918 -8.672844 -4.581912 17.187636 0.551005 1.840641 0.004804 -0.005424 -894221.000000 1 0 0
-3.379218 -14.394244 11.135388 18.509734 1.340210 0.925298 0.001326 -0.016081 299756.000000 1 0 0
-10.879618 -12.174544 -3.757012 16.754127 0.841508 1.796964 0.003668 -0.007392 -63531.400000 1 0 0
-9.997418 -10.761644 0.522688 14.698114 0.822196 1.535227 -0.000338 0.001365 1204040.000000 1 0 0
-0.150918 -13.334844 -11.173512 17.397937 1.559479 2.268203 -0.007387 0.005222 506873.000000 1 0 0
-5.840818 -12.632044 -6.246412 15.254552 1.137694 1.992679 0.000318 -0.012336 3305070.000000 1 0 0
1.709582 -15.835044 10.069488 18.843192 -1.463251 1.007018 0.026140 -0.010427 906336.000000 1 0 0
-9.062218 -15.751044 -5.559012 19.003205 1.048706 1.867668 0.019247 -0.010607 612509.000000 1 0 0
-3.389318 -15.398944 5.934988 16.847524 1.354150 1.210794 -0.003167 -0.004321 -1468900.000000 1 0 0
-17.474618 -5.457544 -6.570612 19.450450 0.302714 1.915388 0.015489 0.000564 433360.000000 1 0 0
18.759182 5.619456 -2.935212 19.801532 0.291051 1.719576 -0.005944 0.008302 -1055780.000000 1 0 0
12.753282 -12.418344 -5.936812 18.764520 -0.772093 1.892713 0.028949 0.002273 -111809.000000 1 0 0
11.007482 -13.479144 -1.654512 17.481115 -0.885997 1.665584 0.024866 0.001816 3399300.000000 1 0 0
18.695482 -2.949444 4.466388 19.446565 -0.156473 1.339053 0.030825 -0.003643 -547958.000000 1 0 0
8.655282 -16.767244 4.959388 19.510252 -1.094271 1.313782 0.023343 -0.016887 -682511.000000 1 0 0
18.111082 -1.167844 6.734788 19.358009 -0.064393 1.215459 0.045346 -0.001820 -703487.000000 1 0 0
18.044882 -4.177744 -5.116212 19.215799 -0.227511 1.840297 0.030923 -0.010309 115177.000000 1 0 0
5.315082 -11.835344 14.905288 19.760898 -1.148703 0.716237 -0.004889 0.009838 933137.000000 1 0 0
15.973582 -8.925044 -0.979012 18.324033 -0.509527 1.624250 0.017771 -0.003484 -5359.910000 1 0 0
13.874682 -12.581344 -1.487412 18.788545 -0.736551 1.650045 0.023393 0.004453 436905.000000 1 0 0
11.059482 -2.093144 13.829788 17.831333 -0.187050 0.683148 0.009212 -0.003163 -477965.000000 1 0 0
16.928082 -6.111544 -1.448212 18.055698 -0.346467 1.651091 0.018063 -0.008347 -287917.000000 1 0 0
17.757582 3.640456 -1.027712 18.156013 0.202207 1.627431 0.005491 0.006325 -1846940.000000 1 0 0
9.683482 -11.205644 9.428688 17.556664 -0.858138 1.003868 0.010568 -0.003040 517319.000000 1 0 0
9.004482 -11.078744 4.234888 14.891392 -0.888317 1.282431 0.004760 -0.006205 -249438.000000 1 0 0
13.964582 -10.141844 6.808588 18.553259 -0.628130 1.195041 0.014104 -0.006686 -312878.000000 1 0 0
16.247382 -0.492244 -4.760112 16.937485 -0.030288 1.855674 0.013962 -0.000683 -233128.000000 1 0 0
15.749082 -0.540644 -1.744912 15.854671 -0.034315 1.681076 0.012882 -0.000882 529839.000000 1 0 0
12.848482 -5.230844 -0.349512 13.876865 -0.386627 1.595986 0.009330 -0.004651 775535.000000 1 0 0
14.246582 -7.616844 1.020888 16.187144 -0.490977 1.507687 0.019923 -0.004591 2673280.000000 1 0 0
15.504582 2.361956 3.627488 16.097502 0.151177 1.343499 0.015062 -0.001490 1352280.000000 1 0 0
15.865782 -7.211744 4.967188 18.121955 -0.426629 1.293145 0.026303 -0.011620 -599612.000000 1 0 0
13.631382 -12.185344 3.335188 18.585496 -0.729445 1.390368 0.017444 -0.001924 1303940.000000 1 0 0
13.986082 -1.065444 9.222988 16.787173 -0.076032 0.989142 0.028938 -0.007126 943331.000000 1 0 0
14.179982 -2.844344 -1.632212 14.554253 -0.197962 1.683179 0.009560 -0.003122 238233.000000 1 0 0
14.990682 1.771856 9.127888 17.640248 0.117651 1.026932 0.032864 -0.005064 -2290860.000000 1 0 0
14.314382 -10.121344 -3.095412 17.802379 -0.615459 1.745561 0.018555 -0.002037 1544150.000000 1 0 0
7.307182 -12.662344 6.044288 15.819712 -1.047401 1.178758 0.003387 -0.008933 391589.000000 1 0 0
12.342882 -4.755744 6.973288 14.952946 -0.367772 1.085638 0.011053 -0.007864 2006040.000000 1 0 0
14.885782 -8.947344 -5.751912 18.295518 -0.541203 1.890609 0.024168 -0.000421 231838.000000 1 0 0
14.268782 -4.716744 4.660488 15.734229 -0.319256 1.270084 0.016783 -0.007281 407616.000000 1 0 0
17.068382 -4.230344 0.976188 17.611883 -0.242951 1.515340 0.011435 -0.012485 -672734.000000 1 0 0
10.091482 -14.421844 1.033988 17.632264 -0.960248 1.512121 0.023305 -0.000224 124525.000000 1 0 0
16.416182 -2.724844 8.563588 18.714990 -0.164486 1.095526 0.043685 -0.007326 2514410.000000 1 0 0
16.017482 -2.719844 3.250888 16.568813 -0.168200 1.373310 0.013980 -0.004530 1983220.000000 1 0 0
7.796082 -15.232544 2.639788 17.314092 -1.097750 1.417735 0.009951 -0.003618 3343850.000000 1 0 0
16.531382 -7.051944 7.847788 19.611330 -0.403208 1.159098 0.034610 -0.008993 -1570280.000000 1 0 0
10.237882 -8.629544 5.092788 14.325493 -0.700360 1.207342 0.004504 -0.006556 2785010.000000 1 0 0
10.915782 -11.867044 2.121588 16.262908 -0.827127 1.439968 0.017623 -0.002645 428082.000000 1 0 0
12.161282 -7.393744 12.075388 18.664920 -0.546262 0.867210 0.007011 -0.010503 196971.000000 1 0 0
15.178082 -9.973744 4.290988 18.661788 -0.581361 1.338786 0.018879 -0.002722 -761898.000000 1 0 0
7.273682 -10.351744 7.752788 14.838153 -0.958292 1.021028 -0.000487 -0.001009 1087940.000000 1 0 0
15.281882 -3.352144 -4.432612 16.261022 -0.215934 1.846882 0.021237 -0.003362 1174130.000000 1 0 0
11.675282 -9.037444 9.746288 17.691177 -0.658727 0.987339 0.004236 -0.009077 -1411390.000000 1 0 0
16.866082 -6.733944 2.332988 18.309931 -0.379868 1.443032 0.021542 -0.009115 1345970.000000 1 0 0
17.462282 3.877756 1.942988 17.992873 0.218519 1.462599 0.007656 0.003017 -476626.000000 1 0 0
14.705382 -5.029044 8.776688 17.848524 -0.329518 1.056719 0.029213 -0.010326 1284850.000000 1 0 0
12.737982 -12.679044 6.150888 18.995994 -0.783079 1.241054 0.009380 -0.002031 -1654280.000000 1 0 0
18.188782 0.673756 -1.113212 18.235267 0.037025 1.631882 0.013542 -0.000695 -432794.000000 1 0 0
11.673182 -2.207144 10.921688 16.137470 -0.186872 0.827402 0.013513 -0.002700 1136900.000000 1 0 0
5.814882 -12.568544 10.576688 17.425484 -1.137470 0.918558 0.001374 0.002406 -2082020.000000 1 0 0
10.676782 -5.084744 11.083188 16.207571 -0.444462 0.817800 0.004420 -0.001581 1530070.000000 1 0 0
17.880282 1.139956 4.992588 18.599191 0.063669 1.299033 0.034351 -0.002355 -269615.000000 1 0 0
12.209882 -7.800244 7.158788 16.160856 -0.568495 1.111887 0.011399 -0.012202 -836280.000000 1 0 0
10.475882 -8.032744 14.325088 19.480175 -0.654157 0.744587 0.004387 -0.004214 -724494.000000 1 0 0
14.154682 -0.352144 3.780688 14.655123 -0.024873 1.309868 0.010146 0.001266 1557290.000000 1 0 0
11.654182 -7.793044 2.536488 14.247290 -0.589403 1.391809 0.007601 -0.004372 1320900.000000 1 0 0
9.257582 6.082356 3.553288 11.632873 0.581290 1.260383 0.003882 0.000815 1096740.000000 1 0 0
-3.991018 14.812956 -9.926912 18.272807 -1.307618 2.145113 0.003725 0.000416 1487860.000000 1 0 0
8.820382 -6.526644 9.240588 14.345197 -0.637038 0.870873 -0.002307 -0.002079 -1387390.000000 1 0 0
5.787482 -10.668944 -8.549712 14.846511 -1.073760 2.184468 -0.005767 0.003199 97693.700000 1 0 0
5.360282 1.050956 0.597488 5.494918 0.193608 1.461846 -0.000224 0.001301 4186150.000000 1 0 0
-0.503318 9.885956 11.014488 14.808930 -1.519928 0.732098 -0.002756 0.001583 314987.000000 1 0 0
-6.314618 -5.128044 0.990988 8.194712 0.682070 1.449569 0.004591 -0.002130 2089450.000000 1 0 0
-1.013918 4.010956 -10.842812 11.605273 -1.323196 2.777088 0.003341 -0.003558 1250470.000000 1 0 0
10.893682 5.722456 1.225788 12.366138 0.483682 1.471509 0.001833 0.002333 289347.000000 1 0 0
-10.159518 -1.834244 -13.649212 17.113774 0.178620 2.494031 0.001870 0.005023 915689.000000 1 0 0
7.487682 10.902656 -6.077012 14.555527 0.969001 2.001495 0.002585 -0.005563 1509740.000000 1 0 0
-12.432518 -2.916944 -9.590712 15.970530 0.230454 2.214955 0.001766 -0.000214 1545320.000000 1 0 0
-3.928818 -8.611444 2.409388 9.767177 1.142772 1.321541 0.004071 -0.000556 -1057030.000000 1 0 0
8.051182 -6.711244 -5.986812 12.070801 -0.694879 2.089753 -0.001208 -0.000489 1471050.000000 1 0 0
14.367782 3.214656 -4.361712 15.355510 0.220115 1.858810 0.011831 0.002967 1534750.000000 1 0 0
-2.479518 -4.915444 9.811388 11.250464 1.103608 0.511344 -0.002069 -0.002033 1791790.000000 1 0 0
3.520782 -1.937144 -4.637312 6.136212 -0.502999 2.427563 -0.001441 -0.000686 -2250130.000000 1 0 0
-3.962318 8.472156 -3.473712 9.977177 -1.133332 1.926410 -0.002149 0.000667 719926.000000 1 0 0
5.810882 0.028256 11.747688 13.106308 0.004862 0.459355 0.000307 -0.002113 3297060.000000 1 0 0
7.209482 4.628556 12.390588 15.064091 0.570737 0.604960 0.013702 -0.006567 2596130.000000 1 0 0
1.169482 -14.444944 12.563588 19.179881 -1.490011 0.856561 0.008712 -0.001937 -53603.200000 1 0 0
2.987682 8.740956 -9.126812 12.985732 1.241443 2.350170 0.004144 -0.004323 552380.000000 1 0 0
-4.491418 -8.877544 -4.508512 10.922926 1.102416 1.996275 0.003981 -0.004680 830360.000000 1 0 0
5.661882 -6.593244 -4.023312 9.576785 -0.861250 2.004364 -0.001534 -0.001944 2683900.000000 1 0 0
-3.092618 3.429356 8.619688 9.778742 -0.836984 0.491826 0.001357 -0.001947 2714190.000000 1 0 0
-3.764018 3.151556 -11.116112 12.151876 -0.697066 2.725722 0.001422 -0.003011 167456.000000 1 0 0
3.085482 -6.063544 8.500588 10.887918 -1.100088 0.674954 -0.005214 0.004625 -95282.400000 1 0 0
-5.151718 -8.583544 10.420888 14.450341 1.030240 0.765333 0.002405 -0.004708 1994820.000000 1 0 0
-13.288518 -2.422044 6.540288 15.007544 0.180287 1.119869 0.003003 -0.000792 -394829.000000 1 0 0
3.905582 -5.930444 -8.368312 10.975080 -0.988424 2.437938 -0.005996 0.001333 3639060.000000 1 0 0
2.873082 -0.528844 12.474588 12.812089 -0.182031 0.230038 -0.004299 0.001763 1142940.000000 1 0 0
1.516082 -1.412244 -7.608212 7.885292 -0.749953 2.875711 -0.002132 -0.003942 1066730.000000 1 0 0
3.610082 -3.408144 3.418588 6.027842 -0.756633 0.967776 -0.000849 -0.000858 2390670.000000 1 0 0
1.535182 0.399756 -11.788312 11.894574 0.254739 3.007824 0.001017 -0.006724 1615510.000000 1 0 0
3.991882 3.610056 -10.493812 11.793545 0.735213 2.667687 0.002027 -0.002756 1166250.000000 1 0 0
2.870482 3.252756 3.397488 5.510264 0.847747 0.906412 -0.004935 0.003176 -1388660.000000 1 0 0
-5.373018 0.820456 2.626088 6.036457 -0.151529 1.120716 0.002443 -0.002009 934675.000000 1 0 0
-9.489018 -9.237144 5.600488 14.378170 0.771949 1.170693 0.007266 -0.000592 -1655800.000000 1 0 0
-3.045118 3.888556 -0.624812 4.978353 -0.906447 1.696634 0.000967 -0.000870 -207808.000000 1 0 0
-15.967818 -6.603344 4.915788 17.964976 0.392125 1.293629 0.015788 -0.005307 794685.000000 1 0 0
1.059482 6.734856 -7.986012 10.500341 1.414762 2.434953 0.002412 -0.003967 615913.000000 1 0 0
-1.557418 6.559156 -9.453612 11.611152 -1.337672 2.522118 0.000065 -0.002657 29493.800000 1 0 0
2.015482 -0.292044 5.183988 5.569667 -0.143899 0.374328 -0.001673 0.000553 2169830.000000 1 0 0
-3.419718 -0.605744 -6.357112 7.243913 0.175314 2.641587 0.009385 -0.006029 118678.000000 1 0 0
1.957282 -1.124944 -2.444112 3.327181 -0.521645 2.395858 0.002622 0.000046 925901.000000 1 0 0
2.447482 -8.593844 -7.621012 11.744111 -1.293347 2.276963 -0.006863 0.002593 2844430.000000 1 0 0
-2.460618 14.135256 -5.581112 15.395093 -1.398447 1.941772 0.005816 0.000117 2337020.000000 1 0 0
6.869382 -5.103344 -8.231612 11.874004 -0.638949 2.336780 -0.003260 0.001049 4007080.000000 1 0 0
-14.200018 -5.034444 -2.145312 15.218032 0.340712 1.712239 0.005228 0.000317 -620498.000000 1 0 0
-2.630618 6.902356 -6.753312 10.008491 -1.206672 2.311433 0.002145 -0.001777 -2184750.000000 1 0 0
-5.653118 -1.118544 -8.176512 10.003211 0.195340 2.527660 0.012820 -0.007725 1812920.000000 1 0 0
-5.735818 -10.573344 3.387688 12.496866 1.073746 1.296278 0.000768 -0.000374 -2848740.000000 1 0 0
8.057282 -7.571344 6.702488 12.929362 -0.754315 1.025826 -0.002136 -0.002606 643305.000000 1 0 0
8.730982 -6.093544 13.185288 16.947364 -0.609330 0.679298 -0.000547 0.002574 -506468.000000 1 0 0
-4.789218 9.525056 -0.782912 10.690007 -1.104910 1.644100 -0.004228 0.004085 -908065.000000 1 0 0
2.806482 6.620356 12.208588 14.168806 1.169843 0.532279 0.005045 -0.005056 666972.000000 1 0 0
6.005182 -2.865744 10.976988 12.836236 -0.445252 0.544944 -0.004268 0.001339 -657794.000000 1 0 0
-9.693818 -6.504444 -1.062312 11.722048 0.590989 1.661546 0.003443 -0.003932 -1050660.000000 1 0 0
0.786582 -13.321844 6.368988 14.786962 -1.511820 1.125510 0.007632 -0.005268 942188.000000 1 0 0
-0.508818 -3.117344 8.714288 9.269064 1.409001 0.347733 -0.002114 -0.001896 2315870.000000 1 0 0
4.169582 0.791256 3.436688 5.460982 0.187539 0.890122 -0.004901 0.003476 1520500.000000 1 0 0
-10.189518 5.617556 8.265288 14.272288 -0.503846 0.953154 -0.000847 -0.006050 -1002910.000000 1 0 0
9.439082 7.946056 0.032588 12.338441 0.699729 1.568155 0.001580 0.002715 -148258.000000 1 0 0
4.308982 2.906756 8.229688 9.733669 0.593461 0.563320 -0.003036 -0.000562 2323070.000000 1 0 0
1.265282 2.595656 -9.773012 10.190688 1.117230 2.854298 0.004091 -0.005286 660129.000000 1 0 0
-1.407518 -10.155444 3.004988 10.683825 1.433076 1.285684 0.003774 0.000476 -2593780.000000 1 0 0
-9.902618 9.547056 9.032288 16.455709 -0.767119 0.989767 0.000596 -0.005017 418655.000000 1 0 0
9.771682 -2.020144 -7.741712 12.629365 -0.203863 2.230640 0.012897 0.000216 847028.000000 1 0 0
-5.238418 -1.816444 6.733988 8.722791 0.333780 0.688816 0.003114 -0.005933 1719970.000000 1 0 0
3.077382 -7.759244 -4.930412 9.694592 -1.193217 2.104323 -0.004045 0.000479 1751310.000000 1 0 0
-5.055918 4.919956 -13.103212 14.881614 -0.771770 2.647705 -0.000125 -0.002378 2290350.000000 1 0 0
-5.649618 9.643456 5.517188 12.464100 -1.040846 1.112249 -0.004917 0.002726 1419870.000000 1 0 0
-0.477118 -1.842544 -9.423112 9.613410 1.317416 2.942290 0.003051 -0.006501 192143.000000 1 0 0
-16.831218 0.187356 6.378788 18.000387 -0.011131 1.208557 0.006080 -0.002498 -669440.000000 1 0 0
-5.978318 -2.853344 4.117288 7.799610 0.445309 1.014689 -0.000226 -0.002699 2960310.000000 1 0 0
0.979182 -5.581944 -5.137112 7.648975 -1.397144 2.307173 0.002700 -0.001634 1341430.000000 1 0 0
-6.996418 1.444556 -8.501512 11.104608 -0.203610 2.442745 0.004521 -0.002537 503288.000000 1 0 0
7.928482 1.959556 4.810788 9.478627 0.242298 1.038468 0.002008 -0.000127 -931520.000000 1 0 0
0.400982 -8.148244 -0.500112 8.173419 -1.521625 1.632022 0.003900 0.000006 1301610.000000 1 0 0
5.483482 5.530456 -3.324112 8.467835 0.789663 1.974207 -0.000407 0.000840 135065.000000 1 0 0
-0.689918 -0.321444 -1.285012 1.493509 0.436011 2.606846 0.003789 -0.000261 561018.000000 1 0 0
9.066082 6.370156 -6.353912 12.772820 0.612493 2.091460 0.002606 -0.002710 225640.000000 1 0 0
-15.021118 -7.150344 2.378488 16.805315 0.444280 1.428788 -0.000482 -0.000327 949525.000000 1 0 0
-6.455918 6.861656 8.886388 12.951027 -0.815855 0.814609 -0.001040 -0.001421 -145261.000000 1 0 0
-9.395818 -3.167144 -9.699512 13.870571 0.325119 2.345196 0.004654 -0.001619 992328.000000 1 0 0
14.862382 3.422356 -1.339912 15.310071 0.226324 1.658427 -0.000449 0.006025 1287850.000000 1 0 0
12.129182 1.595456 -5.890912 13.578121 0.130788 2.019561 0.009036 0.000826 -724994.000000 1 0 0
1.621882 -9.418344 12.794688 15.969964 -1.400264 0.641545 -0.004916 0.000888 -1279850.000000 1 0 0
-3.618618 6.315456 7.939988 10.771387 -1.050483 0.741973 -0.000002 -0.001164 1332950.000000 1 0 0
-4.047018 13.032756 -12.357612 18.410368 -1.269710 2.306665 0.000484 0.001025 498271.000000 1 0 0
-10.207018 7.832256 6.430488 14.383276 -0.654507 1.107297 -0.004468 -0.003444 366392.000000 1 0 0
8.031282 -9.430344 -7.205112 14.329917 -0.865349 2.097634 0.001498 0.001380 -38384.400000 1 0 0
5.884282 -3.922844 -0.377812 7.082106 -0.588001 1.624169 0.003257 -0.000853 -1922950.000000 1 0 0
-1.684318 -4.343344 4.149288 6.238442 1.200857 0.843147 0.001497 0.000490 -81857.400000 1 0 0
9.856982 -2.039044 -2.568012 10.388093 -0.203986 1.820593 0.001442 0.000356 -2292060.000000 1 0 0
13.513382 6.976056 1.412888 15.273280 0.476550 1.478157 -0.002016 0.001384 305840.000000 1 0 0
5.433182 -3.745644 -3.286812 7.372411 -0.603577 2.032893 0.002335 -0.003130 -1613360.000000 1 0 0
-12.333618 -5.934544 1.889588 13.816928 0.448469 1.433607 0.002909 -0.001261 809781.000000 1 0 0
3.764782 -5.835644 -0.253512 6.949287 -0.997848 1.607285 0.002416 0.000000 158224.000000 1 0 0
-5.179118 3.757356 -8.705612 10.804104 -0.627624 2.507769 0.003398 -0.003885 1551420.000000 1 0 0
-1.720518 -9.149944 7.275488 11.815853 1.384931 0.907472 -0.000529 0.000349 3064120.000000 1 0 0
-7.427918 -7.339244 2.554988 10.750183 0.779393 1.330831 0.007505 -0.002827 -3956340.000000 1 0 0
-5.710018 13.067156 -8.482612 16.592455 -1.158827 2.107415 0.003462 -0.004442 1803830.000000 1 0 0
9.144782 -13.963944 -4.231412 17.219861 -0.990994 1.819068 0.016567 0.007298 1384540.000000 1 0 0
-6.496218 -5.143244 -6.706612 10.659853 0.669677 2.251251 0.008578 -0.004958 650886.000000 1 0 0
3.367482 0.379856 -6.245112 7.105325 0.112326 2.644419 0.000663 -0.003708 1120970.000000 1 0 0
-3.708418 5.781956 5.029988 8.513763 -1.000506 0.938738 -0.001602 0.002511 681942.000000 1 0 0
-2.762618 -10.821544 -2.789912 11.511798 1.320846 1.815586 0.006881 -0.002791 1737270.000000 1 0 0
-12.568618 -0.378144 1.757088 12.696476 0.030077 1.431959 0.006171 -0.002301 2144720.000000 1 0 0
8.328482 -12.065544 -6.138212 15.893981 -0.966631 1.967302 0.009587 0.001312 -43280.200000 1 0 0
6.184882 3.910556 1.017288 7.387833 0.563815 1.432660 -0.001803 0.001076 -1758590.000000 1 0 0
3.447582 -4.833244 -10.985312 12.486919 -0.951196 2.646123 -0.008437 0.002964 -358674.000000 1 0 0
-7.667218 4.276556 8.632088 12.312112 -0.508790 0.793850 -0.003705 -0.001383 1181440.000000 1 0 0
8.170182 8.769456 4.161388 12.687489 0.820760 1.236620 0.002594 0.003076 1516220.000000 1 0 0
0.377782 10.726356 -6.369412 12.480658 1.535591 2.106379 0.007155 0.000273 769549.000000 1 0 0
5.383682 8.094756 3.364988 10.287480 0.983891 1.237568 0.000698 0.004056 2581860.000000 1 0 0
8.080382 6.697456 -3.783212 11.156217 0.692089 1.916770 0.000032 -0.000827 1519170.000000 1 0 0
10.475082 2.561556 -8.267912 13.588498 0.239831 2.224901 0.002014 0.000609 1691350.000000 1 0 0
3.328182 -12.572244 -0.347612 13.009956 -1.312008 1.597518 0.000466 -0.003219 -2324810.000000 1 0 0
0.625682 2.197556 5.277488 5.750879 1.293419 0.408586 -0.000872 0.001852 303055.000000 1 0 0
-4.895518 13.546456 1.463188 14.478034 -1.224013 1.469561 -0.005219 0.004329 1690410.000000 1 0 0
8.187482 4.078656 -8.117612 12.229714 0.462173 2.296633 0.000344 -0.001173 -251158.000000 1 0 0
-13.941318 -0.553944 -3.511112 14.387325 0.039713 1.817328 0.003681 -0.004522 216370.000000 1 0 0
-8.541118 0.017356 -0.540312 8.558209 -0.002032 1.633972 0.003072 -0.002452 1032680.000000 1 0 0
1.853982 -3.869044 -1.158412 4.443948 -1.123940 1.834514 0.002004 0.000817 -1274350.000000 1 0 0
8.089082 -5.720744 -0.253812 9.910832 -0.615554 1.596409 0.002951 -0.003142 2085780.000000 1 0 0
-2.317018 -1.167944 7.375588 7.818693 0.466900 0.338278 0.002790 -0.003161 2868060.000000 1 0 0
-5.814918 8.808856 -11.705812 15.761829 -0.987338 2.407843 -0.000397 -0.002394 -1675000.000000 1 0 0
-6.107218 9.172656 -8.846512 14.131401 -0.983389 2.247233 -0.003364 -0.000476 1780660.000000 1 0 0
-1.568318 14.011956 -8.384212 16.403949 -1.459333 2.107271 0.009812 -0.001482 -519911.000000 1 0 0
-1.483218 7.179256 9.803588 12.241405 -1.367065 0.642075 0.002211 -0.001671 887192.000000 1 0 0
10.089482 2.273556 -4.032312 11.100731 0.221637 1.942547 0.003036 0.001416 -2199500.000000 1 0 0
-3.037018 -7.532644 -6.883812 10.646646 1.187551 2.273877 0.004461 -0.004830 1111810.000000 1 0 0
-5.559218 -4.985344 -1.629812 7.642961 0.731028 1.785690 0.006677 -0.003158 152311.000000 1 0 0
5.734582 7.446656 -8.757612 12.846551 0.914562 2.320893 -0.000590 -0.002974 1371610.000000 1 0 0
-9.535818 5.218756 -7.480612 13.195711 -0.500752 2.173531 -0.003448 0.000548 -82802.200000 1 0 0
-0.408918 6.170656 -5.314212 8.153837 -1.504625 2.280678 0.004154 -0.001304 -2286550.000000 1 0 0
-8.258618 2.725956 -6.324412 10.753316 -0.318814 2.199548 0.001753 -0.000753 1554630.000000 1 0 0
3.694882 1.398956 -2.043712 4.448144 0.361940 2.048175 -0.001469 0.000481 3554910.000000 1 0 0
-6.656518 12.510156 -3.493812 14.595203 -1.081808 1.812524 -0.002105 0.000903 1185350.000000 1 0 0
-6.585818 3.155856 -2.329712 7.665506 -0.446861 1.879602 0.002640 -0.000151 -1638550.000000 1 0 0
12.090182 4.045956 -0.877012 12.779335 0.322933 1.639478 -0.004288 0.001523 560776.000000 1 0 0
2.298682 12.468556 -5.512812 13.825336 1.388485 1.980947 0.004869 -0.004076 303151.000000 1 0 0
-9.183518 -1.351744 -4.276312 10.220130 0.146143 2.002502 0.003697 -0.001383 -522826.000000 1 0 0
-1.188418 5.842156 3.487888 6.907133 -1.370113 1.041450 0.001333 0.004148 2613260.000000 1 0 0
11.618782 2.546456 11.972588 16.876711 0.215756 0.782129 0.027123 -0.003598 -1212640.000000 1 0 0
-7.089018 -2.339744 -5.820012 9.465787 0.318794 2.232988 0.009887 -0.004170 1175770.000000 1 0 0
7.432482 -7.434644 10.840188 15.100510 -0.785544 0.770060 -0.006788 0.003425 -1449780.000000 1 0 0
-5.474418 -1.984044 -11.074312 12.511837 0.347697 2.657520 0.010661 -0.005915 246385.000000 1 0 0
0.716182 -6.125344 4.386088 7.567729 -1.454404 0.952586 -0.003784 0.002008 2117240.000000 1 0 0
-4.830918 -9.282444 7.404388 12.818990 1.090934 0.954997 -0.001539 -0.002196 1379660.000000 1 0 0
-8.621218 9.345656 1.632588 12.819205 -0.825697 1.443095 -0.004386 0.003188 1086000.000000 1 0 0
-8.048818 7.150056 -9.086712 14.088119 -0.726333 2.271808 -0.005562 -0.001035 16052.300000 1 0 0
-1.290118 -10.728744 -0.045112 10.806128 1.451122 1.574971 0.004783 0.000392 339145.000000 1 0 0
-3.902618 10.282656 7.777188 13.470267 -1.208057 0.955305 -0.000786 0.001337 1196490.000000 1 0 0
-7.462118 12.067156 2.047288 14.334952 -1.016970 1.427488 -0.010055 -0.000174 1866370.000000 1 0 0
-8.201418 -8.275644 -2.876012 12.000875 0.789903 1.812802 0.007677 -0.005967 -711516.000000 1 0 0
5.406082 4.697356 -7.993012 10.732153 0.715366 2.410990 0.001302 -0.000933 337334.000000 1 0 0
-8.960618 -0.097044 -10.220812 13.592906 0.010830 2.421770 0.003373 -0.001461 -1375850.000000 1 0 0
-15.237318 -2.311644 -1.503612 15.484845 0.150561 1.668052 0.004458 -0.003639 -646050.000000 1 0 0
-7.122818 -5.747144 8.708588 12.633436 0.678912 0.810235 0.005407 -0.002737 -1206680.000000 1 0 0
8.188982 3.406856 -0.977512 8.923095 0.394248 1.680565 0.000534 0.003158 237680.000000 1 0 0
11.896382 7.328256 -5.789112 15.124187 0.552106 1.963591 -0.003255 -0.002704 1808350.000000 1 0 0
3.833582 13.317256 -9.487012 16.794316 1.290509 2.171101 0.003874 -0.009387 1101270.000000 1 0 0
-9.721718 5.494856 -0.553412 11.180855 -0.514449 1.620313 -0.001682 -0.000691 2425900.000000 1 0 0
11.268882 -1.303944 -5.149112 12.457982 -0.115200 1.996892 0.015139 -0.000493 -752837.000000 1 0 0
10.639982 1.704656 -1.243012 10.847126 0.158862 1.685642 0.002604 0.003569 17506.800000 1 0 0
14.644182 4.995456 4.841988 16.212695 0.328744 1.267514 0.012070 -0.000369 2442760.000000 1 0 0
0.910382 -0.794744 10.274588 10.345413 -0.717684 0.117080 -0.000048 -0.001159 2381890.000000 1 0 0
-7.882818 1.364456 -12.596812 14.922474 -0.171394 2.575775 0.001865 0.003713 -306344.000000 1 0 0
3.113182 -11.558344 -7.813012 14.294418 -1.307695 2.149068 -0.007584 0.005390 753248.000000 1 0 0
2.909582 5.018456 -6.651212 8.825485 1.045380 2.424374 0.000893 -0.000115 -844900.000000 1 0 0
6.548582 8.049756 0.657588 10.397832 0.887870 1.507511 0.002295 0.000885 129329.000000 1 0 0
-9.061918 -5.417844 6.710188 12.509917 0.538851 1.004643 0.004066 -0.002806 -1916710.000000 1 0 0
-0.245818 -6.878544 -11.835812 13.691649 1.535075 2.614861 -0.002520 0.002009 2484200.000000 1 0 0
6.330182 -13.456844 -4.724512 15.603810 -1.131103 1.878404 0.002064 0.005008 2495480.000000 1 0 0
-3.172918 -0.387744 10.068488 10.563721 0.121601 0.307413 0.000990 -0.002895 -910119.000000 1 0 0
8.557982 8.444656 7.037588 13.931221 0.778733 1.041221 -0.000566 -0.000015 -928908.000000 1 0 0
-7.912018 5.774356 -2.738112 10.170569 -0.630461 1.843378 0.000730 -0.002006 576849.000000 1 0 0
-5.368718 5.815056 -6.441512 10.204464 -0.825286 2.253953 0.001496 -0.001392 393255.000000 1 0 0
3.271482 -13.552944 2.543488 14.172305 -1.333942 1.390350 0.006651 -0.006967 -1293480.000000 1 0 0
-11.254418 -7.036844 6.460788 14.762144 0.558780 1.117803 0.011002 -0.002795 -1055380.000000 1 0 0
-12.909818 -3.669044 -6.717512 15.008340 0.276904 2.034860 0.006675 -0.001205 -400769.000000 1 0 0
6.009182 0.399256 -7.278412 9.446955 0.066343 2.450344 -0.000033 0.000089 875236.000000 1 0 0
-1.388918 2.248856 -2.524412 3.655010 -1.017528 2.333214 0.004399 -0.001590 2491540.000000 1 0 0
7.569382 0.979756 -4.960412 9.102810 0.128721 2.147104 0.000336 0.001962 409973.000000 1 0 0
3.684182 -4.547144 10.934688 12.402303 -0.889855 0.491415 -0.009016 0.006170 -861907.000000 1 0 0
6.038382 -2.548544 1.965788 6.842621 -0.399376 1.279404 0.002002 -0.002061 -936726.000000 1 0 0
-6.238818 7.726556 1.070488 9.988416 -0.891528 1.463417 -0.006419 0.002572 1325120.000000 1 0 0
6.018682 -3.419344 7.943088 10.536085 -0.516650 0.716828 -0.001532 0.000232 704898.000000 1 0 0
6.698082 -2.241144 -7.811612 10.531301 -0.322886 2.406475 0.000191 -0.000480 2077010.000000 1 0 0
12.043182 -8.053444 -5.883612 15.636914 -0.589419 1.956557 0.016898 -0.003906 -379117.000000 1 0 0
5.575982 -9.731444 9.961788 15.000993 -1.050477 0.844540 -0.009709 0.007163 2453030.000000 1 0 0
-6.553818 7.604756 -4.456612 10.983908 -0.859489 1.988585 -0.001858 -0.001807 419756.000000 1 0 0
-1.241118 -7.516444 9.694188 12.329420 1.407153 0.666056 -0.001769 -0.001850 -869832.000000 1 0 0
10.025582 -9.328244 0.780788 13.716343 -0.749383 1.513842 0.007593 -0.004557 1268750.000000 1 0 0
11.200082 6.030956 9.763388 16.035523 0.493951 0.916174 0.014621 -0.006402 289948.000000 1 0 0
-15.262118 -4.232644 -4.989512 16.605504 0.270531 1.875985 0.002681 -0.001443 2146890.000000 1 0 0
-4.611318 -4.565444 7.826988 10.167068 0.780399 0.692210 0.005995 -0.004828 -323156.000000 1 0 0
2.978382 11.011356 -11.056612 15.886138 1.306635 2.340596 0.001049 -0.004251 -123439.000000 1 0 0
9.898282 -1.446744 1.614988 10.132978 -0.145133 1.410734 -0.001706 0.001549 -239165.000000 1 0 0
-1.588518 -2.627444 0.572188 3.123180 1.027011 1.386549 0.002012 -0.000238 651864.000000 1 0 0
1.549582 3.046056 0.859888 3.524069 1.100199 1.324304 -0.001177 0.001082 37305.100000 1 0 0
-8.989018 -2.294044 4.285788 10.219250 0.249872 1.138030 0.002516 -0.003903 4013480.000000 1 0 0
9.911282 4.877456 -2.647812 11.359313 0.457317 1.806057 -0.002128 0.003657 -88135.100000 1 0 0
2.557482 8.508256 2.553288 9.243939 1.278800 1.290946 -0.000862 0.003118 1426780.000000 1 0 0
-8.134818 -0.085744 2.441688 8.493789 0.010540 1.279215 -0.000460 -0.003411 556178.000000 1 0 0
6.886482 1.961356 13.716388 15.472875 0.277466 0.481115 0.010299 -0.006253 -1373800.000000 1 0 0
6.802482 4.435156 3.794488 8.963398 0.577773 1.133677 -0.002732 0.001816 101734.000000 1 0 0
-0.289918 3.393556 7.813688 8.523731 -1.485571 0.411059 -0.000713 -0.000718 757661.000000 1 0 0
2.705682 -10.247744 9.293788 14.096506 -1.312660 0.850913 -0.002082 -0.001319 1070140.000000 1 0 0
1.348482 -4.452244 6.825688 8.260200 -1.276702 0.598229 -0.006074 0.001524 300336.000000 1 0 0
-0.142818 10.882656 -2.046512 11.074331 -1.557674 1.756662 0.004473 -0.001111 1903080.000000 1 0 0
8.828182 5.565256 8.073688 13.194442 0.562471 0.912335 0.001859 -0.001628 1366930.000000 1 0 0
2.708782 11.404156 -2.957212 12.088729 1.337592 1.817930 0.008737 -0.005137 1781120.000000 1 0 0
1.512082 2.383256 -6.737612 7.304910 1.005423 2.744890 0.001305 -0.002892 2050690.000000 1 0 0
-13.599918 -2.188244 3.636688 14.246813 0.159534 1.312676 0.006641 -0.003178 340536.000000 1 0 0
-1.009618 -10.634244 -5.299612 11.924444 1.476140 2.031337 -0.000503 -0.000132 204073.000000 1 0 0
-5.615118 2.826656 0.482888 6.304975 -0.466365 1.494133 0.002377 -0.000449 1869260.000000 1 0 0
3.780582 7.253056 -4.925912 9.547996 1.090302 2.112867 0.000796 -0.001422 -3149270.000000 1 0 0
3.017582 9.818456 -6.487712 12.149003 1.272621 2.134135 0.004463 -0.001812 1561280.000000 1 0 0
-12.187918 1.676856 -2.523912 12.558954 -0.136725 1.773139 0.001281 -0.000757 727462.000000 1 0 0
-2.430418 9.652556 -5.739712 11.490129 -1.324134 2.093857 -0.000890 0.000125 1472500.000000 1 0 0
-1.358918 3.478656 1.752288 4.125314 -1.198381 1.132094 -0.001178 0.000859 -968187.000000 1 0 0
12.871882 3.683656 9.579488 16.462723 0.278729 0.949746 0.023842 -0.007051 866264.000000 1 0 0
-2.576518 -9.505644 11.584788 15.205362 1.306105 0.704573 -0.004639 -0.007903 927745.000000 1 0 0
-0.481518 -8.981644 -7.532912 11.732287 1.517236 2.267987 -0.001496 -0.000325 3049470.000000 1 0 0
2.393082 7.564656 -0.403112 7.944391 1.264407 1.621560 0.000151 0.000925 4043180.000000 1 0 0
-11.895918 -1.248644 -5.471412 13.153263 0.104581 1.999810 0.002443 -0.000379 -237658.000000 1 0 0
-6.209418 -7.048744 -10.907612 14.395057 0.848620 2.430629 0.002772 -0.005734 2602130.000000 1 0 0
-4.764518 -2.264944 -1.417012 5.462466 0.443756 1.833206 0.004842 -0.003445 -298846.000000 1 0 0
-10.479718 3.731656 4.491888 11.996950 -0.342084 1.187026 -0.000214 -0.004226 4418030.000000 1 0 0
6.840082 9.325756 -3.597612 12.111946 0.937964 1.872377 0.002327 -0.000644 1662630.000000 1 0 0
1.279182 -2.717444 -11.564412 11.948072 -1.130838 2.887490 -0.002763 -0.002740 -873330.000000 1 0 0
1.254182 8.847256 7.637388 11.754854 1.429975 0.863578 -0.005049 0.003634 948591.000000 1 0 0
10.345982 0.293356 10.456288 14.712558 0.028347 0.780297 0.007047 -0.001293 1349370.000000 1 0 0
-5.296918 -0.822744 -4.010012 6.694359 0.154094 2.213065 0.006582 -0.003274 -546873.000000 1 0 0
11.673382 5.573456 5.395588 14.015835 0.445445 1.175628 0.003634 0.000682 3080610.000000 1 0 0
9.909182 -3.631244 3.653688 11.168136 -0.351256 1.237507 0.005359 -0.006189 -1609880.000000 1 0 0
7.302882 -1.619544 -3.372012 8.205210 -0.218236 1.994303 -0.000807 0.001382 -2505300.000000 1 0 0
2.378882 9.236756 10.540288 14.215288 1.318729 0.735530 -0.002917 0.003269 1025820.000000 1 0 0
2.399882 -10.909144 6.425888 12.886462 -1.354257 1.048751 -0.003602 -0.001331 522492.000000 1 0 0
5.914182 -7.583844 -1.275212 9.701464 -0.908470 1.702623 0.000335 -0.002727 1282730.000000 1 0 0
-0.294918 -5.621544 -2.299612 6.080868 1.518382 1.958617 0.005923 -0.000400 777150.000000 1 0 0
7.681882 -5.049144 2.647988 9.566452 -0.581476 1.290335 0.001236 -0.003485 745802.000000 1 0 0
-2.711018 -12.399244 4.723988 13.542782 1.355540 1.214485 0.003439 -0.001798 -1927160.000000 1 0 0
4.815582 -10.320744 -1.204812 11.452474 -1.134230 1.676192 0.002241 -0.004194 1162180.000000 1 0 0
0.950982 0.238856 1.102288 1.475282 0.246077 0.727001 -0.001534 0.000780 -1627330.000000 1 0 0
-1.612618 8.617056 2.465788 9.106827 -1.385794 1.296611 -0.002500 0.005500 261868.000000 1 0 0
-7.505418 0.655356 -3.095212 8.145006 -0.087097 1.960607 0.005558 -0.000703 -979218.000000 1 0 0
4.395982 -6.446344 12.905688 15.081008 -0.972298 0.543783 -0.007415 0.005245 -951116.000000 1 0 0
-5.117018 13.015856 8.388588 16.308427 -1.196220 1.030522 -0.001927 -0.003904 2904100.000000 1 0 0
0.635782 6.144156 8.302688 10.348405 1.467686 0.639632 -0.001625 0.002247 6650.190000 1 0 0
7.942982 -0.474444 -0.702012 7.988046 -0.059660 1.658793 0.000651 0.000271 4525590.000000 1 0 0
2.324482 -9.193544 -2.491612 9.804724 -1.323148 1.827738 0.001976 -0.000984 2032850.000000 1 0 0
-7.179718 12.174956 4.930888 14.969688 -1.037976 1.235137 -0.004838 0.003450 1075100.000000 1 0 0
-14.982718 0.236456 0.086088 14.984831 -0.015781 1.565051 0.005329 -0.002828 166992.000000 1 0 0
6.780382 -0.537544 3.941088 7.860961 -0.079114 1.045639 -0.001508 0.001330 -372947.000000 1 0 0
-4.186118 -4.968144 5.070788 8.241295 0.870619 0.908042 0.004635 -0.003355 -387725.000000 1 0 0
2.883082 5.160256 6.873188 9.065380 1.061291 0.710279 -0.004378 0.001019 390268.000000 1 0 0
2.008682 -7.197644 1.796088 7.685494 -1.298646 1.334917 0.000320 0.001093 1975470.000000 1 0 0
-2.371918 6.461656 -1.769812 7.107125 -1.218991 1.822464 -0.001857 0.002132 226219.000000 1 0 0
2.676982 -3.776044 -6.633012 8.088361 -0.954097 2.532327 -0.002610 -0.002263 -451548.000000 1 0 0
-5.044418 0.904056 -12.245512 13.274639 -0.177336 2.745237 0.004947 0.001690 1561720.000000 1 0 0
-7.409918 6.359556 -11.907212 15.399108 -0.709264 2.454732 0.000171 -0.002556 2892000.000000 1 0 0
-1.003018 11.268556 -9.023612 14.471073 -1.482020 2.244087 0.003068 0.000591 1593190.000000 1 0 0
4.735182 5.898456 -0.547212 7.583744 0.894361 1.643015 -0.000708 0.001901 1341100.000000 1 0 0
-2.591718 13.472656 3.585388 14.180425 -1.380749 1.315181 -0.004685 0.007330 1274470.000000 1 0 0
1.476482 -7.880644 10.276888 13.034530 -1.385588 0.662535 -0.005689 0.002301 -272232.000000 1 0 0
12.977782 -0.251644 -1.066312 13.023946 -0.019388 1.652761 0.007582 -0.002534 134702.000000 1 0 0
-1.072718 3.131256 -5.420612 6.351261 -1.240743 2.593405 0.005788 -0.004120 758407.000000 1 0 0
6.564882 1.135156 7.334188 9.908409 0.171220 0.737431 0.000783 -0.001197 401516.000000 1 0 0
5.495982 -6.147144 6.860888 10.726835 -0.841267 0.876818 -0.005018 0.000765 162962.000000 1 0 0
12.224182 -4.926444 2.558588 13.425604 -0.383097 1.379048 0.006929 -0.004206 -295795.000000 1 0 0
4.370182 -9.282844 13.882488 17.262478 -1.130796 0.636468 -0.009469 0.006450 1959370.000000 1 0 0
-2.759618 -4.301644 -1.410012 5.301676 1.000401 1.839992 0.008343 -0.003238 2656570.000000 1 0 0
-9.262218 -5.160844 -7.614912 13.054114 0.508349 2.193624 0.009638 -0.003306 846119.000000 1 0 0
-10.631918 -3.098644 7.847488 13.572853 0.283592 0.954306 0.005203 -0.002724 693649.000000 1 0 0
12.046182 -0.637744 1.695988 12.181691 -0.052892 1.431118 0.005503 0.000053 25483.500000 1 0 0
-7.605718 4.736756 4.390888 9.978161 -0.557008 1.115142 -0.001447 -0.003863 2015070.000000 1 0 0
-1.071818 10.633456 6.946788 12.746648 -1.470339 0.994420 -0.002142 0.006022 3394050.000000 1 0 0
7.332882 -10.006844 1.853888 12.543723 -0.938403 1.422459 0.004944 -0.006219 3483150.000000 1 0 0
-4.277418 -1.742744 1.679288 4.914618 0.386894 1.222079 0.001385 -0.000122 1875860.000000 1 0 0
6.615582 -15.029644 -1.023312 16.453064 -1.156148 1.633032 0.016913 0.002328 -1392900.000000 1 0 0
-10.398818 1.738556 2.317788 10.794913 -0.165656 1.354400 -0.001271 -0.001345 1725270.000000 1 0 0
-3.011618 8.326656 -11.272412 14.334236 -1.223751 2.475752 -0.002749 -0.001754 -972844.000000 1 0 0
-1.291918 -5.184244 -6.921612 8.743807 1.326570 2.484222 0.001043 -0.002934 -264475.000000 1 0 0
12.814382 -0.537044 6.460188 14.360739 -0.041885 1.104198 0.012613 -0.004355 2131130.000000 1 0 0
5.934382 -13.249044 3.694588 14.980122 -1.149682 1.321592 0.007842 -0.006090 837025.000000 1 0 0
-5.585318 3.435956 -4.954112 8.218564 -0.551504 2.217796 0.005077 -0.003604 2242970.000000 1 0 0
-4.418718 8.157656 3.364788 9.868851 -1.074375 1.222869 -0.002910 0.003636 -953630.000000 1 0 0
14.045082 6.204456 -4.054312 15.880713 0.415975 1.828952 0.008412 0.000254 -896095.000000 1 0 0
-6.720218 -8.500344 5.240688 12.036694 0.901825 1.120322 0.007434 -0.002667 1845170.000000 1 0 0
1.633982 11.465556 2.725488 11.897779 1.429237 1.339669 -0.000349 0.001993 2387730.000000 1 0 0
-7.396818 7.276256 6.004588 11.987990 -0.777182 1.046177 -0.003732 -0.001494 -1031930.000000 1 0 0
-17.429418 -4.113144 5.080688 18.614939 0.231749 1.294353 0.008710 -0.006737 -2187610.000000 1 0 0
7.399682 -13.180544 -8.582112 17.382022 -1.059236 2.087176 0.007924 0.005431 -1344700.000000 1 0 0
-2.319318 12.874656 -2.846312 13.387960 -1.392562 1.785034 -0.000509 0.001321 1378220.000000 1 0 0
-5.488318 14.108756 -5.792412 16.208968 -1.199808 1.936234 0.005098 0.002872 2698130.000000 1 0 0
-5.688418 2.426956 7.434788 9.670796 -0.403266 0.693853 0.003570 -0.003719 2276690.000000 1 0 0
-7.394018 5.071456 1.417988 9.077547 -0.601191 1.413946 -0.002632 0.001129 2200290.000000 1 0 0
10.693482 -5.696544 -5.090412 13.142049 -0.489473 1.968539 0.009462 -0.002136 1718650.000000 1 0 0
-9.564818 -0.640944 6.723188 11.708878 0.066911 0.959175 0.003536 -0.004627 -217821.000000 1 0 0
-11.290718 -4.545044 -2.562512 12.438015 0.382700 1.778305 0.002875 -0.002819 2440190.000000 1 0 0
6.486682 -4.461844 13.549288 15.670619 -0.602523 0.526383 -0.002172 -0.000497 -1577400.000000 1 0 0
0.272282 10.231456 -11.643112 15.502222 1.544190 2.420464 -0.002581 -0.001123 -1054790.000000 1 0 0
-11.812818 -3.178244 1.449488 12.318479 0.262827 1.452855 0.003541 -0.003960 4565590.000000 1 0 0
5.235582 5.958456 5.490188 9.646589 0.849885 0.965346 -0.003276 0.003392 -5338860.000000 1 0 0
-7.202418 0.017356 8.152088 10.878036 -0.002410 0.723629 0.002220 -0.004466 1077350.000000 1 0 0
1.806082 2.094956 9.682488 10.069823 0.859314 0.278259 0.000061 -0.001896 3547310.000000 1 0 0
10.450082 -4.984944 -2.074412 11.762528 -0.445099 1.748081 0.003447 -0.002564 1569380.000000 1 0 0
-9.646418 -2.344844 -1.698712 10.071609 0.238455 1.740270 0.002871 -0.003015 272764.000000 1 0 0
-1.923718 -5.254844 -9.948812 11.414593 1.219865 2.629227 0.006785 -0.006500 958030.000000 1 0 0
7.668282 -1.604044 6.407788 10.121030 -0.206206 0.885224 -0.000151 -0.000920 3740250.000000 1 0 0
1.454282 -11.908344 -2.637712 12.283368 -1.449275 1.787220 -0.001390 -0.000256 -2778720.000000 1 0 0
-0.758818 -1.402044 4.817788 5.074703 1.074717 0.319561 0.001402 -0.001285 1033720.000000 1 0 0
7.614482 1.479356 9.928688 12.599511 0.191891 0.663207 0.002910 -0.002770 1415500.000000 1 0 0
-3.783518 10.787356 -7.923512 13.909137 -1.233466 2.176891 0.000452 0.001377 1986660.000000 1 0 0
-9.611618 12.758556 6.485488 17.240229 -0.925157 1.185123 -0.000646 0.000693 361850.000000 1 0 0
-2.510618 -2.488544 -11.168812 11.714880 0.780983 2.835064 0.009197 -0.007382 -362020.000000 1 0 0
1.139682 -11.934844 11.198588 16.405723 -1.475593 0.819478 -0.004769 0.004180 1687910.000000 1 0 0
1.457082 3.456556 -2.039312 4.269620 1.171859 2.068755 0.000216 0.000746 2670330.000000 1 0 0
-1.823818 -9.382644 -11.964412 15.313637 1.378808 2.467528 -0.006820 0.000845 2847100.000000 1 0 0
1.270082 -2.640744 1.550088 3.315028 -1.122500 1.084229 0.004260 0.000137 2191020.000000 1 0 0
-1.068618 -2.264244 -6.611712 7.069900 1.129837 2.779596 0.004738 -0.006691 19094.300000 1 0 0
1.838382 5.927956 4.100288 7.438593 1.270081 0.986973 -0.004897 0.004965 338954.000000 1 0 0
-10.886818 8.586656 3.576088 14.319283 -0.667825 1.318385 -0.010084 -0.000913 1785530.000000 1 0 0
-16.342418 -1.504244 3.984688 16.888313 0.091787 1.332607 0.001358 -0.001561 -111048.000000 1 0 0
-12.264618 0.379956 6.756588 14.007737 -0.030970 1.067464 0.000762 -0.000845 1361140.000000 1 0 0
-5.118318 3.004256 4.615288 7.518219 -0.530777 0.909829 -0.001491 -0.000790 1499540.000000 1 0 0
5.149882 -6.009444 3.930788 8.836617 -0.862273 1.109812 -0.001573 -0.001269 1115010.000000 1 0 0
9.906482 3.372156 6.311588 12.220718 0.328096 1.028077 0.000846 0.002142 -230402.000000 1 0 0
-12.152018 5.875356 3.174088 13.866008 -0.450351 1.339837 -0.000007 -0.000646 2162130.000000 1 0 0
-4.895418 12.369556 -1.295012 13.365930 -1.193947 1.667838 -0.006175 0.004599 1617800.000000 1 0 0
-1.744718 -12.188244 10.411888 16.124663 1.428615 0.868841 0.010748 -0.006705 433553.000000 1 0 0
5.245582 6.298456 13.932388 16.164718 0.876352 0.531789 0.012575 -0.006509 1199440.000000 1 0 0
12.931082 -3.730444 -5.937112 14.709806 -0.280861 1.986262 0.013190 -0.002430 968971.000000 1 0 0
3.508782 -2.510944 6.324388 7.655996 -0.621131 0.598698 -0.005621 0.002158 1643980.000000 1 0 0
7.163682 -11.857344 -0.686612 13.870342 -1.027327 1.620319 0.009486 -0.002114 -980709.000000 1 0 0
-6.199118 -6.610744 -4.095112 9.944896 0.817521 1.995203 0.004491 -0.003930 851161.000000 1 0 0
0.259182 -8.909844 5.132788 10.285816 -1.541715 1.048333 -0.000325 0.000927 2328880.000000 1 0 0
-10.229618 2.513356 -0.395112 10.541260 -0.240922 1.608288 0.000649 0.000074 -919822.000000 1 0 0
-1.876118 9.053256 -0.343912 9.252002 -1.366457 1.607977 0.000710 0.002682 2078580.000000 1 0 0
-3.485918 2.256756 -6.657112 7.846127 -0.574540 2.583862 0.008026 -0.005972 -171010.000000 1 0 0
-12.634618 3.092556 6.489388 14.536493 -0.240049 1.108035 -0.001386 -0.002807 461426.000000 1 0 0
11.338982 1.537656 7.951088 13.934012 0.134786 0.963530 0.009133 -0.005201 -722996.000000 1 0 0
6.082082 2.663656 -3.203712 7.372283 0.412789 2.020348 -0.001270 0.001763 1317900.000000 1 0 0
10.525382 -2.471344 6.360588 12.543854 -0.230621 1.039017 0.007339 -0.005769 2883530.000000 1 0 0
-0.950218 11.106156 4.079888 11.869924 -1.485446 1.219925 0.000481 0.006325 1113280.000000 1 0 0
-1.652918 -12.161844 7.475688 14.371100 1.435714 1.023724 -0.002085 -0.000786 -1191330.000000 1 0 0
8.168582 8.725856 -7.815112 14.280835 0.818372 2.149865 0.003268 -0.007344 1734390.000000 1 0 0
-4.650818 -5.933344 -8.676112 11.493894 0.905984 2.426215 0.007468 -0.005982 1466970.000000 1 0 0
-8.516218 -5.305244 -11.779412 15.473401 0.557129 2.436063 0.008695 -0.002038 776098.000000 1 0 0
5.976982 -0.615844 -9.931812 11.607948 -0.102674 2.597514 0.001345 -0.002277 -402564.000000 1 0 0
-11.144618 -5.440744 -5.382912 13.519614 0.454159 1.980302 0.004493 -0.004527 -319011.000000 1 0 0
3.944582 8.898456 -2.694612 10.099662 1.153538 1.840870 0.004813 -0.001455 1947350.000000 1 0 0
11.540782 -10.340344 -4.030212 16.011089 -0.730591 1.825247 0.016523 -0.002428 977274.000000 1 0 0
3.901282 -11.249944 3.971988 12.552208 -1.236991 1.248825 -0.000509 -0.001935 368905.000000 1 0 0
-0.997118 1.003856 3.212588 3.510369 -0.788765 0.414864 0.001450 -0.001107 -1462980.000000 1 0 0
-10.650718 -5.051444 4.458288 12.602826 0.442862 1.209216 0.006064 -0.004071 3241670.000000 1 0 0
4.540382 -8.631744 2.751288 10.133690 -1.086558 1.295846 -0.000508 -0.001874 4524100.000000 1 0 0
-3.719918 -5.646444 2.553488 7.227754 0.988255 1.209712 0.004527 -0.001480 2328610.000000 1 0 0
10.119482 4.966356 12.241488 16.640992 0.456238 0.744211 0.019945 -0.007331 -328652.000000 1 0 0
1.504182 -12.380344 -5.325712 13.560925 -1.449891 1.974389 -0.003540 0.003086 949244.000000 1 0 0
9.830882 -10.773344 -1.775812 14.692335 -0.831108 1.691959 0.012741 -0.005481 1110550.000000 1 0 0
9.532582 -4.445244 -9.282412 14.028310 -0.436343 2.293869 0.009772 0.000907 1567210.000000 1 0 0
-7.448118 -3.067544 -13.242912 15.500291 0.390684 2.595125 0.008470 0.002785 2887300.000000 1 0 0
0.472082 6.233956 -2.507512 6.735925 1.495213 1.952239 0.002537 0.000460 929014.000000 1 0 0
-5.988218 -9.365744 0.921588 11.154607 1.001927 1.488083 0.003928 0.000349 -576064.000000 1 0 0
-8.993318 -4.057544 0.581288 9.883387 0.423829 1.511948 -0.000117 -0.003074 2036440.000000 1 0 0
1.842782 3.846856 12.144588 12.871875 1.124060 0.337764 -0.000258 -0.006483 316733.000000 1 0 0
6.713182 4.270356 9.620188 12.484020 0.566552 0.691014 0.001809 -0.000963 2518400.000000 1 0 0
-8.188118 9.879356 -3.615712 13.331178 -0.878733 1.845459 -0.004834 0.001085 3127340.000000 1 0 0
16.455282 2.093256 -6.144712 17.689418 0.126529 1.925558 0.024624 0.000401 -1196970.000000 1 0 0
-10.995718 2.653056 -5.085212 12.401770 -0.236756 1.993293 -0.001118 0.000443 1357150.000000 1 0 0
-13.746218 4.026956 1.483588 14.400553 -0.284976 1.467590 0.002616 0.002435 -17157.400000 1 0 0
-17.308218 10.440556 3.374988 20.493174 -0.542779 1.405354 0.035924 -0.007551 -183357.000000 1 0 0
-14.346218 2.894656 -1.150612 14.680494 -0.199098 1.649254 0.003905 0.000824 1908840.000000 1 0 0
-14.338318 5.142856 5.122188 16.070879 -0.344386 1.246412 0.001543 -0.003348 218811.000000 1 0 0
-17.408418 7.541256 3.066288 19.217848 -0.408792 1.410557 0.024239 0.000037 -2964910.000000 1 0 0
-14.848318 12.687656 -3.475512 19.837549 -0.707092 1.746904 0.038236 -0.011451 -1870490.000000 1 0 0
-8.465218 12.357056 -9.552612 17.765392 -0.970174 2.138514 -0.009697 -0.013040 471579.000000 1 0 0
-12.332118 8.920956 -9.834912 18.121536 -0.626253 2.144468 0.001266 0.001006 -1193810.000000 1 0 0
-13.755718 -3.594144 -12.200112 18.734471 0.255570 2.279977 -0.005123 0.007841 -1837250.000000 1 0 0
-14.674618 5.702956 -7.626412 17.493721 -0.370664 2.021891 0.010010 0.008136 -1132570.000000 1 0 0
-10.811218 13.672856 -8.519212 19.401196 -0.901748 2.025401 -0.000433 -0.005627 237242.000000 1 0 0
-10.851018 13.611856 3.939288 17.847835 -0.897781 1.348249 0.003622 -0.000121 -936838.000000 1 0 0
-15.189418 3.246956 3.042388 15.827737 -0.210595 1.377374 0.001199 0.001806 966099.000000 1 0 0
-11.072818 9.434856 -12.485112 19.170337 -0.705697 2.280056 0.004749 -0.003954 521646.000000 1 0 0
-12.961218 11.669856 -9.041712 19.645133 -0.733018 2.049075 0.006903 -0.012694 -260431.000000 1 0 0
-8.833818 14.558956 -3.548212 17.395095 -1.025420 1.776216 0.000570 -0.009699 677973.000000 1 0 0
-16.747418 8.174756 -4.078112 19.077045 -0.454099 1.786230 0.034132 0.001847 -715345.000000 1 0 0
-16.873418 6.836356 0.267288 18.207675 -0.384943 1.556116 0.025284 0.001102 -1199840.000000 1 0 0
-10.443218 2.828956 -12.573612 16.587933 -0.264540 2.431034 0.006776 0.002419 803762.000000 1 0 0
-16.881618 0.879456 2.280288 17.057614 -0.052048 1.436713 0.002383 0.000503 1173120.000000 1 0 0
-12.733518 1.203356 -6.987012 14.574254 -0.094223 2.070776 0.003437 -0.001707 1498310.000000 1 0 0
-12.256818 9.122556 -5.405312 16.207036 -0.639833 1.910827 0.006097 -0.000427 -1417340.000000 1 0 0
-9.525818 13.884756 1.233288 16.883384 -0.969485 1.497684 0.005462 -0.005527 -1485600.000000 1 0 0
-12.110618 11.206256 2.679888 16.716131 -0.746632 1.409784 0.001030 -0.000160 1307430.000000 1 0 0
-12.486018 6.906156 -3.684612 14.736757 -0.505229 1.823506 0.000314 0.004771 -561245.000000 1 0 0
-15.758218 3.605356 -9.372512 18.685931 -0.224921 2.096222 0.007940 0.002045 -560590.000000 1 0 0
-15.024018 5.869956 -4.663712 16.790703 -0.372468 1.852253 0.009615 0.005326 665724.000000 1 0 0
-17.879518 5.242956 7.420488 20.055657 -0.285242 1.191793 0.011867 -0.004628 -350512.000000 1 0 0
-15.665318 10.175256 -2.247612 18.814616 -0.576052 1.690543 0.029846 -0.002088 -465345.000000 1 0 0
-8.743118 9.829456 -8.314712 15.562607 -0.843823 2.134446 -0.007889 -0.005653 1792340.000000 1 0 0
-16.996818 4.224156 -1.257512 17.558948 -0.243591 1.642474 0.011038 0.003623 234032.000000 1 0 0
-10.168918 5.436556 -4.612012 12.419086 -0.490962 1.951275 -0.000876 -0.000084 261365.000000 1 0 0
-18.259118 2.726356 6.047688 19.426861 -0.148220 1.254230 0.011097 -0.004095 -905247.000000 1 0 0
-10.305618 10.180356 -5.704912 15.568925 -0.779284 1.945965 -0.002805 -0.003325 2140820.000000 1 0 0
-15.405418 0.395556 -5.882612 16.495105 -0.025671 1.935452 0.000975 0.000014 -1000170.000000 1 0 0
-16.337918 -4.205944 -8.880212 19.065039 0.251964 2.055318 0.004888 -0.002039 -874041.000000 1 0 0
-9.893818 9.721456 -1.076212 13.912317 -0.776611 1.648230 -0.007851 0.002912 2445830.000000 1 0 0
-17.373918 -3.006544 -3.286012 17.935725 0.171352 1.755048 0.008293 -0.001695 840620.000000 1 0 0
-11.884818 5.116156 -11.559112 17.350418 -0.406502 2.299918 0.004942 0.001186 622951.000000 1 0 0
-16.301418 7.149456 5.855488 18.738668 -0.413316 1.252992 0.010951 0.000876 -340138.000000 1 0 0
-12.093918 6.119856 -8.821912 16.172248 -0.468458 2.147778 0.005311 0.001629 151444.000000 1 0 0
-14.478018 8.406756 -0.157312 16.742500 -0.526075 1.580192 0.020294 -0.001492 1980100.000000 1 0 0
-14.821018 11.918256 3.731588 19.381232 -0.677264 1.377050 0.014506 -0.007757 886651.000000 1 0 0
-17.219718 4.084956 -4.149412 18.177546 -0.232920 1.801098 0.003036 0.001225 -841755.000000 1 0 0
-13.739218 13.646656 -0.891012 19.385335 -0.782018 1.616776 0.033266 -0.006406 -141573.000000 1 0 0
-10.001118 6.869456 -13.103712 17.858305 -0.601859 2.394636 0.001202 -0.003884 -38218.400000 1 0 0
-15.837918 -1.246044 -8.381712 17.962332 0.078513 2.056270 0.000179 -0.002894 -197944.000000 1 0 0
-11.450118 12.043756 -0.122012 16.618428 -0.810661 1.578138 0.011343 -0.004629 986792.000000 1 0 0
-11.905418 7.455656 -0.923012 14.077561 -0.559491 1.636410 -0.000668 0.002915 1976610.000000 1 0 0
-11.479318 0.126356 -11.659112 16.362323 -0.011007 2.363934 -0.001752 -0.000781 474164.000000 1 0 0
-19.057418 -1.204744 -4.764012 19.680762 0.063133 1.815289 0.000270 -0.001452 -338771.000000 1 0 0
-17.910218 1.394156 -5.184512 18.697560 -0.077685 1.851761 -0.007807 0.001722 -2009820.000000 1 0 0
-13.337118 -0.159144 -9.505412 16.378550 0.011932 2.189964 0.001591 -0.003385 -16978.400000 1 0 0
-6.078018 11.201156 -13.286512 18.410312 -1.073634 2.377035 -0.010450 -0.002118 161361.000000 1 0 0
16.427782 5.818656 7.061188 18.803966 0.340408 1.185843 0.038332 -0.003520 611274.000000 1 0 0
14.929282 10.244856 -5.494112 18.921569 0.601421 1.865402 0.026017 -0.003522 1060000.000000 1 0 0
2.413782 16.886956 4.352588 17.605131 1.428820 1.320972 0.013956 -0.003450 1469710.000000 1 0 0
-3.788518 18.370556 -5.817712 19.638634 -1.367420 1.871548 0.003751 -0.007928 1744640.000000 1 0 0
5.392082 14.541356 5.761588 16.544530 1.215704 1.215096 0.005358 -0.003578 -1670220.000000 1 0 0
10.064882 5.880656 15.039088 19.027825 0.528777 0.659378 0.031878 -0.013145 -2069210.000000 1 0 0
4.669982 12.724956 -1.206112 13.608377 1.219063 1.659543 0.004385 -0.004311 1379940.000000 1 0 0
3.542482 13.630556 13.215688 19.313095 1.316529 0.817172 0.004440 -0.002311 -142682.000000 1 0 0
-0.746118 12.389356 9.129988 15.408099 -1.510646 0.936582 -0.003923 0.002951 447538.000000 1 0 0
-7.719818 14.016356 8.504688 18.121356 -1.067360 1.082277 0.005854 -0.003402 908937.000000 1 0 0
11.506782 12.790156 -4.054712 17.675825 0.838170 1.802250 0.019428 -0.006229 725078.000000 1 0 0
-5.730318 16.309656 0.657188 17.299518 -1.232924 1.532798 -0.007504 -0.001552 416351.000000 1 0 0
3.345182 10.614656 6.860988 13.074185 1.265501 1.018347 -0.005219 0.008462 134621.000000 1 0 0
-1.141118 15.634456 2.431388 15.863480 -1.497938 1.416920 0.001719 0.000925 -1548400.000000 1 0 0
9.901982 8.786256 9.563188 16.331016 0.725767 0.945196 0.016205 -0.004320 3585620.000000 1 0 0
7.220082 12.314556 6.276688 15.594059 1.040508 1.156545 0.004139 -0.001004 690436.000000 1 0 0
11.847682 13.943556 -1.491812 18.357990 0.866483 1.652148 0.006554 -0.006005 -518705.000000 1 0 0
9.710182 15.914856 -1.164612 18.679577 1.022959 1.633184 0.011510 -0.003283 -147116.000000 1 0 0
10.121582 13.690956 3.017488 17.291441 0.934185 1.395391 0.011120 -0.002867 4383540.000000 1 0 0
-6.050218 14.587656 6.320788 17.010503 -1.177640 1.190084 -0.010748 0.000448 721925.000000 1 0 0
-0.873618 18.292956 -6.158612 19.321592 -1.523076 1.895199 0.024347 -0.005317 -168448.000000 1 0 0
-3.526318 15.739856 5.441388 17.023122 -1.350398 1.245440 -0.008850 0.002122 693690.000000 1 0 0
7.036882 12.235456 10.744888 17.739129 1.048870 0.920130 0.001707 0.000259 2180210.000000 1 0 0
1.525182 14.639056 6.303988 16.011508 1.466985 1.166126 -0.002195 0.003482 1009660.000000 1 0 0
17.503982 7.735956 -1.355412 19.185190 0.416143 1.641504 0.005047 0.008554 -328724.000000 1 0 0
2.093882 16.198956 -3.329312 16.669578 1.442249 1.771872 0.000642 -0.007076 2480240.000000 1 0 0
6.748582 11.244656 0.555288 13.126080 1.030260 1.528480 0.006421 -0.001393 2937420.000000 1 0 0
12.700582 9.230556 3.191988 16.021758 0.628475 1.370226 0.008925 0.002574 -1085250.000000 1 0 0
6.110382 14.266256 -3.453012 15.899249 1.166125 1.789722 0.000635 -0.005163 797105.000000 1 0 0
3.154582 16.617256 1.576188 16.987317 1.383191 1.477877 0.009385 -0.007315 -696849.000000 1 0 0
2.782782 18.922356 -2.612212 19.303447 1.424780 1.706536 0.004871 -0.010700 -1245.670000 1 0 0
3.934782 11.889556 10.846088 16.567488 1.251197 0.857062 -0.000320 -0.001255 3961480.000000 1 0 0
7.922482 11.584756 3.404488 14.441704 0.970977 1.332816 -0.003108 0.002568 1042860.000000 1 0 0
0.809582 12.566556 0.150788 12.593509 1.506462 1.558823 0.005548 -0.001044 -731932.000000 1 0 0
12.027082 9.876656 -4.512412 16.203731 0.687536 1.853007 0.010208 -0.001975 1512980.000000 1 0 0
-1.276018 16.451556 10.058588 19.325038 -1.493389 1.023366 -0.000792 -0.002020 -100823.000000 1 0 0
8.183382 14.722156 -7.952212 18.626521 1.063469 2.011891 0.020872 -0.007781 2621180.000000 1 0 0
14.582682 7.541056 -1.364812 16.473762 0.477253 1.653739 0.001528 0.003727 1548740.000000 1 0 0
12.472882 8.196056 6.006988 16.088257 0.581357 1.188150 0.010884 -0.004046 -2475260.000000 1 0 0
-3.019018 14.192756 10.206288 17.740268 -1.361205 0.957804 0.003006 -0.008988 3019360.000000 1 0 0
-4.620418 17.286656 -3.154212 18.169364 -1.309619 1.745281 0.004939 -0.007178 1973660.000000 1 0 0
-7.167218 16.505956 -1.893012 18.094173 -1.161142 1.675608 0.005532 -0.006969 -12766.700000 1 0 0
8.391882 11.262456 -1.861612 14.167999 0.930426 1.702573 0.008305 -0.003673 -1749380.000000 1 0 0
8.597582 12.916356 -4.206612 16.076263 0.983508 1.835544 0.013979 -0.004825 2881690.000000 1 0 0
2.585382 14.916656 -7.326712 16.818785 1.399179 2.021531 0.002111 -0.005375 -386382.000000 1 0 0
11.356582 11.304556 9.807588 18.787062 0.783102 1.021556 0.023537 -0.006423 1236140.000000 1 0 0
8.622082 15.696356 1.441188 17.966438 1.068487 1.490494 0.007881 -0.002319 482732.000000 1 0 0
6.073482 9.925056 7.797788 14.007120 1.021648 0.980386 0.000972 0.006341 1258720.000000 1 0 0
14.477882 11.339556 2.591988 18.571833 0.664433 1.430774 0.020642 -0.001504 367304.000000 1 0 0
12.135682 12.624256 1.114088 17.546732 0.805128 1.507261 0.014556 -0.001081 3209610.000000 1 0 0
5.215782 15.864456 8.325888 18.660272 1.253157 1.108301 0.017853 -0.003278 -1537080.000000 1 0 0
11.484182 14.930256 5.208188 19.542881 0.915127 1.301036 0.023934 -0.007012 -605565.000000 1 0 0
6.018682 16.830556 1.896288 17.974650 1.227363 1.465102 0.002457 -0.009969 350869.000000 1 0 0
-0.615018 16.183656 -4.192412 16.729174 -1.532812 1.824101 0.010014 -0.008027 93956.700000 1 0 0
15.997082 6.370656 2.522688 17.402754 0.378987 1.425325 -0.003802 0.001339 -601512.000000 1 0 0
7.701982 16.649156 -3.193212 18.620191 1.137510 1.743140 0.006736 -0.008363 -792573.000000 1 0 0
14.807582 8.079456 7.439788 18.436174 0.499482 1.155411 0.028969 -0.008943 -2182040.000000 1 0 0
2.159482 12.928956 8.641588 15.700264 1.405297 0.987941 -0.001271 0.004448 1703150.000000 1 0 0
15.938182 7.603256 -5.987712 18.646389 0.445117 1.897707 0.011372 0.002454 -721439.000000 1 0 0
-2.902318 17.063556 0.635888 17.320298 -1.402320 1.534075 -0.005776 -0.003963 460162.000000 1 0 0
-2.851718 18.637456 4.508388 19.385887 -1.418964 1.336087 -0.007391 -0.002417 -927893.000000 1 0 0
-0.800818 19.043056 0.718088 19.073409 -1.528768 1.533139 0.005535 -0.012275 -221328.000000 1 0 0
6.970282 16.751956 -6.098012 19.141541 1.176499 1.895022 0.010302 -0.006305 -604656.000000 1 0 0
11.031682 10.042556 0.847488 14.942194 0.738497 1.514048 0.004623 -0.000347 -1464260.000000 1 0 0
9.221482 8.561656 14.207888 18.978982 0.748311 0.724831 0.027273 -0.011257 -165959.000000 1 0 0
6.403582 12.372856 -8.354212 16.244577 1.093207 2.110961 0.014889 -0.012364 977618.000000 1 0 0
6.425082 8.901356 13.414388 17.333829 0.945583 0.685844 0.016797 -0.008941 227214.000000 1 0 0
16.677082 9.334656 2.865988 19.325495 0.510282 1.421946 0.011645 -0.001460 81706.700000 1 0 0
2.676182 14.762856 -0.773912 15.023408 1.391466 1.622333 0.007753 -0.004992 1301920.000000 1 0 0
9.141582 12.914556 8.447988 17.936632 0.954821 1.080383 0.010532 -0.003908 1312530.000000 1 0 0
7.207182 9.327956 10.598188 15.851682 0.912960 0.838493 0.006454 -0.000469 1662230.000000 1 0 0
4.410182 15.812656 -5.304512 17.251888 1.298806 1.883334 0.005755 -0.007913 1712680.000000 1 0 0
0.254882 16.397856 -8.190012 18.331146 1.555254 2.033961 0.007650 -0.002763 796336.000000 1 0 0
-2.480118 15.728856 -2.072212 16.057458 -1.414404 1.700207 -0.000241 -0.003734 -1644310.000000 1 0 0
13.228882 10.382556 7.650088 18.474973 0.665428 1.143866 0.028197 -0.011827 1642740.000000 1 0 0
-1.027618 15.957756 7.058088 17.479204 -1.506489 1.155130 -0.000103 0.001641 3396580.000000 1 0 0
13.223182 13.238756 6.648388 19.857448 0.785987 1.229397 0.028140 -0.009152 -58407.400000 1 0 0
5.405982 17.337556 4.618788 18.738961 1.268542 1.321749 0.008947 -0.007154 1107680.000000 1 0 0
10.805382 9.467356 -1.802612 14.478830 0.719492 1.695620 0.002626 -0.000637 465965.000000 1 0 0
3.211682 12.700356 4.801488 13.952355 1.323108 1.219479 -0.001560 0.005794 1850590.000000 1 0 0
-0.127718 18.101256 3.495688 18.436149 -1.563741 1.380031 0.003151 -0.002450 3010680.000000 1 0 0
-7.742818 16.035756 -5.814512 18.732465 -1.120965 1.886408 0.017371 -0.012797 -741350.000000 1 0 0
-12.403118 -9.008844 8.242188 17.404892 0.628184 1.077473 0.014479 -0.006447 103960.000000 1 0 0
-13.326118 -11.582644 6.905088 18.958463 0.715518 1.197999 0.021032 -0.002942 -1214790.000000 1 0 0
-6.500618 -12.311444 12.351788 18.611727 1.084989 0.845100 0.012817 -0.008867 -339455.000000 1 0 0
-1.891118 -10.602744 14.367388 17.955956 1.394291 0.643258 0.005419 -0.003926 -47852.900000 1 0 0
-8.934518 2.885356 10.947888 14.422453 -0.312372 0.708888 0.004259 -0.002166 1463970.000000 1 0 0
0.579982 9.964656 15.166088 18.156017 1.512658 0.582081 0.005554 -0.009963 -190733.000000 1 0 0
0.982782 -6.762444 16.653388 18.000885 -1.426477 0.389385 0.000440 -0.010214 2887540.000000 1 0 0
6.028782 2.297456 17.804988 18.937849 0.364091 0.347638 0.025542 -0.017601 2170040.000000 1 0 0
-5.028918 -2.944844 17.547588 18.489997 0.529751 0.320648 0.020840 -0.014510 359011.000000 1 0 0
-4.271918 8.178656 13.008688 15.948845 -1.089448 0.616943 -0.001518 0.000571 -1092890.000000 1 0 0
0.101382 -4.892844 18.711388 19.340792 -1.550079 0.255816 0.014330 -0.015359 -1232160.000000 1 0 0
-11.771218 2.140256 11.142588 16.349298 -0.179856 0.820941 0.010939 -0.005155 1376490.000000 1 0 0
-3.364718 -6.086944 14.331088 15.929605 1.065824 0.451826 0.009076 -0.008964 1402310.000000 1 0 0
-7.440418 -2.231044 14.578988 16.519209 0.291323 0.489544 0.015017 -0.004886 230249.000000 1 0 0
-6.095218 -1.110044 10.601688 12.279237 0.180143 0.528859 0.007444 -0.007317 1888220.000000 1 0 0
-3.979418 2.440456 11.097088 12.038977 -0.550119 0.398192 0.001067 -0.000875 1189310.000000 1 0 0
-6.378918 6.252556 13.503688 16.190573 -0.775395 0.584394 -0.006591 -0.003813 573018.000000 1 0 0
-9.017218 5.487456 12.496888 16.358319 -0.546685 0.701389 0.001236 -0.007534 142207.000000 1 0 0
-12.213118 -2.194544 15.792388 20.084218 0.177790 0.665985 0.009308 0.002476 699476.000000 1 0 0
-3.540918 -7.726344 16.922388 18.936782 1.141069 0.465437 0.013919 -0.007326 -940235.000000 1 0 0
-0.524718 -5.334744 14.433688 15.396954 1.472753 0.355600 0.002409 -0.003123 1199200.000000 1 0 0
-14.254618 -2.307444 13.622388 19.851647 0.160481 0.814531 0.007656 -0.000841 -837610.000000 1 0 0
-6.532818 1.537556 12.126888 13.860130 -0.231152 0.505469 0.004328 -0.004291 1634700.000000 1 0 0
2.217182 -2.243644 14.739888 15.073624 -0.791330 0.210820 -0.003739 0.002922 -707002.000000 1 0 0
-12.574118 4.147656 9.233088 16.141915 -0.318618 0.961861 0.000070 -0.003342 -203688.000000 1 0 0
-9.009118 -3.033444 12.528288 15.726538 0.324785 0.649091 0.005247 0.000845 104292.000000 1 0 0
-7.067318 -7.259744 15.178388 18.249228 0.798828 0.588584 0.019223 -0.008217 -30116.900000 1 0 0
-3.205418 6.028156 19.463188 20.625932 -1.082079 0.337374 0.019724 -0.003735 208847.000000 1 0 0
0.729982 5.425156 16.248088 17.145424 1.437045 0.324961 0.012043 -0.009499 1119100.000000 1 0 0
3.403582 1.505756 16.828888 17.235520 0.416519 0.217651 0.012425 -0.011211 2116370.000000 1 0 0
-11.699518 11.458456 7.896988 18.180686 -0.774989 1.121467 0.004264 -0.004242 364025.000000 1 0 0
0.565482 -9.432544 15.481788 18.137762 -1.510918 0.548003 -0.006943 0.002856 1070230.000000 1 0 0
-2.476518 -3.634044 18.861788 19.367666 0.972610 0.229060 0.027476 -0.019778 2496950.000000 1 0 0
-12.801218 2.225556 13.831188 18.976987 -0.172134 0.754170 0.006976 -0.008004 -1085670.000000 1 0 0
-5.329218 -0.606544 15.682488 16.574344 0.113327 0.329542 0.017637 -0.004003 704625.000000 1 0 0
-4.427618 -5.948044 11.606388 13.772846 0.930900 0.568516 0.003635 -0.004758 -632492.000000 1 0 0
2.386982 1.843056 14.039788 14.360020 0.657513 0.211583 -0.000174 -0.003222 826726.000000 1 0 0
0.064982 3.321856 14.298188 14.679139 1.551237 0.228320 0.005855 -0.007007 256936.000000 1 0 0
-12.973018 7.116856 12.191888 19.172662 -0.501759 0.881623 0.008672 -0.002069 1308600.000000 1 0 0
0.890582 1.438756 18.355888 18.433713 1.016527 0.091922 0.008299 -0.005153 733342.000000 1 0 0
-2.009418 6.339156 12.562688 14.214211 -1.263831 0.486848 0.001006 -0.002363 -359278.000000 1 0 0
-13.523218 -2.614344 10.856588 17.537894 0.190967 0.903282 0.012734 -0.004767 -187308.000000 1 0 0
-2.640318 3.554656 13.464388 14.173800 -0.931934 0.317723 0.001127 -0.002476 -743160.000000 1 0 0
3.568682 6.045956 16.441188 17.877408 1.037570 0.403575 0.017400 -0.008740 537449.000000 1 0 0
-3.691818 12.323656 12.284688 17.788074 -1.279733 0.808459 0.005000 -0.006764 17811.100000 1 0 0
3.750682 -1.494144 17.185988 17.653846 -0.379097 0.230736 0.003995 -0.004346 -628785.000000 1 0 0
-15.907918 0.480156 9.170188 18.368036 -0.030174 1.048067 0.002173 -0.001851 441287.000000 1 0 0
-4.751018 4.533856 15.182888 16.542313 -0.762014 0.408239 0.007224 -0.002279 -198615.000000 1 0 0
-7.994118 -8.113844 10.466088 15.468659 0.792831 0.827661 0.011080 -0.008504 2944970.000000 1 0 0
-2.575718 -0.440544 14.699488 14.929948 0.169398 0.175932 0.009111 -0.002022 1496310.000000 1 0 0
-1.841918 0.978356 17.263688 17.389214 -0.488265 0.120227 0.010884 -0.010224 1016140.000000 1 0 0
-0.710018 -2.438344 14.413788 14.635810 1.287443 0.174403 0.004490 -0.000743 -469602.000000 1 0 0
5.183882 -8.346144 16.558488 19.253942 -1.014999 0.535517 -0.004492 0.004943 659134.000000 1 0 0
-4.451918 9.990356 10.647888 15.264478 -1.151589 0.798810 0.001421 -0.005273 -1710400.000000 1 0 0
-6.228218 2.065356 15.170288 16.528582 -0.320201 0.408239 0.013598 -0.001627 -1297770.000000 1 0 0
-4.900018 6.803456 17.170888 19.108547 -0.946625 0.454234 0.012027 0.002762 907711.000000 1 0 0
-4.045518 9.178756 15.685188 18.618295 -1.155663 0.568961 0.006003 0.002608 -70368.200000 1 0 0
-4.625618 -10.001044 18.373788 21.424596 1.137585 0.540206 0.022632 -0.006835 -440587.000000 1 0 0
-6.817718 -4.090044 11.047088 13.610580 0.540356 0.623817 0.007449 -0.003437 214368.000000 1 0 0
-2.309018 -0.852144 19.544888 19.699248 0.353545 0.125268 0.025289 -0.012793 -591445.000000 1 0 0
-5.703918 -4.533744 15.189688 16.846844 0.671591 0.447263 0.015761 -0.008759 1088180.000000 1 0 0
-13.020518 0.056556 9.688288 16.229603 -0.004344 0.931100 0.001038 -0.000794 1141950.000000 1 0 0
-14.373918 8.743156 10.188888 19.668903 -0.546475 1.026262 0.001674 -0.002634 -283969.000000 1 0 0
-8.297318 10.470056 12.887088 18.561912 -0.900657 0.803383 0.007384 -0.011157 -1327190.000000 1 0 0
-10.445718 7.209856 10.745088 16.629852 -0.604133 0.868290 0.007797 -0.003558 -1402500.000000 1 0 0
-9.855418 -6.532944 14.749388 18.903785 0.585375 0.675755 0.020056 -0.006777 -251664.000000 1 0 0
-0.828818 -13.358644 14.501888 19.734363 1.508832 0.745344 0.006592 -0.008385 821399.000000 1 0 0
3.870982 -5.755644 16.946188 18.310795 -0.978729 0.388508 -0.000892 -0.004375 2103290.000000 1 0 0
-7.283418 9.366456 10.330588 15.732124 -0.909860 0.854421 -0.003059 -0.005680 1470210.000000 1 0 0
-10.307718 -6.679944 11.807488 17.037825 0.575005 0.805132 0.016671 -0.010441 903483.000000 1 0 0
-10.898818 -3.884044 10.650988 15.726207 0.342341 0.826742 0.007174 -0.001747 1304970.000000 1 0 0
-10.099118 -10.209344 9.796788 17.383899 0.790826 0.972113 0.019078 -0.011769 1971820.000000 1 0 0
-9.848318 -3.657644 15.176288 18.457721 0.355609 0.605498 0.017717 -0.007774 2248790.000000 1 0 0
5.579982 -3.400244 16.100188 17.375670 -0.547277 0.385545 0.001554 -0.001260 458626.000000 1 0 0
-11.268918 0.441456 15.220988 18.943650 -0.039155 0.637666 0.014095 -0.006915 -1728640.000000 1 0 0
-3.179018 3.153456 18.847788 19.372392 -0.781361 0.233251 0.020070 -0.003877 -717671.000000 1 0 0
0.480982 7.264856 14.013088 15.791647 1.504686 0.479180 0.006228 -0.007404 1026140.000000 1 0 0
-13.064018 -7.495244 12.086488 19.311407 0.520881 0.894546 0.013825 -0.008543 -1171130.000000 1 0 0
-1.428818 -1.049344 12.135588 12.264385 0.633451 0.145053 0.001089 -0.001790 380672.000000 1 0 0
2.045082 -4.903744 13.195988 14.225441 -1.175683 0.382772 -0.004908 0.002686 275945.000000 1 0 0
-14.756818 -3.975144 8.604788 17.538752 0.263131 1.058000 0.011485 -0.006477 -1088260.000000 1 0 0
8.058982 0.823456 16.136688 18.055968 0.101825 0.465262 0.019011 -0.011470 776688.000000 1 0 0
-1.253918 11.317156 13.398188 17.582996 -1.460448 0.704405 -0.004219 -0.000473 723371.000000 1 0 0
2.784982 -12.268644 -13.710012 18.607530 -1.347579 2.399120 -0.004469 0.008463 61193.100000 1 0 0
0.758082 -10.699644 -13.935512 17.585664 -1.500063 2.485589 -0.016215 0.007706 -1451530.000000 1 0 0
3.054782 -14.396644 -12.381512 19.232704 -1.361710 2.270216 -0.009237 0.006073 -1669130.000000 1 0 0
-5.017818 -10.248644 -16.006012 19.657203 1.115497 2.522244 0.004884 -0.006881 -421117.000000 1 0 0
-1.097618 -12.224844 -15.011912 19.390954 1.481251 2.456201 -0.003866 0.006979 -353417.000000 1 0 0
5.397982 -15.165744 -12.126812 20.154344 -1.228846 2.216421 0.003032 0.012129 115890.000000 1 0 0
1.924682 -12.006644 -16.077612 20.158212 -1.411847 2.494055 -0.003472 0.013510 -641600.000000 1 0 0
1.162382 -14.370644 -14.065012 20.141775 -1.490086 2.343817 0.003141 0.012643 -458318.000000 1 0 0
-1.147318 -10.718044 -15.850012 19.168091 1.464157 2.544361 -0.005524 0.005090 -535878.000000 1 0 0
-5.978318 -5.761344 -15.061012 17.197891 0.766918 2.637779 0.016022 0.000961 73597.200000 1 0 0
-6.346418 -7.728944 -16.757512 19.514810 0.883307 2.603538 0.015913 0.005968 352889.000000 1 0 0
4.960982 -12.702744 -11.403812 17.776895 -1.198468 2.267244 -0.004424 0.010329 -250197.000000 1 0 0
-1.821318 -15.647144 -13.180612 20.539690 1.454918 2.267528 0.002857 0.006080 17935.600000 1 0 0
15.383282 -7.266244 -8.951312 19.224194 -0.441281 2.055140 -0.003879 0.005332 526808.000000 1 0 0
19.249682 -3.473344 -4.287612 20.024934 -0.178516 1.786581 0.024713 -0.013146 877219.000000 1 0 0
14.748082 -11.589644 -8.949012 20.782459 -0.666047 2.015958 0.020716 -0.009904 83722.100000 1 0 0
17.987982 -3.488944 -6.558912 19.461746 -0.191581 1.914542 0.048879 -0.003248 499773.000000 1 0 0
9.536782 -9.260244 -15.552212 20.459072 -0.770687 2.434359 0.034965 -0.000937 -100631.000000 1 0 0
1.189482 1.906356 -15.313512 15.477490 1.012948 2.995898 0.000572 -0.001216 26289.600000 1 0 0
4.848982 -4.331444 -13.987412 15.424712 -0.729084 2.706470 -0.006802 0.002435 -532855.000000 1 0 0
12.979882 -5.455944 -8.744712 16.574518 -0.397916 2.126569 0.023847 0.001977 -900272.000000 1 0 0
2.985882 0.972756 -12.180712 12.579010 0.314942 2.889275 -0.000463 -0.005666 -2380370.000000 1 0 0
0.602982 6.374956 -12.845712 14.353256 1.476491 2.679157 0.000827 -0.003670 -90964.300000 1 0 0
3.100482 -0.989644 -16.826012 17.137884 -0.308968 2.950526 -0.002912 -0.001966 -467939.000000 1 0 0
13.133582 4.418956 -11.438212 17.968050 0.324564 2.260860 0.016617 -0.007519 534016.000000 1 0 0
-3.638818 9.633556 -16.643712 19.571907 -1.209640 2.587518 -0.002888 0.005897 -46481.700000 1 0 0
-0.103518 -5.180844 -17.664412 18.408784 1.550818 2.856247 -0.003956 -0.001161 998751.000000 1 0 0
-0.553318 -8.708144 -17.576712 19.623423 1.507341 2.680801 -0.003843 0.005926 -981545.000000 1 0 0
5.530782 -10.343444 -12.237312 16.950758 -1.079765 2.377388 0.000036 0.008107 473720.000000 1 0 0
1.650682 -9.954344 -17.932212 20.576150 -1.406466 2.629059 0.000514 0.005075 -797999.000000 1 0 0
10.932882 8.821056 -14.614512 20.271233 0.678896 2.375966 0.045144 -0.020964 1386710.000000 1 0 0
10.982282 -3.724844 -13.002712 17.422844 -0.326993 2.413286 0.022394 -0.000580 722218.000000 1 0 0
4.998382 7.377956 -12.205412 15.112582 0.975348 2.510922 -0.001257 -0.004743 -348433.000000 1 0 0
9.682882 -5.979344 -12.660912 17.023791 -0.553200 2.409412 0.017312 0.003140 -1148020.000000 1 0 0
-3.345118 0.290456 -15.867612 16.218979 -0.086612 2.933061 0.009631 0.000612 -2197790.000000 1 0 0
-0.705918 10.754756 -12.770712 16.710900 -1.505253 2.440619 -0.007417 -0.001495 -1525670.000000 1 0 0
6.568282 -5.500644 -12.371412 15.048297 -0.697166 2.535910 -0.004143 0.003270 -149714.000000 1 0 0
17.702382 -6.348444 -8.089912 20.472512 -0.344334 1.977038 0.008693 -0.003621 724037.000000 1 0 0
13.019882 4.804456 -13.938912 19.669606 0.353508 2.358383 0.020931 -0.011249 571120.000000 1 0 0
14.177282 0.973456 -11.495712 18.278247 0.068555 2.250971 0.024807 -0.002984 -181104.000000 1 0 0
14.902982 6.254256 -11.269312 19.703095 0.397343 2.179685 0.018587 -0.012053 -141635.000000 1 0 0
8.236482 1.503956 -11.798512 14.467425 0.180607 2.524428 0.000429 -0.000969 735011.000000 1 0 0
9.907682 1.313456 -9.041212 13.477049 0.131801 2.306164 0.003202 -0.001391 -8775.100000 1 0 0
-0.146718 -5.745144 -13.020512 14.232426 1.545264 2.725929 -0.005173 0.000787 476049.000000 1 0 0
10.439982 -5.757644 -9.194812 15.056170 -0.503994 2.227741 0.014563 0.000409 -670115.000000 1 0 0
10.204282 8.552456 -11.175512 17.382863 0.697559 2.269080 0.026115 -0.016827 204591.000000 1 0 0
8.343282 8.235556 -14.494012 18.641650 0.778900 2.461488 0.025320 -0.011272 626291.000000 1 0 0
8.654382 10.576956 -10.573412 17.279102 0.885038 2.229281 0.030045 -0.017905 -507266.000000 1 0 0
6.964382 1.832256 -17.892212 19.287069 0.257260 2.758945 0.017969 0.000805 -2333860.000000 1 0 0
12.178782 2.554556 -12.862612 17.896795 0.206757 2.372742 0.019601 -0.006623 -634460.000000 1 0 0
2.558982 -0.669644 -19.233112 19.414155 -0.255945 3.004919 0.002271 -0.011521 -696117.000000 1 0 0
10.249782 -2.288044 -15.608712 18.812896 -0.219628 2.549333 0.028656 -0.001571 646330.000000 1 0 0
8.262782 -0.773544 -13.036112 15.453548 -0.093346 2.574689 0.005337 -0.002047 483254.000000 1 0 0
0.568082 4.412956 -14.569112 15.233382 1.442770 2.845191 -0.000172 0.001607 406902.000000 1 0 0
3.969282 -7.779944 -15.788312 18.043102 -1.099027 2.636301 0.001134 0.002133 -895739.000000 1 0 0
11.265982 -5.757844 -14.687912 19.385816 -0.472474 2.430521 0.032371 0.004098 -844422.000000 1 0 0
-5.783718 4.454856 -16.873212 18.384842 -0.656330 2.733246 -0.002528 0.011851 275507.000000 1 0 0
11.443382 7.866556 -9.059512 16.580363 0.602242 2.148856 0.025837 -0.013463 -2233970.000000 1 0 0
9.618382 6.268056 -13.436012 17.672810 0.577552 2.434517 0.029281 -0.007573 -1334580.000000 1 0 0
12.076382 0.682956 -10.127012 15.775354 0.056493 2.267837 0.016414 -0.001028 -2258760.000000 1 0 0
5.451082 -7.294244 -13.750612 16.492411 -0.929017 2.556668 -0.001566 0.004360 -1600000.000000 1 0 0
8.544482 -10.315044 -10.717112 17.154148 -0.879005 2.245612 0.011497 0.004592 77977.500000 1 0 0
10.150082 4.589656 -15.794212 19.327344 0.424665 2.527324 0.038889 -0.011340 -197584.000000 1 0 0
9.894682 -0.402144 -10.997512 14.799044 -0.040620 2.408522 0.008907 -0.002148 -244863.000000 1 0 0
-1.700718 5.574656 -13.916712 15.087879 -1.274685 2.744986 -0.005062 0.000906 54673.900000 1 0 0
1.341282 -0.714544 -14.934212 15.011339 -0.489489 3.040179 -0.001157 -0.003066 -73309.700000 1 0 0
11.287182 -10.581844 -14.395412 21.133002 -0.753157 2.320172 0.037510 -0.000052 -1042310.000000 1 0 0
9.279782 -7.816544 -10.880512 16.297186 -0.700018 2.301819 0.011795 0.002748 -261472.000000 1 0 0
14.100282 -0.975544 -9.719312 17.153270 -0.069076 2.173189 0.022306 0.001514 1190810.000000 1 0 0
4.059982 11.188756 -12.181812 17.031390 1.222709 2.367787 0.008287 -0.011847 -1558780.000000 1 0 0
-1.222718 2.931556 -16.978612 17.273168 -1.175646 2.956652 -0.004191 0.003281 771541.000000 1 0 0
5.827382 -0.400944 -17.594212 18.538485 -0.068695 2.821049 -0.004298 -0.000122 -198306.000000 1 0 0
6.286082 -6.524644 -16.041312 18.423070 -0.804018 2.627458 0.003041 0.003005 -174654.000000 1 0 0
-1.506518 -5.172444 -19.918212 20.633927 1.287378 2.877438 -0.004121 -0.004473 -590081.000000 1 0 0
0.045482 -4.313844 -15.227812 15.827115 -1.560254 2.865524 -0.005273 -0.000831 169881.000000 1 0 0
0.534882 0.792856 -12.981012 13.016197 0.977303 3.068048 0.000698 -0.006466 759999.000000 1 0 0
15.438682 0.756156 -13.680412 20.641665 0.048939 2.295291 0.023661 -0.007149 572954.000000 1 0 0
-0.161318 7.020856 -16.232112 17.686150 -1.547823 2.733266 0.000157 0.002206 -630505.000000 1 0 0
-4.888118 -0.581044 -18.373612 19.021591 0.118314 2.879827 0.004432 0.005144 -84790.000000 1 0 0
10.368482 -8.468744 -13.163012 18.774715 -0.684888 2.347740 0.017825 -0.002400 243235.000000 1 0 0
4.075482 8.627356 -17.208312 19.676555 1.129479 2.635322 0.018620 -0.008749 -591170.000000 1 0 0
9.100182 0.617056 -16.918812 19.220829 0.067703 2.647150 0.020209 -0.002429 -118203.000000 1 0 0
3.300982 4.863456 -18.522012 19.432308 0.974487 2.834298 0.012909 0.001032 -457749.000000 1 0 0
1.414382 -8.192844 -15.996112 18.027722 -1.399845 2.662267 -0.012379 0.005314 -337013.000000 1 0 0
4.494882 7.662556 -14.855612 17.309186 1.040285 2.602647 0.005225 -0.004306 541043.000000 1 0 0
-5.729118 -0.515944 -15.210412 16.261784 0.089814 2.780035 0.010058 0.002502 -69299.300000 1 0 0
2.874782 3.315856 -13.788912 14.470431 0.856526 2.833464 0.003089 -0.003935 1308830.000000 1 0 0
-2.493118 -10.320444 -17.989212 20.888728 1.333767 2.608407 -0.000418 0.001740 -445844.000000 1 0 0
6.213282 -9.088544 -15.351712 18.891309 -0.971136 2.519453 0.005252 -0.001299 -238518.000000 1 0 0
-1.860218 5.478956 -17.301812 18.243686 -1.243488 2.818861 -0.002300 0.003604 1009090.000000 1 0 0
10.028182 -12.220244 -11.494212 19.545222 -0.883608 2.199483 0.029397 0.000058 213991.000000 1 0 0
10.921682 3.695256 -9.387312 14.868076 0.326251 2.254120 0.005283 -0.003282 -803737.000000 1 0 0
4.777782 -0.424344 -10.951312 11.955689 -0.088584 2.728769 0.000517 -0.005412 -250552.000000 1 0 0
6.290782 9.601456 -11.377112 16.161700 0.990781 2.351747 0.007652 -0.012509 -29375.900000 1 0 0
10.794182 -9.491944 -9.504112 17.231933 -0.721293 2.155006 0.020698 0.001858 -1035860.000000 1 0 0
3.270582 -2.358644 -14.570712 15.118385 -0.624793 2.871606 -0.004724 -0.000177 -160231.000000 1 0 0
9.026582 -4.551644 -14.740012 17.873573 -0.467041 2.540436 0.013661 -0.001457 121443.000000 1 0 0
-3.952718 -6.649944 -16.482012 18.207209 1.034506 2.702756 -0.004461 -0.001185 -1179960.000000 1 0 0
5.945782 -7.945144 -11.308412 15.045193 -0.928349 2.421326 -0.004700 0.007318 51300.900000 1 0 0
5.317182 6.392656 -16.993612 18.918809 0.876985 2.686543 0.013829 -0.003569 -1630480.000000 1 0 0
8.901282 1.248356 -19.431412 21.409600 0.139336 2.708335 0.030258 -0.011085 476771.000000 1 0 0
13.112282 5.825656 -9.319312 17.109055 0.418095 2.146828 0.007827 -0.007202 482482.000000 1 0 0
-1.437918 -0.519344 -17.432312 17.499224 0.346598 3.054115 0.000426 -0.000994 103141.000000 1 0 0
-0.482118 -0.615544 -19.726012 19.741501 0.906360 3.101976 0.002587 -0.004650 -420810.000000 1 0 0
2.762282 6.382056 -16.509812 17.914651 1.162321 2.742932 0.001384 -0.000938 -432545.000000 1 0 0
7.557682 3.849256 -15.622112 17.775987 0.471073 2.644206 0.015521 -0.002546 73434.400000 1 0 0
3.068182 -9.957244 -14.795612 18.096148 -1.271892 2.528046 0.000250 0.006784 47074.300000 1 0 0
8.967482 -10.635344 -13.356812 19.285505 -0.870277 2.335860 0.022840 -0.000453 -872228.000000 1 0 0
3.842082 0.193256 -14.769112 15.261901 0.050257 2.886783 -0.003944 -0.002641 -2971600.000000 1 0 0
-1.154618 -2.865844 -18.795412 19.047670 1.187802 2.978664 0.003347 -0.002371 651970.000000 1 0 0
9.249882 10.133956 -12.972112 18.882083 0.830975 2.328158 0.039112 -0.022413 -361863.000000 1 0 0
4.562882 2.157956 -10.514012 11.662809 0.441764 2.694017 0.001677 -0.001861 -523532.000000 1 0 0
-0.528418 7.257056 -18.761812 20.123361 -1.498110 2.771627 0.004138 0.001209 165323.000000 1 0 0
0.798082 -1.728344 -17.603112 17.705752 -1.138205 3.033865 0.006581 -0.007527 -2516880.000000 1 0 0
-4.473318 -2.305244 -14.040712 14.915305 0.475838 2.797443 0.012457 -0.004399 -4205510.000000 1 0 0
10.224082 6.045056 -10.452312 15.821674 0.533966 2.292457 0.015645 -0.001910 -111042.000000 1 0 0
8.336182 5.567356 -17.388912 20.071413 0.588824 2.618648 0.038272 -0.009249 97774.100000 1 0 0
11.413882 0.252656 -13.599112 17.756024 0.022132 2.443216 0.018573 0.002554 626612.000000 1 0 0
6.784382 12.157056 -11.764012 18.226734 1.061785 2.272378 0.025322 -0.019911 -290281.000000 1 0 0
-0.990118 0.452856 -15.019012 15.058424 -0.428970 3.069227 -0.000038 -0.000160 -72051.100000 1 0 0
-4.230418 -3.016044 -19.066112 19.761315 0.619359 2.875554 0.000372 0.005160 -215423.000000 1 0 0
5.793382 -12.150844 -13.899612 19.349561 -1.125890 2.372213 0.010723 0.003555 82518.700000 1 0 0
2.182982 -4.698944 -14.013912 14.941058 -1.135893 2.787457 -0.008436 0.002359 -555731.000000 1 0 0
11.853882 1.954756 -15.383512 19.518914 0.163433 2.478567 0.038883 -0.005112 687234.000000 1 0 0
9.750382 2.278756 -13.770612 17.026228 0.229589 2.512885 0.016241 -0.005011 -963824.000000 1 0 0
-2.179618 -4.217944 -16.436012 17.108018 1.093840 2.860381 -0.003085 -0.004098 -1341470.000000 1 0 0
-2.802118 10.098156 -14.242512 17.682584 -1.300118 2.507238 -0.003374 -0.004661 -6462.870000 1 0 0
3.491682 5.755456 -13.616512 15.189684 1.025484 2.682447 0.001264 -0.003414 -201678.000000 1 0 0
-4.953218 -2.588344 -16.605312 17.520567 0.481531 2.816938 0.007791 -0.001964 91017.200000 1 0 0
-4.209318 6.186356 -13.652112 15.568221 -0.973333 2.640216 -0.003693 0.002454 -888285.000000 1 0 0
5.895082 -1.031044 -13.999712 15.225209 -0.173148 2.737625 0.001305 -0.001947 -946527.000000 1 0 0
6.738882 -2.959744 -12.690012 14.670004 -0.413840 2.616009 -0.000961 -0.000282 1241460.000000 1 0 0
3.028182 -3.061144 -18.394512 18.891759 -0.790811 2.911649 -0.000802 -0.006556 -451457.000000 1 0 0
7.377082 -12.189044 -11.925312 18.579753 -1.026546 2.267698 0.012723 0.005875 -2136640.000000 1 0 0
-5.982618 -5.350444 -17.597912 19.341807 0.729675 2.713690 0.026937 -0.002961 371430.000000 1 0 0
0.605582 8.702956 -11.824912 14.694785 1.501325 2.505968 -0.002592 -0.003228 185746.000000 1 0 0
0.416582 8.597356 -14.325212 16.712264 1.522380 2.600541 -0.003728 0.000834 -73701.600000 1 0 0
7.714182 -2.375944 -15.080112 17.104487 -0.298777 2.650136 0.008558 -0.005521 -860056.000000 1 0 0
14.257082 1.589956 -8.958612 16.912985 0.111062 2.129029 0.008600 0.002330 582107.000000 1 0 0
2.934282 10.586356 -14.553512 18.234189 1.300408 2.495005 0.005297 -0.006536 48507.900000 1 0 0
6.145382 1.155056 -15.467912 16.684009 0.185788 2.757423 0.007039 0.001807 1013570.000000 1 0 0
16.761182 -5.416344 -10.298512 20.404248 -0.312556 2.099858 0.045989 -0.008204 626494.000000 1 0 0
4.897482 -4.236044 -11.205912 12.942251 -0.713106 2.617622 -0.006911 0.003420 -1720560.000000 1 0 0
8.681782 -3.688744 -17.132612 19.557775 -0.401772 2.638302 0.013659 -0.004284 300974.000000 1 0 0
13.255482 -9.517244 -8.779012 18.529889 -0.622695 2.064370 0.029500 -0.003656 -341870.000000 1 0 0
2.362382 -7.666344 -13.696912 15.873219 -1.271880 2.611765 -0.008250 0.004718 26321.000000 1 0 0
-6.775818 -2.470944 -18.598312 19.947794 0.349685 2.771653 0.011247 0.008015 986121.000000 1 0 0
-1.442818 -6.496744 -15.689712 17.042784 1.352260 2.740429 -0.003471 -0.002080 -74475.100000 1 0 0
1.611782 -7.495044 -18.564812 20.085462 -1.358976 2.749970 -0.001775 0.008095 9748.540000 1 0 0
5.539282 10.745956 -14.360712 18.772034 1.094845 2.441846 0.017065 -0.024206 687432.000000 1 0 0
5.482382 -3.376044 -17.496212 18.643273 -0.551955 2.788979 0.009094 -0.000599 -1009270.000000 1 0 0
4.075182 12.876056 -14.083612 19.512766 1.264278 2.377144 0.009519 -0.012811 142800.000000 1 0 0
9.037782 10.564256 -15.422212 20.763661 0.863115 2.407965 0.042452 -0.023625 199650.000000 1 0 0
2.494982 3.856856 -16.223512 16.861275 0.996607 2.865676 0.002930 -0.001178 -154322.000000 1 0 0
16.698082 1.801356 -11.590812 20.406316 0.107462 2.174872 0.027297 0.000748 390097.000000 1 0 0
10.044582 -3.661644 -10.558512 15.026092 -0.349568 2.349951 0.014120 -0.000837 -746280.000000 1 0 0
14.738682 -2.148544 -12.066412 19.168810 -0.144756 2.251682 0.041523 -0.000787 1015750.000000 1 0 0
-2.578118 -8.673444 -15.913312 18.305978 1.281871 2.624572 -0.004259 0.006694 -440626.000000 1 0 0
14.032282 8.238056 -8.931012 18.561613 0.530864 2.072768 0.030177 -0.009210 562000.000000 1 0 0
-8.336618 -0.216444 -16.570812 18.550953 0.025957 2.675340 0.006880 0.007042 -316803.000000 1 0 0
-3.432418 3.848156 -15.860112 16.677318 -0.842439 2.827247 -0.003904 0.004586 -82344.000000 1 0 0
15.137182 4.134956 -9.702612 18.449195 0.266660 2.124581 0.021045 -0.005505 788615.000000 1 0 0
5.381882 1.225656 -12.876412 14.009599 0.223918 2.736621 0.000748 -0.004660 -21081.100000 1 0 0
7.836182 -7.728344 -13.055212 17.075468 -0.778470 2.441154 0.008593 0.005503 -2597680.000000 1 0 0
3.280182 -6.177344 -11.921112 13.821436 -1.082656 2.611003 -0.006529 0.004419 -1359630.000000 1 0 0
-3.190318 3.639456 -18.523712 19.145539 -0.851065 2.886029 -0.001232 0.008518 -155163.000000 1 0 0
0.776482 5.163056 -17.821812 18.570866 1.421523 2.856605 0.002533 -0.001916 327110.000000 1 0 0
6.372782 7.179256 -10.167112 13.982998 0.844837 2.384892 -0.002067 -0.003711 -36425.900000 1 0 0
9.797782 3.738656 -11.664912 15.685798 0.364529 2.409326 0.014043 -0.004864 -75471.100000 1 0 0
4.399082 1.779956 -17.501112 18.133094 0.384483 2.876803 0.008270 -0.001311 799453.000000 1 0 0
2.686282 8.022356 -13.084612 15.581443 1.247682 2.567630 0.000468 -0.005496 -2040760.000000 1 0 0
14.382182 -3.518944 -9.910112 17.816858 -0.239960 2.160628 0.028009 0.003498 487105.000000 1 0 0
-1.156418 9.427856 -16.148712 18.735065 -1.448746 2.609902 -0.002090 0.002851 -1196090.000000 1 0 0
-5.289518 2.032756 -15.839012 16.822170 -0.366898 2.798016 0.005391 0.007114 639699.000000 1 0 0
4.493082 4.262556 -11.869612 13.388236 0.759075 2.660674 0.000733 -0.003250 795436.000000 1 0 0
9.163582 3.149856 -17.642912 20.128715 0.331084 2.639349 0.029994 -0.001428 1026530.000000 1 0 0
-4.082518 14.189856 -13.427912 19.958151 -1.290655 2.308788 0.000748 -0.002697 -82849.200000 1 0 0
15.439982 -4.878044 -8.023712 18.071201 -0.306012 2.030860 0.018091 -0.000303 367146.000000 1 0 0
1.343582 9.274356 -16.684512 19.136139 1.426927 2.629835 -0.001136 0.005665 -767594.000000 1 0 0
0.519282 -3.169144 -12.907712 13.301209 -1.408384 2.897746 -0.005913 -0.000324 119225.000000 1 0 0
7.656482 3.677356 -13.024012 15.548940 0.447758 2.563697 0.008381 -0.004714 -521479.000000 1 0 0
-2.785718 7.656256 -15.049812 17.113600 -1.221838 2.645411 -0.009274 0.004268 -421508.000000 1 0 0
12.147882 -5.120444 -11.159612 17.272143 -0.398910 2.273266 0.031970 0.001856 -522468.000000 1 0 0
0.870482 -4.320044 -19.914312 20.396086 -1.371960 2.923811 0.006150 -0.006053 -914189.000000 1 0 0
3.562982 -4.474344 -16.161412 17.143682 -0.898307 2.801440 -0.003128 -0.002396 429668.000000 1 0 0
-5.663118 4.119556 -14.350512 15.968057 -0.628903 2.687595 -0.001764 0.004472 659525.000000 1 0 0
12.289282 -7.471644 -9.903112 17.462060 -0.546267 2.173803 0.025019 0.002606 293368.000000 1 0 0
-2.129018 -1.826244 -15.242512 15.498453 0.708998 2.959606 0.006502 -0.000995 465258.000000 1 0 0
7.140182 5.971656 -14.168812 16.952820 0.696513 2.560346 0.012624 -0.006462 84388.500000 1 0 0
4.145482 -5.309944 -18.580512 19.764007 -0.907934 2.793775 0.010635 -0.002300 95999.300000 1 0 0
7.695682 7.492456 -12.152512 16.218630 0.772018 2.417791 0.009909 -0.009987 -1190520.000000 1 0 0
12.258882 -2.480044 -11.089312 16.715371 -0.199612 2.296177 0.024944 -0.002503 23058.400000 1 0 0
7.372782 -0.632844 -10.649912 12.968386 -0.085625 2.534344 0.001945 -0.002044 -1917370.000000 1 0 0
5.396682 4.062956 -14.228112 15.750268 0.645330 2.698329 -0.000071 -0.008091 -1827400.000000 1 0 0
14.820982 3.069556 -12.910712 19.893973 0.204221 2.277034 0.026886 -0.014579 626285.000000 1 0 0
-6.239618 6.882756 -15.898112 18.413450 -0.834370 2.612760 -0.001583 0.013134 773863.000000 1 0 0
-11.272918 3.777856 -16.481612 20.322264 -0.323364 2.516677 0.034512 0.003169 601340.000000 1 0 0
-4.879118 6.670456 -18.105612 19.902612 -0.939272 2.713382 0.002574 0.021731 -380555.000000 1 0 0
-9.969718 1.615156 -15.717712 18.682893 -0.160611 2.570460 0.014300 0.010489 221766.000000 1 0 0
-7.426318 6.119156 -17.921812 20.341721 -0.689194 2.648847 -0.002365 0.010964 -42465.600000 1 0 0
-8.750818 3.887656 -15.626712 18.327161 -0.418072 2.591839 0.007475 0.011782 -511754.000000 1 0 0
9.048282 13.500556 -11.974812 20.187435 0.980341 2.205801 0.053954 -0.021348 -1277490.000000 1 0 0
13.815582 9.149356 -11.408012 20.117747 0.584938 2.173731 0.034859 -0.018840 268638.000000 1 0 0
8.524782 15.925856 -8.963412 20.165504 1.079325 2.031404 0.034230 -0.012330 -94332.000000 1 0 0
7.331182 13.536856 -13.989012 20.801085 1.074447 2.308396 0.036018 -0.014179 108050.000000 1 0 0
4.528882 16.007556 -12.247612 20.658088 1.295081 2.205417 0.037382 -0.021481 743633.000000 1 0 0
11.089082 11.052856 -11.492112 19.421689 0.783762 2.203981 0.039949 -0.018925 7937.340000 1 0 0
15.773382 9.849556 -9.770312 21.006483 0.558198 2.054554 0.038425 -0.006461 -32789.600000 1 0 0
13.298182 10.604056 -9.260612 19.366119 0.673157 2.069385 0.054666 -0.018286 -60883.100000 1 0 0
10.413282 11.746356 -8.459412 17.831852 0.845483 2.065077 0.021226 -0.004421 38480.200000 1 0 0
5.617482 16.240656 -9.952712 19.858788 1.237788 2.095751 0.017771 -0.014813 -124632.000000 1 0 0
6.856482 14.813756 -11.756312 20.116400 1.137311 2.194954 0.027266 0.001302 -452937.000000 1 0 0
10.978582 13.969656 -9.824512 20.302748 0.904720 2.075903 0.051109 -0.005874 44399.000000 1 0 0
8.178582 -18.722744 -1.327812 20.474214 -1.158952 1.635695 0.033043 0.013259 -173122.000000 1 0 0
7.195682 -17.388044 -3.329212 19.110353 -1.178425 1.745900 0.024265 0.002869 -290937.000000 1 0 0
4.469482 -18.370244 6.033288 19.845471 -1.332133 1.261894 0.037619 0.000505 401545.000000 1 0 0
9.697782 -16.978944 -2.517912 19.714751 -1.051849 1.698863 0.028053 0.005466 -1114270.000000 1 0 0
-9.545518 -12.212344 -9.868612 18.375195 0.907358 2.137746 0.014152 -0.016924 -586831.000000 1 0 0
-5.079818 -6.945444 -12.057012 14.812673 0.939313 2.521743 0.001176 -0.002025 578045.000000 1 0 0
-10.838218 -9.492344 -5.664712 15.480973 0.719295 1.945412 0.005515 -0.007842 -1290220.000000 1 0 0
-4.514118 -11.461644 -13.869912 18.550499 1.195607 2.415364 0.005284 -0.003422 252287.000000 1 0 0
-3.012618 -15.438844 7.511388 17.431430 1.378086 1.125295 -0.002279 -0.004023 291171.000000 1 0 0
-4.629218 -11.975044 -11.389412 17.162461 1.201919 2.296449 -0.001107 -0.003531 156977.000000 1 0 0
-14.520818 -12.759044 -4.113812 19.762865 0.720906 1.780488 0.004516 -0.005729 37450.600000 1 0 0
-3.324518 -12.278844 -3.198912 13.116992 1.306384 1.817156 0.003245 -0.005299 878192.000000 1 0 0
-2.464718 -17.386744 -1.583212 17.631797 1.429976 1.660710 -0.001296 -0.008292 -1203540.000000 1 0 0
-5.815818 -12.100644 3.621788 13.905635 1.122772 1.307303 -0.001482 -0.000491 1013250.000000 1 0 0
-8.795518 -10.802444 -11.843812 18.284688 0.887447 2.275417 0.008945 -0.006960 -535411.000000 1 0 0
-9.612818 -12.238344 -7.299312 17.189046 0.904980 2.009371 0.006262 -0.012015 -35676.900000 1 0 0
-10.951618 -14.973544 6.230488 19.569465 0.939307 1.246778 0.007900 -0.010537 -764907.000000 1 0 0
-9.522518 -15.774844 0.672488 18.438447 1.027696 1.534316 0.011127 0.001740 510692.000000 1 0 0
-14.733718 -7.820344 -8.295012 18.629210 0.487966 2.032271 0.002666 -0.002060 -183381.000000 1 0 0
-2.461118 -16.453344 5.187988 17.426556 1.422316 1.268508 0.003787 -0.006806 608133.000000 1 0 0
4.168482 -15.828444 5.470088 17.257977 -1.313289 1.248274 0.027606 -0.011419 -270392.000000 1 0 0
4.067182 -14.663144 -10.026512 18.223082 -1.300224 2.153411 -0.011471 0.007127 -589905.000000 1 0 0
-7.661018 -13.983544 -0.244912 15.946495 1.069598 1.586155 0.002803 -0.001344 829821.000000 1 0 0
2.951882 -14.817144 9.779688 17.997324 -1.374150 0.996318 0.022833 -0.011380 117842.000000 1 0 0
2.369682 -17.269044 10.314988 20.254241 -1.434427 1.036454 0.044675 -0.011721 -216245.000000 1 0 0
-8.366718 -17.171344 -5.735712 19.943807 1.117402 1.862510 0.024775 -0.008946 -574734.000000 1 0 0
-6.501218 -8.995544 -7.599612 13.451385 0.944987 2.171192 0.009719 -0.008830 -23135.600000 1 0 0
-6.178118 -13.099044 -4.775212 15.249812 1.130088 1.889286 0.002568 -0.012123 -55234.600000 1 0 0
1.911982 -19.516344 -4.586912 20.139095 -1.473140 1.800575 -0.010090 -0.007618 -691610.000000 1 0 0
-5.365418 -12.687644 8.361988 16.114803 1.170718 1.025231 -0.002116 -0.009712 925366.000000 1 0 0
2.165682 -17.432944 3.532088 17.918520 -1.447200 1.372378 0.016749 -0.011805 263451.000000 1 0 0
-17.413718 -10.014144 -2.706112 20.269280 0.521889 1.704704 -0.003201 -0.006830 484682.000000 1 0 0
-3.542318 -15.451844 2.583988 16.061896 1.345441 1.409217 -0.003684 -0.000818 170607.000000 1 0 0
-10.192818 -10.498344 -14.032112 20.273356 0.800163 2.335254 0.018926 -0.013019 -328020.000000 1 0 0
5.906682 -14.661744 -5.687012 16.798742 -1.187824 1.916159 -0.003284 0.003394 355583.000000 1 0 0
-7.140118 -12.255244 -10.633912 17.727165 1.043256 2.214129 0.007814 -0.014337 -1401570.000000 1 0 0
-7.218518 -14.277944 3.870688 16.460526 1.102702 1.333424 -0.004213 0.000547 891646.000000 1 0 0
3.109182 -15.043244 -3.098312 15.670538 -1.366983 1.769823 0.001840 -0.001759 -1443400.000000 1 0 0
-7.533318 -11.204744 7.644188 15.515502 0.978881 1.055629 0.001060 -0.010907 -20639.200000 1 0 0
-12.878518 -12.530944 -1.155012 18.005967 0.771720 1.634986 -0.000824 0.008360 -2657010.000000 1 0 0
-1.949818 -13.534344 4.093988 14.273787 1.427716 1.279892 -0.001735 0.000306 -3041820.000000 1 0 0
-3.164418 -13.867244 5.283788 15.173412 1.346444 1.215118 -0.004590 -0.001954 -150446.000000 1 0 0
-14.463718 -10.193344 -4.452012 18.246200 0.613909 1.817281 0.000492 -0.003248 752713.000000 1 0 0
-6.277918 -8.547344 -10.349812 14.818501 0.937297 2.344010 0.003470 -0.006606 51953.200000 1 0 0
0.900882 -19.482944 2.476488 19.660359 -1.524590 1.444497 0.021864 -0.008683 95296.400000 1 0 0
6.345282 -14.310444 -8.265512 17.702263 -1.153443 2.056599 0.005186 0.005919 -2258510.000000 1 0 0
-3.997118 -16.741944 -5.930612 18.205544 1.336435 1.902610 -0.006259 -0.007999 66258.100000 1 0 0
-3.643218 -13.728644 -13.113412 19.331588 1.311402 2.316299 0.011307 0.000882 -1413550.000000 1 0 0
-8.308918 -14.708544 -4.541512 17.492991 1.056582 1.833424 0.008715 -0.011466 256463.000000 1 0 0
-4.704918 -14.324844 10.234788 18.223290 1.253452 0.974439 0.003457 -0.007841 -16335.400000 1 0 0
-0.309218 -12.280344 -10.004412 15.842687 1.545622 2.254263 -0.007216 0.005744 164915.000000 1 0 0
2.308482 -17.097944 6.873388 18.571813 -1.436593 1.191682 0.026933 -0.016924 -1224460.000000 1 0 0
-2.914718 -19.119444 -3.568712 19.666836 1.419513 1.753266 0.000211 -0.014979 -1248850.000000 1 0 0
0.554382 -15.466044 -3.044312 15.772562 -1.534967 1.765028 0.000443 -0.003346 465725.000000 1 0 0
5.817482 -17.984144 0.593788 18.910979 -1.257941 1.539392 0.015302 -0.000661 -178544.000000 1 0 0
-7.042018 -16.708544 3.865388 18.539329 1.171926 1.360759 -0.003194 0.003149 641206.000000 1 0 0
-5.161918 -13.429744 -9.367312 17.168284 1.203841 2.147922 -0.000712 -0.007555 150940.000000 1 0 0
5.589982 -15.240044 -2.223712 16.384497 -1.219238 1.706937 0.011080 0.004821 -1216170.000000 1 0 0
-8.946618 -10.427044 -0.603312 13.752426 0.861664 1.614680 -0.002159 -0.000046 -1060140.000000 1 0 0
-7.308918 -18.113544 -3.112612 19.779007 1.187271 1.728823 0.011768 -0.020534 561354.000000 1 0 0
7.769082 -16.112844 -1.121312 17.923162 -1.121517 1.633399 0.017591 0.008018 -666418.000000 1 0 0
-7.993718 -10.097144 -9.389412 15.937783 0.901149 2.200777 0.010184 -0.011999 -2095290.000000 1 0 0
-9.220318 -15.266744 -7.078512 19.188358 1.027479 1.948617 0.020122 -0.009917 156993.000000 1 0 0
-11.359018 -10.594944 -11.667712 19.427188 0.750609 2.215031 0.012770 -0.008219 -825952.000000 1 0 0
6.536682 -16.265144 2.473988 17.703213 -1.188668 1.430589 0.018571 -0.003636 1184060.000000 1 0 0
-2.272318 -11.171344 -6.111712 12.935045 1.370128 2.062913 -0.001047 -0.001028 -531979.000000 1 0 0
-12.455018 -15.223344 -3.284712 19.941590 0.885084 1.736267 0.002703 -0.014175 -14754.900000 1 0 0
-0.400318 -19.693144 -2.760312 19.889684 1.550471 1.710027 0.013144 -0.013584 -242034.000000 1 0 0
-5.960918 -15.676844 -4.672512 17.410582 1.207442 1.842499 -0.000015 -0.008804 -1644060.000000 1 0 0
1.868382 -15.957044 -0.908312 16.091711 -1.454239 1.627272 0.006227 -0.008086 75461.700000 1 0 0
-13.209018 -11.864044 5.328288 18.537108 0.731807 1.279244 0.014421 -0.000575 99367.400000 1 0 0
1.928982 -15.377044 -8.857512 17.850210 -1.446003 2.090028 -0.010137 0.011562 -717355.000000 1 0 0
-11.929118 -16.839844 0.234688 20.638297 0.954464 1.559425 0.013451 -0.005777 813658.000000 1 0 0
-7.633118 -16.557944 -1.082812 18.264788 1.138837 1.630115 0.006470 -0.005548 804484.000000 1 0 0
-3.116018 -14.571444 -1.799612 15.009169 1.360125 1.690986 0.000445 -0.005050 120125.000000 1 0 0
-1.812818 -10.484944 -13.117812 16.890748 1.399592 2.460090 -0.004255 0.001518 235837.000000 1 0 0
1.366082 -19.321644 5.096788 20.029213 -1.500212 1.313499 0.033413 -0.013948 -144776.000000 1 0 0
-17.439618 -9.524844 2.400088 20.015578 0.499891 1.450596 0.012055 -0.002056 -189200.000000 1 0 0
-2.799818 -15.587344 -8.015812 17.749860 1.393070 2.039353 -0.009118 -0.004801 -1336480.000000 1 0 0
-10.765918 -12.133244 0.294588 16.223668 0.845038 1.552637 0.002702 0.004345 184187.000000 1 0 0
-6.767618 -11.427344 -6.680012 14.866318 1.036110 2.036821 0.007508 -0.013344 -303424.000000 1 0 0
-2.045118 -13.525744 -6.635812 15.204022 1.420731 2.022447 -0.011202 0.003586 285834.000000 1 0 0
-14.387918 -14.473944 -1.019112 20.433939 0.788379 1.620691 0.010727 0.001003 128888.000000 1 0 0
-9.676318 -11.326944 -4.323712 15.512101 0.863826 1.853269 0.009245 -0.008389 151808.000000 1 0 0
9.310582 -15.277844 -5.144712 18.616324 -1.023481 1.850796 0.019092 0.009549 233551.000000 1 0 0
-5.475518 -10.750844 -9.219812 15.184429 1.099728 2.223314 0.002662 -0.008439 -256054.000000 1 0 0
-10.524418 -16.004644 -4.948412 19.783802 0.989107 1.823605 0.018264 -0.010624 -651938.000000 1 0 0
2.078282 -17.446144 -3.056112 17.833312 -1.452230 1.743017 0.005750 -0.003233 483182.000000 1 0 0
-0.416618 -14.555944 -8.206312 16.715042 1.542182 2.083980 -0.011944 0.005048 -1792230.000000 1 0 0
-0.567818 -18.329744 -7.089012 19.661028 1.539828 1.939666 -0.000416 -0.003715 37171.500000 1 0 0
-1.705718 -10.002044 -10.476812 14.584717 1.401884 2.372212 -0.004119 -0.000320 252345.000000 1 0 0
-5.130118 -17.367844 2.022388 18.222244 1.283583 1.459583 0.004946 -0.001640 183601.000000 1 0 0
0.165582 -12.809944 -2.660712 13.084398 -1.557871 1.775574 0.002699 -0.000929 -1748440.000000 1 0 0
2.571082 -14.877944 3.077888 15.408994 -1.399675 1.369697 0.011649 -0.007064 -838260.000000 1 0 0
-9.389518 -12.987144 6.805388 17.410982 0.944810 1.169222 0.000794 -0.007474 -449673.000000 1 0 0
-0.948118 -17.872644 -4.547812 18.466536 1.517797 1.819629 0.001192 -0.009128 -972113.000000 1 0 0
-9.723518 -17.690444 -2.272412 20.314096 1.068223 1.682895 0.015528 -0.010908 -1933330.000000 1 0 0
1.231982 -16.125244 1.572288 16.248488 -1.494544 1.473879 0.007815 -0.010750 -897042.000000 1 0 0
-0.472118 -17.884644 4.125788 18.360434 1.544404 1.344150 0.016144 -0.014915 1679640.000000 1 0 0
-17.360018 -9.451344 -0.158012 19.766717 0.498558 1.578790 0.002535 -0.000383 1053670.000000 1 0 0
-14.704418 -7.215344 -10.727112 19.579378 0.456174 2.150622 0.019068 -0.007836 331287.000000 1 0 0
2.818582 -12.745044 -8.866612 15.779650 -1.353148 2.167479 -0.011836 0.007709 550922.000000 1 0 0
-11.716018 -14.807144 1.876188 18.974633 0.901419 1.471756 0.002701 0.004493 -29570.000000 1 0 0
-2.420318 -15.568444 10.625588 19.003619 1.416568 0.977454 0.015008 -0.004321 -245114.000000 1 0 0
-7.048518 -15.831244 1.356888 17.382493 1.151918 1.492656 0.003920 -0.002985 -1249750.000000 1 0 0
-12.829218 -14.942844 -5.848612 20.544676 0.861358 1.859467 0.016450 -0.011098 985253.000000 1 0 0
0.841882 -13.804244 -5.002512 14.706837 -1.509885 1.917871 -0.001877 -0.000333 25101.800000 1 0 0
5.801082 -16.613744 -7.301112 19.051910 -1.234858 1.964078 0.009893 -0.004005 184689.000000 1 0 0
-6.487018 -12.898444 5.961288 15.620123 1.104807 1.179225 -0.000558 -0.002893 100886.000000 1 0 0
-2.673218 -13.609144 0.599988 13.882179 1.376838 1.527563 0.005333 -0.001986 1538740.000000 1 0 0
-4.366418 -15.559544 0.174888 16.161547 1.297207 1.559975 0.000678 -0.003823 51868.000000 1 0 0
-17.558118 -7.529144 -1.996112 19.208331 0.405096 1.674903 -0.002754 0.001219 373236.000000 1 0 0
1.054982 -12.745644 -11.956812 17.507992 -1.488213 2.322569 -0.008122 0.006919 -1824650.000000 1 0 0
1.302282 -17.164844 -5.637112 18.113665 -1.495072 1.887260 0.002443 -0.006214 170489.000000 1 0 0
-12.733418 -6.331944 -9.125812 16.897157 0.461461 2.141328 0.005738 -0.001463 681778.000000 1 0 0
-11.480418 -13.496744 -8.836412 19.800108 0.865950 2.033402 0.014961 -0.020357 377051.000000 1 0 0
-4.299718 -9.893344 3.388188 11.306885 1.160817 1.266463 0.003130 -0.000181 -4892500.000000 1 0 0
-7.168218 -14.072844 9.447788 18.403505 1.099685 1.031690 -0.001760 -0.019965 -1287300.000000 1 0 0
-5.314818 -15.909044 -8.168312 18.656535 1.248378 2.023975 0.002362 -0.008911 -173654.000000 1 0 0
-0.401018 -13.393244 2.175988 13.574783 1.540863 1.409805 0.000568 -0.001800 544128.000000 1 0 0
-11.100218 -13.483544 -4.670212 18.078487 0.882043 1.832089 0.016268 -0.010648 -796721.000000 1 0 0
-9.728218 -10.452044 6.597888 15.729450 0.821251 1.137945 0.010447 -0.003233 -236989.000000 1 0 0
-15.492318 -7.942444 -4.765112 18.049948 0.473732 1.837959 0.009236 -0.001390 -1281850.000000 1 0 0
-14.593618 -7.362344 5.382088 17.208855 0.467234 1.252708 0.017924 -0.002621 436667.000000 1 0 0
-1.758318 -19.331044 -0.120612 19.411221 1.480088 1.577010 0.016172 -0.011548 -684571.000000 1 0 0
-15.436818 -12.039044 -1.247212 19.616052 0.662359 1.634420 0.001134 0.004007 538045.000000 1 0 0
-4.320618 -12.142344 -6.639612 14.497887 1.228937 2.046508 -0.003021 -0.005396 540439.000000 1 0 0
-7.616718 -18.274844 2.011488 19.900513 1.175903 1.469546 0.010577 -0.003757 561523.000000 1 0 0
-2.428518 -11.785744 -8.619112 14.801708 1.367585 2.192358 -0.008236 0.001860 -336014.000000 1 0 0
-1.220618 -20.335644 -5.087612 20.997908 1.510845 1.815523 0.001453 -0.007714 -194452.000000 1 0 0
-5.278918 -8.907444 -13.722612 17.190684 1.035805 2.495195 0.000528 -0.004897 -327621.000000 1 0 0
-8.108618 -19.130744 -0.847712 20.795521 1.169898 1.611572 0.007200 -0.002166 233679.000000 1 0 0
-17.205718 -7.422444 5.576288 19.550560 0.407274 1.281556 0.019815 -0.008290 205844.000000 1 0 0
-3.716518 -14.595744 -4.352412 15.677747 1.321465 1.852109 -0.005486 -0.006543 -2943080.000000 1 0 0
-2.983118 -15.070444 -10.894012 18.833395 1.375378 2.187613 0.000925 -0.001642 -278908.000000 1 0 0
-0.136118 -16.672944 6.384188 17.853948 1.562632 1.205123 0.025900 -0.013181 -528599.000000 1 0 0
-11.132118 -11.599244 3.837388 16.528523 0.805945 1.336491 0.005502 -0.001104 -227398.000000 1 0 0
-0.315018 -14.767644 -0.130912 14.771584 1.549468 1.579659 0.001702 -0.001726 876311.000000 1 0 0
-7.388118 -9.588144 -2.532012 12.366402 0.914274 1.777004 0.004134 -0.004290 -849652.000000 1 0 0
-11.209318 -14.519244 -0.712912 18.356621 0.913343 1.609643 0.003991 -0.002714 220089.000000 1 0 0
0.183882 -14.779544 -10.699112 18.246636 -1.558355 2.197355 -0.008370 0.012101 -693911.000000 1 0 0
-1.476218 -14.093144 -3.873612 14.690160 1.466430 1.837639 -0.002791 -0.001656 -3594710.000000 1 0 0
-11.396618 -8.085144 -7.621012 15.916416 0.617029 2.070100 0.008055 -0.005912 392083.000000 1 0 0
-0.266618 -17.315144 -0.203412 17.318392 1.555400 1.582542 0.007218 -0.007311 -673001.000000 1 0 0
-12.857618 -9.539044 4.532388 16.638938 0.638296 1.294914 0.011229 -0.001968 129716.000000 1 0 0
3.892082 -16.686244 1.579488 17.206796 -1.341643 1.478872 0.015127 -0.012478 2614910.000000 1 0 0
-3.700218 -17.982844 -8.159312 20.091010 1.367865 1.988998 0.006324 -0.009572 94846.200000 1 0 0
-13.346618 -11.237644 2.689588 17.653633 0.699822 1.417847 -0.004685 0.000779 -1026100.000000 1 0 0
-8.553318 -12.213744 4.254288 15.505927 0.959867 1.292867 0.003299 -0.001302 2118470.000000 1 0 0
-8.323518 -9.565744 -5.888812 13.980791 0.854727 2.005572 0.010926 -0.008195 -376209.000000 1 0 0
3.828882 -17.716244 -4.904112 18.777006 -1.357947 1.835037 -0.004084 0.005614 274821.000000 1 0 0
-2.667418 -13.006444 11.358588 17.472843 1.368517 0.863118 0.008217 -0.009180 -699668.000000 1 0 0
-0.112618 -16.891244 -9.519212 19.389229 1.564129 2.083980 -0.011380 0.009085 -44338.700000 1 0 0
-6.982018 -10.659044 -14.449712 19.265461 0.990892 2.418907 0.009423 -0.004323 -1056160.000000 1 0 0
-4.553118 -18.868244 -1.561512 19.472541 1.334012 1.651073 0.009134 -0.014505 -427614.000000 1 0 0
-2.577518 -17.237844 1.103888 17.464405 1.422369 1.507546 0.008735 -0.010349 -217985.000000 1 0 0
3.983682 -14.705544 -7.435412 16.953115 -1.306249 2.024822 -0.008602 0.006270 -928079.000000 1 0 0
-1.017718 -15.937044 -6.137912 17.108451 1.507024 1.937741 -0.007397 -0.000241 -378612.000000 1 0 0
-9.615218 -15.131044 8.328188 19.767641 1.004708 1.135914 0.004337 -0.011816 -585479.000000 1 0 0
-7.217618 -12.000844 -1.853212 14.126170 1.029329 1.702366 0.001761 -0.001355 995692.000000 1 0 0
-7.346418 -14.879644 -9.295112 19.020326 1.112183 2.081388 0.012278 -0.017361 -709290.000000 1 0 0
-5.125818 -13.305044 -0.536812 14.268370 1.203067 1.608428 0.002524 -0.002563 1609310.000000 1 0 0
-6.453418 -13.747744 -7.199812 16.807272 1.131913 2.013490 0.003028 -0.013919 742337.000000 1 0 0
5.670882 -15.346044 0.242788 16.362119 -1.216827 1.555957 0.012029 0.000942 154883.000000 1 0 0
-14.183318 -12.870544 0.972888 19.177172 0.736912 1.520043 -0.023638 -0.001634 743788.000000 1 0 0
0.801282 -15.360244 11.295488 19.083166 -1.518678 0.937372 0.023133 -0.004076 460476.000000 1 0 0
-9.277118 -10.956444 1.962888 14.490049 0.868205 1.434914 0.001112 -0.000652 -45081.600000 1 0 0
-9.513918 -8.849344 -3.530612 13.464426 0.749224 1.836116 0.006712 -0.005211 -1261940.000000 1 0 0
-12.098318 -7.436744 -12.247312 18.752896 0.551153 2.282453 0.010251 -0.004426 -1315700.000000 1 0 0
-13.218618 -8.455544 -0.581212 15.702417 0.569079 1.607819 -0.004110 0.001556 -866555.000000 1 0 0
-11.053618 -9.589444 0.696088 14.650067 0.714589 1.523264 -0.007293 0.001146 463148.000000 1 0 0
-15.772318 -12.352544 2.887988 20.240846 0.664400 1.427627 0.008793 0.003713 -114371.000000 1 0 0
-10.548918 -12.560544 -2.281712 16.560591 0.872227 1.709016 0.005359 -0.005904 617037.000000 1 0 0
-3.386818 -8.888144 -11.974512 15.292436 1.206733 2.470327 -0.002219 -0.000750 1345640.000000 1 0 0
-0.338718 -15.439944 3.967888 15.945242 1.548862 1.319309 0.014942 -0.010548 -659341.000000 1 0 0
-15.727818 -7.895044 1.174688 17.637343 0.465230 1.504145 -0.002182 0.000802 235379.000000 1 0 0
-6.205018 -13.373844 -13.102112 19.723775 1.136389 2.297327 0.013549 -0.007818 -223812.000000 1 0 0
-15.305718 -10.476144 1.151688 18.583353 0.600220 1.508782 0.001568 0.000268 -27669.200000 1 0 0
-9.775818 -8.500744 -12.334112 17.887414 0.715746 2.331652 0.007686 -0.009464 71276.000000 1 0 0
-13.320618 -11.768844 -6.174212 18.816627 0.723627 1.905115 0.008323 -0.007841 -318450.000000 1 0 0
-12.238518 -11.384444 -3.769512 17.134647 0.749260 1.792604 -0.000732 -0.003200 -2229870.000000 1 0 0
-11.505318 -10.933444 -8.580012 18.042427 0.759918 2.066381 0.005902 -0.023590 243318.000000 1 0 0
-13.193918 -8.401844 -5.829512 16.692923 0.567037 1.927535 0.002112 -0.005264 -476248.000000 1 0 0
-13.438018 -8.212244 -3.203612 16.071230 0.548556 1.771479 0.002811 -0.002921 126739.000000 1 0 0
-4.354718 -16.949044 -3.278812 17.804052 1.319306 1.756015 -0.003018 -0.013557 -149230.000000 1 0 0
-15.382218 -8.979544 -1.760212 17.898134 0.528394 1.669302 0.003059 0.002519 -2681070.000000 1 0 0
-9.376418 -15.681944 3.601688 18.622909 1.031914 1.376169 0.003723 -0.002310 -1350790.000000 1 0 0
4.668882 -16.527644 7.913988 18.910121 -1.295481 1.138997 0.045707 -0.050746 -47342.000000 1 0 0
-8.415818 -15.372244 6.004488 18.525274 1.069899 1.240711 -0.000685 -0.000746 375322.000000 1 0 0
0.806982 -15.941344 8.737188 18.196597 -1.520218 1.069965 0.019101 -0.013680 430160.000000 1 0 0
-10.869018 -7.845444 -10.144312 16.810521 0.625219 2.218617 0.009047 -0.006225 905077.000000 1 0 0
-4.912018 -15.798244 5.786888 17.527137 1.269350 1.234315 -0.002493 -0.006577 -1636020.000000 1 0 0
-1.476918 -13.318344 -12.091212 18.048739 1.460354 2.304897 -0.004190 0.005255 -897561.000000 1 0 0
-6.504818 -14.377844 -2.533412 15.982905 1.145932 1.729975 0.004664 -0.006336 357595.000000 1 0 0
-17.619218 -6.946544 -7.166812 20.249803 0.375548 1.932555 0.016726 -0.002932 92598.900000 1 0 0
-17.139618 -4.152044 -10.227712 20.386566 0.237670 2.096346 0.011197 -0.003691 241475.000000 1 0 0
-15.161118 -5.314944 -8.904512 18.368410 0.337177 2.076900 0.001082 -0.006153 -84674.200000 1 0 0
-16.123118 -5.345044 -5.714912 17.921625 0.320113 1.895348 0.012072 -0.000475 -103229.000000 1 0 0
-15.062318 -4.469744 -12.325212 19.969048 0.288473 2.235995 0.007181 0.000839 -1207940.000000 1 0 0
-18.715718 -5.198844 -5.598512 20.215079 0.270949 1.851412 0.016202 -0.000347 -479334.000000 1 0 0
-17.451218 -4.376244 -7.760712 19.594009 0.245703 1.978035 0.009789 -0.001668 374136.000000 1 0 0
12.145482 -7.892844 8.757688 16.926512 -0.576276 1.026993 0.009793 -0.010571 149380.000000 1 0 0
15.911082 -3.422644 1.806388 16.374983 -0.211882 1.460257 0.011854 -0.007457 990513.000000 1 0 0
11.972982 -2.195944 12.454788 17.415402 -0.181392 0.773944 0.017536 -0.004121 1108290.000000 1 0 0
9.620682 -10.075244 5.289488 14.901233 -0.808473 1.207915 0.006965 -0.006537 126399.000000 1 0 0
16.948482 -2.113944 7.202188 18.536216 -0.124087 1.171742 0.039277 -0.006890 -354466.000000 1 0 0
5.133382 -12.972844 9.174988 16.698105 -1.194001 0.989075 0.004924 0.001397 -193999.000000 1 0 0
15.069782 -8.976244 -2.267212 17.686479 -0.537211 1.699339 0.009799 -0.005658 111335.000000 1 0 0
11.076482 -8.653244 6.473288 15.474836 -0.663189 1.139212 0.009526 -0.009120 -2100970.000000 1 0 0
19.967882 -3.258144 3.541388 20.539553 -0.161744 1.397512 0.036850 -0.011604 46842.700000 1 0 0
13.549982 -8.610944 6.820688 17.443399 -0.566111 1.169059 0.014273 -0.010923 -1327030.000000 1 0 0
8.273382 -11.169144 8.688788 16.391878 -0.933251 1.012117 0.001870 -0.001757 -1161090.000000 1 0 0
16.888482 -0.123544 -0.745812 16.905393 -0.007315 1.614927 0.013950 0.000039 -2071710.000000 1 0 0
12.372482 -12.441744 2.380488 17.707118 -0.788189 1.435951 0.013021 -0.002317 -1096450.000000 1 0 0
10.341782 -11.571344 3.548588 15.919828 -0.841450 1.346004 0.010520 -0.006447 -296121.000000 1 0 0
16.192982 2.969956 2.303388 16.623444 0.181394 1.431786 0.007459 0.000048 -27814.800000 1 0 0
18.314482 -3.297344 0.585488 18.618150 -0.178132 1.539344 0.019608 -0.012632 377194.000000 1 0 0
13.493882 -11.733744 -0.203112 17.883145 -0.715741 1.582154 0.023068 0.003383 -396843.000000 1 0 0
16.915582 -7.612444 -0.863812 18.569663 -0.422875 1.617330 0.020763 -0.006757 306226.000000 1 0 0
10.148182 -5.885844 9.774688 15.270013 -0.525576 0.876138 0.004422 -0.003915 -1128060.000000 1 0 0
11.282982 -13.275444 6.004888 18.428288 -0.866352 1.238884 0.014028 -0.004323 -1462900.000000 1 0 0
13.091382 -1.903944 10.237188 16.727501 -0.144422 0.912213 0.024352 -0.005704 382832.000000 1 0 0
15.587482 -2.143744 -1.478612 15.803529 -0.136672 1.664496 0.011633 -0.003984 -448486.000000 1 0 0
10.522982 -12.470844 8.908188 18.590614 -0.869909 1.071080 0.011612 -0.011080 178019.000000 1 0 0
14.498582 1.136856 3.314788 14.916070 0.078251 1.346696 0.010651 0.001093 1036240.000000 1 0 0
14.813882 -6.041644 5.253488 16.838993 -0.387244 1.253516 0.020681 -0.010480 -851121.000000 1 0 0
14.406782 -3.439344 -3.106112 15.133816 -0.234345 1.777508 0.014934 -0.003252 1028820.000000 1 0 0
14.044982 0.518456 9.595988 17.018029 0.036897 0.971730 0.030892 -0.003772 419875.000000 1 0 0
15.399782 -3.613644 4.457388 16.434111 -0.230486 1.296128 0.016924 -0.004758 -643890.000000 1 0 0
18.154382 4.994356 -4.267512 19.306393 0.268464 1.793678 -0.023223 -0.001102 226493.000000 1 0 0
18.327582 -5.756044 -5.191712 19.899401 -0.304310 1.834749 0.051710 -0.011114 738839.000000 1 0 0
17.341182 -0.050044 5.886888 18.313234 -0.002886 1.243530 0.037545 -0.001436 870031.000000 1 0 0
16.944582 -6.706144 3.935688 18.643521 -0.376854 1.358094 0.026226 -0.011480 -133196.000000 1 0 0
9.504682 -6.791844 14.358688 18.510539 -0.620444 0.682967 -0.001590 0.003058 -1174170.000000 1 0 0
8.540082 -12.325744 5.088888 15.835206 -0.964875 1.243625 0.005143 -0.007229 -1887030.000000 1 0 0
16.892782 -10.198044 -0.834512 19.750002 -0.543130 1.613063 0.024490 -0.002141 -356279.000000 1 0 0
15.017682 -8.841944 0.281588 17.429574 -0.532120 1.554640 0.027280 -0.007723 19104.900000 1 0 0
9.932982 -12.903244 1.468888 16.349785 -0.914740 1.480834 0.017041 -0.004573 -275454.000000 1 0 0
16.761282 -8.244644 8.853388 20.671169 -0.457136 1.128190 0.032773 -0.005721 454095.000000 1 0 0
19.167882 -0.228244 -2.038412 19.277316 -0.011907 1.676736 0.025918 -0.001172 573180.000000 1 0 0
13.421182 -1.336344 7.741688 15.551452 -0.099243 1.049723 0.019318 -0.005887 264017.000000 1 0 0
12.722282 -9.779444 -3.099912 16.343300 -0.655354 1.761627 0.012057 -0.002811 386492.000000 1 0 0
8.768982 -15.255544 1.376288 17.649953 -1.049108 1.492740 0.019170 0.006336 -701501.000000 1 0 0
11.284382 -8.439144 11.190088 17.993735 -0.642130 0.899645 0.006633 -0.007298 473393.000000 1 0 0
13.836082 -3.965444 -0.557512 14.403914 -0.279120 1.609512 0.011208 -0.006333 -78447.300000 1 0 0
7.212782 -13.297444 10.716888 18.539092 -1.073792 0.954435 0.012562 0.001176 -948436.000000 1 0 0
15.334182 -6.780044 1.864988 16.869627 -0.416309 1.460017 0.014729 -0.009016 -463647.000000 1 0 0
15.821982 -6.123644 -2.587612 17.161872 -0.369279 1.722150 0.014316 -0.007320 -105447.000000 1 0 0
11.255282 -8.597844 3.819688 14.669503 -0.652334 1.307378 0.009931 -0.007474 852597.000000 1 0 0
10.740482 -14.463844 -0.417912 18.020416 -0.932065 1.593989 0.035040 0.001641 730372.000000 1 0 0
13.498982 -12.877644 4.784888 19.260098 -0.761846 1.319732 0.016380 -0.000183 -209892.000000 1 0 0
12.753582 -11.138244 6.478288 18.129604 -0.717890 1.205387 0.008608 -0.008691 -237328.000000 1 0 0
10.945282 -10.533744 1.329388 15.248811 -0.766241 1.483506 0.008874 -0.004738 631831.000000 1 0 0
13.747782 -7.719444 11.950888 19.784212 -0.511633 0.922208 0.020477 -0.014069 499957.000000 1 0 0
15.365082 -1.816344 -4.967412 16.249924 -0.117666 1.881458 0.019071 -0.001970 -8489.120000 1 0 0
12.786382 -11.432444 -7.185612 18.596380 -0.729552 1.967520 0.027784 0.000892 639172.000000 1 0 0
17.641382 -5.384944 1.916988 18.544293 -0.296262 1.467238 0.028105 -0.010120 922281.000000 1 0 0
10.516182 -9.894344 9.096088 17.065373 -0.754941 1.008637 -0.001935 -0.005415 -1097300.000000 1 0 0
16.334282 1.754156 9.956888 19.210035 0.106981 1.025915 0.045311 -0.003261 -162780.000000 1 0 0
18.055682 3.597856 0.507188 18.417640 0.196688 1.543255 -0.002800 0.002822 172315.000000 1 0 0
13.241682 -4.216144 5.756388 15.041742 -0.308250 1.178086 0.017838 -0.010433 -1406870.000000 1 0 0
11.968582 -6.258744 6.608288 15.036233 -0.481824 1.115764 0.012876 -0.012289 -272028.000000 1 0 0
16.538182 -10.288544 3.527588 19.794178 -0.556517 1.391626 0.016780 -0.001929 -620684.000000 1 0 0
16.206982 -8.058144 -5.613212 18.950148 -0.461407 1.871518 0.018747 -0.005075 152536.000000 1 0 0
13.974582 -0.515544 5.363088 14.977231 -0.036875 1.204583 0.014031 -0.000951 260869.000000 1 0 0
18.221382 -4.325944 5.109688 19.412405 -0.233095 1.304440 0.036328 -0.003115 -184968.000000 1 0 0
13.398182 -13.502544 7.320388 20.381807 -0.789278 1.203426 0.004825 0.004231 -279410.000000 1 0 0
14.990682 -13.608544 -0.948012 20.268492 -0.737108 1.617586 0.023170 0.007373 396421.000000 1 0 0
17.736582 -6.005244 7.940888 20.339789 -0.326465 1.169718 0.046297 -0.007768 -558117.000000 1 0 0
14.363882 3.246556 9.160888 17.343099 0.222287 1.014299 0.026772 -0.009132 216809.000000 1 0 0
18.605482 3.790256 3.051288 19.231234 0.200967 1.411460 0.019503 -0.000398 -465859.000000 1 0 0
14.665682 -10.513944 8.213388 19.826371 -0.621984 1.143660 0.009125 -0.004519 -490896.000000 1 0 0
14.656882 -5.096044 10.412488 18.687262 -0.334615 0.979790 0.029191 -0.013531 79137.400000 1 0 0
17.762082 -7.988044 1.870688 19.565272 -0.422625 1.475037 0.035104 -0.010982 -53971.300000 1 0 0
18.462382 -5.772844 -1.895012 19.436469 -0.303050 1.668449 0.024446 -0.012856 1187710.000000 1 0 0
14.193682 -12.986944 -5.478212 20.003303 -0.741030 1.848206 0.026925 0.002263 -239455.000000 1 0 0
15.482482 -1.614644 9.324088 18.145328 -0.103913 1.031123 0.043611 -0.010268 446615.000000 1 0 0
12.892082 -10.030944 10.193888 19.254635 -0.661225 1.012874 0.002326 -0.012279 -570851.000000 1 0 0
16.637682 2.078956 4.692688 17.411371 0.124310 1.297903 0.023674 -0.004251 -973885.000000 1 0 0
14.990582 2.421056 -0.102412 15.185175 0.160122 1.577541 0.004889 0.002217 -1474720.000000 1 0 0
15.081782 -9.907344 -7.006512 19.357346 -0.581216 1.941162 0.027623 -0.004987 1346390.000000 1 0 0
15.923682 -0.040344 -3.258312 16.253672 -0.002534 1.772630 0.002943 0.000765 50771.500000 1 0 0
12.009182 2.388256 13.522288 18.242162 0.196308 0.735842 0.038312 -0.007843 -244376.000000 1 0 0
17.663882 -3.245044 9.500188 20.317397 -0.181685 1.084235 0.045476 -0.008190 1289080.000000 1 0 0
7.776182 -17.981844 4.454988 20.091358 -1.162636 1.347201 0.034929 -0.015692 -609802.000000 1 0 0
6.734082 -11.228944 6.548588 14.639708 -1.030592 1.107033 0.001416 -0.007133 7455.500000 1 0 0
18.015782 2.185556 -1.608612 18.219020 0.120723 1.659204 0.010849 0.003100 369862.000000 1 0 0
17.543482 -2.325444 3.523688 18.044329 -0.131785 1.374254 0.017309 -0.003989 -548274.000000 1 0 0
12.586882 -13.407544 -2.023412 18.500974 -0.816958 1.680383 0.028559 0.007214 1009060.000000 1 0 0
14.964782 -8.398244 4.323688 17.696595 -0.511402 1.323975 0.019719 -0.006380 344221.000000 1 0 0
11.651582 -3.265444 14.816588 19.129918 -0.273248 0.684833 0.015853 -0.003651 422103.000000 1 0 0
11.931882 -13.690444 -6.505412 19.290372 -0.853925 1.914776 0.025373 -0.002412 -2608.380000 1 0 0
10.707982 -11.973644 -1.310612 16.116660 -0.841142 1.652207 0.021877 -0.004241 -1434200.000000 1 0 0
13.085682 -8.168544 1.955988 15.549472 -0.558049 1.444671 0.019060 -0.003584 -1071150.000000 1 0 0
8.637082 -7.961944 9.933988 15.384273 -0.744747 0.868826 -0.004825 -0.000915 -1767410.000000 1 0 0
15.491682 -3.904944 8.028788 17.880219 -0.246923 1.105115 0.035035 -0.013764 -826385.000000 1 0 0
10.123682 -17.219144 5.447788 20.704257 -1.039298 1.304537 0.021167 -0.010215 184950.000000 1 0 0
15.123982 -6.419144 8.165688 18.347171 -0.401392 1.109549 0.026566 -0.009853 -1122560.000000 1 0 0
16.594482 -4.972744 -0.340012 17.326876 -0.291147 1.590421 0.019356 -0.010744 -361881.000000 1 0 0
13.997382 -10.639344 3.470288 17.921084 -0.649931 1.375922 0.019774 -0.004427 -239360.000000 1 0 0
14.910782 -9.963544 -4.553512 18.502381 -0.589071 1.819455 0.025446 -0.004702 514470.000000 1 0 0
13.542182 -6.669344 -0.081812 15.095613 -0.457619 1.576216 0.012403 -0.005579 259230.000000 1 0 0
17.804082 -0.859144 -4.962212 18.502622 -0.048218 1.842310 0.022443 -0.003672 47016.500000 1 0 0
14.417882 0.252356 -1.428112 14.490635 0.017501 1.669511 0.009648 0.000457 -2420370.000000 1 0 0
4.858482 -12.885944 11.776588 18.120167 -1.210241 0.863322 -0.000348 0.006162 -697011.000000 1 0 0
11.809282 -7.644044 13.581788 19.553913 -0.574469 0.802958 0.007531 -0.007093 -696859.000000 1 0 0
12.003682 -5.857244 11.631488 17.711217 -0.453964 0.854322 0.009990 -0.003645 796173.000000 1 0 0
13.171282 -4.809744 8.324088 16.306647 -0.350124 1.035063 0.018287 -0.011900 -490459.000000 1 0 0
15.346282 -1.270844 3.242588 15.736511 -0.082623 1.363255 0.013476 -0.001493 30782.000000 1 0 0
15.136382 -10.419644 5.790888 19.266900 -0.602887 1.265515 0.019504 -0.005917 -551639.000000 1 0 0
13.618482 -7.970644 -5.831412 16.822591 -0.529527 1.924785 0.020514 -0.000377 -1720530.000000 1 0 0
9.521082 -2.209944 13.515388 16.679345 -0.228072 0.626121 0.001234 -0.002022 -1431660.000000 1 0 0
9.790382 -9.278544 13.608988 19.161094 -0.758563 0.780956 0.008930 -0.002498 -561844.000000 1 0 0
20.265482 6.072956 -3.275012 21.407855 0.291154 1.724381 0.016747 -0.002002 98210.300000 1 0 0
11.124482 -3.664244 10.548888 15.762608 -0.318193 0.837618 0.007110 -0.003909 938940.000000 1 0 0
10.089982 -14.004244 -2.903412 17.503040 -0.946448 1.737447 0.018329 0.004795 1385870.000000 1 0 0
14.925782 -12.868044 2.678788 19.888224 -0.711497 1.435694 0.016758 0.007383 52009.100000 1 0 0
11.263482 -0.634844 14.496788 18.369157 -0.056303 0.661304 0.023768 -0.001804 469222.000000 1 0 0
19.019582 -2.001044 5.721788 19.962152 -0.104824 1.280087 0.041158 0.000967 224924.000000 1 0 0
18.943882 -0.563744 7.990888 20.568003 -0.029750 1.171782 0.052332 -0.000873 404628.000000 1 0 0
19.081682 0.788256 0.221788 19.099244 0.041286 1.559184 0.024550 -0.005679 305626.000000 1 0 0
18.578982 0.672756 3.615388 18.939435 0.036195 1.378725 0.027958 -0.001541 329809.000000 1 0 0
16.741082 -3.975044 -4.226512 17.718019 -0.233125 1.811662 0.020824 -0.007318 -783259.000000 1 0 0
10.775382 -8.497344 15.840988 20.958307 -0.667744 0.713870 0.013576 -0.005331 312048.000000 1 0 0
16.514182 -7.629744 6.358588 19.270777 -0.432798 1.234535 0.027575 -0.007461 433462.000000 1 0 0
18.986282 2.023456 5.779488 19.949330 0.106174 1.276874 0.044456 -0.001813 712925.000000 1 0 0
15.500682 1.589656 7.598888 17.336125 0.102197 1.117060 0.037356 -0.003014 579592.000000 1 0 0
8.759282 -15.547944 3.903788 18.267544 -1.057744 1.355435 0.015239 -0.013382 906021.000000 1 0 0
11.220082 -15.089944 1.982288 18.908361 -0.931438 1.465767 0.022575 0.003745 40711.200000 1 0 0
7.900682 -16.054344 6.144388 18.918675 -1.113472 1.240018 0.016309 -0.011683 -416082.000000 1 0 0
14.521582 -11.629544 -2.581912 18.782676 -0.675256 1.708695 0.016374 0.001328 463441.000000 1 0 0
13.660482 -4.978744 3.211988 14.890048 -0.349501 1.353374 0.014359 -0.004888 -2231530.000000 1 0 0
-0.971418 10.303956 -5.652812 11.792771 -1.476798 2.070705 0.001565 0.000530 -709136.000000 1 0 0
8.237682 -1.723844 -7.998912 11.610927 -0.206286 2.330784 0.001308 0.000227 -1378720.000000 1 0 0
2.928482 -10.169244 7.737488 13.109472 -1.290408 0.939464 -0.002637 -0.000282 457509.000000 1 0 0
-6.286818 1.286456 8.358088 10.537395 -0.201841 0.654777 0.001057 -0.004333 -415597.000000 1 0 0
7.478482 -6.215944 -7.334312 12.180221 -0.693465 2.216987 -0.005177 0.001123 -204907.000000 1 0 0
-11.421618 -4.573744 -4.114512 12.973115 0.380891 1.893526 0.003909 -0.003656 114517.000000 1 0 0
2.082382 -3.154244 2.906588 4.768000 -0.987295 0.915236 -0.000145 0.000899 1783800.000000 1 0 0
-3.574818 -4.225844 8.936788 10.512053 0.868663 0.554532 0.000509 -0.003623 -2926470.000000 1 0 0
-4.868518 -1.087644 -2.502612 5.581085 0.219794 2.035782 0.004725 0.000046 -507200.000000 1 0 0
4.977582 -5.193344 -3.692712 8.085992 -0.806609 2.045056 0.001705 -0.001740 832.559000 1 0 0
2.789282 14.347456 -8.834412 17.078537 1.378782 2.114468 0.008666 -0.005955 605860.000000 1 0 0
5.449982 -5.623144 13.747888 15.821709 -0.801035 0.517769 -0.005655 0.003163 -1638240.000000 1 0 0
-4.643018 -0.941744 9.949388 11.019747 0.200115 0.444399 0.004948 -0.005872 -2076060.000000 1 0 0
-0.945718 12.052156 -2.728312 12.393245 -1.492488 1.792760 0.000908 -0.000486 142787.000000 1 0 0
3.149982 9.508656 -10.483212 14.499471 1.250899 2.378941 0.004350 -0.003553 -463229.000000 1 0 0
-10.656218 2.743256 1.124488 11.060963 -0.251962 1.468958 -0.001115 -0.000446 -84873.300000 1 0 0
5.637982 -9.044444 -0.753312 10.684395 -1.013374 1.641361 0.001513 -0.002620 600132.000000 1 0 0
-6.972718 5.444056 9.444488 12.940436 -0.662902 0.752704 -0.002084 -0.001673 151780.000000 1 0 0
-5.522318 -1.788044 5.182388 7.781404 0.313133 0.841967 0.002376 -0.004842 602405.000000 1 0 0
6.602782 -3.764544 -7.389412 10.600563 -0.518178 2.342109 -0.002413 -0.000785 447253.000000 1 0 0
6.248482 4.585656 11.117788 13.552748 0.633106 0.608800 0.004327 -0.002639 621823.000000 1 0 0
3.748982 -9.762544 3.461188 11.015533 -1.204144 1.251172 -0.002766 -0.000290 797270.000000 1 0 0
-6.590618 6.683656 -5.796412 11.032039 -0.792407 2.124001 -0.002094 -0.002420 638654.000000 1 0 0
-10.993918 8.449456 5.178788 14.801330 -0.655272 1.213346 -0.004586 -0.002883 21787.600000 1 0 0
-9.217318 -5.436844 5.099388 11.854197 0.532924 1.126109 0.002066 -0.003013 -1015660.000000 1 0 0
3.308882 9.788056 -8.071812 13.111403 1.244804 2.233985 0.003501 -0.004559 666837.000000 1 0 0
-8.138218 -8.531444 5.995988 13.227547 0.808983 1.100337 0.004730 -0.002695 -1512670.000000 1 0 0
-7.755718 -5.696044 -7.516712 12.210530 0.633463 2.233934 0.007479 -0.003415 -765442.000000 1 0 0
9.262082 -1.645244 6.904388 11.668914 -0.175799 0.937642 0.003794 -0.004489 2869990.000000 1 0 0
-4.070818 -0.439844 -4.945812 6.420754 0.107631 2.450085 0.010203 -0.005657 -804752.000000 1 0 0
9.052282 1.153156 -4.423612 10.141100 0.126706 2.022175 0.000653 0.002959 -2771050.000000 1 0 0
-1.899718 -10.630844 10.678088 15.187012 1.393964 0.791039 -0.003740 -0.005097 153663.000000 1 0 0
-12.869618 0.236156 -2.677512 13.147316 -0.018348 1.775886 0.003421 -0.003886 -670977.000000 1 0 0
-9.821518 -5.001544 -6.127312 12.610377 0.471015 2.078183 0.006275 -0.006757 -1581790.000000 1 0 0
-5.537518 8.212156 -0.266012 9.908298 -0.977523 1.597647 -0.005766 0.003612 -8369.990000 1 0 0
6.418882 9.630256 0.404488 11.580478 0.982886 1.535861 0.004495 -0.000381 357526.000000 1 0 0
-0.673518 -12.212644 -0.023412 12.231225 1.515703 1.572710 0.007246 -0.000274 -86408.000000 1 0 0
6.174882 4.786656 2.378088 8.166795 0.659424 1.275326 -0.000436 0.000794 278805.000000 1 0 0
3.440482 -7.464744 -8.261512 11.653836 -1.138917 2.358747 -0.006067 0.000737 596835.000000 1 0 0
-6.570718 -9.909244 4.540188 12.727167 0.985274 1.206029 0.004579 -0.001072 -2391940.000000 1 0 0
-0.044318 6.468156 -9.123412 11.183722 -1.563945 2.524866 0.001725 -0.001955 -2333740.000000 1 0 0
-17.246618 -2.860644 4.122888 17.961830 0.164370 1.339195 0.008045 -0.003796 706169.000000 1 0 0
-8.321618 0.956756 -9.232412 12.466040 -0.114470 2.404767 0.002090 -0.001392 383191.000000 1 0 0
-9.982118 -5.903544 -11.917112 16.628652 0.534081 2.369800 0.008321 0.002163 -911252.000000 1 0 0
2.266382 9.551456 6.560188 11.806899 1.337824 0.981684 -0.004565 0.007050 -467295.000000 1 0 0
-11.308318 1.652956 -1.220012 11.493422 -0.145144 1.677145 0.001446 -0.000921 -1385280.000000 1 0 0
-6.030918 -5.361044 -3.142212 8.659461 0.726663 1.942137 0.008598 -0.004412 619501.000000 1 0 0
-6.992618 -8.197544 1.278288 10.850367 0.864555 1.452712 0.004664 -0.000602 -268578.000000 1 0 0
0.077182 11.237556 -7.853112 13.709850 1.563928 2.180724 0.004458 -0.000564 616335.000000 1 0 0
-2.855918 9.316756 -4.236312 10.625655 -1.273354 1.980881 -0.001246 0.000367 79422.400000 1 0 0
3.441582 -4.771844 9.382288 11.074399 -0.945966 0.560094 -0.005212 0.002344 -1090900.000000 1 0 0
-8.923418 1.602256 -0.409012 9.075346 -0.177663 1.615880 0.000715 -0.000286 -1816750.000000 1 0 0
2.405482 3.517156 -10.393512 11.233068 0.970938 2.752518 0.003002 -0.003499 -1304460.000000 1 0 0
-13.757318 0.478156 1.048488 13.805498 -0.034742 1.494776 0.004467 -0.001626 -213394.000000 1 0 0
9.378382 -12.611144 -5.062412 16.511300 -0.931366 1.882418 0.018943 0.001876 -1180480.000000 1 0 0
-4.608218 9.480956 -8.305812 13.420533 -1.118371 2.238123 -0.001755 0.000096 57134.400000 1 0 0
-2.373318 7.175556 8.458288 11.343010 -1.251372 0.729237 0.001661 -0.000209 -823051.000000 1 0 0
-10.730618 -1.156044 -4.401612 11.655762 0.107319 1.958036 0.001360 -0.001594 -2994990.000000 1 0 0
2.716882 -7.145844 9.581988 12.258019 -1.207471 0.673423 -0.006186 0.004701 -582937.000000 1 0 0
-16.142718 -6.607844 3.346288 17.760873 0.388531 1.381256 0.008034 -0.001519 -937285.000000 1 0 0
-10.763918 0.212356 6.195088 12.421197 -0.019726 1.048639 0.001334 -0.002671 -1135250.000000 1 0 0
-8.399218 9.924756 9.362688 16.022096 -0.868460 0.946704 -0.002090 -0.005955 -947435.000000 1 0 0
0.131282 -5.881544 -3.796712 7.001773 -1.548479 2.143909 0.003187 -0.000876 453679.000000 1 0 0
5.048682 1.434756 -2.963512 6.027447 0.276884 2.084802 -0.003147 0.002116 1355020.000000 1 0 0
0.338182 5.400456 3.804088 6.614406 1.508257 0.958044 -0.001426 0.004758 695395.000000 1 0 0
6.044082 -11.221344 -1.628212 12.849147 -1.076729 1.697855 0.002030 -0.002415 -1616960.000000 1 0 0
6.250182 -13.570144 5.229588 15.829156 -1.139176 1.234093 0.007365 -0.007209 42551.000000 1 0 0
8.221382 -8.294244 -6.066912 13.160282 -0.789810 2.049920 0.001072 -0.001560 603514.000000 1 0 0
-13.158018 -1.369944 -4.552212 13.990455 0.103741 1.902210 0.002763 -0.000822 -2846010.000000 1 0 0
-6.845518 -1.637344 -7.226712 10.087982 0.234774 2.369380 0.007283 -0.003554 75299.400000 1 0 0
-5.631018 13.041956 -4.565412 14.921259 -1.163212 1.881750 -0.002268 0.001062 -26651.100000 1 0 0
-4.215718 6.878156 -6.688512 10.479384 -1.020935 2.263025 0.000406 -0.001172 -1879690.000000 1 0 0
-9.329318 -3.728344 -8.208912 12.973934 0.380194 2.255861 0.007835 -0.000673 537433.000000 1 0 0
-2.056118 -6.285944 9.120088 11.265732 1.254668 0.627424 -0.001201 0.000530 -326224.000000 1 0 0
7.485382 -6.060544 10.026588 13.903007 -0.680598 0.765290 -0.004825 0.003824 314510.000000 1 0 0
9.581282 -5.108144 12.234288 16.357625 -0.489805 0.725865 0.001271 0.003631 -934240.000000 1 0 0
-6.471018 2.853756 -9.087312 11.515087 -0.415349 2.480246 0.002167 -0.003157 361617.000000 1 0 0
7.438082 5.553056 9.004688 12.932358 0.641303 0.800579 -0.000272 -0.003428 1766410.000000 1 0 0
12.744682 3.144556 11.046288 17.156212 0.241903 0.871257 0.031378 -0.005374 -807472.000000 1 0 0
-7.610618 -7.348344 -3.968212 11.298955 0.767867 1.929651 0.006533 -0.008115 -1190020.000000 1 0 0
2.234882 1.349856 -5.806812 6.366779 0.543351 2.719049 0.000770 -0.001578 -995846.000000 1 0 0
12.774382 7.019056 -7.052612 16.192322 0.502431 2.021449 0.004522 -0.003997 -318589.000000 1 0 0
0.776482 -7.775344 0.976588 7.874810 -1.471262 1.446462 0.002726 -0.000003 459771.000000 1 0 0
-10.115718 -6.098844 -8.588812 14.604498 0.542555 2.199496 0.006117 -0.000722 -215505.000000 1 0 0
-6.723118 0.132656 3.158688 7.429349 -0.019729 1.131654 0.002700 -0.004376 -711756.000000 1 0 0
10.671382 -7.965244 1.264088 13.376151 -0.641201 1.476152 0.004631 -0.004652 -117825.000000 1 0 0
6.207182 0.996856 10.553588 12.284179 0.159237 0.537248 0.002962 -0.000362 292976.000000 1 0 0
-12.993618 5.365256 1.915988 14.187709 -0.391590 1.435337 0.001770 0.001520 -154693.000000 1 0 0
1.978082 7.468256 3.618788 8.531311 1.311876 1.132743 -0.004354 0.005082 41832.700000 1 0 0
10.021882 -9.480544 -0.841212 13.821233 -0.757648 1.631698 0.006211 -0.003306 775340.000000 1 0 0
6.762882 -11.809544 -9.007812 16.320006 -1.050721 2.155496 -0.000907 0.005299 -1189440.000000 1 0 0
10.349182 3.450456 11.827388 16.090317 0.321814 0.745038 0.012971 -0.006316 -1456500.000000 1 0 0
-11.081418 -3.059344 -1.972112 11.663903 0.269369 1.740691 0.003787 -0.002993 753429.000000 1 0 0
12.393182 0.922256 6.893488 14.211323 0.074279 1.064353 0.009197 -0.000854 -23187.700000 1 0 0
-9.436918 9.063456 3.003588 13.424723 -0.765214 1.345151 -0.006911 -0.000719 1124380.000000 1 0 0
-6.537718 7.676856 -8.841112 13.410486 -0.865366 2.290642 -0.000264 -0.002347 -280633.000000 1 0 0
8.609482 5.379756 12.079588 15.779144 0.558502 0.698914 0.017964 -0.005952 -1580900.000000 1 0 0
1.333282 4.903156 -2.720612 5.763706 1.305293 2.062382 0.000992 0.000612 396013.000000 1 0 0
1.454482 0.528956 9.555588 9.680112 0.348803 0.160571 0.001047 -0.001704 590021.000000 1 0 0
2.668182 12.617656 -3.955712 13.489703 1.362402 1.868410 0.008336 -0.004695 360653.000000 1 0 0
2.058982 0.684756 13.015988 13.195614 0.321063 0.165188 -0.002290 -0.003661 -285254.000000 1 0 0
-12.195018 -1.738144 0.881088 12.349734 0.141576 1.499391 0.002444 -0.005254 210414.000000 1 0 0
3.362382 8.675856 -1.202512 9.382010 1.201063 1.699322 0.004403 0.000464 1004700.000000 1 0 0
3.757382 -2.868644 -5.873112 7.539263 -0.652066 2.463871 -0.002436 -0.000988 -623196.000000 1 0 0
-7.680918 -7.141244 9.194088 13.947227 0.749004 0.851035 0.005117 -0.005028 -532755.000000 1 0 0
-6.942518 10.922656 -3.512512 13.410470 -1.004606 1.835811 -0.002965 0.003029 936529.000000 1 0 0
0.387482 0.612056 2.558488 2.659063 1.006406 0.275914 -0.000709 0.000154 -2496460.000000 1 0 0
-7.088818 4.646356 -1.997712 8.708089 -0.580196 1.802267 0.001515 -0.000151 -963901.000000 1 0 0
-7.032118 -3.923644 -5.939612 10.006231 0.508934 2.206310 0.005035 -0.004514 -838748.000000 1 0 0
2.919982 -6.214244 13.434488 15.087365 -1.131529 0.472472 -0.008183 0.003249 -1247300.000000 1 0 0
-5.346418 -0.641944 -11.921012 13.080780 0.119498 2.717319 0.010082 -0.004093 -452046.000000 1 0 0
11.916982 2.471056 -0.656312 12.188163 0.204458 1.624671 -0.001683 0.001832 -1047760.000000 1 0 0
6.092282 -10.989144 10.696588 16.501339 -1.064588 0.865545 -0.003604 0.000484 -16419.900000 1 0 0
-8.050418 6.352756 -10.459812 14.648358 -0.668072 2.366077 0.000005 -0.001299 325583.000000 1 0 0
2.901882 7.869156 11.173688 13.971250 1.217502 0.643896 0.000253 0.000187 843380.000000 1 0 0
-6.283318 -10.051444 -0.469412 11.863051 1.012114 1.610376 0.006825 0.000234 -493543.000000 1 0 0
11.253682 4.145056 5.964888 13.394280 0.352909 1.109252 0.003762 -0.000925 -160338.000000 1 0 0
-7.637918 10.611156 1.566688 13.167723 -0.946904 1.451534 -0.009921 0.003034 827618.000000 1 0 0
4.364282 -2.654644 -3.583212 6.239672 -0.546475 2.182500 0.001745 -0.001102 -4890100.000000 1 0 0
6.435082 6.370856 6.394688 11.085581 0.780383 0.955932 -0.000709 0.002496 -5419910.000000 1 0 0
-0.275618 10.439556 -10.176712 14.581692 -1.544401 2.343272 -0.001917 -0.000425 -146598.000000 1 0 0
14.203482 6.504556 -2.500812 15.820942 0.429450 1.729532 0.005777 0.002865 789681.000000 1 0 0
1.441482 9.588356 -6.300412 11.563288 1.421577 2.147022 0.004150 -0.001281 -1430900.000000 1 0 0
0.689682 7.394056 7.329788 10.434247 1.477790 0.791929 -0.002354 0.003943 66252.600000 1 0 0
12.191082 6.223656 1.895788 13.818480 0.472019 1.433170 -0.000685 0.001268 -2109710.000000 1 0 0
-6.809018 6.823656 -3.146112 10.140169 -0.786472 1.886265 -0.001982 -0.001140 -82282.200000 1 0 0
1.089482 9.790956 11.218188 14.929753 1.459978 0.720618 -0.001484 0.000077 -1207700.000000 1 0 0
-3.596518 13.662356 -10.959012 17.880012 -1.313393 2.230547 0.003716 0.004180 84531.500000 1 0 0
-10.056918 -5.547144 -2.318912 11.717072 0.504052 1.770020 0.002477 -0.002101 200348.000000 1 0 0
-3.985618 3.893456 -12.521212 13.704922 -0.773702 2.722919 0.001097 -0.002969 -270074.000000 1 0 0
-3.188518 8.435356 2.415188 9.335685 -1.209403 1.309115 -0.002305 0.005044 -2582430.000000 1 0 0
7.016282 8.846556 7.138688 13.358541 0.900271 1.007009 0.003502 0.002073 -879871.000000 1 0 0
-1.351618 -2.315644 -8.187012 8.614885 1.042456 2.825101 0.004304 -0.006496 -898171.000000 1 0 0
0.825182 -1.323344 4.835788 5.081044 -1.013235 0.311969 -0.000401 -0.000134 -1328240.000000 1 0 0
2.740982 -8.789744 -6.083712 11.035585 -1.268514 2.154696 -0.005287 0.001335 173664.000000 1 0 0
5.354782 3.957756 8.811288 11.044289 0.636493 0.647136 0.000553 -0.000680 240184.000000 1 0 0
6.197082 -7.448344 -2.804012 10.086830 -0.876841 1.852495 0.000156 -0.002451 758974.000000 1 0 0
1.749782 2.170056 -8.309212 8.764353 0.892207 2.817905 0.001673 -0.004884 16146.400000 1 0 0
-5.464218 10.964056 -0.782412 12.275193 -1.108449 1.634579 -0.005516 0.003771 250223.000000 1 0 0
-5.416418 3.239956 -3.387112 7.162920 -0.539075 2.063339 0.003244 -0.000788 -329469.000000 1 0 0
2.001882 13.770856 -6.375512 15.306572 1.426437 2.000412 -0.001065 -0.004946 672700.000000 1 0 0
-5.171518 -2.613544 2.706488 6.395334 0.467937 1.133825 0.001009 -0.000846 903135.000000 1 0 0
10.360182 -3.407044 -1.875412 11.066096 -0.317719 1.741092 -0.000021 0.000602 225856.000000 1 0 0
2.310182 -3.240644 7.015488 8.065717 -0.951480 0.516018 -0.006243 0.002197 -2285020.000000 1 0 0
-2.884518 9.884356 -11.591312 15.504175 -1.286855 2.415275 -0.001459 0.000052 -2146490.000000 1 0 0
0.506382 -1.906344 9.165088 9.374935 -1.311162 0.211980 -0.000897 -0.001982 613939.000000 1 0 0
9.390882 2.539356 4.995388 10.935762 0.264091 1.096409 0.002714 -0.000694 -873294.000000 1 0 0
13.429182 2.169856 -5.206112 14.565535 0.160193 1.936308 0.009379 0.000146 -1636400.000000 1 0 0
-6.555018 3.804056 7.624688 10.750580 -0.525829 0.782384 0.000223 -0.003440 134140.000000 1 0 0
10.579082 -0.022244 1.935088 10.754628 -0.002103 1.389880 0.001382 0.004151 1142640.000000 1 0 0
15.351482 6.802756 -4.721712 17.442478 0.417129 1.844918 0.009936 0.002613 -188012.000000 1 0 0
8.003682 -4.874644 -9.351112 13.238745 -0.547048 2.355117 0.001571 0.002750 -79725.900000 1 0 0
4.512182 5.696656 -2.081412 7.559361 0.900906 1.849742 0.000061 0.000891 38106.700000 1 0 0
-1.640018 -10.608444 1.465988 10.834107 1.417415 1.435068 0.002922 -0.000160 -577488.000000 1 0 0
-2.798118 12.197956 -12.773512 17.882455 -1.345305 2.366426 0.000461 -0.002935 -681542.000000 1 0 0
8.376882 4.370456 -9.649412 13.504969 0.480879 2.366717 0.001676 -0.001240 -901137.000000 1 0 0
4.165482 7.692856 -9.036712 12.577497 1.074522 2.372414 0.003697 -0.004300 -509151.000000 1 0 0
-1.749018 -5.016944 -2.495412 5.869913 1.235349 2.009890 0.007355 -0.002465 -227659.000000 1 0 0
-3.309318 -8.899944 7.397488 12.036753 1.214803 0.908949 -0.001332 0.002208 -1326190.000000 1 0 0
1.071682 7.190756 -1.367412 7.397654 1.422849 1.756709 0.003185 -0.000145 2191010.000000 1 0 0
0.470382 -0.644544 -2.322312 2.455571 -0.940356 2.810636 0.003102 0.000564 -2085720.000000 1 0 0
4.143682 -6.703844 7.446988 10.842936 -1.017170 0.813711 -0.004617 0.003087 -1091250.000000 1 0 0
-13.925318 3.911556 6.031288 15.671349 -0.273839 1.175739 -0.000970 -0.000529 -138446.000000 1 0 0
4.267982 6.268856 12.716288 14.806019 0.973057 0.537758 0.009607 -0.003227 -1773450.000000 1 0 0
8.423882 10.139956 -7.168612 15.005648 0.877578 2.068863 0.012129 -0.008277 369899.000000 1 0 0
12.563082 5.252956 9.482788 16.593608 0.396034 0.962497 0.024540 -0.003701 -311956.000000 1 0 0
7.568882 3.984656 0.355188 8.561052 0.484585 1.529296 0.000419 0.002531 -2660640.000000 1 0 0
-10.833818 -7.554044 -0.989712 13.244423 0.608888 1.645593 0.002034 0.000564 -2287370.000000 1 0 0
10.463982 6.800556 0.179488 12.480973 0.576306 1.556415 0.002512 0.001870 -1620300.000000 1 0 0
14.649582 3.545056 4.233888 15.655781 0.237426 1.296950 0.011335 -0.000371 243048.000000 1 0 0
2.139782 5.615356 8.259288 10.214045 1.206724 0.628993 -0.003582 0.002776 -173798.000000 1 0 0
4.183282 0.044356 11.756788 12.478937 0.010603 0.341867 -0.001472 0.000134 429573.000000 1 0 0
-1.358318 -1.630944 -0.693412 2.232897 0.876348 1.886561 0.004547 -0.001779 -984236.000000 1 0 0
3.019682 -5.280244 -9.531712 11.307210 -1.051308 2.573589 -0.008524 0.001213 597181.000000 1 0 0
-4.029518 -5.294644 -1.331012 6.785416 0.920257 1.768234 0.006009 -0.004454 -1202910.000000 1 0 0
-0.967018 -8.502844 8.508188 12.067425 1.457554 0.788297 -0.002900 0.002183 -1041400.000000 1 0 0
3.900982 8.529456 -5.919712 11.091089 1.141844 2.133808 0.004472 -0.002226 812401.000000 1 0 0
-14.342618 -1.811844 -2.660212 14.699327 0.125660 1.752774 0.003558 -0.006147 -1323770.000000 1 0 0
8.837982 -10.649144 -6.661712 15.358796 -0.878073 2.019435 0.001239 0.000697 119568.000000 1 0 0
14.752582 6.003756 1.657688 16.013484 0.386495 1.467092 -0.003984 0.003017 -1962120.000000 1 0 0
-5.780018 0.417356 -8.525212 10.308348 -0.072082 2.544583 0.009209 -0.005955 -479674.000000 1 0 0
-8.055918 -4.568544 -13.140412 16.076064 0.515880 2.527662 0.006686 0.002927 532196.000000 1 0 0
0.847782 -10.639344 12.122888 16.151743 -1.491281 0.721884 -0.002211 0.001339 -574615.000000 1 0 0
0.206982 11.923556 3.351888 12.387460 1.553439 1.296793 -0.000035 0.003377 -640810.000000 1 0 0
5.059282 -13.212844 -3.777212 14.643870 -1.205112 1.831684 -0.001865 0.002613 719135.000000 1 0 0
-7.487418 1.542956 -7.006012 10.369491 -0.203228 2.312625 0.003262 -0.001005 639294.000000 1 0 0
1.526282 2.871656 4.156588 5.277610 1.082268 0.663910 -0.002270 0.002762 -1571630.000000 1 0 0
17.120482 5.360956 1.970388 18.048079 0.303460 1.461404 -0.002819 -0.001719 193353.000000 1 0 0
2.360982 -8.079844 -3.589712 9.151183 -1.286505 1.973892 -0.001373 0.001288 -2422.070000 1 0 0
-0.350118 -9.575344 -0.606212 9.600901 1.534248 1.633980 0.007481 -0.000039 -1169290.000000 1 0 0
0.816982 11.969956 -5.541512 13.215735 1.502649 2.003483 0.006281 -0.001696 -1738980.000000 1 0 0
6.014282 -4.979744 7.793488 11.032130 -0.691574 0.786347 -0.002693 0.002207 -1213450.000000 1 0 0
-5.951918 -1.877944 -9.568412 11.423945 0.305633 2.563626 0.011775 -0.005869 -187114.000000 1 0 0
2.047582 -1.309644 11.307288 11.565575 -0.569033 0.211736 -0.004617 0.000458 274101.000000 1 0 0
18.011782 2.080656 -5.848512 19.051470 0.115007 1.882820 0.016864 0.001811 -1307430.000000 1 0 0
-8.947018 4.799756 7.831388 12.822536 -0.492392 0.913787 0.000585 -0.005034 -2001060.000000 1 0 0
11.446582 -7.040244 -4.864412 14.291668 -0.551414 1.918103 0.012914 -0.002945 -375599.000000 1 0 0
10.784582 0.416256 8.961488 14.028141 0.038578 0.877830 0.008183 -0.003768 109116.000000 1 0 0
-8.475818 -7.419844 -1.534312 11.368716 0.719064 1.706169 0.005222 -0.003496 -1013920.000000 1 0 0
10.115682 -10.483244 -3.335912 14.945024 -0.803240 1.795905 0.015899 -0.002641 229485.000000 1 0 0
7.594282 -13.932644 -3.876612 16.334620 -1.071745 1.810407 0.013137 0.003832 -1898330.000000 1 0 0
1.814782 -1.183544 -11.586812 11.787639 -0.577898 2.956738 -0.003146 -0.004959 173163.000000 1 0 0
-11.861318 -2.548344 -6.322612 13.680656 0.211628 2.051222 0.004619 -0.000224 -90225.200000 1 0 0
2.594282 -12.271344 -6.458612 14.107794 -1.362454 2.046320 -0.004808 0.004919 223980.000000 1 0 0
-5.519618 1.397956 1.166688 5.812196 -0.248054 1.368692 0.001067 -0.002605 204326.000000 1 0 0
0.186482 6.868656 -3.975212 7.938231 1.543653 2.095282 0.005527 -0.001409 883740.000000 1 0 0
5.410182 -11.699044 3.661388 13.399383 -1.137640 1.294026 -0.000823 -0.007302 -2319800.000000 1 0 0
-4.455018 -9.062844 1.010988 10.149110 1.113916 1.471017 0.003959 -0.001275 -1651800.000000 1 0 0
7.002582 -6.267844 -4.861812 10.581079 -0.730088 2.048208 -0.002278 -0.001404 697964.000000 1 0 0
-6.917018 -5.975444 2.145988 9.389161 0.712495 1.340198 0.004796 -0.001742 -591004.000000 1 0 0
-6.386218 -0.773644 7.068388 9.557427 0.120555 0.738365 0.002206 -0.004852 -1497950.000000 1 0 0
4.133882 -4.928744 3.217688 7.192706 -0.872882 1.106991 -0.003338 0.000988 98612.100000 1 0 0
-2.434418 10.596956 -8.742712 13.951949 -1.344986 2.248018 -0.000730 0.000765 -352308.000000 1 0 0
-2.355418 -4.782644 2.784488 6.014570 1.113172 1.089468 0.002144 -0.000593 -227131.000000 1 0 0
15.151782 5.031056 6.385188 17.194727 0.320590 1.190338 0.021431 -0.006209 1350280.000000 1 0 0
6.771282 0.238756 0.192988 6.778238 0.035245 1.542321 -0.000181 0.000703 3786650.000000 1 0 0
-9.629018 9.379156 0.422888 13.448620 -0.772254 1.539346 -0.007912 0.002506 -1630760.000000 1 0 0
7.249282 10.467856 -2.567412 12.989214 0.965103 1.769764 0.001767 -0.001080 -982563.000000 1 0 0
1.549182 -4.162244 -5.551812 7.109631 -1.214484 2.466879 0.001102 -0.001977 -1103470.000000 1 0 0
0.893882 -8.190944 -7.858912 11.386531 -1.462096 2.332553 -0.004528 0.001018 1241250.000000 1 0 0
-10.457918 0.299456 -10.433612 14.775587 -0.028627 2.354826 0.000424 -0.001147 -3733520.000000 1 0 0
5.954882 -2.569644 0.411088 6.498668 -0.407379 1.507497 0.003657 0.000498 -281435.000000 1 0 0
-3.331118 5.334056 -1.199712 6.402172 -1.012557 1.759302 -0.000750 0.000376 915928.000000 1 0 0
-0.413318 4.566356 -5.098612 6.856988 -1.480528 2.409182 0.004198 -0.002138 -283028.000000 1 0 0
3.967382 -9.781444 10.125588 14.626835 -1.185469 0.806179 -0.006388 0.004342 -1315590.000000 1 0 0
7.214082 -13.507844 -0.824112 15.335710 -1.080269 1.624560 0.015072 -0.002029 432950.000000 1 0 0
12.904782 -0.042244 0.501388 12.914587 -0.003274 1.531963 0.004067 -0.002325 371527.000000 1 0 0
9.359682 2.401656 -0.611712 9.682241 0.251177 1.634017 0.000204 0.003269 -1099630.000000 1 0 0
-0.851918 -5.678944 4.514488 7.304572 1.421893 0.904554 -0.002503 0.002203 690134.000000 1 0 0
11.432882 -3.826744 3.360488 12.515895 -0.322993 1.298963 0.006831 -0.005281 -2356400.000000 1 0 0
1.738382 -8.221344 11.803388 14.489046 -1.362418 0.618684 -0.007350 0.003529 -72300.000000 1 0 0
9.421382 -5.926144 -5.976212 12.633160 -0.561478 2.063554 0.000553 -0.001217 -2199870.000000 1 0 0
3.291482 6.319356 0.042888 7.125303 1.090603 1.564777 -0.000555 0.002771 254984.000000 1 0 0
6.432882 -1.387144 11.404188 13.166687 -0.212382 0.523370 0.000076 -0.000804 377723.000000 1 0 0
-4.974218 -7.559144 -3.749412 9.794978 0.988790 1.963610 0.005694 -0.005997 -175502.000000 1 0 0
-3.486518 -8.483544 -5.674212 10.785315 1.180865 2.124811 0.003923 -0.003356 -902945.000000 1 0 0
9.731782 5.374756 2.241688 11.341108 0.504599 1.371826 0.002285 0.001272 -250796.000000 1 0 0
8.834282 -1.410644 0.356888 8.953313 -0.158342 1.530925 0.000536 0.001426 1562170.000000 1 0 0
-3.848318 9.666256 9.231888 13.909486 -1.191913 0.845026 0.000469 -0.001674 62887.300000 1 0 0
-14.345418 -3.480344 -6.059712 15.956940 0.238012 1.960327 0.001600 -0.000059 -1240440.000000 1 0 0
10.588882 6.317956 -5.937012 13.685360 0.537960 2.019527 -0.002062 -0.002750 -74798.600000 1 0 0
-1.832718 4.712256 2.620788 5.694975 -1.199873 1.092584 0.000225 0.003325 208646.000000 1 0 0
6.888182 -3.718544 2.674088 8.271963 -0.495013 1.241612 0.000729 -0.002085 -2024670.000000 1 0 0
8.297082 -11.183644 -1.592812 14.016152 -0.932503 1.684684 0.010798 -0.004931 -1461720.000000 1 0 0
4.501582 0.463856 1.848988 4.888574 0.102680 1.182917 -0.000958 0.001754 -198103.000000 1 0 0
-10.835818 2.379056 3.738488 11.706885 -0.216126 1.245762 -0.000004 -0.002579 207645.000000 1 0 0
-0.909418 -2.942644 4.336688 5.319122 1.271059 0.617547 0.001606 -0.001256 168427.000000 1 0 0
8.556082 -8.821044 -8.618312 15.009752 -0.800645 2.182400 0.001683 0.002795 -652556.000000 1 0 0
12.058682 -4.822544 0.990888 13.024999 -0.380440 1.494647 0.004211 -0.003623 161893.000000 1 0 0
2.917382 4.886956 3.451388 6.656240 1.032605 1.025678 -0.005381 0.002263 166346.000000 1 0 0
6.031382 7.514856 2.044188 9.850346 0.894475 1.361753 -0.000844 0.002985 -23954.500000 1 0 0
-1.705418 -1.339344 -10.331412 10.556532 0.665742 2.934704 0.006107 -0.005994 1860390.000000 1 0 0
-1.061818 -8.545944 5.966688 10.476736 1.447182 0.964877 -0.004304 0.000424 92692.800000 1 0 0
-4.262518 -0.280844 2.322088 4.862101 0.065792 1.072887 0.001315 -0.001080 593514.000000 1 0 0
-8.332618 6.013856 -8.026212 13.039136 -0.625158 2.233877 -0.006605 -0.000676 -2065930.000000 1 0 0
6.549982 11.148256 -9.365812 15.965723 1.039593 2.197675 0.007039 -0.013509 -1126.890000 1 0 0
-11.299818 -5.784144 3.120888 13.072190 0.473106 1.329726 0.005311 -0.001290 839552.000000 1 0 0
1.382982 -6.202144 2.915388 6.991332 -1.351401 1.140654 -0.000723 0.001800 921869.000000 1 0 0
10.025582 2.088856 7.236488 12.539632 0.205414 0.955636 0.006718 -0.000570 -906684.000000 1 0 0
-4.067118 -2.674144 -10.882512 11.921475 0.581632 2.721006 0.009812 -0.009563 -1811180.000000 1 0 0
-8.367318 11.909456 5.995488 15.741443 -0.958342 1.180056 -0.002257 0.002949 197178.000000 1 0 0
6.932682 6.041656 -2.904712 9.643704 0.716830 1.876750 0.002371 0.001161 -3000820.000000 1 0 0
3.825382 -9.768344 -2.322512 10.744681 -1.197544 1.788671 -0.000302 -0.001680 -684976.000000 1 0 0
8.367082 -13.095144 -7.358212 17.194015 -1.002232 2.013022 0.009960 0.004366 208745.000000 1 0 0
-1.205918 9.609856 3.660188 10.353769 -1.445961 1.209473 -0.002987 0.005290 88710.900000 1 0 0
0.404382 -13.103344 4.841488 13.975019 -1.539945 1.217024 0.005307 -0.004183 -1246670.000000 1 0 0
-11.039818 -6.973544 -5.176912 14.046648 0.563383 1.948247 0.006023 -0.004615 195034.000000 1 0 0
3.636782 10.282956 -3.373512 11.416915 1.230855 1.870758 0.007139 -0.002900 -1141830.000000 1 0 0
11.519082 -8.092544 -7.395012 15.901721 -0.612424 2.054482 0.021067 -0.001499 184829.000000 1 0 0
11.690482 -4.720444 -5.882112 13.912196 -0.383765 2.007332 0.013689 -0.003696 107892.000000 1 0 0
1.283882 -10.365944 -2.732212 10.796580 -1.447568 1.826641 -0.001842 0.001590 -994203.000000 1 0 0
2.316082 -12.038744 -3.989212 12.892223 -1.380733 1.885388 -0.001789 0.002305 -952286.000000 1 0 0
-7.598818 -5.661044 7.187288 11.893131 0.640287 0.921881 0.003530 -0.002387 -2141520.000000 1 0 0
-7.243218 -0.805744 9.512588 11.983437 0.110786 0.653746 0.004990 -0.005506 539588.000000 1 0 0
16.232982 2.527256 -7.715612 18.150135 0.154447 2.009868 0.023155 -0.002576 -1074880.000000 1 0 0
-1.960618 6.356756 -5.409712 8.574226 -1.271623 2.253544 0.001384 0.000337 -1824330.000000 1 0 0
7.649782 1.068556 8.432988 11.435745 0.138786 0.741548 0.003443 -0.003338 -1143750.000000 1 0 0
7.986282 8.254756 -3.756012 12.084259 0.801927 1.886850 0.003043 -0.001256 -426330.000000 1 0 0
7.828082 0.626256 3.969888 8.799493 0.079831 1.102743 -0.005111 -0.000909 -321366.000000 1 0 0
-6.964018 5.823556 5.391588 10.558436 -0.696448 1.034864 -0.000739 -0.005687 -89053.700000 1 0 0
-6.051218 -2.051444 -4.610712 7.879361 0.326854 2.195878 0.008472 -0.004062 -888818.000000 1 0 0
-15.106618 -2.116344 3.183088 15.582711 0.139188 1.365078 0.005134 -0.003760 -2254790.000000 1 0 0
0.999682 1.186356 -10.508912 10.622807 0.870585 2.995025 0.002244 -0.007237 501319.000000 1 0 0
1.496082 -9.246844 9.513488 13.350987 -1.410393 0.777644 -0.002542 -0.000089 -1251460.000000 1 0 0
-0.334218 -6.916444 -1.313412 7.047975 1.522512 1.758245 0.006118 -0.000331 684868.000000 1 0 0
-0.340818 -10.352544 -8.372112 13.318543 1.537887 2.250555 -0.005500 0.001250 -689794.000000 1 0 0
-4.433218 6.630956 3.876288 8.868405 -0.981481 1.118436 -0.003100 0.001339 -193569.000000 1 0 0
10.745782 -1.158444 -8.644712 13.839973 -0.107390 2.245440 0.017930 0.000293 236011.000000 1 0 0
2.967282 -1.019544 6.259188 7.001547 -0.330958 0.464664 -0.002688 0.001640 560069.000000 1 0 0
1.878782 -12.306844 6.891688 14.229673 -1.419304 1.065213 0.001829 -0.003432 -142357.000000 1 0 0
2.857382 -5.114944 -1.399312 6.023733 -1.061349 1.805238 0.005831 0.001401 -387239.000000 1 0 0
-1.052118 9.604956 -1.610312 9.795674 -1.461692 1.735936 0.001455 0.000551 615823.000000 1 0 0
4.528282 -2.571944 2.432788 5.747929 -0.516538 1.133771 0.001530 -0.000992 -1669900.000000 1 0 0
17.858982 6.900756 -2.671912 19.331393 0.368730 1.709456 0.007624 0.012349 556000.000000 1 0 0
-7.128518 3.410656 -5.458412 9.604301 -0.446261 2.175271 0.002712 -0.000989 -15339.600000 1 0 0
-13.920618 -6.005344 2.130088 15.309639 0.407278 1.431210 0.001827 -0.001009 667873.000000 1 0 0
6.559782 -6.044144 3.178288 9.469104 -0.744510 1.228503 -0.000124 -0.004506 -275361.000000 1 0 0
-4.668318 1.942656 3.502288 6.150864 -0.394339 0.965023 0.001225 -0.002572 313526.000000 1 0 0
6.825682 -12.163144 -5.565712 15.016963 -1.059412 1.950482 0.001259 0.004306 -68917.700000 1 0 0
2.854482 -12.204244 3.281988 12.956199 -1.341034 1.314692 0.000417 -0.004169 -555157.000000 1 0 0
3.381482 11.377456 -6.118012 13.353314 1.281902 2.046725 0.003475 -0.001503 -113954.000000 1 0 0
-5.579818 -8.260744 6.384788 11.838065 0.976729 1.001139 0.003873 -0.000026 616377.000000 1 0 0
-3.988518 6.556156 6.406488 9.996727 -1.024251 0.875180 -0.000234 0.000691 505732.000000 1 0 0
4.355682 4.401856 -6.863812 9.244469 0.790671 2.407558 -0.000537 -0.000748 -1403320.000000 1 0 0
-0.301918 -2.813044 1.559488 3.230538 1.463878 1.067023 0.000568 0.001459 -1040230.000000 1 0 0
-13.198918 -0.858144 6.382388 14.686141 0.064925 1.121218 -0.002255 -0.002419 114945.000000 1 0 0
-0.625218 -9.246344 -5.946312 11.011104 1.503281 2.141268 -0.000809 0.000388 -144493.000000 1 0 0
2.100582 -1.655444 -3.969912 4.786767 -0.667436 2.548742 0.000393 -0.001186 -845715.000000 1 0 0
11.330482 -2.016244 1.158688 11.566660 -0.176105 1.470453 0.003992 -0.000650 760349.000000 1 0 0
0.494782 -4.365844 -1.772312 4.737773 -1.457948 1.954202 0.004815 -0.002429 -2319180.000000 1 0 0
1.209182 -7.388844 -11.319912 13.571940 -1.408585 2.557236 -0.008955 0.003230 -318298.000000 1 0 0
-4.437318 4.138356 -10.024212 11.717534 -0.750551 2.597289 0.000555 -0.003712 -38522.700000 1 0 0
-0.998518 5.831956 -2.095412 6.276902 -1.401226 1.911159 0.003679 0.000491 -3351910.000000 1 0 0
-11.345518 1.747756 -3.870812 12.114397 -0.152847 1.896021 0.000514 0.001119 -160654.000000 1 0 0
-1.838418 -11.191844 4.183588 12.088820 1.407986 1.217416 0.006054 0.000116 -857843.000000 1 0 0
-3.470618 -5.424344 -9.651412 11.602519 1.001609 2.553207 0.003634 -0.002789 -1037030.000000 1 0 0
-12.837618 -3.757144 -8.312712 15.748706 0.284716 2.126845 0.003628 0.000844 -275069.000000 1 0 0
11.396382 4.452256 0.481388 12.244665 0.372440 1.531472 0.002524 0.002865 105046.000000 1 0 0
-8.901118 -2.241944 -3.054412 9.673968 0.246740 1.892028 0.005299 -0.003553 -563646.000000 1 0 0
-2.406818 -6.180444 -6.386012 9.207161 1.199440 2.337260 0.003113 -0.004114 -781907.000000 1 0 0
0.030282 2.743556 -1.934412 3.357077 1.559759 2.184891 0.003940 -0.000633 -124594.000000 1 0 0
8.037282 6.044056 -5.217012 11.328977 0.644781 2.049357 0.003309 -0.001306 -482033.000000 1 0 0
-9.783518 -0.916344 -0.969712 9.874070 0.093390 1.669163 0.001901 -0.002250 66936.000000 1 0 0
6.158082 0.556956 -8.861512 10.805488 0.090198 2.532371 0.001075 -0.000913 411803.000000 1 0 0
-4.170318 2.563756 7.877588 9.274739 -0.551204 0.556026 -0.000056 -0.002880 -1463810.000000 1 0 0
-10.148418 -3.333044 1.425388 10.776424 0.317331 1.438138 0.001048 -0.003433 2758520.000000 1 0 0
-1.895718 -8.259844 -7.742712 11.479040 1.345193 2.311095 0.000774 -0.003168 32744.100000 1 0 0
-9.404918 -9.751144 4.106388 14.156261 0.803470 1.276490 0.002362 -0.000821 -602811.000000 1 0 0
-1.204118 -10.672244 7.393788 13.038972 1.458444 0.967873 0.001676 -0.000433 -115924.000000 1 0 0
9.557482 3.751956 -3.704012 10.915234 0.374083 1.917015 -0.000293 0.003093 -577794.000000 1 0 0
12.841682 -0.857044 3.001888 13.215697 -0.066640 1.341651 0.007268 0.000094 -826070.000000 1 0 0
6.493182 11.918456 -6.834112 15.195923 1.071954 2.037263 0.007930 -0.006036 629553.000000 1 0 0
-11.914418 -0.035044 -6.470612 13.558149 0.002941 2.068318 0.002895 -0.001092 244380.000000 1 0 0
-7.677618 -6.578044 -11.391712 15.231139 0.708418 2.415723 0.010510 -0.005884 -2079730.000000 1 0 0
4.190682 6.003556 6.578788 9.843015 0.961392 0.838779 -0.005014 0.004019 -3302990.000000 1 0 0
-4.259718 -1.481044 -7.422012 8.684754 0.334612 2.595581 0.008517 -0.006420 65324.500000 1 0 0
9.648182 9.262856 0.938188 13.407763 0.765025 1.500766 0.006121 0.001456 -1691600.000000 1 0 0
-8.879418 3.853756 4.861888 10.832057 -0.409477 1.105327 -0.002785 -0.005761 2143670.000000 1 0 0
-6.977618 7.840756 -12.135212 16.044562 -0.843580 2.428503 -0.000158 -0.005497 -1171870.000000 1 0 0
11.149882 -3.677044 7.267388 13.807804 -0.318552 1.016524 0.007974 -0.006132 494157.000000 1 0 0
11.878082 6.765856 6.465288 15.121692 0.517773 1.129015 0.010707 -0.002320 77980.700000 1 0 0
-10.114318 -0.708044 -14.759712 17.906699 0.069890 2.539684 0.009125 0.008578 95170.400000 1 0 0
1.760882 -13.074744 12.081288 17.888744 -1.436924 0.829348 0.004318 0.001663 -169985.000000 1 0 0
2.888482 3.033056 13.067188 13.722032 0.809808 0.310182 0.001090 -0.005899 -739737.000000 1 0 0
-2.548218 -1.421244 11.054288 11.432875 0.508767 0.258063 0.003397 -0.004213 -705846.000000 1 0 0
2.604382 -10.065744 -8.250412 13.272954 -1.317612 2.241575 -0.011120 0.005897 -1461240.000000 1 0 0
13.983882 3.751956 -7.527612 16.318427 0.262132 2.050251 0.013143 -0.001099 -1499460.000000 1 0 0
7.273782 -1.672844 4.864588 8.909014 -0.226052 0.993178 -0.002303 0.000253 -75171.600000 1 0 0
-1.190718 8.684556 10.241788 13.480858 -1.434538 0.707901 0.001052 -0.001903 3083.420000 1 0 0
-12.259818 -4.668444 0.913088 13.150333 0.363839 1.501306 0.002121 -0.002271 2089.000000 1 0 0
-4.919418 4.847756 -5.267612 8.686147 -0.778061 2.222370 0.003211 -0.002678 273414.000000 1 0 0
-11.180018 0.375656 1.982088 11.360572 -0.033588 1.395428 -0.001321 -0.001126 -1708840.000000 1 0 0
-1.327218 2.277156 -4.082812 4.859660 -1.043090 2.568344 0.005749 -0.002876 839637.000000 1 0 0
3.031982 -9.903344 13.239888 16.809634 -1.273700 0.663832 -0.005624 0.004672 -2527390.000000 1 0 0
8.857182 4.669356 -1.519112 10.127204 0.485157 1.721368 -0.000332 -0.000065 -1715480.000000 1 0 0
4.077282 2.349756 3.801588 6.049599 0.522814 0.891297 -0.005761 0.002827 -995984.000000 1 0 0
-5.445418 -3.232444 7.461088 9.786169 0.535706 0.703765 0.005572 -0.005254 49971.400000 1 0 0
1.835382 -5.710944 7.643188 9.716061 -1.259842 0.665424 -0.006730 0.003915 -1454330.000000 1 0 0
-5.841818 -6.182744 -9.700012 12.901295 0.813743 2.421680 0.007231 -0.004164 -500764.000000 1 0 0
-11.720518 -5.808044 5.460988 14.174848 0.460077 1.175308 0.006901 -0.003333 -644443.000000 1 0 0
10.450982 6.124856 4.598088 12.956824 0.530103 1.208013 0.003835 0.001788 -1704540.000000 1 0 0
1.638282 -3.668244 0.414088 4.038744 -1.150763 1.468087 0.001497 -0.000739 -270159.000000 1 0 0
8.851682 4.330056 7.039488 12.110163 0.454953 0.950486 0.001534 0.003235 -191673.000000 1 0 0
-7.932018 12.067856 3.587288 14.880144 -0.989317 1.327319 -0.010276 0.003174 -498760.000000 1 0 0
-6.186618 13.347856 -6.982512 16.284808 -1.136780 2.013932 0.006549 -0.003191 416101.000000 1 0 0
4.451582 -7.016544 -1.015512 8.371364 -1.005437 1.692404 0.003286 -0.001528 -701715.000000 1 0 0
-1.923518 -8.158044 11.010388 13.837711 1.339244 0.650667 -0.004500 -0.003673 -473507.000000 1 0 0
11.599682 8.877856 -5.694512 15.677895 0.653255 1.942517 0.006194 -0.003121 554165.000000 1 0 0
-3.364418 -2.930344 -1.944412 4.866926 0.716549 1.981785 0.008743 -0.003479 -1359220.000000 1 0 0
-2.125118 6.030156 4.772188 7.978263 -1.231972 0.929607 0.001315 0.003147 670349.000000 1 0 0
0.301282 -11.443944 -5.639412 12.761567 -1.544476 2.028518 -0.005949 0.002251 -1697270.000000 1 0 0
-8.851418 6.358256 -1.579912 11.012318 -0.622924 1.714761 -0.000487 0.000404 -496471.000000 1 0 0
2.814482 0.054556 3.840288 4.761522 0.019381 0.632545 -0.002905 0.002397 -1224030.000000 1 0 0
-10.011818 3.997156 -1.039912 10.830290 -0.379854 1.666963 0.005789 -0.001187 -112959.000000 1 0 0
6.517582 5.356556 13.679788 16.071968 0.687930 0.552608 0.019391 -0.005683 107807.000000 1 0 0
-8.769318 -1.489244 5.646988 10.535999 0.168220 1.005139 0.002663 -0.004928 -359875.000000 1 0 0
12.933382 -1.812544 -1.531412 13.149255 -0.139238 1.687525 0.009344 -0.003700 -888189.000000 1 0 0
5.298382 -5.487744 5.431388 9.364196 -0.802952 0.952047 -0.005037 -0.000847 234151.000000 1 0 0
-9.085418 -1.183644 3.138788 9.684928 0.129550 1.240747 -0.001017 -0.003106 260660.000000 1 0 0
1.906582 5.460556 5.630888 8.072151 1.234874 0.798796 -0.001012 0.002077 -519191.000000 1 0 0
9.204382 3.079756 -7.464612 12.244426 0.322887 2.226394 0.002618 -0.000915 -1375410.000000 1 0 0
2.334082 -2.417244 -1.552412 3.701485 -0.802899 2.003583 0.001364 0.000933 -160291.000000 1 0 0
-6.235318 0.413356 -4.015912 7.428163 -0.066196 2.141986 0.004492 0.000354 -2262020.000000 1 0 0
-4.069818 4.157956 5.100988 7.737706 -0.796110 0.850992 -0.000162 -0.000112 383014.000000 1 0 0
-6.405218 1.789356 -12.416412 14.085308 -0.272414 2.649858 0.002484 0.002625 -2481940.000000 1 0 0
-0.084818 3.170156 6.295488 7.049131 -1.544047 0.466635 -0.000835 -0.000682 1160870.000000 1 0 0
-8.669718 9.418056 -2.128612 12.976701 -0.826747 1.735574 -0.006916 0.003251 1212320.000000 1 0 0
-1.392218 -3.748444 -6.162912 7.346468 1.215175 2.566045 0.004748 -0.003438 24027.900000 1 0 0
-3.212718 7.105356 -3.003012 8.356178 -1.146152 1.938396 -0.000518 0.002522 1481850.000000 1 0 0
7.025782 -0.363044 -4.282512 8.236099 -0.051627 2.117610 -0.000822 0.002084 -406477.000000 1 0 0
-5.113618 -10.784544 6.846188 13.759570 1.128032 1.050015 -0.002348 -0.002630 -104290.000000 1 0 0
9.720682 8.381156 -1.459512 12.917647 0.711533 1.684024 0.005647 0.001358 -200884.000000 1 0 0
13.835782 4.675956 -4.411312 15.256248 0.325910 1.864133 0.004032 -0.000177 625606.000000 1 0 0
4.658482 1.173256 -6.810112 8.334003 0.246723 2.527242 -0.000220 -0.001552 535888.000000 1 0 0
8.950782 -4.885844 3.553088 10.798722 -0.499657 1.235522 0.002502 -0.004596 -769244.000000 1 0 0
-8.779318 -3.282244 -0.765112 9.403986 0.357772 1.652247 0.001051 -0.002916 99123.200000 1 0 0
-8.522518 -4.149344 -10.637412 14.247979 0.453087 2.413719 0.005195 -0.003014 -507753.000000 1 0 0
10.425682 -1.287944 10.598888 14.922804 -0.122913 0.780946 0.006121 0.001001 515369.000000 1 0 0
2.146382 -11.605444 9.975588 15.453338 -1.387917 0.869080 -0.000743 -0.003811 763799.000000 1 0 0
-6.445018 -10.410544 1.989688 12.404699 1.016461 1.409703 0.004678 -0.000642 -1208820.000000 1 0 0
-3.786618 -1.163044 6.737488 7.815683 0.298000 0.531501 0.003677 -0.002042 -675719.000000 1 0 0
4.712682 -7.512644 3.871288 9.676573 -1.010545 1.159205 -0.002670 -0.000177 -9819.710000 1 0 0
11.479382 -9.443644 -5.344312 15.796211 -0.688407 1.915937 0.016252 -0.003234 549110.000000 1 0 0
11.373082 1.054256 11.407988 16.143130 0.092433 0.786005 0.016165 -0.003081 -110814.000000 1 0 0
-10.259218 -3.397944 4.400188 11.668729 0.319837 1.184142 0.004037 -0.002943 1918910.000000 1 0 0
2.030482 8.761556 9.051188 12.759769 1.343067 0.782216 -0.005681 0.004121 -269827.000000 1 0 0
6.550682 8.802056 4.181288 11.741839 0.931004 1.206704 0.000123 0.004060 95483.300000 1 0 0
-4.198818 3.575756 0.430888 5.531886 -0.705428 1.492826 0.001684 -0.000710 -1129220.000000 1 0 0
4.830182 6.968256 4.346388 9.527766 0.964669 1.097097 -0.001575 0.003673 -1141930.000000 1 0 0
-8.319218 12.918056 1.048288 15.400794 -0.998651 1.502677 -0.007217 -0.004125 -1475210.000000 1 0 0
8.845582 8.137156 -9.140012 15.099584 0.743708 2.220958 0.003216 -0.010654 -1092720.000000 1 0 0
7.056282 1.947956 6.097988 9.527387 0.269351 0.876235 -0.000801 0.000312 -1576170.000000 1 0 0
11.570882 -6.300244 3.075388 13.529094 -0.498604 1.341475 0.005592 -0.003577 -42808.100000 1 0 0
11.423682 4.737556 -2.187612 12.559084 0.393126 1.745875 -0.004894 0.004826 -347229.000000 1 0 0
-3.946318 14.491756 -6.051812 16.192864 -1.304928 1.953827 0.002343 0.003711 -482189.000000 1 0 0
7.210882 -2.996144 6.983288 10.475687 -0.393799 0.841133 0.001056 -0.001704 -619070.000000 1 0 0
-7.944918 -0.474344 0.876288 8.007160 0.059633 1.461139 0.003511 -0.002954 243373.000000 1 0 0
-3.198818 1.091856 10.689888 11.211525 -0.328931 0.306242 0.001150 -0.001713 108998.000000 1 0 0
7.088182 -1.262844 -1.841412 7.431547 -0.176312 1.821188 0.001909 0.001396 -1771610.000000 1 0 0
-7.793718 5.377256 2.958988 9.920309 -0.603947 1.267911 -0.002612 -0.000776 784141.000000 1 0 0
9.378482 -2.355144 2.856288 10.082708 -0.246035 1.283578 0.000416 -0.001401 -1314710.000000 1 0 0
0.197382 3.486456 1.622088 3.850390 1.514243 1.135941 0.000426 0.002029 -2959880.000000 1 0 0
-7.581718 -3.015844 4.045288 9.107257 0.378590 1.110534 0.001661 -0.003343 379272.000000 1 0 0
-2.231918 8.446956 -6.747412 11.039026 -1.312473 2.228413 -0.001662 -0.000744 -407077.000000 1 0 0
4.537082 9.747856 7.483188 13.099767 1.135174 0.962773 -0.003168 0.006086 -1309400.000000 1 0 0
-11.921718 -3.117944 6.915288 14.130469 0.255805 1.059408 0.007109 -0.004834 -1517090.000000 1 0 0
-4.736418 2.295356 -5.683312 7.746118 -0.451267 2.394545 0.006981 -0.004040 -595532.000000 1 0 0
-2.694918 2.914856 -1.882512 4.393497 -0.824584 2.013603 0.004412 0.000697 835493.000000 1 0 0
2.380582 5.230756 11.572288 12.920752 1.143699 0.460938 0.002584 -0.006682 134664.000000 1 0 0
-0.698118 1.772756 4.547588 4.930577 -1.195643 0.396745 0.002039 -0.000455 -489120.000000 1 0 0
5.080382 1.597156 7.704088 9.365584 0.304594 0.604836 -0.001944 0.000337 125194.000000 1 0 0
3.270282 -8.208844 1.885388 9.035184 -1.191683 1.360580 0.000426 -0.000332 1656990.000000 1 0 0
5.074182 6.501856 -4.537712 9.413409 0.908109 2.073787 0.004439 -0.000395 -3810590.000000 1 0 0
-4.030518 2.868656 -8.025912 9.428124 -0.618558 2.589204 0.007498 -0.007203 422584.000000 1 0 0
-8.737318 -2.153144 -13.003112 15.813212 0.241617 2.536227 0.004928 0.003320 -539952.000000 1 0 0
-7.774018 8.113956 1.153488 11.296113 -0.806791 1.468504 -0.005153 0.000526 -1498640.000000 1 0 0
7.339482 0.907356 -6.544512 9.875319 0.123003 2.295233 0.000167 0.000654 348845.000000 1 0 0
8.898882 8.898956 5.557488 13.757441 0.785402 1.154952 0.002544 0.002149 378969.000000 1 0 0
9.417782 -1.011344 -1.352212 9.567963 -0.106977 1.712598 0.001373 0.002067 1642150.000000 1 0 0
5.326082 0.033456 4.297988 6.844046 0.006281 0.891829 -0.005339 0.001928 -422907.000000 1 0 0
-4.226218 -7.270944 -7.920512 11.552578 1.044280 2.326232 0.006472 -0.006298 -795475.000000 1 0 0
-2.105718 7.465856 -0.556212 7.777044 -1.295891 1.642377 0.000660 0.002781 419159.000000 1 0 0
13.315282 -3.360544 -7.476112 15.635928 -0.247220 2.069328 0.015353 -0.000212 1236090.000000 1 0 0
-4.792718 -5.000444 1.480288 7.082785 0.806606 1.360246 0.004817 -0.000811 706275.000000 1 0 0
-8.836318 1.357656 2.520088 9.288412 -0.152453 1.296037 -0.001636 -0.001929 99559.900000 1 0 0
-0.997918 11.099756 10.089188 15.033035 -1.481133 0.835058 -0.003467 -0.001393 331196.000000 1 0 0
-8.621518 0.373456 7.509188 11.439316 -0.043290 0.854711 0.001206 -0.003969 -603786.000000 1 0 0
-6.070118 13.038556 -2.109612 14.536187 -1.135085 1.716439 -0.004704 0.001424 -85883.800000 1 0 0
-12.994018 -0.771044 3.279888 13.423736 0.059269 1.323963 0.005217 -0.003667 461062.000000 1 0 0
-6.705118 12.833756 8.762888 16.924896 -1.089343 1.026576 0.002146 -0.003233 895244.000000 1 0 0
-8.054018 0.802056 -14.094212 16.252917 -0.099257 2.620309 0.003540 0.006430 -336129.000000 1 0 0
7.270282 2.923956 3.763488 8.693121 0.382384 1.123059 -0.001281 0.002405 -385996.000000 1 0 0
-1.644518 0.718556 -2.019712 2.701851 -0.411940 2.415130 0.005530 -0.001648 726476.000000 1 0 0
-6.125218 9.627256 -10.377212 15.423647 -1.004157 2.308799 -0.001727 -0.001197 -74046.200000 1 0 0
-10.096518 13.788656 5.346088 17.906629 -0.938763 1.267620 -0.004167 0.002984 551850.000000 1 0 0
-5.632718 8.324356 2.423988 10.339155 -0.975910 1.334146 -0.006020 0.003014 -2407900.000000 1 0 0
-2.518718 -10.754444 -1.159312 11.106125 1.340740 1.675372 0.004560 -0.000425 935003.000000 1 0 0
-2.244518 -12.370444 8.928588 15.420293 1.391307 0.953276 0.000618 -0.003060 64163.800000 1 0 0
-14.664418 -6.476844 -1.572812 16.108023 0.415906 1.668594 0.008644 0.001351 203752.000000 1 0 0
-2.722918 -9.311344 3.128388 10.193244 1.286299 1.258854 0.001939 0.000963 -1373750.000000 1 0 0
4.681782 -2.655844 7.459088 9.198401 -0.516007 0.625088 -0.005731 0.003903 -98121.700000 1 0 0
-15.005218 -1.304044 -0.292012 15.064607 0.086688 1.590182 0.002538 -0.006709 216266.000000 1 0 0
5.548382 8.707756 -2.772712 10.691000 1.003488 1.833146 0.001531 -0.000498 798381.000000 1 0 0
-5.583818 -5.631444 8.483188 11.612781 0.789645 0.751736 0.005021 -0.001516 -3300090.000000 1 0 0
3.434682 3.650256 7.083088 8.677070 0.815816 0.615821 -0.003885 0.000710 512097.000000 1 0 0
3.387582 2.409656 9.383888 10.263504 0.618283 0.417028 -0.000033 -0.002087 805090.000000 1 0 0
9.859582 -3.315844 5.194588 11.627120 -0.324424 1.107650 0.004343 -0.004410 -578444.000000 1 0 0
6.597582 9.980756 -5.049612 12.986229 0.986706 1.970172 0.004589 -0.004408 811365.000000 1 0 0
-4.390718 12.154856 -8.408612 15.418290 -1.224151 2.147622 -0.001644 -0.001775 -590726.000000 1 0 0
-3.362118 -7.152744 2.073288 8.170931 1.131398 1.314252 0.004921 -0.000585 981171.000000 1 0 0
-7.459318 -3.984044 1.064288 8.523306 0.490556 1.445602 0.002702 -0.001680 1780290.000000 1 0 0
-1.928618 -4.000444 -10.983012 11.846927 1.121570 2.757335 0.006772 -0.005455 -1102480.000000 1 0 0
-5.124218 8.289356 -4.548912 10.754703 -1.017125 2.007516 -0.000014 -0.001742 -1550170.000000 1 0 0
-10.919418 -3.274544 -10.119312 15.243255 0.291349 2.296758 0.004135 0.001741 -21912.200000 1 0 0
4.680382 -11.364144 -7.645512 14.474239 -1.180112 2.127293 -0.006924 0.001392 -1869470.000000 1 0 0
-9.437718 -3.938544 7.198188 12.505861 0.395347 0.957477 0.004157 -0.003782 -18362.700000 1 0 0
-5.796818 -9.584144 -5.077412 12.297928 1.026830 1.996396 0.006404 -0.007189 -563360.000000 1 0 0
4.699982 4.542656 -9.409412 11.456988 0.768378 2.534450 0.002223 -0.001844 139301.000000 1 0 0
-3.308918 -7.167044 -13.958612 16.036156 1.138268 2.626904 -0.003275 0.000716 224033.000000 1 0 0
0.553982 -0.845044 -8.792912 8.850779 -0.990519 3.027179 0.002088 -0.006509 51104.000000 1 0 0
-7.726018 2.219956 -2.885912 8.540963 -0.279797 1.915471 0.005486 -0.001211 -921547.000000 1 0 0
-2.314118 7.543156 -12.432612 14.724951 -1.273128 2.576096 -0.004602 -0.002832 -289651.000000 1 0 0
-9.749618 8.892956 7.596988 15.226751 -0.739479 1.048440 -0.003347 -0.003531 -210564.000000 1 0 0
-10.759918 -3.107444 -14.428612 18.265183 0.281148 2.481527 0.007026 0.013304 -282907.000000 1 0 0
-3.230018 4.798156 7.921588 9.808510 -0.978299 0.630685 0.001226 -0.002679 -392966.000000 1 0 0
8.721882 -2.254844 -3.579512 9.693733 -0.252988 1.949009 -0.000231 0.001361 -5523120.000000 1 0 0
1.820582 -8.403044 -1.175212 8.677949 -1.357437 1.706639 0.004430 0.000393 -747125.000000 1 0 0
-13.662518 -2.820944 5.088888 14.849879 0.203612 1.221019 0.006838 -0.005736 97311.700000 1 0 0
7.110082 2.707756 -1.938612 7.851332 0.363875 1.820292 -0.001219 0.001486 608949.000000 1 0 0
-11.062418 4.553156 8.999488 14.969940 -0.390456 0.925831 0.000094 -0.004614 -2816870.000000 1 0 0
-1.790118 -2.563244 7.875988 8.473838 0.961159 0.377884 0.000673 -0.003793 73968.800000 1 0 0
2.939382 12.106556 -9.915412 15.922439 1.332613 2.243026 0.002755 -0.006036 495173.000000 1 0 0
3.570082 -5.019644 -7.086412 9.389332 -0.952578 2.426039 -0.005324 -0.001014 -92030.300000 1 0 0
8.338982 -13.893044 -9.630412 18.849407 -1.030210 2.107043 0.011210 0.008742 -152532.000000 1 0 0
-6.364318 -5.768844 -0.436912 8.600872 0.736359 1.621617 0.005278 -0.004069 -150443.000000 1 0 0
-1.175718 -3.955144 9.907488 10.732372 1.281852 0.394626 -0.003443 -0.001341 1102770.000000 1 0 0
2.757082 3.256556 1.816488 4.637487 0.868265 1.168321 -0.005148 0.002792 -1030080.000000 1 0 0
-9.100718 13.546656 7.811388 18.092892 -0.979244 1.124378 -0.000107 -0.003418 621672.000000 1 0 0
4.008182 -11.129544 -0.083412 11.829592 -1.225118 1.577848 0.000513 -0.003805 -199318.000000 1 0 0
-12.533918 -1.443544 -9.021612 15.510397 0.114666 2.191551 0.003078 -0.001599 -122704.000000 1 0 0
-4.267518 1.036356 -13.635312 14.325065 -0.238236 2.830011 0.005183 0.000124 316849.000000 1 0 0
3.965982 -2.965944 4.891188 6.960572 -0.642121 0.791612 -0.002936 0.001253 -222651.000000 1 0 0
1.742982 -1.133644 1.104388 2.354317 -0.576660 1.082536 0.001003 0.000572 343408.000000 1 0 0
8.072282 -9.054244 7.323788 14.169649 -0.842671 1.027612 0.002937 -0.002598 -1088420.000000 1 0 0
-0.079618 2.346356 -6.431412 6.846516 -1.536877 2.791585 0.002701 -0.005117 638143.000000 1 0 0
-3.858018 -9.738444 -3.279212 10.976103 1.193601 1.874189 0.005643 -0.002834 441884.000000 1 0 0
-9.493318 2.283956 -5.429412 11.172200 -0.236099 2.078275 -0.000425 0.000417 -948433.000000 1 0 0
8.900182 -7.713244 5.295688 12.913237 -0.714075 1.148235 -0.000802 -0.004358 2192790.000000 1 0 0
-5.547418 -4.255144 4.731488 8.441983 0.654324 0.975842 0.001740 -0.003283 -912529.000000 1 0 0
-0.198118 -12.515144 10.538588 16.362455 1.554967 0.870988 0.004182 -0.001540 -1547620.000000 1 0 0
-14.173818 -8.347144 3.017188 16.723497 0.532227 1.389387 -0.004010 -0.002874 -954014.000000 1 0 0
10.901282 -1.243944 -3.556612 11.534073 -0.113618 1.884262 0.009978 0.001814 -30747.400000 1 0 0
-13.636518 2.959756 2.687588 14.210486 -0.213731 1.380523 0.000337 0.000250 -799169.000000 1 0 0
-6.231618 6.128256 1.076088 8.806052 -0.777036 1.448291 -0.002561 0.001563 676147.000000 1 0 0
7.120882 -6.956444 -0.446812 9.964874 -0.773718 1.615650 0.002358 -0.003619 -486337.000000 1 0 0
-6.884218 7.851456 10.004888 14.461521 -0.850943 0.806778 -0.004002 -0.003279 216032.000000 1 0 0
-12.651818 -5.125044 -1.923212 13.785258 0.384881 1.710765 -0.000769 -0.001782 -2154340.000000 1 0 0
-9.476318 -5.596444 0.225088 11.007791 0.533458 1.550347 0.002787 -0.002408 -1130700.000000 1 0 0
-1.792818 1.988256 2.217888 3.476548 -0.837041 0.878954 0.001789 0.000602 87958.200000 1 0 0
-7.172618 7.360956 7.565288 12.761806 -0.798356 0.936256 -0.001854 -0.003774 -752265.000000 1 0 0
5.708382 7.145656 -0.379312 9.153682 0.896751 1.612246 0.001113 0.001208 -1323440.000000 1 0 0
-0.026318 -4.013544 7.517588 8.521934 1.564239 0.490397 -0.003223 0.000487 -682648.000000 1 0 0
6.494282 0.564556 13.090888 14.624150 0.086713 0.462016 0.004400 -0.002016 429138.000000 1 0 0
5.762882 6.175356 -7.852012 11.532559 0.819935 2.319727 -0.002449 -0.002318 -457454.000000 1 0 0
10.014082 5.269056 9.108988 14.526474 0.484360 0.893022 0.005106 -0.002694 -2427590.000000 1 0 0
-1.168018 -5.102644 -8.518512 9.998314 1.345769 2.590580 0.008707 -0.004454 684046.000000 1 0 0
9.956382 -3.537544 -8.052712 13.284951 -0.341392 2.222011 0.010604 -0.004251 464188.000000 1 0 0
8.368282 -5.460244 1.272588 10.072829 -0.578126 1.444119 0.003178 -0.003965 1065600.000000 1 0 0
15.811182 3.127656 -5.098412 16.904718 0.195292 1.877164 0.019327 0.002594 112804.000000 1 0 0
-6.813918 3.599156 1.268288 7.809735 -0.485957 1.407676 0.001363 -0.001313 1106970.000000 1 0 0
-1.753618 3.860856 0.258688 4.248329 -1.144451 1.509867 0.001699 -0.000516 -1257290.000000 1 0 0
-2.582018 10.032856 6.875288 12.433607 -1.318906 0.984884 -0.002179 0.004740 873707.000000 1 0 0
5.473082 -5.768744 -8.750012 11.823525 -0.811692 2.403943 -0.006646 0.001243 895436.000000 1 0 0
-1.214518 -0.844344 6.253388 6.425950 0.607504 0.232271 0.001284 -0.002713 219256.000000 1 0 0
-5.679218 4.996256 -7.798312 10.864150 -0.721510 2.371437 0.001140 -0.003633 -277657.000000 1 0 0
6.639082 -1.225644 2.533188 7.210870 -0.182555 1.211836 -0.002289 0.002522 -1201000.000000 1 0 0
8.813382 7.573156 3.302888 12.080457 0.709857 1.293863 0.003035 0.000834 218853.000000 1 0 0
-5.221018 -4.909044 -7.616312 10.457818 0.754611 2.386618 0.010312 -0.006550 226206.000000 1 0 0
-2.251118 7.953756 -9.921312 12.913644 -1.294984 2.446948 -0.002826 -0.001031 689604.000000 1 0 0
-2.730218 -2.149344 1.575388 3.815183 0.666914 1.145132 -0.001564 0.001072 -149984.000000 1 0 0
5.964182 -2.022344 -9.221612 11.166892 -0.326915 2.542414 -0.002845 0.000467 946181.000000 1 0 0
1.064882 -7.532444 5.098788 9.158020 -1.430354 0.980320 -0.003666 0.003569 477957.000000 1 0 0
1.801982 12.046456 1.259988 12.245481 1.422311 1.467720 0.003864 -0.001762 412375.000000 1 0 0
-1.004218 7.151556 2.648688 7.692123 -1.431289 1.219263 -0.000327 0.004094 490453.000000 1 0 0
8.686382 7.833156 -6.653112 13.456428 0.733794 2.087962 0.006377 -0.006934 45374.800000 1 0 0
3.654582 -11.239044 5.557288 13.059691 -1.256412 1.131249 0.000758 -0.003168 -534235.000000 1 0 0
7.863682 -7.131244 12.333188 16.272666 -0.736591 0.710696 -0.005102 0.002867 -368713.000000 1 0 0
-8.689118 0.114156 -3.962712 9.550754 -0.013137 1.998641 0.004453 -0.000651 -1570190.000000 1 0 0
-3.271318 -4.974744 11.210788 12.693753 0.989107 0.488211 0.000902 -0.004783 -279599.000000 1 0 0
-8.174418 0.208256 -11.549012 14.150765 -0.025471 2.525496 0.003399 -0.000196 -1045970.000000 1 0 0
1.378082 -4.965844 5.274788 7.374423 -1.300096 0.773769 -0.004370 0.002177 -523426.000000 1 0 0
6.671082 3.781856 -7.847512 10.972202 0.515728 2.367732 0.000914 -0.000351 -2092160.000000 1 0 0
16.290682 4.186956 -1.271412 16.868118 0.251570 1.646242 0.001786 0.010127 -585443.000000 1 0 0
7.941982 7.456756 0.252288 10.896877 0.753898 1.547642 0.003090 -0.000443 -2290520.000000 1 0 0
5.460482 -10.479944 14.046088 18.355890 -1.090458 0.699431 -0.003760 0.005773 507749.000000 1 0 0
-5.303718 -9.118144 8.897988 13.800151 1.043967 0.870068 -0.000509 -0.005887 -21878.400000 1 0 0
-12.596718 -3.137144 2.844188 13.289409 0.244079 1.355109 0.005778 -0.001866 -208205.000000 1 0 0
-2.085018 -1.307844 -5.940612 6.430290 0.560221 2.748812 0.007891 -0.006276 -1716800.000000 1 0 0
-2.483118 13.064256 -4.405812 14.008991 -1.382967 1.890725 0.005489 0.000972 486823.000000 1 0 0
3.973182 -0.487844 -5.025412 6.424868 -0.122173 2.468956 -0.000525 -0.001014 -510118.000000 1 0 0
-8.931318 3.737956 -7.376212 12.171658 -0.396371 2.221838 -0.000579 -0.000466 680693.000000 1 0 0
-4.554618 7.950556 -11.274612 14.528343 -1.050566 2.459163 -0.001510 -0.002798 -2325460.000000 1 0 0
-10.080118 -6.410744 7.325988 14.013441 0.566455 1.020684 0.006366 -0.001968 -2268170.000000 1 0 0
8.080682 5.306256 4.223288 10.549404 0.581042 1.158915 -0.001602 0.002567 -1878420.000000 1 0 0
-6.691618 -7.513544 3.975588 10.818336 0.843195 1.194492 0.007934 -0.002283 -548963.000000 1 0 0
-4.164818 11.810656 7.998788 14.859943 -1.231778 1.002403 -0.001717 0.001689 48497.400000 1 0 0
-7.160718 9.975756 -7.907812 14.605652 -0.948216 2.142923 -0.002601 -0.003128 869678.000000 1 0 0
13.118982 5.486156 4.652288 14.961597 0.396084 1.254605 0.004339 0.000821 1400470.000000 1 0 0
5.351082 3.993756 -3.665612 7.617143 0.641158 2.072856 0.000805 0.001405 389613.000000 1 0 0
-2.905218 -4.016544 5.067188 7.088675 0.944595 0.774417 0.002244 -0.002558 -2083770.000000 1 0 0
12.355482 -2.415844 -5.179712 13.613363 -0.193092 1.961120 0.014995 -0.001115 -1349910.000000 1 0 0
-5.168618 9.675156 7.046588 13.037548 -1.080152 0.999784 -0.003618 0.002266 -515729.000000 1 0 0
1.715182 3.807456 -0.512512 4.207284 1.147543 1.692915 0.001210 0.000625 469647.000000 1 0 0
-0.089718 9.650256 7.780888 12.396681 -1.561500 0.892254 -0.002672 0.004097 -542695.000000 1 0 0
-5.623918 2.103956 5.875788 8.401189 -0.357989 0.796239 0.001610 -0.003552 702738.000000 1 0 0
8.848082 0.839256 10.685788 13.898884 0.094569 0.693797 0.007191 -0.000309 -596091.000000 1 0 0
0.448282 -2.930444 -10.192812 10.615172 -1.418999 2.858555 -0.000899 -0.004042 -1865930.000000 1 0 0
1.245782 10.669756 -2.754912 11.089869 1.454564 1.821842 0.005995 -0.001062 314228.000000 1 0 0
2.365182 -4.322144 11.743788 12.735446 -1.070087 0.397235 -0.007482 0.003185 -1397860.000000 1 0 0
6.447382 -3.077844 9.457688 11.852836 -0.445388 0.646950 -0.004023 0.000671 212013.000000 1 0 0
-10.731418 -8.252344 5.558088 14.634099 0.655544 1.181212 0.009223 -0.000189 -1630090.000000 1 0 0
-2.939218 0.782656 -7.012812 7.644023 -0.260242 2.732355 0.010011 -0.005450 907080.000000 1 0 0
11.028082 2.465656 -5.201512 12.440007 0.219962 2.002180 0.003886 0.002397 -2766060.000000 1 0 0
-2.094618 -4.039144 0.013288 4.549977 1.092396 1.567876 0.003264 -0.001132 513456.000000 1 0 0
-1.202418 -6.484344 -10.622812 12.503466 1.387445 2.586003 0.001143 -0.000536 452507.000000 1 0 0
0.337882 6.897256 -6.584012 9.541253 1.521848 2.332365 0.003535 -0.001311 -3348990.000000 1 0 0
2.046382 3.758756 -6.231212 7.559360 1.072239 2.539768 0.000243 -0.001207 -1129990.000000 1 0 0
1.582682 -14.715344 6.486188 16.159111 -1.463655 1.157757 0.014246 -0.011184 119970.000000 1 0 0
-1.675518 5.443956 -10.568412 12.005638 -1.272221 2.647264 -0.000986 -0.000947 -120088.000000 1 0 0
13.669082 4.326856 -0.846612 14.362529 0.306564 1.629776 -0.000872 0.004137 -630674.000000 1 0 0
-2.425318 3.306256 -6.202812 7.435615 -0.937904 2.557482 0.004040 -0.004075 -2190340.000000 1 0 0
5.723682 7.763256 14.225188 17.186758 0.935487 0.595830 0.017539 -0.007002 248012.000000 1 0 0
15.892382 0.634056 -5.852412 16.947582 0.039876 1.923381 0.012327 -0.000515 144926.000000 1 0 0
6.147282 -8.355844 10.556288 14.800150 -0.936519 0.776664 -0.012229 0.006807 101100.000000 1 0 0
0.057982 -5.859344 -6.358512 8.646731 -1.560901 2.397003 0.001327 -0.002087 -993450.000000 1 0 0
8.636482 5.473056 -7.561112 12.716665 0.564841 2.207543 0.001816 -0.001897 -406202.000000 1 0 0
-16.072918 -0.811844 5.384688 16.970346 0.050467 1.247916 0.001680 -0.003481 -550122.000000 1 0 0
-0.284518 4.041456 -12.262912 12.914849 -1.500512 2.822500 -0.000235 -0.003317 492696.000000 1 0 0
-11.330718 3.711156 5.844388 13.278355 -0.316519 1.115037 0.001908 -0.004909 -1057120.000000 1 0 0
5.099582 -9.707744 -9.661512 14.614748 -1.087106 2.293053 -0.008606 0.006858 -76165.100000 1 0 0
1.535082 11.186056 -11.730612 16.281633 1.434416 2.375292 -0.001039 -0.001620 -1498010.000000 1 0 0
5.923582 2.387156 1.293588 6.516188 0.383083 1.370950 -0.001247 0.001777 -134934.000000 1 0 0
5.652782 4.527356 4.864088 8.724118 0.675294 0.979371 -0.003866 0.001427 -716407.000000 1 0 0
0.418582 -1.649344 -6.436712 6.657838 -1.322257 2.883142 0.001422 -0.004796 183384.000000 1 0 0
12.680382 6.809156 -4.503712 15.081117 0.492795 1.874056 -0.001115 -0.002251 -1011550.000000 1 0 0
7.421782 3.068056 12.738488 15.058715 0.391992 0.562506 0.010034 -0.004531 -65146.100000 1 0 0
-2.354518 -0.305644 8.712488 9.030206 0.129090 0.266053 -0.002576 -0.002926 359954.000000 1 0 0
2.136782 -15.183144 13.603988 20.497858 -1.430981 0.845071 0.015034 0.005224 -31741.100000 1 0 0
18.780782 4.512956 -1.758012 19.395235 0.235825 1.661562 -0.001474 0.005815 -331120.000000 1 0 0
-0.515718 -13.249544 7.293788 15.133266 1.531892 1.067894 0.002839 -0.006661 -1476220.000000 1 0 0
4.409982 1.646856 -0.619612 4.748051 0.357401 1.701668 -0.000631 0.000459 1314330.000000 1 0 0
2.782082 -0.472744 -7.447612 7.964320 -0.168317 2.779400 -0.004074 -0.002686 -188173.000000 1 0 0
7.184282 -11.284844 0.839588 13.403974 -1.003877 1.508118 0.005253 -0.003311 389460.000000 1 0 0
-11.821318 -7.270344 1.234188 13.932864 0.551390 1.482099 0.000113 -0.000348 -48827.300000 1 0 0
0.180582 -6.967844 10.072288 12.248855 -1.544886 0.605347 -0.005734 -0.000386 -1977980.000000 1 0 0
-4.620518 -7.116244 10.546388 13.535746 0.994919 0.677486 0.003650 -0.003243 -1442850.000000 1 0 0
11.868482 0.733856 -1.744712 12.018462 0.061754 1.716480 0.001948 0.001424 1220470.000000 1 0 0
6.494382 -9.705544 -7.482512 13.869483 -0.981082 2.140633 -0.006124 0.001335 -1153070.000000 1 0 0
-10.926518 4.921056 3.546088 12.497213 -0.423168 1.283093 -0.003351 -0.001709 265449.000000 1 0 0
5.909582 -9.162744 1.958288 11.077632 -0.997974 1.393084 0.000007 -0.003661 3967620.000000 1 0 0
11.608882 -1.408144 5.822888 13.063500 -0.120709 1.108799 0.007782 -0.005945 -100482.000000 1 0 0
-6.424418 3.731056 4.109088 8.489908 -0.526154 1.065580 -0.000750 -0.002277 -1633210.000000 1 0 0
9.549482 6.307456 -3.179512 11.877958 0.583723 1.841782 0.003505 0.001357 1307610.000000 1 0 0
-2.258818 6.516356 11.004388 12.986982 -1.237120 0.559840 0.001596 -0.002877 -72066.500000 1 0 0
1.797882 9.874356 2.867588 10.438311 1.390693 1.292500 -0.002762 0.005255 -196827.000000 1 0 0
2.873182 6.065556 -5.451412 8.646620 1.128419 2.252952 -0.000394 -0.000602 -1557820.000000 1 0 0
12.040882 -0.000244 -5.699112 13.321513 -0.000020 2.012868 0.011873 0.001343 758134.000000 1 0 0
-2.698318 -12.413044 6.307488 14.182701 1.356749 1.109922 -0.000284 -0.001106 -606673.000000 1 0 0
10.923182 1.763156 -2.807712 11.415247 0.160034 1.819308 0.000366 0.002116 295349.000000 1 0 0
-8.806418 5.446456 0.753088 10.381908 -0.553886 1.498194 -0.003125 -0.000980 172832.000000 1 0 0
1.173982 -10.129944 5.743188 11.703769 -1.455419 1.057889 -0.003661 0.000659 364926.000000 1 0 0
9.438582 -5.866244 -1.129112 11.170253 -0.556091 1.672051 0.005667 -0.004209 866382.000000 1 0 0
-7.697818 8.666156 -4.562312 12.456859 -0.844504 1.945771 -0.004833 -0.001019 -708251.000000 1 0 0
-7.410418 -0.056044 -1.714312 7.606333 0.007563 1.798129 0.004055 -0.000708 -1037520.000000 1 0 0
4.093282 8.927456 2.899488 10.240188 1.140892 1.283722 0.001513 0.002855 896609.000000 1 0 0
-1.479118 -10.483744 -3.724312 11.223510 1.430635 1.909041 0.003866 -0.000982 -59683.900000 1 0 0
3.164782 7.866856 -3.615512 9.218199 1.188315 1.973834 0.005462 -0.001810 -303422.000000 1 0 0
-4.309318 1.658256 -11.056612 11.982016 -0.367341 2.745997 0.004926 -0.002580 -393754.000000 1 0 0
1.265782 2.830856 11.011088 11.439406 1.150325 0.274512 0.002210 -0.002727 742407.000000 1 0 0
2.176282 5.629656 -7.960812 9.990183 1.201917 2.492882 0.000786 -0.002084 -538561.000000 1 0 0
15.582482 6.011156 4.028588 17.180723 0.368174 1.334110 0.010100 -0.002156 219821.000000 1 0 0
-4.446318 9.180056 4.617988 11.196829 -1.119751 1.145669 -0.002259 0.003579 -558775.000000 1 0 0
-0.782118 -8.239544 -12.299312 14.824806 1.476157 2.549266 -0.003879 0.000021 -700913.000000 1 0 0
14.305482 -4.203544 -5.332812 15.835261 -0.285797 1.914279 0.013386 -0.002074 -205903.000000 1 0 0
-6.015318 -6.206944 -5.642112 10.321998 0.801075 2.149107 0.007135 -0.005383 338125.000000 1 0 0
-8.889618 2.618656 -12.328512 15.423193 -0.286472 2.497007 0.006840 0.003246 -340121.000000 1 0 0
10.607882 5.281456 13.690788 18.106866 0.461950 0.713447 0.026518 -0.010142 511173.000000 1 0 0
-0.367118 10.974756 5.543188 12.300690 -1.537358 1.103314 -0.000047 0.007706 819581.000000 1 0 0
0.360682 11.271456 -0.644312 11.295616 1.538808 1.627868 0.004541 0.000086 67278.100000 1 0 0
-1.513218 -0.377744 3.812588 4.119265 0.244630 0.388309 0.001457 0.000391 340919.000000 1 0 0
-4.869618 6.755156 8.829988 12.137298 -0.946198 0.756113 0.001546 -0.001958 -972671.000000 1 0 0
3.486382 -8.811444 -11.500312 14.901463 -1.194032 2.452396 -0.011903 0.007358 135444.000000 1 0 0
6.636182 -3.890544 12.046088 14.292777 -0.530257 0.568314 -0.003591 0.002839 -733310.000000 1 0 0
-2.372118 -1.874444 -12.621612 12.978658 0.668736 2.906487 0.007220 -0.006468 947803.000000 1 0 0
-16.152618 -5.044644 5.281088 17.726968 0.302713 1.268291 0.009417 -0.005932 154677.000000 1 0 0
-8.924718 7.317756 5.682188 12.864191 -0.686783 1.113297 -0.006965 -0.002170 -4412150.000000 1 0 0
-12.962018 1.607056 6.070088 14.402865 -0.123352 1.135753 0.001866 -0.003750 506409.000000 1 0 0
-3.499818 3.634756 10.178188 11.360268 -0.804309 0.460240 0.001020 -0.001798 498640.000000 1 0 0
2.051882 -12.265744 -1.176912 12.491750 -1.405046 1.665151 0.000973 0.000676 -3010420.000000 1 0 0
10.189182 -5.102544 -3.693212 11.978948 -0.464272 1.884211 0.009673 -0.001238 641768.000000 1 0 0
3.047282 -13.466844 0.957188 13.840449 -1.348264 1.501582 0.004324 -0.002958 452737.000000 1 0 0
10.097882 -1.709744 -6.189412 11.966589 -0.167726 2.114401 0.011275 0.000729 331154.000000 1 0 0
11.883282 -5.442344 -1.565712 13.163698 -0.429473 1.690020 0.010627 -0.003580 -1605520.000000 1 0 0
1.309382 0.892356 5.928288 6.136398 0.598208 0.261180 0.000347 -0.001530 -178718.000000 1 0 0
-10.837118 11.810256 6.611088 17.338736 -0.828341 1.179605 -0.003325 -0.001855 -1353170.000000 1 0 0
4.737082 -13.986644 2.969788 15.062729 -1.244236 1.372335 0.006310 -0.006678 -3338940.000000 1 0 0
5.224882 -3.512644 -1.729312 6.529057 -0.591887 1.838859 0.002984 -0.001015 -1274280.000000 1 0 0
2.139682 -2.857444 -7.849912 8.623476 -0.928058 2.714794 -0.005722 -0.003153 -148738.000000 1 0 0
-2.815818 14.842956 -8.838712 17.503285 -1.383317 2.100149 0.007926 -0.002147 -1502980.000000 1 0 0
-2.262218 6.085456 -8.085612 10.369548 -1.214885 2.465056 0.002347 -0.004389 -80850.000000 1 0 0
2.598282 -3.552944 -11.382612 12.204030 -0.939369 2.772605 -0.009735 0.001945 -1949290.000000 1 0 0
14.619282 2.787856 -2.827312 15.148902 0.188435 1.758532 0.007663 0.004696 907293.000000 1 0 0
-3.505418 13.367656 2.237488 13.999590 -1.314339 1.410283 -0.008296 0.004199 -151001.000000 1 0 0
7.832582 -5.126244 14.023088 16.860448 -0.579516 0.588607 -0.003137 0.001791 -2065260.000000 1 0 0
-11.415518 7.266856 2.883388 13.836010 -0.566881 1.360860 -0.008816 0.001567 1011910.000000 1 0 0
-2.297818 11.978356 4.063388 12.855819 -1.381268 1.249208 -0.002741 0.007229 182291.000000 1 0 0
1.794382 1.482656 0.716188 2.435364 0.690559 1.272305 -0.002998 0.001906 -1150660.000000 1 0 0
-6.870518 8.608856 5.284388 12.216430 -0.897230 1.123462 -0.006195 0.001359 -631454.000000 1 0 0
-1.153418 9.238156 1.073688 9.371590 -1.446585 1.455976 0.000599 0.005439 393130.000000 1 0 0
4.892182 12.846156 -8.409212 16.114341 1.206926 2.119810 0.007734 -0.015422 -1527690.000000 1 0 0
8.977682 6.865456 7.154188 13.375936 0.652859 1.006460 0.000657 -0.000280 -1558710.000000 1 0 0
7.152482 -13.771544 2.780788 15.765348 -1.091776 1.393483 0.013001 -0.005988 -54303.800000 1 0 0
4.153982 -13.369344 -1.410712 14.070716 -1.269544 1.671224 0.000337 0.000702 -3107290.000000 1 0 0
12.092782 -11.756244 -4.606212 17.483187 -0.771288 1.837409 0.018136 0.000297 -715682.000000 1 0 0
3.045782 -0.019144 -1.962212 3.623179 -0.006285 2.143102 0.000634 0.000032 835753.000000 1 0 0
-13.523118 -3.297644 -10.666712 17.536474 0.239184 2.224661 0.000576 -0.001883 -425735.000000 1 0 0
-6.632918 13.716256 5.077488 16.059644 -1.120370 1.249113 -0.004787 0.001250 343787.000000 1 0 0
7.279282 -4.470244 -0.776212 8.577502 -0.550726 1.661414 0.002076 -0.001245 -2495850.000000 1 0 0
11.747782 2.077056 -7.339512 14.006890 0.174996 2.122329 0.010523 -0.000022 800573.000000 1 0 0
-7.504718 -4.518844 9.681388 13.056417 0.541987 0.735487 0.008615 -0.004060 310811.000000 1 0 0
1.002182 2.693956 8.473388 8.947629 1.214649 0.327038 0.000260 -0.002072 -812439.000000 1 0 0
1.582382 8.130656 -8.696812 12.010247 1.378580 2.380548 0.002933 -0.003678 -353807.000000 1 0 0
-8.647018 -2.108044 -5.550712 10.489289 0.239124 2.128429 0.006929 -0.002947 -370501.000000 1 0 0
6.714682 -0.459244 7.067388 9.759397 -0.068288 0.760977 -0.000421 -0.000604 691336.000000 1 0 0
-10.859618 6.484356 7.076888 14.493465 -0.538290 1.060677 -0.000579 -0.004850 452924.000000 1 0 0
-5.975718 11.122756 5.074188 13.607802 -1.077793 1.188677 -0.009765 0.004383 222499.000000 1 0 0
5.977882 -1.184344 -6.864712 9.179434 -0.195588 2.415593 -0.000124 -0.000362 -1327090.000000 1 0 0
4.497982 -5.893144 11.448288 13.639072 -0.918865 0.574665 -0.008756 0.005624 -933729.000000 1 0 0
-8.972818 -7.186044 2.769888 11.824677 0.675270 1.334353 0.004474 -0.003520 -3086100.000000 1 0 0
-1.264918 12.765356 -9.420912 15.915650 -1.472029 2.204245 0.010019 0.000930 593294.000000 1 0 0
-4.610518 9.300756 -2.321312 10.637172 -1.110583 1.790793 -0.004261 0.001433 145815.000000 1 0 0
-3.360018 9.737556 -0.243612 10.303837 -1.238531 1.594441 -0.000891 0.001791 -1525000.000000 1 0 0
-3.398918 10.756756 -6.385812 12.962987 -1.264744 2.085893 0.000479 0.001670 484080.000000 1 0 0
4.941982 -4.974244 0.351188 7.020657 -0.788652 1.520753 0.000338 -0.000977 -1378910.000000 1 0 0
-2.215118 2.989756 -10.852812 11.472965 -0.933143 2.811297 0.004113 -0.003867 -1784670.000000 1 0 0
-3.584918 12.120556 -2.260112 12.840078 -1.283223 1.747738 -0.003350 0.002850 285435.000000 1 0 0
-0.187318 0.304756 0.015188 0.358043 -1.019674 1.528364 -0.000638 0.000855 -1608640.000000 1 0 0
-4.843318 -1.817244 0.146488 5.175091 0.358952 1.542486 0.001549 -0.000839 329813.000000 1 0 0
2.678582 2.545556 -2.592512 4.513953 0.759940 2.182585 -0.007886 0.001982 1289510.000000 1 0 0
5.945482 -9.844744 8.450688 14.271716 -1.027496 0.937099 -0.006058 0.003818 -621192.000000 1 0 0
-4.108918 -5.413144 6.565388 9.449321 0.921520 0.802655 0.007508 -0.004466 114232.000000 1 0 0
-6.204018 5.307256 -12.060812 14.564340 -0.707652 2.546516 0.000276 -0.002011 78184.800000 1 0 0
-12.824018 3.135856 8.052988 15.464141 -0.239824 1.023064 0.000510 -0.005147 489218.000000 1 0 0
4.656382 -7.510544 -4.842112 10.076518 -1.015816 2.072060 -0.004272 -0.000816 -296874.000000 1 0 0
-6.072018 2.493656 -0.993412 6.638870 -0.389679 1.720996 0.003202 -0.000473 -522864.000000 1 0 0
-6.766318 -2.853444 -14.697812 16.430182 0.399083 2.678246 0.010228 0.001313 -793861.000000 1 0 0
2.734182 -6.190444 0.856288 6.821333 -1.154885 1.444933 0.001262 0.001020 -392549.000000 1 0 0
4.837882 -7.973944 13.017188 16.013622 -1.025457 0.621713 -0.010888 0.006398 55603.400000 1 0 0
-10.054018 -1.591544 7.929688 12.903343 0.156997 0.908987 0.006469 -0.001650 -248663.000000 1 0 0
-4.492518 13.276256 -0.032712 14.015804 -1.244504 1.573130 -0.005863 0.004436 657784.000000 1 0 0
6.909582 2.312456 -4.481712 8.554269 0.322956 2.122237 -0.000168 0.002152 -1809110.000000 1 0 0
5.129682 4.452656 -0.020912 6.792659 0.714862 1.573875 -0.001948 -0.000051 -993389.000000 1 0 0
-5.876418 12.385056 1.937288 13.844673 -1.127775 1.430405 -0.008513 0.004953 397040.000000 1 0 0
6.510182 -7.312044 6.572988 11.792058 -0.843346 0.979536 -0.003373 0.000033 -2243240.000000 1 0 0
-0.317218 4.961656 7.809688 9.257963 -1.506949 0.566910 -0.002416 -0.000643 -1004470.000000 1 0 0
-5.837418 -3.435944 -1.585712 6.956698 0.532000 1.800758 0.005496 -0.004174 -723115.000000 1 0 0
2.319082 -6.442944 -5.209512 8.603993 -1.225293 2.221160 -0.000516 0.000803 -735945.000000 1 0 0
-14.494418 -4.935244 -3.717312 15.756370 0.328180 1.808966 0.004876 -0.000508 46142.900000 1 0 0
-12.341118 -5.100744 -6.349912 14.786554 0.391930 2.014667 0.006203 -0.004480 -1539410.000000 1 0 0
-14.772318 -3.836644 -1.278912 15.315902 0.254104 1.654396 0.003106 -0.002518 310679.000000 1 0 0
11.808282 2.829156 8.752988 14.968448 0.235158 0.946209 0.008925 -0.005886 -1105920.000000 1 0 0
8.712682 -6.504144 7.670288 13.305940 -0.641267 0.956412 0.000591 -0.003909 -190330.000000 1 0 0
-8.823518 -1.621044 -9.787312 13.276812 0.181692 2.399674 0.003001 -0.001901 170780.000000 1 0 0
-8.768018 5.170356 -3.924112 10.909142 -0.532799 1.938752 0.002153 -0.001803 -1225430.000000 1 0 0
-4.100818 -6.183544 4.038388 8.447574 0.985210 1.072360 0.005282 -0.002327 -1445500.000000 1 0 0
-0.170818 -9.319244 3.607188 9.994464 1.552469 1.201544 0.000137 -0.000078 550243.000000 1 0 0
7.832382 -10.481544 3.331688 13.502190 -0.929055 1.321469 0.003111 -0.005728 -397841.000000 1 0 0
-0.028718 6.467856 9.691588 11.651646 -1.566356 0.588493 -0.002285 -0.001283 602337.000000 1 0 0
-0.036918 3.472056 -9.693812 10.296918 -1.560164 2.797638 0.003864 -0.004211 -1065720.000000 1 0 0
4.465982 -3.162044 11.049388 12.330146 -0.616094 0.459830 -0.004723 0.002603 -2854390.000000 1 0 0
8.518382 -9.116644 1.272288 12.541720 -0.819310 1.469177 0.003775 -0.003642 -488620.000000 1 0 0
-0.271218 -0.356244 11.303088 11.311952 0.920086 0.039591 0.003490 -0.001312 -2157480.000000 1 0 0
10.961882 5.931556 11.311388 16.831331 0.495990 0.833831 0.023313 -0.008357 160292.000000 1 0 0
-6.382018 -2.973544 -11.963412 13.881475 0.436018 2.609655 0.009132 -0.003090 30210.500000 1 0 0
-1.631518 2.755456 8.406288 8.995558 -1.036202 0.363964 0.003155 -0.001580 324324.000000 1 0 0
-1.781518 13.505856 -6.900312 15.270764 -1.439646 2.039650 0.004264 -0.000165 377687.000000 1 0 0
7.736982 3.025656 9.715088 12.782739 0.372779 0.707458 0.004807 -0.001824 484324.000000 1 0 0
6.572182 8.603756 -8.013012 13.469467 0.918475 2.207940 0.003412 -0.007085 368345.000000 1 0 0
6.647882 -2.979244 -3.953812 8.288719 -0.421314 2.068047 0.002850 -0.000823 -1769850.000000 1 0 0
2.007182 8.150256 1.063888 8.460928 1.329329 1.444721 0.000126 0.003501 953588.000000 1 0 0
-17.618918 6.440656 6.402988 19.821871 -0.350463 1.241871 0.019175 -0.000822 -157442.000000 1 0 0
-14.491118 3.059656 -10.234212 18.002586 -0.208084 2.175460 0.003242 0.001085 381588.000000 1 0 0
-18.205918 0.099556 -4.349012 18.718421 -0.005468 1.805278 0.000027 -0.000690 -53790.000000 1 0 0
-12.949218 8.030556 0.139388 15.237831 -0.555110 1.561649 0.002280 0.002335 -641222.000000 1 0 0
-12.571818 -4.449244 -12.825812 18.502644 0.340150 2.336699 0.003250 0.011163 -1059760.000000 1 0 0
-17.351218 -0.843844 -8.778812 19.463925 0.048595 2.038715 -0.000760 -0.003519 72393.000000 1 0 0
-16.699518 -2.201044 -2.115112 16.976225 0.131048 1.695714 0.008913 -0.005604 -609791.000000 1 0 0
-15.335418 4.093256 1.746888 15.968137 -0.260834 1.461179 0.006054 0.000067 -598252.000000 1 0 0
-13.201118 5.951156 4.400788 15.134487 -0.423525 1.275756 -0.000113 -0.002268 -459690.000000 1 0 0
-9.939218 14.177756 2.771288 17.535018 -0.959371 1.412088 0.007179 -0.002176 -251835.000000 1 0 0
-11.893618 2.465056 -6.442212 13.749064 -0.204365 2.058452 0.001582 0.003068 826287.000000 1 0 0
-15.736318 10.610056 3.681288 19.332793 -0.593227 1.379210 0.011920 -0.003294 303272.000000 1 0 0
-12.781818 1.028656 -8.575912 15.426577 -0.080305 2.160263 -0.001909 -0.000895 546421.000000 1 0 0
-12.224818 14.460056 3.975888 19.348051 -0.868967 1.363829 0.016259 -0.007880 230907.000000 1 0 0
-10.381918 11.237956 -1.051612 15.335637 -0.824972 1.639423 0.000121 -0.001850 869985.000000 1 0 0
-17.075918 5.508356 8.790288 19.979943 -0.312042 1.115247 0.014129 -0.005155 203280.000000 1 0 0
-11.702318 12.601756 -9.251212 19.527760 -0.822389 2.064337 0.003600 -0.008006 -1534250.000000 1 0 0
-17.141718 -0.517144 3.000388 17.410005 0.030160 1.397595 0.001761 -0.002373 972343.000000 1 0 0
-12.947318 15.068856 -1.070412 19.895960 -0.860979 1.624623 0.028281 -0.009438 188270.000000 1 0 0
-16.691518 4.461756 -10.307712 20.118722 -0.261200 2.108709 0.032259 0.003497 -231507.000000 1 0 0
-11.811718 7.691856 -8.915012 16.678092 -0.577222 2.134753 0.000957 0.001624 -205712.000000 1 0 0
-14.781818 13.497656 -2.084512 20.125458 -0.740020 1.674558 0.046787 -0.021321 69397.600000 1 0 0
-11.833918 10.684956 -5.307112 16.804027 -0.734420 1.892121 0.007609 -0.007253 2382710.000000 1 0 0
-17.699918 2.880356 -0.675912 17.945484 -0.161319 1.608470 0.012536 -0.000767 -97136.700000 1 0 0
-9.142218 15.294156 0.597788 17.828312 -1.032026 1.537260 0.003980 -0.010694 64024.700000 1 0 0
-8.085118 13.172656 -3.812512 15.919273 -1.020306 1.812637 -0.004546 -0.004557 -112000.000000 1 0 0
-17.854718 11.420856 2.206588 21.309527 -0.569068 1.467061 0.060996 -0.002286 239405.000000 1 0 0
-8.029418 15.726256 -7.413112 19.150480 -1.098725 1.968278 0.022792 -0.019624 -110398.000000 1 0 0
-6.290718 15.480656 -5.413912 17.565144 -1.184819 1.884117 0.004391 -0.002474 -261371.000000 1 0 0
-17.414118 5.417156 -0.292712 18.239593 -0.301589 1.586845 0.024433 0.004426 810015.000000 1 0 0
-5.490318 12.333856 -12.281612 18.251180 -1.151990 2.308948 -0.009614 0.002094 346129.000000 1 0 0
-11.118318 3.731956 -11.429412 16.376079 -0.323842 2.343304 0.007414 -0.000755 346024.000000 1 0 0
-11.762718 11.124356 1.119188 16.228537 -0.757514 1.501777 0.004021 -0.002996 16073.700000 1 0 0
-12.946718 0.084656 -11.028712 17.007562 -0.006539 2.276355 0.004217 -0.002187 168854.000000 1 0 0
-14.034818 -2.245844 -13.036312 19.286404 0.158674 2.313026 0.004007 0.003121 58760.700000 1 0 0
-18.825618 -2.379744 -3.702112 19.333202 0.125743 1.763476 0.010742 0.002087 2425570.000000 1 0 0
-18.171518 4.771056 -5.238812 19.504158 -0.256761 1.842735 0.017394 0.000137 17655.400000 1 0 0
-8.163618 15.334956 -2.328812 17.527946 -1.081602 1.704053 0.006934 -0.013126 -125938.000000 1 0 0
-16.214618 8.829456 -5.479612 19.258745 -0.498639 1.859308 0.034865 -0.002486 652552.000000 1 0 0
-18.312618 1.641256 2.066688 18.501808 -0.089385 1.458861 0.017767 -0.003588 790061.000000 1 0 0
-15.641718 -2.797344 -8.674112 18.103279 0.176968 2.070478 -0.003480 -0.003268 -838172.000000 1 0 0
-9.709818 10.486456 -7.184912 15.995914 -0.823834 2.036634 -0.003619 -0.006377 389488.000000 1 0 0
-13.826618 12.060056 -7.748512 19.916319 -0.717262 1.970400 0.016843 -0.013450 50249.200000 1 0 0
-10.966218 6.537856 -3.828112 13.328764 -0.537607 1.862106 -0.003241 0.001777 -2003930.000000 1 0 0
-13.070018 5.012156 -12.669512 18.880244 -0.366189 2.306415 0.014182 0.001065 996200.000000 1 0 0
-17.619718 9.039056 2.666888 19.981774 -0.474000 1.436931 0.037099 -0.006335 934497.000000 1 0 0
-13.243718 8.746356 -6.587212 17.183893 -0.583662 1.964202 0.002905 0.001400 -981260.000000 1 0 0
-15.696318 7.024456 -3.781212 17.607241 -0.420792 1.787235 0.010490 0.006978 -794456.000000 1 0 0
-14.914218 -0.418944 -9.370912 17.618837 0.028083 2.131602 0.003347 -0.004216 -324343.000000 1 0 0
-9.854318 5.845556 -6.109512 12.984770 -0.535403 2.060669 0.000413 0.000830 378400.000000 1 0 0
-12.795618 12.356556 -0.884812 17.809975 -0.767944 1.620497 0.024333 -0.009108 -931076.000000 1 0 0
-10.700018 3.501456 -14.002112 17.966906 -0.316255 2.464389 0.011600 0.006793 253440.000000 1 0 0
-10.812318 6.248956 -11.876912 17.234173 -0.524047 2.331110 -0.003414 -0.002600 -1020460.000000 1 0 0
-5.699718 11.493556 -14.804612 19.589925 -1.110430 2.427558 -0.004488 -0.014129 8768.480000 1 0 0
-15.601418 13.242056 3.235188 20.717691 -0.703781 1.413999 0.026553 -0.010271 129685.000000 1 0 0
-14.879118 11.088456 -3.303012 18.848127 -0.640445 1.746949 0.031060 -0.003550 847082.000000 1 0 0
-18.263418 7.699256 -4.258912 20.272378 -0.398959 1.782458 0.042631 0.000016 77298.600000 1 0 0
-4.089218 16.288056 -10.518812 19.815849 -1.324824 2.130374 0.016421 -0.000871 223386.000000 1 0 0
-15.684718 4.402956 -4.427912 16.882026 -0.273673 1.836186 0.006708 0.004979 -195973.000000 1 0 0
-18.784618 -1.789844 -6.218212 19.867853 0.094996 1.889124 0.011265 0.000504 424338.000000 1 0 0
-10.759318 8.664456 -5.758512 14.966502 -0.677963 1.965744 -0.000543 -0.000636 -204352.000000 1 0 0
-11.230718 13.883056 -6.958012 19.164608 -0.890621 1.942352 0.001861 0.001643 312010.000000 1 0 0
-9.395818 10.561656 -4.438612 14.816587 -0.843748 1.875039 -0.008130 0.000442 -459309.000000 1 0 0
-11.041318 6.366356 -0.124912 12.745854 -0.523031 1.580597 -0.004532 0.004896 259414.000000 1 0 0
-14.542918 9.308756 -1.511912 17.333069 -0.569376 1.658134 0.024599 -0.001270 324569.000000 1 0 0
-18.822518 3.316956 4.642788 19.668372 -0.174432 1.332494 0.019008 -0.001635 437897.000000 1 0 0
-14.485918 13.653256 0.558288 19.913937 -0.755816 1.542758 0.020098 0.001030 99517.700000 1 0 0
-16.712918 2.392056 -8.850212 19.062262 -0.142161 2.053617 0.006814 -0.002116 781599.000000 1 0 0
-9.070218 8.341156 -8.891012 15.195191 -0.743550 2.195824 -0.000876 -0.001788 -2581190.000000 1 0 0
-17.593318 4.577156 -2.684612 18.376135 -0.254522 1.717413 0.009052 0.003087 822804.000000 1 0 0
-13.467818 5.917056 -4.441712 15.366277 -0.413960 1.864037 0.003807 0.008087 -1917290.000000 1 0 0
-11.981318 9.685056 3.175188 15.730038 -0.679810 1.367545 -0.008222 0.001662 723097.000000 1 0 0
-17.477218 2.499556 -4.088612 18.122298 -0.142055 1.798368 0.003731 0.000373 934626.000000 1 0 0
-11.235218 1.411956 -12.614412 16.951317 -0.125017 2.410066 0.004462 0.004516 334561.000000 1 0 0
-11.102818 12.088156 3.530688 16.788741 -0.827861 1.358914 0.000692 -0.000836 -118980.000000 1 0 0
-16.156018 13.144556 -4.256012 21.258173 -0.682980 1.772364 0.037855 -0.009921 -433740.000000 1 0 0
-11.043518 4.109656 -4.528912 12.623772 -0.356255 1.937736 -0.001924 0.001480 108846.000000 1 0 0
-10.859618 15.069556 -9.227212 20.740401 -0.946357 2.031849 0.001809 -0.009665 159207.000000 1 0 0
-15.439818 7.113656 -0.333812 17.003044 -0.431745 1.590430 0.018905 0.004572 -951009.000000 1 0 0
-12.794818 8.439856 -4.079412 15.861278 -0.583116 1.830913 0.002773 0.002078 650546.000000 1 0 0
-19.204218 1.785156 -6.016212 20.203554 -0.092690 1.873163 0.015106 -0.003739 -112090.000000 1 0 0
-12.341618 10.253356 -8.906412 18.351322 -0.693238 2.077535 0.000653 -0.006133 198483.000000 1 0 0
-16.509518 11.068856 -1.227712 19.914593 -0.590619 1.632484 0.026543 -0.003652 446047.000000 1 0 0
-10.725418 6.607156 -14.517112 19.220709 -0.552121 2.426885 0.018092 -0.003524 -89084.000000 1 0 0
-13.581818 13.102156 -4.329712 19.361784 -0.767424 1.796325 0.025865 -0.009559 -364102.000000 1 0 0
-17.829518 7.942356 -0.347012 19.521607 -0.419073 1.588573 0.026794 0.002211 -364879.000000 1 0 0
-12.670318 6.685956 -2.128012 14.483349 -0.485551 1.718258 -0.001138 0.005806 436355.000000 1 0 0
-13.770818 8.593956 -10.475812 19.319269 -0.557930 2.143905 0.007225 -0.001769 -296449.000000 1 0 0
-15.034318 1.414956 -1.010312 15.134515 -0.093839 1.637601 0.007314 -0.000001 -480776.000000 1 0 0
-13.334218 2.784256 -2.396312 13.830971 -0.205848 1.744932 -0.001537 0.002669 206306.000000 1 0 0
-11.223318 9.196356 -10.928512 18.165027 -0.686457 2.216329 -0.000282 -0.007634 -67287.200000 1 0 0
-15.216418 4.290356 -8.028712 17.731519 -0.274821 2.040692 0.003349 0.003913 620248.000000 1 0 0
-18.186518 10.557156 4.717588 21.551302 -0.525953 1.350109 0.043976 -0.008322 684352.000000 1 0 0
-15.214118 6.130956 -6.209112 17.538845 -0.383071 1.932663 0.009591 0.009882 657728.000000 1 0 0
-7.693218 11.138256 -13.123912 18.854268 -0.966338 2.340707 -0.010331 -0.005788 77984.000000 1 0 0
-16.773518 9.283556 -2.963612 19.398926 -0.505500 1.724169 0.033916 -0.000376 922685.000000 1 0 0
-20.655318 -0.971244 -4.721812 21.210398 0.046987 1.795295 0.011579 -0.002024 870728.000000 1 0 0
-15.401018 4.423956 4.163488 16.555886 -0.279720 1.316586 0.007102 -0.001165 45722.600000 1 0 0
-6.910318 12.398056 -9.270412 16.953018 -1.062312 2.149369 0.000369 -0.009982 -1295720.000000 1 0 0
-17.235218 1.558856 5.703188 18.221118 -0.090201 1.252447 0.004584 -0.003963 85024.700000 1 0 0
-10.335618 14.216156 -3.092712 17.846259 -0.942157 1.744973 0.015172 -0.016513 -102291.000000 1 0 0
-9.909218 8.439256 -12.962912 18.369832 -0.705455 2.354155 -0.005101 -0.006339 390948.000000 1 0 0
-13.658618 11.717456 2.704388 18.198086 -0.709051 1.421635 0.010054 -0.004160 101015.000000 1 0 0
-16.818118 6.710956 1.874488 18.204388 -0.379671 1.467644 0.018538 0.003087 524787.000000 1 0 0
-9.308018 13.163756 -8.459512 18.206785 -0.955325 2.054019 0.002734 -0.015395 -931779.000000 1 0 0
-5.508518 9.733456 -12.961612 17.119793 -1.055800 2.429678 -0.001711 -0.002263 -519733.000000 1 0 0
-15.874018 1.787356 3.156488 16.283197 -0.112124 1.375712 0.000507 0.002298 -209316.000000 1 0 0
-18.596218 -4.981744 4.475088 19.765210 0.261744 1.342404 0.014964 -0.003252 -1265550.000000 1 0 0
-5.355918 14.425456 -9.158912 17.907130 -1.215289 2.107688 0.007277 -0.002999 413012.000000 1 0 0
-15.437718 -0.877744 -6.855112 16.914081 0.056796 1.988093 0.001777 -0.001636 728433.000000 1 0 0
-8.964618 10.838156 -9.542212 16.996582 -0.879727 2.166896 -0.010658 -0.008359 516053.000000 1 0 0
-16.755318 1.174656 -6.204312 17.905697 -0.069992 1.924633 -0.004006 -0.002122 -1642600.000000 1 0 0
-11.095818 8.732256 -1.457812 14.194882 -0.666755 1.673678 -0.001068 -0.000550 -744991.000000 1 0 0
-10.706318 10.974356 -12.899412 20.036381 -0.797760 2.270250 0.002947 -0.002677 -166810.000000 1 0 0
-13.877618 11.752956 -10.369412 20.934301 -0.702692 2.089012 0.013540 -0.007937 51974.700000 1 0 0
-13.103618 5.774256 -7.700712 16.258776 -0.415061 2.064209 0.005139 0.007468 -2359980.000000 1 0 0
-8.837018 15.396356 -4.895612 18.414876 -1.049738 1.839883 0.009528 -0.015327 -267107.000000 1 0 0
-8.637918 6.097256 -12.976812 16.738811 -0.614655 2.457912 0.005771 -0.002006 -31711.500000 1 0 0
-16.418118 7.532756 4.290388 18.566218 -0.430154 1.337603 0.022747 0.003151 -508643.000000 1 0 0
-12.627918 5.534356 -10.207612 17.154846 -0.413051 2.208097 0.003522 0.002373 496674.000000 1 0 0
-12.508818 9.070956 -13.129312 20.276380 -0.627416 2.275119 0.021988 -0.011054 -166538.000000 1 0 0
-10.759718 5.309956 -8.495912 14.701962 -0.458437 2.186920 -0.001214 0.002668 -1118190.000000 1 0 0
-17.790118 -4.468844 -2.727812 18.544537 0.246106 1.718427 0.013375 -0.002982 618016.000000 1 0 0
-8.776318 12.901556 -11.053812 19.122256 -0.973447 2.187146 0.000695 -0.012485 72922.200000 1 0 0
-15.057118 6.188256 6.093388 17.382195 -0.389941 1.212634 0.005141 -0.003370 -663811.000000 1 0 0
-16.350718 -3.188444 -4.480912 17.250818 0.192586 1.833560 0.002546 -0.001874 -622788.000000 1 0 0
-11.117518 -1.225344 -12.497212 16.771434 0.109774 2.411554 -0.004351 0.004155 159231.000000 1 0 0
-15.248118 6.842456 -8.629412 18.809334 -0.421806 2.047422 0.003848 0.009053 -77704.300000 1 0 0
-14.953318 9.304656 1.042188 17.642690 -0.556617 1.511690 0.022720 -0.003994 -443930.000000 1 0 0
-19.439618 5.359856 7.800688 21.621229 -0.269034 1.201683 0.026525 -0.009437 -364320.000000 1 0 0
-16.348918 0.499756 0.828388 16.377518 -0.030559 1.520194 0.005863 -0.000959 -560374.000000 1 0 0
-17.432318 3.804156 6.852788 19.113294 -0.214856 1.204098 0.001779 -0.002784 420960.000000 1 0 0
-15.402318 4.108356 -1.372612 15.999814 -0.260667 1.656691 0.007406 0.004283 -356077.000000 1 0 0
-10.755918 13.385956 0.419088 17.176997 -0.893911 1.546396 0.009148 -0.008588 -1558150.000000 1 0 0
-13.436318 3.274756 0.097388 13.829973 -0.239063 1.563754 0.003427 0.001237 -635770.000000 1 0 0
-15.169018 0.159656 -4.267912 15.758797 -0.010525 1.845049 0.004133 -0.003536 -204199.000000 1 0 0
-18.744318 6.891756 3.600588 20.293102 -0.352330 1.392423 0.029427 -0.000809 -701973.000000 1 0 0
-14.199718 1.280156 -6.342812 15.604553 -0.089911 1.989386 0.002219 -0.000162 -1100430.000000 1 0 0
-14.178918 12.187356 5.179088 19.400936 -0.710007 1.300569 0.009872 -0.005316 362803.000000 1 0 0
17.698082 5.496456 6.127388 19.518658 0.301124 1.251472 0.032415 -0.007381 -252097.000000 1 0 0
18.590482 7.489756 -0.203812 20.043552 0.382988 1.580965 0.011889 0.007528 163445.000000 1 0 0
16.670282 5.239456 8.546988 19.452537 0.304523 1.115892 0.044955 -0.002516 415434.000000 1 0 0
11.800182 12.271156 11.041488 20.291378 0.804961 0.995424 0.034292 -0.007920 452803.000000 1 0 0
-2.330518 16.317856 -0.609012 16.494685 -1.428936 1.607726 -0.002455 -0.003722 -138386.000000 1 0 0
14.981882 12.695656 3.241888 19.903424 0.702983 1.407186 0.018944 -0.004241 100050.000000 1 0 0
13.386982 11.686256 6.704388 18.992858 0.717672 1.210026 0.026278 -0.004948 784692.000000 1 0 0
-0.696318 15.957356 8.634488 18.156994 -1.527188 1.075212 -0.003740 0.003949 107589.000000 1 0 0
0.730482 12.947056 9.348888 15.986293 1.514435 0.946155 -0.005222 0.001712 -1148560.000000 1 0 0
0.751982 15.452356 -3.850912 15.942719 1.522170 1.814756 0.003812 -0.006749 76386.500000 1 0 0
5.502382 10.177556 13.689688 17.923906 1.075169 0.701667 0.014999 -0.008335 -197911.000000 1 0 0
-1.337518 16.459956 -2.832012 16.755279 -1.489716 1.740634 0.004200 -0.007338 -1262020.000000 1 0 0
8.425182 10.089156 3.331888 13.560097 0.875032 1.322541 0.004521 0.002492 342388.000000 1 0 0
12.721482 13.548456 -4.769212 19.187030 0.816868 1.821994 0.031922 -0.015430 -38037.500000 1 0 0
2.567082 11.588756 7.890588 14.253089 1.352802 0.984109 0.000948 0.005730 548175.000000 1 0 0
-0.286518 14.962956 -8.587012 17.254243 -1.551650 2.091713 0.009384 -0.002882 -791474.000000 1 0 0
2.538082 16.023856 0.200088 16.224853 1.413707 1.558464 0.009263 -0.004711 -131993.000000 1 0 0
1.845582 13.334556 5.411788 14.508756 1.433264 1.188554 0.000334 0.006061 834467.000000 1 0 0
17.419082 9.259356 -1.784812 19.807716 0.488579 1.661026 -0.013911 0.004488 119651.000000 1 0 0
-7.167418 15.059556 7.378888 18.237601 -1.126583 1.154258 -0.001805 -0.002780 -648312.000000 1 0 0
8.551982 15.903256 -0.115212 18.057220 1.077406 1.577177 0.008202 -0.004898 -745221.000000 1 0 0
15.666582 10.422556 2.162588 18.940650 0.587037 1.456370 0.011241 -0.000089 -534951.000000 1 0 0
14.125682 7.381356 8.715988 18.165565 0.481523 1.070360 0.026484 -0.009414 -1353840.000000 1 0 0
4.199182 18.572956 -1.906912 19.136983 1.348444 1.670607 0.010272 -0.011918 107262.000000 1 0 0
-0.339418 17.632456 -4.820012 18.282538 -1.551549 1.837590 0.012561 -0.006207 302438.000000 1 0 0
1.405782 13.764356 -0.684512 13.852879 1.469017 1.620229 0.006233 -0.003963 231284.000000 1 0 0
10.288182 14.723356 4.215888 18.449867 0.960899 1.340254 0.013222 -0.006381 -358801.000000 1 0 0
-1.604218 15.426456 -5.146412 16.341193 -1.467177 1.891184 0.009102 -0.003762 -122250.000000 1 0 0
15.194982 8.933556 -6.349212 18.735218 0.531496 1.916535 0.023423 -0.000064 90563.600000 1 0 0
-2.292518 18.524656 0.853488 18.685474 -1.447667 1.525104 -0.004799 -0.006378 -985335.000000 1 0 0
-3.790818 19.299156 3.443988 19.967192 -1.376842 1.397447 0.003193 -0.010603 -499534.000000 1 0 0
1.826182 17.626856 -2.640612 17.916858 1.467562 1.718717 -0.000190 -0.009079 -233131.000000 1 0 0
2.917682 12.170056 3.354888 12.956789 1.335495 1.308883 0.001678 0.003992 401297.000000 1 0 0
-2.510518 16.174156 1.901088 16.477868 -1.416807 1.455167 -0.005805 -0.004788 -1616480.000000 1 0 0
11.782682 12.687356 -2.510612 17.495821 0.822352 1.714791 0.001456 -0.004169 167284.000000 1 0 0
7.077582 11.697956 4.785188 14.485591 1.026689 1.234131 -0.000256 0.001748 97882.400000 1 0 0
7.113382 15.661656 1.940188 17.310459 1.144463 1.458478 0.002775 -0.005467 -748435.000000 1 0 0
5.487782 12.145056 10.422388 16.918756 1.146402 0.907109 0.001243 0.004844 -200823.000000 1 0 0
-1.289918 14.224156 3.095388 14.614100 -1.480359 1.357371 -0.003307 0.003790 -1057320.000000 1 0 0
4.665882 16.129856 1.581588 16.865471 1.289212 1.476882 0.006197 -0.009964 -3093710.000000 1 0 0
7.437482 13.239956 11.969388 19.335946 1.058980 0.903299 0.013654 -0.000499 421951.000000 1 0 0
0.649382 17.226856 -9.476112 19.671882 1.533118 2.073400 0.014121 -0.002928 625190.000000 1 0 0
9.945282 9.464256 15.299388 20.556071 0.760620 0.731346 0.037698 -0.018183 -353550.000000 1 0 0
13.512282 7.424856 -0.123212 15.418347 0.502451 1.578788 -0.006166 0.002398 990196.000000 1 0 0
12.413982 13.596556 -0.083912 18.411418 0.830832 1.575354 0.011070 -0.004877 230720.000000 1 0 0
9.302482 12.406056 3.439988 15.883321 0.927401 1.352488 0.003189 0.000802 373249.000000 1 0 0
-0.652418 13.034056 0.629688 13.065556 -1.520783 1.522583 0.003464 -0.000606 127956.000000 1 0 0
16.078982 7.323656 -0.813312 17.687031 0.427402 1.616796 0.004699 0.005063 -1056840.000000 1 0 0
-4.188218 18.608856 -2.392512 19.223808 -1.349419 1.695576 -0.000951 -0.003494 20021.600000 1 0 0
11.645482 9.190856 -3.136512 15.163337 0.668134 1.779149 0.008913 -0.002205 269985.000000 1 0 0
14.687582 9.646956 7.786188 19.220134 0.581148 1.153702 0.030051 -0.012911 1133810.000000 1 0 0
4.395182 13.743956 4.819888 15.213325 1.261284 1.248421 0.003487 0.001977 -916244.000000 1 0 0
2.177482 15.956856 5.699588 17.083558 1.435173 1.230645 0.005751 0.004783 -144282.000000 1 0 0
6.083282 18.266256 5.683988 20.074116 1.249315 1.283719 0.016152 -0.016207 -659271.000000 1 0 0
10.683382 17.113556 -0.790012 20.189912 1.012726 1.609935 0.012465 -0.009435 -1433350.000000 1 0 0
10.090382 13.551556 -4.324112 17.440138 0.930765 1.821350 0.021142 -0.009341 1898870.000000 1 0 0
16.542782 7.838856 2.285288 18.448139 0.442513 1.446601 -0.002261 -0.000629 -1566.760000 1 0 0
4.091982 14.056156 -0.497112 14.648104 1.287509 1.604740 0.005766 -0.004361 667862.000000 1 0 0
5.600282 13.085056 -2.493512 14.449894 1.166395 1.744227 0.005371 -0.005752 -146542.000000 1 0 0
-6.233818 17.045756 -3.056912 18.405515 -1.220194 1.737656 0.005919 -0.005920 695301.000000 1 0 0
18.192582 9.830556 2.531088 20.833057 0.495412 1.449002 0.015123 -0.003299 891488.000000 1 0 0
7.881582 12.761856 9.462388 17.734742 1.017544 1.008003 0.009226 -0.004824 1313390.000000 1 0 0
-2.612818 15.721256 6.752388 17.308363 -1.406105 1.170031 -0.004423 0.002920 899031.000000 1 0 0
10.941982 15.801856 6.472688 20.281058 0.965156 1.245964 0.015916 -0.012513 -271129.000000 1 0 0
13.566982 11.891356 1.369088 18.092588 0.719675 1.495053 0.019108 -0.002791 750886.000000 1 0 0
17.518582 7.898956 -5.801512 20.073658 0.423594 1.863990 0.005914 0.011390 404942.000000 1 0 0
9.476182 9.216856 8.061888 15.483620 0.771526 1.023158 0.007306 -0.003366 -455027.000000 1 0 0
-2.143718 14.186456 -1.999712 14.486197 -1.420821 1.709281 -0.000052 -0.000702 529842.000000 1 0 0
10.920782 11.600456 0.798288 15.952157 0.815568 1.520733 0.009797 0.002665 632377.000000 1 0 0
11.766782 9.710656 -0.556312 15.266416 0.689955 1.607245 0.003516 0.003127 -1453000.000000 1 0 0
-0.218418 16.057656 11.217388 19.588920 -1.557195 0.961075 0.005950 -0.006529 28524.700000 1 0 0
2.036482 20.060556 -1.843312 20.247739 1.469626 1.661960 0.008490 -0.013617 -765355.000000 1 0 0
9.381582 14.361756 1.763688 17.244845 0.992151 1.468344 0.007597 -0.002265 -228459.000000 1 0 0
8.564982 11.636856 -5.159112 15.342482 0.936301 1.913743 0.013257 -0.007054 -361286.000000 1 0 0
10.588282 9.993356 10.380988 17.881381 0.756501 0.951396 0.015322 -0.005625 598955.000000 1 0 0
-5.045018 15.761456 5.883488 17.563915 -1.261016 1.229217 -0.016655 0.001205 -541054.000000 1 0 0
14.414282 9.050356 -1.907412 17.126549 0.560663 1.682400 0.010099 0.001352 -530916.000000 1 0 0
12.149782 9.401456 7.016388 16.888880 0.658558 1.142365 0.013009 -0.005838 -2312540.000000 1 0 0
3.070282 12.953256 9.942188 16.615070 1.338064 0.929314 -0.003630 0.001877 -108800.000000 1 0 0
8.520982 12.578156 -2.649812 15.422018 0.975370 1.743473 0.009060 -0.005486 -1015140.000000 1 0 0
9.418782 16.922756 2.160888 19.487497 1.062919 1.459682 0.005799 -0.007235 -132160.000000 1 0 0
9.618382 14.086356 -7.484712 18.626851 0.971697 1.984304 0.031358 -0.021415 768335.000000 1 0 0
6.410582 11.436956 7.379688 15.045242 1.059916 1.058133 0.000377 0.002276 -884331.000000 1 0 0
5.497682 16.941256 -5.577912 18.663969 1.257004 1.874294 0.006404 -0.004816 -2319640.000000 1 0 0
-4.044518 17.366756 -4.623412 18.421136 -1.341986 1.824493 -0.000626 -0.006340 409790.000000 1 0 0
-0.074418 18.408456 -0.527112 18.416151 -1.566754 1.599423 0.004456 -0.012316 -810302.000000 1 0 0
6.598282 15.610756 -2.711312 17.163456 1.170896 1.729431 0.004286 -0.005027 18511.400000 1 0 0
-0.812718 20.636056 0.535088 20.658984 -1.531433 1.544892 0.010286 -0.010807 -58486.700000 1 0 0
-1.332718 18.956756 4.209488 19.464185 -1.500609 1.352806 0.002433 -0.002639 -298262.000000 1 0 0
7.258682 13.739556 -4.457312 16.165750 1.084762 1.850141 0.012279 -0.004240 -265012.000000 1 0 0
-1.022818 12.032956 7.606788 14.272400 -1.485999 1.008687 -0.001531 0.007122 664122.000000 1 0 0
7.685182 10.790356 11.009488 17.225058 0.951911 0.877397 0.007021 -0.002131 358276.000000 1 0 0
1.598582 16.181656 -7.329312 17.835926 1.472326 1.994270 0.008094 -0.004309 302477.000000 1 0 0
9.019582 7.037056 14.760188 18.674479 0.662549 0.659345 0.027165 -0.009938 41759.800000 1 0 0
11.407082 11.328856 -4.633012 16.731087 0.781958 1.851374 0.014408 -0.002934 -413302.000000 1 0 0
-3.254518 17.073656 4.601688 17.979909 -1.382440 1.311982 -0.010237 0.001677 -178188.000000 1 0 0
4.007282 15.373156 -6.792412 17.277994 1.315803 1.974824 0.007096 -0.011521 -709560.000000 1 0 0
-4.416318 14.014856 9.421988 17.455483 -1.265529 1.000630 0.000914 -0.007685 -79767.400000 1 0 0
6.299482 17.804556 0.646388 18.897182 1.230729 1.536584 0.001448 -0.011248 -358345.000000 1 0 0
9.817182 10.659856 -2.132312 14.647742 0.826527 1.716888 0.008661 -0.003448 -1594140.000000 1 0 0
7.298882 18.000556 -2.489912 19.582986 1.185574 1.698288 0.009134 -0.008710 -39182.600000 1 0 0
3.565282 10.330756 10.537588 15.181453 1.238481 0.803614 -0.002625 0.001552 693600.000000 1 0 0
0.075182 18.607556 2.013088 18.716284 1.566756 1.463030 0.004380 -0.006059 364186.000000 1 0 0
-0.838918 17.234856 -7.362412 18.760308 -1.522159 1.974086 0.020336 -0.002089 205657.000000 1 0 0
10.140482 8.638856 12.935388 18.568346 0.705606 0.800098 0.026236 -0.009082 -200752.000000 1 0 0
3.769482 11.423656 5.547888 13.247187 1.252074 1.138676 -0.002617 0.006881 528574.000000 1 0 0
13.098282 13.893356 8.073688 20.731009 0.814846 1.170762 0.029203 -0.012771 -173141.000000 1 0 0
-0.703318 17.500656 6.692588 18.749889 -1.530630 1.205806 0.007570 0.003370 -672474.000000 1 0 0
11.966082 13.517456 5.730388 18.940593 0.846201 1.263434 0.017745 -0.006879 -958988.000000 1 0 0
4.966882 14.570956 -4.522812 16.044890 1.242273 1.856554 0.004676 -0.005459 -711046.000000 1 0 0
3.806882 17.560556 4.685688 18.569360 1.357314 1.315704 0.011020 -0.005095 -835875.000000 1 0 0
7.035782 11.686956 2.085488 13.799870 1.028893 1.419091 0.004997 0.001445 188327.000000 1 0 0
6.464382 8.607256 11.853588 16.011890 0.926631 0.737281 0.009444 -0.004992 590014.000000 1 0 0
-5.492818 15.032156 1.671388 16.091311 -1.220465 1.466740 -0.004155 0.003982 362223.000000 1 0 0
6.747282 13.815056 6.091888 16.537614 1.116471 1.193546 0.005094 0.000147 -746705.000000 1 0 0
5.806982 15.846756 4.991588 17.599905 1.219546 1.283235 0.003310 -0.007124 655757.000000 1 0 0
1.262582 18.053556 4.304988 18.602632 1.500975 1.337261 0.015699 -0.002209 731223.000000 1 0 0
7.234182 17.908356 -7.128412 20.587784 1.186885 1.924362 0.007479 -0.004790 204312.000000 1 0 0
-2.268018 18.931956 -5.821812 19.936307 -1.451566 1.867135 0.015670 -0.003962 -923050.000000 1 0 0
13.634682 10.022356 -4.561712 17.526020 0.633873 1.834111 0.010860 -0.000522 85792.100000 1 0 0
-1.632518 17.997456 10.088488 20.696645 -1.480336 1.061634 0.010641 -0.003289 -300804.000000 1 0 0
3.429282 11.788756 -1.612712 12.382874 1.287714 1.701405 0.007109 -0.003954 -282944.000000 1 0 0
4.488482 13.942556 -10.834912 18.219128 1.259347 2.207689 0.006860 -0.020185 206134.000000 1 0 0
11.644882 13.303256 2.480088 17.853031 0.851773 1.431429 0.021617 -0.005954 2054450.000000 1 0 0
15.853582 6.616356 -7.213612 18.631919 0.395366 1.968350 0.011568 -0.003034 -104506.000000 1 0 0
2.491082 16.097756 2.935688 16.551782 1.417267 1.392489 0.008922 -0.003384 -236315.000000 1 0 0
13.573082 10.509256 3.619088 17.543398 0.658855 1.363011 0.019095 0.002269 -343836.000000 1 0 0
-4.855518 19.553556 -5.676112 20.931695 -1.327400 1.845408 0.005800 -0.013342 171519.000000 1 0 0
5.426782 11.976656 -0.059412 13.148908 1.145356 1.575315 0.006692 -0.003986 593144.000000 1 0 0
4.998282 15.195956 9.777388 18.748259 1.253021 1.022178 0.017764 -0.003565 -172000.000000 1 0 0
7.841582 9.287856 13.989288 18.532535 0.869630 0.715371 0.020415 -0.010432 -2414400.000000 1 0 0
-5.042718 13.602356 6.985388 16.101203 -1.215780 1.122043 -0.007861 0.004687 -1650070.000000 1 0 0
-4.463918 17.189756 0.444488 17.765467 -1.316724 1.545774 -0.006713 -0.006739 -3340230.000000 1 0 0
-0.566818 16.586956 3.561388 16.974447 -1.536637 1.359417 0.001566 -0.002104 -1964950.000000 1 0 0
7.906882 16.877656 -4.795112 19.244925 1.132679 1.822612 0.009894 -0.006231 556603.000000 1 0 0
3.146382 16.470356 -4.546412 17.373606 1.382038 1.835564 -0.000455 -0.006889 1163700.000000 1 0 0
9.371182 14.500056 8.397988 19.198877 0.997036 1.118068 0.008392 -0.000853 68445.400000 1 0 0
12.745082 10.885656 9.132688 19.087708 0.706873 1.071897 0.025113 -0.013065 332793.000000 1 0 0
3.653582 12.250756 12.387488 17.801110 1.280961 0.801148 0.001686 0.001234 464951.000000 1 0 0
-3.353218 19.145756 5.948388 20.327010 -1.397413 1.273815 0.000381 -0.006545 336398.000000 1 0 0
-2.661618 15.736656 10.364488 19.030217 -1.403247 0.994845 0.007195 -0.006886 -513175.000000 1 0 0
2.078982 14.271656 7.774488 16.384291 1.426142 1.076391 0.001251 0.002608 -249646.000000 1 0 0
4.348282 17.204956 8.314788 19.597289 1.323246 1.132627 0.018585 -0.004917 -11533.200000 1 0 0
-1.859118 13.454556 9.330988 16.478736 -1.433488 0.968854 0.003568 -0.001536 -710131.000000 1 0 0
5.988582 17.737456 3.195388 18.991865 1.245190 1.401742 0.006340 -0.009229 436493.000000 1 0 0
7.248182 15.337356 -6.806812 18.278493 1.129321 1.952384 0.012421 -0.008287 -148975.000000 1 0 0
11.054782 7.598856 9.533788 16.457336 0.602207 0.952923 0.014996 -0.003526 1322850.000000 1 0 0
9.121482 16.268056 -2.605412 18.831868 1.059776 1.709593 0.013493 -0.009450 -470156.000000 1 0 0
14.712782 11.509056 -6.496412 19.776948 0.663823 1.905494 0.039781 -0.004388 459624.000000 1 0 0
11.297182 6.400856 15.921388 20.544777 0.515490 0.684144 0.054137 -0.019486 -272739.000000 1 0 0
8.503482 8.377856 10.292188 15.761561 0.777957 0.859267 0.008667 -0.002155 1257680.000000 1 0 0
16.514782 9.337356 4.447788 19.486073 0.514585 1.340512 0.030554 -0.006774 116091.000000 1 0 0
-3.222218 14.380856 4.735288 15.479491 -1.350374 1.259905 -0.014520 0.007428 -592668.000000 1 0 0
4.585582 14.764656 12.693888 20.003935 1.269663 0.883345 0.009684 0.002244 -80995.700000 1 0 0
16.180182 10.597556 -4.539312 19.867356 0.579862 1.801313 0.019820 -0.008346 399667.000000 1 0 0
14.580582 13.824256 5.959488 20.957550 0.758778 1.282458 0.027038 -0.007090 527937.000000 1 0 0
6.220082 9.540456 9.355388 14.738826 0.993038 0.883119 0.002366 0.003386 300618.000000 1 0 0
10.486282 12.168056 8.788488 18.310139 0.859499 1.070165 0.017905 -0.004388 -719352.000000 1 0 0
8.057182 11.597856 -0.344912 14.126125 0.963627 1.595215 0.004767 -0.000799 648088.000000 1 0 0
7.394982 13.556056 -8.722212 17.734976 1.071406 2.084962 0.021875 -0.008330 -512223.000000 1 0 0
2.870182 15.350256 -2.218312 15.773053 1.385951 1.711903 -0.000262 -0.005740 663316.000000 1 0 0
12.167782 13.449056 -7.593712 19.662057 0.835373 1.967317 0.024874 -0.022144 -60086.100000 1 0 0
-7.954018 14.770656 9.933888 19.496687 -1.076824 1.036173 0.017082 -0.009841 218100.000000 1 0 0
11.472382 9.570056 2.250188 15.108437 0.695239 1.421304 0.011817 0.004334 -1484330.000000 1 0 0
12.095682 8.570156 4.508988 15.494646 0.616428 1.275521 0.008569 0.001072 451917.000000 1 0 0
14.003782 7.943156 6.078288 17.208870 0.515964 1.209800 0.012374 -0.006224 -3732690.000000 1 0 0
16.197482 7.402656 7.274688 19.237433 0.428681 1.182996 0.037815 -0.008888 -1403580.000000 1 0 0
13.560682 8.264456 2.312488 16.048081 0.547334 1.426195 0.001317 0.002845 -1998930.000000 1 0 0
-4.213118 17.614556 -7.139012 19.467625 -1.336023 1.946269 0.005668 -0.004773 159811.000000 1 0 0
2.921682 19.453156 -4.120412 20.098241 1.421720 1.777274 -0.007577 -0.012068 346704.000000 1 0 0
-0.075818 14.914656 6.297088 16.189689 -1.565713 1.171297 0.001998 0.006437 625416.000000 1 0 0
6.771682 16.127256 8.208188 19.321449 1.173261 1.132030 0.019090 -0.005237 -1688140.000000 1 0 0
12.793182 15.093256 -2.062012 19.892807 0.867692 1.674639 0.017054 -0.011799 -374920.000000 1 0 0
12.654482 15.839656 4.592688 20.787578 0.896720 1.348024 0.022225 -0.005359 -271111.000000 1 0 0
2.995982 18.206056 1.410188 18.504729 1.407698 1.494515 0.016965 -0.005204 -472393.000000 1 0 0
10.379582 14.490856 -1.208912 17.865668 0.949224 1.638515 0.012654 0.001304 -1218690.000000 1 0 0
-6.284818 15.828656 -0.754512 17.047421 -1.192833 1.615070 -0.005450 -0.004302 -499954.000000 1 0 0
-3.939018 15.983356 -2.583312 16.663044 -1.329166 1.726457 0.001196 -0.003864 -1869180.000000 1 0 0
-6.745218 17.380956 1.363688 18.693722 -1.200607 1.497782 -0.009067 0.005213 252996.000000 1 0 0
0.235382 19.374156 -6.475912 20.429164 1.558648 1.893354 0.019010 -0.010665 -8728.770000 1 0 0
4.752282 14.919356 7.146388 17.211688 1.262426 1.142628 0.011110 0.001686 -1330110.000000 1 0 0
8.667982 12.470156 6.942688 16.698491 0.963368 1.142010 0.008044 -0.001744 -35490.000000 1 0 0
-7.789718 17.639556 -5.538012 20.062483 -1.154945 1.850466 0.028947 -0.014990 317054.000000 1 0 0
-7.968118 17.750556 -1.359112 19.504367 -1.148863 1.640535 0.021848 -0.015869 -617986.000000 1 0 0
-13.691618 -9.021244 9.182888 18.792783 0.582598 1.060267 0.021395 -0.013880 -251063.000000 1 0 0
-12.745918 -12.844344 7.625088 19.636130 0.789244 1.171989 0.024747 -0.008106 -128650.000000 1 0 0
-3.873018 -14.949544 12.571488 19.913098 1.317297 0.887545 -0.001212 -0.011556 282967.000000 1 0 0
-2.214118 -14.016144 14.951488 20.613142 1.414122 0.759272 0.028178 -0.011172 -450058.000000 1 0 0
-7.232918 -13.697444 12.611188 19.974412 1.084962 0.887481 0.016065 -0.016043 -206718.000000 1 0 0
-9.829018 -11.491144 8.879088 17.535513 0.863201 1.039851 0.007945 -0.011443 218394.000000 1 0 0
-10.746418 -10.751144 11.182588 18.871218 0.785618 0.936546 0.033078 -0.014718 246845.000000 1 0 0
-5.997318 -12.160244 10.836088 17.356848 1.112611 0.896546 0.009800 -0.009586 344460.000000 1 0 0
-12.474618 -10.311944 7.330888 17.767786 0.690772 1.145496 0.012864 -0.004014 -463327.000000 1 0 0
-7.595018 -11.153544 12.596688 18.459751 0.972970 0.819774 0.009736 -0.012637 281280.000000 1 0 0
-14.849618 -11.400644 7.391388 20.127555 0.654758 1.194770 0.027420 0.000690 1283.860000 1 0 0
-11.058018 -9.121744 9.126188 16.993331 0.689740 1.003866 0.015696 -0.010093 -95259.900000 1 0 0
-5.245418 -12.151744 13.356188 18.803379 1.163298 0.780861 0.009136 -0.008355 -19182.500000 1 0 0
3.813382 -12.414544 14.850188 19.727921 -1.272774 0.718567 -0.009784 0.006093 -530674.000000 1 0 0
6.341582 -13.020444 14.400188 20.423346 -1.117564 0.788254 -0.002488 0.013767 593738.000000 1 0 0
6.710482 -8.735444 16.310488 19.681732 -0.915755 0.593994 -0.001056 0.012463 -680649.000000 1 0 0
0.722282 -1.788144 14.553888 14.681104 -1.186908 0.131741 0.000954 -0.001841 -2892360.000000 1 0 0
-0.152318 -6.243944 15.642688 16.843507 1.546407 0.379885 0.004455 -0.005513 -96382.400000 1 0 0
-1.344318 -4.609744 18.221688 18.843748 1.287040 0.257662 0.017766 -0.023630 -1782510.000000 1 0 0
-5.146718 12.701356 12.842388 18.781376 -1.185807 0.817862 0.003227 -0.008321 -173932.000000 1 0 0
-3.983818 8.776856 11.564588 15.054690 -1.144704 0.694816 -0.003541 -0.004022 -296328.000000 1 0 0
-0.639018 -3.896544 15.044288 15.553842 1.408247 0.256675 0.001160 -0.003490 183845.000000 1 0 0
-4.397018 9.337156 14.104088 17.476886 -1.130685 0.631719 0.002748 0.002375 210509.000000 1 0 0
-13.347518 -2.307544 16.893188 21.653194 0.171190 0.675858 0.006782 0.006117 -739821.000000 1 0 0
-0.268118 0.810156 17.449688 17.470542 -1.251195 0.048866 0.008272 -0.004892 -903252.000000 1 0 0
-3.305418 -7.282744 15.386888 17.341294 1.144729 0.479344 0.006412 -0.007779 465170.000000 1 0 0
-7.417418 5.583556 12.491588 15.563867 -0.645267 0.639152 -0.003158 -0.005143 -210232.000000 1 0 0
-9.672618 10.021056 13.564188 19.441407 -0.803089 0.798620 0.011025 -0.002613 -619055.000000 1 0 0
-5.567018 2.238056 11.047988 12.572137 -0.382247 0.497522 0.004505 -0.003685 -722486.000000 1 0 0
-7.029218 -7.581244 16.722788 19.660540 0.823163 0.553716 0.021131 -0.010374 -460388.000000 1 0 0
-4.731318 2.853656 18.664388 19.465048 -0.542726 0.287814 0.017134 -0.001093 -894501.000000 1 0 0
0.886182 -8.345544 16.618988 18.617846 -1.465007 0.467634 -0.000738 -0.003107 506693.000000 1 0 0
-14.929818 -3.777244 13.807988 20.683993 0.247800 0.839858 0.013562 -0.005869 425304.000000 1 0 0
-14.282718 2.252356 13.281488 19.633315 -0.156410 0.827828 0.005613 -0.000499 -1342210.000000 1 0 0
-5.431918 0.944156 15.997188 16.920614 -0.172097 0.331897 0.020082 -0.004563 161012.000000 1 0 0
4.604182 5.636356 15.261388 16.907896 0.885852 0.444981 0.018657 -0.007600 593908.000000 1 0 0
-1.159318 -11.934344 13.844088 18.314786 1.473959 0.713773 0.005812 -0.008449 -205645.000000 1 0 0
-5.820718 -4.004744 16.675288 18.110328 0.602637 0.400769 0.020333 -0.012704 154423.000000 1 0 0
-12.906818 -1.521944 9.914088 16.345991 0.117376 0.919126 0.000657 -0.001355 -842208.000000 1 0 0
-14.810718 10.260756 10.050588 20.631403 -0.605872 1.061973 0.014687 0.002213 349788.000000 1 0 0
-3.463118 -3.257544 17.649288 18.278461 0.754819 0.263138 0.020587 -0.015117 -773463.000000 1 0 0
-7.904118 9.372356 11.782388 17.004141 -0.870179 0.805275 -0.002879 -0.008099 107815.000000 1 0 0
-4.406718 10.610856 16.333888 19.970111 -1.177168 0.613016 0.012438 0.000887 261612.000000 1 0 0
-12.484818 12.780456 8.399888 19.742564 -0.797099 1.131314 0.010815 -0.003974 447211.000000 1 0 0
-12.720918 3.306656 10.577088 16.870996 -0.254310 0.893178 0.007291 -0.002150 546211.000000 1 0 0
-10.049418 -3.492044 13.616088 17.279555 0.334435 0.663262 0.009989 -0.001995 -1593020.000000 1 0 0
-4.296018 -6.528944 17.730388 19.376521 0.988821 0.415177 0.019537 -0.011081 -108322.000000 1 0 0
1.121982 -3.757644 18.258188 18.674586 -1.280637 0.211570 0.005628 -0.005316 -974246.000000 1 0 0
-6.056218 1.923156 13.594188 15.005941 -0.307479 0.437248 0.009163 -0.000581 -860635.000000 1 0 0
-10.498118 8.715456 10.222088 17.048775 -0.692882 0.927821 0.006061 -0.006924 -499861.000000 1 0 0
4.527382 2.546356 17.239688 18.005220 0.512340 0.292650 0.019209 -0.018766 47287.000000 1 0 0
0.528882 -5.292544 13.237588 14.266201 -1.471197 0.382060 -0.001023 -0.001168 -2013530.000000 1 0 0
-4.117918 5.793356 20.789488 21.970959 -0.952859 0.329433 0.030454 -0.003593 29146.300000 1 0 0
-10.772618 10.835456 9.043988 17.755284 -0.788306 1.036345 0.006447 -0.004723 -226934.000000 1 0 0
0.592182 4.173256 13.044388 13.708494 1.429838 0.312542 0.003949 -0.005572 -2662860.000000 1 0 0
-3.089918 7.188856 13.372988 15.494000 -1.164850 0.529405 -0.000436 0.003673 -919954.000000 1 0 0
0.673682 8.807156 14.096888 16.635567 1.494452 0.559738 0.002330 -0.005953 300150.000000 1 0 0
-4.171118 -6.592944 13.038988 15.194748 1.006705 0.539190 0.008538 -0.006597 20609.000000 1 0 0
-5.085018 8.149356 16.342788 18.956691 -1.012932 0.531374 0.012105 0.001316 271345.000000 1 0 0
1.435382 -10.739244 15.703788 19.078801 -1.437926 0.603945 -0.008702 0.002514 -784734.000000 1 0 0
-15.215118 -1.246244 14.223188 20.865091 0.081726 0.820748 0.014743 -0.002255 -301553.000000 1 0 0
-13.701118 -5.181944 8.474488 16.923065 0.361585 1.046313 0.016047 -0.004242 -256615.000000 1 0 0
-14.161518 -1.894744 12.097188 18.721127 0.133005 0.868230 0.013137 -0.003494 142076.000000 1 0 0
9.377082 1.124256 16.978588 19.428486 0.119324 0.507624 0.026907 -0.010725 -769599.000000 1 0 0
5.070282 -6.768544 16.806588 18.814419 -0.927875 0.466201 -0.005728 -0.002081 -153292.000000 1 0 0
-6.142418 -2.651044 11.097088 12.957727 0.407444 0.542527 0.006803 -0.006115 -316037.000000 1 0 0
0.580482 -6.300044 18.134788 19.206719 -1.478916 0.335670 0.012993 -0.013745 -32163.800000 1 0 0
-8.398318 12.006656 12.224188 19.081989 -0.960425 0.875499 0.011136 -0.007486 153988.000000 1 0 0
-6.587018 -5.791044 14.800188 17.203795 0.721181 0.534965 0.016194 -0.006470 -1207900.000000 1 0 0
-4.401818 -9.059344 17.123488 19.866091 1.118503 0.531702 0.017480 -0.011152 141006.000000 1 0 0
2.478782 -6.228544 16.272888 17.599603 -1.192040 0.390768 -0.003863 -0.004540 1296510.000000 1 0 0
2.291182 5.183356 16.073188 17.043006 1.154593 0.338976 0.014611 -0.011937 -1980070.000000 1 0 0
0.846982 -8.833344 14.038988 16.608388 -1.475204 0.563679 -0.004562 -0.000981 -492126.000000 1 0 0
-9.844018 -2.792744 11.192788 15.165178 0.276436 0.740608 -0.000280 -0.001732 -73833.300000 1 0 0
-1.245418 10.086656 12.382288 16.019137 -1.447946 0.687290 0.000681 -0.002328 -724200.000000 1 0 0
-12.370018 -3.612044 11.309988 17.145846 0.284101 0.850464 0.010060 -0.002833 83037.800000 1 0 0
-1.836418 6.680256 19.978988 21.146116 -1.302521 0.333793 0.014599 -0.004394 -245714.000000 1 0 0
0.195682 -13.320444 15.755188 20.632462 -1.556107 0.701908 0.009889 -0.008648 -291819.000000 1 0 0
4.144782 -8.746944 15.365288 18.159855 -1.128283 0.562147 -0.005482 0.003551 518181.000000 1 0 0
4.352782 -4.413844 16.225788 17.369655 -0.792363 0.364939 -0.002722 0.001379 -836342.000000 1 0 0
8.033182 1.678556 14.763088 16.890776 0.205989 0.507355 0.013278 -0.005809 -119554.000000 1 0 0
-6.300418 -0.052644 11.816288 13.391143 0.008356 0.489866 0.008272 -0.002175 313295.000000 1 0 0
-3.332418 -10.946044 18.534688 21.782001 1.275271 0.553067 0.020036 -0.007862 11881.200000 1 0 0
3.158182 -1.427344 13.738688 14.169085 -0.424475 0.247107 -0.003337 0.001910 359433.000000 1 0 0
-2.495418 8.848456 15.953988 18.413365 -1.295918 0.522779 0.004860 0.004991 -899551.000000 1 0 0
-3.379018 3.896856 14.795988 15.669222 -0.856450 0.335424 0.006614 -0.007113 -1604310.000000 1 0 0
-4.946418 -9.186844 19.774488 22.358344 1.076884 0.485516 0.041139 -0.009386 49384.900000 1 0 0
-5.701218 -3.013144 18.985688 20.050917 0.486194 0.327424 0.030615 -0.018375 -695747.000000 1 0 0
-6.622618 -8.622844 11.110388 15.545200 0.915854 0.774580 0.009111 -0.008237 -141845.000000 1 0 0
-11.715318 2.437456 12.686088 17.439229 -0.205131 0.756205 0.011252 -0.009279 -189629.000000 1 0 0
-11.586818 -7.553444 11.519388 18.000144 0.577710 0.876349 0.017494 -0.008679 -1947960.000000 1 0 0
-11.040018 -7.225944 15.604288 20.435021 0.579548 0.701918 0.033120 -0.018153 160153.000000 1 0 0
0.403582 5.550056 17.787388 18.637520 1.498207 0.303200 0.011227 -0.005528 -321242.000000 1 0 0
-2.031918 -0.053244 13.265888 13.420705 0.026198 0.152039 0.006139 -0.002141 -168830.000000 1 0 0
-5.912918 -10.880144 18.026988 21.870355 1.072988 0.601892 0.024241 -0.008173 -327937.000000 1 0 0
0.325582 2.646656 19.286688 19.470160 1.448395 0.137390 0.015166 -0.011471 -304501.000000 1 0 0
-0.698118 10.873256 14.818088 18.392683 -1.506679 0.634022 0.002148 -0.002488 66469.400000 1 0 0
-12.806518 -2.205744 14.293588 19.317838 0.170563 0.737850 0.014655 0.000368 -456752.000000 1 0 0
-13.636018 8.454756 11.607788 19.803147 -0.555018 0.944487 0.005299 -0.004693 342159.000000 1 0 0
-18.116818 -0.648444 6.869188 19.386215 0.035777 1.208595 0.013692 -0.005041 -263049.000000 1 0 0
-2.087118 -7.871244 17.553188 19.350115 1.311604 0.434368 0.012424 -0.014020 -1772570.000000 1 0 0
5.655082 2.515756 14.523988 15.787818 0.418577 0.402846 0.016093 -0.011325 -3271750.000000 1 0 0
-13.948318 -6.635044 11.079488 19.008799 0.444009 0.948551 0.011333 -0.011882 171010.000000 1 0 0
3.234982 7.586756 16.342488 18.305761 1.167742 0.467382 0.014751 -0.015362 -424212.000000 1 0 0
0.933782 2.071156 14.663088 14.838052 1.147235 0.153719 0.003927 -0.008194 -1544720.000000 1 0 0
-14.452518 0.745356 9.727488 17.437169 -0.051527 0.978992 0.001161 -0.001981 -2365120.000000 1 0 0
-9.425518 -5.172744 15.452088 18.824577 0.501923 0.607905 0.016146 -0.003622 -278908.000000 1 0 0
-2.579418 -0.089644 18.189288 18.371490 0.034740 0.140954 0.017851 -0.013165 24328.700000 1 0 0
6.845082 3.651356 17.623788 19.255790 0.490031 0.414678 0.035626 -0.012554 -456597.000000 1 0 0
-4.124418 -0.840444 14.619988 15.213850 0.201021 0.280324 0.015195 -0.002494 88850.500000 1 0 0
4.746082 -8.964344 17.982488 20.645935 -1.083875 0.513574 -0.008685 0.006602 -404628.000000 1 0 0
1.927682 6.923256 13.467988 15.265455 1.299239 0.490170 0.009153 -0.004816 -1590480.000000 1 0 0
-3.685918 -1.011444 20.339788 20.695796 0.267815 0.185750 0.032417 -0.010858 -1332820.000000 1 0 0
-10.743218 1.607256 16.197988 19.503200 -0.148505 0.590738 0.017550 -0.009668 -488413.000000 1 0 0
-3.886018 7.033256 18.412188 20.089213 -1.066020 0.411502 0.018797 -0.000466 201348.000000 1 0 0
-12.630718 0.911256 14.612688 19.336393 -0.072021 0.714060 0.016236 -0.006117 -1131490.000000 1 0 0
-16.197718 -4.623644 8.476988 18.857452 0.278056 1.104557 0.016313 -0.006779 -1710360.000000 1 0 0
-2.363018 0.799056 15.744188 15.940571 -0.326080 0.157131 0.012479 -0.004807 72187.600000 1 0 0
-13.568418 -9.006444 12.314688 20.417384 0.586001 0.923355 0.016879 -0.017779 310714.000000 1 0 0
6.154082 -3.303144 14.609488 16.193228 -0.492606 0.445959 -0.000743 0.001114 782310.000000 1 0 0
-15.820418 0.507256 7.578388 17.549214 -0.032052 1.124269 0.002175 -0.002732 753199.000000 1 0 0
-14.077618 5.966356 12.501388 19.749973 -0.400870 0.885397 0.008981 -0.002817 201947.000000 1 0 0
0.431282 9.400556 16.689588 19.159822 1.524950 0.513415 0.011271 -0.010147 -233756.000000 1 0 0
-10.365518 -5.399244 10.829588 15.933480 0.480216 0.823477 0.010574 -0.007494 244644.000000 1 0 0
-3.208018 -10.970244 15.196888 19.015337 1.286300 0.644848 0.012593 -0.005998 -1270960.000000 1 0 0
-3.525518 2.615556 12.604688 13.347231 -0.638292 0.335131 0.004889 -0.002249 -1800990.000000 1 0 0
-12.415818 -7.670744 7.352888 16.341904 0.553420 1.104097 0.016279 -0.005152 137487.000000 1 0 0
-8.157218 -1.844244 13.181788 15.610925 0.222349 0.565361 0.007022 -0.002277 -418492.000000 1 0 0
-9.781618 6.486056 9.517688 15.110770 -0.585520 0.889422 0.000341 -0.003415 -1137660.000000 1 0 0
-17.975618 -3.517544 6.486188 19.431073 0.193242 1.230459 0.010945 -0.011165 339684.000000 1 0 0
-1.345018 -0.055144 20.589788 20.633746 0.040976 0.065286 0.018050 -0.010353 -584475.000000 1 0 0
-2.738518 2.665156 20.300488 20.657017 -0.771823 0.186061 0.025536 -0.003283 -592995.000000 1 0 0
-3.709018 11.284056 11.105288 16.260816 -1.253226 0.819006 0.000990 -0.007105 -1048090.000000 1 0 0
-4.160418 -4.795744 14.837888 16.139119 0.856217 0.404310 0.012937 -0.008593 258091.000000 1 0 0
-0.210218 -14.229644 13.362388 19.521280 1.556024 0.816874 0.017053 -0.012252 -422955.000000 1 0 0
-12.188918 0.426556 8.376288 14.795739 -0.034981 0.968995 0.001165 -0.001581 -467396.000000 1 0 0
-7.758818 1.874156 15.495588 17.430576 -0.237012 0.475664 0.007226 -0.002146 -1713050.000000 1 0 0
3.559982 -2.043644 18.679888 19.125589 -0.521128 0.216310 0.009141 -0.003427 -161369.000000 1 0 0
-2.279118 4.799556 12.592488 13.667511 -1.127462 0.399271 -0.003091 -0.002666 -372530.000000 1 0 0
-10.349918 -6.208344 13.287488 17.950534 0.540305 0.737387 0.008371 -0.008305 -604734.000000 1 0 0
2.444282 -3.787944 14.325188 15.017791 -0.997747 0.304886 -0.004651 0.003255 -293073.000000 1 0 0
6.744982 1.027856 17.049888 18.364366 0.151225 0.380653 0.014913 -0.009649 -147614.000000 1 0 0
-1.893818 -5.756444 13.820988 15.091153 1.252959 0.413217 -0.001627 -0.004744 -2322930.000000 1 0 0
-12.731718 3.520856 14.764088 19.810890 -0.269799 0.729885 -0.000238 -0.001962 -3413.010000 1 0 0
-13.187018 -6.751744 13.530588 20.063906 0.473201 0.830679 0.015603 -0.009393 -826217.000000 1 0 0
-9.553218 6.898756 12.040688 16.847403 -0.625431 0.774614 0.001047 -0.002792 -563390.000000 1 0 0
-1.033918 -2.464544 12.824788 13.100311 1.173579 0.205455 0.000723 -0.000981 172755.000000 1 0 0
0.190782 6.711756 15.452888 16.848614 1.542379 0.409900 0.012764 -0.006686 423585.000000 1 0 0
-16.458618 -0.916244 9.667688 19.109940 0.055612 1.040373 0.006437 -0.000468 -610216.000000 1 0 0
-1.307518 2.761656 13.761588 14.096725 -1.128610 0.218490 0.004132 -0.003810 -2235050.000000 1 0 0
-11.210818 -3.438344 16.034788 19.865022 0.297591 0.631425 0.014855 -0.006507 995944.000000 1 0 0
-5.083118 -1.411644 17.030288 17.828672 0.270886 0.300397 0.023230 -0.007039 330678.000000 1 0 0
-11.857318 6.651156 11.135488 17.573644 -0.511198 0.884538 0.009345 -0.001136 -2362210.000000 1 0 0
-2.767018 4.681056 18.740888 19.513830 -1.036939 0.282398 0.017381 -0.001080 276835.000000 1 0 0
5.117082 -1.935544 16.536988 17.418462 -0.361618 0.319495 0.003281 -0.002007 -871599.000000 1 0 0
-7.982218 -4.212744 12.123888 15.114618 0.485613 0.639943 0.011931 -0.003664 -1380450.000000 1 0 0
-11.470018 -0.847744 16.074388 19.765271 0.073775 0.621056 0.015291 -0.004582 -71557.100000 1 0 0
1.995182 2.041756 17.419588 17.651956 0.796935 0.162437 0.006519 -0.014084 -993380.000000 1 0 0
-8.924518 -7.437344 11.574388 16.399011 0.694755 0.787247 0.015192 -0.010198 115010.000000 1 0 0
-7.199418 6.784856 14.803088 17.804418 -0.755762 0.589124 -0.001047 0.000712 -439235.000000 1 0 0
-5.815218 3.492156 15.736388 17.136097 -0.540802 0.406986 0.007450 -0.000883 84781.600000 1 0 0
-9.402518 4.294956 11.509988 15.470417 -0.428484 0.731760 0.000220 -0.006844 -144130.000000 1 0 0
-10.184418 0.114356 14.105988 17.398688 -0.011228 0.625364 0.008656 -0.001392 -703228.000000 1 0 0
8.074682 -0.731244 15.757488 17.720994 -0.090314 0.475205 0.009666 -0.006338 106049.000000 1 0 0
-8.600318 -7.465244 14.686088 18.584309 0.714863 0.659594 0.018644 -0.003441 -760332.000000 1 0 0
-0.095418 4.163956 15.686188 16.229730 -1.547885 0.259535 0.005715 -0.008179 523993.000000 1 0 0
-8.151518 3.048556 9.580688 12.943358 -0.357882 0.737427 -0.002486 -0.000973 -377502.000000 1 0 0
-2.210018 -9.623444 13.127088 16.426056 1.345061 0.644896 -0.001859 -0.003663 320881.000000 1 0 0
-5.975518 10.302956 10.440288 15.838476 -1.045227 0.851078 0.003569 -0.008840 -1845350.000000 1 0 0
-8.583918 -2.754044 15.589588 18.008433 0.310463 0.524284 0.019553 -0.008439 576471.000000 1 0 0
4.184582 5.806556 17.913088 19.290037 0.946335 0.380124 0.024784 -0.011435 188646.000000 1 0 0
-6.726618 -0.954844 15.092988 16.551659 0.141008 0.422975 0.014169 -0.004415 -1557700.000000 1 0 0
-1.002818 -9.845744 15.396588 18.302985 1.469293 0.571286 -0.003499 -0.003661 -522069.000000 1 0 0
-4.335818 5.654656 16.227488 17.723031 -0.916649 0.413759 0.008243 0.002230 258317.000000 1 0 0
3.796782 0.104556 17.414888 17.824276 0.027531 0.214739 0.015294 -0.011104 -664051.000000 1 0 0
1.352882 0.299756 19.417488 19.466869 0.218046 0.071242 0.003752 -0.002833 -502974.000000 1 0 0
-6.345918 6.292556 17.739488 19.863443 -0.781176 0.466668 0.012976 0.001526 584962.000000 1 0 0
-12.321118 0.671456 10.937788 16.489270 -0.054442 0.845540 0.009071 -0.002044 -775182.000000 1 0 0
-5.298918 5.243256 13.896688 15.769851 -0.780118 0.492362 0.000343 -0.002392 -2333060.000000 1 0 0
-8.692318 -9.475544 10.047088 16.318282 0.828482 0.907528 0.018284 -0.007178 -188777.000000 1 0 0
6.784982 -3.789644 17.132588 18.812840 -0.509372 0.425855 0.000039 0.002437 323778.000000 1 0 0
-16.802218 1.768156 9.624888 19.444263 -0.104848 1.052963 0.008225 -0.003154 416318.000000 1 0 0
-4.148118 -9.489344 11.293488 15.323101 1.158693 0.742140 -0.000381 -0.006632 -240153.000000 1 0 0
-11.042718 -3.831244 9.092588 14.808620 0.333953 0.909670 0.005171 -0.002540 -121791.000000 1 0 0
3.587582 -5.405344 18.481288 19.586896 -0.984843 0.337596 -0.007209 -0.010056 -401415.000000 1 0 0
2.513682 -1.969044 16.299188 16.609011 -0.664494 0.193454 -0.001989 -0.002578 -416537.000000 1 0 0
-3.181718 -4.416944 20.095188 20.819445 0.946547 0.264542 0.030007 -0.019934 -728652.000000 1 0 0
-6.338318 -3.333444 14.340188 16.028946 0.484167 0.463164 0.018271 -0.004649 -554452.000000 1 0 0
-9.644118 5.147956 13.906288 17.688847 -0.490315 0.666223 0.009034 -0.005574 276146.000000 1 0 0
-5.826418 -5.194344 11.628888 14.005692 0.728108 0.591155 0.007333 -0.003916 -862780.000000 1 0 0
6.087082 1.916256 19.369188 20.393382 0.304985 0.318270 0.032680 -0.020550 216168.000000 1 0 0
-2.727018 11.860256 13.450488 18.138851 -1.344795 0.735450 0.006538 -0.007557 -1652410.000000 1 0 0
3.374882 1.407956 15.236788 15.669457 0.395234 0.235543 0.002943 -0.004452 -1094680.000000 1 0 0
-5.643618 7.493556 12.868088 15.924556 -0.925295 0.629935 -0.007771 -0.002580 -2067160.000000 1 0 0
-1.746618 -1.661644 15.292288 15.481144 0.760472 0.156358 0.007918 -0.001895 -776779.000000 1 0 0
-7.207918 10.365256 14.044288 18.884773 -0.963170 0.732233 0.019391 -0.011386 -443820.000000 1 0 0
-10.258818 2.062456 10.617788 14.907532 -0.198397 0.778108 0.003124 -0.001822 -667242.000000 1 0 0
-13.650718 5.313556 9.151588 17.272161 -0.371206 1.012377 -0.001553 -0.001204 -330088.000000 1 0 0
0.216682 -5.006644 20.306888 20.916098 -1.527544 0.241946 0.008983 -0.015962 -241362.000000 1 0 0
-14.502218 -2.862944 7.455688 16.555907 0.194908 1.103657 0.006213 -0.006107 177112.000000 1 0 0
-2.298218 2.441356 17.718688 18.033134 -0.815589 0.187019 0.010210 -0.005469 21465.900000 1 0 0
-6.221618 -8.394944 14.508188 17.879350 0.933006 0.624168 0.015087 -0.008415 -665119.000000 1 0 0
-8.037918 2.045456 11.964988 14.558604 -0.249187 0.606146 0.000777 -0.004964 -193561.000000 1 0 0
-14.608918 -3.478444 10.111188 18.104038 0.233752 0.978214 0.013940 -0.006698 -385273.000000 1 0 0
-0.557018 6.800656 12.897988 14.591685 -1.489072 0.486601 0.004758 -0.004736 -2162430.000000 1 0 0
-1.739118 -2.292544 19.289588 19.503038 0.921816 0.148084 0.025566 -0.016269 -135666.000000 1 0 0
-12.851018 10.484256 7.371188 18.149454 -0.684320 1.152572 0.002696 -0.005347 177277.000000 1 0 0
-19.470118 2.307556 6.998288 20.817933 -0.117968 1.227953 0.010254 -0.004727 271199.000000 1 0 0
-16.068518 8.459656 6.701088 19.356333 -0.484602 1.217283 0.010149 0.001781 469527.000000 1 0 0
-12.252418 7.456856 13.597788 19.764268 -0.546721 0.812069 0.014525 0.000961 225966.000000 1 0 0
-15.700918 7.818456 10.242288 20.311365 -0.462016 1.042267 0.000114 -0.009798 -85938.800000 1 0 0
1.950582 10.754656 15.000188 18.559985 1.391376 0.629706 0.008595 -0.014978 -705382.000000 1 0 0
2.080982 14.284556 13.212188 19.568876 1.426133 0.829610 0.002380 0.004390 -974329.000000 1 0 0
-2.955518 13.544556 11.648088 18.107126 -1.355957 0.872012 -0.006134 -0.012397 -51204.500000 1 0 0
9.303782 4.706756 15.735188 18.876177 0.468354 0.585202 0.035403 -0.010949 91682.100000 1 0 0
-0.242518 12.497556 12.874288 17.944219 -1.551394 0.770645 -0.001687 -0.004502 192867.000000 1 0 0
3.931582 13.383056 14.741688 20.294849 1.285062 0.757762 0.010433 -0.000668 -146390.000000 1 0 0
-2.766418 -4.065044 -13.842112 14.689511 0.973252 2.800270 0.001504 -0.004714 -532365.000000 1 0 0
5.656982 -11.615144 16.484788 20.944242 -1.117574 0.664736 -0.013969 0.010682 -43020.700000 1 0 0
7.773882 -13.488244 7.310988 17.199317 -1.047952 1.131752 -0.001144 -0.008307 -562219.000000 1 0 0
-0.036118 15.648056 1.259588 15.698710 -1.568488 1.490475 0.002326 -0.002085 -1766620.000000 1 0 0
-13.484518 8.248456 8.928688 18.154634 -0.548977 1.056625 -0.008597 0.000134 522336.000000 1 0 0
-15.418818 -9.754044 4.745688 18.852132 0.564050 1.316327 0.011199 -0.002603 -2183060.000000 1 0 0
9.411782 -11.227844 11.036788 18.342759 -0.873161 0.925172 0.003103 -0.004432 415.760000 1 0 0
-5.631718 -10.613844 -16.632412 20.518457 1.082969 2.515985 0.014841 -0.005006 80457.900000 1 0 0
-1.916318 -12.610144 -14.722512 19.479229 1.419984 2.427680 0.001551 0.004302 -42599.900000 1 0 0
5.114482 -16.071144 -12.078112 20.744165 -1.262691 2.192279 0.001785 0.011309 240275.000000 1 0 0
2.656882 -11.847344 -16.661612 20.616205 -1.350187 2.511852 0.010340 0.008912 262255.000000 1 0 0
0.336582 -14.108844 -14.454712 20.201769 -1.546945 2.368160 0.005561 0.011493 313074.000000 1 0 0
-6.591118 -6.278144 -14.551212 17.163791 0.761083 2.582592 0.018382 0.001874 43928.200000 1 0 0
-5.985618 -8.355244 -17.374012 20.186481 0.949154 2.607391 0.007121 0.002700 5129.060000 1 0 0
-2.447318 -16.347044 -13.324712 21.231184 1.422190 2.249264 0.012756 0.002628 407879.000000 1 0 0
15.767182 -8.054644 -9.316912 20.007153 -0.472289 2.055198 -0.002097 0.001818 93384.700000 1 0 0
18.936882 -3.060744 -3.491112 19.497731 -0.160243 1.750819 0.012064 -0.015577 70257.000000 1 0 0
15.676782 -11.667444 -8.764412 21.417415 -0.639811 1.992394 0.024214 -0.005239 81999.600000 1 0 0
18.490782 -2.683444 -6.527712 19.791940 -0.144117 1.906906 0.130164 -0.001809 -204751.000000 1 0 0
9.148482 -9.928844 -16.104312 21.014888 -0.826281 2.443903 0.048099 0.014916 86311.500000 1 0 0
-4.092918 10.423256 -16.374012 19.836948 -1.196623 2.541760 -0.001542 0.011792 308567.000000 1 0 0
2.591682 -9.886844 -18.043412 20.737194 -1.314430 2.626199 0.008740 0.008931 -233344.000000 1 0 0
10.935282 7.992856 -15.079812 20.269851 0.631180 2.409763 0.043400 -0.037740 451540.000000 1 0 0
18.523682 -6.195244 -8.542112 21.318431 -0.322755 1.983068 0.023437 -0.003991 386551.000000 1 0 0
12.205982 5.282056 -13.830212 19.187518 0.408411 2.375741 0.019629 -0.013310 96899.500000 1 0 0
15.808582 5.973556 -11.329012 20.345543 0.361283 2.161361 0.016236 -0.011544 54892.600000 1 0 0
3.381982 -0.198944 -19.173812 19.470810 -0.058757 2.966707 0.008041 -0.008408 205516.000000 1 0 0
10.375082 -1.894344 -14.753212 18.135273 -0.180597 2.520957 0.026627 -0.002838 238220.000000 1 0 0
12.185982 -5.691744 -14.460312 19.748284 -0.436961 2.392389 0.035922 0.009452 174419.000000 1 0 0
10.263182 6.631156 -12.840412 17.725160 0.573637 2.380985 0.031750 -0.013837 546710.000000 1 0 0
10.706682 5.234256 -16.215212 20.123707 0.454710 2.507782 0.046461 -0.020869 550788.000000 1 0 0
11.793382 -10.377044 -15.172712 21.839828 -0.721601 2.338836 0.048408 -0.002674 286083.000000 1 0 0
-1.313618 2.254856 -17.639112 17.831103 -1.043289 2.994715 -0.003044 0.000914 261606.000000 1 0 0
6.103482 -1.036144 -16.944112 18.039651 -0.168160 2.791295 0.000898 0.002269 27828.500000 1 0 0
5.931282 -5.652744 -15.913212 17.898713 -0.761358 2.666106 -0.032746 0.003860 75507.800000 1 0 0
-1.818918 -4.492144 -20.503112 21.068114 1.186064 2.909478 -0.003194 -0.010048 283798.000000 1 0 0
15.627382 -0.174844 -13.667712 20.761791 -0.011188 2.289369 0.015929 0.006926 107042.000000 1 0 0
-3.965918 -0.505444 -18.589012 19.014083 0.126764 2.929747 0.000665 0.001886 112855.000000 1 0 0
3.414082 8.793856 -17.869612 20.206704 1.200473 2.655876 0.019548 -0.009713 -88247.000000 1 0 0
9.138282 0.856456 -16.000212 18.445826 0.093449 2.620783 0.023765 -0.048130 -140018.000000 1 0 0
4.169782 4.576356 -18.266712 19.287376 0.831851 2.814814 0.016388 -0.002289 480381.000000 1 0 0
-2.979218 -11.108244 -17.775512 21.171624 1.308764 2.567327 0.004975 -0.009513 316354.000000 1 0 0
6.622782 -9.273844 -16.188612 19.797388 -0.950646 2.528226 0.030537 -0.001142 314550.000000 1 0 0
9.973982 -13.142844 -11.714112 20.234502 -0.921629 2.188197 0.006995 0.047735 325604.000000 1 0 0
6.107182 6.903656 -17.125012 19.447986 0.846538 2.647827 0.023500 -0.009663 434147.000000 1 0 0
8.209282 1.478356 -20.040112 21.706772 0.178174 2.747172 0.026378 -0.013720 60206.800000 1 0 0
-1.295818 -0.673244 -20.212912 20.265592 0.479166 3.069473 0.004343 -0.007720 211511.000000 1 0 0
-1.113618 7.109756 -19.495612 20.781426 -1.415426 2.787977 -0.000697 -0.000096 121339.000000 1 0 0
8.863082 5.666556 -18.173212 20.998326 0.568847 2.616864 0.047886 -0.012849 278849.000000 1 0 0
12.152282 0.045256 -13.038512 17.823658 0.003724 2.391357 0.015817 -0.001793 -14276.800000 1 0 0
-4.195818 -2.659944 -19.946112 20.555476 0.565010 2.897492 -0.007747 -0.000245 434426.000000 1 0 0
5.701082 -11.434044 -14.516112 19.337973 -1.108265 2.419847 0.003782 0.002284 44930.700000 1 0 0
11.152682 1.790656 -16.003112 19.587964 0.159200 2.526963 0.035281 -0.001475 -268581.000000 1 0 0
-2.858218 -4.403744 -17.074312 17.863217 0.995094 2.843289 -0.004377 -0.004441 423546.000000 1 0 0
-6.686918 -4.780344 -17.312712 19.164983 0.620643 2.698316 0.019772 -0.009470 33053.500000 1 0 0
3.178282 10.439056 -15.459712 18.922950 1.275252 2.526954 0.003959 -0.007487 233415.000000 1 0 0
16.998282 -6.077744 -10.937912 21.107309 -0.343385 2.115547 0.038335 -0.006321 13504.300000 1 0 0
9.379482 -3.512844 -17.752912 20.383342 -0.358354 2.627933 0.006317 -0.004169 -12583.700000 1 0 0
-6.922218 -1.819244 -19.273812 20.559829 0.257001 2.786028 -0.004263 0.022534 420350.000000 1 0 0
1.167982 -7.675544 -19.385112 20.882067 -1.419786 2.760648 0.001615 0.002870 343378.000000 1 0 0
5.599082 9.798656 -14.399912 18.295377 1.051662 2.476856 0.020295 -0.018705 348291.000000 1 0 0
6.000782 -3.344044 -18.291712 19.539159 -0.508406 2.782331 0.011301 -0.001500 610389.000000 1 0 0
4.734582 12.955556 -14.762912 20.204115 1.220426 2.390126 0.016005 -0.016259 203922.000000 1 0 0
9.001682 11.454356 -15.092312 20.976425 0.904728 2.373863 0.047856 -0.029799 203056.000000 1 0 0
17.014582 0.970756 -11.255512 20.423636 0.056993 2.154481 0.032166 -0.002495 140585.000000 1 0 0
15.445882 -2.781044 -12.113812 19.825587 -0.178142 2.228144 0.041706 -0.005475 64634.200000 1 0 0
-8.711918 -0.014744 -17.419812 19.476847 0.001692 2.677852 0.009918 0.007761 387033.000000 1 0 0
-3.291018 4.368456 -19.124512 19.891233 -0.925149 2.863040 0.004894 0.008089 84034.400000 1 0 0
3.623882 1.530956 -17.011612 17.460564 0.399720 2.914334 0.002513 0.001380 567758.000000 1 0 0
-4.968118 14.201856 -13.771712 20.396935 -1.234280 2.312012 -0.001764 -0.009062 384129.000000 1 0 0
0.955882 9.491256 -17.524312 19.952422 1.470423 2.643102 -0.002010 -0.001343 406650.000000 1 0 0
1.447282 -5.066944 -19.804712 20.493784 -1.292573 2.881540 0.003289 0.002320 622806.000000 1 0 0
3.634582 -6.075744 -18.345712 19.664435 -1.031693 2.773287 0.007326 -0.000492 68309.700000 1 0 0
-6.470818 7.781756 -16.100112 19.016856 -0.877119 2.580404 -0.006374 0.010074 -42178.900000 1 0 0
-11.891718 3.128156 -16.793812 20.814188 -0.257226 2.509587 0.042611 -0.004945 321130.000000 1 0 0
-4.188118 7.104156 -17.618812 19.453326 -1.038110 2.703816 -0.002056 0.026041 296395.000000 1 0 0
-8.134818 5.718456 -17.432012 20.068658 -0.612710 2.623204 0.002459 0.003066 376203.000000 1 0 0
-8.808718 4.654156 -15.068412 18.064100 -0.486076 2.557411 0.004919 -0.005100 505032.000000 1 0 0
9.639882 13.771356 -12.667112 21.048356 0.960074 2.216562 0.055233 -0.026064 314554.000000 1 0 0
14.439882 9.406556 -12.076312 21.043545 0.577379 2.182023 0.070666 -0.023489 128412.000000 1 0 0
8.589882 15.529356 -9.824212 20.284528 1.065547 2.076383 0.019388 -0.014991 23398.400000 1 0 0
8.216882 13.531656 -14.332512 21.355181 1.025075 2.306554 0.043324 -0.025220 56889.100000 1 0 0
3.949782 15.531156 -12.830912 20.529244 1.321762 2.245936 0.028080 -0.022944 386043.000000 1 0 0
10.812182 11.956956 -11.401212 19.744865 0.835633 2.186370 0.037971 -0.015373 92458.700000 1 0 0
15.782682 10.797056 -9.837812 21.504697 0.599980 2.045947 0.027088 -0.021344 232533.000000 1 0 0
13.070982 11.376356 -9.765012 19.890387 0.716191 2.083966 0.044023 -0.019540 150682.000000 1 0 0
10.761282 11.106856 -7.849212 17.342940 0.801199 2.040462 0.016187 -0.012279 39094.500000 1 0 0
4.862382 16.817056 -9.940912 20.131514 1.289338 2.087249 0.028122 -0.014735 -66668.100000 1 0 0
11.733982 13.795556 -10.373612 20.871404 0.865976 2.090963 0.059785 -0.025352 222176.000000 1 0 0
8.538182 -19.390144 -1.900312 21.271799 -1.156008 1.660250 0.034310 0.006815 180912.000000 1 0 0
7.071082 -16.568544 -3.793312 18.409402 -1.167421 1.778336 0.023013 -0.013705 390518.000000 1 0 0
3.804482 -18.684844 5.432188 19.826905 -1.369929 1.293267 0.042560 -0.017597 224990.000000 1 0 0
10.246182 -17.748744 -2.613012 20.659864 -1.047242 1.697614 0.025320 0.006817 598067.000000 1 0 0
-3.292118 -14.691844 8.027588 17.062547 1.350360 1.080962 0.014754 -0.034720 81690.000000 1 0 0
-15.238518 -13.001044 -4.687212 20.572057 0.706331 1.800659 -0.003482 0.006233 57625.700000 1 0 0
-8.978618 -12.904144 -7.538012 17.434281 0.962899 2.017913 0.008061 -0.009327 -11693.200000 1 0 0
-11.540518 -15.407944 6.836288 20.428489 0.927937 1.229568 0.004813 -0.005438 185476.000000 1 0 0
-15.669718 -7.972544 -8.238312 19.415749 0.470652 2.008997 0.079152 -0.009610 69435.700000 1 0 0
3.949582 -14.996844 5.873888 16.583338 -1.313283 1.208733 0.015811 -0.020730 -53601.500000 1 0 0
2.772082 -14.164044 9.113688 17.069385 -1.377527 1.007566 0.014201 -0.006425 419319.000000 1 0 0
3.151382 -17.485744 9.820588 20.300897 -1.392485 1.065860 0.037212 -0.010171 266027.000000 1 0 0
-7.453018 -17.187244 -5.476012 19.517570 1.161633 1.855182 -0.019116 -0.013572 -381861.000000 1 0 0
2.043282 -19.965744 -3.760312 20.419253 -1.468812 1.756009 0.011893 -0.004780 136395.000000 1 0 0
-16.902918 -10.815044 -2.714712 20.249531 0.569195 1.705264 -0.092451 -0.004505 -270693.000000 1 0 0
-4.257318 -14.881444 2.840688 15.736952 1.292156 1.389291 -0.000750 0.001323 156314.000000 1 0 0
-11.078918 -10.320744 -14.325112 20.843921 0.749984 2.328501 0.025248 -0.007739 56121.900000 1 0 0
0.925182 -20.406644 2.696788 20.604848 -1.525490 1.439539 0.029557 -0.003763 275428.000000 1 0 0
5.629082 -18.686244 1.205388 19.552883 -1.278200 1.509110 0.010742 0.010986 214081.000000 1 0 0
-7.791318 -18.655844 -3.725512 20.557836 1.175181 1.753024 0.022080 -0.026512 174833.000000 1 0 0
-9.431418 -15.978844 -7.670812 20.077761 1.037581 1.962815 0.022712 -0.006790 -680.892000 1 0 0
-11.620518 -11.496444 -11.814212 20.168795 0.780031 2.196622 0.000810 -0.005252 379501.000000 1 0 0
-13.309218 -14.814644 -3.207712 20.171723 0.838876 1.730495 -0.002068 -0.019254 103450.000000 1 0 0
-0.153518 -20.601244 -2.890212 20.803561 1.563345 1.710176 0.023041 -0.009859 361201.000000 1 0 0
-11.661218 -17.208644 -0.598812 20.796154 0.975237 1.599595 -0.004488 0.005970 144074.000000 1 0 0
0.854182 -20.107944 5.245588 20.798443 -1.528342 1.315832 0.038531 -0.011752 64723.700000 1 0 0
-18.345818 -9.537144 2.115288 20.784624 0.479404 1.468848 0.034444 0.008367 93231.400000 1 0 0
-14.513818 -15.043644 -0.269412 20.905376 0.803322 1.583684 -0.013143 -0.005589 -27906.000000 1 0 0
9.972382 -15.246044 -5.825412 19.126570 -0.991547 1.880285 0.023166 0.009950 -11762.300000 1 0 0
-0.064318 -19.133144 -7.031012 20.384221 1.567435 1.922954 0.002549 -0.004464 152120.000000 1 0 0
-9.927718 -16.798544 -2.527912 19.675900 1.037031 1.699630 0.007979 -0.008246 568180.000000 1 0 0
-14.219718 -6.848944 -11.457312 19.503293 0.448861 2.198707 -0.001864 -0.000769 -264508.000000 1 0 0
-12.501718 -15.312744 2.048088 19.873796 0.886120 1.467558 0.012070 -0.005370 186009.000000 1 0 0
-2.874518 -16.275544 10.182588 19.412401 1.395983 1.018621 0.009167 -0.014113 341723.000000 1 0 0
-12.467318 -14.717344 -6.697512 20.417907 0.867978 1.905005 0.006830 -0.003373 222862.000000 1 0 0
5.000582 -17.090744 -7.116312 19.176581 -1.286151 1.950983 0.003781 -0.003733 224410.000000 1 0 0
-17.279518 -7.281744 -2.869912 18.969500 0.398825 1.722670 -0.021956 0.001321 -57392.900000 1 0 0
-12.143118 -13.276544 -9.480412 20.337162 0.829957 2.055744 0.018220 -0.026508 34988.900000 1 0 0
-7.936318 -13.661244 9.826188 18.605610 1.044512 1.014399 0.013449 -0.014649 619675.000000 1 0 0
-15.779418 -8.119644 -5.653212 18.624647 0.475237 1.879196 0.019255 0.001469 370444.000000 1 0 0
-0.895018 -19.652944 -0.352112 19.676465 1.525287 1.588692 0.017950 -0.008551 247003.000000 1 0 0
-15.011018 -11.553544 -1.944012 19.041907 0.655972 1.673066 0.004996 0.002962 29739.600000 1 0 0
-7.205718 -18.963844 1.502688 20.342267 1.207674 1.496859 0.008028 -0.005088 238670.000000 1 0 0
-2.065118 -20.695444 -5.332512 21.470953 1.471339 1.821782 0.004199 -0.009041 152750.000000 1 0 0
-8.774018 -19.801044 -0.949912 21.678724 1.153688 1.614628 0.004363 0.001627 186039.000000 1 0 0
-17.837918 -7.697444 4.922688 20.041827 0.407381 1.322636 0.025422 -0.002383 163962.000000 1 0 0
-2.784118 -15.995644 -10.810612 19.505929 1.398468 2.158224 0.003129 0.003573 84447.700000 1 0 0
-2.803218 -18.287944 -8.090412 20.193110 1.418698 1.983025 0.002067 -0.004728 57631.800000 1 0 0
4.204182 -18.582344 -4.796612 19.646530 -1.348296 1.817435 0.006971 0.026295 390100.000000 1 0 0
0.450882 -17.319544 -10.152812 20.081073 -1.544769 2.100863 -0.009677 0.011949 63561.200000 1 0 0
-7.537518 -9.890044 -14.399512 19.025591 0.919576 2.429276 0.006159 -0.018817 521622.000000 1 0 0
-5.322518 -19.132544 -2.052212 19.964845 1.299465 1.673769 0.015496 -0.022674 151214.000000 1 0 0
-8.989218 -15.830944 8.472088 20.079869 1.054370 1.135235 -0.016091 -0.012286 194303.000000 1 0 0
-7.161318 -15.191244 -10.173312 19.635546 1.130280 2.115432 0.008580 -0.012570 379791.000000 1 0 0
-12.572518 -8.252444 -12.136112 19.325017 0.580852 2.249777 0.011563 -0.010354 345983.000000 1 0 0
-15.681218 -13.292444 2.991988 20.773581 0.703138 1.426265 0.011033 0.004512 132984.000000 1 0 0
-6.410818 -14.243844 -12.780912 20.182602 1.147879 2.256560 0.011161 -0.004992 526027.000000 1 0 0
-13.826518 -12.416744 -6.650412 19.737683 0.731730 1.914461 0.002706 -0.001286 175746.000000 1 0 0
-11.628718 -10.725244 -7.661412 17.577121 0.745003 2.021806 0.016182 -0.014212 292002.000000 1 0 0
-10.004318 -14.986244 3.757388 18.406300 0.982171 1.365215 0.001629 0.003689 538391.000000 1 0 0
5.361882 -17.153844 8.087688 19.708243 -1.267842 1.147936 0.064498 -0.055245 130153.000000 1 0 0
-5.063518 -16.651244 5.396988 18.221708 1.275589 1.270101 -0.003909 0.009011 426508.000000 1 0 0
-18.384618 -7.376344 -6.803512 20.944986 0.381561 1.901626 0.016108 -0.005754 148025.000000 1 0 0
-16.763718 -3.484244 -10.789112 20.237765 0.204927 2.133078 0.015532 -0.009761 -136915.000000 1 0 0
-15.263318 -4.537944 -13.251212 20.716091 0.288988 2.264849 -0.003694 -0.000268 294435.000000 1 0 0
-19.165618 -4.389044 -5.809012 20.501933 0.225124 1.858071 0.005331 0.002579 177545.000000 1 0 0
5.727682 -13.523544 8.678988 17.059233 -1.170168 1.037057 0.031099 -0.008014 171985.000000 1 0 0
19.946782 -2.800244 2.709288 20.323772 -0.139474 1.437092 0.036182 -0.011093 62726.500000 1 0 0
18.148682 -2.672544 -0.110612 18.344737 -0.146208 1.576826 0.024387 -0.012986 268712.000000 1 0 0
14.266382 -11.337644 0.182688 18.223754 -0.671507 1.560771 0.024675 0.003233 121023.000000 1 0 0
11.242682 -13.982144 5.371288 18.728294 -0.893576 1.279911 0.024536 0.004643 429369.000000 1 0 0
10.042582 -13.290444 8.907088 18.889827 -0.923705 1.079773 0.017103 -0.007418 144699.000000 1 0 0
17.260382 4.698356 -4.142212 18.361733 0.265766 1.798344 -0.030463 -0.001677 -346512.000000 1 0 0
18.913882 -6.077444 -4.516812 20.373312 -0.310902 1.794356 0.034056 -0.014755 -43181.700000 1 0 0
17.769082 -10.064244 -0.492812 20.427240 -0.515340 1.594924 0.035078 -0.004114 395833.000000 1 0 0
17.505482 -8.796444 8.643488 21.413295 -0.465643 1.155293 0.060102 -0.004371 -160486.000000 1 0 0
19.949282 0.276456 -2.231212 20.075572 0.013857 1.682167 0.031141 -0.004493 -49381.700000 1 0 0
7.420082 -13.397744 11.638588 19.235745 -1.065017 0.920968 0.009717 0.003205 343717.000000 1 0 0
16.157282 -6.418844 -3.426012 17.719957 -0.378153 1.765364 0.020901 -0.005965 263487.000000 1 0 0
14.135282 -7.415644 11.138488 19.464426 -0.483149 0.961551 0.025787 -0.046951 338368.000000 1 0 0
16.240482 1.203356 10.725288 19.499567 0.073961 0.988400 0.043586 -0.010317 195294.000000 1 0 0
16.384382 -10.183144 2.596088 19.464945 -0.556090 1.437025 -0.000613 -0.004457 290262.000000 1 0 0
16.059782 -7.126244 -5.723912 18.478721 -0.417630 1.885734 0.018139 -0.005718 281511.000000 1 0 0
17.982982 -4.264244 6.027188 19.439609 -0.232826 1.255554 0.062753 -0.006385 40551.000000 1 0 0
12.983682 -13.205944 8.122088 20.222296 -0.793885 1.157489 0.003419 -0.003776 318352.000000 1 0 0
15.228682 -14.367244 -1.467812 20.987733 -0.756300 1.640790 0.023472 0.008292 265149.000000 1 0 0
18.575782 -6.333944 7.640388 21.060723 -0.328615 1.199548 0.058361 -0.012824 306538.000000 1 0 0
19.412482 3.380456 2.762688 19.897346 0.172409 1.431499 0.025288 0.000420 291099.000000 1 0 0
15.607882 -10.557844 8.099788 20.510500 -0.594740 1.164827 0.028383 -0.018466 358010.000000 1 0 0
13.836182 -4.773144 10.765588 18.169225 -0.332192 0.936616 0.021378 -0.013697 -640697.000000 1 0 0
18.551982 -7.666444 1.452288 20.126091 -0.391869 1.498574 0.030297 -0.013692 94068.700000 1 0 0
18.753982 -4.893044 -1.686912 19.455061 -0.255217 1.657613 0.012587 -0.011552 207325.000000 1 0 0
14.441382 -13.758144 -5.974612 20.821528 -0.761174 1.861831 0.028883 0.001109 431974.000000 1 0 0
13.788782 -9.738744 10.307988 19.779491 -0.614928 1.022604 0.013471 -0.008915 573376.000000 1 0 0
14.247882 2.143556 0.420888 14.414372 0.149327 1.541593 -0.000698 -0.000782 -252530.000000 1 0 0
12.909282 2.599156 13.740888 19.032004 0.198684 0.764124 0.029891 -0.010498 124763.000000 1 0 0
18.426882 -3.576844 9.041488 20.834882 -0.191726 1.121914 0.053276 -0.009400 191444.000000 1 0 0
6.949982 -17.998944 4.923688 19.912482 -1.202301 1.320938 0.022859 -0.024951 378865.000000 1 0 0
12.461182 -2.935944 15.188788 19.864544 -0.231387 0.700348 0.022916 0.008406 279592.000000 1 0 0
11.349082 -13.477644 -7.224812 19.043279 -0.870926 1.959932 0.023878 -0.001973 150069.000000 1 0 0
10.642482 -17.497944 4.702388 21.013161 -1.024360 1.345102 0.013700 -0.004813 434960.000000 1 0 0
18.492482 -0.220244 -4.819812 19.111540 -0.011909 1.825743 0.042668 -0.011478 446799.000000 1 0 0
4.498282 -13.762944 11.837788 18.702577 -1.254901 0.885439 0.010072 0.002333 299615.000000 1 0 0
8.942382 -2.580144 14.171488 16.954481 -0.280901 0.581108 -0.005117 -0.001442 494725.000000 1 0 0
8.893182 -9.448144 13.871288 18.993913 -0.815646 0.752033 0.003213 -0.006951 395875.000000 1 0 0
20.965182 5.465956 -3.064112 21.881597 0.255038 1.711290 0.024854 0.000513 527673.000000 1 0 0
14.673382 -13.488844 2.005388 20.031940 -0.743362 1.470519 0.016949 0.005245 351979.000000 1 0 0
10.922482 0.027256 13.906888 17.683407 0.002495 0.665777 0.016535 -0.027111 117092.000000 1 0 0
19.144182 0.343156 7.791288 20.671759 0.017923 1.184344 0.042672 -0.005317 147935.000000 1 0 0
19.958782 1.138956 0.120888 19.991618 0.057004 1.564749 0.035289 -0.005480 212730.000000 1 0 0
18.082182 0.300656 2.896188 18.315119 0.016626 1.411999 0.023551 -0.000926 -93768.800000 1 0 0
9.962782 -8.580744 16.325988 20.962445 -0.711006 0.678013 0.006684 0.002184 293075.000000 1 0 0
19.108882 2.929956 5.522788 20.105601 0.152145 1.292530 0.039545 0.001327 125509.000000 1 0 0
15.651382 2.383956 7.099988 17.351047 0.151154 1.149223 0.036427 -0.003580 5171.330000 1 0 0
11.421182 -15.968844 1.682888 19.704809 -0.949931 1.485287 0.010529 0.007619 203004.000000 1 0 0
7.669482 -16.516444 6.941588 19.488446 -1.136070 1.206609 0.001114 -0.000044 404779.000000 1 0 0
6.214782 6.575256 7.295888 11.622714 0.813575 0.892167 -0.000187 0.002864 -1158580.000000 1 0 0
18.564882 2.546956 -6.464312 19.822441 0.136341 1.902983 0.023065 0.000864 306436.000000 1 0 0
14.261582 4.570856 -7.134212 16.588623 0.310158 2.015363 0.017237 -0.006054 227470.000000 1 0 0
-10.534718 -3.975944 -14.116112 18.056939 0.360885 2.468272 0.008894 0.009575 -179950.000000 1 0 0
7.938082 -14.276144 -10.401812 19.365411 -1.063329 2.137831 0.007424 0.013792 79843.500000 1 0 0
1.853182 -16.071844 13.783888 21.254036 -1.455997 0.865144 0.017717 -0.004029 361430.000000 1 0 0
-9.492618 -7.670144 2.138988 12.390165 0.679607 1.397291 0.004610 0.003564 365718.000000 1 0 0
-13.695818 3.243656 -9.748312 17.120932 -0.232551 2.176547 0.001366 0.000572 248930.000000 1 0 0
-12.728218 -5.101244 -13.498812 19.241834 0.381181 2.348345 -0.000036 0.012918 105227.000000 1 0 0
-17.681318 -0.137344 -8.236312 19.506017 0.007768 2.006716 0.015309 -0.015978 488006.000000 1 0 0
-12.178318 15.365556 3.692188 19.951040 -0.900601 1.384661 0.020602 -0.013211 291744.000000 1 0 0
-17.541818 6.120956 9.347188 20.797870 -0.335726 1.104669 0.026270 -0.007589 276437.000000 1 0 0
-13.083918 15.652256 -0.333212 20.403261 -0.874538 1.587128 0.032398 -0.019260 135867.000000 1 0 0
-16.588318 5.386056 -10.114012 20.161228 -0.313951 2.096309 0.050355 -0.009832 -173770.000000 1 0 0
-18.486118 3.002156 -0.156812 18.728964 -0.160995 1.579169 0.046380 -0.001558 30711.300000 1 0 0
-9.515118 15.393656 -0.270312 18.099038 -1.017160 1.585732 0.003845 -0.014276 -99039.800000 1 0 0
-18.484518 12.046956 2.543888 22.209861 -0.577592 1.456006 0.068566 -0.011164 -117493.000000 1 0 0
-8.629418 16.380156 -7.752112 20.071662 -1.085922 1.967328 0.037381 -0.025688 -130663.000000 1 0 0
-14.910418 -2.126144 -13.384812 20.149299 0.141640 2.297329 0.005108 0.001022 145995.000000 1 0 0
-18.923018 5.252056 -4.912712 20.243504 -0.270734 1.815925 0.038365 -0.005176 1676.950000 1 0 0
-16.740518 9.561756 -5.779212 20.126386 -0.518954 1.862042 0.036248 0.012898 -152919.000000 1 0 0
-19.034918 1.102956 2.368588 19.213402 -0.057879 1.447204 0.017054 -0.005201 -23189.000000 1 0 0
-13.629318 11.596956 -6.942812 19.195060 -0.705006 1.940885 0.014865 -0.013984 103672.000000 1 0 0
-12.732318 4.938256 -13.554412 19.241112 -0.369990 2.352445 0.016846 -0.003001 -5340.060000 1 0 0
-14.044918 9.247356 -6.489612 18.024660 -0.582267 1.939108 0.014348 -0.003440 144063.000000 1 0 0
-6.362518 12.036956 -15.214412 20.416862 -1.084545 2.411614 -0.002948 -0.010309 -14198.500000 1 0 0
-14.965318 13.937556 3.116288 20.686408 -0.749854 1.419576 0.027139 -0.015697 178941.000000 1 0 0
-18.704218 8.443256 -4.652112 21.042302 -0.424025 1.793722 0.054698 -0.006743 166752.000000 1 0 0
-3.777618 17.020656 -10.000512 20.099337 -1.352393 2.091573 0.014724 -0.000121 59190.800000 1 0 0
-19.401118 -1.369844 -6.806412 20.605997 0.070489 1.907431 0.018819 -0.000201 -145778.000000 1 0 0
-10.565818 13.534156 -6.376112 18.315695 -0.907949 1.926364 0.004196 -0.021499 132450.000000 1 0 0
-19.584018 2.853356 4.314488 20.255622 -0.144680 1.356150 0.035271 -0.001306 178604.000000 1 0 0
-15.038818 12.883056 0.617888 19.812142 -0.708344 1.539604 0.025227 -0.004721 27466.400000 1 0 0
-17.442318 2.083356 -9.374912 19.911399 -0.118879 2.061029 0.007383 0.008174 187079.000000 1 0 0
-16.789118 13.455056 -3.619412 21.817726 -0.675603 1.737460 0.048115 0.021842 86549.000000 1 0 0
-10.632518 15.789756 -8.650812 20.909409 -0.978160 1.997342 0.016289 -0.008848 46975.500000 1 0 0
-19.045918 1.783956 -6.952912 20.353685 -0.093394 1.919420 0.014713 -0.005813 163647.000000 1 0 0
-16.465518 10.830556 -0.309212 19.710653 -0.581819 1.586485 -0.000092 0.005046 -21739.200000 1 0 0
-11.600518 6.959656 -14.628912 19.925208 -0.540378 2.395271 0.020932 -0.002935 362255.000000 1 0 0
-13.790218 13.277156 -5.239812 19.847131 -0.766445 1.837972 0.036133 -0.004831 338266.000000 1 0 0
-18.642518 8.110756 0.114588 20.330789 -0.410367 1.565160 0.027799 -0.001987 -34934.300000 1 0 0
-14.039018 9.025656 -11.278412 20.143462 -0.571366 2.165067 -0.002036 0.023715 287758.000000 1 0 0
-18.463418 11.421856 4.996988 22.278386 -0.553999 1.344574 0.040541 -0.010105 60352.900000 1 0 0
-8.215118 11.815056 -13.538712 19.758047 -0.963225 2.325709 -0.010261 -0.012684 486540.000000 1 0 0
-21.227718 -1.577144 -4.266012 21.709497 0.074160 1.768588 0.020144 -0.019446 273952.000000 1 0 0
-10.678918 13.518256 -3.638312 17.607380 -0.902206 1.778931 0.012145 -0.003657 502670.000000 1 0 0
-18.622518 -5.040244 3.527188 19.612325 0.264321 1.389967 0.010140 -0.003514 -53133.900000 1 0 0
-11.428918 11.329556 -13.403612 20.943634 -0.781032 2.265275 0.019357 -0.005983 237790.000000 1 0 0
-14.661118 11.216156 -10.389512 21.182363 -0.653049 2.083436 0.015819 -0.008666 283722.000000 1 0 0
-12.669518 9.275756 -14.043012 21.065672 -0.631967 2.300475 0.033984 -0.009762 379663.000000 1 0 0
-18.733918 -4.575144 -2.705712 19.473380 0.239529 1.710191 0.029848 -0.004591 -309170.000000 1 0 0
-9.374118 12.328356 -11.519212 19.301676 -0.920691 2.210302 0.004498 -0.010257 -58502.000000 1 0 0
-14.972518 7.701456 -8.331812 18.785841 -0.475080 2.030314 -0.018916 0.009643 -132588.000000 1 0 0
-14.330218 9.205956 1.752488 17.122383 -0.571025 1.468266 0.015026 0.000834 -9476.350000 1 0 0
-19.859318 6.149056 7.479088 22.093894 -0.300269 1.225459 0.041544 -0.013684 202777.000000 1 0 0
-18.683318 5.943756 3.613988 19.936287 -0.308007 1.388512 0.018514 0.000597 218386.000000 1 0 0
-14.529618 12.960156 5.606088 20.260890 -0.728367 1.290443 0.021402 -0.007907 125250.000000 1 0 0
17.936682 6.304656 5.688888 19.845319 0.338006 1.280056 0.022834 -0.008719 28516.100000 1 0 0
18.295182 7.881556 0.609588 19.929982 0.406773 1.540205 0.012833 0.010209 -113697.000000 1 0 0
16.763182 4.294556 8.577988 19.313968 0.250796 1.110589 0.037787 -0.003127 -59766.300000 1 0 0
12.581082 12.739856 10.771488 20.895274 0.791669 1.029207 0.051736 -0.017117 241588.000000 1 0 0
15.405082 12.569056 4.082888 20.296987 0.684363 1.368257 0.025413 -0.003857 98509.100000 1 0 0
4.615982 9.899456 13.887988 17.668693 1.134481 0.666448 0.015423 -0.026166 330997.000000 1 0 0
13.477782 13.038256 -5.034112 19.416204 0.768824 1.833066 0.038662 -0.012465 260662.000000 1 0 0
17.012282 9.362556 -2.637112 19.596672 0.503105 1.705775 -0.048507 -0.001608 -105455.000000 1 0 0
14.601982 7.504956 9.528588 18.982524 0.474760 1.044926 0.034443 -0.009409 144835.000000 1 0 0
4.828182 19.273856 -1.782112 19.949155 1.325343 1.660248 0.005583 -0.007817 691668.000000 1 0 0
-4.507718 19.786156 3.832888 20.651937 -1.346798 1.384119 -0.014001 0.018106 335078.000000 1 0 0
6.731882 13.549056 12.525388 19.641295 1.109670 0.879279 0.018359 0.014411 -194902.000000 1 0 0
0.635582 16.749456 -10.297412 19.671932 1.532868 2.121700 0.011828 -0.002343 -61187.600000 1 0 0
10.885182 9.592356 15.351488 21.122705 0.722348 0.757179 0.046542 -0.015271 291779.000000 1 0 0
-1.349418 12.389556 0.592688 12.476911 -1.462308 1.523276 -0.002034 0.005341 508430.000000 1 0 0
-4.831318 19.301756 -2.298612 20.029554 -1.325531 1.685811 0.001761 0.002046 13966.300000 1 0 0
5.705382 18.237656 6.555188 20.202325 1.267606 1.240338 0.021014 -0.017897 183100.000000 1 0 0
11.582782 17.079356 -1.093812 20.665470 0.974869 1.623751 0.024416 -0.016428 335537.000000 1 0 0
18.489182 10.648656 2.912188 21.534265 0.522540 1.435146 0.017226 -0.000409 227996.000000 1 0 0
11.585082 16.366156 6.885688 21.200893 0.954809 1.240014 0.028096 0.001392 -55147.700000 1 0 0
18.133782 7.255856 -6.133912 20.472087 0.380618 1.875094 0.002029 0.005830 530746.000000 1 0 0
-0.033918 15.140556 11.382788 18.942160 -1.568556 0.926140 -0.000875 0.003031 377998.000000 1 0 0
1.096782 20.022856 -1.977212 20.150113 1.516075 1.669079 0.003442 -0.013827 262755.000000 1 0 0
14.311382 9.661556 -1.187412 17.308127 0.593816 1.639455 0.003432 -0.006718 -53097.100000 1 0 0
10.261382 16.933856 1.722388 19.875061 1.026000 1.484027 0.028756 -0.021612 79142.800000 1 0 0
0.404582 17.594856 -0.421812 17.604561 1.547806 1.594759 -0.001978 -0.006790 101528.000000 1 0 0
-0.148118 20.961656 1.130788 20.992656 -1.563730 1.516904 0.016718 -0.004394 287504.000000 1 0 0
6.321582 17.320656 -0.170912 18.439000 1.220845 1.580066 0.005522 -0.022080 24298.300000 1 0 0
6.833182 18.450856 -3.184712 19.931604 1.216113 1.731266 -0.006694 -0.015312 117102.000000 1 0 0
10.241482 9.542356 12.659688 18.873585 0.750075 0.835560 0.025166 -0.010013 101128.000000 1 0 0
12.193682 14.155156 8.197988 20.402483 0.859704 1.157300 0.012464 -0.017551 142064.000000 1 0 0
0.128382 17.782756 7.054788 19.131464 1.563577 1.193129 0.011371 0.004619 227092.000000 1 0 0
6.717982 17.890456 -7.925812 20.688600 1.211582 1.963947 0.002308 -0.008632 20560.900000 1 0 0
-1.441718 18.560656 9.347688 20.831605 -1.493276 1.105457 0.045900 -0.011583 68243.700000 1 0 0
16.134082 7.070456 -7.999512 19.346631 0.413024 1.997073 0.042456 -0.003313 -249552.000000 1 0 0
-5.441118 19.685956 -6.412412 21.407047 -1.301133 1.875014 0.020486 -0.013547 335636.000000 1 0 0
4.193582 15.554456 10.133088 19.031729 1.307451 1.009326 0.011361 -0.002671 259125.000000 1 0 0
8.987082 14.961656 7.661888 19.061042 1.029881 1.157134 0.012322 -0.000073 -87250.700000 1 0 0
-2.580918 19.301356 6.479388 20.522815 -1.437868 1.249585 0.003493 -0.007656 210878.000000 1 0 0
4.807082 17.908756 8.758288 20.507052 1.308557 1.129528 0.021228 -0.008186 301282.000000 1 0 0
13.889182 11.392156 -6.955212 19.263062 0.686948 1.940206 -0.046576 -0.024273 24355.900000 1 0 0
12.070782 6.436856 15.371188 20.576936 0.489900 0.727242 0.060942 -0.027600 167441.000000 1 0 0
17.301682 9.390456 4.977388 20.305252 0.497259 1.323144 0.038406 -0.010967 33486.500000 1 0 0
4.174482 15.466156 12.202588 20.137811 1.307168 0.919832 -0.013117 0.012495 418279.000000 1 0 0
16.549282 11.469856 -4.613112 20.657132 0.606062 1.796014 0.051195 0.021869 114056.000000 1 0 0
15.206782 14.234956 6.543988 21.833551 0.752402 1.266395 0.029740 0.014121 252456.000000 1 0 0
12.656882 14.247256 -7.755512 20.574958 0.844442 1.957286 0.049491 -0.019878 379443.000000 1 0 0
-7.964518 15.720556 9.946388 20.236108 -1.101858 1.056966 0.010440 -0.003423 86832.200000 1 0 0
-5.147118 17.445756 -7.178412 19.554458 -1.283900 1.946684 0.007787 0.019820 -19043.900000 1 0 0
2.094682 19.528156 -4.581912 20.167560 1.463940 1.799990 -0.010786 -0.016074 64412.000000 1 0 0
7.233682 16.283756 9.023288 19.972646 1.152754 1.102034 0.021860 -0.013133 603298.000000 1 0 0
13.524482 15.333356 -1.505212 20.500953 0.847998 1.644284 0.038779 -0.014969 176994.000000 1 0 0
12.741082 16.740856 4.880588 21.596563 0.920243 1.342838 0.025524 -0.013863 308688.000000 1 0 0
2.557582 18.615756 0.673688 18.802698 1.434263 1.534959 0.010355 -0.004922 69408.800000 1 0 0
-6.441118 18.253656 1.143588 19.390506 -1.231569 1.511785 -0.039372 0.025430 85274.800000 1 0 0
0.094082 20.204856 -6.037312 21.087773 1.566140 1.861153 0.007747 0.003006 199866.000000 1 0 0
-7.684218 18.044256 -6.391012 20.627346 -1.168203 1.885813 0.038731 -0.020220 45831.000000 1 0 0
-7.548618 18.583756 -1.538912 20.117302 -1.184961 1.647368 0.018225 -0.014269 13715.000000 1 0 0
-14.445518 -8.547944 8.850988 18.975783 0.534321 1.085539 0.024595 -0.012782 351950.000000 1 0 0
-13.260418 -13.618044 7.427188 20.407179 0.798703 1.198291 0.020987 -0.006393 -163335.000000 1 0 0
-3.902618 -15.896544 12.640588 20.681272 1.330056 0.913209 0.021702 -0.004348 21636.900000 1 0 0
-2.240618 -14.876644 14.549988 20.929335 1.421307 0.802104 0.025850 -0.032423 363192.000000 1 0 0
-7.650718 -13.638844 13.462288 20.634553 1.059585 0.860030 0.001527 -0.008678 260655.000000 1 0 0
-10.134918 -11.171844 11.775588 19.136122 0.834026 0.907955 0.034245 -0.007362 137456.000000 1 0 0
-7.251118 -10.483944 13.176288 18.333204 0.965703 0.768849 0.011913 -0.008276 455184.000000 1 0 0
-15.176018 -12.127144 7.909288 20.974651 0.674191 1.184146 0.021485 0.010136 340040.000000 1 0 0
-4.475718 -12.696944 13.242888 18.884346 1.231893 0.793629 0.014776 -0.014523 354396.000000 1 0 0
3.751082 -12.947344 14.066088 19.482278 -1.288799 0.764116 -0.003616 0.018453 559259.000000 1 0 0
6.597882 -13.619344 15.091688 21.372357 -1.119666 0.786777 0.010329 0.017681 351686.000000 1 0 0
7.114682 -9.285144 16.971488 20.612230 -0.916980 0.603473 -0.000425 0.011269 463188.000000 1 0 0
-5.228618 13.386756 13.495088 19.714489 -1.198436 0.816843 0.000211 -0.004078 449549.000000 1 0 0
-13.370818 -1.566244 17.486888 22.068601 0.116608 0.656083 0.015270 -0.008549 244617.000000 1 0 0
-10.431218 10.304856 13.067688 19.640897 -0.779304 0.842860 0.015687 0.016153 333058.000000 1 0 0
-7.200418 -8.487544 16.950488 20.278153 0.867260 0.581028 0.030083 -0.010929 78648.300000 1 0 0
-4.889918 2.187556 18.005888 18.785864 -0.420657 0.289171 0.022588 -0.011520 472300.000000 1 0 0
-15.538818 -3.865144 14.531888 21.623367 0.243794 0.833829 0.021124 -0.002627 63350.700000 1 0 0
-14.508318 3.055556 12.827188 19.605215 -0.207574 0.857574 0.006939 0.007110 371918.000000 1 0 0
-14.104518 10.797056 9.709688 20.243317 -0.653350 1.070542 -0.035271 0.023074 -84568.300000 1 0 0
-5.073018 11.042156 15.811888 19.941929 -1.140134 0.655248 0.038419 -0.003591 211346.000000 1 0 0
-12.916618 13.207056 7.669088 20.002006 -0.796515 1.177304 0.008933 -0.016512 139109.000000 1 0 0
-3.744518 -6.146944 18.402988 19.760473 1.023663 0.372822 0.024502 -0.019476 193458.000000 1 0 0
0.764482 -3.126644 17.644588 17.935769 -1.330996 0.180437 0.007201 -0.021942 202574.000000 1 0 0
-4.456818 6.649156 21.024388 22.496653 -0.980294 0.363786 0.028426 -0.002768 117419.000000 1 0 0
2.041982 -10.715644 16.434588 19.725375 -1.382493 0.585981 -0.007417 -0.001766 328439.000000 1 0 0
-14.788818 -0.398244 14.182288 20.494024 0.026922 0.806512 -0.014914 0.007578 97655.800000 1 0 0
-13.665418 -5.442044 7.561488 16.538912 0.378984 1.095959 0.008441 -0.004527 229666.000000 1 0 0
10.173682 0.697156 16.686388 19.555699 0.068418 0.548563 0.033330 0.002782 478197.000000 1 0 0
-7.593518 12.510856 12.250288 19.085402 -1.025279 0.873866 0.015416 -0.001182 39513.300000 1 0 0
-1.977018 7.618056 20.035688 21.526081 -1.316880 0.374301 0.023453 -0.011202 555012.000000 1 0 0
0.770382 -14.072844 15.833488 21.197589 -1.516108 0.727337 0.001918 0.010582 518705.000000 1 0 0
-3.323118 -11.574844 17.822688 21.509727 1.291218 0.594217 0.018802 -0.010308 572691.000000 1 0 0
-2.278418 8.547956 16.828688 19.012193 -1.310307 0.483975 0.014015 -0.011593 505902.000000 1 0 0
-5.719518 -9.594144 20.147088 23.036181 1.033215 0.506218 0.078936 -0.017518 119738.000000 1 0 0
-6.592118 -3.320744 19.104688 20.481027 0.466639 0.368693 0.030747 -0.014597 483644.000000 1 0 0
-10.834918 -8.086944 15.949388 20.908780 0.641179 0.703151 0.052263 -0.016629 355410.000000 1 0 0
-0.491818 5.275356 17.946188 18.711946 -1.477836 0.287074 0.021133 -0.021050 -124315.000000 1 0 0
-6.201918 -11.565344 18.618288 22.778534 1.078571 0.613981 0.037021 -0.012954 368019.000000 1 0 0
0.662682 3.492056 19.014588 19.343944 1.383258 0.184796 0.013931 -0.004624 108746.000000 1 0 0
-17.970618 -1.266544 7.575688 19.543242 0.070362 1.172729 -0.017231 0.004705 94946.800000 1 0 0
-1.659118 -8.705244 17.398988 19.525848 1.382467 0.471089 0.008149 -0.012413 273024.000000 1 0 0
5.837282 3.311456 15.009988 16.441999 0.516024 0.420450 0.017103 -0.012700 394472.000000 1 0 0
-13.481118 -6.503244 10.262888 18.148267 0.449466 0.969754 0.003315 -0.011559 57813.700000 1 0 0
3.575982 8.171556 17.008988 19.205927 1.158291 0.482988 0.023183 -0.005961 195044.000000 1 0 0
6.503582 4.197556 16.925588 18.611598 0.573150 0.428931 0.043261 -0.049503 307969.000000 1 0 0
5.438482 -9.120844 18.613888 21.429972 -1.033124 0.518444 0.002413 0.016961 195172.000000 1 0 0
-4.402618 -0.603944 19.867688 20.358606 0.136328 0.220050 0.027428 -0.012027 609647.000000 1 0 0
-11.275918 1.899656 16.928288 20.428460 -0.166903 0.594083 0.037654 -0.009354 119643.000000 1 0 0
-16.810218 -4.074044 8.951588 19.475939 0.237771 1.093226 0.014056 -0.006159 362495.000000 1 0 0
-13.563818 -9.247444 13.233588 21.086020 0.598388 0.892330 0.048792 -0.020441 27145.700000 1 0 0
-14.785018 6.292256 13.045288 20.697072 -0.402365 0.888862 0.011185 -0.001853 204903.000000 1 0 0
0.846482 8.561256 16.850088 18.919226 1.472243 0.472061 0.005364 -0.033225 208514.000000 1 0 0
-3.852718 -10.278744 15.103688 18.671299 1.212180 0.628474 0.015483 -0.011426 577998.000000 1 0 0
-18.275518 -4.292244 6.947088 20.016992 0.230682 1.216362 0.053506 -0.002555 -182794.000000 1 0 0
-0.583118 -0.544244 20.877588 20.892820 0.750930 0.038187 0.019897 -0.018909 331000.000000 1 0 0
-1.838218 2.388056 20.423888 20.645025 -0.914771 0.146496 0.018499 -0.006179 13731.400000 1 0 0
-7.919918 1.703456 16.416088 18.306141 -0.211857 0.458419 0.005825 0.008255 492503.000000 1 0 0
2.682482 -1.967044 19.035688 19.324140 -0.632722 0.172999 0.001426 -0.003102 113865.000000 1 0 0
-12.082218 4.139256 14.450488 19.285488 -0.330059 0.723802 -0.009993 -0.003821 233416.000000 1 0 0
-13.489718 -5.863844 13.380688 19.884667 0.410049 0.832654 0.031957 -0.004377 22456.100000 1 0 0
-17.403418 -0.939044 9.764888 19.977833 0.053905 1.060099 0.014229 -0.008506 -331992.000000 1 0 0
-7.484018 7.689156 14.741788 18.233320 -0.798917 0.629184 0.005892 -0.001664 56427.400000 1 0 0
-9.304018 0.461956 14.186988 16.972000 -0.049610 0.581016 0.006371 -0.000093 214531.000000 1 0 0
7.407382 -0.771244 15.082488 16.820986 -0.103745 0.458659 0.007454 -0.003866 165439.000000 1 0 0
4.246282 6.590756 18.445888 20.042948 0.998454 0.401903 0.031085 -0.002382 205756.000000 1 0 0
1.732582 0.621756 20.226588 20.310177 0.344547 0.090757 0.011511 -0.001254 206328.000000 1 0 0
-7.107618 6.767356 17.428188 20.001427 -0.760880 0.512855 0.013453 0.000336 614189.000000 1 0 0
7.584982 -3.278644 17.097388 18.989527 -0.407999 0.450203 -0.000109 0.016355 481429.000000 1 0 0
-16.874418 2.439156 8.956288 19.259039 -0.143553 1.087113 0.022706 -0.009370 253085.000000 1 0 0
3.979282 -5.972144 19.135288 20.436742 -0.983043 0.358803 -0.000769 -0.012254 113845.000000 1 0 0
-3.574818 -3.859044 20.755988 21.412207 0.823614 0.248213 0.026470 -0.011412 444644.000000 1 0 0
-9.850718 5.888156 14.464688 18.464404 -0.538755 0.670707 0.011209 -0.002148 -38724.300000 1 0 0
6.423882 2.647156 19.874088 21.053576 0.390877 0.336316 0.041865 -0.019728 89758.300000 1 0 0
-7.505618 10.933156 14.745288 19.831584 -0.969188 0.732469 0.030515 -0.011235 292846.000000 1 0 0
-14.556618 5.027556 9.162388 17.919844 -0.332553 1.034101 -0.001155 -0.004342 301052.000000 1 0 0
0.758782 -5.770244 20.466388 21.277794 -1.440047 0.277052 0.011686 -0.013374 185648.000000 1 0 0
-6.086118 -8.145944 13.601388 16.982197 0.929131 0.641966 0.011639 -0.007943 277687.000000 1 0 0
-12.743718 10.209156 6.468188 17.563219 -0.675419 1.193638 -0.013053 -0.009998 186961.000000 1 0 0
-19.166818 1.616256 7.575088 20.672715 -0.084127 1.195628 -0.019025 -0.004088 -5512.950000 1 0 0
-16.040018 9.277356 6.218388 19.545328 -0.524377 1.247017 0.016354 0.001554 65408.000000 1 0 0
-12.682718 6.931556 14.262188 20.305364 -0.500179 0.792053 0.010331 -0.007185 208681.000000 1 0 0
-16.434418 8.219956 10.693288 21.260390 -0.463781 1.043767 0.003334 -0.006645 373253.000000 1 0 0
2.614982 10.563056 15.651688 19.062833 1.328116 0.607535 0.007980 -0.012017 389020.000000 1 0 0
1.560882 14.194756 14.002088 19.999648 1.461274 0.795235 0.006436 -0.010815 531774.000000 1 0 0
8.940582 4.866356 16.598388 19.471053 0.498456 0.550114 0.037123 -0.015671 116821.000000 1 0 0
-0.301218 13.265656 13.430388 18.879716 -1.548094 0.779356 -0.003152 0.005662 137008.000000 1 0 0
4.471482 12.605056 14.817688 19.961099 1.229908 0.734258 0.023015 -0.000250 217811.000000 1 0 0
-3.549918 -4.581844 -13.988712 15.141971 0.911624 2.748782 0.001774 -0.004195 94062.200000 1 0 0
5.028282 -11.864444 17.151988 21.453190 -1.169933 0.644321 -0.055266 0.029111 250446.000000 1 0 0
8.637082 -13.878144 7.237688 17.876974 -1.014104 1.153970 0.004486 -0.004116 285188.000000 1 0 0
-0.333718 15.404156 0.390988 15.412730 -1.549136 1.545426 -0.000445 -0.000390 -310363.000000 1 0 0
-14.035418 7.841656 8.270188 18.079838 -0.509502 1.095698 -0.000143 -0.001846 143281.000000 1 0 0
-15.867918 -9.800244 5.581488 19.467630 0.553270 1.280010 0.009458 -0.000658 140507.000000 1 0 0
9.061582 -10.422044 11.398088 17.906638 -0.855111 0.880807 -0.002306 0.002601 173218.000000 1 0 0
-25.252328 5.990756 30.883111 40.340250 -0.232930 0.698876 0.070519 -0.014510 -12610.600000 0 0 1
-24.138318 5.133956 30.848571 39.505066 -0.209566 0.674729 0.061138 -0.011220 322195.000000 0 0 1
-23.046018 5.593756 31.643501 39.543902 -0.238116 0.643148 0.061752 -0.013537 220773.000000 0 0 1
-21.762118 4.784156 31.414131 38.513965 -0.216396 0.616935 0.044617 -0.014281 -432729.000000 0 0 1
-21.784418 3.530456 32.141931 38.988828 -0.160666 0.601676 0.010846 -0.011111 514310.000000 0 0 1
-20.696618 2.766956 31.624101 37.895775 -0.132903 0.583568 0.011595 -0.011357 254563.000000 0 0 1
-20.214818 1.612256 32.487041 38.296815 -0.079588 0.558037 0.000487 -0.003267 -59861.400000 0 0 1
-20.911118 0.371656 32.309021 38.487476 -0.017771 0.574492 0.010354 0.006182 298107.000000 0 0 1
-20.760918 -0.572144 33.369933 39.305158 0.027552 0.556714 0.005313 0.008612 -341562.000000 0 0 1
-21.548018 -1.810444 32.969767 39.428420 0.083822 0.580492 0.001482 -0.016496 -731388.000000 0 0 1
-20.799418 -2.739044 32.250181 38.473268 0.130935 0.576732 0.008666 -0.016039 -50223.100000 0 0 1
-21.061018 -4.095544 32.537631 38.974830 0.192064 0.582960 0.014508 -0.022700 -314184.000000 0 0 1
-22.427618 -4.651144 32.032121 39.378775 0.204486 0.620761 -0.008038 -0.014424 243980.000000 0 0 1
-23.559218 -4.312944 32.809392 40.621354 0.181063 0.630576 -0.023462 -0.008982 295781.000000 0 0 1
-23.773418 -4.965144 34.045933 41.820493 0.205893 0.619624 -0.034650 -0.014066 -610531.000000 0 0 1
-24.956818 -4.450044 -33.882272 42.316120 0.176455 2.499249 -0.027660 -0.006809 -143930.000000 0 0 1
-24.936018 -4.725344 -32.513272 41.246172 0.187278 2.478795 -0.021414 -0.015553 -149399.000000 0 0 1
-26.088288 -4.399344 -31.789262 41.358315 0.167061 2.447494 -0.000795 -0.016522 -722937.000000 0 0 1
-26.043838 -4.932444 -30.337652 40.286271 0.187173 2.423485 -0.006491 -0.013595 -813773.000000 0 0 1
-26.178838 -6.342344 -30.403272 40.619156 0.237690 2.416587 -0.015748 -0.009842 473990.000000 0 0 1
-25.908518 -6.840044 -29.132612 39.582150 0.258118 2.397945 -0.016890 -0.008745 -499364.000000 0 0 1
-26.035118 -8.378944 -28.955402 39.830257 0.311364 2.384695 -0.010508 -0.005265 -448304.000000 0 0 1
-27.356728 -8.834744 -28.946502 40.796363 0.312373 2.359636 0.012118 -0.009247 -618755.000000 0 0 1
-27.485858 -10.206644 -28.837362 41.124706 0.355560 2.347900 0.014380 0.000017 842709.000000 0 0 1
-28.949598 -10.539744 -28.376212 41.885258 0.349156 2.315121 0.062364 -0.003009 939065.000000 0 0 1
-29.011998 -11.445844 -27.279032 41.434876 0.375774 2.289433 0.069440 -0.007030 -600923.000000 0 0 1
-30.365158 -11.648244 -27.004052 42.272252 0.366294 2.263750 0.067303 -0.008677 -534660.000000 0 0 1
-30.569468 -12.464344 -25.717892 41.848085 0.387160 2.232616 0.067422 -0.007723 10613.000000 0 0 1
-30.185218 -11.729044 -24.559512 40.643419 0.370614 2.219643 0.072996 -0.005836 163346.000000 0 0 1
-30.353008 -12.453244 -23.385512 40.289832 0.389337 2.190056 0.077142 -0.006538 -244544.000000 0 0 1
-29.860368 -11.647744 -22.175012 38.974898 0.371920 2.176032 0.084055 -0.008458 -5268.150000 0 0 1
-29.910758 -12.268444 -20.943012 38.519838 0.389241 2.145629 0.084315 -0.011549 995629.000000 0 0 1
-28.743058 -13.111544 -20.717812 37.779673 0.427968 2.151228 0.059932 -0.012750 721112.000000 0 0 1
-28.345248 -13.345344 -19.211912 36.751175 0.440028 2.120877 0.072782 -0.025166 58857.200000 0 0 1
-27.684298 -12.237444 -18.639712 35.547353 0.416211 2.122763 0.075039 -0.028049 123909.000000 0 0 1
-27.279208 -12.576144 -17.344412 34.686355 0.431977 2.094436 0.060236 -0.017740 -47674.300000 0 0 1
-26.839168 -11.420144 -16.412812 33.468508 0.402297 2.083340 0.065780 -0.025571 544837.000000 0 0 1
-25.626998 -10.732744 -16.761712 32.448264 0.396613 2.113633 0.068613 -0.032624 650631.000000 0 0 1
-25.572278 -9.438044 -16.109812 31.662977 0.353565 2.104575 0.073349 -0.031678 -986060.000000 0 0 1
-24.291318 -8.601044 -16.207712 30.442339 0.340304 2.132238 0.073503 -0.026713 -119455.000000 0 0 1
-23.255518 -9.331444 -15.552012 29.491695 0.381590 2.126258 0.053563 -0.032259 409222.000000 0 0 1
-22.106418 -8.489944 -15.383812 28.238884 0.366680 2.146916 0.075681 -0.045896 783335.000000 0 0 1
-21.041718 -9.033344 -14.382712 27.041036 0.405513 2.131621 0.066672 -0.008186 117804.000000 0 0 1
-20.226518 -10.092444 -14.812812 27.025708 0.462824 2.150888 0.052092 -0.001184 520203.000000 0 0 1
-19.089618 -10.204044 -13.967212 25.760805 0.490891 2.143836 0.051005 0.002581 791453.000000 0 0 1
-17.965918 -11.188044 -14.461812 25.633778 0.556970 2.170224 0.047154 0.002691 720347.000000 0 0 1
-17.205518 -10.893044 -15.649912 25.682835 0.564412 2.226041 0.052431 -0.021648 346229.000000 0 0 1
-17.887418 -11.200944 -16.838112 26.998943 0.559455 2.244210 0.043470 -0.021433 -354974.000000 0 0 1
-17.089918 -10.961144 -18.118312 27.211858 0.570292 2.299394 0.030344 -0.019469 -643692.000000 0 0 1
-17.860318 -11.110444 -19.262012 28.521186 0.556493 2.312246 0.029540 -0.025962 56784.100000 0 0 1
-17.278218 -10.578244 -20.423212 28.767059 0.549364 2.360225 0.025218 -0.022451 -73559.500000 0 0 1
-18.259018 -10.839844 -21.574412 30.271261 0.535753 2.364140 0.033272 -0.020804 -10066.200000 0 0 1
-19.351318 -9.965044 -21.670412 30.714530 0.475539 2.353985 0.022710 -0.031220 49908.600000 0 0 1
-20.425818 -10.637644 -22.327412 32.076266 0.480144 2.340709 0.040429 -0.016598 410050.000000 0 0 1
-21.508818 -9.650244 -22.831112 32.817924 0.421743 2.340177 0.039846 -0.020597 -67808.300000 0 0 1
-21.004418 -8.736444 -23.764212 32.897550 0.394166 2.378020 0.023025 -0.033670 -390741.000000 0 0 1
-21.999218 -8.344044 -24.631112 34.062888 0.362525 2.379086 0.018780 -0.029582 -514862.000000 0 0 1
-21.448718 -7.560744 -25.851472 34.431250 0.338903 2.420090 0.006268 -0.027153 -280552.000000 0 0 1
-20.562018 -8.352844 -26.575052 34.623691 0.385863 2.445790 0.022652 -0.029307 -290270.000000 0 0 1
-19.831818 -7.585744 -27.484592 34.731072 0.365333 2.483818 0.016595 -0.042741 -88162.400000 0 0 1
-18.640818 -8.336144 -28.143502 34.771082 0.420522 2.513916 0.035952 -0.036881 -84632.600000 0 0 1
-18.990018 -9.336144 -29.051642 35.941373 0.456933 2.512066 0.037348 -0.031269 997543.000000 0 0 1
-17.765018 -9.859144 -29.612522 35.912394 0.506655 2.540250 0.020360 -0.020181 833811.000000 0 0 1
-18.004818 -11.046144 -30.595902 37.179295 0.550294 2.537343 0.014069 -0.012979 159867.000000 0 0 1
-18.704018 -10.652844 -31.814132 38.411748 0.517728 2.546755 0.011730 -0.011707 745253.000000 0 0 1
-18.872918 -11.817444 -32.572992 39.456797 0.559432 2.541947 -0.002656 -0.003658 -94751.800000 0 0 1
-19.440418 -11.555044 -34.000472 40.834801 0.536279 2.554644 -0.010188 -0.002671 189540.000000 0 0 1
-18.531818 -10.885244 33.895236 40.134821 0.531089 0.565101 -0.010936 -0.005498 451615.000000 0 0 1
-18.981118 -10.887344 32.515221 39.192559 0.520773 0.592356 0.002865 -0.014149 -67353.600000 0 0 1
-18.531318 -12.149144 31.819391 38.774800 0.580302 0.608301 0.009844 -0.010193 -168835.000000 0 0 1
-17.185318 -12.050344 31.390441 37.761167 0.611531 0.589374 0.016689 -0.011041 236260.000000 0 0 1
-16.733118 -12.906544 30.359931 36.990560 0.657005 0.608077 0.025870 -0.013334 -22142.600000 0 0 1
-16.761518 -14.465144 30.665671 37.822906 0.711991 0.625330 0.020167 -0.008369 -269054.000000 0 0 1
-17.991818 -15.163244 30.464411 38.492984 0.700291 0.657655 0.015773 -0.011278 336989.000000 0 0 1
-17.868818 -16.525744 30.845321 39.291586 0.746369 0.668042 0.023179 -0.016318 -288424.000000 0 0 1
-18.388718 -16.785444 32.218331 40.717526 0.739849 0.657922 0.004016 -0.019031 -523010.000000 0 0 1
-17.502618 -16.374344 33.257283 40.993995 0.752105 0.624472 0.022569 -0.016274 -174387.000000 0 0 1
-18.090518 -15.947044 -34.316616 41.942880 0.722507 2.529026 0.005344 -0.013321 -124271.000000 0 0 1
-17.095018 -15.386744 -33.267112 40.443693 0.732855 2.536684 0.025997 -0.008228 161314.000000 0 0 1
-16.723918 -14.029044 -33.441582 39.935485 0.697992 2.563287 0.020114 -0.006091 -214043.000000 0 0 1
-15.410218 -13.721744 -33.030512 38.945806 0.727503 2.583213 0.023391 -0.005150 136533.000000 0 0 1
-15.272518 -13.369444 -31.483292 37.459172 0.719052 2.568945 0.029419 -0.004996 -286737.000000 0 0 1
-15.523618 -14.467844 -30.659502 37.286811 0.750210 2.536169 0.025866 -0.003678 -159185.000000 0 0 1
-15.891618 -14.157944 -29.347852 36.253101 0.727768 2.514142 0.018666 0.002045 -237158.000000 0 0 1
-15.760118 -15.389244 -28.438392 35.971549 0.773492 2.482552 0.025551 0.000242 350661.000000 0 0 1
-14.435118 -15.810544 -28.176952 35.387661 0.830842 2.491845 0.029771 -0.005432 -76889.000000 0 0 1
-13.836718 -16.565744 -29.177152 36.293041 0.874922 2.504674 0.031153 -0.007199 351396.000000 0 0 1
-12.356518 -17.002644 -28.832542 35.680372 0.942348 2.511679 0.020090 0.000741 1039260.000000 0 0 1
-11.457118 -15.915344 -28.746672 34.798490 0.946853 2.542929 0.014481 -0.005387 311655.000000 0 0 1
-10.164718 -16.365744 -28.322972 34.254194 1.015008 2.544274 0.022471 -0.012982 1062510.000000 0 0 1
-9.038718 -15.311644 -28.169762 33.311865 1.037527 2.578555 0.016069 -0.010129 86570.500000 0 0 1
-9.112218 -14.564844 -26.920652 31.935697 1.011743 2.573566 0.011660 -0.003845 -49276.400000 0 0 1
-8.133318 -13.554044 -26.664662 30.997858 1.030328 2.606477 0.010790 -0.007285 -176628.000000 0 0 1
-8.129418 -12.232744 -27.453822 31.135829 0.984252 2.650342 0.011771 -0.018690 -371818.000000 0 0 1
-7.591018 -12.335644 -28.732322 32.176669 1.019150 2.674664 0.026220 -0.014493 159180.000000 0 0 1
-7.719318 -11.084844 -29.355452 32.314149 0.962501 2.710332 0.028548 -0.014971 -297793.000000 0 0 1
-6.703118 -10.878344 -30.483102 33.052832 1.018558 2.744667 0.026283 -0.005528 -1346150.000000 0 0 1
-5.395418 -10.779644 -30.036522 32.365165 1.106734 2.759942 0.023561 -0.007473 -542771.000000 0 0 1
-4.535918 -10.545944 -31.149972 33.198076 1.164605 2.788496 0.029890 -0.007008 -47549.800000 0 0 1
-4.315918 -9.019744 -31.439852 32.991624 1.124499 2.833668 0.021628 -0.005871 -666053.000000 0 0 1
-3.219218 -8.756244 -32.303442 33.623616 1.218487 2.860442 0.023605 -0.010537 324646.000000 0 0 1
-3.155118 -7.371044 -32.650652 33.620710 1.166352 2.900791 0.018078 -0.009806 -221047.000000 0 0 1
-1.738518 -6.952344 -33.082962 33.850257 1.325759 2.928269 0.031441 -0.013687 -173286.000000 0 0 1
-1.293618 -7.484044 -34.312949 35.143461 1.399637 2.923759 0.036298 -0.019217 -126788.000000 0 0 1
-0.151918 -6.746244 34.052451 34.714612 1.548281 0.195629 0.029563 -0.009672 -70443.400000 0 0 1
0.370682 -7.298844 32.750310 33.555824 -1.520054 0.219553 0.028600 -0.009489 -387062.000000 0 0 1
-0.367418 -6.958644 31.589291 32.348740 1.518045 0.217115 0.017224 -0.003699 124423.000000 0 0 1
0.177482 -7.571744 30.399391 31.328673 -1.547361 0.244173 0.027558 -0.006076 35806.200000 0 0 1
-0.149418 -6.988144 28.976831 29.807939 1.549418 0.236697 0.020551 -0.002965 -206055.000000 0 0 1
0.633282 -5.871544 28.651351 29.253649 -1.463356 0.203273 0.026075 0.001451 -3972.220000 0 0 1
0.357382 -5.388444 27.374971 27.902546 -1.504570 0.194770 0.025270 -0.001115 -435724.000000 0 0 1
-0.824118 -4.449144 27.190231 27.564156 1.387641 0.164903 0.012557 0.008787 274222.000000 0 0 1
-2.102918 -5.055844 27.327941 27.871135 1.176626 0.197753 0.001653 0.009633 609583.000000 0 0 1
-3.193818 -4.174244 26.999521 27.506343 0.917685 0.192263 -0.001493 0.002449 -480584.000000 0 0 1
-4.562318 -4.693244 27.241561 28.016851 0.799543 0.235800 -0.001462 0.000819 -1158500.000000 0 0 1
-4.998218 -5.803144 26.525061 27.608649 0.859781 0.281096 0.004325 0.007305 216721.000000 0 0 1
-6.374218 -6.140844 26.693531 28.122681 0.766753 0.320171 -0.005278 0.003453 863599.000000 0 0 1
-6.612418 -7.634044 26.510251 28.368928 0.856986 0.363995 0.006797 0.003321 342845.000000 0 0 1
-5.955918 -8.288644 27.609921 29.436072 0.947720 0.354091 0.002296 0.002902 2584.500000 0 0 1
-6.120418 -9.694444 27.694051 29.973358 1.007656 0.392500 0.008583 0.001252 208544.000000 0 0 1
-5.305518 -10.396244 28.827981 31.101172 1.098919 0.384703 0.006014 -0.004815 105146.000000 0 0 1
-5.556118 -11.768644 28.807411 31.610732 1.129707 0.424324 0.014415 -0.007471 35887.700000 0 0 1
-4.963618 -12.429544 29.889371 32.749131 1.190859 0.421010 0.017350 -0.008093 -129237.000000 0 0 1
-4.990118 -13.964944 29.903711 33.378928 1.227605 0.460375 0.025552 -0.008437 152869.000000 0 0 1
-6.260718 -14.466244 30.278111 34.135507 1.162353 0.479994 0.044544 -0.015835 -62740.700000 0 0 1
-6.313218 -15.908944 30.290801 34.792008 1.193022 0.514324 0.051588 -0.018080 144604.000000 0 0 1
-6.410118 -16.484744 31.714311 36.312999 1.199937 0.508738 0.057799 -0.017386 712745.000000 0 0 1
-7.714818 -16.351444 32.290481 37.007611 1.129952 0.510427 0.066811 -0.017162 381191.000000 0 0 1
-7.694918 -16.786244 33.624753 38.361619 1.140974 0.502210 0.067058 -0.018731 302606.000000 0 0 1
-8.988218 -17.515144 34.102082 39.376647 1.096670 0.523553 0.075907 -0.018951 510339.000000 0 0 1
-9.432418 -18.741444 33.441378 39.478323 1.104519 0.560326 0.070399 -0.024730 708490.000000 0 0 1
-10.252618 -18.480544 32.269091 38.573837 1.064291 0.579834 0.063466 -0.022681 1177.270000 0 0 1
-10.903118 -19.692444 31.562431 38.766705 1.065140 0.619509 0.052216 -0.023325 -270787.000000 0 0 1
-12.063918 -20.127044 32.230741 39.867991 1.030827 0.629305 0.063083 -0.020828 -201265.000000 0 0 1
-12.424718 -21.527644 32.156721 40.643176 1.047346 0.658034 0.049905 -0.015508 -135707.000000 0 0 1
-11.761818 -22.401044 33.294710 41.817279 1.087305 0.649816 0.057472 -0.013937 1443890.000000 0 0 1
-10.303118 -22.387844 33.113102 41.277686 1.139484 0.639820 0.044989 -0.015391 1699100.000000 0 0 1
-9.524918 -23.061044 34.101158 42.254287 1.179107 0.631664 0.042259 -0.016562 248111.000000 0 0 1
-9.762618 -24.565644 34.316538 43.317483 1.192525 0.656375 0.046868 -0.012185 -362230.000000 0 0 1
-9.339618 -25.440774 33.288905 42.925664 1.218959 0.683288 0.057014 -0.013868 77540.700000 0 0 1
-9.545318 -26.770614 33.771454 44.139438 1.228290 0.699587 0.049266 -0.013521 -1057060.000000 0 0 1
-9.212718 -27.741384 32.623561 43.803599 1.250163 0.730608 0.047910 -0.014479 754875.000000 0 0 1
-7.835418 -27.754524 32.238731 43.255556 1.295646 0.729799 0.050007 -0.018216 602127.000000 0 0 1
-6.943618 -28.271114 33.219564 44.170229 1.329955 0.719583 0.040988 -0.018090 366925.000000 0 0 1
-5.410018 -27.926354 33.058642 43.612193 1.379442 0.710534 0.037632 -0.020859 1251000.000000 0 0 1
-5.104718 -26.821204 33.929150 43.550228 1.382722 0.677598 0.037748 -0.019429 7939.250000 0 0 1
-5.317418 -25.502454 33.401069 42.358960 1.365235 0.662391 0.045266 -0.018559 -101336.000000 0 0 1
-4.785418 -24.321344 34.258239 42.285399 1.376520 0.626359 0.053471 -0.017254 1008300.000000 0 0 1
-3.346018 -24.283344 34.261771 42.127729 1.433868 0.621024 0.050127 -0.022227 803426.000000 0 0 1
-2.854718 -23.150444 -33.880112 41.133374 1.448104 2.538640 0.047999 -0.015354 19194.000000 0 0 1
33.784298 -16.051844 1.877488 37.450840 -0.443552 1.520643 0.090045 -0.033809 -647339.000000 0 0 1
34.709368 -16.590144 2.775088 38.570380 -0.445871 1.498785 0.084402 -0.032119 -216319.000000 0 0 1
34.281458 -16.696644 4.101788 38.351284 -0.453231 1.463638 0.079269 -0.040627 -304523.000000 0 0 1
35.416258 -16.636944 5.148188 39.466480 -0.439160 1.439979 0.059889 -0.024647 443434.000000 0 0 1
-35.276185 -17.810344 5.194288 39.857223 0.467546 1.440102 0.058763 -0.028342 329264.000000 0 0 1
-34.392368 -17.681344 6.291988 39.179766 0.474869 1.409505 0.048029 -0.019365 16621.700000 0 0 1
-33.267538 -18.729144 6.414588 38.712490 0.512758 1.404330 0.043998 -0.025940 -263789.000000 0 0 1
-33.652548 -20.035044 6.704388 39.734693 0.536993 1.401256 0.053938 -0.030692 327257.000000 0 0 1
-32.575988 -20.727244 7.352888 39.304944 0.566665 1.382615 0.035538 -0.021184 210093.000000 0 0 1
-32.750258 -22.253344 7.448988 40.289926 0.596825 1.384842 0.036385 -0.017928 -942954.000000 0 0 1
-32.521768 -22.869344 6.208888 40.239565 0.612871 1.415879 0.047708 -0.017942 175425.000000 0 0 1
-32.791328 -24.278544 6.271688 41.280177 0.637326 1.418276 0.060124 -0.022428 22072.800000 0 0 1
-32.065248 -25.062884 5.136288 41.020846 0.663434 1.445255 0.052931 -0.014432 37787.500000 0 0 1
-32.670818 -24.785644 3.915888 41.195203 0.649013 1.475596 0.047225 -0.011846 -98383.600000 0 0 1
-32.211188 -25.637824 2.948388 41.274104 0.672254 1.499301 0.039691 -0.006453 -256961.000000 0 0 1
-32.643658 -25.271804 1.518888 41.310768 0.658793 1.534021 0.040446 -0.008679 464954.000000 0 0 1
-34.040088 -25.529754 1.352288 42.571406 0.643495 1.539026 0.036045 -0.006007 396609.000000 0 0 1
-34.360779 -25.211384 -0.039212 42.617820 0.633004 1.571716 0.030378 -0.001988 623096.000000 0 0 1
-35.454263 -24.062744 -0.154812 42.849089 0.596286 1.574409 0.041395 -0.014556 289663.000000 0 0 1
34.766238 -24.458544 0.139688 42.508013 -0.613081 1.567510 0.032104 -0.005463 -72276.500000 0 0 1
34.034918 -23.278344 0.517488 41.237419 -0.599876 1.558247 0.057291 -0.018221 -47348.900000 0 0 1
32.519638 -23.480544 0.405088 40.112678 -0.625367 1.560697 0.047596 -0.014989 -187052.000000 0 0 1
32.128778 -23.344744 -0.936612 39.725467 -0.628356 1.594376 0.044017 -0.019617 -1380.980000 0 0 1
30.724548 -23.221244 -1.076712 38.527696 -0.647195 1.598746 0.033699 -0.012455 214832.000000 0 0 1
30.219238 -23.139644 -2.517712 38.144257 -0.653490 1.636849 0.023711 -0.002988 -154561.000000 0 0 1
30.305188 -21.793944 -2.986412 37.447284 -0.623462 1.650631 0.046947 -0.018560 120200.000000 0 0 1
30.078868 -21.692444 -4.416012 37.347043 -0.624803 1.689316 0.047986 -0.032957 225487.000000 0 0 1
30.255538 -20.225844 -4.979212 36.732478 -0.589271 1.706768 0.046716 -0.030958 886077.000000 0 0 1
29.111168 -19.487544 -4.506412 35.320422 -0.589905 1.698732 0.045829 -0.030134 726189.000000 0 0 1
29.143598 -18.082144 -4.719212 34.620575 -0.555321 1.707534 0.039565 -0.029122 -287394.000000 0 0 1
28.246828 -17.365444 -3.699612 33.363589 -0.551213 1.681913 0.052560 -0.024582 -417491.000000 0 0 1
28.682118 -17.219244 -2.334312 33.535284 -0.540675 1.640460 0.047324 -0.021564 -132879.000000 0 0 1
29.126548 -18.360344 -1.603812 34.467815 -0.562448 1.617344 0.036835 -0.008992 -449390.000000 0 0 1
28.230348 -19.575044 -1.264012 34.376338 -0.606286 1.607574 0.029767 -0.007046 -232726.000000 0 0 1
27.179208 -19.228644 -0.374112 33.295496 -0.615726 1.582033 0.023831 0.008679 -320140.000000 0 0 1
26.606588 -20.403844 0.040388 33.529525 -0.654212 1.569592 0.010127 0.010818 -456537.000000 0 0 1
25.481998 -20.127644 1.071088 32.490022 -0.668538 1.537824 0.021170 0.008205 -1041170.000000 0 0 1
25.062898 -21.279144 1.749288 32.924320 -0.703930 1.517641 0.016111 0.018417 629091.000000 0 0 1
24.148598 -21.046544 2.864088 32.160765 -0.716869 1.481623 0.010772 0.019657 1104410.000000 0 0 1
22.717898 -20.531144 2.493688 30.722130 -0.734879 1.489538 0.002327 0.014333 -395822.000000 0 0 1
22.554298 -19.253644 1.981488 29.720792 -0.706614 1.504077 0.041587 -0.004717 5339.110000 0 0 1
22.908398 -18.231244 2.893488 29.420150 -0.672195 1.472287 0.050301 -0.011906 -359775.000000 0 0 1
22.760598 -16.806844 2.286888 28.385642 -0.636048 1.490144 0.049563 -0.006336 442857.000000 0 0 1
21.387298 -16.467044 2.107288 27.074355 -0.656144 1.492884 0.036641 0.002643 217900.000000 0 0 1
21.235198 -15.225044 1.457288 26.169816 -0.622026 1.515082 0.044230 -0.008912 361659.000000 0 0 1
19.856998 -15.113444 0.770088 24.966169 -0.650576 1.539946 0.021713 0.001828 593677.000000 0 1 0
18.672198 -14.832444 1.512588 23.894357 -0.671292 1.507451 0.015244 -0.006126 523169.000000 0 1 0
18.029398 -13.604844 1.286488 22.623130 -0.646434 1.513900 0.033762 -0.009055 -240688.000000 0 1 0
18.747698 -12.382044 1.880488 22.546118 -0.583691 1.487293 0.052124 -0.007698 -520660.000000 0 1 0
19.760498 -11.799444 1.118788 23.042479 -0.538301 1.522224 0.054180 -0.012117 -14367.200000 0 1 0
20.021998 -10.504244 1.585288 22.665672 -0.483161 1.500797 0.053059 -0.015451 -143615.000000 0 1 0
20.887998 -9.607644 0.688388 23.001938 -0.431106 1.540864 0.056535 -0.016579 -182261.000000 0 1 0
20.220198 -9.222844 -0.488412 22.229616 -0.427932 1.592769 0.053689 -0.012166 517159.000000 0 1 0
21.080398 -8.621444 -1.410912 22.818921 -0.388223 1.632667 0.051362 -0.010927 -166956.000000 0 1 0
20.291698 -8.392544 -2.735012 22.128445 -0.392171 1.694710 0.044264 -0.009908 -18173.100000 0 1 0
21.003798 -7.790944 -3.801012 22.722369 -0.355198 1.738867 0.044968 -0.012388 51033.600000 0 1 0
22.020998 -8.540944 -4.407812 24.027086 -0.369993 1.755293 0.043925 -0.012208 -769019.000000 0 1 0
21.650898 -9.778144 -5.316712 24.344217 -0.424207 1.790968 0.033605 -0.010979 -335831.000000 0 1 0
21.058998 -9.560644 -6.593412 24.049125 -0.426170 1.848517 0.020914 -0.010777 172218.000000 0 1 0
19.678798 -9.309844 -6.413612 22.694993 -0.441889 1.857300 0.012350 -0.004805 -227560.000000 0 1 0
18.920298 -9.250244 -7.814812 22.463659 -0.454733 1.926113 0.010061 0.000448 65638.900000 0 1 0
18.797598 -10.512344 -8.533012 23.166169 -0.509909 1.948018 0.006821 0.000545 1397120.000000 0 1 0
19.990998 -10.737744 -9.331812 24.536134 -0.492908 1.960949 0.000887 -0.004594 724034.000000 0 1 0
20.119698 -12.070944 -9.953212 25.486788 -0.540388 1.971997 0.009949 -0.004021 -426455.000000 0 0 1
19.468498 -12.126144 -11.174412 25.513394 -0.557059 2.024149 0.030772 -0.003730 57051.100000 0 0 1
19.472198 -13.472644 -11.626412 26.379009 -0.605263 2.027225 0.029593 -0.006079 -163148.000000 0 0 1
18.084798 -13.824344 -12.189212 25.821489 -0.652665 2.062419 0.041788 -0.014180 -17916.000000 0 0 1
17.819698 -15.216944 -12.360712 26.493098 -0.706777 2.056198 0.034202 -0.015814 862381.000000 0 0 1
16.601198 -15.425444 -13.110012 26.180461 -0.748703 2.095268 0.044117 -0.018509 550276.000000 0 0 1
16.440598 -16.917644 -13.446712 27.153527 -0.799698 2.088873 0.039714 -0.021414 -693312.000000 0 0 1
15.991198 -17.799344 -12.463812 26.979282 -0.838858 2.051020 0.028839 -0.015909 59813.200000 0 0 1
16.039098 -19.142844 -12.882212 28.100757 -0.873390 2.047023 0.032255 -0.017438 -592335.000000 0 0 1
15.072898 -20.055744 -12.078212 27.844359 -0.926304 2.019476 0.031943 -0.015758 1388190.000000 0 0 1
13.691998 -19.866044 -12.493412 27.170128 -0.967345 2.048591 0.028828 -0.019732 858572.000000 0 0 1
12.821798 -20.643644 -11.700712 26.971563 -1.015005 2.019521 0.022646 -0.012981 -432023.000000 0 0 1
11.369698 -20.553644 -12.148812 26.444583 -1.065521 2.048123 0.027324 -0.012788 -258712.000000 0 0 1
10.485398 -20.936344 -11.093912 25.910403 -1.106491 2.013257 0.023524 -0.011751 -591240.000000 0 0 1
9.153898 -20.753444 -11.466112 25.415960 -1.155386 2.038837 0.020463 -0.003254 -323098.000000 0 0 1
8.209698 -21.437644 -10.436412 25.216868 -1.205068 1.997493 0.015211 -0.001154 -231290.000000 0 0 1
8.393498 -22.852244 -10.324512 26.443741 -1.218798 1.971898 0.022499 0.000439 163157.000000 0 0 1
7.496798 -23.416544 -9.383212 26.316937 -1.260958 1.935365 0.017700 -0.013326 99098.500000 0 0 1
7.457798 -24.944644 -9.541412 27.728912 -1.280281 1.922072 0.022068 -0.005127 237959.000000 0 0 1
8.646398 -25.516274 -9.047012 28.419868 -1.244082 1.894768 0.011204 -0.000040 -287272.000000 0 0 1
8.845098 -26.779494 -9.631212 29.801633 -1.251784 1.899881 0.004841 0.003808 241612.000000 0 0 1
10.198898 -27.426984 -9.253012 30.689986 -1.214785 1.877061 0.008256 0.008441 147309.000000 0 0 1
10.456698 -27.745684 -7.919512 30.690132 -1.210381 1.831797 0.011433 0.009832 103975.000000 0 0 1
11.769398 -28.276374 -7.806512 31.607178 -1.176380 1.820364 0.017702 0.023977 -21014.800000 0 0 1
12.309598 -28.460204 -6.402212 31.662245 -1.162574 1.774404 0.015899 0.014181 -206647.000000 0 0 1
11.902598 -29.547594 -5.599812 32.343316 -1.187854 1.744810 0.026659 0.009767 -866026.000000 0 0 1
10.554998 -29.583014 -5.282012 31.850626 -1.228083 1.737403 0.025501 0.006271 -1079810.000000 0 0 1
10.120998 -30.707354 -4.266812 32.612603 -1.252414 1.702006 0.040432 -0.005216 155750.000000 0 0 1
10.183598 -32.062984 -4.696012 33.967531 -1.263261 1.709491 0.054106 -0.006199 -604135.000000 0 0 1
9.160398 -32.332014 -5.594412 34.067132 -1.294709 1.735761 0.051447 -0.005215 -362908.000000 0 0 1
9.183498 -33.802794 -6.026112 35.542644 -1.305521 1.741165 0.049943 -0.004228 -138163.000000 0 0 1
8.917898 34.082624 -5.041712 35.588946 1.314878 1.712940 0.046510 -0.005652 -225807.000000 0 0 1
9.517498 32.806111 -5.116712 34.539897 1.288434 1.719483 0.046922 -0.004493 -88226.600000 0 0 1
9.060698 31.904492 -3.983312 33.404486 1.294087 1.690326 0.043725 -0.008546 702981.000000 0 0 1
7.674098 31.568742 -4.093812 32.745024 1.332330 1.696145 0.035915 -0.010579 260035.000000 0 0 1
7.332798 30.506952 -3.219812 31.540629 1.334906 1.673059 0.016550 -0.009779 -412114.000000 0 0 1
6.009798 29.808582 -3.534612 30.613114 1.371850 1.686515 0.011303 -0.009994 -238500.000000 0 0 1
5.993598 29.033222 -4.712712 30.017676 1.367217 1.728446 0.009879 -0.019736 150269.000000 0 0 1
5.514498 29.831362 -5.786712 30.883748 1.388004 1.759281 0.003135 -0.015557 -683399.000000 0 0 1
5.631598 29.140962 -7.179912 30.536236 1.379896 1.808146 0.026655 -0.015286 -134413.000000 0 0 1
4.810098 28.014162 -7.550712 29.409923 1.400752 1.830444 0.028080 -0.021501 186259.000000 0 0 1
5.092198 26.903062 -6.758112 28.202435 1.383730 1.812780 0.012191 -0.026247 -531781.000000 0 0 1
4.139998 25.746312 -7.077412 27.020399 1.411361 1.835816 0.011079 -0.022767 -1085700.000000 0 0 1
2.797198 25.821082 -6.747512 26.834335 1.462887 1.824975 0.011460 -0.023358 -909968.000000 0 0 1
1.993598 26.507292 -7.706912 27.676840 1.495728 1.852987 0.017659 -0.017760 -121253.000000 0 0 1
1.572998 25.682452 -8.969712 27.249191 1.509625 1.906225 0.030990 -0.021911 -26791.300000 0 0 1
2.641498 25.410092 -9.906512 27.400534 1.467214 1.940720 0.022553 -0.024208 309672.000000 0 0 1
2.320098 24.815172 -11.122012 27.292394 1.477572 1.990526 0.041787 -0.021716 -699807.000000 0 0 1
2.089798 23.260192 -11.160812 25.883731 1.481193 2.016608 0.051263 -0.018407 -313050.000000 0 0 1
1.002398 22.892992 -10.358712 25.147501 1.527038 1.995354 0.065360 -0.019171 -221388.000000 0 0 1
0.909698 21.487492 -10.376312 23.879023 1.528485 2.020320 0.032823 -0.018000 -375980.000000 0 1 0
-0.142702 20.810292 -9.489712 22.872325 -1.563939 1.998628 0.050614 -0.012510 315507.000000 0 1 0
-1.491602 21.168892 -9.747312 23.352879 -1.500451 2.001370 0.055725 -0.011150 5955.560000 0 1 0
-2.410602 20.310692 -9.070212 22.374181 -1.452663 1.988199 0.046281 -0.016128 714769.000000 0 1 0
-3.848402 20.885092 -9.326712 23.194500 -1.388575 1.984615 0.051645 -0.010957 71272.300000 0 1 0
-4.867602 20.045792 -8.938412 22.481605 -1.332583 1.979683 0.037758 -0.014910 -583379.000000 0 1 0
-5.728702 19.697092 -9.984112 22.813942 -1.287764 2.023760 0.029354 -0.003914 -429756.000000 0 1 0
-6.673902 18.536692 -9.610612 21.920625 -1.225208 2.024645 0.026709 -0.006010 352836.000000 0 1 0
-7.715402 18.866892 -8.677412 22.153657 -1.182608 1.973266 0.042774 -0.011551 913893.000000 0 1 0
-8.996502 18.900492 -9.331112 22.918013 -1.126538 1.990130 0.040915 -0.016870 95992.000000 0 1 0
-10.077802 19.093392 -8.281312 23.123578 -1.085144 1.937064 0.047784 -0.025076 -434753.000000 0 1 0
-10.213102 17.934592 -7.456812 21.944501 -1.053133 1.917504 0.037478 -0.025242 -358271.000000 0 1 0
-11.298502 18.149292 -6.590212 22.371497 -1.013974 1.869813 0.047567 -0.026391 -314449.000000 0 1 0
-11.806602 17.028792 -5.647012 21.477066 -0.964560 1.836856 0.040616 -0.028286 -182910.000000 0 1 0
-12.831502 17.521792 -4.819112 22.246000 -0.938709 1.789156 0.056691 -0.021620 -87383.100000 0 1 0
-13.401202 16.463292 -4.099112 21.620244 -0.887574 1.761547 0.066511 -0.017386 597108.000000 0 1 0
-14.674702 16.898592 -3.268412 22.618396 -0.855718 1.715806 0.058502 -0.013024 -201248.000000 0 1 0
-15.833902 16.877592 -4.014212 23.487858 -0.817293 1.742545 0.070405 -0.028756 -350696.000000 0 1 0
-16.886702 17.508592 -3.226112 24.538120 -0.803477 1.702652 0.067481 -0.021390 126945.000000 0 1 0
-18.147002 17.469892 -4.081912 25.518088 -0.766390 1.731448 0.073827 -0.032502 -730269.000000 0 0 1
-18.000402 18.367192 -5.170612 26.231726 -0.795483 1.769209 0.071887 -0.030921 98789.000000 0 0 1
-19.187602 18.599092 -5.903412 27.366779 -0.769825 1.788220 0.053526 -0.020261 -48208.300000 0 0 1
-18.996202 19.708792 -6.945012 28.240492 -0.803807 1.819269 0.044771 -0.013843 -37061.100000 0 0 1
-18.741302 21.017192 -6.436912 28.885855 -0.842579 1.795523 0.038689 -0.023919 1230.770000 0 0 1
-18.608302 21.912692 -7.530712 29.717783 -0.866766 1.826998 0.030688 -0.009787 -102624.000000 0 0 1
-18.305302 23.288692 -7.027012 30.443820 -0.904640 1.803716 0.030786 -0.014497 -497175.000000 0 0 1
-17.064702 23.423192 -6.406212 29.679784 -0.941173 1.788353 0.023157 -0.010372 -614313.000000 0 0 1
-16.967802 24.572952 -5.562012 30.375521 -0.966470 1.754944 0.032013 -0.018588 -267485.000000 0 0 1
-15.644202 25.019512 -4.917512 29.914862 -1.011996 1.735929 0.025396 -0.012047 -257526.000000 0 0 1
-15.740702 26.244002 -4.151212 30.882842 -1.030537 1.705623 0.028409 -0.011057 535882.000000 0 0 1
-14.487302 26.613362 -3.541512 30.507299 -1.072292 1.687146 0.032859 -0.014992 570035.000000 0 0 1
-13.891102 27.802322 -4.291912 31.374390 -1.107438 1.708023 0.038936 -0.015655 -504128.000000 0 0 1
-14.776402 28.877652 -4.266312 32.717920 -1.097841 1.701566 0.050498 -0.017593 -317363.000000 0 0 1
-14.418502 29.845462 -5.191512 33.549912 -1.120756 1.726161 0.029325 -0.023656 237129.000000 0 0 1
-15.095102 31.248522 -4.771612 35.029995 -1.120787 1.707436 0.032413 -0.029044 556392.000000 0 0 1
-16.508602 31.222092 -4.737712 35.634238 -1.084416 1.704145 0.052529 -0.016274 134790.000000 0 0 1
-17.053002 32.475702 -4.302712 36.932228 -1.087271 1.687564 0.062519 -0.021241 22282.300000 0 0 1
12.158882 -8.610844 18.973851 24.124512 -0.616204 0.665680 0.034815 -0.009409 -390792.000000 0 1 0
12.676982 -9.854444 19.349051 25.143622 -0.660776 0.692674 0.039535 -0.016657 -107840.000000 0 0 1
13.015882 -10.637744 18.257051 24.817226 -0.685195 0.744155 0.046097 -0.022024 -326367.000000 0 1 0
13.563582 -11.974144 18.672551 26.000289 -0.723240 0.769632 0.068293 -0.032545 -939654.000000 0 0 1
14.763182 -11.865944 19.372751 27.093461 -0.677025 0.774123 0.065207 -0.031215 -275537.000000 0 0 1
15.051282 -13.025244 20.074551 28.269872 -0.713362 0.781150 0.058873 -0.029184 -304007.000000 0 0 1
15.622682 -14.307744 19.327051 28.676029 -0.741493 0.831214 0.050928 -0.028612 -710114.000000 0 0 1
14.847282 -14.795844 18.256651 27.796836 -0.783663 0.854244 0.051466 -0.032922 10702.100000 0 0 1
15.306582 -15.968044 17.617051 28.277736 -0.806545 0.898223 0.049491 -0.027445 -445092.000000 0 0 1
14.535682 -16.288444 16.308451 27.250046 -0.842200 0.929201 0.040201 -0.028672 -1659290.000000 0 0 1
13.179582 -16.360944 16.506751 26.718059 -0.892680 0.904839 0.058866 -0.031490 -1290190.000000 0 0 1
12.485382 -16.211144 15.275551 25.534847 -0.914509 0.929514 0.066070 -0.032961 -141431.000000 0 0 1
12.228782 -17.579144 14.603651 25.919800 -0.963002 0.972281 0.045822 -0.017696 -485660.000000 0 0 1
13.355982 -18.274244 14.123051 26.679408 -0.939655 1.012949 0.032243 -0.016720 182310.000000 0 0 1
12.853182 -19.316844 13.302051 26.744893 -0.983680 1.050234 0.029565 -0.016313 -146299.000000 0 0 1
13.921282 -20.351744 12.911951 27.833686 -0.970866 1.088408 0.032813 -0.023783 -221073.000000 0 0 1
14.356082 -21.103044 14.024451 29.122513 -0.973425 1.068354 0.017228 -0.021876 -17232.500000 0 0 1
14.469982 -22.432544 13.567651 29.944625 -0.997913 1.100566 0.012875 -0.020212 -420326.000000 0 0 1
15.232682 -23.274344 14.614051 31.421333 -0.991275 1.087049 0.002598 -0.019753 -274331.000000 0 0 1
16.540982 -22.814344 14.799551 31.829626 -0.943471 1.087205 0.006511 -0.015902 -431682.000000 0 0 1
17.240182 -23.563644 15.776951 33.187066 -0.939147 1.075384 0.010691 -0.021797 1409330.000000 0 0 1
18.710382 -22.983644 15.993051 33.676460 -0.887533 1.075943 0.020786 -0.016840 1402460.000000 0 0 1
19.684282 -23.407444 15.056551 34.089282 -0.871585 1.113326 0.020155 -0.023912 -804298.000000 0 0 1
20.867982 -22.747444 15.340451 34.470978 -0.828463 1.109594 0.020735 -0.017179 655076.000000 0 0 1
22.224482 -23.329944 14.735851 35.431048 -0.809660 1.141862 0.015290 -0.025486 1036800.000000 0 0 1
22.677382 -24.451744 15.454851 36.756004 -0.823029 1.136831 0.021391 -0.022932 844667.000000 0 0 1
23.946282 -24.959444 14.991151 37.697916 -0.806112 1.161826 0.023341 -0.022753 578950.000000 0 0 1
24.314682 -26.220094 15.833451 39.107483 -0.823085 1.153960 0.025463 -0.019546 -504059.000000 0 0 1
24.703082 -25.944144 17.149451 39.717056 -0.809897 1.124319 0.023435 -0.013609 190513.000000 0 0 1
25.132582 -27.119754 17.841651 41.054260 -0.823410 1.121217 0.017247 -0.003752 -13421.000000 0 0 1
25.447882 -26.955244 19.373951 41.827382 -0.814155 1.089207 0.012185 -0.002725 670662.000000 0 0 1
24.285882 -26.780534 20.207851 41.416884 -0.834210 1.061099 0.018583 0.002045 688276.000000 0 0 1
24.636082 -26.118334 21.383351 41.789372 -0.814594 1.033642 0.014363 0.002200 108812.000000 0 0 1
23.444882 -25.947234 22.362951 41.509312 -0.836018 1.001849 0.021455 -0.007054 183763.000000 0 0 1
23.159082 -27.184124 22.956951 42.453990 -0.865181 0.999469 0.014037 0.002633 977004.000000 0 0 1
21.766182 -27.409784 23.276851 42.034209 -0.899662 0.983924 0.025024 -0.011897 905986.000000 0 0 1
21.506482 -28.922774 23.049251 42.782281 -0.931415 1.001835 0.040363 -0.010745 -71880.500000 0 0 1
22.331882 -29.841654 23.776231 44.210252 -0.928355 1.002972 0.037416 -0.022306 304766.000000 0 0 1
22.288182 -31.188364 23.313651 44.866507 -0.950318 1.024387 0.042861 -0.022391 126553.000000 0 0 1
23.488682 -31.986594 23.902431 46.326953 -0.937400 1.028679 0.015419 -0.017812 277543.000000 0 0 1
23.282182 -31.962184 25.276881 46.931460 -0.941244 1.002032 0.015537 -0.020032 595565.000000 0 0 1
24.434182 -32.321804 26.059671 48.175042 -0.923488 0.999245 0.020041 -0.012064 15413.300000 0 0 1
24.034082 -32.629744 27.519391 48.986265 -0.935946 0.974263 0.011420 -0.013651 303097.000000 0 0 1
23.304082 -33.790584 27.883651 49.622392 -0.967042 0.974095 0.002518 -0.002909 -194946.000000 0 0 1
21.999382 -33.867674 27.386441 48.795587 -0.994724 0.974903 0.007698 -0.009788 -923900.000000 0 0 1
21.258582 33.642415 27.876681 48.588566 1.007252 0.959745 0.024979 -0.020251 -358223.000000 0 0 1
20.805882 33.635535 29.195931 49.159295 1.016835 0.934893 0.004904 -0.012108 188189.000000 0 0 1
20.407982 32.317612 29.587951 48.335914 1.007550 0.912043 0.013253 -0.011080 -147081.000000 0 0 1
19.974582 32.263462 31.092031 49.057408 1.016445 0.884355 -0.001086 -0.006548 129761.000000 0 0 1
21.032282 32.164922 32.039521 50.034688 0.991692 0.875847 -0.004720 0.003653 245525.000000 0 0 1
20.631482 32.596672 33.318920 50.974028 1.006513 0.858405 -0.012821 0.006548 -462324.000000 0 0 1
21.875582 32.673022 34.193348 52.108085 0.980814 0.855024 -0.018473 0.011179 -202928.000000 0 0 1
22.357982 31.340672 -34.327341 51.579874 0.951143 2.298984 -0.005576 0.003314 -399480.000000 0 0 1
23.555982 31.511492 -33.621332 51.751835 0.928874 2.277939 -0.004209 0.008952 -398209.000000 0 0 1
24.100082 30.122162 -33.195362 50.892933 0.896008 2.281357 0.013599 -0.005855 -652565.000000 0 0 1
24.468782 29.369362 -34.306856 51.363811 0.876172 2.302205 0.026682 -0.012496 -385336.000000 0 0 1
23.502882 28.464522 34.035401 50.209790 0.880586 0.825943 0.020044 -0.016517 -286029.000000 0 0 1
24.001282 27.663902 32.737563 49.123325 0.856171 0.841378 0.043604 -0.021079 325622.000000 0 0 1
25.176482 26.904192 32.950393 49.430954 0.818560 0.841166 0.033074 -0.015384 181042.000000 0 0 1
25.408882 26.053552 31.853351 48.363569 0.797925 0.851809 0.052759 -0.026497 -736294.000000 0 0 1
26.707182 25.264772 31.866091 48.652133 0.757652 0.856642 0.034003 -0.015801 -874268.000000 0 0 1
26.751682 24.366512 32.931483 48.927109 0.738772 0.832441 0.051896 -0.016944 365405.000000 0 0 1
27.440682 24.810962 34.095058 50.309520 0.735113 0.826158 0.052166 -0.021150 -1149660.000000 0 0 1
27.179182 23.884262 -33.490512 49.302944 0.720962 2.317578 0.043960 -0.019206 484014.000000 0 0 1
26.004582 24.312462 -32.748712 48.371606 0.751782 2.314507 0.043440 -0.016253 1612390.000000 0 0 1
24.712482 24.107902 -33.322052 47.981839 0.773015 2.338482 0.040295 -0.018613 -92454.800000 0 0 1
24.283782 22.628792 -33.379242 47.073752 0.750135 2.358995 0.024934 -0.019138 -1169750.000000 0 0 1
24.214582 22.051392 -32.103052 45.860831 0.738677 2.346208 0.016995 -0.022858 371149.000000 0 0 1
24.058982 20.645992 -32.246302 45.220743 0.709201 2.364687 0.020390 -0.014611 -370898.000000 0 0 1
24.055382 19.975992 -30.862762 43.934175 0.693015 2.349669 0.022827 -0.014510 -377269.000000 0 0 1
22.890882 20.100592 -30.087872 42.817127 0.720586 2.349991 0.022750 -0.006498 -161894.000000 0 0 1
23.033482 19.496392 -28.797312 41.712537 0.702422 2.332804 0.024623 -0.004849 650177.000000 0 0 1
21.631982 19.313092 -28.092442 40.374788 0.728824 2.340318 0.043483 -0.010086 702352.000000 0 0 1
21.560082 18.614592 -26.873462 39.160224 0.712212 2.327109 0.050621 -0.007191 176566.000000 0 0 1
22.182982 19.331292 -25.759942 39.107009 0.716814 2.289891 0.050789 -0.000411 297478.000000 0 0 1
22.293182 18.459892 -24.537612 37.945329 0.691613 2.273990 0.056058 -0.001924 299100.000000 0 0 1
23.329282 17.495192 -24.679212 38.202103 0.643453 2.273151 0.053077 -0.007784 326589.000000 0 0 1
23.252282 16.530492 -23.664912 37.066883 0.618017 2.263264 0.064235 -0.010330 11462.400000 0 0 1
24.358382 15.458792 -23.660512 37.311189 0.565501 2.257692 0.066474 -0.010042 915077.000000 0 0 1
25.727482 15.798392 -23.367612 38.177714 0.550699 2.229478 0.067689 -0.012695 1180160.000000 0 0 1
26.665282 14.770392 -23.160912 38.283542 0.505847 2.220541 0.056038 -0.019140 61295.700000 0 0 1
26.480282 13.891392 -21.905512 37.067878 0.483129 2.203041 0.050200 -0.010454 -838207.000000 0 0 1
25.410982 13.013792 -22.117512 36.114556 0.473307 2.229923 0.040924 -0.009114 -244603.000000 0 0 1
25.036882 12.428192 -20.937912 34.924226 0.460760 2.213703 0.025390 -0.014763 723358.000000 0 0 1
23.559682 11.868892 -20.883012 33.645645 0.466667 2.240400 0.021541 -0.009606 1437350.000000 0 0 1
22.585182 12.903092 -20.689412 33.236005 0.519055 2.242729 0.047631 -0.012456 34299.800000 0 0 1
21.298582 12.569692 -21.151812 32.542678 0.533157 2.278343 0.040866 -0.013284 -44576.300000 0 0 1
20.279982 13.713092 -20.937112 32.213184 0.594566 2.278321 0.061856 -0.020002 -671348.000000 0 0 1
20.676782 14.911492 -21.670012 33.458502 0.624794 2.275317 0.056322 -0.016826 289256.000000 0 0 1
19.769482 15.977992 -21.810812 33.493883 0.679730 2.279945 0.052488 -0.019031 974809.000000 0 0 1
18.388482 15.738392 -22.585412 33.104895 0.707900 2.321615 0.038843 -0.005956 1255290.000000 0 0 1
17.464482 14.929792 -21.852812 31.708867 0.707312 2.331140 0.028691 -0.014522 289305.000000 0 0 1
16.331182 14.750792 -22.699812 31.616054 0.734596 2.371698 0.023465 -0.016468 198693.000000 0 0 1
15.170582 13.919992 -22.085112 30.193789 0.742435 2.391236 0.005450 -0.016605 233480.000000 0 0 1
14.076982 13.859092 -22.990012 30.311326 0.777599 2.431747 0.010007 -0.010836 -927659.000000 0 0 1
12.992482 13.220992 -22.415912 29.087323 0.794115 2.450644 0.023734 -0.014128 -1036310.000000 0 0 1
11.768982 13.644492 -23.235912 29.403889 0.859064 2.481985 0.023657 -0.012067 -719819.000000 0 0 1
11.571482 15.052892 -23.125912 29.921507 0.915421 2.454173 0.006578 -0.012519 -37304.500000 0 0 1
11.052582 15.593492 -24.303212 30.918646 0.954192 2.475169 0.003801 -0.008664 -837452.000000 0 0 1
10.888582 17.137892 -24.397412 31.741176 1.004788 2.447502 0.002027 -0.000182 454905.000000 0 0 1
12.130382 17.844192 -24.235812 32.448975 0.973760 2.414169 -0.007227 -0.001325 947118.000000 0 0 1
13.222382 17.603292 -25.123552 33.405092 0.926572 2.422020 -0.005717 -0.006008 -98102.400000 0 0 1
13.019382 18.058692 -26.582792 34.673700 0.946149 2.444413 -0.001862 -0.010420 -402222.000000 0 0 1
14.052182 17.727792 -27.477532 35.591477 0.900545 2.452818 -0.000721 -0.014278 251317.000000 0 0 1
13.441482 17.257592 -28.706462 36.090981 0.909071 2.490450 0.008200 -0.022966 12427.100000 0 0 1
14.291582 17.540992 -29.966272 37.548811 0.887124 2.494868 0.017301 -0.022913 -246859.000000 0 0 1
15.438982 16.727992 -30.051752 37.700075 0.825449 2.493319 0.008742 -0.021562 -174515.000000 0 0 1
16.131682 17.126192 -31.231032 39.101342 0.815292 2.495962 0.014187 -0.015138 -179674.000000 0 0 1
17.466482 16.387092 -31.378412 39.474289 0.753525 2.489652 0.017993 -0.015136 -795223.000000 0 0 1
18.573382 16.853292 -30.681832 39.628005 0.736883 2.456319 0.024707 -0.017839 178195.000000 0 0 1
19.685082 15.939892 -30.809712 39.885097 0.680655 2.453505 0.028156 -0.013024 1183670.000000 0 0 1
20.891982 16.716892 -31.482082 41.316472 0.674837 2.437152 0.030195 -0.012830 222047.000000 0 0 1
20.808082 16.854092 -32.888732 42.411147 0.680796 2.458261 0.023031 -0.013268 597320.000000 0 0 1
21.951182 17.586592 -33.340942 43.620649 0.675453 2.440811 0.028667 -0.014833 260638.000000 0 0 1
21.900182 18.192192 34.034970 44.372886 0.693174 0.696610 0.022336 -0.003792 -273669.000000 0 0 1
22.951982 19.087292 33.783472 45.082604 0.693725 0.723689 0.027820 -0.004904 -101883.000000 0 0 1
22.889082 19.477192 32.403001 44.195311 0.705038 0.747814 0.034985 -0.002918 -219267.000000 0 0 1
23.923282 20.591592 32.067861 44.996497 0.710693 0.777493 0.044534 -0.005923 119255.000000 0 0 1
25.267582 20.166792 32.093791 45.553942 0.673599 0.789046 0.031045 -0.012514 -379897.000000 0 0 1
26.062282 21.311092 31.879431 46.364893 0.685440 0.812650 0.029734 -0.029088 -121718.000000 0 0 1
27.572882 21.032692 31.792651 47.046898 0.651645 0.828794 0.046880 -0.024403 -119516.000000 0 0 1
28.081382 20.324392 32.904239 47.794705 0.626500 0.811447 0.031779 -0.025925 1151040.000000 0 0 1
29.498082 20.005492 32.901014 48.506013 0.595942 0.825367 0.033454 -0.025710 1426050.000000 0 0 1
30.022982 19.154692 34.065815 49.282465 0.567894 0.807598 0.025914 -0.022947 -330498.000000 0 0 1
30.068282 19.802592 -33.460922 49.151577 0.582388 2.319610 0.027115 -0.025148 -674985.000000 0 0 1
28.906882 20.031892 -32.747122 48.054745 0.605999 2.320545 0.030193 -0.024260 -934332.000000 0 0 1
29.250782 20.362092 -31.251192 47.401055 0.608118 2.290675 0.032268 -0.020090 31790.500000 0 0 1
30.094882 19.425392 -30.631902 47.131319 0.573185 2.278284 0.028801 -0.025846 -282537.000000 0 0 1
30.507982 19.857292 -29.393262 46.786888 0.577000 2.250082 0.019051 -0.022380 579868.000000 0 0 1
32.006882 19.412692 -29.268742 47.517916 0.545197 2.234390 0.032390 -0.017182 875317.000000 0 0 1
32.933382 20.161692 -30.072042 48.943122 0.549339 2.232458 0.010750 -0.020611 151326.000000 0 0 1
34.211282 20.096692 -29.466952 49.422567 0.531125 2.209587 0.023924 -0.014163 109453.000000 0 0 1
35.164382 21.144792 -30.128392 50.905363 0.541384 2.204150 0.036053 -0.017559 336178.000000 0 0 1
-35.618534 20.552492 -31.203092 51.620905 -0.523349 2.219892 0.031331 -0.021802 220081.000000 0 0 1
-34.465034 21.337892 -31.429332 51.292759 -0.554358 2.230324 0.037562 -0.025861 -305756.000000 0 0 1
-33.599334 20.878992 -32.613812 51.268980 -0.556014 2.260270 0.038107 -0.029796 -536121.000000 0 0 1
-32.844934 19.760792 -32.265362 50.103216 -0.541624 2.270483 0.051019 -0.022907 -329737.000000 0 0 1
-32.035434 19.441092 -33.368772 50.176689 -0.545450 2.298324 0.042933 -0.011486 421360.000000 0 0 1
-31.065234 18.229892 -33.031822 48.872068 -0.530677 2.312959 0.029064 -0.002858 618724.000000 0 0 1
-31.849634 17.041792 -33.057442 48.965461 -0.491309 2.311920 0.026348 -0.010528 880911.000000 0 0 1
-31.067434 15.818792 -33.033342 48.027298 -0.470961 2.329255 0.021747 -0.002552 84607.300000 0 0 1
-32.034334 14.640892 -33.241162 48.430663 -0.428691 2.327277 0.014708 -0.000497 -146314.000000 0 0 1
-31.610934 13.286092 -33.317782 47.810522 -0.397883 2.341822 0.012731 0.002307 -623496.000000 0 0 1
-32.728834 12.483892 -33.583052 48.526751 -0.364400 2.335125 0.009013 0.006400 -417301.000000 0 0 1
-32.562734 10.932592 -33.650152 48.085195 -0.323914 2.345918 0.009690 0.005588 -23986.400000 0 0 1
-31.883234 10.416692 33.982942 47.748177 -0.315781 0.778864 0.003887 0.005188 206338.000000 0 0 1
-32.249834 9.062992 33.802815 47.590124 -0.273958 0.780885 0.029444 -0.003648 -414129.000000 0 0 1
-31.575834 8.326592 32.663561 46.187375 -0.257832 0.785271 0.050983 -0.007093 432181.000000 0 0 1
-30.210234 8.158092 33.050479 45.514249 -0.263753 0.758081 0.045548 0.003091 655086.000000 0 0 1
-29.385134 7.373392 32.163831 44.185575 -0.245847 0.755504 0.055015 -0.000736 484958.000000 0 0 1
20.059082 -4.189644 -31.253272 37.372274 -0.205905 2.561239 0.046246 -0.028258 -697682.000000 0 0 1
21.125182 -4.439044 -32.115092 38.695705 -0.207117 2.549795 0.059790 -0.028572 296644.000000 0 0 1
22.230882 -3.507644 -32.008362 39.128646 -0.156492 2.528772 0.045098 -0.027482 641833.000000 0 0 1
22.018982 -2.009344 -32.254372 39.105211 -0.091003 2.540663 0.048917 -0.024970 -862666.000000 0 0 1
23.125782 -1.214144 -31.912942 39.429834 -0.052454 2.513858 0.038472 -0.018533 149256.000000 0 0 1
22.889882 0.135956 -32.279282 39.571672 0.005939 2.524764 0.038098 -0.015354 -388279.000000 0 0 1
23.990382 1.088956 -31.771722 39.826707 0.045360 2.494349 0.031670 -0.009430 -456409.000000 0 0 1
25.216182 0.758556 -32.374382 41.043049 0.030073 2.479636 0.026985 -0.013641 -680576.000000 0 0 1
26.233982 1.464756 -31.719242 41.188319 0.055776 2.449799 0.015769 -0.005223 670299.000000 0 0 1
27.665982 1.323356 -32.368002 42.601002 0.047797 2.433793 0.004527 -0.010540 786405.000000 0 0 1
27.703582 1.976956 -33.628602 43.615131 0.071240 2.451254 0.007565 -0.018317 88536.900000 0 0 1
28.650682 1.413856 34.253963 44.678793 0.049308 0.697155 -0.002624 -0.015907 -159015.000000 0 0 1
29.388682 2.279156 33.220049 44.412395 0.077397 0.725767 0.002014 -0.018368 -6322.300000 0 0 1
28.526582 2.950056 32.312181 43.203538 0.103048 0.725895 0.013241 -0.013083 352270.000000 0 0 1
28.173682 4.253856 32.842077 43.479347 0.149855 0.714610 0.006822 -0.006114 -241507.000000 0 0 1
27.562482 5.251856 31.924851 42.502570 0.188287 0.721028 0.018615 -0.004520 -392544.000000 0 0 1
27.559382 6.557756 32.403481 43.040786 0.233606 0.718407 0.022278 -0.009443 -32417.000000 0 0 1
26.987982 7.442756 31.497441 42.140652 0.269092 0.726602 0.023947 -0.007285 -628022.000000 0 0 1
27.366882 8.923156 31.590351 42.737796 0.315187 0.738964 0.026153 -0.006808 125420.000000 0 0 1
28.718882 9.100956 31.209961 43.378142 0.306887 0.767735 0.019389 -0.004266 -73966.300000 0 0 1
29.094982 10.420556 31.550901 44.165204 0.343923 0.775053 0.019828 -0.013615 -242787.000000 0 0 1
30.376582 10.977956 30.920761 44.714043 0.346790 0.807202 0.018132 -0.006709 369356.000000 0 0 1
31.559782 10.552356 31.638301 45.916817 0.322675 0.810639 0.013088 -0.006006 672129.000000 0 0 1
32.783882 11.052256 31.177631 46.572308 0.325159 0.837334 0.007466 -0.008285 -86261.100000 0 0 1
33.131582 12.516556 31.488851 47.391071 0.361209 0.844043 0.020656 -0.009631 -696232.000000 0 0 1
33.464682 12.759056 32.820676 48.578546 0.364256 0.828990 0.025344 -0.010512 147603.000000 0 0 1
34.003082 14.063956 33.191313 49.554694 0.392182 0.836868 0.025065 -0.005046 -68098.300000 0 0 1
33.171082 15.342156 33.060718 49.281979 0.433213 0.835445 0.034535 -0.016152 -785491.000000 0 0 1
32.828482 15.591956 31.678201 48.211271 0.443409 0.853870 0.033637 -0.023502 -327725.000000 0 0 1
31.879882 16.572956 31.478911 47.769358 0.479406 0.851338 0.041138 -0.026694 54048.100000 0 0 1
30.414382 16.060756 31.597071 46.705004 0.485846 0.827764 0.034308 -0.020467 -104219.000000 0 0 1
29.822682 15.519856 30.424671 45.342241 0.479838 0.835239 0.047962 -0.013199 1099900.000000 0 0 1
28.422582 15.275456 30.697881 44.536980 0.493150 0.810319 0.032552 -0.019999 1580890.000000 0 0 1
27.539382 14.437956 29.663011 42.974019 0.482871 0.808956 0.025437 -0.005031 388534.000000 0 0 1
27.892582 13.122956 29.354491 42.566351 0.439756 0.809836 0.030652 -0.005095 -103904.000000 0 0 1
27.043282 12.596856 28.348851 41.154310 0.435918 0.810905 0.024016 -0.007077 125079.000000 0 0 1
26.969482 11.044456 28.286051 40.613220 0.388683 0.800324 0.026895 -0.001011 -665797.000000 0 0 1
27.981982 10.481256 27.557801 40.648252 0.358395 0.825815 0.029798 -0.001403 -701507.000000 0 0 1
27.898482 9.066456 27.631481 40.299189 0.314214 0.815288 0.037860 0.003316 -125162.000000 0 0 1
28.923982 8.282756 26.800661 40.292384 0.278899 0.843096 0.020049 0.001549 -322491.000000 0 0 1
29.127982 8.716056 25.439321 39.643007 0.290753 0.874070 0.024404 0.006535 259088.000000 0 0 1
30.130982 7.895256 24.859611 39.852370 0.256270 0.897211 0.024541 0.010130 188409.000000 0 0 1
30.461182 8.084056 23.346651 39.221189 0.259409 0.933212 0.028695 0.010395 -158083.000000 0 0 1
31.256782 9.253556 23.114151 39.960964 0.287829 0.954008 0.031508 0.000144 383873.000000 0 0 1
30.612682 10.531856 22.864951 39.634104 0.331352 0.955867 0.038794 -0.006915 -416305.000000 0 0 1
29.956882 10.594256 21.517251 38.375058 0.339923 0.975554 0.036008 0.015395 -219634.000000 0 0 1
30.862182 10.808756 20.435151 38.560327 0.336877 1.012252 0.054917 -0.004167 341276.000000 0 0 1
30.359982 10.392656 19.205351 37.397611 0.329812 1.031485 0.045443 -0.011103 -687578.000000 0 0 1
31.332782 10.975456 18.104351 37.814962 0.336930 1.071553 0.050607 -0.031583 1376760.000000 0 0 1
32.643282 10.514956 17.769251 38.625049 0.311622 1.092751 0.061901 -0.029639 731564.000000 0 0 1
33.486982 10.362656 18.905251 39.826763 0.300107 1.076188 0.063454 -0.020042 -635968.000000 0 0 1
34.887082 9.816856 18.514251 40.697133 0.274297 1.098505 0.082725 -0.024880 37277.500000 0 0 1
34.855382 8.401656 18.329451 40.267285 0.236531 1.098206 0.086492 -0.023149 207362.000000 0 0 1
-35.606434 8.074856 17.498051 40.487075 -0.223009 1.123878 0.086873 -0.016949 -329440.000000 0 0 1
-35.599534 6.554856 17.231951 40.090312 -0.182088 1.126494 0.088141 -0.016201 146389.000000 0 0 1
34.783382 6.199456 16.484651 38.987955 0.176378 1.134248 0.054249 -0.007439 521106.000000 0 0 1
34.873482 4.894256 15.950251 38.659074 0.139433 1.145504 0.055647 -0.000225 -148508.000000 0 0 1
33.599882 4.049556 16.125351 37.488370 0.119944 1.126145 0.043807 0.000552 -173109.000000 0 0 1
33.557582 3.477356 17.413351 37.966144 0.103255 1.094316 0.053699 0.003796 103038.000000 0 0 1
32.438782 2.643456 17.628751 37.013987 0.081311 1.074385 0.039206 0.007959 -197222.000000 0 0 1
32.447582 1.818356 18.908251 37.598855 0.055981 1.043852 0.032739 0.004024 243607.000000 0 0 1
33.424382 0.774856 19.032851 38.471276 0.023178 1.053274 0.037978 0.004219 169536.000000 0 0 1
33.152882 -0.097544 20.092251 38.766243 -0.002942 1.025943 0.042299 -0.001377 61299.800000 0 0 1
33.936882 -1.405344 20.121951 39.478853 -0.041387 1.035973 0.051306 -0.006349 104260.000000 0 0 1
33.320682 -2.363644 20.974851 39.443618 -0.070818 1.010110 0.062162 0.006114 76573.100000 0 0 1
33.980982 -3.595644 20.952251 40.082822 -0.105421 1.020753 0.038978 0.003950 -363416.000000 0 0 1
33.539082 -4.528644 22.085951 40.412471 -0.134214 0.992601 0.046036 0.003977 -222012.000000 0 0 1
33.959482 -4.162844 23.380351 41.439311 -0.121974 0.971324 0.042595 -0.002154 477329.000000 0 0 1
33.180982 -4.794344 24.407931 41.469391 -0.143498 0.941499 0.043118 -0.009272 284680.000000 0 0 1
33.345982 -4.018944 25.700811 42.292293 -0.119944 0.917642 0.015188 -0.007863 -51311.300000 0 0 1
32.623782 -4.536844 26.780601 42.451086 -0.138179 0.888138 0.037120 -0.010864 -260653.000000 0 0 1
32.883982 -3.804844 28.006431 43.361195 -0.115193 0.868612 0.034933 -0.009631 -23908.800000 0 0 1
32.016482 -4.275344 29.205631 43.546556 -0.132750 0.835677 0.031778 -0.015955 -20455.500000 0 0 1
32.201582 -5.660544 29.498551 44.035760 -0.174007 0.836753 0.039103 -0.021302 -130128.000000 0 0 1
31.332982 -6.060044 30.533501 44.167573 -0.191049 0.807495 0.054762 -0.032385 -227647.000000 0 0 1
31.551182 -7.484044 30.958451 44.832061 -0.232899 0.808557 0.044599 -0.024283 -42487.600000 0 0 1
32.694182 -7.732944 31.741471 46.219356 -0.232255 0.813778 0.038620 -0.021063 -235422.000000 0 0 1
33.290982 -8.969644 31.407221 46.638584 -0.263182 0.831975 0.026866 -0.008890 1057220.000000 0 0 1
34.672082 -9.182444 32.158981 48.173339 -0.258893 0.839859 0.039784 -0.003877 1027640.000000 0 0 1
34.519182 -9.622344 33.507015 49.059999 -0.271852 0.818961 0.028944 -0.013145 175569.000000 0 0 1
35.742782 -9.628444 34.222124 50.412371 -0.263135 0.824609 0.013478 -0.017946 -223365.000000 0 0 1
35.487782 -9.817044 -33.008952 49.450459 -0.269883 2.301663 0.037294 -0.020647 2302.700000 0 0 1
34.889682 -8.754844 -32.277782 48.330036 -0.245853 2.302128 0.040834 -0.028297 393746.000000 0 0 1
35.665582 -7.566444 -32.221642 48.657158 -0.209050 2.294571 0.039155 -0.020149 -78752.100000 0 0 1
34.917282 -6.419944 -31.565152 47.505695 -0.181831 2.297554 0.045507 -0.020062 -623889.000000 0 0 1
35.074582 -6.571544 -30.148932 46.715839 -0.185212 2.272302 0.032305 -0.010291 112733.000000 0 0 1
34.520682 -5.492544 -29.441732 45.701872 -0.157786 2.270790 0.031639 -0.013633 -342067.000000 0 0 1
34.981082 -5.402144 -27.982162 45.120512 -0.153220 2.239749 0.032136 -0.010448 -708496.000000 0 0 1
-35.200134 -5.168244 -27.866182 45.191640 0.145783 2.235242 0.044935 -0.011064 -974143.000000 0 0 1
-34.919434 -4.897644 -26.490402 44.103234 0.139347 2.215104 0.045447 -0.016556 52141.700000 0 0 1
-33.422434 -4.912444 -26.144202 42.716631 0.145936 2.229431 0.057480 -0.010173 -891043.000000 0 0 1
-33.191834 -4.329744 -24.854512 41.691622 0.129714 2.209495 0.063104 -0.007282 800665.000000 0 0 1
-31.805834 -4.188644 -24.493712 40.362083 0.130941 2.222887 0.072493 -0.007812 983599.000000 0 0 1
-30.996834 -3.171444 -25.338092 40.160686 0.101960 2.253532 0.057311 -0.011398 -671752.000000 0 0 1
-30.659934 -3.568144 -26.657872 40.784867 0.115857 2.283156 0.052954 -0.009217 -109778.000000 0 0 1
-29.771934 -2.679644 -27.282772 40.470955 0.089764 2.310585 0.044888 -0.009986 5523.950000 0 0 1
-29.142434 -3.278844 -28.534092 40.917315 0.112040 2.342504 0.032203 -0.010201 -52741.400000 0 0 1
-30.143434 -3.471544 -29.508352 42.325183 0.114662 2.342255 0.051957 -0.011356 -18462.000000 0 0 1
-29.657934 -4.279644 -30.545762 42.789625 0.143311 2.365790 0.038500 -0.006493 -1188180.000000 0 0 1
-30.641634 -4.735244 -31.630382 44.292362 0.153323 2.366173 0.034799 -0.014912 14356.300000 0 0 1
-31.730934 -5.627144 -31.313422 44.933811 0.175515 2.341833 0.031876 -0.017420 1058860.000000 0 0 1
-32.769434 -5.134544 -30.484172 45.049796 0.155423 2.314037 0.048077 -0.018647 -387103.000000 0 0 1
-33.834834 -4.285644 -31.206822 46.228006 0.125993 2.311847 0.073326 -0.020833 -916533.000000 0 0 1
-33.414634 -2.956644 -31.622262 46.100401 0.088254 2.326696 0.074101 -0.010937 117150.000000 0 0 1
-33.132734 -1.967444 -30.652392 45.179841 0.059311 2.316451 0.071133 -0.012102 -129185.000000 0 0 1
-32.916434 -0.536544 -31.226992 45.375154 0.016299 2.329796 0.058671 -0.008686 264788.000000 0 0 1
-34.074634 0.094956 -31.760032 46.580998 -0.002787 2.321049 0.086533 -0.005731 139698.000000 0 0 1
-33.883434 1.501856 -31.917922 46.573559 -0.044295 2.325843 0.104251 0.001294 -46419.100000 0 0 1
-35.192534 2.193656 -32.324792 47.835330 -0.062252 2.312780 0.063333 0.003246 -92781.800000 0 0 1
-35.590734 1.922956 -33.646482 49.015139 -0.053977 2.327393 0.054384 -0.002234 -1077.970000 0 0 1
34.678182 2.472656 -33.906812 48.562972 0.071182 2.343681 0.017361 -0.003271 -86764.700000 0 0 1
33.914182 1.927256 33.634354 47.803303 0.056766 0.790347 0.009410 -0.003158 103576.000000 0 0 1
34.413482 2.356256 32.311731 47.264020 0.068362 0.818053 0.016137 -0.002787 212859.000000 0 0 1
35.479582 1.610756 31.792861 47.667402 0.045368 0.840658 0.016518 -0.007040 -322024.000000 0 0 1
35.744282 1.803856 30.274801 46.877192 0.050423 0.868684 0.024919 -0.008961 -102655.000000 0 0 1
-35.329234 3.113956 29.929231 46.407008 -0.087914 0.869866 0.031228 -0.012345 273479.000000 0 0 1
-34.915434 3.170056 28.564021 45.222119 -0.090544 0.887132 0.046002 -0.018705 -80826.600000 0 0 1
-34.368334 4.586256 28.191881 44.687787 -0.132660 0.888131 0.051569 -0.016328 -208136.000000 0 0 1
-33.900234 4.693056 26.883941 43.520075 -0.137563 0.904935 0.048798 -0.013247 -60351.400000 0 0 1
-33.260534 5.892156 26.650261 43.025772 -0.175333 0.902815 0.038771 -0.003975 -548652.000000 0 0 1
-32.370134 5.832656 25.404171 41.559805 -0.178273 0.913135 0.038807 -0.000168 -48914.200000 0 0 1
-31.138134 5.126456 25.537971 40.596205 -0.163172 0.890436 0.037260 -0.003351 1320110.000000 0 0 1
-30.113734 5.497956 24.560381 39.246360 -0.180584 0.894639 0.038214 -0.003148 759742.000000 0 0 1
-30.338034 5.291556 23.049751 38.466711 -0.172683 0.928279 0.059356 -0.008417 -496436.000000 0 0 1
-30.363034 3.915756 22.712151 38.119402 -0.128257 0.932515 0.036686 0.000770 -98552.000000 0 0 1
-31.117634 3.692656 21.555451 38.033936 -0.118115 0.968250 0.055985 -0.007451 -295102.000000 0 0 1
-31.184834 2.240356 21.005451 37.666192 -0.071718 0.979216 0.037746 0.007887 325373.000000 0 0 1
-30.039334 1.631156 20.395051 36.345294 -0.054247 0.975025 0.031674 0.009690 466051.000000 0 0 1
-29.695734 2.147456 19.102651 35.374560 -0.072190 1.000346 0.038499 0.003657 -32172.200000 0 0 1
-28.534034 1.388256 18.425451 33.994347 -0.048614 0.997963 0.040034 0.003999 -101013.000000 0 0 1
-28.922034 0.050356 18.160851 34.151180 -0.001741 1.010098 0.039587 0.002405 616666.000000 0 0 1
-27.852834 -0.825444 17.779951 33.054325 0.029627 1.002851 0.044624 0.004062 179296.000000 0 0 1
-27.471334 -0.736144 16.268251 31.935436 0.026790 1.036297 0.061973 0.004698 103203.000000 0 0 1
-26.879634 0.529156 15.926051 31.247941 -0.019684 1.035998 0.057175 0.003796 244098.000000 0 0 1
-27.191534 0.912956 14.633151 30.892428 -0.033562 1.077331 0.072418 0.001426 19856.700000 0 0 1
-26.685134 2.305656 14.115651 30.276460 -0.086188 1.085777 0.064188 -0.001517 334184.000000 0 0 1
-25.304034 2.446356 13.827051 28.939007 -0.096379 1.072648 0.052102 -0.003969 301008.000000 0 0 1
-24.931234 3.767356 13.453551 28.578968 -0.149975 1.080656 0.051555 -0.002434 118977.000000 0 0 1
-23.447334 3.965356 13.049951 27.125684 -0.167532 1.068896 0.041098 -0.000616 288867.000000 0 0 1
-22.611134 4.115256 14.189251 27.009879 -0.180031 1.017687 0.027545 0.006286 -936906.000000 0 0 1
-21.414534 4.701156 13.901051 25.960015 -0.216103 1.005721 0.019840 0.001022 -1036450.000000 0 0 1
-20.731134 5.153356 15.230151 26.235367 -0.243642 0.951429 0.011637 0.001074 -253440.000000 0 0 1
-21.057934 6.442056 15.581051 26.976023 -0.296880 0.955024 0.011750 0.010114 709658.000000 0 0 1
-20.256134 6.822856 16.690051 27.118631 -0.324893 0.907845 0.002777 0.010288 -242064.000000 0 0 1
-20.364534 8.316456 17.012351 27.808232 -0.387709 0.912495 -0.002116 0.010321 -556706.000000 0 0 1
-19.727934 9.213156 16.125151 27.094171 -0.436910 0.933342 0.001420 0.012546 351084.000000 0 0 1
-19.940634 10.600856 16.382651 27.899790 -0.488623 0.943206 0.006479 0.013745 -149718.000000 0 0 1
-19.407534 11.235856 17.724451 28.584139 -0.524792 0.901952 0.010906 0.006979 -179489.000000 0 0 1
-20.182634 10.845456 18.817151 29.648740 -0.493091 0.883216 0.021879 0.002872 552837.000000 0 0 1
-19.431134 11.068556 20.002551 30.003065 -0.517789 0.841046 0.018572 -0.002405 178343.000000 0 0 1
-12.101018 -33.756981 -20.982612 41.548026 1.226592 2.100202 0.041065 -0.020244 -766808.000000 0 0 1
-13.114518 34.321856 -20.326312 41.989753 -1.205812 2.076105 0.063434 -0.018038 213153.000000 0 0 1
-14.248818 -33.533881 -20.144512 41.633537 1.169004 2.075848 0.058337 -0.034722 232027.000000 0 0 1
-15.354718 -34.191381 -19.364712 42.187794 1.148706 2.047679 0.053130 -0.023609 -1500890.000000 0 0 1
-16.072718 33.622656 -20.068412 42.326781 -1.124877 2.064772 0.039314 -0.020900 -163735.000000 0 0 1
-16.770418 32.651156 -19.294612 41.468385 -1.096309 2.054753 0.047026 -0.013619 966256.000000 0 0 1
-18.067118 33.063556 -18.483312 41.967276 -1.070693 2.026865 0.053104 -0.023776 -32914.100000 0 0 1
-17.827718 33.990356 -17.421112 42.150527 -1.087747 1.996879 0.052996 -0.018970 40080.000000 0 0 1
-19.063218 -34.351381 -16.885512 42.761480 1.064162 1.976730 0.040857 -0.008897 83293.400000 0 0 1
-19.367518 33.821856 -15.442512 41.922427 -1.050743 1.948040 0.050231 -0.015651 -275043.000000 0 0 1
-19.522418 32.415256 -15.429912 40.865093 -1.028717 1.957980 0.052928 -0.018125 140922.000000 0 0 1
-19.915118 31.975056 -14.133312 40.233899 -1.013757 1.929733 0.053477 -0.011489 -141347.000000 0 0 1
-19.990118 30.431556 -14.045912 39.025274 -0.989594 1.938977 0.041473 -0.012568 740954.000000 0 0 1
-18.742118 29.805856 -13.698612 37.779730 -1.009464 1.941844 0.041777 -0.026086 695291.000000 0 0 1
-18.868818 28.408656 -13.728312 36.763441 -0.984509 1.953492 0.039802 -0.026763 127163.000000 0 0 1
-17.537918 27.755156 -13.284112 35.417437 -1.007265 1.955271 0.048737 -0.021342 312834.000000 0 0 1
-16.453518 28.038956 -14.145012 35.453951 -1.040132 1.981188 0.060277 -0.027992 -701532.000000 0 0 1
-15.355818 27.231156 -13.871312 34.201612 -1.057339 1.988404 0.067232 -0.033060 164596.000000 0 0 1
-14.031818 27.733556 -14.531212 34.310321 -1.102399 2.008127 0.063248 -0.031758 101987.000000 0 0 1
-14.142218 27.681756 -15.906412 34.918417 -1.098478 2.043765 0.053744 -0.036020 129471.000000 0 0 1
-13.275918 28.565056 -16.612812 35.611767 -1.135735 2.056124 0.064180 -0.037707 120502.000000 0 0 1
-13.517818 28.211856 -18.115912 36.150055 -1.123964 2.095702 0.064225 -0.045302 126761.000000 0 0 1
-12.930418 27.017156 -18.594712 35.254584 -1.124415 2.126382 0.049580 -0.037975 116368.000000 0 0 1
-13.255018 26.893956 -19.951812 36.014652 -1.112875 2.157947 0.044947 -0.042192 -516989.000000 0 0 1
-12.471918 25.818956 -20.635312 35.326807 -1.120798 2.194599 0.034414 -0.030355 -776871.000000 0 0 1
-11.136118 26.190356 -20.845512 35.277234 -1.168757 2.202977 0.021631 -0.016674 -689080.000000 0 0 1
-10.366818 25.127456 -21.335912 34.555478 -1.179501 2.236280 0.042830 -0.021315 447426.000000 0 0 1
-9.155918 25.696656 -22.159012 35.144996 -1.228513 2.252997 0.038705 -0.020084 249929.000000 0 0 1
-9.546218 26.490756 -23.281512 36.536546 -1.224922 2.261671 0.034482 -0.010978 249482.000000 0 0 1
-8.444518 26.934156 -24.066812 37.094070 -1.266978 2.276809 0.015157 -0.013069 433268.000000 0 0 1
-8.987918 27.553556 -25.403072 38.539553 -1.255481 2.290475 0.010687 -0.010021 -25872.700000 0 0 1
-9.689518 26.734356 -26.292422 38.728594 -1.223085 2.317045 0.017631 -0.003954 -320146.000000 0 0 1
-9.908718 27.366156 -27.516192 40.052840 -1.223401 2.328145 0.034752 -0.002488 -1113220.000000 0 0 1
-11.003718 26.688356 -28.223532 40.372242 -1.179728 2.344910 0.022683 -0.000729 -1168640.000000 0 0 1
-11.409018 27.226056 -29.470062 41.712209 -1.173978 2.355350 0.030957 0.002447 -802233.000000 0 0 1
-12.647618 26.692456 -29.785412 41.947827 -1.128305 2.360378 0.030970 0.003735 -810864.000000 0 0 1
-12.925318 26.926156 -31.310372 43.271481 -1.123253 2.379771 0.029708 -0.004339 -443516.000000 0 0 1
-12.128018 26.316656 -32.265622 43.367333 -1.138957 2.409845 0.032175 -0.006304 -414712.000000 0 0 1
-12.273518 24.967256 -32.334312 42.655724 -1.113904 2.431083 0.036354 -0.014059 34997.500000 0 0 1
-11.397418 24.324756 -33.421522 42.878818 -1.132622 2.464570 0.033822 -0.006401 26586.200000 0 0 1
-11.937918 24.574456 34.066750 43.668767 -1.118585 0.675943 0.042588 -0.007435 -51580.400000 0 0 1
-11.390518 23.747956 33.061372 42.270127 -1.123567 0.672695 0.044020 -0.011172 -480277.000000 0 0 1
-11.921118 23.896056 31.644101 41.406324 -1.108050 0.700944 0.054260 -0.005643 -1674160.000000 0 0 1
-13.196118 23.432756 31.586631 41.484296 -1.057914 0.705308 0.075507 -0.015503 -1468480.000000 0 0 1
-13.663318 23.269856 30.249281 40.536298 -1.039865 0.728420 0.083753 -0.006627 462068.000000 0 0 1
-15.043918 22.575756 30.054971 40.488091 -0.982996 0.734276 0.055925 -0.007345 441629.000000 0 0 1
-14.966618 21.154556 30.250431 39.832191 -0.955062 0.708334 0.049647 -0.022147 -583927.000000 0 0 1
-16.196418 20.503956 30.237121 39.962728 -0.902234 0.712648 0.038343 -0.020864 -453242.000000 0 0 1
-16.104518 18.958856 30.483341 39.344984 -0.866624 0.684444 0.041318 -0.027992 -146405.000000 0 0 1
-15.689518 18.168356 29.394191 37.950870 -0.858481 0.684820 0.040402 -0.019211 -57214.200000 0 0 1
-15.237518 16.939956 29.777161 37.494311 -0.838257 0.653142 0.022421 -0.030946 -318236.000000 0 0 1
-14.667518 16.136356 28.585851 35.953705 -0.833046 0.651667 0.016772 -0.017550 92092.100000 0 0 1
-13.803018 16.898756 27.732891 35.287455 -0.885891 0.666624 0.031586 -0.010353 18107.100000 0 0 1
-13.073918 15.972056 26.910311 33.914580 -0.884847 0.654302 0.016584 -0.002151 482406.000000 0 0 1
-11.937418 16.689656 26.104291 33.203623 -0.949903 0.666180 0.028004 0.001138 241743.000000 0 0 1
-12.303918 17.520756 25.005951 32.919004 -0.958563 0.708067 0.028574 0.005207 -553323.000000 0 0 1
-12.695918 18.846556 25.292201 34.001094 -0.977977 0.731962 0.028149 0.004484 -47484.000000 0 0 1
-11.707918 19.867356 25.934141 34.703989 -1.038278 0.726813 0.022152 0.000945 82500.700000 0 0 1
-11.274418 19.570256 27.260041 35.400808 -1.048136 0.691892 0.033432 -0.006444 108487.000000 0 0 1
-12.249218 19.923456 28.258601 36.681548 -1.019555 0.691365 0.063472 -0.012350 230948.000000 0 0 1
-11.825718 19.664156 29.708681 37.538411 -1.029359 0.657666 0.056534 -0.023870 541456.000000 0 0 1
-10.710218 20.453456 30.203941 38.017505 -1.088417 0.652654 0.040718 -0.027592 684513.000000 0 0 1
-10.569818 20.290556 31.606801 39.018169 -1.090551 0.626553 0.029101 -0.026952 782378.000000 0 0 1
-9.311918 20.999356 32.257261 39.600702 -1.153413 0.618821 0.032628 -0.024748 1303010.000000 0 0 1
-8.029718 20.409056 31.991201 38.787148 -1.195959 0.600968 0.037810 -0.025396 -22567.600000 0 0 1
-7.077218 21.220556 32.563361 39.506600 -1.248889 0.601918 0.027231 -0.018645 -848610.000000 0 0 1
-5.874318 20.488656 33.139743 39.402223 -1.291576 0.571551 0.034790 -0.017545 -666000.000000 0 0 1
-6.307418 19.505756 34.073416 39.765006 -1.258047 0.541630 0.036158 -0.019166 455857.000000 0 0 1
-5.278618 18.946156 -33.876712 39.172085 -1.299076 2.615583 0.026014 -0.014455 441121.000000 0 0 1
-4.283618 17.983656 34.212309 38.887573 -1.336959 0.495408 0.024051 -0.015215 -189319.000000 0 0 1
-4.808718 16.689556 34.104414 38.272393 -1.290267 0.471040 0.032791 -0.013971 113023.000000 0 0 1
-4.669218 16.191956 32.782912 36.860552 -1.290046 0.474817 0.032496 -0.011410 105244.000000 0 0 1
-5.416818 14.822256 32.721857 36.328516 -1.220423 0.449370 0.041261 -0.006492 -156526.000000 0 0 1
-4.764418 13.787256 33.406056 36.452060 -1.238076 0.411709 0.046051 -0.009187 -385238.000000 0 0 1
-5.446018 12.558356 33.359135 36.058332 -1.161616 0.389383 0.058139 -0.010756 -357223.000000 0 0 1
-4.694718 11.309956 33.852382 35.999156 -1.177344 0.347092 0.072635 -0.011181 -294482.000000 0 0 1
-4.570318 11.227356 -33.467922 35.595549 -1.184210 2.794095 0.066514 -0.015986 -195409.000000 0 0 1
-3.901718 10.004456 -33.281592 34.971087 -1.198942 2.829486 0.075752 -0.015584 94451.800000 0 0 1
-3.719318 9.693056 -31.795802 33.447895 -1.204412 2.825982 0.060215 -0.016503 935147.000000 0 0 1
-4.900618 9.073256 -31.217112 32.876254 -1.075573 2.822542 0.072230 -0.017081 843785.000000 0 0 1
-4.641918 8.424256 -29.960382 31.466490 -1.067172 2.830946 0.074974 -0.007570 48100.000000 0 0 1
-5.920618 7.815556 -29.353152 30.947442 -0.922485 2.819212 0.071586 -0.016620 41149.800000 0 0 1
-5.643018 6.806056 -28.403152 29.747354 -0.878551 2.839825 0.064417 -0.017250 154258.000000 0 0 1
-6.803018 6.059156 -28.128612 29.567097 -0.727629 2.828379 0.078322 -0.031665 -456384.000000 0 0 1
-6.615818 5.249356 -26.778932 28.079102 -0.670737 2.836091 0.061322 -0.031658 -295460.000000 0 0 1
-6.833618 5.965056 -25.574342 27.135350 -0.717639 2.800750 0.037959 -0.021509 -65944.900000 0 0 1
-6.186518 7.212956 -25.374852 27.095809 -0.861852 2.783270 0.041860 -0.014707 -448544.000000 0 0 1
-6.849218 8.095456 -24.329812 26.540308 -0.868596 2.730568 0.026475 -0.003784 -369678.000000 0 0 1
-6.669218 7.551256 -23.035012 25.141832 -0.847345 2.729295 0.013138 0.000029 743668.000000 0 0 1
-7.900018 7.690556 -22.292912 24.870240 -0.771964 2.682306 0.014287 -0.000208 869742.000000 0 1 0
-7.642818 7.786156 -20.757112 23.449831 -0.794688 2.657658 0.007731 0.000082 124984.000000 0 1 0
-6.891418 8.986656 -20.489512 23.410932 -0.916598 2.636669 -0.008666 -0.000880 307048.000000 0 1 0
-6.636718 9.289756 -19.133812 22.281121 -0.950463 2.603613 -0.002175 0.003546 232670.000000 0 1 0
-7.932018 9.765756 -18.373312 22.268037 -0.888644 2.541172 -0.007366 0.015370 355006.000000 0 1 0
-7.703718 9.617256 -16.967212 20.969625 -0.895427 2.513471 -0.013386 0.004627 756775.000000 0 1 0
-8.833618 9.952556 -16.119012 20.902362 -0.844890 2.451454 0.003588 -0.002620 808862.000000 0 1 0
-9.459018 11.349256 -16.293812 21.994702 -0.875990 2.405066 0.012322 -0.006097 -294979.000000 0 1 0
-8.541818 12.396156 -15.945912 21.929420 -0.967444 2.384953 -0.004675 -0.004960 304094.000000 0 1 0
-9.074718 13.687156 -16.035712 22.952839 -0.985330 2.344288 0.010987 -0.008534 -720536.000000 0 1 0
-7.991718 14.700356 -15.682412 22.932642 -1.072848 2.323818 0.014601 -0.003419 87621.200000 0 1 0
-7.437918 14.610556 -14.356712 21.792341 -1.099912 2.290014 0.005564 -0.005140 220676.000000 0 1 0
-8.277918 15.171156 -13.395912 21.866375 -1.071310 2.230175 -0.002459 -0.017146 -853176.000000 0 1 0
-7.492018 15.970956 -12.294012 21.502197 -1.132171 2.179441 -0.003096 -0.016710 430601.000000 0 1 0
-7.059218 17.299056 -12.642612 22.559378 -1.183353 2.165683 0.007398 -0.015653 -9265.050000 0 1 0
-6.069518 17.352156 -13.646312 22.894501 -1.234313 2.209371 0.022990 -0.010356 -350341.000000 0 1 0
-5.973918 18.819556 -14.241212 24.344927 -1.263425 2.195647 0.051986 -0.003196 215053.000000 0 1 0
-5.631618 19.797956 -13.273012 24.491774 -1.293662 2.143537 0.059692 -0.011804 -154582.000000 0 1 0
-5.572318 21.152056 -13.814112 25.870637 -1.313208 2.134084 0.059111 -0.008404 -80628.700000 0 0 1
-5.015518 22.098056 -12.731812 25.991893 -1.347611 2.082700 0.062991 -0.006248 -456424.000000 0 0 1
-4.995518 23.514156 -12.959112 27.309509 -1.361461 2.065223 0.055480 -0.009286 898189.000000 0 0 1
-6.323218 24.076256 -13.025312 28.094624 -1.313964 2.052876 0.052078 -0.009727 1115430.000000 0 0 1
-7.154218 24.161656 -11.712312 27.787528 -1.282923 2.005890 0.034896 -0.005011 -506014.000000 0 0 1
-7.771918 22.996656 -11.357612 26.800079 -1.244889 2.008422 0.038123 -0.002295 -253533.000000 0 0 1
-8.483718 22.982456 -10.105912 26.500872 -1.217174 1.962045 0.046832 -0.008619 26925.900000 0 0 1
-7.725818 23.206456 -8.794212 25.991653 -1.249421 1.915957 0.050002 -0.013107 -257033.000000 0 0 1
-7.256818 24.522656 -8.768712 27.035391 -1.283084 1.901112 0.048968 -0.007642 -101030.000000 0 0 1
-6.612118 24.967956 -7.577612 26.917264 -1.311915 1.856169 0.044352 -0.010936 84810.300000 0 0 1
-6.670218 26.559156 -7.443412 28.377543 -1.324740 1.836201 0.032236 -0.011013 32909.200000 0 0 1
-5.785318 27.376456 -8.170812 29.149655 -1.362536 1.854909 0.033847 -0.009927 -333416.000000 0 0 1
-5.868618 27.286956 -9.568412 29.505476 -1.358953 1.901060 0.037914 -0.003834 -99900.800000 0 0 1
-5.292618 28.511656 -10.272812 30.764541 -1.387255 1.911253 0.030498 0.001925 402259.000000 0 0 1
-6.120618 29.676656 -10.152012 31.956677 -1.367405 1.894079 0.029415 0.001253 416698.000000 0 0 1
-7.158518 29.776856 -11.126112 32.583675 -1.334868 1.919269 0.034096 0.001416 799965.000000 0 0 1
-8.279318 30.847056 -10.856412 33.733509 -1.308577 1.898457 0.027386 0.002865 337498.000000 0 0 1
-9.250318 30.444956 -9.927312 33.331895 -1.275823 1.873217 0.029002 0.001441 10232.900000 0 0 1
-10.223918 31.486456 -9.750612 34.510865 -1.256828 1.857235 0.026901 0.000347 1141600.000000 0 0 1
-11.463518 31.079956 -8.847712 34.287868 -1.217437 1.831791 0.027140 -0.001980 910036.000000 0 0 1
-12.224718 30.088356 -9.525512 33.845063 -1.184876 1.856096 0.034171 -0.008736 -997667.000000 0 0 1
-13.420418 29.887256 -8.876112 33.943203 -1.148745 1.835371 0.031290 -0.009644 -680721.000000 0 0 1
-14.329218 28.751356 -9.332212 33.452311 -1.108442 1.853518 0.040025 -0.009497 -269110.000000 0 0 1
-13.878918 27.454856 -9.062912 32.070701 -1.102744 1.857291 0.030882 -0.005580 236401.000000 0 0 1
-14.851118 26.541656 -9.578212 31.886633 -1.060658 1.875891 0.041060 -0.005775 244964.000000 0 0 1
-14.870818 25.189556 -8.842012 30.558732 -1.037498 1.864339 0.039687 -0.005760 -224935.000000 0 0 1
-13.843018 24.290156 -9.177312 29.425565 -1.052801 1.887970 0.033422 -0.001711 70763.300000 0 0 1
-14.216718 22.926156 -8.865012 28.395636 -1.015722 1.888300 0.039799 -0.004782 -2820.470000 0 0 1
-13.254918 21.804556 -9.328112 27.168827 -1.024591 1.921266 0.044038 -0.004810 -137464.000000 0 0 1
-13.253418 21.519856 -10.698612 27.444810 -1.018790 1.971235 0.041668 -0.001180 43288.600000 0 0 1
-12.578818 20.318456 -10.940812 26.282459 -1.016463 2.000144 0.038703 -0.006518 -377060.000000 0 0 1
-12.618118 19.929656 -12.412012 26.654570 -1.006370 2.055178 0.045222 -0.003497 -885515.000000 0 0 1
-13.867218 19.792256 -12.989612 27.436529 -0.959642 2.063991 0.061264 0.000312 -1021220.000000 0 0 1
-13.865418 19.748756 -14.407612 28.104136 -0.958669 2.109066 0.065288 0.007060 300698.000000 0 0 1
-15.226918 19.224556 -14.910712 28.701427 -0.900918 2.117075 0.062578 -0.004316 747575.000000 0 0 1
-16.336318 20.116056 -14.877912 29.881152 -0.888719 2.091975 0.053903 -0.007111 1022140.000000 0 0 1
-17.575818 19.456856 -15.237212 30.325752 -0.836149 2.097228 0.052284 -0.005042 1215680.000000 0 0 1
-18.612218 20.394256 -15.922412 31.872614 -0.831052 2.093892 0.028593 -0.012554 204259.000000 0 0 1
-19.058318 21.525056 -15.150912 32.497656 -0.846105 2.055804 0.033344 -0.016069 255459.000000 0 0 1
-19.489818 22.558756 -15.954012 33.812438 -0.858255 2.062171 0.033692 -0.022753 -199750.000000 0 0 1
-19.787618 23.802656 -15.078612 34.430812 -0.877248 2.024102 0.023070 -0.016827 -397489.000000 0 0 1
-21.022218 23.756456 -14.426712 34.848714 -0.846384 1.997620 0.035248 -0.015303 -208991.000000 0 0 1
-21.290218 24.874656 -13.620712 35.461890 -0.862887 1.965023 0.032970 -0.022411 -143201.000000 0 0 1
-25.400958 -0.887044 3.661388 25.678810 0.034908 1.427725 0.061242 -0.032538 -131108.000000 0 0 1
-25.815558 -0.172044 4.776988 26.254376 0.006664 1.387827 0.065618 -0.026570 -326622.000000 0 0 1
-27.037428 -0.630244 5.259988 27.551537 0.023306 1.378703 0.072835 -0.031718 -883123.000000 0 0 1
-27.455088 0.120356 6.485288 28.210908 -0.004384 1.338836 0.074397 -0.026050 -516584.000000 0 0 1
-27.818398 1.464056 6.269588 28.553712 -0.052581 1.349421 0.071410 -0.020939 165381.000000 0 0 1
-28.237778 2.214656 7.425288 29.281594 -0.078269 1.314415 0.073306 -0.003913 -232108.000000 0 0 1
-27.140808 2.685556 8.386788 28.533733 -0.098628 1.272465 0.075111 -0.008662 -204957.000000 0 0 1
-26.451048 1.639156 9.036388 28.000019 -0.061890 1.242186 0.073235 -0.016098 583961.000000 0 0 1
-25.383968 2.057056 9.885288 27.318423 -0.080861 1.200540 0.071604 -0.021995 477611.000000 0 0 1
-24.565118 0.910756 10.545788 26.748610 -0.037058 1.165539 0.060438 -0.016028 -223998.000000 0 0 1
-23.740318 0.058456 9.817688 25.690331 -0.002462 1.178669 0.047399 -0.022721 6301.940000 0 0 1
-24.355018 -0.838844 8.894388 25.941872 0.034429 1.220838 0.047940 -0.020002 -339866.000000 0 0 1
-23.319218 -1.585744 8.035388 24.715744 0.067897 1.239666 0.044547 -0.025324 -572225.000000 0 1 0
-22.350718 -2.207844 8.787088 24.117257 0.098462 1.197863 0.037393 -0.024289 -653061.000000 0 1 0
-21.218518 -2.525944 8.015788 22.822330 0.118487 1.211916 0.039298 -0.025006 -115915.000000 0 1 0
-20.018318 -2.795944 8.948488 22.104882 0.138772 1.154015 0.021015 -0.015380 -681349.000000 0 1 0
-19.373018 -1.832644 9.716988 21.750685 0.094317 1.107674 0.006252 -0.003525 -50950.000000 0 1 0
-20.164218 -1.249744 10.736588 22.878634 0.061899 1.082316 0.022608 -0.010636 -687340.000000 0 1 0
-20.003818 0.253856 10.902988 22.783598 -0.012690 1.071799 0.022896 -0.007381 -32410.400000 0 1 0
-20.663318 1.086556 9.939788 22.955451 -0.052535 1.122974 0.029211 -0.005878 473884.000000 0 1 0
-20.539318 2.410456 10.459288 23.174784 -0.116824 1.102550 0.016380 -0.000692 -138656.000000 0 1 0
-21.408618 3.511956 9.782088 23.798151 -0.162596 1.147197 0.024504 -0.010871 -272688.000000 0 1 0
-21.431418 4.715756 10.472988 24.315170 -0.216588 1.125508 0.016587 -0.008553 355370.000000 0 1 0
-22.049318 5.646656 9.652188 24.722902 -0.250704 1.169714 0.020859 -0.008729 -572676.000000 0 1 0
-22.367218 6.972656 10.383088 25.626527 -0.302188 1.153632 0.035394 -0.004582 203712.000000 0 0 1
-23.312718 6.821756 11.437088 26.848206 -0.284672 1.130740 0.039384 -0.003343 411553.000000 0 0 1
-23.556318 8.046156 12.092288 27.674251 -0.329146 1.118590 0.045981 -0.004241 -30750.600000 0 0 1
-24.318118 7.893356 13.438688 28.883806 -0.313859 1.086860 0.045343 -0.000138 51380.900000 0 0 1
-25.650718 7.486456 13.232488 29.817865 -0.283974 1.110987 0.060251 0.000083 -303249.000000 0 0 1
-26.320198 7.288656 14.437688 30.892138 -0.270153 1.084496 0.055808 -0.001064 138831.000000 0 0 1
-27.728338 6.696556 14.104288 31.821935 -0.236968 1.111603 0.067891 0.000782 78950.300000 0 0 1
-27.783808 5.474356 13.444588 31.347496 -0.194542 1.127534 0.070225 0.006884 258614.000000 0 0 1
-28.794638 5.533456 12.435788 31.849633 -0.189855 1.169673 0.062299 -0.001669 -38731.000000 0 0 1
-28.981168 4.163256 11.677588 31.521530 -0.142678 1.191288 0.071855 0.001379 -351069.000000 0 0 1
-29.784158 3.274556 12.382288 32.421287 -0.109503 1.178925 0.078082 0.001269 104025.000000 0 0 1
-30.462328 2.361856 11.520188 32.653431 -0.077379 1.210233 0.071063 0.008323 506357.000000 0 0 1
-31.557028 1.437056 12.144488 33.843755 -0.045507 1.203772 0.054442 0.014327 533908.000000 0 0 1
-31.013788 0.354656 12.843788 33.569983 -0.011435 1.178190 0.059245 0.004348 -468573.000000 0 0 1
-32.067348 -0.178144 13.561888 34.817688 0.005555 1.170695 0.051555 0.010679 -319166.000000 0 0 1
-31.787568 -1.434844 14.452588 34.948327 0.045108 1.144456 0.039650 0.010679 -123168.000000 0 0 1
-31.673348 -2.695344 13.740288 34.630354 0.084894 1.162801 0.032799 0.005863 237239.000000 0 0 1
-31.863338 -3.747044 14.675088 35.279893 0.117060 1.141796 0.025069 0.011202 -136340.000000 0 0 1
-31.853568 -5.174444 14.143488 35.234400 0.161038 1.157739 0.033341 0.008391 673762.000000 0 0 1
-32.980108 -5.537044 13.311588 35.993677 0.166339 1.191969 0.027237 -0.005570 599189.000000 0 0 1
-32.868308 -6.869844 12.891388 35.968157 0.206045 1.204231 0.042365 -0.006200 -1460330.000000 0 0 1
-33.991858 -7.269544 11.975788 36.765639 0.210688 1.239009 0.051751 0.003547 734931.000000 0 0 1
-35.328353 -7.393344 12.516288 38.202245 0.206298 1.237000 0.034669 0.004442 1062430.000000 0 0 1
35.645787 -6.148044 12.886788 38.399087 -0.170796 1.228553 0.039775 -0.002038 174307.000000 0 0 1
34.085498 -6.050544 12.579388 36.833019 -0.175681 1.222258 0.039712 -0.000386 1319210.000000 0 0 1
33.313078 -6.921744 13.346588 36.548640 -0.204864 1.196977 0.028690 0.003992 714163.000000 0 0 1
31.915318 -6.709544 13.023388 35.117149 -0.207212 1.190866 0.032377 0.007534 1238930.000000 0 0 1
30.935718 -7.766344 13.584388 34.668002 -0.245965 1.168163 0.011430 0.001704 -59523.700000 0 0 1
30.804478 -7.632544 14.969188 35.089146 -0.242882 1.130061 0.020032 0.007253 173833.000000 0 0 1
29.865668 -8.641344 15.326888 34.663301 -0.281649 1.112786 0.029925 0.009362 -255444.000000 0 0 1
29.340378 -8.572444 16.803388 34.881204 -0.284260 1.068166 0.024492 -0.007199 301530.000000 0 0 1
30.260418 -9.021944 17.826488 36.261164 -0.289753 1.056854 0.023008 -0.006874 338316.000000 0 0 1
29.642178 -9.057344 19.094488 36.404583 -0.296546 1.018659 0.027910 -0.011799 -354675.000000 0 0 1
30.643108 -9.585644 20.145488 37.904160 -0.303172 1.010444 0.037675 -0.006279 21412.200000 0 0 1
31.680588 -8.709144 20.465588 38.708515 -0.268278 1.013716 0.040123 -0.008601 439747.000000 0 0 1
32.852188 -8.840144 19.609288 39.267526 -0.262862 1.047917 0.021373 0.000936 295969.000000 0 0 1
34.111248 -8.232344 20.238988 40.508831 -0.236810 1.047637 0.015662 0.005225 -143370.000000 0 0 1
34.465358 -8.860344 21.482488 41.567582 -0.251631 1.027677 0.012995 0.003834 644679.000000 0 0 1
35.732736 -8.391544 21.976488 42.780982 -0.230662 1.031307 0.001487 0.007053 688619.000000 0 0 1
-35.519574 -8.797644 23.463488 43.469230 0.242798 1.000630 0.003286 0.008531 -278199.000000 0 0 1
35.334528 -8.101444 24.454488 43.728529 -0.225383 0.977335 0.009951 0.005128 -43723.200000 0 0 1
35.070358 -8.815144 25.597788 44.304441 -0.246254 0.954802 0.011347 0.001395 -156404.000000 0 0 1
34.633428 -7.988844 26.830488 44.532809 -0.226703 0.924181 0.026123 0.001620 1131660.000000 0 0 1
-35.763944 -7.300344 27.413688 45.649370 0.201360 0.926636 0.004566 -0.009357 1007570.000000 0 0 1
35.378518 -6.769244 28.685788 46.047113 -0.189053 0.898268 0.010534 -0.016118 677570.000000 0 0 1
-34.938580 -6.263544 29.518188 46.165569 0.177389 0.877081 0.015856 -0.005819 699233.000000 0 0 1
-34.324014 -7.280344 30.237688 46.319101 0.209009 0.859505 0.011877 -0.004284 92261.000000 0 0 1
-33.061018 -6.939344 30.796088 45.711973 0.206892 0.831594 0.018268 -0.014354 584422.000000 0 0 1
-32.578538 -7.659444 32.099988 46.372810 0.230913 0.806242 0.013001 -0.011110 -9027.210000 0 0 1
-32.539258 -9.061244 32.016188 46.539723 0.271590 0.812160 0.017501 -0.012746 214442.000000 0 0 1
-32.207898 -9.613544 33.229888 47.265150 0.290065 0.791115 0.011535 -0.015690 -395132.000000 0 0 1
-32.321148 -11.111344 33.090388 47.571970 0.331122 0.801561 0.017756 -0.013443 -179603.000000 0 0 1
-33.644928 -11.548744 33.303088 48.728332 0.330652 0.818326 0.010502 -0.013070 -221649.000000 0 0 1
-33.724428 -12.958744 33.374588 49.184644 0.366859 0.825000 0.005033 -0.008656 483992.000000 0 0 1
-35.207353 -13.430544 33.439788 50.380122 0.364431 0.844975 0.004873 -0.009038 471706.000000 0 0 1
-35.418558 -14.832144 33.664588 51.066342 0.396580 0.850999 0.006528 -0.014240 707331.000000 0 0 1
34.722338 -15.079544 33.872888 50.797696 -0.409712 0.840864 0.007458 -0.012486 669417.000000 0 0 1
34.341998 -16.604144 33.980988 51.085986 -0.450356 0.843072 0.006153 -0.012068 -253950.000000 0 0 1
34.724478 -17.086444 -33.538575 51.211053 -0.457274 2.284858 0.016282 -0.013937 76578.700000 0 0 1
34.672248 -18.482044 -33.499475 51.632989 -0.489737 2.276803 0.015137 -0.025485 -654631.000000 0 0 1
35.184718 -19.148944 -32.231075 51.414868 -0.498410 2.248342 0.018136 -0.026054 218545.000000 0 0 1
34.228138 -19.022844 -31.180275 50.056404 -0.507260 2.243244 0.020075 -0.020480 378690.000000 0 0 1
34.562628 -19.841744 -30.078675 49.929918 -0.521143 2.217323 0.018926 -0.020610 -115821.000000 0 0 1
33.392778 -19.750844 -29.083575 48.487398 -0.534124 2.214069 0.004450 -0.018120 36442.000000 0 0 1
32.173418 -20.368344 -29.359175 48.082839 -0.564388 2.227609 0.024244 -0.016787 -99155.000000 0 0 1
31.233248 -19.574344 -30.040775 47.551224 -0.559832 2.254613 0.020996 -0.007907 -323014.000000 0 0 1
29.897368 -20.317544 -30.308275 47.172521 -0.596887 2.268551 0.013270 -0.007001 284797.000000 0 0 1
28.982778 -19.465344 -31.023475 46.705000 -0.591422 2.297277 -0.000950 0.000164 37968.500000 0 0 1
27.822898 -20.217744 -31.243075 46.465046 -0.628394 2.308242 0.001475 -0.000700 -111311.000000 0 0 1
26.806148 -19.588644 -32.220075 46.264649 -0.631068 2.341207 0.006696 0.003621 172456.000000 0 0 1
27.274418 -19.772144 -33.523975 47.525661 -0.627265 2.353765 0.003928 -0.000053 599695.000000 0 0 1
26.218998 -19.545344 34.305588 47.395461 -0.640592 0.761480 0.018162 -0.005530 188150.000000 0 0 1
26.762058 -19.601744 32.882288 46.708468 -0.632171 0.789796 0.026683 -0.000787 283932.000000 0 0 1
27.646098 -18.497944 32.601088 46.575869 -0.589684 0.795460 0.023215 -0.008004 571909.000000 0 0 1
28.098158 -18.454644 31.235188 45.888096 -0.581135 0.822104 0.032953 -0.006656 -364754.000000 0 0 1
27.081198 -17.915944 30.226888 44.362564 -0.584462 0.821177 0.038088 -0.009775 -335977.000000 0 0 1
26.737048 -16.592344 30.565188 43.868056 -0.555411 0.799936 0.048094 -0.008989 283549.000000 0 0 1
25.845698 -15.913344 29.711788 42.473815 -0.551888 0.796054 0.061371 -0.014158 71579.500000 0 0 1
25.568298 -14.442644 30.114188 42.061766 -0.514184 0.772810 0.064399 -0.015284 257676.000000 0 0 1
26.796058 -13.728944 30.107788 42.579238 -0.473478 0.785407 0.066382 -0.005825 307266.000000 0 0 1
26.762008 -12.427844 30.581288 42.495548 -0.434751 0.767520 0.082565 -0.007626 -586286.000000 0 0 1
28.131048 -11.786244 30.766388 43.322535 -0.396758 0.781056 0.078207 -0.004001 -393909.000000 0 0 1
28.651218 -11.332044 29.486188 42.646721 -0.376636 0.807363 0.067305 -0.008355 381600.000000 0 0 1
30.011108 -10.944044 29.628988 43.569664 -0.349680 0.822983 0.053999 -0.002979 114187.000000 0 0 1
30.459888 -10.186144 28.379788 42.859943 -0.322721 0.847110 0.048639 -0.010345 -181841.000000 0 0 1
30.232698 -8.793644 28.479088 42.454713 -0.283055 0.835495 0.057952 -0.014649 71477.800000 0 0 1
30.755808 -8.236044 27.302488 41.942556 -0.261649 0.861962 0.053772 -0.007447 -68602.600000 0 0 1
30.431568 -6.737844 27.152988 41.337194 -0.217895 0.854142 0.060197 -0.018390 -1150210.000000 0 0 1
29.079088 -6.477544 27.137288 40.298689 -0.219178 0.831993 0.069864 -0.014756 -1152880.000000 0 0 1
28.781928 -5.072844 26.830388 39.673705 -0.174459 0.828100 0.070454 -0.014436 -389265.000000 0 0 1
27.310228 -4.727644 26.667388 38.462303 -0.171410 0.804685 0.063138 -0.012204 -779886.000000 0 0 1
26.805358 -5.072344 25.420088 37.288561 -0.187017 0.820695 0.078799 -0.015374 -661498.000000 0 0 1
25.454898 -4.720544 25.451888 36.304738 -0.183364 0.793910 0.069099 -0.016876 -840794.000000 0 0 1
24.710098 -5.050044 24.158988 34.924899 -0.201596 0.806899 0.073020 -0.012726 -494852.000000 0 0 1
25.239598 -4.316144 23.091088 34.479918 -0.169369 0.836996 0.076552 -0.006288 -64004.900000 0 0 1
24.693798 -4.614244 21.828188 33.279794 -0.184728 0.855423 0.079778 -0.006865 -80016.300000 0 0 1
25.079998 -3.669744 20.722888 32.740058 -0.145291 0.885436 0.088788 -0.006673 341049.000000 0 0 1
24.323698 -2.457344 20.885888 32.154333 -0.100685 0.863802 0.078001 -0.005249 332708.000000 0 0 1
24.744198 -1.482244 19.984088 31.840794 -0.059831 0.892297 0.082616 -0.003126 -164637.000000 0 0 1
23.572498 -0.717144 19.330288 30.493229 -0.030414 0.884184 0.034573 0.000464 -168571.000000 0 0 1
22.706898 -1.562744 18.620588 29.407001 -0.068714 0.885112 0.057780 -0.006051 -748119.000000 0 0 1
21.726098 -0.775744 18.033488 28.245917 -0.035690 0.878319 0.051177 -0.004386 -679239.000000 0 0 1
20.711198 -1.678444 17.321488 27.051892 -0.080864 0.875900 0.047382 -0.006053 -465559.000000 0 0 1
21.103698 -2.292444 16.126288 26.658555 -0.108203 0.921131 0.053470 -0.012198 -379765.000000 0 0 1
20.027798 -2.939144 15.523088 25.509165 -0.145713 0.916590 0.076071 -0.018913 -630341.000000 0 0 1
20.330498 -3.593544 14.139188 25.023176 -0.174949 0.970310 0.072977 -0.023480 -391580.000000 0 0 1
19.259498 -4.352544 13.660188 24.009865 -0.222261 0.965579 0.077881 -0.024475 148172.000000 0 1 0
19.570998 -4.779844 12.395588 23.654206 -0.239542 1.019217 0.075165 -0.023287 -140871.000000 0 1 0
18.523498 -5.692544 11.712788 22.643199 -0.298154 1.027131 0.066095 -0.027782 -122203.000000 0 1 0
18.406098 -6.908544 12.428088 23.258757 -0.359069 1.007069 0.081412 -0.025729 195618.000000 0 1 0
17.213298 -7.564944 12.124788 22.372673 -0.414073 0.998045 0.051635 -0.014356 -511838.000000 0 1 0
17.197098 -9.042444 12.552388 23.131546 -0.484084 0.997205 0.060514 -0.020435 7351.720000 0 1 0
17.951698 -9.708244 11.530788 23.440831 -0.495751 1.056514 0.037432 -0.025132 582264.000000 0 1 0
17.541698 -11.030744 11.266388 23.586436 -0.561349 1.072803 0.037532 -0.029815 -100755.000000 0 1 0
18.346298 -11.736844 10.158188 24.031832 -0.569128 1.134377 0.039891 -0.019320 103404.000000 0 1 0
17.967498 -11.278144 8.865388 22.991795 -0.560536 1.174950 0.048578 -0.014871 282491.000000 0 1 0
18.820998 -11.889844 7.945188 23.637351 -0.563426 1.227993 0.059843 -0.024369 -115400.000000 0 1 0
18.691598 -11.366744 6.547188 22.835157 -0.546369 1.280000 0.058311 -0.013152 -169680.000000 0 1 0
19.181698 -10.053944 6.436488 22.593090 -0.482775 1.281907 0.073698 -0.007911 599293.000000 0 1 0
19.538998 -9.759144 5.066988 22.420698 -0.463224 1.342831 0.052969 -0.009024 81943.400000 0 1 0
20.103998 -8.273344 4.935288 22.292959 -0.390404 1.347564 0.080039 -0.011086 -3062.670000 0 1 0
20.549998 -7.920444 3.653188 22.324463 -0.367877 1.406416 0.056771 -0.015790 399401.000000 0 1 0
20.950198 -6.592844 3.580888 22.253071 -0.304880 1.409177 0.065779 -0.013149 -360018.000000 0 1 0
21.540398 -6.322044 2.187488 22.555312 -0.285480 1.473660 0.066964 -0.012041 99719.100000 0 1 0
20.595198 -6.459944 1.152188 21.615286 -0.303944 1.517467 0.035371 -0.020082 605131.000000 0 1 0
20.991998 -5.501944 0.204088 21.702005 -0.256331 1.561392 0.032573 -0.019716 -156989.000000 0 1 0
-25.541518 -15.967544 0.020388 30.121953 0.558715 1.570119 0.045016 -0.018178 -292955.000000 0 0 1
-24.674018 -15.143944 -0.759212 28.960708 0.550476 1.597015 0.036684 -0.012638 1237480.000000 0 0 1
-23.306518 -15.639944 -0.723112 28.077118 0.591034 1.596554 0.038515 -0.006595 1610180.000000 0 0 1
-22.390818 -15.281344 0.488188 27.112849 0.598872 1.552790 0.035025 -0.013353 -413436.000000 0 0 1
-22.869718 -15.763844 1.756588 27.831788 0.603501 1.507640 0.033534 -0.007988 -132530.000000 0 0 1
-22.133918 -15.259044 2.826688 27.032183 0.603574 1.466037 0.037961 0.000969 -216224.000000 0 0 1
-22.638118 -15.829644 4.171688 27.936804 0.610221 1.420910 0.048723 -0.001445 -238003.000000 0 0 1
-22.418018 -17.195744 4.267388 28.573970 0.654324 1.420890 0.066632 -0.016408 222871.000000 0 0 1
-22.853518 -17.753344 5.503288 29.457609 0.660454 1.382872 0.067041 -0.020587 -131207.000000 0 0 1
-22.871118 -19.268644 5.486388 30.405084 0.700117 1.389359 0.052408 -0.016963 119777.000000 0 0 1
-23.485218 -19.940844 6.580988 31.504002 0.703960 1.360353 0.047636 -0.020149 14764.900000 0 0 1
-23.584418 -21.306744 6.225888 32.387711 0.734704 1.377362 0.055566 -0.026235 -249635.000000 0 0 1
-24.221518 -22.170944 7.304688 33.639132 0.741226 1.351904 0.044648 -0.016590 -199526.000000 0 0 1
-23.341218 -22.680244 8.280088 33.582225 0.771037 1.321666 0.042424 -0.008304 -168548.000000 0 0 1
-24.050018 -23.287644 9.338688 34.755271 0.769295 1.298755 0.049473 -0.007358 182521.000000 0 0 1
-23.118418 -23.739444 10.499688 34.760120 0.798651 1.263942 0.040162 -0.009629 73276.600000 0 0 1
-22.699218 -22.668744 11.264988 34.000389 0.784726 1.233095 0.043291 -0.006058 -99123.400000 0 0 1
-22.068718 -23.109544 12.442888 34.291469 0.808432 1.199465 0.044139 -0.006420 -268077.000000 0 0 1
-22.465318 -22.259544 13.625588 34.435948 0.780797 1.163989 0.036008 -0.001640 -459576.000000 0 0 1
-23.678718 -22.615144 14.220688 35.698101 0.762428 1.161068 0.041132 -0.004460 -563876.000000 0 0 1
-24.113418 -21.617744 15.124888 35.742776 0.730880 1.133867 0.038540 0.006730 -88510.900000 0 0 1
-25.515288 -21.965144 15.688188 37.143192 0.710766 1.134737 0.021129 0.001937 316148.000000 0 0 1
-26.648988 -21.861544 14.848388 37.530925 0.687028 1.164042 0.018665 0.008874 130685.000000 0 0 1
-26.781198 -23.031244 14.066188 38.020106 0.710258 1.191823 0.018976 0.002330 -384908.000000 0 0 1
-27.894348 -24.033744 14.481788 39.565613 0.711189 1.196068 0.017682 0.000842 -162009.000000 0 0 1
-27.710048 -24.556844 15.759388 40.239827 0.725142 1.168387 0.017722 0.005044 -555860.000000 0 0 1
-28.697228 -25.438384 16.190288 41.626527 0.725273 1.171314 0.013167 0.001704 -412045.000000 0 0 1
-28.633488 -26.829064 15.562888 42.212307 0.752876 1.193206 0.024177 -0.003186 22450.100000 0 0 1
-29.210498 -26.963574 14.253788 42.231008 0.745420 1.226516 0.030259 -0.016130 -408781.000000 0 0 1
-30.254398 -27.858194 14.227288 43.518081 0.744188 1.237745 0.029702 -0.022210 -810503.000000 0 0 1
-30.802078 -28.249404 12.865688 43.730113 0.742197 1.272171 0.039364 -0.030155 -228166.000000 0 0 1
-30.025218 -29.199374 12.193988 43.621217 0.771455 1.287479 0.043027 -0.034870 -27323.800000 0 0 1
-30.569558 -29.488364 10.935988 43.859518 0.767398 1.318796 0.037763 -0.026926 -47755.300000 0 0 1
-29.932878 -30.722954 10.267988 44.105654 0.798423 1.335836 0.036536 -0.032202 -431490.000000 0 0 1
-30.386188 -31.924644 10.773788 45.371553 0.810083 1.331049 0.021981 -0.020423 79662.000000 0 0 1
-29.691338 -32.988464 10.099588 45.517206 0.837952 1.347049 0.032856 -0.023527 -119680.000000 0 0 1
-29.855488 -34.375458 10.749588 46.782218 0.855653 1.338945 0.021069 -0.016263 -64729.000000 0 0 1
-31.202268 33.980389 10.842688 47.390002 -0.827993 1.339955 0.018300 -0.016232 -484121.000000 0 0 1
-31.171318 32.676132 11.418588 46.580735 -0.808963 1.323137 0.025834 -0.017681 289555.000000 0 0 1
-32.591078 32.340872 11.999188 47.456200 -0.781545 1.315174 0.021806 -0.011545 157793.000000 0 0 1
-33.642728 32.266452 11.120588 47.923111 -0.764520 1.336611 0.001247 -0.006209 -519814.000000 0 0 1
-34.114220 33.468412 10.486588 48.927326 -0.775843 1.354791 0.008283 -0.002435 -1577140.000000 0 0 1
-35.546191 33.307644 10.019688 49.732535 -0.752898 1.367936 0.004817 0.005166 -718525.000000 0 0 1
-35.707032 32.507982 8.925888 49.106339 -0.738536 1.388014 -0.006037 0.004058 -47682.500000 0 0 1
34.460928 32.324442 8.668588 48.037168 0.753419 1.389346 -0.011412 0.010659 -232343.000000 0 0 1
34.208488 31.693902 7.247388 47.193736 0.747260 1.416620 -0.005822 0.004477 105123.000000 0 0 1
34.629688 30.335812 7.181188 46.594487 0.719399 1.416059 -0.003731 -0.002871 147264.000000 0 0 1
34.215088 29.827552 5.909088 45.774146 0.716995 1.441343 0.011245 -0.003190 85013.300000 0 0 1
34.574898 28.349482 5.645088 45.066437 0.686784 1.445205 0.021922 -0.008098 -281097.000000 0 0 1
33.720898 27.405882 6.234288 43.898151 0.682453 1.428297 0.022409 -0.005160 -282030.000000 0 0 1
34.215138 26.887172 7.457388 44.149840 0.666039 1.401072 0.000276 -0.005686 -286647.000000 0 0 1
33.265858 25.904452 8.205488 42.953323 0.661624 1.378582 -0.000478 0.003043 -236428.000000 0 0 1
33.253858 24.672162 7.487388 42.078446 0.638319 1.391905 0.011694 -0.003376 99811.200000 0 0 1
32.089218 23.870952 7.614488 40.712660 0.639581 1.382658 0.006270 -0.004856 -543369.000000 0 0 1
32.103008 22.600592 6.735888 39.834182 0.613407 1.400882 0.019305 -0.003861 202401.000000 0 0 1
32.963438 21.511592 7.079088 39.993129 0.578193 1.392851 0.032795 -0.004931 55824.100000 0 0 1
34.344548 21.796592 6.975788 41.271068 0.565505 1.400957 0.042096 -0.006139 -449213.000000 0 0 1
35.148718 20.500792 7.023188 41.292130 0.528019 1.399880 0.033938 -0.004605 -314512.000000 0 0 1
35.016248 19.675492 5.883988 40.594137 0.511931 1.425337 0.055703 -0.015049 241756.000000 0 0 1
35.689102 18.472792 6.207988 40.663192 0.477631 1.417528 0.065096 -0.017478 -173284.000000 0 0 1
35.466988 17.295492 5.232188 39.804737 0.453719 1.438968 0.066086 -0.024273 -339228.000000 0 0 1
-35.403113 17.308992 3.990888 39.609454 -0.454738 1.469869 0.077675 -0.027640 104853.000000 0 0 1
35.604240 16.280592 3.188488 39.279588 0.428880 1.489533 0.071152 -0.033072 -663007.000000 0 0 1
-35.109328 15.953892 1.909788 38.611383 -0.426512 1.521314 0.073768 -0.018471 2407390.000000 0 0 1
-33.785998 15.337492 2.202388 37.169650 -0.426142 1.511509 0.083321 -0.029617 1762970.000000 0 0 1
-32.752608 16.168392 2.611288 36.619245 -0.458556 1.499427 0.093578 -0.030454 -1272430.000000 0 0 1
-31.446428 15.399892 2.807688 35.127164 -0.455388 1.490782 0.059539 -0.023243 -447964.000000 0 0 1
-31.348158 14.446492 3.885488 34.734784 -0.431832 1.458700 0.063294 -0.026497 101678.000000 0 0 1
-29.985958 14.243492 4.186488 33.459848 -0.443453 1.445348 0.050412 -0.024643 -55202.000000 0 0 1
-29.864098 13.587092 5.585788 33.281744 -0.426974 1.402165 0.059676 -0.029382 -233285.000000 0 0 1
-30.061898 12.201692 5.545788 32.914355 -0.385570 1.401497 0.052522 -0.022286 411020.000000 0 0 1
-29.689718 11.635392 6.806988 32.606699 -0.373504 1.360489 0.044989 -0.014209 -408183.000000 0 0 1
-29.828948 10.141692 6.907188 32.254137 -0.327734 1.354976 0.040749 -0.010491 -149050.000000 0 0 1
-31.146488 9.669492 7.020788 33.360070 -0.301018 1.358756 0.029393 -0.010047 -186967.000000 0 0 1
-31.136388 8.295492 7.002488 32.974607 -0.260376 1.356807 0.024757 -0.004523 95855.800000 0 0 1
-32.521808 7.669292 6.742988 34.087446 -0.231589 1.371669 0.019137 0.004228 -286629.000000 0 0 1
-33.405598 7.718492 7.786488 35.158762 -0.227069 1.347478 0.026998 0.007939 -131272.000000 0 0 1
-34.622748 7.007492 7.567288 36.126216 -0.199698 1.359765 0.036562 0.005541 678989.000000 0 0 1
-35.236949 6.322592 8.815488 36.869101 -0.177542 1.329355 0.037968 0.001903 -21404.100000 0 0 1
35.749957 7.153492 9.840388 37.763277 0.197490 1.307173 0.044619 0.006340 71533.700000 0 0 1
-34.879117 7.853092 10.672188 37.311117 -0.221459 1.280713 0.048999 -0.003716 -315042.000000 0 0 1
-35.491944 8.903192 11.684088 38.411754 -0.245780 1.261719 0.052703 -0.019573 -133191.000000 0 0 1
35.236348 8.270392 12.673588 38.348656 0.230539 1.233981 0.047332 -0.015686 859455.000000 0 0 1
34.545028 9.219192 13.515288 38.223232 0.260797 1.209392 0.061746 -0.025066 -316541.000000 0 0 1
33.742338 8.599192 14.634388 37.771111 0.249537 1.172933 0.050303 -0.024534 -141235.000000 0 0 1
32.364788 8.329392 14.382388 36.382844 0.251893 1.164394 0.034230 -0.019995 743692.000000 0 0 1
31.865978 7.735892 15.636788 36.328965 0.238156 1.125836 0.032877 -0.009798 574406.000000 0 0 1
30.358788 7.331792 15.700588 34.955967 0.236967 1.104979 0.005678 0.003223 95995.800000 0 0 1
29.517578 8.414192 16.096988 34.658319 0.277692 1.087785 -0.000921 0.001192 337103.000000 0 0 1
28.166248 7.976492 16.179588 33.447586 0.275967 1.065885 0.000469 0.010006 278337.000000 0 0 1
27.752188 7.426592 17.565388 33.673150 0.261477 1.022020 -0.000868 0.011687 -539991.000000 0 0 1
27.754968 8.386992 18.592988 34.443854 0.293455 1.000590 0.015641 0.003354 268235.000000 0 0 1
27.049628 8.031992 19.794188 34.467451 0.288643 0.959064 0.021853 0.011217 36876.500000 0 0 1
27.607858 6.884292 20.711488 35.193082 0.244376 0.941581 0.021536 0.013200 -104105.000000 0 0 1
26.885638 6.801692 21.912488 35.344839 0.247787 0.902101 0.009360 0.018870 47188.500000 0 0 1
27.366038 5.734592 22.762888 36.054607 0.206563 0.887510 0.020349 0.018389 -495643.000000 0 0 1
26.534128 5.521192 24.073688 36.250324 0.205152 0.844513 0.033418 0.016867 364019.000000 0 0 1
25.187298 5.142292 23.938388 35.126764 0.201394 0.821005 0.019468 0.020403 -377340.000000 0 0 1
24.315298 6.197792 23.586588 34.437966 0.249578 0.816329 0.021875 0.020379 257481.000000 0 0 1
22.824098 5.698592 23.748588 33.427666 0.244672 0.780663 0.027827 0.011480 872680.000000 0 0 1
22.362898 4.869592 22.698688 32.234183 0.214406 0.789528 0.009896 0.011408 1025670.000000 0 0 1
20.922798 5.009592 22.685088 31.264560 0.235008 0.758913 0.011297 0.002829 -134650.000000 0 0 1
20.249398 4.296692 21.525888 29.864084 0.209087 0.765847 0.017553 0.005274 -828312.000000 0 0 1
18.885498 4.480692 21.402388 28.892920 0.232949 0.736612 0.019527 -0.000054 -567613.000000 0 0 1
18.067998 3.852992 22.385788 29.024500 0.210102 0.689959 0.029640 -0.005735 84730.800000 0 0 1
16.567898 3.822192 21.918188 27.740068 0.226732 0.659779 0.044352 -0.008217 311844.000000 0 0 1
16.444898 3.022892 20.749888 26.648272 0.181790 0.678272 0.033709 -0.008235 -292368.000000 0 0 1
15.145598 2.860892 20.268088 25.463096 0.186693 0.650173 0.048312 -0.020799 -333204.000000 0 0 1
14.156698 1.878592 20.971988 25.372534 0.131929 0.597823 0.057708 -0.018432 -228900.000000 0 0 1
14.531898 0.526492 21.031088 25.568729 0.036214 0.604948 0.036076 -0.007140 383966.000000 0 0 1
13.658398 -0.138008 21.942188 25.846286 -0.010104 0.556802 0.038966 -0.008247 339329.000000 0 0 1
13.896998 -1.691608 21.928088 26.015940 -0.121129 0.568199 0.018666 -0.003385 -20204.500000 0 0 1
13.488898 -2.302608 20.770288 24.872821 -0.169074 0.582555 0.024394 0.002388 102418.000000 0 1 0
13.753098 -3.674908 20.906088 25.292631 -0.261106 0.597813 0.030730 0.012835 -78503.600000 0 0 1
13.575398 -4.379908 19.542888 24.195030 -0.312092 0.630516 0.041508 0.003757 -370750.000000 0 1 0
12.237798 -4.566308 19.164188 23.192261 -0.357132 0.598258 0.027572 0.003181 -238242.000000 0 1 0
12.011698 -4.961908 17.798688 22.038482 -0.391739 0.630694 0.032194 0.001441 1241120.000000 0 1 0
10.456398 -5.145608 17.568288 21.082179 -0.457309 0.585702 0.021243 0.002082 1333690.000000 0 1 0
9.927598 -6.282608 18.245388 21.700750 -0.564219 0.572088 0.018300 0.004581 557.386000 0 1 0
8.513398 -6.193408 18.267088 21.083708 -0.628938 0.522834 0.010953 -0.000387 501191.000000 0 1 0
7.717898 -7.053908 19.301788 21.951824 -0.740479 0.496449 0.006580 -0.001505 -13503.300000 0 1 0
7.622398 -8.449508 19.043788 22.184702 -0.836816 0.538615 0.000774 -0.006772 -124086.000000 0 1 0
8.670798 -9.195808 19.630588 23.347497 -0.814775 0.572036 0.018156 -0.013026 -111166.000000 0 1 0
8.656598 -10.609708 19.069388 23.476459 -0.886427 0.622751 0.032255 -0.019574 150714.000000 0 1 0
8.931398 -10.631208 17.672688 22.474794 -0.872071 0.665944 0.018339 -0.008859 -100744.000000 0 1 0
9.300998 -11.905508 17.257588 22.936303 -0.907603 0.719078 0.017095 -0.013264 129085.000000 0 1 0
9.535298 -11.885708 15.732888 21.902413 -0.894686 0.769415 0.022125 -0.014827 177178.000000 0 1 0
10.056098 -13.098008 15.222288 22.458873 -0.916027 0.826050 0.013858 -0.012642 -54190.900000 0 1 0
9.969398 -13.032108 13.820888 21.453244 -0.917772 0.870776 0.018996 -0.010738 -164743.000000 0 1 0
10.716398 -14.106108 12.986988 21.965548 -0.921117 0.938196 0.036427 -0.018369 362386.000000 0 1 0
12.110198 -13.947408 12.799588 22.472573 -0.855787 0.964820 0.022118 -0.016034 21976.800000 0 1 0
12.355998 -13.275908 11.602888 21.530151 -0.821272 1.001650 0.008492 -0.012583 -126155.000000 0 1 0
13.871798 -13.175408 11.253988 22.196180 -0.759657 1.039068 0.017072 -0.012776 254202.000000 0 1 0
14.231198 -14.440608 10.821888 22.981980 -0.792702 1.080502 0.012905 -0.003221 164790.000000 0 1 0
15.444298 -14.259508 10.088388 23.315992 -0.745532 1.123332 0.024391 -0.014544 297446.000000 0 1 0
16.155598 -15.586308 9.667488 24.441699 -0.767465 1.164149 0.013459 -0.016081 165046.000000 0 1 0
16.706698 -16.242508 10.840188 25.699076 -0.771311 1.135353 0.016501 -0.014023 560980.000000 0 0 1
15.750898 -17.018808 11.611188 25.933574 -0.824070 1.106573 0.032720 -0.006617 135629.000000 0 0 1
16.252398 -17.546508 12.924588 27.185756 -0.823668 1.075358 0.023581 -0.010885 -441446.000000 0 0 1
17.218498 -18.531908 12.563388 28.244415 -0.822120 1.109835 0.045779 -0.026591 -32219.600000 0 0 1
17.632298 -19.222508 13.727088 29.476019 -0.828519 1.086367 0.039509 -0.026755 -111596.000000 0 0 1
18.937998 -20.020308 13.550888 30.709722 -0.813172 1.113797 0.020105 -0.034936 -437190.000000 0 0 1
19.941898 -19.270808 12.977688 30.618029 -0.768286 1.133096 0.020799 -0.037464 -820574.000000 0 0 1
21.108598 -20.049608 12.748788 31.781933 -0.759674 1.158043 0.021941 -0.041266 386955.000000 0 0 1
22.034498 -19.371208 11.736888 31.599325 -0.721165 1.190249 0.030777 -0.034207 -588838.000000 0 0 1
21.683498 -19.700908 10.399688 31.087833 -0.737528 1.229694 0.021808 -0.031004 -98553.800000 0 0 1
20.511498 -19.240208 9.767288 29.770909 -0.753428 1.236524 0.025610 -0.029883 -77230.000000 0 0 1
20.039698 -17.779408 9.842688 28.540766 -0.725703 1.218702 0.070412 -0.018263 -608184.000000 0 0 1
20.768898 -16.927808 9.054988 28.282337 -0.683854 1.244894 0.062999 -0.024520 -432244.000000 0 0 1
20.131398 -15.680308 9.003788 27.059442 -0.661741 1.231588 0.051730 -0.025348 123585.000000 0 0 1
-34.548701 24.875956 8.007088 43.319042 -0.624040 1.384887 0.041543 -0.002644 -361626.000000 0 0 1
-33.669418 24.302856 8.929888 42.473538 -0.625213 1.358970 0.038288 -0.006227 -719886.000000 0 0 1
-32.624038 25.098256 9.292988 42.197274 -0.655750 1.348749 0.043026 -0.011891 -427146.000000 0 0 1
-31.418888 24.410756 10.042388 41.035120 -0.660524 1.323559 0.055176 -0.017361 583043.000000 0 0 1
-30.672508 23.561356 9.181988 39.752348 -0.655022 1.337712 0.063591 -0.015522 87884.900000 0 0 1
-30.248468 22.385656 9.795388 38.884920 -0.637109 1.316146 0.065860 -0.015562 -172180.000000 0 0 1
-29.365618 21.526956 8.852288 37.471487 -0.632575 1.332301 0.049629 -0.024121 -93649.500000 0 0 1
-30.105858 20.770256 7.947988 37.429089 -0.603920 1.356819 0.052836 -0.025509 114659.000000 0 0 1
-29.250418 19.906656 7.235788 36.113966 -0.597559 1.369071 0.053368 -0.028502 -10821.200000 0 0 1
-30.007658 18.968556 6.254588 36.046991 -0.563706 1.396402 0.056978 -0.022227 -234533.000000 0 0 1
-30.662788 17.906156 6.905488 36.173509 -0.528550 1.378718 0.066261 -0.023508 468733.000000 0 0 1
-31.641258 17.414656 5.985388 36.609621 -0.503133 1.406567 0.058090 -0.021578 49706.400000 0 0 1
-32.422538 16.174756 6.496788 36.811030 -0.462746 1.393377 0.067954 -0.027979 -592787.000000 0 0 1
-33.191728 16.543456 7.603288 37.857453 -0.462384 1.368581 0.059416 -0.025508 -148713.000000 0 0 1
-33.778628 15.374356 8.098488 37.986209 -0.427129 1.355952 0.066513 -0.024957 -725245.000000 0 0 1
-34.842005 15.602056 9.148388 39.256623 -0.421018 1.335593 0.061607 -0.027750 -115848.000000 0 0 1
35.598049 16.360056 8.651288 40.121282 0.430790 1.353461 0.070772 -0.028846 284267.000000 0 0 1
34.547188 16.446056 9.584288 39.444132 0.444302 1.325356 0.067909 -0.028291 -330792.000000 0 0 1
33.682648 17.682056 9.384988 39.182316 0.483416 1.328924 0.044072 -0.025599 -455229.000000 0 0 1
32.420028 17.356456 8.853888 37.824544 0.491536 1.334526 0.038931 -0.027823 28607.400000 0 0 1
31.758008 18.492156 8.252888 37.664852 0.527291 1.349890 0.023338 -0.030929 -448719.000000 0 0 1
30.324908 18.630556 8.722188 36.643884 0.550915 1.330464 0.005757 -0.011082 -1052680.000000 0 0 1
29.904568 19.961356 8.822188 37.021209 0.588581 1.330180 -0.004275 -0.004190 73995.200000 0 0 1
28.623608 20.261356 8.290688 36.035662 0.615978 1.338648 -0.018206 -0.004332 129912.000000 0 0 1
28.483528 20.276156 6.721088 35.603467 0.618638 1.380881 -0.028487 -0.005816 -654178.000000 0 0 1
28.517208 18.972956 6.085088 34.788396 0.587067 1.394975 -0.007601 -0.005782 217208.000000 0 0 1
28.169298 18.906856 4.694988 34.249401 0.591125 1.433281 0.000375 -0.009846 24147.100000 0 0 1
26.758078 19.386056 4.274688 33.317966 0.626976 1.442142 0.019205 -0.004645 -35534.500000 0 0 1
25.640798 18.601056 4.755988 32.032315 0.627602 1.421771 0.024752 0.001879 1779350.000000 0 0 1
24.350098 18.957556 4.226188 31.147662 0.661519 1.434694 0.026293 -0.000101 1071110.000000 0 0 1
23.757498 20.355256 4.634288 31.626441 0.708424 1.423735 0.028403 -0.005327 -925575.000000 0 0 1
24.383898 21.333156 3.876288 32.629796 0.718766 1.451719 0.027835 -0.006714 130297.000000 0 0 1
23.918598 22.600856 4.243188 33.179853 0.757079 1.442561 0.036138 -0.008715 -247722.000000 0 0 1
25.019998 23.639456 4.038288 34.657350 0.757034 1.454011 0.023834 -0.005155 -1094720.000000 0 0 1
26.123998 23.507656 4.826388 35.473471 0.732732 1.434317 0.012738 -0.007178 -1093400.000000 0 0 1
26.937748 24.659756 4.701788 36.821904 0.741278 1.442757 0.011600 0.000234 -409603.000000 0 0 1
28.267418 24.451456 5.520288 37.780870 0.713141 1.424158 -0.006760 -0.003526 436480.000000 0 0 1
29.017808 23.283256 5.098688 37.551828 0.676189 1.434598 -0.015487 -0.003451 379836.000000 0 0 1
29.442078 23.148556 3.752488 37.640042 0.666295 1.470936 -0.011549 -0.003915 -136309.000000 0 0 1
30.424328 24.220356 3.154888 39.015621 0.672349 1.489846 0.015689 -0.017423 -76555.000000 0 0 1
29.704328 25.425856 3.046088 39.218616 0.707947 1.493049 -0.001638 -0.012193 41057.400000 0 0 1
30.477398 26.431256 2.402988 40.413579 0.714419 1.511301 0.037426 -0.010878 -157902.000000 0 0 1
29.854968 27.846156 2.493488 40.901650 0.750598 1.509795 0.031115 -0.007911 819166.000000 0 0 1
28.634318 28.152856 1.831588 40.197788 0.776920 1.525216 0.064946 -0.009727 119824.000000 0 0 1
27.404648 27.711656 2.345388 39.044224 0.790968 1.510690 0.047874 -0.005768 -193164.000000 0 0 1
26.314298 28.713056 1.915388 38.994237 0.828963 1.521657 0.015376 0.001114 -299675.000000 0 0 1
26.360298 29.920856 2.678588 39.966207 0.848578 1.503725 0.022709 -0.003071 543511.000000 0 0 1
25.236498 30.740556 2.302988 39.839256 0.883410 1.512957 0.026350 0.004174 693731.000000 0 0 1
25.058798 32.148256 2.983888 40.870005 0.908696 1.497722 0.028126 0.001323 -179518.000000 0 0 1
24.726898 32.084256 4.326288 40.737399 0.914187 1.464396 0.032570 -0.017111 238006.000000 0 0 1
25.884398 32.104156 5.145588 41.559066 0.892248 1.446664 0.020920 -0.014860 -110100.000000 0 0 1
25.647598 31.833456 6.655788 41.418205 0.892601 1.409399 0.036225 -0.027259 -224455.000000 0 0 1
25.307898 30.531956 7.093788 40.286621 0.878681 1.393791 0.044195 -0.031404 312311.000000 0 0 1
26.226098 29.500456 6.718488 40.040269 0.844088 1.402206 0.022869 -0.024543 210467.000000 0 0 1
25.782498 28.046856 7.146788 38.761319 0.827439 1.385356 0.035096 -0.023712 286539.000000 0 0 1
24.611198 27.677956 6.432088 37.591915 0.843981 1.398847 0.038487 -0.032985 513043.000000 0 0 1
24.015198 26.379356 6.696288 36.296562 0.832277 1.385245 0.055354 -0.036694 -421233.000000 0 0 1
22.666398 26.142656 6.033688 35.122776 0.856500 1.398151 0.065933 -0.025094 -606149.000000 0 0 1
22.599298 26.014656 4.629588 34.769579 0.855538 1.437249 0.031408 -0.016121 46179.000000 0 0 1
22.848798 27.252856 3.931488 35.780474 0.873075 1.460696 0.030914 -0.011384 -264846.000000 0 0 1
22.882298 27.021456 2.403388 35.489927 0.868152 1.503024 0.038375 0.002608 847820.000000 0 0 1
23.965498 26.164356 1.890688 35.531582 0.829233 1.517560 0.021980 0.017115 999969.000000 0 0 1
23.815198 25.828356 0.552088 35.136483 0.825928 1.555083 0.028611 0.016032 -862780.000000 0 0 1
25.012798 25.125156 -0.008912 35.452977 0.787639 1.571048 0.037780 0.008186 -1642770.000000 0 0 1
26.150698 25.921656 -0.078312 36.821154 0.781000 1.572923 0.031337 0.010938 -716428.000000 0 0 1
27.220298 25.456056 -0.841012 37.278180 0.751919 1.593359 0.038909 0.017346 102760.000000 0 0 1
28.086528 24.246556 -0.372512 37.106432 0.712154 1.580836 0.030306 0.004494 -1062020.000000 0 0 1
27.327538 23.098456 -0.152912 35.782068 0.701727 1.575070 0.024772 0.004351 -50543.600000 0 0 1
27.969828 21.973256 0.454488 35.571643 0.665902 1.558019 0.022628 -0.001117 -61414.000000 0 0 1
26.859678 21.104856 1.096188 34.176876 0.665988 1.538717 0.016199 -0.010913 62143.900000 0 0 1
26.214898 20.293956 0.173088 33.152609 0.658771 1.565575 0.036000 -0.021427 -40624.700000 0 0 1
25.147398 19.653756 0.824288 31.927123 0.663384 1.544976 0.037616 -0.010431 -440736.000000 0 0 1
24.337098 18.729256 -0.091012 30.709732 0.655913 1.573760 0.043287 -0.015923 -644126.000000 0 0 1
23.253798 18.054356 0.489388 29.443817 0.660187 1.554174 0.040179 -0.012690 88300.400000 0 0 1
22.660298 17.267756 -0.514012 28.494362 0.651154 1.588836 0.046865 -0.026756 -338384.000000 0 0 1
21.276198 16.661456 -0.252112 27.024882 0.664353 1.580125 0.028871 -0.009296 -1170350.000000 0 0 1
20.833798 15.697056 -1.151612 26.110743 0.645700 1.614916 0.033912 -0.016305 7826.390000 0 0 1
19.546598 15.194056 -0.903912 24.773895 0.660761 1.607291 0.041141 -0.018597 21892.400000 0 1 0
18.336598 16.134856 -1.210012 24.454622 0.721613 1.620296 0.039093 -0.028724 -826551.000000 0 1 0
18.180898 17.267756 -0.374512 25.077095 0.759644 1.585731 0.032366 -0.016835 15452.100000 0 0 1
17.274498 18.124256 -1.060212 25.060347 0.809399 1.613115 0.029086 -0.021150 102284.000000 0 0 1
17.208298 19.581956 -0.446412 26.072548 0.849828 1.587919 0.027413 -0.005312 95983.200000 0 0 1
16.596898 19.764556 0.851888 25.822866 0.872295 1.537801 0.028624 -0.003765 279282.000000 0 0 1
16.771198 21.080756 1.368688 26.973035 0.898763 1.520032 0.040891 -0.004899 21622.300000 0 0 1
15.788798 22.189856 0.862688 27.247386 0.952372 1.539130 0.032521 -0.013725 -233718.000000 0 0 1
14.597198 22.135256 1.593488 26.562886 0.987803 1.510771 0.008377 -0.006647 -424610.000000 0 0 1
13.656698 23.091356 1.148588 26.852101 1.036709 1.528009 -0.003347 -0.007865 -782344.000000 0 0 1
12.303298 22.920456 1.768488 26.073856 1.078158 1.502918 -0.013088 -0.006132 -888340.000000 0 0 1
12.304098 23.370456 3.106288 26.593571 1.086189 1.453723 -0.015630 0.008059 130571.000000 0 0 1
10.980698 23.455256 3.599088 26.147240 1.132948 1.432711 -0.016101 0.008054 -86419.600000 0 0 1
10.999898 23.798556 5.118988 26.712788 1.137836 1.377973 -0.010929 0.002337 -90705.500000 0 0 1
11.667098 22.787956 5.843888 26.259534 1.097607 1.346374 0.009546 -0.018104 317669.000000 0 0 1
10.884298 22.414556 6.986288 25.878340 1.118743 1.297438 0.005290 -0.015115 -413427.000000 0 0 1
11.498498 21.288756 7.920788 25.459094 1.075570 1.254427 0.016351 -0.013935 -242263.000000 0 0 1
12.679998 21.599156 8.586688 26.477105 1.039946 1.240518 0.023832 -0.013157 -392177.000000 0 0 1
13.842698 21.581956 7.791388 26.797515 1.000490 1.275785 0.032863 -0.008012 -1843820.000000 0 0 1
15.090198 21.638756 8.586288 27.743002 0.961838 1.256136 0.041514 -0.011590 -1486560.000000 0 0 1
15.527598 20.392056 9.145988 27.213808 0.920005 1.228046 0.046955 -0.010947 850075.000000 0 0 1
16.833898 20.378056 9.740188 28.169425 0.880354 1.217735 0.046747 -0.013962 674278.000000 0 0 1
17.080898 21.291856 10.966288 29.416996 0.894699 1.188785 0.031377 -0.007168 -450858.000000 0 0 1
16.252698 21.012756 12.087688 29.185584 0.912444 1.143770 0.029026 -0.007692 152927.000000 0 0 1
16.497998 21.842056 13.229988 30.402169 0.923892 1.120574 0.033531 0.000358 -23083.100000 0 0 1
17.549198 21.184056 14.175188 30.946317 0.878967 1.094988 0.033534 -0.000627 1324630.000000 0 0 1
18.888298 21.202056 13.604788 31.486270 0.843048 1.123991 0.038244 -0.002514 484098.000000 0 0 1
19.772298 20.763056 14.596588 32.173104 0.809835 1.099896 0.026753 -0.004626 -261989.000000 0 0 1
21.179098 21.359556 14.426288 33.360195 0.789640 1.123599 0.030689 -0.009992 -31648.200000 0 0 1
21.906198 20.958856 13.284988 33.100544 0.763301 1.157803 0.045497 -0.008632 -943336.000000 0 0 1
23.138198 21.551656 13.176988 34.256139 0.749912 1.175956 0.041605 -0.010048 -1229610.000000 0 0 1
23.939698 21.132556 11.959888 34.098870 0.723198 1.212434 0.039672 -0.003092 -359857.000000 0 0 1
23.561098 21.636956 10.707888 33.733397 0.742853 1.247781 0.042186 -0.012074 25682.600000 0 0 1
24.444398 21.122756 9.727788 33.739135 0.712631 1.278321 0.049961 -0.021643 -263296.000000 0 0 1
24.345098 21.900656 8.411388 33.809377 0.732590 1.319367 0.041002 -0.020209 9641.870000 0 0 1
24.782398 23.253256 8.578088 35.049461 0.753575 1.323542 0.035746 -0.018107 1295840.000000 0 0 1
26.215098 23.405856 8.468788 36.149492 0.728844 1.334327 0.019069 -0.021248 541746.000000 0 0 1
26.711188 24.651756 9.247588 37.506193 0.745324 1.321666 0.024032 -0.021564 -768177.000000 0 0 1
27.938908 25.072356 8.747588 38.545115 0.731376 1.341858 0.008291 -0.013043 -340853.000000 0 0 1
28.465848 26.158856 9.472088 39.803400 0.743190 1.330519 0.016242 -0.009587 340125.000000 0 0 1
29.689698 26.867056 8.821688 41.001695 0.735531 1.353947 0.010723 -0.008475 -39743.100000 0 0 1
29.447028 27.637156 7.680788 41.108811 0.753703 1.382851 0.021341 -0.010080 -207990.000000 0 0 1
30.623808 28.121356 7.092088 42.177316 0.742825 1.401844 0.005911 -0.000205 -457982.000000 0 0 1
30.326958 29.130856 5.938688 42.468802 0.765284 1.430500 0.025151 0.001245 73009.200000 0 0 1
30.206888 30.449756 6.426988 43.369919 0.789402 1.422059 0.029251 -0.003143 110659.000000 0 0 1
29.944568 31.306456 5.306588 43.645517 0.807629 1.448911 0.045075 -0.006583 79703.100000 0 0 1
29.916198 32.808156 5.741288 44.769592 0.831471 1.442201 0.019047 0.004216 -301054.000000 0 0 1
28.715018 33.148456 6.357688 44.314699 0.856941 1.426833 0.026500 -0.003591 -564478.000000 0 0 1
28.765178 -34.293581 6.812388 45.275753 -0.872845 1.419758 0.016104 0.006083 291439.000000 0 0 1
27.409408 -33.634981 7.242288 43.989071 -0.887031 1.405405 0.045214 -0.011551 829986.000000 0 0 1
26.495558 -33.630781 6.125088 43.249980 -0.903516 1.428698 0.044561 -0.015744 -63537.700000 0 0 1
25.313598 -32.943181 6.462488 42.045156 -0.915622 1.416481 0.044857 -0.023540 -128285.000000 0 0 1
24.172698 -33.091181 5.448888 41.340488 -0.939901 1.438607 0.055123 -0.015885 -275408.000000 0 0 1
24.418698 -32.362681 4.251888 40.763887 -0.924401 1.466301 0.021314 0.006705 86317.500000 0 0 1
23.623998 -32.713081 3.137888 40.473267 -0.945354 1.493189 0.029317 0.000265 -33974.600000 0 0 1
24.284598 -32.099081 1.893688 40.294898 -0.923116 1.523783 0.031915 0.011300 101079.000000 0 0 1
24.447098 -30.680081 1.933488 39.276792 -0.897986 1.521549 0.039493 0.019396 -336159.000000 0 0 1
25.165098 -30.135181 0.913888 39.271446 -0.875032 1.547523 0.022921 0.021443 -899863.000000 0 0 1
25.334998 -28.607681 1.204688 38.232353 -0.845994 1.539281 0.017494 0.016578 -7473.120000 0 0 1
24.212398 -27.735881 1.218388 36.837532 -0.853121 1.537716 0.021878 0.022605 21536.400000 0 0 1
23.658798 -27.502981 -0.053612 36.278858 -0.860395 1.572274 0.036206 0.018454 -461270.000000 0 0 1
22.587398 -26.417681 -0.091212 34.757629 -0.863401 1.573421 0.020669 0.020884 -350026.000000 0 0 1
23.096098 -25.107381 0.039288 34.114687 -0.827099 1.569645 0.016386 0.016582 -86202.700000 0 0 1
23.200898 -24.519581 1.350488 33.783359 -0.813025 1.530811 -0.000761 0.025956 1358500.000000 0 0 1
21.791598 -24.170781 2.032088 32.607205 -0.837116 1.508436 0.001452 0.017991 1422470.000000 0 0 1
21.876898 -23.669881 3.311488 32.401048 -0.824744 1.468414 0.000487 0.013599 -393704.000000 0 0 1
20.603198 -23.466281 3.875888 31.467136 -0.850274 1.447310 0.014200 0.009353 -181585.000000 0 0 1
20.390998 -22.784381 5.257988 31.025268 -0.840775 1.400500 0.010732 -0.005424 -51769.900000 0 0 1
20.661998 -21.372581 5.294688 30.195018 -0.802301 1.394535 0.034769 -0.004768 638982.000000 0 0 1
19.514498 -20.631581 4.852788 28.810195 -0.813216 1.401550 0.021314 0.000475 166653.000000 0 0 1
19.399998 -19.142481 5.389588 27.782048 -0.778717 1.375563 0.026267 -0.006242 70224.500000 0 0 1
19.054498 -19.049881 6.759788 27.778888 -0.785277 1.324986 0.044838 -0.008161 1050650.000000 0 0 1
17.628198 -19.015181 7.024588 26.864015 -0.823231 1.306234 0.012568 0.004050 1276650.000000 0 0 1
18.601182 -26.340154 -12.226312 34.486090 -0.955927 1.933206 0.071556 -0.025778 -104912.000000 0 0 1
18.675082 -25.117294 -12.926912 33.863582 -0.931459 1.962469 0.074425 -0.021560 -803760.000000 0 0 1
17.482282 -24.567844 -13.376112 32.986808 -0.952333 1.988321 0.050052 -0.019144 -869420.000000 0 0 1
17.679382 -23.121644 -13.866912 32.240692 -0.918001 2.015406 0.045533 -0.032117 -96955.500000 0 0 1
17.951382 -22.128044 -12.855312 31.259583 -0.889233 1.994615 0.051493 -0.031235 -533457.000000 0 0 1
19.169482 -22.093344 -12.179312 31.684705 -0.856139 1.965344 0.047719 -0.028515 -912674.000000 0 0 1
19.169182 -22.762344 -10.801912 31.658540 -0.870881 1.918990 0.049056 -0.023973 409900.000000 0 0 1
18.295582 -22.241144 -9.752812 30.405824 -0.882426 1.897323 0.047506 -0.022706 1114040.000000 0 0 1
16.967782 -22.777644 -9.791412 30.043276 -0.930547 1.902771 0.050479 -0.009918 404164.000000 0 0 1
16.040782 -22.165144 -8.745212 28.724189 -0.944345 1.880162 0.032942 -0.004757 -736020.000000 0 0 1
15.951082 -20.754944 -8.833712 27.626784 -0.915532 1.896264 0.028382 -0.009446 421585.000000 0 0 1
15.217482 -20.161044 -7.714512 26.411232 -0.924233 1.867210 0.028831 -0.006485 -604635.000000 0 0 1
13.724082 -20.102444 -7.926112 25.598475 -0.971771 1.885603 0.028671 0.002845 -1128500.000000 0 0 1
13.125382 -21.356344 -7.960912 26.301050 -1.019718 1.878304 0.012579 0.000366 -1162650.000000 0 0 1
11.768882 -21.319344 -8.252512 25.712351 -1.066397 1.897534 0.016833 0.000606 -300600.000000 0 0 1
11.044082 -22.741944 -8.126012 26.555599 -1.118714 1.881785 0.009405 0.007603 61178.600000 0 0 1
10.957882 -23.101744 -6.755812 26.446300 -1.127894 1.829114 0.008121 0.008923 101584.000000 0 0 1
10.467382 -24.369244 -6.539312 27.316456 -1.165093 1.812535 0.001884 0.014044 -95655.300000 0 0 1
10.805782 -24.690444 -5.086312 27.427241 -1.158260 1.757324 0.009309 0.003905 -29183.700000 0 0 1
10.037882 -25.690774 -4.458312 27.940141 -1.198316 1.731048 0.023091 0.002094 -72810.400000 0 0 1
10.724982 -26.254774 -3.320412 28.554571 -1.182987 1.687343 0.012633 0.002285 -189704.000000 0 0 1
9.949082 -27.272464 -2.511412 29.138956 -1.220995 1.657091 0.033592 -0.006044 75029.000000 0 0 1
9.032582 -26.579274 -1.658812 28.121113 -1.243205 1.629819 0.016619 0.000182 -143041.000000 0 0 1
8.437482 -27.514494 -0.748912 28.788876 -1.273244 1.596813 0.030560 -0.009299 324267.000000 0 0 1
7.754582 -26.669814 0.384788 27.776980 -1.287836 1.556943 0.032659 -0.004323 100705.000000 0 0 1
6.485182 -26.145794 0.071488 26.938175 -1.327664 1.568143 0.030562 -0.011350 -248579.000000 0 0 1
5.902682 -25.569584 1.228388 26.270787 -1.343923 1.524021 0.028794 -0.002972 -752511.000000 0 0 1
4.526482 -24.985944 0.970888 25.411200 -1.391579 1.532580 0.039555 -0.008852 -169638.000000 0 0 1
3.503382 -25.912844 0.636888 26.156353 -1.436413 1.546445 0.051920 -0.010440 215922.000000 0 0 1
2.241582 -25.263094 0.630288 25.370177 -1.482299 1.545950 0.042127 -0.005734 1739050.000000 0 0 1
0.938682 -26.143544 0.278188 26.161870 -1.534907 1.560163 0.039873 -0.000982 1538110.000000 0 0 1
0.553382 -27.079604 1.257388 27.114428 -1.550364 1.524406 0.041837 0.000642 -296592.000000 0 0 1
1.109482 -28.372774 1.071588 28.414672 -1.531712 1.533075 0.035652 -0.012073 -336310.000000 0 0 1
0.387882 -29.501544 1.807688 29.559420 -1.557649 1.509604 0.047519 -0.002851 4880.740000 0 0 1
0.555582 -29.439414 3.221888 29.620404 -1.551927 1.461808 0.051064 -0.004138 -5141.430000 0 0 1
-0.079818 -30.554164 3.870588 30.798454 1.568184 1.444788 0.057047 -0.004822 -38802.500000 0 0 1
0.161482 -30.749484 5.383488 31.217604 -1.565545 1.397480 0.053614 -0.004593 -4246.550000 0 0 1
1.534282 -30.854534 5.720888 31.417907 -1.521111 1.387685 0.044949 0.000724 123413.000000 0 0 1
1.659582 -30.973154 7.091088 31.817826 -1.517266 1.346044 0.045645 0.000299 -1191640.000000 0 0 1
3.043882 -31.308844 7.518088 32.342396 -1.473880 1.336197 0.035324 0.000572 -1139720.000000 0 0 1
3.267582 -32.688074 7.279088 33.647770 -1.471165 1.352740 0.035757 -0.009723 -477261.000000 0 0 1
4.590182 -32.977574 7.638388 34.160433 -1.432494 1.345286 0.026217 -0.011522 -181178.000000 0 0 1
4.820582 34.266333 7.410488 35.388345 1.431034 1.359830 0.033315 -0.003583 -199271.000000 0 0 1
5.077282 33.885786 6.088288 34.800755 1.422068 1.394944 0.023278 -0.007120 -92961.900000 0 0 1
4.877082 32.474522 5.902388 33.364932 1.421729 1.392956 0.026316 -0.006668 -184715.000000 0 0 1
5.429982 31.921512 4.561688 32.699796 1.402305 1.430838 0.026347 -0.006515 460761.000000 0 0 1
6.850182 32.007452 4.543588 33.046122 1.359959 1.432867 0.024355 -0.008453 59883.700000 0 0 1
7.496282 30.796962 4.210588 31.974618 1.332030 1.438727 0.023865 -0.000412 65607.500000 0 0 1
9.001682 31.059232 4.004788 32.584421 1.288702 1.447580 -0.008817 0.005149 -97874.400000 0 0 1
9.823382 31.492512 5.035988 33.371220 1.268433 1.419309 -0.015942 -0.008855 -71100.500000 0 0 1
11.102682 31.871222 4.545988 34.054521 1.235583 1.436905 -0.009527 -0.000517 -112976.000000 0 0 1
12.131482 32.220422 5.582388 34.878239 1.210698 1.410051 -0.005028 -0.013572 -353190.000000 0 0 1
12.550882 31.127482 6.415288 34.170173 1.187527 1.381930 -0.007923 -0.012379 544841.000000 0 0 1
13.732982 31.437252 7.168888 35.046948 1.158942 1.364791 0.006809 -0.020944 360464.000000 0 0 1
14.371782 30.250392 7.967288 34.425456 1.127271 1.337243 0.009151 -0.016777 -476194.000000 0 0 1
13.772882 30.044712 9.228788 34.315413 1.140968 1.298504 0.005614 -0.015854 136403.000000 0 0 1
14.411582 28.990542 9.852588 33.841081 1.109461 1.275375 0.014281 -0.021477 -158997.000000 0 0 1
14.035582 28.867342 11.335688 34.041428 1.118242 1.231316 0.006121 -0.017139 -183372.000000 0 0 1
14.481082 30.007552 11.987088 35.409677 1.121181 1.225447 0.020112 -0.023298 203867.000000 0 0 1
14.043982 30.020622 13.303788 35.713610 1.133230 1.189081 0.022292 -0.016798 -510570.000000 0 0 1
14.681182 31.198602 14.028388 37.224798 1.130967 1.184397 0.040407 -0.019469 16478.900000 0 0 1
15.988082 30.880722 14.433288 37.650466 1.093060 1.177376 0.053667 -0.016520 84994.700000 0 0 1
16.851882 32.005422 14.657688 39.027949 1.086149 1.185786 0.049735 -0.012427 939008.000000 0 0 1
18.197782 31.536872 15.321088 39.502776 1.047436 1.172500 0.052773 -0.007060 271283.000000 0 0 1
19.116982 30.837482 14.568788 39.098068 1.015853 1.188964 0.037511 -0.009404 -384055.000000 0 0 1
19.212982 29.467502 14.882788 38.196463 0.993012 1.170558 0.025003 -0.000965 304430.000000 0 0 1
20.489782 28.656362 14.470888 38.084444 0.950063 1.181034 0.033093 -0.009947 678478.000000 0 0 1
21.729182 29.051912 15.068488 39.283970 0.928613 1.177128 0.032863 -0.008155 56676.100000 0 0 1
22.733182 28.435302 14.300488 39.113526 0.896378 1.196503 0.022807 -0.003067 -656953.000000 0 0 1
24.053282 28.600272 15.085588 40.300259 0.871541 1.187122 0.028472 -0.003281 -398060.000000 0 0 1
24.269082 27.601992 16.079988 40.117631 0.849564 1.158384 0.010131 -0.000380 79309.100000 0 0 1
25.193082 28.038362 17.050488 41.371008 0.838798 1.145999 0.007469 -0.001702 554783.000000 0 0 1
26.281082 27.023922 17.648888 41.622961 0.799333 1.132919 -0.008664 0.006828 606096.000000 0 0 1
25.853282 25.877592 18.360688 40.928680 0.785868 1.105596 0.007982 0.007441 -314950.000000 0 0 1
25.438782 26.135502 19.697888 41.451211 0.798906 1.075598 0.014449 0.010477 67728.600000 0 0 1
24.667682 24.902892 20.187788 40.449912 0.790143 1.048258 0.015812 0.003865 464136.000000 0 0 1
25.607482 23.876702 20.533788 40.589118 0.750436 1.040378 -0.001717 0.005051 268131.000000 0 0 1
24.897982 22.684792 20.558988 39.461137 0.738919 1.022782 0.004796 -0.002004 -109518.000000 0 0 1
25.768182 21.430192 20.778088 39.433251 0.693746 1.015826 -0.017379 0.001647 -247413.000000 0 0 1
25.112182 20.149392 20.564688 38.203744 0.676188 1.002390 -0.016158 0.015521 141712.000000 0 0 1
25.965282 19.010992 20.498688 38.155077 0.631992 1.003627 -0.019875 0.005352 -5646.040000 0 0 1
26.720882 18.534692 21.720988 39.106798 0.606445 0.981919 0.017064 0.018297 -364981.000000 0 0 1
25.834582 18.202892 22.749788 38.940002 0.613803 0.946869 -0.000099 0.023805 71166.900000 0 0 1
26.564582 17.824292 23.894888 39.929289 0.590983 0.929256 0.028608 0.014917 -35765.000000 0 0 1
25.580282 17.130592 24.825288 39.548741 0.590086 0.892184 0.008349 0.018997 -25160.800000 0 0 1
25.262682 15.795792 24.490788 38.568236 0.558788 0.882789 0.007396 0.011765 589034.000000 0 0 1
24.183382 15.285592 25.271888 38.172682 0.563667 0.847257 0.009040 0.015641 145527.000000 0 0 1
23.886282 13.833592 24.897488 37.172673 0.524943 0.836885 0.013333 0.015206 -366800.000000 0 0 1
22.667582 13.339692 25.392488 36.558790 0.531915 0.802980 0.007286 0.011535 58187.800000 0 0 1
22.167282 12.364892 24.503688 35.280443 0.508811 0.803016 0.011649 0.012855 161994.000000 0 0 1
20.837482 11.724392 24.997988 34.591349 0.512510 0.763145 0.007608 0.006231 31528.600000 0 0 1
19.746582 12.586592 24.905988 34.185641 0.567471 0.754592 0.004822 0.002143 -204663.000000 0 0 1
18.532282 11.873992 25.005188 33.312109 0.569823 0.721776 0.015712 0.002363 1132520.000000 0 0 1
17.167082 12.660392 25.137688 32.968130 0.635441 0.703652 0.014116 -0.005846 937058.000000 0 0 1
17.200682 13.356592 26.350788 34.185173 0.660256 0.690661 0.011483 0.006845 22565.100000 0 0 1
15.971682 13.982092 26.608488 34.038290 0.719074 0.673374 0.023449 0.001974 -366915.000000 0 0 1
15.699082 14.295892 28.144688 35.255598 0.738651 0.646322 0.009206 0.008786 -160585.000000 0 0 1
15.185682 13.204392 28.899888 35.215969 0.715723 0.608254 0.019137 0.006448 62699.900000 0 0 1
15.389382 13.327492 30.307388 36.510175 0.713721 0.591495 0.016612 0.001267 -30910.000000 0 0 1
16.828982 13.082592 30.853788 37.501001 0.660798 0.604572 0.014793 0.006837 273560.000000 0 0 1
17.671982 14.203792 30.591888 38.077687 0.677021 0.637801 0.017002 -0.000750 -1339510.000000 0 0 1
18.940982 13.766992 30.385788 38.361269 0.628511 0.656562 0.016735 0.009103 -1113400.000000 0 0 1
19.959382 14.916292 29.924288 38.940156 0.641792 0.694352 0.015129 0.006380 223124.000000 0 0 1
19.776682 15.583292 28.672088 38.158155 0.667358 0.720613 0.015617 0.007043 211443.000000 0 0 1
19.879182 14.778792 27.538688 37.040166 0.639283 0.732535 0.023701 0.008317 -519690.000000 0 0 1
19.786182 15.466192 26.148788 36.255416 0.663461 0.765208 0.003137 0.009646 -402956.000000 0 0 1
20.713882 16.489892 25.881588 37.024830 0.672346 0.796752 0.005517 0.018991 113974.000000 0 0 1
20.713982 16.957592 24.553488 36.324961 0.686013 0.828557 -0.005166 0.015623 -39972.700000 0 0 1
21.855482 17.973892 24.296088 37.296418 0.688250 0.861326 -0.002912 0.016757 -118894.000000 0 0 1
21.736282 18.652092 23.013188 36.741983 0.709183 0.893940 -0.002234 0.005862 84710.400000 0 0 1
22.822582 19.512792 22.696988 37.640040 0.707377 0.923538 0.001829 0.009196 -172780.000000 0 0 1
22.881682 20.860792 23.396288 38.808895 0.739231 0.923717 0.010858 0.001258 -185746.000000 0 0 1
21.893082 21.788792 23.001388 38.511328 0.783011 0.930712 0.004038 0.002002 78115.100000 0 0 1
22.195582 23.060592 23.526888 39.723409 0.804509 0.936926 0.009204 0.007138 67361.400000 0 0 1
21.245582 24.145142 23.040088 39.562714 0.849192 0.949157 -0.000825 -0.004948 78871.100000 0 0 1
21.746882 24.681062 21.805188 39.465782 0.848513 0.985425 0.008447 -0.002120 242238.000000 0 0 1
20.867382 25.732292 21.448488 39.466899 0.889419 0.996249 0.018390 -0.003612 -325807.000000 0 0 1
21.190482 26.547282 20.196988 39.518515 0.897144 1.034359 0.013169 -0.003082 -386335.000000 0 0 1
21.206982 25.742582 19.030288 38.400111 0.881705 1.052295 0.009996 -0.002766 201626.000000 0 0 1
21.420682 26.529402 17.858588 38.491349 0.891540 1.088332 0.012449 -0.009964 -190666.000000 0 0 1
21.477582 25.741732 16.566388 37.394766 0.875459 1.111839 0.010110 0.004466 -307256.000000 0 0 1
20.237082 25.415372 15.988088 36.209109 0.898344 1.113472 0.021450 0.002876 -472464.000000 0 0 1
20.352882 25.053222 14.636388 35.441891 0.888549 1.145085 0.024727 0.005430 245678.000000 0 0 1
19.012582 24.936092 13.840488 34.276028 0.919373 1.155135 0.023584 -0.000474 1235770.000000 0 0 1
18.096282 26.053112 13.769488 34.580903 0.963709 1.161262 0.027066 0.001716 394909.000000 0 0 1
17.380482 26.434792 14.921488 34.978997 0.989177 1.130084 0.027996 0.001615 -1026610.000000 0 0 1
15.864782 26.431512 14.641388 34.127502 1.030213 1.127389 0.029935 -0.003080 -359627.000000 0 0 1
15.302782 25.107372 14.520488 32.793290 1.023425 1.112090 0.028686 -0.004766 66366.800000 0 0 1
15.174082 24.338092 15.703288 32.698452 1.013298 1.069862 0.029068 0.001309 -7806.290000 0 0 1
14.101582 24.832462 16.735488 33.099582 1.054338 1.040707 0.056344 -0.014968 88113.600000 0 0 1
14.517982 26.059992 17.385788 34.527679 1.062520 1.043114 0.045409 -0.016124 566928.000000 0 0 1
13.504982 26.650872 18.209588 34.989179 1.101774 1.023436 0.053375 -0.018243 250944.000000 0 0 1
14.066282 27.883612 18.954588 36.532623 1.103584 1.025303 0.053389 -0.022054 -381089.000000 0 0 1
13.899082 29.068822 18.155388 36.983767 1.124786 1.057672 0.049525 -0.022869 -206900.000000 0 0 1
14.561382 30.087042 18.719388 38.310305 1.120051 1.060283 0.052654 -0.018992 -659918.000000 0 0 1
14.456082 31.356402 17.888688 38.887111 1.138812 1.092783 0.048777 -0.021539 897620.000000 0 0 1
13.126282 31.908762 17.968488 38.901606 1.180528 1.090665 0.034451 -0.020693 692000.000000 0 0 1
13.073182 33.201709 17.398888 39.698651 1.195689 1.117119 0.031222 -0.020968 -1151520.000000 0 0 1
11.750082 33.859206 17.120088 39.719110 1.236772 1.125163 0.026693 -0.021269 -1159930.000000 0 0 1
11.650382 -33.605494 16.471288 39.196479 -1.237081 1.137105 0.022981 -0.020446 -372861.000000 0 0 1
12.270282 -32.453664 16.992788 38.633599 -1.209323 1.115370 0.026990 -0.021581 -326364.000000 0 0 1
11.900982 -32.107644 18.411988 38.878471 -1.215837 1.077448 0.033718 -0.020711 -193172.000000 0 0 1
12.624882 -32.993354 19.280288 40.245231 -1.205336 1.071201 0.054629 -0.026039 424386.000000 0 0 1
12.406882 -32.887644 20.719488 40.802268 -1.210054 1.038164 0.058549 -0.028433 -270808.000000 0 0 1
13.525782 -33.587074 21.550088 42.136025 -1.187958 1.033936 0.070299 -0.026627 -359328.000000 0 0 1
14.742282 -32.964024 21.300388 41.924555 -1.150254 1.037860 0.067625 -0.026961 -1155450.000000 0 0 1
15.778182 -33.548874 22.005888 43.113073 -1.131186 1.035120 0.064295 -0.025361 -534865.000000 0 0 1
17.154082 -32.894284 21.887588 43.073925 -1.090104 1.037772 0.091614 -0.032705 -98925.300000 0 0 1
17.187182 -31.600004 22.376288 42.363401 -1.072650 1.014319 0.084879 -0.025090 -559816.000000 0 0 1
18.232882 -30.905214 21.785888 41.978508 -1.037791 1.025142 0.074263 -0.021238 -387051.000000 0 0 1
-4.722018 13.202456 18.537851 23.243369 -1.227312 0.647566 0.016527 0.012170 -280725.000000 0 1 0
-4.258418 14.429656 18.032451 23.484428 -1.283827 0.695323 0.014123 0.004154 -399473.000000 0 1 0
-5.319718 15.267656 17.698551 23.971637 -1.235520 0.740232 0.017159 0.002575 -381342.000000 0 1 0
-4.953418 16.721156 17.578051 24.761286 -1.282796 0.781439 0.024967 -0.000658 -81493.300000 0 1 0
-4.785618 17.357056 18.839651 26.059585 -1.301765 0.762741 0.023045 0.004672 79649.300000 0 0 1
-4.410218 18.689856 18.627951 26.753715 -1.339067 0.800601 0.020437 -0.000643 -217030.000000 0 0 1
-3.838018 19.363356 19.930851 28.051894 -1.375122 0.780589 0.020856 -0.004988 449428.000000 0 0 1
-4.845518 19.743856 20.871451 29.136169 -1.330134 0.772251 0.019955 -0.002079 463827.000000 0 0 1
-4.254218 20.463256 21.903751 30.275691 -1.365821 0.761971 0.022530 -0.000930 -264831.000000 0 0 1
-5.256718 20.552856 23.029251 31.311329 -1.320398 0.744403 0.012671 0.005510 -210542.000000 0 0 1
-5.205418 19.359256 23.840691 31.148928 -1.308124 0.699169 0.004306 0.000390 -283034.000000 0 0 1
-5.926918 19.551356 25.031631 32.310469 -1.276456 0.684521 -0.000787 -0.002019 -146033.000000 0 0 1
-5.196118 20.266856 26.198061 33.527354 -1.319817 0.673900 -0.008517 -0.007770 -836469.000000 0 0 1
-4.918318 21.656856 25.822771 34.059136 -1.347482 0.710287 0.009892 -0.007955 948859.000000 0 0 1
-3.754018 22.254056 26.473771 34.787874 -1.403680 0.705934 0.016947 -0.004405 1355160.000000 0 0 1
-2.390518 21.611856 26.095361 33.966965 -1.460633 0.694682 0.023700 0.003669 -647907.000000 0 0 1
-2.060118 20.400256 26.720921 33.681183 -1.470153 0.654506 0.036885 -0.002523 -878391.000000 0 0 1
-0.812818 19.969756 26.318861 33.047454 -1.530116 0.649484 0.046190 0.003290 -537773.000000 0 0 1
-0.170118 18.707556 26.958661 32.814188 -1.561703 0.606663 0.046728 0.005082 -190485.000000 0 0 1
-0.747318 17.514556 26.480201 31.757191 -1.528154 0.584781 0.050415 0.002460 -232273.000000 0 0 1
-0.111718 16.278756 26.769891 31.331093 -1.563934 0.546364 0.050150 0.002892 945880.000000 0 0 1
1.359882 15.964656 26.266001 30.767228 1.485821 0.547746 0.068577 -0.001765 956874.000000 0 0 1
1.497082 15.815956 24.868841 29.510082 1.476421 0.568474 0.057146 -0.003312 -337518.000000 0 0 1
0.993782 14.640856 24.330291 28.413118 1.503023 0.542724 0.065386 -0.007965 -450347.000000 0 0 1
1.322082 14.587856 22.851451 27.142996 1.480414 0.570018 0.072061 -0.016444 -1076670.000000 0 0 1
2.603582 14.178856 22.592551 26.800036 1.389195 0.567952 0.055596 -0.009251 -1347050.000000 0 0 1
2.720082 13.772956 21.277851 25.491961 1.375811 0.583229 0.044276 -0.014023 1067470.000000 0 0 1
4.243682 13.740656 20.877951 25.351593 1.271248 0.603180 0.032889 -0.010731 1145020.000000 0 0 1
4.840982 14.974656 20.523551 25.862938 1.258122 0.654174 0.033000 -0.006902 196452.000000 0 0 1
6.222382 14.955156 20.189851 25.884451 1.176514 0.676132 0.042253 -0.011190 311545.000000 0 0 1
6.609682 15.986156 19.117751 25.782425 1.178738 0.735488 0.040644 -0.015465 -120515.000000 0 0 1
6.233182 15.564856 17.820551 24.468128 1.189889 0.754934 0.034181 -0.018667 117641.000000 0 1 0
6.512482 16.539056 16.831251 24.479456 1.195677 0.812664 0.030397 -0.010606 -9130.370000 0 1 0
6.366382 15.858856 15.420251 23.017781 1.189049 0.836685 0.026647 -0.009989 271420.000000 0 1 0
7.343682 14.905556 14.995151 22.382131 1.113021 0.836640 0.017493 -0.015450 88514.000000 0 1 0
7.550882 13.719056 15.723751 22.191544 1.067651 0.783359 0.025096 -0.015493 -515245.000000 0 1 0
8.667782 12.794056 15.227151 21.695263 0.975341 0.792784 0.024111 -0.014482 -159484.000000 0 1 0
9.920282 13.467656 15.335551 22.692925 0.935926 0.828766 0.026974 -0.011309 -417381.000000 0 1 0
10.821482 12.647656 14.625951 22.158206 0.863053 0.849885 0.022498 -0.008280 -350270.000000 0 1 0
12.184282 13.357156 14.475451 23.160505 0.831286 0.895657 0.036459 -0.005708 -1155110.000000 0 1 0
13.018182 13.093856 15.559751 24.145972 0.788296 0.870553 0.042411 -0.013620 449780.000000 0 1 0
14.309982 13.709756 15.576651 25.206448 0.763980 0.904647 0.032582 -0.005222 493485.000000 0 0 1
15.285582 13.233556 14.489751 24.874261 0.713569 0.948971 0.017968 -0.008542 -1734440.000000 0 1 0
16.531482 13.835156 14.693351 26.088234 0.696838 0.972522 0.027394 -0.015808 271256.000000 0 0 1
17.525082 13.109656 13.944751 25.950870 0.642253 1.003502 0.036071 -0.015583 348315.000000 0 0 1
18.906582 13.768356 13.743451 27.127641 0.629423 1.039534 0.032469 -0.014258 396845.000000 0 0 1
19.725582 13.646456 14.900851 28.237558 0.605212 1.014910 0.015689 -0.009129 -65789.000000 0 0 1
21.062082 14.039056 14.715951 29.279098 0.587926 1.044182 0.023879 -0.018232 87983.500000 0 0 1
21.921782 13.796656 16.003351 30.446994 0.561727 1.017360 0.028487 -0.004153 119308.000000 0 0 1
22.276182 12.478956 16.246651 30.263943 0.510635 1.004119 0.025125 0.000150 250371.000000 0 0 1
23.206282 12.332356 17.319151 31.473346 0.488469 0.988097 0.011320 0.000261 104040.000000 0 0 1
23.663082 10.859856 17.441151 31.338022 0.430261 0.980570 0.016992 0.015028 -789920.000000 0 0 1
22.718882 9.994956 18.007451 30.664556 0.414457 0.943152 0.001701 0.014242 3341.760000 0 0 1
22.879982 8.601356 17.777951 30.224699 0.359589 0.941974 -0.002580 0.019619 15429.500000 0 0 1
21.554982 7.854356 18.092051 29.216955 0.349434 0.903033 0.021514 0.012051 143798.000000 0 0 1
21.554982 6.503456 17.806351 28.705022 0.293029 0.901643 0.029208 0.012938 830759.000000 0 0 1
20.334882 5.924856 18.316951 28.002179 0.283515 0.857770 0.018562 0.008630 632287.000000 0 0 1
19.991182 4.525756 17.871951 27.194419 0.222635 0.853709 0.044299 0.002873 -654992.000000 0 0 1
19.635382 4.372056 16.512351 26.025388 0.219088 0.883473 0.060425 -0.010657 383405.000000 0 0 1
19.698382 3.034256 16.033651 25.579502 0.152835 0.893336 0.056654 -0.010966 -104965.000000 0 0 1
18.668482 2.042856 16.648051 25.096674 0.108994 0.845500 0.080380 -0.008034 -82687.500000 0 0 1
18.913482 1.589156 17.981951 26.145664 0.083825 0.812397 0.061718 -0.006403 -527003.000000 0 0 1
17.731782 1.070956 18.473251 25.628578 0.060324 0.765831 0.055764 -0.005988 -769721.000000 0 0 1
18.004982 0.154156 19.691051 26.682215 0.008562 0.740718 0.043724 -0.008294 -54826.700000 0 0 1
18.139482 -1.176144 19.326451 26.531789 -0.064748 0.754774 0.043083 -0.008526 182984.000000 0 0 1
17.067382 -2.021844 19.717051 26.156174 -0.117913 0.716940 0.036563 0.001579 19127.000000 0 0 1
17.311682 -3.460844 19.146051 26.043099 -0.197313 0.744882 0.023911 -0.000822 -92770.500000 0 0 1
17.011682 -3.525144 17.753751 24.839880 -0.204327 0.774562 0.029971 -0.008556 355717.000000 0 1 0
17.120882 -4.832544 17.185151 24.734742 -0.275103 0.802685 0.055412 -0.011863 -206157.000000 0 1 0
16.816082 -4.837744 15.673551 23.491372 -0.280121 0.840347 0.052215 -0.020397 -434611.000000 0 1 0
15.448482 -4.800844 15.325351 22.283852 -0.301303 0.812434 0.041859 -0.018450 -52795.800000 0 1 0
15.192482 -4.709844 13.974751 21.172808 -0.300616 0.849934 0.047042 -0.018439 142139.000000 0 1 0
15.591782 -3.408144 13.183851 20.701039 -0.215201 0.880366 0.045615 -0.018189 133844.000000 0 1 0
14.786182 -2.294744 13.522051 20.167867 -0.153967 0.835948 0.040726 -0.010866 371761.000000 0 1 0
15.445082 -1.150544 13.028551 20.239008 -0.074355 0.871428 0.042814 -0.010629 -25443.000000 0 1 0
14.541082 0.096856 13.061051 19.545933 0.006661 0.838978 0.044732 -0.006887 -388687.000000 0 1 0
15.134482 1.368656 12.753951 19.839078 0.090188 0.872557 0.052205 -0.002399 312669.000000 0 1 0
16.007982 1.911056 13.737051 21.180514 0.118819 0.865092 0.062151 -0.007692 157860.000000 0 1 0
16.391582 3.382056 13.333051 21.398423 0.203473 0.898115 0.066207 -0.009173 250168.000000 0 1 0
15.250782 4.226656 13.459051 20.774913 0.270358 0.866036 0.060735 -0.010144 953676.000000 0 1 0
15.325982 5.253956 12.464951 20.441741 0.330258 0.915014 0.064353 -0.024755 -207344.000000 0 1 0
14.327982 6.356456 12.773551 20.220267 0.417552 0.887026 0.063374 -0.022409 -373259.000000 0 1 0
14.454582 7.443856 11.863451 20.126783 0.475562 0.940436 0.040312 -0.033738 548822.000000 0 1 0
13.493982 8.478156 12.109051 20.014889 0.560963 0.921028 0.030158 -0.025411 3905.940000 0 1 0
13.754682 9.361356 13.429351 21.381621 0.597583 0.891714 0.048687 -0.026230 -77260.000000 0 1 0
13.592382 8.714556 14.665351 21.812126 0.570118 0.833419 0.063093 -0.027679 394573.000000 0 1 0
14.079082 9.519856 15.740351 23.164776 0.594553 0.823722 0.066728 -0.029568 -115352.000000 0 1 0
13.574382 8.962856 17.097751 23.599358 0.583566 0.760487 0.062884 -0.029945 1345430.000000 0 1 0
12.215082 9.460256 17.309751 23.201985 0.658981 0.728692 0.059826 -0.028312 1308660.000000 0 1 0
11.437282 8.857956 18.326151 23.347860 0.658986 0.668233 0.055764 -0.018467 157527.000000 0 1 0
12.008682 8.913856 19.774451 24.793026 0.638545 0.647522 0.062147 -0.023964 195450.000000 0 1 0
13.289182 8.272156 19.905351 25.322991 0.556780 0.666390 0.059419 -0.025656 454502.000000 0 0 1
13.817782 8.549056 21.186051 26.699554 0.554056 0.654260 0.051650 -0.010429 -384760.000000 0 0 1
15.318482 8.234956 21.167651 27.395982 0.493260 0.687783 0.048329 -0.007119 -160859.000000 0 0 1
16.074582 9.245956 20.501851 27.644272 0.521978 0.735298 0.053888 -0.007314 -195255.000000 0 0 1
17.240682 8.721056 19.932451 27.759692 0.468310 0.769820 0.048811 -0.005487 -298226.000000 0 0 1
18.054782 9.794256 19.183751 28.105495 0.497047 0.819533 0.043359 -0.004227 -4569.210000 0 0 1
18.789082 10.676656 20.033251 29.467808 0.516737 0.823259 0.026047 -0.003281 -68917.400000 0 0 1
19.705182 11.415656 19.297651 29.849802 0.525077 0.867819 0.026099 -0.002791 -346744.000000 0 0 1
20.563082 12.283356 20.236851 31.356838 0.538469 0.869285 0.012857 0.002034 -480224.000000 0 0 1
19.834882 13.398856 20.773951 31.693988 0.594107 0.856013 0.011392 0.001032 425870.000000 0 0 1
20.553682 14.294756 21.601651 33.066980 0.607689 0.858902 -0.005006 0.010792 -170743.000000 0 0 1
21.837982 15.070956 21.159051 33.937245 0.604068 0.897616 -0.011745 0.010405 567906.000000 0 0 1
22.861282 14.086456 20.994951 34.085985 0.552225 0.907217 -0.015932 0.013030 -699964.000000 0 0 1
24.112482 14.675456 21.081551 35.230847 0.546737 0.929315 -0.016839 0.011847 -359306.000000 0 0 1
25.374682 13.777456 20.979751 35.690933 0.497423 0.942438 -0.020309 0.001151 308461.000000 0 0 1
25.610082 13.196656 19.707051 34.905528 0.475806 0.970869 -0.021966 -0.004463 -80628.100000 0 0 1
26.801782 12.464856 19.794351 35.574210 0.435320 0.980720 0.003741 -0.016277 -256949.000000 0 0 1
27.083982 11.774556 18.422851 34.807810 0.410094 1.013052 0.019308 -0.011872 -648469.000000 0 0 1
27.649782 12.553156 17.416951 35.006318 0.426180 1.050039 0.021803 -0.018525 246692.000000 0 0 1
28.011882 12.005156 16.172551 34.501314 0.404894 1.082919 0.025297 -0.021065 163703.000000 0 0 1
26.796182 11.629556 15.265751 32.959446 0.409469 1.089230 0.020220 -0.020881 399726.000000 0 0 1
26.205782 12.729156 14.589351 32.582565 0.452173 1.106532 0.035404 -0.018709 -58861.000000 0 0 1
25.136982 12.375456 13.767251 31.217895 0.457485 1.114078 0.032715 -0.013651 -42406.900000 0 0 1
24.561782 13.485456 12.833851 30.819578 0.502108 1.141294 0.033243 -0.009069 -50726.800000 0 0 1
24.146782 14.631056 13.501351 31.295708 0.544762 1.124739 0.027878 -0.016605 139356.000000 0 0 1
23.985882 15.747756 12.687551 31.373369 0.580961 1.154468 0.026461 -0.013459 -767251.000000 0 0 1
22.991982 16.767656 13.189351 31.364701 0.630110 1.136783 0.022082 -0.015979 -213278.000000 0 0 1
21.797882 16.763556 12.417951 30.172337 0.655579 1.146623 0.033175 -0.021761 547422.000000 0 0 1
20.927382 17.848456 12.744251 30.314000 0.706161 1.136901 0.031090 -0.020854 -401142.000000 0 0 1
19.917482 18.309356 11.701851 29.476633 0.743355 1.162564 0.045124 -0.003908 840772.000000 0 0 1
18.773482 17.502256 11.370251 28.072320 0.750369 1.153780 0.038148 -0.003215 1062650.000000 0 0 1
17.787382 17.267656 12.387451 27.713026 0.770573 1.107398 0.024071 0.006236 619161.000000 0 0 1
16.512782 16.534356 11.779151 26.168784 0.786051 1.103894 0.024905 0.005536 619661.000000 0 0 1
16.617782 15.175956 11.478951 25.263147 0.740080 1.099125 0.036904 -0.004568 -574980.000000 0 0 1
15.496082 14.768156 10.797551 23.975280 0.761350 1.103626 0.038522 -0.017001 -577066.000000 0 1 0
15.754582 13.414556 10.106551 23.028233 0.705347 1.116448 0.050204 -0.020808 -60179.300000 0 1 0
15.721082 12.314556 10.957651 22.778736 0.664484 1.068947 0.048118 -0.015569 184020.000000 0 1 0
16.387882 11.283456 10.341551 22.423798 0.602983 1.091465 0.058236 -0.012859 -369597.000000 0 1 0
16.721682 10.022756 11.143551 22.455489 0.539969 1.051522 0.054980 -0.023583 -959729.000000 0 1 0
17.524082 9.145656 10.368151 22.321178 0.481006 1.087728 0.068943 -0.019069 363485.000000 0 1 0
18.176082 8.117956 11.071751 22.778385 0.420047 1.063216 0.082158 -0.015862 524329.000000 0 1 0
19.427182 8.566256 11.897951 24.338393 0.415296 1.060019 0.067876 -0.020899 -517403.000000 0 1 0
19.156582 9.514156 12.873851 24.964571 0.460966 1.028990 0.055991 -0.023790 11215.500000 0 1 0
20.256982 9.510456 13.750851 26.265566 0.438943 1.019806 0.054767 -0.016034 -609557.000000 0 0 1
19.788482 9.683756 15.255551 26.797219 0.455102 0.965147 0.040499 -0.007641 204331.000000 0 0 1
19.101482 8.583456 15.820351 26.245491 0.422322 0.923811 0.047664 -0.010656 755415.000000 0 0 1
17.781582 8.328356 15.346651 24.921193 0.438025 0.907386 0.060434 -0.019432 13426.700000 0 1 0
17.178982 6.975456 15.891351 24.419448 0.385707 0.862203 0.059612 -0.016329 -240493.000000 0 1 0
16.619082 6.995956 17.211351 24.927251 0.398443 0.808667 0.068894 -0.014011 195870.000000 0 1 0
16.091482 5.789856 17.683151 24.599838 0.345386 0.768676 0.076582 -0.002174 -163381.000000 0 1 0
14.630382 5.605756 17.239751 23.295527 0.365904 0.737658 0.074962 -0.022046 -468917.000000 0 1 0
14.030882 4.356756 17.619751 22.941285 0.301073 0.695026 0.073978 -0.015628 348505.000000 0 1 0
13.679382 3.611156 16.414651 21.670410 0.258097 0.711370 0.077805 -0.020067 -73741.300000 0 1 0
13.274982 2.158856 16.740051 21.473591 0.161215 0.676826 0.055583 -0.012485 241526.000000 0 1 0
14.390382 1.366656 17.170951 22.445320 0.094686 0.699736 0.044202 -0.004339 531970.000000 0 1 0
14.251182 -0.061844 17.062551 22.231299 -0.004340 0.695862 0.042521 0.000985 -78777.700000 0 1 0
13.195182 -0.722344 17.967051 22.303576 -0.054688 0.634163 0.036313 -0.004013 907539.000000 0 1 0
11.801082 -0.477744 17.726551 21.300807 -0.040461 0.587731 0.030588 0.000762 707144.000000 0 1 0
11.043682 -1.478944 18.408351 21.517843 -0.133126 0.544295 0.025407 -0.003535 111439.000000 0 1 0
-25.860388 14.346456 28.933171 41.372803 -0.506495 0.796339 0.037119 0.001059 -588623.000000 0 0 1
-24.850618 14.306456 29.880221 41.413228 -0.522359 0.764810 0.036008 0.004137 -51951.800000 0 0 1
-24.240318 12.988656 29.894731 40.620107 -0.491898 0.743714 0.034535 0.005534 103419.000000 0 0 1
-23.002118 12.790556 30.775371 40.494681 -0.507484 0.707506 0.026427 0.004296 -179383.000000 0 0 1
-23.377818 12.994256 32.076911 41.764833 -0.507314 0.695027 0.027971 -0.004964 250726.000000 0 0 1
-22.277418 12.895756 32.974118 41.831523 -0.524739 0.662820 0.018625 -0.002822 40214.600000 0 0 1
-22.652818 13.106656 -34.309699 43.151941 -0.524527 2.489953 0.013954 0.006402 -124275.000000 0 0 1
-23.373818 12.048756 -33.698182 42.744302 -0.475955 2.478946 0.026023 0.001105 -128494.000000 0 0 1
-24.032018 12.515856 -32.592482 42.384601 -0.480148 2.448025 0.009968 0.007881 -595127.000000 0 0 1
-24.863218 11.493756 -31.801532 41.971698 -0.433018 2.430562 0.004938 0.000444 -104202.000000 0 0 1
-24.215218 10.462556 -31.006232 40.709069 -0.407840 2.436658 0.018891 -0.006226 303870.000000 0 0 1
-23.587418 9.447956 -31.776012 40.685932 -0.380981 2.467074 0.021169 -0.008881 -4916.910000 0 0 1
-22.824518 8.404056 -30.901632 39.325534 -0.352798 2.474770 0.020523 -0.005294 -42760.000000 0 0 1
-23.590118 7.567656 -30.038772 38.937012 -0.310426 2.451946 0.019826 -0.004895 1126.940000 0 0 1
-22.755418 6.787956 -29.236832 37.665339 -0.289897 2.459454 0.012383 -0.001278 -379013.000000 0 0 1
-23.464718 5.831656 -28.269282 37.198837 -0.243593 2.434034 0.013807 0.000969 -293117.000000 0 0 1
-24.010218 4.699256 -28.895872 37.862184 -0.193276 2.439025 0.021425 -0.005581 -17074.400000 0 0 1
-24.273618 3.625756 -28.023502 37.251460 -0.148274 2.422311 0.030757 0.004462 -223264.000000 0 0 1
-25.126368 2.488456 -28.697992 38.224358 -0.098716 2.420035 0.029813 0.004446 183259.000000 0 0 1
-26.460178 2.646156 -29.096492 39.417623 -0.099674 2.401134 0.045644 -0.010547 -19551.000000 0 0 1
-26.656528 3.693556 -30.062712 40.348228 -0.137684 2.411453 0.046824 -0.008418 -712887.000000 0 0 1
-28.094208 3.664656 -30.625582 41.720984 -0.129709 2.395073 0.068661 -0.013190 -906916.000000 0 0 1
-29.110898 3.682356 -29.665442 41.725802 -0.125826 2.361661 0.060192 -0.014892 439793.000000 0 0 1
-30.410268 3.575056 -30.265662 43.053173 -0.117024 2.350380 0.066173 -0.020065 926968.000000 0 0 1
-31.002738 4.827656 -30.993462 44.102956 -0.154476 2.350055 0.070220 -0.023141 -604285.000000 0 0 1
-30.365408 5.080756 -32.264672 44.596874 -0.165785 2.379617 0.074235 -0.018648 271422.000000 0 0 1
-30.537448 6.421456 -32.697452 45.198387 -0.207262 2.379541 0.079678 -0.015789 -321602.000000 0 0 1
-29.978168 7.603856 -31.852212 44.396763 -0.248408 2.370923 0.043982 -0.009949 440726.000000 0 0 1
-28.558688 7.809756 -31.788132 43.440491 -0.266937 2.391701 0.046200 -0.011053 1204150.000000 0 0 1
-27.994728 7.487756 -30.461342 42.043604 -0.261352 2.381131 0.028058 -0.016440 -225022.000000 0 0 1
-28.116158 8.517556 -29.312332 41.500360 -0.294153 2.355076 0.009906 -0.007511 -1278950.000000 0 0 1
-29.358698 8.684756 -28.768542 42.011750 -0.287613 2.325089 0.014066 -0.008041 -857319.000000 0 0 1
-29.849578 7.636256 -27.948842 41.598648 -0.250453 2.307526 0.020757 0.004312 -473187.000000 0 0 1
-31.148698 7.985056 -27.215852 42.127249 -0.250949 2.273180 0.003983 -0.000375 -384413.000000 0 0 1
-30.982228 8.845156 -26.100662 41.465405 -0.278093 2.251650 -0.011585 0.003588 -21262.800000 0 0 1
-30.632258 8.156256 -24.943012 40.336257 -0.260226 2.237472 -0.007884 0.008925 -161494.000000 0 0 1
-29.965738 9.064656 -23.874712 39.371504 -0.293749 2.222316 -0.005767 0.001243 -173842.000000 0 0 1
-30.773468 10.060756 -23.225612 39.845379 -0.315976 2.193081 -0.001372 0.000005 583004.000000 0 0 1
-29.985778 10.909156 -22.366112 38.966646 -0.348925 2.182155 -0.006611 -0.002183 138103.000000 0 0 1
-30.821748 11.845056 -21.450212 39.375082 -0.366906 2.146907 -0.004170 0.001726 -46380.600000 0 0 1
-31.284438 11.200456 -20.258612 38.917575 -0.343802 2.118293 -0.011588 -0.001158 917139.000000 0 0 1
-32.242728 11.940556 -19.473712 39.514502 -0.354673 2.086129 -0.007532 0.001668 337162.000000 0 0 1
-31.593538 12.904456 -18.484912 38.811965 -0.387772 2.067202 -0.012741 0.008754 -314161.000000 0 0 1
-30.894048 12.338856 -17.407012 37.545887 -0.379983 2.052872 0.008323 0.012557 507139.000000 0 0 1
-31.690468 12.025556 -16.250812 37.589741 -0.362683 2.017861 0.006100 0.009188 -131949.000000 0 0 1
-32.084438 13.162356 -15.269512 37.892173 -0.389304 1.985559 0.000071 0.005916 -130756.000000 0 0 1
-32.792858 14.171556 -15.966212 39.129586 -0.407914 1.991096 0.001769 0.002664 931422.000000 0 0 1
-33.913668 14.701156 -15.231212 39.978128 -0.409038 1.961662 -0.003219 0.001353 585649.000000 0 0 1
-34.515942 16.027456 -15.758512 41.189323 -0.434723 1.963391 -0.009107 0.003002 142910.000000 0 0 1
-35.289492 15.826156 -16.934912 42.220927 -0.421578 1.983516 -0.007544 -0.004735 675869.000000 0 0 1
35.465408 16.966856 -17.323612 42.962505 0.446223 1.985836 -0.006827 -0.007274 -166154.000000 0 0 1
35.013928 16.868756 -18.797312 43.172549 0.448960 2.021278 -0.013208 -0.004534 -166030.000000 0 0 1
34.045338 15.931356 -19.188212 42.202851 0.437677 2.042794 0.007804 -0.006934 473694.000000 0 0 1
32.719998 16.411956 -18.986612 41.236416 0.464917 2.049279 0.030930 -0.017139 -1232230.000000 0 0 1
31.683378 15.397856 -19.126412 40.084287 0.452378 2.068211 0.043200 -0.024074 -1343900.000000 0 0 1
31.393738 15.092356 -20.487212 40.411283 0.448125 2.102459 0.040794 -0.016444 690497.000000 0 0 1
30.312938 14.197156 -20.783612 39.400406 0.438011 2.126448 0.033273 -0.014575 307790.000000 0 0 1
30.582408 12.684156 -20.450312 38.915122 0.393160 2.124112 0.032055 0.002512 26996.900000 0 0 1
30.826388 12.416956 -19.101412 38.331592 0.382920 2.092457 0.030934 0.000672 -75307.400000 0 0 1
31.692348 11.339556 -18.922612 38.614190 0.343608 2.082935 0.033744 0.008116 -265104.000000 0 0 1
31.914798 11.009256 -17.382512 37.972487 0.332176 2.046277 0.027152 0.009229 -305584.000000 0 0 1
30.860428 10.354156 -16.728512 36.598055 0.323713 2.045514 0.035364 0.003742 -170482.000000 0 0 1
31.185018 9.914756 -15.427712 36.177645 0.307827 2.011353 0.016294 0.002319 -154497.000000 0 0 1
30.850518 10.962056 -14.359112 35.750597 0.341414 1.984111 0.019754 -0.002233 -381668.000000 0 0 1
29.471008 11.124956 -14.169212 34.540867 0.360950 1.993487 0.022857 0.002445 -165641.000000 0 0 1
29.198878 12.128156 -13.240012 34.277756 0.393680 1.967366 0.014216 -0.002707 134841.000000 0 0 1
27.678268 12.392756 -13.094012 33.032106 0.420976 1.978391 0.033312 0.000608 -2858.760000 0 0 1
26.945578 11.308956 -12.522512 31.792608 0.397370 1.975647 0.015760 -0.001256 135348.000000 0 0 1
25.544098 11.485356 -12.642912 30.728774 0.422545 1.994825 0.011057 -0.000299 192155.000000 0 0 1
25.019898 10.789156 -13.965712 30.617679 0.407130 2.044440 0.010393 -0.006083 -1047240.000000 0 0 1
25.265198 9.355056 -14.011412 30.367202 0.354621 2.050368 0.013109 -0.006286 1611230.000000 0 0 1
26.548658 9.002256 -14.618212 31.615881 0.326918 2.051462 0.023174 -0.010854 1364330.000000 0 0 1
27.287478 7.737056 -13.996212 31.628507 0.276287 2.029202 0.026110 -0.009060 27069.200000 0 0 1
26.702958 6.466956 -14.201212 30.928044 0.237606 2.047856 0.031989 -0.019162 80954.100000 0 0 1
26.037498 6.001656 -13.069912 29.745483 0.226544 2.025717 0.035489 -0.019048 -241968.000000 0 0 1
25.483398 4.566656 -13.360412 29.133460 0.177319 2.047208 0.036012 -0.014110 -34527.800000 0 0 1
24.794998 3.998656 -12.254612 27.945602 0.159892 2.024744 0.040593 -0.018005 46217.900000 0 0 1
24.278198 2.729156 -12.539412 27.461173 0.111942 2.044992 0.033743 -0.019610 -101503.000000 0 0 1
23.591498 2.204556 -11.236712 26.223702 0.093176 2.013622 0.026757 -0.020005 379595.000000 0 0 1
24.511998 2.048256 -10.122812 26.598961 0.083368 1.961211 0.031337 -0.015767 1034490.000000 0 0 1
23.834598 2.034056 -8.862812 25.510290 0.085134 1.925616 0.039947 -0.008924 -452707.000000 0 0 1
24.716398 1.567056 -7.686912 25.931537 0.063317 1.871750 0.060140 -0.004396 -428735.000000 0 0 1
24.715998 0.174256 -7.410112 25.803501 0.007050 1.862072 0.035434 -0.011545 264369.000000 0 0 1
25.530398 -0.609444 -8.238412 26.833637 -0.023867 1.882855 0.042098 -0.011210 -633915.000000 0 0 1
25.581498 -2.052144 -7.825512 26.830262 -0.080048 1.866766 0.043991 -0.017108 -436839.000000 0 0 1
26.532898 -2.243944 -6.818112 27.486662 -0.084371 1.821465 0.057682 -0.021122 71064.900000 0 0 1
26.495388 -3.539144 -6.159812 27.431267 -0.132790 1.797282 0.066843 -0.028343 5617.740000 0 0 1
27.762108 -3.993244 -5.345312 28.552636 -0.142858 1.759117 0.077643 -0.022328 199226.000000 0 0 1
28.864868 -4.186344 -6.194312 29.817370 -0.144028 1.780062 0.073772 -0.016056 122995.000000 0 0 1
29.989608 -4.714444 -5.529412 30.857365 -0.155927 1.750962 0.086944 -0.013336 -218047.000000 0 0 1
31.176218 -5.109344 -6.413712 32.236589 -0.162442 1.771090 0.083467 -0.008444 -350366.000000 0 0 1
30.924798 -6.122044 -7.382412 32.377810 -0.195439 1.800828 0.081461 -0.017733 14156.000000 0 0 1
31.617598 -5.934744 -8.608812 33.301732 -0.185545 1.832275 0.079881 -0.019448 -555347.000000 0 0 1
30.999148 -6.693844 -9.819412 33.199030 -0.212671 1.871062 0.066277 -0.016809 1852430.000000 0 0 1
29.633928 -6.451744 -10.287012 32.025260 -0.214370 1.897809 0.057067 -0.021643 1849410.000000 0 0 1
28.602308 -6.796144 -9.377812 30.858110 -0.233282 1.879581 0.072660 -0.020870 -694518.000000 0 0 1
27.432438 -5.803144 -9.299912 29.541555 -0.208470 1.891050 0.063458 -0.015203 -876522.000000 0 0 1
26.623078 -5.967944 -10.420612 29.206057 -0.220519 1.935633 0.043957 -0.013767 -285648.000000 0 0 1
25.469398 -5.173944 -10.350412 27.974827 -0.200416 1.949795 0.033555 -0.008444 356238.000000 0 0 1
24.186898 -5.929844 -9.861512 26.784669 -0.240425 1.947844 0.044843 -0.006370 -708384.000000 0 0 1
24.180298 -6.316144 -8.483512 26.392242 -0.255501 1.898046 0.049519 -0.015635 942019.000000 0 0 1
22.996598 -6.976144 -7.999112 25.327769 -0.294532 1.892121 0.035877 -0.016027 882837.000000 0 0 1
21.833498 -5.989844 -7.592512 23.879408 -0.267754 1.894365 0.019230 -0.007944 163139.000000 0 1 0
21.291398 -5.207744 -8.599212 23.545502 -0.239884 1.944662 0.023930 -0.003577 326398.000000 0 1 0
21.257698 -3.872044 -8.136112 23.088499 -0.180173 1.930918 0.013987 -0.008186 -147449.000000 0 1 0
21.239898 -2.899744 -9.287812 23.362475 -0.135685 1.979644 0.021769 -0.004801 637522.000000 0 1 0
22.506998 -2.960144 -9.989712 24.801648 -0.130771 1.985353 0.030627 -0.005042 1506010.000000 0 1 0
22.498698 -2.100044 -11.121212 25.184975 -0.093071 2.028157 0.034523 -0.000340 137620.000000 0 0 1
23.890998 -2.062344 -11.805312 26.728233 -0.086110 2.028266 0.036000 -0.007355 261918.000000 0 0 1
24.846098 -1.139744 -11.303212 27.320143 -0.045840 1.997346 0.030855 -0.012412 910226.000000 0 0 1
26.049898 -1.249044 -12.063012 28.734536 -0.047911 2.004031 0.038888 -0.012392 719552.000000 0 0 1
27.146808 -0.199544 -11.632012 29.534602 -0.007350 1.975606 0.041280 -0.002741 268787.000000 0 0 1
28.451378 -0.463744 -12.100312 30.921085 -0.016298 1.972871 0.042112 -0.005210 338369.000000 0 0 1
29.411198 0.535956 -11.863612 31.718309 0.018221 1.954147 0.043237 -0.006075 44622.900000 0 0 1
29.380928 1.718456 -12.876312 32.124623 0.058422 1.983212 0.044278 -0.009266 -453849.000000 0 0 1
29.555158 1.337756 -14.184012 32.809803 0.045232 2.017850 0.040883 -0.010560 343641.000000 0 0 1
29.604528 2.550256 -14.999312 33.285301 0.085932 2.038266 0.046199 -0.006594 -95381.100000 0 0 1
29.851298 2.313456 -16.472012 34.172785 0.077345 2.073757 0.045053 -0.013851 -215625.000000 0 0 1
28.744378 1.790756 -17.151912 33.520653 0.062219 2.107938 0.040818 -0.003187 -440653.000000 0 0 1
29.092328 1.574256 -18.489612 34.506631 0.054060 2.136284 0.039059 -0.008286 289384.000000 0 0 1
28.053378 0.863456 -19.448112 34.146253 0.030769 2.176759 0.026359 -0.002793 313212.000000 0 0 1
27.906748 -0.546644 -19.169612 33.860883 -0.019586 2.172598 0.027135 0.001554 115396.000000 0 0 1
27.429988 -1.169744 -20.324512 34.159308 -0.042619 2.208052 0.016407 0.003538 -166337.000000 0 0 1
27.122898 -2.661544 -20.272012 33.966011 -0.097816 2.210344 0.008701 0.006428 -475198.000000 0 0 1
25.954398 -3.069844 -19.627112 32.684526 -0.117731 2.214925 0.026851 0.004742 -180730.000000 0 0 1
25.786498 -4.471944 -19.532712 32.656831 -0.171714 2.211950 0.023347 0.001442 -140476.000000 0 0 1
26.645048 -5.211344 -18.473312 32.838696 -0.193146 2.168260 0.015701 0.007897 734184.000000 0 0 1
28.042988 -5.129444 -18.785312 34.141006 -0.180914 2.153433 -0.000232 0.003703 1174200.000000 0 0 1
28.847278 -5.378044 -17.559012 34.196604 -0.184316 2.110023 0.003631 0.008655 478976.000000 0 0 1
30.353628 -5.282744 -17.849112 35.606754 -0.172314 2.095879 0.001119 0.006780 -295628.000000 0 0 1
30.829068 -6.296744 -18.675812 36.590523 -0.201476 2.106446 -0.012190 0.006426 326614.000000 0 0 1
32.162758 -6.021744 -19.117112 37.896812 -0.185084 2.099543 0.006634 0.008610 493004.000000 0 0 1
32.624208 -7.328544 -19.845112 38.882836 -0.220967 2.106426 0.001507 0.017684 -263108.000000 0 0 1
32.973188 -8.286144 -18.867312 38.882731 -0.246201 2.077430 0.005717 0.007779 42752.700000 0 0 1
33.641218 -9.395844 -19.422412 39.965529 -0.272355 2.078279 0.008560 0.013568 -531014.000000 0 0 1
34.377058 -10.202344 -18.335112 40.274636 -0.288498 2.043452 0.017515 0.003184 -656473.000000 0 0 1
33.615018 -11.020344 -17.421812 39.432689 -0.316798 2.028413 0.004676 0.000473 575008.000000 0 0 1
34.433338 -11.801144 -16.537712 39.980216 -0.330179 1.997253 0.025726 -0.011812 197705.000000 0 0 1
35.361418 -11.103644 -15.479912 40.166509 -0.304255 1.966431 0.038771 -0.011177 -519448.000000 0 0 1
-35.765556 -11.867344 -14.290112 40.301565 0.320378 1.933261 0.031780 -0.011585 882322.000000 0 0 1
-34.873226 -12.982044 -14.547312 39.953719 0.356370 1.943467 0.022191 0.001244 -154772.000000 0 0 1
-33.471468 -12.666744 -15.047412 38.822805 0.361778 1.968814 0.020706 -0.003111 -1281300.000000 0 0 1
-33.489718 -12.229244 -16.412612 39.249070 0.350120 2.002221 0.024765 -0.003255 -481683.000000 0 0 1
-32.184098 -12.284344 -16.927812 38.383227 0.364623 2.027532 0.052062 -0.005640 -328963.000000 0 0 1
-31.969488 -11.514944 -18.258712 38.574897 0.345720 2.063865 0.071623 -0.007462 133561.000000 0 0 1
-32.155418 -10.069244 -18.219712 38.305594 0.303471 2.066489 0.065116 -0.006782 980873.000000 0 0 1
-33.546858 -9.733344 -18.358112 39.460740 0.282388 2.054685 0.041308 -0.005605 355787.000000 0 0 1
-33.771998 -8.202344 -18.288312 39.271983 0.238261 2.055203 0.055366 -0.008228 -627087.000000 0 0 1
-35.116966 -7.862744 -18.402912 40.418946 0.220269 2.043510 0.056210 -0.003271 -688120.000000 0 0 1
-35.286744 -6.490444 -18.455912 40.347254 0.181901 2.045896 0.047390 0.001663 -73409.000000 0 0 1
23.817082 27.550156 -26.918832 45.286731 0.857945 2.207327 0.029134 0.011716 -10975.200000 0 0 1
24.602682 26.783556 -26.038672 44.728774 0.827814 2.192162 0.029382 0.007610 666365.000000 0 0 1
25.779382 26.269956 -26.707292 45.474900 0.794823 2.198512 0.027020 0.003452 501987.000000 0 0 1
26.596782 25.367356 -25.795532 44.903240 0.761743 2.182752 0.020324 0.002947 -801927.000000 0 0 1
27.156382 25.911156 -24.617512 44.887403 0.761938 2.151280 0.024521 0.007365 275426.000000 0 0 1
27.391082 24.945256 -23.617712 43.935560 0.738699 2.138329 0.022072 0.012959 -305416.000000 0 0 1
28.165582 25.385356 -22.363812 44.021090 0.733527 2.103687 0.009492 0.008481 -134773.000000 0 0 1
27.365382 26.225056 -21.532912 43.592247 0.764123 2.087437 0.014266 0.013518 571625.000000 0 0 1
28.133282 26.807656 -20.474612 43.924272 0.761275 2.055713 0.007688 0.015116 127087.000000 0 0 1
27.376682 27.948256 -19.781312 43.839343 0.795729 2.038931 0.022902 0.013205 -251965.000000 0 0 1
26.277982 27.558556 -18.998412 42.555211 0.809180 2.033581 0.021440 0.009069 -129315.000000 0 0 1
25.620482 28.707456 -18.492212 42.690620 0.842158 2.018801 0.028904 0.004489 -11155.900000 0 0 1
24.611382 28.362456 -17.393812 41.384704 0.856090 2.004567 0.036999 0.004869 -183278.000000 0 0 1
23.469082 27.698256 -17.885412 40.470719 0.867864 2.028551 0.044358 0.004324 -38382.500000 0 0 1
22.408182 27.786756 -16.942612 39.513067 0.892145 2.013944 0.040007 0.004753 -145893.000000 0 0 1
21.344882 26.761056 -17.310412 38.358942 0.897514 2.038989 0.043477 0.010855 -456325.000000 0 0 1
20.697582 26.955756 -18.572512 38.729070 0.915978 2.070938 0.043555 0.008994 304979.000000 0 0 1
19.854582 25.850456 -18.919612 37.688223 0.915840 2.096710 0.042594 0.009667 113640.000000 0 0 1
19.150582 26.110556 -20.262412 38.197791 0.937977 2.129940 0.035930 0.016026 -266397.000000 0 0 1
18.164782 27.083456 -20.182212 38.350939 0.980009 2.124982 0.018099 0.016641 -1422250.000000 0 0 1
17.178082 26.847156 -21.107812 38.228209 1.001591 2.155740 0.003943 0.022635 -808218.000000 0 0 1
16.023582 27.827956 -20.883912 38.305196 1.048354 2.147421 0.004103 0.014857 -276347.000000 0 0 1
15.308382 27.568156 -19.699712 37.181022 1.063899 2.129199 0.009559 0.015781 405656.000000 0 0 1
14.184082 28.452756 -19.538412 37.316176 1.108339 2.121857 0.010724 0.010067 751217.000000 0 0 1
13.572482 28.579256 -18.108112 36.453941 1.127424 2.090634 0.018243 0.007724 160457.000000 0 0 1
12.614782 27.596956 -17.770412 35.164076 1.142047 2.100592 0.018604 0.010312 -142507.000000 0 0 1
12.330182 27.578556 -16.395812 34.371976 1.150362 2.068047 0.032845 0.008190 11615.400000 0 0 1
11.502682 26.322356 -16.022012 32.891989 1.158812 2.079574 0.038637 -0.000652 -128733.000000 0 0 1
12.196082 25.095756 -16.052812 32.190591 1.118426 2.092872 0.032759 -0.005270 -225126.000000 0 0 1
11.320782 23.990356 -15.973712 30.965412 1.129889 2.112804 0.042226 -0.006801 93489.700000 0 0 1
12.147482 22.730156 -16.118312 30.397718 1.079992 2.129689 0.032394 -0.002279 255688.000000 0 0 1
12.759582 22.628456 -17.398112 31.265768 1.057364 2.160914 0.035350 0.002196 -606505.000000 0 0 1
13.569582 21.491756 -17.631212 30.933618 1.007618 2.177265 0.037785 0.004767 -187657.000000 0 0 1
12.935582 20.094256 -17.940512 29.882610 0.998831 2.214755 0.031794 0.003922 6721.010000 0 0 1
12.419882 19.548856 -16.699612 28.553253 1.004807 2.195502 0.039192 -0.003796 -184125.000000 0 0 1
12.049282 18.232256 -16.913212 27.634346 0.986813 2.229429 0.034502 -0.007010 -890918.000000 0 0 1
13.172482 17.235256 -17.045012 27.588054 0.918221 2.236789 0.037525 -0.010589 -605278.000000 0 0 1
13.740182 16.876856 -15.794112 26.890051 0.887491 2.198588 0.043720 -0.015046 -79738.400000 0 0 1
14.796982 15.977456 -16.060712 27.058755 0.823738 2.206259 0.048157 -0.016821 -840628.000000 0 0 1
15.345382 15.362756 -14.732212 26.239914 0.785964 2.166925 0.071550 -0.008386 -672572.000000 0 0 1
16.222882 16.168056 -13.937312 26.811128 0.783706 2.117452 0.044026 0.001807 1023420.000000 0 0 1
17.517782 16.457256 -14.470412 28.055423 0.754193 2.112714 0.029262 0.002822 -362025.000000 0 0 1
18.431782 15.261656 -14.790612 28.132026 0.691587 2.124401 0.023575 -0.004958 -1213200.000000 0 0 1
18.852782 14.413056 -13.680312 27.391869 0.652720 2.093737 0.044547 -0.009959 630836.000000 0 0 1
19.657982 15.090456 -12.720812 27.856367 0.654702 2.045030 0.036286 -0.004947 -788470.000000 0 0 1
20.242082 14.039356 -11.750112 27.293049 0.606399 2.015861 0.039754 -0.009087 -888536.000000 0 0 1
19.360582 13.227456 -11.020212 25.908353 0.599372 2.010149 0.064704 -0.014551 42896.500000 0 0 1
19.939582 12.161056 -10.220312 25.493783 0.547664 1.983289 0.065253 -0.015682 -84984.300000 0 0 1
20.429282 10.944456 -11.094512 25.694841 0.491817 2.017261 0.061980 -0.017253 -246524.000000 0 0 1
21.667882 11.077456 -11.768512 27.031556 0.472598 2.021237 0.051285 -0.014669 450356.000000 0 0 1
21.889382 10.071356 -12.714412 27.243963 0.431223 2.056338 0.022912 -0.011601 -648525.000000 0 0 1
22.484282 8.739756 -12.201312 27.033281 0.370732 2.039067 0.028707 -0.004250 -466609.000000 0 0 1
21.556482 7.983156 -11.431712 25.672879 0.354676 2.032287 0.031444 -0.010541 518866.000000 0 0 1
22.144382 7.043556 -10.562012 25.525309 0.307955 1.997405 0.023625 -0.001263 -835798.000000 0 0 1
22.428182 5.678956 -11.292212 25.744668 0.247994 2.024863 0.034530 -0.013512 -427768.000000 0 0 1
21.317382 4.871956 -11.611512 24.758714 0.224685 2.058940 0.047826 -0.022553 19617.600000 0 1 0
20.402482 5.334756 -12.538712 24.534469 0.255750 2.107220 0.005801 -0.022903 -121370.000000 0 1 0
19.325282 4.266556 -12.962712 23.658020 0.217290 2.150673 0.010870 -0.033148 367179.000000 0 1 0
19.919982 3.263856 -13.726312 24.410450 0.162405 2.167977 0.017272 -0.026133 426596.000000 0 1 0
19.060682 2.165756 -13.911212 23.696453 0.113139 2.198217 0.023203 -0.019376 -212301.000000 0 1 0
19.882082 1.058556 -14.584712 24.680590 0.053191 2.203018 0.039169 -0.013073 263290.000000 0 1 0
20.915182 0.452556 -13.802712 25.063210 0.021634 2.154018 0.048298 -0.012908 1277870.000000 0 0 1
22.056182 0.183856 -14.669512 26.489687 0.008336 2.157696 0.029752 -0.017088 672923.000000 0 0 1
22.159982 -1.261144 -15.254012 26.932140 -0.056850 2.172911 0.034304 -0.006956 -95553.500000 0 0 1
21.246482 -1.570244 -16.312512 26.832382 -0.073772 2.224261 0.024938 -0.001407 859587.000000 0 0 1
21.845682 -2.584944 -17.154812 27.896296 -0.117780 2.233118 0.031226 -0.003277 581123.000000 0 0 1
20.718582 -3.317044 -17.937612 27.604716 -0.158753 2.278121 0.021193 0.000100 135960.000000 0 0 1
19.931982 -4.203644 -17.204212 26.663448 -0.207854 2.272128 0.036509 -0.004612 -66610.700000 0 0 1
19.035782 -4.903544 -18.022612 26.668713 -0.252115 2.312841 0.042644 -0.007580 -366601.000000 0 0 1
18.378082 -6.086544 -17.281812 25.951126 -0.319816 2.299545 0.053804 -0.010189 -490882.000000 0 0 1
19.258782 -7.083544 -16.849112 26.551268 -0.352451 2.258271 0.049660 -0.004359 385593.000000 0 0 1
18.608082 -8.086044 -16.045512 25.867031 -0.409927 2.239931 0.058886 -0.004769 454407.000000 0 0 1
19.664982 -9.118644 -15.519112 26.659033 -0.434188 2.192146 0.074252 -0.006068 190762.000000 0 0 1
20.101882 -9.928544 -16.568212 27.877720 -0.458765 2.207213 0.065606 -0.010323 599121.000000 0 0 1
21.041582 -10.895244 -16.083512 28.637980 -0.477783 2.167132 0.058680 -0.014785 -326010.000000 0 0 1
21.698182 -11.700844 -17.189512 30.053289 -0.494556 2.179699 0.044462 -0.011862 -707919.000000 0 0 1
22.705382 -11.001844 -17.855512 30.909452 -0.451210 2.186670 0.031640 -0.006479 -91308.500000 0 0 1
23.335082 -11.860444 -18.810212 32.233837 -0.470239 2.193896 0.034223 -0.001681 -519833.000000 0 0 1
22.654382 -11.944644 -20.226712 32.634574 -0.485213 2.239276 0.059562 -0.007915 602249.000000 0 0 1
21.316282 -12.426844 -20.327012 31.968699 -0.527807 2.259894 0.080877 -0.028503 566584.000000 0 0 1
21.234382 -13.852044 -20.137412 32.377360 -0.578019 2.242039 0.067263 -0.015942 717073.000000 0 0 1
19.763582 -14.321744 -19.766512 31.407428 -0.627081 2.251523 0.062515 -0.017429 1080770.000000 0 0 1
18.918282 -14.247344 -20.886212 31.577240 -0.645482 2.293523 0.059515 -0.009878 -609565.000000 0 0 1
17.563082 -14.477044 -20.629312 30.718320 -0.689376 2.307114 0.062301 -0.008485 -436340.000000 0 0 1
16.705282 -13.705744 -21.620212 30.567097 -0.687083 2.356473 0.054010 -0.006000 -532784.000000 0 0 1
16.841282 -14.207044 -22.947612 31.812918 -0.700758 2.376517 0.045970 -0.001579 411340.000000 0 0 1
16.144882 -13.353944 -23.850212 31.746144 -0.691067 2.420794 0.056778 -0.007454 3074.860000 0 0 1
16.186782 -13.886144 -25.281402 33.075462 -0.709045 2.440837 0.046008 -0.013662 -491276.000000 0 0 1
15.258182 -14.909844 -25.516492 33.259689 -0.773852 2.445245 0.060418 -0.015482 110066.000000 0 0 1
15.276682 -15.533644 -26.800042 34.538578 -0.793738 2.459008 0.061118 -0.016955 -288091.000000 0 0 1
16.171782 -16.816944 -26.853532 35.573140 -0.804953 2.426271 0.053133 -0.013260 -94529.500000 0 0 1
17.541182 -16.500044 -26.809222 36.037188 -0.754823 2.409732 0.047284 -0.011500 -204839.000000 0 0 1
18.281982 -17.647944 -27.264212 37.269533 -0.767753 2.391377 0.045583 -0.007101 705257.000000 0 0 1
19.809582 -17.357444 -27.152922 37.828317 -0.719517 2.371424 0.039537 -0.007934 388411.000000 0 0 1
20.389482 -17.202844 -25.872962 37.162871 -0.700832 2.340893 0.040505 -0.008597 -283045.000000 0 0 1
21.744982 -16.847744 -25.930662 37.803306 -0.659177 2.326686 0.038282 -0.004976 -236630.000000 0 0 1
22.380982 -16.463044 -24.578212 37.094861 -0.634209 2.295051 0.033666 -0.000913 -133660.000000 0 0 1
22.158682 -15.160144 -24.119612 36.091451 -0.600018 2.302706 0.048679 -0.007455 89625.100000 0 0 1
20.787882 -14.796244 -23.939012 34.987729 -0.618583 2.324318 0.063172 -0.008728 517393.000000 0 0 1
20.619382 -13.337944 -23.478912 33.975270 -0.574168 2.333749 0.069040 -0.011241 44460.200000 0 0 1
20.992582 -12.391744 -24.477212 34.545300 -0.533250 2.358243 0.068460 -0.018076 271901.000000 0 0 1
20.753282 -11.144944 -23.899812 33.557555 -0.492824 2.363429 0.072796 -0.015354 25166.100000 0 0 1
20.586882 -9.953744 -24.930612 33.829457 -0.450360 2.399343 0.081617 -0.021308 -200740.000000 0 0 1
20.183982 -8.802744 -24.253512 32.758423 -0.411256 2.404424 0.090176 -0.016203 43687.400000 0 0 1
20.189282 -7.586644 -24.959012 32.986612 -0.359451 2.428956 0.075451 -0.019091 -445438.000000 0 0 1
19.627382 -6.470444 -24.108712 31.754224 -0.318445 2.432923 0.085577 -0.028025 907861.000000 0 0 1
18.222782 -6.582344 -23.755712 30.655030 -0.346631 2.457411 0.088493 -0.019194 1117340.000000 0 0 1
17.758582 -5.724944 -22.715112 29.395893 -0.311857 2.453929 0.079848 -0.020802 143039.000000 0 0 1
18.408582 -5.827744 -21.272812 28.729271 -0.306595 2.404548 0.076053 -0.025768 -253184.000000 0 0 1
18.022282 -6.963144 -20.485912 28.159556 -0.368695 2.385459 0.080019 -0.018377 316939.000000 0 0 1
18.154982 -8.232744 -21.078212 29.011592 -0.425736 2.384076 0.087753 -0.020539 -281076.000000 0 0 1
17.827882 -9.386844 -20.129912 28.480863 -0.484643 2.355743 0.076620 -0.015223 -69513.000000 0 0 1
16.463482 -9.484644 -19.795812 27.438639 -0.522662 2.376701 0.066218 -0.011826 -306769.000000 0 0 1
16.237682 -10.668544 -19.042212 27.204521 -0.581297 2.346145 0.069517 -0.011722 358187.000000 0 0 1
14.713382 -10.832644 -18.737012 26.170697 -0.634639 2.368786 0.064300 -0.007102 704737.000000 0 0 1
14.027782 -9.956844 -17.831312 24.776463 -0.617269 2.374149 0.066262 -0.007617 313960.000000 0 1 0
13.971382 -8.610244 -18.222212 24.523149 -0.552302 2.408430 0.068926 -0.016202 -851967.000000 0 1 0
12.967882 -7.699744 -17.487112 23.092230 -0.535815 2.429923 0.069171 -0.000839 -33572.400000 0 1 0
11.691982 -7.831744 -18.078012 22.909674 -0.590196 2.480138 0.053337 -0.011017 -393211.000000 0 1 0
10.779782 -6.938744 -17.519012 21.708654 -0.571920 2.509861 0.038554 -0.007676 1139930.000000 0 1 0
9.273582 -7.020944 -18.019812 21.447765 -0.648024 2.568397 0.029783 -0.001840 1353120.000000 0 1 0
9.002982 -6.492844 -19.284212 22.250653 -0.624805 2.619306 0.029380 -0.011597 1110760.000000 0 1 0
7.564082 -6.451144 -19.443612 21.837734 -0.706155 2.668948 0.021565 -0.015795 1167870.000000 0 1 0
7.087082 -6.059144 -20.858612 22.847793 -0.707364 2.721222 0.024075 -0.019415 -11037.100000 0 1 0
7.227682 -7.023944 -21.823612 24.038411 -0.771103 2.708958 0.030754 -0.011097 -201959.000000 0 1 0
6.575382 -6.635444 -22.977312 24.803662 -0.789945 2.755447 0.038606 -0.011414 -166204.000000 0 1 0
6.548982 -7.754244 -24.039412 26.094268 -0.869465 2.742085 0.037372 -0.002990 34735.500000 0 0 1
5.740482 -8.877044 -23.718512 25.967727 -0.996769 2.722317 0.042364 -0.005216 27835.900000 0 0 1
5.845582 -9.908044 -24.664112 27.215043 -1.037775 2.705165 0.046053 0.004538 -59860.200000 0 0 1
4.944582 -11.151644 -24.574912 27.436005 -1.153449 2.680839 0.042536 -0.000299 157151.000000 0 0 1
5.394882 -12.072244 -23.575912 27.030861 -1.150537 2.630448 0.045617 -0.005197 150990.000000 0 0 1
4.578582 -13.213844 -23.663812 27.487181 -1.237244 2.607839 0.052829 -0.011860 -105636.000000 0 0 1
5.242182 -14.382844 -22.853912 27.507235 -1.221285 2.551399 0.064443 -0.011482 685668.000000 0 0 1
6.366882 -15.152544 -23.287512 28.503421 -1.173011 2.526999 0.073894 -0.010648 286176.000000 0 0 1
7.571882 -14.491744 -23.591312 28.703555 -1.089314 2.535526 0.071005 -0.004442 547586.000000 0 0 1
8.503382 -13.963144 -22.417212 27.745419 -1.023794 2.511479 0.062320 0.005344 197978.000000 0 0 1
9.225982 -14.891244 -21.632712 27.835986 -1.016120 2.460919 0.061327 0.006086 -56474.600000 0 0 1
8.457482 -15.659044 -20.707112 27.304197 -1.075584 2.431629 0.048890 0.002505 -39536.700000 0 0 1
8.985282 -15.908844 -19.241612 26.534247 -1.056663 2.382065 0.059335 -0.002420 -649178.000000 0 0 1
9.959982 -16.864044 -19.177112 27.410926 -1.037314 2.345656 0.079917 -0.006411 -1104510.000000 0 0 1
10.263382 -17.299244 -17.865212 26.902912 -1.035329 2.297035 0.062205 -0.002494 -147187.000000 0 0 1
9.255382 -18.191844 -17.040412 26.589113 -1.100161 2.266439 0.049521 -0.001370 -96703.000000 0 0 1
9.005082 -19.467044 -17.624412 27.761074 -1.137530 2.258624 0.047573 -0.005249 181219.000000 0 0 1
8.147982 -19.482344 -18.763012 28.248929 -1.174679 2.297223 0.050029 -0.001058 324113.000000 0 0 1
6.614682 -19.308044 -18.550412 27.580290 -1.240741 2.308509 0.043122 -0.001293 169219.000000 0 0 1
6.234882 -17.999244 -18.178312 26.330545 -1.237335 2.332823 0.050236 0.001818 -598031.000000 0 0 1
4.872282 -17.942344 -17.873512 25.790100 -1.305638 2.336491 0.042182 0.004046 -276954.000000 0 0 1
4.449682 -16.473744 -17.546512 24.475784 -1.306984 2.370131 0.024352 0.011926 -53525.800000 0 1 0
4.940682 -16.053844 -16.312012 23.414055 -1.272238 2.341550 0.021189 0.008732 -29869.200000 0 1 0
4.705782 -14.682744 -16.086812 22.282569 -1.260642 2.377407 0.014182 0.010409 48869.700000 0 1 0
10.324382 30.349156 -18.130612 36.829108 1.242890 2.085515 0.030237 -0.008903 -457925.000000 0 0 1
9.309182 29.925256 -19.013812 36.656607 1.269205 2.116127 0.045064 -0.013611 -446512.000000 0 0 1
8.390482 29.181256 -18.265512 35.434091 1.290819 2.112362 0.041840 -0.014681 -105019.000000 0 0 1
7.225282 28.676756 -19.141012 35.226969 1.323978 2.145234 0.050662 -0.017416 -6610.120000 0 0 1
6.319082 29.611956 -19.665112 36.104229 1.360554 2.146799 0.063153 -0.032443 -301172.000000 0 0 1
5.861582 29.113756 -20.919112 36.325998 1.372119 2.184466 0.050718 -0.029191 172117.000000 0 0 1
4.733882 30.031256 -21.497712 37.234897 1.414451 2.186280 0.056241 -0.037203 -574812.000000 0 0 1
3.595382 29.897656 -20.730012 36.558583 1.451115 2.173699 0.058285 -0.032047 -1189750.000000 0 0 1
2.583382 30.700256 -21.320412 37.466512 1.486846 2.176149 0.054460 -0.033279 -727305.000000 0 0 1
1.215682 30.335556 -20.731312 36.762904 1.530743 2.169920 0.055354 -0.025895 -549646.000000 0 0 1
0.777382 28.987056 -21.068012 35.842919 1.543985 2.199117 0.055801 -0.044477 369443.000000 0 0 1
0.289782 28.761456 -22.429312 36.474365 1.560721 2.233098 0.064572 -0.041338 -196300.000000 0 0 1
-0.281618 27.349056 -22.687912 35.535778 -1.560500 2.263282 0.066993 -0.041228 -338924.000000 0 0 1
-1.424218 27.062856 -21.951812 34.875616 -1.518219 2.251618 0.066635 -0.042085 -517546.000000 0 0 1
-1.958518 25.802156 -22.288412 34.152018 -1.495036 2.281838 0.064431 -0.050732 -433409.000000 0 0 1
-3.066818 25.363656 -21.358612 33.300311 -1.450467 2.267110 0.047558 -0.039933 -9476.650000 0 0 1
-4.234518 26.185256 -21.402112 34.082975 -1.410470 2.249702 0.043118 -0.033732 972262.000000 0 0 1
-5.261118 25.738456 -20.499212 33.322142 -1.369167 2.233414 0.034710 -0.025290 353334.000000 0 0 1
-6.102218 26.906756 -19.992212 34.071969 -1.347778 2.197853 0.037205 -0.032871 891411.000000 0 0 1
-7.383118 26.479256 -19.472612 33.687446 -1.298876 2.187118 0.044883 -0.029264 371401.000000 0 0 1
-8.011818 27.432556 -18.636412 34.118180 -1.286644 2.148655 0.038488 -0.037446 156363.000000 0 0 1
-9.279618 26.790056 -18.037012 33.602860 -1.237347 2.137401 0.049110 -0.035352 49959.300000 0 0 1
-9.141818 25.858756 -16.972412 32.253850 -1.230981 2.124938 0.049840 -0.032307 -850372.000000 0 0 1
-10.408218 25.336356 -16.748512 32.105678 -1.181013 2.119601 0.027904 -0.030924 -406559.000000 0 0 1
-10.399918 24.529156 -15.414012 30.780343 -1.169788 2.095290 0.032125 -0.020091 -146704.000000 0 0 1
-9.588018 23.388456 -15.307712 29.551244 -1.181745 2.115314 0.041215 -0.016019 -402505.000000 0 0 1
-9.799718 22.721356 -14.095012 28.477427 -1.163602 2.088578 0.051781 -0.003913 -218882.000000 0 0 1
-9.374918 21.248756 -13.984212 27.110088 -1.155286 2.112773 0.070038 -0.000209 -68793.700000 0 0 1
-9.999118 20.183956 -14.754112 26.926906 -1.110836 2.150686 0.043824 -0.000113 -256024.000000 0 0 1
-10.135318 20.250156 -16.193812 27.839415 -1.106744 2.191597 0.060470 -0.003118 162464.000000 0 0 1
-8.806718 20.227356 -16.998112 27.850314 -1.160161 2.227284 0.051274 -0.005496 135174.000000 0 0 1
-8.203618 18.958556 -16.964112 26.730269 -1.162411 2.258340 0.054107 -0.004027 -52441.200000 0 0 1
-7.330618 18.782856 -18.096912 27.093022 -1.198695 2.302253 0.052088 -0.010793 545553.000000 0 0 1
-6.694018 17.358756 -18.164012 26.001300 -1.202741 2.344209 0.027533 -0.009643 134243.000000 0 0 1
-7.676018 16.373456 -18.335012 25.752358 -1.132412 2.363102 0.044622 -0.016160 -449884.000000 0 0 1
-7.579218 15.642456 -19.543912 26.155219 -1.119602 2.414677 0.044560 -0.025913 749133.000000 0 0 1
-6.272418 14.846156 -19.924912 25.627206 -1.171050 2.461462 0.021308 -0.012069 480119.000000 0 0 1
-6.292918 13.588656 -19.315212 24.440331 -1.137101 2.482096 0.008464 -0.012611 938190.000000 0 1 0
-4.975118 13.035856 -19.104912 23.657620 -1.206209 2.510797 0.008967 0.003310 1009940.000000 0 1 0
-4.303218 13.466656 -17.792812 22.725595 -1.261505 2.470177 0.002008 0.005871 -185634.000000 0 1 0
-3.835218 14.816056 -17.740512 23.429686 -1.317501 2.429783 -0.003280 -0.004964 -300097.000000 0 1 0
-3.363918 15.175056 -16.463612 22.641749 -1.352650 2.384936 0.008876 0.003744 -70151.700000 0 1 0
-2.471718 16.402656 -16.381512 23.313310 -1.421232 2.349936 0.025864 -0.004128 218556.000000 0 1 0
-3.271518 17.574256 -16.595812 24.392176 -1.386749 2.319070 0.023570 -0.007253 -8141.970000 0 1 0
-2.471718 18.715756 -16.682312 25.193023 -1.439490 2.294520 0.035459 -0.009420 55336.000000 0 0 1
-3.188118 19.949856 -17.337012 26.622036 -1.412330 2.279998 0.045144 -0.013835 376988.000000 0 0 1
-3.371318 19.773256 -18.731812 27.445003 -1.401921 2.322004 0.042680 -0.018129 -130283.000000 0 0 1
-3.879118 20.873156 -19.451412 28.793986 -1.387050 2.312490 0.059299 -0.018516 -107476.000000 0 0 1
-2.894418 22.041156 -19.542412 29.598920 -1.440225 2.291936 0.047199 -0.019251 -740887.000000 0 0 1
-1.796418 21.885556 -20.398912 29.971991 -1.488898 2.319376 0.058002 -0.019609 -842143.000000 0 0 1
-0.744618 22.726056 -20.129712 30.368295 -1.538043 2.295419 0.064623 -0.025376 -309367.000000 0 0 1
0.221482 22.275656 -19.001112 29.279620 1.560854 2.277004 0.076110 -0.023447 -445843.000000 0 0 1
-0.303818 22.409256 -17.680412 28.545823 -1.557239 2.238736 0.074066 -0.023295 -745538.000000 0 0 1
0.668082 22.042056 -16.790712 27.716900 1.540496 2.221559 0.073115 -0.024072 -658876.000000 0 0 1
0.150982 22.090556 -15.345712 26.898073 1.563962 2.177927 0.078205 -0.024506 -285507.000000 0 0 1
-0.589818 20.969756 -15.008012 25.793778 -1.542677 2.191793 0.066023 -0.017094 -549291.000000 0 0 1
-0.965618 21.129756 -13.641912 25.169441 -1.525129 2.143615 0.076750 -0.015228 39140.100000 0 0 1
-1.850718 19.984256 -13.136312 23.986628 -1.478451 2.150351 0.049295 -0.010330 -173927.000000 0 1 0
-1.224618 18.774256 -13.422612 23.111445 -1.505660 2.190480 0.048619 -0.005613 -312107.000000 0 1 0
-1.810818 17.756956 -12.677212 21.892927 -1.469170 2.188366 0.032187 -0.006525 -128535.000000 0 1 0
-1.338718 16.342656 -12.967412 20.905223 -1.489063 2.239915 0.015222 0.000871 121436.000000 0 1 0
-0.003118 16.074456 -12.530912 20.381656 -1.570602 2.232945 0.020873 0.007499 553021.000000 0 1 0
0.091382 14.686756 -12.157512 19.066049 1.564574 2.262243 0.014319 0.002488 209356.000000 0 1 0
0.726582 13.926356 -13.325712 19.288491 1.518670 2.333479 0.007497 -0.005507 -386471.000000 0 1 0
-0.210918 13.704356 -14.348912 19.843012 -1.555407 2.379107 0.012291 -0.012915 -232142.000000 0 1 0
0.326782 12.931856 -15.355012 20.077751 1.545532 2.441492 0.012475 -0.009238 -534062.000000 0 1 0
-0.363718 12.915556 -16.699312 21.114234 -1.542643 2.483080 0.005812 -0.002818 -464826.000000 0 1 0
-0.365318 14.216256 -17.361312 22.442160 -1.545105 2.455303 0.012332 -0.006365 -122043.000000 0 1 0
-0.450618 14.059756 -18.725112 23.420282 -1.538757 2.497301 0.012834 -0.003517 -641691.000000 0 1 0
-0.951118 15.317456 -19.405912 24.741028 -1.508782 2.472463 0.018999 -0.008633 -302382.000000 0 1 0
-0.063618 16.428256 -19.427812 25.442710 -1.566924 2.439652 0.020829 -0.009865 236315.000000 0 0 1
-0.747218 17.629956 -19.864012 26.569769 -1.528438 2.415263 0.038148 -0.016281 403699.000000 0 0 1
0.218482 18.790456 -20.191912 27.583369 1.559170 2.392096 0.052133 -0.017780 297353.000000 0 0 1
0.634782 18.799956 -21.578312 28.626296 1.537044 2.424612 0.048574 -0.018441 754074.000000 0 0 1
1.708882 19.746756 -21.829912 29.485584 1.484472 2.404400 0.053307 -0.017835 895851.000000 0 0 1
2.277782 19.472056 -23.258612 30.418946 1.454349 2.441231 0.065990 -0.031944 126971.000000 0 0 1
3.104582 18.325456 -23.352312 29.846126 1.402976 2.469344 0.058411 -0.028168 -79457.700000 0 0 1
3.531582 18.161256 -24.686812 30.850315 1.378736 2.498446 0.067506 -0.037422 1001450.000000 0 0 1
4.613282 17.005256 -24.900612 30.504124 1.305887 2.525778 0.056699 -0.025004 121790.000000 0 0 1
5.886682 17.195156 -24.333212 30.371559 1.240957 2.500068 0.042767 -0.016236 139369.000000 0 0 1
6.819082 16.198356 -24.780312 30.380100 1.172341 2.524693 0.036114 -0.011506 567000.000000 0 0 1
7.353782 16.451356 -26.262332 31.850201 1.150439 2.540217 0.027470 -0.016412 -1770390.000000 0 0 1
8.420082 17.374956 -26.345652 32.663133 1.119536 2.509151 0.002449 -0.007588 -16872.200000 0 0 1
8.820582 17.650556 -27.679272 33.992453 1.107362 2.522279 0.007429 -0.011507 94515.200000 0 0 1
9.504582 16.423556 -28.321212 34.090487 1.046174 2.551278 -0.006997 -0.013225 -999073.000000 0 0 1
10.625682 15.957756 -27.594662 33.600899 0.983350 2.534391 0.011103 -0.011910 38759.400000 0 0 1
11.103082 14.698856 -28.128992 33.624024 0.923867 2.561796 0.004861 -0.008450 -176045.000000 0 0 1
10.655182 13.462856 -27.345532 32.288690 0.901290 2.580938 0.009864 -0.011440 -222127.000000 0 0 1
9.286782 13.143856 -27.355632 31.738555 0.955688 2.609812 0.031797 -0.017929 -315170.000000 0 0 1
8.851282 12.723456 -26.101052 30.356160 0.962985 2.605727 0.031512 -0.008982 -306325.000000 0 0 1
7.423282 12.181456 -26.102222 29.745907 1.023500 2.641434 0.041530 -0.014736 334082.000000 0 0 1
6.365182 13.119056 -26.369742 30.132847 1.119070 2.636472 0.051671 -0.014990 310191.000000 0 0 1
5.097982 12.499456 -26.316022 29.576322 1.183536 2.667630 0.062196 -0.021589 622069.000000 0 0 1
3.917582 13.531256 -26.342432 29.872496 1.288981 2.650523 0.080112 -0.018536 199661.000000 0 0 1
3.530882 13.966456 -27.648182 31.176128 1.323173 2.661253 0.077009 -0.019006 323254.000000 0 0 1
4.337582 14.978256 -28.248652 32.266842 1.288915 2.637204 0.084504 -0.027966 -15742.600000 0 0 1
4.129282 14.965056 -29.730592 33.539707 1.301567 2.660370 0.083802 -0.036044 -538336.000000 0 0 1
4.992782 14.028056 -30.254282 33.719961 1.228863 2.684233 0.072113 -0.027527 -299698.000000 0 0 1
4.833182 13.755756 -31.638062 34.836008 1.232913 2.709759 0.062311 -0.022377 -860643.000000 0 0 1
5.753582 12.662656 -32.196912 35.072606 1.144311 2.733823 0.046115 -0.011644 1010990.000000 0 0 1
7.185382 12.837556 -32.198542 35.400263 1.060524 2.713012 0.038678 -0.006939 1168970.000000 0 0 1
7.883782 13.024956 -30.978602 34.517782 1.026501 2.684791 0.034646 -0.015151 -559406.000000 0 0 1
7.903282 11.833356 -29.970732 33.177326 0.981953 2.698313 0.040702 -0.008450 -30609.500000 0 0 1
8.698682 10.736656 -30.453992 33.442315 0.889876 2.715633 0.013113 0.000923 185414.000000 0 0 1
8.466682 9.636556 -29.635802 32.292858 0.849931 2.733098 0.020999 0.000478 -230725.000000 0 0 1
9.444682 8.554256 -29.998052 32.592337 0.735967 2.739904 0.017851 -0.001514 302038.000000 0 0 1
10.761182 8.618556 -29.455732 32.522649 0.675285 2.703822 0.021219 -0.003519 348539.000000 0 0 1
11.547482 7.487456 -29.718322 32.750343 0.575254 2.707900 0.005203 -0.001974 87316.600000 0 0 1
12.655682 7.284856 -28.610832 32.121879 0.522300 2.669670 0.010029 0.013078 727175.000000 0 0 1
13.378082 6.040356 -28.558882 32.110259 0.424110 2.666829 0.029735 -0.005292 1021470.000000 0 0 1
14.346182 5.906056 -29.656782 33.469675 0.390536 2.659613 0.020163 -0.001848 -69123.200000 0 0 1
15.286282 4.699156 -29.434582 33.498464 0.298241 2.643896 0.029639 -0.005660 68885.600000 0 0 1
16.087482 4.853656 -28.270462 32.887445 0.293019 2.605307 0.015094 -0.006477 265226.000000 0 0 1
16.820882 3.675456 -27.993802 32.864936 0.215124 2.590176 0.033980 -0.011848 -244901.000000 0 0 1
17.593582 3.696156 -26.693002 32.182480 0.207074 2.548877 0.028557 -0.007128 492985.000000 0 0 1
18.708182 4.626856 -26.711292 32.937774 0.242452 2.516591 0.034108 -0.011353 824130.000000 0 0 1
19.156282 4.856756 -25.398632 32.181388 0.248301 2.480356 0.031383 -0.007399 -152328.000000 0 0 1
20.200182 5.991956 -25.380552 32.986714 0.288361 2.448725 0.018457 -0.005377 -418542.000000 0 0 1
19.651082 7.285756 -25.746332 33.198206 0.355045 2.458357 0.022782 -0.006763 69569.100000 0 0 1
20.520882 8.279056 -26.283172 34.357743 0.383473 2.441815 0.024818 -0.013417 -495116.000000 0 0 1
20.751582 8.240056 -27.859492 35.702632 0.377987 2.465974 0.048236 -0.013282 490191.000000 0 0 1
19.583882 8.597856 -28.598302 35.711545 0.413692 2.499449 0.042525 -0.009828 938688.000000 0 0 1
18.567082 7.577656 -28.695982 35.008810 0.387489 2.531647 0.043523 -0.008515 325559.000000 0 0 1
17.218282 8.164156 -29.179312 34.850465 0.442760 2.563071 0.036771 -0.003599 -252980.000000 0 0 1
17.137982 8.349656 -30.568642 36.025950 0.453357 2.583973 0.032840 0.000193 186600.000000 0 0 1
16.172182 9.309556 -30.934372 36.126758 0.522324 2.598807 0.014178 0.006548 112767.000000 0 0 1
15.359082 8.961356 -32.215142 36.797047 0.528166 2.637228 0.008545 0.010567 567398.000000 0 0 1
14.574382 7.747456 -32.132012 36.123425 0.488592 2.667060 0.007757 0.005251 613152.000000 0 0 1
13.647682 7.655856 -33.199992 36.703008 0.511222 2.701138 0.000400 0.009955 173285.000000 0 0 1
13.091882 6.242856 -33.439572 36.449631 0.444956 2.732341 0.000442 0.007105 -116713.000000 0 0 1
12.467282 5.705556 -32.306632 35.095654 0.429191 2.740233 0.010870 0.000964 79125.100000 0 0 1
11.897282 4.473456 -32.671712 35.057066 0.359653 2.770573 0.009247 -0.003027 -4790.180000 0 0 1
11.519482 3.423256 -31.634562 33.840252 0.288859 2.778550 0.011276 -0.007013 382984.000000 0 0 1
12.560582 2.456756 -31.437292 33.942705 0.193154 2.754968 0.023019 -0.010065 656907.000000 0 0 1
12.164482 1.438356 -30.537402 32.902529 0.117696 2.760119 0.020892 -0.008428 -53018.000000 0 0 1
11.562582 0.155756 -31.139032 33.216816 0.013470 2.786022 0.021388 -0.011504 485020.000000 0 0 1
12.517482 -0.585944 -31.944072 34.314056 -0.046776 2.767755 0.029012 -0.009632 976220.000000 0 0 1
13.475582 -1.336044 -31.199012 34.011096 -0.098823 2.732089 0.035316 -0.013988 191320.000000 0 0 1
14.031182 -2.595844 -31.933192 34.976295 -0.182937 2.721363 0.035548 -0.018670 -522632.000000 0 0 1
13.083982 -3.584344 -32.085262 34.835358 -0.267389 2.741576 0.041376 -0.020011 -331086.000000 0 0 1
13.567282 -4.728844 -32.826422 35.833045 -0.335380 2.729023 0.041337 -0.028564 246093.000000 0 0 1
12.782982 -6.080144 -32.616912 35.556093 -0.443973 2.732135 0.050246 -0.021714 205721.000000 0 0 1
13.095382 -6.640544 -31.342112 34.610892 -0.469304 2.703486 0.050721 -0.017201 50736.700000 0 0 1
12.649282 -7.947944 -31.117422 34.517649 -0.560992 2.694003 0.059844 -0.021297 -204385.000000 0 0 1
13.214982 -8.523644 -29.789682 33.685507 -0.572851 2.655890 0.040736 -0.015903 -1760390.000000 0 0 1
14.540182 -8.799044 -29.940122 34.427474 -0.544200 2.625305 0.069289 -0.016148 -1351350.000000 0 0 1
15.050782 -9.480544 -28.752202 33.809701 -0.562118 2.587566 0.081172 -0.009562 75076.300000 0 0 1
14.926082 -11.016244 -28.733802 34.202002 -0.635811 2.568302 0.062962 -0.012364 -22556.700000 0 0 1
13.613782 -11.553544 -28.812242 33.896382 -0.703719 2.586799 0.051152 -0.010386 208403.000000 0 0 1
13.650182 -12.951144 -28.634892 34.263926 -0.759126 2.560231 0.062753 -0.022832 130601.000000 0 0 1
-10.391018 -2.952044 -17.958112 20.956660 0.276803 2.600054 0.031083 0.013460 543972.000000 0 1 0
-10.983818 -2.609044 -19.254112 22.319772 0.233213 2.611279 0.028454 0.016933 274294.000000 0 1 0
-11.991118 -3.434744 -19.791612 23.394279 0.278971 2.579238 0.026261 0.018938 -254791.000000 0 1 0
-12.837618 -2.730044 -20.860212 24.645609 0.209538 2.579998 0.027920 -0.003220 -134649.000000 0 1 0
-13.682418 -1.715944 -20.369312 24.598006 0.124761 2.546485 0.016687 -0.000221 -175604.000000 0 1 0
-14.503318 -1.275744 -21.431012 25.908725 0.087736 2.544855 0.019310 -0.003470 -73254.200000 0 0 1
-15.151718 0.097456 -21.324712 26.159652 -0.006432 2.523829 0.028877 0.005266 -52261.800000 0 0 1
-14.355918 1.249456 -21.535112 25.911669 -0.086815 2.551874 0.035761 0.000791 -24743.700000 0 0 1
-15.135318 2.426656 -21.401412 26.324645 -0.158978 2.520048 0.034371 0.013826 163655.000000 0 0 1
-14.465418 3.670856 -22.032712 26.611349 -0.248522 2.546228 0.049212 -0.003197 352358.000000 0 0 1
-13.340018 4.137356 -21.309012 25.478379 -0.300739 2.561399 0.042953 0.000930 630381.000000 0 0 1
-12.543218 5.119256 -22.006412 25.842238 -0.387495 2.589765 0.041188 -0.006998 -221394.000000 0 0 1
-11.437318 5.675956 -21.132312 24.690146 -0.460656 2.598086 0.023515 -0.006848 -541123.000000 0 1 0
-11.927418 6.342556 -19.951712 24.094857 -0.488734 2.546414 0.041037 -0.011437 355363.000000 0 1 0
-10.886718 6.631756 -19.027212 22.902742 -0.547128 2.551310 0.027666 -0.006558 -110434.000000 0 1 0
-11.277418 7.222456 -17.654812 22.159341 -0.569622 2.492646 0.041115 -0.005786 -200179.000000 0 1 0
-11.811718 8.514056 -17.748312 22.956664 -0.624559 2.454546 0.042721 -0.009728 52735.700000 0 1 0
-12.871118 8.625256 -16.819212 22.868026 -0.590393 2.397186 0.052550 -0.005662 -116788.000000 0 1 0
-13.575418 9.975556 -16.948712 23.896915 -0.633718 2.359220 0.053414 -0.004173 -280221.000000 0 1 0
-12.833818 10.988656 -16.305812 23.480565 -0.708098 2.338436 0.027488 0.004926 396597.000000 0 1 0
-13.473918 12.244956 -16.406312 24.508213 -0.737650 2.304225 0.047768 -0.003992 -237643.000000 0 1 0
-12.613618 13.315056 -15.769812 24.188448 -0.812444 2.280958 0.048636 0.002476 -683484.000000 0 1 0
-12.463718 13.166156 -14.399912 23.152740 -0.812798 2.242030 0.056205 0.000748 -32896.700000 0 1 0
-11.790118 14.214856 -13.727412 23.011103 -0.878371 2.209999 0.050761 -0.008225 -1222380.000000 0 1 0
-12.355618 14.465256 -12.306612 22.657397 -0.863893 2.144994 0.026878 -0.009179 1619540.000000 0 1 0
-13.704518 15.030056 -12.253412 23.745789 -0.831496 2.113000 0.019112 -0.004953 1236780.000000 0 1 0
-14.703918 14.074556 -12.527412 23.900510 -0.763532 2.122511 0.031200 -0.002195 -542207.000000 0 1 0
-16.141418 14.603656 -12.240612 24.972880 -0.735423 2.083065 0.027582 0.004897 350953.000000 0 1 0
-17.153818 13.626456 -12.424512 25.185358 -0.671298 2.086702 0.029329 0.003210 -497234.000000 0 0 1
-18.330518 14.082656 -11.836712 25.969922 -0.655087 2.044051 0.080741 -0.000467 -101737.000000 0 0 1
-19.605218 13.535756 -12.567412 26.935499 -0.604265 2.056210 0.063417 -0.000831 191777.000000 0 0 1
-19.874818 12.137556 -12.444012 26.404206 -0.548250 2.061548 0.072577 -0.002809 821789.000000 0 0 1
-21.086318 11.802156 -13.148312 27.510031 -0.510265 2.069111 0.080068 -0.003315 641932.000000 0 0 1
-21.730118 10.493956 -12.587112 27.216843 -0.449892 2.051581 0.073815 -0.002073 -240164.000000 0 0 1
-20.892718 9.401056 -12.728512 26.208787 -0.422827 2.077912 0.063074 0.002381 249025.000000 0 0 1
-21.480118 8.332556 -11.961912 25.959859 -0.370049 2.049676 0.054112 -0.000279 -356482.000000 0 0 1
-20.697418 7.077356 -11.821612 24.864082 -0.329480 2.066271 0.073256 -0.000892 -665575.000000 0 1 0
-20.713718 6.218356 -12.900812 25.182474 -0.291645 2.108649 0.083287 0.005251 357552.000000 0 0 1
-19.497218 5.530556 -13.115612 24.140171 -0.276398 2.145172 0.063896 -0.002237 -135683.000000 0 1 0
-19.536918 4.354456 -14.174012 24.526620 -0.219299 2.186953 0.066985 -0.005071 -308029.000000 0 1 0
-20.202318 3.200256 -13.717012 24.627865 -0.157105 2.161531 0.060957 -0.012248 251096.000000 0 1 0
-20.056118 2.094856 -14.572112 24.879364 -0.104072 2.196553 0.060715 -0.022860 -40790.900000 0 1 0
-20.871818 0.802356 -14.172612 25.241622 -0.038423 2.166967 0.060687 -0.015004 -385848.000000 0 0 1
-22.223718 0.776156 -14.501612 26.547934 -0.034910 2.148668 0.057828 -0.017098 -450822.000000 0 0 1
-22.608518 -0.530944 -14.592612 26.914147 0.023480 2.143839 0.056909 -0.020991 -504186.000000 0 0 1
-23.863618 -0.698744 -15.470612 28.448205 0.029272 2.145775 0.059270 -0.014992 -655883.000000 0 0 1
-24.990618 -0.180244 -14.845912 29.068275 0.007212 2.106825 0.080569 -0.022525 -220458.000000 0 0 1
-26.154348 -0.625444 -15.523812 30.420879 0.023909 2.106331 0.072385 -0.009883 336378.000000 0 0 1
-27.566488 -0.227944 -15.066012 31.415728 0.008269 2.070960 0.065603 -0.014211 -502160.000000 0 0 1
-27.901928 -0.765244 -13.817512 31.145254 0.027419 2.030461 0.075210 -0.008145 1179360.000000 0 0 1
-29.139648 -0.281644 -13.197212 31.990074 0.009665 1.996038 0.085610 -0.009299 1452590.000000 0 0 1
-29.373548 -0.806244 -11.748712 31.646289 0.027441 1.951152 0.081274 -0.008523 -151880.000000 0 0 1
-29.618638 -2.189744 -11.600112 31.884499 0.073797 1.943158 0.091922 -0.004911 -81804.900000 0 0 1
-28.582918 -3.087744 -11.867312 31.102258 0.107610 1.962277 0.094615 -0.014042 -524329.000000 0 0 1
-28.920858 -4.488444 -11.336612 31.385999 0.153969 1.940350 0.085688 -0.015889 -101541.000000 0 0 1
-30.054158 -5.065944 -11.955712 32.739201 0.166991 1.944623 0.080348 -0.010885 62567.500000 0 0 1
-30.372468 -6.366044 -11.494912 33.092995 0.206608 1.925542 0.070958 -0.011764 -28940.400000 0 0 1
-29.471238 -7.568744 -11.874812 32.662684 0.251385 1.942882 0.062064 -0.017342 -960016.000000 0 0 1
-28.202918 -7.612444 -11.357212 31.342306 0.263634 1.941596 0.054857 -0.015023 -987160.000000 0 0 1
-27.499628 -8.719344 -11.900712 31.207106 0.307044 1.962048 0.059873 -0.017840 13127.100000 0 0 1
-25.981008 -8.726644 -11.629712 29.772761 0.324046 1.972097 0.061045 -0.024890 -743575.000000 0 0 1
-25.307718 -7.577944 -12.071812 29.045387 0.290936 1.999419 0.058429 -0.019922 -432516.000000 0 0 1
-23.961918 -7.603144 -11.715112 27.734909 0.307253 2.006883 0.065347 -0.022383 -702117.000000 0 0 1
-23.559718 -7.378544 -10.231312 26.724202 0.303509 1.963674 0.049053 -0.017468 -713347.000000 0 0 1
-23.904818 -6.116544 -9.729112 26.523727 0.250496 1.946372 0.048572 -0.008067 875127.000000 0 0 1
-25.307018 -5.897944 -9.532512 27.678506 0.228969 1.922397 0.047564 -0.011561 230083.000000 0 0 1
-25.666328 -4.492844 -8.937712 27.546846 0.173292 1.901232 0.056317 -0.016966 -228796.000000 0 0 1
-25.448598 -4.476344 -7.561912 26.923063 0.174116 1.855498 0.043546 -0.009446 254361.000000 0 0 1
-25.630048 -3.156544 -6.990512 26.753138 0.122541 1.835162 0.065450 -0.014464 10838.800000 0 0 1
-25.505558 -3.054244 -5.500112 26.270005 0.119181 1.781725 0.054531 -0.008507 -11573.900000 0 0 1
-24.200518 -3.348844 -5.041312 24.945835 0.137506 1.774288 0.034359 -0.003524 58155.000000 0 1 0
-24.033518 -3.157244 -3.635212 24.511078 0.130620 1.719654 0.018919 -0.007124 -271884.000000 0 1 0
-22.745618 -3.791044 -3.109912 23.268148 0.165153 1.704853 0.013397 0.000727 -353880.000000 0 1 0
-22.703618 -5.191644 -3.151212 23.501864 0.224805 1.705285 0.031744 0.000290 996637.000000 0 1 0
-21.415018 -5.757944 -2.843812 22.357196 0.262662 1.698341 0.025947 -0.007787 629562.000000 0 1 0
-21.446918 -7.315344 -2.742112 22.825506 0.328716 1.691221 0.042961 -0.005389 -114213.000000 0 1 0
-22.238918 -7.618544 -1.630312 23.564160 0.330047 1.640038 0.053868 0.003389 495458.000000 0 1 0
-22.842418 -8.925244 -1.809912 24.590889 0.372491 1.644464 0.052730 -0.007834 198466.000000 0 1 0
-23.144018 -9.681644 -0.485912 25.092149 0.396200 1.590163 0.041126 -0.011760 885970.000000 0 0 1
-21.922018 -10.188944 0.091488 24.174322 0.435078 1.567012 0.029103 -0.004368 1097770.000000 0 1 0
-22.244918 -11.084344 1.151288 24.880204 0.462276 1.524507 0.017179 -0.002230 -471689.000000 0 1 0
-21.035318 -11.604244 1.888288 24.097899 0.504113 1.492357 0.020999 -0.003787 -519277.000000 0 1 0
-20.292818 -12.535444 1.143288 23.879760 0.553353 1.522901 0.021894 0.002330 -384428.000000 0 1 0
-19.139718 -12.938944 1.787688 23.171986 0.594454 1.493571 -0.000298 0.003413 -666438.000000 0 1 0
-18.351218 -14.042544 1.085588 23.133066 0.653165 1.523851 0.002154 0.006954 -186584.000000 0 1 0
-19.091318 -15.260744 1.103488 24.466026 0.674348 1.525678 0.012450 0.006581 250948.000000 0 1 0
-18.550518 -16.293944 0.317688 24.692413 0.720727 1.557930 0.011914 -0.003459 -107626.000000 0 1 0
-17.387518 -17.041544 0.992088 24.366458 0.775350 1.530070 0.007220 0.004286 217651.000000 0 1 0
-16.091318 -16.440944 1.010388 23.027289 0.796145 1.526904 -0.000148 0.006935 626585.000000 0 1 0
-15.205718 -17.098944 1.886488 22.959673 0.843937 1.488538 0.015650 0.002341 22700.900000 0 1 0
-15.267418 -16.678044 3.385288 22.862883 0.829527 1.422181 0.030042 -0.012005 -459798.000000 0 1 0
-14.868118 -15.353444 3.662488 21.684165 0.801456 1.401081 0.014793 -0.009261 241303.000000 0 1 0
-14.054218 -15.150644 4.830088 21.222460 0.822923 1.341191 0.000535 -0.007958 66640.500000 0 1 0
-14.651918 -15.501844 6.215188 22.217436 0.813577 1.287269 0.025066 -0.007625 -931237.000000 0 1 0
-15.546718 -14.532344 6.761288 22.329454 0.751687 1.263170 0.024725 -0.007872 202065.000000 0 1 0
-15.796118 -14.774044 8.131988 23.106687 0.751977 1.211162 0.026190 -0.001625 -218937.000000 0 1 0
-16.701918 -15.969644 8.502288 24.622602 0.762989 1.218233 0.019923 0.004426 -642725.000000 0 1 0
-16.062218 -17.233044 8.283488 24.971761 0.820549 1.232676 0.017104 0.004253 -311867.000000 0 1 0
-16.719218 -18.415744 8.570588 26.308304 0.833647 1.238965 0.015829 0.004087 -540029.000000 0 0 1
-16.627218 -18.798244 10.053888 27.035514 0.846606 1.189766 0.020710 -0.002107 166867.000000 0 0 1
-15.320918 -19.227644 10.370388 26.682912 0.897999 1.171627 0.021272 -0.004431 -28431.600000 0 0 1
-15.163718 -19.575744 11.734488 27.401575 0.911725 1.128251 0.022730 -0.005638 -193844.000000 0 0 1
-13.824918 -20.249444 12.061788 27.324990 0.971755 1.113616 0.019945 -0.000222 -121346.000000 0 0 1
-12.711418 -19.397644 11.938588 26.084069 0.990699 1.095394 0.007287 -0.004389 -317041.000000 0 0 1
-11.521518 -20.148444 12.110988 26.179787 1.051346 1.089861 -0.003046 -0.001414 723831.000000 0 0 1
-10.284318 -19.345344 12.618588 25.283163 1.082176 1.048247 0.007249 -0.009628 436364.000000 0 0 1
-9.755418 -18.519344 11.634088 23.947574 1.085963 1.063501 0.007956 -0.015080 -721331.000000 0 1 0
-8.642918 -17.835444 12.132588 23.237960 1.119551 1.021483 0.006506 -0.013526 -382362.000000 0 1 0
-7.859418 -17.064044 11.064888 21.803298 1.139176 1.038531 -0.002915 -0.015441 183661.000000 0 1 0
-7.078518 -17.929544 10.232688 21.823883 1.194784 1.082779 0.004765 -0.013914 22687.700000 0 1 0
-6.398918 -17.115544 9.258788 20.484462 1.213020 1.101800 0.009721 -0.016736 -72529.400000 0 1 0
-5.319118 -17.939844 8.485588 20.545954 1.282556 1.145045 0.006247 -0.015575 -273990.000000 0 1 0
-4.143818 -18.074444 9.242788 20.719216 1.345427 1.108396 0.021351 -0.014921 -850281.000000 0 1 0
-3.233718 -18.752144 8.408288 20.803826 1.400031 1.154725 0.037234 -0.012336 -710737.000000 0 1 0
-1.942918 -19.040644 9.125888 21.203842 1.469108 1.125873 0.021687 -0.019162 -829543.000000 0 1 0
-0.869718 -19.465944 8.339888 21.195121 1.526147 1.166381 0.040974 -0.012129 -113752.000000 0 1 0
0.275182 -19.734544 9.125988 21.744232 -1.556853 1.137685 0.052746 -0.013358 -101441.000000 0 1 0
1.587182 -20.074344 8.416588 21.825155 -1.491895 1.174898 0.053121 -0.028905 -22176.800000 0 1 0
1.765582 -21.354244 7.882088 22.830864 -1.488303 1.218304 0.050071 -0.014839 -233652.000000 0 1 0
1.929882 -22.360644 8.843588 24.123265 -1.484703 1.195444 0.051271 -0.017675 -88082.900000 0 1 0
1.696682 -23.805344 8.347988 25.283632 -1.499644 1.234309 0.033259 -0.006363 193382.000000 0 0 1
1.944682 -24.756244 9.339688 26.530797 -1.492404 1.211055 0.036995 -0.002669 -230972.000000 0 0 1
1.448582 -26.014204 8.983188 27.559661 -1.515170 1.238775 0.038592 -0.006715 -472254.000000 0 0 1
1.701182 -27.215064 9.957888 29.029524 -1.508369 1.220660 0.039211 -0.006343 929497.000000 0 0 1
0.807982 -27.305294 11.123488 29.495151 -1.541214 1.184101 0.032829 -0.005914 1361840.000000 0 0 1
-0.543618 -27.741084 10.871788 29.800320 1.551203 1.197356 0.028392 -0.002910 733879.000000 0 0 1
-1.231718 -28.028114 12.203288 30.594322 1.526879 1.160507 0.024686 -0.007127 -126982.000000 0 0 1
-0.730018 -29.179134 12.859288 31.895393 1.545783 1.155817 0.013489 -0.005996 -83718.200000 0 0 1
-1.060418 -29.126284 14.277888 32.454938 1.534405 1.115276 0.014042 -0.010701 82544.600000 0 0 1
-0.250218 -30.094344 15.163388 33.699562 1.562482 1.104078 0.004115 0.007348 153465.000000 0 0 1
-0.644918 -29.932884 16.525288 34.197641 1.549254 1.066457 0.006242 0.006455 74536.400000 0 0 1
0.025582 -30.834274 17.369688 35.390100 -1.569967 1.057781 0.001347 0.009732 -153012.000000 0 0 1
-0.418218 -30.618554 18.855588 35.961145 1.557138 1.018866 0.002036 0.003575 226339.000000 0 0 1
-1.772818 -30.946484 19.096188 36.407309 1.513572 1.018651 -0.013006 0.003916 -37712.400000 0 0 1
-2.033418 -30.681124 20.444588 36.924888 1.504617 0.984019 0.008903 -0.001488 -154987.000000 0 0 1
-3.530718 -30.648694 20.772288 37.192693 1.456102 0.978214 0.038252 -0.012221 -103427.000000 0 0 1
-4.325118 -29.647404 20.122788 36.091576 1.425933 0.979367 0.032388 -0.016220 1110210.000000 0 0 1
-5.649418 -29.457474 20.662788 36.422651 1.381315 0.967566 0.047646 -0.020863 1134210.000000 0 0 1
-5.798318 -28.337994 21.731588 36.179059 1.368969 0.926460 0.065169 -0.025855 -334569.000000 0 0 1
-5.016518 -28.686994 22.837888 37.009164 1.397676 0.905760 0.057666 -0.022880 -88974.500000 0 0 1
-5.109418 -27.699644 23.852388 36.909523 1.388389 0.868150 0.066695 -0.027192 -171271.000000 0 0 1
-3.998118 -27.758884 24.927188 37.522064 1.427750 0.844194 0.076076 -0.027441 55711.300000 0 0 1
-4.094018 -28.888104 25.747988 38.913268 1.430014 0.847744 0.076516 -0.030879 21801.400000 0 0 1
-3.552418 -30.089694 25.232488 39.429530 1.453279 0.876378 0.054693 -0.023362 -248895.000000 0 0 1
-3.981418 -31.306464 26.047388 40.919590 1.444300 0.880779 0.058705 -0.022897 225424.000000 0 0 1
-3.320918 -31.279584 27.340888 41.676913 1.465024 0.855263 0.057240 -0.024192 353483.000000 0 0 1
-3.656718 -32.305154 28.274588 43.086505 1.458083 0.854987 0.055243 -0.026656 -209928.000000 0 0 1
-3.069018 -32.024434 29.683888 43.773468 1.475254 0.825588 0.074087 -0.025037 790328.000000 0 0 1
-1.636318 -32.123584 29.714388 43.789806 1.519902 0.824984 0.067048 -0.023593 772630.000000 0 0 1
-1.191118 -31.917674 31.033088 44.533238 1.533495 0.799797 0.064977 -0.020028 -265723.000000 0 0 1
-27.837528 3.213356 -9.967312 29.742242 -0.114924 1.912532 0.086667 -0.011349 -561885.000000 0 0 1
-28.789638 2.703256 -10.899612 30.902304 -0.093622 1.931264 0.072816 -0.008674 659790.000000 0 0 1
-29.486288 3.810256 -11.525712 31.887322 -0.128509 1.940620 0.050737 -0.008110 168107.000000 0 0 1
-30.271988 3.429956 -12.822012 33.053923 -0.112823 1.969161 0.047153 -0.008439 480347.000000 0 0 1
-31.397708 2.609156 -12.517412 33.901466 -0.082910 1.948976 0.056765 -0.007649 416396.000000 0 0 1
-32.284208 2.503156 -13.596912 35.119964 -0.077380 1.968342 0.059939 -0.005813 395062.000000 0 0 1
-33.507468 1.547856 -13.416312 36.126773 -0.046162 1.951278 0.052501 -0.000437 729614.000000 0 0 1
-33.120208 0.151956 -13.263012 35.677427 -0.004588 1.951688 0.067996 -0.002005 201508.000000 0 0 1
-34.284192 -0.639344 -13.216712 36.749096 0.018646 1.938686 0.052623 -0.000910 -47969.600000 0 0 1
-33.995288 -2.070344 -12.763712 36.371394 0.060826 1.929357 0.062462 -0.000032 35599.500000 0 0 1
-33.434018 -2.849644 -13.805312 36.284166 0.085026 1.961109 0.050911 0.006523 180328.000000 0 0 1
-32.971798 -4.154844 -13.419712 35.839795 0.125351 1.954585 0.059378 -0.001980 190766.000000 0 0 1
-33.661878 -5.360544 -14.137912 36.901735 0.157921 1.963971 0.050642 0.000710 121730.000000 0 0 1
-33.402998 -6.580244 -13.550912 36.642695 0.194505 1.949603 0.052219 -0.012579 5919.990000 0 0 1
-33.851438 -7.591044 -14.406012 37.564305 0.220597 1.964382 0.056177 -0.004107 -869668.000000 0 0 1
-33.699708 -8.958644 -13.764112 37.488377 0.259828 1.946747 0.058779 -0.008233 -348533.000000 0 0 1
-32.360548 -9.277844 -13.479412 36.262626 0.279213 1.951654 0.042829 -0.012468 -115967.000000 0 0 1
-31.530408 -9.592444 -14.537312 36.021037 0.295331 1.986221 0.035754 -0.013090 -1040070.000000 0 0 1
-30.286328 -10.387344 -14.140812 35.001731 0.330400 1.986685 0.035722 -0.014687 -310859.000000 0 0 1
-30.663198 -11.714944 -13.868412 35.634316 0.364939 1.970545 0.028646 -0.015391 45572.700000 0 0 1
-29.572018 -12.534544 -13.548012 34.859255 0.400909 1.969961 0.047032 -0.018032 -299170.000000 0 0 1
-29.953618 -13.990344 -13.969212 35.889941 0.436956 1.970585 0.058982 -0.011557 -84712.500000 0 0 1
-29.992738 -14.018144 -15.378212 36.504275 0.437217 2.005643 0.057035 -0.010835 -15524.100000 0 0 1
-30.017098 -15.286544 -16.040412 37.309509 0.471029 2.015210 0.054703 -0.012225 135857.000000 0 0 1
-28.819698 -16.303944 -15.922612 36.741301 0.514834 2.019026 0.043740 -0.000232 -3215.150000 0 0 1
-27.651018 -15.719444 -16.406812 35.789149 0.516931 2.047024 0.056805 -0.014727 -558847.000000 0 0 1
-26.547328 -16.628744 -16.270512 35.298801 0.559592 2.049847 0.067140 -0.015604 205210.000000 0 0 1
-25.262598 -15.960744 -16.757912 34.260354 0.563470 2.081893 0.078794 -0.020935 -373458.000000 0 0 1
-25.394858 -15.515544 -18.133812 34.849191 0.548448 2.118058 0.084944 -0.030505 1061410.000000 0 0 1
-24.083418 -15.410044 -18.752012 34.192374 0.569215 2.151278 0.060158 -0.027689 864912.000000 0 0 1
-24.164418 -15.195744 -20.336412 35.048529 0.561362 2.189815 0.066547 -0.026311 -132118.000000 0 0 1
-24.583018 -16.305744 -21.039012 36.233163 0.585663 2.190331 0.065517 -0.029676 -819907.000000 0 0 1
-25.945478 -16.275844 -21.268412 37.288286 0.560258 2.177762 0.071089 -0.031391 -1037980.000000 0 0 1
-26.394758 -17.622244 -21.952212 38.589200 0.588677 2.175927 0.076363 -0.029864 -153967.000000 0 0 1
-26.138688 -17.475244 -23.369812 39.176055 0.589311 2.209971 0.073596 -0.025921 196478.000000 0 0 1
-26.504088 -18.635844 -24.098812 40.379625 0.612824 2.210311 0.058997 -0.017506 -354298.000000 0 0 1
-25.749508 -18.805244 -25.450532 40.797107 0.630783 2.244432 0.043128 -0.017594 252796.000000 0 0 1
-24.426818 -19.299044 -25.423432 40.192953 0.668660 2.255618 0.052263 -0.025342 9519.600000 0 0 1
-24.382918 -20.711344 -25.073312 40.646740 0.704157 2.235542 0.041516 -0.021229 -543799.000000 0 0 1
-22.951018 -21.247544 -24.943012 40.004515 0.746876 2.244014 0.040657 -0.014447 -80911.300000 0 0 1
-22.179018 -21.294044 -26.098032 40.329300 0.765044 2.274601 0.030934 -0.015413 -242956.000000 0 0 1
-20.847918 -21.661444 -25.800322 39.617048 0.804533 2.280017 0.035173 -0.017015 482420.000000 0 0 1
-19.846318 -21.464744 -27.006442 39.798989 0.824555 2.316612 0.031305 -0.018548 -41189.900000 0 0 1
-19.857418 -22.374344 -28.074502 41.025675 0.844926 2.324461 0.034134 -0.011739 -147658.000000 0 0 1
-20.525318 -21.770444 -29.181542 41.794776 0.814828 2.343691 0.035595 -0.014094 93191.100000 0 0 1
-19.696618 -21.891644 -30.473542 42.377324 0.838129 2.373303 0.029694 -0.014809 -61840.800000 0 0 1
-19.490118 -23.215044 -30.846832 43.247312 0.872402 2.364943 0.033568 -0.017236 -15937.900000 0 0 1
-19.125318 -23.252644 -32.209382 44.089767 0.882485 2.389910 0.028857 -0.013206 111435.000000 0 0 1
-18.501918 -24.616044 -32.691362 44.910976 0.926259 2.386072 0.028539 -0.014548 -105589.000000 0 0 1
-18.026218 -24.784944 -33.997332 45.771788 0.941979 2.407975 0.029396 -0.010867 -285852.000000 0 0 1
-18.880418 -24.400644 33.727698 45.710166 0.912257 0.740902 0.037449 -0.007795 -588761.000000 0 0 1
-18.237718 -24.569444 32.333341 44.516479 0.932246 0.757839 0.036780 -0.004632 -215748.000000 0 0 1
-17.400818 -23.455944 32.011381 43.332416 0.932531 0.739598 0.033116 -0.011063 -214919.000000 0 0 1
-16.915918 -23.727244 30.702071 42.329039 0.951444 0.759298 0.036149 -0.011991 -90077.600000 0 0 1
-15.896818 -22.709344 30.200001 40.993453 0.960062 0.742615 0.028696 -0.011068 -242756.000000 0 0 1
-16.591218 -21.513744 29.983011 40.460977 0.913870 0.736185 0.037208 -0.016843 -282719.000000 0 0 1
-15.793218 -20.379444 29.754191 39.370793 0.911512 0.714009 0.040439 -0.015835 -265795.000000 0 0 1
-15.332318 -19.745744 31.067281 39.876689 0.910558 0.677593 0.040367 -0.025304 -134763.000000 0 0 1
-14.892718 -18.438744 30.879421 38.927098 0.891386 0.654647 0.040469 -0.029437 -368067.000000 0 0 1
-14.121718 -17.958744 31.936241 39.266562 0.904439 0.620962 0.038897 -0.031300 -510878.000000 0 0 1
-13.814718 -16.433644 31.669261 38.260334 0.871764 0.595745 0.039532 -0.018063 -364472.000000 0 0 1
-12.518618 -16.156944 31.212251 37.309077 0.911603 0.579775 0.050863 -0.019422 -394667.000000 0 0 1
-12.279918 -14.757944 30.984211 36.450166 0.876793 0.554729 0.036464 -0.018154 -381195.000000 0 0 1
-10.832118 -14.468844 30.600791 35.539986 0.928159 0.533516 0.049580 -0.021887 -230110.000000 0 0 1
-10.565918 -13.096544 30.496311 34.830778 0.891940 0.504210 0.042383 -0.022963 -185062.000000 0 0 1
-9.191518 -12.887044 30.750811 34.585724 0.951242 0.475381 0.037852 -0.015216 92336.400000 0 0 1
-8.829118 -11.339644 30.629831 33.833820 0.909237 0.438706 0.039640 -0.012853 -209148.000000 0 0 1
-9.390518 -10.552844 31.657221 34.665891 0.843614 0.419704 0.039712 -0.015535 7467.780000 0 0 1
-9.019318 -9.230544 31.513381 34.053549 0.796972 0.388689 0.037129 -0.012404 -283567.000000 0 0 1
-9.783018 -8.326344 32.478811 34.927190 0.705133 0.376654 0.022606 -0.014223 387142.000000 0 0 1
-11.147318 -8.165344 32.096981 34.944981 0.632203 0.406525 0.035607 -0.016813 973258.000000 0 0 1
-12.068618 -7.639644 33.088375 36.039648 0.564344 0.407510 0.034951 -0.023038 783292.000000 0 0 1
-12.100118 -6.129644 33.333023 35.987162 0.468896 0.386464 0.038501 -0.017755 -276188.000000 0 0 1
-12.123418 -5.304544 32.186221 34.800406 0.412448 0.390075 0.033895 -0.016929 314978.000000 0 0 1
-12.288118 -3.940344 32.654491 35.111820 0.310304 0.376345 0.033852 -0.014072 -338461.000000 0 0 1
-11.754318 -2.832644 31.712401 33.939125 0.236479 0.364252 0.014197 -0.012586 -681101.000000 0 0 1
-10.360718 -2.797544 31.737961 33.503267 0.263725 0.326067 0.021494 -0.015681 -553952.000000 0 0 1
-10.015218 -1.574344 31.113471 32.723557 0.155919 0.314997 0.016258 -0.004703 -782451.000000 0 0 1
-8.543018 -1.260744 31.317951 32.486715 0.146518 0.269052 0.007489 -0.002436 -756531.000000 0 0 1
-8.199918 -0.843644 32.613151 33.638787 0.102524 0.247572 0.011396 -0.012549 -418633.000000 0 0 1
-6.839518 -0.645744 32.864925 33.575278 0.094135 0.206068 0.018740 -0.024372 -518195.000000 0 0 1
-6.548018 -0.007444 34.245070 34.865476 0.001137 0.188930 0.046800 -0.029663 -369855.000000 0 0 1
-7.023918 1.340756 -34.365355 35.101434 -0.188615 2.936440 0.050036 -0.017518 52056.500000 0 0 1
-6.539518 2.344756 33.530465 34.242594 -0.344273 0.204299 0.053838 -0.012251 -63414.300000 0 0 1
-7.243118 3.749256 33.617510 34.592725 -0.477652 0.238012 0.062249 -0.006443 327213.000000 0 0 1
-8.553018 3.800756 33.094863 34.392874 -0.418167 0.275610 0.037261 0.002551 86053.700000 0 0 1
-9.195418 5.044456 33.276698 34.890412 -0.501755 0.305326 0.030731 0.010283 -443084.000000 0 0 1
-10.596518 5.130156 32.687461 34.742982 -0.450876 0.345706 0.016960 0.016548 -464442.000000 0 0 1
-11.222518 6.370956 32.957446 35.393887 -0.516326 0.373209 0.022579 0.015317 550075.000000 0 0 1
-12.339418 6.559256 32.073131 34.985294 -0.488583 0.410903 -0.005654 0.017287 482250.000000 0 0 1
-13.044118 7.947656 32.255801 35.689647 -0.547223 0.442262 0.010094 0.004752 140074.000000 0 0 1
-13.756318 8.024356 33.474753 37.070010 -0.528066 0.444061 0.013537 0.000823 -191621.000000 0 0 1
-14.513218 9.173956 33.561184 37.698117 -0.563696 0.472877 0.013850 0.007467 -162086.000000 0 0 1
-15.467918 9.374956 -34.027482 38.535903 -0.544886 2.653028 0.013606 -0.005415 708293.000000 0 0 1
-14.683518 9.546756 -32.816672 37.197852 -0.576493 2.651352 0.015408 -0.012546 707886.000000 0 0 1
-15.589718 9.973856 -31.809142 36.801340 -0.569151 2.614648 0.027702 -0.015324 -909638.000000 0 0 1
-15.032318 10.123156 -30.393062 35.386256 -0.592668 2.603904 0.050922 -0.024527 -222419.000000 0 0 1
-14.206718 11.237156 -30.248172 35.257005 -0.669213 2.602030 0.054659 -0.025251 -8707.320000 0 0 1
-12.888218 11.024856 -30.729042 35.098827 -0.707633 2.637267 0.064857 -0.034881 -82286.100000 0 0 1
-11.934318 12.257456 -30.795652 35.228474 -0.798755 2.634519 0.066007 -0.030200 421447.000000 0 0 1
-12.452318 13.122356 -31.834692 36.615626 -0.811591 2.624842 0.062069 -0.029693 471327.000000 0 0 1
-11.682918 14.295456 -32.133672 37.059729 -0.885627 2.620103 0.061885 -0.025162 75131.100000 0 0 1
-11.878618 15.488456 -31.146932 36.757655 -0.916545 2.581788 0.073579 -0.030356 949540.000000 0 0 1
-13.155618 16.159356 -31.219092 37.534341 -0.887506 2.553044 0.073691 -0.030238 818273.000000 0 0 1
-13.222218 17.227956 -30.320052 37.295242 -0.916198 2.520037 0.053789 -0.024897 310831.000000 0 0 1
-14.614818 17.926956 -30.313002 38.129342 -0.886830 2.489811 0.036271 -0.028639 224976.000000 0 0 1
-14.871918 18.602456 -31.538992 39.521302 -0.896385 2.494807 0.045500 -0.030104 381204.000000 0 0 1
-16.223718 18.998056 -31.765812 40.412893 -0.864004 2.475159 0.039026 -0.032284 528718.000000 0 0 1
-16.659018 20.314056 -31.054882 40.676645 -0.883935 2.439446 0.009329 -0.029508 -448104.000000 0 0 1
-16.110518 21.490656 -31.632642 41.497242 -0.927518 2.437629 0.022600 -0.031333 33612.900000 0 0 1
-16.559318 22.741456 -31.127702 41.956152 -0.941423 2.406711 0.003513 -0.022854 -747258.000000 0 0 1
-17.957918 23.209156 -31.471532 43.030327 -0.912272 2.391140 0.018899 -0.022215 -562146.000000 0 0 1
-18.992118 22.567156 -30.726192 42.591970 -0.871210 2.376630 0.006867 -0.028525 196046.000000 0 0 1
-20.095618 22.419356 -31.587382 43.637416 -0.840001 2.380177 0.020502 -0.024741 -74383.800000 0 0 1
-21.383918 21.724356 -31.025192 43.494622 -0.793295 2.365008 0.013200 -0.034614 -234318.000000 0 0 1
-22.224018 22.545456 -30.232212 43.774321 -0.792578 2.333167 0.030490 -0.033411 963276.000000 0 0 1
-23.214918 23.353856 -30.914222 45.166626 -0.788382 2.324643 0.045154 -0.026136 281353.000000 0 0 1
-24.274918 22.661056 -31.791342 45.972650 -0.751027 2.334398 0.043729 -0.033275 -1160980.000000 0 0 1
-23.774118 21.883056 -32.876722 46.097241 -0.744003 2.364854 0.043701 -0.027166 -419479.000000 0 0 1
-24.783618 21.511156 -33.775922 47.093210 -0.714828 2.370593 0.048020 -0.022511 -300560.000000 0 0 1
-24.385218 20.554656 33.799734 46.471010 -0.700366 0.756374 0.042485 -0.013657 17294.700000 0 0 1
-24.067118 19.179056 34.189656 45.999945 -0.672847 0.732875 0.039784 -0.016936 271291.000000 0 0 1
-23.950218 18.294356 33.056423 44.732801 -0.652306 0.739249 0.031036 -0.009907 -301000.000000 0 0 1
-23.592818 16.860156 33.624351 44.401384 -0.620478 0.711656 0.019246 -0.000287 -376215.000000 0 0 1
-24.644218 16.044356 34.082713 45.015443 -0.577106 0.711882 0.028941 0.002023 116073.000000 0 0 1
-25.222338 15.396356 32.978307 44.280727 -0.548050 0.730628 0.036437 -0.001109 -404592.000000 0 0 1
-26.270608 14.271656 33.180118 44.662571 -0.497650 0.733394 0.032869 0.002727 -522327.000000 0 0 1
-27.526158 14.679456 33.634963 45.874683 -0.489924 0.747792 0.026627 0.005281 105088.000000 0 0 1
-28.574648 13.721056 33.389798 46.039727 -0.447669 0.759415 0.023463 0.011950 583945.000000 0 0 1
-28.698068 12.416556 34.235466 46.366120 -0.408342 0.740143 0.022661 0.005260 -797857.000000 0 0 1
-27.624278 11.551656 34.075492 45.361665 -0.396072 0.720925 0.030383 0.000068 -345868.000000 0 0 1
-28.130018 10.234956 34.115172 45.386090 -0.348955 0.720212 0.038013 0.001888 -220151.000000 0 0 1
-27.024068 9.198156 -34.381670 44.687868 -0.328069 2.448656 0.041315 -0.006945 510415.000000 0 0 1
-26.036498 8.748356 33.457523 43.287860 -0.324152 0.687385 0.055975 -0.008085 967425.000000 0 0 1
-25.016418 9.736556 33.232657 42.720383 -0.371167 0.679462 0.042708 -0.016792 -56390.100000 0 0 1
-23.683818 9.331356 32.571401 41.338766 -0.375321 0.663382 0.048262 -0.009524 83166.800000 0 0 1
-23.775718 9.112456 31.166341 40.245030 -0.365999 0.685007 0.044473 -0.007246 -110140.000000 0 0 1
-22.496318 9.112856 30.585531 39.046167 -0.384880 0.670812 0.042900 -0.005212 -54180.300000 0 0 1
-22.363118 9.153156 29.067981 37.799958 -0.388495 0.693529 0.046967 -0.007011 18852.200000 0 0 1
-22.803918 10.391556 28.482051 37.937189 -0.427577 0.721571 0.040204 -0.001257 182698.000000 0 0 1
-22.659018 10.324756 27.078201 36.786691 -0.427549 0.743525 0.035508 -0.003878 -560719.000000 0 0 1
-22.850818 11.723356 26.370831 36.810565 -0.474024 0.772178 0.033793 -0.003630 448935.000000 0 0 1
-24.151518 12.301456 26.421261 37.851085 -0.471096 0.798151 0.035925 -0.003597 307700.000000 0 0 1
-25.067218 11.697156 25.535121 37.646132 -0.436598 0.825359 0.036325 -0.003445 -648.246000 0 0 1
-26.540068 12.161156 25.686631 38.885369 -0.429668 0.849214 0.034818 0.000234 239651.000000 0 0 1
-26.704648 13.493756 25.243391 39.146500 -0.467876 0.869977 0.031247 -0.000055 -681539.000000 0 0 1
-28.009148 13.905256 25.481971 40.338559 -0.460807 0.887049 0.025469 -0.005657 -489290.000000 0 0 1
-28.303588 15.323156 24.901061 40.693427 -0.496205 0.912312 0.019059 -0.008810 8164.770000 0 0 1
-27.614598 16.392756 25.541371 41.032305 -0.535720 0.898902 0.020272 -0.009024 1750.750000 0 0 1
-27.632178 17.459556 24.649661 40.938724 -0.563514 0.924654 0.022145 -0.008655 -86521.800000 0 0 1
-22.392418 -9.099044 31.673661 39.842613 0.385964 0.651839 0.016462 -0.014260 -552115.000000 0 0 1
-21.426918 -9.076744 30.669461 38.498259 0.400696 0.649071 0.012534 -0.013660 -111807.000000 0 0 1
-21.958818 -9.027544 29.315271 37.723618 0.390049 0.680741 0.017602 -0.014442 -244293.000000 0 0 1
-20.885118 -8.563844 28.354331 36.242181 0.389136 0.672355 0.020182 -0.013123 -1074300.000000 0 0 1
-20.544918 -7.187344 28.373861 35.760698 0.336528 0.654361 0.021786 -0.016003 -186514.000000 0 0 1
-19.325318 -6.920544 29.021391 35.547194 0.343879 0.615615 0.020995 -0.017114 -84979.500000 0 0 1
-18.049918 -7.257544 28.167131 34.232422 0.382300 0.604440 0.029224 -0.010503 -711347.000000 0 0 1
-17.655718 -8.616344 28.098681 34.285589 0.454018 0.610175 0.023560 -0.014888 138275.000000 0 0 1
-17.240218 -9.280044 29.309821 35.247836 0.493800 0.588930 0.028479 -0.013868 -460254.000000 0 0 1
-15.934418 -8.807844 30.007531 35.098942 0.504957 0.545359 0.034505 -0.015735 358397.000000 0 0 1
-14.807818 -9.409044 29.363591 34.205585 0.566051 0.538567 0.030177 -0.010214 358210.000000 0 0 1
-13.552818 -9.040944 29.932021 34.078489 0.588295 0.498447 0.032291 -0.015232 884380.000000 0 0 1
-12.356018 -9.932944 29.501041 33.490983 0.677112 0.493110 0.036675 -0.016008 121844.000000 0 0 1
-12.105418 -9.884244 28.120221 32.171202 0.684730 0.507257 0.042278 -0.010899 -320995.000000 0 0 1
-11.011218 -10.724744 27.865201 31.823521 0.772219 0.504086 0.047800 -0.009649 -269144.000000 0 0 1
-10.467018 -10.558644 26.376331 30.277950 0.789756 0.513277 0.041576 -0.005644 -39565.500000 0 0 1
-11.349118 -10.997044 25.375081 29.893681 0.769644 0.557001 0.039033 -0.006886 -203047.000000 0 0 1
-10.795518 -10.919544 24.085681 28.563958 0.791110 0.567552 0.028589 -0.006152 -164041.000000 0 0 1
-11.859418 -11.256244 23.016951 28.233470 0.759310 0.617659 0.032450 -0.011003 -706652.000000 0 0 1
-12.134918 -12.666944 23.078351 28.988239 0.806846 0.649927 0.048433 -0.011973 330665.000000 0 0 1
-13.317118 -13.000044 22.376051 29.103856 0.773351 0.693780 0.045361 -0.007780 780759.000000 0 0 1
-14.704918 -12.509444 22.919651 29.967169 0.704899 0.700026 0.028031 -0.005325 405598.000000 0 0 1
-15.826418 -13.337844 22.572751 30.625197 0.700275 0.742080 0.020451 0.000910 411352.000000 0 0 1
-16.911118 -13.153444 23.439751 31.755644 0.661056 0.740504 0.014446 0.005923 -220218.000000 0 0 1
-18.144218 -13.980144 23.028851 32.480533 0.656493 0.782710 0.030108 0.000707 -430027.000000 0 0 1
-17.953218 -15.366244 23.178851 33.101339 0.707912 0.795064 0.024463 0.005186 681594.000000 0 0 1
-19.204718 -16.048844 23.272551 34.175989 0.696117 0.821721 0.020801 0.009131 805815.000000 0 0 1
-20.056018 -15.949544 24.589281 35.514287 0.671838 0.806018 0.025010 0.006053 45812.600000 0 0 1
-19.453518 -16.645144 25.671871 36.256657 0.707757 0.784050 0.031573 0.007210 110972.000000 0 0 1
-20.205918 -16.603144 26.864701 37.492075 0.687832 0.771962 0.026980 0.002034 -313761.000000 0 0 1
-19.681718 -17.573844 27.959371 38.443939 0.728880 0.756451 0.030793 -0.004509 -210614.000000 0 0 1
-19.860718 -18.963644 27.767951 39.052875 0.762296 0.779828 0.039992 -0.003481 58100.800000 0 0 1
-19.573618 -19.733044 28.895351 40.093152 0.789454 0.765977 0.035257 -0.009244 -383156.000000 0 0 1
-19.486418 -21.250844 28.552741 40.578047 0.828683 0.790275 0.039099 -0.000971 35981.400000 0 0 1
-20.762118 -21.763844 28.190091 41.223921 0.808949 0.817799 0.038768 0.002278 123438.000000 0 0 1
-20.676618 -23.102044 27.770771 41.622622 0.840744 0.840348 0.050327 0.012837 -301361.000000 0 0 1
-21.932418 -23.899944 27.370711 42.442833 0.828301 0.869925 0.054949 0.016615 -152080.000000 0 0 1
-22.767518 -24.138744 28.510021 43.747687 0.814623 0.860983 0.045393 0.015458 -65330.700000 0 0 1
-23.939018 -24.711744 27.988621 44.352111 0.801280 0.887884 0.034873 0.017579 -154376.000000 0 0 1
-24.755218 -25.590594 28.991661 45.915310 0.801989 0.887418 0.021709 0.008740 -103644.000000 0 0 1
-25.509788 -24.879644 29.930281 46.535661 0.772893 0.872167 0.010959 0.015411 -30287.400000 0 0 1
-26.350598 -25.714814 30.674261 47.921978 0.773188 0.876184 0.017860 0.016861 -300702.000000 0 0 1
-27.501298 -24.928944 31.319971 48.566596 0.736375 0.869921 0.012165 0.006652 -558645.000000 0 0 1
-28.484638 -24.535744 30.398651 48.347237 0.711057 0.890843 0.025648 0.003640 516908.000000 0 0 1
-29.564578 -23.910544 31.130261 49.141343 0.680058 0.884748 0.022691 -0.006755 -20254.400000 0 0 1
-30.844118 -23.728744 30.335191 49.342038 0.655747 0.908672 0.019270 -0.007392 -336213.000000 0 0 1
-31.746248 -24.843544 30.316451 50.439203 0.664020 0.925983 0.023182 -0.007718 294234.000000 0 0 1
-32.901788 -24.611144 29.540241 50.604959 0.642232 0.947466 0.020016 -0.013200 -43905.200000 0 0 1
-34.050098 -25.492124 30.104701 52.110945 0.642646 0.954883 0.021598 -0.012684 -117543.000000 0 0 1
-33.821978 -26.873794 30.023241 52.607243 0.671419 0.963432 0.025704 -0.008671 30253.800000 0 0 1
-34.811864 -27.502324 30.809511 54.013606 0.668630 0.963800 0.040668 -0.012157 22120.200000 0 0 1
-34.431315 -28.888874 31.426241 54.842421 0.698090 0.960600 0.039690 -0.015112 30007.800000 0 0 1
-33.442198 -28.823304 32.435531 54.783457 0.711353 0.937174 0.037824 -0.004582 88035.800000 0 0 1
-32.822448 -30.103244 32.610201 55.199127 0.742212 0.938779 0.033395 -0.004125 -234117.000000 0 0 1
-31.814188 -30.264074 33.729936 55.369354 0.760433 0.915769 0.032762 -0.011219 -508098.000000 0 0 1
-32.326968 -30.167504 -33.735642 55.616587 0.750857 2.222542 0.035982 -0.012460 -504684.000000 0 0 1
-31.374478 -30.359294 -32.712972 54.554406 0.768955 2.213847 0.029613 -0.010065 -130958.000000 0 0 1
-31.836358 -29.867374 -31.313102 53.722659 0.753499 2.193047 0.031106 -0.018335 -15408.400000 0 0 1
-31.899758 -28.483534 -31.161302 52.914394 0.728883 2.200494 0.022919 -0.021064 9554.890000 0 0 1
-30.619228 -27.936474 -30.902922 51.700816 0.739615 2.211458 0.019797 -0.013264 -321642.000000 0 0 1
-30.539318 -26.387364 -31.065162 50.931201 0.712592 2.226786 0.011325 -0.008271 -445784.000000 0 0 1
-31.228928 -25.716424 -30.024152 50.378866 0.688895 2.209266 0.015063 -0.016095 91244.100000 0 0 1
-31.186618 -24.313744 -30.071462 49.679534 0.662191 2.220950 0.021267 -0.021925 -548514.000000 0 0 1
-29.883618 -23.752644 -29.505022 48.246918 0.671586 2.228805 0.027538 -0.019909 -480665.000000 0 0 1
-29.960418 -22.377144 -29.494912 47.626811 0.641508 2.238637 0.033291 -0.019593 582473.000000 0 0 1
-28.956588 -21.856744 -28.600392 46.197226 0.646573 2.238384 0.031574 -0.020199 359782.000000 0 0 1
-28.679528 -20.342244 -28.799162 45.450126 0.616937 2.257050 0.041999 -0.026841 91467.600000 0 0 1
-28.069218 -20.091544 -30.086572 45.790315 0.621242 2.287696 0.036459 -0.013389 478869.000000 0 0 1
-27.780478 -18.718044 -30.151352 45.069105 0.592914 2.303662 0.030138 -0.016767 -550156.000000 0 0 1
-27.402448 -18.359644 -31.614182 45.688371 0.590307 2.334986 0.034226 -0.013448 -148491.000000 0 0 1
-28.408018 -18.249044 -32.602022 46.935434 0.571007 2.338680 0.038447 -0.022628 -207816.000000 0 0 1
-29.286668 -17.202144 -32.284412 46.860495 0.531082 2.330832 0.037678 -0.018781 -268781.000000 0 0 1
-30.280198 -16.696344 -33.406062 48.079344 0.503913 2.338954 0.027074 -0.019502 557462.000000 0 0 1
-31.236138 -17.683244 -33.688702 49.227250 0.515131 2.324509 0.035591 -0.020448 -78559.900000 0 0 1
-32.598718 -17.352544 -33.621632 49.941980 0.489158 2.309343 0.043449 -0.023395 224188.000000 0 0 1
-33.450258 -17.823644 33.955875 50.888147 0.489573 0.840266 0.029839 -0.022516 -378051.000000 0 0 1
-33.639318 -19.270944 33.922832 51.514382 0.520232 0.851957 0.014148 -0.022850 326146.000000 0 0 1
-34.529452 -19.667244 32.869357 51.570129 0.517751 0.879713 0.011417 -0.017106 -520900.000000 0 0 1
-34.985728 -21.123144 33.143791 52.618431 0.543183 0.889386 0.011751 -0.021685 375465.000000 0 0 1
-33.834898 -21.958344 32.996040 52.112454 0.575661 0.885154 0.018690 -0.024094 395906.000000 0 0 1
-34.092238 -23.252244 33.403834 53.092030 0.598570 0.890313 0.021009 -0.026413 -1252250.000000 0 0 1
-32.910438 -24.190344 33.562613 52.865099 0.633855 0.882952 0.020275 -0.017254 -5889.880000 0 0 1
-31.902148 -24.042444 -34.201259 52.588138 0.645821 2.278856 0.014189 -0.023802 498018.000000 0 0 1
-31.097898 -22.895244 -34.329475 51.669956 0.634631 2.297486 0.020066 -0.022515 -364672.000000 0 0 1
-29.775778 -22.976344 -33.490242 50.359762 0.657211 2.298317 0.022553 -0.018577 212115.000000 0 0 1
-28.847058 -23.894644 -34.049062 50.620603 0.691773 2.308557 0.029985 -0.014731 835662.000000 0 0 1
-27.462828 -23.745144 -33.725252 49.552310 0.712926 2.319376 0.033567 -0.016252 904286.000000 0 0 1
-27.044108 -24.047744 -32.260332 48.480994 0.726819 2.298856 0.026709 -0.007955 -1305460.000000 0 0 1
-27.123918 -25.424784 -31.917632 48.998590 0.753075 2.280223 0.028902 -0.005292 -76472.900000 0 0 1
-26.886068 -25.580154 -30.541782 48.062516 0.760513 2.259400 0.021038 -0.000378 -388392.000000 0 0 1
-26.553508 -27.020094 -30.058792 48.360162 0.794107 2.241530 0.018997 -0.006670 465328.000000 0 0 1
-27.605998 -27.992734 -30.195002 49.572396 0.792354 2.225733 0.012598 -0.002736 397493.000000 0 0 1
-27.267658 -29.109284 -29.417272 49.560584 0.818053 2.206274 0.014906 -0.005778 42101.200000 0 0 1
-28.149808 -30.362674 -29.668522 50.936479 0.823199 2.192550 0.016945 0.001724 -97824.100000 0 0 1
-27.920948 -30.811884 -31.001752 51.865790 0.834580 2.211463 0.020079 -0.007214 298419.000000 0 0 1
-28.227418 -32.159764 -31.182732 52.947147 0.850425 2.200544 0.024224 0.002314 -280352.000000 0 0 1
-27.944378 -32.741764 -32.589952 53.990892 0.864287 2.218829 0.021912 -0.005841 -143221.000000 0 0 1
-26.582648 -32.639134 -32.946522 53.454874 0.887312 2.234886 0.013572 -0.004602 -327941.000000 0 0 1
-26.332198 -33.365994 -34.132306 54.513196 0.902680 2.247375 0.009861 -0.002297 -185217.000000 0 0 1
-24.893618 -33.100734 34.112467 53.656418 0.925980 0.881807 0.005202 -0.000920 257868.000000 0 0 1
-24.544518 -33.771004 32.952149 53.186072 0.942314 0.902610 0.002392 0.003545 49043.900000 0 0 1
-23.693318 33.868096 33.209720 53.021757 -0.960355 0.893945 0.005047 0.009265 -227270.000000 0 0 1
-23.427118 32.950877 31.921211 51.512657 -0.952745 0.902465 0.012671 0.002073 -286908.000000 0 0 1
-24.616518 32.336092 31.513791 51.426791 -0.920121 0.911211 0.024863 -0.016370 -372509.000000 0 0 1
-24.399818 31.405862 30.456321 50.092582 -0.910288 0.917256 0.034301 -0.009191 -154527.000000 0 0 1
-25.702858 30.778862 29.935741 50.041222 -0.875027 0.929516 0.034842 -0.014576 -35783.300000 0 0 1
-26.407708 30.045552 30.926281 50.562210 -0.849749 0.912654 0.038554 -0.022998 594840.000000 0 0 1
-27.691478 29.608502 30.493981 50.728338 -0.818842 0.925890 0.036707 -0.024671 620461.000000 0 0 1
-28.272608 28.283582 31.129921 50.679122 -0.785592 0.909354 0.033130 -0.035294 -135546.000000 0 0 1
-27.528938 27.125172 30.893501 49.477528 -0.778011 0.896440 0.030309 -0.028161 213080.000000 0 0 1
-28.302648 26.006352 31.292371 49.563926 -0.743141 0.887499 0.041033 -0.030410 257147.000000 0 0 1
-29.150428 25.340302 30.211801 49.037040 -0.715589 0.907013 0.035885 -0.028290 -105534.000000 0 0 1
-28.351488 24.664682 29.246031 47.618103 -0.715969 0.909451 0.031950 -0.018516 -60762.600000 0 0 1
-29.121158 24.214102 28.164161 47.197294 -0.693652 0.931373 0.031023 -0.016648 379210.000000 0 0 1
-28.186978 23.944062 26.925921 45.747449 -0.704188 0.941498 0.029947 -0.007227 529752.000000 0 0 1
-27.285098 22.844792 27.095291 44.727127 -0.697053 0.920037 0.026807 -0.007797 -28309.600000 0 0 1
-26.441658 22.717592 25.978151 43.475448 -0.709787 0.930372 0.019630 -0.004442 -597181.000000 0 0 1
-25.091968 22.222692 26.502991 42.730123 -0.724830 0.901746 0.011375 -0.007906 -620503.000000 0 0 1
-25.227418 20.930792 27.058791 42.505280 -0.692581 0.880717 0.022473 -0.011498 159223.000000 0 0 1
-24.023618 20.542592 27.666861 42.006994 -0.707447 0.851806 0.008833 -0.011115 -212526.000000 0 0 1
-24.152818 19.032392 27.989021 41.580956 -0.667380 0.832375 0.025330 -0.006912 -253528.000000 0 0 1
-23.081918 18.389692 28.651761 41.132458 -0.672734 0.800186 0.006534 0.000148 82635.900000 0 0 1
-23.390618 17.130492 29.203501 41.151175 -0.632119 0.781775 0.016850 0.001930 -882568.000000 0 0 1
-22.083418 16.418492 29.397741 40.267498 -0.639313 0.752385 0.021382 0.002712 -930525.000000 0 0 1
-21.246618 16.893292 30.402481 40.756753 -0.671749 0.728837 0.021677 0.001309 -117837.000000 0 0 1
-20.052618 16.125792 30.347931 39.788762 -0.677281 0.703278 0.010383 0.001768 748231.000000 0 0 1
-18.854618 16.658392 31.226091 40.100716 -0.723634 0.678219 0.006562 -0.013342 191528.000000 0 0 1
-18.943218 16.469292 32.616321 41.157107 -0.715651 0.655926 0.001344 -0.015787 100167.000000 0 0 1
-17.909618 17.054492 33.381377 41.544271 -0.760946 0.637622 0.008753 -0.016511 -575340.000000 0 0 1
-18.056018 16.864592 -33.851602 41.909011 -0.751293 2.511106 0.002052 -0.022095 445768.000000 0 0 1
-19.054518 17.663392 -33.162092 42.128309 -0.747529 2.477001 0.010470 -0.021186 1375780.000000 0 0 1
-20.368218 17.080492 -33.248682 42.568561 -0.697830 2.467161 0.014640 -0.017746 746657.000000 0 0 1
-21.430818 17.798692 -32.324792 42.672774 -0.693075 2.430277 0.020227 -0.015662 444800.000000 0 0 1
-21.480518 17.248092 -30.985262 41.460774 -0.676546 2.414845 0.017967 -0.019703 356541.000000 0 0 1
-22.400118 18.037692 -30.238142 41.730910 -0.677934 2.381248 0.012179 -0.020865 -252582.000000 0 0 1
-22.614718 17.638392 -28.756632 40.613818 -0.662396 2.357530 0.014095 -0.023150 446997.000000 0 0 1
-23.369018 16.432492 -28.469762 40.331937 -0.612853 2.354470 0.004487 -0.016251 124702.000000 0 0 1
-24.739318 16.381392 -28.780292 41.336293 -0.584876 2.340953 0.022070 -0.016402 -479877.000000 0 0 1
-25.455438 15.178892 -28.199102 40.909259 -0.537689 2.331331 0.033057 -0.013682 -418647.000000 0 0 1
-24.908418 13.908792 -28.499212 40.324792 -0.509267 2.355678 0.007918 -0.006657 25628.900000 0 0 1
-25.766218 12.917892 -27.985272 40.173939 -0.464727 2.341448 -0.008027 -0.002742 -92164.500000 0 0 1
-25.273238 11.453192 -28.067282 39.467512 -0.425491 2.361928 0.006549 -0.001013 -24174.100000 0 0 1
-24.271418 11.156192 -27.121042 38.067221 -0.430844 2.363782 0.007885 -0.005972 4857.120000 0 0 1
-23.320118 10.265992 -27.656302 37.604382 -0.414692 2.397133 0.008932 0.001929 -100464.000000 0 0 1
-22.393718 9.556892 -26.643142 36.092518 -0.403366 2.401180 0.028446 -0.004337 -1210.340000 0 0 1
-22.958118 8.567792 -25.790962 35.576059 -0.357185 2.381762 0.015159 -0.007092 95951.700000 0 0 1
-21.896518 7.966792 -25.055312 34.215434 -0.348949 2.392462 0.038542 -0.003680 212582.000000 0 0 1
-22.334218 6.756692 -24.203912 33.619928 -0.293773 2.374494 0.029295 -0.006478 21417.100000 0 0 1
-22.938418 5.673292 -24.888612 34.319095 -0.242461 2.382138 0.029332 -0.008151 263795.000000 0 0 1
-23.298118 4.670892 -24.016912 33.785080 -0.197861 2.361535 0.024360 -0.001561 -363025.000000 0 0 1
34.933598 25.089956 -10.339212 44.235296 0.622849 1.806711 -0.025881 0.004301 8076.260000 0 0 1
35.589012 24.250756 -9.407812 44.081559 0.598141 1.785869 -0.006847 0.001917 -224667.000000 0 0 1
-35.447247 23.111556 -10.064612 43.496526 -0.577779 1.804301 0.004695 -0.000756 -549645.000000 0 0 1
-34.463439 22.433256 -9.162712 42.129976 -0.577028 1.790035 0.016701 -0.001975 -785509.000000 0 0 1
-35.051125 21.697556 -8.145312 42.020368 -0.554292 1.765873 0.013131 -0.000286 -556710.000000 0 0 1
-34.058429 21.078156 -7.403712 40.731808 -0.554188 1.753580 0.027715 -0.003431 -671462.000000 0 0 1
-34.542490 20.262656 -6.206512 40.525049 -0.530509 1.724554 0.021797 0.001648 -245454.000000 0 0 1
-35.155612 19.030656 -6.588812 40.515372 -0.496160 1.734147 0.018513 -0.003015 451815.000000 0 0 1
-35.525506 18.245756 -5.447112 40.306826 -0.474465 1.706352 0.022294 -0.011785 -134610.000000 0 0 1
35.138798 17.055956 -5.885912 39.500439 0.451890 1.720362 0.023990 -0.010277 -623490.000000 0 0 1
33.915588 17.411756 -6.441112 38.664250 0.474298 1.738168 0.036540 -0.007911 -460313.000000 0 0 1
33.351368 16.255356 -7.092012 37.773628 0.453514 1.759668 0.051557 -0.012002 -370413.000000 0 0 1
32.339858 16.706456 -8.119312 37.294709 0.476832 1.790261 0.039697 -0.011824 -455707.000000 0 0 1
31.981808 15.704656 -9.046612 36.760215 0.456462 1.819449 0.042932 -0.015493 -214590.000000 0 0 1
31.388448 16.262156 -10.206112 36.794797 0.478018 1.851862 0.036874 -0.007975 -571706.000000 0 0 1
30.787478 15.143556 -11.115112 36.065798 0.457126 1.884086 0.032078 -0.006390 1093850.000000 0 0 1
29.567108 14.495256 -10.644012 34.606665 0.455817 1.883436 0.035540 -0.003631 1272710.000000 0 0 1
29.683228 13.897256 -9.391112 34.094292 0.437874 1.849849 0.035403 -0.009335 -1180520.000000 0 0 1
28.573128 12.859856 -9.114512 32.632405 0.422911 1.853870 0.025802 0.002279 43536.500000 0 0 1
28.790298 11.749556 -9.909212 32.636265 0.387477 1.879292 0.031031 -0.001257 -99150.200000 0 0 1
27.869528 10.767556 -9.607812 31.384087 0.368689 1.881928 0.031215 -0.003634 -687980.000000 0 0 1
28.246598 9.297056 -10.143812 31.419778 0.317971 1.899533 0.038792 -0.003472 125167.000000 0 0 1
29.462308 8.798956 -9.607312 32.214122 0.290219 1.873637 0.051237 -0.002386 512831.000000 0 0 1
29.508448 7.392256 -9.826712 31.968081 0.245462 1.883247 0.054379 -0.000181 -354350.000000 0 0 1
30.493468 6.806856 -8.814512 32.463525 0.219623 1.845769 0.066455 -0.004397 -1140970.000000 0 0 1
31.799888 7.110356 -9.119112 33.837084 0.219979 1.843671 0.062271 -0.005185 -804197.000000 0 0 1
32.682408 6.405856 -8.226112 34.305155 0.193550 1.812948 0.072213 -0.014874 606830.000000 0 0 1
34.185238 6.688956 -8.512612 35.858572 0.193227 1.810479 0.063694 -0.015615 194578.000000 0 0 1
34.612438 6.221056 -9.778012 36.501122 0.177836 1.841991 0.059584 -0.006921 -65650.600000 0 0 1
-35.536612 6.060456 -9.865112 37.375130 -0.168916 1.837910 0.053571 -0.006500 -766205.000000 0 0 1
-35.065773 5.654156 -11.272312 37.264499 -0.159868 1.878105 0.044918 -0.005488 426735.000000 0 0 1
-33.655438 5.434756 -11.483812 35.973644 -0.160100 1.895712 0.045920 -0.003921 1326310.000000 0 0 1
-33.069298 6.574656 -12.121012 35.829088 -0.196255 1.915907 0.034592 -0.004675 -283975.000000 0 0 1
-32.443848 7.633456 -11.214412 35.165835 -0.231079 1.895366 0.026341 0.000122 -382369.000000 0 0 1
-33.385318 8.467856 -10.499612 36.007303 -0.248402 1.866692 0.036505 -0.001349 714131.000000 0 0 1
-33.738208 9.704256 -11.078912 36.812791 -0.280074 1.876488 0.033402 0.002675 14191.800000 0 0 1
-34.683065 10.540156 -10.197412 37.656302 -0.295030 1.845023 0.042392 -0.005218 189763.000000 0 0 1
-33.932468 11.063956 -9.128512 36.839561 -0.315189 1.821196 0.042986 -0.005894 263405.000000 0 0 1
-34.751096 11.885956 -8.328212 37.659975 -0.329558 1.793782 0.050270 -0.013144 5429.910000 0 0 1
-33.925178 12.838856 -7.444912 37.029456 -0.361789 1.773230 0.062196 -0.018170 237412.000000 0 0 1
-33.216758 13.844256 -8.162512 36.900448 -0.394892 1.793845 0.045645 -0.019449 -128223.000000 0 0 1
-32.430968 14.625056 -7.297112 36.316770 -0.423652 1.773103 0.045391 -0.011723 80482.600000 0 0 1
-31.575618 15.740056 -7.970212 36.170337 -0.462437 1.792972 0.021832 -0.003489 365284.000000 0 0 1
-32.362078 16.659956 -8.706612 37.425437 -0.475416 1.805586 0.023588 -0.004234 83849.600000 0 0 1
-31.598898 17.823556 -8.806212 37.332544 -0.513571 1.808926 0.022725 -0.002930 482356.000000 0 0 1
-32.254178 18.827656 -9.830912 38.619418 -0.528369 1.828188 0.006311 -0.002507 297749.000000 0 0 1
-31.919448 18.571256 -11.180612 38.584308 -0.526942 1.864784 0.003001 -0.001453 -4251.300000 0 0 1
-32.939408 19.038656 -12.033512 39.903389 -0.524079 1.877131 0.000606 -0.005743 -105685.000000 0 0 1
-32.390688 19.146556 -13.473812 39.966122 -0.533859 1.914664 -0.010243 0.003475 212966.000000 0 0 1
-31.620878 20.344956 -13.668412 40.007782 -0.571723 1.919462 -0.010296 0.000472 194751.000000 0 0 1
-31.528988 20.593256 -15.049412 40.554212 -0.578589 1.950983 -0.021648 0.005377 -578036.000000 0 0 1
-30.677278 21.807256 -15.419612 40.674516 -0.617978 1.959617 -0.003019 -0.007444 955136.000000 0 0 1
-29.339888 21.702756 -14.825212 39.390678 -0.636877 1.956664 -0.006016 -0.003455 1510510.000000 0 0 1
-28.566128 22.856956 -14.926712 39.512920 -0.674827 1.958181 0.001209 -0.004627 -226215.000000 0 0 1
-27.974688 23.378756 -16.299712 39.935323 -0.696140 1.991226 -0.006727 -0.014545 -980839.000000 0 0 1
-28.802618 24.047956 -17.247912 41.296313 -0.695675 2.001667 0.011109 -0.004295 377727.000000 0 0 1
-28.097128 24.831056 -18.259112 41.706416 -0.723769 2.023948 0.006937 -0.006436 139507.000000 0 0 1
-27.243268 26.014056 -17.773012 41.651011 -0.762322 2.011651 0.005416 -0.001386 -203993.000000 0 0 1
-28.045098 27.116156 -17.528412 42.767495 -0.768559 1.993090 0.011296 0.005076 -193872.000000 0 0 1
-27.284688 28.274056 -17.325812 42.942522 -0.803204 1.986097 0.013864 0.003726 -50804.700000 0 0 1
-28.049468 29.505256 -16.741212 44.018189 -0.810687 1.960944 0.008102 0.003782 -147632.000000 0 0 1
-28.392938 29.528256 -15.361512 43.749890 -0.804997 1.929565 0.006851 0.004250 -68829.400000 0 0 1
-27.320528 29.551256 -14.441212 42.757883 -0.824602 1.915315 0.007887 0.008706 -315725.000000 0 0 1
-27.529778 30.292156 -13.152512 42.994092 -0.833136 1.881695 0.013680 0.000261 -225054.000000 0 0 1
-27.434618 31.663456 -13.424112 43.993630 -0.856833 1.880879 0.030290 -0.000400 52118.900000 0 0 1
-27.985968 32.425956 -12.387112 44.588088 -0.858761 1.852312 0.022548 -0.006807 59233.900000 0 0 1
-27.353958 33.834956 -12.198012 45.186666 -0.890923 1.844134 0.004269 -0.006469 131302.000000 0 0 1
-27.627538 -34.164481 -13.353812 45.921857 0.890796 1.865853 0.008188 -0.014253 -213078.000000 0 0 1
-26.752238 -33.093481 -13.487912 44.640615 0.890964 1.877738 0.020561 -0.009229 -273160.000000 0 0 1
-27.080068 -32.227581 -14.723812 44.595266 0.871975 1.907275 0.020993 -0.008992 38625.900000 0 0 1
-26.644218 -32.792981 -15.943112 45.160567 0.888481 1.931606 0.014900 -0.012447 8735.540000 0 0 1
-27.091888 -31.925681 -16.964512 45.177585 0.867120 1.955740 0.024106 0.002184 49016.100000 0 0 1
-26.432338 -32.169381 -18.360012 45.504150 0.882986 1.986113 0.009894 0.007319 -271960.000000 0 0 1
-26.693988 -33.454881 -18.977612 46.818243 0.897331 1.988154 0.009277 0.007216 -34336.400000 0 0 1
-25.965818 34.194756 -18.458112 46.735500 -0.921337 1.976808 0.007475 0.008765 -336053.000000 0 0 1
-25.916828 32.841156 -19.203412 46.032538 -0.902702 2.001126 0.015374 -0.001134 1054160.000000 0 0 1
-27.153198 32.080956 -19.150912 46.187025 -0.868398 1.998342 0.019898 -0.007864 1104910.000000 0 0 1
-27.991808 32.335856 -20.276612 47.331701 -0.857282 2.013511 0.019379 -0.000757 686334.000000 0 0 1
-29.516978 32.007456 -20.219812 48.005937 -0.825856 2.005558 0.017846 -0.005214 613277.000000 0 0 1
-29.826738 30.615456 -20.196612 47.274132 -0.798447 2.012216 0.018114 -0.004830 1572320.000000 0 0 1
-31.256178 30.399556 -20.359712 48.120677 -0.771505 2.007657 0.027965 -0.005612 1211720.000000 0 0 1
-31.549308 29.026156 -21.013512 47.743526 -0.743769 2.026543 0.031536 -0.005528 739705.000000 0 0 1
-32.942378 28.837556 -21.334412 48.702793 -0.719053 2.024228 0.044090 -0.010650 1046330.000000 0 0 1
-33.154328 27.638056 -22.017012 48.454313 -0.694906 2.042480 0.041959 -0.009426 -1331200.000000 0 0 1
-34.602845 27.269256 -22.016812 49.251489 -0.667420 2.034237 0.038255 -0.006049 -1107380.000000 0 0 1
-35.341974 27.844856 -23.086812 50.570664 -0.667300 2.044883 0.029964 -0.000722 11369.300000 0 0 1
35.155188 26.956256 -23.476712 50.136643 0.654153 2.058111 0.022444 0.005661 -199121.000000 0 0 1
34.392768 27.549056 -24.658112 50.495895 0.675358 2.080959 0.014253 0.000148 -318068.000000 0 0 1
35.129708 27.655756 -25.879742 51.659445 0.666916 2.095514 0.024434 -0.003686 -526363.000000 0 0 1
34.350978 27.980956 -26.989072 51.878064 0.683557 2.117929 0.028347 -0.000279 -288057.000000 0 0 1
35.206808 28.162056 -28.268232 53.213848 0.674682 2.130836 0.031080 -0.002545 36473.000000 0 0 1
35.602992 27.014756 -28.873322 53.207507 0.649095 2.144391 0.021384 0.002718 -272458.000000 0 0 1
-35.122491 27.288056 -29.987242 53.641980 -0.660521 2.164007 0.013471 0.000036 -900383.000000 0 0 1
-34.646695 25.983556 -30.712212 53.092171 -0.643474 2.187648 0.014931 -0.001198 1219680.000000 0 0 1
-33.687048 25.139756 -29.982282 51.631015 -0.641112 2.190388 0.024015 -0.001310 1556810.000000 0 0 1
-32.405368 25.726556 -29.705302 50.934944 -0.671009 2.193460 0.020028 0.002723 222759.000000 0 0 1
-31.518848 24.956456 -28.724622 49.410185 -0.669718 2.191183 0.015289 -0.001289 -329780.000000 0 0 1
-31.020348 23.738356 -29.267702 48.809527 -0.653191 2.213836 0.034382 -0.010951 -209625.000000 0 0 1
-31.739718 22.691156 -28.788802 48.488075 -0.620665 2.206482 0.032237 -0.009723 -536339.000000 0 0 1
-31.441438 21.375656 -29.499682 48.121865 -0.597078 2.230674 0.024654 -0.017207 -507981.000000 0 0 1
-30.080298 21.032456 -29.441722 47.053199 -0.610196 2.246839 0.040258 -0.017503 -154216.000000 0 0 1
-29.899008 19.769856 -30.024992 46.757866 -0.584223 2.268080 0.028490 -0.019232 -193924.000000 0 0 1
-28.440868 19.268656 -29.967742 45.587604 -0.595464 2.288114 0.044263 -0.018252 -105671.000000 0 0 1
-27.731228 19.693256 -31.126752 46.105531 -0.617504 2.311923 0.047216 -0.020060 900256.000000 0 0 1
-26.388548 19.233856 -31.331692 45.254520 -0.629841 2.335529 0.040244 -0.020362 786549.000000 0 0 1
-26.309988 17.832356 -31.976182 45.085304 -0.595656 2.359212 0.022644 -0.009042 -279160.000000 0 0 1
-26.798018 16.760656 -31.200892 44.413388 -0.558918 2.349716 0.009392 -0.004949 72790.200000 0 0 1
-26.884038 15.533356 -31.946582 44.549082 -0.523929 2.370443 0.002012 0.006101 111287.000000 0 0 1
-27.546638 14.391756 -31.077382 43.951605 -0.481446 2.356159 0.007497 0.007204 233995.000000 0 0 1
-28.956818 14.495356 -30.944262 44.790178 -0.464116 2.333490 0.009983 0.000304 462873.000000 0 0 1
-29.618618 13.231056 -30.788382 44.724130 -0.420118 2.330086 0.007011 0.003150 -79516.700000 0 0 1
-29.469438 12.324756 -29.466612 43.458355 -0.396115 2.315893 -0.003478 -0.004204 -474623.000000 0 0 1
-30.055168 12.812156 -28.279922 43.211323 -0.402961 2.284260 -0.005060 -0.004339 326248.000000 0 0 1
-30.268968 11.907856 -27.203242 42.403111 -0.374805 2.267299 -0.009001 0.002018 33171.000000 0 0 1
-29.948348 12.618256 -25.832542 41.514385 -0.398761 2.242417 -0.011998 -0.010327 -979314.000000 0 0 1
-28.594168 12.826056 -25.675382 40.513694 -0.421652 2.257182 -0.005423 -0.012055 -957898.000000 0 0 1
-28.466998 13.545856 -24.494612 39.923003 -0.444137 2.231340 -0.009430 -0.011274 308670.000000 0 0 1
-26.999008 13.707856 -24.004212 38.640056 -0.469802 2.241103 -0.004213 -0.004484 -1031720.000000 0 0 1
-26.183608 14.542556 -24.760412 38.860588 -0.506985 2.261604 0.007566 -0.006370 353081.000000 0 0 1
-24.809818 14.526056 -24.389312 37.701086 -0.529687 2.274325 0.012475 -0.015312 513260.000000 0 0 1
-24.549218 15.034356 -22.949412 36.815370 -0.549500 2.243835 0.013481 -0.003368 -1615050.000000 0 0 1
-24.961618 16.386956 -22.810212 37.575530 -0.580921 2.223139 0.023761 -0.006572 273982.000000 0 0 1
-25.047718 16.904356 -21.472912 37.070627 -0.593671 2.188596 0.016517 0.004283 -980336.000000 0 0 1
-26.486398 17.273656 -21.168612 38.052840 -0.577900 2.160717 0.004949 0.003947 -330939.000000 0 0 1
-27.255588 16.038956 -21.228312 38.088796 -0.531895 2.161972 0.005251 0.012072 672641.000000 0 0 1
-28.506658 16.141556 -20.550212 38.671573 -0.515225 2.131053 0.010734 0.018923 283668.000000 0 0 1
-29.563238 15.016556 -20.839012 39.163075 -0.469985 2.131885 -0.017241 0.009800 465595.000000 0 0 1
-30.131638 14.935956 -22.152712 40.270846 -0.460194 2.153272 -0.011976 0.006107 452380.000000 0 0 1
-30.987338 16.009756 -22.506612 41.509938 -0.476882 2.143847 -0.024152 0.009596 -466867.000000 0 0 1
-31.395048 16.006856 -24.002912 42.638108 -0.471499 2.168741 -0.019758 0.006265 -726182.000000 0 0 1
-32.380078 15.059256 -24.239712 43.160332 -0.435322 2.167139 -0.009926 0.006267 -263142.000000 0 0 1
-32.781018 15.127456 -25.588492 44.251621 -0.432351 2.187378 0.001425 0.000448 442406.000000 0 0 1
-34.023458 14.211056 -25.964822 45.096805 -0.395658 2.184327 0.001613 -0.002240 720883.000000 0 0 1
-33.753368 12.862956 -25.977102 44.492194 -0.364096 2.194268 0.002119 -0.007176 152830.000000 0 0 1
-33.670538 12.309556 -24.655312 43.509938 -0.350494 2.173242 -0.007835 -0.004086 -293544.000000 0 0 1
-33.687308 10.802256 -24.601812 43.090284 -0.310304 2.178442 -0.003135 -0.000764 -27699.300000 0 0 1
-34.917684 10.291556 -25.068312 44.199333 -0.286622 2.173856 0.006781 0.001501 -52406.800000 0 0 1
-34.724000 9.320756 -26.066932 44.408531 -0.262242 2.198120 0.003168 0.004448 -382045.000000 0 0 1
35.535269 8.780056 -26.713492 45.315068 0.242229 2.201243 0.021093 0.004486 -26549.000000 0 0 1
34.710648 8.226856 -25.695112 43.963041 0.232718 2.195024 0.023288 0.003083 22258.900000 0 0 1
33.631828 7.446756 -26.166042 43.257552 0.217904 2.220424 0.031367 0.002466 10725.300000 0 0 1
33.015678 6.484856 -25.160042 42.013284 0.193948 2.212872 0.042062 -0.007723 245982.000000 0 0 1
33.890998 5.434456 -24.784712 42.336922 0.158997 2.196189 0.040623 -0.015958 473859.000000 0 0 1
33.146148 4.555056 -23.937712 41.139151 0.136568 2.191825 0.053986 -0.013787 253005.000000 0 0 1
34.033238 3.563856 -23.207912 41.346941 0.104337 2.166748 0.044044 -0.014469 -345505.000000 0 0 1
34.761428 2.688256 -24.051412 42.356275 0.077181 2.174671 0.045550 -0.015334 504405.000000 0 0 1
35.570017 1.910156 -23.136112 42.475340 0.053650 2.146822 0.048756 -0.013347 87634.700000 0 0 1
-35.061345 0.844356 -23.793912 42.381141 -0.024078 2.166905 0.047361 -0.014196 374085.000000 0 0 1
-35.695630 -0.368044 -24.317512 43.193227 0.010310 2.168800 0.054057 -0.017993 91323.300000 0 0 1
-34.681614 -1.201144 -24.780012 42.641601 0.034620 2.190904 0.059115 -0.018208 -88238.700000 0 0 1
-23.167118 29.628656 27.515811 46.601421 -0.907180 0.939180 0.039544 -0.012389 399052.000000 0 0 1
-24.276118 29.846056 26.596191 46.770443 -0.887951 0.965928 0.031664 -0.017333 1135340.000000 0 0 1
-24.250318 28.897356 25.551281 45.563176 -0.872613 0.975459 0.031547 -0.002922 -394885.000000 0 0 1
-24.721918 27.498256 25.803611 45.090505 -0.838514 0.961534 0.030641 -0.015432 -107396.000000 0 0 1
-26.032028 27.354156 26.337421 46.038854 -0.810158 0.961770 0.028526 -0.013164 443570.000000 0 0 1
-26.003548 27.266056 27.782031 46.813070 -0.809094 0.935436 0.031789 -0.015012 -490759.000000 0 0 1
-25.372738 25.958556 28.474951 46.135076 -0.796810 0.905607 0.027576 -0.006750 734954.000000 0 0 1
-23.990118 25.970256 28.823761 45.615668 -0.825012 0.886816 0.035031 -0.005845 271896.000000 0 0 1
-23.675618 26.837356 29.917711 46.645986 -0.847909 0.874503 0.029175 -0.016361 -703382.000000 0 0 1
-22.254718 26.672456 30.425381 46.177875 -0.875446 0.851476 0.036703 -0.008568 -850813.000000 0 0 1
-21.226018 27.141056 29.567311 45.402716 -0.907089 0.861601 0.049921 -0.013603 536041.000000 0 0 1
-19.951618 26.748256 30.085461 44.929625 -0.929922 0.837109 0.072097 -0.018023 429831.000000 0 0 1
-19.390518 25.354956 29.722741 43.615448 -0.917914 0.821023 0.061726 -0.012491 -533548.000000 0 0 1
-18.910318 25.265256 28.434631 42.478954 -0.928274 0.837420 0.062670 -0.007107 -198141.000000 0 0 1
-19.692918 24.424856 27.614841 41.796699 -0.892247 0.849053 0.052819 -0.009181 -152496.000000 0 0 1
-19.692518 22.864256 27.857901 41.068627 -0.859790 0.825315 0.053758 0.001593 41127.400000 0 0 1
-20.459418 22.333556 28.912451 41.872489 -0.829166 0.808633 0.027067 -0.001873 -74220.300000 0 0 1
-20.232518 20.978656 29.060061 41.157574 -0.803501 0.786866 0.018667 -0.001083 217782.000000 0 0 1
-20.788318 20.374756 30.403961 42.091397 -0.775352 0.763628 0.019706 -0.000499 236520.000000 0 0 1
-19.941318 20.698256 31.510811 42.649797 -0.804022 0.739469 0.020408 -0.014159 166320.000000 0 0 1
-20.390818 20.155056 32.743912 43.522126 -0.779584 0.719173 0.011876 -0.004570 -15419.500000 0 0 1
-19.353418 20.535756 33.854689 44.072803 -0.815030 0.694844 0.016995 -0.008117 87210.200000 0 0 1
-19.238918 21.935456 33.986576 44.792717 -0.850795 0.709401 0.028450 -0.013438 -165435.000000 0 0 1
-18.390718 22.563856 33.052922 44.043634 -0.886944 0.722041 0.049930 -0.013766 -225628.000000 0 0 1
-16.910918 22.619756 33.571529 43.871175 -0.928822 0.699398 0.062944 -0.007810 257900.000000 0 0 1
-16.247518 21.383756 33.570932 42.991328 -0.921048 0.674728 0.053996 -0.013337 -185776.000000 0 0 1
-14.908918 21.619656 33.994862 42.957374 -0.967084 0.657762 0.046867 -0.015873 -479384.000000 0 0 1
-14.002318 20.435356 33.687323 41.815122 -0.970072 0.634066 0.048391 -0.024541 733046.000000 0 0 1
-12.656318 20.605056 34.206465 41.890726 -1.019977 0.615363 0.037795 -0.025014 1048360.000000 0 0 1
-12.486218 20.400956 -33.183922 40.905712 -1.021570 2.517048 0.046167 -0.021026 -657635.000000 0 0 1
-11.019118 20.121756 -32.827612 40.049446 -1.069781 2.531643 0.048529 -0.018029 294889.000000 0 0 1
-10.188318 21.273956 -33.051752 40.605435 -1.124162 2.521756 0.041764 -0.014377 653975.000000 0 0 1
-8.893018 21.132356 -32.439072 39.723489 -1.172467 2.526330 0.037037 -0.013450 674622.000000 0 0 1
-7.999218 22.377756 -32.651352 40.383935 -1.227489 2.512435 0.039624 -0.012518 -56092.800000 0 0 1
-7.995318 23.480056 -31.813882 40.340565 -1.242596 2.479378 0.036186 -0.005765 34439.600000 0 0 1
-7.433218 23.216256 -30.529402 39.067783 -1.260936 2.467778 0.020376 -0.011954 -15804.700000 0 0 1
-7.022918 24.413156 -29.665462 39.055898 -1.290690 2.433439 0.020783 -0.008005 167886.000000 0 0 1
-6.029018 25.246756 -30.225892 39.841590 -1.336383 2.432037 0.024065 -0.006380 -119033.000000 0 0 1
-5.710818 26.361156 -29.459822 39.942522 -1.357455 2.400239 0.017322 0.000226 -621337.000000 0 0 1
-4.415918 26.971056 -29.948932 40.544749 -1.408508 2.401882 0.019862 -0.001882 -967347.000000 0 0 1
-3.256718 26.211556 -29.627482 39.691807 -1.447182 2.413490 0.033599 -0.009223 362057.000000 0 0 1
-2.037618 26.775456 -30.074562 40.318187 -1.494842 2.412727 0.042932 -0.006711 333827.000000 0 0 1
-1.557518 28.107056 -29.416592 40.715701 -1.515439 2.378190 0.039104 -0.013446 -915719.000000 0 0 1
-1.133218 27.914856 -28.099902 39.624839 -1.530223 2.359086 0.052991 -0.027260 221708.000000 0 0 1
-0.668718 29.092856 -27.552702 40.074840 -1.547815 2.328880 0.048324 -0.027971 -1016260.000000 0 0 1
-0.203318 29.057156 -26.044802 39.021678 -1.563799 2.301568 0.069937 -0.039360 1091180.000000 0 0 1
0.983382 28.338056 -25.644252 38.231402 1.536108 2.306035 0.096044 -0.053351 1072020.000000 0 0 1
2.180682 28.663056 -26.341322 38.989632 1.494863 2.312572 0.100417 -0.055129 -323497.000000 0 0 1
3.400282 28.718856 -25.397372 38.488454 1.452946 2.291442 0.090208 -0.056458 -117360.000000 0 0 1
3.896482 27.427656 -25.026012 37.333097 1.429677 2.305468 0.101174 -0.048649 -263929.000000 0 0 1
4.964982 27.600956 -24.155812 37.013066 1.392815 2.281846 0.080398 -0.042641 -389058.000000 0 0 1
5.759882 26.303556 -23.842412 35.965454 1.355222 2.295516 0.070800 -0.039442 543872.000000 0 0 1
6.965882 26.630756 -23.146412 35.964942 1.314956 2.269966 0.054027 -0.039611 -2593.970000 0 0 1
7.686782 25.563456 -22.593012 34.971718 1.278703 2.273177 0.036523 -0.023491 152172.000000 0 0 1
9.122082 25.967456 -22.197012 35.358570 1.232974 2.249480 0.022685 -0.002506 -687210.000000 0 0 1
9.307182 26.757656 -21.003712 35.266864 1.236054 2.208765 0.029360 0.004573 768762.000000 0 0 1
10.687682 26.941656 -20.642412 35.583543 1.193140 2.189662 0.040113 -0.001386 1029160.000000 0 0 1
11.415782 25.654756 -20.111412 34.539187 1.152127 2.192324 0.021801 0.014987 -367058.000000 0 0 1
11.735082 24.663256 -21.109512 34.519557 1.126685 2.228781 0.012537 0.004356 -103317.000000 0 0 1
12.163282 23.461656 -20.478812 33.433164 1.092512 2.230054 0.002034 0.011754 -422317.000000 0 0 1
12.293882 22.256156 -21.410712 33.239955 1.066127 2.270676 -0.002322 0.004091 -465131.000000 0 0 1
11.183082 21.940856 -22.194612 33.152123 1.099425 2.304302 -0.004917 -0.001569 -82489.000000 0 0 1
11.612682 20.971756 -23.146512 33.323114 1.065094 2.338672 -0.021574 0.006119 -91493.200000 0 0 1
10.832682 21.132256 -24.409212 34.054792 1.097109 2.369945 -0.001612 0.003562 -184526.000000 0 0 1
9.440582 20.953256 -24.313812 33.456314 1.147481 2.384350 0.001881 -0.002763 -292529.000000 0 0 1
8.789982 20.647556 -25.521852 33.984559 1.168320 2.420347 -0.001922 -0.002954 811319.000000 0 0 1
7.239382 20.553156 -25.284832 33.379089 1.232139 2.430279 0.027232 -0.016896 985115.000000 0 0 1
6.494382 21.769356 -25.124182 33.871911 1.280875 2.406459 0.044744 -0.019746 202428.000000 0 0 1
6.504682 22.380256 -23.819212 33.324789 1.287945 2.367077 0.052403 -0.015200 648274.000000 0 0 1
5.012682 22.386556 -23.297112 32.696181 1.350515 2.363898 0.070450 -0.022631 848902.000000 0 0 1
4.302382 23.329356 -24.011412 33.753774 1.388426 2.362241 0.068604 -0.024842 -266632.000000 0 0 1
2.916782 23.436556 -23.715112 33.469184 1.446979 2.358260 0.084042 -0.031215 430844.000000 0 0 1
2.248582 24.473856 -24.630312 34.794798 1.479177 2.357279 0.076025 -0.032733 -968698.000000 0 0 1
0.917682 24.311456 -24.973612 34.865030 1.533067 2.369273 0.086876 -0.050261 -792614.000000 0 0 1
0.566482 25.150856 -26.025832 36.197104 1.548277 2.373163 0.084739 -0.044602 -370969.000000 0 0 1
-0.922718 25.246056 -26.358462 36.510043 -1.534264 2.377414 0.082648 -0.031986 -407051.000000 0 0 1
-1.301518 23.986156 -26.932792 36.088847 -1.516588 2.413269 0.087226 -0.039719 -510807.000000 0 0 1
-2.640518 23.959456 -27.330142 36.441247 -1.461032 2.418825 0.083333 -0.025630 -617661.000000 0 0 1
-3.172018 22.579556 -27.728052 35.899065 -1.431228 2.453391 0.075686 -0.022842 -826149.000000 0 0 1
-2.536018 22.024456 -28.817272 36.358537 -1.456156 2.485835 0.092288 -0.029535 -290736.000000 0 0 1
-3.035818 20.806756 -29.309922 36.072272 -1.425913 2.519281 0.075917 -0.031500 -188479.000000 0 0 1
-4.171418 20.897056 -30.366122 37.097022 -1.373769 2.529695 0.052796 -0.020525 124922.000000 0 0 1
-3.764318 21.149756 -31.718582 38.308624 -1.394657 2.546283 0.059553 -0.018344 55784.100000 0 0 1
-3.246318 22.397656 -32.059732 39.243088 -1.426859 2.526903 0.066655 -0.016636 72029.000000 0 0 1
-2.719718 22.495156 -33.536562 40.473817 -1.450478 2.547397 0.044447 -0.013538 356455.000000 0 0 1
-1.542918 21.762356 -33.856912 40.277428 -1.500016 2.569173 0.044196 -0.011503 512814.000000 0 0 1
-1.182418 21.827756 33.523601 40.021005 -1.516679 0.577830 0.038723 -0.005411 -372735.000000 0 0 1
-0.098718 20.867356 33.133469 39.157158 -1.566066 0.562046 0.045380 -0.002391 -843770.000000 0 0 1
-0.576718 19.598356 32.932720 38.327434 -1.541378 0.537001 0.037033 0.007803 283552.000000 0 0 1
0.401482 18.704756 32.393931 37.408499 1.549335 0.523747 0.052244 -0.001701 213810.000000 0 0 1
-0.235818 17.330856 32.046331 36.433247 -1.557190 0.495796 0.052401 -0.001160 88105.900000 0 0 1
-1.037718 17.425656 30.904931 35.494296 -1.511315 0.514170 0.037762 0.002184 25026.000000 0 0 1
-1.619318 16.203556 30.513971 34.587278 -1.471191 0.490216 0.041925 -0.000182 342219.000000 0 0 1
-2.716918 16.175256 29.385251 33.652838 -1.404382 0.509091 0.052393 0.000714 1059370.000000 0 0 1
-3.988918 16.785056 29.637081 34.292945 -1.337477 0.527173 0.035192 -0.002745 590896.000000 0 0 1
-4.029418 18.175456 29.533251 34.911263 -1.352629 0.562449 0.027611 -0.001918 -953669.000000 0 0 1
-5.435718 18.644356 29.842541 35.605284 -1.287112 0.576915 0.027969 -0.016808 -639018.000000 0 0 1
-6.365618 18.210456 28.904721 34.750894 -1.234515 0.588509 0.023066 -0.014550 -860753.000000 0 0 1
-7.656518 18.655456 29.184691 35.473856 -1.181342 0.604635 0.017231 -0.017085 -202946.000000 0 0 1
-8.825518 18.043856 28.348091 34.743125 -1.115895 0.616454 0.026464 -0.012649 169546.000000 0 0 1
-9.337418 16.715156 28.496941 34.331610 -1.061359 0.591600 0.058046 -0.016812 167271.000000 0 0 1
-9.980818 16.541356 29.744401 35.467768 -1.027891 0.576030 0.057131 -0.022004 -456417.000000 0 0 1
-10.526118 15.014656 29.902231 35.076808 -0.959362 0.550088 0.063745 -0.025687 34427.600000 0 0 1
-9.583618 13.962356 30.010231 34.458773 -0.969263 0.513761 0.061176 -0.013381 -52184.900000 0 0 1
-8.766118 13.930156 31.162361 35.241833 -1.009117 0.485925 0.054204 -0.011031 20088.200000 0 0 1
-9.470618 13.483156 32.497751 36.436134 -0.958459 0.469245 0.076302 -0.020028 -117739.000000 0 0 1
-9.869418 12.160356 32.666061 36.226388 -0.889018 0.447065 0.073663 -0.006732 226512.000000 0 0 1
-10.034818 12.011356 34.087055 37.508633 -0.874814 0.430448 0.061212 -0.001750 75404.900000 0 0 1
-10.478418 10.590656 -34.177036 37.283093 -0.790725 2.730513 0.060517 -0.010877 -445796.000000 0 0 1
-9.484518 9.656356 34.294049 36.868456 -0.794375 0.375912 0.063572 -0.010956 32819.600000 0 0 1
-9.177318 8.716356 -33.404052 35.721544 -0.759643 2.779404 0.085492 -0.013683 269861.000000 0 0 1
-8.247118 9.239156 -32.283832 34.577778 -0.842070 2.775291 0.073535 -0.017191 -119187.000000 0 0 1
-8.945518 10.173356 -31.491522 34.281707 -0.849531 2.735345 0.064713 -0.017916 554872.000000 0 0 1
-8.058618 10.883756 -30.603972 33.466409 -0.933451 2.724988 0.057980 -0.021298 771388.000000 0 0 1
-7.159918 12.013056 -31.286072 34.269465 -1.033315 2.721235 0.044724 -0.015858 86009.000000 0 0 1
-7.762918 13.224956 -31.618872 35.141363 -1.039998 2.690021 0.054025 -0.018178 -247352.000000 0 0 1
-6.862018 14.092756 -32.263782 35.869830 -1.117669 2.689348 0.039838 -0.012570 -152247.000000 0 0 1
-7.444918 15.417956 -32.707772 36.917997 -1.120944 2.659351 0.036195 -0.014427 59289.600000 0 0 1
-8.385218 15.434556 -33.776992 38.071283 -1.073130 2.662045 0.041085 -0.015876 253975.000000 0 0 1
-8.998718 16.703156 -33.774262 38.738522 -1.076636 2.629768 0.060136 -0.023527 -567086.000000 0 0 1
-9.483718 17.139256 33.594996 38.888543 -1.065398 0.527876 0.046234 -0.026690 196330.000000 0 0 1
-10.636318 16.503456 33.105927 38.490229 -0.998304 0.535306 0.057588 -0.028386 691433.000000 0 0 1
-11.896718 17.032056 33.566407 39.475644 -0.961085 0.554228 0.052777 -0.038201 181418.000000 0 0 1
-13.058918 16.608556 32.642221 38.883082 -0.904480 0.574440 0.045016 -0.038614 -305193.000000 0 0 1
-13.457518 15.247556 32.596561 38.420418 -0.847677 0.557808 0.035526 -0.031903 438899.000000 0 0 1
-14.307518 14.817356 33.649976 39.453517 -0.802902 0.549278 0.043074 -0.025841 -150436.000000 0 0 1
-14.268218 13.283956 33.684329 38.918884 -0.749690 0.524647 0.032917 -0.017370 -61496.100000 0 0 1
-14.654018 12.773656 32.449081 37.826570 -0.716948 0.539748 0.009642 -0.019984 -23456.400000 0 0 1
-13.556418 12.197056 31.777751 36.638369 -0.732663 0.520973 0.029665 -0.003911 42804.300000 0 0 1
-13.908718 11.582756 30.359501 35.345607 -0.694405 0.537614 -0.002091 0.004284 -247846.000000 0 0 1
-14.478118 10.308856 30.220361 35.059358 -0.618754 0.531640 0.002487 0.009229 1972.960000 0 0 1
-14.445418 9.800956 28.857591 33.726686 -0.596138 0.544028 -0.008061 0.006699 99130.600000 0 0 1
-15.186818 8.430256 28.637111 33.493175 -0.506753 0.545220 -0.005381 0.009353 72917.300000 0 0 1
-14.551018 7.308856 29.200661 33.433966 -0.465479 0.508690 -0.008191 0.008477 -339115.000000 0 0 1
-15.130418 6.096056 28.827331 33.122597 -0.383004 0.514940 -0.003458 0.010087 -181345.000000 0 0 1
-14.270318 4.775956 28.915551 32.596945 -0.322960 0.479852 0.004835 0.011533 -80653.300000 0 0 1
-13.354118 4.573456 27.887421 31.256315 -0.329956 0.468565 0.005744 0.008088 -159731.000000 0 0 1
-13.981018 4.182456 26.666051 30.398027 -0.290679 0.500736 0.003999 0.007942 -149231.000000 0 0 1
-13.049518 4.153156 25.443701 28.894991 -0.308125 0.493759 0.008647 0.015371 -439674.000000 0 0 1
-12.138318 3.082456 25.333361 28.259856 -0.248687 0.459119 0.002721 0.014802 -49635.400000 0 0 1
-11.532618 3.142756 24.062931 26.868249 -0.266050 0.461041 0.002136 0.014470 -533615.000000 0 0 1
-10.661518 1.935756 23.748721 26.103962 -0.179608 0.428056 0.003529 0.003717 -100805.000000 0 0 1
-9.288718 2.155356 24.042201 25.864131 -0.228005 0.377585 0.007529 -0.000055 -10736.300000 0 0 1
-8.617318 0.937256 24.052471 25.566736 -0.108338 0.345896 0.005013 -0.001215 1174580.000000 0 0 1
-7.039818 1.140256 24.198291 25.227297 -0.160578 0.286600 0.020489 -0.003430 1172420.000000 0 0 1
-6.530218 1.540656 22.952951 23.913496 -0.231690 0.284392 0.023235 -0.002371 -176617.000000 0 1 0
-5.136418 1.608356 22.781651 23.408828 -0.303457 0.232004 0.029349 -0.003919 44213.100000 0 1 0
-4.433318 2.897556 23.336351 23.929802 -0.578892 0.223172 0.036823 -0.005767 -425667.000000 0 1 0
-4.235118 2.998956 24.745731 25.284010 -0.616152 0.206714 0.036243 -0.005128 104957.000000 0 0 1
-3.732918 4.303156 24.978361 25.619725 -0.856239 0.224228 0.034086 -0.013958 -43999.800000 0 0 1
4.011282 -23.605644 13.025788 27.257806 -1.402475 1.072564 0.066683 0.004073 398586.000000 0 0 1
3.931782 -24.719644 13.890188 28.626160 -1.413063 1.064173 0.046950 0.001045 292914.000000 0 0 1
2.595482 -25.222644 13.758888 28.848316 -1.468254 1.073627 0.035393 0.008027 831954.000000 0 0 1
2.144682 -26.527834 14.447688 30.283021 -1.490125 1.073457 0.015243 0.011272 100189.000000 0 0 1
1.910482 -26.482664 15.831488 30.913063 -1.498780 1.033134 0.028044 0.001803 -17483.300000 0 0 1
2.507982 -27.632524 16.372788 32.216681 -1.480282 1.037693 0.014571 -0.000760 -102467.000000 0 0 1
2.278882 -27.843594 17.898888 33.178747 -1.489133 1.000991 0.006788 0.002591 -182534.000000 0 0 1
2.878682 -26.870934 18.703488 32.865702 -1.464073 0.965400 0.019949 -0.014248 -77703.600000 0 0 1
2.847982 -27.235434 20.111488 33.975754 -1.466606 0.937337 0.009678 -0.015822 -376864.000000 0 0 1
3.471382 -26.226414 21.033088 33.797427 -1.439199 0.899083 0.008946 -0.014227 -739758.000000 0 0 1
2.728382 -25.146804 21.458088 33.170098 -1.462721 0.867270 0.008813 -0.006931 -294624.000000 0 0 1
3.507882 -24.271844 22.276388 33.131030 -1.427265 0.833387 0.033179 -0.030942 -125672.000000 0 0 1
2.761782 -23.061244 22.749788 32.511556 -1.451605 0.795756 0.038635 -0.026656 -356385.000000 0 0 1
2.314982 -22.059644 21.874388 31.152462 -1.466237 0.792353 0.052751 -0.022587 -212947.000000 0 0 1
3.356782 -21.436344 21.146688 30.297975 -1.415465 0.798255 0.052848 -0.015282 -428265.000000 0 0 1
2.987982 -20.337744 20.179388 28.805548 -1.424922 0.794645 0.042782 -0.015238 -238490.000000 0 0 1
2.555882 -19.224144 20.911788 28.520223 -1.438620 0.747741 0.026949 -0.015304 -332452.000000 0 0 1
1.977382 -18.319144 20.053788 27.233353 -1.463272 0.743109 0.004494 -0.018150 -431598.000000 0 0 1
1.462382 -17.047044 20.690488 26.848400 -1.485221 0.690949 0.022466 -0.019466 691285.000000 0 0 1
2.454882 -16.075644 21.042688 26.594125 -1.419259 0.657941 0.001275 0.005797 303557.000000 0 0 1
1.708882 -14.936544 21.356288 26.117268 -1.456882 0.613379 0.015893 0.005916 706053.000000 0 0 1
2.537882 -13.605644 21.150188 25.276172 -1.386384 0.579450 -0.013152 0.017382 -290872.000000 0 0 1
2.909082 -13.360944 19.773388 24.040892 -1.356412 0.605022 -0.023771 0.013552 -261393.000000 0 1 0
1.938082 -13.121244 18.757188 22.972926 -1.424151 0.615489 -0.011030 0.009168 66061.900000 0 1 0
1.011582 -11.900744 19.003788 22.445378 -1.485999 0.561104 -0.007490 -0.002375 -382938.000000 0 1 0
1.568882 -10.647744 18.773088 21.639424 -1.424505 0.520560 -0.013744 -0.007038 -496854.000000 0 1 0
1.283282 -9.701744 19.799988 22.086425 -1.439286 0.459041 -0.009390 -0.013223 391482.000000 0 1 0
-0.180718 -9.216244 19.972988 21.997547 1.551190 0.432396 0.005862 -0.015343 223631.000000 0 1 0
-0.386118 -8.359544 21.077088 22.677626 1.524640 0.377952 0.007592 -0.020570 -204711.000000 0 1 0
-1.727718 -7.921944 21.144488 22.645785 1.356066 0.366171 0.015288 -0.018129 217090.000000 0 1 0
-2.017818 -6.985144 22.353788 23.506503 1.289579 0.314465 0.018862 -0.017051 -219786.000000 0 1 0
-2.027018 -7.874644 23.425188 24.796336 1.318855 0.334107 0.016195 -0.011124 -4648.920000 0 1 0
-2.098918 -7.203244 24.698888 25.813316 1.287262 0.294913 0.011987 -0.001941 -115179.000000 0 0 1
-2.318518 -8.099944 25.926288 27.260907 1.292012 0.314204 0.012078 -0.000327 -276575.000000 0 0 1
-1.367318 -9.106344 26.054688 27.634070 1.421760 0.339724 0.007864 0.001911 -242552.000000 0 0 1
-1.676118 -9.839944 27.223488 28.995727 1.402078 0.351436 0.017065 -0.005504 -11438.000000 0 0 1
-0.638018 -10.946744 27.512288 29.616959 1.512578 0.379265 0.019237 -0.005868 310296.000000 0 0 1
0.586682 -10.473444 28.042088 29.939872 -1.514839 0.357960 0.024069 -0.004715 -144453.000000 0 0 1
1.532082 -11.459844 28.291388 30.562689 -1.437893 0.387957 0.038437 -0.013658 463272.000000 0 0 1
2.706682 -11.012744 29.257388 31.378359 -1.329796 0.369781 0.050184 -0.015021 723803.000000 0 0 1
2.322782 -10.751944 30.599488 32.516585 -1.358032 0.345097 0.046719 -0.017192 550768.000000 0 0 1
3.462382 -10.296244 31.347788 33.176566 -1.246400 0.333576 0.056991 -0.007616 543359.000000 0 0 1
3.161582 -10.076844 32.797488 34.455966 -1.266776 0.311527 0.043082 -0.008232 -129950.000000 0 0 1
2.968982 -11.278444 33.519888 35.490859 -1.313392 0.334832 0.036453 -0.013999 213022.000000 0 0 1
2.469682 -11.152144 -33.930475 35.801491 -1.352860 2.816870 0.024402 -0.014322 -254248.000000 0 0 1
3.254482 -10.235144 -32.944075 34.650568 -1.262935 2.826447 0.020800 -0.006076 -75388.900000 0 0 1
3.208482 -8.782244 -33.122975 34.417345 -1.220524 2.866470 0.019444 -0.012584 133281.000000 0 0 1
3.819682 -8.209344 -32.003975 33.260152 -1.135305 2.865881 0.027087 -0.008833 -222938.000000 0 0 1
3.184682 -6.863644 -31.639975 32.532135 -1.136367 2.906858 0.011755 -0.005256 -175147.000000 0 0 1
3.418382 -5.937844 -32.610975 33.322950 -1.048441 2.934506 0.039445 -0.012239 14722.300000 0 0 1
3.043882 -4.631344 -32.237975 32.710879 -0.989352 2.971345 0.023844 -0.007041 -206008.000000 0 0 1
3.205382 -3.476944 -33.244875 33.579537 -0.826015 3.000293 0.028588 -0.008986 -226819.000000 0 0 1
2.137682 -3.510244 -34.181975 34.428170 -1.023797 3.021930 0.032205 -0.015358 215515.000000 0 0 1
2.345382 -2.534444 33.619388 33.796264 -0.824123 0.102354 0.045551 -0.018303 -84429.800000 0 0 1
1.538682 -2.850944 32.352688 32.514487 -1.075888 0.099803 0.050275 -0.021762 288636.000000 0 0 1
0.130482 -2.796644 32.341288 32.462242 -1.524174 0.086352 0.036372 -0.024418 -227022.000000 0 0 1
-0.336818 -3.345144 31.126788 31.307832 1.470446 0.107595 0.038858 -0.011478 -223987.000000 0 0 1
-1.825218 -3.668144 30.980588 31.250337 1.109082 0.131486 0.022124 -0.014692 -581391.000000 0 0 1
-2.622718 -2.555544 30.888688 31.104992 0.772427 0.118001 0.013356 -0.012479 -1334010.000000 0 0 1
-3.937018 -2.928844 30.669388 31.059453 0.639601 0.158651 0.002612 -0.009877 -938532.000000 0 0 1
-4.879618 -1.838544 30.201988 30.648834 0.360331 0.170968 -0.004931 -0.000005 -670404.000000 0 0 1
-4.836418 -1.774044 28.788288 29.245576 0.351571 0.177071 -0.006775 -0.002673 -152831.000000 0 0 1
-5.820618 -0.975444 28.173688 28.785201 0.166041 0.206493 -0.018408 -0.002495 -44434.100000 0 0 1
-5.866518 0.570556 28.457388 29.061392 -0.096951 0.204236 0.005099 0.001840 -135770.000000 0 0 1
-6.572518 0.867856 29.643388 30.375675 -0.131284 0.220023 0.001566 0.005995 -177229.000000 0 0 1
-6.889118 2.246156 29.777988 30.646920 -0.315176 0.238697 0.012979 0.001404 -292863.000000 0 0 1
-8.394118 2.495856 29.901188 31.157207 -0.289009 0.284907 -0.000049 0.008451 -372399.000000 0 0 1
-9.070018 2.206256 28.701088 30.180876 -0.238613 0.314441 -0.007024 0.011376 496052.000000 0 0 1
-10.480518 2.460356 28.786088 30.733263 -0.230580 0.357877 -0.004091 0.015256 582484.000000 0 0 1
-11.228818 1.476856 27.910088 30.120433 -0.130773 0.385484 0.003189 0.012316 -389465.000000 0 0 1
-11.396518 0.222356 28.450788 30.649264 -0.019508 0.381063 0.001957 0.011552 103108.000000 0 0 1
-11.823218 -0.717544 27.452188 29.898595 0.060615 0.407343 0.000121 0.015088 -718069.000000 0 0 1
-11.920318 -2.273444 27.824288 30.355453 0.188457 0.411265 0.007571 0.010238 852786.000000 0 0 1
-10.676318 -2.937644 28.201988 30.297948 0.268510 0.374142 0.007507 0.001882 2008210.000000 0 0 1
-9.513518 -2.827244 27.358688 29.103233 0.288869 0.348000 0.018647 0.004070 224173.000000 0 0 1
-9.652718 -3.315444 25.905388 27.843424 0.330848 0.375307 0.006139 0.008294 -776194.000000 0 0 1
-10.465718 -2.443844 25.130388 27.332033 0.229399 0.404122 -0.004892 0.013583 262906.000000 0 0 1
-10.674018 -3.013644 23.851488 26.304186 0.275172 0.435270 0.006590 0.013008 -272178.000000 0 0 1
-9.725718 -2.417244 22.793188 24.899038 0.243605 0.414235 0.018619 0.004492 -384510.000000 0 1 0
-8.398818 -2.693144 23.110288 24.736180 0.310299 0.364588 0.025577 -0.000474 -837657.000000 0 1 0
-7.521018 -2.143344 22.141988 23.482489 0.277621 0.339519 0.025120 -0.003595 398893.000000 0 1 0
-6.011318 -2.205944 22.518988 23.411684 0.351708 0.277039 0.029357 -0.004369 278845.000000 0 1 0
-5.376218 -3.450444 22.514188 23.402947 0.570587 0.276475 0.031442 -0.008699 -49102.300000 0 1 0
-5.769918 -4.402044 23.509988 24.604664 0.651725 0.299414 0.023444 -0.004264 -269740.000000 0 1 0
-5.389418 -5.842244 23.096988 24.426390 0.825693 0.331439 0.024727 -0.006175 -61998.700000 0 1 0
-6.251518 -6.472344 22.145988 23.904341 0.802752 0.385948 0.023131 -0.011501 65319.900000 0 1 0
-6.132818 -5.994544 20.778888 22.479062 0.773997 0.391425 0.039250 -0.020894 -259134.000000 0 1 0
-7.405918 -6.068144 19.924488 22.105547 0.686437 0.447956 0.038255 -0.011939 -834004.000000 0 1 0
-8.462918 -5.252344 20.254588 22.571142 0.555451 0.457031 0.046921 -0.007631 -763902.000000 0 1 0
-9.348118 -5.192144 19.147788 21.931335 0.506996 0.509314 0.043792 -0.003694 13041.300000 0 1 0
-10.113918 -3.896644 19.209688 22.056457 0.367749 0.513699 0.035359 -0.006263 211143.000000 0 1 0
-9.172018 -2.809744 19.064988 21.342314 0.297262 0.466172 0.030021 -0.001410 620134.000000 0 1 0
-9.742618 -1.506844 18.990288 21.396734 0.153449 0.478835 0.023978 -0.006394 43498.600000 0 1 0
-8.757518 -0.479344 18.352088 20.340183 0.054681 0.445819 0.028730 -0.006287 773918.000000 0 1 0
-7.625118 -0.034144 19.122388 20.586630 0.004478 0.379435 0.028365 0.000357 614953.000000 0 1 0
-7.851918 0.760856 20.258288 21.740050 -0.096599 0.371340 0.040948 0.000975 -578130.000000 0 1 0
-7.806318 2.272156 19.980288 21.571120 -0.283241 0.386453 0.036357 -0.005362 -20493.700000 0 1 0
-8.718418 2.609356 18.950188 21.022112 -0.290807 0.447710 0.021999 -0.016776 298021.000000 0 1 0
-8.568418 3.994956 18.709188 20.962137 -0.436278 0.467888 0.020529 -0.011525 -414112.000000 0 1 0
-9.488318 4.474656 17.612888 20.500355 -0.440668 0.537189 0.020642 -0.003991 -897740.000000 0 1 0
-10.816218 4.555156 18.068888 21.545875 -0.398598 0.576044 0.020437 0.000514 -386270.000000 0 1 0
-11.634518 5.232656 17.139388 21.365892 -0.422648 0.639851 0.021296 0.016451 -191813.000000 0 1 0
-11.580718 6.818756 17.078788 21.732314 -0.532145 0.666693 0.018940 0.017425 -238821.000000 0 1 0
-10.260218 7.293356 16.839788 21.024832 -0.617963 0.641920 0.013063 0.012278 496158.000000 0 1 0
-10.267018 8.703656 16.690988 21.441883 -0.703175 0.678637 0.004260 0.008887 -698576.000000 0 1 0
-8.881518 9.308856 16.647888 21.040160 -0.808886 0.657957 0.005694 0.005909 -658260.000000 0 1 0
-8.297218 9.509256 17.947088 21.940094 -0.853361 0.612864 0.012567 0.017965 303276.000000 0 1 0
-7.531118 10.716556 18.140988 22.375383 -0.958223 0.625353 0.023165 0.013625 244980.000000 0 1 0
-8.235018 12.080556 17.852388 23.075162 -0.972475 0.686195 0.026807 0.013987 -39464.500000 0 1 0
-8.404518 12.418256 16.491888 22.289714 -0.975820 0.737893 0.029904 0.000082 -45648.000000 0 1 0
-9.150118 13.619756 16.342588 23.158208 -0.979230 0.787395 0.039607 -0.007741 103501.000000 0 1 0
-8.927018 14.361656 15.025988 22.621431 -1.014655 0.844324 0.037321 -0.002917 924972.000000 0 1 0
-7.593018 14.876256 14.892988 22.377623 -1.098854 0.842592 0.032515 0.000703 551739.000000 0 1 0
-7.466918 15.414656 13.610688 21.877324 -1.119703 0.899327 0.023698 -0.009428 -97996.200000 0 1 0
-6.425218 16.568856 13.536988 22.339661 -1.200861 0.919822 -0.002189 -0.005112 508950.000000 0 1 0
-5.121018 16.129056 13.839088 21.860732 -1.263360 0.885300 -0.008301 -0.007675 335172.000000 0 1 0
-4.094118 17.137856 13.912688 22.450630 -1.336298 0.902434 -0.013768 -0.009060 757248.000000 0 1 0
-2.640118 16.645256 13.953988 21.880323 -1.413496 0.879234 0.007085 -0.022665 58894.700000 0 1 0
-2.161118 16.090656 15.173688 22.222071 -1.437286 0.819180 0.015812 -0.016825 -144758.000000 0 1 0
-2.385718 14.757456 15.247588 21.353292 -1.410521 0.775512 0.014535 -0.015508 -171183.000000 0 1 0
-1.378218 14.097656 16.222088 21.536005 -1.473344 0.717800 0.018063 -0.011796 1090.510000 0 1 0
-0.057718 14.036656 15.719788 21.074695 -1.566684 0.728899 -0.001341 -0.022110 -540980.000000 0 1 0
0.724482 13.505556 16.766888 21.541900 1.517204 0.678781 0.004285 0.002276 479761.000000 0 1 0
1.884382 14.412656 17.267488 22.570815 1.440789 0.699699 0.008205 -0.008612 626414.000000 0 1 0
1.306682 15.416056 18.174288 23.867696 1.486237 0.705234 0.010295 -0.008005 247227.000000 0 1 0
2.206682 16.456356 18.465288 24.832397 1.437498 0.732363 0.024059 -0.014492 397975.000000 0 1 0
1.358282 17.660556 19.068388 26.025825 1.494037 0.748557 0.029805 -0.012410 1101640.000000 0 0 1
0.634582 18.519356 18.205288 25.976946 1.536544 0.794243 0.023116 -0.011873 826528.000000 0 0 1
-0.550918 17.977056 17.558988 25.135554 -1.540160 0.797397 0.029681 -0.010753 947668.000000 0 0 1
-1.235818 19.000456 16.559488 25.234128 -1.505846 0.854980 0.018160 -0.009368 114999.000000 0 0 1
-1.889018 20.115256 17.154588 26.504184 -1.477161 0.866837 0.016072 0.000454 -223298.000000 0 0 1
-2.634218 20.840656 16.256288 26.561983 -1.445065 0.912192 0.021027 -0.007471 -486013.000000 0 0 1
-3.305418 22.099856 16.886488 28.008622 -1.422329 0.923661 0.022216 -0.005233 -397466.000000 0 0 1
-4.457718 21.765456 17.599888 28.343648 -1.368783 0.900847 0.025774 -0.004106 -394218.000000 0 0 1
-4.957918 22.841156 18.386688 29.738353 -1.357051 0.904241 0.028776 -0.011436 -177564.000000 0 0 1
-6.031618 22.475156 19.389688 30.289817 -1.308606 0.876117 0.019539 -0.008835 115800.000000 0 0 1
-7.364418 22.476856 18.900988 30.276906 -1.254174 0.896599 0.001620 -0.002841 372954.000000 0 0 1
-8.349018 22.209956 19.899888 30.967625 -1.211225 0.872906 -0.017177 -0.000736 696703.000000 0 0 1
-9.788318 22.511156 19.389088 31.280985 -1.160637 0.902262 -0.007474 -0.004899 213751.000000 0 0 1
-10.251018 23.811756 19.670788 32.542633 -1.164274 0.921706 -0.000442 0.002094 -256887.000000 0 0 1
-11.389418 24.075556 18.899188 32.657779 -1.128924 0.953658 -0.015182 0.005713 -386981.000000 0 0 1
-11.854118 25.539356 18.999888 33.967257 -1.136237 0.977184 -0.009921 -0.004016 -350581.000000 0 0 1
-12.481518 25.863456 20.227088 35.126083 -1.121171 0.957162 -0.008659 0.018592 136277.000000 0 0 1
-13.019218 27.154756 20.216088 36.270801 -1.123727 0.979587 0.015381 0.003552 -547623.000000 0 0 1
-13.869518 27.493556 21.425288 37.514025 -1.103584 0.962918 0.035360 -0.003304 -729814.000000 0 0 1
-15.070618 26.774556 21.475488 37.485957 -1.058125 0.960764 0.031807 0.000396 -96690.300000 0 0 1
-15.685818 26.930656 22.771088 38.598284 -1.043380 0.939798 0.023026 -0.001176 -603139.000000 0 0 1
-17.057618 26.367956 23.013288 38.933827 -0.996598 0.938390 0.035293 -0.004015 -883079.000000 0 0 1
-17.074818 24.944556 22.856688 37.897341 -0.970542 0.923388 0.039285 0.000133 171876.000000 0 0 1
-18.331318 24.358656 23.218988 38.321048 -0.925660 0.919891 0.050297 0.007382 396990.000000 0 0 1
26.770182 24.702656 24.080501 43.666169 0.745252 0.986673 0.010506 -0.004674 12647.400000 0 0 1
26.859682 23.740356 25.075961 43.747580 0.723829 0.960395 0.015893 -0.013876 52438.000000 0 0 1
26.589682 22.423556 24.556851 42.577763 0.700602 0.956048 0.016737 -0.004684 -250221.000000 0 0 1
26.291482 21.334756 25.607541 42.451854 0.681696 0.923272 0.043748 -0.003093 719567.000000 0 0 1
24.967582 21.683456 26.070641 42.109746 0.715116 0.903185 0.030391 -0.004834 797232.000000 0 0 1
24.827882 21.147156 27.358431 42.568881 0.705509 0.872797 0.037439 -0.010747 -852115.000000 0 0 1
23.528782 21.499356 28.013511 42.433273 0.740358 0.849741 0.037531 -0.009801 -982826.000000 0 0 1
23.475982 22.781356 28.546411 43.416695 0.770383 0.853302 0.043773 -0.024005 816178.000000 0 0 1
22.379482 22.896956 29.497041 43.533748 0.796827 0.826347 0.053195 -0.019948 556442.000000 0 0 1
22.280282 24.318656 30.094701 44.648617 0.829113 0.831140 0.043085 -0.023376 -28133.700000 0 0 1
21.210382 25.117056 29.622771 44.252179 0.869527 0.837384 0.044484 -0.024434 76787.000000 0 0 1
21.122382 26.400656 30.200481 45.334520 0.896012 0.841735 0.037982 -0.022470 -288789.000000 0 0 1
19.763982 26.672056 30.872351 45.333382 0.933080 0.821659 0.042499 -0.019475 -1564050.000000 0 0 1
18.809082 27.033156 29.893941 44.477194 0.962909 0.833730 0.034149 -0.022499 618873.000000 0 0 1
17.542382 27.365956 30.485381 44.564438 1.000753 0.817463 0.028777 -0.023739 987883.000000 0 0 1
16.713382 26.183856 31.098111 43.954794 1.002684 0.784839 0.014927 -0.004461 -748758.000000 0 0 1
17.327282 25.603956 32.235631 44.664674 0.975851 0.764505 0.015362 -0.012929 -219427.000000 0 0 1
16.441682 24.670956 32.759948 44.183697 0.982952 0.735569 0.014813 -0.012965 -77573.800000 0 0 1
16.713982 24.227156 34.179012 45.105622 0.966890 0.710930 0.013098 -0.010565 -315418.000000 0 0 1
17.000182 25.251056 -33.635682 45.364976 0.978252 2.406019 0.012457 -0.007849 219040.000000 0 0 1
17.217982 24.711056 -32.365132 44.210824 0.962240 2.392142 0.002860 -0.001738 -281190.000000 0 0 1
17.500182 25.844056 -31.370952 44.252776 0.975574 2.358739 0.001821 0.015017 -661237.000000 0 0 1
16.422382 26.707156 -31.171212 44.210985 1.019489 2.353298 0.014770 -0.005846 -255090.000000 0 0 1
16.790282 27.963156 -30.692302 44.786929 1.030051 2.325806 0.018454 -0.007449 -405487.000000 0 0 1
16.228782 28.362356 -29.353272 43.925063 1.051073 2.302661 0.029293 0.000903 -436615.000000 0 0 1
16.687882 27.553556 -28.302322 42.880127 1.026231 2.291660 0.010336 0.008193 144791.000000 0 0 1
16.405282 28.279556 -27.113462 42.473596 1.045129 2.263163 0.009828 0.010207 -193101.000000 0 0 1
16.911882 27.572056 -25.809152 41.380458 1.020604 2.244269 0.008076 0.018683 103823.000000 0 0 1
18.322482 27.687456 -25.812762 42.054812 0.986198 2.231647 0.026943 0.015289 -215952.000000 0 0 1
18.815482 27.146656 -24.562312 41.161516 0.964713 2.210216 0.031556 0.015723 633787.000000 0 0 1
20.340782 26.872756 -24.485412 41.658466 0.922875 2.199091 0.029588 0.010598 566381.000000 0 0 1
20.980382 26.552456 -23.255012 41.060990 0.902091 2.172870 0.044604 0.009776 -315592.000000 0 0 1
22.373682 26.475956 -23.416412 41.831641 0.869179 2.164914 0.034772 0.010579 -60181.200000 0 0 1
22.997882 26.283956 -22.004012 41.278632 0.851979 2.133010 0.034380 0.009749 150062.000000 0 0 1
22.650682 25.047156 -21.437412 39.999700 0.835599 2.136416 0.038470 0.014133 407591.000000 0 0 1
23.477282 24.952656 -20.290712 39.818724 0.815853 2.105490 0.041680 0.007067 -41243.400000 0 0 1
22.997382 23.818956 -19.351612 38.349799 0.802945 2.099724 0.045418 0.000709 -504971.000000 0 0 1
23.262282 22.489356 -19.746112 37.905327 0.768506 2.118739 0.044053 0.002675 232672.000000 0 0 1
23.296382 21.507056 -18.712412 36.816154 0.745482 2.103967 0.054478 0.002406 -799728.000000 0 0 1
23.520582 20.126756 -19.459512 36.564691 0.707799 2.131986 0.068449 -0.003877 310388.000000 0 0 1
22.545182 19.701556 -20.409612 36.235187 0.718190 2.169115 0.052677 -0.004710 -246181.000000 0 0 1
21.215582 19.695156 -20.033412 35.204228 0.748251 2.176162 0.045550 0.003096 -879382.000000 0 0 1
20.119482 19.625956 -21.141912 35.170330 0.772982 2.215710 0.049967 0.000816 302764.000000 0 0 1
20.165782 20.527556 -22.264212 36.383161 0.794288 2.229304 0.051764 0.006695 -71621.600000 0 0 1
20.115882 21.921956 -21.909812 36.949434 0.828335 2.205535 0.044084 0.011018 -39310.500000 0 0 1
19.777082 22.778656 -23.188612 38.048809 0.855814 2.226155 0.037665 0.016022 1276520.000000 0 0 1
18.371282 22.749556 -23.514512 37.523040 0.891472 2.248067 0.028218 0.015642 802604.000000 0 0 1
17.988982 23.380856 -24.771812 38.521559 0.915001 2.269288 0.023416 0.010102 -430618.000000 0 0 1
16.474482 23.323156 -24.930412 37.906511 0.955816 2.288533 0.014316 0.013265 -252425.000000 0 0 1
15.846882 24.247856 -24.014812 37.627030 0.991938 2.262997 0.003505 0.009492 -23427.500000 0 0 1
14.440482 24.249256 -24.050112 37.080477 1.033691 2.276530 -0.003135 0.013845 1132.140000 0 0 1
13.797782 25.484956 -23.387112 37.240015 1.074573 2.249790 -0.001815 0.018814 -12319.800000 0 0 1
14.051182 26.697156 -24.061112 38.589000 1.086317 2.244037 -0.005904 0.025126 109249.000000 0 0 1
13.001882 27.643656 -23.889712 38.780652 1.131158 2.234478 0.012139 0.018571 282988.000000 0 0 1
13.169182 28.997156 -24.618912 40.253611 1.144493 2.228871 0.015760 0.010043 -13784.600000 0 0 1
13.191282 28.882756 -26.062452 41.078886 1.142370 2.258092 0.010295 0.002664 -77377.400000 0 0 1
12.671882 29.996656 -26.777982 42.159652 1.171093 2.259008 0.031408 -0.007972 -191406.000000 0 0 1
13.369082 31.365856 -26.596542 43.242633 1.167884 2.233250 0.041695 -0.008485 -1035790.000000 0 0 1
14.601082 31.384856 -27.188612 44.016149 1.135352 2.236606 0.031100 0.008857 -1334160.000000 0 0 1
15.348082 32.522056 -26.886622 44.901427 1.129857 2.212788 0.031021 -0.003695 -202227.000000 0 0 1
16.780882 32.451356 -27.450232 45.696868 1.093556 2.215176 0.022950 0.010867 -218037.000000 0 0 1
17.610282 31.607356 -26.684122 44.957639 1.062474 2.206246 0.001526 0.013312 -370039.000000 0 0 1
18.879782 31.537356 -27.288282 45.778830 1.031371 2.209418 0.005254 0.012071 -812503.000000 0 0 1
19.856782 30.730956 -26.407052 45.122232 0.997133 2.195965 0.010072 0.015730 -834106.000000 0 0 1
20.414482 31.361756 -25.291522 45.166048 0.993764 2.165143 0.017849 0.016165 609022.000000 0 0 1
21.390082 32.391756 -25.594152 46.495398 0.987176 2.153719 0.026198 0.006031 48518.100000 0 0 1
22.824382 31.842256 -25.776762 46.896941 0.948887 2.152738 0.036608 0.001086 -438578.000000 0 0 1
22.900182 31.082356 -26.981922 47.101542 0.935824 2.180770 0.028681 -0.000437 1062360.000000 0 0 1
23.832082 31.816656 -27.885462 48.557869 0.927907 2.182512 0.015618 0.009749 321093.000000 0 0 1
23.952882 31.146756 -29.323262 49.027692 0.915225 2.211919 0.012582 0.009954 416424.000000 0 0 1
22.941882 31.640456 -30.237352 49.414025 0.943435 2.229280 0.008147 0.009604 1579710.000000 0 0 1
21.692082 30.903656 -30.085302 48.277404 0.958779 2.243593 0.003985 0.002082 1667950.000000 0 0 1
20.415782 31.606456 -30.738202 48.586101 0.997283 2.255772 -0.008378 -0.000412 440939.000000 0 0 1
20.143582 32.829356 -30.062122 48.859612 1.020448 2.233532 -0.000566 0.001462 458923.000000 0 0 1
19.387082 33.715656 -30.944002 49.700459 1.048949 2.242870 -0.001485 0.007417 529173.000000 0 0 1
17.832982 33.647456 -30.912492 49.048432 1.083442 2.252664 0.005665 -0.004763 165402.000000 0 0 1
17.203782 32.420056 -31.355982 48.272432 1.082929 2.277806 0.026241 -0.008597 259617.000000 0 0 1
17.442082 31.957256 -32.699522 48.936195 1.071188 2.302593 0.022199 -0.008132 -787550.000000 0 0 1
16.900382 32.798856 -33.902412 50.107498 1.095005 2.313923 0.042823 -0.014303 -411960.000000 0 0 1
17.577782 34.009356 -34.019292 51.214519 1.093759 2.297288 0.031923 -0.006551 1182.390000 0 0 1
17.500182 -34.023181 33.480820 50.840914 -1.095726 0.851918 0.047409 -0.009602 775096.000000 0 0 1
16.059382 -33.595581 32.960883 49.729132 -1.124886 0.846233 0.057519 -0.014127 924794.000000 0 0 1
15.332182 34.067356 32.392351 49.446182 1.147897 0.856477 0.061305 -0.019918 365828.000000 0 0 1
13.977982 -34.313581 32.135801 49.046055 -1.183961 0.856327 0.049162 -0.015936 626409.000000 0 0 1
13.600682 -33.638981 30.786951 47.585669 -1.186577 0.867180 0.043243 -0.012267 -312337.000000 0 0 1
14.004482 -32.292481 30.716171 46.716303 -1.161600 0.853295 0.064174 -0.022588 548965.000000 0 0 1
13.157282 -31.730881 29.708661 45.415497 -1.177723 0.857735 0.076668 -0.030417 411413.000000 0 0 1
13.364082 -30.241681 29.574881 44.360247 -1.154691 0.841027 0.073457 -0.033953 -60160.000000 0 0 1
13.093382 -29.495181 30.723011 44.556770 -1.153013 0.809963 0.063430 -0.019261 193355.000000 0 0 1
13.486782 -28.153381 30.519281 43.656989 -1.124052 0.796701 0.073350 -0.025986 -789632.000000 0 0 1
13.010082 -27.253181 31.709111 43.788878 -1.125409 0.761015 0.057054 -0.019471 494377.000000 0 0 1
11.595582 -27.081581 31.862271 43.394399 -1.166242 0.746237 0.033917 -0.014169 494368.000000 0 0 1
11.022282 -26.308681 30.819301 41.993651 -1.174053 0.746745 0.017073 -0.013141 -889830.000000 0 0 1
11.286782 -24.771781 31.027551 41.276404 -1.143270 0.720157 -0.004251 -0.001301 -713984.000000 0 0 1
10.512082 -24.131181 31.988111 41.425318 -1.159963 0.688520 0.013450 -0.008870 -257261.000000 0 0 1
10.912782 -22.833981 32.449791 41.151773 -1.124969 0.662366 0.004911 -0.005092 268223.000000 0 0 1
10.103582 -22.411981 33.764857 41.766552 -1.147268 0.629336 0.018954 -0.007088 -155660.000000 0 0 1
10.288682 -23.142581 -33.827342 42.257841 -1.152461 2.498923 0.019071 -0.001894 722931.000000 0 0 1
11.637782 -23.306481 -33.356512 42.323598 -1.107679 2.478562 0.025340 -0.005570 986856.000000 0 0 1
12.240482 -22.113381 -32.521392 41.188250 -1.065245 2.480920 0.027710 -0.013840 -46604.700000 0 0 1
12.425282 -20.944181 -33.264552 41.225924 -1.035350 2.509655 0.018345 -0.009908 -250363.000000 0 0 1
13.428682 -20.225981 -32.592462 40.640969 -0.984689 2.501367 0.029409 -0.015346 -337032.000000 0 0 1
13.879882 -18.944981 -33.371452 40.807073 -0.938497 2.528350 0.024130 -0.015154 -599445.000000 0 0 1
14.348682 -19.349981 34.103134 41.753205 -0.932735 0.614991 0.030865 0.004595 307605.000000 0 0 1
14.151582 -18.373481 33.092524 40.409989 -0.914481 0.611271 -0.000439 0.003803 -138314.000000 0 0 1
15.020782 -17.064881 33.093383 40.149795 -0.849020 0.601924 0.019310 0.002925 -611713.000000 0 0 1
14.939782 -16.224781 34.217938 40.710046 -0.826608 0.572539 0.014276 -0.001285 359889.000000 0 0 1
15.676082 -15.017881 34.091160 40.416376 -0.763957 0.567032 0.022429 -0.006052 208016.000000 0 0 1
17.212482 -15.080481 34.325522 41.254477 -0.719473 0.588015 0.039346 -0.003063 43841.800000 0 0 1
17.916182 -15.833581 33.385676 41.064525 -0.723769 0.621501 0.035845 0.005890 -520632.000000 0 0 1
19.296282 -15.782481 33.622290 41.855604 -0.685562 0.637993 0.060953 0.002475 -597935.000000 0 0 1
20.081682 -16.485781 32.547931 41.646401 -0.687377 0.673681 0.075344 -0.009432 -656384.000000 0 0 1
19.954182 -15.810081 31.301741 40.347577 -0.670040 0.682811 0.066742 -0.000850 277131.000000 0 0 1
20.703782 -16.445181 30.316881 40.226904 -0.671261 0.717203 0.062537 -0.007797 -463802.000000 0 0 1
20.862682 -15.562281 29.051541 39.005488 -0.640897 0.730552 0.069057 0.001377 -318650.000000 0 0 1
21.650982 -14.398081 29.197571 39.096904 -0.586854 0.727559 0.069225 -0.002791 428102.000000 0 0 1
21.926182 -13.803181 27.922121 38.091076 -0.561850 0.748022 0.059757 -0.004402 129273.000000 0 0 1
22.657482 -12.409581 28.070301 38.148407 -0.501078 0.743922 0.039266 0.007539 -218812.000000 0 0 1
21.880382 -11.430281 28.668981 37.832696 -0.481406 0.710887 0.052595 0.000088 -137790.000000 0 0 1
22.623682 -10.240481 28.821141 38.044140 -0.425051 0.711212 0.054326 -0.004934 337012.000000 0 0 1
21.682882 -8.990681 28.941461 37.263761 -0.393067 0.681442 0.052871 -0.004420 317552.000000 0 0 1
20.954082 -8.919181 30.139841 37.776121 -0.402424 0.647069 0.052501 -0.004361 -879292.000000 0 0 1
19.872082 -8.077181 30.015111 36.892375 -0.386062 0.620504 0.028105 -0.010636 -1102130.000000 0 0 1
18.870582 -8.190181 31.136051 37.317979 -0.409485 0.583854 0.007116 0.001568 -719545.000000 0 0 1
19.175082 -7.597681 32.381931 38.392681 -0.377249 0.567141 0.017268 -0.000391 35453.700000 0 0 1
19.399482 -8.549781 33.372316 39.536693 -0.415112 0.565941 0.026202 -0.004512 -367414.000000 0 0 1
19.424882 -7.922581 -33.998222 39.949624 -0.387262 2.588735 0.023056 -0.013098 129335.000000 0 0 1
18.139582 -7.726581 -33.438172 38.818241 -0.402676 2.608823 0.019431 -0.025092 246871.000000 0 0 1
18.272882 -7.268981 -32.114922 37.657728 -0.378610 2.592141 0.028509 -0.030719 -124632.000000 0 0 1
16.943482 -6.961781 -31.406572 36.358228 -0.389853 2.613578 0.031086 -0.030560 -228832.000000 0 0 1
17.174682 -6.106381 -30.318972 35.376513 -0.341607 2.600287 0.044198 -0.033086 -67288.900000 0 0 1
15.957682 -5.731081 -29.751802 34.244162 -0.344796 2.623598 0.046845 -0.025922 -370174.000000 0 0 1
16.185082 -4.637481 -28.624042 33.208416 -0.279052 2.609903 0.048979 -0.021845 39269.000000 0 0 1
17.014982 -5.004481 -27.506082 32.728260 -0.286055 2.568888 0.050396 -0.027369 479369.000000 0 0 1
16.594182 -6.097781 -26.633692 31.967223 -0.352148 2.555587 0.068892 -0.028522 782613.000000 0 0 1
15.128682 -5.965081 -26.058602 30.716607 -0.375574 2.583668 0.060892 -0.018058 1055470.000000 0 0 1
15.101682 -4.909481 -25.102172 29.703246 -0.314318 2.577546 0.060608 -0.012180 -468658.000000 0 0 1
13.754382 -4.714081 -24.773612 28.725205 -0.330186 2.610856 0.038626 -0.019967 -304649.000000 0 0 1
13.357682 -3.511981 -23.849212 27.559873 -0.257100 2.616665 0.045222 -0.022263 -17092.400000 0 0 1
13.562682 -2.280981 -24.493912 28.090940 -0.166621 2.629969 0.034758 -0.024714 200589.000000 0 0 1
13.128382 -1.219981 -23.650512 27.077472 -0.092661 2.633016 0.035246 -0.019436 -116557.000000 0 0 1
13.504682 0.189019 -24.161312 27.679977 0.013996 2.631871 0.034494 -0.022337 -871182.000000 0 0 1
12.842682 0.645019 -25.287592 28.369223 0.050182 2.671164 0.026103 -0.021478 -63865.700000 0 0 1
13.322382 1.977019 -25.514002 28.850628 0.147323 2.655892 0.027888 -0.008339 -26399.300000 0 0 1
12.633182 2.675019 -26.695162 29.654421 0.208663 2.691044 0.017168 -0.008521 -500975.000000 0 0 1
11.355282 3.195019 -26.503612 29.010205 0.274277 2.722838 0.027727 -0.018861 -181135.000000 0 0 1
10.996782 3.853019 -27.773582 30.118878 0.337011 2.744352 0.025011 -0.012547 -416307.000000 0 0 1
9.790482 4.774019 -27.676532 29.742818 0.453693 2.766649 0.029872 -0.009737 -498810.000000 0 0 1
9.964282 5.938019 -26.953592 29.343536 0.537422 2.735200 0.026020 -0.019443 17712.500000 0 0 1
8.755582 6.654019 -26.828072 28.994510 0.649854 2.752572 0.034511 -0.022051 69934.700000 0 0 1
7.899182 5.285156 -31.698322 33.092500 0.589669 2.850289 0.001479 -0.006434 -79665.000000 0 0 1
7.926782 4.313056 -30.713222 32.011534 0.498311 2.855814 0.007197 0.002919 413753.000000 0 0 1
7.609982 3.063256 -31.215572 32.275491 0.382687 2.884606 0.007214 0.001940 -502016.000000 0 0 1
7.348182 2.078056 -30.080362 31.034533 0.275602 2.892979 0.013922 -0.004799 -386617.000000 0 0 1
8.543482 1.544456 -29.499252 30.750322 0.178844 2.855363 0.019876 -0.010602 903847.000000 0 0 1
8.243982 0.807156 -28.278862 29.467079 0.097597 2.856645 0.008925 -0.010522 -279719.000000 0 0 1
9.487582 0.336556 -27.518762 29.110303 0.035458 2.809393 0.013810 -0.020718 -87337.100000 0 0 1
10.220982 -0.665144 -28.204482 30.006727 -0.064985 2.793247 0.023535 -0.014576 516439.000000 0 0 1
11.385282 -1.108244 -27.493602 29.778365 -0.097034 2.747315 0.021197 -0.019665 616112.000000 0 0 1
12.058182 -2.293344 -28.243742 30.795586 -0.187945 2.731631 0.028972 -0.020637 -59631.500000 0 0 1
11.178182 -3.366544 -28.312352 30.624739 -0.292531 2.750499 0.026040 -0.022391 -135042.000000 0 0 1
11.949582 -4.544644 -28.405672 31.150096 -0.363425 2.718678 0.034258 -0.010970 -143811.000000 0 0 1
11.227382 -5.804644 -27.981782 30.703878 -0.477161 2.717333 0.025038 0.003197 -281369.000000 0 0 1
11.197782 -5.728544 -26.542702 29.372122 -0.472867 2.699060 0.037320 -0.001642 28354.200000 0 0 1
10.660282 -6.903244 -25.984612 28.922248 -0.574663 2.686977 0.046234 -0.002797 -65494.500000 0 0 1
10.374182 -6.694844 -24.447112 27.388061 -0.573090 2.673919 0.048665 -0.004927 -154475.000000 0 0 1
11.540782 -6.698644 -23.661012 27.164406 -0.525907 2.628091 0.046771 -0.006948 -191496.000000 0 0 1
11.222982 -6.559644 -22.277612 25.792950 -0.528932 2.613380 0.048923 -0.008819 -48606.100000 0 0 1
12.426782 -6.807944 -21.345012 25.619964 -0.501187 2.555557 0.056434 -0.013027 -64497.400000 0 0 1
13.178182 -5.650144 -21.194212 25.588732 -0.405043 2.546798 0.051516 -0.016024 15750.400000 0 0 1
14.387882 -5.936744 -20.476412 25.720411 -0.391339 2.491645 0.056184 -0.018010 820301.000000 0 0 1
15.047682 -4.658144 -19.832412 25.326974 -0.300203 2.470359 0.067930 -0.016077 -214517.000000 0 0 1
15.687082 -3.794944 -20.686012 26.237325 -0.237355 2.479031 0.064728 -0.019969 -137559.000000 0 0 1
16.175882 -2.697644 -19.959812 25.832741 -0.165249 2.453810 0.054282 -0.011113 -319596.000000 0 0 1
17.106882 -1.787444 -20.792512 26.984605 -0.104109 2.450472 0.034907 -0.012108 743150.000000 0 0 1
18.386582 -2.433244 -20.959512 27.987287 -0.131574 2.417188 0.051983 -0.017268 358631.000000 0 0 1
19.115282 -1.836344 -21.969712 29.179349 -0.095773 2.423284 0.042920 -0.014351 -267462.000000 0 0 1
20.536282 -2.411244 -22.149312 30.300907 -0.116879 2.390551 0.027577 -0.007218 -635806.000000 0 0 1
21.434482 -2.070344 -21.075912 30.131668 -0.096291 2.345439 0.011377 -0.000301 272296.000000 0 0 1
22.719282 -2.602644 -21.293312 31.246514 -0.114059 2.320555 0.011643 -0.003504 311005.000000 0 0 1
23.624982 -1.749744 -22.272812 32.515835 -0.073928 2.325377 0.015842 -0.003125 -1298930.000000 0 0 1
23.182782 -1.658344 -23.601912 33.124639 -0.071412 2.363877 0.023565 -0.007215 -489993.000000 0 0 1
23.961182 -0.959644 -24.509312 34.289437 -0.040029 2.367102 0.022863 0.006007 570778.000000 0 0 1
25.280982 -1.736944 -24.960812 35.569469 -0.068598 2.348645 0.015141 -0.004808 -302048.000000 0 0 1
26.179482 -1.990744 -23.955812 35.541655 -0.075896 2.310435 0.012475 0.000432 -476859.000000 0 0 1
27.301782 -2.819644 -24.253712 36.627588 -0.102912 2.294508 0.004768 0.002893 1224960.000000 0 0 1
28.457582 -2.030044 -24.981012 37.921050 -0.071215 2.289971 0.017826 -0.004801 -351890.000000 0 0 1
28.075582 -1.807044 -26.332162 38.534224 -0.064275 2.323131 0.023531 -0.004059 211503.000000 0 0 1
28.756982 -0.707344 -26.883962 39.372728 -0.024592 2.322394 0.024671 -0.012128 -251939.000000 0 0 1
28.152282 -0.430344 -28.330722 39.942033 -0.015285 2.359295 0.010694 -0.014121 799226.000000 0 0 1
26.776782 -0.049944 -28.384162 39.021266 -0.001865 2.385325 0.008114 -0.002619 623403.000000 0 0 1
26.526482 1.295456 -27.957482 38.561033 0.048798 2.381858 0.008220 -0.001957 -896353.000000 0 0 1
25.084782 1.787456 -28.051372 37.673873 0.071136 2.410708 0.020798 -0.005957 -184629.000000 0 0 1
24.211582 1.172656 -27.080822 36.344831 0.048396 2.411493 0.027763 -0.006959 478298.000000 0 0 1
22.880082 1.440956 -27.476672 35.784661 0.062896 2.446249 0.034175 -0.010456 409888.000000 0 0 1
21.756682 1.146756 -26.413532 34.239494 0.052659 2.451889 0.035525 -0.013764 187170.000000 0 0 1
21.769082 2.025256 -25.277562 33.420798 0.092767 2.428500 0.034819 -0.011281 424835.000000 0 0 1
20.953182 1.576256 -24.198512 32.048220 0.075086 2.426551 0.033152 -0.007810 -72945.500000 0 0 1
21.228782 2.264856 -22.865012 31.282575 0.106286 2.390463 0.017483 -0.003402 -143825.000000 0 0 1
20.788982 3.622156 -22.795012 31.063070 0.172503 2.394739 0.014087 -0.006777 497513.000000 0 0 1
21.098082 3.988156 -21.458412 30.356184 0.186825 2.355885 0.005991 -0.004204 -267941.000000 0 0 1
20.693182 5.421556 -21.029412 29.997287 0.256238 2.347656 -0.000088 0.002405 -236841.000000 0 0 1
21.446182 6.459156 -21.633812 31.139705 0.292539 2.338846 -0.002045 0.002907 168813.000000 0 0 1
21.250882 7.790556 -21.086912 30.934618 0.351385 2.320826 -0.008873 0.004340 -539669.000000 0 0 1
21.683282 8.130456 -19.628712 30.357130 0.358739 2.273906 -0.009089 0.000622 -665376.000000 0 0 1
23.065782 7.991356 -19.389112 31.174183 0.333517 2.242040 -0.009352 0.000073 284964.000000 0 0 1
23.530282 8.268756 -18.067112 30.797192 0.337930 2.197710 -0.005061 -0.012395 -97741.900000 0 0 1
23.437082 9.735456 -17.619712 30.895471 0.393700 2.177668 0.002958 -0.023410 640372.000000 0 0 1
22.096182 10.195456 -17.328412 29.874110 0.432304 2.189584 0.005991 -0.023783 915790.000000 0 0 1
22.055382 11.636256 -17.278312 30.337804 0.485477 2.176731 0.015818 -0.017734 -301377.000000 0 0 1
20.654782 12.219956 -16.931912 29.370682 0.534241 2.185223 0.018473 -0.025054 773362.000000 0 0 1
19.610782 11.980956 -17.866512 29.109076 0.548423 2.231634 0.019787 -0.027287 459789.000000 0 0 1
19.100282 10.676856 -17.998912 28.333317 0.509719 2.259136 0.020830 -0.029425 -323285.000000 0 0 1
18.206482 10.403956 -19.281112 28.486480 0.519157 2.314273 0.019572 -0.018669 476221.000000 0 0 1
18.950482 10.500856 -20.505312 29.830463 0.506001 2.328693 0.020337 -0.011164 265109.000000 0 0 1
18.239882 10.092056 -21.671112 30.069585 0.505370 2.375606 0.010689 -0.011427 -650675.000000 0 0 1
19.033182 10.155956 -22.961312 31.505988 0.490159 2.387352 0.028500 -0.012309 -660768.000000 0 0 1
19.258882 11.495456 -23.281112 32.327391 0.538130 2.374839 0.027341 -0.016917 221129.000000 0 0 1
19.785182 11.690056 -24.583912 33.652333 0.533664 2.389889 0.037720 -0.012696 -28462.300000 0 0 1
20.243882 13.104156 -24.947712 34.697579 0.574485 2.373165 0.047874 -0.014252 86583.700000 0 0 1
20.919682 13.232556 -26.199062 36.043369 0.564004 2.384558 0.045868 -0.011689 285489.000000 0 0 1
21.016182 14.606356 -26.645062 36.945701 0.607366 2.376322 0.052166 -0.009245 15720.000000 0 0 1
19.774582 15.282856 -27.290912 37.005319 0.657968 2.400137 0.052294 -0.015031 199900.000000 0 0 1
18.713482 15.482156 -26.381962 35.859440 0.691183 2.397503 0.039831 -0.007104 901887.000000 0 0 1
17.477982 15.793756 -27.090682 35.900245 0.734821 2.425856 0.027056 -0.015462 569960.000000 0 0 1
16.214282 15.449756 -26.345922 34.578975 0.761258 2.437047 0.021008 -0.014816 -883070.000000 0 0 1
16.003882 14.029956 -26.351192 33.872544 0.719769 2.462195 0.017179 -0.009285 419368.000000 0 0 1
14.716182 13.634156 -25.903012 32.763123 0.747250 2.482609 0.000473 -0.009655 67569.800000 0 0 1
14.484982 12.097156 -25.818872 31.980776 0.695810 2.510401 0.002019 -0.010010 -1097890.000000 0 0 1
13.169782 11.758956 -25.597862 31.096089 0.728864 2.537796 0.002544 -0.010653 -872212.000000 0 0 1
13.024682 10.380056 -25.404362 30.377121 0.672880 2.561294 0.012252 -0.011249 -786961.000000 0 0 1
11.560182 10.007956 -25.508782 29.740460 0.713554 2.601601 0.036398 -0.021010 -627766.000000 0 0 1
10.909382 10.168156 -24.246712 28.465928 0.750246 2.590170 0.052900 -0.027585 54331.300000 0 0 1
9.589582 9.670756 -24.222112 27.788384 0.789613 2.629382 0.054499 -0.024553 -406717.000000 0 0 1
8.828382 10.066656 -22.987912 26.603044 0.850839 2.614172 0.056397 -0.022193 -278250.000000 0 0 1
8.099282 11.287156 -23.197512 27.039283 0.948378 2.602002 0.052423 -0.026011 204864.000000 0 0 1
7.518082 11.779556 -21.990512 26.054982 1.002739 2.575502 0.056619 -0.013353 882025.000000 0 0 1
8.537782 12.648656 -21.098112 26.038674 0.977050 2.515393 0.048902 -0.018343 427808.000000 0 0 1
9.382682 11.854256 -20.362012 25.360789 0.901258 2.502930 0.053450 -0.029393 -1297740.000000 0 0 1
10.326282 12.548556 -19.658112 25.505680 0.882244 2.450790 0.059129 -0.028837 -569675.000000 0 0 1
11.343482 11.560156 -18.981012 24.951765 0.794858 2.435200 0.060451 -0.033740 -488299.000000 0 1 0
12.350082 11.034356 -19.802112 25.814824 0.729192 2.445078 0.061689 -0.031447 -225951.000000 0 0 1
11.936682 10.115856 -20.771212 26.004964 0.703017 2.495995 0.067098 -0.029776 -881952.000000 0 0 1
13.067582 9.545956 -21.649012 27.028997 0.630908 2.499685 0.061298 -0.022074 130572.000000 0 0 1
13.954382 8.763356 -20.846312 26.572352 0.560754 2.472704 0.077521 -0.029654 45448.800000 0 0 1
14.881882 8.090856 -21.648912 27.488320 0.497972 2.477648 0.057394 -0.027152 -312084.000000 0 0 1
15.465582 6.882356 -20.840212 26.848938 0.418697 2.459416 0.084119 -0.027178 17138.300000 0 0 1
16.334182 7.219356 -19.780012 26.649080 0.416163 2.407203 0.050289 -0.021988 -133415.000000 0 0 1
16.892882 6.047256 -19.335412 26.377963 0.343763 2.393539 0.040536 -0.021466 -282061.000000 0 0 1
17.617382 6.230856 -17.978812 25.931320 0.339946 2.336888 0.058941 -0.023594 -65261.500000 0 0 1
18.917482 6.810656 -18.185212 27.110110 0.345573 2.306071 0.035076 -0.026486 901001.000000 0 0 1
19.553282 7.107156 -16.909012 26.809647 0.348630 2.253259 0.026881 -0.028275 168424.000000 0 0 1
20.209082 5.926056 -16.161812 26.546738 0.285241 2.225351 0.013326 -0.027405 152284.000000 0 0 1
21.417282 5.428756 -16.775912 27.741712 0.248247 2.220208 -0.007824 -0.020550 1079850.000000 0 0 1
22.001282 4.443356 -15.974212 27.549506 0.199278 2.189324 0.021655 -0.027653 -365865.000000 0 0 1
23.103982 3.641356 -16.666212 28.719611 0.156321 2.189903 -0.000485 0.006287 -392458.000000 0 0 1
23.863282 2.831056 -15.821712 28.771473 0.118085 2.153052 0.005898 0.000253 -66385.200000 0 0 1
24.997382 2.434256 -16.561012 30.084245 0.097074 2.153745 0.016494 -0.003560 263123.000000 0 0 1
25.830682 1.268856 -15.881212 30.348756 0.049083 2.121504 0.029829 -0.014956 444957.000000 0 0 1
25.242082 -0.015744 -15.988112 29.879469 -0.000624 2.135407 0.038657 -0.013825 -198272.000000 0 0 1
26.299382 -0.892344 -15.838612 30.713440 -0.033917 2.112609 0.035818 -0.006575 -533905.000000 0 0 1
25.965482 -2.430344 -16.070112 30.632684 -0.093327 2.123049 0.027183 -0.006319 -383023.000000 0 0 1
25.388782 -2.919844 -14.902712 29.583890 -0.114502 2.098724 0.033142 -0.008195 323328.000000 0 0 1
25.204182 -4.332844 -15.043112 29.670179 -0.170246 2.102510 0.020689 -0.004831 -632984.000000 0 0 1
24.443282 -5.084844 -13.934812 28.592108 -0.205101 2.079867 0.019579 -0.007004 997994.000000 0 0 1
23.042682 -4.900944 -13.681512 27.242764 -0.209567 2.096946 0.023993 -0.001865 1203560.000000 0 0 1
22.138482 -5.389844 -14.697612 27.114251 -0.238814 2.143686 0.035407 -0.000721 8887.960000 0 0 1
20.695782 -5.406644 -14.152412 25.648352 -0.255533 2.155301 0.042776 -0.005042 -321912.000000 0 0 1
20.438182 -6.455644 -13.220612 25.182915 -0.305945 2.123492 0.041478 -0.006002 384628.000000 0 0 1
20.806382 -6.111444 -11.872512 24.722698 -0.285694 2.071710 0.056639 -0.005506 -491934.000000 0 1 0
20.510482 -7.368144 -10.988812 24.407446 -0.344881 2.037812 0.050694 -0.003936 1153120.000000 0 1 0
19.120582 -7.809344 -10.994312 23.397808 -0.387749 2.059958 0.047394 -0.003090 1895570.000000 0 1 0
18.854982 -8.749344 -12.065612 24.034150 -0.434463 2.096729 0.045465 -0.006515 -135103.000000 0 1 0
17.452582 -9.408744 -11.916312 23.132565 -0.494439 2.111957 0.066081 -0.004776 510636.000000 0 1 0
16.402382 -8.449944 -11.984212 22.001387 -0.475706 2.146831 0.054640 -0.005682 -839839.000000 0 1 0
15.179282 -9.059844 -12.162812 21.457525 -0.538104 2.173452 0.057217 -0.007207 -642187.000000 0 1 0
14.032982 -8.039444 -12.362312 20.356424 -0.520252 2.223445 0.050989 -0.008221 -480746.000000 0 1 0
14.077282 -7.135544 -13.466512 20.746874 -0.469139 2.277179 0.048785 -0.010379 312183.000000 0 1 0
15.120782 -6.167544 -13.454112 21.158681 -0.387286 2.259928 0.041874 -0.006877 71734.700000 0 1 0
15.054182 -5.182944 -14.633512 21.624777 -0.331575 2.314069 0.043473 -0.004803 586828.000000 0 1 0
14.038782 -4.166044 -14.384212 20.526784 -0.288475 2.347249 0.049759 -0.008410 805426.000000 0 1 0
13.767082 -3.339444 -15.481812 20.985017 -0.237971 2.400536 0.049771 -0.006966 -52699.900000 0 1 0
14.822282 -2.262844 -15.893612 21.850112 -0.151495 2.385311 0.047465 -0.003844 449162.000000 0 1 0
16.017682 -2.872044 -16.415812 23.114793 -0.177419 2.360559 0.045712 -0.007050 237922.000000 0 1 0
17.110782 -2.002644 -16.454512 23.823106 -0.116510 2.333247 0.053206 0.002817 -457533.000000 0 1 0
18.066282 -2.201444 -15.278912 23.763039 -0.121256 2.269166 0.045334 -0.002814 -677355.000000 0 1 0
17.604282 -1.888444 -13.936812 22.532459 -0.106863 2.237656 0.039570 0.001339 463088.000000 0 1 0
18.701182 -2.204044 -13.090012 22.933391 -0.117315 2.178257 0.036548 0.000337 233855.000000 0 1 0
18.341482 -2.469744 -11.623112 21.854206 -0.133848 2.131577 0.035747 0.005259 -353552.000000 0 1 0
17.940882 -1.280344 -10.912912 21.038207 -0.071244 2.116148 0.035709 0.002944 651686.000000 0 1 0
17.707982 -1.599544 -9.568512 20.191275 -0.090085 2.064503 0.045410 -0.002729 -877584.000000 0 1 0
17.786682 -0.411744 -8.559712 19.743461 -0.023145 2.019221 0.049302 -0.001623 258056.000000 0 1 0
19.081982 0.116256 -8.275312 20.799431 0.006092 1.979982 0.049481 -0.002626 1050830.000000 0 1 0
19.855982 0.730656 -9.307212 21.941241 0.036781 2.008861 0.031776 0.007600 -142715.000000 0 1 0
19.378882 2.120956 -9.830012 21.832743 0.109013 2.037832 0.026264 -0.002203 -516948.000000 0 1 0
19.497182 3.147956 -8.873512 21.651534 0.160076 1.993067 0.034245 0.001806 148324.000000 0 1 0
18.572482 4.127856 -9.202812 21.134522 0.218702 2.021323 0.014524 -0.016968 -1231110.000000 0 1 0
18.923882 5.572456 -8.899912 21.641950 0.286373 1.994604 0.049654 -0.004831 -947148.000000 0 1 0
18.061082 6.475356 -9.476312 21.399378 0.344250 2.029550 0.033126 -0.017562 -261847.000000 0 1 0
18.513482 7.776356 -9.358612 22.154104 0.397660 2.006924 0.044758 -0.008240 -516737.000000 0 1 0
-25.775388 -29.824924 5.972588 39.869394 0.858103 1.420426 0.030388 -0.009096 -414832.000000 0 0 1
-25.847818 -28.621634 6.621788 39.129985 0.836278 1.400753 0.030234 -0.011505 -834413.000000 0 0 1
-24.674718 -27.893914 6.607088 37.822821 0.846560 1.395210 0.022352 -0.012547 -1105320.000000 0 0 1
-24.773518 -26.665254 7.504188 37.162829 0.822158 1.367471 0.027548 -0.003718 476798.000000 0 0 1
-25.793688 -25.631614 7.257788 37.080581 0.782247 1.373794 0.022779 -0.008172 178982.000000 0 0 1
-27.126458 -25.928264 7.465288 38.260295 0.762818 1.374418 0.009690 -0.007258 -783112.000000 0 0 1
-27.539918 -26.040564 8.960888 38.946830 0.757422 1.338636 0.013103 -0.004100 -549582.000000 0 0 1
-26.777358 -26.938934 9.731788 39.210213 0.788406 1.319980 0.003534 -0.007332 -73899.000000 0 0 1
-27.250438 -26.973664 11.108588 39.919490 0.780294 1.288799 0.014501 -0.009886 200085.000000 0 0 1
-26.413878 -27.914364 12.039788 40.272338 0.813010 1.267194 0.011637 -0.010136 95056.000000 0 0 1
-25.151628 -27.438244 12.407588 39.235314 0.828851 1.249038 0.023820 -0.010122 -473734.000000 0 0 1
-25.175288 -26.747624 13.630088 39.179202 0.815671 1.215476 0.034576 -0.008407 -184299.000000 0 0 1
-23.847618 -26.136314 14.153988 38.107102 0.831155 1.190251 0.047092 -0.005664 43871.000000 0 0 1
-23.001618 -27.134604 14.635388 38.464994 0.867647 1.180475 0.058260 -0.018812 -516430.000000 0 0 1
-21.862618 -26.682914 15.336588 37.751330 0.884368 1.152447 0.060642 -0.017999 -103070.000000 0 0 1
-21.169118 -27.993024 15.862788 38.514530 0.923321 1.146297 0.057253 -0.021083 -171831.000000 0 0 1
-21.912818 -28.687824 16.833488 39.831259 0.918498 1.134462 0.052837 -0.011897 337317.000000 0 0 1
-21.318918 -29.938064 17.020588 40.502894 0.951995 1.137096 0.064219 -0.018378 -149250.000000 0 0 1
-22.222918 -30.654734 18.014588 41.929658 0.943526 1.126704 0.058180 -0.027589 936560.000000 0 0 1
-23.459418 -31.133814 17.416288 42.696438 0.925057 1.150633 0.039954 -0.016436 905038.000000 0 0 1
-24.151218 -31.945924 18.299788 44.030736 0.923464 1.142179 0.041322 -0.011724 -345379.000000 0 0 1
-25.268768 -32.760844 17.616988 44.968231 0.913796 1.168247 0.029604 -0.013834 347104.000000 0 0 1
-24.707318 -33.810594 16.817688 45.126960 0.939725 1.188906 0.030652 -0.015380 529038.000000 0 0 1
-25.769898 34.310771 16.153488 45.850320 -0.926609 1.210759 0.021100 -0.012803 -150663.000000 0 0 1
-25.268858 33.775376 14.797388 44.701833 -0.928484 1.233408 0.015188 -0.017450 402263.000000 0 0 1
-24.215918 32.831455 14.784788 43.392455 -0.935290 1.223111 0.009889 -0.015492 764666.000000 0 0 1
-22.913818 33.401645 14.604188 43.058046 -0.969522 1.224757 0.026695 -0.018500 289492.000000 0 0 1
-21.745918 32.426392 14.798488 41.753457 -0.980059 1.208497 0.044121 -0.029494 -118803.000000 0 0 1
-21.510218 31.712582 13.654088 40.679374 -0.974792 1.228500 0.041364 -0.015510 -320656.000000 0 0 1
-20.440118 30.832472 13.814188 39.487613 -0.985377 1.213400 0.038338 -0.016840 -249051.000000 0 0 1
-20.323018 29.911172 12.600788 38.294688 -0.973999 1.235501 0.030101 -0.013866 120836.000000 0 0 1
-19.757218 30.554052 11.444188 38.142722 -0.996793 1.266066 0.017053 -0.004589 134506.000000 0 0 1
-19.663918 29.679922 10.292388 37.060771 -0.985661 1.289380 0.023909 -0.008878 137704.000000 0 0 1
-19.180618 30.455562 9.007588 37.102211 -1.008760 1.325568 0.016515 -0.006078 -1100460.000000 0 0 1
-17.842418 30.788862 8.968088 36.697855 -1.045580 1.323920 0.007308 -0.011531 -1156720.000000 0 0 1
-17.447218 31.304272 7.679888 36.651652 -1.062333 1.359695 0.025442 -0.013001 106582.000000 0 0 1
-16.971218 30.327092 6.586488 35.371409 -1.060608 1.383494 0.019336 -0.010702 -842212.000000 0 0 1
-17.892118 29.383482 6.186988 34.954195 -1.023846 1.392856 0.013280 -0.003224 -685962.000000 0 0 1
-17.783118 28.118132 6.832788 33.964035 -1.006863 1.368237 0.006697 -0.000702 -555290.000000 0 0 1
-18.823618 27.146132 6.335988 33.636080 -0.964501 1.381295 0.013888 0.004552 -606348.000000 0 0 1
-18.510118 26.515872 5.107588 32.738409 -0.961362 1.414144 0.023707 -0.003529 296645.000000 0 0 1
-19.522618 25.649312 4.580488 32.557652 -0.920206 1.429640 0.033622 -0.009799 -627787.000000 0 0 1
-19.222918 24.854162 3.313088 31.594723 -0.912469 1.465741 0.045233 -0.018045 -1493310.000000 0 0 1
-19.023118 25.541832 2.071288 31.914800 -0.930643 1.505850 0.044783 -0.018376 901273.000000 0 0 1
-17.804118 26.296002 1.898288 31.813046 -0.975629 1.511091 0.039165 -0.016553 1082520.000000 0 0 1
-16.445718 25.506692 2.037788 30.417192 -0.998113 1.503751 0.036260 -0.015992 -144966.000000 0 0 1
-16.290318 24.431142 1.107688 29.385067 -0.982712 1.533092 0.061529 -0.017246 128990.000000 0 0 1
-16.060818 24.824332 -0.271112 29.568072 -0.996548 1.579966 0.053158 -0.018205 -25451.600000 0 0 1
-15.548618 23.616792 -1.065412 28.295716 -0.988559 1.608458 0.057622 -0.027032 298661.000000 0 0 1
-16.670818 22.757592 -1.145912 28.233620 -0.938564 1.611394 0.065773 -0.029436 313213.000000 0 0 1
-16.534618 21.611992 -2.018712 27.286389 -0.917722 1.644846 0.061405 -0.029809 24430.200000 0 0 1
-15.542218 20.518592 -1.497612 25.784027 -0.922532 1.628912 0.065724 -0.030684 153090.000000 0 0 1
-16.055518 19.657792 -0.544612 25.387104 -0.885925 1.592250 0.077559 -0.036848 -26218.400000 0 0 1
-15.062118 18.805792 -0.032412 24.094113 -0.895489 1.572142 0.100170 -0.042899 76241.800000 0 1 0
-15.731718 17.783292 0.929688 23.761245 -0.846535 1.531660 0.083556 -0.039224 477399.000000 0 1 0
-16.370118 16.687892 0.288688 23.378406 -0.795010 1.558448 0.067007 -0.037170 372806.000000 0 1 0
-17.046218 15.810692 1.181888 23.279785 -0.747813 1.520006 0.073539 -0.048358 -89339.100000 0 1 0
-17.831218 14.749192 0.410488 23.144319 -0.691081 1.553059 0.092261 -0.040702 52893.000000 0 1 0
-18.837118 15.216692 -0.491212 24.220364 -0.679481 1.591079 0.096610 -0.035979 425873.000000 0 1 0
-19.708618 14.147492 -0.749012 24.272252 -0.622594 1.601660 0.079551 -0.024419 -1323100.000000 0 1 0
-20.640918 14.337492 -1.927312 25.205669 -0.607103 1.647334 0.075715 -0.014692 -558172.000000 0 0 1
-21.619818 13.280492 -2.067412 25.457066 -0.550849 1.652098 0.071892 -0.013758 1104420.000000 0 0 1
-22.664218 13.186792 -1.114312 26.244999 -0.526954 1.613267 0.072935 -0.012397 -367563.000000 0 0 1
-23.725518 14.328292 -1.210312 27.742838 -0.543296 1.614436 0.047774 -0.010249 -734572.000000 0 0 1
-23.240618 15.552592 -0.750212 27.974493 -0.589754 1.597617 0.035230 -0.014758 -169341.000000 0 0 1
-24.308118 16.367292 -0.373612 29.307208 -0.592599 1.583545 0.014101 -0.012045 -425297.000000 0 0 1
-23.867918 17.617692 0.428688 29.668913 -0.635863 1.556347 0.009872 -0.020301 -69883.800000 0 0 1
-23.318218 17.308792 1.699488 29.089893 -0.638546 1.512341 0.014556 -0.022271 11288.500000 0 0 1
-23.157818 18.387192 2.593288 29.683304 -0.671069 1.483320 0.015822 -0.026322 612320.000000 0 0 1
-24.467818 19.106192 3.127388 31.200982 -0.662967 1.470394 0.021805 -0.028265 169168.000000 0 0 1
-25.143598 18.272092 4.058488 31.345514 -0.628428 1.440956 0.023008 -0.030244 1423260.000000 0 0 1
-26.579518 18.465692 4.153488 32.629803 -0.607183 1.443159 0.024498 -0.026395 1809770.000000 0 0 1
-27.513548 18.280392 2.892488 33.159231 -0.586442 1.483455 0.033728 -0.029186 -1056640.000000 0 0 1
-28.643838 19.048492 3.059788 34.535154 -0.586856 1.482081 0.045670 -0.026214 -415222.000000 0 0 1
-29.476728 19.065692 1.892788 35.156234 -0.574126 1.516931 0.043274 -0.023727 -546213.000000 0 0 1
-30.756628 19.871792 2.025488 36.673709 -0.573627 1.515538 0.062401 -0.034016 -640712.000000 0 0 1
-31.700208 19.113892 2.750988 37.118890 -0.542592 1.496615 0.080030 -0.023248 -489362.000000 0 0 1
-32.904738 19.753892 3.027488 38.498101 -0.540666 1.492075 0.072060 -0.023384 -361403.000000 0 0 1
-33.133038 20.378392 4.421788 39.148810 -0.551410 1.457607 0.057353 -0.023285 -459935.000000 0 0 1
-32.331828 21.532992 4.547688 39.111358 -0.587541 1.454257 0.057242 -0.022394 330105.000000 0 0 1
-32.446248 22.070792 5.844488 39.674134 -0.597331 1.422946 0.067380 -0.019589 -514234.000000 0 0 1
-31.461118 23.186592 6.115788 39.557842 -0.635124 1.415570 0.059945 -0.023325 -510769.000000 0 0 1
-31.783118 24.419682 5.516688 40.458885 -0.655125 1.434017 0.043892 -0.015618 561583.000000 0 0 1
-30.817828 25.386742 5.918388 40.364001 -0.689067 1.423640 0.037171 -0.023016 -68802.400000 0 0 1
-31.344658 26.799782 5.740988 41.637422 -0.707392 1.432475 0.031172 -0.019025 -199606.000000 0 0 1
-32.292868 27.166522 6.739788 42.734927 -0.699395 1.412424 0.038290 -0.013276 313542.000000 0 0 1
-32.696268 28.488302 6.611188 43.867267 -0.716731 1.419511 0.026969 -0.009031 -275703.000000 0 0 1
-33.757728 28.925322 7.620088 45.103484 -0.708458 1.401035 0.016526 -0.006054 -547499.000000 0 0 1
-33.196278 29.093552 8.898288 45.028960 -0.719628 1.371874 0.015200 -0.018320 512014.000000 0 0 1
-34.135782 29.597352 9.857888 46.243193 -0.714308 1.355973 0.011940 -0.010446 653503.000000 0 0 1
-35.207283 28.587282 10.429488 46.535575 -0.681998 1.344758 -0.003572 -0.002715 118018.000000 0 0 1
-34.631575 27.512092 11.144488 45.612069 -0.671331 1.323966 0.009646 -0.007816 154159.000000 0 0 1
-35.618360 26.642812 11.635088 45.976976 -0.642225 1.314951 0.005642 -0.009414 -237246.000000 0 0 1
-34.931127 25.430102 12.241788 44.908074 -0.629276 1.294706 0.025128 -0.003555 243854.000000 0 0 1
-34.125448 25.726102 13.395688 44.786416 -0.645972 1.267045 0.030198 -0.015898 140235.000000 0 0 1
-33.702198 24.584872 14.123488 44.042332 -0.630234 1.244349 0.038049 -0.014454 201884.000000 0 0 1
-32.575528 24.965712 15.135888 43.744108 -0.653911 1.217482 0.041957 -0.011650 407517.000000 0 0 1
-33.055678 25.900652 16.135888 44.987649 -0.664627 1.203950 0.046066 -0.018237 2696.450000 0 0 1
-31.992818 26.453772 16.874088 44.811576 -0.690909 1.184720 0.060094 -0.005597 -99185.600000 0 0 1
-32.345628 27.829632 17.525388 46.128812 -0.710491 1.181083 0.065006 -0.011829 -187257.000000 0 0 1
-32.291388 28.913822 16.621988 46.422337 -0.730270 1.204607 0.064642 -0.008671 44736.600000 0 0 1
-32.698318 30.152692 17.153288 47.671796 -0.744918 1.202721 0.053947 -0.004806 13526.300000 0 0 1
-32.433468 31.351662 16.127388 47.905629 -0.768440 1.227440 0.035839 0.001343 -1069110.000000 0 0 1
-31.095058 31.567692 15.921588 47.084167 -0.792941 1.225844 0.034088 0.002839 -1331170.000000 0 0 1
-30.872218 32.727085 15.196688 47.487844 -0.814555 1.245054 0.020922 0.008303 616870.000000 0 0 1
-29.355638 33.063028 14.860388 46.644919 -0.844724 1.246560 0.028496 0.000299 1191370.000000 0 0 1
-28.715798 32.336802 13.816388 45.399983 -0.844638 1.261566 0.028203 -0.007364 167155.000000 0 0 1
-28.505378 30.909732 14.015288 44.321512 -0.825843 1.249055 0.034793 -0.010629 -715964.000000 0 0 1
-29.592818 29.883712 13.682588 44.226512 -0.790289 1.256260 0.044332 -0.013501 -336614.000000 0 0 1
-29.633528 29.707152 12.279388 43.720067 -0.786639 1.286102 0.053434 -0.019246 793904.000000 0 0 1
-30.720728 28.844482 11.851888 43.774817 -0.753910 1.296628 0.060450 -0.024377 793365.000000 0 0 1
-30.516208 28.360342 10.413688 42.941738 -0.748798 1.325847 0.050009 -0.018015 -28471.400000 0 0 1
-29.469308 27.442382 10.145588 41.526587 -0.749798 1.323983 0.049389 -0.011480 34846.100000 0 0 1
-29.389228 27.369282 8.775088 41.107256 -0.749825 1.355673 0.042428 -0.009570 545487.000000 0 0 1
-28.083278 26.738662 8.138288 39.621438 -0.760876 1.363923 0.056407 -0.012747 670210.000000 0 0 1
-27.955268 27.195942 6.824588 39.594082 -0.771631 1.397567 0.053876 -0.022103 -235655.000000 0 0 1
-26.926458 26.501342 6.161388 38.279472 -0.777442 1.409135 0.043539 -0.015309 -483690.000000 0 0 1
-26.651258 26.852382 4.687888 38.122386 -0.789157 1.447515 0.040212 -0.014205 -212032.000000 0 0 1
-25.919758 28.031742 4.413088 38.432900 -0.824524 1.455717 0.031022 -0.010046 215233.000000 0 0 1
-25.776948 28.305492 3.040188 38.404358 -0.832118 1.491551 0.021708 -0.010010 -490392.000000 0 0 1
-24.773418 29.408102 2.767488 38.551495 -0.870730 1.498948 0.021988 -0.009361 216596.000000 0 0 1
-23.437918 29.012762 3.058288 37.422313 -0.891288 1.488981 0.023714 -0.004723 -52050.500000 0 0 1
-22.453918 29.961222 2.765788 37.543347 -0.927658 1.497060 0.033946 -0.005373 409535.000000 0 0 1
-21.055018 29.476572 3.262588 36.370683 -0.950540 1.480972 0.028105 -0.007704 347080.000000 0 0 1
-20.062718 30.415062 2.940188 36.554526 -0.987680 1.490276 0.022912 -0.004487 292419.000000 0 0 1
-18.753018 29.908202 3.264688 35.451861 -1.010746 1.478578 0.024271 -0.010640 1538540.000000 0 0 1
-17.507218 30.702022 2.743088 35.449138 -1.052554 1.493338 0.029054 -0.009833 625381.000000 0 0 1
-17.315418 31.948842 3.493688 36.506960 -1.074137 1.474950 0.041647 -0.011977 12793.300000 0 0 1
-16.342718 32.731848 2.822688 36.693677 -1.107716 1.493795 0.046942 -0.004063 45835.900000 0 0 1
-16.022418 34.029256 3.620688 37.786473 -1.130746 1.474829 0.048969 -0.011301 -371224.000000 0 0 1
-17.091418 -33.832054 3.607688 38.075450 1.103010 1.475903 0.045390 -0.019411 -380003.000000 0 0 1
-16.732118 -32.691894 4.361388 36.983043 1.097743 1.452592 0.049466 -0.018816 -35597.400000 0 0 1
-17.810518 -31.631264 4.688788 36.602407 1.057976 1.442343 0.041208 -0.012662 -180699.000000 0 0 1
-18.126418 -30.804624 3.608388 35.923702 1.038926 1.470181 0.044742 -0.010969 233754.000000 0 0 1
-19.041218 -29.846104 4.131888 35.643098 1.002917 1.454611 0.046988 -0.013582 -10056.100000 0 0 1
-19.574918 -28.893824 3.033788 35.031905 0.975347 1.484087 0.034156 -0.022519 -56162.000000 0 0 1
-18.683118 -27.837174 2.762988 33.639282 0.979691 1.488568 0.035168 -0.012825 -91712.500000 0 0 1
-19.325518 -26.812624 2.084388 33.117022 0.946272 1.507815 0.028975 -0.005882 -121645.000000 0 0 1
-18.448318 -25.544734 2.010788 31.573995 0.945328 1.507068 0.030211 -0.002718 -89610.200000 0 0 1
-17.294618 -25.782314 1.249088 31.070754 0.979942 1.530584 0.045159 -0.011426 -828814.000000 0 0 1
-16.450518 -24.655044 1.292588 29.667517 0.982406 1.527213 0.040265 -0.016654 35602.800000 0 0 1
-15.094918 -25.029744 0.635588 29.236084 1.028116 1.549055 0.060189 -0.016831 -81347.700000 0 0 1
-15.029318 -25.025744 -0.767112 29.201999 1.029969 1.597069 0.057885 -0.009098 17088.600000 0 0 1
-14.989218 -23.715144 -1.298712 28.085074 1.007142 1.617055 0.062950 -0.020072 -280831.000000 0 0 1
-15.151218 -23.701044 -2.838712 28.272906 1.002006 1.671370 0.023602 -0.002529 -303442.000000 0 0 1
-14.029818 -24.270644 -3.439512 28.244118 1.046668 1.692877 0.053206 -0.006460 -273974.000000 0 0 1
-13.961518 -23.799644 -4.801012 28.007084 1.040268 1.743069 0.043744 0.008936 684523.000000 0 0 1
-12.846318 -24.627244 -5.549512 28.325362 1.089995 1.767992 0.067576 -0.006584 639860.000000 0 0 1
-13.225418 -25.985124 -5.832812 29.734829 1.100006 1.768238 0.040750 -0.005179 -355193.000000 0 0 1
-12.326618 -26.541984 -6.739812 30.030776 1.136016 1.797155 0.064304 -0.002757 -42746.000000 0 0 1
23.046782 13.181056 28.580681 39.009610 0.519521 0.748578 0.014894 0.006248 -236630.000000 0 0 1
23.650282 11.894756 28.666721 39.020532 0.466000 0.745635 0.016098 0.002855 775524.000000 0 0 1
22.960582 11.024856 29.600851 39.050558 0.447654 0.710534 0.014972 0.000547 -59302.700000 0 0 1
23.063182 11.411456 31.113861 40.375785 0.459472 0.691003 0.028827 -0.004557 36825.400000 0 0 1
22.074782 12.287156 31.614391 40.468999 0.507908 0.674210 0.019906 0.001818 89163.500000 0 0 1
22.451982 12.691456 32.878075 41.786748 0.514492 0.665179 0.031996 -0.002551 -270800.000000 0 0 1
21.448182 13.663356 33.548406 42.097593 0.567211 0.648617 0.016743 0.003189 -410689.000000 0 0 1
20.189682 13.169556 33.906213 41.601583 0.577984 0.618029 0.014270 0.001823 -80434.600000 0 0 1
19.498382 14.112356 -34.017062 41.671405 0.626502 2.525801 0.016185 0.007359 18098.200000 0 0 1
18.202482 13.507956 -33.445492 40.402922 0.638422 2.545969 0.021013 0.009286 -708683.000000 0 0 1
17.140782 13.345156 -34.326420 40.622687 0.661531 2.577373 0.012944 0.011715 -324614.000000 0 0 1
16.120982 12.712656 -33.567112 39.347791 0.667738 2.592671 0.010367 0.007059 -171632.000000 0 0 1
14.825682 12.378756 -34.302073 39.365805 0.695694 2.628778 0.006711 0.008674 24904.500000 0 0 1
15.022882 11.245956 33.625257 38.507355 0.642597 0.509032 0.005715 0.011175 426168.000000 0 0 1
13.800482 10.948156 32.960024 37.372163 0.670653 0.490833 0.000430 0.018489 336702.000000 0 0 1
14.029782 9.826956 31.910191 36.216904 0.611018 0.492644 0.005012 0.022501 191077.000000 0 0 1
14.448582 8.614056 32.498021 36.593508 0.537611 0.477641 0.003773 0.019482 96148.500000 0 0 1
15.125882 7.780156 31.575631 35.865632 0.475070 0.494119 0.008327 0.007747 123949.000000 0 0 1
15.423082 6.295256 31.946131 36.028558 0.387530 0.480662 0.023559 0.002533 -455956.000000 0 0 1
14.284782 5.491856 32.053521 35.519624 0.367034 0.445449 0.017642 0.011496 -587484.000000 0 0 1
14.648882 4.178556 32.416391 35.817209 0.277868 0.439297 0.030142 0.001215 -517642.000000 0 0 1
13.575682 3.137556 32.666671 35.514149 0.227128 0.403172 0.021853 -0.001082 -941769.000000 0 0 1
14.007482 1.834956 32.866586 35.774140 0.130257 0.405958 0.036636 -0.006020 -491530.000000 0 0 1
13.023282 1.019956 33.425297 35.887277 0.078158 0.372565 0.040424 -0.009377 -202831.000000 0 0 1
13.657382 -0.330644 33.798518 36.455085 -0.024205 0.384122 0.031438 -0.011196 127840.000000 0 0 1
13.924082 -1.257944 32.762968 35.621265 -0.090098 0.403331 0.022895 -0.005003 -225858.000000 0 0 1
14.525582 -2.405244 33.271029 36.383225 -0.164098 0.416623 0.035183 -0.014020 -320899.000000 0 0 1
14.640082 -3.478144 32.127041 35.476418 -0.233253 0.438031 0.026967 -0.012190 -801392.000000 0 0 1
14.924582 -4.822944 32.517821 36.102806 -0.312562 0.449417 0.026487 -0.015340 607315.000000 0 0 1
16.193882 -5.108644 33.114019 37.213953 -0.305586 0.473828 0.010349 -0.012753 818344.000000 0 0 1
17.557182 -4.783444 32.452981 37.206611 -0.265993 0.511039 0.025364 -0.015160 -240466.000000 0 0 1
17.702782 -3.376944 32.246591 36.940964 -0.188493 0.509636 0.030413 -0.021341 -317815.000000 0 0 1
18.876882 -3.028744 31.568901 36.906713 -0.159091 0.544531 0.043052 -0.026579 -459185.000000 0 0 1
18.941282 -1.485744 31.568771 36.845174 -0.078279 0.541774 0.047624 -0.023489 -263996.000000 0 0 1
18.948882 -0.976244 32.865696 37.949534 -0.051474 0.523576 0.047483 -0.022946 11286.500000 0 0 1
18.780482 0.447556 32.846410 37.839046 0.023826 0.519523 0.048414 -0.011681 -85152.400000 0 0 1
19.916882 1.361556 32.330621 37.997435 0.068256 0.553170 0.056847 -0.012879 -361877.000000 0 0 1
20.012082 1.253256 30.928431 36.859488 0.062543 0.575188 0.061212 -0.020169 -187243.000000 0 0 1
20.953182 2.110656 30.334941 36.928300 0.100393 0.606838 0.052753 -0.018708 -328015.000000 0 0 1
20.537582 3.571356 30.084021 36.600480 0.172172 0.605958 0.051484 -0.003499 -184543.000000 0 0 1
20.149382 4.145356 31.330381 37.480319 0.202900 0.580998 0.057576 -0.009094 394317.000000 0 0 1
19.530782 5.403256 31.250771 37.245903 0.269903 0.575282 0.050720 -0.008790 -198983.000000 0 0 1
19.441082 6.105956 32.617481 38.459568 0.304319 0.558411 0.050133 -0.003078 64799.900000 0 0 1
18.262082 5.668456 33.284461 38.386070 0.300966 0.521451 0.042896 -0.002840 427641.000000 0 0 1
18.107382 6.375556 -34.273642 39.283680 0.338542 2.631021 0.038742 -0.000631 -190141.000000 0 0 1
16.992382 5.679756 -33.479092 37.971703 0.322578 2.650218 0.047848 0.004195 -316265.000000 0 0 1
17.266182 4.291556 -33.385702 37.830458 0.243616 2.651966 0.036843 -0.006464 271727.000000 0 0 1
16.238382 3.563256 -32.734362 36.714034 0.216011 2.671670 0.029210 -0.008253 947.076000 0 0 1
16.179982 2.024056 -32.986342 36.796567 0.124450 2.682492 0.038999 -0.019242 -202677.000000 0 0 1
17.064182 1.264956 -32.212582 36.475154 0.073994 2.653305 0.040444 -0.015226 119389.000000 0 0 1
16.878382 -0.113044 -32.564712 36.679054 -0.006697 2.663401 0.043531 -0.016263 179079.000000 0 0 1
17.899682 -1.026944 -31.775672 36.484881 -0.057309 2.627882 0.040285 -0.014502 208377.000000 0 0 1
17.709982 -1.219344 -30.383812 35.189576 -0.068742 2.612830 0.053716 -0.016990 332817.000000 0 0 1
17.780482 -0.078844 -29.544252 34.482091 -0.004434 2.599828 0.046998 -0.012732 -173179.000000 0 0 1
17.732682 -0.418244 -27.998082 33.143861 -0.023582 2.576883 0.053962 -0.016718 47721.600000 0 0 1
16.460882 -0.891644 -27.573822 32.125867 -0.054115 2.602755 0.056065 -0.017174 243885.000000 0 0 1
16.254882 -1.264644 -26.211512 30.868493 -0.077644 2.585141 0.057065 -0.023932 -172722.000000 0 0 1
17.169382 -2.385144 -25.673902 30.977828 -0.138035 2.547726 0.064565 -0.024101 313207.000000 0 0 1
18.563682 -2.126844 -25.753712 31.818036 -0.114073 2.513936 0.055213 -0.013293 20758.600000 0 0 1
19.307982 -3.329044 -25.656562 32.282191 -0.170739 2.489407 0.055462 -0.011344 536348.000000 0 0 1
20.314582 -3.525344 -26.840432 33.845518 -0.171826 2.486559 0.056994 -0.023398 560155.000000 0 0 1
21.420582 -2.635144 -26.860522 34.456827 -0.122404 2.464730 0.042729 -0.009967 -92850.200000 0 0 1
21.908382 -2.396644 -28.155212 35.755238 -0.108961 2.477446 0.036449 -0.018820 853739.000000 0 0 1
23.443382 -2.092844 -28.280092 36.793148 -0.089036 2.447483 0.034471 -0.017616 1136660.000000 0 0 1
24.269982 -3.274944 -28.318612 37.439298 -0.134128 2.428569 0.032004 -0.020107 -409803.000000 0 0 1
25.559982 -2.951144 -28.709752 38.552196 -0.114951 2.410879 0.018026 -0.016954 110623.000000 0 0 1
26.736482 -3.980844 -28.409132 39.214351 -0.147806 2.381043 0.009056 -0.014253 719290.000000 0 0 1
26.628582 -5.181044 -29.231002 39.879519 -0.192166 2.393493 0.016839 -0.023296 596080.000000 0 0 1
27.594082 -6.229444 -28.980612 40.498336 -0.222031 2.368279 0.019367 -0.022445 373138.000000 0 0 1
27.320082 -7.184644 -27.774692 39.616152 -0.257158 2.347728 0.002326 -0.014221 -180342.000000 0 0 1
27.395282 -6.475344 -26.538632 38.687602 -0.232107 2.326736 -0.006889 -0.003161 261677.000000 0 0 1
27.137682 -7.327944 -25.423402 37.901213 -0.263738 2.306057 -0.023865 0.006198 -269488.000000 0 0 1
27.163682 -6.654044 -24.073912 36.901154 -0.240231 2.281529 -0.030187 0.013409 -233446.000000 0 0 1
28.440482 -6.333944 -23.577812 37.481903 -0.219133 2.251121 -0.034721 0.016731 96083.400000 0 0 1
28.338882 -5.793044 -22.287112 36.515297 -0.201642 2.227299 -0.027903 0.006508 -472747.000000 0 0 1
29.685682 -5.248744 -21.823512 37.216323 -0.175002 2.197399 -0.011792 0.006386 -503372.000000 0 0 1
30.198582 -4.172744 -22.604412 37.951622 -0.137307 2.208823 0.004632 -0.001572 129977.000000 0 0 1
31.514282 -3.876244 -22.187812 38.735955 -0.122385 2.180710 0.015299 -0.002299 29007.800000 0 0 1
32.082282 -2.603844 -22.829312 39.461757 -0.080984 2.187706 0.023082 -0.008220 -82054.200000 0 0 1
31.335682 -1.464444 -22.416512 38.556057 -0.046700 2.191245 0.026648 -0.010678 104510.000000 0 0 1
31.798582 -0.276244 -22.925412 39.202049 -0.008687 2.195432 0.040526 -0.014631 19056.200000 0 0 1
30.778182 0.879756 -22.702412 38.255326 0.028576 2.206128 0.040575 -0.010842 -632248.000000 0 0 1
29.697282 0.859456 -23.552012 37.912590 0.028932 2.241093 0.040134 -0.007210 -387037.000000 0 0 1
28.675182 1.717356 -23.037112 36.822872 0.059819 2.246722 0.039833 -0.004408 -468639.000000 0 0 1
27.476482 1.649356 -23.960812 36.493807 0.059956 2.287061 0.018634 -0.001991 -472283.000000 0 0 1
26.465082 2.597456 -23.638112 35.579596 0.097833 2.297451 0.016214 -0.002194 860991.000000 0 0 1
25.542282 2.904356 -24.717112 35.662011 0.113221 2.336568 0.019938 -0.001399 25287.600000 0 0 1
24.466282 3.896056 -24.317212 34.714622 0.157916 2.346879 0.020404 -0.000909 -664980.000000 0 0 1
24.929782 5.140456 -23.797512 34.845945 0.203347 2.322569 0.019770 -0.001268 1187440.000000 0 0 1
23.821382 6.060956 -23.504212 34.009431 0.249147 2.333818 0.013592 -0.003422 688317.000000 0 0 1
24.318282 7.432456 -23.121512 34.368947 0.296616 2.308708 0.013366 0.000172 -166162.000000 0 0 1
24.959282 8.228356 -24.116012 35.668664 0.318451 2.313269 0.013667 0.003661 321423.000000 0 0 1
25.052982 9.506556 -23.562012 35.681857 0.362673 2.292062 0.014239 0.003298 13434.700000 0 0 1
25.992282 10.421556 -24.427112 37.160346 0.381323 2.288085 0.032595 0.003222 88404.900000 0 0 1
25.539482 10.730256 -25.751362 37.822429 0.397750 2.319717 0.042299 -0.003554 669038.000000 0 0 1
24.335182 11.487156 -25.877942 37.333948 0.441030 2.336643 0.044370 -0.005907 445049.000000 0 0 1
23.985082 11.667856 -27.388002 38.229905 0.452760 2.369429 0.045636 -0.008975 -287070.000000 0 0 1
23.728182 10.477356 -28.157122 38.283483 0.415811 2.397186 0.045419 -0.005779 501736.000000 0 0 1
24.829582 9.721556 -28.673162 39.155676 0.373184 2.392469 0.042820 -0.006773 318722.000000 0 0 1
25.585382 10.339056 -29.888862 40.679871 0.384036 2.396070 0.041058 -0.007225 -912004.000000 0 0 1
26.436782 11.420456 -29.570912 41.276738 0.407777 2.369434 0.032610 0.001398 726426.000000 0 0 1
27.227282 11.965456 -30.643582 42.702765 0.414059 2.371149 0.031400 0.003116 786539.000000 0 0 1
28.355482 11.007256 -31.160902 43.545319 0.370282 2.368275 0.021300 -0.004549 -673448.000000 0 0 1
27.768182 9.996956 -31.979252 43.516475 0.345569 2.396281 0.019162 -0.001151 -317995.000000 0 0 1
28.572782 8.956056 -32.410632 44.125547 0.303747 2.395740 0.016360 -0.000873 -1216730.000000 0 0 1
27.862482 7.870156 -33.113962 43.986267 0.275292 2.423140 0.018356 -0.000910 -839255.000000 0 0 1
26.857682 7.267756 -32.359062 42.676272 0.264273 2.431413 0.029013 -0.002348 -148630.000000 0 0 1
26.252282 6.333056 -33.271682 42.852009 0.236716 2.459781 0.031248 0.000215 -330671.000000 0 0 1
25.088482 5.510356 -32.676722 41.563976 0.216204 2.475398 0.033000 -0.001855 556547.000000 0 0 1
23.776982 6.045156 -32.903632 41.043121 0.248969 2.500904 0.042171 -0.005724 755796.000000 0 0 1
23.313582 6.803056 -31.799222 40.012438 0.283923 2.489365 0.040838 -0.001581 -207644.000000 0 0 1
21.827482 7.219156 -31.768022 39.214314 0.319412 2.515141 0.046616 -0.010073 103125.000000 0 0 1
21.549882 8.383256 -32.549822 39.927025 0.371002 2.523927 0.047301 -0.005724 106199.000000 0 0 1
20.211482 8.807656 -32.398342 39.188408 0.410962 2.544072 0.040564 -0.003086 -56357.200000 0 0 1
19.767082 9.847656 -33.452592 40.084782 0.462194 2.558104 0.037424 0.002039 -226729.000000 0 0 1
19.524182 9.264456 34.082117 40.356096 0.443050 0.565101 0.033533 -0.001217 36819.000000 0 0 1
19.262882 10.272656 33.181165 39.718708 0.489922 0.581929 0.017705 0.003819 32464.900000 0 0 1
18.169682 10.012256 32.101181 38.221308 0.503643 0.573741 0.014232 0.007782 -152558.000000 0 0 1
18.383582 9.109656 31.033481 37.202403 0.460067 0.584153 0.008158 0.006088 -612273.000000 0 0 1
19.409282 9.239756 30.110521 36.996442 0.444303 0.620004 0.021183 0.003465 -950566.000000 0 0 1
19.185682 10.163656 28.904581 36.150589 0.487165 0.644233 0.020519 0.001089 -90410.000000 0 0 1
18.122182 9.794656 28.057871 34.807942 0.495504 0.633304 0.009888 0.010114 -559768.000000 0 0 1
16.888282 10.381956 28.251221 34.512759 0.551190 0.611874 0.010573 0.005032 -1489410.000000 0 0 1
15.850782 9.652456 27.456311 33.140099 0.546980 0.594387 0.022882 0.001378 -1137860.000000 0 0 1
15.960682 9.812856 26.034411 32.075318 0.551241 0.623800 0.022989 0.000515 -456011.000000 0 0 1
14.821982 9.404456 25.363891 30.845776 0.565397 0.605389 0.032157 -0.002222 -461955.000000 0 0 1
14.643182 7.850356 25.119821 30.117374 0.492117 0.584362 0.034631 0.001007 -5373.770000 0 0 1
14.510082 7.125056 26.323931 30.891070 0.456455 0.550710 0.032941 0.005335 144840.000000 0 0 1
13.991882 5.766256 26.107631 30.176660 0.390906 0.525328 0.034465 0.006361 170779.000000 0 0 1
14.075082 4.801156 27.292721 31.081371 0.328733 0.498908 0.040830 0.010205 -348547.000000 0 0 1
15.358282 4.245156 27.380401 31.679402 0.269675 0.527046 0.024161 0.007562 -98603.200000 0 0 1
15.569582 3.802356 28.704621 32.875904 0.239528 0.509230 0.015511 0.004400 -131126.000000 0 0 1
16.629682 2.698756 28.864361 33.421264 0.160883 0.528325 0.036002 0.002704 -150867.000000 0 0 1
16.234682 1.313156 28.760681 33.052474 0.080710 0.515285 0.034386 -0.005371 171263.000000 0 0 1
15.313882 0.902856 29.765171 33.485751 0.058889 0.475878 0.026479 -0.002173 132403.000000 0 0 1
15.166882 -0.619844 29.747081 33.396217 -0.040846 0.471843 0.037628 -0.003474 -166223.000000 0 0 1
14.398382 -1.235244 28.718591 32.149598 -0.085581 0.466206 0.032180 -0.006508 11822.300000 0 0 1
14.960882 -1.385344 27.444621 31.288246 -0.092334 0.500893 0.041543 -0.003792 -364489.000000 0 0 1
16.167482 -2.364044 27.268891 31.789441 -0.145193 0.539828 0.033044 -0.005161 395833.000000 0 0 1
17.412082 -2.011944 27.797811 32.862544 -0.115039 0.562581 0.037907 -0.015660 101235.000000 0 0 1
18.161882 -0.892844 27.298361 32.800177 -0.049121 0.587620 0.042200 -0.014222 -125254.000000 0 0 1
19.581382 -0.790244 27.922401 34.113274 -0.040335 0.611966 0.050306 -0.011991 83401.500000 0 0 1
20.495082 -1.561544 27.187421 34.082879 -0.076044 0.647349 0.039608 -0.013588 -1109200.000000 0 0 1
21.762982 -1.349944 27.726971 35.273710 -0.061950 0.666400 0.047818 -0.022218 334333.000000 0 0 1
22.946282 -1.634144 26.694531 35.239186 -0.071096 0.711284 0.044285 -0.012495 339981.000000 0 0 1
22.809982 -1.100044 25.384331 34.144833 -0.048189 0.732610 0.047751 -0.004981 123458.000000 0 0 1
22.012782 -1.879944 24.505101 32.993889 -0.085196 0.733678 0.040099 0.007680 -129306.000000 0 0 1
21.734982 -1.206844 23.183551 31.801618 -0.055468 0.753929 0.039020 -0.016965 -275297.000000 0 0 1
21.021482 0.006656 23.389251 31.447731 0.000317 0.732133 0.016771 0.000372 188215.000000 0 0 1
21.002182 0.753656 22.140851 30.526659 0.035869 0.759333 0.027119 0.000958 -350935.000000 0 0 1
-30.130518 -27.625681 -9.938212 42.068925 0.742056 1.809287 0.010790 0.008794 -51175.800000 0 0 1
-30.175278 -26.262181 -9.411312 41.095284 0.716174 1.801859 0.018320 0.012418 -189323.000000 0 0 1
-30.699098 -26.350181 -8.114212 41.262660 0.709314 1.768734 0.023581 0.007445 -624673.000000 0 0 1
-30.815458 -24.996881 -7.403012 40.363859 0.681521 1.755247 0.043104 0.004201 -472488.000000 0 0 1
-29.638198 -24.414281 -6.943312 39.021654 0.689052 1.749684 0.053446 -0.006318 -506139.000000 0 0 1
-28.911878 -25.162081 -5.942112 38.785767 0.716163 1.724605 0.042508 -0.001213 150182.000000 0 0 1
-27.722318 -24.400481 -5.311512 37.311159 0.721753 1.713639 0.036559 0.000554 -151188.000000 0 0 1
-27.952788 -23.310581 -4.429612 36.665556 0.695088 1.691903 0.052225 -0.011157 -227459.000000 0 0 1
-28.602688 -22.210281 -5.018912 36.559538 0.660253 1.708512 0.073613 -0.017463 -96231.600000 0 0 1
-28.626718 -20.956581 -4.021012 35.704843 0.631923 1.683654 0.062045 -0.019828 -451006.000000 0 0 1
-27.440188 -20.234481 -4.127712 34.342920 0.635390 1.691279 0.062497 -0.031969 -196926.000000 0 0 1
-27.361918 -19.168981 -3.153112 33.556915 0.611109 1.664898 0.076742 -0.028414 -512011.000000 0 0 1
-26.070378 -18.383281 -3.305412 32.070787 0.614168 1.674046 0.073871 -0.028062 -465998.000000 0 0 1
-26.250748 -17.526281 -4.391512 31.867816 0.588682 1.709040 0.064411 -0.034232 350717.000000 0 0 1
-25.372468 -16.391881 -4.355512 30.519279 0.573593 1.713999 0.068199 -0.033067 173142.000000 0 0 1
-25.590498 -15.377881 -5.508812 30.359510 0.541097 1.753260 0.061003 -0.040468 550907.000000 0 0 1
-26.892568 -14.768481 -5.448412 31.160928 0.502203 1.746547 0.052435 -0.031936 618945.000000 0 0 1
-27.086558 -13.684381 -6.364912 31.007354 0.467806 1.777537 0.057370 -0.038298 -628731.000000 0 0 1
-28.494188 -13.151781 -6.252012 31.999621 0.432426 1.767439 0.047380 -0.029763 -215929.000000 0 0 1
-29.600208 -13.863281 -6.799812 33.385631 0.438009 1.775906 0.046568 -0.022485 1510430.000000 0 0 1
-30.881468 -13.414281 -6.296812 34.252852 0.409788 1.755681 0.031559 -0.021810 1419680.000000 0 0 1
-32.115828 -14.048281 -7.014412 35.748883 0.412348 1.768291 0.018194 -0.022232 -65271.900000 0 0 1
-32.378658 -15.374481 -6.645112 36.454214 0.443313 1.754108 0.029680 -0.027468 -2718.920000 0 0 1
-32.536368 -16.148081 -7.826712 37.156873 0.460690 1.783026 0.030368 -0.014110 -563536.000000 0 0 1
-33.578158 -17.261181 -7.576112 38.507643 0.474832 1.768831 0.031299 -0.021025 1037710.000000 0 0 1
-34.973943 -16.942481 -7.452312 39.569702 0.451115 1.760262 0.039411 -0.027153 844021.000000 0 0 1
-35.327685 -16.210281 -6.290212 39.374933 0.430193 1.731235 0.051499 -0.024768 -1404050.000000 0 0 1
34.731388 -16.198481 -5.947912 38.781926 -0.436403 1.724772 0.067150 -0.031414 -701668.000000 0 0 1
33.983458 -15.476081 -6.920012 37.977244 -0.427336 1.754035 0.076377 -0.031032 456454.000000 0 0 1
32.573838 -15.417981 -6.785612 36.671700 -0.442080 1.756906 0.077143 -0.038231 551654.000000 0 0 1
31.872718 -14.611581 -5.658712 35.516045 -0.429847 1.730807 0.084647 -0.036295 -431051.000000 0 0 1
31.982468 -15.244081 -4.368712 35.697982 -0.444785 1.693484 0.082984 -0.036646 313457.000000 0 0 1
31.354218 -14.514681 -3.332412 34.711207 -0.433551 1.666948 0.086981 -0.032332 -1061110.000000 0 0 1
31.258928 -15.250081 -1.940912 34.834648 -0.453891 1.626543 0.087203 -0.028684 -449334.000000 0 0 1
32.448898 -15.559081 -1.251712 36.008093 -0.447109 1.605565 0.096989 -0.026036 -254015.000000 0 0 1
33.338118 -16.399681 -1.956812 37.204956 -0.457163 1.623416 0.085683 -0.023797 -909416.000000 0 0 1
32.941758 -17.850381 -2.341012 37.540323 -0.496585 1.633197 0.081083 -0.028107 -907757.000000 0 0 1
33.121378 -18.788081 -1.288112 38.100878 -0.515990 1.604611 0.082564 -0.035056 303765.000000 0 0 1
32.888028 -20.157681 -1.518212 38.603879 -0.549864 1.610134 0.073771 -0.031324 292474.000000 0 0 1
34.011038 -20.799481 -2.411912 39.939785 -0.548870 1.631222 0.063013 -0.032714 372478.000000 0 0 1
34.074098 -20.313181 -3.742312 39.845632 -0.537582 1.664855 0.061139 -0.034153 160608.000000 0 0 1
35.193428 -20.751981 -4.497212 41.102883 -0.532778 1.680429 0.061330 -0.030325 -198275.000000 0 0 1
35.264528 -19.940781 -5.837212 40.930364 -0.514637 1.713897 0.075830 -0.033662 153840.000000 0 0 1
34.131038 -20.143281 -6.705712 40.195100 -0.533164 1.738409 0.063567 -0.035789 775285.000000 0 0 1
34.134588 -19.257981 -7.818512 39.964598 -0.513663 1.767702 0.056797 -0.037403 548429.000000 0 0 1
32.968788 -19.441081 -8.877012 39.289922 -0.532798 1.798700 0.053023 -0.039163 678249.000000 0 0 1
33.102578 -20.694681 -9.593012 40.200452 -0.558720 1.811751 0.050414 -0.034819 478875.000000 0 0 1
31.929038 -20.943181 -10.353712 39.563615 -0.580532 1.835577 0.058620 -0.038883 -141900.000000 0 0 1
32.010788 -22.299681 -11.100212 40.560831 -0.608461 1.848001 0.042659 -0.023460 -10439.100000 0 0 1
31.773808 -23.392581 -10.197812 40.752707 -0.634625 1.823721 0.031700 -0.023327 149393.000000 0 0 1
31.331748 -24.568781 -10.893112 41.279091 -0.665001 1.837849 0.022741 -0.012933 -338320.000000 0 0 1
30.704568 -25.571181 -9.901612 41.166706 -0.694431 1.813703 0.016841 -0.010531 462876.000000 0 0 1
29.417498 -25.130981 -9.481112 39.835247 -0.706978 1.811111 0.026644 -0.016711 -179783.000000 0 0 1
28.558128 -26.182281 -9.140412 39.807357 -0.742023 1.802480 0.019625 -0.012552 310631.000000 0 0 1
27.131778 -25.587381 -8.925812 38.347328 -0.756112 1.805713 0.033152 -0.025852 113450.000000 0 0 1
26.483798 -25.162281 -10.065212 37.892485 -0.759816 1.839649 0.037296 -0.026007 -643013.000000 0 0 1
25.269598 -24.521081 -9.836012 36.559310 -0.770366 1.843195 0.045793 -0.033871 -700823.000000 0 0 1
24.531798 -24.144181 -11.121312 36.172285 -0.777435 1.883313 0.073748 -0.041945 -620575.000000 0 0 1
23.751298 -25.182781 -11.660712 36.527645 -0.814643 1.895713 0.058277 -0.034598 39069.700000 0 0 1
22.944498 -24.694281 -12.676112 36.013072 -0.822112 1.930489 0.069035 -0.017039 -240525.000000 0 0 1
22.149298 -25.804881 -13.386012 36.546800 -0.861482 1.945794 0.072642 -0.030826 -244578.000000 0 0 1
23.024798 -26.733181 -13.943812 37.937240 -0.859789 1.947169 0.060596 -0.021764 101472.000000 0 0 1
22.452398 -27.998481 -13.862812 38.473402 -0.894889 1.939409 0.068506 -0.014184 -162599.000000 0 0 1
23.230198 -29.086181 -14.643812 40.001116 -0.896868 1.945595 0.055965 -0.014958 -257924.000000 0 0 1
23.081498 -29.126981 -16.079612 40.493092 -0.900680 1.979146 0.051306 -0.012354 572481.000000 0 0 1
23.591698 -30.363881 -16.658812 41.905244 -0.910259 1.979625 0.039123 -0.012197 -199024.000000 0 0 1
23.496398 -30.472781 -18.212312 42.571815 -0.913951 2.012856 0.037950 -0.010239 -340900.000000 0 0 1
22.168998 -30.544681 -18.653812 42.099961 -0.942971 2.029832 0.042556 -0.011369 -225973.000000 0 0 1
22.121898 -30.587481 -20.016412 42.727381 -0.944647 2.058352 0.032983 -0.007879 411410.000000 0 0 1
20.641398 -30.506581 -20.491712 42.150078 -0.975934 2.078487 0.031151 -0.006960 352240.000000 0 0 1
20.615298 -30.352081 -21.902012 42.730990 -0.974163 2.108955 0.015083 -0.001404 426151.000000 0 0 1
19.303498 -30.068381 -22.365512 42.153869 -1.000075 2.130067 0.015588 -0.005232 -106103.000000 0 0 1
19.079298 -30.212381 -23.930612 43.005602 -1.007532 2.160907 0.017010 -0.000591 -274336.000000 0 0 1
19.834798 -29.266081 -24.684712 43.119111 -0.975167 2.180320 0.021698 -0.001590 541557.000000 0 0 1
19.765598 -29.439981 -26.094462 44.026268 -0.979533 2.205206 0.020249 -0.001839 -293268.000000 0 0 1
20.444298 -28.244681 -26.820832 43.989639 -0.944257 2.226488 0.011978 -0.003888 311214.000000 0 0 1
19.626898 -27.080381 -26.850292 42.889397 -0.943643 2.247255 0.035037 -0.015730 1108970.000000 0 0 1
18.488898 -27.213081 -27.760032 43.046609 -0.974022 2.271667 0.030474 -0.014868 795957.000000 0 0 1
17.764698 -25.880281 -28.020782 42.077757 -0.969244 2.299534 0.028665 -0.010837 15540.500000 0 0 1
16.867298 -25.485581 -26.992622 40.775265 -0.986145 2.294261 0.026630 -0.012364 19296.700000 0 0 1
16.205398 -24.288781 -27.342532 40.002173 -0.982427 2.323379 0.029111 -0.006250 -470993.000000 0 0 1
15.107998 -23.953181 -26.347962 38.681024 -1.008087 2.320142 0.040341 -0.010100 -1023380.000000 0 0 1
13.929498 -24.696981 -26.567602 38.856264 -1.057256 2.323673 0.066115 -0.023270 -971482.000000 0 0 1
12.966198 -24.329581 -25.623152 37.637704 -1.081146 2.319629 0.057649 -0.025964 -673729.000000 0 0 1
13.088498 -24.754781 -24.172212 36.991942 -1.084433 2.282923 0.047404 -0.022352 -391445.000000 0 0 1
14.221798 -24.203281 -23.506112 36.614146 -1.039546 2.267894 0.025494 -0.013869 122843.000000 0 0 1
14.343598 -24.697881 -22.178512 36.160898 -1.044642 2.231064 0.027645 -0.022690 282024.000000 0 0 1
15.564798 -24.057281 -21.466612 35.802670 -0.996541 2.213774 0.026318 -0.025408 257723.000000 0 0 1
15.373598 -22.671281 -21.121912 34.590023 -0.974914 2.227660 0.036906 -0.031292 744195.000000 0 0 1
16.603398 -21.969981 -20.824312 34.525423 -0.923637 2.218252 0.034231 -0.025703 303452.000000 0 0 1
16.478198 -20.597481 -20.048412 33.131949 -0.896049 2.220698 0.035059 -0.012848 4020.100000 0 0 1
15.811098 -20.723981 -18.818612 32.149874 -0.919067 2.196096 0.025305 -0.020207 769870.000000 0 0 1
14.406198 -20.471581 -18.933612 31.386396 -0.957580 2.218357 0.041148 -0.024319 178836.000000 0 0 1
13.630498 -20.479281 -17.601612 30.249102 -0.983550 2.191846 0.045692 -0.019929 -277865.000000 0 0 1
13.675598 -19.261581 -16.849512 29.016143 -0.953395 2.190378 0.045179 -0.018648 220007.000000 0 0 1
13.177398 -19.360581 -15.525312 28.098243 -0.973189 2.156201 0.029634 -0.014480 -164281.000000 0 0 1
13.142698 -17.997981 -14.765012 26.733189 -0.940067 2.155929 0.035826 -0.014270 -151134.000000 0 0 1
12.116098 -17.107681 -15.219012 25.905422 -0.954571 2.198742 0.046853 -0.018850 550068.000000 0 0 1
12.401098 -15.836781 -14.736012 24.934733 -0.906472 2.203074 0.044081 -0.013765 -39074.500000 0 1 0
11.160598 -15.009281 -14.303412 23.546232 -0.931417 2.223656 0.044446 -0.010250 -102399.000000 0 1 0
10.430198 -14.558481 -15.410112 23.626467 -0.949125 2.281331 0.052024 -0.001556 -680044.000000 0 1 0
9.323698 -13.801781 -15.076312 22.465878 -0.976674 2.306456 0.051509 -0.009779 -808637.000000 0 1 0
8.494898 -13.321681 -16.220312 22.643520 -1.003135 2.369330 0.051166 -0.002549 -301778.000000 0 1 0
8.980598 -12.171881 -16.953112 22.720340 -0.935139 2.413079 0.049606 0.006417 1002130.000000 0 1 0
10.122098 -12.457881 -17.819312 23.982985 -0.888476 2.408335 0.062682 0.008044 998823.000000 0 1 0
10.387898 -11.194781 -18.652612 24.107084 -0.822766 2.455520 0.064092 0.005829 -45767.400000 0 1 0
9.429498 -11.065081 -19.677212 24.465161 -0.865035 2.505285 0.056961 0.007243 89784.500000 0 1 0
9.521198 -9.876681 -20.484512 24.653950 -0.803722 2.551486 0.055360 -0.001525 172602.000000 0 1 0
9.101698 -10.094281 -21.975612 25.839175 -0.837060 2.587687 0.050462 0.006717 614844.000000 0 0 1
10.169198 -10.679881 -22.727012 27.092241 -0.809888 2.566010 0.048737 0.008912 50387.600000 0 0 1
9.900498 -10.734181 -24.121512 28.197338 -0.825778 2.597222 0.052071 0.015396 330624.000000 0 0 1
10.926898 -11.572281 -24.942812 29.588151 -0.814075 2.573633 0.078218 0.014435 215349.000000 0 0 1
10.821598 -12.979881 -24.621012 29.862661 -0.875829 2.540070 0.072402 0.007678 425101.000000 0 0 1
11.943498 -13.760581 -25.081862 31.001622 -0.855973 2.513330 0.062423 -0.008724 525773.000000 0 0 1
11.843098 -15.266181 -24.857312 31.483348 -0.911003 2.480853 0.054655 -0.008319 127491.000000 0 0 1
10.758998 -15.899781 -25.512192 31.928530 -0.975896 2.496494 0.063577 -0.013367 -82284.800000 0 0 1
10.590798 -17.207881 -24.992112 32.138479 -1.019085 2.461697 0.070589 -0.017519 451385.000000 0 0 1
9.375598 -18.038781 -25.483812 32.599450 -1.091476 2.468224 0.080442 -0.023217 450822.000000 0 0 1
9.715498 -18.731481 -26.675242 34.012172 -1.092323 2.472339 0.072331 -0.030250 -69644.200000 0 0 1
8.562298 -19.314281 -27.218482 34.455771 -1.153516 2.481531 0.076913 -0.027948 -214706.000000 0 0 1
8.896198 -20.263181 -28.370042 35.980524 -1.157100 2.479135 0.057877 -0.029464 -314471.000000 0 0 1
9.724098 -21.324581 -28.020022 36.529679 -1.142961 2.445024 0.054134 -0.027089 -296565.000000 0 0 1
9.725198 -22.301981 -29.032742 37.879519 -1.159588 2.444091 0.055015 -0.024423 -260794.000000 0 0 1
10.742498 -23.430681 -28.949982 38.762089 -1.140913 2.414129 0.047433 -0.023369 -246677.000000 0 0 1
10.558298 -24.273981 -30.055582 40.050491 -1.160517 2.419527 0.041519 -0.013101 121713.000000 0 0 1
11.293798 -25.503081 -30.020392 40.977811 -1.153912 2.392932 0.047626 -0.005715 -380157.000000 0 0 1
10.966798 -26.558381 -28.952282 40.790353 -1.179192 2.359986 0.035036 -0.009120 -139995.000000 0 0 1
11.459098 -26.281581 -27.653972 39.834340 -1.159635 2.338138 0.048154 -0.014317 -151660.000000 0 0 1
10.588998 -26.864081 -26.663642 39.303378 -1.195326 2.316387 0.040133 -0.012845 1245530.000000 0 0 1
9.378698 -25.956881 -26.201642 38.055823 -1.224074 2.330223 0.037529 -0.017700 631046.000000 0 0 1
9.783198 -24.710081 -25.733802 36.993616 -1.193813 2.340090 0.050855 -0.016626 -639184.000000 0 0 1
8.758398 -24.029781 -25.040112 35.793116 -1.221280 2.345604 0.050046 -0.019961 -58974.600000 0 0 1
9.128598 -22.556481 -24.712012 34.681547 -1.186245 2.363909 0.061589 -0.022303 465432.000000 0 0 1
10.190198 -22.483381 -23.746812 34.252790 -1.145258 2.336828 0.056919 -0.019279 411665.000000 0 0 1
11.022498 -21.358181 -23.952012 33.931788 -1.094369 2.354471 0.060183 -0.020012 -246452.000000 0 0 1
12.059898 -21.151981 -22.849212 33.390626 -1.052611 2.324440 0.054215 -0.015091 -260384.000000 0 0 1
11.551898 -20.753781 -21.558612 32.077087 -1.062887 2.307821 0.049863 -0.022763 46907.100000 0 0 1
11.180898 -19.354181 -21.439512 30.971753 -1.046936 2.335368 0.059169 -0.025654 729448.000000 0 0 1
12.399998 -18.479681 -20.953912 30.566730 -0.979795 2.326105 0.067500 -0.014897 1375270.000000 0 0 1
13.498498 -18.391781 -21.889812 31.616941 -0.937652 2.335529 0.067058 -0.021367 300300.000000 0 0 1
14.174898 -17.198681 -21.795312 31.173033 -0.881481 2.345035 0.062910 -0.017237 -1045270.000000 0 0 1
15.375698 -17.079481 -22.682412 32.289512 -0.837847 2.349658 0.044772 -0.007465 -334089.000000 0 0 1
16.542898 -17.760681 -22.186512 32.883895 -0.820883 2.311344 0.048018 -0.004623 445963.000000 0 0 1
17.645698 -17.385681 -22.971312 33.783335 -0.777976 2.318504 0.048698 0.003477 -9054.970000 0 0 1
19.017698 -17.725581 -22.330712 34.271413 -0.750247 2.280467 0.029782 0.003028 113064.000000 0 0 1
19.341498 -19.062981 -22.252612 35.109394 -0.778146 2.257263 0.027165 0.006180 -542889.000000 0 0 1
20.647498 -19.343981 -21.859912 35.754224 -0.752815 2.228617 0.018644 0.000863 -357371.000000 0 0 1
20.902498 -20.861681 -21.658212 36.622429 -0.784421 2.203580 0.016465 0.001332 -127509.000000 0 0 1
20.329598 -21.384181 -20.470412 35.911189 -0.810674 2.177337 0.020847 0.001438 303288.000000 0 0 1
20.336798 -22.750981 -20.576212 36.804524 -0.841369 2.164057 0.021999 -0.001164 -285555.000000 0 0 1
-16.736518 13.172156 28.765501 35.792049 -0.666783 0.637336 0.001156 -0.011761 -559185.000000 0 0 1
-17.647918 14.063556 28.209751 36.125097 -0.672845 0.674706 0.009426 -0.012557 -511693.000000 0 0 1
-18.308318 13.636956 27.051351 35.396845 -0.640197 0.700949 0.007696 -0.007503 -735937.000000 0 0 1
-19.510918 14.522356 26.827871 36.212006 -0.639856 0.736453 0.021205 -0.007673 -774694.000000 0 0 1
-19.272818 15.901756 26.971801 36.766634 -0.689852 0.747200 0.036161 -0.006838 113373.000000 0 0 1
-20.244318 16.644756 26.213731 37.068045 -0.688128 0.785297 0.035011 -0.005598 -241576.000000 0 0 1
-20.133318 18.197256 26.366181 37.837364 -0.734931 0.799829 0.029949 0.004544 -249701.000000 0 0 1
-18.944918 18.780656 25.939881 37.208875 -0.781044 0.799393 0.021344 -0.001164 -308897.000000 0 0 1
-17.825018 18.680656 26.814391 37.225122 -0.808832 0.766518 0.044388 -0.003224 767430.000000 0 0 1
-16.539618 19.438456 26.320401 36.663006 -0.865797 0.770014 0.052809 0.001278 660680.000000 0 0 1
-16.768718 20.854556 26.136991 37.406479 -0.893573 0.797177 0.055550 0.002376 -538225.000000 0 0 1
-15.652718 21.408356 25.546851 36.823455 -0.939469 0.804092 0.064642 0.004457 -509115.000000 0 0 1
-15.682418 22.978356 25.556661 37.776791 -0.971921 0.827773 0.055900 0.001475 19208.700000 0 0 1
-15.388218 23.676256 26.790331 38.924082 -0.994461 0.811693 0.059169 -0.002011 -123479.000000 0 0 1
-15.842518 24.988456 26.831061 39.941383 -1.005756 0.834213 0.059339 -0.007465 -449231.000000 0 0 1
-15.233618 25.949656 27.856211 41.005076 -1.039957 0.823939 0.051168 -0.004205 -591830.000000 0 0 1
-13.854218 26.053856 27.654311 40.441361 -1.082070 0.817821 0.049616 -0.005918 -767835.000000 0 0 1
-13.318518 27.042456 28.474391 41.466471 -1.113163 0.813878 0.058348 -0.000150 297948.000000 0 0 1
-11.773218 26.882956 28.573241 40.960128 -1.158014 0.798773 0.061651 -0.006244 784066.000000 0 0 1
-11.058018 27.436056 27.455921 40.358946 -1.187666 0.822634 0.055125 -0.001713 -449552.000000 0 0 1
-9.678118 27.290356 27.625411 40.019905 -1.229998 0.808904 0.031310 -0.000358 -726367.000000 0 0 1
-8.929118 27.966456 26.492351 39.543602 -1.261747 0.836651 0.038743 -0.004494 56384.300000 0 0 1
-7.506918 27.875256 26.551221 39.221818 -1.307733 0.827185 0.024319 -0.013014 764668.000000 0 0 1
-6.935718 28.457156 25.354181 38.739494 -1.331732 0.857303 0.038508 -0.017211 955084.000000 0 0 1
-5.380418 28.301656 25.193271 38.270530 -1.382929 0.852246 0.030759 -0.017660 383057.000000 0 0 1
-4.632318 29.165056 26.009151 39.351426 -1.413281 0.848718 0.049869 -0.015028 952501.000000 0 0 1
-3.203918 29.095956 25.796021 39.016335 -1.461123 0.848433 0.044760 -0.012437 1142350.000000 0 0 1
-2.641218 29.820856 24.610031 38.754523 -1.482457 0.882757 0.037089 -0.015479 -928442.000000 0 0 1
-2.853518 29.160356 23.369051 37.477746 -1.473251 0.897528 0.032805 -0.012940 -43529.700000 0 0 1
-2.490618 30.043456 22.329951 37.515851 -1.488085 0.933265 0.026893 -0.012463 -186222.000000 0 0 1
-2.883118 29.473056 20.950751 36.275437 -1.473284 0.955076 0.026661 -0.008981 647411.000000 0 0 1
-4.290418 29.392656 20.738151 36.227155 -1.425851 0.961308 0.021678 0.002992 483717.000000 0 0 1
-4.920718 28.171756 21.203751 35.601409 -1.397872 0.932800 0.033110 -0.000139 -764070.000000 0 0 1
-6.436418 28.209256 21.136751 35.832273 -1.346470 0.939886 0.030154 -0.007009 -960212.000000 0 0 1
-6.853818 28.610756 19.845051 35.487691 -1.335673 0.977364 0.030559 -0.009861 985533.000000 0 0 1
-7.817518 27.759356 19.124951 34.604323 -1.296288 0.985226 0.009475 -0.009928 554722.000000 0 0 1
-7.265218 26.285556 18.806051 33.126747 -1.301133 0.967087 0.000850 -0.008383 386125.000000 0 0 1
-6.303318 26.210556 17.751551 32.277587 -1.334790 0.988474 0.004353 -0.009837 1192030.000000 0 0 1
-4.954718 26.261756 18.277151 32.377203 -1.384322 0.970961 0.017617 -0.006827 592738.000000 0 0 1
-3.869518 26.649956 17.256451 31.984033 -1.426606 1.000914 0.018221 -0.004125 -76281.800000 0 0 1
-3.409518 25.493656 16.549751 30.585054 -1.437845 0.999045 0.025603 -0.013252 142409.000000 0 0 1
-2.680318 25.890456 15.378951 30.232630 -1.467638 1.037137 0.035763 -0.022594 142151.000000 0 0 1
-2.112818 24.770056 14.547651 28.803711 -1.485705 1.041343 0.031014 -0.015450 -67429.200000 0 0 1
-1.086518 24.006656 15.146351 28.406196 -1.525568 1.008411 0.027078 -0.013649 155670.000000 0 0 1
-0.242218 23.303656 14.225251 27.303421 -1.560403 1.022767 0.025410 -0.028351 -32559.300000 0 0 1
0.988882 22.751956 14.971951 27.254150 1.527360 0.989215 0.021255 -0.022455 -43763.300000 0 0 1
1.990882 23.742256 15.120951 28.218814 1.487138 1.005286 0.033940 -0.027074 -162762.000000 0 0 1
3.238782 23.177056 15.459051 28.047243 1.431955 0.987020 0.038879 -0.024521 107277.000000 0 0 1
4.353382 24.243256 15.607251 29.159452 1.393119 1.006007 0.036166 -0.021815 -78666.300000 0 0 1
5.619482 23.661756 15.755651 28.977539 1.337624 0.995934 0.042145 -0.017420 -658485.000000 0 0 1
6.623182 24.642756 15.770951 29.997580 1.308233 1.017211 0.055036 -0.017773 -150981.000000 0 0 1
8.058382 24.066156 15.845151 29.919662 1.247688 1.012679 0.066143 -0.012668 206640.000000 0 0 1
8.570782 23.420756 14.687451 28.943243 1.219985 1.038565 0.046146 -0.010339 202263.000000 0 0 1
9.208482 24.297856 13.734951 29.390998 1.208538 1.084541 0.043550 -0.014960 -220942.000000 0 0 1
9.756982 23.427656 12.599351 28.333679 1.176170 1.109982 0.036788 -0.009606 51413.500000 0 0 1
10.910582 22.675956 12.954951 28.303189 1.122340 1.095367 0.035095 -0.006210 94366.800000 0 0 1
11.405782 21.981156 11.855851 27.455860 1.092152 1.124292 0.039004 -0.001116 -34321.100000 0 0 1
12.621182 21.059456 12.070151 27.358425 1.030883 1.113877 0.033102 0.003964 28319.500000 0 0 1
12.349182 19.903756 12.813251 26.699086 1.015479 1.070240 0.036817 0.002957 -166552.000000 0 0 1
13.479482 19.053756 12.865351 26.650690 0.955091 1.067016 0.031994 0.000120 9616.120000 0 0 1
14.084982 19.052356 14.293251 27.670851 0.934193 1.027985 0.037497 -0.001273 -99518.700000 0 0 1
15.239882 18.231656 14.369551 27.769250 0.874544 1.026913 0.027288 -0.001027 128155.000000 0 0 1
15.636682 18.177056 15.708251 28.664618 0.860386 0.990823 0.023222 -0.010049 -59455.600000 0 0 1
16.734182 17.089356 15.789051 28.659606 0.795899 0.987334 0.017405 -0.011089 -105312.000000 0 0 1
17.164182 16.947656 17.089351 29.561429 0.779051 0.954403 0.025569 -0.014576 61744.300000 0 0 1
18.263682 16.055656 17.149951 29.756797 0.721149 0.956557 0.023208 -0.013760 165755.000000 0 0 1
18.709982 15.634656 18.545051 30.633720 0.696093 0.920553 0.026777 -0.014180 -202096.000000 0 0 1
19.296482 16.555656 19.452651 32.013272 0.709099 0.917706 0.019842 -0.005019 -8829.700000 0 0 1
18.503582 17.633456 19.832851 32.352175 0.761324 0.910906 0.012444 0.004256 -506293.000000 0 0 1
19.145482 18.657556 20.781451 33.860339 0.772492 0.910007 -0.006472 0.007136 -518752.000000 0 0 1
18.238382 19.663056 20.999351 34.062399 0.822969 0.906511 0.006541 0.004946 52704.900000 0 0 1
18.902382 20.591056 21.853551 35.480548 0.828130 0.907230 -0.005473 0.009842 153042.000000 0 0 1
18.000482 21.737856 22.331851 35.989766 0.879172 0.901409 0.006980 0.003442 -45291.100000 0 0 1
17.404382 21.364956 23.543751 36.244752 0.887202 0.863769 0.007532 0.000491 -14029.100000 0 0 1
16.447982 22.290856 24.005941 36.656562 0.935097 0.856762 0.009351 -0.004740 -135386.000000 0 0 1
15.780682 21.992656 25.333961 37.074471 0.948393 0.818487 0.023127 -0.000812 -314024.000000 0 0 1
14.880082 20.926956 25.180211 35.963833 0.952694 0.795184 0.022288 -0.003262 -379106.000000 0 0 1
14.051382 20.803156 26.332561 36.381539 0.976741 0.761518 0.022430 -0.000570 668533.000000 0 0 1
13.031482 19.580856 26.249711 35.245946 0.983587 0.730624 0.045580 -0.006475 662685.000000 0 0 1
13.636082 18.262756 26.186021 34.715683 0.929436 0.716210 0.028637 -0.006707 107525.000000 0 0 1
14.095282 17.797156 24.924091 33.713885 0.900955 0.738792 0.031599 -0.010736 1924.770000 0 0 1
13.051482 17.718656 23.755911 32.382638 0.935929 0.747192 0.048061 -0.013050 -339551.000000 0 0 1
12.852682 18.899556 22.946551 32.387171 0.973584 0.783415 0.053661 -0.008415 318302.000000 0 0 1
13.946282 19.396456 22.154951 32.581638 0.947424 0.823057 0.046216 -0.007752 976436.000000 0 0 1
14.791182 18.424456 21.246051 31.774743 0.894349 0.838410 0.045402 -0.011494 81680.600000 0 0 1
13.995282 18.029756 20.136651 30.437226 0.910717 0.847873 0.073052 -0.013438 447809.000000 0 0 1
14.489082 16.897056 19.398051 29.525046 0.861969 0.853960 0.058172 -0.013031 221073.000000 0 0 1
13.268282 16.160956 18.788351 28.110957 0.883376 0.838789 0.044803 -0.006341 569314.000000 0 0 1
12.615182 16.847756 17.712251 27.508426 0.928080 0.871232 0.052175 -0.003136 505211.000000 0 0 1
11.629082 16.088156 16.994151 26.131694 0.944909 0.862781 0.042667 -0.007060 500375.000000 0 0 1
11.230582 16.898056 15.750651 25.685662 0.984220 0.910681 0.039126 -0.001793 30316.800000 0 0 1
10.531282 18.132456 15.871451 26.298228 1.044616 0.922891 0.044925 -0.004802 182356.000000 0 0 1
9.928982 18.339556 14.606751 25.461366 1.074582 0.959801 0.038954 -0.002314 -200573.000000 0 0 1
8.989582 19.570056 14.527451 25.977807 1.140191 0.977345 0.050126 -0.005776 494677.000000 0 0 1
7.672182 19.289856 14.952151 25.583739 1.192247 0.946607 0.033545 -0.007037 634764.000000 0 0 1
6.737782 20.385156 15.111951 26.254968 1.251576 0.957478 0.036145 -0.011584 1271840.000000 0 0 1
5.357482 20.040956 15.731151 26.034815 1.309578 0.921991 0.032375 -0.015327 -77858.700000 0 0 1
4.397582 19.559556 14.873851 24.962900 1.349643 0.932487 0.034346 -0.017497 -1456920.000000 0 1 0
3.189282 19.417956 15.526251 25.065773 1.408006 0.902792 0.027228 -0.014794 -639342.000000 0 0 1
2.054082 18.736956 14.751451 23.935289 1.461605 0.906754 0.014729 -0.018127 -25676.100000 0 1 0
1.287282 19.694956 13.989251 24.191889 1.505528 0.954200 0.014424 -0.023237 -240704.000000 0 1 0
0.348182 18.944656 13.279151 23.137784 1.552420 0.959516 0.010839 -0.026844 -719017.000000 0 1 0
-0.662418 19.749456 12.472451 23.367538 -1.537268 1.007766 0.022637 -0.032226 -434170.000000 0 1 0
-1.903518 19.947356 13.089551 23.934425 -1.475657 0.992149 0.014808 -0.033518 -252630.000000 0 1 0
-2.897318 20.275656 12.129051 23.803582 -1.428861 1.036138 0.016735 -0.037983 81882.700000 0 1 0
-4.090118 21.056356 12.675051 24.914977 -1.378939 1.037085 0.015221 -0.027940 233449.000000 0 1 0
-4.829218 20.320956 13.673051 24.964272 -1.337477 0.991178 0.015683 -0.029891 336064.000000 0 1 0
-5.849718 21.103556 14.286251 26.147203 -1.300394 0.992763 0.005174 -0.017769 -123137.000000 0 0 1
-6.481218 20.408856 15.512751 26.441880 -1.263300 0.943851 0.007361 -0.014008 -441332.000000 0 0 1
-7.507518 19.491256 15.167451 25.813241 -1.203136 0.942726 0.020501 -0.012833 353896.000000 0 0 1
-8.281218 19.033656 16.257851 26.366197 -1.160416 0.906358 0.011367 0.003112 -195767.000000 0 0 1
-9.288018 19.931556 17.015751 27.804136 -1.134720 0.912227 0.013660 0.011555 390619.000000 0 0 1
-10.479618 20.263856 16.309551 28.043675 -1.093517 0.950131 0.015183 -0.003552 484491.000000 0 0 1
-11.501818 19.288156 16.317251 27.759277 -1.033091 0.942444 0.012735 0.005572 -30128.600000 0 0 1
-12.613418 19.383256 15.229251 27.690052 -0.993903 0.988444 0.011557 -0.002643 154803.000000 0 0 1
-13.401018 20.550456 15.279751 28.902929 -0.992944 1.013778 0.000396 0.002633 54718.500000 0 0 1
-14.072218 20.589556 13.992851 28.596451 -0.971255 1.059485 0.010336 -0.012657 416017.000000 0 0 1
-15.145518 21.750056 13.930551 29.941808 -0.962528 1.086875 0.003417 -0.009480 -132848.000000 0 0 1
-16.189818 21.518156 14.801751 30.728375 -0.925774 1.068207 0.003348 -0.013809 -862637.000000 0 0 1
-17.009218 22.638356 14.958751 32.024567 -0.926435 1.084786 0.011087 -0.029268 -48018.900000 0 0 1
-18.223218 22.444156 15.893051 32.991133 -0.888820 1.068160 0.061376 -0.037877 216133.000000 0 0 1
-19.177218 21.476456 15.377551 32.641582 -0.841895 1.080255 0.055488 -0.038780 1439210.000000 0 0 1
-20.359218 21.376256 16.210751 33.678339 -0.809762 1.068613 0.049311 -0.030750 823181.000000 0 0 1
-21.480018 22.421456 16.120351 34.985405 -0.806839 1.091930 0.046409 -0.034531 -824491.000000 0 0 1
-22.011318 22.328456 14.809651 34.675406 -0.792550 1.129520 0.056532 -0.033999 181491.000000 0 0 1
-22.962718 23.349056 14.525351 35.825279 -0.793740 1.153326 0.067709 -0.043373 204113.000000 0 0 1
-22.347218 24.631556 13.884151 36.039996 -0.833985 1.175325 0.059831 -0.041203 -382398.000000 0 0 1
-21.230518 25.134656 14.546251 35.973313 -0.869404 1.154515 0.047693 -0.048017 -395599.000000 0 0 1
-20.777318 26.276856 13.840551 36.245426 -0.901747 1.178992 0.038074 -0.030868 -1021620.000000 0 0 1
-19.413318 26.743356 14.277551 35.999062 -0.942891 1.162976 0.040337 -0.023351 181927.000000 0 0 1
-18.336218 25.898556 13.814151 34.608999 -0.954720 1.160208 0.045058 -0.014964 514466.000000 0 0 1
-17.042718 26.426356 13.749651 34.319956 -0.998005 1.158591 0.008906 -0.009725 8263.480000 0 0 1
-16.114918 25.735856 12.707151 32.916508 -1.011359 1.174459 0.017211 -0.015438 1248980.000000 0 0 1
-14.793218 26.311656 12.798151 32.786204 -1.058612 1.169783 0.010670 -0.009273 825129.000000 0 0 1
-13.769518 25.663056 12.101851 31.538022 -1.078338 1.176972 0.010360 -0.008665 780480.000000 0 0 1
-12.386418 26.398956 12.046051 31.550524 -1.132090 1.179051 0.004433 -0.006897 1230270.000000 0 0 1
-11.284218 25.586156 11.541351 30.252070 -1.155428 1.179371 0.000611 -0.007598 1392100.000000 0 0 1
-9.964018 26.066656 11.754651 30.280753 -1.205683 1.172131 0.012404 -0.008668 425608.000000 0 0 1
-9.535118 27.397356 11.143151 31.075768 -1.235877 1.204050 0.015525 -0.014394 -610572.000000 0 0 1
-8.441818 28.021156 11.806351 31.556923 -1.278179 1.187339 0.028788 -0.023598 271067.000000 0 0 1
-8.138718 29.267556 11.193351 32.374676 -1.299569 1.217765 0.037587 -0.024450 81424.100000 0 0 1
-6.778518 29.819756 11.676551 32.733896 -1.347278 1.206051 0.032650 -0.027574 29301.200000 0 0 1
-5.628418 29.167056 11.231051 31.757404 -1.380168 1.209324 0.052147 -0.028224 -715866.000000 0 0 1
-4.500618 29.499556 11.990351 32.159724 -1.419398 1.188731 0.054643 -0.032966 -420387.000000 0 0 1
-3.210718 29.065956 11.286651 31.345286 -1.460779 1.202448 0.061671 -0.033691 -530982.000000 0 0 1
-3.076818 29.888956 10.122451 31.706158 -1.468216 1.245850 0.073052 -0.037685 290791.000000 0 0 1
-1.974218 29.509156 9.312251 31.006545 -1.503994 1.265756 0.071489 -0.034313 146765.000000 0 0 1
-1.791318 30.439156 8.117551 31.553853 -1.512015 1.310610 0.065979 -0.037521 184539.000000 0 0 1
-2.812118 30.346656 7.129651 31.299512 -1.478394 1.340991 0.069610 -0.034199 262301.000000 0 0 1
-2.640718 31.271456 6.096951 31.969519 -1.486551 1.378910 0.066670 -0.024188 32323.300000 0 0 1
10.835082 -34.308781 -26.515732 44.694245 -1.264898 2.205911 0.065824 -0.034104 -105728.000000 0 0 1
11.432982 -34.100881 -25.279902 43.961991 -1.247304 2.183449 0.045627 -0.025979 632361.000000 0 0 1
12.611982 -33.274981 -25.407902 43.724683 -1.208503 2.190862 0.043724 -0.022419 779134.000000 0 0 1
13.374482 -33.105881 -24.064912 43.058055 -1.186854 2.163848 0.026962 -0.011648 -293221.000000 0 0 1
12.606282 -32.322981 -23.127212 41.696060 -1.198932 2.158753 0.023505 -0.014001 580643.000000 0 0 1
13.123982 -32.242281 -21.774512 41.060114 -1.184234 2.129760 0.007993 -0.007023 528557.000000 0 0 1
14.635682 -31.884981 -21.560612 41.179063 -1.140471 2.121846 -0.006315 -0.004579 838554.000000 0 0 1
15.549082 -32.907581 -21.952312 42.503963 -1.129384 2.113528 0.008367 0.003440 -423158.000000 0 0 1
16.833382 -32.699481 -21.447912 42.575013 -1.095386 2.098751 0.010304 -0.005681 -679112.000000 0 0 1
17.754882 -33.865881 -21.828912 44.029935 -1.087921 2.089523 0.003766 0.003293 -586360.000000 0 0 1
19.033882 -33.809881 -21.271812 44.248014 -1.058051 2.072295 0.012567 0.004492 151937.000000 0 0 1
19.851182 33.827756 -21.650312 44.800920 1.040116 2.075166 0.011851 0.009849 433344.000000 0 0 1
21.376582 33.966056 -21.453312 45.507096 1.009074 2.061705 0.033918 0.012877 472199.000000 0 0 1
22.077182 -34.017281 -22.486012 46.370229 -0.995125 2.077072 0.029362 0.008752 1619590.000000 0 0 1
23.511582 -34.172181 -22.364612 47.124392 -0.968147 2.065291 0.028071 0.009063 1187240.000000 0 0 1
24.330782 -33.551181 -23.490612 47.639034 -0.943368 2.086441 0.041719 -0.000981 -151870.000000 0 0 1
24.301182 -32.160381 -23.594212 46.706792 -0.923705 2.100359 0.043639 -0.003934 232301.000000 0 0 1
23.179482 -31.630781 -24.302012 46.134396 -0.938385 2.125587 0.029625 -0.000532 322002.000000 0 0 1
23.075882 -30.097281 -24.178212 44.976978 -0.916686 2.138347 0.021942 -0.011227 307486.000000 0 0 1
24.060382 -29.370281 -24.949412 45.431141 -0.884452 2.152167 0.020431 -0.010531 446413.000000 0 0 1
24.099182 -27.973081 -24.631112 44.384181 -0.859656 2.159102 0.026394 -0.008952 15084.100000 0 0 1
24.828382 -27.167581 -25.685702 44.880745 -0.830356 2.180116 0.017599 -0.007962 -2211.490000 0 0 1
23.965482 -26.914781 -26.772112 44.894273 -0.843299 2.209726 0.010293 -0.009889 -300944.000000 0 0 1
24.639682 -26.404181 -27.883222 45.626404 -0.819953 2.228271 0.002500 -0.007192 -571769.000000 0 0 1
23.645382 -26.055881 -29.007902 45.601222 -0.833860 2.260257 -0.005219 -0.001998 462493.000000 0 0 1
22.958982 -24.815681 -28.809192 44.417366 -0.824242 2.276543 0.006369 -0.001314 88513.100000 0 0 1
21.768482 -24.894381 -28.033012 43.352587 -0.852287 2.273952 0.007786 0.000302 -184512.000000 0 0 1
21.132982 -23.469681 -27.959882 42.180373 -0.837740 2.295435 0.015285 0.001149 -117345.000000 0 0 1
20.586382 -22.990781 -29.173972 42.467585 -0.840518 2.328108 0.023755 0.000150 251374.000000 0 0 1
20.134582 -21.651881 -29.027192 41.434083 -0.821693 2.346983 0.031935 0.010552 91334.200000 0 0 1
19.155582 -21.200181 -30.168332 41.551321 -0.836019 2.383356 0.041200 -0.000083 871905.000000 0 0 1
17.986482 -22.011681 -30.288502 41.538187 -0.885695 2.387908 0.030133 -0.007303 230157.000000 0 0 1
16.789182 -21.372481 -30.611462 40.935574 -0.904928 2.415533 0.025025 -0.011784 -687226.000000 0 0 1
15.599282 -22.250581 -30.252792 40.665186 -0.959351 2.409756 0.034972 -0.017950 -635153.000000 0 0 1
15.490782 -23.315981 -31.176962 41.899908 -0.984375 2.409956 0.032415 -0.010286 144930.000000 0 0 1
14.707782 -24.383381 -30.651532 41.837597 -1.028035 2.392976 0.039565 -0.017392 -139737.000000 0 0 1
14.684782 -25.598181 -31.592422 43.231827 -1.049966 2.390242 0.055157 -0.014657 -111655.000000 0 0 1
14.111982 -26.731781 -31.014552 43.308643 -1.085071 2.369036 0.055478 -0.011206 -444499.000000 0 0 1
14.826482 -27.905681 -31.306762 44.482187 -1.082418 2.351535 0.064211 -0.018748 69485.200000 0 0 1
14.481682 -29.093681 -30.457092 44.539823 -1.108942 2.323778 0.061611 -0.024646 -158337.000000 0 0 1
14.913782 -29.043081 -29.107822 43.739990 -1.096403 2.298925 0.071305 -0.033517 130919.000000 0 0 1
14.118382 -28.213381 -28.258612 42.354135 -1.106817 2.301238 0.061199 -0.029472 -62385.200000 0 0 1
14.669982 -28.125381 -26.777932 41.512686 -1.090024 2.271891 0.050021 -0.022029 81612.200000 0 0 1
14.761782 -29.371681 -26.063362 41.951218 -1.105082 2.241169 0.038105 -0.020769 259894.000000 0 0 1
15.492882 -29.190481 -24.837612 41.340302 -1.082851 2.215309 0.034871 -0.023700 -1088910.000000 0 0 1
14.940482 -28.308581 -23.710012 39.834137 -1.085179 2.208334 0.017357 -0.022495 674812.000000 0 0 1
13.795082 -28.804581 -22.997512 39.355987 -1.124155 2.194870 0.025998 -0.023451 -198140.000000 0 0 1
12.609482 -28.863381 -23.698512 39.417170 -1.158917 2.215827 0.032470 -0.020390 -995040.000000 0 0 1
11.375382 -28.522481 -22.775612 38.231659 -1.191306 2.208966 0.020722 -0.014146 531479.000000 0 0 1
11.406382 -27.165581 -22.336112 36.972642 -1.173267 2.219464 0.020602 -0.016257 -112750.000000 0 0 1
10.119782 -26.788081 -21.920212 36.062543 -1.209598 2.224132 0.028030 -0.017069 -452730.000000 0 0 1
9.809982 -25.265181 -21.691012 34.714048 -1.200433 2.245733 0.037840 -0.019916 114995.000000 0 0 1
10.535982 -24.719481 -20.588012 33.851527 -1.167891 2.224569 0.027575 -0.015984 293025.000000 0 0 1
10.232782 -23.356481 -20.505812 32.721910 -1.157871 2.248068 0.032538 -0.018759 68974.200000 0 0 1
10.815582 -22.683781 -19.208612 31.630705 -1.125882 2.223426 0.027624 -0.010041 375483.000000 0 0 1
9.927282 -22.816281 -18.085912 30.760914 -1.160405 2.199320 0.030823 -0.016756 396712.000000 0 0 1
10.331882 -22.146381 -16.929812 29.729254 -1.134284 2.176653 0.023691 -0.014001 -249060.000000 0 0 1
9.492482 -22.438581 -15.627712 28.945164 -1.170585 2.141124 0.013703 -0.004183 204540.000000 0 0 1
9.807282 -23.637881 -14.936112 29.631396 -1.177514 2.099094 0.017509 -0.002361 132413.000000 0 0 1
9.001682 -23.809481 -13.793612 28.951432 -1.209336 2.067397 0.015977 -0.000356 -318889.000000 0 0 1
8.950682 -25.312781 -13.495712 30.049723 -1.230915 2.036568 0.018564 0.001544 -79212.300000 0 0 1
10.042782 -25.964981 -12.875412 30.672691 -1.201737 2.003986 0.015894 0.000143 -172813.000000 0 0 1
10.218082 -27.288981 -13.380112 32.064390 -1.212517 2.001256 0.007667 -0.013820 -491380.000000 0 0 1
11.458382 -28.127681 -12.887212 32.993048 -1.183952 1.972084 0.026397 -0.012016 668905.000000 0 0 1
12.674182 -27.622281 -13.411412 33.218839 -1.140616 1.986386 0.036874 -0.004863 37030.600000 0 0 1
12.973382 -27.957381 -14.760712 34.173124 -1.136327 2.017438 0.035860 -0.009413 -165676.000000 0 0 1
14.424282 -27.575581 -15.191512 34.630256 -1.088854 2.024923 0.019178 -0.012752 467574.000000 0 0 1
15.439382 -28.545581 -15.100012 35.794344 -1.074992 2.006286 0.051608 -0.009026 -706070.000000 0 0 1
16.647282 -27.960981 -15.460212 36.027304 -1.033784 2.014320 0.057056 -0.021957 -832526.000000 0 0 1
17.856782 -28.787181 -15.054212 37.070146 -1.015582 1.988979 0.048922 -0.021272 -278305.000000 0 0 1
17.933682 -29.877481 -15.889512 38.298269 -1.030200 1.998617 0.043612 -0.012205 -198547.000000 0 0 1
19.280582 -30.283481 -15.950512 39.284207 -1.003849 1.988900 0.050514 -0.009878 86526.000000 0 0 1
19.570082 -31.393281 -17.012912 40.718121 -1.013360 2.001843 0.035768 -0.012045 -166291.000000 0 0 1
19.230082 -32.708181 -16.705012 41.456949 -1.039300 1.985532 0.026509 -0.001747 -127713.000000 0 0 1
19.585582 -33.562281 -17.766812 42.727993 -1.042553 1.999632 0.018959 -0.002731 -94325.300000 0 0 1
19.691382 33.662956 -17.470812 42.733761 1.041511 1.991967 0.013839 0.001377 -199038.000000 0 0 1
20.646482 33.222056 -16.540812 42.468584 1.014740 1.970867 0.030309 -0.008556 -55732.300000 0 0 1
20.371982 31.883956 -16.189912 41.154799 1.002234 1.975113 0.030847 -0.016397 226754.000000 0 0 1
21.273682 31.359756 -14.966612 40.743138 0.974732 1.946945 0.030692 -0.015382 -245077.000000 0 0 1
22.638982 31.268056 -15.266212 41.512312 0.944125 1.947386 0.033682 -0.013626 -71986.800000 0 0 1
23.499782 31.022356 -14.161112 41.414531 0.922505 1.919772 0.036948 -0.011539 312870.000000 0 0 1
23.211582 29.782656 -13.294412 40.031556 0.908764 1.909324 0.035036 -0.008921 -1311090.000000 0 0 1
23.319882 28.571456 -13.973612 39.438646 0.886258 1.932975 0.039988 0.000807 71191.600000 0 0 1
23.055482 27.406756 -13.261412 38.190975 0.871414 1.925422 0.016984 0.000527 -77293.600000 0 0 1
21.570282 27.176256 -12.893612 37.014472 0.899898 1.926596 0.014596 -0.006198 -658807.000000 0 0 1
20.865682 26.751256 -14.049712 36.720577 0.908377 1.963417 0.023872 -0.001543 -282126.000000 0 0 1
19.476182 26.706256 -13.846212 35.836620 0.940692 1.967490 0.034217 -0.007656 138133.000000 0 0 1
18.675382 28.077856 -13.911512 36.478295 0.983859 1.962068 0.043619 -0.018391 -326318.000000 0 0 1
18.713082 28.779956 -15.170812 37.531571 0.994272 1.986916 0.038128 -0.016752 115729.000000 0 0 1
18.038482 28.216256 -16.275112 37.234704 1.001984 2.023163 0.023628 -0.004136 -357839.000000 0 0 1
18.108582 29.141756 -17.565512 38.544907 1.014793 2.043972 0.017967 0.002888 -518430.000000 0 0 1
17.289782 30.244856 -17.509612 38.990696 1.051476 2.036522 0.019879 -0.003208 -363853.000000 0 0 1
17.308682 30.896556 -18.757912 40.075515 1.060145 2.057895 0.012105 0.007330 -36129.000000 0 0 1
16.202082 31.964456 -18.948812 40.537530 1.101661 2.057188 0.006877 0.009279 132707.000000 0 0 1
16.443582 33.188056 -18.231712 41.282366 1.110782 2.028216 0.016352 -0.008228 61879.400000 0 0 1
15.550682 34.183856 -18.682112 41.944976 1.143864 2.032413 0.004476 -0.002877 -30894.800000 0 0 1
15.762682 -33.263681 -17.978812 40.965501 -1.128270 2.025145 0.004522 -0.005365 -356370.000000 0 0 1
14.702782 -32.408081 -18.247712 39.992931 -1.144889 2.044599 -0.003052 0.000235 -372322.000000 0 0 1
14.438582 -31.364981 -17.312112 38.625690 -1.139376 2.035549 0.014803 -0.005947 410060.000000 0 0 1
13.206582 -30.489081 -17.738912 37.665195 -1.162036 2.061178 0.014551 -0.009144 1218990.000000 0 0 1
11.951482 -31.157881 -17.467112 37.666318 -1.204526 2.053000 0.006057 -0.003893 283227.000000 0 0 1
10.890382 -30.262081 -17.630912 36.677555 -1.225357 2.072249 -0.008588 0.003777 958152.000000 0 0 1
9.486682 -30.958481 -17.891512 36.993660 -1.273449 2.075602 0.016086 -0.002042 27075.900000 0 0 1
8.836282 -31.546381 -16.784512 36.809970 -1.297691 2.044266 0.017351 -0.004986 668804.000000 0 0 1
7.724482 -32.418581 -17.079912 37.448036 -1.336885 2.044400 0.028234 -0.003352 1206560.000000 0 0 1
6.471582 -31.807481 -17.802812 37.020769 -1.370075 2.072463 0.029550 0.005729 -354141.000000 0 0 1
6.680282 -31.380081 -19.140212 37.358846 -1.361045 2.108697 0.021144 0.009230 -248000.000000 0 0 1
6.626982 -32.430881 -20.003612 38.675877 -1.369230 2.114386 0.036631 -0.006148 -949888.000000 0 0 1
6.910882 -31.935981 -21.423312 39.072055 -1.357684 2.151130 0.040842 0.006543 820720.000000 0 0 1
8.255982 -31.491481 -21.704212 39.127324 -1.314401 2.158807 0.029836 -0.005839 1009100.000000 0 0 1
9.323682 -32.405181 -21.759312 40.130967 -1.290642 2.143858 0.031930 -0.013224 -355178.000000 0 0 1
9.292882 -33.409881 -22.953612 41.586610 -1.299506 2.155494 0.041164 -0.022464 -808086.000000 0 0 1
8.207782 -34.289581 -22.886812 42.035095 -1.335850 2.146552 0.056381 -0.030659 -310310.000000 0 0 1
8.092882 33.564156 -23.946112 42.017420 1.334196 2.177192 0.069657 -0.039149 146900.000000 0 0 1
6.996282 32.430756 -23.711712 40.779249 1.358323 2.191325 0.074609 -0.047236 1781710.000000 0 0 1
5.638282 32.916756 -23.898312 41.066195 1.401154 2.191916 0.073621 -0.042342 1186450.000000 0 0 1
5.092982 33.426956 -22.680312 40.714818 1.419598 2.161629 0.059880 -0.036723 -356549.000000 0 0 1
3.781382 34.193256 -22.945112 41.351611 1.460655 2.159013 0.068022 -0.023107 1231400.000000 0 0 1
2.545882 33.431056 -22.918412 40.612444 1.494790 2.170406 0.068945 -0.026417 1076320.000000 0 0 1
1.420282 34.138056 -23.387712 41.405424 1.529216 2.171044 0.064518 -0.012712 341361.000000 0 0 1
0.108182 33.408956 -22.952412 40.533730 1.567558 2.172751 0.049508 -0.013219 48817.500000 0 0 1
-0.310718 33.770756 -21.660412 40.121490 -1.561596 2.141080 0.032621 -0.007321 -286864.000000 0 0 1
-1.250318 32.875756 -21.148512 39.110589 -1.532783 2.142108 0.020968 0.003262 -300849.000000 0 0 1
-1.685718 33.212256 -19.685612 38.644778 -1.520084 2.105283 0.026292 0.001695 202341.000000 0 0 1
-0.726918 32.845456 -18.711012 37.808125 -1.548668 2.088509 0.031596 -0.012647 247226.000000 0 0 1
-1.308518 32.896156 -17.405012 37.239814 -1.531040 2.057117 0.006707 -0.005665 162712.000000 0 0 1
-0.622918 31.890156 -16.415012 35.872311 -1.551266 2.046086 -0.010943 0.003188 712089.000000 0 0 1
0.728982 32.246456 -16.145512 36.069972 1.548194 2.034894 -0.009830 -0.003491 81605.800000 0 0 1
1.251482 31.401356 -15.137612 34.882068 1.530963 2.019686 0.012873 0.003596 -446460.000000 0 0 1
2.182782 32.120956 -14.206212 35.190010 1.502946 1.986354 0.018530 -0.003379 -1130930.000000 0 0 1
3.374282 32.491456 -14.811912 35.867439 1.467316 1.996501 0.020856 -0.010426 -751490.000000 0 0 1
4.183982 33.129656 -13.820312 36.139740 1.445170 1.963203 0.030814 -0.016127 -714167.000000 0 0 1
5.509482 33.504756 -14.461312 36.905997 1.407816 1.973429 0.036634 -0.030091 -337837.000000 0 0 1
6.418982 32.392456 -14.380412 36.017645 1.375168 1.981506 0.032661 -0.020028 217977.000000 0 0 1
7.528082 32.544856 -15.277112 36.731863 1.343480 1.999738 0.028470 -0.006269 651100.000000 0 0 1
8.486282 31.335456 -15.171112 35.834207 1.306320 2.007958 0.028023 -0.010015 573245.000000 0 0 1
9.290582 31.256756 -13.960912 35.471210 1.281879 1.975324 0.022912 -0.018337 571504.000000 0 0 1
10.134082 30.092056 -13.824512 34.631612 1.245957 1.981427 0.027561 -0.013297 611834.000000 0 0 1
9.405582 28.731556 -13.550012 33.129595 1.254431 1.992155 0.027606 -0.019689 -30769.900000 0 0 1
8.862382 28.130056 -14.748412 32.975104 1.265590 2.034495 0.036923 -0.012616 114119.000000 0 0 1
8.169782 26.941356 -14.428312 31.634762 1.276367 2.044393 0.021648 -0.013010 -354712.000000 0 0 1
7.329782 26.377756 -15.572612 31.496316 1.299757 2.087971 0.028609 -0.009868 489787.000000 0 0 1
8.176582 25.641556 -16.479212 31.558046 1.262110 2.120210 0.029508 -0.007017 413087.000000 0 0 1
7.399582 25.021656 -17.470812 31.401693 1.283264 2.160801 0.021553 0.000837 24473.400000 0 0 1
8.292182 24.137456 -18.362112 31.441123 1.239888 2.194463 0.023778 0.004422 -435456.000000 0 0 1
7.717882 23.206356 -19.194812 31.089250 1.249727 2.236242 0.037493 -0.003441 -256430.000000 0 0 1
8.681582 22.293256 -19.742712 31.018281 1.199438 2.260730 0.023448 -0.002086 262959.000000 0 0 1
8.039882 21.305456 -20.768912 30.820607 1.209956 2.310223 0.023234 -0.008900 -559256.000000 0 0 1
7.015082 20.561656 -20.225212 29.682524 1.242007 2.320449 0.038497 -0.009264 -725361.000000 0 0 1
6.555482 19.543756 -21.080312 29.484102 1.247164 2.367381 0.038279 -0.006608 -44135.500000 0 0 1
24.991882 -12.731944 -9.648412 29.661228 -0.471174 1.902112 0.046025 -0.011669 16444.600000 0 0 1
25.521282 -12.076044 -8.518812 29.491301 -0.441959 1.863831 0.064622 -0.020012 473228.000000 0 0 1
24.532482 -12.113044 -7.504112 28.370411 -0.458639 1.838487 0.057912 -0.013908 -73673.100000 0 0 1
25.007482 -11.535344 -6.098012 28.206809 -0.432191 1.788706 0.048814 -0.010810 -215803.000000 0 0 1
25.152482 -10.123944 -5.845912 27.736551 -0.382662 1.783154 0.061714 -0.018013 714873.000000 0 0 1
25.972482 -9.388744 -6.770412 28.435133 -0.346872 1.811206 0.056082 -0.019378 -353665.000000 0 0 1
26.208182 -7.878044 -6.260612 28.073611 -0.292002 1.795694 0.076755 -0.016463 32701.200000 0 0 1
26.836282 -7.571044 -5.019512 28.332000 -0.274973 1.748904 0.088395 -0.020394 1043960.000000 0 0 1
28.188182 -8.001044 -4.849012 29.700223 -0.276570 1.734796 0.089277 -0.022407 487349.000000 0 0 1
28.827282 -7.872944 -3.441712 30.080572 -0.266606 1.685464 0.089137 -0.015763 -37772.700000 0 0 1
29.025982 -6.539044 -3.035612 29.907886 -0.221583 1.672470 0.092185 -0.013514 513401.000000 0 0 1
29.967182 -6.469544 -1.967812 30.720665 -0.212624 1.634895 0.081196 -0.009331 110325.000000 0 0 1
30.223182 -5.030144 -1.380112 30.669982 -0.164922 1.615810 0.077220 -0.017445 -465827.000000 0 0 1
29.290382 -4.586744 -0.451512 29.650777 -0.155334 1.586025 0.093092 -0.020431 -287071.000000 0 0 1
29.302382 -3.238544 -0.013612 29.480806 -0.110075 1.571258 0.078473 -0.015604 -330736.000000 0 0 1
29.879182 -2.955144 1.399688 30.057570 -0.098583 1.524213 0.075872 -0.011888 32300.700000 0 0 1
29.043282 -3.394044 2.463088 29.344481 -0.116334 1.486760 0.085628 -0.011336 577874.000000 0 0 1
29.711282 -3.114544 3.666588 30.098248 -0.104446 1.448672 0.066520 -0.005468 95746.500000 0 0 1
29.238782 -3.988944 4.885488 29.911303 -0.135589 1.406729 0.071453 -0.008950 -94750.300000 0 0 1
29.631482 -5.291244 4.639188 30.455608 -0.176706 1.417875 0.065220 -0.014386 150215.000000 0 0 1
29.342482 -6.122444 5.740088 30.519079 -0.205703 1.381587 0.066504 -0.013197 -225152.000000 0 0 1
29.821782 -7.573244 5.586788 31.271471 -0.248693 1.391178 0.052144 -0.010543 308764.000000 0 0 1
31.241582 -7.593244 5.507688 32.619448 -0.238426 1.401137 0.053193 -0.010586 123100.000000 0 0 1
31.760582 -8.865344 5.448688 33.421806 -0.272202 1.407037 0.055856 -0.009851 285398.000000 0 0 1
33.312482 -8.955644 5.546888 34.938417 -0.262628 1.411360 0.082803 -0.012849 486167.000000 0 0 1
33.970882 -8.292444 4.485288 35.254833 -0.239422 1.443226 0.075724 -0.005915 446757.000000 0 0 1
35.356782 -8.067344 4.750288 36.575255 -0.224329 1.440551 0.083037 -0.008633 411055.000000 0 0 1
-35.324834 -7.660344 3.595588 36.324276 0.213548 1.471648 0.073804 -0.009253 -388267.000000 0 0 1
-34.976834 -8.734144 2.785488 36.158307 0.244708 1.493684 0.089547 -0.011143 583015.000000 0 0 1
-33.843234 -8.339644 2.001888 34.913060 0.241606 1.513426 0.085923 -0.018903 -29092.900000 0 0 1
-33.394634 -9.395644 0.984388 34.705169 0.274262 1.542428 0.083184 -0.015968 -163758.000000 0 0 1
-32.864634 -10.528144 1.632188 34.548373 0.310019 1.523535 0.079283 -0.016366 186697.000000 0 0 1
-32.477534 -11.508544 0.704188 34.463498 0.340548 1.550362 0.091661 -0.027445 -256683.000000 0 0 1
-32.452334 -12.915644 1.378088 34.955214 0.378771 1.531362 0.063700 -0.020513 359796.000000 0 0 1
-31.289034 -13.181944 2.153788 34.020672 0.398729 1.507446 0.056957 -0.020821 469876.000000 0 0 1
-30.339334 -13.950544 1.414188 33.422939 0.430988 1.528472 0.062089 -0.014570 133085.000000 0 0 1
-28.985234 -14.237744 2.095888 32.361241 0.456588 1.505986 0.052218 -0.012159 107355.000000 0 0 1
-28.272834 -13.037244 2.378288 31.224656 0.432065 1.494555 0.038289 -0.011035 926781.000000 0 0 1
-26.956034 -13.382844 2.853288 30.230276 0.460819 1.476271 0.034256 -0.009718 660750.000000 0 0 1
-26.290934 -12.238044 3.637388 29.226932 0.435657 1.446020 0.021341 -0.002647 577250.000000 0 0 1
-24.979334 -12.598544 4.116488 28.277835 0.467128 1.424704 0.022469 0.004129 799457.000000 0 0 1
-24.441834 -11.511144 4.816388 27.442801 0.440148 1.394376 0.020739 0.002974 -219903.000000 0 0 1
-23.129834 -11.918544 5.514588 26.597963 0.475804 1.361950 0.025280 0.015975 -181800.000000 0 0 1
-23.278934 -12.902644 6.486788 27.394624 0.506110 1.331735 0.022502 0.008816 -506697.000000 0 0 1
-22.065534 -13.204944 7.109188 26.679560 0.539273 1.301072 0.030751 0.013325 -290102.000000 0 0 1
-21.815334 -12.530244 8.474188 26.546708 0.521367 1.245892 0.039754 0.009205 -595621.000000 0 0 1
-21.406534 -11.181344 8.358688 25.556405 0.481354 1.237597 0.038163 0.005833 368889.000000 0 0 1
-22.333534 -10.166244 8.741288 26.048981 0.427171 1.228585 0.036923 0.001456 -577340.000000 0 0 1
-22.703834 -10.108944 10.277888 26.894048 0.418899 1.178661 0.027733 0.006732 10638.700000 0 0 1
-23.356634 -11.316444 10.729888 28.084244 0.451176 1.178771 0.026941 -0.002487 558894.000000 0 0 1
-24.752634 -11.397844 10.491988 29.200780 0.431527 1.203273 0.033224 -0.000669 -209994.000000 0 0 1
-25.664234 -11.027744 11.652788 30.266343 0.405839 1.175580 0.023144 -0.001276 -907009.000000 0 0 1
-25.713634 -11.931244 12.734588 31.075960 0.434439 1.148574 0.027951 -0.000750 -205227.000000 0 0 1
-26.815934 -11.633744 13.525988 32.208550 0.409332 1.137406 0.021211 -0.000358 -527277.000000 0 0 1
-26.971534 -12.466544 14.802488 33.196266 0.432962 1.108608 0.019507 -0.003066 -197547.000000 0 0 1
-27.344734 -13.810544 14.578388 33.926318 0.467682 1.126628 0.008213 -0.001595 336685.000000 0 0 1
-27.025934 -14.637444 15.724388 34.524083 0.496377 1.097906 0.017031 -0.003467 -571443.000000 0 0 1
-26.755334 -16.146344 15.516188 34.889890 0.542975 1.109936 0.009432 0.001138 -203779.000000 0 0 1
-27.882234 -16.981344 15.637088 36.198116 0.547039 1.124102 0.003003 0.004626 -162323.000000 0 0 1
-27.541934 -18.346544 15.644788 36.604825 0.587632 1.129185 0.002322 0.007233 -507652.000000 0 0 1
-28.566534 -19.118044 16.420388 38.094299 0.589786 1.125145 -0.008053 0.014024 -465234.000000 0 0 1
-28.399034 -18.993644 17.833488 38.539551 0.589487 1.089722 -0.004462 0.015361 -60395.300000 0 0 1
-29.087534 -20.045544 18.563988 39.906518 0.603404 1.086951 0.004303 0.016651 -96408.600000 0 0 1
-28.320434 -21.349644 18.771288 40.127491 0.645967 1.084006 -0.004308 0.019328 177115.000000 0 0 1
-27.105434 -21.177444 19.502288 39.541471 0.663233 1.055019 0.008353 0.015536 244469.000000 0 0 1
-26.386134 -22.391844 19.527888 39.736145 0.703693 1.057055 0.019201 0.012500 -435321.000000 0 0 1
-25.006134 -22.161344 20.146488 39.016829 0.725159 1.028209 0.033674 0.009604 162809.000000 0 0 1
-24.016234 -21.683344 19.206488 37.627598 0.734394 1.035104 0.038036 0.002400 931977.000000 0 0 1
-22.737134 -21.586844 19.846388 37.105906 0.759452 1.006457 0.041513 0.010536 884656.000000 0 0 1
-21.560434 -21.488244 18.824588 35.790531 0.783721 1.016946 0.035246 0.000522 113492.000000 0 0 1
-21.406934 -22.537744 17.943888 35.891362 0.811125 1.047255 0.033876 -0.006864 826350.000000 0 0 1
-20.106334 -22.390844 17.342488 34.732931 0.839103 1.047994 0.034204 -0.008660 741637.000000 0 0 1
-19.813434 -23.430044 16.209188 34.702694 0.868838 1.084803 0.031113 -0.000353 -656171.000000 0 0 1
-19.678734 -24.776544 16.577788 35.720481 0.899572 1.088181 0.045361 -0.015323 928437.000000 0 0 1
-18.439434 -25.192164 17.229988 35.658525 0.938947 1.066497 0.050821 -0.014915 841623.000000 0 0 1
-17.242834 -25.301074 16.274788 34.674608 0.972591 1.082233 0.033070 -0.011184 -281956.000000 0 0 1
-16.659134 -24.018044 16.026988 33.335530 0.964372 1.069255 0.031799 -0.006048 -450433.000000 0 0 1
-15.374734 -24.039044 15.472888 32.460258 1.001786 1.073932 0.038242 -0.009058 -204677.000000 0 0 1
-14.688234 -22.640244 15.512388 31.128108 0.995289 1.049113 0.040672 -0.006186 -102902.000000 0 0 1
-15.262734 -21.631244 14.670388 30.266848 0.956330 1.064774 0.033637 0.002296 323025.000000 0 0 1
-16.293334 -20.826944 15.313788 30.557265 0.906929 1.045869 0.032128 0.000458 485410.000000 0 0 1
-15.836434 -19.720944 16.291988 30.085498 0.894213 0.998549 0.035316 -0.003643 -655154.000000 0 0 1
-15.215234 -18.610444 15.688188 28.704899 0.885437 0.992577 0.030696 -0.002403 41064.900000 0 0 1
-15.188734 -17.523044 16.644388 28.544533 0.856637 0.948254 0.020656 -0.003238 -392336.000000 0 0 1
-14.618934 -16.204144 16.013388 27.068730 0.836782 0.937776 0.027992 -0.004344 222577.000000 0 0 1
-15.408234 -15.646744 14.958888 26.570710 0.793078 0.972804 0.019342 -0.011350 186351.000000 0 0 1
-15.293834 -16.287544 13.690088 26.203129 0.816853 1.021063 0.028488 -0.014900 -107255.000000 0 0 1
-16.043134 -15.599944 12.527688 25.645339 0.771393 1.060429 0.022074 -0.009360 1037180.000000 0 0 1
-17.469734 -15.630544 12.703088 26.662220 0.729891 1.074189 0.012693 -0.014272 742168.000000 0 0 1
-18.264934 -14.625344 12.112988 26.348302 0.675188 1.093110 0.025579 -0.013013 -408920.000000 0 0 1
-19.749834 -14.880244 12.407388 27.666241 0.645697 1.105747 0.027562 -0.014581 -122003.000000 0 0 1
-20.394634 -15.973044 11.720188 28.433116 0.664412 1.145927 0.031210 -0.014220 9381.070000 0 0 1
-20.382034 -15.954844 10.263888 27.844780 0.664158 1.193282 0.031653 -0.007226 -515041.000000 0 0 1
-21.110234 -17.147344 9.555888 28.826870 0.682182 1.232911 0.026988 0.002501 64749.900000 0 0 1
-20.464134 -18.400844 9.507688 29.116456 0.732359 1.238156 0.028076 0.011870 -168824.000000 0 0 1
-21.254134 -19.400444 8.889388 30.118710 0.739834 1.271189 0.037717 -0.007471 45772.700000 0 0 1
-20.615234 -20.817944 8.975988 30.642178 0.790291 1.273507 0.038505 -0.000835 -15086.100000 0 0 1
-19.499634 -20.972244 8.136888 29.770450 0.821768 1.293953 0.053888 -0.002869 -533337.000000 0 0 1
-19.093934 -22.277044 8.316188 30.495967 0.862188 1.294600 0.043843 -0.005289 162660.000000 0 0 1
-17.762834 -22.639644 7.581088 29.758103 0.905523 1.313200 0.037637 -0.010314 265148.000000 0 0 1
-16.631934 -22.002044 8.108888 28.748309 0.923513 1.284851 0.026301 -0.008371 -612893.000000 0 0 1
-15.470034 -22.421144 7.448188 28.240134 0.966830 1.303894 0.038471 -0.002840 -579495.000000 0 0 1
-14.213734 -21.791044 8.064588 27.238161 0.992824 1.270214 -0.001562 0.000163 -1562410.000000 0 0 1
-13.095534 -22.260744 7.452988 26.880863 1.039040 1.289855 0.023585 0.007175 -2320390.000000 0 0 1
-11.995234 -21.710644 8.059888 26.080635 1.066032 1.256616 0.018206 0.003607 -1385510.000000 0 0 1
-10.712034 -22.370344 7.604288 25.942343 1.124212 1.273305 0.009627 0.008432 -600270.000000 0 0 1
-10.570734 -23.738544 7.926788 27.167865 1.151859 1.274719 0.011565 0.015300 -1535320.000000 0 0 1
-9.377434 -24.231144 7.504688 27.044500 1.201548 1.289612 0.026781 0.014532 -1079370.000000 0 0 1
-9.287234 -25.781804 7.409588 28.387606 1.225042 1.306723 0.007382 0.020899 -74615.700000 0 0 1
-10.003734 -26.268794 6.273788 28.800776 1.206931 1.351202 0.007733 0.006797 -19894.800000 0 0 1
-10.234134 -27.676934 6.406188 30.195852 1.216618 1.357017 0.023221 0.008944 -244818.000000 0 0 1
-9.175234 -28.573264 5.763488 30.558700 1.260084 1.381056 0.024147 0.010570 -25589.300000 0 0 1
-7.879934 -28.306624 6.297488 30.050236 1.299293 1.359666 0.014337 0.013056 -102323.000000 0 0 1
-6.903434 -29.278734 5.995288 30.673200 1.339242 1.374073 0.009974 0.018316 158982.000000 0 0 1
-7.031334 -30.661554 6.606688 32.143723 1.345373 1.363785 0.019261 0.013704 -492205.000000 0 0 1
-6.871434 -30.629064 8.045188 32.404957 1.350107 1.319902 0.023639 0.008485 28679.500000 0 0 1
-7.044434 -31.940834 8.589288 33.817404 1.353725 1.313993 0.045845 -0.002721 -140489.000000 0 0 1
-7.089234 -32.065794 10.138988 34.369630 1.353212 1.271342 0.042736 -0.000977 167290.000000 0 0 1
-5.965634 -31.436324 10.757388 33.757261 1.383258 1.246472 0.038154 0.005163 581525.000000 0 0 1
-6.000634 -31.753994 12.103288 34.508164 1.384026 1.212438 0.039065 -0.002785 -161939.000000 0 0 1
-5.174634 -30.726644 12.930088 33.735600 1.403953 1.177454 0.037312 -0.007071 -78004.300000 0 0 1
-5.661634 -29.400414 13.049988 32.660996 1.380555 1.159761 0.034536 0.000659 -29300.000000 0 0 1
-4.986634 -28.548074 13.974788 32.173806 1.397866 1.121477 0.024583 -0.006117 22496.600000 0 0 1
-5.716634 -28.409014 15.346588 32.791306 1.372222 1.083761 0.023409 0.007074 -65824.300000 0 0 1
-5.858634 -29.662304 16.009288 34.212179 1.375795 1.083837 0.025884 -0.010741 -861057.000000 0 0 1
-4.787634 -30.244284 16.637788 34.849020 1.413800 1.073075 0.021211 -0.011650 -787366.000000 0 0 1
-5.100634 -31.670754 17.175488 36.387505 1.411116 1.079220 0.016529 -0.003150 -100689.000000 0 0 1
-5.637634 -32.429924 16.133588 36.657545 1.398676 1.115068 0.010458 -0.002105 235588.000000 0 0 1
-6.162634 -33.600914 16.712188 38.030208 1.389406 1.115816 0.012358 -0.003977 -173650.000000 0 0 1
-5.570634 34.018202 15.853088 37.941935 -1.408482 1.139746 0.014727 -0.016377 132255.000000 0 0 1
-6.108634 33.853800 14.499688 37.331437 -1.392276 1.171897 0.030313 -0.022559 446371.000000 0 0 1
-5.385634 32.857814 13.781088 36.035530 -1.408334 1.178371 0.033298 -0.024983 793518.000000 0 0 1
-4.071634 33.329095 13.069588 36.030833 -1.449234 1.199597 0.046596 -0.028132 283177.000000 0 0 1
-4.378634 33.937281 11.797888 36.195327 -1.442484 1.238779 0.047817 -0.025016 -168736.000000 0 0 1
-3.313634 34.319806 10.993488 36.189585 -1.474543 1.262144 0.058091 -0.030443 -1034200.000000 0 0 1
-3.897634 -34.120004 9.594988 35.657118 1.457056 1.298348 0.043638 -0.025628 -332553.000000 0 0 1
-4.105634 33.507074 8.669788 34.853199 -1.448874 1.319405 0.053942 -0.031235 880769.000000 0 0 1
-5.063634 32.516072 9.111988 34.146210 -1.416310 1.300671 0.070301 -0.033334 435982.000000 0 0 1
-6.542634 32.832213 9.426688 34.779631 -1.374098 1.296323 0.065237 -0.025296 -69741.200000 0 0 1
-7.298334 33.114057 8.256088 34.899419 -1.353865 1.331964 0.060238 -0.015124 -523175.000000 0 0 1
-8.579734 33.566527 8.649888 35.709161 -1.320550 1.326131 0.047518 -0.011178 123933.000000 0 0 1
-9.489734 33.763594 7.401888 35.844432 -1.296801 1.362799 0.050414 -0.018073 -54439.200000 0 0 1
-9.341234 -33.765424 6.731088 35.674502 1.300896 1.380978 0.043955 -0.006022 27272.600000 0 0 1
-9.728434 -33.897344 5.352188 35.669571 1.291311 1.420178 0.032883 0.001677 -263256.000000 0 0 1
-9.758534 -32.607234 4.499688 34.332316 1.280005 1.439355 0.023731 0.004769 -141839.000000 0 0 1
-10.687034 -31.687544 4.975288 33.809269 1.245513 1.423102 0.041355 -0.001412 -380531.000000 0 0 1
-11.935534 -31.679254 4.310888 34.126469 1.210482 1.444137 0.049888 -0.000140 -571605.000000 0 0 1
-12.914434 -30.788334 5.010488 33.761060 1.173629 1.421836 0.048167 -0.011480 -893393.000000 0 0 1
-13.341534 -31.309114 6.191988 34.591876 1.167975 1.390825 0.031778 0.004177 -414069.000000 0 0 1
-13.889434 -30.322594 6.974088 34.073656 1.141264 1.364663 0.024669 -0.003743 -212553.000000 0 0 1
32.845748 -12.649244 -12.669912 37.408197 -0.367605 1.916324 0.045171 -0.024980 -231211.000000 0 0 1
31.843188 -13.120344 -11.794312 36.403816 -0.390834 1.900736 0.067022 -0.027270 54258.800000 0 0 1
31.802268 -14.532544 -11.549612 36.823534 -0.428631 1.889828 0.068765 -0.035402 217537.000000 0 0 1
32.913558 -15.083244 -10.604312 37.726092 -0.429709 1.855723 0.060391 -0.033388 651919.000000 0 0 1
34.254148 -14.984744 -11.061512 38.990335 -0.412375 1.858446 0.067088 -0.034646 338339.000000 0 0 1
35.130518 -15.477744 -10.024312 39.676198 -0.414991 1.826218 0.047942 -0.025961 -117030.000000 0 0 1
-34.969236 -15.487744 -10.525312 39.667365 0.416931 1.839352 0.016796 -0.026368 -444060.000000 0 0 1
-34.322485 -14.208844 -10.567112 38.621084 0.392500 1.847941 0.016827 -0.009769 823034.000000 0 0 1
-32.940208 -14.343344 -10.952712 37.559962 0.410677 1.866702 0.010518 -0.016609 890567.000000 0 0 1
-32.398388 -12.905244 -11.147112 36.612279 0.379066 1.880172 0.012833 -0.021699 -438236.000000 0 0 1
-32.271398 -12.104544 -10.018512 35.893366 0.358846 1.853673 0.026740 -0.024040 341076.000000 0 0 1
-31.748398 -10.841444 -10.366112 35.113444 0.329065 1.870480 0.024790 -0.017282 -266952.000000 0 0 1
-32.280298 -9.699944 -9.489012 35.016395 0.291907 1.845215 0.024788 -0.021781 205138.000000 0 0 1
-31.581348 -9.640444 -8.228612 34.029837 0.296273 1.815023 0.032001 -0.016596 488603.000000 0 0 1
-32.279198 -8.768044 -7.389512 34.255366 0.265232 1.788224 0.051564 -0.021333 -139844.000000 0 0 1
-31.800458 -8.798944 -5.956512 33.528653 0.269939 1.749399 0.040453 -0.011765 -1632410.000000 0 0 1
-30.612358 -8.151344 -5.739512 32.194765 0.260238 1.750029 0.044140 -0.022688 -766702.000000 0 0 1
-29.979138 -8.446444 -4.506212 31.470575 0.274625 1.714478 0.048972 -0.021384 -426346.000000 0 0 1
-29.311168 -9.835244 -4.427112 31.232610 0.323741 1.713022 0.044989 -0.017993 -704132.000000 0 0 1
-30.205528 -10.896444 -4.117312 32.373735 0.346214 1.698322 0.065076 -0.018389 359576.000000 0 0 1
-30.587188 -10.950944 -2.777012 32.606917 0.343805 1.656066 0.052726 -0.019922 -159013.000000 0 0 1
-31.237268 -12.319944 -2.497612 33.671739 0.375669 1.645040 0.067923 -0.018402 1191750.000000 0 0 1
-32.633778 -12.506144 -2.856312 35.064592 0.365964 1.652345 0.073753 -0.022405 1268770.000000 0 0 1
-33.106348 -13.736844 -2.429212 35.925371 0.393311 1.638466 0.078747 -0.026484 -371803.000000 0 0 1
-34.636918 -13.803244 -2.308712 37.357406 0.379223 1.632636 0.061208 -0.017203 -225745.000000 0 0 1
-35.097114 -12.876544 -1.341912 37.408736 0.351636 1.606676 0.068720 -0.018638 370775.000000 0 0 1
35.076198 -13.126544 -1.057712 37.466846 -0.358095 1.599031 0.089998 -0.020452 344725.000000 0 0 1
34.392318 -12.171944 -0.040112 36.482727 -0.340158 1.571896 0.085323 -0.019573 99089.400000 0 0 1
34.690038 -12.523244 1.315088 36.904740 -0.346444 1.535154 0.094157 -0.016484 139040.000000 0 0 1
34.569548 -11.372244 2.177788 36.457158 -0.317816 1.511025 0.084240 -0.009956 -60641.500000 0 0 1
35.062878 -11.588644 3.611688 37.104533 -0.319208 1.473304 0.087338 -0.019683 37522.400000 0 0 1
34.200488 -12.415744 4.383288 36.647473 -0.348234 1.450902 0.086236 -0.029273 25306.100000 0 0 1
34.709348 -12.728444 5.644788 37.398072 -0.351488 1.419279 0.077010 -0.025702 -836243.000000 0 0 1
33.634868 -12.951244 6.695088 36.658741 -0.367556 1.387133 0.080945 -0.033079 -209995.000000 0 0 1
32.884138 -11.780144 6.980888 35.621217 -0.343989 1.373544 0.085084 -0.024362 74584.900000 0 0 1
32.742798 -11.643544 8.368588 35.744877 -0.341661 1.334483 0.051244 -0.011782 -427171.000000 0 0 1
32.028818 -10.344044 8.789188 34.786409 -0.312386 1.315366 0.042057 -0.023399 -475539.000000 0 0 1
30.669118 -10.297344 8.457088 33.438786 -0.323929 1.315107 0.047328 -0.021105 -343456.000000 0 0 1
30.013398 -9.309444 9.204388 32.744321 -0.300766 1.285857 0.037532 -0.004036 264936.000000 0 0 1
28.467928 -9.486444 9.116488 31.361216 -0.321660 1.275845 0.040979 -0.003594 342491.000000 0 0 1
27.804838 -8.910644 8.025388 30.280612 -0.310130 1.302557 0.055699 -0.009462 201214.000000 0 0 1
27.102918 -9.928044 7.302388 29.773463 -0.351130 1.323003 0.059582 -0.018825 -226669.000000 0 0 1
26.312998 -9.419944 6.083488 28.602763 -0.343780 1.356470 0.073979 -0.021395 329684.000000 0 0 1
25.042398 -8.900644 6.511588 27.363186 -0.341498 1.330522 0.077612 -0.012749 629708.000000 0 0 1
24.202698 -8.354744 5.531888 26.194926 -0.332391 1.358013 0.085410 -0.017699 -192069.000000 0 0 1
24.557698 -7.014244 4.837088 25.993799 -0.278215 1.383619 0.078527 -0.008517 -50643.700000 0 0 1
25.572598 -7.081344 3.818888 26.808340 -0.270142 1.427859 0.086397 -0.011660 674201.000000 0 0 1
25.844998 -5.752044 3.382988 26.692593 -0.218990 1.443716 0.079863 -0.010740 142134.000000 0 0 1
26.463498 -5.542544 2.013688 27.112570 -0.206457 1.496456 0.082317 -0.021935 -56651.400000 0 0 1
25.541198 -5.871144 1.030288 26.227555 -0.225945 1.531504 0.087938 -0.028237 5561.650000 0 0 1
26.180498 -5.689544 -0.226312 26.792548 -0.213993 1.579243 0.085317 -0.030049 -293376.000000 0 0 1
25.309398 -6.079844 -1.374912 26.065696 -0.235754 1.623569 0.089181 -0.031497 72808.700000 0 0 1
24.152498 -5.273144 -1.607312 24.773628 -0.214954 1.635722 0.074766 -0.028579 394716.000000 0 1 0
23.599698 -5.435244 -2.876912 24.387789 -0.226363 1.689037 0.066390 -0.024945 403140.000000 0 1 0
22.330298 -4.547044 -3.106012 22.999242 -0.200880 1.706259 0.037391 -0.023018 295313.000000 0 1 0
22.625398 -3.125544 -2.964012 23.031783 -0.137274 1.699846 0.033152 -0.022025 279209.000000 0 1 0
23.436098 -2.478844 -3.916212 23.889999 -0.105379 1.735466 0.045104 -0.020905 -236990.000000 0 1 0
22.728398 -1.638344 -5.042412 23.338598 -0.071959 1.788568 0.054388 -0.011627 -62846.400000 0 1 0
22.075998 -0.471744 -4.589412 22.552936 -0.021366 1.775723 0.026502 -0.003299 522989.000000 0 1 0
21.552998 0.252356 -5.678712 22.289979 0.011708 1.828401 0.053642 0.002293 -244083.000000 0 1 0
21.176698 1.672456 -5.319612 21.898582 0.078813 1.816172 0.046245 0.013809 -457901.000000 0 1 0
22.284098 2.477956 -4.949012 22.961141 0.110743 1.788040 0.052430 0.005862 427201.000000 0 1 0
22.558598 2.445156 -3.574912 22.970614 0.107970 1.727061 0.045412 0.002836 -598236.000000 0 1 0
23.779698 3.228456 -3.133612 24.201580 0.134940 1.700641 0.049224 -0.009598 -675940.000000 0 1 0
23.574898 4.609756 -3.343512 24.252932 0.193100 1.709097 0.038174 0.001707 348050.000000 0 1 0
24.501298 5.462456 -2.724012 25.250193 0.219358 1.678888 0.040297 -0.006127 -576493.000000 0 0 1
24.134398 6.932056 -2.909012 25.278151 0.279698 1.686132 0.028934 -0.006537 620296.000000 0 0 1
23.060298 7.388256 -2.038512 24.300601 0.310055 1.654782 0.037115 -0.008836 1309990.000000 0 1 0
22.369898 8.512856 -2.557412 24.071174 0.363627 1.677241 0.027410 -0.008157 -226964.000000 0 1 0
21.240898 9.040856 -1.651612 23.143911 0.402408 1.642220 0.012328 -0.002217 -459540.000000 0 1 0
21.796598 9.549056 -0.463412 23.801069 0.412913 1.590268 0.002317 -0.002040 972461.000000 0 1 0
20.802198 9.971456 0.483288 23.073685 0.446989 1.549849 -0.008489 -0.000145 130480.000000 0 1 0
21.481898 10.388856 1.810188 23.930671 0.450450 1.495081 0.018282 -0.008042 -63349.600000 0 1 0
22.325898 11.564456 1.756288 25.204502 0.477931 1.501058 0.023323 -0.013182 808926.000000 0 0 1
21.684898 12.811456 1.532588 25.233252 0.533628 1.510022 0.017337 -0.008032 -858914.000000 0 0 1
20.673198 13.344656 2.553288 24.738234 0.573209 1.467400 0.010383 -0.000259 694117.000000 0 1 0
19.347298 12.723356 2.431088 23.283297 0.581720 1.466192 0.048318 -0.008322 1590790.000000 0 1 0
18.407898 13.535256 3.116388 23.060046 0.634024 1.435239 0.044704 -0.010084 -398360.000000 0 1 0
18.416298 13.483556 4.674388 23.298416 0.631981 1.368794 0.031109 -0.001138 -806614.000000 0 1 0
18.130698 12.249856 5.217488 22.494518 0.594190 1.336720 0.038833 -0.000425 251870.000000 0 1 0
18.178098 12.243756 6.630188 22.897864 0.592749 1.277035 0.031508 -0.012665 -216463.000000 0 1 0
18.181598 10.847856 7.274088 22.386577 0.537945 1.239858 0.014722 -0.017500 397607.000000 0 1 0
19.330698 10.108456 6.822788 22.856229 0.481817 1.267666 0.013601 -0.020868 879556.000000 0 1 0
19.385398 8.751356 7.202588 22.455671 0.424051 1.244278 0.025067 -0.024359 -374152.000000 0 1 0
20.358798 7.895756 6.406488 22.756685 0.369971 1.285417 0.039317 -0.024099 -375196.000000 0 1 0
19.858598 7.536656 5.133588 21.852204 0.362724 1.333657 0.017846 -0.021487 545285.000000 0 1 0
20.755698 6.727156 4.399488 22.257788 0.313428 1.371825 0.021995 -0.024243 -425384.000000 0 1 0
20.468798 6.522256 2.888988 21.676203 0.308472 1.437119 0.026450 -0.018403 -10480.600000 0 1 0
21.403698 5.670856 2.202088 22.251429 0.258997 1.471670 0.019885 -0.018628 908207.000000 0 1 0
21.057598 5.551056 0.878588 21.794691 0.257749 1.530473 0.024819 -0.005258 -610795.000000 0 1 0
22.140498 4.706456 0.241688 22.636492 0.209455 1.560119 0.040832 -0.007871 -283474.000000 0 1 0
22.127198 3.401256 0.833888 22.402607 0.152520 1.533565 0.039698 -0.005507 1348950.000000 0 1 0
23.367198 2.693556 0.620588 23.530115 0.114764 1.544419 0.052355 -0.004026 845575.000000 0 1 0
23.107098 1.164256 0.612888 23.144526 0.050343 1.544312 0.066726 -0.013091 184641.000000 0 1 0
22.177498 0.751456 -0.408112 22.193978 0.033871 1.589186 0.037476 -0.016047 906790.000000 0 1 0
22.442498 -0.553044 -0.974812 22.470466 -0.024638 1.614192 0.052916 -0.018305 -866919.000000 0 1 0
22.150498 -1.789744 -0.087112 22.222856 -0.080624 1.574716 0.059536 -0.013802 -55072.700000 0 1 0
23.017298 -1.972544 1.017788 23.124075 -0.085489 1.526768 0.057920 -0.008634 428746.000000 0 1 0
24.273398 -2.524244 0.686188 24.413941 -0.103620 1.542686 0.066471 -0.016084 -59385.700000 0 1 0
25.410998 -2.097144 1.669288 25.551974 -0.082342 1.505421 0.079380 -0.014366 94781.500000 0 0 1
25.527098 -0.732844 1.807788 25.601521 -0.028701 1.500125 0.077326 -0.015811 129886.000000 0 0 1
26.313198 -0.369544 2.902088 26.475329 -0.014043 1.460961 0.083517 -0.013309 -344434.000000 0 0 1
26.009298 1.052556 3.487988 26.263235 0.040446 1.437594 0.077965 -0.013054 -124010.000000 0 0 1
26.234498 2.124756 2.606088 26.449105 0.080815 1.472104 0.093573 -0.019485 677683.000000 0 0 1
27.610788 2.421256 2.379188 27.818674 0.087469 1.485167 0.106591 -0.027616 400487.000000 0 0 1
27.706028 3.579456 1.347688 27.968782 0.128482 1.522592 0.111538 -0.035125 -348406.000000 0 0 1
27.175548 3.212456 0.078688 27.364876 0.117665 1.567921 0.109113 -0.023265 400288.000000 0 0 1
27.437308 4.220656 -0.942512 27.776035 0.152633 1.604735 0.099099 -0.015785 927160.000000 0 0 1
28.927328 4.034256 -1.456412 29.243575 0.138568 1.620620 0.104415 -0.017217 789231.000000 0 0 1
29.956768 4.236856 -0.513212 30.259251 0.140500 1.587758 0.123721 -0.023711 -1037610.000000 0 0 1
31.150258 3.868356 -1.101012 31.408836 0.123551 1.605858 0.091578 -0.020555 -464738.000000 0 0 1
32.401908 4.215656 -0.236312 32.675851 0.129378 1.578028 0.052203 -0.014559 225134.000000 0 0 1
32.711018 3.473856 0.929688 32.908094 0.105802 1.542542 0.046318 -0.014712 484286.000000 0 0 1
31.881128 3.815156 2.061088 32.174677 0.119102 1.506693 0.054898 -0.009448 271237.000000 0 0 1
31.818928 2.768556 3.183388 32.097399 0.086791 1.471454 0.064568 -0.011423 -352459.000000 0 0 1
31.116768 1.617556 2.875488 31.291183 0.051937 1.478772 0.076332 -0.015559 -5556.050000 0 0 1
31.312568 0.633756 3.933388 31.565014 0.020237 1.445859 0.069932 -0.016113 -470938.000000 0 0 1
32.563148 -0.234744 3.912888 32.798238 -0.007209 1.451210 0.068822 -0.009081 -429684.000000 0 0 1
33.743218 0.519056 4.159188 34.002544 0.015381 1.448169 0.065776 -0.014740 -148913.000000 0 0 1
34.846348 -0.297744 3.873688 35.062260 -0.008544 1.460090 0.060804 -0.016396 -769957.000000 0 0 1
-35.355673 0.319456 4.389088 35.628497 -0.009035 1.447292 0.075093 -0.029914 311874.000000 0 0 1
-34.920489 1.426756 3.626788 35.137299 -0.040835 1.467395 0.059070 -0.025588 200657.000000 0 0 1
-34.417639 1.059456 2.331288 34.512769 -0.030773 1.503196 0.068873 -0.026884 -834684.000000 0 0 1
-34.528346 2.221256 1.254988 34.622473 -0.064243 1.534541 0.055336 -0.023459 55516.000000 0 0 1
-33.554408 3.245856 1.337888 33.737573 -0.096434 1.531130 0.057727 -0.022326 -184398.000000 0 0 1
-32.435118 2.952556 0.551688 32.573898 -0.090779 1.553859 0.066867 -0.015089 -1071510.000000 0 0 1
-31.162648 3.595456 1.087588 31.388227 -0.114869 1.536140 0.049250 -0.020814 -610104.000000 0 0 1
-30.776098 3.138556 2.386688 31.027649 -0.101629 1.493799 0.049620 -0.025376 375832.000000 0 0 1
-29.868478 4.103656 2.926288 30.290744 -0.136536 1.474039 0.044731 -0.013274 -753429.000000 0 0 1
-29.855608 4.187856 4.466488 30.476958 -0.139361 1.423714 0.044326 -0.013364 428484.000000 0 0 1
-30.995458 4.881056 5.031288 31.778247 -0.156194 1.411802 0.032734 0.002366 940353.000000 0 0 1
-32.234038 4.203656 4.929188 32.878577 -0.129679 1.420308 0.040037 0.003208 -732070.000000 0 0 1
-32.487868 3.089756 5.987188 33.179129 -0.094820 1.389352 0.045464 0.010327 -787976.000000 0 0 1
-32.560718 3.700156 7.274188 33.567921 -0.113153 1.352363 0.034241 0.011145 255822.000000 0 0 1
-32.543988 2.864456 8.394788 33.731124 -0.087792 1.319279 0.045978 0.010606 -26158.700000 0 0 1
-33.669768 1.799056 8.568388 34.789469 -0.053382 1.321943 0.045473 0.004483 -241286.000000 0 0 1
-33.772438 0.703856 7.710788 34.648654 -0.020838 1.346375 0.057650 -0.009284 -69311.400000 0 0 1
-34.849525 -0.151144 7.982288 35.752331 0.004337 1.345632 0.064299 -0.005956 -331151.000000 0 0 1
-34.721920 -1.046844 9.282088 35.956429 0.030140 1.309691 0.067161 0.004314 -700653.000000 0 0 1
-33.686468 -1.985444 9.229888 34.984439 0.058871 1.303807 0.055761 -0.015690 62937.500000 0 0 1
-33.756338 -2.872144 10.353988 35.425198 0.084880 1.274189 0.048977 0.000014 468988.000000 0 0 1
-32.389078 -3.628944 10.465288 34.230745 0.111577 1.260094 0.036274 -0.004089 491407.000000 0 0 1
-32.224598 -4.596444 9.439788 33.891911 0.141682 1.288537 0.051108 -0.013306 763347.000000 0 0 1
-30.939928 -5.235544 9.578388 32.809078 0.167629 1.274538 0.061143 -0.020280 772423.000000 0 0 1
-30.701018 -6.387644 8.616688 32.520791 0.205133 1.302635 0.067777 -0.014495 -36074.400000 0 0 1
-31.502878 -7.498144 8.923788 33.589991 0.233667 1.301900 0.056284 -0.014318 -115651.000000 0 0 1
-31.525338 -8.468244 7.860488 33.575964 0.262422 1.334493 0.066698 -0.017425 127896.000000 0 0 1
-32.590288 -9.519644 8.224888 34.934214 0.284194 1.333126 0.065949 -0.011798 411401.000000 0 0 1
-33.952748 -9.147344 8.163688 36.098599 0.263166 1.342673 0.078630 -0.021931 567541.000000 0 0 1
-34.829711 -10.198744 8.608288 37.299139 0.284854 1.337906 0.084929 -0.017948 447893.000000 0 0 1
7.298782 -23.866344 10.581588 27.108018 -1.274010 1.169786 0.073032 -0.013938 67062.300000 0 0 1
6.622882 -24.216744 9.387888 26.803838 -1.303840 1.212965 0.071030 -0.022106 -533075.000000 0 0 1
5.591382 -25.116894 9.678488 27.491727 -1.351754 1.211035 0.065153 -0.017663 104247.000000 0 0 1
5.431082 -26.194554 8.594488 28.098337 -1.366357 1.259942 0.053646 -0.004121 -91129.000000 0 0 1
4.925582 -25.652304 7.392888 27.146950 -1.381092 1.294984 0.068479 0.000179 -187673.000000 0 0 1
4.586582 -26.673774 6.417688 27.815709 -1.400511 1.337977 0.058524 -0.002969 -496109.000000 0 0 1
3.903582 -26.130654 5.188688 26.925295 -1.422506 1.376876 0.055918 -0.000892 353519.000000 0 0 1
2.527682 -25.789654 5.306888 26.451059 -1.473097 1.368795 0.045180 -0.003804 -128121.000000 0 0 1
1.766082 -26.880174 4.857588 27.372595 -1.505189 1.392390 0.043365 -0.005218 -478950.000000 0 0 1
0.236082 -26.756574 4.995088 27.219862 -1.561973 1.386242 0.051868 -0.008521 32658.800000 0 0 1
-0.120918 -26.760054 6.392488 27.513252 1.566278 1.336311 0.046613 -0.003211 1050950.000000 0 0 1
-1.558018 -26.779344 6.614688 27.628152 1.512682 1.329030 0.022949 -0.000889 1545750.000000 0 0 1
-2.216718 -28.155954 6.787888 29.047324 1.492228 1.334932 0.022894 0.000959 -216522.000000 0 0 1
-1.800518 -28.840084 7.958588 29.972178 1.508446 1.302040 0.023573 0.000899 -47594.000000 0 0 1
-2.521018 -30.023584 8.117688 31.203654 1.487025 1.307617 0.029265 0.001262 -33400.900000 0 0 1
-2.176118 -30.686304 9.471988 32.188559 1.500000 1.272109 0.032848 0.001976 -296434.000000 0 0 1
-0.936718 -31.323764 9.518988 32.751592 1.540901 1.275899 0.038452 -0.000786 -560949.000000 0 0 1
-0.578118 -31.558244 10.859888 33.379547 1.552479 1.239419 0.036911 0.000892 455315.000000 0 0 1
0.975082 -31.595534 10.959688 33.456589 -1.539945 1.237056 0.036639 -0.005849 398916.000000 0 0 1
1.555082 -32.868634 10.762588 34.620784 -1.523520 1.254687 0.046251 -0.008945 647130.000000 0 0 1
2.952682 -32.914014 11.094788 34.858930 -1.481327 1.246885 0.038874 -0.004681 999108.000000 0 0 1
3.389582 -33.557444 12.449088 35.952345 -1.470129 1.217208 0.037557 -0.003007 -170221.000000 0 0 1
2.822682 -32.808464 13.508288 35.592650 -1.484972 1.181514 0.008103 0.004171 186346.000000 0 0 1
3.386782 -33.146204 14.776688 36.448480 -1.468973 1.153366 0.006325 0.009890 -535374.000000 0 0 1
3.092582 -32.130704 15.905788 35.985279 -1.474842 1.112960 0.003670 0.013982 -51072.900000 0 0 1
3.710482 -30.856484 15.790788 34.860282 -1.451121 1.100698 -0.000194 0.002988 786156.000000 0 0 1
5.141782 -30.809614 15.872488 35.037211 -1.405431 1.100649 0.001632 0.008880 675569.000000 0 0 1
5.756482 -29.480534 15.277588 33.699313 -1.377959 1.100276 0.006183 0.009053 -57878.600000 0 0 1
5.909482 -29.344304 13.853688 32.983857 -1.372070 1.137335 0.012073 0.015828 -109617.000000 0 0 1
4.692282 -29.210014 13.138788 32.370823 -1.411518 1.152851 0.004192 0.027951 -124562.000000 0 0 1
4.887182 -29.323074 11.574088 31.901203 -1.405648 1.199514 0.016351 0.008553 26620.900000 0 0 1
5.242382 -30.521964 11.013988 32.869147 -1.400698 1.229100 0.022816 0.000722 -837706.000000 0 0 1
6.553682 -30.931044 11.216188 33.548221 -1.362004 1.229902 0.021778 0.002077 -860429.000000 0 0 1
6.991882 -32.279424 10.585088 34.682730 -1.357487 1.260650 0.010127 -0.000019 984.723000 0 0 1
6.682182 -33.338304 11.495688 35.892129 -1.372982 1.244767 -0.000485 0.001654 243542.000000 0 0 1
6.835182 34.191728 10.776088 36.495453 1.373490 1.271056 0.012462 -0.003054 -105988.000000 0 0 1
6.816382 32.989215 11.769688 35.683007 1.367039 1.234662 0.018308 -0.006737 -236509.000000 0 0 1
5.575082 32.898439 12.404988 35.598772 1.402928 1.214862 0.017580 -0.001868 -487718.000000 0 0 1
5.307682 31.588972 12.869588 34.520443 1.404328 1.188760 0.026603 -0.005916 627199.000000 0 0 1
4.031082 31.375842 13.753288 34.494145 1.443019 1.160683 0.027706 -0.006944 673008.000000 0 0 1
4.186782 31.902772 15.069788 35.530473 1.440306 1.132788 0.030985 -0.003967 583559.000000 0 0 1
3.047382 31.609772 15.899488 35.514194 1.474687 1.106612 0.036243 0.000288 854028.000000 0 0 1
3.509182 31.754172 17.370688 36.364579 1.460732 1.072783 0.024485 -0.000023 -53260.100000 0 0 1
3.844482 33.023910 17.765488 37.695773 1.454903 1.080048 0.025111 0.006309 -78490.300000 0 0 1
4.352882 33.037908 19.062088 38.390288 1.439797 1.051195 0.019889 0.007726 -283748.000000 0 0 1
4.741982 -34.299631 19.568488 39.772815 -1.433416 1.056403 0.011867 -0.000181 -299599.000000 0 0 1
3.654982 -33.415754 19.693388 38.958966 -1.461850 1.040846 0.003098 0.003862 -494766.000000 0 0 1
3.759482 -32.547504 20.771988 38.793675 -1.455798 1.005758 0.004565 -0.004137 983284.000000 0 0 1
2.472382 -31.724614 21.239788 38.258233 -1.493021 0.982230 -0.003488 -0.004525 1205100.000000 0 0 1
1.409882 -32.514964 21.733088 39.134867 -1.527462 0.982027 0.014094 -0.002967 -165221.000000 0 0 1
0.702382 -31.974444 22.788888 39.270751 -1.548833 0.951697 0.007769 0.000256 -456983.000000 0 0 1
-0.361918 -32.827664 23.498188 40.372656 1.559772 0.949571 0.020289 -0.002707 -552526.000000 0 0 1
-1.485718 -32.916464 22.669688 39.995197 1.525691 0.968167 0.013926 -0.006772 -129924.000000 0 0 1
-2.213218 -34.157440 22.935488 41.202739 1.506092 0.980449 0.025917 -0.013170 945762.000000 0 0 1
-3.719318 -33.983424 23.294788 41.368510 1.461785 0.972659 0.040374 -0.007155 489102.000000 0 0 1
-4.595418 -33.657664 22.251088 40.608708 1.435101 0.990898 0.025891 -0.014331 -850584.000000 0 0 1
-5.725418 -33.015554 22.747688 40.500180 1.399088 0.974395 0.036955 -0.006876 -386983.000000 0 0 1
-6.846618 -32.809614 21.720788 39.939199 1.365071 0.995783 0.032224 -0.007840 -147173.000000 0 0 1
-7.577218 -33.967684 21.389488 40.850068 1.351318 1.019714 0.017098 0.004033 -389037.000000 0 0 1
-8.680218 -33.539194 20.628588 40.320744 1.317545 1.033736 0.035768 -0.015254 -569159.000000 0 0 1
-9.837418 34.212159 20.663888 41.161182 -1.290808 1.044859 0.057803 -0.021823 -309571.000000 0 0 1
-10.335018 34.251568 21.962188 41.979998 -1.277745 1.020244 0.072205 -0.025285 -665145.000000 0 0 1
-11.654718 33.804307 22.120488 42.046161 -1.238788 1.016788 0.054004 -0.021646 5378.940000 0 0 1
-12.025618 33.690484 23.608588 42.860583 -1.227949 0.987447 0.050376 -0.020047 166676.000000 0 0 1
-12.451518 -33.868904 24.247688 43.475204 1.218495 0.979141 0.048684 -0.017892 493614.000000 0 0 1
-11.327118 -33.171764 24.788988 42.932080 1.241742 0.955256 0.046542 -0.013325 560519.000000 0 0 1
-11.759518 -31.796204 25.324588 42.315714 1.216557 0.929209 0.043904 -0.012041 145768.000000 0 0 1
-12.475618 -31.881284 26.549788 43.323765 1.197800 0.911169 0.038430 -0.007680 38855.300000 0 0 1
-13.265318 -30.735614 26.742988 42.846634 1.163353 0.896745 0.048070 -0.015423 -379175.000000 0 0 1
-13.812418 -30.711294 28.190488 43.916627 1.148150 0.873811 0.046832 -0.017220 946.818000 0 0 1
-12.932018 -30.294034 29.233888 44.040729 1.167332 0.844919 0.051231 -0.010169 686423.000000 0 0 1
-13.762418 -30.109164 30.384588 44.935388 1.142067 0.828226 0.053399 -0.010150 418380.000000 0 0 1
-12.967118 -29.775944 31.649188 45.347813 1.160074 0.798306 0.050841 -0.005007 -336261.000000 0 0 1
-13.791318 -29.303124 32.705688 46.027552 1.130909 0.780492 0.047743 -0.001926 97140.000000 0 0 1
-13.195918 -28.684694 33.858888 46.296525 1.139630 0.750499 0.046035 -0.006486 -668576.000000 0 0 1
-12.399418 -29.586014 -34.011375 46.753090 1.173936 2.385421 0.048135 0.000983 -337279.000000 0 0 1
-11.086018 -29.829374 34.304288 46.791832 1.214968 0.747890 0.041912 -0.001777 -272761.000000 0 0 1
-10.607018 -31.053194 -33.904475 47.183929 1.241646 2.372526 0.046539 -0.000496 -1065370.000000 0 0 1
-9.160518 -31.289304 -34.222275 47.266264 1.285987 2.380426 0.043375 -0.002954 -1045430.000000 0 0 1
-8.315418 -30.494424 -33.413375 45.994670 1.304582 2.383956 0.034948 -0.009706 -43323.100000 0 0 1
-6.988918 -31.007824 -33.337875 46.062393 1.349109 2.380024 0.037857 -0.015258 12189.200000 0 0 1
-6.084718 -30.143784 -32.548475 44.778061 1.371616 2.384571 0.031804 -0.019251 -497382.000000 0 0 1
-6.548218 -30.101674 -31.197675 43.843869 1.356597 2.362517 0.031496 -0.016915 -66947.400000 0 0 1
-5.603118 -29.579064 -30.335775 42.738451 1.383586 2.360011 0.024558 -0.013924 -128859.000000 0 0 1
-6.281118 -29.687974 -28.965275 41.950154 1.362300 2.332933 0.018370 -0.008557 192651.000000 0 0 1
-6.137718 -30.978204 -28.394375 42.468356 1.375199 2.303122 0.011571 -0.001669 -29685.600000 0 0 1
-7.076218 -31.218074 -27.357375 42.107802 1.347892 2.277984 0.011689 -0.009290 -18958.300000 0 0 1
-6.808618 -32.442694 -26.473575 42.423294 1.363932 2.244691 0.011147 -0.003403 -44784.100000 0 0 1
-5.925718 -32.327784 -25.397675 41.536028 1.389508 2.228702 -0.000540 0.001381 -291721.000000 0 0 1
-5.810418 -33.559574 -24.708075 42.077250 1.399358 2.198401 -0.000614 -0.001856 -282614.000000 0 0 1
-4.914618 -33.557554 -23.451975 41.234185 1.425377 2.175783 0.015126 -0.006297 -134727.000000 0 0 1
-5.371118 -32.825524 -22.311475 40.052039 1.408607 2.161640 0.018148 -0.003781 -32512.500000 0 0 1
-5.432718 -31.430904 -22.348875 38.947251 1.399641 2.181964 0.016227 0.002678 -75352.500000 0 0 1
-5.943318 -30.694944 -21.088575 37.712473 1.379538 2.164209 0.031093 -0.011489 -858652.000000 0 0 1
-7.291718 -30.723104 -20.750575 37.784450 1.337771 2.152183 0.052314 -0.026209 -709253.000000 0 0 1
-7.706018 -29.554964 -20.011675 36.515007 1.315740 2.150815 0.045792 -0.034819 -5364.110000 0 0 1
-7.899418 -28.259524 -20.872675 36.009305 1.298222 2.189091 0.052388 -0.035841 -81982.200000 0 0 1
-6.659118 -27.792154 -21.404475 35.705731 1.335626 2.213634 0.048727 -0.028111 73056.500000 0 0 1
-6.811818 -27.044744 -22.580375 35.884431 1.324056 2.251388 0.053834 -0.038073 -1237240.000000 0 0 1
-6.012618 -27.594024 -23.789375 36.925819 1.356254 2.270836 0.043150 -0.025422 692634.000000 0 0 1
-4.629918 -27.299444 -23.963775 36.619097 1.402797 2.284194 0.042744 -0.012197 867135.000000 0 0 1
-3.812118 -27.573854 -22.793375 35.977599 1.433416 2.256921 0.032123 -0.020347 -628707.000000 0 0 1
-2.326318 -27.120414 -22.959775 35.610109 1.485228 2.271498 0.042560 -0.017855 348029.000000 0 0 1
-2.113218 -25.754384 -23.065875 34.637964 1.488927 2.299513 0.037653 -0.017208 12269.200000 0 0 1
-2.385218 -24.979344 -21.937375 33.330246 1.475597 2.289198 0.049722 -0.026736 -695713.000000 0 0 1
-2.229618 -23.425044 -22.289375 32.411728 1.475901 2.329105 0.050954 -0.024021 213683.000000 0 0 1
-3.029218 -22.925744 -23.370675 32.877870 1.439426 2.361478 0.055949 -0.027162 30217.500000 0 0 1
-4.407218 -22.883644 -23.097575 32.811320 1.380533 2.351742 0.060662 -0.027987 -668236.000000 0 0 1
-5.341518 -23.036144 -24.274975 33.889086 1.342947 2.369291 0.051488 -0.028674 -338070.000000 0 0 1
-5.372218 -21.939444 -25.127975 33.787794 1.330656 2.409384 0.059788 -0.024191 -102977.000000 0 0 1
-5.860718 -22.326844 -26.347975 35.029299 1.314091 2.422145 0.047452 -0.022312 -229896.000000 0 0 1
-6.126618 -21.103044 -27.350775 35.084737 1.288245 2.464765 0.064738 -0.014354 160941.000000 0 0 1
-6.300118 -21.344744 -28.731775 36.342874 1.283786 2.482544 0.071140 -0.018906 843451.000000 0 0 1
-5.008618 -21.660544 -29.284775 36.767696 1.343558 2.492249 0.057720 -0.021381 771174.000000 0 0 1
-5.096618 -22.064944 -30.815575 38.241822 1.343795 2.507835 0.065420 -0.025390 -15695.600000 0 0 1
-5.379518 -20.983744 -31.647875 38.351593 1.319835 2.541359 0.085426 -0.027474 631124.000000 0 0 1
-6.591618 -21.261944 -32.396675 39.307305 1.270173 2.539566 0.071216 -0.024103 673744.000000 0 0 1
-6.707318 -20.610244 -33.770175 40.127235 1.256170 2.570993 0.063266 -0.016480 597653.000000 0 0 1
-5.602018 -21.001144 34.164488 40.492504 1.310118 0.566613 0.066158 -0.014548 -7154.920000 0 0 1
-5.628418 -20.335544 32.922588 39.103839 1.300778 0.569951 0.070942 -0.013144 -176743.000000 0 0 1
-4.477318 -20.597844 31.975788 38.298415 1.356758 0.582824 0.051940 -0.012399 -1485520.000000 0 0 1
-4.487518 -21.966544 31.549988 38.704892 1.369280 0.617822 0.054065 -0.011192 582421.000000 0 0 1
-3.318618 -22.330044 30.802288 38.189332 1.423259 0.632473 0.053084 -0.011426 1213720.000000 0 0 1
-1.905318 -22.200544 31.463188 38.554204 1.485183 0.616207 0.037736 -0.014309 -342411.000000 0 0 1
-1.425918 -20.911044 31.120588 37.520608 1.502712 0.592716 0.032050 -0.005233 112787.000000 0 0 1
-0.243618 -20.463744 31.777888 37.797597 1.558892 0.572151 0.040368 -0.008762 292054.000000 0 0 1
-0.513618 -20.034444 33.233988 38.809029 1.545165 0.542643 0.027727 -0.012803 230432.000000 0 0 1
-1.439218 -18.948244 33.423088 38.447498 1.494987 0.516976 0.014894 -0.010636 242732.000000 0 0 1
-1.678018 -18.551144 -33.976075 38.747056 1.480588 2.640105 0.021812 -0.015363 223123.000000 0 0 1
-2.734218 -17.488344 -33.614875 37.990498 1.415707 2.656911 0.013642 -0.021126 430153.000000 0 0 1
-2.280518 -16.177344 -33.937575 37.665186 1.430749 2.692942 0.021809 -0.024212 969184.000000 0 0 1
-3.450318 -15.326244 -33.926575 37.387310 1.349363 2.707937 0.030714 -0.024722 902752.000000 0 0 1
-3.099418 -13.862044 -34.269975 37.097086 1.350824 2.748664 0.027541 -0.023127 -207477.000000 0 0 1
-2.256218 -13.261544 -33.273175 35.889598 1.402278 2.757391 0.025213 -0.021353 201954.000000 0 0 1
-2.018818 -11.856144 -33.405475 35.504500 1.402138 2.796015 0.019027 -0.018478 54155.400000 0 0 1
-1.337118 -11.354944 34.061388 35.929108 1.453580 0.323852 0.021558 -0.019648 -391399.000000 0 0 1
-2.182318 -11.452344 32.933288 34.935944 1.382497 0.340235 0.021447 -0.015088 -139122.000000 0 0 1
-1.568618 -10.994544 31.789088 33.673234 1.429080 0.336106 0.028831 -0.009411 -158028.000000 0 0 1
-0.707718 -12.037844 31.054988 33.314004 1.512073 0.370379 0.031327 -0.013781 -66660.200000 0 0 1
-1.497118 -13.038244 30.431488 33.140800 1.456472 0.407162 0.026182 -0.019444 -26111.400000 0 0 1
-0.690618 -14.042244 29.921488 33.059901 1.521654 0.439255 0.027693 -0.022475 -471547.000000 0 0 1
-0.951018 -15.504544 30.415088 34.152202 1.509535 0.472189 0.020590 -0.020293 115727.000000 0 0 1
-2.123118 -16.125444 29.918588 34.053774 1.439887 0.497939 0.020565 -0.013739 271805.000000 0 0 1
-2.294718 -17.382544 30.476188 35.159872 1.439542 0.522070 0.023571 -0.008218 -79944.500000 0 0 1
-2.779218 -18.470944 29.466588 34.888102 1.421452 0.564974 0.025052 0.004323 -30945.100000 0 0 1
-4.024618 -18.101444 28.895788 34.334042 1.352018 0.570544 0.043361 0.003559 34057.300000 0 0 1
-4.507518 -19.119744 28.010088 34.211802 1.339272 0.611608 0.048800 0.000488 135874.000000 0 0 1
-3.738318 -19.314744 26.662988 33.135318 1.379613 0.635677 0.047795 -0.008136 -4542.360000 0 0 1
-4.450518 -20.133044 25.714788 32.960536 1.353240 0.675860 0.064869 -0.008609 -5404.920000 0 0 1
-4.152118 -21.498544 25.727388 33.783517 1.380010 0.705115 0.058448 -0.012055 -397740.000000 0 0 1
-29.329768 -33.705081 -0.383812 44.681261 0.854698 1.579386 0.007839 -0.014250 -855415.000000 0 0 1
-28.400508 -32.772881 -0.003612 43.366469 0.856752 1.570880 0.014463 -0.015447 -698210.000000 0 0 1
-28.639408 -32.181781 1.285988 43.099147 0.843575 1.540954 0.014617 -0.018488 60712.200000 0 0 1
-27.779208 -30.940981 1.643888 41.614073 0.839191 1.531283 0.030628 -0.013139 -207605.000000 0 0 1
-26.440878 -31.185381 1.938388 40.931716 0.867545 1.523422 0.033277 -0.010429 -589405.000000 0 0 1
-25.658668 -29.988881 2.091588 39.523094 0.863057 1.517851 0.047076 -0.007435 705741.000000 0 0 1
-24.167718 -30.268381 2.419988 38.808631 0.897003 1.508399 0.016827 -0.007651 172265.000000 0 0 1
-24.020318 -31.033781 3.558988 39.404792 0.912108 1.480354 0.020721 -0.006475 -629608.000000 0 0 1
-22.701218 -30.962281 3.997288 38.600343 0.938141 1.467055 0.015843 -0.000863 -772499.000000 0 0 1
-22.399618 -31.694881 5.307188 39.172371 0.955570 1.434895 0.027695 -0.001476 -29522.000000 0 0 1
-22.977618 -31.066481 6.431088 39.172134 0.933967 1.405875 0.021438 -0.001008 -181057.000000 0 0 1
-22.485018 -31.636181 7.632188 39.555964 0.952900 1.376632 0.023831 -0.010553 -174613.000000 0 0 1
-22.849418 -30.760981 8.825688 39.322089 0.931916 1.344422 0.024235 -0.014875 -566247.000000 0 0 1
-22.138418 -29.589481 9.008788 38.036893 0.928458 1.331681 0.036381 -0.013730 -197513.000000 0 0 1
-22.769918 -28.859981 10.053088 38.110789 0.902812 1.303851 0.029712 -0.012548 107482.000000 0 0 1
-21.949218 -27.716281 10.705388 36.940029 0.900999 1.276774 0.037174 -0.018259 669801.000000 0 0 1
-20.699118 -28.156081 11.248888 36.711795 0.936863 1.259376 0.035137 -0.017920 146932.000000 0 0 1
-20.063818 -27.134081 11.938788 35.795947 0.934093 1.230758 0.037840 -0.020104 -456499.000000 0 0 1
-18.686518 -27.460681 12.495288 35.488128 0.973290 1.210985 0.043908 -0.017829 -616575.000000 0 0 1
-18.762718 -28.262581 13.676588 36.576798 0.984731 1.187570 0.054813 -0.024268 -122197.000000 0 0 1
-17.502518 -28.792481 14.054688 36.508621 1.024599 1.175622 0.069883 -0.021360 121389.000000 0 0 1
-17.485018 -29.906981 15.116988 37.797840 1.041743 1.159341 0.088832 -0.038446 -316838.000000 0 0 1
-17.847418 -31.144781 14.611088 38.755795 1.050431 1.184237 0.094203 -0.034811 -82087.400000 0 0 1
-18.088418 -32.061081 15.659188 40.003925 1.057127 1.168599 0.104069 -0.032809 75066.100000 0 0 1
-17.689818 -33.480281 15.294788 40.838578 1.084715 1.186919 0.098861 -0.033815 115885.000000 0 0 1
-17.948318 34.279756 16.264888 41.973686 -1.088460 1.172876 0.106383 -0.031039 67106.700000 0 0 1
-17.322218 33.086756 15.889088 40.586399 -1.088495 1.168548 0.091683 -0.029262 19413.100000 0 0 1
-17.514618 32.050456 16.994488 40.284069 -1.070667 1.135294 0.093102 -0.033196 -61346.300000 0 0 1
-18.801318 31.465556 16.981288 40.397214 -1.032202 1.136957 0.094887 -0.031397 281890.000000 0 0 1
-19.004218 30.511956 18.032788 40.215932 -1.013748 1.105823 0.081719 -0.022734 -25654.400000 0 0 1
-19.501018 30.877856 19.443688 41.373768 -1.007498 1.081560 0.065012 -0.024801 -101708.000000 0 0 1
-18.547918 31.619656 20.160388 41.836218 -1.040292 1.067988 0.072485 -0.021849 147757.000000 0 0 1
-19.182818 32.247056 21.279788 43.135629 -1.034157 1.054891 0.062062 -0.018020 70676.000000 0 0 1
-18.322318 33.316756 21.910988 43.883994 -1.067997 1.048013 0.047237 -0.002243 43833.300000 0 0 1
-17.164018 32.887156 22.609788 43.443884 -1.089778 1.023434 0.039589 -0.009930 -101064.000000 0 0 1
-16.866518 33.691356 23.735188 44.530282 -1.106654 1.008640 0.042099 -0.011490 -123059.000000 0 0 1
-17.431618 33.026056 25.050788 44.968029 -1.085146 0.979931 0.024741 -0.009389 676771.000000 0 0 1
-18.847018 33.053656 24.817988 45.427819 -1.052581 0.992836 -0.000346 -0.008044 278970.000000 0 0 1
-19.543518 32.187956 25.690988 45.585529 -1.025122 0.972086 0.014619 -0.007907 282646.000000 0 0 1
-21.071818 32.457656 25.577488 46.386731 -0.994977 0.986759 0.072672 -0.013712 375784.000000 0 0 1
-21.721918 32.124056 24.365088 45.797971 -0.976231 1.009821 0.055299 -0.004994 839942.000000 0 0 1
-23.125218 32.438856 24.491588 46.764227 -0.951474 1.019579 0.033510 -0.012500 1146170.000000 0 0 1
-23.939118 32.049256 23.202488 46.244909 -0.929252 1.045198 0.026273 -0.009908 40271.300000 0 0 1
-23.754118 32.879756 22.046288 46.166820 -0.945159 1.072949 0.022788 -0.003153 90200.500000 0 0 1
-23.643318 32.095656 20.828288 44.977274 -0.935893 1.089324 0.013269 -0.003944 -15170.300000 0 0 1
-23.290318 33.065956 19.613488 44.949808 -0.957151 1.119267 0.026594 -0.008539 780749.000000 0 0 1
-21.961918 33.602656 19.707688 44.719764 -0.991911 1.114426 0.053465 -0.019554 566524.000000 0 0 1
-21.593618 34.237056 18.509788 44.509241 -1.008102 1.141904 0.067207 -0.017915 482042.000000 0 0 1
-20.173018 -33.880581 18.658088 43.623029 1.033755 1.128836 0.076870 -0.025848 439372.000000 0 0 1
-20.230418 -32.756981 19.496288 43.155473 1.017543 1.102050 0.073261 -0.027980 108397.000000 0 0 1
-18.938918 -32.262181 19.753288 42.305122 1.039967 1.084987 0.084432 -0.034856 -135374.000000 0 0 1
-19.064118 -31.169381 20.875688 42.080462 1.021869 1.051707 0.064368 -0.028143 -56998.800000 0 0 1
-19.476818 -29.958981 20.262988 41.078896 0.994339 1.054951 0.090660 -0.031197 77338.400000 0 0 1
-19.923018 -29.116381 21.261388 41.191467 0.970716 1.028435 0.085187 -0.026383 -105702.000000 0 0 1
-20.781718 -27.904481 20.776288 40.523993 0.930667 1.032480 0.066763 -0.025570 -11294.600000 0 0 1
-20.046118 -26.710781 20.435988 39.152807 0.926983 1.021655 0.059867 -0.014286 192052.000000 0 0 1
-20.799218 -25.566781 20.217088 38.665210 0.887863 1.020576 0.055074 0.002878 -418063.000000 0 0 1
-21.831018 -25.440581 19.038988 38.552556 0.861608 1.054290 0.052937 -0.004573 -67483.600000 0 0 1
-23.057418 -26.008981 19.403088 39.806927 0.845480 1.061652 0.052641 -0.005605 236149.000000 0 0 1
-24.090518 -25.823981 18.428188 39.835025 0.820113 1.089856 0.054249 -0.006606 -131062.000000 0 0 1
-25.541328 -25.840281 18.911288 40.959937 0.791216 1.090883 0.036775 -0.006346 -149465.000000 0 0 1
-26.160808 -27.035581 19.318088 42.290650 0.801841 1.096409 0.030175 -0.011254 -145763.000000 0 0 1
-26.312248 -28.006981 18.298688 42.562512 0.816588 1.126387 0.032337 -0.016999 -792746.000000 0 0 1
-26.998918 -29.309281 18.735788 44.034138 0.826406 1.131301 0.027789 -0.023027 91067.600000 0 0 1
-28.370968 -29.228881 19.064088 44.974201 0.800291 1.133061 0.021139 -0.020351 214723.000000 0 0 1
-29.155848 -29.699381 17.959788 45.328476 0.794633 1.163406 0.019298 -0.016277 983577.000000 0 0 1
-30.689548 -29.319681 17.972988 46.092520 0.762575 1.170238 0.019564 -0.014739 1196100.000000 0 0 1
-30.937458 -27.949381 17.618388 45.262588 0.734699 1.170981 0.028541 -0.013646 -980091.000000 0 0 1
-32.287838 -27.680381 17.663488 46.051133 0.708717 1.177146 0.018640 0.005490 -1193390.000000 0 0 1
-32.786898 -26.353281 16.984188 45.364510 0.677038 1.187053 0.018255 -0.003404 -235221.000000 0 0 1
-32.762988 -26.469581 15.617688 44.921758 0.679546 1.215718 0.037520 -0.017392 268327.000000 0 0 1
-33.379628 -25.335181 14.987388 44.504975 0.649237 1.227325 0.039040 -0.012024 30915.800000 0 0 1
-32.454218 -24.127281 14.732988 43.040248 0.639280 1.221425 0.027770 -0.005094 137102.000000 0 0 1
-31.969698 -23.545381 15.978388 42.799012 0.634799 1.188194 0.014860 -0.002603 159040.000000 0 0 1
-31.330018 -22.314481 15.770488 41.571798 0.618893 1.181697 0.016212 0.004480 34896.400000 0 0 1
-32.292768 -21.104181 15.926988 41.735815 0.578850 1.179254 0.016888 0.003109 159720.000000 0 0 1
-32.636908 -20.833181 17.258088 42.391400 0.568129 1.151505 0.016507 0.005557 -20622.800000 0 0 1
-33.492188 -19.727981 17.259388 42.530065 0.532316 1.152925 0.021918 -0.002307 -339644.000000 0 0 1
-33.924988 -19.242281 18.661588 43.236849 0.515953 1.124516 0.009925 0.001311 -912088.000000 0 0 1
-35.015601 -19.853881 19.232788 44.611311 0.515802 1.125064 0.023647 -0.002233 -694677.000000 0 0 1
-35.014992 -19.504281 20.585588 45.058108 0.508222 1.096326 0.019226 -0.001098 -289646.000000 0 0 1
35.206588 -19.496081 21.386688 45.574022 -0.505727 1.082328 0.024883 -0.004826 -308419.000000 0 0 1
34.563468 -20.677981 21.797888 45.796945 -0.539140 1.074732 0.027125 -0.001627 -144212.000000 0 0 1
35.351228 -21.601281 22.536088 47.161424 -0.548503 1.072591 0.023734 0.001198 -438791.000000 0 0 1
34.695168 -22.928681 23.039588 47.542631 -0.583972 1.064880 0.027964 0.006887 -197061.000000 0 0 1
33.831838 -22.764381 24.129388 47.381829 -0.592284 1.036479 0.039156 -0.007497 -6135.100000 0 0 1
33.344878 -24.009481 24.537388 47.858327 -0.624046 1.032459 0.033423 -0.010250 -574110.000000 0 0 1
32.460688 -24.056081 25.819388 47.948223 -0.637770 1.002158 0.033754 -0.011694 118226.000000 0 0 1
31.140838 -23.639681 25.536588 46.698005 -0.649313 0.992205 0.039615 -0.012036 72809.000000 0 0 1
30.325428 -23.634081 26.712188 46.816048 -0.662021 0.963587 0.025060 -0.012815 -103571.000000 0 0 1
29.000898 -24.381181 26.635488 46.313533 -0.699073 0.958055 0.021268 -0.018869 -997688.000000 0 0 1
28.037298 -23.686181 25.937688 44.943174 -0.701473 0.955596 0.027824 -0.018833 -486919.000000 0 0 1
26.879898 -24.506681 25.750388 44.566678 -0.739247 0.954772 0.020024 -0.012437 462211.000000 0 0 1
25.618598 -23.680081 25.398788 43.152720 -0.746097 0.941496 0.024084 -0.006834 -323593.000000 0 0 1
25.478798 -23.037181 24.122388 41.973450 -0.735115 0.958552 0.033063 -0.010687 -138714.000000 0 0 1
26.354898 -21.967781 23.857488 41.789278 -0.694858 0.963195 0.039728 -0.008406 -212633.000000 0 0 1
26.235798 -21.387981 22.421488 40.601551 -0.683954 0.985757 0.048424 -0.008800 266355.000000 0 0 1
25.140298 -20.494881 22.304288 39.364400 -0.683953 0.968410 0.034918 -0.010582 292837.000000 0 0 1
25.026698 -19.991681 20.993488 38.297904 -0.674017 0.990630 0.021099 -0.007634 -210642.000000 0 0 1
24.306098 -18.646981 20.888188 37.078467 -0.654402 0.972360 0.030655 -0.001314 -232646.000000 0 0 1
25.012098 -17.488081 21.275788 37.203457 -0.610179 0.962005 0.037824 -0.018645 43436.000000 0 0 1
25.261998 -17.378881 22.671388 38.133789 -0.602590 0.934125 0.036616 -0.011776 -104248.000000 0 0 1
25.546998 -16.001581 23.259088 38.074728 -0.559576 0.913625 0.057028 -0.006253 -139798.000000 0 0 1
24.333498 -15.288781 23.343688 37.024232 -0.560970 0.888602 0.036794 -0.001174 -38179.800000 0 0 1
24.413798 -14.062181 24.044188 37.039188 -0.522580 0.864323 0.038479 -0.001906 -481942.000000 0 0 1
23.139598 -13.211381 24.001088 35.861314 -0.518780 0.837563 0.020455 -0.003813 103315.000000 0 0 1
22.046198 -13.974081 24.579088 35.853052 -0.564941 0.815436 0.028039 0.000853 -209642.000000 0 0 1
20.920798 -13.192381 24.330388 34.694185 -0.562607 0.793603 0.024103 -0.001789 -419366.000000 0 0 1
19.589998 -13.879881 24.755888 34.485839 -0.616420 0.770078 0.034208 0.001456 271237.000000 0 0 1
19.132898 -14.947781 23.870288 34.048415 -0.663210 0.793901 0.024416 0.000929 499431.000000 0 0 1
17.813598 -15.351181 24.227888 33.763495 -0.711286 0.770480 0.026759 0.007411 146586.000000 0 0 1
17.391198 -16.509481 23.325888 33.453158 -0.759395 0.799214 0.020251 0.004336 -310465.000000 0 0 1
17.959198 -17.802381 23.615988 34.600180 -0.781013 0.819565 0.009352 0.003499 94853.400000 0 0 1
17.579298 -18.894181 22.777388 34.421377 -0.821433 0.847683 0.011751 0.002101 -225293.000000 0 0 1
17.921798 -20.286881 23.353288 35.750866 -0.847218 0.858963 -0.000214 0.003168 -449794.000000 0 0 1
17.228098 -20.669081 24.515688 36.401061 -0.875948 0.831879 0.002011 0.004963 228144.000000 0 0 1
17.631098 -21.942581 24.937488 37.605994 -0.893918 0.845810 0.021527 -0.000082 -41960.200000 0 0 1
17.121298 -23.187281 24.089688 37.564637 -0.934766 0.874623 0.009826 -0.000662 -156463.000000 0 0 1
17.695598 -23.310681 22.845788 37.127511 -0.921484 0.907988 0.011548 0.005102 58221.000000 0 0 1
18.695998 -24.334981 22.838088 38.253234 -0.915700 0.931010 0.025363 -0.006050 257877.000000 0 0 1
19.717398 -24.265681 21.682088 38.048811 -0.888442 0.964474 0.024068 0.012310 34804.600000 0 0 1
19.187698 -24.756781 20.458188 37.411274 -0.911456 0.992204 0.038180 -0.000378 159099.000000 0 0 1
20.245598 -25.283481 19.724288 37.923425 -0.895602 1.023819 0.028435 -0.008597 -202917.000000 0 0 1
19.705698 -25.920581 18.417788 37.408635 -0.920778 1.056020 0.037808 -0.016987 444270.000000 0 0 1
18.981598 -27.112881 18.775688 38.051752 -0.960006 1.054773 0.060544 -0.020410 370961.000000 0 0 1
18.358698 -27.687081 17.637188 37.612321 -0.985282 1.082728 0.062862 -0.022986 -31949.300000 0 0 1
17.545498 -28.953581 17.921988 38.306031 -1.025986 1.083925 0.059782 -0.021371 -380629.000000 0 0 1
16.378498 -28.746381 18.652088 37.980390 -1.052910 1.057447 0.061650 -0.029870 -119390.000000 0 0 1
15.686198 -29.996781 18.934888 38.786514 -1.088974 1.060791 0.079524 -0.034990 624289.000000 0 0 1
14.412298 -29.710081 19.780488 38.492479 -1.119141 1.031096 0.066577 -0.026679 649876.000000 0 0 1
13.402598 -28.913781 19.134588 37.172151 -1.136743 1.030073 0.058408 -0.025038 503804.000000 0 0 1
12.241598 -28.781981 19.947588 37.096704 -1.168653 1.003067 0.022995 -0.022432 -712441.000000 0 0 1
11.153498 -28.098281 19.200588 35.813077 -1.192926 1.004946 0.020430 -0.027189 -1206060.000000 0 0 1
10.525398 -29.036481 18.357788 35.929231 -1.223039 1.034515 0.027485 -0.020758 -9718.620000 0 0 1
10.067398 -28.469181 17.162188 34.733089 -1.230896 1.053978 0.026324 -0.013730 -129270.000000 0 0 1
10.257898 -29.411581 15.955488 34.997760 -1.235217 1.097413 0.020450 -0.008886 -429678.000000 0 0 1
9.268298 -30.377781 15.867288 35.503264 -1.274666 1.107472 0.011013 -0.005603 -152021.000000 0 0 1
9.488398 -31.260681 14.764288 35.850301 -1.276109 1.146333 0.001123 -0.003486 -243481.000000 0 0 1
8.324298 -32.230381 14.509688 36.312842 -1.318045 1.159744 -0.004212 -0.000794 -274592.000000 0 0 1
8.087498 -33.232381 15.473888 37.539845 -1.332075 1.145930 0.000813 -0.004372 232684.000000 0 0 1
7.009798 -34.084581 15.092688 37.930004 -1.367965 1.161560 -0.001868 0.001319 131280.000000 0 0 1
6.844198 33.543556 16.155588 37.855200 1.369520 1.129875 0.013934 -0.005774 -339819.000000 0 0 1
7.909898 32.631156 16.244188 37.299228 1.332980 1.120192 0.020188 -0.012397 -303587.000000 0 0 1
7.848098 31.818756 17.372288 37.092078 1.328973 1.083367 0.023006 -0.021139 -652530.000000 0 0 1
9.144498 31.065056 17.552188 36.833936 1.284516 1.074102 0.035298 -0.022945 -716523.000000 0 0 1
9.499298 30.160756 16.555688 35.693118 1.265676 1.088478 0.030116 -0.021840 -139178.000000 0 0 1
10.691698 29.461356 16.913088 35.613711 1.222671 1.075942 0.049299 -0.028431 303300.000000 0 0 1
11.440598 28.867056 15.670188 34.781446 1.193466 1.103434 0.043888 -0.025673 -110925.000000 0 0 1
10.778098 27.937956 14.806488 33.405521 1.202602 1.111592 0.048642 -0.023957 -262522.000000 0 0 1
11.720298 27.294056 13.993988 32.835386 1.165198 1.130524 0.041651 -0.013562 -215637.000000 0 0 1
-9.188118 -9.097244 18.979751 22.965459 0.780428 0.598028 0.036648 -0.019212 -95073.600000 0 1 0
-9.248418 -9.384244 17.612551 21.995436 0.792688 0.642272 0.029140 -0.021841 -82134.900000 0 1 0
-9.334318 -10.796744 17.431851 22.529283 0.857916 0.686070 0.040566 -0.020116 80294.700000 0 1 0
-9.729118 -11.191644 15.953251 21.781066 0.855192 0.748902 0.036225 -0.014740 -858172.000000 0 1 0
-11.061518 -10.880744 15.727351 22.092925 0.777160 0.778635 0.042629 -0.020308 -657468.000000 0 1 0
-11.622218 -11.295844 14.480151 21.733541 0.771158 0.841617 0.048964 -0.024845 143763.000000 0 1 0
-11.738118 -12.825444 14.255151 22.482988 0.829635 0.884028 0.033373 -0.020533 -929408.000000 0 1 0
-10.589418 -13.430844 13.709451 21.919681 0.903144 0.895101 0.041872 -0.020699 -17214.100000 0 1 0
-10.530018 -14.850044 13.854951 22.877167 0.953996 0.920247 0.047861 -0.020958 55542.000000 0 1 0
-10.095018 -15.247444 15.281051 23.830746 0.985976 0.874693 0.046205 -0.025920 341686.000000 0 1 0
-11.179218 -15.096744 16.215551 24.815936 0.933400 0.858686 0.051161 -0.012948 52465.400000 0 1 0
-10.799818 -15.215844 17.534951 25.605321 0.953540 0.816444 0.068102 -0.015361 -514095.000000 0 0 1
-11.834418 -14.874944 18.652351 26.631328 0.898748 0.794851 0.044690 -0.008168 -100439.000000 0 0 1
-12.301518 -13.514244 18.669151 26.124688 0.832340 0.774720 0.054735 -0.009900 32917.400000 0 0 1
-13.364818 -13.312944 17.765451 25.912624 0.783454 0.815382 0.053419 -0.020035 618387.000000 0 0 1
-14.803018 -13.459644 18.421151 27.196143 0.737902 0.826650 0.034015 -0.012114 692292.000000 0 0 1
-15.214418 -14.757744 18.821751 28.346567 0.770163 0.844658 0.036191 -0.000720 -175533.000000 0 0 1
-16.283318 -14.770844 19.719351 29.532644 0.736732 0.839663 0.040054 -0.002155 -422136.000000 0 0 1
-16.737718 -16.177744 20.170451 30.801261 0.768387 0.856802 0.029321 0.006020 -462501.000000 0 0 1
-17.462518 -16.938744 19.285351 31.044893 0.770174 0.900512 0.019802 0.007634 -462083.000000 0 0 1
-17.641618 -18.279744 19.702051 32.148819 0.803161 0.911148 0.016779 0.005599 403647.000000 0 0 1
-18.960818 -18.907344 19.127151 32.906659 0.783986 0.950527 0.027719 0.006304 274963.000000 0 0 1
-18.950518 -19.016144 17.672751 32.141282 0.787127 0.988617 0.031312 -0.001215 68551.900000 0 0 1
-19.097018 -17.787344 16.954951 31.121634 0.749906 0.994650 0.032305 -0.006708 -796423.000000 0 0 1
-18.710718 -17.834944 15.478551 30.129085 0.761439 1.031257 0.030099 -0.016606 -206271.000000 0 0 1
-19.582918 -18.630544 14.663851 30.750876 0.760481 1.073718 0.027346 -0.011764 442616.000000 0 0 1
-19.067218 -18.667544 13.348251 29.836418 0.774807 1.106961 0.028158 -0.013337 193525.000000 0 0 1
-19.441618 -20.018044 12.689451 30.654865 0.800005 1.144012 0.027845 -0.003325 793045.000000 0 0 1
-18.573918 -21.136044 13.119251 31.045733 0.849830 1.134508 0.026878 0.002642 618307.000000 0 0 1
-18.435118 -22.088644 12.088651 31.207327 0.875313 1.173024 0.022322 -0.001388 -500431.000000 0 0 1
-17.726318 -23.317944 12.657451 31.908619 0.920799 1.162901 0.023398 -0.002037 -189759.000000 0 0 1
-17.601718 -24.493644 11.851351 32.406999 0.947680 1.196408 0.032153 -0.014780 -820868.000000 0 0 1
-16.670418 -24.542844 10.867751 31.596868 0.974141 1.219676 0.029994 -0.012021 -1017190.000000 0 0 1
-16.904318 -25.761524 9.975151 32.386969 0.990086 1.257707 0.039494 -0.009596 423415.000000 0 0 1
-18.088018 -25.740524 9.159051 32.766434 0.958257 1.287497 0.037272 -0.008504 254392.000000 0 0 1
-18.254818 -26.902084 8.368251 33.570644 0.974601 1.318867 0.048222 -0.009181 670469.000000 0 0 1
-19.655118 -26.904154 7.675951 34.191774 0.939853 1.344369 0.045834 -0.015924 567483.000000 0 0 1
-19.573418 -25.846814 6.752351 33.117529 0.922649 1.365466 0.047163 -0.018764 18421.400000 0 0 1
-20.709118 -25.671214 5.935351 33.512792 0.891980 1.392750 0.044481 -0.019921 -28211.700000 0 0 1
-20.583618 -24.331044 5.221251 32.294683 0.868640 1.408408 0.043872 -0.022262 282042.000000 0 0 1
-21.418818 -24.319944 4.047151 32.658918 0.848741 1.446555 0.038201 -0.017665 266898.000000 0 0 1
-21.469918 -23.035644 3.449551 31.678032 0.820564 1.461686 0.043069 -0.018669 -82130.300000 0 0 1
-22.167118 -23.013244 2.087551 32.021062 0.804124 1.505557 0.027864 -0.007591 22205.100000 0 0 1
-21.426118 -23.765544 1.116451 32.017591 0.837119 1.535919 0.022826 -0.008548 313392.000000 0 0 1
-21.819818 -23.407944 -0.197049 32.001174 0.820498 1.576954 0.010078 0.004003 -186348.000000 0 0 1
-21.141018 -24.319744 -1.216949 32.247071 0.855207 1.608544 0.005405 0.003238 797794.000000 0 0 1
-19.713318 -24.127744 -1.322249 31.185114 0.885752 1.613209 0.007486 0.000884 1085480.000000 0 0 1
-19.155818 -24.675744 -2.524549 31.340247 0.910674 1.651437 0.007100 0.005851 136783.000000 0 0 1
-18.924718 -26.195094 -2.747349 32.432636 0.945160 1.655607 0.009375 0.010002 238423.000000 0 0 1
-20.079318 -27.006544 -3.060349 33.791984 0.931469 1.661485 0.022648 0.008958 259353.000000 0 0 1
-19.724318 -28.180534 -3.711849 34.597241 0.960119 1.678291 0.032420 0.020691 -97743.000000 0 0 1
-20.927218 -28.884844 -4.408549 35.940479 0.943813 1.693769 0.027245 0.017277 240196.000000 0 0 1
-21.360718 -28.134774 -5.495149 35.749720 0.921415 1.725120 0.027787 0.021500 -328061.000000 0 0 1
-22.052218 -28.998954 -6.365849 36.983290 0.920641 1.743786 0.026244 0.007472 -127828.000000 0 0 1
-22.561718 -28.303634 -7.658249 36.996968 0.897807 1.779300 0.021740 0.026282 -577519.000000 0 0 1
-21.616518 -28.232034 -8.668349 36.598660 0.917339 1.809917 0.046137 0.021025 -492506.000000 0 0 1
-22.064818 -28.091974 -9.981949 37.089817 0.904991 1.843285 0.041559 0.019113 -89767.600000 0 0 1
-22.810318 -26.738404 -10.332949 36.633628 0.864510 1.856739 0.028980 0.021927 -355499.000000 0 0 1
-22.087618 -25.606744 -10.644649 35.452458 0.859050 1.875753 0.018365 0.026161 -330464.000000 0 0 1
-21.834318 -24.818444 -9.481549 34.388841 0.849276 1.850131 -0.005035 0.031435 83345.300000 0 0 1
-21.441418 -23.387044 -9.831149 33.216559 0.828773 1.871269 -0.003118 0.021508 419936.000000 0 0 1
-22.575718 -22.671744 -10.328449 33.620647 0.787520 1.883052 0.001690 0.018739 407756.000000 0 0 1
-22.360318 -21.261044 -10.421749 32.567295 0.760203 1.896533 0.012395 0.016336 -340663.000000 0 0 1
-23.533318 -20.397444 -10.868349 32.984751 0.714137 1.906566 0.028432 0.017951 -669412.000000 0 0 1
-23.941018 -20.469644 -12.213049 33.783683 0.707391 1.940680 0.022170 0.019959 416573.000000 0 0 1
-25.170888 -19.867744 -12.575149 34.444670 0.668191 1.944518 0.023553 0.005799 10560.200000 0 0 1
-25.177578 -18.322844 -12.450049 33.535665 0.629105 1.951149 0.035273 0.008051 -924064.000000 0 0 1
-24.259718 -17.704744 -13.339649 32.862412 0.630447 1.988786 0.043448 0.025464 535128.000000 0 0 1
-24.012918 -16.309544 -13.068249 31.833954 0.596629 1.993813 0.052868 0.003229 -288023.000000 0 0 1
-22.994918 -16.097044 -11.960449 30.511202 0.610744 1.973603 0.029531 0.005453 -708616.000000 0 0 1
-23.571718 -16.510844 -10.718249 30.710173 0.611029 1.927314 0.055717 -0.005590 642630.000000 0 0 1
-22.651818 -16.399844 -9.609949 29.570439 0.626650 1.901792 0.029040 -0.003564 396916.000000 0 0 1
-23.215718 -16.854344 -8.224149 29.844181 0.627956 1.849979 0.020218 -0.011646 11010.600000 0 0 1
-23.294618 -18.266344 -8.118549 30.695430 0.664998 1.838469 0.031919 -0.006781 617601.000000 0 0 1
-24.379318 -18.728944 -7.286849 31.594662 0.655067 1.803527 0.044110 -0.007749 569689.000000 0 0 1
-24.376118 -20.190744 -6.893649 32.394192 0.691761 1.785241 0.044478 0.001644 -313820.000000 0 0 1
-25.011518 -20.930244 -7.871549 33.550148 0.696795 1.807624 0.031841 -0.014927 -75720.400000 0 0 1
-25.336728 -22.225944 -7.421449 34.511162 0.720087 1.787534 0.044474 0.001660 14178.100000 0 0 1
-25.757968 -23.075144 -8.618749 35.640119 0.730515 1.815045 0.018485 0.019780 47389.200000 0 0 1
-26.074338 -24.352344 -8.174849 36.602404 0.751263 1.796038 0.025575 0.017966 -213536.000000 0 0 1
-26.018838 -25.372054 -9.154749 37.477067 0.772813 1.817569 0.009715 0.028096 -71162.600000 0 0 1
-26.584318 -26.711354 -8.557749 38.645278 0.787782 1.794091 0.020708 0.022647 324727.000000 0 0 1
-25.867398 -27.287504 -7.438749 38.328386 0.812108 1.766115 0.026216 0.012038 472291.000000 0 0 1
-26.637198 -28.338004 -6.889349 39.497417 0.816326 1.746118 0.024887 0.008425 -102485.000000 0 0 1
-26.024538 -28.912944 -5.650449 39.308555 0.837926 1.715042 0.032697 0.003543 -221189.000000 0 0 1
-26.004798 -27.970094 -4.579749 38.464917 0.821793 1.690142 0.024161 0.000981 144363.000000 0 0 1
-25.222588 -28.347584 -3.449049 38.100662 0.843667 1.661445 0.033786 0.001630 13656.700000 0 0 1
-25.752028 -29.491024 -2.547449 39.234895 0.852978 1.635770 0.025920 0.004419 -206917.000000 0 0 1
-25.713398 -30.781724 -3.170749 40.233656 0.874871 1.649687 0.022285 -0.006801 -3253.130000 0 0 1
-26.000028 -31.848864 -2.256549 41.175765 0.886161 1.625627 0.013592 -0.012661 878204.000000 0 0 1
-24.825518 -32.167334 -1.236949 40.651861 0.913513 1.601229 0.019095 -0.015601 429485.000000 0 0 1
-23.680018 -32.864154 -1.753049 40.544656 0.946416 1.614047 0.028446 -0.011604 913055.000000 0 0 1
-22.467718 -32.516204 -1.061749 39.537694 0.966157 1.597654 0.030190 -0.000275 730420.000000 0 0 1
-21.898318 -31.110474 -1.323949 38.067713 0.957465 1.605582 0.055453 0.003021 -1039240.000000 0 0 1
-22.574418 -30.115234 -0.630349 37.642118 0.927550 1.587543 0.038114 0.001794 -252018.000000 0 0 1
-22.135618 -28.840244 -1.097549 36.372378 0.916173 1.600976 0.026341 -0.006480 -340938.000000 0 0 1
-22.688418 -27.644144 -0.307749 35.763917 0.883541 1.579401 0.016674 0.004651 26513.600000 0 0 1
-24.099818 -27.791884 -0.182949 36.786187 0.856428 1.575770 0.014476 0.000125 329109.000000 0 0 1
-24.854918 -26.613104 0.133051 36.414859 0.819546 1.567143 0.029833 -0.012153 225860.000000 0 0 1
-24.434018 -25.796214 1.327151 35.555974 0.812511 1.533462 0.031802 -0.006473 -900907.000000 0 0 1
-24.654818 -26.507334 2.510751 36.287776 0.821591 1.501551 0.018603 -0.006186 -80366.600000 0 0 1
-24.238918 -25.673974 3.597551 35.491133 0.814141 1.469257 0.028101 -0.013132 84246.400000 0 0 1
-25.257728 -24.623844 4.194051 35.522903 0.772691 1.452454 0.035325 -0.014441 61441.900000 0 0 1
-25.449918 -23.575144 3.265451 34.844640 0.747176 1.476944 0.040205 -0.016462 22523.300000 0 0 1
-26.174788 -22.472344 3.792551 34.706040 0.709436 1.461301 0.028160 -0.016288 -153287.000000 0 0 1
-26.143818 -21.322344 2.754751 33.848637 0.684168 1.489322 0.022787 -0.012681 374387.000000 0 0 1
-24.904318 -20.628444 2.739651 32.454021 0.691765 1.486279 0.031099 -0.011730 193731.000000 0 0 1
-24.784418 -19.775744 1.604151 31.747768 0.673465 1.520247 0.025292 -0.011114 -239642.000000 0 0 1
-23.510518 -18.964844 1.757951 30.257234 0.678785 1.512663 0.042549 -0.011570 388642.000000 0 0 1
-22.283018 -19.659544 1.487551 29.753040 0.722930 1.520779 0.042694 -0.015031 463994.000000 0 0 1
-21.122418 -18.930544 1.866751 28.425461 0.730728 1.505077 0.039302 -0.009072 485665.000000 0 0 1
-19.857018 -19.823244 1.714351 28.110517 0.784547 1.509772 0.031262 -0.018114 -227142.000000 0 0 1
-19.525118 -19.972044 0.305651 27.932172 0.796713 1.559854 0.010825 -0.003129 -15309.400000 0 0 1
-18.445618 -20.865244 0.193551 27.850255 0.846872 1.563847 0.017215 0.003549 -71827.800000 0 0 1
-18.109618 -21.111644 -1.303349 27.845260 0.861790 1.617620 0.014565 0.002259 138180.000000 0 0 1
-17.439218 -20.156244 -2.132949 26.738549 0.857543 1.650652 0.001645 -0.000493 167242.000000 0 0 1
-17.262318 -20.595844 -3.470949 27.096567 0.873225 1.699245 0.010096 0.004616 162055.000000 0 0 1
-16.628418 -19.480644 -4.392849 25.986476 0.864224 1.740656 0.016007 0.009570 1019280.000000 0 0 1
-15.206818 -19.354744 -4.262049 24.980363 0.904842 1.742251 0.031703 0.000157 478124.000000 0 1 0
-14.655218 -18.422944 -5.102649 24.087701 0.898813 1.784250 0.035669 -0.009574 -180955.000000 0 1 0
-13.110918 -18.449644 -5.062349 23.192950 0.952970 1.790839 0.048500 -0.010455 19453.500000 0 1 0
-12.505318 -19.707444 -5.363849 23.948637 1.005361 1.796686 0.044404 -0.008742 -20396.800000 0 1 0
-11.121918 -19.441644 -5.549249 23.075285 1.051169 1.813661 0.045287 -0.017019 718080.000000 0 1 0
-10.292818 -20.789144 -5.628549 23.870718 1.111072 1.808831 0.054719 -0.023289 360250.000000 0 1 0
-10.847318 -21.654044 -6.563549 25.092671 1.106399 1.835447 0.064421 -0.023726 -377583.000000 0 0 1
-9.837618 -22.511744 -7.022449 25.551363 1.158806 1.849216 0.070618 -0.022259 -8007.810000 0 0 1
-10.219118 -23.501944 -8.112049 26.880794 1.160637 1.877354 0.063371 -0.010983 -110736.000000 0 0 1
-10.620418 -23.042744 -9.398149 27.057098 1.138914 1.925535 0.051147 -0.002143 -85000.300000 0 0 1
-10.690218 -24.014044 -10.379649 28.261143 1.151970 1.946875 0.056734 0.001666 -116868.000000 0 0 1
-11.319418 -23.576544 -11.674549 28.640492 1.123184 1.990647 0.075510 -0.009258 -302771.000000 0 0 1
-10.554718 -22.630044 -12.376549 27.869337 1.134386 2.030957 0.058010 -0.005319 -484492.000000 0 0 1
-11.238318 -22.102844 -13.494349 28.230002 1.100407 2.069189 0.062864 -0.011902 -571045.000000 0 0 1
-10.580218 -20.956444 -14.260149 27.467534 1.103263 2.116669 0.050410 -0.006899 -508405.000000 0 0 1
-10.539918 -19.816844 -13.453049 26.168335 1.081982 2.110750 0.047282 -0.009613 -306749.000000 0 0 1
-10.586118 -18.598644 -14.215349 25.691470 1.053341 2.157129 0.025035 -0.000011 -95008.600000 0 0 1
-10.224418 -17.348844 -13.375349 24.174803 1.038250 2.157089 0.039892 -0.010489 -311010.000000 0 1 0
-11.205418 -17.041544 -12.395849 23.866980 0.989142 2.116913 0.042379 -0.015179 -96816.600000 0 1 0
-10.845918 -16.067844 -11.432249 22.505686 0.977041 2.103625 0.042722 -0.021464 -134768.000000 0 1 0
-10.512618 -14.621544 -11.926449 21.599650 0.947444 2.155748 0.043809 -0.019707 360349.000000 0 1 0
-11.549218 -13.781544 -12.460549 21.876487 0.873298 2.176799 0.039695 -0.015046 -83749.500000 0 1 0
-11.493618 -13.726044 -13.863949 22.643247 0.873687 2.229734 0.042382 -0.013174 -160927.000000 0 1 0
-12.778518 -13.214244 -14.543849 23.439930 0.802160 2.240142 0.038765 -0.009639 -481529.000000 0 1 0
-12.914818 -11.878844 -14.096549 22.508047 0.743639 2.247581 0.033434 -0.008935 115221.000000 0 1 0
-13.971018 -11.260844 -14.845049 23.288870 0.678398 2.261956 0.016344 -0.014437 311228.000000 0 1 0
-14.202518 -9.849344 -14.176749 22.354000 0.606345 2.257761 0.017226 -0.018324 368426.000000 0 1 0
-13.038218 -9.051944 -14.400049 21.431151 0.606865 2.307596 0.014590 -0.006312 373442.000000 0 1 0
-13.011818 -8.373344 -15.678849 22.028314 0.571805 2.362795 0.013292 -0.005600 237217.000000 0 1 0
-11.932418 -7.259344 -15.775849 21.070313 0.546552 2.416931 0.008350 0.004050 -669451.000000 0 1 0
-10.617618 -7.641644 -15.725149 20.455045 0.623834 2.447706 0.011349 -0.005222 -714633.000000 0 1 0
-9.720518 -6.540544 -15.870949 19.726992 0.592278 2.505679 0.012880 0.007516 403682.000000 0 1 0
11.544982 22.122756 16.040151 29.664614 1.089814 0.999508 0.069596 -0.007926 -36643.300000 0 0 1
12.355282 22.168256 17.202151 30.659395 1.062334 0.975115 0.080633 -0.012497 -77237.300000 0 0 1
12.737282 20.807256 17.465751 30.003878 1.021487 0.949467 0.067210 -0.011688 -462382.000000 0 0 1
13.927382 20.669356 18.401451 30.980762 0.977859 0.934819 0.058702 -0.013262 -360693.000000 0 0 1
15.123382 21.162656 17.838951 31.540495 0.950322 0.969649 0.039704 -0.007626 -777216.000000 0 0 1
16.219882 20.784556 18.602851 32.266831 0.908133 0.956319 0.029191 -0.004447 -55861.700000 0 0 1
17.578982 21.192456 17.942251 32.864344 0.878329 0.993275 0.008450 0.004140 -1027420.000000 0 0 1
17.752982 22.590556 18.200451 34.011145 0.904738 1.006132 0.016186 -0.003284 85597.500000 0 0 1
18.973682 23.134056 17.718051 34.772323 0.883882 1.036141 0.010887 -0.002555 -68759.600000 0 0 1
20.230782 22.654256 18.432951 35.528489 0.841849 1.025324 0.002665 -0.003266 -1253740.000000 0 0 1
20.513482 21.244656 18.199151 34.689298 0.802906 1.018512 0.015290 -0.003454 -1449010.000000 0 0 1
21.709482 20.932856 18.775251 35.524584 0.767188 1.013947 0.022214 -0.003985 -1120560.000000 0 0 1
22.074182 19.453256 18.561551 34.788357 0.722369 1.007996 0.022604 -0.012419 -212842.000000 0 0 1
22.140982 19.096256 17.213051 33.929031 0.711698 1.038718 0.018264 -0.006958 40755.700000 0 0 1
22.178882 17.698056 16.909851 33.031304 0.673501 1.033362 0.018833 -0.000029 7411.310000 0 0 1
23.195682 16.760956 17.644151 33.619717 0.625726 1.018298 0.002906 0.000497 -1009460.000000 0 0 1
24.457682 16.804156 17.108651 34.252938 0.601996 1.047798 0.018118 -0.006526 -1040560.000000 0 0 1
25.382482 16.393556 18.081451 35.213036 0.573460 1.031552 0.006893 -0.020686 512666.000000 0 0 1
26.844182 16.059956 17.625951 35.905521 0.539143 1.057676 0.021313 -0.020562 -157558.000000 0 0 1
27.490082 17.149956 17.049851 36.613153 0.557779 1.086398 0.027950 -0.019636 891488.000000 0 0 1
28.925182 17.112956 16.994451 37.660732 0.534241 1.102629 0.040487 -0.020939 1562070.000000 0 0 1
29.687282 15.857656 16.353651 37.419805 0.490598 1.118500 0.048999 -0.027236 -253329.000000 0 0 1
29.121882 15.807456 15.088651 36.409161 0.497301 1.143492 0.042084 -0.026055 89930.500000 0 0 1
29.559382 14.688656 14.357351 35.995099 0.461181 1.160513 0.066064 -0.032208 -124106.000000 0 0 1
28.934482 14.690956 12.975251 34.948327 0.469814 1.190420 0.051095 -0.021029 -588167.000000 0 0 1
29.503382 15.532856 12.000251 35.436212 0.484604 1.225321 0.047873 -0.013233 -7162.570000 0 0 1
28.653882 15.828656 10.898751 34.501798 0.504691 1.249402 0.028459 -0.005331 276655.000000 0 0 1
27.424082 16.720256 11.220751 34.022823 0.547516 1.234704 0.017721 -0.007829 -322537.000000 0 0 1
27.621582 18.142656 11.381951 34.952204 0.581161 1.239104 0.000859 -0.004475 146003.000000 0 0 1
28.184882 18.483556 12.656351 36.002953 0.580440 1.211585 0.012333 -0.010370 -50923.900000 0 0 1
27.173782 18.275856 13.840451 35.552488 0.592068 1.170929 0.005291 -0.016671 295304.000000 0 0 1
26.236282 19.351056 13.858151 35.423921 0.635497 1.168852 0.009796 -0.007221 230814.000000 0 0 1
25.395182 19.290056 14.998451 35.241666 0.649614 1.131184 0.014769 -0.009504 -255317.000000 0 0 1
25.977882 19.911356 16.275951 36.554329 0.653961 1.109339 0.015437 -0.012190 -341595.000000 0 0 1
25.952182 21.341256 16.312551 37.350559 0.688209 1.118823 0.000266 -0.007565 928566.000000 0 0 1
24.652182 21.941856 16.520151 36.906510 0.727295 1.106693 0.020534 -0.011562 697002.000000 0 0 1
24.598782 23.466756 16.326851 37.714119 0.761851 1.123077 0.018294 -0.003739 -114548.000000 0 0 1
24.693182 23.720256 14.956551 37.364450 0.765305 1.158965 0.041067 -0.015599 16901.300000 0 0 1
25.104782 24.984156 14.563851 38.295742 0.782990 1.180676 0.033284 -0.008882 -330774.000000 0 0 1
24.804382 25.188856 13.067551 37.689477 0.793089 1.216729 0.037153 -0.014932 14296.900000 0 0 1
23.437782 25.341156 12.736051 36.792809 0.824399 1.217326 0.053602 -0.014125 100183.000000 0 0 1
23.242482 25.901256 11.440951 36.633091 0.839447 1.253171 0.054376 -0.027618 -233524.000000 0 0 1
22.525982 24.945156 10.514951 35.217110 0.836315 1.267597 0.057362 -0.028230 246095.000000 0 0 1
21.205082 24.563956 10.965851 34.253369 0.858654 1.244920 0.059114 -0.026574 834279.000000 0 0 1
20.831182 23.259556 10.545551 32.956846 0.840419 1.245087 0.051673 -0.019918 -104595.000000 0 0 1
20.571582 23.054456 9.013651 32.186081 0.842249 1.286952 0.055711 -0.004717 -237828.000000 0 0 1
19.371482 23.572656 8.479651 31.667473 0.882917 1.299717 0.063770 -0.002949 -8327.930000 0 0 1
19.635582 23.914556 7.133751 31.754566 0.883338 1.344210 0.063126 -0.019455 600611.000000 0 0 1
18.381582 24.207856 6.241251 31.029922 0.921355 1.368278 0.060914 -0.019824 -300882.000000 0 0 1
17.597882 23.093756 5.853151 29.618683 0.919647 1.371870 0.061011 -0.002934 839332.000000 0 0 1
16.401682 23.278556 5.092851 28.928246 0.957001 1.393823 0.081722 -0.018436 1180430.000000 0 0 1
15.244082 24.112356 5.734751 29.097682 1.007029 1.372411 0.034079 -0.017783 -369825.000000 0 0 1
15.593882 25.463556 5.886351 30.433714 1.021309 1.376154 0.045724 -0.026115 398607.000000 0 0 1
14.556782 26.189656 6.553251 30.671535 1.063494 1.355477 0.024371 -0.027362 292166.000000 0 0 1
14.332982 27.530556 5.791451 31.573830 1.090788 1.386326 0.023218 -0.027625 -495712.000000 0 0 1
14.050782 27.253956 4.430551 30.981161 1.094786 1.427296 0.010725 -0.003587 387202.000000 0 0 1
13.836082 28.437456 3.651051 31.834827 1.117971 1.455856 0.005340 -0.004504 -352526.000000 0 0 1
13.154282 28.044256 2.353751 31.065343 1.132210 1.494956 0.006208 0.001331 179359.000000 0 0 1
14.067082 27.473056 1.405151 30.897023 1.097570 1.525302 0.019229 -0.005777 821220.000000 0 0 1
13.287882 26.859756 0.398251 29.969532 1.111387 1.557507 0.005268 0.002836 320246.000000 0 0 1
14.218582 26.364456 -0.757049 29.963740 1.076198 1.596065 0.011084 -0.000872 390438.000000 0 0 1
14.655482 27.350856 -1.631149 31.072707 1.078895 1.623315 0.024401 0.000963 -378191.000000 0 0 1
15.612182 26.852656 -2.532949 31.164421 1.044164 1.652163 0.042788 -0.001895 -307715.000000 0 0 1
15.510182 27.459456 -3.929949 31.781000 1.056632 1.694771 0.043294 -0.006749 -116340.000000 0 0 1
14.567482 26.879556 -4.829149 30.952265 1.074151 1.727456 0.062408 -0.017399 72635.000000 0 0 1
14.853782 27.220456 -6.186849 31.620644 1.071272 1.767725 0.067489 -0.019730 -421931.000000 0 0 1
13.706882 27.028756 -7.152449 31.138236 1.101467 1.802566 0.080713 -0.030373 -345741.000000 0 0 1
13.447982 25.730356 -7.574849 30.004629 1.089193 1.826014 0.070733 -0.032863 -679294.000000 0 0 1
12.079582 25.682756 -7.826449 29.441018 1.131158 1.839866 0.047347 -0.039267 -409637.000000 0 0 1
11.546582 24.312056 -8.263649 28.154707 1.127403 1.868691 0.063311 -0.023596 -270049.000000 0 0 1
12.259882 23.879956 -9.365849 28.430197 1.096489 1.906499 0.056216 -0.029416 -163907.000000 0 0 1
11.943982 22.546156 -9.788449 27.327670 1.083628 1.937123 0.067883 -0.016913 -32828.700000 0 0 1
12.178482 22.294156 -11.244349 27.780932 1.070826 1.987502 0.064848 -0.015781 122140.000000 0 0 1
11.789382 20.979356 -11.533949 26.686230 1.058824 2.017734 0.066900 -0.011626 -153054.000000 0 0 1
11.938582 20.651856 -12.949549 27.142581 1.046645 2.068141 0.061045 -0.012002 272234.000000 0 0 1
13.237082 19.915656 -13.382649 27.403448 0.984186 2.081002 0.046406 0.000407 515377.000000 0 0 1
14.412382 20.654556 -13.128749 28.402315 0.961560 2.051318 0.041597 -0.006514 -237330.000000 0 0 1
15.582082 20.014956 -13.598849 28.780695 0.909290 2.062920 0.047510 -0.000796 1089530.000000 0 0 1
16.878982 20.902156 -13.403749 30.024334 0.891485 2.033568 0.043055 0.007009 489673.000000 0 0 1
17.063482 22.034156 -14.237549 31.294955 0.911855 2.043109 0.042702 0.002175 583003.000000 0 0 1
16.040182 23.074756 -14.138849 31.458526 0.963340 2.036939 0.049403 -0.005810 619472.000000 0 0 1
16.460982 24.463356 -14.705149 32.949372 0.978502 2.033417 0.047762 -0.009413 -43462.000000 0 0 1
16.618982 24.561856 -16.094649 33.741859 0.975936 2.068027 0.034344 -0.006882 275714.000000 0 0 1
15.374382 24.723056 -16.779049 33.602643 1.014455 2.093630 0.035102 -0.002683 356576.000000 0 0 1
15.466682 24.708756 -18.323549 34.430993 1.011507 2.131972 0.018770 0.017885 64149.000000 0 0 1
15.774982 23.457856 -18.908349 34.009509 0.978779 2.160329 0.019691 0.019577 -109282.000000 0 0 1
15.916282 23.485956 -20.334949 34.905992 0.975198 2.192675 0.007335 0.028350 -208207.000000 0 0 1
16.323582 22.071656 -20.920649 34.515082 0.934003 2.221983 0.012886 0.024057 -194229.000000 0 0 1
15.300182 21.118256 -20.775249 33.341975 0.943816 2.243491 0.013474 0.018125 -172465.000000 0 0 1
15.651382 19.893356 -21.427649 33.164069 0.904178 2.273274 0.016205 0.010459 -205216.000000 0 0 1
14.600082 18.778956 -21.589149 32.123246 0.909945 2.307800 0.007879 0.010331 -949268.000000 0 0 1
14.364382 18.032856 -20.382449 30.772773 0.898152 2.294752 0.011377 0.005992 643854.000000 0 0 1
13.459382 16.926356 -20.607949 29.872128 0.899006 2.332109 0.007833 -0.001836 364215.000000 0 0 1
11.988082 17.196156 -20.963949 29.646400 0.961994 2.356232 0.013551 -0.007379 -925445.000000 0 0 1
11.203782 17.625456 -19.875749 28.831005 1.004569 2.331440 0.019981 -0.003348 -808251.000000 0 0 1
9.902782 17.817756 -20.308349 28.774408 1.063525 2.354317 0.019685 0.000268 -1035670.000000 0 0 1
8.820082 17.244456 -19.414249 27.424044 1.098012 2.357357 0.032480 -0.007987 -643123.000000 0 0 1
8.753282 15.797756 -19.367749 26.482046 1.064823 2.391101 0.037241 -0.013646 242852.000000 0 0 1
7.596182 15.213256 -18.775349 25.330986 1.107698 2.405654 0.050582 -0.012965 348988.000000 0 0 1
7.466282 15.232756 -17.229449 24.179250 1.115063 2.363953 0.042266 -0.021015 2242.880000 0 1 0
7.479582 16.473256 -16.610949 24.560862 1.144585 2.313549 0.042474 -0.022592 -97025.600000 0 1 0
6.698982 16.515156 -15.414049 23.563099 1.185449 2.283869 0.042142 -0.028593 -21553.200000 0 1 0
6.090982 17.907256 -15.202649 24.267064 1.242932 2.247816 0.040726 -0.014980 113971.000000 0 1 0
6.951882 19.039656 -14.952549 25.187614 1.220710 2.206380 0.040674 -0.017361 -272639.000000 0 0 1
7.496582 19.585056 -16.098849 26.437589 1.205231 2.225517 0.045878 -0.010368 -719814.000000 0 0 1
8.614982 20.576856 -15.866749 27.374781 1.174297 2.189049 0.032378 0.004038 -584945.000000 0 0 1
8.339082 21.808156 -15.265449 27.895696 1.205568 2.149851 0.018849 -0.008343 -177533.000000 0 0 1
8.259182 21.685256 -13.860149 27.029024 1.206893 2.109225 0.018963 -0.011055 -140386.000000 0 0 1
8.276782 23.015056 -13.090549 27.740951 1.225573 2.062224 0.032681 -0.017880 -701172.000000 0 0 1
7.034682 23.594956 -13.309949 27.988630 1.281044 2.066384 0.025300 -0.012695 -644661.000000 0 0 1
6.584082 24.633256 -12.423849 28.363699 1.309617 2.024191 0.010599 -0.020183 -142397.000000 0 0 1
5.861682 24.190756 -11.170849 27.282592 1.333068 1.992647 -0.004998 -0.020054 -572426.000000 0 0 1
6.722882 23.813756 -10.089849 26.722596 1.295646 1.957975 -0.009180 -0.020225 82553.400000 0 0 1
6.041082 23.147756 -9.049349 25.577412 1.315511 1.932430 -0.002507 -0.025909 -74839.000000 0 0 1
6.885982 23.073856 -7.775449 25.303699 1.280778 1.883135 -0.003091 -0.028691 20801.100000 0 0 1
7.153482 24.310656 -7.148249 26.330168 1.284620 1.845732 -0.007988 -0.029078 -290657.000000 0 0 1
8.150482 24.155056 -6.191449 26.234159 1.245369 1.809051 0.011463 -0.028920 -452100.000000 0 0 1
8.402782 25.392056 -5.412549 27.288439 1.251218 1.770466 0.002883 -0.030966 -259798.000000 0 0 1
8.947582 26.392756 -6.202349 28.550060 1.243940 1.789787 0.018206 -0.027311 -66309.100000 0 0 1
9.051182 27.616456 -5.532449 29.583788 1.254083 1.758913 0.014714 -0.022797 -61021.200000 0 0 1
9.276882 28.815556 -6.492349 30.960416 1.259335 1.782063 0.019487 -0.017826 -406109.000000 0 0 1
10.524782 28.774556 -7.121049 31.455610 1.220145 1.799160 0.034683 -0.022754 -524725.000000 0 0 1
10.659282 29.972756 -7.859249 32.768188 1.229113 1.813001 0.036192 -0.019931 -174538.000000 0 0 1
12.000482 30.091756 -8.587949 33.515343 1.191328 1.829926 0.042570 -0.023278 159904.000000 0 0 1
13.137182 30.288056 -7.763549 33.914961 1.161545 1.801756 0.048810 -0.019460 144436.000000 0 0 1
14.177382 30.914756 -8.513549 35.059960 1.140817 1.816077 0.056043 -0.020683 125219.000000 0 0 1
15.452182 31.265256 -7.756649 35.727465 1.111777 1.789645 0.052680 -0.019309 119957.000000 0 0 1
16.309782 30.175256 -7.397049 35.089477 1.075275 1.783195 0.050664 -0.017444 268335.000000 0 0 1
17.492682 30.694056 -6.802149 35.977607 1.052800 1.761007 0.044554 -0.009582 297182.000000 0 0 1
18.525082 29.639356 -6.379849 35.529882 1.012185 1.751338 0.035284 -0.014046 -410508.000000 0 0 1
18.132382 28.845056 -5.301349 34.480789 1.009603 1.725157 0.047617 -0.008441 -110729.000000 0 0 1
19.040682 27.816556 -4.948449 34.070449 0.970543 1.716554 0.037055 -0.007059 -274898.000000 0 0 1
19.163682 26.634956 -5.950649 33.347830 0.947107 1.750199 0.038077 -0.001422 -263346.000000 0 0 1
19.846482 26.972456 -7.110549 34.233845 0.936442 1.780025 0.024718 -0.002142 51706.700000 0 0 1
19.746982 25.976356 -8.131149 33.627815 0.920805 1.815015 0.022177 -0.008327 -1171130.000000 0 0 1
20.425182 26.419856 -9.409949 34.695014 0.912675 1.845456 0.020919 -0.010370 1009940.000000 0 0 1
21.866182 26.498556 -9.363049 35.608567 0.880887 1.836868 0.020114 -0.009599 1161320.000000 0 0 1
22.536782 25.259756 -9.314249 35.110070 0.842307 1.839298 0.030631 -0.002642 72119.100000 0 0 1
24.105982 25.324156 -9.314149 36.182380 0.810038 1.831150 0.023037 -0.005204 803355.000000 0 0 1
24.698882 25.731156 -10.539449 37.191493 0.805865 1.858117 0.029690 -0.006181 234371.000000 0 0 1
26.108782 25.664356 -10.341849 38.043153 0.776814 1.846106 0.033233 -0.001672 264683.000000 0 0 1
26.905182 25.840756 -11.621649 39.072960 0.765221 1.872801 0.027448 -0.001495 -233285.000000 0 0 1
26.762982 27.005056 -12.411149 39.994585 0.789900 1.886327 0.035204 -0.002615 -299968.000000 0 0 1
27.497282 26.934256 -13.604449 40.824449 0.775055 1.910537 0.022545 -0.001266 -7616.680000 0 0 1
27.153282 28.103756 -14.532049 41.692952 0.802597 1.926819 0.027396 -0.000721 98705.700000 0 0 1
27.839982 29.309756 -14.265449 42.867580 0.811110 1.910046 0.034143 -0.006836 -49680.900000 0 0 1
27.596282 30.193756 -15.342849 43.687763 0.830315 1.929642 0.029277 -0.003500 -141878.000000 0 0 1
27.893482 31.689456 -15.127849 44.845510 0.849021 1.914878 0.031789 -0.006639 1168200.000000 0 0 1
29.295282 31.992756 -14.942649 45.880636 0.829383 1.902533 0.025524 -0.006905 1073550.000000 0 0 1
29.467282 33.341756 -14.804849 46.895383 0.847007 1.891990 0.024387 -0.011028 7409.850000 0 0 1
14.840582 -32.380481 -28.847942 45.836036 -1.141046 2.251542 0.060854 -0.024576 413241.000000 0 0 1
15.756482 -33.117381 -28.009392 46.147088 -1.126714 2.223025 0.049734 -0.014084 806291.000000 0 0 1
16.208582 -32.323081 -26.909682 45.073614 -1.105985 2.210573 0.040351 -0.019875 298561.000000 0 0 1
17.528182 -32.798981 -26.194892 45.488270 -1.079999 2.184452 0.007635 -0.006028 1236640.000000 0 0 1
18.810982 -32.476381 -26.730732 46.077114 -1.045796 2.189685 0.011294 -0.009694 775953.000000 0 0 1
19.225382 -33.160681 -27.895832 47.406999 -1.045389 2.199915 0.005039 0.000144 -603507.000000 0 0 1
20.751982 -33.065481 -28.064022 48.078687 -1.010328 2.194087 0.012694 0.002234 -265203.000000 0 0 1
21.167482 -31.825881 -28.555582 47.711322 -0.983877 2.212433 0.007690 -0.001192 834386.000000 0 0 1
22.567682 -31.642581 -28.265362 48.057090 -0.951262 2.199581 0.003197 0.005044 642070.000000 0 0 1
23.052782 -30.283581 -28.925602 47.803938 -0.920146 2.220673 -0.004712 0.010402 -61123.400000 0 0 1
23.100882 -30.289881 -30.351762 48.706849 -0.919242 2.243563 -0.009844 0.009354 -160614.000000 0 0 1
23.924882 -29.222381 -30.708232 48.675898 -0.884746 2.253472 -0.006428 -0.002281 -104670.000000 0 0 1
23.960382 -29.195181 -32.231022 49.651760 -0.883562 2.277252 -0.002108 0.004309 563264.000000 0 0 1
24.977682 -30.118781 -32.659382 50.967252 -0.878440 2.266325 0.002414 -0.000404 223696.000000 0 0 1
25.210482 -30.094581 -34.052382 51.969385 -0.873482 2.285296 -0.002260 -0.001630 -136405.000000 0 0 1
26.358782 -31.004681 34.302192 53.223265 -0.866212 0.870432 0.004996 -0.002826 -825583.000000 0 0 1
27.603382 -30.500181 -34.163101 53.472659 -0.835213 2.263850 0.017884 -0.012648 -651696.000000 0 0 1
28.704282 -31.285881 34.151971 54.489442 -0.828405 0.893404 0.028971 -0.004385 1579340.000000 0 0 1
30.100882 -30.563681 34.044034 54.764933 -0.793027 0.899963 0.035965 -0.010912 610930.000000 0 0 1
30.130382 -29.768981 32.876025 53.617769 -0.779365 0.910748 0.022964 -0.009812 412515.000000 0 0 1
31.301182 -28.952581 32.780790 53.782861 -0.746439 0.915363 0.022260 -0.018914 163659.000000 0 0 1
31.334282 -28.055981 31.521101 52.560014 -0.730255 0.927650 0.012953 -0.013153 90230.100000 0 0 1
32.638682 -27.470981 31.360481 52.947314 -0.699638 0.936891 0.012149 -0.022169 829924.000000 0 0 1
32.708482 -26.346281 30.513751 51.913970 -0.678078 0.942490 0.004304 -0.009870 -212220.000000 0 0 1
33.332882 -26.716881 29.101001 51.688887 -0.675665 0.972781 0.002073 -0.004796 -43443.200000 0 0 1
32.719782 -27.704881 28.264731 51.352114 -0.702594 0.987941 -0.014300 -0.012127 119065.000000 0 0 1
31.490182 -27.333781 27.679501 50.049195 -0.714857 0.984781 -0.003939 -0.013331 -77996.700000 0 0 1
31.084782 -28.292881 26.558411 49.720217 -0.738413 1.007286 -0.012445 -0.014023 548264.000000 0 0 1
29.843482 -27.927381 25.932451 48.405207 -0.752243 1.005416 -0.004051 -0.011130 365158.000000 0 0 1
29.455882 -28.991781 25.102991 48.356308 -0.777458 1.024969 -0.011571 -0.003989 -442029.000000 0 0 1
28.120482 -28.727381 24.411681 47.031416 -0.796074 1.025057 -0.011785 -0.001187 11090.900000 0 0 1
27.048082 -28.561981 25.348011 46.796444 -0.812615 0.998379 -0.010467 -0.004686 -547458.000000 0 0 1
25.872882 -28.259081 24.658941 45.563637 -0.829451 0.998935 -0.007068 -0.002495 275341.000000 0 0 1
24.705482 -28.077781 25.715051 45.387074 -0.849201 0.968456 0.007924 -0.008797 367304.000000 0 0 1
24.882082 -27.000881 26.631281 45.358469 -0.826214 0.943289 -0.002818 -0.011872 151811.000000 0 0 1
23.663982 -26.744681 27.307001 44.954803 -0.846437 0.917972 0.002360 -0.019080 8691.440000 0 0 1
23.817982 -25.662081 28.325881 45.035477 -0.822650 0.890571 0.004965 -0.001528 -831975.000000 0 0 1
22.596482 -25.518481 28.974441 44.736027 -0.846053 0.866266 0.027698 -0.007106 -242334.000000 0 0 1
22.619482 -24.610481 30.050701 44.948430 -0.827529 0.838526 0.023712 -0.000685 -410568.000000 0 0 1
21.898882 -23.311781 29.669611 43.626666 -0.816639 0.822925 0.028857 -0.005405 -470867.000000 0 0 1
22.544682 -22.749081 28.560471 42.912514 -0.789911 0.842564 0.041227 -0.014237 288537.000000 0 0 1
22.052682 -21.474781 28.165821 41.722901 -0.772122 0.829739 0.046636 -0.006473 -141958.000000 0 0 1
22.699282 -20.302281 28.903191 41.986122 -0.729714 0.811517 0.046605 -0.006464 -218519.000000 0 0 1
22.449582 -20.275381 30.324281 42.832660 -0.734554 0.784175 0.044540 0.002447 160138.000000 0 0 1
23.272882 -19.327781 30.964731 43.289776 -0.693055 0.773758 0.051078 -0.001505 -111696.000000 0 0 1
22.838382 -19.015581 32.413981 43.975563 -0.694314 0.742041 0.070596 -0.006023 -322314.000000 0 0 1
22.918782 -20.113881 33.297566 45.150489 -0.720310 0.741465 0.037772 -0.005979 345882.000000 0 0 1
22.428782 -19.614481 -34.256350 45.401274 -0.718560 2.425725 0.034973 -0.007273 -234676.000000 0 0 1
22.164182 -20.592481 -33.089072 44.835119 -0.748656 2.400923 0.020789 -0.002682 -132298.000000 0 0 1
23.355482 -21.191481 -32.638632 45.385435 -0.736858 2.373365 0.011878 0.000227 122638.000000 0 0 1
23.032682 -22.117481 -31.636072 44.950289 -0.765131 2.351531 0.008600 0.004750 -1404680.000000 0 0 1
24.118182 -22.334981 -30.680062 44.964478 -0.747030 2.321725 -0.005707 0.004272 -1321390.000000 0 0 1
25.064782 -23.232881 -31.236332 46.300308 -0.747487 2.311282 0.003073 0.003907 -619837.000000 0 0 1
26.021382 -23.457281 -30.254532 46.289233 -0.733622 2.283125 -0.007000 0.002091 -419546.000000 0 0 1
27.307682 -24.219681 -30.603822 47.632934 -0.725540 2.268543 0.000465 0.010525 343764.000000 0 0 1
28.310882 -23.682281 -31.477412 48.509627 -0.696609 2.276921 0.015899 0.000007 511232.000000 0 0 1
27.924282 -23.612981 -32.845712 49.154646 -0.701938 2.302599 0.017649 -0.002723 -115065.000000 0 0 1
28.543782 -24.760181 -33.656102 50.601850 -0.714535 2.298446 0.015069 -0.008219 248201.000000 0 0 1
27.904982 -25.977581 -33.241752 50.581981 -0.749643 2.287875 0.018603 -0.007768 258966.000000 0 0 1
28.338882 -27.143781 -33.997052 51.919906 -0.763861 2.284712 0.019123 -0.012938 144507.000000 0 0 1
27.842082 -27.342481 33.310253 51.306586 -0.776345 0.864212 0.008586 -0.005114 410474.000000 0 0 1
28.619682 -26.546281 32.357691 50.703169 -0.747831 0.878666 -0.013706 -0.008423 469563.000000 0 0 1
28.026482 -26.601481 31.076831 49.587215 -0.759319 0.893472 -0.002822 -0.004852 -469438.000000 0 0 1
28.603982 -25.624881 30.023331 48.746515 -0.730518 0.907259 -0.003448 -0.016188 -155505.000000 0 0 1
28.566982 -24.200081 30.284171 48.154412 -0.702828 0.890662 -0.010883 -0.015422 -142527.000000 0 0 1
29.196882 -23.742481 31.464661 49.052912 -0.682729 0.874418 -0.005486 -0.007339 -1878070.000000 0 0 1
29.892782 -22.406181 31.279691 48.724064 -0.643214 0.873723 0.011810 -0.012888 -135674.000000 0 0 1
31.110482 -22.352481 30.584221 49.019282 -0.623026 0.897045 0.007349 -0.008915 -448695.000000 0 0 1
32.135382 -22.945581 31.331201 50.406613 -0.620079 0.900052 0.006180 -0.014963 -954805.000000 0 0 1
33.578882 -22.448981 30.990711 50.910924 -0.589302 0.916345 0.006858 -0.025962 474637.000000 0 0 1
33.901182 -22.695081 29.595061 50.400639 -0.589926 0.943206 0.014768 -0.022557 -25270.100000 0 0 1
35.168682 -22.137881 29.353391 50.877731 -0.561812 0.955819 0.002987 -0.028186 -164885.000000 0 0 1
35.702382 -22.368281 27.915191 50.539667 -0.559692 0.985625 0.010066 -0.022416 -295332.000000 0 0 1
-35.498234 -23.702581 27.676961 50.871909 0.588726 0.995538 0.009362 -0.011489 104850.000000 0 0 1
-35.078334 -23.921581 26.371071 49.981646 0.598507 1.015006 0.002091 -0.000506 -444498.000000 0 0 1
-35.062434 -25.408481 26.037511 50.526401 0.627088 1.029410 -0.000526 -0.011504 -124651.000000 0 0 1
35.215182 -26.054081 26.009721 50.945360 -0.636976 1.034982 0.006535 -0.009987 25796.000000 0 0 1
35.155982 -27.451781 25.665861 51.461439 -0.662959 1.048652 -0.001585 0.002223 100436.000000 0 0 1
-35.583134 -28.373681 26.638531 52.733638 0.673148 1.041238 0.009206 0.000715 -608358.000000 0 0 1
-35.466334 -29.731781 26.186821 53.175081 0.697668 1.055878 0.014008 0.000241 376721.000000 0 0 1
-34.348534 -30.414181 26.741551 53.103246 0.724722 1.043063 0.025776 -0.005625 -296614.000000 0 0 1
-32.937034 -29.947481 26.507881 51.810883 0.737894 1.033718 0.032260 -0.002664 -1545300.000000 0 0 1
-32.509734 -29.957981 25.181641 50.877092 0.744572 1.053018 0.026121 -0.003608 548359.000000 0 0 1
-31.253834 -29.301081 24.947331 49.575446 0.753162 1.043476 0.016224 -0.000703 728257.000000 0 0 1
-30.825234 -29.316381 23.440951 48.570809 0.760315 1.067160 0.009060 0.000367 -340916.000000 0 0 1
-30.484734 -30.621281 23.001251 48.949356 0.787633 1.081620 0.015436 -0.005253 270756.000000 0 0 1
-29.906434 -30.551181 21.742851 47.963747 0.796062 1.100312 0.011294 -0.007350 -438516.000000 0 0 1
-29.745934 -31.975281 21.053951 48.482039 0.821502 1.121576 0.017777 -0.002895 555357.000000 0 0 1
-28.743634 -32.867081 21.586851 48.707635 0.852226 1.111640 0.025169 -0.013087 309364.000000 0 0 1
-27.450534 -32.725181 21.060651 47.623737 0.872829 1.112713 0.042690 -0.011460 -109408.000000 0 0 1
-26.702334 -34.085481 21.005851 48.125674 0.906264 1.119115 0.038497 -0.001358 -235928.000000 0 0 1
-27.047234 33.807856 19.889551 47.645758 -0.896038 1.140163 0.027752 0.000022 926494.000000 0 0 1
-28.224734 32.959456 19.950251 47.759542 -0.862629 1.139859 0.031644 -0.001772 880029.000000 0 0 1
-28.211734 31.878056 21.065451 47.495953 -0.846337 1.111273 0.037866 0.003086 14417.400000 0 0 1
-27.168134 30.945956 20.861751 46.162456 -0.850314 1.101880 0.028893 0.001875 133488.000000 0 0 1
-27.163734 29.954656 21.890251 45.981876 -0.834221 1.074624 0.033335 0.000105 90926.400000 0 0 1
-26.278134 28.762056 21.502251 44.498797 -0.830497 1.066479 0.028440 -0.000089 928220.000000 0 0 1
-24.864334 29.004656 21.455251 43.815898 -0.862106 1.059087 0.035202 0.001504 796003.000000 0 0 1
-24.126634 27.970356 20.822851 42.403141 -0.859045 1.057480 0.030411 -0.000150 -169107.000000 0 0 1
-22.614234 28.131656 21.015651 41.766628 -0.893699 1.043535 0.023960 0.003316 -356668.000000 0 0 1
-22.310034 28.170656 22.414251 42.352356 -0.900977 1.013100 0.024546 -0.001169 -720139.000000 0 0 1
-21.130234 28.811156 22.704551 42.332802 -0.938001 1.004708 0.043507 -0.006398 -805888.000000 0 0 1
-20.581234 28.765756 24.138721 42.822117 -0.949759 0.971941 0.035567 -0.007160 -297333.000000 0 0 1
-20.173534 27.486256 24.654161 42.074854 -0.937647 0.944733 0.041838 -0.011602 587507.000000 0 0 1
-19.663834 27.488556 25.996241 42.639085 -0.949845 0.915138 0.038095 -0.013073 -247340.000000 0 0 1
-18.256534 27.986656 26.314681 42.532533 -0.992785 0.903715 0.052355 -0.010200 -769917.000000 0 0 1
-18.147234 29.417456 26.322591 43.446376 -1.018053 0.919945 0.032326 -0.010484 34696.900000 0 0 1
-16.862434 29.822456 26.751751 43.466961 -1.056186 0.907839 0.037904 -0.006708 -119192.000000 0 0 1
-16.670434 30.003356 28.262811 44.462245 -1.063649 0.881935 0.035879 0.003192 -304735.000000 0 0 1
-16.570734 28.767156 29.000931 44.081657 -1.048189 0.852781 0.052313 0.001535 150413.000000 0 0 1
-16.671634 29.024056 30.387361 45.207642 -1.049407 0.833656 0.051982 0.009353 -184178.000000 0 0 1
-16.429834 27.778156 31.201731 44.890014 -1.036675 0.802278 0.054464 0.005563 949208.000000 0 0 1
-15.046734 27.332356 31.244821 44.155415 -1.067562 0.784686 0.057542 0.008383 1273410.000000 0 0 1
-14.813534 26.222456 32.103131 44.018962 -1.056572 0.753495 0.063466 -0.003739 -59339.700000 0 0 1
-15.128534 26.424256 33.647470 45.379137 -1.050824 0.735531 0.070636 -0.003472 -107674.000000 0 0 1
-16.473834 26.245156 34.013872 46.012377 -1.010265 0.738865 0.075588 -0.006851 -443570.000000 0 0 1
-16.772134 26.901356 -33.494212 46.117780 -1.013299 2.383684 0.070643 -0.000719 33405.500000 0 0 1
-18.086634 26.434356 -32.863752 45.890388 -0.970747 2.369046 0.052270 -0.000786 780057.000000 0 0 1
-19.229634 26.511756 -33.749132 47.028246 -0.943275 2.371197 0.034931 -0.003020 604055.000000 0 0 1
-20.404234 26.029556 -33.136522 46.817728 -0.905958 2.357143 0.037847 -0.010499 377757.000000 0 0 1
-21.712034 26.103356 -33.984492 48.038977 -0.876980 2.356660 0.038909 -0.021046 -244238.000000 0 0 1
-21.821234 25.519156 33.545880 47.462823 -0.863353 0.785857 0.035144 -0.021531 -129892.000000 0 0 1
-22.024134 24.133156 33.563404 46.839874 -0.831058 0.771944 0.024472 -0.020977 -118469.000000 0 0 1
-22.125934 23.449256 32.207221 45.571149 -0.814426 0.785908 0.024237 -0.011284 1381270.000000 0 0 1
-23.514134 23.560156 31.775881 46.018497 -0.786376 0.808613 0.012776 -0.014383 1065000.000000 0 0 1
-23.823934 23.056256 30.516391 45.060192 -0.769024 0.826797 0.023477 -0.006501 622766.000000 0 0 1
-25.353834 22.767056 30.410471 45.672229 -0.731694 0.842175 0.020847 -0.004582 654354.000000 0 0 1
-25.699534 21.488456 30.909661 45.580993 -0.696393 0.825586 0.019384 -0.013465 -125143.000000 0 0 1
-26.926734 21.049256 30.365951 45.718827 -0.663497 0.844388 0.024449 -0.013315 8920.440000 0 0 1
-27.351234 19.646656 30.847491 45.668904 -0.622909 0.829209 0.038292 -0.015169 -214037.000000 0 0 1
-27.774234 19.565956 32.201471 46.809929 -0.613716 0.812177 0.047618 -0.016277 53982.900000 0 0 1
-27.993734 18.275056 32.907109 46.909537 -0.578360 0.793294 0.039080 -0.005985 -219145.000000 0 0 1
-28.938434 17.286056 32.217901 46.628680 -0.538461 0.807999 0.027625 -0.007510 -593950.000000 0 0 1
-30.231834 17.809656 32.048051 47.520787 -0.532368 0.830644 0.024425 -0.009949 -54352.200000 0 0 1
-31.046834 16.702756 31.605521 47.347618 -0.493572 0.839922 0.025244 0.002193 -222684.000000 0 0 1
-32.560634 16.835256 31.681941 48.449624 -0.477189 0.858049 0.010943 -0.001070 -639459.000000 0 0 1
-33.115934 16.717556 32.974737 49.633406 -0.467495 0.844151 0.018593 -0.009619 211875.000000 0 0 1
-34.521434 16.705756 33.042395 50.622244 -0.450704 0.859621 0.026031 -0.015366 -254425.000000 0 0 1
-34.932134 17.293156 -34.373768 51.969829 -0.459680 2.293504 0.037220 -0.015531 -840050.000000 0 0 1
35.236382 17.520656 -34.300015 52.202174 0.461431 2.287710 0.032049 -0.019581 -665978.000000 0 0 1
34.893082 18.061056 -33.031992 51.330706 0.477637 2.269876 0.027008 -0.024214 -1202110.000000 0 0 1
33.428682 18.133856 -32.759732 50.194756 0.497039 2.281876 0.026698 -0.023983 -988094.000000 0 0 1
32.807582 16.806956 -32.773742 49.324734 0.473430 2.297552 0.021043 -0.017566 -387946.000000 0 0 1
31.516082 16.954056 -32.278892 48.193675 0.493544 2.304701 0.016950 -0.014614 -742002.000000 0 0 1
30.577682 15.734656 -32.424432 47.264340 0.475243 2.326805 0.015095 -0.013310 6672.870000 0 0 1
29.962782 15.584856 -33.730422 47.732561 0.479630 2.355555 0.020939 -0.021180 128016.000000 0 0 1
29.147482 14.425656 -33.813262 46.914943 0.459575 2.375659 0.019756 -0.022072 -477050.000000 0 0 1
29.746582 13.056656 -34.168798 47.147027 0.413610 2.381437 0.016883 -0.016475 15660.300000 0 0 1
30.532782 12.532456 -33.080872 46.729619 0.389490 2.357346 0.018122 -0.004796 -83612.200000 0 0 1
31.328882 11.524156 -33.568712 47.340928 0.352483 2.358995 0.021831 -0.001574 -769469.000000 0 0 1
17.108082 -20.911944 10.374188 28.941660 -0.885115 1.204187 0.015585 -0.030922 -200922.000000 0 0 1
17.016982 -22.115544 11.074688 30.022053 -0.914958 1.192987 0.032527 -0.032599 54045.500000 0 0 1
18.275882 -22.744244 11.232988 31.264813 -0.893901 1.203294 0.034271 -0.025615 59612.700000 0 0 1
18.182282 -24.153444 11.983588 32.520619 -0.925517 1.193410 0.049132 -0.026799 176782.000000 0 0 1
17.447182 -25.123134 11.259088 32.593605 -0.963794 1.218090 0.035563 -0.023247 198765.000000 0 0 1
16.091582 -25.306154 11.624788 32.163273 -1.004414 1.200995 0.037952 -0.017608 166957.000000 0 0 1
15.296482 -26.219614 10.683088 32.180412 -1.042673 1.232400 0.053601 -0.004803 -113301.000000 0 0 1
15.063182 -25.761724 9.373988 31.279986 -1.041694 1.266439 0.047007 -0.014722 -131422.000000 0 0 1
14.612282 -26.685604 8.437688 31.572691 -1.069819 1.300262 0.055926 -0.008550 -374861.000000 0 0 1
14.255682 -26.110504 7.087988 30.581407 -1.071049 1.336895 0.061932 -0.014940 -513686.000000 0 0 1
13.168882 -25.232874 7.064588 29.326197 -1.089787 1.327507 0.062772 -0.026891 -251852.000000 0 0 1
13.013982 -24.658144 5.771388 28.472737 -1.085175 1.366683 0.053018 -0.011606 -24698.400000 0 0 1
12.056282 -23.461544 5.904888 27.030829 -1.096111 1.350570 0.052509 -0.010074 -543259.000000 0 0 1
11.863482 -22.621444 4.770688 25.985215 -1.087792 1.386157 0.057018 -0.009728 117951.000000 0 0 1
11.135682 -21.437344 5.083388 24.686109 -1.091708 1.363392 0.064805 -0.008237 3909.310000 0 1 0
10.271182 -20.789044 3.996888 23.529910 -1.111906 1.400105 0.043068 -0.003853 -25606.100000 0 1 0
11.040582 -20.094944 3.019888 23.126196 -1.068398 1.439839 0.024288 0.002699 354053.000000 0 1 0
10.282682 -19.844544 1.818288 22.424220 -1.092725 1.489621 0.019460 0.019579 390486.000000 0 1 0
11.155782 -19.319044 0.628988 22.317540 -1.047123 1.542609 0.010402 0.020551 286516.000000 0 1 0
11.809882 -18.095744 0.796488 21.623221 -0.992572 1.533953 0.010528 0.015669 -190134.000000 0 1 0
12.595082 -17.808544 -0.364012 21.815427 -0.955222 1.587483 0.022626 0.010617 11692.900000 0 1 0
13.651982 -16.724444 0.028688 21.588990 -0.886202 1.569467 0.020785 0.011931 121223.000000 0 1 0
14.636682 -17.333544 0.844988 22.702384 -0.869554 1.533567 0.014188 0.005240 -807738.000000 0 1 0
15.794982 -16.586544 0.941788 22.923391 -0.809838 1.529701 0.017077 -0.002617 -25790.000000 0 1 0
16.993682 -17.324644 1.618588 24.321767 -0.795042 1.504198 0.009949 0.009631 155181.000000 0 1 0
17.337182 -18.500544 0.993088 25.373889 -0.817849 1.531648 0.016197 0.007591 -111130.000000 0 0 1
18.517982 -19.132244 1.431888 26.664747 -0.801712 1.517071 0.018189 0.009277 290434.000000 0 0 1
18.715982 -20.514244 0.731288 27.778715 -0.831205 1.544468 -0.001285 0.011243 -275298.000000 0 0 1
17.876082 -21.447144 1.296788 27.950241 -0.875963 1.524383 0.005076 0.017079 -338093.000000 0 0 1
18.067682 -22.623044 0.556988 28.957788 -0.896885 1.551561 0.012557 0.017806 -43423.400000 0 0 1
17.102782 -23.784844 0.919288 29.309880 -0.947391 1.539427 0.013356 0.017448 -63729.300000 0 0 1
17.349282 -24.297944 2.230388 29.939310 -0.950721 1.496230 0.014128 0.016676 382051.000000 0 0 1
16.381382 -25.281574 2.645288 30.240787 -0.995858 1.483210 0.018913 0.015039 -167277.000000 0 0 1
16.607082 -26.009144 3.985888 31.115238 -1.002541 1.442343 0.035622 -0.005226 36220.300000 0 0 1
17.576382 -27.027864 3.911888 32.476723 -0.994206 1.450051 0.033797 0.001470 -639265.000000 0 0 1
18.903582 -26.612384 4.022788 32.889926 -0.953171 1.448179 0.037128 0.014294 -718670.000000 0 0 1
19.858182 -27.858474 3.874488 34.430417 -0.951516 1.458026 0.042484 0.010376 114380.000000 0 0 1
19.885182 -28.458414 2.571088 34.812531 -0.960913 1.496874 0.035652 0.017049 47553.600000 0 0 1
20.743082 -29.582064 2.390788 36.208975 -0.959262 1.504721 0.055174 0.018958 265197.000000 0 0 1
20.228682 -30.893784 3.011188 37.049868 -0.991067 1.489433 0.054240 0.013611 72957.600000 0 0 1
20.295982 -30.929494 4.419888 37.257159 -0.990074 1.451884 0.068680 0.012822 -344584.000000 0 0 1
19.367982 -31.877884 4.829788 37.611768 -1.024831 1.442029 0.065644 -0.002882 -550053.000000 0 0 1
19.278382 -32.148844 6.354488 38.020833 -1.030627 1.402877 0.058612 -0.009709 -716337.000000 0 0 1
20.296982 -32.889234 6.919188 39.262506 -1.017875 1.393642 0.055102 -0.026018 -480520.000000 0 0 1
19.939282 -33.592614 8.132588 39.902101 -1.035124 1.365545 0.043833 -0.025071 -114208.000000 0 0 1
21.085882 34.322185 8.721388 41.215160 1.019891 1.357578 0.055364 -0.028937 102624.000000 0 0 1
22.026082 -33.684944 9.493188 41.351474 -0.991695 1.339157 0.070022 -0.028256 -145234.000000 0 0 1
23.095182 34.249568 9.850788 42.467145 0.977514 1.336702 0.084639 -0.031579 -717899.000000 0 0 1
24.211482 -33.719794 10.527088 42.825693 -0.948079 1.322439 0.074913 -0.023447 -560874.000000 0 0 1
24.785782 -32.686144 9.775788 42.169717 -0.922007 1.336848 0.055680 -0.021672 357314.000000 0 0 1
25.689982 -31.841174 10.501288 42.238757 -0.891913 1.319544 0.043063 -0.009421 761059.000000 0 0 1
26.364782 -30.734474 9.613588 41.618874 -0.861777 1.337700 0.036055 -0.013833 -135076.000000 0 0 1
25.361682 -29.847614 9.254988 40.246115 -0.866473 1.338760 0.034760 -0.010983 -59857.000000 0 0 1
25.830382 -28.915084 8.289588 39.648556 -0.841685 1.360166 0.038358 -0.010078 -219539.000000 0 0 1
25.510582 -27.419274 8.628288 38.432457 -0.821443 1.344361 0.027320 0.004923 -91828.800000 0 0 1
26.335982 -26.924954 9.663588 38.883442 -0.796456 1.319637 0.018150 -0.013964 -61206.400000 0 0 1
26.181282 -25.491434 9.710488 37.809606 -0.772049 1.311060 0.032333 -0.017733 -558425.000000 0 0 1
27.228582 -24.740244 10.493788 38.256959 -0.737553 1.292937 0.048245 -0.024806 -300899.000000 0 0 1
28.496882 -24.795944 9.860088 39.040139 -0.716064 1.315468 0.015698 -0.014931 81627.700000 0 0 1
29.459282 -24.094344 10.689388 39.530365 -0.685552 1.296978 0.035893 -0.016319 44187.400000 0 0 1
30.690682 -23.740244 9.902388 40.044656 -0.658393 1.320921 0.039245 -0.014776 -365770.000000 0 0 1
30.244382 -23.046044 8.757088 39.019603 -0.651133 1.344440 0.018947 -0.014432 245091.000000 0 0 1
31.365782 -22.652044 7.958988 39.500290 -0.625464 1.367916 0.025147 -0.019499 194062.000000 0 0 1
31.057682 -21.768844 6.689288 38.512449 -0.611341 1.396219 0.033163 -0.011531 -332757.000000 0 0 1
30.746082 -20.396544 7.021588 37.558531 -0.585728 1.382739 0.037827 -0.008152 -29453.800000 0 0 1
30.780082 -19.594344 5.865588 36.956148 -0.566892 1.411405 0.033436 -0.008557 -236886.000000 0 0 1
30.386682 -18.133644 6.185588 35.922709 -0.538036 1.397742 0.051272 -0.012101 -22127.200000 0 0 1
31.351582 -17.516044 7.006788 36.590006 -0.509496 1.378112 0.062525 -0.015487 69230.600000 0 0 1
30.930782 -16.223744 7.433888 35.709744 -0.483069 1.361087 0.066390 -0.020145 129706.000000 0 0 1
31.565682 -15.901344 8.814188 36.427118 -0.466646 1.326403 0.068393 -0.030938 1292030.000000 0 0 1
32.997682 -15.722944 8.713488 37.576360 -0.444660 1.336779 0.056197 -0.019972 966830.000000 0 0 1
33.460082 -15.046044 9.923188 38.005660 -0.422581 1.306637 0.057567 -0.024749 1470350.000000 0 0 1
35.034182 -15.039044 10.091388 39.438596 -0.405480 1.312043 0.054802 -0.026496 1360460.000000 0 0 1
35.750982 -14.240544 9.153488 39.556443 -0.379062 1.337277 0.066707 -0.020509 767106.000000 0 0 1
-34.400434 -14.608844 9.103788 38.466702 0.401591 1.331863 0.066203 -0.022556 845202.000000 0 0 1
-33.604434 -13.602544 8.268388 37.184048 0.384624 1.346558 0.070582 -0.017287 -578070.000000 0 0 1
-33.998634 -13.467244 6.926488 37.218947 0.377150 1.383604 0.071624 -0.019461 -371790.000000 0 0 1
-33.095434 -12.771244 6.112788 35.996925 0.368285 1.400155 0.050034 -0.013353 -438057.000000 0 0 1
-32.004934 -13.686744 5.545388 35.247612 0.404109 1.412813 0.032136 -0.012996 -431058.000000 0 0 1
-31.089834 -14.324444 6.394688 34.823261 0.431752 1.386116 0.037855 -0.009152 -79163.200000 0 0 1
-30.400334 -15.399044 5.804988 34.568899 0.468867 1.402072 0.027500 -0.001808 -131681.000000 0 0 1
-29.776734 -16.211044 6.915088 34.601594 0.498549 1.369593 0.017374 -0.016153 -323388.000000 0 0 1
-30.707134 -17.080244 7.513388 35.932073 0.507614 1.360142 0.027752 -0.023104 -281272.000000 0 0 1
-30.506934 -17.181444 8.895088 36.124751 0.512920 1.322005 0.013648 -0.015153 -160480.000000 0 0 1
-31.570134 -17.936444 9.691188 37.580694 0.516668 1.309972 -0.005451 -0.016400 -364042.000000 0 0 1
-32.875834 -17.381044 9.681788 38.427311 0.486333 1.316101 0.021504 -0.016764 -35132.200000 0 0 1
-33.856834 -17.982544 10.459888 39.737468 0.488244 1.304433 0.049394 -0.026009 -18362.400000 0 0 1
-34.374034 -19.397444 10.091388 40.739062 0.513760 1.320483 0.046348 -0.026144 -1405760.000000 0 0 1
-33.545834 -20.500844 10.383288 40.662271 0.548563 1.312582 0.042811 -0.020956 -576860.000000 0 0 1
-33.259434 -20.843244 11.719088 40.963006 0.559811 1.280653 0.036880 -0.027238 -88960.100000 0 0 1
-34.352234 -21.440244 12.656388 42.425750 0.557973 1.267866 0.027089 -0.035306 -36938.600000 0 0 1
-34.533234 -22.876444 12.418388 43.244564 0.585076 1.279529 0.041310 -0.035432 289187.000000 0 0 1
-35.539534 -23.242244 11.477988 43.988688 0.579170 1.306810 0.043536 -0.020815 -22436.500000 0 0 1
35.734482 -24.745744 11.517188 44.966106 -0.605667 1.311779 0.035733 -0.015564 -218383.000000 0 0 1
35.182282 -25.039494 12.816788 45.044859 -0.618540 1.282276 0.074712 -0.014936 347278.000000 0 0 1
34.456882 -26.265584 12.779188 45.171510 -0.651310 1.283976 0.041872 -0.006675 -275222.000000 0 0 1
33.620182 -26.498034 14.024588 45.046104 -0.667479 1.254195 0.051449 -0.012034 366023.000000 0 0 1
32.480182 -25.608354 13.977688 43.659200 -0.667646 1.244904 0.036031 -0.007780 321692.000000 0 0 1
31.841282 -25.499434 15.222588 43.540964 -0.675246 1.213636 0.027630 0.002394 -372779.000000 0 0 1
31.537482 -24.008044 15.575488 42.586322 -0.650665 1.196369 0.052351 -0.006153 210446.000000 0 0 1
32.663182 -23.224744 15.997888 43.153269 -0.618095 1.191009 0.054948 -0.015627 310682.000000 0 0 1
33.415682 -22.649944 14.943488 43.045739 -0.595687 1.216262 0.047095 -0.015941 928310.000000 0 0 1
34.759082 -21.994444 15.465988 43.944808 -0.564166 1.211152 0.046930 -0.016292 617030.000000 0 0 1
34.690982 -20.679344 16.016188 43.446723 -0.537548 1.193251 0.050192 -0.011251 32681.100000 0 0 1
33.793982 -20.482244 17.095888 43.056067 -0.544886 1.162484 0.048480 -0.015029 -20448.300000 0 0 1
33.879782 -19.112744 17.843488 42.796340 -0.513630 1.140721 0.048104 -0.013955 -1113210.000000 0 0 1
33.508482 -18.017444 17.107088 41.714495 -0.493349 1.148233 0.054364 -0.024395 55081.400000 0 0 1
33.712482 -16.744444 17.622688 41.562808 -0.460991 1.132937 0.045740 -0.024254 -225487.000000 0 0 1
35.149582 -16.347244 18.019988 42.748631 -0.435321 1.135660 0.045079 -0.023272 -421082.000000 0 0 1
35.319082 -16.627344 19.408488 43.595820 -0.439996 1.109408 0.035459 -0.012829 -60111.000000 0 0 1
-35.278334 -15.710444 19.891488 43.440191 0.418962 1.095159 0.013101 -0.007224 -362991.000000 0 0 1
-34.964534 -15.779944 21.388588 43.920348 0.423945 1.062161 0.002985 -0.007479 -514553.000000 0 0 1
-34.124234 -16.794344 21.818388 43.846955 0.457350 1.049963 0.005220 0.003726 -138759.000000 0 0 1
-33.886534 -16.623344 23.213088 44.311175 0.456066 1.019414 0.008641 0.000814 184161.000000 0 0 1
-32.859034 -17.618644 23.803088 44.234825 0.492178 1.002606 0.002284 0.012560 -392855.000000 0 0 1
-33.364934 -18.940844 23.572588 45.029339 0.516321 1.019850 0.003700 0.009539 755882.000000 0 0 1
-32.476034 -20.019144 23.873988 45.004736 0.552412 1.011633 -0.008087 0.016616 664283.000000 0 0 1
-31.350234 -20.487444 22.863388 43.878321 0.578833 1.022700 -0.001653 0.026708 1409490.000000 0 0 1
-30.096834 -19.795244 22.974688 42.725957 0.581782 1.003063 0.000707 0.031674 -19131.700000 0 0 1
-29.140134 -20.362844 22.152288 41.886952 0.609914 1.013541 -0.003664 0.019675 292686.000000 0 0 1
-27.860234 -19.406844 22.186888 40.559540 0.608426 0.991996 0.011564 0.022560 633301.000000 0 0 1
-27.300634 -19.350344 23.474888 40.875798 0.616599 0.959050 0.015928 0.029467 7880.040000 0 0 1
-26.373334 -18.300244 23.592088 39.837650 0.606615 0.937003 0.027070 0.023432 -267878.000000 0 0 1
-25.973934 -17.956144 25.061088 40.312858 0.604873 0.899930 0.021199 0.010091 -833877.000000 0 0 1
-25.192534 -16.771044 25.160588 39.357171 0.587343 0.877224 0.020495 0.007888 222906.000000 0 0 1
-24.953634 -16.438944 26.516488 39.950556 0.582522 0.844998 0.015281 -0.000796 137652.000000 0 0 1
-23.823234 -17.279144 27.160388 40.047497 0.627509 0.825480 0.020159 0.000216 -784351.000000 0 0 1
-24.140434 -18.659544 27.499788 41.075266 0.658033 0.837264 0.025956 0.000589 68027.300000 0 0 1
-23.130234 -19.254044 28.311688 41.319216 0.694198 0.815926 0.034313 -0.009554 -182280.000000 0 0 1
-23.670834 -20.502344 29.066088 42.725777 0.713792 0.822633 0.030249 -0.000875 80581.400000 0 0 1
-24.650834 -20.167044 30.060788 43.795254 0.685685 0.814278 0.021663 -0.012177 216536.000000 0 0 1
-25.193234 -21.370644 30.536888 44.987832 0.703488 0.824695 0.017943 -0.005295 -257382.000000 0 0 1
-26.496534 -21.130044 31.337188 46.158038 0.673193 0.824518 0.022284 -0.013003 -464423.000000 0 0 1
-26.167334 -20.445344 32.559888 46.506858 0.663253 0.795246 0.028506 -0.021488 755832.000000 0 0 1
-27.256834 -20.193444 33.452488 47.642199 0.637625 0.792369 0.026635 -0.019473 164010.000000 0 0 1
-28.432534 -19.294444 33.033788 47.664617 0.596222 0.805090 0.024705 -0.018222 52229.600000 0 0 1
-29.291634 -19.907844 32.071988 47.780064 0.596932 0.834913 0.033098 -0.024171 261140.000000 0 0 1
-30.659834 -19.719944 32.374088 48.754315 0.571569 0.844607 0.025192 -0.028306 -178653.000000 0 0 1
-31.623834 -20.433744 31.419388 49.038584 0.573664 0.875377 0.024612 -0.002053 -1200840.000000 0 0 1
-31.745034 -19.730044 30.212588 48.060611 0.556090 0.890999 0.022124 -0.015417 186862.000000 0 0 1
-32.654734 -20.249444 29.283588 48.310456 0.555073 0.919580 0.017239 -0.017203 -213107.000000 0 0 1
-33.146934 -19.307344 28.180888 47.598900 0.527436 0.937197 0.010935 -0.013293 -308678.000000 0 0 1
-34.236834 -19.844644 27.499288 48.189019 0.525306 0.963493 -0.002385 -0.012595 -75700.700000 0 0 1
-34.880734 -18.963744 26.585788 47.781726 0.497973 0.980749 0.005424 -0.004921 545035.000000 0 0 1
35.378082 -19.474044 25.842188 47.944403 -0.503193 1.001543 0.000693 -0.001642 522945.000000 0 0 1
34.256082 -19.667344 26.679288 47.666214 -0.521178 0.976760 0.014053 -0.012388 383642.000000 0 0 1
33.190482 -20.254744 25.909988 46.724621 -0.547928 0.983004 0.052990 -0.022100 555683.000000 0 0 1
31.840782 -20.270044 26.676288 46.220498 -0.566902 0.955558 0.045336 -0.025469 99861.700000 0 0 1
31.355182 -18.996244 27.027688 45.546686 -0.544703 0.935512 0.040759 -0.029983 -460379.000000 0 0 1
30.115582 -19.158744 27.634288 45.140443 -0.566594 0.911976 0.035996 -0.020226 -506840.000000 0 0 1
-29.146928 -5.901744 34.126317 45.265655 0.199781 0.716800 0.012065 -0.014526 -273552.000000 0 0 1
-29.826138 -5.656944 32.912845 44.775606 0.187438 0.745038 0.016500 -0.001424 314668.000000 0 0 1
-29.373148 -4.554544 32.167821 43.798338 0.153833 0.745936 0.025659 -0.004894 -392779.000000 0 0 1
-30.258498 -4.255544 30.938721 43.484374 0.139723 0.779179 0.013917 -0.008314 -39032.700000 0 0 1
-30.131958 -5.156044 29.838051 42.718017 0.169474 0.797513 0.027189 -0.009644 -544843.000000 0 0 1
-28.878218 -5.123344 29.241361 41.415665 0.175585 0.786897 0.016496 -0.012802 -574514.000000 0 0 1
-28.628178 -6.202844 28.225811 40.678548 0.213371 0.803940 0.016103 -0.014291 4581.150000 0 0 1
-29.253308 -5.906944 26.990631 40.238566 0.199245 0.835556 0.017950 -0.007665 84299.100000 0 0 1
-28.861418 -6.796044 25.956101 39.406685 0.231259 0.851743 0.024930 -0.005216 -136497.000000 0 0 1
-29.739888 -6.566444 24.747121 39.242823 0.217309 0.888451 0.005451 0.000685 -324304.000000 0 0 1
-29.420408 -5.381644 24.058071 38.383763 0.180922 0.893386 0.019553 0.001235 -445928.000000 0 0 1
-30.234008 -5.109344 22.985851 38.321665 0.167412 0.927528 0.024646 0.001499 -922495.000000 0 0 1
-29.871908 -3.769244 22.299851 37.467605 0.125517 0.933311 0.021511 0.000486 -165905.000000 0 0 1
-28.541818 -3.833344 21.862251 36.156437 0.133507 0.921461 0.027392 0.003529 -485379.000000 0 0 1
-28.086838 -2.554944 21.525651 35.478893 0.090716 0.918872 0.035302 0.004782 985203.000000 0 0 1
-26.645028 -2.624244 20.876951 33.951307 0.098172 0.908526 0.025263 0.008183 718195.000000 0 0 1
-26.604688 -3.406544 19.696951 33.277377 0.127350 0.937380 0.035797 0.001948 -1186830.000000 0 0 1
-25.400378 -3.345744 19.049151 31.925591 0.130966 0.931447 0.039152 0.002067 -1209130.000000 0 0 1
-25.135788 -4.141144 17.752751 31.050235 0.163284 0.962168 0.045219 0.000952 -99739.200000 0 0 1
-25.910818 -3.649744 16.664751 31.022654 0.139937 1.003706 0.041237 0.001622 255273.000000 0 0 1
-25.399118 -4.200944 15.456151 30.027583 0.163913 1.030102 0.054567 -0.007620 -97074.000000 0 0 1
-26.450698 -4.179044 14.349451 30.381089 0.156698 1.078881 0.061228 -0.011156 -156449.000000 0 0 1
-26.815328 -2.984744 13.767051 30.290299 0.110851 1.098981 0.066226 -0.011070 189768.000000 0 0 1
-28.009538 -3.158844 13.014051 31.046385 0.112303 1.138253 0.068456 -0.018340 293100.000000 0 0 1
-28.451748 -1.910444 12.290951 31.051880 0.067046 1.163836 0.064343 -0.003847 -253469.000000 0 0 1
-27.813488 -1.713444 11.029051 29.969417 0.061527 1.193928 0.071935 -0.010383 81488.300000 0 0 1
-28.292008 -0.670844 10.174151 30.073262 0.023707 1.225674 0.070048 -0.003232 205861.000000 0 0 1
-29.664298 -0.967844 9.499451 31.163230 0.032615 1.261038 0.068761 -0.005404 530929.000000 0 0 1
-29.470298 -1.729244 8.344451 30.677657 0.058610 1.295321 0.063096 -0.016881 -65690.000000 0 0 1
-30.730938 -1.781644 7.733551 31.739134 0.057911 1.324659 0.063220 -0.016945 -215604.000000 0 0 1
-30.732948 -2.536744 6.360151 31.486516 0.082355 1.367401 0.069327 -0.023612 -372373.000000 0 0 1
-30.108868 -1.946844 5.210451 30.618343 0.064570 1.399790 0.071872 -0.032633 387852.000000 0 0 1
-30.731098 -0.761644 4.739851 31.103805 0.024779 1.417812 0.089552 -0.029347 -358458.000000 0 0 1
-30.306448 -0.262544 3.346551 30.491788 0.008663 1.460822 0.062718 -0.026085 -51141.200000 0 0 1
-30.886178 -1.053644 2.295451 30.989277 0.034101 1.496656 0.061910 -0.036457 308926.000000 0 0 1
-30.748628 -0.493944 0.957751 30.767506 0.016063 1.539663 0.053684 -0.041467 -306257.000000 0 0 1
-31.454448 -1.246444 -0.191249 31.479716 0.039606 1.576872 0.052839 -0.034904 855767.000000 0 0 1
-32.868488 -1.001944 -0.138949 32.884050 0.030474 1.575022 0.064893 -0.029300 1064470.000000 0 0 1
-33.628248 -1.402044 -1.287549 33.682081 0.041668 1.609032 0.057402 -0.027832 314881.000000 0 0 1
-35.146894 -1.154344 -1.160949 35.185003 0.032832 1.603798 0.057834 -0.023118 81776.000000 0 0 1
-35.758123 -1.929744 -0.147349 35.810459 0.053914 1.574911 0.062863 -0.020643 1611300.000000 0 0 1
34.371638 -1.632544 0.103751 34.410543 -0.047461 1.567781 0.070602 -0.013988 1618080.000000 0 0 1
33.677648 -2.819744 0.787251 33.804655 -0.083533 1.547506 0.068833 -0.024939 -541781.000000 0 0 1
34.021708 -2.962544 2.150451 34.218090 -0.086859 1.507909 0.072805 -0.017229 117701.000000 0 0 1
33.472788 -4.093444 2.765851 33.835392 -0.121687 1.488961 0.060796 -0.011455 2575.700000 0 0 1
33.781528 -4.109044 4.303751 34.301576 -0.121041 1.444997 0.067557 0.004446 -7482.080000 0 0 1
33.022798 -3.125944 4.950451 33.537795 -0.094379 1.422647 0.068753 -0.008988 73107.400000 0 0 1
33.083588 -3.277344 6.340351 33.844716 -0.098740 1.382346 0.070676 -0.012064 -183620.000000 0 0 1
32.339928 -2.193044 7.143451 33.192006 -0.067709 1.353883 0.071562 -0.011566 1309490.000000 0 0 1
30.916708 -2.115744 6.841151 31.735163 -0.068327 1.353521 0.071081 -0.009238 1420540.000000 0 0 1
30.380218 -1.024244 7.638551 31.342530 -0.033701 1.324605 0.088207 -0.012342 306180.000000 0 0 1
28.867478 -1.236344 7.960651 29.970515 -0.042802 1.301953 0.074279 -0.004890 68825.400000 0 0 1
27.961808 -1.169444 6.892651 28.822542 -0.041799 1.329315 0.071632 -0.007222 -280507.000000 0 0 1
26.641118 -1.291144 7.338051 27.663391 -0.048426 1.302321 0.079671 0.001798 -326080.000000 0 0 1
26.061298 -2.742644 7.157151 27.165017 -0.104852 1.304179 0.075841 -0.004395 -694101.000000 0 0 1
26.537998 -3.627144 8.127251 27.990600 -0.135836 1.276197 0.072761 -0.003096 552310.000000 0 0 1
26.084498 -4.949744 7.917551 27.705390 -0.187528 1.280980 0.065845 -0.005020 -189841.000000 0 0 1
26.479098 -5.888544 9.101151 28.612035 -0.218824 1.247084 0.055384 -0.002455 -336343.000000 0 0 1
25.739798 -5.672844 10.273151 28.288796 -0.216924 1.199147 0.057350 0.002503 292241.000000 0 0 1
26.235898 -6.397344 11.363551 29.298100 -0.239172 1.172488 0.051337 -0.001390 -665428.000000 0 0 1
25.278298 -6.549744 12.529751 28.963531 -0.253530 1.123417 0.049502 -0.002631 -164762.000000 0 0 1
24.170998 -7.366044 12.201951 28.060352 -0.295806 1.120928 0.062537 -0.013650 -922272.000000 0 0 1
23.036098 -6.989244 12.859251 27.292337 -0.294577 1.080183 0.071628 -0.017146 -770404.000000 0 0 1
21.898998 -8.022344 12.825551 26.616139 -0.351151 1.068007 0.079675 -0.019976 -40528.900000 0 0 1
22.168998 -9.118644 13.673451 27.596692 -0.390230 1.052416 0.066448 -0.025839 39594.000000 0 0 1
21.197698 -10.156544 13.671451 27.192027 -0.446816 1.043991 0.082982 -0.037207 28024.000000 0 0 1
21.612798 -11.353644 14.544951 28.417844 -0.483698 1.033489 0.058745 -0.024780 -139452.000000 0 0 1
21.468198 -11.044644 15.898451 28.907238 -0.475153 0.988454 0.067968 -0.034107 217257.000000 0 0 1
21.862098 -12.068144 16.765851 30.077985 -0.504387 0.979530 0.051839 -0.030695 -303346.000000 0 0 1
21.548998 -11.670444 18.202951 30.527135 -0.496354 0.931928 0.056967 -0.031230 -74142.300000 0 0 1
20.160598 -11.490444 18.425251 29.630557 -0.518027 0.899716 0.075252 -0.036751 -26196.100000 0 0 1
19.762198 -11.872744 19.710151 30.331445 -0.540993 0.863441 0.067693 -0.036418 76956.500000 0 0 1
20.139298 -10.919644 20.887851 31.002133 -0.496840 0.831517 0.058476 -0.030431 -65917.700000 0 0 1
19.395498 -9.680544 21.084651 30.240052 -0.462938 0.799253 0.059298 -0.027617 62712.100000 0 0 1
19.642798 -8.661544 20.132151 29.430687 -0.415305 0.817492 0.066312 -0.024604 -1811820.000000 0 0 1
20.556998 -7.556244 20.727051 30.154562 -0.352245 0.812948 0.062885 -0.012739 489457.000000 0 0 1
21.938398 -7.812344 20.898951 31.290448 -0.342102 0.839410 0.057206 -0.012287 481822.000000 0 0 1
22.570398 -8.218844 19.686351 31.056797 -0.349218 0.884234 0.067923 -0.025970 -2077710.000000 0 0 1
23.933998 -8.851244 19.909051 32.365894 -0.354221 0.908253 0.064745 -0.027065 -392351.000000 0 0 1
23.774298 -10.216544 20.288251 32.881729 -0.405871 0.905863 0.048900 -0.027307 357832.000000 0 0 1
25.040498 -10.835644 20.452951 34.099280 -0.408395 0.927538 0.051454 -0.032490 69374.300000 0 0 1
24.956998 -12.395544 20.582351 34.642956 -0.460985 0.934615 0.049639 -0.035694 -747110.000000 0 0 1
24.083798 -13.001644 19.671151 33.704988 -0.495017 0.947608 0.057493 -0.034106 -98371.700000 0 0 1
24.153998 -14.429144 19.674651 34.332313 -0.538492 0.960555 0.050372 -0.030602 -29215.600000 0 0 1
23.143398 -15.167744 18.762451 33.432124 -0.580149 0.974949 0.036663 -0.013901 -133943.000000 0 0 1
23.580898 -15.064744 17.419051 32.961016 -0.568500 1.013994 0.029569 -0.013148 1114630.000000 0 0 1
22.639498 -15.577844 16.411551 32.008672 -0.602683 1.032444 0.021384 -0.005819 361837.000000 0 0 1
22.171698 -17.046444 16.570851 32.507823 -0.655449 1.035903 0.026853 -0.010864 -290431.000000 0 0 1
23.198198 -17.993144 16.385651 33.621410 -0.659702 1.061735 0.052491 -0.011357 99381.100000 0 0 1
22.717598 -19.297444 16.524351 34.081297 -0.704174 1.064604 0.043270 -0.005040 10804.700000 0 0 1
23.866098 -20.332644 16.480051 35.420321 -0.705623 1.086856 0.035916 -0.008949 -140073.000000 0 0 1
24.421698 -20.463144 15.228151 35.313683 -0.697432 1.124946 0.043547 -0.021823 68878.600000 0 0 1
25.365198 -21.528744 15.166751 36.563786 -0.703769 1.143071 0.032783 -0.021768 -340483.000000 0 0 1
26.104498 -21.519944 13.844751 36.554479 -0.689429 1.182359 0.024260 -0.030724 -469388.000000 0 0 1
25.316498 -21.803244 12.723951 35.751999 -0.710976 1.206925 0.034951 -0.030096 -65147.800000 0 0 1
26.085698 -21.617044 11.572251 35.800520 -0.691994 1.241642 0.020702 -0.031107 -448503.000000 0 0 1
25.270898 -21.427244 10.281051 34.690706 -0.703275 1.269914 0.020810 -0.028690 163585.000000 0 0 1
24.563598 -22.565344 9.793051 34.763040 -0.743024 1.285222 0.015851 -0.028060 -23787.900000 0 0 1
23.189498 -22.569544 10.131351 33.908427 -0.771851 1.267376 0.010669 -0.017985 -203919.000000 0 0 1
22.450198 -23.458044 9.122651 33.727051 -0.807348 1.296900 0.011544 -0.014604 -369553.000000 0 0 1
22.853898 -24.819144 9.193051 34.968597 -0.826598 1.304775 0.006963 -0.005299 136388.000000 0 0 1
22.367298 -25.603004 8.076551 34.943390 -0.852748 1.337555 0.020072 0.006152 376484.000000 0 0 1
20.907598 -26.142504 8.179351 34.459541 -0.896205 1.331148 0.024598 0.019670 378828.000000 0 0 1
19.949598 -25.122694 8.074151 33.080631 -0.899671 1.324231 0.015944 0.010127 -1191.040000 0 0 1
18.619998 -25.657574 8.072351 32.713580 -0.943022 1.321463 0.036987 -0.004841 1202790.000000 0 0 1
17.526698 -24.514644 7.970951 31.171926 -0.950108 1.312215 0.036163 -0.018525 7167.700000 0 0 1
17.375898 -24.060944 6.642051 30.413282 -0.945351 1.350629 0.042340 -0.012925 -88048.100000 0 0 1
16.678398 -22.850244 6.688751 29.069606 -0.940284 1.338622 0.046302 -0.018164 -152249.000000 0 0 1
16.286498 -22.373944 5.231451 28.164010 -0.941575 1.383962 0.041934 -0.005735 -46431.400000 0 0 1
15.557898 -21.162244 5.243051 26.783920 -0.936853 1.373770 0.065411 -0.004208 -58072.300000 0 0 1
15.158798 -20.632144 4.012251 25.914720 -0.937148 1.415346 0.048979 0.004245 -52018.300000 0 0 1
14.241698 -19.412744 4.171151 24.435202 -0.937857 1.399254 0.035296 0.013648 -292801.000000 0 1 0
14.857298 -18.273744 4.741851 24.024033 -0.888154 1.372112 0.017224 0.006798 14483.300000 0 1 0
14.058898 -17.108744 4.718151 22.641172 -0.882941 1.360870 0.002518 0.018131 -383730.000000 0 1 0
14.952398 -15.906344 4.606551 22.311573 -0.816302 1.362836 -0.010017 0.010572 -432668.000000 0 1 0
15.742798 -15.753044 5.754751 23.002418 -0.785723 1.317930 0.013635 0.000280 239374.000000 0 1 0
16.737898 -14.738744 5.784351 23.040107 -0.721971 1.317026 0.016770 -0.005043 1003520.000000 0 1 0
18.154198 -15.228344 5.332251 24.288068 -0.697975 1.349451 0.030560 -0.015930 473445.000000 0 1 0
19.146898 -14.232344 5.279051 24.434232 -0.639215 1.353028 0.055263 -0.018033 379558.000000 0 1 0
20.463198 -14.666744 4.986251 25.665513 -0.621871 1.375275 0.072003 -0.027801 1040010.000000 0 0 1
21.587498 -13.562244 4.990851 25.978128 -0.560930 1.377477 0.077559 -0.029286 455914.000000 0 0 1
21.704198 -13.021844 6.283851 26.079253 -0.540397 1.327450 0.091530 -0.025810 689513.000000 0 0 1
22.879598 -12.215144 6.456651 26.727777 -0.490389 1.326812 0.098532 -0.022163 348334.000000 0 0 1
22.934198 -11.408244 7.745651 26.760429 -0.461593 1.277150 0.097575 -0.020668 -242825.000000 0 0 1
23.395398 -12.199644 8.784351 27.809005 -0.480664 1.249411 0.091819 -0.016992 263585.000000 0 0 1
23.235898 -11.656444 10.090751 27.885532 -0.464972 1.200530 0.093431 -0.024444 -18647.800000 0 0 1
23.615298 -12.644644 11.226251 29.044759 -0.491598 1.173946 0.072491 -0.021759 -22239.800000 0 0 1
22.555198 -13.506944 11.553051 28.716676 -0.539566 1.156756 0.077253 -0.020455 458065.000000 0 0 1
23.055798 -14.549144 12.384251 29.943565 -0.562931 1.144407 0.063377 -0.024792 57257.500000 0 0 1
21.900398 -15.539144 12.654051 29.685307 -0.617098 1.130427 0.058090 -0.027811 454171.000000 0 0 1
20.986998 -14.872844 13.553951 29.075164 -0.616521 1.085840 0.039806 -0.022271 248531.000000 0 0 1
19.789298 -15.612744 13.703651 28.690837 -0.667966 1.072839 0.022498 -0.024663 -183496.000000 0 0 1
18.625798 -14.794644 14.255851 27.731410 -0.671261 1.030875 0.017326 -0.025030 -694141.000000 0 0 1
18.868598 -14.452844 15.576151 28.416987 -0.653646 0.990672 0.021521 -0.020240 73031.000000 0 0 1
18.376998 -13.180344 15.820051 27.599086 -0.622190 0.960379 0.050967 -0.038871 1749170.000000 0 0 1
16.799498 -12.906044 16.035251 26.569124 -0.655073 0.922876 0.048925 -0.038965 1674280.000000 0 0 1
16.099998 -13.019944 14.781251 25.440406 -0.680019 0.950821 0.050985 -0.042627 -138877.000000 0 0 1
14.730898 -12.714244 14.881551 24.497182 -0.712051 0.917912 0.069319 -0.040497 -65166.800000 0 1 0
14.389098 -11.238544 14.684751 23.430598 -0.663076 0.893442 0.061424 -0.038308 -452117.000000 0 1 0
14.984598 -10.359644 15.623051 23.998752 -0.604899 0.861903 0.051532 -0.034438 86206.800000 0 1 0
14.596598 -9.011944 15.493251 23.115290 -0.553116 0.836237 0.047270 -0.028660 -497435.000000 0 1 0
15.295798 -8.053344 16.550851 23.932163 -0.484628 0.807131 0.055766 -0.020234 -744017.000000 0 1 0
16.653398 -7.976744 16.318051 24.642299 -0.446696 0.847050 0.065443 -0.038265 -1205930.000000 0 1 0
17.384798 -8.845344 17.141151 25.967102 -0.470661 0.849831 0.076553 -0.031967 -580780.000000 0 0 1
18.873598 -8.837844 16.742151 26.732374 -0.437939 0.894014 0.071527 -0.028873 -224119.000000 0 0 1
19.522598 -7.605344 16.912151 26.925711 -0.371479 0.891682 0.080879 -0.036795 -751113.000000 0 0 1
20.743198 -7.599344 16.264151 27.432697 -0.351169 0.936172 0.082939 -0.022486 -1117620.000000 0 0 1
21.467598 -6.320044 16.511751 27.810765 -0.286311 0.935125 0.076878 -0.010584 -362005.000000 0 0 1
22.002298 -6.156344 17.838751 28.986595 -0.272828 0.907885 0.071959 -0.011787 407498.000000 0 0 1
22.533398 -4.869044 18.104951 29.312981 -0.212809 0.905054 0.072562 -0.016273 -52997.200000 0 0 1
-5.408118 -33.022481 -6.188312 34.029799 1.408467 1.753664 0.015718 -0.017254 50764.600000 0 0 1
-6.060418 -31.773281 -6.442412 32.981430 1.382321 1.767395 0.020286 -0.017141 102742.000000 0 0 1
-5.877418 -30.843781 -5.418512 31.862881 1.382499 1.741684 0.025016 -0.018162 -731372.000000 0 0 1
-6.558618 -29.466981 -5.452312 30.676476 1.351791 1.749482 0.037301 -0.018522 52137.400000 0 0 1
-7.939118 -29.429181 -5.201412 30.921853 1.307299 1.739811 0.040373 -0.016526 160733.000000 0 0 1
-8.812218 -29.851481 -6.260112 31.748309 1.283747 1.769276 0.032090 -0.006764 -616245.000000 0 0 1
-10.274618 -29.829481 -5.858612 32.088769 1.239079 1.754401 0.037669 -0.000956 -738701.000000 0 0 1
-11.156818 -30.418681 -6.765512 33.098987 1.219256 1.776649 0.031218 0.001602 -54129.500000 0 0 1
-12.512718 -30.177181 -6.364512 33.282689 1.177732 1.763207 0.046485 0.000693 549849.000000 0 0 1
-13.413918 -30.887481 -7.388012 34.475389 1.161089 1.786770 0.043730 0.001506 -173411.000000 0 0 1
-13.406218 -30.139481 -8.584512 34.085317 1.152270 1.825392 0.052839 -0.000157 211303.000000 0 0 1
-14.402518 -30.613881 -9.481612 35.136067 1.131061 1.844038 0.051605 -0.000115 197049.000000 0 0 1
-14.490918 -29.704381 -10.736912 34.750802 1.116926 1.884905 0.069897 0.000508 -369742.000000 0 0 1
-15.060118 -28.434581 -10.569912 33.868209 1.083718 1.888188 0.078527 -0.006549 246060.000000 0 0 1
-14.128918 -27.440581 -10.153612 32.491655 1.095307 1.888619 0.076785 -0.003654 125444.000000 0 0 1
-14.756218 -26.019281 -9.842112 31.489937 1.054899 1.888670 0.083177 0.004245 19068.000000 0 0 1
-15.222918 -25.265981 -10.903012 31.448096 1.028536 1.924845 0.087310 -0.006812 -1084.200000 0 0 1
-15.650618 -24.049381 -10.441212 30.534137 0.993880 1.919790 0.054909 0.007537 -464247.000000 0 0 1
-16.267718 -23.146181 -11.512212 30.543664 0.958177 1.957254 0.074055 0.001772 -779493.000000 0 0 1
-17.528918 -23.628781 -11.833612 31.711459 0.932534 1.953215 0.072933 -0.004451 -1070830.000000 0 0 1
-18.108618 -22.788481 -12.829112 31.809166 0.899333 1.985933 0.085326 -0.006423 1301790.000000 0 0 1
-19.594818 -23.294281 -13.143712 33.156260 0.871442 1.978407 0.072672 0.002187 1021630.000000 0 0 1
-19.679618 -24.604481 -13.701612 34.356980 0.896154 1.981006 0.098544 -0.000681 -150206.000000 0 0 1
-19.495118 -25.611881 -12.704512 34.603941 0.920182 1.946729 0.103617 -0.005209 -1307140.000000 0 0 1
-19.500018 -27.091581 -13.251812 35.913995 0.946917 1.948716 0.098527 -0.006434 165686.000000 0 0 1
-18.467718 -27.473581 -14.131212 35.993686 0.978973 1.974256 0.098110 -0.011869 190169.000000 0 0 1
-17.117718 -27.256881 -13.780212 35.012114 1.010032 1.975323 0.099119 -0.012703 -113007.000000 0 0 1
-16.234518 -28.523981 -14.019712 35.689346 1.053367 1.974499 0.083801 -0.015765 -23629.000000 0 0 1
-16.102818 -28.849081 -15.393512 36.449012 1.061699 2.006811 0.091718 -0.020840 -298388.000000 0 0 1
-15.334418 -29.979281 -15.752612 37.175886 1.097991 2.008358 0.092627 -0.024526 -360424.000000 0 0 1
-15.896018 -31.384781 -15.710312 38.529233 1.101972 1.990785 0.080037 -0.025289 -678056.000000 0 0 1
-16.216918 -31.725581 -14.398712 38.429466 1.098259 1.954847 0.076430 -0.024021 -110562.000000 0 0 1
-16.439318 -33.120181 -14.268112 39.633024 1.110070 1.939070 0.053634 -0.015517 -1089780.000000 0 0 1
-17.032618 -33.438281 -12.859812 39.668672 1.099677 1.900942 0.070597 -0.016471 992440.000000 0 0 1
-18.435618 -33.174881 -12.646012 40.004580 1.063580 1.892427 0.084834 -0.014386 1052140.000000 0 0 1
-18.897318 -31.847081 -12.828312 39.190698 1.035261 1.904273 0.091817 -0.013455 -653766.000000 0 0 1
-18.376218 -30.789481 -11.761012 37.735911 1.032708 1.887743 0.099760 -0.014035 -100756.000000 0 0 1
-18.752118 -31.168981 -10.458112 37.848639 1.029181 1.850753 0.090968 -0.014892 155862.000000 0 0 1
-18.408418 -30.167381 -9.533812 36.603747 1.022904 1.834295 0.091077 -0.005997 -48782.700000 0 0 1
-18.617218 -30.529481 -8.037712 36.650441 1.023194 1.791901 0.069850 -0.001382 32381.600000 0 0 1
-17.756418 -31.522481 -7.530712 36.954957 1.057804 1.776015 0.075726 -0.007242 138984.000000 0 0 1
-18.114118 -31.724081 -6.145212 37.044598 1.051981 1.737454 0.074435 -0.009117 483256.000000 0 0 1
-17.275818 -32.789581 -5.311012 37.440852 1.085885 1.713127 0.085715 -0.016183 1216830.000000 0 0 1
-15.901518 -32.490581 -5.010912 36.518562 1.115649 1.708446 0.075730 -0.007062 975045.000000 0 0 1
-15.717018 -32.454681 -3.599212 36.239279 1.119807 1.670278 0.061695 -0.011241 -184973.000000 0 0 1
-14.549718 -31.566281 -3.170812 34.902413 1.138894 1.661770 0.064138 -0.006648 1160300.000000 0 0 1
-13.230218 -32.177781 -3.234612 34.941537 1.180706 1.663501 0.039007 -0.008964 884186.000000 0 0 1
-12.251018 -31.289081 -2.717612 33.711711 1.197602 1.651497 0.049291 -0.009559 -145489.000000 0 0 1
-10.880518 -31.962681 -2.706312 33.872154 1.242687 1.650779 0.052008 -0.017276 -771654.000000 0 0 1
-10.868518 -33.091981 -1.811712 34.878162 1.253462 1.622764 0.044107 -0.014177 321649.000000 0 0 1
-9.594818 -33.743981 -1.871612 35.131464 1.293766 1.624096 0.026161 -0.014749 397462.000000 0 0 1
-8.516718 -33.136781 -0.954512 34.227063 1.319224 1.598688 0.018256 -0.010736 -482076.000000 0 0 1
-8.912418 -33.127681 0.396688 34.307897 1.307987 1.559233 0.026306 -0.007325 42316.300000 0 0 1
-7.831318 -32.912481 1.294088 33.856102 1.337197 1.532564 0.027165 -0.006346 426642.000000 0 0 1
-7.007718 -34.124981 1.712988 34.879174 1.368258 1.521665 0.026499 -0.008320 180068.000000 0 0 1
-7.755518 33.838056 2.653488 34.816707 -1.345492 1.494509 0.037314 -0.010798 783385.000000 0 0 1
-6.903718 32.882056 3.337688 33.764346 -1.363848 1.471782 0.042058 -0.012428 193912.000000 0 0 1
-6.119218 33.354456 4.562388 34.216661 -1.389354 1.437060 0.043173 -0.011369 246377.000000 0 0 1
-5.112318 34.332456 4.226388 34.967351 -1.422976 1.449633 0.042616 -0.006262 318680.000000 0 0 1
-4.581818 -33.891581 5.431588 34.628521 1.436421 1.413293 0.038759 -0.012851 387261.000000 0 0 1
-3.434518 -32.839081 5.215088 33.427508 1.466589 1.414145 0.039402 -0.006575 263665.000000 0 0 1
-3.776318 -31.583181 4.663088 32.148131 1.451794 1.425233 0.031401 0.004122 42166.100000 0 0 1
-4.143318 -31.607881 3.310388 32.049710 1.440455 1.467323 0.015318 0.002227 -113567.000000 0 0 1
-4.471118 -30.188781 2.769888 30.643526 1.423760 1.480282 0.025945 0.004069 64706.300000 0 0 1
-3.374818 -29.313181 2.756388 29.635277 1.456171 1.477651 0.034994 0.008991 -10259.600000 0 0 1
-3.834618 -28.131481 2.147888 28.472758 1.435321 1.495288 0.036043 0.008293 87011.800000 0 0 1
-2.852718 -26.997481 2.367288 27.250799 1.465521 1.483816 0.035612 0.005859 -208984.000000 0 0 1
-3.244218 -25.825681 1.621288 26.079098 1.445831 1.508588 0.047848 -0.001696 -307751.000000 0 0 1
-3.082118 -24.600481 2.324588 24.901543 1.446159 1.477309 0.039807 -0.002486 -402635.000000 0 1 0
-4.067118 -24.213481 3.405288 24.787701 1.404381 1.432982 0.025131 0.000698 -626160.000000 0 1 0
-4.193718 -25.090381 4.535488 25.839604 1.405183 1.394358 0.031686 0.003591 -141857.000000 0 0 1
-5.029318 -24.432781 5.463488 25.536338 1.367789 1.355180 0.012859 0.006127 -27202.200000 0 0 1
-5.686118 -25.387081 6.486088 26.812407 1.350456 1.326466 0.014938 0.005595 -556757.000000 0 0 1
-4.881518 -25.735981 7.560388 27.264068 1.383346 1.289811 0.012561 -0.003121 -578311.000000 0 0 1
-5.503618 -26.650981 8.413188 28.484142 1.367152 1.270960 0.013858 0.000847 -384821.000000 0 0 1
-4.672518 -27.246381 9.545488 29.245753 1.400957 1.238316 0.011546 0.001187 -442240.000000 0 0 1
-4.285518 -26.274381 10.493788 28.615177 1.409114 1.195314 0.011958 -0.004455 -146379.000000 0 0 1
-5.286118 -25.764581 11.387388 28.660588 1.368435 1.162203 0.017583 -0.001828 -4753.590000 0 0 1
-4.857818 -24.743681 12.459888 28.126446 1.376936 1.111859 0.000979 0.000905 144879.000000 0 0 1
-3.916918 -25.317681 13.360988 28.893654 1.417302 1.090074 -0.004743 0.004752 -102960.000000 0 0 1
-3.345818 -24.454581 14.279288 28.515243 1.434823 1.046320 0.005195 0.000242 -497895.000000 0 0 1
-2.430618 -25.226081 15.256188 29.580642 1.474739 1.028915 0.014022 0.001662 35510.100000 0 0 1
-3.084818 -25.997281 16.262288 30.819422 1.452689 1.014949 0.005666 0.009801 597168.000000 0 0 1
-2.112718 -26.738881 17.061488 31.788767 1.491947 1.004258 0.001599 0.021774 716158.000000 0 0 1
-2.572718 -27.146681 18.439788 32.917882 1.476308 0.976199 0.013280 -0.002089 -173660.000000 0 0 1
-2.684118 -26.031381 19.295088 32.513654 1.468049 0.935463 0.021657 0.003046 -102565.000000 0 0 1
-2.342818 -26.379281 20.598888 33.550998 1.482216 0.909732 0.020909 -0.008267 101054.000000 0 0 1
-2.512018 -25.173181 21.536188 33.223586 1.471336 0.865552 0.033985 -0.012215 -74632.000000 0 0 1
-2.009618 -25.339081 22.831488 34.167008 1.491653 0.838967 0.000770 -0.020180 -252301.000000 0 0 1
-2.112318 -24.228781 23.708488 33.964513 1.483834 0.798144 0.013662 -0.020002 -129303.000000 0 0 1
-1.333818 -22.949681 23.330288 32.753157 1.512742 0.778017 0.021858 -0.021666 -109762.000000 0 0 1
-1.841918 -22.170881 22.285288 31.489279 1.487908 0.784544 0.041425 -0.009829 -418004.000000 0 0 1
-0.814118 -21.371081 21.760588 30.510803 1.532720 0.776730 0.052967 -0.014777 -294201.000000 0 0 1
-1.433218 -20.216281 20.861388 29.085214 1.500020 0.770948 0.046344 0.006571 213386.000000 0 0 1
-2.034918 -19.126481 21.633488 28.947728 1.464802 0.726763 0.042956 -0.014850 788506.000000 0 0 1
-3.231318 -19.466881 22.364888 29.825980 1.406306 0.722967 0.071188 -0.027289 -95814.900000 0 0 1
-4.504618 -19.391581 21.511588 29.309954 1.342547 0.746700 0.065406 -0.023431 -865579.000000 0 0 1
-4.683618 -20.240481 20.411388 29.124528 1.343400 0.794234 0.054368 -0.015580 -288894.000000 0 0 1
-5.319518 -21.517781 20.552788 30.227955 1.328441 0.823134 0.053503 -0.010808 165419.000000 0 0 1
-5.377418 -22.414281 19.294188 30.059646 1.335336 0.873870 0.029876 -0.001157 -105815.000000 0 0 1
-5.834218 -23.740281 19.344388 31.174419 1.329820 0.901389 0.028846 -0.005695 -281746.000000 0 0 1
-5.633218 -24.372481 18.081088 30.865462 1.343655 0.944926 0.031035 -0.006178 -27857.400000 0 0 1
-6.194018 -25.785481 17.994388 32.047697 1.335050 0.974614 0.016760 -0.005921 -356633.000000 0 0 1
-7.581018 -25.738581 18.122488 32.378557 1.284357 0.976765 0.039413 -0.007154 -808260.000000 0 0 1
-8.236318 -27.011081 18.011788 33.494178 1.274829 1.003020 0.059793 -0.012896 -256836.000000 0 0 1
-9.743018 -27.029981 18.177688 33.999627 1.224840 1.006710 0.057184 -0.013619 -1138560.000000 0 0 1
-10.424518 -26.381381 17.150588 33.148009 1.194481 1.026993 0.070144 -0.018282 821582.000000 0 0 1
-11.859418 -26.425681 17.331288 33.754051 1.148954 1.031587 0.068548 -0.011883 1380000.000000 0 0 1
-12.488818 -25.366881 18.294188 33.676796 1.113305 0.996519 0.063360 -0.021292 -500370.000000 0 0 1
-12.490718 -24.048781 17.791588 32.417627 1.091757 0.989839 0.058162 -0.018105 -47849.200000 0 0 1
-12.693218 -23.064181 18.847488 32.377493 1.067690 0.949466 0.056016 -0.010754 234981.000000 0 0 1
-11.403518 -22.501081 19.510888 31.890651 1.101725 0.912455 0.049559 -0.010642 448237.000000 0 0 1
-10.725318 -23.460881 20.298188 32.824714 1.142006 0.904115 0.059468 -0.010559 1047980.000000 0 0 1
-9.284018 -23.384481 20.200288 32.265750 1.192865 0.894306 0.064840 -0.014556 1468600.000000 0 0 1
-8.535218 -24.319481 21.197188 33.370764 1.233265 0.882526 0.065273 -0.017299 233340.000000 0 0 1
-8.710818 -23.908481 22.567788 34.011746 1.221404 0.845270 0.069957 -0.024826 314086.000000 0 0 1
-7.869918 -24.766181 23.341388 34.930212 1.263119 0.838970 0.064722 -0.021636 416995.000000 0 0 1
-7.834118 -24.313381 24.811488 35.610727 1.259086 0.799951 0.072890 -0.026960 228795.000000 0 0 1
-6.867618 -24.970081 25.623588 36.431270 1.302399 0.790710 0.075689 -0.024126 32272.500000 0 0 1
-6.539718 -24.091481 26.682088 36.539037 1.305730 0.752130 0.070401 -0.022799 260959.000000 0 0 1
-5.405518 -24.569081 27.648988 37.380823 1.354234 0.738236 0.064138 -0.023757 1709230.000000 0 0 1
-4.082518 -24.540881 27.020788 36.729345 1.405950 0.744137 0.065906 -0.016834 1367290.000000 0 0 1
-3.076218 -24.612481 28.038588 37.435274 1.446455 0.724262 0.058277 -0.014105 645238.000000 0 0 1
-1.686218 -24.121081 27.579188 36.678079 1.501003 0.719818 0.047283 -0.012824 -367654.000000 0 0 1
-1.791418 -22.703581 27.297888 35.550478 1.492055 0.695298 0.051101 -0.013931 359749.000000 0 0 1
-0.560818 -22.137381 26.837288 34.793939 1.545468 0.689883 0.049104 -0.018833 684923.000000 0 0 1
0.493182 -21.764281 27.923888 35.407212 -1.548140 0.662187 0.043476 -0.011511 39822.500000 0 0 1
0.983982 -22.970481 28.505988 36.622433 -1.527986 0.678723 0.046760 -0.011141 -160208.000000 0 0 1
1.840282 -22.700581 29.627388 37.369575 -1.489906 0.655372 0.042173 -0.019342 126265.000000 0 0 1
2.392282 -24.025681 30.127688 38.608729 -1.471552 0.675597 0.055834 -0.026908 -375129.000000 0 0 1
3.373882 -24.667181 29.341388 38.480774 -1.434864 0.703636 0.040944 -0.024718 202554.000000 0 0 1
4.053882 -25.733981 30.014688 39.743594 -1.414550 0.714825 0.027590 -0.013787 50787.600000 0 0 1
5.401582 -25.296081 30.669388 40.120820 -1.360422 0.700646 0.021954 -0.017264 -40123.000000 0 0 1
6.384782 -24.836081 29.799288 39.314043 -1.319168 0.710584 0.016993 -0.016002 -203028.000000 0 0 1
7.124782 -25.794681 29.069388 39.511485 -1.301304 0.744067 0.015673 -0.015266 -1032480.000000 0 0 1
8.337982 -25.217581 28.396388 38.881914 -1.251470 0.752000 0.020785 -0.012104 -697277.000000 0 0 1
7.984082 -24.377481 27.256288 37.428764 -1.254288 0.755079 0.026856 -0.010916 155490.000000 0 0 1
9.142082 -23.880781 26.620788 36.912542 -1.205186 0.765284 0.010155 -0.008021 -49448.300000 0 0 1
8.866282 -22.662881 25.705188 35.397370 -1.197878 0.758034 0.017700 -0.004736 -79126.900000 0 0 1
8.154382 -23.074881 24.565688 34.675887 -1.231107 0.783515 0.023414 -0.005182 -1384.630000 0 0 1
7.790082 -21.948981 23.747788 33.262600 -1.229747 0.775675 0.019040 0.003253 210674.000000 0 0 1
7.000482 -22.362781 22.464088 32.461300 -1.267418 0.806503 0.033226 0.001098 -62433.100000 0 0 1
7.726182 -23.260781 21.681088 32.723499 -1.250107 0.846573 0.022634 -0.002778 -190933.000000 0 0 1
7.151782 -23.355681 20.433288 31.845802 -1.273651 0.874172 0.041698 -0.009317 -362239.000000 0 0 1
7.959782 -24.209381 19.457088 32.062915 -1.253141 0.918716 0.036187 -0.015332 -583898.000000 0 0 1
9.217982 -23.643381 19.267788 31.862648 -1.199048 0.921390 0.021682 -0.014649 -649997.000000 0 0 1
10.061582 -24.603981 18.600788 32.443499 -1.182606 0.960234 0.031221 -0.014377 510712.000000 0 0 1
11.162582 -23.806181 17.843688 31.776323 -1.132341 0.974550 0.015013 -0.014802 298469.000000 0 0 1
10.553282 -22.962581 16.822488 30.358656 -1.139999 0.983485 0.023370 -0.010132 338980.000000 0 0 1
11.492382 -22.148181 16.123588 29.708364 -1.092154 0.997114 0.019762 -0.024356 288678.000000 0 0 1
-12.099918 22.488156 10.926188 27.776010 -1.077168 1.166504 0.023854 -0.011453 -769618.000000 0 0 1
-13.150618 21.648956 10.598488 27.458040 -1.024918 1.174517 0.019272 -0.021659 -395932.000000 0 0 1
-12.729318 20.347956 10.222088 26.087658 -1.011778 1.168170 0.036832 -0.025333 108135.000000 0 0 1
-13.817718 19.721456 9.316688 25.819873 -0.959638 1.201634 0.048282 -0.024073 -234502.000000 0 0 1
-14.066818 20.586056 8.154188 26.232648 -0.971354 1.254718 0.053003 -0.020570 -5661.460000 0 0 1
-14.879918 20.038956 7.143388 25.961504 -0.932081 1.292047 0.065070 -0.019249 828842.000000 0 0 1
-16.420518 19.902556 7.409288 26.844789 -0.880969 1.291161 0.052290 -0.023734 320131.000000 0 0 1
-16.791418 18.981356 8.401588 26.698881 -0.846540 1.250677 0.048418 -0.030054 -416719.000000 0 0 1
-18.147818 19.096656 8.722188 27.750714 -0.810869 1.251072 0.058470 -0.028200 -459397.000000 0 0 1
-18.623318 17.971956 9.636688 27.616751 -0.767601 1.214353 0.036647 -0.019954 -228501.000000 0 0 1
-18.627618 16.729256 9.004788 26.607186 -0.731758 1.225544 0.030909 -0.015366 331912.000000 0 0 1
-19.171218 15.686356 9.815488 26.644721 -0.685755 1.193526 0.033351 -0.013458 195103.000000 0 0 1
-18.147518 15.106156 10.875488 25.996242 -0.694192 1.139170 0.033423 -0.002473 317265.000000 0 0 1
-17.190218 14.274556 10.258388 24.586603 -0.692998 1.140396 0.019145 0.011910 49061.300000 0 1 0
-16.370818 13.535256 11.138288 23.984751 -0.690865 1.087850 0.011614 0.010594 205040.000000 0 1 0
-17.141718 12.430656 11.903588 24.291050 -0.627419 1.058661 0.011824 0.008203 -4267.370000 0 1 0
-17.723918 11.382256 11.091088 23.805572 -0.570871 1.086141 -0.010091 0.004673 252966.000000 0 1 0
-18.587418 10.588556 11.893788 24.475944 -0.517814 1.063360 0.008229 0.007637 15860.500000 0 1 0
-19.717218 9.925556 11.095188 24.706043 -0.466360 1.105052 0.018906 0.004617 -349084.000000 0 1 0
-19.255518 8.821356 10.233788 23.522791 -0.429587 1.120693 0.014212 0.004284 582949.000000 0 1 0
-18.770018 9.266156 8.969888 22.773540 -0.458569 1.165955 0.028009 0.003089 -397507.000000 0 1 0
-19.832418 9.593256 7.921088 23.411514 -0.450536 1.225642 0.048079 -0.003064 -34891.900000 0 1 0
-20.399118 8.428656 7.300588 23.247900 -0.391823 1.251359 0.036280 -0.011990 638610.000000 0 1 0
-21.501018 8.657556 6.442088 24.057173 -0.382796 1.299706 0.058821 -0.006771 181894.000000 0 1 0
-21.743018 7.414856 5.517788 23.625937 -0.328655 1.335071 0.069181 -0.007455 -313340.000000 0 1 0
-22.324018 6.374056 6.218388 24.034532 -0.278124 1.309092 0.047259 -0.003910 291044.000000 0 1 0
-22.117518 5.105056 5.608288 23.381597 -0.226842 1.328576 0.051265 -0.010050 -657684.000000 0 1 0
-23.131418 4.104656 6.188088 24.294097 -0.175621 1.313243 0.069918 -0.004288 -367768.000000 0 1 0
-24.291818 4.266656 5.402788 25.248503 -0.173868 1.355144 0.073464 -0.008285 -162794.000000 0 0 1
-24.948018 3.031856 5.247488 25.673564 -0.120934 1.364953 0.069866 -0.014850 -545797.000000 0 0 1
-25.934408 2.989156 4.072288 26.421811 -0.114752 1.416054 0.065528 -0.016702 -367804.000000 0 0 1
-25.470938 2.860956 2.724088 25.775462 -0.111854 1.464913 0.061888 -0.017474 132649.000000 0 0 1
-26.546208 2.576256 1.862188 26.735856 -0.096745 1.501089 0.064216 -0.016053 -228474.000000 0 0 1
-26.183208 2.542556 0.345188 26.308632 -0.096803 1.557675 0.077367 -0.018077 -295996.000000 0 0 1
-25.697108 3.805256 -0.024612 25.977335 -0.147013 1.571744 0.078853 -0.027058 425786.000000 0 0 1
-25.428968 3.938256 -1.402612 25.770324 -0.153652 1.625251 0.092951 -0.025766 309484.000000 0 0 1
-26.628518 4.631756 -2.165012 27.114911 -0.172217 1.650727 0.086769 -0.034201 77775.500000 0 0 1
-27.760788 3.838856 -2.096812 28.103288 -0.137412 1.645477 0.069891 -0.030421 -1106080.000000 0 0 1
-28.912558 4.546256 -2.421612 29.367817 -0.155965 1.653348 0.060660 -0.021764 -297780.000000 0 0 1
-30.113768 3.554256 -2.504812 30.426072 -0.117484 1.653214 0.047263 -0.015000 -280345.000000 0 0 1
-30.208818 2.917556 -3.778512 30.583688 -0.096281 1.694659 0.047802 -0.017567 396990.000000 0 0 1
-31.145998 1.851156 -3.832812 31.435496 -0.059365 1.693027 0.059375 -0.021271 64608.200000 0 0 1
-31.241338 1.255956 -5.228812 31.700775 -0.040180 1.736496 0.056093 -0.023063 -592266.000000 0 0 1
-29.967618 0.888256 -5.696212 30.517109 -0.029632 1.758554 0.064072 -0.022494 220830.000000 0 0 1
-30.000078 0.183756 -6.931512 30.790978 -0.006125 1.797857 0.068073 -0.018393 -208351.000000 0 0 1
-30.354358 1.016856 -8.204112 31.459951 -0.033487 1.834626 0.063177 -0.016203 -294081.000000 0 0 1
-31.756748 1.091356 -8.325112 32.847977 -0.034353 1.827035 0.057626 -0.016846 159369.000000 0 0 1
-32.071768 1.976956 -9.359512 33.468002 -0.061564 1.854232 0.073398 -0.011812 382023.000000 0 0 1
-33.585848 2.351056 -9.509612 34.985274 -0.069887 1.846078 0.081228 -0.013074 515356.000000 0 0 1
-34.025418 3.175156 -8.460112 35.204889 -0.093048 1.813482 0.052846 -0.012565 637257.000000 0 0 1
-35.296229 2.684456 -8.001912 36.291331 -0.075909 1.793114 0.063114 -0.015770 550250.000000 0 0 1
35.744131 3.659356 -6.869912 36.581819 0.102021 1.759714 0.075454 -0.014099 712981.000000 0 0 1
34.332408 3.589756 -6.601612 35.145154 0.104180 1.759757 0.094589 -0.019080 1120630.000000 0 0 1
33.975428 4.366956 -5.454412 34.686461 0.127832 1.728701 0.090045 -0.020813 402204.000000 0 0 1
32.509888 4.122656 -4.996612 33.148985 0.126139 1.722105 0.103442 -0.024775 369355.000000 0 0 1
32.397958 2.916856 -4.258912 32.806616 0.089790 1.700982 0.108842 -0.022605 1748970.000000 0 0 1
31.077378 2.249156 -4.202312 31.440762 0.072247 1.704856 0.106877 -0.021127 1794360.000000 0 0 1
31.168848 0.949056 -3.421012 31.370386 0.030439 1.680066 0.123582 -0.022623 211171.000000 0 0 1
32.059358 0.022656 -4.039412 32.312842 0.000707 1.696134 0.093533 -0.016869 317707.000000 0 0 1
31.923818 -1.260744 -3.406112 32.129756 -0.039472 1.677007 0.091203 -0.016391 -15998.200000 0 0 1
33.115148 -2.185944 -3.693212 33.392083 -0.065915 1.681624 0.078431 -0.015045 -55630.000000 0 0 1
32.879718 -3.522744 -3.312312 33.233372 -0.106733 1.670630 0.061514 -0.011743 -96788.100000 0 0 1
34.006638 -4.326044 -3.566112 34.465682 -0.126532 1.674450 0.067477 -0.011674 -101515.000000 0 0 1
33.942828 -5.745744 -3.114812 34.566330 -0.167688 1.661030 0.064299 -0.003268 -119169.000000 0 0 1
33.690398 -5.915744 -1.734612 34.249786 -0.173819 1.621464 0.066611 0.004418 -121104.000000 0 0 1
33.793868 -7.267444 -1.319712 34.591659 -0.211826 1.608957 0.074782 -0.003096 -232419.000000 0 0 1
33.424448 -7.614444 0.114588 34.280995 -0.223988 1.567454 0.067012 0.000645 -776330.000000 0 0 1
32.075588 -7.414444 0.389288 32.923682 -0.227165 1.558972 0.057499 0.000398 -677797.000000 0 0 1
31.656718 -7.853344 1.674088 32.659231 -0.243169 1.519515 0.049653 -0.003409 -238165.000000 0 0 1
31.304408 -9.387944 1.816588 32.732239 -0.291358 1.515269 0.060150 0.000218 46551.400000 0 0 1
30.113338 -9.963244 1.287288 31.744865 -0.319521 1.530234 0.064091 -0.010232 -196641.000000 0 0 1
28.992668 -9.697044 2.077788 30.641878 -0.322769 1.502935 0.057175 -0.018087 -476925.000000 0 0 1
27.835848 -10.645844 1.503388 29.840050 -0.365287 1.520393 0.069360 -0.025766 -457557.000000 0 0 1
26.586168 -10.590744 2.146888 28.698385 -0.379088 1.495918 0.089696 -0.033661 666407.000000 0 0 1
25.790398 -9.470544 1.597988 27.520709 -0.351925 1.512699 0.095207 -0.032705 -316491.000000 0 0 1
25.121498 -9.670144 0.274688 26.919822 -0.367452 1.560592 0.091356 -0.026168 -1129550.000000 0 0 1
25.971798 -9.673944 -0.864812 27.728458 -0.356558 1.601990 0.081827 -0.022935 377166.000000 0 0 1
25.246998 -9.783644 -2.100812 27.157762 -0.369699 1.648230 0.073186 -0.022814 84457.100000 0 0 1
24.694098 -11.204344 -2.392612 27.222425 -0.425948 1.658801 0.065549 -0.012927 204284.000000 0 0 1
23.446898 -11.413544 -1.758512 26.136533 -0.453018 1.638129 0.059320 -0.008276 53739.800000 0 0 1
22.920598 -12.737344 -1.773612 26.281922 -0.507221 1.638332 0.041556 -0.000928 -227263.000000 0 0 1
21.400198 -12.822844 -1.599912 24.999071 -0.539826 1.634839 0.034640 0.000739 -399063.000000 0 1 0
20.672798 -12.294844 -2.660912 24.199343 -0.536539 1.680977 0.036291 0.002656 565919.000000 0 1 0
19.266998 -12.249644 -2.373812 22.954433 -0.566316 1.674396 0.037305 -0.003060 758479.000000 0 1 0
18.432698 -11.848544 -3.603712 22.206735 -0.571297 1.733797 0.030747 0.005841 -99904.300000 0 1 0
18.347998 -12.791944 -4.623712 22.839912 -0.608834 1.774645 0.026652 0.007683 138871.000000 0 1 0
17.597398 -12.259344 -5.689712 22.188573 -0.608479 1.830118 0.028993 0.003869 -287070.000000 0 1 0
17.508198 -13.051644 -7.018912 22.937906 -0.640589 1.881781 0.024366 0.000128 -436476.000000 0 1 0
16.805598 -14.250644 -7.056512 23.136624 -0.703314 1.880728 0.023969 0.001687 131737.000000 0 1 0
16.979498 -14.855444 -8.327912 24.048736 -0.718776 1.924413 0.030711 -0.002286 -348084.000000 0 1 0
15.977798 -15.977044 -8.624912 24.185638 -0.785375 1.935436 0.028248 -0.008306 494902.000000 0 1 0
14.606298 -15.509344 -8.538912 22.952053 -0.815375 1.951994 0.038667 -0.006105 1202250.000000 0 1 0
13.730698 -16.302544 -9.326012 23.265415 -0.870823 1.983244 0.039166 -0.009739 -20458.100000 0 1 0
13.730598 -16.087944 -10.849712 23.771149 -0.864290 2.044768 0.043732 -0.021293 -1014170.000000 0 1 0
13.130398 -14.905644 -11.323712 22.865083 -0.848634 2.088908 0.046154 -0.018944 189086.000000 0 1 0
13.648598 -13.644344 -10.922012 22.175272 -0.785242 2.085792 0.046555 -0.011682 -242274.000000 0 1 0
13.530098 -12.679544 -12.088812 22.135351 -0.752958 2.148536 0.053163 -0.003687 -26187.100000 0 1 0
14.492198 -12.981844 -13.072612 23.440249 -0.730480 2.162408 0.051788 -0.002717 171229.000000 0 1 0
14.279898 -12.188144 -14.170512 23.521687 -0.706533 2.217357 0.067439 -0.007927 -290089.000000 0 1 0
15.595498 -12.046944 -14.938512 24.728679 -0.657723 2.219428 0.070557 -0.015703 -248943.000000 0 1 0
16.263798 -13.220344 -15.328712 25.966479 -0.682539 2.202260 0.066668 -0.014832 46171.900000 0 0 1
17.265098 -12.832344 -16.262912 26.967295 -0.639169 2.218129 0.065006 -0.015310 -229565.000000 0 0 1
18.292798 -13.930344 -16.550712 28.330320 -0.650834 2.194696 0.054172 -0.018567 -9802.950000 0 0 1
19.161798 -14.152244 -15.415712 28.374367 -0.636143 2.145156 0.036432 -0.020771 246496.000000 0 0 1
20.249998 -14.981544 -15.711812 29.687878 -0.636960 2.128493 0.022966 -0.016838 133578.000000 0 0 1
21.408898 -14.794744 -14.679912 29.878507 -0.604698 2.084401 0.015702 -0.021359 172139.000000 0 0 1
21.930198 -13.484844 -14.643712 29.617780 -0.551302 2.087967 0.016380 -0.016317 65548.800000 0 0 1
22.945698 -13.353944 -13.662212 29.857812 -0.527064 2.046063 0.014205 -0.015847 298988.000000 0 0 1
23.591798 -11.971144 -13.510212 29.705337 -0.469573 2.042952 0.024387 -0.017307 -399582.000000 0 0 1
22.629698 -11.039344 -13.086112 28.376340 -0.453861 2.050102 0.013940 -0.005023 115653.000000 0 0 1
23.128498 -9.745244 -12.702912 28.129365 -0.398777 2.039342 0.026216 -0.018948 -218623.000000 0 0 1
23.985498 -9.681544 -11.435612 28.280906 -0.383642 1.987073 0.026861 -0.020117 322869.000000 0 0 1
25.304598 -10.155744 -11.651312 29.651558 -0.381661 1.974624 0.034999 -0.011081 492267.000000 0 0 1
26.319498 -9.450244 -10.966412 30.038064 -0.344722 1.944519 0.048400 -0.013864 574118.000000 0 0 1
27.754758 -10.075044 -11.059212 31.529974 -0.348211 1.929171 0.075447 -0.010527 666302.000000 0 0 1
28.310848 -9.937244 -12.396812 32.464348 -0.337570 1.962603 0.054149 -0.008291 582293.000000 0 0 1
29.528408 -10.684244 -12.506212 33.800670 -0.347174 1.949804 0.044014 -0.011090 469131.000000 0 0 1
30.382788 -10.109044 -13.674912 34.818239 -0.321201 1.974418 0.018522 -0.004739 -323533.000000 0 0 1
29.785778 -10.444744 -14.897712 34.903110 -0.337265 2.011781 0.002675 -0.003405 259233.000000 0 0 1
30.569218 -10.053644 -16.017812 35.946115 -0.317738 2.032648 -0.012591 0.008060 -46866.600000 0 0 1
30.181928 -10.679844 -17.397012 36.437122 -0.340100 2.068550 -0.039664 0.014652 -47343.800000 0 0 1
29.022878 -10.298044 -18.119012 35.730600 -0.340967 2.102614 -0.032731 0.013644 178371.000000 0 0 1
28.987348 -9.056444 -18.788412 35.711202 -0.302819 2.124829 -0.039341 0.014168 -19036.600000 0 0 1
27.591728 -8.854844 -19.431412 34.889705 -0.310541 2.161491 -0.058608 0.012579 299240.000000 0 0 1
27.393998 -9.572744 -20.642512 35.611541 -0.336182 2.189105 -0.063910 0.017046 -566800.000000 0 0 1
26.060198 -9.410544 -20.982212 34.755510 -0.346536 2.218942 -0.017347 0.019267 -645896.000000 0 0 1
25.645798 -9.968844 -22.399412 35.479832 -0.370738 2.254061 -0.000371 -0.000015 2471.010000 0 0 1
25.556298 -11.391344 -22.476712 35.889966 -0.419302 2.247552 -0.007468 -0.000511 -168409.000000 0 0 1
24.786598 -11.759444 -23.575512 36.172707 -0.442981 2.280684 0.012560 -0.008605 -979813.000000 0 0 1
24.886898 -13.285144 -23.979512 37.025258 -0.490337 2.275296 0.003096 -0.000812 597196.000000 0 0 1
25.988798 -13.705844 -24.801312 38.449615 -0.485307 2.271864 -0.002920 0.000493 584280.000000 0 0 1
27.236308 -13.540344 -24.140212 38.831781 -0.461360 2.241658 -0.035223 0.009419 245818.000000 0 0 1
28.545828 -13.979644 -24.881812 40.365819 -0.455395 2.234969 -0.035565 0.019988 590205.000000 0 0 1
28.866068 -13.164644 -25.936242 40.978609 -0.427882 2.256117 -0.032909 0.003808 320680.000000 0 0 1
30.215578 -13.326144 -26.367102 42.258624 -0.415374 2.244578 -0.044773 0.006159 374723.000000 0 0 1
30.603458 -12.696244 -27.727522 43.203955 -0.393253 2.267616 -0.026528 -0.002493 -6630.160000 0 0 1
30.374278 -13.595644 -28.773432 43.992598 -0.420860 2.283725 -0.008590 -0.005674 306146.000000 0 0 1
31.153978 -13.245944 -29.907582 45.171770 -0.402020 2.294395 -0.004577 -0.005855 69126.300000 0 0 1
31.010158 -14.163144 -31.106942 46.150476 -0.428433 2.310451 0.004029 -0.012296 -244966.000000 0 0 1
31.497958 -15.446444 -30.914832 46.759393 -0.455934 2.293143 0.006984 -0.011135 -89588.000000 0 0 1
31.767658 -16.238944 -32.079612 47.979047 -0.472550 2.303144 0.000229 -0.011180 -10778.300000 0 0 1
30.550468 -16.993444 -32.672852 47.850010 -0.507623 2.322409 -0.001165 -0.010980 48635.100000 0 0 1
29.803728 -16.141244 -33.461162 47.628262 -0.496359 2.349769 0.000237 -0.013400 577138.000000 0 0 1
28.511748 -16.635244 -33.873042 47.297295 -0.528163 2.369100 -0.001272 -0.015801 991839.000000 0 0 1
27.721678 -15.727844 33.916723 46.542460 -0.516065 0.754336 0.017286 -0.012388 -365672.000000 0 0 1
27.150188 -14.545344 34.376747 46.156911 -0.491826 0.730591 0.026767 -0.018665 -249773.000000 0 0 1
28.066028 -13.545744 -34.042612 46.152882 -0.449662 2.400313 0.028618 -0.019367 -218034.000000 0 0 1
27.339318 -12.225444 -33.652622 45.048849 -0.420502 2.414372 0.033835 -0.019772 347240.000000 0 0 1
26.877038 -11.499844 33.967136 44.815041 -0.404298 0.710646 0.076538 -0.020039 163291.000000 0 0 1
26.012498 -10.472644 -34.345825 44.339170 -0.382746 2.456904 0.042397 -0.019836 215915.000000 0 0 1
20.267482 -29.476881 9.229288 36.943702 -0.968460 1.318302 0.030099 -0.003983 131759.000000 0 0 1
20.810582 -29.356981 7.905488 36.843037 -0.954135 1.354543 0.028096 -0.005897 560950.000000 0 0 1
22.153282 -29.841681 7.900088 37.996121 -0.932203 1.361350 0.045942 -0.004464 229544.000000 0 0 1
22.765782 -29.637281 6.508088 37.934212 -0.915782 1.398381 0.039807 -0.000546 -299259.000000 0 0 1
23.017882 -28.294281 6.138588 36.987451 -0.887867 1.404061 0.032021 0.012732 152375.000000 0 0 1
23.899982 -28.177181 5.039988 37.290269 -0.867346 1.435226 0.019692 0.014806 44833.800000 0 0 1
24.123582 -26.793681 4.508788 36.334250 -0.837790 1.446384 0.006819 0.012869 179862.000000 0 0 1
24.911182 -25.985981 5.380588 36.397650 -0.806512 1.422425 0.012744 0.006053 175582.000000 0 0 1
24.847682 -24.671681 4.907188 35.357879 -0.781844 1.431561 0.008690 0.010693 -216585.000000 0 0 1
25.453582 -23.716081 5.908088 35.287999 -0.750076 1.402579 0.002471 0.003175 146215.000000 0 0 1
26.845482 -23.544981 5.689788 36.158259 -0.719993 1.412782 -0.004804 0.004159 -77545.100000 0 0 1
27.484682 -22.634681 6.559888 36.204539 -0.688930 1.388600 0.013396 -0.008161 -62069.000000 0 0 1
27.058682 -21.121381 6.701088 34.974127 -0.662785 1.378003 0.008484 -0.007841 -297578.000000 0 0 1
27.215282 -20.470481 5.456888 34.488981 -0.644888 1.411907 0.009811 0.001996 70115.100000 0 0 1
26.712482 -19.116181 5.496188 33.304552 -0.621137 1.405010 0.023919 -0.007617 -120307.000000 0 0 1
26.843382 -18.273781 4.258588 32.751089 -0.597693 1.440398 0.030251 -0.001734 817442.000000 0 0 1
28.200382 -18.202481 3.766288 33.775387 -0.573184 1.459054 0.049871 -0.008029 905618.000000 0 0 1
28.277082 -17.518681 2.546288 33.361372 -0.554661 1.494398 0.047889 -0.003305 1066260.000000 0 0 1
29.630682 -16.686581 2.436788 34.093361 -0.512885 1.499261 0.064903 -0.020646 1040170.000000 0 0 1
29.517982 -15.450481 3.048688 33.456287 -0.482212 1.479545 0.076523 -0.028396 929520.000000 0 0 1
30.743182 -14.750381 3.404588 34.268180 -0.447352 1.471281 0.076437 -0.028635 866331.000000 0 0 1
30.479482 -13.551281 4.349488 33.638580 -0.418357 1.441133 0.086203 -0.033842 413242.000000 0 0 1
29.749882 -13.840381 5.541188 33.276364 -0.435442 1.403497 0.071499 -0.028172 85665.200000 0 0 1
29.711982 -12.704981 6.401188 32.942277 -0.404075 1.375237 0.052767 -0.032487 -112860.000000 0 0 1
28.952182 -13.082581 7.700188 32.690605 -0.424407 1.333015 0.073189 -0.025611 -608901.000000 0 0 1
27.563982 -13.268581 7.609688 31.523574 -0.448636 1.326991 0.059630 -0.024970 -496612.000000 0 0 1
26.959482 -13.147881 8.870488 31.278843 -0.453752 1.283257 0.064290 -0.008739 18782.800000 0 0 1
27.183982 -14.356381 9.863588 32.285677 -0.485889 1.260323 0.057102 -0.014296 260761.000000 0 0 1
28.355382 -14.305081 10.696688 33.512418 -0.467235 1.245926 0.057955 -0.009805 532555.000000 0 0 1
28.433182 -15.445181 11.552088 34.357680 -0.497615 1.227885 0.054393 -0.015711 -159771.000000 0 0 1
29.389282 -15.307781 12.738288 35.501015 -0.480198 1.203799 0.056267 -0.013629 330321.000000 0 0 1
30.771982 -15.160081 12.418688 36.482417 -0.457757 1.223452 0.050270 -0.009865 521283.000000 0 0 1
31.482582 -15.418681 13.636388 37.614356 -0.455416 1.199814 0.051797 -0.010519 1331770.000000 0 0 1
33.061282 -15.372781 13.635188 38.926715 -0.435240 1.212928 0.051827 -0.019094 1132430.000000 0 0 1
33.737382 -14.156181 13.484888 38.992956 -0.397287 1.217674 0.052370 -0.017135 478768.000000 0 0 1
34.954782 -14.142481 14.219788 40.299490 -0.384460 1.210178 0.039215 -0.017542 551669.000000 0 0 1
-35.700534 -12.844881 14.180488 40.504387 0.345374 1.213121 0.045823 -0.015079 434814.000000 0 0 1
-34.883334 -12.675281 13.005788 39.327602 0.348529 1.233747 0.055442 -0.018206 377131.000000 0 0 1
-34.195534 -11.430881 13.061488 38.348430 0.322602 1.223241 0.057846 -0.013423 406007.000000 0 0 1
-32.970634 -11.368481 12.077488 36.907598 0.332040 1.237419 0.054028 -0.016082 522311.000000 0 0 1
-31.855734 -12.158281 12.397488 36.280977 0.364603 1.222063 0.034607 -0.008926 -130936.000000 0 0 1
-31.949334 -13.470481 11.924288 36.666094 0.399004 1.239559 0.027851 -0.011765 -35809.100000 0 0 1
-30.720134 -14.406481 12.128288 36.032884 0.438508 1.227504 0.012319 -0.006592 905952.000000 0 0 1
-29.548434 -14.133081 11.363788 34.669722 0.446139 1.236851 0.012926 -0.005054 737593.000000 0 0 1
-28.413834 -14.855581 11.836988 34.178188 0.481744 1.217138 0.014367 -0.003015 138291.000000 0 0 1
-27.141134 -14.771081 10.991688 32.797000 0.498404 1.229039 0.017497 -0.003812 -273724.000000 0 0 1
-27.126734 -15.201481 9.625288 32.551358 0.510783 1.270613 0.015491 0.000504 945690.000000 0 0 1
-25.777834 -15.051381 9.137788 31.217623 0.528489 1.273734 0.022734 -0.000639 1010060.000000 0 0 1
-25.808534 -14.857881 7.634188 30.742770 0.522358 1.319846 0.032729 0.001116 -22108.900000 0 0 1
-26.221334 -15.991881 6.919288 31.482935 0.547653 1.349208 0.039022 0.000732 181334.000000 0 0 1
-26.112334 -15.772581 5.528288 31.003069 0.543376 1.391523 0.039557 -0.001504 -410490.000000 0 0 1
-26.559634 -16.935181 4.600288 31.833586 0.567629 1.425778 0.033690 -0.004741 -321878.000000 0 0 1
-27.948034 -17.116381 4.517288 33.082760 0.549513 1.433823 0.009470 -0.009878 -290023.000000 0 0 1
-28.289834 -18.189381 3.600588 33.825028 0.571414 1.464147 0.018142 -0.008697 -1118980.000000 0 0 1
-29.745934 -18.522181 3.680588 35.234054 0.556929 1.466144 0.028775 -0.012507 -1137730.000000 0 0 1
-30.589634 -17.645081 2.967288 35.438389 0.523210 1.486967 0.044398 -0.014144 348331.000000 0 0 1
-31.962834 -17.742281 3.341788 36.709384 0.506743 1.479637 0.056925 -0.018038 346079.000000 0 0 1
-32.856834 -16.789381 2.574188 36.987583 0.472398 1.501144 0.060338 -0.024023 -207508.000000 0 0 1
-32.976834 -17.110981 1.195788 37.171053 0.478636 1.538621 0.063311 -0.016402 -438736.000000 0 0 1
-34.009334 -16.325981 0.693488 37.731332 0.447556 1.552416 0.075859 -0.017636 -191972.000000 0 0 1
-34.614134 -17.004981 -0.589112 38.570128 0.456641 1.586071 0.079401 -0.021282 388195.000000 0 0 1
-33.684334 -16.993481 -1.701112 37.766474 0.467235 1.615854 0.082871 -0.024386 779272.000000 0 0 1
-34.171134 -17.768081 -2.813712 38.617200 0.479498 1.643723 0.082818 -0.023346 -124991.000000 0 0 1
-33.062834 -18.404581 -3.657112 38.016498 0.507938 1.667143 0.063002 -0.018354 -218204.000000 0 0 1
-33.525634 -19.414781 -4.451512 38.996382 0.524912 1.685198 0.059629 -0.028577 -506196.000000 0 0 1
-32.413234 -19.958181 -5.103812 38.405672 0.551914 1.704083 0.052925 -0.026605 -331906.000000 0 0 1
-32.727134 -21.126081 -6.087812 39.426363 0.573221 1.725826 0.062681 -0.025348 -324337.000000 0 0 1
-33.079934 -22.243381 -5.298412 40.213471 0.591970 1.702938 0.066965 -0.030015 83354.600000 0 0 1
-33.689234 -23.260481 -6.079112 41.388043 0.604283 1.718211 0.050193 -0.022531 -134904.000000 0 0 1
-34.259834 -24.467181 -5.296212 42.431463 0.620170 1.695941 0.043439 -0.019113 -664120.000000 0 0 1
-33.293334 -25.278481 -4.696612 42.065495 0.649405 1.682680 0.042702 -0.018611 -582284.000000 0 0 1
-33.777034 -26.576381 -4.467812 43.210571 0.666651 1.674378 0.019950 -0.007011 11283.900000 0 0 1
-32.741834 -27.622281 -4.007012 43.024113 0.700789 1.664066 0.023690 -0.002923 -769936.000000 0 0 1
-31.665734 -27.845181 -4.890212 42.449818 0.721287 1.686252 0.021934 -0.000555 24026.000000 0 0 1
-30.850834 -28.912581 -4.462912 42.516219 0.752977 1.675960 0.018293 0.001234 16860.600000 0 0 1
-29.859734 -28.759681 -3.297612 41.588427 0.766634 1.650171 0.023361 0.004804 -464529.000000 0 0 1
-30.524734 -28.636681 -2.045612 41.904695 0.753495 1.619632 0.020354 -0.004195 42860.100000 0 0 1
-29.624334 -28.809381 -0.959712 41.334038 0.771452 1.594017 0.025555 -0.002732 -99759.400000 0 0 1
-30.348434 -28.693781 0.353888 41.767042 0.757381 1.562323 0.022660 -0.002438 95620.800000 0 0 1
-31.070634 -29.864781 0.787188 43.103470 0.765612 1.552533 0.011641 0.000682 143701.000000 0 0 1
-31.831934 -29.664381 1.953988 43.555317 0.750166 1.525919 0.028482 0.001457 -144251.000000 0 0 1
-32.490934 -30.986681 2.440488 44.964333 0.761705 1.516494 0.005745 0.000997 -777558.000000 0 0 1
-33.519634 -30.775381 3.358488 45.628603 0.742742 1.497125 0.004864 -0.000524 -208278.000000 0 0 1
-34.200634 -31.957281 3.725988 46.955662 0.751502 1.491362 0.010592 0.004435 64787.300000 0 0 1
-35.172534 -32.702681 2.810788 48.108971 0.749026 1.512338 0.011898 0.007548 -629669.000000 0 0 1
-35.577834 -33.974581 3.323888 49.306214 0.762351 1.503332 0.020137 0.011015 -79035.200000 0 0 1
35.054782 34.152956 2.452788 49.002839 0.772368 1.520721 0.017708 0.012799 -298362.000000 0 0 1
33.891082 33.407756 3.205688 47.696541 0.778216 1.503536 0.020353 0.010503 746721.000000 0 0 1
32.958082 34.102956 4.049188 47.598767 0.802469 1.485624 0.019903 0.006569 824531.000000 0 0 1
32.502082 -33.329381 3.707788 46.700971 -0.797964 1.491318 0.011389 0.006807 -335266.000000 0 0 1
31.563182 -33.140881 2.495588 45.834271 -0.809777 1.516321 0.014461 -0.000153 -634812.000000 0 0 1
32.187382 -33.426481 1.272688 46.421729 -0.804281 1.543377 0.015848 0.006780 -315807.000000 0 0 1
31.363582 -33.085981 0.160988 45.589279 -0.812117 1.567265 0.025198 0.010689 -982827.000000 0 0 1
31.568182 -33.900481 -1.153512 46.337062 -0.821008 1.595693 0.041422 0.000951 618461.000000 0 0 1
32.767882 -33.667381 -1.900312 47.019547 -0.798937 1.611223 0.025335 0.004916 852389.000000 0 0 1
33.991282 -33.812581 -1.154712 47.958641 -0.782763 1.594876 0.016877 0.013169 -599104.000000 0 0 1
35.209882 -33.490681 -2.021612 48.635876 -0.760379 1.612375 0.008156 0.003128 -411758.000000 0 0 1
35.703582 34.248156 -2.859512 49.556621 0.764595 1.628530 0.012533 -0.002341 -466966.000000 0 0 1
-34.876834 -34.035081 -3.719812 48.873483 0.773184 1.646981 0.008739 0.000863 -1040310.000000 0 0 1
-34.025434 33.611156 -4.348912 48.024504 -0.779273 1.661477 0.015816 -0.003662 81910.500000 0 0 1
-32.964634 33.090556 -3.543312 46.842364 -0.787304 1.646512 0.031346 -0.005062 331888.000000 0 0 1
-32.127734 32.286656 -4.352612 45.755488 -0.787865 1.666068 0.046118 -0.005681 -430551.000000 0 0 1
-30.892234 31.681056 -3.727512 44.406236 -0.798004 1.654836 0.059644 -0.008447 -484057.000000 0 0 1
-29.766034 32.560556 -3.612412 44.263485 -0.830205 1.652499 0.033110 -0.018769 1218970.000000 0 0 1
-28.578734 31.822256 -3.181412 42.889642 -0.839046 1.645041 0.019713 -0.020956 1228550.000000 0 0 1
-28.521034 31.472756 -1.666412 42.506007 -0.834559 1.610011 0.022264 -0.013687 -344122.000000 0 0 1
-29.489334 30.517456 -1.239012 42.455519 -0.802530 1.599984 0.023207 -0.005811 91485.300000 0 0 1
-29.500334 30.280756 0.174888 42.275578 -0.798452 1.566659 0.020837 -0.004648 90817.700000 0 0 1
-30.904634 29.749556 0.547688 42.900262 -0.766357 1.558029 0.017639 -0.006613 123684.000000 0 0 1
-31.090634 28.405556 0.064288 42.113030 -0.740299 1.569270 0.024741 -0.010524 -121132.000000 0 0 1
-32.420534 28.296556 -0.395012 43.034197 -0.717581 1.579975 0.021159 -0.006376 -2700.000000 0 0 1
-32.699034 26.936756 -1.005612 42.377198 -0.689073 1.594529 0.027903 -0.006046 -80112.600000 0 0 1
-32.741034 25.934956 0.002688 41.768376 -0.669920 1.570732 0.036003 -0.009292 -83270.200000 0 0 1
-33.196034 24.717756 -0.492812 41.390663 -0.640036 1.582703 0.037635 -0.001174 -436261.000000 0 0 1
-33.367834 23.508356 0.466888 40.820009 -0.613754 1.559358 0.054352 -0.011241 846209.000000 0 0 1
-32.133734 22.979256 1.013888 39.517731 -0.620797 1.545137 0.052301 -0.018464 839718.000000 0 0 1
-31.626434 23.688956 2.125788 39.571668 -0.642876 1.517051 0.055572 -0.022049 -764576.000000 0 0 1
-30.120234 23.573556 2.380488 38.322419 -0.664071 1.508639 0.050363 -0.031145 398400.000000 0 0 1
-29.223634 24.298756 1.485688 38.034952 -0.693641 1.531725 0.072109 -0.031730 745206.000000 0 0 1
-29.078634 25.661856 1.918488 38.830122 -0.723061 1.521369 0.035010 -0.023677 -354403.000000 0 0 1
-28.596934 26.628256 0.815888 39.083428 -0.749765 1.549919 0.027746 -0.021243 -1165910.000000 0 0 1
-27.320034 26.425356 0.383388 38.010928 -0.768753 1.560710 0.028223 -0.025706 -1450720.000000 0 0 1
-26.900034 27.475656 -0.431512 38.453995 -0.795984 1.582018 0.028552 -0.019708 258167.000000 0 0 1
-25.687634 27.166056 -1.349612 37.412172 -0.813363 1.606878 0.022141 -0.015350 40959.200000 0 0 1
-25.980634 26.195556 -2.364412 36.970136 -0.789517 1.634795 0.041197 -0.029552 -24973.900000 0 0 1
-24.801634 25.727156 -2.975912 35.858941 -0.803713 1.653881 0.037529 -0.019009 -43676.300000 0 0 1
-23.916934 24.724356 -2.234412 34.471816 -0.801996 1.635660 0.030376 -0.026673 -454872.000000 0 0 1
-24.394934 23.421456 -2.123612 33.884910 -0.765042 1.633509 0.026049 -0.027147 -75167.400000 0 0 1
-23.429634 22.722656 -1.352112 32.666421 -0.770081 1.612200 0.017018 -0.043645 -141386.000000 0 0 1
-23.870134 21.242656 -1.025812 31.970080 -0.727221 1.602888 0.017097 -0.044340 347936.000000 0 0 1
-24.722834 20.877956 0.080288 32.359141 -0.701281 1.568315 0.007986 -0.039310 -128117.000000 0 0 1
-26.051434 21.283156 0.142288 33.640306 -0.685001 1.566567 0.002250 -0.033424 -756368.000000 0 0 1
-27.044534 20.640056 -0.779312 34.029782 -0.651888 1.593699 0.007188 -0.034584 -901551.000000 0 0 1
-27.327634 19.235056 -0.561012 33.423071 -0.613317 1.587582 0.004342 -0.023760 400136.000000 0 0 1
-28.384434 18.844456 -1.433612 34.100511 -0.586085 1.612849 0.031865 -0.024639 127846.000000 0 0 1
-28.585334 17.315656 -1.449012 33.452248 -0.544639 1.614126 0.015666 -0.012035 -60495.400000 0 0 1
-29.325834 16.782056 -0.347212 33.789976 -0.519774 1.581072 0.032423 -0.020762 388240.000000 0 0 1
-29.257234 15.377556 -0.169912 33.052743 -0.483916 1.575937 0.036057 -0.021004 1109540.000000 0 0 1
-27.863234 14.703156 0.244888 31.505596 -0.485554 1.563023 0.035517 -0.015396 889429.000000 0 0 1
-27.617934 14.833456 1.643588 31.392405 -0.492881 1.518416 0.057519 -0.014366 74507.800000 0 0 1
-26.354934 14.391656 2.083788 30.100573 -0.499821 1.501513 0.041958 -0.011668 7814.400000 0 0 1
-25.954134 12.863956 2.034388 29.038546 -0.460155 1.500681 0.045293 -0.010987 -276190.000000 0 0 1
-25.864334 12.314356 0.764988 28.656454 -0.444356 1.544098 0.040641 -0.017208 287654.000000 0 0 1
-25.702534 10.912656 0.876388 27.936972 -0.401511 1.539421 0.058525 -0.011009 -156842.000000 0 0 1
-25.720234 10.126956 -0.457912 27.645892 -0.375094 1.587361 0.068453 -0.017707 -386461.000000 0 0 1
-27.040134 9.865956 -0.853212 28.796422 -0.349854 1.600430 0.059207 -0.025304 -62203.100000 0 0 1
-27.111534 8.855856 -1.866512 28.582256 -0.315719 1.636146 0.074783 -0.030786 -25075.600000 0 0 1
-28.490534 8.642456 -2.531412 29.879937 -0.294523 1.655617 0.075267 -0.037041 -129056.000000 0 0 1
-28.499234 7.837056 -3.742912 29.793207 -0.268359 1.696759 0.092409 -0.033940 -4846.670000 0 0 1
-29.703234 7.991556 -4.443312 31.078773 -0.262823 1.714257 0.077557 -0.035885 -529777.000000 0 0 1
-10.793118 18.349056 -19.972312 29.190281 -1.039090 2.324318 0.092124 -0.014245 556894.000000 0 0 1
-11.522018 17.486156 -20.860612 29.558208 -0.988174 2.354273 0.097938 -0.019497 257132.000000 0 0 1
-10.806018 17.384756 -22.083012 30.110782 -1.014660 2.394095 0.091179 -0.029520 291581.000000 0 0 1
-11.020418 16.034556 -22.802612 29.975252 -0.968650 2.435210 0.092280 -0.030466 -108892.000000 0 0 1
-10.177718 14.997056 -22.379312 28.798112 -0.974545 2.460858 0.079854 -0.026953 -249636.000000 0 0 1
-10.168018 13.953556 -23.341012 29.032622 -0.941064 2.504718 0.053232 -0.025319 48580.800000 0 0 1
-9.361918 12.642556 -23.028412 27.888842 -0.933398 2.542276 0.039610 -0.017532 227266.000000 0 0 1
-7.952418 12.725356 -23.084712 27.533245 -1.012250 2.565193 0.029643 -0.021869 -286224.000000 0 0 1
-7.538618 11.519556 -22.573812 26.440649 -0.991321 2.593950 0.015092 -0.016310 53463.800000 0 0 1
-6.011818 11.394256 -22.381312 25.824294 -1.085299 2.619298 0.019987 -0.011211 110380.000000 0 0 1
-5.245618 11.083456 -23.509812 26.515481 -1.128749 2.660835 0.014943 -0.015795 209757.000000 0 0 1
-3.873518 10.801256 -23.226512 25.906411 -1.226465 2.682725 0.014912 -0.017721 172928.000000 0 0 1
-3.144018 10.709156 -24.530412 26.950176 -1.285238 2.714595 0.031741 -0.014949 -680105.000000 0 0 1
-3.270218 9.354256 -25.000312 26.892602 -1.234481 2.764218 0.024368 -0.019853 20186.200000 0 0 1
-2.835718 9.113156 -26.332412 28.008692 -1.269126 2.793871 0.030911 -0.017513 -136036.000000 0 0 1
-2.296118 7.696956 -26.604352 27.790409 -1.280886 2.848384 0.033395 -0.001949 -789703.000000 0 0 1
-1.047818 7.429956 -26.088592 27.146211 -1.430694 2.861536 0.040595 -0.006246 -861143.000000 0 0 1
-0.978018 6.073856 -25.671152 26.398036 -1.411146 2.906379 0.040070 -0.008339 4334.030000 0 0 1
0.398882 5.728356 -25.055312 25.704899 1.501276 2.916301 0.018180 -0.001629 -58633.100000 0 0 1
0.752582 6.529456 -23.990012 24.874100 1.456043 2.874179 0.015140 -0.001374 -279583.000000 0 1 0
1.585882 5.720856 -23.196112 23.943743 1.300376 2.891040 0.015235 0.001578 -181276.000000 0 1 0
1.813782 6.448056 -21.855112 22.858546 1.296591 2.844195 0.015314 0.001594 156487.000000 0 1 0
2.508882 7.669256 -21.908912 23.347642 1.254635 2.788703 0.018423 -0.002520 -58248.900000 0 1 0
2.404582 8.401456 -20.730912 22.497493 1.292038 2.742661 0.022230 -0.000806 195067.000000 0 1 0
2.972982 9.844256 -20.860412 23.257360 1.277504 2.683592 0.024155 0.000778 86898.200000 0 1 0
2.881282 10.512156 -19.582812 22.411910 1.303276 2.633693 0.024466 -0.006643 685119.000000 0 1 0
3.643982 11.776356 -19.603812 23.157517 1.270709 2.580252 0.038988 -0.007419 427677.000000 0 1 0
4.817382 11.792756 -18.600312 22.544353 1.182981 2.541094 0.041767 -0.014052 -112649.000000 0 1 0
5.818382 10.926456 -19.089012 22.751514 1.081485 2.566279 0.047062 -0.012002 -282434.000000 0 1 0
6.706682 10.538756 -18.036412 21.939852 1.004054 2.535859 0.045928 -0.018676 -28941.900000 0 1 0
7.662182 9.431156 -18.563312 22.186759 0.888520 2.561997 0.056897 -0.021943 -202759.000000 0 1 0
7.244482 8.073656 -18.794512 21.700233 0.839476 2.618138 0.050467 -0.021804 -157601.000000 0 1 0
6.462482 7.941156 -19.970512 22.442080 0.887700 2.667854 0.042701 -0.016374 89633.800000 0 1 0
6.101282 6.449156 -20.179512 22.046087 0.813109 2.727131 0.054534 -0.014875 93494.800000 0 1 0
7.274082 5.664756 -20.349112 22.340279 0.661654 2.716186 0.050616 -0.005582 252533.000000 0 1 0
7.030282 4.300856 -20.734812 22.312657 0.549023 2.763268 0.042457 -0.002822 -171969.000000 0 1 0
7.063182 4.130856 -22.251612 23.708369 0.529200 2.789216 0.042563 -0.008403 -355756.000000 0 1 0
6.098982 4.827256 -22.999612 24.279253 0.669528 2.815480 0.040292 -0.008187 -175669.000000 0 1 0
6.385882 4.708056 -24.364512 25.623714 0.635298 2.826791 0.038054 -0.005678 519256.000000 0 0 1
5.307682 5.411656 -25.300222 26.411337 0.795098 2.850498 0.019827 -0.007709 470493.000000 0 0 1
5.450982 6.787856 -25.457542 26.904918 0.894199 2.812092 0.019424 -0.010580 162990.000000 0 0 1
4.996982 7.522756 -24.339112 25.960625 0.984469 2.786285 0.044356 -0.011911 -901578.000000 0 0 1
4.690282 9.046856 -24.630912 26.655697 1.092503 2.749311 0.050407 -0.012334 -289303.000000 0 0 1
3.599282 9.325656 -25.438762 27.332276 1.202456 2.767180 0.056359 -0.008071 -594690.000000 0 0 1
2.370782 9.228656 -24.746812 26.517794 1.319340 2.774056 0.040856 0.000957 -349487.000000 0 0 1
1.191482 9.748456 -25.607302 27.426008 1.449177 2.775370 0.036740 0.002131 -139528.000000 0 0 1
1.134082 11.166356 -25.541742 27.899000 1.469581 2.727564 0.054368 -0.016494 425025.000000 0 0 1
0.019982 11.637756 -26.285262 28.746352 1.569079 2.724785 0.063359 -0.024747 53659.900000 0 0 1
0.163282 13.177256 -26.647242 29.727802 1.558406 2.682318 0.055829 -0.023040 -153825.000000 0 0 1
-0.049118 13.968256 -25.497272 29.072761 -1.567280 2.640412 0.046985 -0.019086 25938.700000 0 0 1
-0.208918 15.300956 -25.976552 30.148700 -1.557143 2.609238 0.042794 -0.022608 -58060.700000 0 0 1
-0.710418 16.245156 -24.822212 29.674096 -1.527093 2.561650 0.047545 -0.014803 73854.800000 0 0 1
-1.882918 15.659456 -24.299512 28.969470 -1.451129 2.565867 0.033520 -0.016204 -462623.000000 0 0 1
-2.156318 16.067656 -22.949112 28.097705 -1.437391 2.526571 0.027988 -0.023268 -473852.000000 0 0 1
-3.297818 15.195156 -22.321512 27.203277 -1.357080 2.533160 0.023951 -0.022109 -98709.600000 0 0 1
-4.539718 15.553356 -22.850512 28.011816 -1.286805 2.524813 0.017908 -0.023604 -734556.000000 0 0 1
-4.816518 14.860356 -24.021412 28.654097 -1.257362 2.564998 0.021531 -0.023231 -891487.000000 0 0 1
-6.283418 15.007456 -24.467212 29.382810 -1.174285 2.554771 0.008825 -0.027801 12517.900000 0 0 1
-6.696818 16.293756 -24.951112 30.543278 -1.180839 2.526830 0.028549 -0.022257 654536.000000 0 0 1
-8.125118 16.265456 -25.077012 30.974814 -1.107523 2.514256 0.054920 -0.024575 546693.000000 0 0 1
-8.846318 17.500056 -25.637512 32.276792 -1.102757 2.488654 0.061987 -0.027086 -6935.930000 0 0 1
-9.104318 18.580956 -24.731012 32.245364 -1.115196 2.444892 0.063461 -0.026659 415870.000000 0 0 1
-10.020218 19.503056 -25.369532 33.531882 -1.096188 2.428862 0.066251 -0.015169 656493.000000 0 0 1
-10.724218 20.481656 -24.396212 33.610746 -1.088447 2.383059 0.056999 -0.010548 -358562.000000 0 0 1
-9.972118 21.603256 -24.079712 33.852272 -1.138336 2.362167 0.068085 -0.007343 -388789.000000 0 0 1
-10.416218 22.877556 -24.446312 35.064260 -1.143541 2.342261 0.060402 -0.013228 -311899.000000 0 0 1
-10.277918 23.271756 -25.946772 36.337930 -1.154910 2.366050 0.040481 -0.004256 45429.900000 0 0 1
-10.993018 22.424656 -26.850712 36.669774 -1.115003 2.392387 0.045429 -0.004549 180917.000000 0 0 1
-10.875818 22.891856 -28.143462 37.873143 -1.127270 2.408485 0.057025 -0.003438 -327907.000000 0 0 1
-11.606218 22.021756 -29.162362 38.341953 -1.085756 2.435012 0.052049 -0.001326 -215678.000000 0 0 1
-10.967718 20.843456 -29.691262 37.898701 -1.086413 2.470974 0.063691 -0.007098 -6786.600000 0 0 1
-10.686818 19.805656 -28.736912 36.500441 -1.075985 2.477219 0.063038 -0.009867 335299.000000 0 0 1
-9.649318 18.765656 -29.277942 36.089570 -1.095853 2.517096 0.046632 -0.010948 278644.000000 0 0 1
-8.317618 19.242156 -29.383632 36.094891 -1.162792 2.521916 0.037120 -0.013144 349929.000000 0 0 1
-7.314718 18.403756 -29.941482 35.898408 -1.192483 2.557226 0.034793 -0.013227 873070.000000 0 0 1
-6.913518 17.095856 -29.084942 34.438334 -1.186505 2.576523 0.047920 -0.025456 -1072460.000000 0 0 1
-7.945018 16.169356 -29.172532 34.287140 -1.114082 2.588359 0.040698 -0.021407 -420200.000000 0 0 1
-7.617018 14.978556 -28.593692 33.165876 -1.100349 2.610278 0.022400 -0.016228 -771511.000000 0 0 1
-8.813618 14.038656 -28.453142 32.929394 -1.010178 2.614087 0.041736 -0.025765 -700178.000000 0 0 1
-9.697418 14.686056 -27.559492 32.699323 -0.987204 2.573289 0.062611 -0.037974 -623324.000000 0 0 1
-10.828818 13.831256 -27.492052 32.624835 -0.906555 2.573024 0.096700 -0.042776 142519.000000 0 0 1
-11.889018 14.355656 -26.489322 32.390088 -0.879109 2.528412 0.081842 -0.033447 76570.600000 0 0 1
-12.577318 15.507756 -26.887162 33.490281 -0.889363 2.502831 0.072611 -0.029340 -227536.000000 0 0 1
-13.689018 15.751256 -26.033732 33.365348 -0.855332 2.465882 0.070467 -0.032596 28833.400000 0 0 1
-14.533118 16.938056 -26.482102 34.632513 -0.861667 2.441310 0.053729 -0.026706 -182833.000000 0 0 1
-13.895718 18.193956 -26.359812 34.913474 -0.918550 2.426457 0.045684 -0.012692 139268.000000 0 0 1
-14.838618 19.218056 -26.661552 36.060458 -0.913289 2.402911 0.018932 -0.009234 -32182.600000 0 0 1
-14.294218 20.705456 -26.751412 36.724360 -0.966570 2.386835 0.030237 -0.010261 -242208.000000 0 0 1
-15.240218 21.698956 -27.081422 37.901350 -0.958496 2.366740 0.000730 -0.007728 -162542.000000 0 0 1
-14.704418 22.964456 -27.279402 38.571387 -1.001262 2.356389 0.007330 -0.003350 -367552.000000 0 0 1
-14.247118 23.713556 -26.045412 37.995744 -1.029788 2.326062 -0.009623 -0.005108 97217.600000 0 0 1
-13.811818 25.040356 -26.412172 38.927992 -1.066739 2.316499 0.010421 -0.011242 258611.000000 0 0 1
-13.262118 25.755256 -25.268192 38.440844 -1.095277 2.288062 0.021389 -0.019567 228002.000000 0 0 1
-13.002218 27.246956 -25.513692 39.527241 -1.125555 2.272436 0.024590 -0.016462 -476771.000000 0 0 1
-14.163318 27.942056 -25.893362 40.642641 -1.101658 2.261524 0.033300 -0.018485 -500276.000000 0 0 1
-14.484018 28.884856 -24.933912 40.814478 -1.105997 2.228004 0.038956 -0.022925 -539840.000000 0 0 1
-15.878918 29.390256 -25.298592 41.904008 -1.075448 2.218965 0.035701 -0.020344 -312774.000000 0 0 1
-16.861518 28.371856 -25.300682 41.586025 -1.034575 2.224832 0.025203 -0.018257 65402.900000 0 0 1
-18.115018 28.954556 -25.691272 42.738292 -1.011740 2.215711 0.026109 -0.015434 723306.000000 0 0 1
-19.290618 27.943656 -25.543452 42.490514 -0.966583 2.215744 0.034857 -0.012685 -68849.000000 0 0 1
-19.766618 27.826356 -24.229312 41.857912 -0.953154 2.188110 0.035207 -0.015168 -424464.000000 0 0 1
-20.812118 26.903556 -24.168712 41.726157 -0.912372 2.188570 0.041581 -0.026574 -579879.000000 0 0 1
-21.485618 26.732556 -22.786712 41.176396 -0.893788 2.157228 0.036420 -0.022806 -221201.000000 0 0 1
-22.229918 27.912956 -22.654012 42.267087 -0.898253 2.136456 0.035396 -0.016747 -347189.000000 0 0 1
-22.573018 28.198956 -21.293212 41.929979 -0.895756 2.103458 0.017080 -0.012896 831749.000000 0 0 1
-23.908518 29.042556 -21.141012 43.151242 -0.882054 2.082804 0.012995 -0.005672 1236930.000000 0 0 1
-25.081988 28.249056 -21.358412 43.396970 -0.844714 2.085370 0.019198 -0.010043 -631832.000000 0 0 1
-26.179438 28.980156 -20.955312 44.320847 -0.836129 2.063273 0.027608 -0.002012 -986248.000000 0 0 1
-27.461058 28.176856 -21.184512 44.685887 -0.798263 2.064711 0.019556 -0.004335 -446127.000000 0 0 1
-27.590708 27.797056 -22.568312 45.202347 -0.789124 2.093556 0.021607 -0.008259 240292.000000 0 0 1
-28.743188 26.993556 -22.801112 45.549024 -0.754017 2.095070 0.028742 -0.002520 247508.000000 0 0 1
-29.149818 26.558456 -24.223612 46.280091 -0.738915 2.121648 0.028905 0.005666 90485.400000 0 0 1
-28.726678 25.278356 -24.640112 45.512113 -0.721633 2.142894 0.037001 -0.001959 -44184.000000 0 0 1
-28.963138 25.130156 -26.052802 46.358781 -0.714658 2.167576 0.043419 -0.001513 -118837.000000 0 0 1
-28.862168 23.689456 -26.502282 45.788492 -0.687283 2.188050 0.048078 -0.008663 429930.000000 0 0 1
-27.547838 23.114956 -26.511582 44.677159 -0.698123 2.206077 0.042715 -0.015020 560456.000000 0 0 1
-27.566888 21.896656 -27.283362 44.539631 -0.671262 2.230096 0.052489 -0.024147 -58299.000000 0 0 1
-26.382158 20.999056 -26.937572 43.157982 -0.672271 2.244855 0.050465 -0.015812 -138551.000000 0 0 1
-26.666638 20.363356 -25.700612 42.264610 -0.652165 2.224447 0.049111 -0.017912 653258.000000 0 0 1
-25.994808 19.099356 -25.578672 41.167753 -0.633661 2.241233 0.029591 -0.021193 66779.500000 0 0 1
-27.047308 17.997956 -25.382042 41.227798 -0.587143 2.234011 0.029706 -0.010705 -455437.000000 0 0 1
-27.803718 17.784556 -26.520442 42.339946 -0.569062 2.247683 0.025336 -0.008108 -49087.700000 0 0 1
-28.540078 16.590956 -26.295422 42.204799 -0.526572 2.243424 0.009291 -0.011950 -489604.000000 0 0 1
-29.218328 15.960556 -27.524562 43.197819 -0.499961 2.261623 -0.001774 -0.011641 -284746.000000 0 0 1
-30.280468 16.800556 -27.925192 44.485748 -0.506545 2.249434 0.004346 -0.009888 -147926.000000 0 0 1
-31.056698 16.092756 -28.848902 45.340428 -0.478080 2.260454 0.010970 -0.006106 57544.900000 0 0 1
-32.319848 16.805956 -29.393512 46.808026 -0.479510 2.249724 0.021541 -0.018426 199302.000000 0 0 1
-33.459138 16.815156 -28.570372 47.101269 -0.465692 2.222540 0.010218 -0.011524 -275196.000000 0 0 1
-34.583095 17.266956 -29.279732 48.491658 -0.463079 2.219068 0.011282 -0.006810 313372.000000 0 0 1
35.618350 16.891756 -28.574122 48.687562 0.442831 2.198006 0.006978 -0.003661 254273.000000 0 0 1
35.209308 17.655756 -27.436542 48.001926 0.464808 2.179216 0.004141 -0.006950 146130.000000 0 0 1
34.077188 17.039956 -26.831572 46.599872 0.463680 2.184362 0.007042 -0.002694 120008.000000 0 0 1
33.593488 17.941456 -25.680632 45.933791 0.490535 2.164071 0.006070 -0.002341 -86607.300000 0 0 1
33.066198 19.153056 -26.247692 46.358972 0.525010 2.172665 0.009797 -0.009361 126100.000000 0 0 1
32.905588 20.173456 -25.290852 46.145132 0.549975 2.150854 0.012030 -0.010823 -713527.000000 0 0 1
32.124318 21.380656 -25.755272 46.394378 0.587236 2.159325 0.012654 -0.011375 913530.000000 0 0 1
30.754048 21.182356 -26.161092 45.595026 0.603147 2.181899 0.011683 -0.012864 862204.000000 0 0 1
29.782358 21.367856 -25.147482 44.451883 0.622353 2.172107 0.022042 -0.006323 273036.000000 0 0 1
28.342278 21.242356 -25.720592 43.772951 0.643177 2.198875 0.007605 -0.004074 308597.000000 0 0 1
28.061158 19.927156 -26.053342 43.165921 0.617494 2.218758 0.007237 -0.008995 -496649.000000 0 0 1
26.783048 19.816856 -26.619052 42.645203 0.637008 2.244901 0.026839 -0.006328 -247890.000000 0 0 1
26.262798 18.387456 -26.915642 41.860302 0.610815 2.269189 0.036403 -0.003710 30283.900000 0 0 1
27.104628 17.643456 -27.773652 42.630132 0.577035 2.280360 0.024657 -0.009224 454405.000000 0 0 1
28.153918 16.950356 -27.093972 42.591560 0.541933 2.260275 0.022246 -0.005060 292017.000000 0 0 1
28.963868 15.937156 -27.961702 43.298445 0.503029 2.272854 0.015078 -0.002862 356888.000000 0 0 1
28.232948 14.784756 -28.489592 42.747458 0.482404 2.300251 0.025291 -0.001414 551245.000000 0 0 1
27.623818 13.878556 -27.549282 41.408363 0.465576 2.298702 0.030022 -0.002241 -39342.200000 0 0 1
28.532608 12.971056 -26.655002 41.144223 0.426677 2.275546 0.020095 -0.001847 -92192.700000 0 0 1
28.986248 13.728856 -25.586642 41.028774 0.442333 2.244170 0.024331 -0.002607 -69526.800000 0 0 1
30.009408 13.083456 -24.865112 41.109794 0.411133 2.220369 0.020904 -0.000764 -302224.000000 0 0 1
-14.483918 -31.787281 -24.013612 42.389488 1.143253 2.173048 0.070875 -0.007610 227757.000000 0 0 1
-13.721818 -30.716681 -24.559012 41.652705 1.150672 2.201377 0.060252 -0.015962 207766.000000 0 0 1
-13.948818 -30.528281 -25.952272 42.427184 1.142207 2.228991 0.046043 -0.015845 -54199.600000 0 0 1
-13.179818 -29.364181 -26.568542 41.735479 1.148908 2.260870 0.044080 -0.015464 -77757.400000 0 0 1
-13.646218 -28.114181 -26.141472 40.743135 1.118908 2.267400 0.051067 0.001647 63400.000000 0 0 1
-12.889618 -27.094381 -26.769012 40.209797 1.126752 2.299273 0.033645 0.001057 60481.000000 0 0 1
-13.455118 -25.667981 -26.572792 39.319191 1.087978 2.312876 0.018707 0.014447 -88582.100000 0 0 1
-13.030018 -25.140081 -25.288272 37.964480 1.092619 2.299769 0.020716 -0.007131 234026.000000 0 0 1
-13.401518 -23.779081 -25.158302 37.121228 1.057584 2.315472 0.022865 -0.003331 -81671.000000 0 0 1
-13.139418 -23.160981 -23.760712 35.688188 1.054762 2.299344 0.018569 0.001009 -129161.000000 0 0 1
-11.796018 -22.886881 -23.459012 34.832178 1.094901 2.309712 0.014914 -0.011435 -276774.000000 0 0 1
-11.592118 -22.176481 -22.241812 33.479422 1.089137 2.297410 0.003728 -0.008020 518775.000000 0 0 1
-10.079218 -21.995081 -21.921812 32.648738 1.141104 2.306953 0.009078 -0.011621 458735.000000 0 0 1
-9.540518 -20.900681 -22.612512 32.236403 1.142576 2.348239 0.014156 -0.001588 685159.000000 0 0 1
-8.114818 -20.746481 -22.551812 31.699385 1.197949 2.362324 0.024613 -0.002292 870866.000000 0 0 1
-7.735318 -19.563281 -23.487712 31.531409 1.194262 2.411180 0.028170 0.004902 -134449.000000 0 0 1
-8.273618 -18.348481 -23.033312 30.588445 1.147181 2.423416 0.008428 0.006469 -229249.000000 0 0 1
-8.491618 -17.358381 -24.058412 30.858194 1.115831 2.464894 0.003331 0.003235 -107141.000000 0 0 1
-7.305618 -16.625281 -24.778112 30.720138 1.156769 2.509132 0.018447 -0.007380 361837.000000 0 0 1
-6.750518 -17.342681 -25.889212 31.883999 1.199597 2.518335 0.014817 -0.009807 -762783.000000 0 0 1
-5.719818 -16.642681 -26.448062 31.767832 1.239760 2.554478 0.018982 -0.017817 -837470.000000 0 0 1
-5.282218 -17.238481 -27.841442 33.169458 1.273460 2.566919 0.031026 -0.011755 -302432.000000 0 0 1
-6.226118 -16.959981 -28.827412 34.020952 1.218964 2.581758 0.053014 -0.015599 -98076.500000 0 0 1
-6.033318 -17.956481 -29.833242 35.339192 1.246651 2.575862 0.053050 -0.025566 -52734.200000 0 0 1
-6.843818 -17.706681 -31.131492 36.462778 1.201973 2.594015 0.062052 -0.024112 84824.300000 0 0 1
-6.456818 -16.620281 -31.967392 36.603803 1.200251 2.632804 0.058438 -0.023143 -35561.400000 0 0 1
-6.584418 -15.278381 -31.373912 35.512052 1.163886 2.654019 0.042036 -0.022434 -184682.000000 0 0 1
-7.177718 -14.259681 -32.353642 36.077920 1.104466 2.683214 0.048001 -0.022865 487890.000000 0 0 1
-6.358718 -13.995381 -33.553022 36.906765 1.144336 2.711985 0.045809 -0.024769 191504.000000 0 0 1
-7.038718 -13.310281 34.212442 37.379116 1.084361 0.414588 0.052256 -0.016987 -433970.000000 0 0 1
-7.297818 -11.786781 -34.224786 36.925903 1.016413 2.756731 0.040648 -0.013596 -88710.000000 0 0 1
-6.158318 -10.977581 -34.260262 36.499284 1.059554 2.789508 0.035257 -0.013200 -335549.000000 0 0 1
-5.743818 -10.539381 33.212617 35.314981 1.071811 0.346791 0.025337 -0.017000 -120500.000000 0 0 1
-4.700918 -9.431981 33.248076 34.878295 1.108428 0.306949 0.022744 -0.016640 -388057.000000 0 0 1
-4.640918 -8.731481 32.059951 33.550221 1.082255 0.299172 0.021098 -0.011718 565495.000000 0 0 1
-3.594518 -7.731881 32.082101 33.195839 1.135624 0.259769 0.016280 -0.018199 -140017.000000 0 0 1
-3.712318 -6.798881 30.844201 31.802057 1.071015 0.246056 0.009374 -0.010825 675397.000000 0 0 1
-4.902218 -5.978981 30.933291 31.884925 0.884033 0.244931 0.008526 -0.015023 732919.000000 0 0 1
-6.031318 -6.659881 30.395081 31.695295 0.834885 0.287423 0.007863 -0.012059 -952865.000000 0 0 1
-7.249318 -5.770981 30.446091 31.824853 0.672341 0.295432 0.002373 -0.012580 -760228.000000 0 0 1
-8.449918 -6.375581 30.072761 31.881344 0.646384 0.338447 0.009820 -0.005401 -103378.000000 0 0 1
-9.562218 -5.449181 30.026971 31.980440 0.517967 0.351327 0.009424 -0.010083 995323.000000 0 0 1
-10.714318 -6.097981 29.178381 31.675857 0.517422 0.399758 0.023380 -0.007767 119310.000000 0 0 1
-10.452318 -6.061781 27.778711 30.292786 0.525543 0.410284 0.014645 0.000311 -27950.700000 0 0 1
-11.330018 -6.848081 27.045581 30.111941 0.543663 0.455212 0.026831 -0.005907 -301174.000000 0 0 1
-11.191118 -6.579581 25.534051 28.644716 0.531496 0.470360 0.014636 -0.004065 773737.000000 0 0 1
-9.980718 -7.185781 25.016171 27.875778 0.624001 0.456919 0.013956 0.000014 917099.000000 0 0 1
-9.519918 -6.765581 23.736471 26.454148 0.617855 0.457254 0.016691 -0.002082 1000840.000000 0 0 1
-10.552118 -6.869381 22.476951 25.763325 0.577075 0.510624 0.024869 -0.002879 715660.000000 0 0 1
-11.629618 -5.993481 22.504651 26.031311 0.475863 0.526597 0.019682 -0.000101 -147358.000000 0 0 1
-12.466318 -6.101681 21.329251 25.447525 0.455175 0.576884 0.026499 0.000515 -38839.100000 0 0 1
-13.589818 -5.100481 21.255751 25.739173 0.359048 0.599154 0.025774 0.012985 -471519.000000 0 0 1
-13.146918 -3.799081 20.979551 25.048274 0.281308 0.577986 0.012922 0.014129 -360207.000000 0 0 1
-14.199218 -2.871981 20.999351 25.511543 0.199571 0.603893 0.012393 0.011723 -61354.400000 0 0 1
-13.822418 -1.506981 20.427351 24.710461 0.108596 0.597636 0.006217 0.009769 -171488.000000 0 1 0
-13.005718 -0.763981 21.298251 24.966935 0.058675 0.548978 0.006229 0.011955 -133499.000000 0 1 0
-12.917318 0.661019 20.961551 24.630888 -0.051128 0.552858 0.011953 -0.002791 -223269.000000 0 1 0
-12.434518 1.227019 19.597651 23.242004 -0.098360 0.567589 0.024927 -0.009473 217195.000000 0 1 0
-13.263418 0.920019 18.477851 22.763911 -0.069254 0.623711 0.030047 -0.004166 -1197690.000000 0 1 0
-14.428118 1.592019 18.320251 23.373847 -0.109897 0.670047 0.018762 -0.003925 -1362810.000000 0 1 0
-15.429718 0.827019 17.465951 23.319940 -0.053548 0.724289 0.025723 0.000131 -276071.000000 0 1 0
-15.748818 -0.475981 18.001151 23.922652 0.030214 0.718987 0.008378 0.004727 151391.000000 0 1 0
-16.790118 -1.057981 17.253951 24.098261 0.062929 0.772765 0.009104 0.010991 -65071.400000 0 1 0
-16.840118 -2.570981 17.253951 24.246615 0.151500 0.779020 0.017096 0.008009 -71677.800000 0 1 0
-17.319418 -3.072981 18.490251 25.520479 0.175602 0.760450 0.018777 0.011300 63958.400000 0 0 1
-17.372018 -4.451681 18.601251 25.838170 0.250858 0.767118 0.025930 0.013119 -324518.000000 0 0 1
-18.018818 -4.921781 19.935751 27.319149 0.266642 0.752861 0.022505 0.012946 -188443.000000 0 0 1
-17.350618 -4.669581 21.174851 27.770906 0.262901 0.703654 0.020362 0.013067 24257.900000 0 0 1
-18.160718 -4.725381 22.343551 29.178334 0.254553 0.698577 0.022255 0.005212 -243307.000000 0 0 1
-18.326618 -6.139381 23.076751 30.101385 0.323248 0.697214 0.029824 0.003108 -420793.000000 0 0 1
-17.212618 -6.687681 23.698711 30.043771 0.370583 0.661932 0.013024 0.001388 -651530.000000 0 0 1
-16.360718 -7.388981 22.858351 29.065002 0.424208 0.665746 0.024970 0.009359 -250369.000000 0 0 1
-15.121618 -7.982281 23.570751 29.119760 0.485696 0.627595 0.032227 0.008484 69625.800000 0 0 1
-15.555018 -9.078481 24.411031 30.336048 0.528301 0.635648 0.025997 -0.001522 314610.000000 0 0 1
-14.637618 -9.436581 25.427771 30.820131 0.572626 0.600527 0.037476 0.003220 -16764.100000 0 0 1
-15.185218 -10.452781 26.435041 32.228293 0.602866 0.608960 0.025015 -0.005484 -449531.000000 0 0 1
-15.054018 -11.811081 26.093291 32.357146 0.665268 0.632732 0.021380 -0.009652 223880.000000 0 0 1
-14.139118 -12.504581 26.943171 32.897016 0.724127 0.611103 0.043664 -0.009736 65025.100000 0 0 1
-14.275518 -14.049881 26.714071 33.389087 0.777432 0.643361 0.036525 -0.017151 1364180.000000 0 0 1
-15.577918 -14.482981 27.251561 34.569869 0.748990 0.662749 0.018465 -0.015240 1607190.000000 0 0 1
-15.801118 -15.880681 27.106541 35.165835 0.787909 0.690668 0.035760 -0.010758 104835.000000 0 0 1
-14.877218 -16.844581 27.916991 35.838944 0.847338 0.677796 0.036587 -0.012533 144131.000000 0 0 1
-13.542718 -16.853181 27.484321 34.968884 0.893882 0.666541 0.047615 -0.017353 -61287.000000 0 0 1
-12.639718 -17.591781 28.289471 35.630428 0.947761 0.653486 0.051157 -0.015798 -296508.000000 0 0 1
-11.361118 -17.915881 27.548011 34.769911 1.005654 0.656236 0.056714 -0.020823 -894520.000000 0 0 1
-10.369718 -18.583281 28.269401 35.384014 1.061822 0.645280 0.059660 -0.021746 -28976.700000 0 0 1
-9.433118 -19.113981 27.333101 34.661598 1.112347 0.662316 0.055701 -0.023235 68925.400000 0 0 1
-8.228418 -19.852781 27.934421 35.244456 1.177877 0.655751 0.062957 -0.020688 -133627.000000 0 0 1
-8.671718 -20.986381 28.698651 36.595621 1.178957 0.669374 0.059020 -0.013684 238676.000000 0 0 1
-7.697718 -21.521681 29.575861 37.378726 1.227303 0.657948 0.065633 -0.016037 81655.600000 0 0 1
-8.258218 -22.751081 30.243521 38.736035 1.222604 0.674916 0.061617 -0.018447 74363.800000 0 0 1
-8.266318 -23.862981 29.347641 38.717669 1.237325 0.710569 0.071054 -0.021834 -11392.700000 0 0 1
-8.634318 -25.022081 30.041871 40.039605 1.238522 0.722275 0.060282 -0.022030 -355116.000000 0 0 1
-8.745018 -26.230581 29.091881 40.135474 1.248995 0.759991 0.064333 -0.024529 -448652.000000 0 0 1
-9.911618 -26.198381 28.316661 39.829997 1.209110 0.779965 0.057989 -0.023650 -257954.000000 0 0 1
-10.109018 -27.455781 27.619121 40.234662 1.218007 0.814199 0.055910 -0.022189 -408945.000000 0 0 1
-11.380118 -27.561281 26.772381 40.073578 1.179217 0.839170 0.054436 -0.015476 -344021.000000 0 0 1
-11.499018 -26.877581 25.518921 38.805246 1.166532 0.853147 0.056250 -0.016446 64115.000000 0 0 1
-11.726618 -25.464581 25.689091 38.024832 1.139239 0.829035 0.048665 -0.009114 -252937.000000 0 0 1
-11.916718 -24.740581 24.368841 36.714370 1.121922 0.844987 0.057506 -0.025150 556984.000000 0 0 1
-13.139518 -25.129981 23.721831 36.971450 1.089027 0.874181 0.040434 -0.015791 599190.000000 0 0 1
-13.065118 -24.950781 22.356251 35.958876 1.088419 0.899863 0.051604 -0.013502 391553.000000 0 0 1
-14.453318 -25.016081 21.646751 36.101032 1.046889 0.927775 0.046341 -0.015960 330157.000000 0 0 1
-14.803918 -26.366481 21.298551 36.986154 1.059192 0.957150 0.057370 -0.017039 396307.000000 0 0 1
-16.046918 -26.374981 20.601451 37.115536 1.024213 0.982358 0.057621 -0.018232 593388.000000 0 0 1
-16.605918 -27.669981 19.959351 37.944170 1.030272 1.016884 0.062090 -0.026310 662353.000000 0 0 1
-15.629018 -28.131681 19.003551 37.373689 1.063689 1.037385 0.057015 -0.027893 520022.000000 0 0 1
-15.826718 -29.469681 18.627351 38.287404 1.077949 1.062701 0.076671 -0.024799 -241938.000000 0 0 1
-14.718018 -29.978581 17.724851 37.808805 1.114414 1.082862 0.080645 -0.031909 -312585.000000 0 0 1
-14.714018 -29.326681 16.481051 36.717592 1.105767 1.105307 0.082571 -0.036504 63561.500000 0 0 1
-13.422118 -29.217081 15.892851 35.866054 1.140159 1.111724 0.077941 -0.033995 282676.000000 0 0 1
-13.395418 -28.683881 14.427051 34.789971 1.133894 1.143194 0.066745 -0.018053 -10777.300000 0 0 1
-13.870718 -27.324781 14.427751 33.870348 1.101068 1.130763 0.051296 -0.018368 -189282.000000 0 0 1
-14.178218 -26.798781 13.138651 33.042710 1.084170 1.161868 0.045633 -0.015450 209387.000000 0 0 1
-13.083118 -26.724381 12.012951 32.088495 1.115538 1.187080 0.035441 -0.015117 279516.000000 0 0 1
-13.581318 -26.260781 10.767051 31.464428 1.093506 1.221542 0.021881 -0.001048 -339406.000000 0 0 1
-12.798918 -26.681181 9.702251 31.142116 1.123522 1.253975 0.021619 0.002197 -149914.000000 0 0 1
-13.294718 -26.085381 8.366851 30.449973 1.099449 1.292442 0.034074 0.006555 407855.000000 0 0 1
-14.451818 -26.642181 7.752051 31.285063 1.073775 1.320400 0.034100 -0.002831 232193.000000 0 0 1
-14.741418 -25.989781 6.528151 30.584226 1.054843 1.355693 0.045711 -0.007767 159342.000000 0 0 1
-15.648518 -26.778881 5.521751 31.503561 1.041956 1.394612 0.046225 -0.004252 512082.000000 0 0 1
-15.048218 -27.872381 4.782651 32.034236 1.075743 1.420938 0.063955 -0.007349 97276.900000 0 0 1
-15.577118 -27.815181 3.490951 32.070511 1.060291 1.461728 0.063269 -0.003634 -273374.000000 0 0 1
-15.137418 -28.974281 2.577751 32.791694 1.089356 1.492105 0.065167 -0.005671 280819.000000 0 0 1
-13.929318 -28.770081 1.854551 32.018477 1.119901 1.512843 0.060233 0.003594 606.733000 0 0 1
-13.460518 -29.879381 1.122951 32.790608 1.147531 1.536544 0.056585 -0.004432 -46295.800000 0 0 1
-12.002818 -29.621681 0.690751 31.968559 1.185812 1.549187 0.037603 0.000140 -135369.000000 0 0 1
-11.752518 -28.798481 -0.463449 31.107700 1.183331 1.585695 0.054786 -0.001516 -14982.000000 0 0 1
-12.115118 -27.387681 -0.322549 29.949378 1.154317 1.581566 0.055585 -0.008938 -189475.000000 0 0 1
-11.851818 -26.644681 -1.652249 29.208467 1.152267 1.627394 0.062957 -0.012187 707162.000000 0 0 1
-10.463418 -26.779181 -1.951349 28.816930 1.198307 1.638564 0.057688 -0.016856 -2733.990000 0 0 1
-10.103318 -26.139381 -3.145549 28.199978 1.201967 1.682573 0.074006 -0.023391 -187689.000000 0 0 1
-8.660418 -26.460181 -3.525949 28.063791 1.254486 1.696770 0.064041 -0.024530 -210790.000000 0 0 1
-8.146918 -25.581581 -4.522949 27.225845 1.262484 1.737697 0.069273 -0.028733 -628588.000000 0 0 1
-6.870118 -25.929281 -4.967149 27.280006 1.311792 1.753898 0.057990 -0.022492 -209973.000000 0 0 1
-6.307418 -24.878481 -5.959649 26.348430 1.322499 1.798957 0.057286 -0.021666 44635.400000 0 0 1
-6.896218 -24.751281 -7.273549 26.703713 1.299067 1.846662 0.059542 -0.019037 -121741.000000 0 0 1
-6.166118 -23.762381 -7.920749 25.795543 1.316905 1.882897 0.048502 -0.014863 -121692.000000 0 0 1
-6.398518 -23.660981 -9.437049 26.264824 1.306689 1.938318 0.047087 -0.010603 145670.000000 0 0 1
-5.702018 -24.719981 -10.088649 27.301490 1.344097 1.949297 0.029197 -0.009372 -92041.200000 0 0 1
-5.810218 -24.698781 -11.476349 27.847711 1.339754 1.995566 0.022707 -0.006910 725461.000000 0 0 1
-7.090218 -25.397781 -12.091549 29.009034 1.298560 2.000741 0.027776 -0.008335 742665.000000 0 0 1
-7.296618 -25.160681 -13.440649 29.444041 1.288538 2.044833 0.033388 -0.013935 516753.000000 0 0 1
-8.380018 -25.945281 -13.965249 30.633487 1.258385 2.044159 0.044849 -0.008236 -183953.000000 0 0 1
-8.590818 -25.765181 -15.467149 31.255071 1.248961 2.088480 0.046249 -0.021764 279847.000000 0 0 1
-7.688618 -26.549781 -16.270349 32.073821 1.288915 2.102820 0.033366 -0.030280 1932700.000000 0 0 1
-6.338818 -25.963581 -16.329549 31.319999 1.331338 2.119261 0.043266 -0.029152 992592.000000 0 0 1
-5.391118 -26.927081 -17.050049 32.323924 1.373197 2.126422 0.031737 -0.024371 -552781.000000 0 0 1
-5.464718 -26.896081 -18.454649 33.073198 1.370346 2.162763 0.065895 -0.030335 860741.000000 0 0 1
-4.350218 -27.586981 -19.084449 33.825762 1.414393 2.170259 0.057433 -0.035898 607909.000000 0 0 1
-25.012418 14.238856 -5.152012 29.238832 -0.517518 1.747926 0.036566 -0.013902 -202826.000000 0 0 1
-25.242068 12.867356 -4.821512 28.739830 -0.471424 1.739358 0.026185 -0.009838 749873.000000 0 0 1
-23.974018 12.215956 -4.893912 27.348373 -0.471258 1.750712 0.053709 -0.014307 164315.000000 0 0 1
-23.941418 10.751556 -4.381412 26.607973 -0.422087 1.736215 0.067096 -0.031582 -249154.000000 0 0 1
-24.347318 9.804456 -5.311312 26.779270 -0.382824 1.770457 0.063549 -0.036106 561946.000000 0 0 1
-25.766748 9.697556 -5.442312 28.063974 -0.359962 1.765958 0.061599 -0.036360 195641.000000 0 0 1
-26.252698 9.146156 -6.756812 28.609628 -0.335239 1.809222 0.081076 -0.029140 -189419.000000 0 0 1
-25.922488 10.057256 -7.773412 28.871261 -0.370096 1.843404 0.109781 -0.019287 70635.300000 0 0 1
-25.904238 9.467156 -9.054712 29.028338 -0.350387 1.888017 0.101881 -0.020702 -468528.000000 0 0 1
-26.356078 10.410656 -10.182712 30.111663 -0.376189 1.915763 0.076789 -0.014871 -416446.000000 0 0 1
-25.603758 11.537456 -10.404412 29.948574 -0.423366 1.925603 0.082040 -0.004941 -298762.000000 0 0 1
-26.132468 12.036256 -11.566812 31.009168 -0.431622 1.953050 0.064037 -0.007905 70716.300000 0 0 1
-25.356328 13.212356 -12.294912 31.123537 -0.480359 1.976903 0.061689 -0.003910 -8322.610000 0 0 1
-25.273008 14.401856 -11.539612 31.293786 -0.517956 1.948461 0.066780 -0.001256 250396.000000 0 0 1
-24.655318 15.347756 -12.397512 31.577470 -0.556794 1.974260 0.057332 0.001546 -123693.000000 0 0 1
-24.571218 16.730056 -11.748112 31.963380 -0.597778 1.947169 0.076013 -0.004254 -383590.000000 0 0 1
-23.710018 16.758156 -10.648412 30.925546 -0.615273 1.922315 0.077233 -0.001227 -123207.000000 0 0 1
-23.450418 18.091456 -10.309512 31.360946 -0.657105 1.905763 0.042741 -0.000359 275394.000000 0 0 1
-22.126318 18.257556 -9.497612 30.217825 -0.689890 1.890521 0.037308 -0.005371 121177.000000 0 0 1
-22.235718 17.843756 -8.145712 29.650960 -0.676252 1.849095 0.045420 -0.009802 263460.000000 0 0 1
-22.931718 18.763856 -7.322412 30.521528 -0.685770 1.813069 0.025105 -0.007988 -47018.800000 0 0 1
-23.410818 18.249556 -5.948212 30.273650 -0.662137 1.768564 0.017031 -0.008585 460400.000000 0 0 1
-22.340118 18.263056 -5.009912 29.286845 -0.685321 1.742705 0.021532 -0.021445 311966.000000 0 0 1
-22.870818 18.183856 -3.728712 29.455564 -0.671726 1.697725 0.007304 -0.015531 177012.000000 0 0 1
-21.843418 17.832456 -2.607512 28.318378 -0.684647 1.663005 0.014748 -0.029206 -126586.000000 0 0 1
-21.199218 18.918356 -1.914612 28.477654 -0.728605 1.638079 0.034710 -0.033081 220190.000000 0 0 1
-20.350618 18.374656 -0.938512 27.434585 -0.734417 1.605012 0.065516 -0.042697 159268.000000 0 0 1
-19.483318 19.414656 -0.152112 27.505485 -0.783633 1.576327 0.059937 -0.046550 602003.000000 0 0 1
-20.329118 20.171756 0.716388 28.647617 -0.781513 1.545787 0.043309 -0.047353 658913.000000 0 0 1
-19.826818 21.462156 0.818088 29.230055 -0.824985 1.542805 0.054488 -0.038172 172087.000000 0 0 1
-20.841418 22.195956 1.694688 30.494215 -0.816861 1.515194 0.028682 -0.035010 63167.000000 0 0 1
-20.707218 21.720256 3.026188 30.161502 -0.809271 1.470294 0.039908 -0.031771 577960.000000 0 0 1
-21.947418 21.860356 3.698088 31.196797 -0.783411 1.451976 0.019137 -0.022777 3670.760000 0 0 1
-21.790218 21.452156 5.151388 31.008795 -0.777580 1.403896 0.034786 -0.018680 -231751.000000 0 0 1
-21.008218 22.416856 5.888788 31.281600 -0.817825 1.381415 0.032613 -0.014535 425871.000000 0 0 1
-20.363218 21.921556 7.049288 30.739351 -0.822235 1.339413 0.035873 -0.011531 -250239.000000 0 0 1
-21.071218 21.942956 8.411488 31.563312 -0.805662 1.301041 0.024391 -0.024062 -726949.000000 0 0 1
-22.069318 20.936556 8.492988 31.583619 -0.759065 1.298541 0.035610 -0.026265 526056.000000 0 0 1
-22.514518 20.800756 9.870288 32.202446 -0.745854 1.259275 0.053365 -0.030112 156763.000000 0 0 1
-23.206618 21.920156 10.710088 33.671150 -0.756898 1.247094 0.050699 -0.022190 -409821.000000 0 0 1
-24.547018 22.208156 10.374188 34.689798 -0.735416 1.267093 0.070418 -0.021828 327552.000000 0 0 1
-25.164558 23.178556 11.205388 36.000849 -0.744340 1.254285 0.080138 -0.021137 -616845.000000 0 0 1
-26.639468 23.416956 10.935988 37.116181 -0.721109 1.271715 0.079567 -0.023085 -594635.000000 0 0 1
-27.316848 24.242056 11.902988 38.413130 -0.725832 1.255742 0.077374 -0.022295 214429.000000 0 0 1
-27.060768 25.659056 11.881588 39.138784 -0.758816 1.262353 0.065920 -0.020672 -434238.000000 0 0 1
-27.424618 26.393156 13.147388 40.268625 -0.766235 1.238206 0.069560 -0.025213 -85654.000000 0 0 1
-26.713268 25.907656 14.273288 39.856393 -0.770090 1.204545 0.059636 -0.023980 28665.000000 0 0 1
-27.165318 26.468456 15.466588 40.960334 -0.772406 1.183594 0.051933 -0.018433 633105.000000 0 0 1
-25.993808 26.619056 16.524588 40.710124 -0.797282 1.152824 0.045827 -0.025856 728224.000000 0 0 1
-25.484808 25.351556 16.996188 39.762385 -0.782777 1.129133 0.053405 -0.029442 534070.000000 0 0 1
-24.389018 25.545556 17.899488 39.595344 -0.808555 1.101722 0.038286 -0.026642 171791.000000 0 0 1
-23.835118 24.259656 18.494988 38.713155 -0.794225 1.072711 0.044125 -0.017284 146590.000000 0 0 1
-22.619818 24.300056 19.251788 38.376819 -0.821194 1.045290 0.045634 -0.024015 620833.000000 0 0 1
-22.381918 23.042456 19.839988 37.756194 -0.799939 1.017521 0.038446 -0.028542 -590192.000000 0 0 1
-20.908018 22.984656 20.260988 37.093763 -0.832675 0.992963 0.043354 -0.029072 -1176730.000000 0 0 1
-20.067118 22.891956 19.166488 35.973395 -0.851060 1.008895 0.047622 -0.036131 -224434.000000 0 0 1
-18.761318 22.467756 19.520788 35.183068 -0.875056 0.982632 0.035863 -0.027218 -140029.000000 0 0 1
-18.606718 20.958456 19.596788 34.197967 -0.844768 0.960586 0.039616 -0.014873 -822263.000000 0 0 1
-19.097518 20.301656 20.715188 34.727387 -0.815951 0.931652 0.052437 -0.016666 -397241.000000 0 0 1
-18.307118 20.395556 21.870688 35.063603 -0.839307 0.897274 0.043553 -0.007075 -367524.000000 0 0 1
-19.180218 20.200056 23.090188 36.181208 -0.811290 0.878662 0.033288 -0.003605 -606326.000000 0 0 1
-20.053718 21.249756 23.275788 37.355937 -0.814347 0.898120 0.031809 -0.009150 -615052.000000 0 0 1
-20.629018 21.246056 24.526888 38.451522 -0.800132 0.879073 0.023310 0.000088 -192370.000000 0 0 1
-21.672218 22.370156 24.698888 39.751025 -0.801244 0.900345 0.023044 -0.006587 -433974.000000 0 0 1
-21.123218 23.687256 24.808888 40.283462 -0.842555 0.907322 0.032643 -0.010038 169417.000000 0 0 1
-22.041018 24.780556 24.859388 41.447215 -0.843842 0.927565 0.023728 -0.008218 163489.000000 0 0 1
-22.917018 25.039256 23.575688 41.327559 -0.829623 0.963731 0.020845 -0.014315 825026.000000 0 0 1
-24.136318 24.300656 23.469988 41.520164 -0.788791 0.970039 0.017238 -0.009706 382816.000000 0 0 1
-24.769718 24.522356 22.203788 41.326663 -0.780380 1.003593 0.017939 -0.020005 -16988.400000 0 0 1
-25.915868 23.529556 21.951688 41.317657 -0.737174 1.010673 0.022066 -0.010589 -589606.000000 0 0 1
-27.068508 23.659756 22.720188 42.528756 -0.718303 1.007198 0.023461 -0.010561 -886112.000000 0 0 1
-27.780278 22.490456 22.479188 42.224144 -0.680557 1.009390 0.042055 -0.011985 10019.000000 0 0 1
-29.261028 22.628756 22.969788 43.541699 -0.658273 1.015099 0.047353 -0.004823 -165681.000000 0 0 1
-29.777438 23.724556 22.255088 44.100332 -0.672743 1.041824 0.053957 -0.005413 494119.000000 0 0 1
-31.196308 23.926256 22.232488 45.165904 -0.654266 1.056134 0.060595 -0.009711 1073620.000000 0 0 1
-32.046918 22.927056 21.389088 44.834673 -0.621001 1.073483 0.058552 -0.022589 -984440.000000 0 0 1
-32.232268 21.711856 22.133688 44.723863 -0.592792 1.053080 0.056172 -0.017062 294880.000000 0 0 1
-32.856138 20.650156 21.407688 44.319791 -0.561114 1.066687 0.040372 -0.000868 475158.000000 0 0 1
-34.372881 20.805356 21.082888 45.374508 -0.544296 1.087566 0.057602 -0.010827 234687.000000 0 0 1
-34.864873 19.988456 20.025888 44.901380 -0.520565 1.108508 0.057132 -0.003757 -309315.000000 0 0 1
35.310188 20.004356 19.738088 45.128436 0.515447 1.118118 0.068946 -0.006388 -389384.000000 0 0 1
34.872628 19.237656 18.489488 43.909552 0.504113 1.136159 0.061539 -0.007227 -211440.000000 0 0 1
35.178828 17.839256 18.516088 43.573323 0.469313 1.131900 0.063575 -0.009681 296954.000000 0 0 1
34.649458 17.172256 17.413288 42.411011 0.460121 1.147702 0.056560 -0.019671 -201702.000000 0 0 1
34.794148 15.617456 17.412188 41.925195 0.421900 1.142507 0.069431 -0.026548 216764.000000 0 0 1
33.930138 14.981056 16.454288 40.576223 0.415785 1.153254 0.074276 -0.032164 577930.000000 0 0 1
34.289708 13.601356 16.395988 40.368420 0.377624 1.152550 0.074279 -0.035249 347132.000000 0 0 1
33.378698 12.719556 15.485988 38.932511 0.364080 1.161717 0.073307 -0.036554 155008.000000 0 0 1
33.446588 13.172256 14.181388 38.643167 0.375176 1.195033 0.068962 -0.039946 316352.000000 0 0 1
32.595918 12.354356 13.394388 37.343455 0.362286 1.203942 0.065213 -0.031521 -122110.000000 0 0 1
32.677538 12.798356 11.957588 37.075643 0.373293 1.242407 0.079006 -0.031820 1004230.000000 0 0 1
33.957048 12.669256 11.275688 37.956979 0.357101 1.269179 0.081647 -0.035216 1006420.000000 0 0 1
33.809558 12.403856 9.901188 37.349369 0.351628 1.302492 0.075727 -0.036212 -590191.000000 0 0 1
35.073468 12.369356 9.049588 38.275895 0.339051 1.332106 0.068794 -0.033101 -813876.000000 0 0 1
-35.604126 11.302056 9.325688 38.501412 -0.307376 1.326146 0.071500 -0.025190 182425.000000 0 0 1
-34.264398 11.402556 8.888288 37.189635 -0.321254 1.329461 0.060669 -0.017128 158244.000000 0 0 1
-34.019498 11.210656 7.382288 36.571891 -0.318329 1.367543 0.063357 -0.024226 -650588.000000 0 0 1
-34.418963 12.308856 6.615588 37.147530 -0.343446 1.391752 0.055114 -0.024807 74103.300000 0 0 1
-33.919498 12.081456 5.315788 36.397136 -0.342170 1.424222 0.063377 -0.032926 -64699.800000 0 0 1
-34.788376 12.787156 4.230088 37.304639 -0.352241 1.457159 0.097410 -0.038766 36111.800000 0 0 1
35.500026 12.100756 4.207088 37.740955 0.328515 1.459091 0.094941 -0.042862 -77268.900000 0 0 1
34.339058 12.872356 4.151388 36.906672 0.358648 1.458074 0.082570 -0.040943 -124250.000000 0 0 1
34.032438 13.791056 5.390788 37.114157 0.385009 1.425032 0.086478 -0.033166 -1827790.000000 0 0 1
33.141728 14.857356 5.201088 36.690141 0.421437 1.428560 0.076497 -0.025842 37625.500000 0 0 1
32.594818 15.344156 6.445088 36.597875 0.439979 1.393768 0.057337 -0.022686 358678.000000 0 0 1
31.368548 14.537456 6.943088 35.263719 0.433975 1.372611 0.070930 -0.031593 -424422.000000 0 0 1
31.811308 13.259256 7.314688 35.231688 0.394913 1.361658 0.086509 -0.028559 -480679.000000 0 0 1
30.788658 12.354956 7.589588 34.032165 0.381612 1.345893 0.090277 -0.015375 -557001.000000 0 0 1
30.642188 11.361756 6.426188 33.306592 0.355073 1.376638 0.100193 -0.028348 -490205.000000 0 0 1
29.954938 11.884956 5.339188 32.665845 0.377711 1.406611 0.091281 -0.040701 -50291.100000 0 0 1
30.252898 11.144256 4.183388 32.510506 0.352945 1.441761 0.111606 -0.044799 -113855.000000 0 0 1
29.481848 11.627056 2.926688 31.826613 0.375652 1.478709 0.089281 -0.058033 -127998.000000 0 0 1
28.141938 11.210156 3.020388 30.442717 0.379077 1.471417 0.078336 -0.053216 -576597.000000 0 0 1
27.453178 11.559156 1.876288 29.846466 0.398520 1.507890 0.083303 -0.048978 -922399.000000 0 0 1
26.063998 10.971356 1.807888 28.336744 0.398426 1.506953 0.110511 -0.038330 -670873.000000 0 0 1
26.168398 9.598056 1.532388 27.915156 0.351545 1.515874 0.060335 -0.038279 4542.990000 0 0 1
24.934098 8.925156 1.532988 26.527678 0.343739 1.512976 0.052639 -0.038354 -539979.000000 0 0 1
25.168198 7.403856 1.685788 26.288727 0.286104 1.506626 0.060010 -0.030714 289288.000000 0 0 1
25.733298 6.901556 2.908588 26.801007 0.262029 1.462057 0.078926 -0.022775 1237730.000000 0 0 1
27.155198 7.076256 2.995088 28.221423 0.254917 1.464468 0.112787 -0.034750 287625.000000 0 0 1
27.855878 6.281156 4.106188 28.848980 0.221779 1.427977 0.119051 -0.036130 -572431.000000 0 0 1
29.251808 6.357756 4.070388 30.210220 0.214017 1.435650 0.134909 -0.035028 -434333.000000 0 0 1
29.783438 5.577356 5.055788 30.720043 0.185120 1.405468 0.116455 -0.024500 207554.000000 0 0 1
31.297838 5.741556 5.384488 32.272478 0.181432 1.403168 0.114291 -0.026277 559506.000000 0 0 1
31.496528 6.983556 6.049988 32.823828 0.218195 1.385419 0.107282 -0.037042 -554042.000000 0 0 1
32.836948 7.040756 6.446688 34.196450 0.211218 1.381142 0.064589 -0.021816 -353120.000000 0 0 1
33.023258 8.273456 7.329488 34.823943 0.245481 1.358738 0.079543 -0.032899 -269098.000000 0 0 1
32.439218 8.096656 8.559888 34.512757 0.244597 1.320159 0.069992 -0.027717 -149137.000000 0 0 1
32.903908 9.041156 9.504988 35.422513 0.268157 1.299135 0.064349 -0.016748 -354308.000000 0 0 1
32.169028 8.885656 10.831888 35.087477 0.269498 1.256959 0.061638 -0.016354 -712344.000000 0 0 1
30.848658 9.343356 10.721288 33.968868 0.294094 1.249685 0.056677 -0.013196 -702930.000000 0 0 1
30.214178 9.007256 11.919688 33.706174 0.289725 1.209342 0.047017 -0.020983 230582.000000 0 0 1
28.761528 9.608056 11.919488 32.582425 0.322404 1.196276 0.046880 -0.023044 300187.000000 0 0 1
28.569118 11.006256 12.002688 32.884596 0.367727 1.197170 0.048039 -0.014773 127589.000000 0 0 1
28.691528 11.720556 10.724888 32.796317 0.387814 1.237653 0.059001 -0.020279 -761182.000000 0 0 1
27.444218 11.821356 9.866888 31.468794 0.406723 1.251872 0.048529 -0.021259 -644076.000000 0 0 1
27.536468 12.817856 8.884088 31.646193 0.435658 1.286240 0.036916 -0.015916 111017.000000 0 0 1
26.491238 12.646756 7.943788 30.411016 0.445400 1.306517 0.031098 -0.008862 134934.000000 0 0 1
26.161398 13.901156 7.088188 30.461505 0.488421 1.335950 0.018474 -0.004550 134419.000000 0 0 1
25.745298 15.029156 7.894988 30.838721 0.528395 1.311905 0.012284 0.003926 394723.000000 0 0 1
25.909698 16.208756 7.174588 31.392848 0.559021 1.340216 -0.001373 0.007383 -1057900.000000 0 0 1
25.771798 17.547856 7.986588 32.185375 0.597788 1.320033 0.023602 -0.001785 518844.000000 0 0 1
24.476098 18.119256 8.170988 31.530173 0.637254 1.308656 0.021056 -0.003386 44655.700000 0 0 1
23.499998 17.333656 8.764588 30.488088 0.635519 1.279206 0.025957 -0.001233 -1309820.000000 0 0 1
22.215898 18.159156 8.855888 30.028783 0.685258 1.271432 0.036596 -0.000754 -509742.000000 0 0 1
21.687298 18.584056 7.598988 29.554198 0.708492 1.310755 0.039761 0.001037 207154.000000 0 0 1
20.564898 19.437156 7.703788 29.326889 0.757214 1.304991 0.069150 -0.011109 -105040.000000 0 0 1
19.947798 19.962156 6.404088 28.938117 0.785758 1.347646 0.062347 -0.005135 -629360.000000 0 0 1
20.683698 20.819356 5.626088 29.881663 0.788667 1.381387 0.045427 0.005898 -454332.000000 0 0 1
19.948198 21.179556 4.466788 29.435631 0.815329 1.418460 0.050919 -0.001487 83083.800000 0 0 1
17.574682 16.979756 33.242516 41.258289 0.768183 0.633911 0.028628 -0.010928 -260275.000000 0 0 1
17.000082 17.678056 32.218761 40.491542 0.804946 0.650649 0.021518 -0.008505 -66141.200000 0 0 1
16.560882 16.829356 31.203711 39.130060 0.793438 0.647763 0.021274 -0.015447 -512487.000000 0 0 1
16.175582 17.613956 29.901741 38.288575 0.827941 0.674599 0.016149 -0.008129 -551846.000000 0 0 1
17.125182 18.324356 29.176721 38.475120 0.819213 0.710054 0.006892 0.006979 -850873.000000 0 0 1
16.686982 18.537956 27.917091 37.436281 0.837897 0.729177 0.017236 -0.002060 -301119.000000 0 0 1
17.781482 18.994556 26.933331 37.448345 0.818372 0.768128 0.011588 0.002039 -132751.000000 0 0 1
18.236482 20.331656 27.158371 38.516524 0.839669 0.788219 0.013705 -0.001080 428017.000000 0 0 1
19.243582 20.677256 26.202261 38.528208 0.821296 0.822925 0.011220 0.008364 72508.900000 0 0 1
19.984982 21.973556 26.472421 39.787255 0.832757 0.842835 0.015885 0.001043 131.452000 0 0 1
19.092682 23.059356 26.242541 39.811246 0.879226 0.851076 -0.001332 -0.005092 720985.000000 0 0 1
19.668682 24.247856 26.766871 41.125186 0.889293 0.862075 0.007012 -0.009123 189608.000000 0 0 1
18.903382 25.572356 26.376641 41.315982 0.934236 0.878362 0.017438 -0.007610 187811.000000 0 0 1
18.881282 25.836956 24.992641 40.603980 0.939706 0.907748 0.023237 -0.007280 237640.000000 0 0 1
17.879882 26.743156 24.617711 40.508249 0.981472 0.917609 0.025340 -0.015564 -341372.000000 0 0 1
18.160882 27.336656 23.268151 40.230799 0.984405 0.954071 0.013285 -0.016061 411869.000000 0 0 1
19.366182 28.113356 23.316351 41.340803 0.967586 0.971571 0.021299 -0.015242 727078.000000 0 0 1
19.126582 29.215656 22.505051 41.543447 0.991146 0.998310 0.028207 -0.013524 577068.000000 0 0 1
20.422682 30.030356 22.207351 42.568470 0.973573 1.021971 0.033248 -0.014439 860587.000000 0 0 1
21.386082 29.527656 21.248451 42.198858 0.943965 1.043115 0.020100 -0.013038 210239.000000 0 0 1
22.581282 30.248656 21.482851 43.432802 0.929525 1.053396 0.022249 -0.021566 -242333.000000 0 0 1
23.429882 30.312656 20.237651 43.328731 0.912774 1.084820 0.013157 -0.023101 -152033.000000 0 0 1
22.776982 31.141356 19.298051 43.139190 0.939302 1.107003 0.019668 -0.016341 628469.000000 0 0 1
23.613282 31.324756 18.119051 43.210269 0.924854 1.138097 0.025201 0.002923 502084.000000 0 0 1
23.040382 32.151656 16.924051 43.023385 0.949006 1.166504 0.004442 -0.014072 -82438.900000 0 0 1
23.172582 33.552456 17.185751 44.250264 0.966382 1.171927 0.028396 -0.013231 88073.100000 0 0 1
22.748482 34.363156 16.106451 44.246329 0.986030 1.198218 0.037202 -0.012360 -218258.000000 0 0 1
23.530482 34.302456 14.757451 44.137562 0.969548 1.229880 0.022123 -0.004969 -152775.000000 0 0 1
23.361382 33.173756 13.921951 42.896071 0.957249 1.240260 0.039507 -0.002130 -20964.000000 0 0 1
22.081782 33.038756 13.343151 41.919019 0.981622 1.246852 0.036526 -0.010163 -212288.000000 0 0 1
21.927982 31.652256 12.658351 40.533141 0.964934 1.253187 0.052231 -0.030588 -225541.000000 0 0 1
22.744782 31.379756 11.527551 40.433879 0.943604 1.281689 0.065895 -0.035137 7869.960000 0 0 1
22.367382 30.213156 10.805151 39.113755 0.933520 1.290907 0.066465 -0.036039 -557769.000000 0 0 1
23.561682 29.599856 9.992451 39.129955 0.898495 1.312570 0.061245 -0.034247 524803.000000 0 0 1
24.464082 28.893456 10.818051 39.374526 0.868221 1.292469 0.051169 -0.029000 729731.000000 0 0 1
25.427582 29.727456 11.538651 40.785095 0.863201 1.283966 0.044533 -0.022105 -143537.000000 0 0 1
26.845882 29.133456 11.564151 41.269713 0.826240 1.286784 0.042639 -0.021514 -56728.000000 0 0 1
27.042582 27.957056 12.394651 40.823101 0.802024 1.262308 0.039221 -0.019368 59421.000000 0 0 1
28.311082 27.982156 13.030951 41.884652 0.779555 1.254430 0.043638 -0.006075 180337.000000 0 0 1
28.381482 26.922156 14.150151 41.599732 0.759017 1.223720 0.023811 -0.015007 150706.000000 0 0 1
29.489682 27.121456 15.026251 42.790220 0.743589 1.211986 0.005870 -0.015698 212506.000000 0 0 1
29.701682 26.069356 15.938251 42.612546 0.720361 1.187449 0.011850 -0.018783 -251629.000000 0 0 1
30.859482 26.324756 16.915551 43.948108 0.706263 1.175699 0.015968 -0.023152 706691.000000 0 0 1
32.116382 26.410756 16.199451 44.625242 0.688218 1.199299 0.020786 -0.021922 350392.000000 0 0 1
33.143582 26.579756 17.151051 45.816361 0.675934 1.187108 0.020496 -0.019389 119744.000000 0 0 1
34.574382 26.598356 16.574451 46.664471 0.655744 1.207686 0.036362 -0.027693 220544.000000 0 0 1
34.687682 27.737856 15.815951 47.146243 0.674525 1.228697 0.025466 -0.018577 -546332.000000 0 0 1
-35.535234 27.910956 15.366551 47.727405 -0.665802 1.242992 0.032001 -0.011891 -203107.000000 0 0 1
-35.383634 29.000256 14.360251 47.950320 -0.686576 1.266647 0.010452 -0.012313 8226.570000 0 0 1
-35.686634 30.217456 15.025451 49.116134 -0.702601 1.259895 0.006050 -0.005095 -172.570000 0 0 1
35.637582 31.145756 13.982051 49.351728 0.718240 1.283548 0.000281 0.016648 3964.690000 0 0 1
34.775082 32.376756 14.347151 49.632664 0.749698 1.277545 -0.014594 0.011532 -618633.000000 0 0 1
34.614482 33.371356 13.353951 49.901280 0.767115 1.299887 -0.034873 0.013348 -501233.000000 0 0 1
33.580882 34.265256 13.475751 49.833515 0.795485 1.296972 -0.031673 0.020839 763069.000000 0 0 1
32.085082 33.749456 13.303851 48.430060 0.810674 1.292516 0.007124 0.021883 956291.000000 0 0 1
31.675382 32.715256 14.164351 47.689062 0.801546 1.269232 -0.005401 0.004116 60241.700000 0 0 1
30.627082 31.958556 13.569351 46.297891 0.806669 1.273341 0.020552 0.006083 -322242.000000 0 0 1
29.954382 30.919656 14.498051 45.425583 0.801254 1.245953 0.032340 0.001944 -250230.000000 0 0 1
28.979982 31.506756 15.321551 45.467185 0.827148 1.227088 0.002075 0.003573 -100480.000000 0 0 1
28.481182 30.565156 16.223551 44.817519 0.820677 1.200393 0.004112 -0.005156 -279072.000000 0 0 1
27.508182 31.102756 17.268851 44.969931 0.846651 1.176662 -0.004019 -0.004067 -288201.000000 0 0 1
27.126482 30.161456 18.258251 44.485089 0.838326 1.147865 -0.020175 0.000713 -10186.700000 0 0 1
27.821782 30.378756 19.475851 45.565657 0.829304 1.129155 -0.026418 -0.002548 26442.000000 0 0 1
27.773682 29.302656 20.593851 45.322508 0.812180 1.099115 -0.004142 -0.006489 -136599.000000 0 0 1
26.561582 29.305356 21.288651 44.916903 0.834471 1.077018 -0.006464 -0.018813 -325049.000000 0 0 1
26.737882 28.418356 22.340451 44.962351 0.815856 1.050808 -0.006140 -0.012887 386046.000000 0 0 1
25.589782 28.416956 23.411151 44.837956 0.837699 1.021452 0.000836 -0.010532 680037.000000 0 0 1
24.394982 27.903556 22.810251 43.520467 0.852385 1.019107 0.005958 -0.010711 902635.000000 0 0 1
23.245282 27.787856 23.682651 43.282514 0.874176 0.991824 0.010335 -0.014219 756258.000000 0 0 1
23.148982 26.605656 24.705601 43.059296 0.854761 0.959710 0.021822 -0.014446 -874133.000000 0 0 1
24.135982 26.609656 25.687521 44.164104 0.834106 0.950055 0.016501 -0.015377 -271926.000000 0 0 1
24.033482 25.545256 26.595851 44.017128 0.815881 0.922015 0.026079 -0.017289 -10820.900000 0 0 1
25.310082 25.324356 27.486121 45.137679 0.785680 0.916073 0.029172 -0.021590 427537.000000 0 0 1
25.629282 26.397956 28.347291 46.446539 0.800172 0.914331 0.045877 -0.017262 289318.000000 0 0 1
26.604182 27.262656 27.774021 47.142668 0.797622 0.940792 0.018157 -0.007402 -290445.000000 0 0 1
26.823882 28.576556 28.570291 48.501564 0.817024 0.940902 -0.005555 0.000473 -339218.000000 0 0 1
27.340282 28.425656 29.875081 49.477564 0.804859 0.922523 0.011588 0.003951 169069.000000 0 0 1
27.826982 29.714356 30.323111 50.761943 0.818187 0.930592 0.017774 0.003337 -290862.000000 0 0 1
29.325782 29.710456 30.567201 51.740375 0.791914 0.938771 0.005666 0.005161 -670246.000000 0 0 1
30.141382 29.582656 29.446731 51.485399 0.776043 0.961923 -0.009656 0.007288 -638000.000000 0 0 1
31.448282 30.041056 29.667431 52.646138 0.762516 0.972149 0.000506 -0.004973 -246163.000000 0 0 1
32.080082 30.531656 28.342681 52.579665 0.760673 1.001496 -0.002177 0.004591 -585735.000000 0 0 1
31.671882 31.776056 27.773111 52.765249 0.787040 1.016492 -0.011052 0.003965 191577.000000 0 0 1
32.183482 31.940256 26.458331 52.497616 0.781605 1.042583 0.000343 -0.001350 -466747.000000 0 0 1
31.895882 33.337256 25.978711 52.949158 0.807490 1.057978 -0.010981 -0.003514 -340567.000000 0 0 1
32.632682 34.331156 26.666791 54.356581 0.810757 1.058030 -0.005189 0.000581 175875.000000 0 0 1
32.229082 -33.106781 26.414061 53.221004 -0.798831 1.051454 -0.004923 -0.005898 -672764.000000 0 0 1
33.192782 -32.129781 27.060611 53.538400 -0.769127 1.040901 -0.007523 0.000240 -294184.000000 0 0 1
33.024582 -31.832381 28.439961 53.969944 -0.767018 1.015778 -0.002236 -0.001301 377219.000000 0 0 1
34.020382 -30.931481 28.927061 54.322350 -0.737877 1.009236 0.006336 -0.007196 51096.300000 0 0 1
33.889682 -30.526481 30.399421 54.813332 -0.733235 0.982915 0.015422 -0.005782 -420325.000000 0 0 1
33.915382 -31.545681 31.401841 55.959438 -0.749214 0.975017 0.029037 -0.005594 603894.000000 0 0 1
32.769382 -32.400881 31.531941 55.838273 -0.779744 0.970725 0.016121 -0.008730 66125.900000 0 0 1
32.735582 -33.259781 32.869755 57.081101 -0.793341 0.957161 0.034536 -0.010497 -410749.000000 0 0 1
32.395482 -32.545981 34.043633 57.163599 -0.787716 0.932849 0.032624 -0.014979 -66200.400000 0 0 1
32.867982 -33.075281 -33.499652 57.415200 -0.788542 2.193783 0.031841 -0.018577 -133779.000000 0 0 1
32.340482 34.272256 -33.098852 57.584966 0.814390 2.183135 0.024859 -0.014444 -103445.000000 0 0 1
32.439682 33.225356 -34.058202 57.586616 0.797362 2.203622 0.023615 -0.016566 -168974.000000 0 0 1
31.843082 32.043256 -33.644552 56.326796 0.788531 2.210939 0.029218 -0.008828 -150215.000000 0 0 1
31.856382 30.882856 34.091986 55.953939 0.769882 0.915636 0.021636 0.007536 -384282.000000 0 0 1
33.084582 30.270756 33.816278 56.164480 0.741014 0.924676 0.016435 -0.003263 -336229.000000 0 0 1
32.959282 29.293456 32.768501 54.938105 0.726580 0.931710 0.016434 -0.005133 -196143.000000 0 0 1
34.292882 28.559956 32.571341 55.250023 0.694438 0.940324 0.019612 -0.003359 -160597.000000 0 0 1
34.648282 27.636956 33.539714 55.580726 0.673302 0.922986 0.017474 -0.001756 -293204.000000 0 0 1
-35.561534 27.222756 33.469119 55.909597 -0.653355 0.929008 0.007276 -0.007604 -338688.000000 0 0 1
-35.250334 25.930956 34.210179 55.545809 -0.634236 0.907280 0.023324 -0.012245 40163.600000 0 0 1
-35.687834 24.712056 33.600404 54.893482 -0.605641 0.912080 0.014594 -0.009491 121018.000000 0 0 1
-35.644634 23.654456 -34.254472 54.803668 -0.585890 2.245979 0.022956 -0.017211 207851.000000 0 0 1
35.255982 22.413756 33.820365 53.751072 0.566288 0.890268 0.019474 -0.021629 -11814.300000 0 0 1
-35.338534 21.713656 33.049117 53.033376 -0.550975 0.897999 0.029608 -0.026062 324351.000000 0 0 1
35.616482 20.695656 32.246811 52.313485 0.526384 0.906615 0.030403 -0.022911 50755.500000 0 0 1
-34.829134 19.986356 31.442121 51.001274 -0.520962 0.906511 0.022738 -0.029087 -115511.000000 0 0 1
-34.119734 20.861256 30.630001 50.374053 -0.548769 0.917193 0.013427 -0.022150 -231360.000000 0 0 1
-33.014134 20.345556 29.909961 48.974283 -0.552295 0.913817 0.019053 -0.016735 78640.400000 0 0 1
-33.246134 19.403856 28.695521 48.012998 -0.528305 0.930215 0.014784 -0.013087 -690405.000000 0 0 1
-33.795934 18.157556 29.102611 48.154169 -0.493018 0.921830 0.005986 -0.014514 171938.000000 0 0 1
-34.203134 17.417356 27.985091 47.501410 -0.471006 0.940799 0.003165 -0.016918 51623.500000 0 0 1
-35.195534 16.285856 28.332171 48.027769 -0.433386 0.939846 0.015832 -0.012037 -302486.000000 0 0 1
-34.505134 15.232556 28.868851 47.497848 -0.415727 0.917518 0.004738 -0.011193 -115201.000000 0 0 1
-35.381734 14.237356 29.291061 48.088831 -0.382567 0.915867 0.008885 -0.004367 -253452.000000 0 0 1
-34.639834 12.970156 29.738301 47.460611 -0.358270 0.893627 0.003312 0.003467 -317593.000000 0 0 1
-34.041334 13.129256 30.985861 47.867665 -0.368106 0.866729 0.000299 0.002675 343714.000000 0 0 1
-33.175634 12.038156 31.302021 47.173683 -0.348086 0.845245 0.016574 0.002436 137271.000000 0 0 1
-31.678134 12.368956 31.192771 46.146335 -0.372253 0.828539 0.016127 0.008741 -897835.000000 0 0 1
-31.129134 12.319556 29.870181 44.866715 -0.376843 0.842293 0.023380 0.008315 -223071.000000 0 0 1
-29.798034 12.680556 29.757901 43.980132 -0.402336 0.827632 0.038320 0.008082 -649233.000000 0 0 1
-28.660034 11.788056 30.254631 43.309335 -0.390215 0.797398 0.039416 0.004570 -543408.000000 0 0 1
-28.388034 10.689956 29.385631 42.233529 -0.360142 0.801278 0.034027 -0.000236 105302.000000 0 0 1
-27.271834 9.907156 29.783551 41.580820 -0.348451 0.772338 0.039459 -0.003464 -106039.000000 0 0 1
-26.894234 8.978156 28.600421 40.272710 -0.322199 0.781058 0.044863 -0.004642 -9497.580000 0 0 1
-27.602534 7.793256 28.417661 40.375713 -0.275176 0.790021 0.049004 -0.007982 -1196820.000000 0 0 1
-28.934434 7.883156 28.091881 41.091354 -0.265993 0.818051 0.051699 -0.007509 -885833.000000 0 0 1
-29.696334 6.469756 28.072861 41.374092 -0.214512 0.825060 0.053488 -0.010003 263641.000000 0 0 1
-30.123634 6.000756 29.386181 42.508705 -0.196630 0.807513 0.057077 -0.013096 434843.000000 0 0 1
-30.776934 4.726856 29.303371 42.758045 -0.152394 0.815740 0.069630 -0.015767 -218594.000000 0 0 1
-31.208534 4.340056 30.717051 44.003930 -0.138180 0.798122 0.065781 -0.013648 1354640.000000 0 0 1
-32.534734 4.913356 30.961981 45.180684 -0.149886 0.815791 0.059686 -0.011775 1010250.000000 0 0 1
-33.076134 4.651656 32.192441 46.389889 -0.139718 0.803830 0.060205 -0.015346 77895.400000 0 0 1
-34.536634 5.155456 32.275871 47.550916 -0.148181 0.824718 0.039084 -0.010263 57175.100000 0 0 1
-34.731434 6.506556 32.552921 48.044775 -0.185193 0.826365 0.028662 -0.006674 594165.000000 0 0 1
35.414882 6.839856 32.608541 48.624216 0.190786 0.835747 0.012994 -0.002004 870500.000000 0 0 1
35.205982 8.318956 32.951050 48.932993 0.232038 0.832010 0.009168 -0.002769 -253651.000000 0 0 1
35.208482 8.624156 34.341677 49.933596 0.240216 0.812415 0.006829 -0.002922 174813.000000 0 0 1
34.821382 9.977156 -34.141996 49.776984 0.279048 2.326635 0.015166 -0.006754 -117166.000000 0 0 1
34.850082 10.385356 -32.629462 48.857605 0.289622 2.302110 0.012217 -0.007579 -276933.000000 0 0 1
33.935582 9.576656 -31.938082 47.574963 0.275049 2.306786 0.025711 -0.004182 -87073.300000 0 0 1
34.031782 9.813656 -30.576352 46.790846 0.280751 2.282954 0.024890 0.002366 495434.000000 0 0 1
32.904182 9.123656 -29.725452 45.271721 0.270484 2.287099 0.023203 0.003090 285090.000000 0 0 1
33.043382 7.671156 -29.672662 45.068599 0.228113 2.289472 0.011742 0.007197 127982.000000 0 0 1
31.843782 6.993956 -29.350572 43.867960 0.216201 2.303748 0.014573 0.014812 -52265.900000 0 0 1
34.778428 6.148356 -19.782112 40.480530 0.174979 2.081375 0.052310 -0.015273 -543243.000000 0 0 1
34.253478 7.160456 -18.968912 39.804428 0.206076 2.067526 0.050916 -0.008825 -20528.100000 0 0 1
34.829258 8.392556 -19.127212 40.612343 0.236455 2.061187 0.032450 -0.008664 -1060320.000000 0 0 1
-35.267002 8.628956 -18.682612 40.832099 -0.239961 2.046031 0.031468 -0.006157 -143248.000000 0 0 1
-34.288165 7.964356 -19.477412 40.230322 -0.228230 2.076185 0.033650 -0.016151 218449.000000 0 0 1
-33.827398 8.694956 -20.616012 40.557553 -0.251592 2.104023 0.026888 -0.013760 -832010.000000 0 0 1
-32.925028 7.972156 -21.582612 40.167423 -0.237559 2.138048 0.008455 -0.006289 -778131.000000 0 0 1
-33.431678 6.809156 -22.225612 40.718786 -0.200926 2.148178 0.008275 -0.002747 825449.000000 0 0 1
-34.386029 7.071956 -23.298512 42.133505 -0.202835 2.156719 0.016127 -0.002036 713001.000000 0 0 1
-34.356605 5.850056 -24.218412 42.439733 -0.168657 2.178099 0.030853 -0.003567 -176817.000000 0 0 1
-33.154558 5.690256 -24.922012 41.865385 -0.169972 2.208422 0.012691 0.001828 -228290.000000 0 0 1
-32.987418 4.386556 -25.411732 41.870846 -0.132201 2.222960 0.019607 0.001246 23158.500000 0 0 1
-31.726638 4.153456 -26.294512 41.415361 -0.130174 2.258672 0.028691 -0.003080 -201627.000000 0 0 1
-30.557518 4.428356 -25.578732 40.095433 -0.143917 2.262625 0.024185 -0.002109 -2280.930000 0 0 1
-29.412058 4.170556 -26.394812 39.738505 -0.140858 2.297236 0.036968 -0.003885 455738.000000 0 0 1
-28.036798 4.541056 -25.807532 38.375929 -0.160573 2.308368 0.018340 -0.003342 -26194.200000 0 0 1
-27.717808 5.888156 -25.979162 38.442998 -0.209321 2.312824 0.011397 0.001673 -273291.000000 0 0 1
-26.491568 6.247456 -25.421342 37.243503 -0.231597 2.322071 0.007351 0.004344 -454592.000000 0 0 1
-26.061038 7.700156 -25.529552 37.285763 -0.287292 2.324988 0.006094 -0.002514 -123083.000000 0 0 1
-26.783888 8.625956 -24.683612 37.430796 -0.311568 2.290879 0.007315 -0.001893 110128.000000 0 0 1
-26.404898 9.950356 -24.848812 37.599092 -0.360381 2.292799 0.004195 -0.009390 -409796.000000 0 0 1
-25.045018 10.364956 -24.286312 36.393821 -0.392391 2.301400 0.017444 -0.008256 -740680.000000 0 0 1
-25.022718 10.549056 -22.892012 35.517083 -0.398970 2.271212 0.014922 -0.003272 433636.000000 0 0 1
-23.715218 10.671956 -22.359312 34.296371 -0.422858 2.280942 0.027778 -0.011393 -287354.000000 0 0 1
-23.825718 10.984856 -20.826012 33.497085 -0.432005 2.241741 0.042589 -0.020334 -807575.000000 0 0 1
-24.292818 12.294356 -20.534312 34.102055 -0.468508 2.216979 0.038956 -0.018941 1946350.000000 0 0 1
-25.712568 12.619156 -20.631812 35.299446 -0.456243 2.195035 0.025038 -0.000057 1434880.000000 0 0 1
-26.671418 11.903856 -19.640812 35.196986 -0.419785 2.162801 0.013715 -0.001930 -471274.000000 0 0 1
-26.263298 12.110956 -18.335012 34.243375 -0.432076 2.135816 0.014027 -0.008037 639528.000000 0 0 1
-27.203658 11.503656 -17.424412 34.292612 -0.400067 2.103785 0.017728 -0.013231 -131666.000000 0 0 1
-26.601358 11.121456 -16.042712 32.995267 -0.395993 2.078547 0.044870 -0.014510 -86989.600000 0 0 1
-25.926348 9.867856 -16.093512 32.071034 -0.363681 2.096484 0.058964 -0.012528 216316.000000 0 0 1
-24.561418 10.101756 -16.352312 31.188248 -0.390197 2.122701 0.054210 -0.007490 -1203750.000000 0 0 1
-23.705918 8.840056 -16.312012 30.103137 -0.356933 2.143458 0.041377 -0.005263 -967301.000000 0 0 1
-22.382218 9.205756 -16.072012 29.052008 -0.390208 2.157015 0.038795 -0.001129 -183574.000000 0 0 1
-21.545018 8.062056 -15.854912 27.938554 -0.358065 2.174253 0.047865 0.000965 705506.000000 0 0 1
-20.030918 8.444856 -15.791312 26.868547 -0.398980 2.199040 0.059176 -0.003795 446871.000000 0 0 1
-19.545218 9.008256 -17.004812 27.428596 -0.431876 2.239496 0.061718 -0.015331 847038.000000 0 0 1
-18.150618 9.320956 -16.892012 26.488964 -0.474416 2.262305 0.075705 -0.021611 44336.500000 0 0 1
-17.514218 9.825956 -18.244612 27.132326 -0.511270 2.308284 0.062778 -0.013342 -111781.000000 0 0 1
-17.311518 8.810856 -19.227812 27.331824 -0.470789 2.351100 0.087694 -0.025033 380051.000000 0 0 1
-16.486918 7.717356 -18.852412 26.206669 -0.437795 2.373698 0.092533 -0.018693 -620558.000000 0 0 1
-16.119918 6.675256 -19.964612 26.514082 -0.392602 2.423378 0.075858 -0.020807 531944.000000 0 0 1
-17.158018 5.878556 -20.542712 27.403613 -0.330079 2.418307 0.077269 -0.008943 309835.000000 0 0 1
-18.129618 6.483856 -21.370212 28.764725 -0.343464 2.408235 0.066416 -0.013824 50064.900000 0 0 1
-19.090818 5.474256 -22.046712 29.672956 -0.279255 2.408323 0.055224 -0.010211 16128.400000 0 0 1
-20.019318 4.824956 -21.195912 29.551988 -0.236504 2.370632 0.051744 -0.014062 462621.000000 0 0 1
-20.521618 3.648356 -21.813712 30.170935 -0.175943 2.378937 0.036699 0.001243 -714883.000000 0 0 1
-21.585818 2.995456 -20.964012 30.239215 -0.137889 2.336816 0.037609 -0.004565 -559984.000000 0 0 1
-22.265018 1.875656 -21.526312 31.026299 -0.084044 2.337561 0.032195 -0.004731 329403.000000 0 0 1
-22.853018 1.176856 -20.484812 30.712749 -0.051451 2.300945 0.044641 -0.008711 -441784.000000 0 0 1
-23.403318 -0.207144 -20.905212 31.381302 0.008851 2.299855 0.036398 -0.001582 -55427.200000 0 0 1
-22.370918 -1.150144 -20.993512 30.700299 0.051367 2.323783 0.034060 -0.014613 -10912.300000 0 0 1
-22.866718 -2.451244 -21.209612 31.284869 0.106789 2.315768 0.035745 -0.014855 -574980.000000 0 0 1
-23.269518 -2.759144 -22.649312 32.589487 0.118022 2.339200 0.035939 -0.019188 -309555.000000 0 0 1
-22.316018 -2.638044 -23.662312 32.632330 0.117667 2.382003 0.016581 -0.017768 -950362.000000 0 0 1
-21.338918 -3.599244 -23.694012 32.089098 0.167098 2.401464 0.002178 -0.024084 -1525650.000000 0 0 1
-20.430418 -3.400844 -24.862112 32.358806 0.164947 2.447018 0.011866 -0.024794 -543056.000000 0 0 1
-21.111518 -3.585844 -26.096692 33.757841 0.168247 2.454441 0.015577 -0.026946 -52611.300000 0 0 1
-20.202118 -3.763844 -27.113882 34.021386 0.184198 2.493052 0.026244 -0.028404 -839573.000000 0 0 1
-20.956118 -4.011244 -28.436352 35.551021 0.189124 2.497882 0.021082 -0.028098 -268095.000000 0 0 1
-21.874318 -5.049844 -28.258192 36.090333 0.226882 2.470247 0.027617 -0.025589 -383691.000000 0 0 1
-22.589018 -5.223944 -29.432742 37.467848 0.227265 2.474375 0.000227 -0.023854 -1006110.000000 0 0 1
-22.177918 -6.478044 -30.228332 38.047039 0.284188 2.488978 0.011500 -0.019950 -952595.000000 0 0 1
-20.897118 -6.298544 -30.719262 37.683342 0.292747 2.523862 -0.001805 -0.026396 -640549.000000 0 0 1
-20.358918 -7.513644 -31.256782 38.051634 0.353552 2.534712 -0.001941 -0.020076 230461.000000 0 0 1
-19.070518 -7.215044 -32.094192 38.023397 0.361691 2.575614 0.008696 -0.020988 231788.000000 0 0 1
-19.316418 -6.727744 -33.418132 39.181094 0.335152 2.592340 0.022927 -0.030760 488940.000000 0 0 1
-19.188418 -7.834144 -34.329572 40.100982 0.387619 2.598429 0.008727 -0.023062 -550149.000000 0 0 1
-19.181518 -7.500744 32.954388 38.861079 0.372759 0.558587 0.016486 -0.021010 -105203.000000 0 0 1
-17.934318 -7.210844 32.355131 37.689395 0.382289 0.538522 0.024860 -0.023792 231773.000000 0 0 1
-17.423918 -5.923544 32.657151 37.485608 0.327708 0.513172 0.040844 -0.021341 602348.000000 0 0 1
-16.101618 -5.541744 31.865171 36.129796 0.331474 0.490784 0.040004 -0.020617 887445.000000 0 0 1
-16.271418 -5.123144 30.526941 34.969984 0.305029 0.509585 0.039254 -0.017431 -289664.000000 0 0 1
-15.069618 -4.616044 30.034641 33.918740 0.297240 0.483253 0.039769 -0.010441 -429168.000000 0 0 1
-15.044918 -4.614944 28.513671 32.568032 0.297633 0.504304 0.031385 -0.003988 73045.100000 0 0 1
-16.137118 -3.872344 28.015401 32.561700 0.235512 0.534784 0.028482 -0.008849 90285.900000 0 0 1
-16.458618 -4.047244 26.607641 31.547311 0.241120 0.567178 0.028938 -0.003922 -262844.000000 0 0 1
-15.387518 -3.596644 25.598911 30.083480 0.229615 0.553045 0.030953 -0.000955 -19803.600000 0 0 1
-15.198518 -2.217244 25.627651 29.877878 0.144864 0.539926 0.026366 0.005595 232881.000000 0 0 1
-14.244818 -1.843944 24.629451 28.511836 0.128731 0.527968 0.022103 0.008883 98574.200000 0 0 1
-14.164018 -0.295944 24.442941 28.251802 0.020891 0.525284 0.020812 0.010236 -100621.000000 0 0 1
-15.340118 0.334956 23.982431 28.470834 -0.021832 0.569166 0.017274 0.003067 -99964.600000 0 0 1
-15.402018 1.724756 24.359961 28.872212 -0.111518 0.566627 0.012801 0.000742 -195094.000000 0 0 1
-16.150218 2.678456 23.395051 28.554020 -0.164350 0.610562 0.012299 0.000606 263412.000000 0 0 1
-15.336518 3.054756 22.291751 27.229808 -0.196609 0.611736 0.009808 0.004314 822259.000000 0 0 1
-16.143418 3.834456 21.419851 27.094704 -0.233203 0.659082 0.005926 0.001209 108890.000000 0 0 1
-15.272718 4.682856 20.477051 25.971035 -0.297515 0.662500 0.005271 0.002026 30100.800000 0 0 1
-14.454318 5.597256 21.216251 26.275195 -0.369456 0.630957 0.018505 0.005660 180156.000000 0 0 1
-13.360518 5.854956 20.358251 25.044806 -0.413021 0.621728 0.023388 0.009675 -482040.000000 0 0 1
-12.290318 6.770356 20.922451 25.192034 -0.503510 0.590758 0.015185 0.011544 -413589.000000 0 0 1
-12.664518 8.111756 20.917651 25.763127 -0.569675 0.623359 0.015709 0.012367 -50717.600000 0 0 1
-11.567018 8.970656 21.046651 25.636499 -0.659646 0.607698 0.019961 0.020227 -202219.000000 0 0 1
-11.972618 10.478556 20.907251 26.272740 -0.718949 0.650506 0.013171 0.026274 -325033.000000 0 0 1
-12.394018 10.839656 19.633151 25.623630 -0.718596 0.697870 0.018406 0.023967 367118.000000 0 0 1
-12.977418 12.138956 19.757051 26.572705 -0.752027 0.732494 0.007678 0.027170 -263973.000000 0 0 1
-13.488118 12.753756 18.404251 26.140085 -0.757421 0.789694 0.012180 0.017413 -133224.000000 0 0 1
-12.508118 13.425756 17.640951 25.454019 -0.820767 0.805083 0.015937 0.014942 128544.000000 0 0 1
-12.279518 14.768356 18.089451 26.384069 -0.877156 0.815341 0.028046 0.012931 70433.400000 0 0 1
-13.409118 15.786656 17.697751 27.243959 -0.866653 0.863735 0.033212 0.011751 75441.300000 0 0 1
-13.302518 16.184956 16.352951 26.576847 -0.882840 0.908019 0.027445 -0.001985 259024.000000 0 0 1
-13.855918 15.290456 15.346151 25.715537 -0.834577 0.931332 0.041090 -0.006246 -352990.000000 0 0 1
-14.129218 16.012656 14.003851 25.537184 -0.847803 0.990381 0.030252 -0.013708 1317070.000000 0 0 1
-15.351418 16.808356 14.105451 26.779668 -0.830670 1.016056 0.020895 -0.010649 1093030.000000 0 0 1
-15.777618 17.318456 12.859651 26.725133 -0.831921 1.068794 0.025717 -0.014527 794222.000000 0 0 1
-17.020918 18.293256 12.993051 28.163349 -0.821412 1.091285 0.027289 -0.017912 834598.000000 0 0 1
-18.289018 17.660056 13.085151 28.593477 -0.767904 1.095472 0.028446 -0.016416 190582.000000 0 0 1
-19.259118 18.693856 13.323051 29.964605 -0.770506 1.110039 0.024217 -0.025368 -212327.000000 0 0 1
-20.669418 18.124056 13.328051 30.550666 -0.719879 1.119358 0.037162 -0.018710 -521446.000000 0 0 1
-21.007518 17.578856 12.081851 29.938322 -0.696774 1.155394 0.040813 -0.016592 108982.000000 0 0 1
-22.362418 17.154856 12.097951 30.671277 -0.654374 1.165339 0.045547 -0.010902 129889.000000 0 0 1
-22.918918 16.356156 10.927451 30.202811 -0.619830 1.200596 0.053434 -0.007768 -44518.200000 0 0 1
-22.367518 15.044056 10.824551 29.048242 -0.592089 1.188944 0.041267 -0.004840 284098.000000 0 0 1
-23.048618 14.412956 9.779051 28.889478 -0.558835 1.225475 0.045230 -0.004234 194971.000000 0 0 1
-22.134118 13.334156 9.160651 27.415988 -0.542201 1.230109 0.066900 0.001354 -520741.000000 0 0 1
-21.962718 12.106856 9.871751 26.951594 -0.503799 1.195791 0.047340 0.001189 -85712.100000 0 0 1
-23.123118 11.355756 10.127451 27.680264 -0.456502 1.196226 0.060592 0.002370 396016.000000 0 0 1
-23.986418 10.831956 8.890851 27.779970 -0.424173 1.245019 0.055548 0.000661 197637.000000 0 0 1
-24.622318 11.893556 8.166551 28.537830 -0.449987 1.280573 0.059639 -0.003214 -10668.300000 0 0 1
-25.580308 11.402456 7.263751 28.933203 -0.419315 1.317029 0.066234 -0.009959 -352906.000000 0 0 1
-26.207608 12.544756 6.383851 29.748331 -0.446437 1.354519 0.055156 0.000010 -343393.000000 0 0 1
-25.503338 13.038756 5.239951 29.118491 -0.472612 1.389858 0.050461 -0.008929 954578.000000 0 0 1
-24.242018 13.681356 5.522751 28.378790 -0.513805 1.374938 0.048025 -0.008997 324030.000000 0 0 1
-24.140018 15.233356 5.560951 29.081262 -0.562932 1.378390 0.039725 -0.006357 -8699.920000 0 0 1
-22.841018 15.772056 5.815451 28.359995 -0.604331 1.364273 0.039420 -0.018507 838936.000000 0 0 1
-22.919018 17.093456 6.330451 29.283822 -0.640820 1.352900 0.035399 -0.023681 626037.000000 0 0 1
-21.465618 17.665456 6.534151 28.557595 -0.688588 1.339945 0.043771 -0.020895 896962.000000 0 0 1
-20.969818 18.228456 5.287351 28.283669 -0.715576 1.382750 0.041633 -0.029680 236414.000000 0 0 1
-19.573618 18.374156 5.389151 27.382094 -0.753800 1.372690 0.059614 -0.030451 -446332.000000 0 0 1
-18.909918 19.155756 4.258951 27.251911 -0.791856 1.413872 0.056375 -0.026920 315206.000000 0 0 1
-17.487018 19.254056 4.446951 26.387304 -0.833455 1.401462 0.056330 -0.033819 668288.000000 0 0 1
-16.843918 20.189556 3.679551 26.549479 -0.875494 1.431757 0.066336 -0.035749 -160837.000000 0 0 1
-17.112318 21.680256 3.998651 27.907958 -0.902611 1.427022 0.060732 -0.029250 -542049.000000 0 0 1
-16.418218 22.110556 5.120451 28.011669 -0.932080 1.386966 0.057213 -0.024754 -146155.000000 0 0 1
-16.783318 23.424356 5.402351 29.318349 -0.949089 1.385472 0.042622 -0.022380 -370581.000000 0 0 1
-16.066718 23.932656 6.656251 29.584069 -0.979572 1.343859 0.033315 -0.011242 12016.800000 0 0 1
-16.559118 23.328756 7.858351 29.667978 -0.953513 1.302720 0.035204 -0.012505 574016.000000 0 0 1
-15.696618 23.529656 8.983651 29.677171 -0.982494 1.263259 0.036453 -0.019029 228900.000000 0 0 1
-16.237018 22.697356 10.149851 29.695626 -0.949829 1.221969 0.027218 -0.019209 513645.000000 0 0 1
-17.339218 23.367556 10.773251 31.028279 -0.932421 1.216205 0.023406 -0.018478 -27839.000000 0 0 1
-18.216018 22.480956 11.386151 31.094390 -0.889814 1.195896 0.021719 -0.019336 6006.110000 0 0 1
-19.557418 23.081756 11.918851 32.516443 -0.867866 1.195500 0.026548 -0.028427 492994.000000 0 0 1
-20.448918 23.556856 10.905051 33.045481 -0.855907 1.234491 0.043301 -0.021374 413173.000000 0 0 1
-20.035318 24.796456 10.297651 33.501042 -0.891202 1.258355 0.025233 -0.013512 -898192.000000 0 0 1
-21.256318 25.555956 9.799751 34.655058 -0.876990 1.284105 0.029487 -0.005436 -291450.000000 0 0 1
-21.975118 26.057156 10.915651 35.791516 -0.870180 1.260880 0.044566 -0.026518 302835.000000 0 0 1
-22.949718 27.015356 10.495551 36.968576 -0.866589 1.282932 0.053211 -0.017317 527726.000000 0 0 1
-23.895118 27.559456 11.638051 38.287655 -0.856493 1.261946 0.047404 -0.034206 -226816.000000 0 0 1
-23.203518 28.246656 12.623451 38.673354 -0.883106 1.238291 0.048770 -0.025070 -111126.000000 0 0 1
-24.043418 28.740456 13.624851 39.871497 -0.874151 1.222051 0.041392 -0.020025 -341817.000000 0 0 1
8.807682 -32.892681 28.172441 44.194911 -1.309164 0.879601 0.031875 -0.010593 -500072.000000 0 0 1
10.175482 -32.651081 27.994311 44.196323 -1.268692 0.884847 0.026442 -0.017390 -137909.000000 0 0 1
10.428482 -32.498581 26.636401 43.294444 -1.260286 0.908108 0.033581 -0.021969 -736892.000000 0 0 1
11.888482 -32.565881 26.209861 43.460665 -1.220769 0.923451 0.010654 -0.016466 -539204.000000 0 0 1
12.380882 -33.888681 26.119571 44.541676 -1.220522 0.944180 0.020145 -0.022858 -612417.000000 0 0 1
13.756282 -33.825581 25.919471 44.779730 -1.184542 0.953514 0.031959 -0.019294 -721026.000000 0 0 1
14.518482 33.622956 25.607641 44.688261 1.163178 0.960600 0.049719 -0.013252 -213016.000000 0 0 1
14.395782 32.995656 24.367071 43.470748 1.159399 0.975759 0.032935 -0.016618 640087.000000 0 0 1
15.259982 31.835856 24.429011 42.932101 1.123818 0.965489 0.032306 -0.015140 -81419.700000 0 0 1
15.494082 31.133956 23.065651 41.730253 1.109024 0.985157 0.044323 -0.022433 -188095.000000 0 0 1
14.438582 30.363656 22.500451 40.456081 1.126922 0.981026 0.042660 -0.017502 58949.500000 0 0 1
14.422582 28.982856 22.791651 39.591364 1.109051 0.957370 0.039715 -0.013072 -429130.000000 0 0 1
14.103282 28.521656 24.256991 40.009861 1.111577 0.919428 0.037488 -0.017690 -115168.000000 0 0 1
15.164982 28.784256 25.171031 41.135032 1.085900 0.912320 0.032078 -0.010888 557127.000000 0 0 1
14.803382 28.382956 26.490411 41.550862 1.090051 0.879493 0.025512 -0.006565 -181305.000000 0 0 1
15.763482 28.977656 27.547311 42.977275 1.072581 0.875030 0.020547 -0.009394 161119.000000 0 0 1
15.657482 30.372556 27.665911 43.966481 1.094815 0.890208 0.033449 -0.013113 191224.000000 0 0 1
16.349582 30.738956 28.838271 45.208827 1.081967 0.879041 0.044991 -0.014697 -44213.900000 0 0 1
16.100182 32.245056 29.123091 46.336960 1.107703 0.891164 0.056169 -0.014172 672086.000000 0 0 1
16.931182 33.104356 28.279481 46.715012 1.098032 0.920576 0.047852 -0.018958 800831.000000 0 0 1
16.561282 -34.342581 28.566171 47.641527 -1.121459 0.927787 0.062319 -0.014784 -135087.000000 0 0 1
17.345082 -33.368281 27.655441 46.681018 -1.091429 0.936719 0.050713 -0.025390 -751509.000000 0 0 1
16.923682 -33.211381 26.341871 45.643192 -1.099518 0.955591 0.058981 -0.024908 -339698.000000 0 0 1
17.420482 -32.039381 25.684611 44.605990 -1.072787 0.957201 0.061626 -0.033027 -111949.000000 0 0 1
18.931682 -31.785181 25.477431 44.919993 -1.033608 0.967726 0.051608 -0.025368 -57194.300000 0 0 1
19.552882 -31.380981 26.686991 45.599086 -1.013578 0.945605 0.047283 -0.025641 202100.000000 0 0 1
20.650782 -30.501981 26.379291 45.306651 -0.975653 0.949317 0.051943 -0.029677 338526.000000 0 0 1
21.062882 -29.723981 27.687471 45.757580 -0.954311 0.920917 0.059308 -0.023864 -142395.000000 0 0 1
19.949382 -28.959381 28.073591 44.997223 -0.967576 0.897078 0.053606 -0.024110 4470.390000 0 0 1
20.162982 -28.219981 29.233501 45.359792 -0.950410 0.870453 0.064144 -0.015843 189573.000000 0 0 1
18.839982 -27.741781 29.902471 44.930047 -0.974222 0.842587 0.049370 -0.014723 233241.000000 0 0 1
18.175082 -26.725381 29.156631 43.528022 -0.973573 0.836809 0.076168 -0.022599 -1103080.000000 0 0 1
17.015782 -26.460881 29.817051 43.344799 -0.999319 0.812199 0.054734 -0.012980 -1398980.000000 0 0 1
15.955682 -25.667681 29.044891 41.916814 -1.014627 0.805269 0.050718 -0.001595 -863516.000000 0 0 1
15.416382 -26.363181 27.990021 41.426120 -1.041651 0.828935 0.044278 -0.011105 119121.000000 0 0 1
14.546582 -25.583881 27.181831 40.062326 -1.053797 0.825093 0.040872 -0.027217 1503700.000000 0 0 1
13.015182 -25.400381 27.648301 39.736669 -1.097277 0.801280 0.016150 -0.014909 1670880.000000 0 0 1
12.161882 -26.538381 27.647121 40.206471 -1.141082 0.812578 0.017518 -0.013518 240282.000000 0 0 1
11.956582 -27.093681 26.318611 39.619398 -1.155196 0.844258 0.019515 -0.013490 -323028.000000 0 0 1
10.841882 -28.194181 26.345151 40.081482 -1.203685 0.853579 0.032875 -0.018322 553845.000000 0 0 1
9.508382 -27.795981 26.593021 39.625934 -1.241197 0.835103 0.019894 -0.023431 -116013.000000 0 0 1
8.698282 -28.915581 26.703531 40.309422 -1.278591 0.846693 0.017894 -0.025280 -764249.000000 0 0 1
7.251982 -28.670581 27.163891 40.155578 -1.323051 0.827843 0.016651 -0.021079 111595.000000 0 0 1
6.280882 -28.385481 26.159511 39.108887 -1.353034 0.838083 0.031461 -0.026129 128405.000000 0 0 1
6.438782 -27.212181 25.408601 37.783035 -1.338455 0.833232 0.035547 -0.027048 -1137300.000000 0 0 1
5.288082 -26.897581 24.452171 36.733531 -1.376672 0.842414 0.042835 -0.026452 -647362.000000 0 0 1
5.139682 -27.813281 23.349351 36.676793 -1.388065 0.880683 0.015207 -0.023484 -121331.000000 0 0 1
4.571382 -29.118381 23.589951 37.752661 -1.415074 0.895850 0.011453 -0.018251 556736.000000 0 0 1
3.048582 -29.135881 23.988141 37.863232 -1.466542 0.884667 0.008756 -0.021937 470217.000000 0 0 1
2.209082 -28.797481 22.888851 36.852062 -1.494235 0.900650 0.006179 -0.016030 377471.000000 0 0 1
0.907982 -28.306781 23.198551 36.609712 -1.538731 0.884506 0.015215 -0.016840 547413.000000 0 0 1
0.729582 -26.864081 23.815431 35.908020 -1.543645 0.845664 0.023311 -0.018093 -303504.000000 0 0 1
1.446982 -26.670681 25.033851 36.607549 -1.516596 0.817778 0.021838 -0.023968 -46292.800000 0 0 1
1.361182 -25.302781 25.489901 35.941878 -1.517052 0.782437 0.027040 -0.019501 -337150.000000 0 0 1
2.530982 -24.814981 26.361441 36.292075 -1.469154 0.757772 0.027334 -0.016131 -474103.000000 0 0 1
3.636182 -24.363881 25.617801 35.540009 -1.422645 0.765818 0.023003 -0.020719 -290968.000000 0 0 1
4.607982 -23.645381 26.338921 35.694205 -1.378330 0.740836 0.027650 -0.013064 161005.000000 0 0 1
4.289082 -22.154681 26.574321 34.862883 -1.379565 0.704010 0.033731 -0.012048 -405616.000000 0 0 1
4.249982 -21.389281 25.405611 33.481469 -1.374654 0.709333 0.036650 -0.009661 215484.000000 0 0 1
3.823882 -20.024481 25.573071 32.704493 -1.382108 0.673019 0.039864 -0.013900 -71773.800000 0 0 1
3.853182 -19.128081 24.299121 31.163725 -1.372015 0.676571 0.047662 -0.013356 1432580.000000 0 0 1
5.201082 -18.706781 23.934561 30.819768 -1.299614 0.681549 0.044150 -0.008193 1081330.000000 0 0 1
5.244382 -18.338381 22.615751 29.584995 -1.292252 0.700635 0.043184 -0.012591 456057.000000 0 0 1
6.650582 -17.851081 22.154351 29.218258 -1.214167 0.710192 0.044492 -0.003539 689400.000000 0 0 1
7.649582 -18.854981 22.168351 30.090899 -1.185381 0.742600 0.042659 -0.006258 -400788.000000 0 0 1
8.893782 -18.375881 21.762551 29.839252 -1.120037 0.753460 0.014185 -0.000471 709975.000000 0 0 1
10.075282 -18.230981 22.831351 30.905510 -1.065924 0.739587 0.008226 0.006584 895369.000000 0 0 1
9.784482 -17.284581 23.849291 31.036777 -1.055690 0.694427 0.022099 0.013960 722047.000000 0 0 1
10.753082 -17.334581 24.946331 32.224771 -1.015566 0.685448 0.016521 0.013940 568887.000000 0 0 1
10.534682 -16.261081 26.037601 32.455492 -0.995937 0.639732 0.020663 0.000659 -253754.000000 0 0 1
10.725882 -14.883581 25.665511 31.548121 -0.946344 0.620590 0.034784 0.001519 261880.000000 0 0 1
10.520482 -14.069981 26.817751 32.059892 -0.928753 0.579952 0.027848 0.001640 -84948.900000 0 0 1
10.810982 -12.538981 26.573291 31.308835 -0.859268 0.557184 0.037257 -0.002889 -47662.100000 0 0 1
9.766282 -11.801981 25.971131 30.152390 -0.879503 0.532916 0.044325 -0.000906 163618.000000 0 0 1
10.156182 -10.472981 25.942611 29.763239 -0.800754 0.512273 0.047090 -0.002808 -346664.000000 0 0 1
9.156682 -9.687881 25.101951 28.421960 -0.813579 0.488179 0.032301 0.000028 -432535.000000 0 0 1
7.937382 -9.532981 25.795661 28.623345 -0.876477 0.448242 0.035524 -0.006701 -405325.000000 0 0 1
6.982982 -9.168281 24.803311 27.350021 -0.919884 0.434966 0.028333 -0.002946 -537133.000000 0 0 1
5.550282 -9.394981 25.275921 27.530773 -1.037191 0.407544 0.029125 -0.008734 -1866840.000000 0 0 1
5.210382 -8.354681 26.199331 27.988457 -1.013170 0.359490 0.032276 -0.005488 -128615.000000 0 0 1
3.913782 -8.487081 26.734081 28.320652 -1.138712 0.336312 0.031640 -0.006022 -185539.000000 0 0 1
2.736082 -8.451381 25.796371 27.283048 -1.257701 0.331642 0.019742 -0.007276 -1740520.000000 0 0 1
2.720882 -7.236181 25.065731 26.230829 -1.211140 0.299165 0.023397 -0.010039 -20945.200000 0 0 1
1.734482 -7.161781 24.040231 25.144229 -1.333186 0.297428 0.018145 -0.012679 186386.000000 0 0 1
1.769282 -5.840881 23.253151 24.040700 -1.276669 0.256669 0.015562 -0.020590 -270679.000000 0 1 0
1.361982 -4.635481 23.949811 24.432276 -1.285022 0.199060 0.018066 -0.014617 81908.800000 0 1 0
1.965082 -3.430981 23.492151 23.822559 -1.050657 0.166744 0.017118 -0.012136 -963223.000000 0 1 0
1.215782 -2.731981 22.328551 22.527894 -1.152093 0.133130 0.021706 -0.019783 230713.000000 0 1 0
0.137182 -1.919981 22.717451 22.798853 -1.499468 0.084529 0.026641 -0.019693 486994.000000 0 1 0
-1.030918 -2.573981 23.240051 23.404874 1.189846 0.118748 0.024772 -0.016880 189481.000000 0 1 0
-2.078018 -1.597981 23.875921 24.019394 0.655546 0.109354 0.025559 -0.022740 368722.000000 0 1 0
-1.675218 -1.018981 25.117021 25.193440 0.546477 0.077908 0.025752 -0.014416 272758.000000 0 0 1
-2.519618 0.133019 25.287871 25.413433 -0.052744 0.099447 0.026812 -0.015668 187650.000000 0 0 1
-2.268818 1.097019 26.511701 26.631208 -0.450377 0.094772 0.053519 -0.013493 -776655.000000 0 0 1
-2.718618 0.642019 27.761381 27.901565 -0.231907 0.100284 0.065927 -0.005008 154365.000000 0 0 1
-1.930018 -0.420981 28.342591 28.411347 0.214759 0.069585 0.051753 -0.009417 -100354.000000 0 0 1
-0.468718 -0.069981 28.757321 28.761225 0.148209 0.016478 0.068530 -0.014463 249388.000000 0 0 1
0.451282 0.175019 27.708751 27.712978 0.369968 0.017467 0.040215 -0.012700 -54402.600000 0 0 1
0.877582 -0.956981 26.943361 26.974630 -0.828651 0.048154 0.039188 -0.013882 -435877.000000 0 0 1
2.162382 -1.691981 27.436611 27.573652 -0.663955 0.099741 0.056167 -0.013216 -325186.000000 0 0 1
2.074282 -2.479981 28.655181 28.836996 -0.874245 0.112353 0.051232 -0.017888 205898.000000 0 0 1
3.300182 -3.034981 29.138251 29.481180 -0.743561 0.152675 0.062026 -0.003271 614187.000000 0 0 1
3.965482 -4.119281 28.212611 28.786193 -0.804419 0.199961 0.065936 -0.004476 -361765.000000 0 0 1
4.577682 -3.674981 27.070221 27.699413 -0.676448 0.213549 0.067860 -0.006835 -264518.000000 0 0 1
4.965582 -4.690181 26.110511 26.989138 -0.756884 0.255863 0.054852 -0.007537 152470.000000 0 0 1
6.186282 -4.228881 25.228151 26.317544 -0.599628 0.288732 0.043173 -0.005916 -122570.000000 0 0 1
7.405782 -4.126981 25.895261 27.247791 -0.508404 0.316400 0.036134 -0.004282 -372936.000000 0 0 1
8.173182 -5.318381 25.919191 27.692788 -0.576875 0.359836 0.031882 -0.002027 104262.000000 0 0 1
9.085482 -5.589181 24.673101 26.880231 -0.551505 0.408066 0.015635 -0.004106 -350121.000000 0 0 1
8.339482 -5.982081 23.529751 25.670633 -0.622256 0.411300 0.016299 -0.005759 73611.200000 0 0 1
8.993582 -5.683381 22.295451 24.703693 -0.563573 0.445222 0.011548 -0.003154 -16340.400000 0 1 0
8.989982 -4.232181 21.772751 23.932902 -0.439988 0.428136 0.011443 -0.002033 1419040.000000 0 1 0
7.688882 -3.801081 21.285351 22.948492 -0.459126 0.383055 0.009237 -0.011339 680532.000000 0 1 0
7.911782 -2.738981 20.363351 22.017365 -0.333277 0.390085 0.015164 -0.012822 -171248.000000 0 1 0
6.777782 -1.733981 20.246351 21.421011 -0.250461 0.332703 0.021559 -0.010327 -314099.000000 0 1 0
6.600382 -0.961981 21.429651 22.443716 -0.144727 0.301752 0.037097 -0.010349 157970.000000 0 1 0
5.342582 -0.329981 21.308851 21.970871 -0.061686 0.246107 0.027860 -0.001256 73499.100000 0 1 0
4.459382 -0.202981 22.568351 23.005602 -0.045486 0.195278 0.025022 -0.007338 371292.000000 0 1 0
3.225182 0.453019 22.316151 22.552552 0.139550 0.144918 0.030647 -0.009959 -165033.000000 0 1 0
2.408482 0.515019 23.430251 23.559344 0.210663 0.104733 0.033817 -0.012205 114406.000000 0 1 0
0.968982 1.015019 23.143151 23.185655 0.808598 0.060561 0.035204 -0.026224 209929.000000 0 1 0
0.978482 2.436019 22.989151 23.138554 1.188849 0.113700 0.041621 -0.018583 470076.000000 0 1 0
-0.382618 2.830019 22.900551 23.077925 -1.436411 0.124063 0.022155 -0.018352 248215.000000 0 1 0
-0.643918 4.298019 22.439151 22.856139 -1.422085 0.191310 0.020809 -0.011681 -250625.000000 0 1 0
-0.437118 5.241019 23.398251 23.982024 -1.487586 0.221095 0.031666 -0.008328 37744.400000 0 1 0
-1.384018 6.282019 23.235851 24.109832 -1.353946 0.270078 0.025088 -0.004996 -153053.000000 0 1 0
-1.164718 7.516019 24.069091 25.242191 -1.417054 0.306066 0.038023 -0.005234 -462256.000000 0 0 1
-0.201018 8.455019 23.739221 25.200761 -1.547026 0.342243 0.028588 -0.001983 -466026.000000 0 0 1
-0.156518 9.581019 24.521351 26.327116 -1.554461 0.372527 0.048712 -0.003280 -594144.000000 0 0 1
0.638282 10.766019 23.946591 26.263164 1.511579 0.423165 0.058209 -0.012904 -64829.500000 0 0 1
2.038082 10.601019 23.933961 26.255854 1.380860 0.423718 0.050710 -0.010926 -498588.000000 0 0 1
2.603582 11.125019 25.171321 27.643083 1.340904 0.426104 0.067508 -0.019195 136799.000000 0 0 1
3.788882 12.067019 24.696211 27.746556 1.266558 0.473311 0.055243 -0.027683 534617.000000 0 0 1
5.002282 11.485019 24.250221 27.294719 1.160025 0.476821 0.040075 -0.017085 94411.900000 0 0 1
4.978582 10.643019 23.148051 25.959437 1.133256 0.469707 0.038626 -0.019769 -308719.000000 0 0 1
6.346782 10.041019 22.656851 25.581958 1.007118 0.482888 0.048137 -0.017465 578622.000000 0 0 1
7.146182 10.970019 21.996751 25.598169 0.993418 0.536878 0.039657 -0.019866 -375512.000000 0 0 1
8.288182 10.386019 21.421651 25.208143 0.897268 0.555208 0.045078 -0.022523 64853.500000 0 0 1
9.281382 11.395019 20.782051 25.453568 0.887269 0.615527 0.038007 -0.025702 -499985.000000 0 0 1
8.764982 12.118019 19.700851 24.734486 0.944602 0.649323 0.035328 -0.026244 32718.200000 0 1 0
9.524282 13.254019 19.275951 25.257538 0.947699 0.702582 0.044772 -0.021270 -732246.000000 0 0 1
10.869082 13.022019 18.635351 25.198933 0.875270 0.738425 0.042613 -0.015696 -543182.000000 0 0 1
11.926482 12.796019 19.584451 26.258899 0.820556 0.729029 0.037092 -0.019792 671846.000000 0 0 1
13.105882 12.465019 18.832151 26.111123 0.760341 0.765219 0.039282 -0.020777 318099.000000 0 0 1
14.348782 12.195019 19.690851 27.245837 0.704436 0.763080 0.048936 -0.014101 -142934.000000 0 0 1
14.934982 13.326019 20.273251 28.489316 0.728527 0.779011 0.041577 -0.017105 62848.500000 0 0 1
16.074482 12.969019 21.044951 29.486851 0.678878 0.776021 0.036832 -0.008759 394645.000000 0 0 1
16.762682 14.188019 21.730451 30.894981 0.702403 0.790676 0.025349 -0.004147 -354295.000000 0 0 1
15.988582 14.809019 22.718651 31.481405 0.747116 0.764609 0.032698 -0.005375 -299106.000000 0 0 1
16.629482 15.859019 23.345751 32.757781 0.761688 0.777488 0.019793 0.000777 -590110.000000 0 0 1
-20.946418 13.120656 -24.780912 34.999966 -0.559599 2.357496 0.022586 -0.005152 -83385.600000 0 0 1
-20.831018 13.109556 -26.172012 35.927232 -0.561706 2.386886 0.022352 -0.015794 8414.050000 0 0 1
-21.699218 13.948656 -26.915552 37.280933 -0.571310 2.377435 0.011614 -0.016551 -130420.000000 0 0 1
-21.460018 13.946256 -28.439562 38.260150 -0.576285 2.408817 0.012013 -0.005135 -46254.300000 0 0 1
-20.146518 14.326756 -28.784762 37.943387 -0.618156 2.431995 0.032296 -0.012770 -191575.000000 0 0 1
-20.074918 14.462556 -30.171242 39.018863 -0.624306 2.454743 0.021249 -0.019685 529313.000000 0 0 1
-18.661918 14.908256 -30.675612 38.878226 -0.674045 2.480005 0.031752 -0.020526 208525.000000 0 0 1
-17.685418 13.954156 -30.500792 37.918212 -0.668010 2.505434 0.032753 -0.024038 -1568880.000000 0 0 1
-16.381418 14.405256 -30.619212 37.595191 -0.721297 2.522568 0.037017 -0.021867 -508289.000000 0 0 1
-15.496918 13.966656 -29.453072 36.093010 -0.733507 2.525310 0.065683 -0.021245 -445217.000000 0 0 1
-15.843318 14.480356 -28.199302 35.438567 -0.740481 2.490998 0.071102 -0.025470 -263970.000000 0 0 1
-16.738018 13.624756 -27.520992 34.974279 -0.683220 2.476553 0.068875 -0.021132 -32251.400000 0 0 1
-17.388618 14.201956 -26.238652 34.532976 -0.684864 2.433824 0.059163 -0.027562 -19306.300000 0 0 1
-16.483818 14.408356 -25.172202 33.361006 -0.718315 2.425749 0.100376 -0.032468 482942.000000 0 0 1
-17.244918 14.904456 -24.048112 33.133694 -0.712727 2.382979 0.083025 -0.028772 430572.000000 0 0 1
-16.352318 15.485656 -22.932112 32.141649 -0.758184 2.365235 0.098810 -0.024097 1258.480000 0 0 1
-15.751318 16.681556 -23.302512 32.701458 -0.814072 2.363970 0.085443 -0.028834 -346386.000000 0 0 1
-15.078318 17.351156 -22.290912 32.020353 -0.855369 2.340814 0.088343 -0.023379 -500784.000000 0 0 1
-14.911518 18.883556 -22.628512 33.030162 -0.902394 2.325519 0.088541 -0.026375 302423.000000 0 0 1
-16.110118 19.633656 -22.485612 33.920777 -0.883658 2.295463 0.053098 -0.026595 495014.000000 0 0 1
-16.989818 19.439556 -23.604412 34.981688 -0.852543 2.311442 0.036095 -0.021288 -269336.000000 0 0 1
-18.177818 20.405756 -23.542712 36.070587 -0.843077 2.281919 0.016629 -0.020742 -292593.000000 0 0 1
-17.727918 21.735056 -23.724412 36.736078 -0.886593 2.272876 0.004382 -0.018351 499098.000000 0 0 1
-18.798918 22.577056 -24.171112 38.044256 -0.876458 2.259248 0.014086 -0.027729 253416.000000 0 0 1
-18.461018 24.041556 -24.407212 38.916803 -0.915950 2.248703 0.001854 -0.030534 -240701.000000 0 0 1
-18.090418 24.601356 -23.172312 38.333353 -0.936742 2.219928 0.001883 -0.019249 222972.000000 0 0 1
-17.249518 25.750556 -23.290012 38.769339 -0.980579 2.215214 0.003166 -0.008259 -118434.000000 0 0 1
-16.197318 25.819156 -22.160712 37.683936 -1.010518 2.199464 0.005576 -0.020104 537946.000000 0 0 1
-15.026818 24.983356 -22.232012 36.663820 -1.029294 2.222290 0.020126 -0.036784 390471.000000 0 0 1
-15.279918 23.590156 -22.102612 35.756074 -0.996023 2.237183 0.030400 -0.015085 -1471350.000000 0 0 1
-14.112718 22.639856 -21.999612 34.579109 -1.013379 2.260374 0.070075 -0.020653 -571615.000000 0 0 1
-13.589918 22.760756 -20.669812 33.615160 -1.032529 2.233050 0.084809 -0.031397 -244881.000000 0 0 1
-12.684618 21.720556 -20.409912 32.392076 -1.042231 2.252465 0.074141 -0.026299 -455208.000000 0 0 1
-11.911118 21.934056 -19.091412 31.423869 -1.073311 2.223762 0.069474 -0.028918 -227645.000000 0 0 1
-12.567918 21.918056 -17.834112 30.925867 -1.050162 2.185447 0.085676 -0.028261 -395269.000000 0 0 1
-13.469918 22.948156 -17.581012 31.892766 -1.040012 2.154663 0.071947 -0.035522 72223.600000 0 0 1
-14.265018 22.988856 -16.210612 31.539850 -1.015426 2.110606 0.075754 -0.032020 85470.400000 0 0 1
-13.403918 23.213156 -15.161012 30.795647 -1.047140 2.085538 0.065541 -0.031415 -342871.000000 0 0 1
-14.113918 23.317156 -13.918912 30.604388 -1.026487 2.042945 0.058634 -0.022392 7554.940000 0 0 1
-13.336918 23.884856 -12.715812 30.167061 -1.061539 2.005910 0.060774 -0.016554 -207134.000000 0 0 1
-12.930518 25.218656 -12.896512 31.136777 -1.097012 1.997848 0.052806 -0.021471 704753.000000 0 0 1
-11.876318 25.522956 -11.962012 30.586891 -1.135276 1.972604 0.029921 -0.012960 464672.000000 0 0 1
-11.553018 27.063156 -11.830212 31.714989 -1.167325 1.953054 0.039396 -0.011726 130406.000000 0 0 1
-10.874318 27.575656 -12.992812 32.364807 -1.195175 1.983894 0.043018 -0.012677 281270.000000 0 0 1
-10.833318 28.982856 -12.965712 33.548120 -1.213092 1.967609 0.036124 -0.005926 -369753.000000 0 0 1
-10.144118 29.482956 -14.301612 34.302827 -1.239417 2.000853 0.063217 -0.019904 1213980.000000 0 0 1
-8.732518 29.328856 -14.493512 33.860014 -1.281410 2.013122 0.047908 -0.016731 579749.000000 0 0 1
-8.146618 28.052856 -14.468612 32.598632 -1.288168 2.030677 0.048860 -0.015307 -41458.300000 0 0 1
-6.718918 28.020056 -15.087112 32.525195 -1.335450 2.053143 0.052287 -0.016293 420612.000000 0 0 1
-5.848318 28.896356 -14.430912 32.824585 -1.371104 2.025991 0.042109 -0.011987 -631144.000000 0 0 1
-4.513418 28.659256 -14.821212 32.579015 -1.414594 2.043091 0.044457 -0.017296 534119.000000 0 0 1
-3.401518 29.541756 -14.171512 32.941120 -1.456158 2.015519 0.027743 -0.005558 344323.000000 0 0 1
-3.475118 30.883556 -14.628512 34.349146 -1.458744 2.010727 0.019487 -0.000340 -220367.000000 0 0 1
-4.427018 31.615156 -13.902212 34.819363 -1.431673 1.981513 0.015650 0.000588 -318601.000000 0 0 1
-4.442418 33.109756 -14.206912 36.301892 -1.437420 1.972899 0.020593 -0.003043 -9770.480000 0 0 1
-3.414018 33.891256 -13.617612 36.683949 -1.470401 1.951113 -0.000512 -0.004059 129312.000000 0 0 1
-3.812018 -33.516681 -13.730412 36.420099 1.457548 1.957353 0.015141 -0.009646 360552.000000 0 0 1
-2.974718 -32.597081 -12.837812 35.160035 1.479791 1.944564 0.013005 -0.014824 -51008.700000 0 0 1
-3.157518 -32.838181 -11.464612 34.924968 1.474937 1.905262 0.014103 -0.017128 -128745.000000 0 0 1
-2.342318 -31.983381 -10.719612 33.813211 1.497691 1.893387 0.008710 -0.016672 -308432.000000 0 0 1
-2.594418 -32.047881 -9.225412 33.450051 1.490018 1.850215 0.012322 -0.019067 -59836.800000 0 0 1
-1.717918 -31.294381 -8.363212 32.438139 1.515956 1.831562 0.016002 -0.024571 -197319.000000 0 0 1
-2.009418 -31.426181 -7.002612 32.259560 1.506942 1.789609 0.009359 -0.027917 202556.000000 0 0 1
-0.931418 -30.788481 -6.075512 31.396018 1.540553 1.765537 0.020488 -0.021269 378819.000000 0 0 1
-1.119818 -31.172281 -4.685212 31.542294 1.534888 1.719885 0.023004 -0.015684 289005.000000 0 0 1
-0.114918 -30.496281 -3.923812 30.747889 1.567028 1.698758 0.030924 -0.013759 300469.000000 0 0 1
-0.283218 -30.771481 -2.383012 30.864916 1.561593 1.648081 0.039742 -0.005000 -280138.000000 0 0 1
-0.114118 -32.126981 -2.020812 32.190676 1.567244 1.633614 0.032773 -0.010747 820630.000000 0 0 1
1.130282 -32.793681 -2.313412 32.894604 -1.536344 1.641182 0.024843 -0.010774 707467.000000 0 0 1
2.435582 -32.353081 -1.626812 32.485388 -1.495657 1.620896 0.035439 -0.012398 -720991.000000 0 0 1
2.595282 -32.723881 -0.259912 32.827663 -1.491653 1.578714 0.044893 -0.012658 -215427.000000 0 0 1
3.817382 -32.434581 0.373588 32.660588 -1.453640 1.559358 0.043661 -0.015633 -104729.000000 0 0 1
4.127082 -30.949081 0.647988 31.229767 -1.438228 1.550046 0.038690 -0.015361 -518432.000000 0 0 1
4.477682 -30.263681 -0.530312 30.597733 -1.423906 1.588129 0.030660 -0.016755 118175.000000 0 0 1
4.401882 -28.843181 -0.400212 29.179888 -1.419351 1.584512 0.038119 -0.002635 -366493.000000 0 0 1
4.026782 -28.179881 -1.722812 28.518218 -1.428862 1.631244 0.028432 0.001061 540213.000000 0 0 1
2.629082 -28.282781 -2.035012 28.477519 -1.478106 1.642318 0.035766 -0.003774 641791.000000 0 0 1
2.210682 -27.386881 -3.082112 27.648287 -1.490250 1.682504 0.022912 0.001897 -101785.000000 0 0 1
2.765282 -27.394081 -4.518512 27.901603 -1.470193 1.733457 0.011327 -0.004216 -533595.000000 0 0 1
2.220282 -28.323281 -5.375212 28.914197 -1.492566 1.757786 0.007537 -0.005560 -134566.000000 0 0 1
2.732282 -28.237981 -6.732812 29.157841 -1.474338 1.803808 0.017371 -0.010495 -245095.000000 0 0 1
2.232882 -29.208581 -7.766412 30.305843 -1.494499 1.829955 0.015117 -0.012293 -503065.000000 0 0 1
0.863682 -28.941881 -7.958412 30.028566 -1.540963 1.839029 0.015140 -0.011158 -482555.000000 0 0 1
0.514082 -29.186581 -9.319812 30.642776 -1.553185 1.879836 0.014545 -0.004513 45103.200000 0 0 1
-0.718218 -28.433581 -9.855712 30.101818 1.545542 1.904360 0.007884 -0.014523 -513685.000000 0 0 1
-0.597918 -27.021881 -9.780812 28.743762 1.548673 1.918007 0.003017 -0.011130 260520.000000 0 0 1
-1.818718 -26.268881 -9.807712 28.098987 1.501672 1.927344 0.023808 -0.012750 1051560.000000 0 0 1
-2.890818 -26.502781 -8.670512 28.034479 1.462150 1.885232 0.039395 -0.017770 166077.000000 0 0 1
-2.589318 -26.250081 -7.291812 27.366802 1.472474 1.840502 0.038998 -0.023865 -271094.000000 0 0 1
-1.765118 -27.267281 -6.714412 28.137228 1.506153 1.811752 0.019313 -0.019837 438742.000000 0 0 1
-1.342618 -27.032381 -5.228912 27.566171 1.521170 1.761638 0.034617 -0.009383 382890.000000 0 0 1
-2.424318 -27.193381 -4.329312 27.642363 1.481880 1.728063 0.045107 -0.015359 53131.500000 0 0 1
-2.033118 -26.761681 -3.048812 27.011413 1.494971 1.683909 0.041243 -0.007752 34645.100000 0 0 1
-3.137818 -26.836381 -1.968912 27.090845 1.454401 1.643539 0.036593 -0.008331 248284.000000 0 0 1
-4.214618 -25.935881 -2.164312 26.365075 1.409703 1.652979 0.035812 -0.012657 -272004.000000 0 0 1
-5.035518 -25.943381 -1.025712 26.447449 1.379084 1.609589 0.046477 -0.008456 458763.000000 0 0 1
-6.200018 -24.873981 -1.083412 25.657922 1.326517 1.613034 0.055942 -0.019520 403668.000000 0 0 1
-5.786118 -23.540581 -1.001712 24.261936 1.329781 1.612095 0.036824 -0.023026 -257605.000000 0 1 0
-6.467618 -22.824081 0.028988 23.722766 1.294667 1.569574 0.043800 -0.018974 70381.100000 0 1 0
-5.639418 -21.613281 0.445888 22.341347 1.315563 1.550837 0.022324 -0.014917 501633.000000 0 1 0
-4.567218 -21.793381 1.378188 22.309423 1.364217 1.508981 0.024974 -0.010732 320855.000000 0 1 0
-4.108418 -20.485481 1.703588 20.962735 1.372869 1.489439 0.009709 -0.003901 638776.000000 0 1 0
-3.098018 -20.266381 2.939688 20.711487 1.419106 1.428380 0.007764 0.001879 769639.000000 0 1 0
-3.689818 -20.522481 4.228188 21.275915 1.392903 1.370733 -0.000259 0.024195 -180414.000000 0 1 0
-2.834718 -20.188381 5.309288 21.066440 1.431295 1.316023 0.006679 0.014892 427284.000000 0 1 0
-1.925718 -21.428481 5.692288 22.255119 1.481170 1.312148 0.006381 0.001613 382621.000000 0 1 0
-0.940818 -21.707281 4.729088 22.236355 1.527482 1.356486 0.031706 0.001526 -507232.000000 0 1 0
-0.233918 -22.896881 4.965688 23.430321 1.560581 1.357243 0.036098 -0.001518 -568048.000000 0 1 0
0.803082 -23.090181 3.806488 23.415609 -1.536030 1.407510 0.035979 -0.010939 515936.000000 0 1 0
1.932282 -22.248681 3.784488 22.650825 -1.484164 1.402930 0.024577 -0.015829 -330118.000000 0 1 0
2.853482 -22.504881 4.800288 23.187385 -1.444675 1.362267 0.045124 -0.019122 -1473800.000000 0 1 0
4.087282 -21.628981 4.803888 22.529892 -1.384026 1.355924 0.050483 -0.024974 -310509.000000 0 1 0
4.867782 -21.683581 3.631988 22.518089 -1.349966 1.408797 0.027868 -0.007168 75252.800000 0 1 0
6.122982 -21.021881 3.765088 22.216802 -1.287371 1.400504 0.049209 -0.004673 546655.000000 0 1 0
6.787982 -20.852981 2.413188 22.062344 -1.256098 1.461197 0.050352 0.004563 -350078.000000 0 1 0
7.323682 -22.039581 1.824688 23.296114 -1.249979 1.492390 0.039274 0.012077 -103511.000000 0 1 0
7.166182 -21.996181 0.414988 23.137812 -1.255848 1.552860 0.037147 0.003222 269238.000000 0 1 0
8.210782 -22.908881 -0.296012 24.337654 -1.226649 1.582959 0.021515 0.010004 573560.000000 0 1 0
9.470782 -22.300981 -0.525012 24.234379 -1.169197 1.592462 0.019199 0.015771 -92982.100000 0 1 0
10.287782 -23.045681 -1.426612 25.277996 -1.150933 1.627263 0.012532 0.012333 -250447.000000 0 0 1
11.505982 -22.285481 -1.872412 25.150273 -1.094194 1.645314 0.009678 0.019165 -535803.000000 0 0 1
11.228982 -21.238581 -2.811612 24.188273 -1.084448 1.687298 0.013520 0.023195 542958.000000 0 1 0
12.501482 -21.020381 -3.434912 24.697006 -1.034260 1.710331 0.009820 0.025004 718398.000000 0 1 0
12.560882 -19.815481 -4.444612 23.878518 -1.005828 1.758023 0.015937 0.007505 -172716.000000 0 1 0
12.745882 -18.511481 -3.880712 22.807726 -0.967804 1.741777 0.038073 0.012521 260434.000000 0 1 0
12.814682 -17.489681 -4.871312 22.222392 -0.938460 1.791798 0.046334 0.001169 -506161.000000 0 1 0
13.296082 -16.126081 -4.185012 21.315502 -0.881289 1.768417 0.066782 0.001341 1743580.000000 0 1 0
14.640782 -15.949081 -3.657712 21.956879 -0.828141 1.738163 0.051028 0.000214 1094680.000000 0 1 0
15.690582 -16.186481 -4.534812 22.994805 -0.800954 1.769308 0.046832 0.001970 56256.000000 0 1 0
17.141882 -15.821881 -4.063012 23.678769 -0.745376 1.743239 0.037918 0.002393 906017.000000 0 1 0
17.743782 -16.722781 -3.115612 24.580485 -0.755784 1.697890 0.034381 0.000815 -544693.000000 0 1 0
19.099482 -16.433381 -3.125812 25.389307 -0.710507 1.694225 0.013866 0.011430 -564790.000000 0 0 1
19.925982 -17.449581 -2.230712 26.580232 -0.719238 1.654819 0.027982 0.003055 698257.000000 0 0 1
21.330682 -17.219181 -2.224812 27.503599 -0.679146 1.651776 0.018756 0.004903 3950.690000 0 0 1
21.947382 -18.084481 -1.370612 28.471294 -0.689200 1.618955 0.014940 0.004638 189530.000000 0 0 1
23.497882 -17.928881 -1.438612 29.591635 -0.651769 1.619431 0.028197 0.000373 306997.000000 0 0 1
23.942082 -16.738181 -0.900412 29.226713 -0.610129 1.601609 0.034977 -0.005069 968528.000000 0 0 1
25.354382 -16.751981 -0.582212 30.394284 -0.583870 1.589953 0.048488 -0.014022 1168270.000000 0 0 1
25.896782 -15.391481 -0.010612 30.125423 -0.536247 1.571149 0.041409 -0.010527 238170.000000 0 0 1
25.396682 -15.104381 1.299988 29.577420 -0.536542 1.526830 0.052177 -0.007684 913836.000000 0 0 1
26.189382 -14.006881 1.839488 29.756683 -0.491122 1.508939 0.054674 -0.021412 899690.000000 0 0 1
25.329382 -13.300581 2.913888 28.757152 -0.483529 1.469295 0.065640 -0.026879 254426.000000 0 0 1
24.802982 -14.075181 4.002488 28.797891 -0.516164 1.431359 0.070281 -0.024564 294368.000000 0 0 1
25.766982 -14.572581 4.916988 30.007903 -0.514705 1.406198 0.082128 -0.030056 110131.000000 0 0 1
25.069782 -15.080181 6.180388 29.901556 -0.541542 1.362604 0.070348 -0.020582 -34717.000000 0 0 1
24.435382 -16.292981 5.926688 29.961221 -0.588080 1.371671 0.070179 -0.023777 -354088.000000 0 0 1
23.294982 -16.471381 6.726388 29.312231 -0.615461 1.339259 0.067326 -0.016963 -211019.000000 0 0 1
22.786582 -17.945781 6.647088 29.756733 -0.667109 1.345515 0.059023 -0.019335 -565754.000000 0 0 1
23.759882 -18.845981 7.052188 31.135773 -0.670572 1.342316 0.063633 -0.016108 -447367.000000 0 0 1
23.261182 -20.169881 7.099588 31.596057 -0.714341 1.344163 0.027730 -0.003171 77454.300000 0 0 1
1.425082 23.391456 -2.714912 23.591562 1.509948 1.686132 0.004913 -0.006559 145653.000000 0 1 0
2.470782 24.271556 -2.388212 24.513603 1.469348 1.668375 0.012142 -0.011567 -326915.000000 0 1 0
3.170782 24.728656 -3.503012 25.176008 1.443269 1.710390 0.022517 -0.009789 -247377.000000 0 0 1
4.147382 25.846356 -3.084212 26.358058 1.411690 1.688077 0.010828 -0.006186 212458.000000 0 0 1
5.126182 25.334456 -2.188512 25.940354 1.371151 1.655264 0.005219 -0.008743 -28130.900000 0 0 1
5.999082 26.286456 -1.626912 27.011360 1.346420 1.631063 -0.004450 -0.002887 44135.400000 0 0 1
7.217982 25.694056 -0.862012 26.702562 1.296934 1.603084 -0.019928 -0.013188 355317.000000 0 0 1
8.163282 25.284556 -1.862812 26.634902 1.258504 1.640792 -0.008605 -0.021012 -584972.000000 0 0 1
9.054282 24.384856 -1.281512 26.043108 1.215267 1.620024 -0.008325 -0.012744 -873196.000000 0 0 1
10.172582 24.073356 -2.251112 26.231191 1.170989 1.656720 -0.001342 -0.009692 -1493620.000000 0 0 1
11.173682 25.054656 -2.321712 27.531387 1.151297 1.655226 0.001449 -0.010991 65598.500000 0 0 1
11.933082 24.983256 -3.544612 27.912825 1.125194 1.698129 0.023588 -0.015433 314828.000000 0 0 1
12.944982 23.813956 -3.700912 27.356421 1.072889 1.706497 0.026466 -0.009458 -958932.000000 0 0 1
12.432382 22.502356 -3.864212 25.997159 1.066042 1.719989 0.028649 -0.016828 -194849.000000 0 0 1
11.966282 22.217856 -5.174612 25.760466 1.076757 1.773047 0.045063 -0.024140 -322627.000000 0 0 1
11.022182 21.018356 -5.230812 24.302699 1.087814 1.787730 0.043119 -0.026390 -538008.000000 0 1 0
9.743482 21.419456 -4.808012 24.017608 1.143884 1.772345 0.026507 -0.024622 -573166.000000 0 1 0
8.879782 20.299756 -4.997712 22.713602 1.158442 1.792643 0.010243 -0.013387 137249.000000 0 1 0
7.377582 20.680556 -4.995912 22.518287 1.228130 1.794518 0.005172 -0.012129 149316.000000 0 1 0
7.086882 21.057256 -3.678112 22.520222 1.246151 1.734856 -0.007344 -0.016342 -50651.500000 0 1 0
5.806782 21.609756 -3.428112 22.637407 1.308286 1.722817 0.000621 -0.004370 184047.000000 0 1 0
5.609882 22.308356 -2.120912 23.100471 1.324435 1.662738 0.004226 -0.005888 -29248.400000 0 1 0
5.299982 21.415256 -1.061412 22.086864 1.328185 1.618871 0.002951 -0.004483 -33342.700000 0 1 0
4.545482 22.140356 -0.098012 22.602353 1.368307 1.575133 0.012568 -0.001472 240724.000000 0 1 0
4.230782 21.253456 1.112288 21.698988 1.374302 1.519514 0.008465 -0.005535 -147861.000000 0 1 0
3.629782 21.975856 2.193588 22.381362 1.407103 1.472629 0.020219 0.005529 207893.000000 0 1 0
3.240982 21.061356 3.216088 21.550589 1.418111 1.421002 0.017573 0.002052 -47065.800000 0 1 0
2.115882 21.605956 4.101388 22.093340 1.473177 1.384074 0.017627 -0.003971 -58267.100000 0 1 0
0.829482 21.735856 3.536788 22.037339 1.532653 1.409609 0.020171 -0.001746 -272017.000000 0 1 0
-0.074618 22.130856 4.532488 22.590347 -1.567425 1.368787 0.021285 -0.014578 118165.000000 0 1 0
-1.523718 22.287956 4.031088 22.700757 -1.502537 1.392275 0.014230 -0.014003 419233.000000 0 1 0
-2.541218 22.422556 5.029288 23.119743 -1.457945 1.351511 0.029991 -0.021016 352879.000000 0 1 0
-3.779218 22.707156 4.391788 23.434701 -1.405875 1.382276 0.028830 -0.019458 362023.000000 0 1 0
-4.936918 22.947656 5.387988 24.083157 -1.358888 1.345162 0.040832 -0.029463 -82829.500000 0 1 0
-5.030318 24.291656 5.933988 25.506878 -1.366602 1.336002 0.049470 -0.020256 311255.000000 0 0 1
-6.228718 24.470456 6.682488 26.120026 -1.321549 1.312082 0.054638 -0.026324 243351.000000 0 0 1
-6.409318 25.920156 7.130188 27.636451 -1.328387 1.309845 0.060949 -0.027366 -796732.000000 0 0 1
-5.338818 26.469456 7.804088 28.107630 -1.371769 1.289449 0.063308 -0.032997 -764142.000000 0 0 1
-5.614818 27.770456 8.440188 29.562834 -1.371299 1.281268 0.081933 -0.032856 -204249.000000 0 0 1
-5.882618 29.036956 7.628088 30.593099 -1.370911 1.318797 0.085187 -0.029862 446558.000000 0 0 1
-7.145718 28.992156 6.972488 30.663039 -1.329142 1.341399 0.071393 -0.031146 -111415.000000 0 0 1
-7.380418 30.191856 6.181188 31.689522 -1.331047 1.374483 0.076101 -0.031482 356858.000000 0 0 1
-8.833718 30.464756 5.636888 32.216617 -1.288571 1.394923 0.064982 -0.030311 732988.000000 0 0 1
-9.724518 30.894256 6.618088 33.057834 -1.265847 1.369237 0.063020 -0.018063 -458179.000000 0 0 1
-10.345918 29.858856 7.357088 32.445586 -1.237248 1.342055 0.050433 -0.013794 -292039.000000 0 0 1
-11.267718 30.410456 8.518688 33.530961 -1.215958 1.313926 0.029085 -0.014120 197366.000000 0 0 1
-10.684918 30.858156 9.719388 34.071392 -1.237458 1.281513 0.045340 -0.016231 -164882.000000 0 0 1
-11.750118 31.184556 10.570688 34.961139 -1.210455 1.263634 0.051109 -0.010568 41624.200000 0 0 1
-11.216618 31.637356 11.945988 35.629221 -1.230085 1.228887 0.049120 -0.018958 -363111.000000 0 0 1
-10.622318 32.916956 11.852588 36.562870 -1.258646 1.240662 0.035569 -0.017627 299932.000000 0 0 1
-9.707818 33.084156 12.938688 36.826794 -1.285380 1.211795 0.042948 -0.024353 406271.000000 0 0 1
-9.112918 -34.209181 12.927688 37.688705 1.310454 1.220674 0.027449 -0.027461 5484.870000 0 0 1
-10.053018 -33.321181 13.422888 37.303327 1.277780 1.202710 0.025361 -0.009470 -310581.000000 0 0 1
-9.551318 -32.017081 13.338088 35.975349 1.280882 1.190973 0.021575 0.001658 -313307.000000 0 0 1
-10.413418 -30.968781 14.002388 35.546752 1.246418 1.165910 0.037640 -0.003773 -466815.000000 0 0 1
-10.381018 -30.864981 15.436088 36.037278 1.246345 1.128145 0.045735 -0.017370 67324.400000 0 0 1
-9.095118 -30.697881 16.016488 35.799567 1.282757 1.106948 0.048215 -0.017235 270019.000000 0 0 1
-9.071018 -30.930881 17.580188 36.716016 1.285528 1.071492 0.035386 -0.027811 608072.000000 0 0 1
-10.041418 -30.201081 18.353388 36.739383 1.249809 1.047710 0.077120 -0.028398 681076.000000 0 0 1
-10.756818 -30.915181 19.368088 38.033938 1.235952 1.036504 0.064051 -0.033244 205354.000000 0 0 1
-11.034618 -30.101081 20.606488 38.111222 1.219423 0.999535 0.062897 -0.033328 430874.000000 0 0 1
-9.907018 -29.861981 21.457288 38.082833 1.250462 0.972256 0.059136 -0.026425 703245.000000 0 0 1
-10.318818 -29.058281 22.537088 38.194006 1.229579 0.939652 0.044000 -0.020051 -242025.000000 0 0 1
-9.232118 -29.056781 23.576888 38.540864 1.263157 0.912541 0.070856 -0.024017 -353235.000000 0 0 1
-9.194518 -30.171881 24.475988 39.924373 1.274998 0.910870 0.060284 -0.019758 234300.000000 0 0 1
-8.007418 -30.168781 25.268488 40.159315 1.311358 0.890265 0.072804 -0.024393 372728.000000 0 0 1
-7.896518 -31.384681 26.228388 41.656711 1.324308 0.889717 0.073185 -0.023919 -189818.000000 0 0 1
-7.728518 -32.605481 25.504688 42.111002 1.338060 0.920209 0.093068 -0.024459 323045.000000 0 0 1
-7.740918 -33.597381 26.440988 43.449185 1.344346 0.916565 0.089922 -0.020643 -461831.000000 0 0 1
-7.505518 33.738756 25.823088 43.144737 -1.351901 0.929141 0.072787 -0.015248 1043040.000000 0 0 1
-6.114918 33.436556 25.517988 42.503684 -1.389914 0.926831 0.072176 -0.010375 1295410.000000 0 0 1
-5.959618 32.211856 24.818888 41.098636 -1.387852 0.922429 0.063403 -0.008853 -207214.000000 0 0 1
-6.691118 31.880656 23.449788 40.137761 -1.363919 0.946862 0.059369 -0.011749 -209053.000000 0 0 1
-8.014918 31.524556 23.750488 40.275578 -1.321828 0.940110 0.054785 -0.015465 -123153.000000 0 0 1
-8.728918 31.187456 22.545488 39.460745 -1.297894 0.962659 0.040352 -0.009484 390624.000000 0 0 1
-9.743818 30.038256 22.791588 38.944772 -1.257125 0.945635 0.033879 -0.019147 396864.000000 0 0 1
-9.109318 28.737556 22.747888 37.766297 -1.263832 0.924376 0.031722 -0.012345 60084.600000 0 0 1
-10.053218 27.701256 22.803288 37.261464 -1.222662 0.912234 0.023495 -0.010243 -326002.000000 0 0 1
-9.562718 26.258756 22.543288 35.904981 -1.221552 0.891996 0.009027 -0.006283 -74640.100000 0 0 1
-8.444418 25.868556 23.324188 35.840035 -1.255266 0.862177 0.011270 -0.018408 207818.000000 0 0 1
-8.083118 24.561956 22.910188 34.547115 -1.252869 0.845766 0.024373 -0.014090 -556881.000000 0 0 1
-6.663718 24.216256 23.336388 34.284387 -1.302267 0.822118 0.032795 -0.016292 -289836.000000 0 0 1
-5.645418 24.965556 22.679288 34.197950 -1.348408 0.845741 0.017323 -0.015381 -677505.000000 0 0 1
-4.431918 24.599656 23.225688 34.120632 -1.392547 0.822088 0.055439 -0.011710 -220443.000000 0 0 1
-3.115818 25.187956 22.634688 34.006919 -1.447719 0.842511 0.042938 -0.015205 479516.000000 0 0 1
-2.843518 24.660756 21.356388 32.746508 -1.455998 0.860349 0.047836 -0.010136 32856.900000 0 0 1
-1.881518 25.382456 20.599488 32.743672 -1.496805 0.890384 0.053045 -0.011251 82795.500000 0 0 1
-1.412818 24.650956 19.336388 31.361785 -1.513546 0.906432 0.040364 -0.019655 -113974.000000 0 0 1
-0.447918 23.673856 19.711288 30.808878 -1.551878 0.876568 0.050420 -0.005435 128060.000000 0 0 1
0.026782 22.895156 18.612988 29.506477 1.569627 0.888199 0.035534 -0.003732 -91766.900000 0 0 1
1.049482 21.792556 18.980688 28.918565 1.522676 0.854826 0.034564 0.002604 951381.000000 0 0 1
2.337782 22.333256 19.323188 29.624738 1.466499 0.860227 0.029615 -0.008436 40296.600000 0 0 1
3.277882 21.328156 19.541888 29.112199 1.418301 0.834887 0.033726 0.002358 -172027.000000 0 0 1
4.719082 21.858556 19.499088 29.669523 1.358168 0.853686 0.028455 -0.001992 84249.700000 0 0 1
5.698082 20.874156 19.216188 28.938908 1.304316 0.844606 0.041678 -0.004027 602418.000000 0 0 1
7.000182 21.434156 19.005488 29.489560 1.255127 0.870451 0.072352 -0.006948 1201060.000000 0 0 1
8.106182 20.400656 18.552088 28.741554 1.192577 0.869145 0.060692 -0.001221 490889.000000 0 0 1
8.642482 19.642656 19.619288 29.076500 1.156302 0.830174 0.061778 -0.005701 144938.000000 0 0 1
9.643582 18.715056 19.234188 28.516766 1.094996 0.830527 0.050078 -0.005480 317579.000000 0 0 1
10.250482 17.829356 20.384788 28.956828 1.049021 0.789822 0.062253 -0.008967 -185087.000000 0 0 1
9.399482 16.902556 20.983388 28.536805 1.063283 0.744673 0.057989 -0.012283 -704183.000000 0 0 1
10.101182 16.232456 21.937988 29.099859 1.014153 0.716839 0.062271 -0.020669 -481184.000000 0 0 1
9.301582 15.115956 22.635088 28.763844 1.019167 0.664981 0.040753 -0.012129 138154.000000 0 0 1
8.231082 15.706856 23.391088 29.353007 1.088099 0.648668 0.052583 -0.003245 891547.000000 0 0 1
7.155982 14.769256 23.676188 28.808000 1.119610 0.606125 0.035662 -0.007318 884745.000000 0 0 1
7.424182 13.723456 24.772788 29.277000 1.074901 0.562074 0.042991 -0.010035 -414206.000000 0 0 1
7.725682 14.361356 26.044788 30.728906 1.077252 0.559414 0.047634 -0.017336 -32523.800000 0 0 1
8.077282 13.312156 26.987888 31.157697 1.025421 0.523308 0.049313 -0.017884 -1059490.000000 0 0 1
9.098582 13.783456 27.998888 32.507008 0.987347 0.532937 0.025808 -0.007534 474322.000000 0 0 1
10.442682 13.828156 27.442588 32.455556 0.923991 0.563214 0.035154 -0.009126 1111840.000000 0 0 1
10.737282 15.016956 26.719388 32.476513 0.950067 0.604600 0.035303 -0.006430 -684091.000000 0 0 1
12.062482 14.886456 25.952088 32.258656 0.889807 0.635963 0.038647 -0.010513 -126827.000000 0 0 1
11.892482 14.027156 24.857788 30.920897 0.867570 0.636947 0.047467 -0.015175 818198.000000 0 0 1
13.136382 13.547556 24.305188 30.770813 0.800806 0.660186 0.047880 -0.013135 308335.000000 0 0 1
12.916082 12.380756 23.290888 29.369606 0.764240 0.655034 0.042818 -0.016417 166348.000000 0 0 1
12.351482 11.136456 23.698488 28.951651 0.733714 0.611907 0.040309 -0.008957 494545.000000 0 0 1
10.963682 11.188556 23.995788 28.656307 0.795549 0.578351 0.046112 -0.009396 -111753.000000 0 0 1
10.457082 9.856356 24.637088 28.521648 0.755834 0.528026 0.041406 -0.011523 -21552.900000 0 0 1
10.474182 8.760056 23.764288 27.407817 0.696514 0.521521 0.042469 -0.006546 235142.000000 0 0 1
9.960882 7.623156 24.436688 27.467861 0.653227 0.474226 0.040237 -0.008813 112441.000000 0 0 1
10.332482 6.324656 23.656888 26.578371 0.549279 0.473275 0.053672 -0.011862 1211930.000000 0 0 1
11.743182 5.972256 23.685988 27.103435 0.470482 0.507606 0.050168 -0.003344 1336760.000000 0 0 1
11.957482 4.880856 22.865288 26.260722 0.387542 0.514167 0.053599 -0.010527 -219.109000 0 0 1
11.924282 3.460356 23.502488 26.580623 0.282436 0.486026 0.045783 -0.010060 -774344.000000 0 0 1
13.089082 3.352156 24.242088 27.753195 0.250715 0.508475 0.040469 -0.001193 -453372.000000 0 0 1
13.197182 2.151956 25.017488 28.366727 0.161639 0.490854 0.045794 -0.000934 642286.000000 0 0 1
14.699882 1.821956 25.342288 29.353664 0.123315 0.528938 0.034989 0.002630 788072.000000 0 0 1
15.417082 1.179356 24.310888 28.811396 0.076348 0.566482 0.010497 -0.005279 -592292.000000 0 0 1
16.764982 1.079556 24.611588 29.798663 0.064305 0.598948 0.028515 -0.008241 -940096.000000 0 0 1
17.450482 0.068256 23.691188 29.424418 0.003911 0.634861 0.035564 -0.008909 -234515.000000 0 0 1
17.341682 -1.305344 24.120088 29.735778 -0.075130 0.624686 0.037420 -0.007667 150495.000000 0 0 1
18.253382 -2.100544 23.395688 29.748218 -0.114573 0.665745 0.026997 -0.004139 -427312.000000 0 0 1
18.170882 -3.568444 23.773288 30.134432 -0.193915 0.661767 0.029721 0.005357 -74097.700000 0 0 1
17.088082 -4.263444 23.198988 29.126835 -0.244506 0.649342 0.028074 0.010617 246911.000000 0 0 1
17.209582 -5.599044 23.600988 29.740976 -0.314544 0.654173 0.044439 0.005798 577594.000000 0 0 1
16.061582 -6.449244 22.958788 28.751924 -0.381827 0.645975 0.054186 -0.001625 421421.000000 0 0 1
16.267382 -6.468644 21.539588 27.756529 -0.378475 0.682468 0.047026 -0.007663 645573.000000 0 0 1
15.319582 -7.329644 20.898488 26.928796 -0.446259 0.682395 0.053411 -0.019100 168499.000000 0 0 1
15.821082 -8.792844 20.910988 27.656648 -0.507261 0.713474 0.063922 -0.025637 -47069.100000 0 0 1
15.707682 -9.485444 22.104088 28.727959 -0.543262 0.692852 0.053271 -0.019446 566004.000000 0 0 1
16.696382 -10.536544 22.251688 29.747698 -0.562951 0.725732 0.042025 -0.023388 218500.000000 0 0 1
16.408882 -11.303544 23.604788 30.890250 -0.603215 0.701074 0.041325 -0.012422 345283.000000 0 0 1
15.140382 -11.933044 23.499688 30.395132 -0.667480 0.687019 0.052877 -0.018884 302586.000000 0 0 1
15.007382 -12.934044 24.496188 31.505146 -0.711331 0.680068 0.050219 -0.007063 -737960.000000 0 0 1
13.994482 -13.952344 24.089088 31.157625 -0.783890 0.687025 0.045625 -0.009785 -898307.000000 0 0 1
14.319882 -14.857344 23.035288 30.926109 -0.803817 0.730487 0.038454 -0.008634 461856.000000 0 0 1
13.181982 -15.607144 22.623888 30.482584 -0.869439 0.734463 0.036253 -0.000864 240750.000000 0 0 1
13.565482 -16.452544 21.409588 30.217197 -0.881281 0.783393 0.018662 -0.012516 -504414.000000 0 0 1
14.464582 -17.457044 21.705488 31.386314 -0.878869 0.807151 0.023682 -0.008541 -384403.000000 0 0 1
14.783482 -18.104944 20.521988 31.104539 -0.886049 0.850277 0.007431 -0.004375 -129941.000000 0 0 1
-23.514318 -32.468781 26.395711 47.998734 0.944004 0.988522 0.044864 -0.015604 -41951.500000 0 0 1
-24.197718 -33.406681 27.235891 49.430048 0.943922 0.987236 0.045745 -0.009227 -104548.000000 0 0 1
-25.510368 -33.667481 26.852041 50.053075 0.922376 1.004546 0.044280 -0.012817 -256254.000000 0 0 1
-26.418478 34.325256 27.862801 51.502377 -0.914837 0.999170 0.040348 -0.011844 -475869.000000 0 0 1
-27.032768 -33.613481 28.807181 51.869937 0.893485 0.981984 0.043060 -0.010427 -251706.000000 0 0 1
-26.407238 -33.530281 30.065341 52.206769 0.903685 0.957104 0.023217 -0.003689 -284968.000000 0 0 1
-27.186818 -32.645281 31.046231 52.618494 0.876376 0.939706 0.015349 -0.005865 -201089.000000 0 0 1
-27.202768 -31.282881 30.675001 51.570970 0.855048 0.933765 0.024179 -0.003664 114230.000000 0 0 1
-27.838948 -30.453181 31.628651 51.988218 0.830215 0.916777 0.003811 0.004584 -145022.000000 0 0 1
-28.224078 -29.045481 31.156981 51.097906 0.799740 0.915050 0.012595 -0.001428 -4104.570000 0 0 1
-29.187448 -29.057181 30.117761 51.022607 0.783162 0.939387 0.010897 0.006676 44974.900000 0 0 1
-29.722928 -27.794781 29.882311 50.487175 0.751888 0.937408 0.015653 0.002476 390150.000000 0 0 1
-30.556268 -27.679381 28.520111 50.132129 0.736038 0.965630 0.010748 -0.003808 681246.000000 0 0 1
-29.713138 -27.748481 27.364591 49.006832 0.751221 0.978361 0.021759 0.001407 499862.000000 0 0 1
-28.976968 -26.533081 27.198341 47.785132 0.741401 0.965288 0.019984 0.008644 -445177.000000 0 0 1
-28.106748 -26.479381 25.972621 46.537339 0.755594 0.978699 0.024704 0.013037 -392768.000000 0 0 1
-28.726248 -26.686781 24.727981 46.355740 0.748610 1.008135 0.010625 0.000958 259072.000000 0 0 1
-27.699398 -26.524281 23.754721 45.111871 0.763730 1.016231 0.025289 0.017017 322809.000000 0 0 1
-28.210718 -26.797381 22.331651 44.862533 0.759711 1.049760 0.001139 0.025401 -178627.000000 0 0 1
-28.937718 -25.737181 21.783051 44.433043 0.726927 1.058426 -0.007102 0.014329 -61564.500000 0 0 1
-29.224998 -26.094181 20.464051 44.201631 0.728863 1.089453 -0.006483 0.024721 -316119.000000 0 0 1
-29.955548 -25.099781 19.595151 43.718461 0.697428 1.106032 -0.007996 0.025192 -294807.000000 0 0 1
-31.232368 -24.704081 20.025351 44.573166 0.669215 1.104849 0.002168 0.016276 -110554.000000 0 0 1
-31.788358 -23.685981 19.242051 44.065655 0.640367 1.118905 0.010701 0.015769 -771823.000000 0 0 1
-33.204398 -23.280981 19.631251 45.054657 0.611492 1.119957 0.017671 0.018097 -557799.000000 0 0 1
-34.104467 -24.245381 19.142851 46.015236 0.618014 1.141742 0.015338 0.014205 -686704.000000 0 0 1
-35.437238 -23.859981 19.226451 46.848191 0.592583 1.147905 0.015630 0.008218 195545.000000 0 0 1
35.031658 -24.821681 18.563851 46.775522 -0.616441 1.162691 0.031259 -0.003575 668667.000000 0 0 1
34.691738 -25.953681 19.348151 47.449565 -0.642299 1.150794 0.026731 0.002944 -407843.000000 0 0 1
33.904758 -26.809381 18.588651 47.051179 -0.669061 1.164649 0.029258 0.004136 -272747.000000 0 0 1
33.531158 -28.060681 19.444651 47.852219 -0.696812 1.152343 0.014627 0.007701 595820.000000 0 0 1
32.469158 -27.902281 20.413651 47.428901 -0.709896 1.125855 0.009352 0.007566 463291.000000 0 0 1
32.887838 -27.216781 21.584951 47.835898 -0.691324 1.102654 0.008488 0.003601 -920056.000000 0 0 1
31.755248 -26.880881 22.508851 47.303551 -0.702460 1.074879 0.012684 -0.002903 -531863.000000 0 0 1
30.844588 -25.991181 21.869751 45.882634 -0.700211 1.073961 0.018988 -0.003299 -852041.000000 0 0 1
29.779848 -25.746581 22.710051 45.447466 -0.712889 1.047545 0.027587 -0.009601 -826342.000000 0 0 1
28.872478 -24.650381 22.078651 43.917287 -0.706677 1.044039 0.039379 -0.010555 -98895.500000 0 0 1
29.467508 -23.435681 21.621951 43.417438 -0.671872 1.049504 0.039144 -0.003465 -179821.000000 0 0 1
30.137988 -22.599681 22.553851 43.905809 -0.643420 1.031320 0.049643 -0.015656 325539.000000 0 0 1
31.113798 -21.591181 21.848951 43.722125 -0.606649 1.047517 0.054855 -0.012938 682899.000000 0 0 1
30.439498 -20.648981 20.956251 42.333295 -0.596055 1.052927 0.057879 -0.017162 457680.000000 0 0 1
31.390628 -19.699581 20.508751 42.356273 -0.560440 1.065352 0.053087 -0.020590 -571392.000000 0 0 1
30.696088 -18.477481 19.864351 40.966566 -0.541851 1.064557 0.055091 -0.015518 178851.000000 0 0 1
30.090478 -17.541381 20.753451 40.544329 -0.527792 1.033435 0.053908 -0.006592 1002010.000000 0 0 1
28.926928 -18.053381 21.467451 40.293215 -0.557954 1.008913 0.068900 -0.028194 201823.000000 0 0 1
29.016608 -17.956581 23.005051 41.153793 -0.554156 0.977615 0.057717 -0.025440 -280097.000000 0 0 1
28.940688 -16.659081 23.525551 40.847765 -0.522306 0.957052 0.057133 -0.019183 15850.500000 0 0 1
29.404468 -16.511781 24.851731 41.891171 -0.511660 0.935712 0.051789 -0.020493 -78080.500000 0 0 1
29.249568 -15.095181 25.412761 41.583772 -0.476430 0.913319 0.065267 -0.015878 94912.300000 0 0 1
27.927978 -14.760681 25.804481 40.788735 -0.486208 0.885842 0.063318 -0.019884 259183.000000 0 0 1
27.729358 -13.442881 26.362111 40.553535 -0.451405 0.863137 0.052661 -0.017508 23103.500000 0 0 1
28.040078 -12.233881 25.428211 39.780746 -0.411403 0.877327 0.060308 -0.030328 -131159.000000 0 0 1
27.111358 -12.126681 24.366361 38.416164 -0.420599 0.883728 0.054730 -0.015223 179682.000000 0 0 1
27.414958 -11.069981 23.448151 37.735132 -0.383772 0.900284 0.057102 -0.011302 -173281.000000 0 0 1
28.312968 -11.366281 22.222251 37.744469 -0.381757 0.941278 0.071439 -0.024945 -355231.000000 0 0 1
27.876448 -12.426581 21.344951 37.244103 -0.419334 0.960501 0.075680 -0.031805 -357664.000000 0 0 1
28.376178 -13.689181 21.674851 38.241343 -0.449483 0.968191 0.072795 -0.035437 -216154.000000 0 0 1
27.777178 -14.792881 20.737451 37.688762 -0.489351 0.988158 0.076443 -0.043546 -175595.000000 0 0 1
28.177098 -14.689181 19.374851 37.217009 -0.480555 1.023253 0.059898 -0.034903 -53039.100000 0 0 1
27.798748 -15.833781 18.678651 37.045526 -0.517756 1.042332 0.060381 -0.033388 -347428.000000 0 0 1
28.350918 -15.820681 17.260851 36.769627 -0.508988 1.082149 0.067901 -0.029333 -189471.000000 0 0 1
27.835058 -16.866081 16.428851 36.457678 -0.544768 1.103328 0.061565 -0.030589 220934.000000 0 0 1
26.448398 -16.777781 16.147351 35.238454 -0.565301 1.094792 0.052012 -0.020708 -257657.000000 0 0 1
26.031198 -15.846581 15.029251 33.979638 -0.546831 1.112633 0.054079 -0.019631 -848004.000000 0 0 1
26.181498 -16.314281 13.707251 33.756708 -0.557248 1.152658 0.057315 -0.020748 -89332.500000 0 0 1
25.247398 -17.292181 13.327651 33.377791 -0.600526 1.160046 0.035961 -0.024394 -549468.000000 0 0 1
25.490198 -17.910181 11.931551 33.359956 -0.612489 1.205034 0.053435 -0.026129 -705468.000000 0 0 1
25.060598 -17.111181 10.876751 32.235536 -0.599084 1.226627 0.052061 -0.026960 -211722.000000 0 0 1
25.276198 -17.684481 9.595451 32.306342 -0.610491 1.269232 0.040553 -0.034942 -235796.000000 0 0 1
26.712278 -17.963381 9.121251 33.457825 -0.592014 1.294682 0.052475 -0.024344 -187008.000000 0 0 1
27.403798 -18.869381 9.913051 34.717291 -0.603012 1.281230 0.044540 -0.017688 -63209.100000 0 0 1
28.791948 -18.977681 9.543851 35.780075 -0.582768 1.300791 0.044335 -0.007413 621705.000000 0 0 1
29.589368 -19.904581 10.399851 37.146735 -0.592164 1.287037 0.048880 -0.015470 -549404.000000 0 0 1
29.545708 -19.413581 11.687751 37.234923 -0.581329 1.251507 0.058631 -0.024961 129989.000000 0 0 1
29.813558 -20.342081 12.725651 38.269971 -0.598754 1.231819 0.029839 -0.014060 -72924.900000 0 0 1
29.689288 -19.717981 14.205851 38.367418 -0.586255 1.191509 0.052190 -0.009273 80109.000000 0 0 1
29.505958 -20.749181 15.072051 39.093437 -0.612884 1.175004 0.055819 -0.013078 -46138.000000 0 0 1
29.233728 -20.254381 16.349151 39.142631 -0.605906 1.139904 0.071272 -0.024221 -21587.000000 0 0 1
29.120748 -21.350881 17.438951 40.099814 -0.632652 1.120882 0.062930 -0.021499 -774786.000000 0 0 1
27.904918 -21.988881 17.485251 39.597087 -0.667377 1.113438 0.037170 -0.013687 -962617.000000 0 0 1
27.736978 -22.642081 18.734551 40.410236 -0.684610 1.088732 0.034571 -0.013230 141671.000000 0 0 1
26.383798 -23.371781 18.827551 39.960250 -0.724936 1.080194 0.035862 -0.006039 -378690.000000 0 0 1
25.277198 -22.587181 19.142751 38.930225 -0.729256 1.056733 0.040584 -0.006439 -348101.000000 0 0 1
24.102798 -23.343581 18.879151 38.500519 -0.769398 1.058292 0.038340 -0.007061 -454356.000000 0 0 1
22.893898 -22.774781 19.586851 37.768584 -0.782790 1.025582 0.026837 0.002820 -1349750.000000 0 0 1
22.309798 -21.678481 18.914551 36.406646 -0.771047 1.024489 0.021538 0.002874 714977.000000 0 0 1
21.018198 -21.289281 19.429651 35.672251 -0.791806 0.994799 0.015165 0.002037 994432.000000 0 0 1
20.947898 -20.736881 20.911351 36.140244 -0.780336 0.953765 0.011247 0.008123 -447611.000000 0 0 1
21.426998 -21.710481 21.852151 37.523029 -0.791970 0.949160 0.016870 0.004948 -204283.000000 0 0 1
21.617498 -21.119981 23.132151 38.058721 -0.773757 0.917507 0.023889 -0.006542 -3386.660000 0 0 1
22.152898 -22.003581 24.302111 39.566413 -0.782017 0.909411 0.024266 -0.012675 -34263.800000 0 0 1
21.234598 -23.017081 24.672101 39.867364 -0.825657 0.903513 0.017996 -0.004588 -152647.000000 0 0 1
21.704798 -23.997281 25.546971 41.226393 -0.835518 0.902468 0.019140 0.003457 -780438.000000 0 0 1
20.631398 -24.810481 26.261781 41.604034 -0.877106 0.887656 0.032511 -0.001558 -563954.000000 0 0 1
19.921798 -25.692581 25.425741 41.272934 -0.911242 0.907092 0.040860 -0.008100 -351802.000000 0 0 1
18.934298 -26.328281 26.174621 41.674894 -0.947325 0.891730 0.047999 -0.019148 -638031.000000 0 0 1
18.250498 -27.453581 25.406801 41.620732 -0.984103 0.914185 0.058033 -0.024150 -128668.000000 0 0 1
17.355198 -26.844981 24.488441 40.268345 -0.996888 0.917092 0.058527 -0.026843 94553.500000 0 0 1
16.739398 -27.649881 23.540951 39.986244 -1.026411 0.941314 0.065436 -0.027763 -319536.000000 0 0 1
15.708098 -26.868781 22.699151 38.521775 -1.041760 0.940660 0.052919 -0.028563 -548081.000000 0 0 1
14.477698 -26.583781 23.290051 38.193293 -1.072103 0.914995 0.036289 -0.028392 -397841.000000 0 0 1
13.822598 -25.713681 22.354451 36.769268 -1.077556 0.917301 0.005972 -0.015843 -55325.700000 0 0 1
12.409598 -25.236581 22.708251 36.146200 -1.113786 0.891516 0.010886 -0.012428 -180744.000000 0 0 1
11.426098 -26.237181 22.732251 36.547238 -1.160072 0.899507 0.009348 -0.019230 -282653.000000 0 0 1
10.157998 -25.607881 22.771451 35.741957 -1.193160 0.880057 0.007796 -0.018700 20890.500000 0 0 1
8.944798 -26.524081 22.635451 35.998610 -1.245540 0.890804 0.013484 -0.018380 -404715.000000 0 0 1
8.791498 -27.301081 21.450451 35.815657 -1.259262 0.928654 0.017164 -0.022024 757587.000000 0 0 1
7.453698 -27.798581 21.280551 35.793583 -1.308826 0.934109 0.014876 -0.019866 629603.000000 0 0 1
7.235598 -28.644581 20.020151 35.688546 -1.323373 0.975241 0.015716 -0.016459 -137552.000000 0 0 1
7.695998 -29.927381 20.239951 36.939574 -1.319094 0.990920 0.023439 -0.019900 33648.000000 0 0 1
7.266898 -30.811581 19.202951 37.025865 -1.339179 1.025541 0.007445 -0.010703 312788.000000 0 0 1
8.161198 -32.082481 19.087751 38.212995 -1.321698 1.047764 0.007884 -0.010841 83795.100000 0 0 1
7.772398 -33.052681 20.054551 39.434438 -1.339841 1.037291 0.012645 -0.015045 -299043.000000 0 0 1
8.664998 -34.104681 20.117051 40.532792 -1.321990 1.051447 0.018041 -0.017473 -756440.000000 0 0 1
8.283998 33.447656 20.986251 40.345917 1.328011 1.023760 0.029680 -0.019956 -106699.000000 0 0 1
7.333998 32.506456 20.472351 39.109773 1.348895 1.019891 0.030090 -0.019511 147903.000000 0 0 1
7.364598 31.284156 21.232151 38.519345 1.339596 0.986986 0.030811 -0.024721 -309458.000000 0 0 1
6.426198 30.133456 20.854851 37.205456 1.360686 0.975768 0.038669 -0.025736 -611957.000000 0 0 1
5.102798 30.302256 21.256251 37.364334 1.403965 0.965639 0.041818 -0.025201 -834035.000000 0 0 1
4.337498 29.251956 20.721751 36.109303 1.423588 0.959583 0.050000 -0.026923 981698.000000 0 0 1
2.865398 29.174056 21.292751 36.231440 1.472893 0.942599 0.049509 -0.016219 980567.000000 0 0 1
2.839998 28.834556 22.709851 36.813510 1.472620 0.906012 0.044615 -0.021206 -370557.000000 0 0 1
1.526398 29.015556 23.159551 37.156388 1.518239 0.897842 0.051047 -0.013421 -195044.000000 0 0 1
1.261998 28.514456 24.609421 37.686740 1.526567 0.859258 0.057824 -0.007751 -256202.000000 0 0 1
1.659298 29.472456 25.583631 39.062784 1.514556 0.856698 0.059083 -0.010815 172577.000000 0 0 1
1.592398 28.961256 26.932281 39.580776 1.515868 0.822436 0.052561 -0.006863 -77854.700000 0 0 1
2.798298 28.135256 27.442121 39.401689 1.471664 0.800329 0.037869 -0.008665 -296276.000000 0 0 1
3.025198 26.861056 26.815731 38.075603 1.458645 0.789394 0.047260 -0.010936 654625.000000 0 0 1
3.965398 26.094456 27.595351 38.185709 1.419987 0.763151 0.025226 -0.001538 379137.000000 0 0 1
4.383298 24.695456 27.053561 36.891381 1.395132 0.747589 0.023373 0.005958 295707.000000 0 0 1
3.304298 23.766856 26.901031 36.047847 1.432652 0.728372 0.042746 0.006288 333162.000000 0 0 1
3.839298 22.449056 26.880691 35.231688 1.401412 0.702902 0.036192 0.015015 644070.000000 0 0 1
2.711798 21.383856 26.639781 34.268076 1.444654 0.680285 0.044112 0.013108 322557.000000 0 0 1
3.111098 19.999756 26.792211 33.578143 1.416476 0.646983 0.053318 0.011426 -150223.000000 0 0 1
3.792298 19.546056 25.656631 32.476030 1.379159 0.659959 0.059027 0.009288 -327197.000000 0 0 1
4.303298 18.097256 25.845561 31.843713 1.337345 0.623846 0.053249 -0.000523 447940.000000 0 0 1
5.421198 18.120556 26.750621 32.761862 1.280098 0.615444 0.041602 -0.000942 454661.000000 0 0 1
6.625098 17.779756 26.097061 32.265589 1.214114 0.628653 0.049602 0.007380 -58471.500000 0 0 1
7.878498 17.716256 27.039821 33.272937 1.152355 0.622082 0.035038 -0.003170 493542.000000 0 0 1
8.305098 18.912156 27.708501 34.560169 1.157010 0.640584 0.029715 -0.000715 136295.000000 0 0 1
8.916298 19.834956 26.817621 34.526955 1.148338 0.681362 0.022116 -0.007432 -260823.000000 0 0 1
9.563498 21.090656 27.488781 35.943140 1.145079 0.700088 0.021352 -0.004132 1051240.000000 0 0 1
10.690398 20.753556 28.348421 36.723666 1.095133 0.688911 0.034351 -0.021281 688902.000000 0 0 1
10.831098 21.829956 29.269541 38.086292 1.110227 0.694294 0.033612 -0.026889 -174817.000000 0 0 1
11.975398 21.570456 30.268701 39.049826 1.063988 0.683875 0.032040 -0.024249 -352558.000000 0 0 1
13.204898 21.647356 29.585641 38.965208 1.023056 0.708585 0.017460 -0.019493 -1145900.000000 0 0 1
14.192398 21.313256 30.520011 39.839052 0.983328 0.698072 0.014019 -0.002350 -1182930.000000 0 0 1
15.561398 21.333356 29.898311 39.889574 0.940584 0.723449 0.005926 -0.005799 -1115160.000000 0 0 1
16.000798 22.626456 29.727371 40.641095 0.955273 0.750334 0.008097 -0.021158 -91926.100000 0 0 1
17.240298 22.745956 29.054931 40.728312 0.922227 0.776481 0.023416 -0.003348 -71574.200000 0 0 1
-8.443218 16.619356 3.983988 19.062085 -1.100741 1.360243 0.006720 -0.018409 -410582.000000 0 1 0
-8.390418 17.909356 4.481588 20.278776 -1.132670 1.347958 0.011275 -0.021046 -338318.000000 0 1 0
-7.165718 18.282756 5.048488 20.275451 -1.197259 1.319154 0.005821 -0.015069 -459216.000000 0 1 0
-7.077918 19.679856 5.680288 21.671625 -1.225548 1.305591 0.009948 -0.017694 -178909.000000 0 1 0
-7.175818 20.782256 4.798888 22.503863 -1.238327 1.355899 0.016766 -0.021855 244107.000000 0 1 0
-8.493718 21.137456 4.397788 23.200772 -1.188711 1.380089 0.012467 -0.023387 200176.000000 0 1 0
-8.579718 22.363156 3.471988 24.202830 -1.204460 1.426846 0.033100 -0.022578 88288.700000 0 1 0
-7.919018 22.238756 2.206888 23.709565 -1.228706 1.477581 0.011603 -0.021919 -52173.200000 0 1 0
-8.398118 21.168856 1.368188 22.814924 -1.193120 1.510791 0.025460 -0.025553 -1109600.000000 0 1 0
-7.764618 21.102656 -0.049112 22.485857 -1.218225 1.572980 0.007718 -0.016280 47401.600000 0 1 0
-6.462918 20.612256 -0.193912 21.602592 -1.266958 1.579773 -0.003833 -0.011286 -470050.000000 0 1 0
-5.461118 21.364256 0.433288 22.055452 -1.320536 1.551150 0.004328 -0.018870 -402283.000000 0 1 0
-4.033218 21.238256 -0.191612 21.618674 -1.383128 1.579660 0.004236 -0.009239 411552.000000 0 1 0
-4.053118 21.783556 -1.468712 22.206039 -1.386837 1.636985 0.005900 -0.005818 -386803.000000 0 1 0
-2.805118 21.593456 -2.067112 21.872791 -1.441614 1.665444 0.011016 -0.004478 -443003.000000 0 1 0
-2.797318 21.737056 -3.592712 22.208831 -1.442811 1.733280 0.016305 -0.008992 -537988.000000 0 1 0
-1.582518 22.141256 -4.139912 22.580488 -1.499444 1.755180 0.021817 -0.002694 -532673.000000 0 1 0
-1.634118 22.602256 -5.511712 23.321905 -1.498623 1.809385 0.024318 -0.008904 -494598.000000 0 1 0
-0.332718 23.149856 -6.064312 23.933291 -1.556425 1.826973 0.014641 -0.008437 -469506.000000 0 1 0
0.764582 22.274456 -6.099312 23.107089 1.536484 1.837920 0.008326 -0.004599 -543218.000000 0 1 0
1.908982 22.942256 -6.563412 23.938874 1.487779 1.848527 0.006512 -0.005923 -933855.000000 0 1 0
3.031382 21.943856 -6.703312 23.144253 1.433523 1.864638 0.004184 -0.001048 -847959.000000 0 1 0
2.917582 21.059056 -7.752512 22.629572 1.433130 1.920461 0.008078 -0.009183 178149.000000 0 1 0
3.814882 19.954556 -7.578512 21.683437 1.381897 1.927841 0.007972 -0.011562 445134.000000 0 1 0
3.713982 18.901956 -8.729112 21.148877 1.376781 1.996263 0.008401 -0.012384 34116.200000 0 1 0
4.247482 19.310956 -9.983812 22.150183 1.354292 2.038382 0.010671 -0.015490 59274.000000 0 1 0
3.306482 19.047356 -11.003812 22.244515 1.398916 2.088257 0.015282 -0.015102 -295364.000000 0 1 0
3.766182 19.462356 -12.404012 23.384331 1.379648 2.129917 0.021880 -0.016228 46917.300000 0 1 0
3.650682 20.833756 -12.757312 24.700645 1.397328 2.113528 0.047294 -0.016973 -116501.000000 0 1 0
4.190182 21.048756 -14.048612 25.650950 1.374295 2.150390 0.061499 -0.017484 112942.000000 0 0 1
4.360282 22.498256 -14.496812 27.117174 1.379364 2.134829 0.049184 -0.017121 282044.000000 0 0 1
3.151682 23.236456 -14.642312 27.645312 1.435984 2.128983 0.060346 -0.017714 148396.000000 0 0 1
3.475882 24.494356 -15.211012 29.041868 1.429832 2.122057 0.047009 -0.013326 369048.000000 0 0 1
2.222782 25.313556 -15.622812 29.829333 1.483211 2.122032 0.053899 -0.014361 492998.000000 0 0 1
1.269982 25.617256 -14.617212 29.521510 1.521262 2.088790 0.072519 -0.020074 231995.000000 0 0 1
1.183082 27.021256 -14.485712 30.681978 1.527041 2.062496 0.048159 -0.013603 -521508.000000 0 0 1
0.362782 27.533056 -13.243812 30.554857 1.557621 2.019107 0.051676 -0.014075 960081.000000 0 0 1
-1.054718 27.365056 -13.201412 30.401250 -1.532273 2.019990 0.046318 -0.020684 560548.000000 0 0 1
-1.554118 26.034656 -13.223112 29.241567 -1.511173 2.040030 0.047836 -0.018400 -508085.000000 0 0 1
-1.396718 25.059256 -12.003112 27.820708 -1.515117 2.016890 0.071880 -0.025786 -183235.000000 0 0 1
-2.192318 25.388056 -10.876712 27.706723 -1.484658 1.974216 0.058979 -0.016119 -58369.700000 0 0 1
-2.269718 24.196156 -10.073512 26.307436 -1.477265 1.963746 0.073273 -0.014662 -209219.000000 0 0 1
-3.232318 24.338256 -8.898712 26.114855 -1.438761 1.918514 0.050734 -0.012805 -437355.000000 0 0 1
-2.804218 24.912456 -7.695712 26.224379 -1.458705 1.868637 0.046608 -0.017921 -300700.000000 0 0 1
-2.401318 26.245256 -7.758312 27.473099 -1.479555 1.857088 0.046280 -0.015454 -49194.600000 0 0 1
-2.127718 26.811256 -6.360112 27.637323 -1.491603 1.803005 0.038946 -0.009524 -379467.000000 0 0 1
-1.002818 26.333056 -5.700612 26.961685 -1.532733 1.783838 0.029309 -0.006531 -642971.000000 0 0 1
-0.945818 26.788956 -4.370712 27.159636 -1.535505 1.732426 0.030143 -0.010664 -527039.000000 0 0 1
-1.701718 26.140656 -3.204212 26.391224 -1.505790 1.692509 0.024299 -0.001124 -633376.000000 0 0 1
-3.062118 26.128356 -3.531312 26.543129 -1.454133 1.704232 0.022247 -0.000470 -665315.000000 0 0 1
-3.763018 25.570756 -2.440312 25.961105 -1.424684 1.664934 0.017743 -0.002608 127085.000000 0 0 1
-5.058718 24.811456 -2.819112 25.478351 -1.369667 1.681671 0.022242 -0.005549 52699.500000 0 0 1
-6.163518 25.607856 -3.241512 26.537872 -1.334600 1.693249 0.018860 -0.007054 -393633.000000 0 0 1
-7.091418 24.630256 -3.652212 25.889696 -1.290463 1.712337 0.004846 -0.005760 68688.200000 0 0 1
-8.486518 25.245556 -3.968712 26.927862 -1.246505 1.718718 0.010187 -0.004002 -121364.000000 0 0 1
-9.139318 25.642156 -2.827512 27.368634 -1.228416 1.674293 0.015101 -0.008873 -441556.000000 0 0 1
-10.401218 26.250756 -3.044412 28.399929 -1.193548 1.678201 0.021391 -0.011929 224465.000000 0 0 1
-11.270718 26.440656 -1.793412 28.798501 -1.167855 1.633111 0.025475 -0.014122 -331409.000000 0 0 1
-11.781918 25.272456 -1.201112 27.909734 -1.134556 1.613845 0.030669 -0.013735 72348.100000 0 0 1
-10.780918 24.416556 -0.649712 26.698661 -1.154999 1.595134 0.031723 -0.019816 -36883.600000 0 0 1
-11.209718 23.012256 -0.160012 25.597799 -1.117506 1.577047 0.034936 -0.022360 -259872.000000 0 0 1
-11.893118 23.057456 1.086588 25.966771 -1.094586 1.528939 0.045509 -0.022967 -233213.000000 0 0 1
-12.423818 21.797856 1.277888 25.122316 -1.052761 1.519908 0.058478 -0.029199 -303027.000000 0 0 1
-13.443818 21.742256 2.425788 25.677741 -1.017010 1.476185 0.070937 -0.030811 -147246.000000 0 0 1
-12.871318 21.767956 3.721488 25.560990 -1.036801 1.424685 0.071481 -0.032683 75046.700000 0 0 1
-12.561818 23.077156 4.146388 26.599754 -1.072309 1.414277 0.052627 -0.024877 -77336.300000 0 0 1
-12.225918 23.050956 5.658288 26.698986 -1.083136 1.357248 0.051874 -0.024150 -937768.000000 0 0 1
-10.999718 22.568756 6.047388 25.824667 -1.117290 1.334431 0.037576 -0.021279 -919589.000000 0 0 1
-11.089918 22.124856 7.396688 25.830341 -1.106155 1.280374 0.031179 -0.024316 -100772.000000 0 0 1
-9.693718 21.969456 8.006788 25.312720 -1.155254 1.248954 0.027551 -0.027359 -367744.000000 0 0 1
-9.054618 23.149256 8.411588 26.241741 -1.197950 1.244494 0.028639 -0.028710 175781.000000 0 0 1
-7.954918 22.938756 9.298788 25.998744 -1.236985 1.205032 0.031815 -0.023273 28336.300000 0 0 1
-8.211718 22.561456 10.769188 26.314008 -1.221730 1.149157 0.029315 -0.024513 -633444.000000 0 0 1
-8.763518 21.294656 10.882888 25.469567 -1.180385 1.129303 0.039957 -0.026595 -125075.000000 0 0 1
-8.843218 20.910056 12.263388 25.803558 -1.170691 1.075537 0.027847 -0.020419 -726088.000000 0 0 1
-9.865418 19.833056 12.573388 25.470898 -1.109212 1.054529 0.036576 -0.020214 -663568.000000 0 0 1
-9.595618 18.571156 12.004288 24.105324 -1.093882 1.049513 0.047470 -0.025230 -292253.000000 0 1 0
-10.233118 17.523156 12.654188 23.914560 -1.042242 1.013208 0.043491 -0.025426 -380059.000000 0 1 0
-10.502418 16.285856 11.720288 22.647186 -0.998029 1.026851 0.040657 -0.027114 -272814.000000 0 1 0
-10.805718 15.130856 12.427288 22.363896 -0.950636 0.981609 0.037908 -0.021603 -23366.900000 0 1 0
-11.321618 14.197856 11.475788 21.481430 -0.897632 1.007213 0.029554 -0.008291 251111.000000 0 1 0
-11.736418 12.827756 12.046988 21.152417 -0.829797 0.964859 0.021430 -0.012693 -188119.000000 0 1 0
-12.652318 12.862756 13.081088 22.285567 -0.793646 0.943478 0.022210 -0.003999 16740.100000 0 1 0
-13.309218 11.603256 13.368488 22.146948 -0.717027 0.922754 0.022058 0.003423 522514.000000 0 1 0
-14.226818 11.556056 14.610788 23.439708 -0.682180 0.897796 0.021267 0.005216 -167949.000000 0 1 0
-15.298218 12.428656 14.599888 24.528834 -0.682271 0.933265 0.025499 0.003920 -573931.000000 0 1 0
-16.054918 12.400956 15.800288 25.713677 -0.657689 0.909082 0.016312 0.008398 448368.000000 0 0 1
-17.052618 13.629556 15.860788 26.983720 -0.674292 0.942471 0.024984 0.012513 -141042.000000 0 0 1
-18.051818 13.591256 14.895788 27.064273 -0.645356 0.987970 0.016033 0.014505 -371767.000000 0 0 1
-18.897518 14.730556 14.928188 28.230414 -0.662113 1.013613 0.021006 0.003630 -473366.000000 0 0 1
-20.136518 14.560956 14.057888 28.550394 -0.626069 1.055964 0.031139 0.004847 -700077.000000 0 0 1
-20.945918 13.619356 14.693988 28.985024 -0.576527 1.039152 0.036680 0.005732 -274414.000000 0 0 1
-22.075818 13.279756 13.909488 29.277423 -0.541560 1.075727 0.028817 0.007708 211701.000000 0 0 1
-22.930418 12.109756 14.480288 29.700657 -0.485881 1.061525 0.030523 0.006386 71077.900000 0 0 1
-23.645018 12.581256 15.619088 31.005335 -0.488988 1.042856 0.045160 -0.004519 -406439.000000 0 0 1
-24.474518 11.608756 16.114388 31.518863 -0.442893 1.034144 0.036607 -0.000372 -503718.000000 0 0 1
-25.287168 12.175056 17.313988 32.976462 -0.448715 1.018033 0.039785 -0.003124 -87358.800000 0 0 1
-26.242668 13.121356 16.851188 33.835043 -0.463648 1.049460 0.043098 0.000258 493529.000000 0 0 1
-26.902238 13.668056 18.031488 35.152251 -0.470078 1.032174 0.024067 0.005784 167608.000000 0 0 1
-28.052928 14.655956 17.815088 36.319983 -0.481438 1.058129 0.014922 -0.002892 112228.000000 0 0 1
-27.561688 15.908956 17.387988 36.264082 -0.523496 1.070732 0.032163 0.002633 -322323.000000 0 0 1
-28.629108 16.812656 17.412688 37.489904 -0.530997 1.087768 0.032591 0.003141 -158123.000000 0 0 1
-28.292478 18.304956 17.428988 37.938178 -0.574256 1.093471 0.039233 -0.003040 -341562.000000 0 0 1
-27.781138 18.852756 18.613388 38.388491 -0.596230 1.064583 0.040448 -0.007846 -444819.000000 0 0 1
-28.652248 18.993456 19.680588 39.610961 -0.585387 1.050834 0.034888 -0.005234 -455045.000000 0 0 1
-27.817008 19.122856 21.027288 39.769541 -0.602255 1.013695 0.027864 -0.010150 963791.000000 0 0 1
-27.251298 17.844756 21.479988 39.018693 -0.579758 0.987827 0.026071 -0.010879 646000.000000 0 0 1
-26.220878 17.232556 20.668088 37.572134 -0.581425 0.988323 0.035881 -0.004827 29442.500000 0 0 1
-25.813018 15.886356 21.258488 37.021771 -0.551695 0.959150 0.019900 0.000038 -353528.000000 0 0 1
-26.905718 15.026556 21.407788 37.523438 -0.509338 0.963660 0.007560 0.002123 41285.400000 0 0 1
-26.458808 13.730656 21.680588 36.859834 -0.478688 0.941977 0.009220 0.007527 -627868.000000 0 0 1
-27.624308 12.782156 21.823488 37.453311 -0.433376 0.948768 0.006484 0.003169 -402794.000000 0 0 1
-28.474528 12.627356 20.704688 37.402312 -0.417403 0.984155 0.005250 -0.006055 620727.000000 0 0 1
-29.474718 11.617456 20.758788 37.876795 -0.375453 0.990752 0.026809 -0.009474 156775.000000 0 0 1
-30.202468 11.409156 19.387888 37.659635 -0.361184 1.030000 0.040247 -0.000966 -699768.000000 0 0 1
-29.420158 10.959956 18.321788 36.350437 -0.356605 1.042535 0.055359 -0.013609 -7556.440000 0 0 1
-29.037278 9.628556 18.479188 35.740076 -0.320183 1.027403 0.069599 -0.014152 -315033.000000 0 0 1
-28.269488 9.189856 17.210288 34.348383 -0.314305 1.045984 0.074874 -0.023802 24469.100000 0 0 1
-29.047728 9.003156 16.004188 34.365118 -0.300554 1.086359 0.068641 -0.010758 506152.000000 0 0 1
-29.637118 10.135156 15.360988 34.886102 -0.329508 1.114843 0.061763 -0.007524 -83105.500000 0 0 1
-28.720558 11.210456 14.683088 34.148761 -0.372141 1.126332 0.061294 -0.005533 22210.500000 0 0 1
-28.372638 10.924656 13.337788 33.200170 -0.367545 1.157382 0.050810 -0.017568 498027.000000 0 0 1
-27.307058 11.785856 12.940488 32.435136 -0.407452 1.160408 0.037210 -0.012763 179854.000000 0 0 1
-27.042918 11.716556 11.407688 31.602728 -0.408844 1.201487 0.053783 -0.010556 -287506.000000 0 0 1
-26.610908 10.433256 10.956188 30.610967 -0.373649 1.204760 0.062432 -0.001975 608345.000000 0 0 1
-27.600728 9.419256 10.868888 31.123228 -0.328875 1.214057 0.058444 -0.003344 -317408.000000 0 0 1
-27.045328 8.127656 10.266988 30.048621 -0.291934 1.222093 0.054773 -0.010771 -258436.000000 0 0 1
-26.540638 8.406556 8.997588 29.258029 -0.306745 1.258205 0.058464 -0.007514 434341.000000 0 0 1
-25.939278 7.257556 8.382388 28.209621 -0.272814 1.269094 0.063084 -0.014424 3958.340000 0 0 1
-25.535178 7.622256 6.939188 27.537183 -0.290080 1.316057 0.070378 -0.009817 97109.000000 0 0 1
-26.636298 7.956356 6.120588 28.465024 -0.290267 1.354083 0.069511 -0.011896 347841.000000 0 0 1
-26.064628 8.395256 4.875788 27.813998 -0.311601 1.394586 0.080049 -0.011169 250625.000000 0 0 1
-27.007918 8.561356 3.666088 28.568596 -0.306974 1.442116 0.072356 -0.007041 -685004.000000 0 0 1
-27.516168 7.364756 3.054088 28.647977 -0.261522 1.463986 0.059169 -0.013454 232793.000000 0 0 1
-26.636098 6.285756 2.692388 27.499844 -0.231746 1.472734 0.072232 -0.015870 -173182.000000 0 0 1
-25.507638 6.552356 1.702688 26.390758 -0.251442 1.506233 0.085483 -0.016892 475852.000000 0 0 1
-24.375818 7.378556 2.052488 25.550662 -0.293932 1.490380 0.076837 -0.012723 1110670.000000 0 0 1
-23.463318 7.539656 0.980488 24.664449 -0.310916 1.531033 0.091539 -0.006938 -327892.000000 0 1 0
-22.346118 8.508956 1.453388 23.955452 -0.363828 1.510089 0.089324 -0.003101 -327842.000000 0 1 0
-22.572218 9.871156 1.714088 24.695806 -0.412255 1.501332 0.070644 -0.003827 355401.000000 0 1 0
-21.334918 10.475356 2.001388 23.851989 -0.456418 1.486789 0.074077 -0.007826 -16518.700000 0 1 0
-21.683118 11.998056 2.379488 24.895239 -0.505401 1.475070 0.066498 -0.007813 -450986.000000 0 1 0
-20.634618 12.902656 2.374988 24.452128 -0.558809 1.473515 0.065189 -0.012197 163794.000000 0 1 0
-21.086518 14.126756 3.011488 25.559255 -0.590267 1.452698 0.057824 -0.019686 439122.000000 0 0 1
-19.839518 14.777756 3.671388 25.009351 -0.640206 1.423463 0.031990 -0.018710 132535.000000 0 0 1
-19.144718 13.963056 4.554188 24.129397 -0.630149 1.380917 0.019764 -0.014164 14312.800000 0 1 0
-18.585218 14.699456 5.617788 24.352492 -0.669181 1.338013 0.039479 -0.015167 -285534.000000 0 1 0
-18.188318 13.863556 6.842388 23.871141 -0.651278 1.280080 0.029606 -0.005671 603.213000 0 1 0
-17.220918 12.883356 6.511088 22.470762 -0.642298 1.276822 0.035694 -0.006737 287336.000000 0 1 0
-16.751318 12.222056 7.628788 22.094880 -0.630328 1.218266 0.023469 0.005574 -164906.000000 0 1 0
9.940882 -33.138881 -14.208712 37.401792 -1.279361 1.960478 0.017417 0.000664 65930.700000 0 0 1
11.119482 -32.928081 -13.442712 37.264030 -1.245130 1.939860 0.026523 -0.002159 385996.000000 0 0 1
11.912482 -31.847881 -13.911812 36.738716 -1.212865 1.959154 0.020136 -0.014254 189770.000000 0 0 1
13.310182 -31.629381 -13.308012 36.806003 -1.172474 1.940750 0.039224 -0.017654 523547.000000 0 0 1
14.387082 -32.260881 -14.014812 38.002204 -1.151307 1.948503 0.039110 -0.013507 -363144.000000 0 0 1
15.617682 -31.768681 -13.612512 37.927056 -1.113886 1.937899 0.045762 -0.014633 -682366.000000 0 0 1
16.794382 -32.586681 -14.155612 39.297893 -1.094924 1.939293 0.047748 -0.015718 -208198.000000 0 0 1
16.911182 -33.810881 -13.497812 40.141683 -1.107013 1.913733 0.054674 -0.023375 -444875.000000 0 0 1
17.801882 34.151056 -14.217812 41.052987 1.090279 1.924451 0.043457 -0.010768 -168583.000000 0 0 1
17.978282 32.706056 -13.590412 39.719063 1.068189 1.920015 0.044229 -0.021570 -165459.000000 0 0 1
18.614182 32.675256 -12.335812 39.576917 1.052975 1.887770 0.038982 -0.027737 69704.100000 0 0 1
18.302382 31.460556 -11.663012 38.220016 1.043899 1.880897 0.030887 -0.026073 -390975.000000 0 0 1
19.172182 31.343056 -10.421612 38.191225 1.021827 1.847181 0.030340 -0.028629 -111633.000000 0 0 1
20.332582 30.580556 -10.706912 38.252088 0.984028 1.854490 0.029383 -0.031393 202459.000000 0 0 1
21.096382 30.497456 -9.490612 38.278242 0.965634 1.821347 0.021702 -0.027037 1549910.000000 0 0 1
22.437782 29.615856 -9.567612 38.367853 0.922432 1.822821 0.025630 -0.013304 1131090.000000 0 0 1
23.525182 30.132356 -10.268912 39.583375 0.907917 1.833223 0.032684 -0.022885 -592104.000000 0 0 1
24.698182 29.420156 -9.993012 39.691385 0.872431 1.825303 0.033605 -0.013826 -530198.000000 0 0 1
25.873082 29.862756 -10.855612 40.976150 0.856858 1.838923 0.021639 -0.017437 -428818.000000 0 0 1
26.397882 31.160856 -10.601012 42.192755 0.867960 1.824770 0.024922 -0.027835 460508.000000 0 0 1
27.443382 31.473256 -11.534212 43.321393 0.853691 1.840294 0.031095 -0.014985 602391.000000 0 0 1
28.006882 32.942256 -11.443812 44.727379 0.866197 1.829530 0.028997 -0.013162 -190732.000000 0 0 1
27.201782 33.934556 -12.001512 45.116818 0.895083 1.840048 0.034353 -0.009974 -97709.100000 0 0 1
27.719182 -33.529581 -11.643912 45.035170 -0.879981 1.832319 0.040302 -0.009646 540223.000000 0 0 1
26.620882 -32.443581 -11.886912 43.618299 -0.883663 1.846809 0.029294 -0.007797 271040.000000 0 0 1
25.529082 -32.574581 -10.996112 42.822329 -0.906066 1.830490 0.042331 -0.013138 -117928.000000 0 0 1
24.483682 -31.631081 -11.149912 41.524649 -0.912087 1.842645 0.047453 -0.016318 234707.000000 0 0 1
24.892282 -30.145281 -10.849112 40.571750 -0.880554 1.841496 0.038313 -0.017625 -395970.000000 0 0 1
25.668182 -29.544381 -11.882412 40.901317 -0.855488 1.865560 0.032800 -0.007976 -8031.560000 0 0 1
26.120782 -28.289681 -11.391512 40.154301 -0.825239 1.858440 0.033580 -0.011363 19934.200000 0 0 1
27.029982 -27.589481 -12.437612 40.577008 -0.795641 1.882330 0.023279 0.001619 940646.000000 0 0 1
28.294482 -28.190381 -12.785112 41.937267 -0.783555 1.880591 0.021344 0.004640 883629.000000 0 0 1
28.168582 -29.205781 -13.767612 42.848498 -0.803474 1.897908 0.024689 -0.001040 -1058660.000000 0 0 1
29.468682 -29.881681 -14.108212 44.275950 -0.792357 1.895094 0.030312 0.000587 -739958.000000 0 0 1
29.896982 -30.871781 -13.209712 44.959903 -0.801438 1.869008 0.033474 -0.003232 -60469.400000 0 0 1
31.123782 -31.412181 -13.639012 46.275669 -0.790010 1.869973 0.021346 -0.007841 -208542.000000 0 0 1
31.566182 -32.647681 -12.903512 47.210121 -0.802239 1.847640 -0.004958 0.002790 -157490.000000 0 0 1
32.449982 -33.520281 -13.560412 48.584929 -0.801621 1.853661 -0.001292 0.003446 630124.000000 0 0 1
33.326782 -34.335581 -12.707312 49.508406 -0.800306 1.830371 -0.003957 0.004560 617986.000000 0 0 1
32.628282 33.333356 -11.783312 48.109914 0.796087 1.818238 0.002376 -0.009639 30245.700000 0 0 1
31.970882 33.790856 -10.635212 47.718623 0.813066 1.795557 -0.004244 -0.004759 -379640.000000 0 0 1
31.555582 32.729956 -9.903412 46.530445 0.803664 1.785274 0.011677 -0.009821 -561471.000000 0 0 1
30.847482 33.257356 -8.669312 46.181986 0.822973 1.759637 0.011116 -0.011824 -297539.000000 0 0 1
29.709182 34.033956 -8.955112 46.055832 0.853141 1.766483 0.014763 -0.007683 -546667.000000 0 0 1
29.024082 34.256256 -7.741912 45.561229 0.867893 1.741548 0.028062 -0.011707 345648.000000 0 0 1
28.111282 -33.237881 -7.758812 44.217644 -0.868769 1.747178 0.020615 -0.013340 -491174.000000 0 0 1
28.788182 -32.044781 -7.838012 43.784265 -0.838881 1.750781 0.012589 -0.012060 -256649.000000 0 0 1
28.046282 -30.883481 -8.250512 42.525925 -0.833506 1.766046 0.020839 -0.004348 310888.000000 0 0 1
26.932882 -30.407181 -7.275512 41.266329 -0.845915 1.748029 0.032356 -0.010320 204803.000000 0 0 1
26.155882 -29.379381 -7.836012 40.108369 -0.843377 1.767432 0.031632 -0.022702 558640.000000 0 0 1
25.079382 -28.978681 -6.931812 38.945980 -0.857405 1.749735 0.038218 -0.029116 826374.000000 0 0 1
24.172682 -27.911381 -7.623712 37.702583 -0.857057 1.774407 0.067862 -0.026406 -684339.000000 0 0 1
23.201182 -28.556281 -8.361112 37.731475 -0.888497 1.794246 0.081913 -0.025242 -150972.000000 0 0 1
22.432982 -27.650481 -9.177412 36.769725 -0.889200 1.823055 0.094984 -0.026808 550405.000000 0 0 1
21.207382 -28.385381 -9.830712 36.771263 -0.929139 1.841436 0.084149 -0.022294 265449.000000 0 0 1
21.505882 -29.274681 -10.911112 37.928384 -0.937209 1.862596 0.092553 -0.026117 -131073.000000 0 0 1
20.387082 -30.022681 -11.307512 38.011239 -0.974265 1.872846 0.079347 -0.024227 -151168.000000 0 0 1
20.152282 -31.377181 -10.633712 38.777800 -0.999882 1.848577 0.076453 -0.033407 107411.000000 0 0 1
21.174682 -32.349481 -10.791812 40.141242 -0.991222 1.842991 0.060397 -0.027686 11843.400000 0 0 1
20.670282 -33.660181 -10.845612 40.962125 -1.020083 1.838764 0.046558 -0.031955 384160.000000 0 0 1
21.856182 34.079156 -10.823112 41.907294 1.000536 1.832020 0.039685 -0.025842 424478.000000 0 0 1
22.543282 34.073156 -9.584112 41.964684 0.986300 1.801215 0.040799 -0.024163 143308.000000 0 0 1
23.677482 33.216656 -9.738412 41.938121 0.951518 1.805145 0.033394 -0.018102 824698.000000 0 0 1
24.982482 33.707656 -8.995812 42.909848 0.932982 1.782008 0.024722 -0.020506 485617.000000 0 0 1
25.173382 33.316156 -7.671912 42.456137 0.923727 1.752497 0.025252 -0.023718 -102944.000000 0 0 1
25.668582 32.040656 -7.454112 41.725813 0.895370 1.750406 0.034127 -0.025422 -273618.000000 0 0 1
25.559882 31.502256 -6.042112 41.014714 0.889163 1.718650 0.036790 -0.021195 -422687.000000 0 0 1
26.340582 32.230356 -5.117812 41.938217 0.885619 1.693133 0.029172 -0.012399 -416398.000000 0 0 1
27.261782 31.467156 -4.396112 41.865408 0.856883 1.675996 0.039565 -0.009820 -90682.900000 0 0 1
26.749382 30.241956 -3.541112 40.529554 0.846604 1.658279 0.036407 0.003167 -91967.900000 0 0 1
26.004282 30.527056 -2.351012 40.170276 0.865233 1.629356 0.030831 0.004767 99884.200000 0 0 1
25.654982 29.315556 -1.698012 38.993117 0.851892 1.614357 0.021241 0.011311 -324443.000000 0 0 1
24.214282 28.844356 -1.842112 37.705725 0.872441 1.619671 0.004333 0.017323 -458663.000000 0 0 1
23.266082 29.581656 -1.117712 37.651483 0.904339 1.600486 0.018674 0.003343 -181653.000000 0 0 1
21.932782 29.241056 -1.470412 36.582077 0.927252 1.611002 0.040567 0.010647 389487.000000 0 0 1
20.893982 29.768356 -0.469312 36.372156 0.958806 1.583700 0.032623 0.002065 -278165.000000 0 0 1
21.076782 29.274056 0.834988 36.081827 0.946785 1.547653 0.047284 -0.008306 37548.800000 0 0 1
20.235582 29.937456 1.764588 36.177946 0.976409 1.522002 0.044332 -0.004527 135220.000000 0 0 1
19.550582 28.994656 2.840588 35.085385 0.977540 1.489745 0.046215 -0.016293 159723.000000 0 0 1
18.620182 28.187756 2.136688 33.850054 0.987022 1.507632 0.065244 -0.010120 -6764.740000 0 0 1
17.751982 27.381356 2.886688 32.759799 0.995600 1.482565 0.056262 -0.017542 31625.500000 0 0 1
17.218682 26.165556 2.036088 31.388930 0.988771 1.505884 0.062663 -0.005435 1069570.000000 0 0 1
18.257582 25.265156 1.535288 31.209365 0.945038 1.521583 0.066578 -0.013135 1004670.000000 0 0 1
19.130682 24.655656 2.468388 31.304589 0.910915 1.491864 0.076944 -0.012112 260038.000000 0 0 1
20.445282 24.043756 1.921788 31.619693 0.866107 1.509981 0.070863 -0.001042 124667.000000 0 0 1
20.248682 22.843456 1.097488 30.545655 0.845540 1.534859 0.065776 0.002473 811094.000000 0 0 1
21.495782 22.184656 0.821688 30.901501 0.801168 1.544203 0.045356 -0.002714 645279.000000 0 0 1
21.324682 21.070656 -0.247412 29.979590 0.779406 1.579049 0.065297 -0.005858 -98786.000000 0 0 1
21.105782 21.572556 -1.516712 30.218034 0.796335 1.621010 0.054753 -0.001838 329955.000000 0 0 1
21.579082 20.651256 -2.458512 29.969575 0.763431 1.652922 0.069933 -0.011646 -9844.860000 0 0 1
21.376882 21.195756 -3.887012 30.353583 0.781144 1.699207 0.054020 -0.010918 -29297.600000 0 0 1
22.222382 22.270556 -4.230512 31.744435 0.786481 1.704462 0.051350 -0.000174 250921.000000 0 0 1
21.690882 23.008456 -5.328912 32.066816 0.814866 1.737752 0.034587 0.001151 -143575.000000 0 0 1
22.567182 24.234356 -5.687612 33.599563 0.821005 1.740892 0.031668 0.005723 -69682.400000 0 0 1
22.548982 25.394556 -4.901912 34.312808 0.844681 1.714146 0.035154 0.002901 136795.000000 0 0 1
22.953382 25.290656 -3.521712 34.334785 0.833807 1.673547 0.047159 0.004055 374903.000000 0 0 1
21.785782 24.856856 -2.541612 33.150314 0.851146 1.647541 0.046678 0.002163 117177.000000 0 0 1
20.872382 25.913256 -2.244612 33.349534 0.892728 1.638153 0.045948 0.001631 1114990.000000 0 0 1
19.780882 25.561856 -1.377312 32.351024 0.912209 1.613383 0.056564 0.008176 1352490.000000 0 0 1
18.739982 24.416756 -1.821512 30.833144 0.916186 1.629907 0.054595 0.003046 -636415.000000 0 0 1
17.967782 24.834056 -2.860012 30.785568 0.944463 1.663832 0.047889 -0.004291 -371241.000000 0 0 1
17.305482 23.705756 -3.451612 29.552600 0.940211 1.687859 0.052315 -0.006316 47474.500000 0 0 1
16.570082 24.055556 -4.744812 29.593084 0.967609 1.731827 0.057325 -0.016773 -430171.000000 0 0 1
16.107482 22.969556 -5.467912 28.582329 0.959230 1.763287 0.065125 -0.019837 54447.900000 0 0 1
15.923782 23.303356 -6.832312 29.039520 0.971349 1.808299 0.054279 -0.020844 -66709.200000 0 0 1
15.266282 22.139456 -7.600612 27.946094 0.967118 1.846240 0.065584 -0.027593 -418480.000000 0 0 1
16.122982 21.109956 -7.981412 27.735964 0.918546 1.862688 0.036317 -0.017164 -258290.000000 0 0 1
15.445582 20.098956 -8.588812 26.763813 0.915575 1.897488 0.053555 -0.015624 -473085.000000 0 0 1
16.414682 18.943856 -8.898412 26.598744 0.856806 1.911916 0.046480 -0.006997 -319338.000000 0 0 1
17.320282 19.270656 -9.912112 27.741671 0.838650 1.936172 0.035123 -0.008909 -89041.500000 0 0 1
17.949882 18.081756 -10.306212 27.483925 0.789058 1.955183 0.032093 -0.008765 -941082.000000 0 0 1
19.316082 18.182356 -10.955712 28.700813 0.755173 1.962454 0.020071 -0.007207 -770720.000000 0 0 1
19.317982 18.681556 -12.286212 29.548874 0.768651 1.999611 0.020578 0.000155 -1191600.000000 0 0 1
20.589982 18.957256 -12.677212 30.725178 0.744136 1.996103 0.019590 0.004804 -1433270.000000 0 0 1
20.807282 19.144556 -14.174012 31.628462 0.743804 2.035481 0.025691 0.004803 -120719.000000 0 0 1
20.597282 18.042956 -15.024012 31.233271 0.719389 2.072621 0.030098 0.003278 222459.000000 0 0 1
20.903282 18.365756 -16.344212 32.270442 0.720869 2.101889 0.035495 0.000920 -72887.300000 0 0 1
21.134082 17.217456 -17.334312 32.304312 0.683627 2.137192 0.036387 -0.012838 -292172.000000 0 0 1
22.294182 16.471856 -17.038112 32.536899 0.636321 2.121932 0.039657 -0.005260 54840.100000 0 0 1
22.523882 15.592356 -18.149012 32.860819 0.605512 2.155916 0.046341 -0.018235 -587960.000000 0 0 1
23.305682 16.100556 -19.374212 34.318257 0.604554 2.170679 0.051145 -0.013122 -1459770.000000 0 0 1
24.610482 16.179656 -18.931712 35.012380 0.581580 2.142083 0.053102 -0.013290 -569134.000000 0 0 1
25.508382 16.764956 -19.865112 36.419280 0.581443 2.147729 0.062828 -0.014418 907924.000000 0 0 1
26.941682 17.144856 -19.365112 37.347126 0.566733 2.115912 0.047381 -0.016370 726084.000000 0 0 1
26.892182 18.424856 -18.719912 37.591220 0.600682 2.092071 0.048696 -0.015066 247398.000000 0 0 1
28.162982 18.761956 -18.204212 38.426005 0.587674 2.064337 0.035182 -0.020566 -61075.700000 0 0 1
28.091082 19.824956 -17.106912 38.402919 0.614567 2.032483 0.031355 -0.017194 -78351.900000 0 0 1
27.418382 19.413256 -15.936212 37.183397 0.616100 2.013721 0.026506 -0.009784 -317703.000000 0 0 1
26.211782 20.099456 -15.794012 36.612791 0.654173 2.016818 0.028873 -0.004841 -503193.000000 0 0 1
25.274382 19.491056 -14.728112 35.151286 0.656918 2.003131 0.024197 0.001334 -142752.000000 0 0 1
25.792982 19.574656 -13.436112 35.056728 0.649182 1.964128 0.026939 0.002057 532765.000000 0 0 1
24.784982 19.284156 -12.462612 33.785954 0.661218 1.948589 0.028666 -0.001527 502916.000000 0 0 1
25.285582 19.823256 -11.065312 33.981807 0.664893 1.902469 0.036001 -0.005793 -18127.100000 0 0 1
25.067082 21.193356 -10.932712 34.598282 0.701856 1.892296 0.031420 -0.004575 -126143.000000 0 0 1
25.530082 21.760456 -9.730312 34.928233 0.705854 1.853112 0.028411 -0.004458 -88744.300000 0 0 1
24.781282 21.473356 -8.408312 33.851390 0.714004 1.821813 0.035467 -0.006321 -696336.000000 0 0 1
24.974782 20.195856 -7.818312 33.056593 0.679993 1.809572 0.043829 -0.007764 557278.000000 0 0 1
23.972682 19.815556 -6.870612 31.852018 0.690745 1.788209 0.049919 -0.010667 721066.000000 0 0 1
22.508882 19.531356 -7.299112 30.682253 0.714691 1.810993 0.055338 -0.020695 224504.000000 0 0 1
21.762782 20.675756 -7.723912 30.996199 0.759790 1.822639 0.053775 -0.012694 553239.000000 0 0 1
20.459682 20.297956 -8.190612 29.961504 0.781430 1.847692 0.048667 -0.014270 492721.000000 0 0 1
19.575082 21.586556 -8.125712 30.252114 0.834227 1.842735 0.039668 -0.017378 -405761.000000 0 0 1
20.082682 22.686756 -8.885412 31.574571 0.846209 1.856060 0.038134 -0.012128 204998.000000 0 0 1
19.738282 22.681856 -10.269612 31.773122 0.854678 1.899923 0.042680 0.000128 -817399.000000 0 0 1
18.293482 22.932656 -10.644712 31.206859 0.897457 1.918885 0.032139 -0.009846 -981213.000000 0 0 1
17.845782 24.234556 -10.371612 31.833252 0.936071 1.902665 0.043000 -0.019391 581242.000000 0 0 1
16.491682 24.396456 -10.803712 31.366906 0.976369 1.922428 0.051376 -0.020538 662891.000000 0 0 1
15.951082 25.795856 -10.404012 32.064102 1.016987 1.901253 0.061189 -0.021855 88377.100000 0 0 1
16.743282 26.812656 -11.016412 33.475623 1.012589 1.906134 0.075825 -0.021747 399425.000000 0 0 1
16.845782 27.877256 -10.110512 34.104900 1.027233 1.871773 0.081133 -0.030377 -81695.400000 0 0 1
19.594082 29.274056 -34.235257 49.121800 0.980950 2.341927 0.000159 -0.007047 -411575.000000 0 0 1
18.313882 29.671056 34.138337 48.797498 1.017804 0.795970 0.016843 -0.007115 -634883.000000 0 0 1
17.456082 28.541456 34.074472 47.753524 1.021888 0.776246 0.015579 -0.005063 -349352.000000 0 0 1
16.017782 29.061556 33.998456 47.508298 1.067057 0.773268 0.022328 -0.011562 -536844.000000 0 0 1
15.647382 29.481256 32.715413 46.736316 1.082847 0.795399 0.031042 -0.010325 211511.000000 0 0 1
14.272382 29.848256 32.680271 46.503971 1.124769 0.791553 0.052589 -0.014145 364656.000000 0 0 1
13.624582 29.897256 31.228511 45.328744 1.143201 0.810779 0.050995 -0.014768 -207826.000000 0 0 1
13.340882 28.601556 30.794711 44.094697 1.134356 0.797669 0.037747 -0.010244 -733580.000000 0 0 1
12.009082 28.284456 31.021121 43.663926 1.169279 0.780656 0.036681 -0.007111 -969553.000000 0 0 1
11.612782 26.778756 31.013941 42.589001 1.161616 0.755083 0.026848 -0.009870 -38738.800000 0 0 1
11.717682 26.018856 29.818471 41.272583 1.147648 0.763419 0.025064 -0.009081 860980.000000 0 0 1
13.070182 25.620556 29.518571 41.213936 1.099066 0.772414 0.012394 -0.008937 734427.000000 0 0 1
13.310282 24.780756 28.248091 39.864823 1.077894 0.783289 0.020922 -0.009525 -169406.000000 0 0 1
13.079582 25.552956 27.088031 39.468854 1.097704 0.814387 0.011668 -0.005847 45696.500000 0 0 1
13.224982 24.846156 25.867781 38.227917 1.081664 0.827562 0.023363 -0.003727 191717.000000 0 0 1
12.119882 23.819156 25.437041 36.895620 1.100110 0.810091 0.025673 -0.003562 65269.300000 0 0 1
12.133982 23.398256 24.093791 35.710259 1.092392 0.830235 0.045756 -0.010024 -85695.500000 0 0 1
11.012482 22.596256 23.810341 34.623660 1.117313 0.812494 0.067309 -0.011837 -643.559000 0 0 1
10.986582 22.123756 22.307151 33.283247 1.109875 0.836289 0.077360 -0.015022 34182.600000 0 0 1
10.554182 23.213156 21.449051 33.321211 1.144071 0.871466 0.088498 -0.016148 228946.000000 0 0 1
10.641982 22.769356 20.093451 32.178286 1.133582 0.896380 0.095911 -0.014806 -390315.000000 0 0 1
10.224382 23.901856 19.173551 32.302658 1.166586 0.935322 0.083894 -0.015104 772347.000000 0 0 1
8.825782 24.179756 19.069751 32.034519 1.220815 0.933173 0.083349 -0.018536 507320.000000 0 0 1
8.201582 25.007156 20.033851 33.075353 1.253881 0.920147 0.072778 -0.025278 105078.000000 0 0 1
6.777082 25.411756 19.598651 32.799288 1.310171 0.930376 0.071268 -0.024753 87907.100000 0 0 1
6.867482 26.324456 18.557851 32.932250 1.315606 0.972161 0.066528 -0.032439 87215.500000 0 0 1
5.633182 26.980556 18.359551 33.117310 1.364966 0.983179 0.051200 -0.030108 -102546.000000 0 0 1
5.705682 28.134556 17.346051 33.540923 1.370710 1.027266 0.046544 -0.022849 -144244.000000 0 0 1
6.232182 27.656556 16.170951 32.637782 1.349156 1.052424 0.044961 -0.018557 -110305.000000 0 0 1
7.118382 28.604756 15.590051 33.345960 1.326897 1.084308 0.032505 -0.012610 -160013.000000 0 0 1
7.688682 28.043156 14.309951 32.408473 1.303199 1.113471 0.032264 -0.016594 212498.000000 0 0 1
6.666782 28.017056 13.296951 31.720818 1.337186 1.138247 0.028539 -0.016997 669953.000000 0 0 1
6.920482 26.861156 12.413251 30.389201 1.318641 1.150013 0.013391 -0.015353 43944.600000 0 0 1
6.182682 27.060356 11.086951 29.889946 1.346174 1.190791 0.004056 -0.016502 -84705.300000 0 0 1
6.906282 27.825256 10.103751 30.397818 1.327511 1.231966 0.000715 -0.011554 284114.000000 0 0 1
7.025782 29.217356 10.315951 31.771596 1.334811 1.240111 -0.001645 -0.008572 -458148.000000 0 0 1
7.303882 30.071256 9.001651 32.228199 1.332524 1.287721 -0.002451 -0.005397 -328235.000000 0 0 1
6.379182 30.018756 7.906751 31.691266 1.361405 1.318640 0.017331 -0.007582 132362.000000 0 0 1
6.358582 28.753156 7.207451 30.317039 1.353155 1.330762 0.018722 0.003567 -228031.000000 0 0 1
4.904682 28.348056 6.935151 29.593318 1.399476 1.334248 0.017389 0.003338 -529315.000000 0 0 1
4.201282 29.248456 6.127651 30.177326 1.428131 1.366320 0.006741 -0.000038 -558847.000000 0 0 1
2.828982 28.968556 6.032751 29.724980 1.473448 1.366424 0.037169 -0.006759 5374.060000 0 0 1
2.014882 30.069256 5.329151 30.604244 1.503888 1.395773 0.048555 -0.012105 -285123.000000 0 0 1
2.360182 30.316756 3.957451 30.664924 1.493102 1.441381 0.031429 -0.015259 153313.000000 0 0 1
1.436382 31.127056 3.271151 31.331409 1.524683 1.466201 0.026041 -0.023590 434155.000000 0 0 1
0.077882 30.629456 2.714351 30.749590 1.568254 1.482409 0.048395 -0.009428 256128.000000 0 0 1
0.141682 29.868956 1.528751 29.908388 1.566053 1.519660 0.046403 -0.002124 -255434.000000 0 0 1
-0.834718 28.848456 1.502451 28.899611 -1.541870 1.518784 0.042949 0.001619 101681.000000 0 0 1
-1.264818 28.378356 0.112251 28.406750 -1.526256 1.566845 0.034995 -0.003350 -36775.400000 0 0 1
-2.153418 29.221756 -0.593049 29.306994 -1.497237 1.591033 0.037367 -0.008718 -45890.100000 0 0 1
-1.547718 29.975756 -1.604349 30.058531 -1.519210 1.624196 0.034058 -0.009648 -703135.000000 0 0 1
-2.490118 31.063956 -2.146449 31.237434 -1.490806 1.639565 0.030579 -0.012210 20860.100000 0 0 1
-3.648518 30.634356 -2.834149 30.980765 -1.452256 1.662405 0.017840 -0.011769 93264.100000 0 0 1
-3.461818 29.947356 -4.048649 30.417427 -1.455710 1.704295 0.016008 -0.005442 -874924.000000 0 0 1
-4.773118 29.475456 -4.672349 30.222773 -1.410255 1.726016 0.024153 -0.003582 -187261.000000 0 0 1
-5.510118 30.519056 -5.278849 31.458551 -1.392174 1.739397 0.020467 -0.008676 382830.000000 0 0 1
-6.564518 30.039856 -6.123249 31.352512 -1.355651 1.767363 0.023972 -0.009051 191051.000000 0 0 1
-7.232018 31.126956 -6.977649 32.708975 -1.342507 1.785774 0.024554 -0.000253 -474835.000000 0 0 1
-8.104918 31.839856 -6.154049 33.426613 -1.321537 1.755959 0.015583 -0.003280 -371876.000000 0 0 1
-8.218418 33.063056 -6.838049 34.748625 -1.327166 1.768875 0.017584 -0.001970 -45011.000000 0 0 1
-9.366518 33.842156 -6.170549 35.652473 -1.300785 1.744747 0.016999 -0.011602 86329.500000 0 0 1
-10.686718 33.397956 -6.409849 35.647097 -1.261110 1.751594 0.014993 -0.007443 -216195.000000 0 0 1
-11.575618 34.274956 -5.728349 36.627606 -1.245096 1.727835 0.020266 -0.010028 -660916.000000 0 0 1
-13.025918 33.907256 -5.937649 36.805329 -1.204017 1.732830 0.036649 -0.010332 -797694.000000 0 0 1
-13.435318 34.048156 -7.296549 37.323241 -1.194956 1.767560 0.030922 -0.006362 -533654.000000 0 0 1
-14.819518 33.955056 -7.464949 37.792716 -1.159272 1.769627 0.049281 -0.017212 -649684.000000 0 0 1
-15.242018 33.985356 -8.958249 38.308925 -1.149201 1.806824 0.063332 -0.015638 -381432.000000 0 0 1
-16.558318 33.698556 -9.296749 38.680746 -1.114080 1.813518 0.086536 -0.023593 -418197.000000 0 0 1
-17.559518 -34.061481 -9.244249 39.420519 1.094807 1.807504 0.088814 -0.024190 -875578.000000 0 0 1
-18.946218 34.120756 -9.561949 40.182285 -1.063916 1.811066 0.088017 -0.030197 -361802.000000 0 0 1
-19.520518 33.243656 -8.639149 39.507293 -1.039845 1.791250 0.073374 -0.032603 33727.100000 0 0 1
-19.823518 33.843156 -7.389349 39.911571 -1.040923 1.757014 0.061784 -0.018071 -736929.000000 0 0 1
-20.219418 32.845056 -6.284149 39.078294 -1.018985 1.732307 0.050962 -0.025133 -452330.000000 0 0 1
-20.033218 33.426656 -4.980349 39.287085 -1.030878 1.697906 0.052293 -0.027695 1181660.000000 0 0 1
-21.203218 33.350756 -4.102149 39.732568 -1.004494 1.674225 0.036523 -0.018790 1277820.000000 0 0 1
-22.289518 -34.310481 -4.290849 41.139314 0.994673 1.675287 0.035031 -0.020164 66090.600000 0 0 1
-22.781218 -34.256081 -5.604549 41.519561 0.983930 1.706195 0.036132 -0.016069 -9382.130000 0 0 1
-23.969618 -33.501781 -5.713349 41.587911 0.949761 1.708612 0.026921 -0.025029 128868.000000 0 0 1
-24.352418 -33.402681 -7.206549 41.960860 0.940835 1.743397 0.047490 -0.018569 59391.200000 0 0 1
-23.475218 -32.496481 -7.883049 40.856452 0.945199 1.764959 0.066821 -0.009232 290014.000000 0 0 1
-23.543518 -32.493881 -9.311049 41.192781 0.943782 1.798803 0.042462 -0.007864 -720823.000000 0 0 1
-24.664618 -31.691281 -9.927149 41.367004 0.909442 1.813139 0.048302 -0.008574 -300417.000000 0 0 1
-25.923258 -32.319981 -9.639149 42.538332 0.894787 1.799381 0.040059 -0.008468 596282.000000 0 0 1
-27.172878 -31.915881 -10.143349 43.126283 0.865496 1.808222 0.012402 0.001518 404287.000000 0 0 1
-27.495738 -30.364681 -10.130349 42.197790 0.834941 1.813232 0.005802 0.006892 -836738.000000 0 0 1
-26.676448 -29.452381 -10.878449 41.199713 0.834814 1.838007 0.013635 0.018988 -13455.500000 0 0 1
-26.793368 -29.548581 -12.295949 41.739593 0.834261 1.869820 0.011936 0.014439 -428157.000000 0 0 1
-25.735578 -28.752981 -13.084949 40.746409 0.840718 1.897720 0.031488 0.018997 265582.000000 0 0 1
-24.467818 -29.405681 -12.926649 40.379035 0.876799 1.896666 0.037836 0.011482 506354.000000 0 0 1
-23.507018 -28.814581 -13.806949 39.667264 0.886493 1.926307 0.042731 0.008787 446910.000000 0 0 1
-22.186718 -29.649281 -13.842049 39.533943 0.928381 1.928507 0.065761 -0.005913 88259.300000 0 0 1
-22.141318 -30.882081 -14.532249 40.683254 0.948776 1.936070 0.070700 -0.003646 -4815.930000 0 0 1
-22.655118 -31.954181 -13.773949 41.521630 0.954064 1.908933 0.062312 -0.001018 -108151.000000 0 0 1
-22.892818 -33.253981 -14.573549 42.921984 0.967882 1.917220 0.054510 -0.003746 94868.100000 0 0 1
-23.320018 -34.343281 -13.719349 43.720759 0.974285 1.889983 0.047151 -0.014818 51932.500000 0 0 1
-23.353518 33.219156 -14.441449 43.098197 -0.958051 1.912489 0.044628 -0.020726 -350711.000000 0 0 1
-23.912418 32.099156 -13.544149 42.256402 -0.930532 1.897078 0.024501 -0.015633 67643.600000 0 0 1
-23.217318 31.676056 -12.335049 41.165153 -0.938290 1.875120 0.034750 -0.014507 213304.000000 0 0 1
-23.061118 32.640656 -11.305849 41.533719 -0.955711 1.846484 0.052374 -0.022405 -160067.000000 0 0 1
-22.507918 32.088056 -9.991349 40.448446 -0.959103 1.820394 0.055858 -0.028785 -298666.000000 0 0 1
-23.239718 31.124756 -9.278649 39.936553 -0.929434 1.805274 0.043793 -0.016933 -218308.000000 0 0 1
-22.554418 30.693356 -8.138449 38.948918 -0.937075 1.781299 0.033835 -0.015806 -263034.000000 0 0 1
-23.177018 29.359556 -7.699449 38.189517 -0.902540 1.773799 0.029600 -0.026667 -124239.000000 0 0 1
-22.989818 28.259156 -8.569749 37.423952 -0.887857 1.801837 0.038156 -0.023576 -79507.600000 0 0 1
-23.387818 27.048556 -7.903849 36.620831 -0.857852 1.788337 0.034798 -0.020917 -345312.000000 0 0 1
-22.436318 26.408456 -6.886149 35.330072 -0.866541 1.766961 0.046213 -0.023380 -370962.000000 0 0 1
-22.501018 27.174556 -5.651149 35.730768 -0.879203 1.729622 0.046868 -0.018942 289923.000000 0 0 1
-21.565218 26.612556 -4.742149 34.579976 -0.889782 1.708366 0.043120 -0.017272 789138.000000 0 0 1
-20.225018 27.456756 -4.699849 34.424023 -0.935918 1.707752 0.035971 -0.025472 1201680.000000 0 0 1
-19.329718 27.259156 -5.828749 33.921584 -0.953983 1.743483 0.042855 -0.019400 370685.000000 0 0 1
-18.215418 28.112156 -5.731049 33.984403 -0.995860 1.740244 0.034222 -0.018437 19063.700000 0 0 1
-17.221518 28.086356 -6.919649 33.664605 -1.020754 1.777819 0.039469 -0.012673 -194971.000000 0 0 1
-17.710018 28.523356 -8.212149 34.563940 -1.015154 1.810683 0.049229 -0.014959 274188.000000 0 0 1
-18.008618 29.964056 -8.302049 35.931588 -1.029636 1.803955 0.060758 -0.020902 -70383.700000 0 0 1
-17.953818 30.470256 -9.713049 36.675869 -1.038338 1.838829 0.058559 -0.020340 -360524.000000 0 0 1
-16.696318 30.480056 -10.339349 36.258833 -1.069660 1.859963 0.048405 -0.018177 -459857.000000 0 0 1
-16.621218 31.145656 -11.599049 37.159853 -1.080584 1.888240 0.054842 -0.021247 -366257.000000 0 0 1
-15.206118 31.490756 -12.109049 37.007064 -1.120942 1.904145 0.055963 -0.015633 52492.400000 0 0 1
-14.977418 32.163956 -13.308349 37.894000 -1.134997 1.929648 0.053889 -0.017302 -274688.000000 0 0 1
-15.148418 31.313256 -14.408949 37.651193 -1.120217 1.963509 0.052798 -0.020901 -122440.000000 0 0 1
-14.828618 31.859056 -15.808349 38.532989 -1.135173 1.993530 0.069083 -0.018601 -290739.000000 0 0 1
-13.461718 32.091456 -15.955849 38.284050 -1.173611 2.000691 0.071668 -0.023342 -686740.000000 0 0 1
-13.029018 32.272356 -17.281949 38.857767 -1.187087 2.031690 0.063718 -0.029186 -10560.900000 0 0 1
-11.512418 32.191456 -17.531349 38.421007 -1.227346 2.044624 0.076134 -0.032500 -187887.000000 0 0 1
-11.040318 30.827656 -17.491349 37.123851 -1.226897 2.061404 0.078750 -0.041267 568257.000000 0 0 1
-9.730918 30.634256 -18.031749 36.855018 -1.263228 2.082039 0.071189 -0.038621 502942.000000 0 0 1
-9.551818 30.622856 -19.580849 37.581993 -1.268442 2.118838 0.062576 -0.039770 -183839.000000 0 0 1
-10.374018 29.712056 -20.303449 37.452057 -1.234877 2.143752 0.057294 -0.042409 459179.000000 0 0 1
-9.961118 29.657156 -21.655949 38.049322 -1.246759 2.176274 0.043545 -0.041811 -609878.000000 0 0 1
-11.160218 29.130656 -22.468749 38.444639 -1.204935 2.194991 0.052397 -0.032245 385248.000000 0 0 1
-12.219818 30.037656 -22.715249 39.592515 -1.184427 2.181844 0.050229 -0.036080 163837.000000 0 0 1
-13.150718 30.261356 -21.685349 39.483483 -1.160847 2.152234 0.054760 -0.039935 -443182.000000 0 0 1
-13.870118 31.622356 -21.936349 40.909131 -1.157448 2.136750 0.076944 -0.041199 478009.000000 0 0 1
-14.682618 31.613356 -23.127949 41.831634 -1.135996 2.156615 0.059485 -0.038543 87564.700000 0 0 1
-15.419818 32.801456 -23.248249 43.060276 -1.131357 2.141115 0.056757 -0.022948 180334.000000 0 0 1
-15.798218 33.182856 -24.726949 44.295684 -1.126454 2.163041 0.048578 -0.013511 20018.800000 0 0 1
-14.704418 33.484256 -25.570349 44.623515 -1.157007 2.180987 0.054969 -0.011133 -120657.000000 0 0 1
-15.019618 33.757456 -26.909749 45.708745 -1.152169 2.200273 0.068021 -0.003182 220646.000000 0 0 1
-15.686618 -33.656081 -27.408849 46.152430 1.134646 2.206665 0.065077 0.004631 -299746.000000 0 0 1
-17.038618 -33.471981 -27.155449 46.347670 1.099942 2.196796 0.055011 -0.000437 -671105.000000 0 0 1
-17.458518 -32.397881 -28.013049 46.250984 1.076532 2.221410 0.041843 0.008515 1369890.000000 0 0 1
-19.008818 -32.072481 -27.925349 46.581159 1.035774 2.213671 0.022592 0.006799 1849570.000000 0 0 1
-19.951218 -33.071081 -28.326449 47.897132 1.027966 2.203592 0.020959 0.011993 460840.000000 0 0 1
-21.282818 -32.733981 -27.934749 48.008563 0.994298 2.191823 0.019402 0.010567 760302.000000 0 0 1
-22.273918 -33.922181 -27.962849 49.282479 0.989783 2.174141 0.012495 0.016743 -128850.000000 0 0 1
-22.122818 33.811056 -26.996049 48.594169 -0.991399 2.159810 0.037487 0.013754 327633.000000 0 0 1
-23.310318 32.993556 -26.966349 48.570872 -0.955714 2.159395 0.025964 0.006851 595464.000000 0 0 1
-23.089118 31.529256 -26.730449 47.346787 -0.938715 2.170705 0.039420 0.002525 14631.700000 0 0 1
-22.517518 31.253656 -25.480749 46.185476 -0.946460 2.155203 0.038128 -0.000684 -249832.000000 0 0 1
-22.328318 29.884056 -25.331349 45.091993 -0.929112 2.167321 0.042508 -0.007669 -244194.000000 0 0 1
30.576468 9.717256 -27.003472 41.934865 0.307708 2.270431 0.019416 0.005507 -117408.000000 0 0 1
30.397168 8.383056 -26.586312 41.244338 0.269095 2.271303 0.020643 0.003983 -174350.000000 0 0 1
29.031228 8.090256 -26.456022 40.102189 0.271779 2.291236 0.022480 -0.003270 -162352.000000 0 0 1
28.718838 6.655056 -25.928012 39.259689 0.227712 2.292179 0.022398 -0.003166 -82863.200000 0 0 1
28.946738 6.528056 -24.576612 38.529716 0.221809 2.262514 0.021417 0.005188 -19843.600000 0 0 1
28.241608 5.446756 -24.077912 37.510017 0.190524 2.267778 0.022238 -0.003707 -371722.000000 0 0 1
28.390048 5.287756 -22.592612 36.665806 0.184144 2.234675 0.023864 -0.002320 688859.000000 0 0 1
29.722098 4.914756 -22.195212 37.419051 0.163874 2.205766 0.042959 -0.003991 1036850.000000 0 0 1
29.770708 4.786356 -20.782112 36.621038 0.159410 2.174252 0.037324 -0.009496 -1253560.000000 0 0 1
31.144838 4.528156 -20.255012 37.426870 0.144379 2.142647 0.044398 -0.011283 -1161260.000000 0 0 1
31.597818 3.196256 -20.274812 37.678988 0.100811 2.138970 0.051140 -0.008132 396859.000000 0 0 1
32.795628 2.939356 -19.558012 38.297635 0.089388 2.106777 0.050550 -0.008981 44106.800000 0 0 1
33.135408 1.418856 -19.641712 38.545626 0.042794 2.105482 0.057534 -0.006438 -112100.000000 0 0 1
32.231638 0.515256 -19.024012 37.430696 0.015985 2.103944 0.055220 -0.004705 -128311.000000 0 0 1
32.596628 -0.805144 -19.151512 37.814929 -0.024695 2.101863 0.047778 -0.000247 -391927.000000 0 0 1
31.617968 -1.734444 -18.461712 36.654318 -0.054801 2.098639 0.029313 0.004821 -99249.000000 0 0 1
31.573248 -1.582744 -17.040112 35.912957 -0.050087 2.065174 0.030658 0.000968 -74794.900000 0 0 1
30.224688 -1.523444 -16.620912 34.526908 -0.050361 2.073036 0.027437 0.001402 39377.100000 0 0 1
29.895988 -2.153444 -15.220712 33.616625 -0.071907 2.040670 0.035386 -0.003675 -263587.000000 0 0 1
29.814678 -3.544044 -15.151712 33.631082 -0.118314 2.038152 0.029648 -0.010561 393300.000000 0 0 1
29.282098 -3.874144 -13.849312 32.622901 -0.131540 2.009236 0.056581 -0.009552 19073.100000 0 0 1
29.135888 -5.424544 -13.683512 32.642980 -0.184073 2.003346 0.043917 -0.000686 -66517.100000 0 0 1
28.073618 -6.001744 -14.412112 32.122545 -0.210615 2.036062 0.024094 0.000781 431009.000000 0 0 1
27.765918 -7.286944 -13.926612 31.906054 -0.256654 2.022488 0.021280 -0.001116 -339536.000000 0 0 1
27.254118 -8.176144 -15.057612 32.192669 -0.291454 2.057522 0.003304 0.005004 -512635.000000 0 0 1
25.965298 -7.805444 -15.460312 31.211262 -0.292017 2.089027 0.017882 -0.005023 -142777.000000 0 0 1
25.274798 -8.787344 -16.241112 31.301862 -0.334600 2.116307 0.002608 0.001145 285427.000000 0 0 1
23.867898 -8.269444 -16.597912 30.225005 -0.333524 2.152137 0.010810 -0.001154 -219697.000000 0 0 1
23.871898 -7.365244 -17.684012 30.607819 -0.299266 2.186779 0.006771 -0.000252 -1522670.000000 0 0 1
22.628898 -7.136444 -18.157112 29.877694 -0.305496 2.223976 0.037419 -0.005531 -1437440.000000 0 0 1
22.590298 -7.616144 -19.666512 30.904675 -0.325175 2.260567 0.021721 0.003021 -75331.500000 0 0 1
23.051298 -6.687744 -20.615512 31.639968 -0.282372 2.280443 0.015599 0.000828 262180.000000 0 0 1
22.989498 -7.162844 -21.905612 32.552714 -0.302038 2.308955 0.028280 -0.007535 -162277.000000 0 0 1
23.300798 -6.135344 -22.991012 33.303998 -0.257466 2.332752 0.030283 -0.010907 -239591.000000 0 0 1
23.256098 -6.617144 -24.310712 34.287657 -0.277208 2.358907 0.043928 -0.016471 180141.000000 0 0 1
23.550098 -5.536344 -25.195132 34.929256 -0.230895 2.376501 0.035616 -0.017514 -250763.000000 0 0 1
23.555598 -5.934644 -26.663532 36.069795 -0.246806 2.402708 0.052112 -0.025842 -758019.000000 0 0 1
22.329898 -6.388044 -27.112462 35.700379 -0.278634 2.433255 0.086966 -0.027346 -820959.000000 0 0 1
22.355498 -6.498044 -28.518522 36.814385 -0.282874 2.456969 0.073063 -0.026149 649943.000000 0 0 1
21.158598 -7.338644 -29.098632 36.718828 -0.333857 2.485647 0.060285 -0.032098 410141.000000 0 0 1
21.105698 -8.733444 -28.715832 36.692268 -0.392342 2.469648 0.050267 -0.025662 4087.080000 0 0 1
20.026698 -9.309944 -29.425072 36.791012 -0.435156 2.497741 0.040110 -0.028151 -305656.000000 0 0 1
19.715798 -10.761244 -28.980072 36.665537 -0.499627 2.482242 0.050239 -0.022571 -254954.000000 0 0 1
18.741898 -10.813244 -27.932422 35.332778 -0.523303 2.482507 0.062114 -0.017612 580547.000000 0 0 1
18.716798 -12.037944 -27.269452 35.197353 -0.571554 2.457130 0.068104 -0.026246 -278951.000000 0 0 1
18.590198 -13.325344 -28.065222 36.205206 -0.621908 2.457782 0.049929 -0.017443 -721271.000000 0 0 1
17.428698 -13.471344 -28.828122 36.280811 -0.658022 2.489117 0.055368 -0.017378 -126532.000000 0 0 1
17.615598 -14.471444 -29.841002 37.552861 -0.687722 2.489211 0.040757 -0.016627 -315700.000000 0 0 1
16.447898 -14.788844 -30.815122 37.931715 -0.732336 2.519025 0.037894 -0.020838 -158645.000000 0 0 1
15.383798 -15.396344 -30.116882 37.158246 -0.785806 2.515807 0.056669 -0.023428 148478.000000 0 0 1
14.392698 -15.922244 -30.985972 37.693475 -0.835811 2.535801 0.052133 -0.033388 -276321.000000 0 0 1
13.225498 -16.485544 -30.159272 36.827553 -0.894686 2.530344 0.062599 -0.037377 -217583.000000 0 0 1
13.607698 -17.699344 -29.506162 37.000673 -0.915356 2.493852 0.051010 -0.038615 413218.000000 0 0 1
12.601198 -18.123644 -28.586682 36.117240 -0.963238 2.484051 0.051647 -0.034952 199598.000000 0 0 1
12.739798 -19.484944 -27.923462 36.354989 -0.991735 2.446630 0.050870 -0.029159 114958.000000 0 0 1
13.698498 -19.274544 -26.885902 35.805148 -0.952922 2.420212 0.046092 -0.022807 69850.300000 0 0 1
13.915998 -20.464844 -26.162152 36.012818 -0.973623 2.383964 0.043501 -0.013266 -423905.000000 0 0 1
15.009598 -20.298544 -25.109312 35.606130 -0.934087 2.353496 0.033769 -0.000994 -309317.000000 0 0 1
16.308198 -20.490944 -25.626352 36.640770 -0.898577 2.345346 0.045448 -0.006618 288760.000000 0 0 1
17.291698 -20.562344 -24.597612 36.426026 -0.871586 2.312135 0.054294 -0.006421 50813.100000 0 0 1
18.684998 -20.982844 -25.107812 37.680381 -0.843261 2.300081 0.034967 0.000939 -172592.000000 0 0 1
18.892498 -22.389844 -25.477892 38.824665 -0.869914 2.286607 0.029026 -0.002341 316434.000000 0 0 1
18.530198 -23.347644 -24.503612 38.586367 -0.899930 2.258847 0.030568 -0.010497 -405557.000000 0 0 1
19.335798 -24.674244 -24.605512 39.851256 -0.906109 2.236273 0.023323 -0.010150 18884.400000 0 0 1
20.660598 -24.633844 -24.112412 40.188245 -0.872895 2.214281 0.037122 -0.005271 72784.900000 0 0 1
21.044298 -25.953364 -23.759512 40.999439 -0.889474 2.188921 0.037188 -0.016261 -183774.000000 0 0 1
20.844598 -26.382264 -22.257312 40.322563 -0.902122 2.155535 0.041485 -0.018292 -279866.000000 0 0 1
19.501798 -26.639604 -21.917612 39.627899 -0.938876 2.156859 0.036611 -0.022101 115149.000000 0 0 1
19.557998 -26.958714 -20.559212 39.140373 -0.943174 2.123827 0.024527 -0.018745 -616255.000000 0 0 1
18.200298 -27.218924 -19.937112 38.335481 -0.981413 2.117729 0.022483 -0.026017 -899133.000000 0 0 1
17.753198 -28.541304 -20.245512 39.238538 -1.014344 2.112924 0.019710 -0.021393 386318.000000 0 0 1
16.675798 -28.948594 -19.398612 38.631716 -1.048174 2.096870 0.018018 -0.009673 133211.000000 0 0 1
15.235398 -28.631484 -19.805412 38.001758 -1.081784 2.119019 0.018180 -0.011140 -723857.000000 0 0 1
14.837398 -27.362944 -19.418512 36.687296 -1.073927 2.128569 0.023047 -0.009908 256088.000000 0 0 1
13.472398 -27.177054 -19.806012 36.226729 -1.110573 2.149243 0.011368 0.003410 794300.000000 0 0 1
12.617798 -26.298034 -18.837212 34.722269 -1.123439 2.144220 0.013895 -0.008066 -450849.000000 0 0 1
11.997698 -26.943554 -17.753212 34.424939 -1.151866 2.112630 0.013342 -0.011183 -279882.000000 0 0 1
11.151098 -26.044064 -17.103612 33.093410 -1.166250 2.113938 0.019711 -0.015832 -127883.000000 0 0 1
9.668598 -26.164924 -17.529012 32.944671 -1.216834 2.131845 0.023952 -0.008132 -484947.000000 0 0 1
9.025998 -27.336004 -17.033912 33.449663 -1.251880 2.105098 0.021249 0.005061 472802.000000 0 0 1
7.608298 -27.184514 -16.911712 32.907294 -1.297902 2.110544 0.017159 0.011943 803710.000000 0 0 1
6.890198 -28.026984 -17.968012 33.997590 -1.329735 2.127639 0.025282 0.011077 -329881.000000 0 0 1
7.147098 -27.519934 -19.255012 34.339238 -1.316703 2.166062 0.033032 0.002586 16943.500000 0 0 1
6.673498 -28.359954 -20.327812 35.525238 -1.339687 2.179992 0.029218 0.006202 67483.200000 0 0 1
6.664398 -27.656214 -21.672712 35.762925 -1.334332 2.221832 0.035300 -0.003584 -550991.000000 0 0 1
5.666198 -26.674294 -21.614812 34.796895 -1.361486 2.241032 0.045182 -0.011420 -267691.000000 0 0 1
5.594798 -25.940644 -22.794512 34.982975 -1.358373 2.280473 0.051107 -0.011073 91870.400000 0 0 1
4.241698 -25.234244 -23.106612 34.477161 -1.404260 2.305275 0.035397 -0.004500 -89701.600000 0 0 1
3.240898 -26.127004 -23.481012 35.277212 -1.447383 2.299113 0.027168 -0.001716 -181728.000000 0 0 1
2.108398 -25.529114 -24.090012 35.164040 -1.488395 2.325503 0.028606 -0.004999 339113.000000 0 0 1
1.254398 -26.607614 -24.787012 36.385912 -1.523687 2.320232 0.026718 -0.008256 -90709.500000 0 0 1
1.898998 -27.206054 -25.871222 37.591165 -1.501109 2.329837 0.032524 -0.003427 -116387.000000 0 0 1
0.962598 -27.881474 -26.663122 38.590482 -1.536285 2.333564 0.034161 -0.011510 -60826.000000 0 0 1
1.620498 -28.751134 -27.763682 40.000947 -1.514493 2.337931 0.027509 -0.007536 -295831.000000 0 0 1
2.344298 -28.031084 -28.738842 40.213909 -1.487358 2.366919 0.028827 -0.009977 284416.000000 0 0 1
2.957698 -28.856534 -29.767262 41.563655 -1.468656 2.369117 0.035097 -0.014994 428262.000000 0 0 1
4.383298 -29.386034 -29.483512 41.857255 -1.422725 2.352349 0.044023 -0.014670 -240093.000000 0 0 1
4.433098 -30.319764 -28.452602 41.814962 -1.425614 2.319160 0.041003 -0.016627 -77445.900000 0 0 1
5.723298 -30.897024 -28.563542 42.464788 -1.387635 2.308568 0.043009 -0.016087 393507.000000 0 0 1
5.978698 -31.993694 -27.500632 42.610164 -1.386056 2.272344 0.052521 -0.023475 4593.620000 0 0 1
5.120998 -33.094224 -27.726582 43.476610 -1.417274 2.262351 0.047218 -0.025064 127243.000000 0 0 1
5.388898 -34.142289 -26.850102 43.768300 -1.414251 2.231231 0.049029 -0.034707 -464617.000000 0 0 1
4.156998 33.731073 -26.685112 43.210660 1.448175 2.236431 0.069334 -0.039355 -532082.000000 0 0 1
3.703498 33.107736 -27.863472 43.430533 1.459397 2.267332 0.051005 -0.035816 637055.000000 0 0 1
2.388398 32.590082 -27.613072 42.782002 1.497641 2.272391 0.034686 -0.034914 487455.000000 0 0 1
1.439098 32.743390 -28.801492 43.631715 1.526874 2.291754 0.024142 -0.019792 -377946.000000 0 0 1
1.265198 31.603322 -29.605552 43.322736 1.530784 2.323168 0.029625 -0.013635 128951.000000 0 0 1
0.470198 32.104392 -30.661392 44.396329 1.556151 2.333155 0.028210 -0.013788 64380.000000 0 0 1
0.269998 31.015222 -31.726502 44.368771 1.562091 2.367512 0.032661 -0.013287 -565523.000000 0 0 1
1.429798 30.793912 -32.452052 44.759860 1.524398 2.381868 0.034382 -0.008364 -389564.000000 0 0 1
1.227198 29.722342 -33.372612 44.706318 1.529531 2.413561 0.039369 -0.005468 646557.000000 0 0 1
2.480898 29.524022 -34.320092 45.339734 1.486963 2.429435 0.040169 -0.003439 791247.000000 0 0 1
2.574198 30.602672 33.497885 45.445113 1.486877 0.742018 0.032721 -0.005051 23386.900000 0 0 1
3.441798 30.207212 32.440451 44.460145 1.457346 0.752983 0.018882 0.000713 -56719.900000 0 0 1
2.836998 29.251632 31.370031 42.985874 1.474113 0.752803 0.035115 -0.004163 104121.000000 0 0 1
2.567598 27.925882 31.752721 42.363696 1.479111 0.723450 0.037041 -0.004753 267825.000000 0 0 1
3.744398 27.091792 31.732581 41.892033 1.433455 0.711344 0.025871 -0.003025 308936.000000 0 0 1
3.532398 25.553202 32.072061 41.158973 1.433430 0.677370 0.024450 -0.006590 97144.900000 0 0 1
2.765098 24.882382 31.047941 39.884249 1.460124 0.678602 0.033930 0.005166 308225.000000 0 0 1
3.016298 23.499392 31.107961 39.102746 1.443138 0.650891 0.032115 -0.000419 -79647.200000 0 0 1
2.175798 22.541892 30.221281 37.765021 1.474572 0.643092 0.032488 0.012404 -47112.300000 0 0 1
0.794198 22.614592 30.448521 37.936301 1.535692 0.639118 0.027722 0.007846 -245559.000000 0 0 1
-0.015002 21.837192 29.618361 36.798240 -1.570109 0.635314 0.041052 0.007109 303994.000000 0 0 1
-1.453402 21.487192 30.055401 36.974842 -1.503259 0.621749 0.035762 0.004810 209236.000000 0 0 1
-2.310402 22.626192 30.250421 37.846671 -1.469037 0.644685 0.045110 -0.001479 303801.000000 0 0 1
-3.641902 22.125292 30.126181 37.555010 -1.407656 0.639845 0.026970 -0.008721 533120.000000 0 0 1
-4.666402 23.275292 30.402071 38.572016 -1.372932 0.662934 0.004219 -0.014930 -82103.000000 0 0 1
-4.840502 23.541192 31.779291 39.843965 -1.368004 0.647501 0.002322 -0.013294 -22931.600000 0 0 1
-4.331502 24.823922 32.059401 40.777374 -1.398046 0.666152 0.013828 -0.015028 -75112.700000 0 0 1
-4.520302 25.291882 33.520343 42.234178 -1.393938 0.653965 0.020258 -0.011633 225787.000000 0 0 1
-5.876002 25.601432 33.795492 42.802991 -1.345185 0.660706 0.014243 -0.010381 101790.000000 0 0 1
-6.004402 26.132552 -33.718192 43.079921 -1.344949 2.469771 0.013451 -0.003357 402179.000000 0 0 1
-7.464002 26.414602 -33.248902 43.115334 -1.295405 2.451460 0.025136 0.000076 361383.000000 0 0 1
-7.974402 27.643822 -33.743872 44.344345 -1.289951 2.435574 0.027235 0.004437 330488.000000 0 0 1
-9.294902 27.967532 -33.313312 44.478701 -1.249934 2.417306 0.028504 0.007684 511656.000000 0 0 1
-9.396002 28.608072 -31.880012 43.852501 -1.253457 2.384714 0.033668 0.003834 -466341.000000 0 0 1
-8.625102 29.727162 -31.643362 44.265098 -1.288408 2.367221 0.038424 0.002970 -210785.000000 0 0 1
-8.843602 30.065072 -30.313632 43.600850 -1.284716 2.339568 0.036641 0.001931 -28528.000000 0 0 1
-8.345302 31.470932 -29.937252 44.230111 -1.311587 2.314274 0.023513 0.009406 126280.000000 0 0 1
-6.939702 31.631032 -29.961252 44.117551 -1.354823 2.317364 0.002348 0.002800 -48163.200000 0 0 1
-6.500802 32.912233 -29.589022 44.732379 -1.375787 2.293570 0.009763 0.004533 -1316730.000000 0 0 1
-5.014602 33.011143 -29.449092 44.521128 -1.420043 2.293565 0.020761 -0.000950 -1434390.000000 0 0 1
-4.583102 34.286104 -29.018662 45.151130 -1.437912 2.268815 0.023530 -0.000631 -119848.000000 0 0 1
-4.186602 -33.498844 -29.964752 45.139634 1.446463 2.296716 0.024845 -0.010870 700980.000000 0 0 1
-2.918502 -33.749864 -30.887862 45.843549 1.484536 2.310091 0.033780 -0.024514 379652.000000 0 0 1
-3.070202 34.082202 -31.948332 46.815794 -1.480957 2.321873 0.030856 -0.014288 179586.000000 0 0 1
-3.899602 -34.251768 -33.057612 47.761870 1.457433 2.335238 0.035234 -0.012195 306054.000000 0 0 1
-3.373902 -33.168914 -34.109696 47.697290 1.469426 2.367604 0.031286 -0.021388 -337.573000 0 0 1
-3.368902 -31.902444 -33.503402 46.385271 1.465586 2.377897 0.028757 -0.017766 -126128.000000 0 0 1
-2.582202 -31.079534 -34.296702 46.355895 1.487903 2.403653 0.027762 -0.026921 -98203.800000 0 0 1
31.562418 19.593956 11.892851 39.007041 0.555574 1.260974 0.045909 -0.019212 -270599.000000 0 0 1
32.271908 18.976356 12.971951 39.621328 0.531560 1.237248 0.040083 -0.023945 125120.000000 0 0 1
32.078158 17.549256 13.031051 38.817430 0.500597 1.228447 0.042559 -0.021519 -613606.000000 0 0 1
33.184988 16.777356 13.734851 39.640500 0.468094 1.216975 0.060938 -0.027621 -671980.000000 0 0 1
34.352328 16.810856 12.960351 40.381406 0.455104 1.244066 0.058381 -0.017244 -452709.000000 0 0 1
35.321728 15.980156 13.547551 41.067334 0.424862 1.234613 0.046768 -0.019588 604764.000000 0 0 1
-34.904623 15.655456 12.744351 40.321762 -0.421623 1.249216 0.056617 -0.027330 1065390.000000 0 0 1
-34.144289 14.490356 13.108151 39.339884 -0.401350 1.231098 0.064253 -0.033983 393623.000000 0 0 1
-34.833547 13.249756 12.870151 39.428071 -0.363473 1.238282 0.064492 -0.037734 -24902.500000 0 0 1
-34.169942 12.117556 13.673751 38.747794 -0.340790 1.210137 0.067088 -0.029804 84214.500000 0 0 1
-34.220623 12.266456 15.054851 39.346734 -0.344185 1.178166 0.067264 -0.031770 226340.000000 0 0 1
-33.677558 11.164856 15.833151 38.852549 -0.320120 1.151061 0.061597 -0.035071 92279.000000 0 0 1
-33.234018 11.583556 17.285751 39.210661 -0.335378 1.114259 0.062149 -0.017219 -937428.000000 0 0 1
-34.233994 12.036956 18.086051 40.545775 -0.338107 1.108432 0.069321 -0.011332 -757424.000000 0 0 1
-33.676508 12.468056 19.304251 40.770255 -0.354582 1.077549 0.043616 -0.023013 64473.700000 0 0 1
-34.706480 12.824856 20.430351 42.266014 -0.353961 1.066290 0.062883 -0.018596 808630.000000 0 0 1
-35.553812 11.764056 20.951551 42.911934 -0.319541 1.060718 0.057066 -0.000095 676411.000000 0 0 1
35.155908 12.254656 21.984051 43.236708 0.335409 1.037403 0.045215 -0.013354 -59040.600000 0 0 1
34.516938 11.117956 22.785351 42.827563 0.311608 1.009806 0.048980 -0.009813 -332592.000000 0 0 1
35.356138 10.691656 23.832401 43.958518 0.293656 0.997795 0.053101 -0.002862 -373594.000000 0 0 1
34.923248 10.941156 25.108031 44.381926 0.303606 0.969482 0.047191 -0.004283 -1035080.000000 0 0 1
-35.421075 11.113456 26.067561 45.361649 -0.304026 0.958607 0.024326 -0.004530 456832.000000 0 0 1
-34.595567 12.274656 25.851841 44.898086 -0.340948 0.957227 0.028346 -0.005957 912076.000000 0 0 1
-33.857038 12.331756 24.595271 43.626810 -0.349295 0.971859 0.025088 -0.008798 -575447.000000 0 0 1
-32.940088 13.599556 24.267771 43.115218 -0.391541 0.972956 0.023928 -0.005501 332207.000000 0 0 1
-31.899268 13.851556 25.143881 42.914376 -0.409661 0.944796 -0.000869 -0.004828 -127963.000000 0 0 1
-32.417818 14.337356 26.396561 44.195623 -0.416405 0.930708 -0.008704 -0.007346 -965955.000000 0 0 1
-31.409888 14.840956 27.400021 44.244730 -0.441401 0.902967 -0.007266 -0.003067 -711152.000000 0 0 1
-30.686148 15.982056 26.991391 43.881670 -0.480167 0.908290 0.011509 -0.013500 -322691.000000 0 0 1
-30.142858 16.622456 28.132171 44.455787 -0.503960 0.885616 0.019359 -0.010857 -137604.000000 0 0 1
-29.449888 17.937156 27.792171 44.288172 -0.547065 0.892419 0.030619 -0.011846 394850.000000 0 0 1
-30.362338 18.944956 27.296861 45.010016 -0.557853 0.919193 0.014865 -0.025287 684221.000000 0 0 1
-29.654658 20.155456 27.094351 44.941573 -0.596953 0.923691 0.012038 -0.020863 -190623.000000 0 0 1
-30.424088 21.087756 26.190211 45.345846 -0.606098 0.955053 0.014616 -0.011435 106590.000000 0 0 1
-31.669228 21.433356 26.803351 46.698483 -0.594977 0.959455 0.031660 -0.019843 674969.000000 0 0 1
-32.514198 22.267356 26.006121 47.215744 -0.600486 0.987482 0.050840 -0.016754 -155893.000000 0 0 1
-32.351118 23.785156 25.896771 47.780448 -0.633974 0.997987 0.049297 -0.016086 -86273.700000 0 0 1
-33.422348 24.322056 25.120821 48.370150 -0.629088 1.024711 0.066312 -0.020294 515428.000000 0 0 1
-33.297438 25.698556 25.168121 49.016012 -0.657300 1.031576 0.063977 -0.016044 437293.000000 0 0 1
-34.464332 26.406656 24.419511 49.813795 -0.653790 1.058459 0.069595 -0.010555 124747.000000 0 0 1
-34.414709 26.355156 23.007851 49.074715 -0.653543 1.082827 0.073610 -0.014054 219093.000000 0 0 1
-35.533720 26.828856 22.260251 49.779027 -0.646710 1.107185 0.067352 -0.016615 179086.000000 0 0 1
-35.206657 26.572156 20.749851 48.745712 -0.646533 1.131088 0.090688 -0.024079 166035.000000 0 0 1
-35.259810 25.175756 20.371251 47.875471 -0.620065 1.131277 0.072793 -0.021067 39738.900000 0 0 1
-34.468656 24.937756 19.226051 46.686411 -0.626318 1.146354 0.066536 -0.021809 -102352.000000 0 0 1
-34.782780 23.567256 18.519951 45.915639 -0.595503 1.155624 0.064925 -0.023473 567550.000000 0 0 1
35.521365 23.539556 17.813051 46.186392 0.585243 1.174854 0.054295 -0.027074 68118.600000 0 0 1
35.726211 22.853956 16.572451 45.533631 0.569098 1.198280 0.054172 -0.028516 -13002.300000 0 0 1
34.493028 22.778656 15.638951 44.195168 0.583641 1.209100 0.047869 -0.019777 270112.000000 0 0 1
33.666888 21.670056 16.004051 43.118213 0.571906 1.190531 0.041011 -0.026489 447369.000000 0 0 1
32.511848 21.570556 15.152951 41.855956 0.585785 1.200356 0.033570 -0.023050 -58414.700000 0 0 1
31.425258 20.622556 15.678051 40.726378 0.580750 1.175631 0.025165 -0.019523 406419.000000 0 0 1
30.662868 21.073256 16.835551 40.837842 0.602122 1.145870 0.011265 -0.016549 770582.000000 0 0 1
29.631638 21.995656 16.444151 40.401150 0.638557 1.151605 0.005760 -0.009688 75234.800000 0 0 1
28.751108 22.597756 17.551651 40.562855 0.666133 1.123308 -0.002305 -0.006566 3444.080000 0 0 1
29.453388 23.497356 18.342851 41.905703 0.673386 1.117738 -0.015239 0.005150 -130433.000000 0 0 1
28.593528 24.060856 19.350551 42.082757 0.699526 1.093002 -0.016598 0.009022 302246.000000 0 0 1
29.305378 24.897056 20.457651 43.556676 0.704246 1.081869 -0.007709 -0.001264 431269.000000 0 0 1
29.941498 26.159356 20.113451 44.557335 0.718083 1.102456 0.000183 -0.002337 92687.900000 0 0 1
30.775778 26.492956 21.186651 45.802831 0.710752 1.089914 0.008775 -0.001802 -248491.000000 0 0 1
32.169808 27.046556 20.796151 46.892351 0.699096 1.111311 0.024151 -0.006547 -371373.000000 0 0 1
32.988668 27.558556 21.771651 48.184344 0.695954 1.101969 0.035121 -0.002139 -405890.000000 0 0 1
32.480528 28.685456 22.528651 48.840354 0.723432 1.091369 0.003727 0.006732 -456036.000000 0 0 1
33.233098 29.009756 23.856311 50.151055 0.717649 1.075049 0.013686 -0.001397 924518.000000 0 0 1
34.499698 29.677856 23.651551 51.287426 0.710406 1.091498 0.033708 -0.006958 309143.000000 0 0 1
35.027068 30.003456 24.856111 52.392071 0.708301 1.076486 0.037302 -0.005072 -194176.000000 0 0 1
-35.250639 30.880756 24.761711 53.003499 -0.719415 1.084708 0.040598 -0.006877 7276.510000 0 0 1
-34.040658 30.250656 24.396281 51.662821 -0.726516 1.078987 0.048630 -0.005629 14947.000000 0 0 1
-33.035228 31.251456 24.575311 51.690673 -0.757658 1.075343 0.043385 -0.003481 632463.000000 0 0 1
-31.557508 30.853356 24.280211 50.371961 -0.774116 1.067839 0.060417 -0.002774 526340.000000 0 0 1
-31.102598 30.594056 22.915751 49.279808 -0.777156 1.087147 0.053080 -0.002441 407412.000000 0 0 1
-31.745018 29.475756 22.259651 48.703782 -0.748348 1.096130 0.066486 -0.006398 -354471.000000 0 0 1
-31.298378 28.101756 22.758551 47.825190 -0.731635 1.074844 0.066828 -0.006837 73430.600000 0 0 1
-29.876828 28.015756 22.729551 46.841647 -0.753262 1.064156 0.047155 -0.005037 359645.000000 0 0 1
-29.378198 27.006556 23.576451 46.349559 -0.743361 1.037162 0.046344 -0.013886 3396.780000 0 0 1
-29.100708 27.513756 25.049171 47.236839 -0.757375 1.011855 0.050913 -0.013664 -325685.000000 0 0 1
-30.264038 27.622956 25.831641 48.437726 -0.739805 1.008304 0.045455 -0.007230 -87059.000000 0 0 1
-29.923888 28.111656 27.141151 49.217338 -0.754182 0.986689 0.045290 -0.007317 164160.000000 0 0 1
-31.133448 28.275056 28.121711 50.592499 -0.737321 0.981414 0.033127 -0.014903 304336.000000 0 0 1
-31.592928 26.961756 28.417721 50.325105 -0.706471 0.970747 0.025103 -0.015278 -757138.000000 0 0 1
-32.677218 27.003756 29.254161 51.505430 -0.690620 0.966744 0.018135 -0.010305 -770679.000000 0 0 1
-33.180998 25.598356 29.766931 51.403547 -0.657105 0.953193 0.023108 -0.009993 70618.300000 0 0 1
-32.391698 25.154856 30.858021 51.324520 -0.660299 0.925752 0.025084 -0.016192 32587.800000 0 0 1
-32.805958 23.890356 31.295701 51.248423 -0.629424 0.913894 0.022977 -0.024556 142409.000000 0 0 1
-31.817128 23.280456 32.349511 50.998040 -0.631683 0.883657 0.029937 -0.028293 -268924.000000 0 0 1
-30.737268 22.607556 31.747781 49.636708 -0.634163 0.876815 0.029716 -0.022391 -406499.000000 0 0 1
-30.079158 21.695456 32.599711 49.378028 -0.624865 0.849702 0.032759 -0.022712 -143756.000000 0 0 1
-29.155028 22.206456 33.724525 49.804477 -0.650927 0.826929 0.030443 -0.024298 -829659.000000 0 0 1
-29.733738 23.168356 -34.174831 50.880123 -0.661925 2.307262 0.036741 -0.025229 -258208.000000 0 0 1
-29.532138 22.910956 -32.779502 49.714734 -0.659808 2.290753 0.028231 -0.018064 306207.000000 0 0 1
-28.085908 23.006856 -32.189752 48.521271 -0.686315 2.296170 0.045527 -0.021164 296828.000000 0 0 1
-27.647588 24.370956 -32.111012 48.881998 -0.722492 2.287508 0.048127 -0.020140 146461.000000 0 0 1
-27.255748 24.741856 -30.780912 47.984370 -0.737089 2.267220 0.065648 -0.017353 -205518.000000 0 0 1
-28.106378 25.879156 -30.161702 48.676765 -0.744166 2.239071 0.041411 -0.004857 -176429.000000 0 0 1
-27.931438 27.234756 -30.621802 49.594273 -0.772770 2.236288 0.043166 -0.001432 75310.100000 0 0 1
-28.606828 27.592156 -31.819902 50.913494 -0.767345 2.245902 0.032221 0.003365 -213780.000000 0 0 1
-28.425488 29.071456 -32.195532 51.862416 -0.796633 2.240543 0.027842 0.006051 -45075.200000 0 0 1
-28.962938 29.941456 -31.230672 52.064358 -0.802009 2.214107 0.020852 -0.002708 97130.000000 0 0 1
-28.483378 31.234456 -31.475962 52.703228 -0.831434 2.210840 0.027655 -0.016745 26006.400000 0 0 1
-28.945688 32.280256 -30.431552 52.971191 -0.839808 2.182780 0.032508 -0.004968 55122.200000 0 0 1
-27.958068 32.574056 -29.459112 52.063057 -0.861508 2.172242 0.022792 0.000967 196636.000000 0 0 1
-28.337488 33.616756 -28.568192 52.433206 -0.870405 2.147006 0.018186 0.003197 -72067.100000 0 0 1
-27.271978 33.680756 -27.441012 51.294866 -0.890157 2.135264 0.025704 0.000560 851971.000000 0 0 1
-25.993078 34.236756 -27.777882 51.180136 -0.921423 2.144501 0.006834 0.003173 344966.000000 0 0 1
-25.864878 -33.103181 -28.007682 50.490027 0.907537 2.158819 0.018043 0.013799 -822301.000000 0 0 1
-26.206988 -32.072981 -26.887592 49.380411 0.885712 2.146588 0.014120 0.010996 -614617.000000 0 0 1
-27.576768 -32.134681 -26.626642 50.020935 0.861583 2.132123 0.008577 0.004231 -700824.000000 0 0 1
-27.967958 -31.136581 -25.681272 49.104186 0.838957 2.121158 0.000270 0.008413 140938.000000 0 0 1
-29.504268 -30.994881 -25.599252 49.864880 0.810032 2.109906 -0.003259 0.002316 104037.000000 0 0 1
-30.009518 -30.070581 -26.578682 50.112248 0.786415 2.129849 0.003528 -0.002941 -715070.000000 0 0 1
-31.359338 -29.832981 -26.437862 50.718590 0.760460 2.119130 0.000383 -0.012642 -1111020.000000 0 0 1
-31.930718 -28.888881 -27.518282 51.101801 0.735426 2.139451 0.009674 -0.018784 -159796.000000 0 0 1
-33.333468 -28.809781 -27.376812 51.871123 0.712732 2.126787 0.015301 -0.023906 -100356.000000 0 0 1
-33.875538 -27.956681 -28.355832 52.279837 0.689964 2.144070 0.028181 -0.027644 -365017.000000 0 0 1
-35.347281 -28.238681 -28.648022 53.549627 0.674065 2.135281 0.021396 -0.032016 -440398.000000 0 0 1
35.265328 -27.756181 -27.736702 52.757687 -0.666805 2.124378 0.013380 -0.026614 -943361.000000 0 0 1
33.975138 -27.827381 -28.267342 52.227538 -0.686250 2.142701 0.028976 -0.023866 -23301.000000 0 0 1
32.880478 -27.367481 -27.243042 50.717731 -0.694147 2.137851 0.032977 -0.025343 150062.000000 0 0 1
32.781368 -28.252981 -26.102792 50.539141 -0.711340 2.113539 0.021768 -0.022043 655243.000000 0 0 1
31.871248 -27.651681 -25.146902 49.119839 -0.714627 2.108250 0.019875 -0.013228 478241.000000 0 0 1
31.843158 -28.361881 -23.753512 48.812010 -0.727639 2.079027 0.015654 -0.010743 156265.000000 0 0 1
31.245068 -29.690981 -23.760312 49.217487 -0.759900 2.074602 0.027235 -0.010431 332306.000000 0 0 1
30.817518 -30.185781 -22.465012 48.637203 -0.775043 2.050921 0.037175 -0.016629 -33043.500000 0 0 1
31.910988 -30.287181 -21.377312 48.914353 -0.759297 2.023096 0.028938 -0.013384 -572049.000000 0 0 1
33.026718 -31.068781 -21.766112 50.297086 -0.754860 2.018338 0.020472 -0.012786 1484100.000000 0 0 1
34.173288 -31.067781 -20.835612 50.666985 -0.737834 1.994596 0.022395 -0.009067 1807120.000000 0 0 1
35.035378 -29.773081 -20.892212 50.501471 -0.704378 1.997305 0.009512 -0.006416 -435913.000000 0 0 1
34.303328 -28.679681 -20.395112 49.144715 -0.696346 1.998740 0.010412 -0.001537 -37262.700000 0 0 1
34.822048 -27.505981 -20.975712 49.082935 -0.668553 2.012359 0.002597 -0.004158 -104875.000000 0 0 1
33.938318 -26.303781 -20.647312 47.644620 -0.659339 2.019015 0.005989 -0.002380 -339906.000000 0 0 1
32.820308 -26.277281 -21.481012 47.213367 -0.675132 2.043143 0.019068 -0.005562 -246201.000000 0 0 1
31.813278 -25.387781 -20.995312 45.797677 -0.673535 2.047031 0.031778 -0.003399 878904.000000 0 0 1
30.539568 -25.326381 -21.912812 45.323969 -0.692352 2.075412 0.027025 -0.010907 800444.000000 0 0 1
29.736188 -26.513781 -21.872412 45.449135 -0.728173 2.072877 0.039904 -0.014527 538513.000000 0 0 1
28.632038 -26.424981 -22.781612 45.133968 -0.745333 2.099895 0.032702 -0.012939 628698.000000 0 0 1
27.951758 -27.773081 -23.136412 45.693964 -0.782192 2.101725 0.039170 -0.010084 89658.300000 0 0 1
27.219948 -28.376881 -22.081612 45.097345 -0.806205 2.082477 0.047188 -0.015330 -15948.400000 0 0 1
26.830758 -29.677981 -22.451312 45.877375 -0.835741 2.082171 0.054732 -0.017625 -290070.000000 0 0 1
26.078098 -30.437181 -21.345612 45.410619 -0.862377 2.060152 0.059432 -0.011259 141531.000000 0 0 1
26.806988 -30.885281 -20.165012 45.597620 -0.855971 2.028889 0.071921 -0.020802 320959.000000 0 0 1
27.746128 -31.925481 -20.428712 46.972505 -0.855323 2.020732 0.067034 -0.019579 540995.000000 0 0 1
28.793488 -32.198481 -19.290912 47.306938 -0.841167 1.990820 0.062770 -0.020746 513785.000000 0 0 1
28.323848 -32.732081 -17.977312 46.870174 -0.857473 1.964439 0.060656 -0.023243 -41678.900000 0 0 1
27.398508 -31.905781 -17.303012 45.475832 -0.861255 1.961120 0.042898 -0.022288 -234535.000000 0 0 1
26.939288 -32.536381 -15.982212 45.163840 -0.879229 1.932504 0.046629 -0.015057 -97328.100000 0 0 1
25.699098 -33.200281 -16.099512 44.965504 -0.912072 1.936966 0.041963 -0.010497 -87343.200000 0 0 1
25.357798 -33.876681 -14.894312 44.860762 -0.928235 1.909232 0.042010 -0.010071 616210.000000 0 0 1
23.812498 -34.119581 -14.823412 44.169157 -0.961472 1.913044 0.047496 -0.014139 551027.000000 0 0 1
23.041998 -32.960781 -14.733212 42.830063 -0.960693 1.921962 0.050269 -0.009787 -129404.000000 0 0 1
21.706798 -33.280381 -14.408012 42.265348 -0.992848 1.918664 0.047910 -0.016831 -94468.600000 0 0 1
-0.490118 -6.859544 -29.156232 29.956292 1.499467 2.909958 0.039263 -0.001760 152689.000000 0 0 1
-0.195418 -8.230644 -29.053102 30.197093 1.547058 2.865456 0.036126 0.000146 -100882.000000 0 0 1
-0.233118 -8.766644 -30.351272 31.592849 1.544211 2.860312 0.033882 -0.006233 -71728.500000 0 0 1
-0.078618 -10.338044 -30.327382 32.041090 1.563192 2.813055 0.033056 -0.006708 255640.000000 0 0 1
1.191682 -10.785144 -29.882502 31.791561 -1.460750 2.793282 0.011648 -0.009280 -26807.500000 0 0 1
1.302282 -12.186644 -29.736452 32.163128 -1.464339 2.750652 0.019802 -0.015036 41243.200000 0 0 1
2.694482 -12.675144 -29.278992 32.018415 -1.361334 2.724924 0.017698 -0.006305 67866.400000 0 0 1
3.688282 -12.567844 -30.325952 33.033581 -1.285341 2.733890 0.024366 -0.006524 1362930.000000 0 0 1
5.057182 -12.828044 -29.958862 32.979800 -1.195275 2.710238 0.048654 -0.009347 1259780.000000 0 0 1
5.432582 -14.209744 -29.408452 33.110222 -1.205629 2.664206 0.050056 -0.014897 -1390080.000000 0 0 1
5.024582 -14.428044 -28.074612 31.962458 -1.235680 2.643221 0.043452 -0.009710 -122265.000000 0 0 1
5.793782 -15.360444 -27.336062 31.886854 -1.210108 2.600766 0.063569 -0.018788 -421255.000000 0 0 1
5.453082 -16.834844 -27.583342 32.771769 -1.257545 2.571183 0.051380 -0.015749 -69603.900000 0 0 1
5.615582 -17.266044 -28.935112 34.159797 -1.256349 2.581210 0.048004 -0.025088 167581.000000 0 0 1
5.252582 -18.652444 -28.940122 34.828637 -1.296302 2.551572 0.044116 -0.021807 -182924.000000 0 0 1
5.358682 -19.285044 -30.389982 36.389276 -1.299766 2.559176 0.048108 -0.021970 585537.000000 0 0 1
6.733782 -19.452244 -30.759032 37.011507 -1.237538 2.551819 0.042619 -0.021362 697356.000000 0 0 1
6.907082 -19.966744 -32.064072 38.399002 -1.237753 2.558972 0.049708 -0.024948 55975.800000 0 0 1
8.397282 -20.032244 -32.485552 39.078335 -1.173859 2.552226 0.046621 -0.024789 282046.000000 0 0 1
8.953182 -18.781144 -32.795762 38.838806 -1.125953 2.576254 0.044871 -0.026720 1311130.000000 0 0 1
10.234882 -18.795344 -33.492862 39.746567 -1.072152 2.573002 0.034875 -0.023352 607542.000000 0 0 1
10.574482 -17.382244 -34.073412 39.685759 -1.024260 2.603290 0.036044 -0.014300 373426.000000 0 0 1
9.633682 -17.022444 33.646150 38.918310 -1.055798 0.526577 0.053230 -0.018860 791527.000000 0 0 1
9.824882 -15.677544 33.175139 37.985570 -1.010986 0.508734 0.041977 -0.016794 -70578.900000 0 0 1
8.734282 -15.212144 32.185991 36.655627 -1.049590 0.498995 0.057865 -0.026708 7034.020000 0 0 1
8.876782 -15.991744 31.038041 36.026284 -1.064057 0.532503 0.046205 -0.024079 440143.000000 0 0 1
7.861682 -15.546944 30.139601 34.812484 -1.102620 0.524110 0.052272 -0.018787 146913.000000 0 0 1
7.995482 -16.183744 28.742321 33.940570 -1.111925 0.560776 0.038455 -0.002704 -282626.000000 0 0 1
7.457682 -17.496944 28.774701 34.492658 -1.167886 0.584067 0.038159 -0.009524 407645.000000 0 0 1
7.610382 -18.059644 27.468791 33.743194 -1.171977 0.619697 0.027899 -0.003150 -117232.000000 0 0 1
7.148682 -19.559444 27.496451 34.492468 -1.220394 0.648199 0.027976 -0.007758 -169092.000000 0 0 1
7.913782 -20.319844 28.415291 35.818330 -1.199408 0.654558 0.031949 -0.003509 369842.000000 0 0 1
7.179982 -21.313644 29.100621 36.778658 -1.245864 0.657968 0.022772 -0.010349 -172565.000000 0 0 1
7.708582 -21.473744 30.573841 38.148442 -1.226147 0.641091 0.017930 -0.011063 -118223.000000 0 0 1
7.252482 -20.562544 31.568371 38.366375 -1.231715 0.604452 0.043030 -0.015700 146823.000000 0 0 1
7.425082 -19.183044 31.412251 37.547976 -1.201490 0.579768 0.036981 -0.016427 -604888.000000 0 0 1
6.777582 -18.377044 32.523741 37.966368 -1.217466 0.542063 0.045611 -0.014571 -570863.000000 0 0 1
5.400282 -18.641744 32.473741 37.831488 -1.288827 0.538696 0.060219 -0.022930 -781697.000000 0 0 1
4.755882 -17.802644 33.413521 38.157777 -1.309748 0.503980 0.052722 -0.023957 -549728.000000 0 0 1
3.248082 -17.990144 33.513841 38.175553 -1.392173 0.499364 0.056182 -0.021044 -190673.000000 0 0 1
2.705982 -19.108344 34.257002 39.319122 -1.430119 0.513042 0.042965 -0.027239 152596.000000 0 0 1
2.364882 -18.683244 -33.225712 38.191677 -1.444888 2.625943 0.035455 -0.031200 -328101.000000 0 0 1
2.069582 -19.804344 -32.190742 37.851540 -1.466673 2.587631 0.037180 -0.005901 -544348.000000 0 0 1
0.834782 -20.414844 -32.451492 38.347908 -1.529928 2.579682 0.033304 -0.009539 -173992.000000 0 0 1
0.335082 -21.298044 -31.473282 38.003769 -1.555065 2.546617 0.025764 -0.009736 29908.200000 0 0 1
-0.449818 -20.612444 -30.321252 36.666790 1.548977 2.544441 0.021559 -0.011936 -196716.000000 0 0 1
-1.752718 -20.259344 -30.757972 36.872292 1.484497 2.557433 0.027666 -0.021131 27101.400000 0 0 1
-2.380118 -19.176844 -30.060962 35.736225 1.447314 2.570277 0.042120 -0.013538 144707.000000 0 0 1
-1.785318 -17.697844 -30.174592 35.027233 1.470259 2.608936 0.023463 -0.008088 -493505.000000 0 0 1
-2.618818 -16.707944 -29.656252 34.139521 1.415320 2.623324 0.033260 -0.012227 -453502.000000 0 0 1
-2.194018 -15.448444 -30.056702 33.865521 1.429718 2.662755 0.037738 -0.017082 93898.600000 0 0 1
-3.225818 -14.395044 -29.572672 33.047937 1.350346 2.678873 0.033508 -0.010223 439454.000000 0 0 1
-3.054818 -14.042544 -28.216552 31.665419 1.356593 2.670525 0.026402 -0.014671 134147.000000 0 0 1
-4.179218 -13.243144 -27.907162 31.171404 1.265112 2.679858 0.023275 -0.011427 156637.000000 0 0 1
-4.343118 -12.913444 -26.431912 29.736605 1.246355 2.665664 0.018961 -0.012211 -486608.000000 0 0 1
-4.766418 -14.014244 -25.671302 29.633318 1.242957 2.618541 0.016300 -0.010046 -21542.300000 0 0 1
-4.822418 -13.876444 -24.237012 28.341563 1.236328 2.596686 0.009050 -0.005947 156571.000000 0 0 1
-5.686818 -12.688444 -23.613112 27.402839 1.149450 2.609413 0.010786 -0.010709 1752510.000000 0 0 1
-7.128318 -12.861744 -23.831412 28.003100 1.064714 2.588736 0.004136 -0.011540 1441820.000000 0 0 1
-7.756418 -11.999444 -22.902212 26.993703 0.996957 2.583805 0.003172 -0.015732 -369257.000000 0 0 1
-9.275018 -11.786044 -23.057112 27.505767 0.904064 2.564889 0.016852 -0.016158 28482.000000 0 0 1
-10.096618 -12.862044 -22.606712 27.900489 0.905273 2.515396 0.015486 -0.010638 47830.300000 0 0 1
-10.218418 -13.948744 -23.532412 29.202020 0.938545 2.507904 -0.006603 -0.009282 -280686.000000 0 0 1
-11.048118 -15.184944 -22.990812 29.685365 0.941805 2.456694 -0.009438 -0.016903 -165089.000000 0 0 1
-10.445618 -15.977544 -21.941612 29.083109 0.991776 2.425605 -0.004678 -0.007229 -565905.000000 0 0 1
-11.279118 -16.896144 -21.286412 29.424642 0.982178 2.379541 -0.004149 0.007436 -176320.000000 0 0 1
-11.851718 -18.133844 -22.051712 30.912417 0.991916 2.365079 -0.012147 0.013890 70632.700000 0 0 1
-12.663018 -17.727544 -23.124112 31.770150 0.950529 2.385987 -0.009195 0.005531 -424416.000000 0 0 1
-13.122018 -18.829344 -23.888512 33.126916 0.962159 2.376215 0.001663 0.006272 -32824.600000 0 0 1
-14.228918 -18.369744 -24.853512 34.023619 0.911746 2.389818 -0.001012 -0.001429 -138951.000000 0 0 1
-15.474518 -18.079544 -24.258012 33.982080 0.862879 2.365773 0.018247 -0.006133 10197.200000 0 0 1
-16.247818 -17.408344 -25.279212 34.728671 0.819866 2.386060 0.037886 -0.015220 433226.000000 0 0 1
-17.013218 -16.152444 -24.806112 34.142265 0.759450 2.384086 0.025182 -0.012688 766168.000000 0 0 1
-18.160218 -16.247344 -23.934712 34.156115 0.729861 2.347237 0.046537 -0.017134 977246.000000 0 0 1
-18.806118 -15.000544 -23.797812 33.838178 0.673301 2.350801 0.045496 -0.024329 163465.000000 0 0 1
-19.663918 -14.818144 -22.526912 33.372277 0.645782 2.311786 0.043022 -0.033380 312952.000000 0 0 1
-18.839518 -14.708444 -21.356012 32.052223 0.662876 2.300016 0.048079 -0.028088 487011.000000 0 0 1
-19.548118 -14.859444 -20.117612 31.743508 0.649964 2.257194 0.047312 -0.023827 70182.100000 0 0 1
-20.087218 -13.543744 -19.480412 31.087229 0.593232 2.248027 0.061325 -0.027450 -113733.000000 0 0 1
-21.420418 -13.174144 -19.728112 31.962334 0.551396 2.236014 0.059478 -0.034244 -47061.400000 0 0 1
-21.834118 -12.029344 -19.001712 31.344839 0.503567 2.222089 0.064895 -0.029751 -481950.000000 0 0 1
-23.244518 -11.512944 -19.201412 32.273050 0.459878 2.208021 0.067246 -0.028239 -601054.000000 0 0 1
-23.575418 -10.998744 -20.468512 33.101853 0.436519 2.237437 0.065057 -0.034764 -20309.400000 0 0 1
-24.908518 -10.526544 -20.486512 33.925501 0.399843 2.219141 0.057757 -0.026844 57850.400000 0 0 1
-25.223438 -9.851144 -21.830512 34.782728 0.372338 2.249295 0.059523 -0.022565 -269302.000000 0 0 1
-25.307238 -10.578944 -23.037512 35.820348 0.395944 2.269389 0.047523 -0.021161 586635.000000 0 0 1
-26.073068 -9.834844 -23.990212 36.770359 0.360701 2.281587 0.036141 -0.012178 64805.100000 0 0 1
-25.964618 -10.494444 -25.392362 37.803000 0.384107 2.307301 0.020500 -0.008578 178597.000000 0 0 1
-24.896618 -10.080744 -26.215592 37.532922 0.384727 2.344053 0.008269 -0.003997 590612.000000 0 0 1
-23.872918 -11.065344 -26.432472 37.296563 0.434032 2.358465 0.019481 -0.011602 1042260.000000 0 0 1
-22.733518 -10.742044 -27.440082 37.217771 0.441423 2.399838 0.014838 -0.008492 516574.000000 0 0 1
-23.272118 -10.899644 -28.768542 38.574898 0.438014 2.412507 0.014781 0.001029 59639.400000 0 0 1
-22.303818 -10.722144 -29.769322 38.712236 0.448114 2.448056 0.013669 0.008468 -136686.000000 0 0 1
-22.749418 -11.114044 -31.187512 40.171120 0.454439 2.459677 -0.001402 0.007073 629633.000000 0 0 1
-23.660718 -10.185344 -31.869752 40.978676 0.406499 2.461820 -0.007185 -0.000380 784898.000000 0 0 1
-23.083118 -9.456944 -32.931712 41.312974 0.388833 2.493319 -0.005485 -0.003142 -433091.000000 0 0 1
-24.050418 -8.418744 -33.576362 42.150563 0.336715 2.492416 -0.013971 -0.010631 -183464.000000 0 0 1
-25.071718 -8.824744 34.296622 43.390384 0.338438 0.659302 0.002244 -0.016405 1781610.000000 0 0 1
-26.252418 -9.504744 -33.966732 43.968949 0.347371 2.453591 0.001453 -0.016379 764423.000000 0 0 1
-27.144168 -8.732144 -32.963482 43.584944 0.311240 2.428442 0.008904 -0.006353 -1825680.000000 0 0 1
-28.435908 -9.203444 -32.925362 44.467783 0.313016 2.404509 0.017757 -0.013850 -929069.000000 0 0 1
-29.091028 -8.599244 -31.831712 43.971500 0.287413 2.380259 0.022360 -0.014001 493685.000000 0 0 1
-30.638098 -8.827144 -31.805182 45.035332 0.280513 2.354952 0.021377 -0.018125 477583.000000 0 0 1
-30.885978 -10.194544 -31.739312 45.445091 0.318811 2.343970 0.016456 -0.015117 -134489.000000 0 0 1
-32.239078 -10.540444 -31.567522 46.335381 0.315991 2.320311 0.004525 -0.014355 -287610.000000 0 0 1
-32.489008 -12.123244 -31.580922 46.902701 0.357147 2.309498 0.017116 -0.010428 -472556.000000 0 0 1
-33.816578 -12.561944 -31.430592 47.846061 0.355675 2.287510 0.015796 -0.004621 -228100.000000 0 0 1
-33.930058 -13.949944 -31.809752 48.556257 0.390071 2.285126 0.015300 -0.009172 312987.000000 0 0 1
-35.277927 -14.655544 -31.502132 49.514659 0.393738 2.260383 0.010843 -0.017715 257563.000000 0 0 1
-35.425720 -14.607544 -30.102022 48.728777 0.391101 2.236670 0.010631 -0.013942 -113976.000000 0 0 1
35.669975 -15.858344 -29.656892 49.024131 -0.418342 2.220493 0.004778 -0.011260 -147375.000000 0 0 1
35.596694 -15.926144 -28.104552 48.069039 -0.420694 2.195270 0.007215 0.000566 -553712.000000 0 0 1
-34.729976 -15.836644 -27.434582 47.006668 0.427827 2.193990 0.022065 -0.012600 -500817.000000 0 0 1
-34.797876 -16.167344 -26.065502 46.386265 0.434935 2.167505 0.023990 -0.009081 607251.000000 0 0 1
-33.412788 -15.871844 -25.401552 44.872806 0.443467 2.172538 0.046776 -0.011602 1482870.000000 0 0 1
-32.287998 -16.718244 -25.711842 44.532161 0.477774 2.186309 0.054101 -0.019268 892595.000000 0 0 1
-31.102428 -16.320244 -25.033512 43.132217 0.483232 2.190004 0.068107 -0.007528 -21062.800000 0 0 1
-29.899568 -17.194444 -25.302552 42.776772 0.521889 2.203717 0.054341 -0.014081 -619826.000000 0 0 1
-29.843098 -18.482744 -24.613212 42.872282 0.554512 2.182308 0.060886 -0.024286 -75853.400000 0 0 1
-30.633038 -19.508344 -25.188172 44.197314 0.567068 2.177184 0.052084 -0.030995 -107423.000000 0 0 1
-30.441668 -20.871444 -24.504412 44.303257 0.601010 2.156885 0.052639 -0.038291 -513198.000000 0 0 1
-29.089258 -21.193244 -24.376612 43.469044 0.629637 2.166125 0.041162 -0.023395 -416033.000000 0 0 1
-28.884938 -22.400144 -23.680912 43.553320 0.659620 2.145662 0.035229 -0.015164 285550.000000 0 0 1
-27.416208 -22.947744 -23.760412 42.927900 0.696906 2.157352 0.021612 -0.011212 1118670.000000 0 0 1
-26.328078 -22.312844 -23.091312 41.523962 0.703036 2.160477 0.016523 -0.014918 255146.000000 0 0 1
-26.419238 -22.150544 -21.674312 40.723440 0.697736 2.132031 0.036123 -0.019339 -474638.000000 0 0 1
-26.470318 -23.429644 -20.780312 41.005455 0.724538 2.102230 0.031866 -0.019103 -27684.800000 0 0 1
-26.519508 -22.965444 -19.464312 40.119265 0.713700 2.077344 0.030791 -0.014115 -104530.000000 0 0 1
-26.640548 -24.065244 -18.507112 40.390197 0.734653 2.046774 0.026414 0.006034 49697.300000 0 0 1
-26.538848 -23.602844 -17.018612 39.383218 0.726911 2.017648 0.020682 0.015230 162366.000000 0 0 1
-27.709308 -22.913844 -16.613712 39.608906 0.690951 2.003629 0.026769 0.009343 -143718.000000 0 0 1
-27.547188 -21.923744 -15.575912 38.498145 0.672212 1.987325 0.026141 0.012381 222902.000000 0 0 1
-28.895368 -21.388244 -15.016312 38.960094 0.637197 1.966468 0.020090 0.015561 453502.000000 0 0 1
-29.722398 -20.761944 -15.958512 39.612541 0.609738 1.985441 0.012969 0.013871 -216244.000000 0 0 1
-31.024798 -20.491044 -15.487112 40.277433 0.583702 1.965474 0.027615 0.016932 311251.000000 0 0 1
-31.951778 -19.734844 -16.490212 41.015940 0.553293 1.984544 0.023012 0.006869 215248.000000 0 0 1
-32.448048 -20.643044 -17.508012 42.255669 0.566604 1.998009 0.012467 0.006002 -118171.000000 0 0 1
-33.211688 -19.899544 -18.430812 42.880099 0.539811 2.015092 0.015822 0.015882 79367.500000 0 0 1
-34.083602 -20.751644 -19.420112 44.378637 0.546898 2.023725 0.007203 0.011514 689327.000000 0 0 1
-35.238269 -21.382144 -18.867812 45.331292 0.545395 2.000081 -0.001939 0.010565 -99546.400000 0 0 1
-34.952701 -22.483944 -17.995512 45.288603 0.571628 1.979426 0.006055 0.006021 127214.000000 0 0 1
35.556627 -23.680044 -17.971612 46.346489 -0.587528 1.969004 0.003368 0.009575 543349.000000 0 0 1
34.202298 -23.421044 -17.697012 45.072461 -0.600438 1.974291 0.006844 0.003917 34943.700000 0 0 1
33.510868 -24.623144 -17.380212 45.070492 -0.633689 1.966679 -0.001155 0.000798 894986.000000 0 0 1
32.037638 -24.533644 -16.851112 43.729509 -0.653521 1.966382 -0.002412 0.000508 1340830.000000 0 0 1
31.078028 -24.132944 -17.864412 43.213193 -0.660264 1.996983 0.003378 -0.001755 777422.000000 0 0 1
29.755248 -24.328644 -17.355512 42.171928 -0.685396 1.994941 0.016792 -0.009546 720011.000000 0 0 1
28.620928 -24.090044 -18.370712 41.676982 -0.699652 2.027273 0.035781 -0.003987 53053.800000 0 0 1
28.429488 -22.698044 -18.583212 40.850615 -0.673763 2.043064 0.029289 0.005673 9164.890000 0 0 1
27.238508 -22.313844 -19.231512 40.121005 -0.686340 2.070696 0.022726 -0.005115 -500972.000000 0 0 1
34.393788 29.662556 -18.381212 48.996620 0.711672 1.955358 0.016971 -0.007711 -372602.000000 0 0 1
33.391258 30.081556 -19.252012 48.892904 0.733302 1.975514 0.017189 -0.004553 -534321.000000 0 0 1
33.632858 29.734556 -20.576512 49.383254 0.723957 2.000575 0.015232 0.006016 -549951.000000 0 0 1
32.535238 30.052656 -21.603112 49.278781 0.745753 2.024598 0.007200 0.012763 287409.000000 0 0 1
31.401308 29.135356 -21.540912 47.947075 0.747985 2.036738 0.012962 -0.003116 1494710.000000 0 0 1
30.437468 29.322956 -22.604312 47.929428 0.766751 2.061919 0.021926 0.010712 1251070.000000 0 0 1
29.420498 30.517056 -22.548112 48.013266 0.803691 2.059660 0.026765 0.009987 -460348.000000 0 0 1
30.125788 31.755256 -22.634212 49.277448 0.811724 2.048028 0.033523 0.004822 -20252.500000 0 0 1
29.271058 32.852756 -22.811912 49.562907 0.842989 2.049086 0.035757 0.006781 -589302.000000 0 0 1
30.008908 34.205056 -22.705912 50.853504 0.850652 2.033642 0.033602 0.004982 8997.970000 0 0 1
30.508508 -34.249481 -21.412012 50.618873 -0.843103 2.007555 0.039650 -0.008446 1339510.000000 0 0 1
31.842858 33.935556 -21.235012 51.151884 0.817202 1.998889 0.037677 -0.007829 831267.000000 0 0 1
32.212868 33.829856 -19.740612 50.713112 0.809877 1.970625 0.032617 -0.016430 -251374.000000 0 0 1
32.108798 -33.696381 -19.066912 50.298789 -0.809519 1.959591 0.046185 -0.019859 142336.000000 0 0 1
32.115368 -33.905081 -17.646512 49.923449 -0.812500 1.932076 0.023134 -0.029431 -477109.000000 0 0 1
32.034878 -32.584481 -16.911512 48.723516 -0.793903 1.925264 0.021142 -0.011798 229436.000000 0 0 1
33.069148 -31.625381 -17.161112 48.869592 -0.763085 1.929607 0.026865 -0.009189 313137.000000 0 0 1
34.227838 -31.930881 -16.378612 49.592187 -0.750693 1.907382 0.017193 -0.011023 -59944.000000 0 0 1
35.462148 -31.244081 -16.995412 50.225497 -0.722249 1.915993 0.002341 -0.002615 -42954.500000 0 0 1
-35.201621 -32.082181 -17.736312 50.823196 0.739069 1.927279 0.006876 -0.003651 -637500.000000 0 0 1
-34.141069 -31.306881 -18.203712 49.770559 0.742121 1.945238 -0.006536 0.003248 -323935.000000 0 0 1
-33.209848 -32.205281 -19.042412 50.026869 0.770043 1.961289 -0.009910 -0.000473 -1326400.000000 0 0 1
-32.458298 -33.175381 -18.348612 49.908102 0.796323 1.947275 0.000349 -0.002941 31117.900000 0 0 1
-31.379998 -33.759081 -19.049312 49.872399 0.821905 1.962714 -0.009700 0.009996 297012.000000 0 0 1
-30.179348 -32.788981 -19.151612 48.504583 0.826818 1.976691 0.002608 0.004607 -1498690.000000 0 0 1
-30.378328 -31.862281 -20.222912 48.445990 0.809236 2.001414 -0.008756 0.005997 902098.000000 0 0 1
-29.154048 -31.409681 -20.867312 47.665200 0.822625 2.023935 0.007776 0.006398 1631580.000000 0 0 1
-28.295158 -32.456281 -21.735012 48.233152 0.853786 2.038260 0.006880 0.012995 731952.000000 0 0 1
-29.070148 -32.960881 -22.814812 49.517763 0.848038 2.049625 0.003956 0.015312 44589.700000 0 0 1
-28.333318 -33.999281 -23.374512 50.050933 0.876048 2.056708 0.009031 0.003575 272522.000000 0 0 1
-29.087198 33.926456 -24.476412 50.952568 -0.862045 2.071880 0.006860 -0.002133 57900.800000 0 0 1
-30.083078 32.963056 -24.112512 50.724431 -0.831047 2.066173 0.005020 -0.009068 300117.000000 0 0 1
-30.720358 32.251356 -25.141232 51.146573 -0.809706 2.084668 0.012835 -0.003560 166530.000000 0 0 1
-31.720018 33.034756 -26.008692 52.667891 -0.805699 2.087279 0.011569 -0.012939 -407570.000000 0 0 1
-31.125568 33.977456 -26.899192 53.355740 -0.829176 2.099192 0.004672 -0.011628 161201.000000 0 0 1
-32.179878 -34.057681 -27.532442 54.346164 0.813740 2.102047 -0.000406 -0.016538 284281.000000 0 0 1
-31.676968 -33.095881 -28.529732 53.969559 0.807301 2.127778 0.014047 -0.014532 -113520.000000 0 0 1
-31.263868 -33.630581 -29.778652 54.728544 0.821852 2.146131 0.018725 -0.011611 584401.000000 0 0 1
-32.326518 -33.809981 -30.751142 55.979919 0.807825 2.152352 0.021029 -0.007681 370586.000000 0 0 1
-32.079228 33.968656 -31.900122 56.573529 -0.813997 2.169861 0.028119 -0.001107 89056.400000 0 0 1
-31.233598 -34.168281 -32.881522 56.782071 0.830240 2.188400 0.032491 -0.011573 129836.000000 0 0 1
-31.325028 33.976456 -34.150447 57.462248 -0.825979 2.207205 0.019622 -0.017697 333080.000000 0 0 1
-30.196578 -34.234381 33.646045 56.708752 0.847985 0.935628 0.015610 -0.016921 1438370.000000 0 0 1
-28.908068 33.908456 33.827973 55.944540 -0.864834 0.921445 0.025954 -0.010068 325875.000000 0 0 1
-28.758518 32.707356 33.166031 54.743119 -0.849554 0.919965 0.030270 -0.017254 180969.000000 0 0 1
-27.300118 32.140856 33.120367 53.621728 -0.866657 0.905024 0.018231 -0.012211 67409.800000 0 0 1
-27.028558 31.515156 34.360206 53.892223 -0.861885 0.879453 0.023957 -0.007175 537426.000000 0 0 1
-25.660558 31.163156 -34.183958 52.897538 -0.881933 2.273430 0.024880 -0.008312 459733.000000 0 0 1
-25.229458 29.836256 34.020348 51.808414 -0.868864 0.854419 0.033294 -0.021774 -535658.000000 0 0 1
-25.592418 28.903856 -33.799712 51.311064 -0.846088 2.289915 0.033769 -0.016720 130673.000000 0 0 1
-25.216308 27.642156 -34.275125 50.741848 -0.831259 2.312412 0.031853 -0.020735 -173249.000000 0 0 1
-25.140068 26.605556 -33.129352 49.370361 -0.813712 2.306403 0.041558 -0.025354 406075.000000 0 0 1
-24.137118 26.706956 -32.052272 48.199690 -0.835899 2.298276 0.051309 -0.021244 766834.000000 0 0 1
-24.268318 27.885056 -31.179012 48.359677 -0.854635 2.271468 0.047779 -0.015282 82683.700000 0 0 1
-23.066718 27.980356 -30.199552 47.190960 -0.881360 2.265221 0.063390 -0.018118 605007.000000 0 0 1
-21.831218 28.118856 -30.914692 47.148598 -0.910618 2.285888 0.049238 -0.013550 942710.000000 0 0 1
-20.617118 28.094356 -30.147402 46.078457 -0.937710 2.284003 0.050006 -0.013818 897369.000000 0 0 1
-20.273918 29.175456 -29.153142 45.958075 -0.963504 2.257954 0.039552 0.001665 -495356.000000 0 0 1
-19.740218 30.334856 -29.798312 46.880903 -0.993898 2.259604 0.031949 0.014503 316692.000000 0 0 1
-19.332618 31.339156 -28.878522 46.795960 -1.018055 2.235868 0.036571 0.007271 34579.700000 0 0 1
-19.038918 32.731756 -29.531812 48.020580 -1.043968 2.233160 0.041769 0.011757 639462.000000 0 0 1
-17.873418 32.782656 -30.371622 48.131040 -1.071638 2.253663 0.051746 0.010108 377274.000000 0 0 1
-17.849418 33.920256 -31.268902 49.466450 -1.086396 2.255087 0.049964 0.019163 488750.000000 0 0 1
-16.434918 34.045656 -31.930442 49.485011 -1.121059 2.272153 0.054323 0.013336 568856.000000 0 0 1
-15.485118 -34.196981 -30.999442 48.684575 1.145599 2.261060 0.065133 0.004795 -530496.000000 0 0 1
-14.155318 -34.148481 -31.415452 48.512085 1.177833 2.275200 0.073386 0.003751 28192.100000 0 0 1
-13.377618 33.278556 -31.219422 47.550765 -1.188576 2.287031 0.075146 0.004302 -451832.000000 0 0 1
-12.963618 32.977756 -29.906262 46.367793 -1.196251 2.271792 0.070877 -0.002213 -261135.000000 0 0 1
-12.658618 31.645156 -29.900492 45.339783 -1.190275 2.290918 0.059029 0.002025 -117695.000000 0 0 1
-12.344718 30.967556 -28.511462 43.866673 -1.191468 2.278324 0.048061 -0.005440 111619.000000 0 0 1
-11.059818 31.297556 -28.028752 43.444994 -1.231117 2.272022 0.038230 -0.000273 -115916.000000 0 0 1
-10.930018 31.122556 -26.616172 42.385132 -1.233059 2.249726 0.014386 -0.002801 606961.000000 0 0 1
-9.467618 31.459156 -26.167642 42.000711 -1.278469 2.243405 0.007179 -0.006313 296016.000000 0 0 1
-8.607118 30.420756 -26.485442 41.242981 -1.295067 2.268136 0.023145 0.002863 -462473.000000 0 0 1
-7.271818 30.888656 -26.437402 41.302840 -1.339586 2.265408 0.030298 -0.011923 134499.000000 0 0 1
-6.192118 29.910056 -26.921492 40.715114 -1.366656 2.293235 0.011354 -0.005554 -146831.000000 0 0 1
-5.994518 28.776756 -26.116082 39.320296 -1.365422 2.297204 0.015496 -0.011612 101972.000000 0 0 1
-4.743318 28.180956 -26.422412 38.920550 -1.404043 2.317034 0.024402 -0.019220 321509.000000 0 0 1
-4.543118 26.962756 -25.435842 37.344507 -1.403868 2.320078 0.020636 -0.022525 -375605.000000 0 0 1
-5.357618 25.877756 -25.663902 36.837456 -1.366645 2.341555 0.032752 -0.015684 -318025.000000 0 0 1
-4.889018 24.851856 -24.851412 35.483939 -1.376550 2.346693 0.028230 -0.024807 -215464.000000 0 0 1
-5.879218 23.686656 -24.583912 34.640895 -1.327505 2.359839 0.041213 -0.017780 42574.700000 0 0 1
-5.791118 22.903056 -25.794602 34.977829 -1.323134 2.400092 0.043121 -0.015398 497389.000000 0 0 1
-6.626918 21.733256 -25.693542 34.298813 -1.274831 2.417512 0.045882 -0.019218 95396.900000 0 0 1
-6.454218 20.708356 -26.911912 34.565068 -1.268666 2.463207 0.035584 -0.008812 -218890.000000 0 0 1
-5.188218 20.125156 -27.056992 34.117742 -1.318492 2.486592 0.037257 -0.018605 -640389.000000 0 0 1
-5.034418 18.962056 -26.252532 32.773470 -1.311284 2.499810 0.040006 -0.025586 163019.000000 0 0 1
-3.924418 17.927456 -26.591812 32.309738 -1.355290 2.537518 0.027937 -0.027318 216386.000000 0 0 1
-4.101318 17.438356 -27.928262 33.179887 -1.339805 2.571262 0.033531 -0.030885 -224039.000000 0 0 1
-3.141418 16.459556 -28.261212 32.855465 -1.382208 2.606395 0.032587 -0.026169 -156635.000000 0 0 1
-2.919018 16.485856 -29.785642 34.168532 -1.395551 2.629513 0.045642 -0.028938 -106326.000000 0 0 1
-2.433818 17.680656 -30.318122 35.181211 -1.434002 2.609545 0.056203 -0.034759 144816.000000 0 0 1
-2.111418 17.691256 -31.695222 36.359671 -1.452010 2.629485 0.062481 -0.030730 -56116.600000 0 0 1
-1.155218 18.855956 -32.076032 37.225709 -1.509607 2.609335 0.069014 -0.025549 -659575.000000 0 0 1
0.138082 18.783856 -31.566442 36.732718 1.563445 2.604803 0.072312 -0.034585 -829308.000000 0 0 1
1.000382 19.750956 -32.046042 37.657002 1.520190 2.588679 0.072460 -0.018395 -44002.800000 0 0 1
0.867382 21.129656 -31.323232 37.793644 1.529769 2.547749 0.063734 -0.015822 -353969.000000 0 0 1
1.507282 21.102256 -30.058202 36.756939 1.499490 2.528297 0.071395 -0.034231 -236155.000000 0 0 1
1.302882 22.321056 -29.348022 36.894897 1.512492 2.490545 0.071753 -0.029895 664776.000000 0 0 1
2.270482 22.498956 -28.098402 36.067690 1.470222 2.463940 0.074591 -0.021086 751579.000000 0 0 1
3.613482 22.761656 -28.429362 36.597525 1.413357 2.460382 0.062023 -0.021899 -598198.000000 0 0 1
4.500182 22.939856 -27.380872 36.002788 1.377083 2.434911 0.062742 -0.023326 -75585.800000 0 0 1
4.957382 24.416356 -27.174562 36.867206 1.370484 2.399555 0.066919 -0.019442 -158737.000000 0 0 1
5.764282 24.807456 -28.270172 38.050485 1.342487 2.408285 0.057163 -0.024321 214962.000000 0 0 1
6.179582 26.181656 -28.167952 38.949966 1.339011 2.379196 0.049193 -0.023383 238246.000000 0 0 1
6.948482 26.715756 -29.407352 40.333675 1.316345 2.387805 0.048983 -0.015787 888906.000000 0 0 1
8.303182 26.292656 -29.625552 40.471223 1.264909 2.392072 0.035764 -0.011367 849800.000000 0 0 1
8.985682 27.257256 -30.426972 41.827038 1.252354 2.385391 0.042477 -0.010561 710294.000000 0 0 1
10.496482 27.488456 -30.122712 42.109014 1.206033 2.367922 0.040118 -0.008562 603266.000000 0 0 1
11.103482 28.574056 -30.804332 43.458841 1.200168 2.358615 0.049578 -0.012475 594835.000000 0 0 1
12.470782 28.713656 -30.394282 43.632634 1.161062 2.341437 0.039382 -0.014074 580496.000000 0 0 1
13.252982 29.700156 -31.260142 45.110279 1.151085 2.336399 0.048960 -0.011462 -498580.000000 0 0 1
12.796882 31.013556 -31.054982 45.716657 1.179456 2.317594 0.051190 -0.009060 -44570.200000 0 0 1
13.585682 32.034456 -31.612302 47.011857 1.169692 2.308287 0.081954 -0.015641 -288843.000000 0 0 1
12.892382 33.392656 -31.649102 47.780211 1.202343 2.294800 0.093248 -0.024282 446290.000000 0 0 1
11.833782 33.478656 -32.610462 48.211005 1.231031 2.313675 0.077319 -0.019506 5558.210000 0 0 1
10.940482 -34.278281 -32.313302 48.361598 -1.261850 2.302530 0.072353 -0.014984 -165452.000000 0 0 1
9.633082 -34.191981 -33.131772 48.575736 -1.296179 2.321378 0.056842 -0.007015 272865.000000 0 0 1
9.910182 -33.619381 34.355012 49.078930 -1.284139 0.795406 0.052481 -0.000659 489360.000000 0 0 1
8.696082 -33.533281 33.617111 48.272279 -1.317059 0.800419 0.052901 -0.002963 347764.000000 0 0 1
8.908582 -32.826981 32.246061 46.869841 -1.305799 0.812078 0.060983 -0.002507 -49983.600000 0 0 1
9.032982 -31.401081 32.367801 45.992360 -1.290694 0.790113 0.039900 -0.013046 -34794.400000 0 0 1
9.460882 -30.800781 31.181141 44.838153 -1.272780 0.801799 0.055774 -0.015648 -293754.000000 0 0 1
9.132182 -29.300481 31.190521 43.758011 -1.268665 0.777320 0.037551 -0.024866 -67396.500000 0 0 1
7.740782 -29.120081 31.201181 43.375252 -1.310982 0.767957 0.021825 -0.009025 -208423.000000 0 0 1
7.072282 -28.879381 32.420171 43.989809 -1.330632 0.742186 0.016391 0.002297 91904.600000 0 0 1
5.570682 -28.484081 32.326671 43.444091 -1.377662 0.731612 0.008009 -0.001596 507975.000000 0 0 1
4.603082 -29.469681 32.048401 43.780709 -1.415851 0.749513 0.018239 -0.017614 -65376.800000 0 0 1
4.661282 -30.194081 30.814411 43.392833 -1.417628 0.781118 0.027410 -0.016923 -606809.000000 0 0 1
4.244882 -29.427681 29.494511 41.879991 -1.427537 0.789412 0.007506 -0.016900 34384.600000 0 0 1
2.837182 -29.364981 29.400251 41.650048 -1.474477 0.787121 0.025468 -0.025993 84586.500000 0 0 1
2.441982 -28.757281 28.172431 40.331506 -1.486083 0.797467 0.038324 -0.026989 951187.000000 0 0 1
1.085582 -29.308181 27.561411 40.246482 -1.533773 0.816446 0.028907 -0.025477 925599.000000 0 0 1
1.190382 -30.485381 26.830001 40.627877 -1.531769 0.849466 0.033244 -0.028588 -64142.700000 0 0 1
0.844482 -31.617081 27.617051 41.988742 -1.544093 0.853002 0.062118 -0.032378 -386002.000000 0 0 1
1.250582 -32.991681 27.000891 42.650476 -1.532908 0.885279 0.062275 -0.030862 779733.000000 0 0 1
2.659182 -33.177481 26.795851 42.729780 -1.490817 0.892972 0.051894 -0.024593 713695.000000 0 0 1
3.212782 -32.623281 25.620871 41.605642 -1.472632 0.907392 0.045279 -0.031045 -605815.000000 0 0 1
4.734382 -32.545881 25.804921 41.803621 -1.426342 0.905504 0.043954 -0.016596 -408788.000000 0 0 1
5.396182 -31.977981 24.716741 40.775327 -1.403624 0.919561 0.039098 -0.028027 -209409.000000 0 0 1
6.784182 -31.953381 24.953711 41.106342 -1.361588 0.918450 0.037829 -0.031123 -252138.000000 0 0 1
7.599982 -31.585281 23.686451 40.204946 -1.334667 0.940799 0.029340 -0.027337 -506196.000000 0 0 1
8.905082 -31.156381 23.929201 40.281847 -1.292400 0.934719 0.014481 -0.021071 -426119.000000 0 0 1
9.543982 -30.822081 22.713651 39.458817 -1.270512 0.957423 0.012700 -0.017048 -510743.000000 0 0 1
10.684082 -29.850881 22.976351 39.155299 -1.227088 0.943694 0.005365 -0.013648 -356497.000000 0 0 1
11.883782 -30.527781 23.319951 40.211812 -1.199567 0.952156 0.024910 -0.021779 -289788.000000 0 0 1
12.943082 -29.597581 23.394251 39.885225 -1.158552 0.944017 0.045822 -0.021450 -811715.000000 0 0 1
14.234682 -30.266281 23.831481 41.068399 -1.131178 0.951715 0.068345 -0.025511 -783239.000000 0 0 1
14.265482 -30.563681 25.228421 42.120254 -1.134104 0.928592 0.066318 -0.029870 8335.730000 0 0 1
14.821382 -29.487181 25.994431 42.010447 -1.105040 0.903632 0.051225 -0.029770 -425218.000000 0 0 1
-10.684718 -14.317644 26.075081 31.608037 0.929692 0.600681 0.050729 -0.019039 -631625.000000 0 0 1
-9.352118 -14.364044 25.666671 30.863666 0.993663 0.588788 0.042123 -0.016937 -655556.000000 0 0 1
-8.524318 -14.781544 26.714651 31.699063 1.047695 0.568409 0.051076 -0.020534 -490955.000000 0 0 1
-7.002518 -14.605444 26.662841 31.197137 1.123727 0.545907 0.046293 -0.009952 -136762.000000 0 0 1
-6.484018 -15.456444 25.615481 30.612040 1.173591 0.579424 0.045431 -0.011165 63560.100000 0 0 1
-6.545518 -14.949844 24.282581 29.257228 1.158107 0.591745 0.052878 -0.015793 -679276.000000 0 0 1
-5.872518 -15.961444 23.311651 28.856321 1.218248 0.630297 0.066262 -0.026452 -72475.300000 0 0 1
-6.478418 -17.237544 23.140951 29.573746 1.211297 0.672153 0.071257 -0.024197 -250916.000000 0 0 1
-6.559118 -18.074244 24.296411 30.984124 1.222677 0.669460 0.062024 -0.020618 -218867.000000 0 0 1
-7.218618 -19.439544 24.012441 31.726986 1.215241 0.712323 0.074787 -0.026681 1071500.000000 0 0 1
-8.662518 -19.406144 24.060321 32.101973 1.150957 0.723495 0.069508 -0.021986 808309.000000 0 0 1
-9.269918 -20.635044 23.781451 32.822155 1.148581 0.760408 0.068428 -0.024558 1207380.000000 0 0 1
-10.850518 -20.620744 23.848131 33.341898 1.086414 0.773800 0.048809 -0.024219 1341790.000000 0 0 1
-11.411518 -21.040144 25.095011 34.679533 1.073831 0.761755 0.048386 -0.027092 674354.000000 0 0 1
-12.838018 -20.922444 25.076711 35.091378 1.020437 0.774727 0.045729 -0.018739 704143.000000 0 0 1
-13.505318 -21.059344 26.452861 36.409387 1.000563 0.757524 0.041799 -0.022791 -629425.000000 0 0 1
-13.183818 -22.266544 27.127731 37.490343 1.036213 0.761803 0.042115 -0.018934 -269394.000000 0 0 1
-12.035118 -22.098344 27.910841 37.579195 1.072096 0.733672 0.053287 -0.020100 -160190.000000 0 0 1
-11.722518 -23.444744 28.688821 38.860287 1.107144 0.740316 0.046089 -0.017997 -62159.300000 0 0 1
-12.700718 -23.746844 29.667671 40.067338 1.079668 0.737064 0.042195 -0.015192 55610.000000 0 0 1
-12.441018 -25.028144 30.205731 41.153045 1.109487 0.746625 0.041556 -0.013576 -266072.000000 0 0 1
-13.516718 -25.468154 31.197521 42.480747 1.082868 0.746026 0.038672 -0.010195 -125792.000000 0 0 1
-13.466118 -24.811944 32.441401 43.004807 1.073554 0.716107 0.054411 -0.010859 -326733.000000 0 0 1
-14.582618 -25.128344 33.239555 44.146964 1.044969 0.718294 0.043741 -0.009682 -181614.000000 0 0 1
-14.473518 -24.579944 -34.047882 44.417504 1.038627 2.444235 0.042545 -0.009461 109953.000000 0 0 1
-14.350718 -23.133944 -33.866132 43.451552 1.015561 2.464504 0.040679 -0.011381 705942.000000 0 0 1
-15.612218 -22.465844 -34.120882 43.734313 0.963480 2.465759 0.038819 -0.016691 653289.000000 0 0 1
-15.704018 -20.905644 -33.918662 42.826835 0.926537 2.484867 0.032583 -0.019809 -127561.000000 0 0 1
-16.061318 -20.534644 -32.572962 41.720923 0.907030 2.466637 0.028485 -0.016027 174672.000000 0 0 1
-16.001218 -19.133144 -32.372842 40.867066 0.874305 2.485120 0.021143 -0.015039 -546448.000000 0 0 1
-16.116918 -18.772344 -30.862532 39.555680 0.861362 2.465830 0.017763 -0.004142 138462.000000 0 0 1
-17.276618 -19.278644 -30.207092 39.782107 0.840111 2.433054 0.021922 -0.011210 254991.000000 0 0 1
-17.148618 -19.306844 -28.805272 38.685566 0.844531 2.410732 0.023624 -0.003289 -109551.000000 0 0 1
-16.287118 -20.441744 -28.175152 38.431424 0.898035 2.393706 0.013166 0.002141 8976.150000 0 0 1
-14.902818 -20.210144 -28.320912 37.849940 0.935413 2.416204 0.007143 0.006231 -347439.000000 0 0 1
-14.236418 -21.313844 -27.720882 37.754508 0.981911 2.395343 -0.006468 0.009891 242035.000000 0 0 1
-12.700118 -21.150944 -27.827522 37.189063 1.030045 2.416249 0.016866 0.002414 -588238.000000 0 0 1
-12.158218 -20.223644 -26.954302 35.823909 1.029504 2.422511 0.016143 -0.000909 592827.000000 0 0 1
-10.736918 -20.108144 -27.146562 35.447915 1.080352 2.443105 0.002924 -0.009413 1002360.000000 0 0 1
-9.921618 -21.108444 -26.281932 35.138937 1.131410 2.415754 0.019505 -0.003868 -781482.000000 0 0 1
-9.951518 -22.469344 -26.699302 36.287145 1.153868 2.397612 0.021222 -0.007890 289513.000000 0 0 1
-9.387618 -23.368744 -25.720392 35.996724 1.188811 2.366735 0.028453 -0.010552 -110140.000000 0 0 1
-9.564818 -24.842544 -26.178012 37.335319 1.203272 2.347819 0.030714 -0.011503 -7027.060000 0 0 1
-8.642918 -25.325464 -27.149692 38.120663 1.241916 2.363429 0.035768 -0.015965 165313.000000 0 0 1
-8.841718 -26.718284 -27.604482 39.421442 1.251216 2.346530 0.031790 -0.018425 -86898.600000 0 0 1
-8.543418 -27.960314 -26.709022 39.599760 1.274251 2.311049 0.026552 -0.019699 -19400.800000 0 0 1
-9.479318 -28.048834 -25.652572 39.174597 1.244890 2.284750 0.032413 -0.024794 63605.300000 0 0 1
-9.218718 -29.234234 -24.917112 39.503009 1.265326 2.253335 0.061867 -0.024677 -266416.000000 0 0 1
-10.279418 -29.523994 -23.841712 39.316153 1.235751 2.222334 0.055617 -0.025823 -75523.800000 0 0 1
-10.410318 -28.545184 -22.788712 37.980622 1.221090 2.214309 0.044578 -0.029969 -244080.000000 0 0 1
-11.300018 -27.490934 -23.096112 37.641364 1.180805 2.231387 0.046014 -0.020140 -203874.000000 0 0 1
-11.180118 -26.360884 -22.033612 36.129923 1.169673 2.226660 0.048127 -0.019108 -48420.400000 0 0 1
-11.664318 -26.799864 -20.795012 35.870902 1.160286 2.189179 0.047154 -0.027316 -60616.100000 0 0 1
-11.703718 -25.747454 -19.881612 34.571476 1.144158 2.183507 0.040074 -0.022085 -210885.000000 0 0 1
-12.379918 -26.122494 -18.557312 34.351433 1.128231 2.141494 0.057450 -0.024866 -642842.000000 0 0 1
-13.748318 -26.324124 -18.713312 35.102191 1.089491 2.133068 0.069806 -0.025370 -789948.000000 0 0 1
-14.351818 -26.703134 -17.506412 35.007235 1.077633 2.094487 0.076765 -0.014568 -69554.900000 0 0 1
-15.888318 -26.847624 -17.572212 35.805254 1.036431 2.083772 0.083165 -0.022861 -753133.000000 0 0 1
-16.562318 -25.573434 -17.589012 35.180737 0.996084 2.094351 0.074648 -0.015219 981806.000000 0 0 1
-17.938718 -25.626074 -17.180512 35.688420 0.960058 2.073051 0.090728 -0.014418 1006530.000000 0 0 1
-18.989018 -26.352304 -18.056512 37.162675 0.946390 2.078163 0.081782 -0.012549 -994499.000000 0 0 1
-18.734918 -27.714484 -18.384912 38.171911 0.976362 2.073315 0.083107 -0.016995 -123594.000000 0 0 1
-19.038218 -28.678634 -17.395012 38.568177 0.984749 2.038704 0.085373 -0.017395 -433115.000000 0 0 1
-20.534818 -29.042934 -17.328012 39.565525 0.955354 2.024122 0.068379 -0.006459 -81934.500000 0 0 1
-20.939518 -29.940884 -18.326012 40.874964 0.960499 2.035707 0.059415 -0.004965 942511.000000 0 0 1
-22.281718 -30.443494 -18.131212 41.857164 0.938978 2.018802 0.053176 0.002531 1136680.000000 0 0 1
-22.729618 -31.533094 -19.106012 43.312946 0.946235 2.027638 0.031901 0.005007 -17212.200000 0 0 1
-21.911318 -32.655274 -18.876612 43.621088 0.979808 2.018327 0.033717 0.000369 265757.000000 0 0 1
-22.048518 -33.471584 -20.018512 44.802064 0.988313 2.034005 0.025457 0.009338 116346.000000 0 0 1
-21.451518 33.848600 -19.855412 44.722844 -1.005930 2.030816 0.023442 0.008718 207559.000000 0 0 1
-22.203718 33.038134 -18.940712 44.082582 -0.979067 2.014917 0.022250 0.005123 142521.000000 0 0 1
-21.481118 31.875912 -18.688912 42.740937 -0.977804 2.023346 0.019841 -0.001341 -705373.000000 0 0 1
-22.273118 30.751942 -18.119712 42.072529 -0.943958 2.016040 0.023282 -0.014201 -305170.000000 0 0 1
-22.819818 30.829592 -16.818612 41.881662 -0.933602 1.984032 0.020848 -0.012460 -38967.400000 0 0 1
-23.616118 29.686762 -16.519212 41.375225 -0.898799 1.981499 0.015510 -0.005382 -365000.000000 0 0 1
-22.905018 28.417682 -16.119612 39.900456 -0.892400 1.986677 0.010522 -0.013648 -166075.000000 0 0 1
-22.207418 27.842862 -17.256812 39.575143 -0.897522 2.022003 0.009012 -0.013071 338509.000000 0 0 1
-21.667718 26.560692 -17.054112 38.285808 -0.886506 2.032464 0.003719 -0.015927 -336431.000000 0 0 1
-20.927618 26.078672 -18.269812 38.103128 -0.894545 2.070862 0.018280 -0.017925 -988712.000000 0 0 1
-20.843218 24.650932 -18.267012 37.091669 -0.868900 2.085737 0.012163 -0.022779 -145033.000000 0 0 1
-20.237318 24.029742 -19.353512 36.898997 -0.870861 2.122924 0.009306 -0.011736 -21340.500000 0 0 1
-18.732518 24.346932 -19.588312 36.433258 -0.914995 2.138443 0.015195 -0.018700 -943446.000000 0 0 1
-17.966118 23.971502 -18.475912 35.196217 -0.927629 2.123441 0.027622 -0.027027 292121.000000 0 0 1
-16.647818 24.498762 -18.667412 35.011591 -0.973936 2.133149 0.044773 -0.038375 209366.000000 0 0 1
-16.500418 25.790322 -17.854012 35.442493 -1.001631 2.098726 0.038878 -0.030604 -679682.000000 0 0 1
-17.309018 26.875212 -18.226912 36.798091 -0.998614 2.089002 0.029998 -0.024700 -231968.000000 0 0 1
-17.272918 28.007962 -17.298612 37.175821 -1.018177 2.054791 0.032390 -0.031820 585747.000000 0 0 1
-18.418318 29.103452 -17.584212 38.671047 -1.006567 2.042846 0.028019 -0.025533 919778.000000 0 0 1
-18.299318 29.902602 -18.796912 39.778821 -1.021626 2.062962 0.019726 -0.022271 87568.900000 0 0 1
-18.344618 29.061742 -19.949312 39.737702 -1.007730 2.096735 0.006343 -0.019269 -350778.000000 0 0 1
-18.206718 29.842382 -21.276112 40.923408 -1.022986 2.117531 0.016666 -0.021037 385323.000000 0 0 1
-19.174518 30.892542 -21.490412 42.235638 -1.015306 2.104612 0.026297 -0.014499 427004.000000 0 0 1
-19.397218 31.004012 -22.827912 43.111651 -1.011740 2.128815 0.024944 -0.010941 128045.000000 0 0 1
-20.302218 32.164642 -23.278912 44.594305 -1.007753 2.120008 0.027789 -0.006075 82603.400000 0 0 1
-19.588818 33.411210 -23.290812 45.193945 -1.040515 2.112215 0.011615 -0.003740 501082.000000 0 0 1
-20.158518 34.351037 -24.223312 46.616826 -1.040110 2.117209 0.019455 0.001440 356569.000000 0 0 1
-19.238818 -33.130224 -24.205812 45.317383 1.044687 2.134286 0.028500 0.004324 456508.000000 0 0 1
-19.331318 -32.270464 -23.098912 44.143431 1.031083 2.121479 0.030952 -0.000486 528930.000000 0 0 1
-18.637418 -32.829984 -21.925512 43.656492 1.054469 2.096970 0.032309 -0.007452 36263.900000 0 0 1
-18.476718 -31.807674 -20.816612 42.266400 1.044548 2.085767 0.049012 -0.014056 -26026.700000 0 0 1
-17.443418 -30.887224 -21.121412 41.284471 1.056703 2.107850 0.057200 -0.019286 -42767.000000 0 0 1
-17.078018 -30.339684 -19.891812 40.097872 1.058108 2.089876 0.060352 -0.016354 -588860.000000 0 0 1
-15.823918 -29.476514 -20.017712 38.986794 1.078120 2.109995 0.076225 -0.026323 -743817.000000 0 0 1
-14.684718 -30.258934 -20.235912 39.252213 1.118976 2.112429 0.077963 -0.030724 -715917.000000 0 0 1
-13.645018 -29.340224 -20.517812 38.314696 1.135488 2.135905 0.062259 -0.034448 -474162.000000 0 0 1
-12.256018 -29.994264 -20.731112 38.466152 1.182888 2.139980 0.079778 -0.035451 322633.000000 0 0 1
-11.615618 -30.571564 -19.572812 38.113490 1.207694 2.110102 0.077886 -0.032832 432874.000000 0 0 1
-11.099118 -29.598214 -18.635512 36.695055 1.212032 2.103481 0.053671 -0.036909 -407105.000000 0 0 1
-10.423018 -30.242664 -17.366712 36.398637 1.238899 2.068177 0.046790 -0.018936 687289.000000 0 0 1
-11.395318 -30.856474 -16.490212 36.795413 1.217032 2.035502 0.067195 -0.023661 531294.000000 0 0 1
-11.792018 -32.174514 -16.910612 38.212823 1.219497 2.029223 0.076314 -0.020082 182162.000000 0 0 1
-12.675018 -32.938734 -15.876012 38.699665 1.203457 1.993510 0.076936 -0.020578 -270663.000000 0 0 1
-12.033518 -33.130524 -14.653412 38.172761 1.222397 1.964781 0.069650 -0.010983 147769.000000 0 0 1
-12.814218 -34.025894 -13.881212 38.918552 1.210622 1.935501 0.069687 -0.007876 298671.000000 0 0 1
-12.081618 -34.228363 -12.506712 38.392241 1.231477 1.902613 0.057281 -0.002044 410588.000000 0 0 1
-12.332018 -33.130854 -11.637812 37.217884 1.214464 1.888824 0.027255 0.007055 60413.000000 0 0 1
-12.113918 -33.415254 -10.256812 36.993627 1.223006 1.851736 0.027518 -0.000047 -444618.000000 0 0 1
-10.795218 -32.892014 -9.672312 35.944053 1.253671 1.843248 0.027447 0.002133 -593375.000000 0 0 1
-9.647518 -33.437444 -10.217612 36.270331 1.289901 1.856369 0.019260 0.000228 -1479630.000000 0 0 1
-8.538018 -32.925074 -9.581912 35.337959 1.317069 1.845385 0.015110 -0.003202 76663.200000 0 0 1
-7.143918 -33.273374 -10.211712 35.530720 1.359303 1.862313 0.015363 -0.006814 561735.000000 0 0 1
-6.733418 34.276528 -9.668012 36.244859 -1.376822 1.840807 0.003132 0.001295 -113620.000000 0 0 1
-5.537318 33.886311 -10.335712 35.857648 -1.408819 1.863188 0.011854 -0.000054 -187959.000000 0 0 1
-4.741218 32.819627 -9.709812 34.552678 -1.427326 1.855648 0.016154 -0.000329 -464680.000000 0 0 1
-4.282918 33.297616 -8.429312 34.613985 -1.442873 1.816793 0.014616 -0.006461 216993.000000 0 0 1
-3.581418 32.300082 -7.661412 33.388907 -1.460368 1.802319 0.021209 -0.018300 169307.000000 0 0 1
-3.098018 32.814506 -6.309212 33.558839 -1.476665 1.759926 0.019245 -0.017471 -164238.000000 0 0 1
-2.064018 33.791530 -6.316012 34.438637 -1.509791 1.755239 0.016748 -0.017183 -5334.650000 0 0 1
-1.740418 34.337612 -4.977912 34.740183 -1.520154 1.714581 0.017903 -0.018804 -62466.700000 0 0 1
-0.697818 33.519010 -4.223912 33.791307 -1.549981 1.696124 0.031088 -0.021420 -587217.000000 0 0 1
0.642382 33.586163 -4.662412 33.914320 1.551672 1.708709 0.034428 -0.018310 -254499.000000 0 0 1
1.346182 32.667682 -3.826512 32.918564 1.529611 1.687301 0.029976 -0.021386 854660.000000 0 0 1
2.877882 32.660572 -4.194212 33.054298 1.482908 1.698028 0.029362 -0.014362 812549.000000 0 0 1
3.570282 33.836549 -3.878612 34.244746 1.465670 1.684301 0.026390 -0.006410 -711389.000000 0 0 1
4.949682 33.698100 -4.065712 34.301477 1.424956 1.689604 0.034012 -0.004123 -275232.000000 0 0 1
5.682782 -33.818754 -3.574812 34.478710 -1.404315 1.674665 0.035830 -0.003987 -169752.000000 0 0 1
5.441182 -32.654114 -4.353912 33.389432 -1.405683 1.701567 0.034050 -0.001941 -51908.500000 0 0 1
5.907082 -31.471394 -3.693812 32.233314 -1.385258 1.685645 0.031369 -0.009920 -25710.300000 0 0 1
5.762082 -30.175644 -4.495712 31.048068 -1.382116 1.716106 0.028687 -0.003711 -225570.000000 0 0 1
6.615682 -30.102044 -5.610412 31.326938 -1.354460 1.750860 0.041826 -0.004485 -264855.000000 0 0 1
6.686982 -28.897014 -6.384612 30.340014 -1.343392 1.782817 0.029220 -0.001243 296340.000000 0 0 1
7.225582 -27.558934 -5.722612 29.059459 -1.314381 1.769020 0.032377 -0.004219 851299.000000 0 0 1
6.269682 -27.042714 -4.765712 28.166102 -1.342978 1.740815 0.030851 -0.011253 336279.000000 0 0 1
6.723182 -25.823134 -4.255512 27.021192 -1.316096 1.728943 0.021555 -0.009175 33363.100000 0 0 1
5.741582 -25.232554 -3.218512 26.076932 -1.347059 1.694536 0.018847 -0.007718 185825.000000 0 0 1
4.769082 -24.410444 -3.829312 25.165007 -1.377856 1.723558 0.027883 -0.017555 -135369.000000 0 0 1
3.841382 -23.894044 -2.883312 24.372014 -1.411393 1.689378 0.022751 -0.014176 841036.000000 0 1 0
2.608982 -23.107744 -3.467212 23.511618 -1.458367 1.718804 0.031245 -0.014831 887797.000000 0 1 0
1.802682 -23.984844 -4.210512 24.418248 -1.495778 1.744095 0.027585 -0.014071 -360599.000000 0 1 0
0.691682 -23.392444 -4.865912 23.903179 -1.541236 1.775797 0.021073 -0.010844 294118.000000 0 1 0
-15.329218 22.964456 18.321051 33.136265 -0.982204 0.984955 -0.001620 -0.002844 -462414.000000 0 0 1
-15.482918 22.479656 19.645951 33.630627 -0.967659 0.946941 0.008008 -0.000336 268006.000000 0 0 1
-15.043318 23.538856 20.488551 34.643323 -1.002133 0.937985 0.009437 0.008243 -646876.000000 0 0 1
-14.890818 23.090256 21.952251 35.168134 -0.998017 0.896678 0.018313 0.000201 -96130.600000 0 0 1
-13.929418 22.094356 22.399451 34.408206 -1.008286 0.861906 0.015933 0.007796 912565.000000 0 0 1
-12.551518 22.399556 22.214251 33.952226 -1.060044 0.857567 0.009483 -0.000015 464091.000000 0 0 1
-11.996418 23.476056 23.263951 35.160356 -1.098382 0.847775 0.029569 0.010198 -577400.000000 0 0 1
-11.972518 22.989256 24.644061 35.765581 -1.090657 0.810627 0.031180 0.005880 59120.600000 0 0 1
-11.824218 24.073456 25.592241 37.071636 -1.114236 0.808830 0.044710 -0.001318 127273.000000 0 0 1
-11.280318 23.649956 27.006411 37.628609 -1.125742 0.770289 0.048102 -0.005232 -152575.000000 0 0 1
-9.911618 23.369056 27.009531 37.065721 -1.169659 0.754385 0.023305 -0.011121 -822529.000000 0 0 1
-9.542118 22.777656 28.223991 37.502897 -1.174083 0.718823 0.019146 -0.018590 216684.000000 0 0 1
-8.019918 22.379856 28.208621 36.890423 -1.226698 0.700283 0.004419 -0.015452 736275.000000 0 0 1
-7.114818 23.426756 28.316601 37.433453 -1.275944 0.712925 0.002956 -0.016788 -449889.000000 0 0 1
-6.949418 24.250156 27.211631 37.105758 -1.291704 0.747555 -0.000420 -0.009964 -1122190.000000 0 0 1
-5.999918 25.432256 27.421691 37.878064 -1.339115 0.761290 0.009344 -0.017505 -276073.000000 0 0 1
-4.667418 25.001456 27.584331 37.520033 -1.386235 0.744850 0.018960 -0.020906 -852010.000000 0 0 1
-3.850318 26.036756 28.001961 38.429772 -1.423980 0.754444 0.031443 -0.010199 -992970.000000 0 0 1
-2.404318 25.608356 28.051011 38.058216 -1.477183 0.742094 0.028757 -0.003543 -738410.000000 0 0 1
-1.751318 25.350556 26.817491 36.944493 -1.501822 0.758475 0.027797 -0.012160 -390077.000000 0 0 1
-0.404918 24.983356 26.920221 36.729148 -1.554590 0.748164 0.045434 0.000885 42965.700000 0 0 1
0.277782 24.807256 25.552021 35.614363 1.559599 0.770642 0.044763 -0.009377 84794.700000 0 0 1
-0.091118 23.569556 24.922941 34.302846 -1.566930 0.757500 0.043900 -0.004531 13605.800000 0 0 1
0.499282 23.452156 23.647751 33.308692 1.549510 0.781359 0.052818 -0.000400 -215540.000000 0 0 1
0.070982 22.180556 22.858751 31.851288 1.567596 0.770344 0.032533 0.000922 -124143.000000 0 0 1
0.681382 20.971256 23.170751 31.259263 1.538317 0.735874 0.049507 -0.003615 -326882.000000 0 0 1
0.348482 19.916056 22.306551 29.905734 1.553301 0.728918 0.048460 -0.002920 290113.000000 0 0 1
1.129982 18.597256 22.736451 29.395254 1.510110 0.686493 0.052808 0.006711 1806160.000000 0 0 1
2.495282 18.651156 22.244151 29.135790 1.437799 0.702135 0.052927 -0.001473 621774.000000 0 0 1
3.273282 17.510356 22.436851 28.648546 1.385995 0.671039 0.045760 -0.003867 -995465.000000 0 0 1
4.665182 17.779456 21.934951 28.618438 1.314189 0.697482 0.043109 -0.000152 -869004.000000 0 0 1
5.583782 18.379656 22.844051 29.846960 1.275855 0.699176 0.035972 0.001099 -621650.000000 0 0 1
6.745582 18.643556 22.107151 29.695305 1.223632 0.731061 0.046539 -0.003401 -30620.100000 0 0 1
7.892682 19.257956 22.979251 31.003375 1.181836 0.735962 0.062065 -0.016044 90127.400000 0 0 1
7.471882 20.428856 23.605951 32.099970 1.220159 0.744556 0.046815 -0.010418 109848.000000 0 0 1
7.299882 21.607856 22.778551 32.234300 1.245000 0.786036 0.051715 -0.010842 -503218.000000 0 0 1
6.014582 22.294556 23.241051 32.762308 1.307291 0.782173 0.035806 -0.001799 -284692.000000 0 0 1
5.716882 23.604656 22.794051 33.308126 1.333179 0.817099 0.036715 -0.005283 704721.000000 0 0 1
4.479082 24.067756 23.356951 33.835871 1.386798 0.808891 0.025375 -0.004176 281922.000000 0 0 1
4.042582 25.531456 22.962151 34.575397 1.413763 0.844483 0.035693 -0.003735 181634.000000 0 0 1
3.681682 25.757356 21.564851 33.794067 1.428821 0.878735 0.035365 -0.015916 587143.000000 0 0 1
2.632882 24.936156 21.026151 32.723737 1.465601 0.872994 0.035605 -0.018529 -49253.900000 0 0 1
2.347082 25.384356 19.604651 32.159239 1.478597 0.915226 0.041300 -0.020809 -561216.000000 0 0 1
1.557282 26.546456 19.530851 32.993841 1.512201 0.937315 0.043574 -0.029718 137521.000000 0 0 1
1.495982 26.879456 18.177051 32.483046 1.515198 0.976910 0.052811 -0.026414 -401880.000000 0 0 1
0.531582 28.011156 17.870051 33.230199 1.551821 1.003012 0.043976 -0.010528 -437364.000000 0 0 1
0.888282 29.224956 18.420851 34.557413 1.540411 1.008594 0.035563 -0.002374 596060.000000 0 0 1
-0.222218 30.126756 18.585751 35.399165 -1.563420 1.018042 0.027723 0.003771 111356.000000 0 0 1
0.169982 31.525356 19.041551 36.830118 1.565404 1.027442 0.015777 0.010951 -321273.000000 0 0 1
0.593782 31.388456 20.376651 37.427204 1.551881 0.995082 0.021138 0.002548 101706.000000 0 0 1
1.025682 32.682856 20.826551 38.768109 1.539424 1.003673 0.014406 0.000601 -57884.700000 0 0 1
1.518382 32.700556 22.283551 39.600359 1.524397 0.973135 0.023925 -0.012674 110312.000000 0 0 1
0.500982 32.469156 23.250051 39.938226 1.555368 0.949425 0.031526 -0.008009 184973.000000 0 0 1
0.987182 32.615356 24.544371 40.830896 1.540538 0.925891 0.047440 -0.014695 -188623.000000 0 0 1
-0.056818 32.229056 25.607761 41.163973 -1.569033 0.899385 0.049277 -0.010688 260041.000000 0 0 1
-1.183118 33.098956 25.758951 41.957886 -1.535067 0.909774 0.049050 -0.009822 97550.200000 0 0 1
-1.933918 32.886956 26.906221 42.535122 -1.512059 0.885936 0.049507 -0.008571 -373837.000000 0 0 1
-1.493818 33.489256 28.283821 43.860418 -1.526220 0.869956 0.062881 -0.015127 -838456.000000 0 0 1
-0.333218 32.848256 28.714591 43.630799 -1.560653 0.852468 0.066928 -0.017305 -135445.000000 0 0 1
0.177482 33.430556 29.952651 44.886466 1.565487 0.840221 0.051612 -0.017024 725457.000000 0 0 1
1.432482 32.614656 30.466861 44.654198 1.526903 0.819914 0.038162 -0.004586 1119910.000000 0 0 1
2.775282 32.802856 30.081161 44.593786 1.486392 0.830429 0.040796 -0.006975 338337.000000 0 0 1
2.951582 32.446856 28.693281 43.414452 1.480079 0.848758 0.039423 -0.009750 -678279.000000 0 0 1
4.351782 31.994256 28.237671 42.894480 1.435608 0.852231 0.022221 -0.005576 -159161.000000 0 0 1
4.755882 30.776156 28.799221 42.416804 1.417478 0.824454 0.021855 -0.010888 1304060.000000 0 0 1
6.133782 30.497956 28.412941 42.131268 1.372323 0.830657 0.004314 -0.015859 1313690.000000 0 0 1
6.596682 29.203356 29.117001 41.763045 1.348637 0.799319 0.002813 -0.007900 -43808.400000 0 0 1
6.628882 29.432556 30.470781 42.879901 1.349270 0.780435 0.012629 -0.015351 177313.000000 0 0 1
7.252182 28.318256 31.089991 42.674410 1.320089 0.754609 -0.003782 -0.015030 -16611.900000 0 0 1
7.444082 28.519156 32.636111 43.975815 1.315473 0.734542 0.015706 -0.009981 188635.000000 0 0 1
6.183982 28.518056 33.304535 44.279941 1.357258 0.719499 0.020770 -0.011032 347460.000000 0 0 1
6.317082 28.301856 -34.087411 44.753236 1.351192 2.436690 0.032275 -0.010379 -73528.300000 0 0 1
6.369582 26.900656 -33.513102 43.443582 1.338297 2.451861 0.031330 -0.012486 -394910.000000 0 0 1
7.570182 26.271556 -33.823462 43.491710 1.290245 2.461794 0.024291 -0.013067 -330768.000000 0 0 1
7.436082 24.935556 -33.599822 42.497356 1.280981 2.482639 0.028582 -0.014110 545410.000000 0 0 1
8.792882 24.166956 -33.782372 42.457098 1.221846 2.490930 0.024625 -0.007369 54969.800000 0 0 1
9.270982 24.194756 33.659994 42.477435 1.204872 0.656029 0.014108 -0.011013 -411123.000000 0 0 1
10.503382 23.583656 33.452359 42.256007 1.151802 0.657276 0.021042 -0.022463 -741736.000000 0 0 1
10.665182 22.074856 33.735085 41.702533 1.120730 0.628440 0.023277 -0.025619 -1104150.000000 0 0 1
9.822182 21.356256 32.868771 40.409417 1.139723 0.620834 0.018421 -0.028681 -79517.200000 0 0 1
9.565382 20.022656 33.265975 39.987852 1.125125 0.588270 0.010477 -0.024700 89360.900000 0 0 1
8.320482 19.786556 34.151041 40.336482 1.172733 0.561131 0.024849 -0.029742 -90375.800000 0 0 1
8.376482 20.396456 -33.318662 39.953899 1.181114 2.556983 0.029196 -0.021883 422040.000000 0 0 1
7.022782 20.584056 -32.926692 39.461245 1.242004 2.557850 0.036761 -0.022883 47209.600000 0 0 1
6.991982 21.222056 -31.489842 38.611832 1.252529 2.524474 0.043602 -0.024973 -200528.000000 0 0 1
7.469482 22.537856 -31.593152 39.520569 1.250769 2.497109 0.047560 -0.020236 -24198.900000 0 0 1
7.598982 23.090556 -30.264652 38.818390 1.252865 2.464899 0.029866 -0.018063 1391010.000000 0 0 1
9.125082 23.290156 -29.833832 38.932711 1.197379 2.443846 0.019928 -0.011259 1355640.000000 0 0 1
9.807582 22.068456 -29.874342 38.414603 1.152595 2.461766 0.015607 -0.020481 -60150.800000 0 0 1
11.170182 22.256656 -29.476812 38.587746 1.105645 2.440117 0.018300 -0.012663 827194.000000 0 0 1
11.832382 20.876356 -29.186062 37.784305 1.055159 2.453469 0.016587 -0.021567 169012.000000 0 0 1
12.109382 20.008456 -30.295492 38.272605 1.026552 2.484172 0.015639 -0.018178 518491.000000 0 0 1
10.858982 19.462956 -30.744472 37.972973 1.061885 2.514336 0.027543 -0.020112 469114.000000 0 0 1
10.866082 18.388056 -31.847132 38.346214 1.037072 2.550829 0.027339 -0.027172 -265040.000000 0 0 1
11.391982 17.098456 -31.470122 37.583281 0.983077 2.563202 0.026118 -0.021677 271675.000000 0 0 1
11.241182 16.135756 -32.519002 38.002793 0.962314 2.597699 0.013631 -0.013507 632192.000000 0 0 1
12.425582 16.098756 -33.596602 39.272085 0.913467 2.597279 0.009381 -0.000966 751990.000000 0 0 1
12.536282 17.371756 -34.238849 40.388551 0.945689 2.582500 0.014375 -0.013795 13926.700000 0 0 1
13.410682 17.475556 33.434575 40.038884 0.916254 0.582568 0.016555 -0.012282 -97811.700000 0 0 1
12.698382 17.041556 32.137711 38.529157 0.930411 0.584272 0.019295 -0.020801 -495314.000000 0 0 1
13.039282 17.750156 30.977861 38.009456 0.937224 0.618060 0.016598 -0.019614 -123484.000000 0 0 1
12.329482 17.325756 29.813091 36.619917 0.952309 0.619580 0.024282 -0.020145 -412186.000000 0 0 1
10.886982 17.826256 29.695281 36.305805 1.022526 0.613008 0.020959 -0.018035 -574602.000000 0 0 1
10.092582 16.979756 30.526751 36.360072 1.034513 0.574309 0.018073 -0.016279 -935482.000000 0 0 1
8.762182 17.402056 30.526621 36.214389 1.104341 0.568068 0.029442 -0.015809 -573196.000000 0 0 1
7.967182 16.588856 31.568911 36.541240 1.123054 0.527783 0.031604 -0.013601 -298853.000000 0 0 1
8.328282 16.755556 32.891391 37.841148 1.109515 0.517221 0.040592 -0.016637 36243.700000 0 0 1
7.638382 15.818156 33.690400 37.994762 1.120933 0.480613 0.040459 -0.011043 -320757.000000 0 0 1
7.689182 16.067856 -33.583412 38.015064 1.124460 2.653916 0.037178 -0.017109 -386378.000000 0 0 1
6.769182 16.990556 -33.044912 37.768598 1.191663 2.636089 0.040892 -0.026520 8578.100000 0 0 1
6.799782 16.988156 -31.638702 36.549171 1.190061 2.617239 0.041991 -0.027790 -471920.000000 0 0 1
5.788582 17.959356 -31.061012 36.343261 1.258994 2.595686 0.057457 -0.034023 -1190440.000000 0 0 1
5.854582 18.207856 -29.654322 35.287122 1.259696 2.568766 0.056624 -0.038487 -52718.100000 0 0 1
4.970782 19.163456 -29.121612 35.213847 1.317001 2.544535 0.069248 -0.042968 658380.000000 0 0 1
3.441882 18.850356 -29.214622 34.938182 1.390196 2.561078 0.085214 -0.045772 -1007600.000000 0 0 1
2.941982 17.765956 -28.409242 33.635836 1.406689 2.576637 0.093071 -0.037168 387031.000000 0 0 1
1.555182 17.538356 -28.620792 33.603009 1.482354 2.590080 0.082365 -0.035510 285652.000000 0 0 1
0.536082 18.619956 -28.259572 33.846618 1.542014 2.558803 0.074960 -0.042142 -1161180.000000 0 0 1
0.264682 18.854656 -26.870862 32.826991 1.556759 2.529696 0.071496 -0.037967 316197.000000 0 0 1
-0.495918 20.091656 -26.842472 33.532654 -1.546119 2.498905 0.078531 -0.035711 59708.400000 0 0 1
-0.888918 20.626656 -25.448452 32.769999 -1.527727 2.460012 0.063109 -0.038637 557576.000000 0 0 1
-1.935618 19.846456 -24.832812 31.848029 -1.473574 2.465028 0.055814 -0.034589 468490.000000 0 0 1
-2.296118 20.454056 -23.598012 31.313044 -1.459007 2.424342 0.052097 -0.020853 177433.000000 0 0 1
-3.187918 19.486956 -22.746212 30.121328 -1.408640 2.426684 0.042328 -0.028616 -117195.000000 0 0 1
-4.541918 19.542956 -23.112512 30.606279 -1.342443 2.426688 0.042540 -0.021063 -523972.000000 0 0 1
-5.185618 18.570856 -22.302612 29.481754 -1.298498 2.428724 0.037099 -0.027996 -880581.000000 0 0 1
-6.708718 18.630056 -22.317012 29.835129 -1.225151 2.415857 0.081421 -0.023991 -11687.800000 0 0 1
-7.320018 19.564656 -21.338712 29.861330 -1.212775 2.366839 0.042295 -0.011321 490425.000000 0 0 1
-7.206418 20.953856 -21.726012 31.032501 -1.239550 2.346341 0.036429 -0.016996 -392749.000000 0 0 1
-7.781718 21.915056 -20.660912 31.107846 -1.229598 2.297180 0.044627 -0.023152 -258600.000000 0 0 1
-7.061318 22.037356 -19.477412 30.246931 -1.260708 2.270442 0.042328 -0.020084 -165307.000000 0 0 1
-7.430318 23.207356 -18.737812 30.739170 -1.260938 2.226320 0.056417 -0.018825 -331953.000000 0 0 1
-6.656718 23.428456 -17.452812 29.963396 -1.293962 2.192562 0.061123 -0.018298 1447210.000000 0 0 1
-5.250418 23.764256 -17.655012 30.066696 -1.353352 2.198385 0.055690 -0.020098 652761.000000 0 0 1
-4.662918 24.100856 -16.482212 29.567843 -1.379682 2.162092 0.074524 -0.013010 582360.000000 0 0 1
-3.126318 24.399856 -16.583512 29.667148 -1.443362 2.163958 0.072818 -0.015161 876988.000000 0 0 1
-2.925218 25.552556 -17.384712 31.043811 -1.456814 2.165189 0.052835 -0.009132 219044.000000 0 0 1
-1.602618 26.069456 -17.238912 31.294808 -1.509399 2.154185 0.045223 -0.020039 582644.000000 0 0 1
-1.550318 27.548556 -16.750112 32.278362 -1.514580 2.116392 0.034585 -0.030974 -552705.000000 0 0 1
-2.213418 28.479056 -17.590612 33.546765 -1.493231 2.122761 0.029877 -0.030576 -330543.000000 0 0 1
-1.733818 28.696056 -18.892312 34.400424 -1.510450 2.152189 0.035780 -0.026913 -588011.000000 0 0 1
-2.834118 29.133756 -19.917712 35.405129 -1.473822 2.168282 0.048611 -0.027921 514399.000000 0 0 1
-3.590918 30.272956 -19.560212 36.220829 -1.452730 2.141265 0.034230 -0.005255 -1335.560000 0 0 1
-4.504818 30.208356 -18.496912 35.706776 -1.422762 2.115334 0.020626 -0.009880 -655416.000000 0 0 1
-4.804018 31.630656 -17.944712 36.682280 -1.420070 2.081960 0.047958 -0.003155 102911.000000 0 0 1
-5.725218 32.399156 -18.712412 37.850202 -1.395893 2.087919 0.068787 -0.012479 223953.000000 0 0 1
-5.773318 33.718456 -18.264412 38.779559 -1.401219 2.061198 0.054177 -0.030051 -238500.000000 0 0 1
-6.696618 -34.056181 -18.982512 39.560131 1.376639 2.071268 0.044272 -0.012961 585891.000000 0 0 1
-8.091318 34.367956 -18.902212 40.048963 -1.339575 2.062329 0.060158 -0.020815 440498.000000 0 0 1
-8.806918 -33.418181 -19.633712 39.746941 1.313118 2.087444 0.084196 -0.027750 -250390.000000 0 0 1
29.428982 -20.937944 -26.930092 45.052107 -0.618385 2.211493 0.013204 -0.001627 6258.090000 0 0 1
28.855682 -22.086844 -26.410212 44.921914 -0.653300 2.199274 0.024265 -0.010899 64149.000000 0 0 1
27.441782 -22.156544 -26.593092 44.171896 -0.679238 2.216845 0.016137 -0.002595 636991.000000 0 0 1
26.843582 -23.488744 -26.106742 44.202500 -0.718843 2.202619 0.005514 0.001802 -241367.000000 0 0 1
27.176882 -24.684244 -26.898282 45.512772 -0.737371 2.203101 0.003303 0.017708 -453334.000000 0 0 1
28.528582 -25.062224 -26.867712 46.517406 -0.720806 2.186562 0.011416 0.013783 -285212.000000 0 0 1
28.891182 -26.488284 -27.401072 47.824140 -0.742036 2.180903 0.023930 -0.001661 -133825.000000 0 0 1
28.494782 -27.539774 -26.549082 47.699534 -0.768357 2.161072 0.029950 -0.016981 -289353.000000 0 0 1
28.593882 -28.868024 -27.099152 48.839911 -0.790169 2.158987 0.036612 -0.010680 647623.000000 0 0 1
27.320582 -29.308164 -27.912592 48.831296 -0.820482 2.179266 0.042331 -0.010566 271457.000000 0 0 1
27.041782 -28.717934 -29.182412 49.067208 -0.815449 2.207743 0.017647 -0.009630 457186.000000 0 0 1
28.075482 -28.714404 -30.200402 50.247527 -0.796648 2.215589 0.009798 -0.007712 469502.000000 0 0 1
28.484282 -30.097314 -30.793352 51.627833 -0.812926 2.209866 0.024055 -0.006685 -635004.000000 0 0 1
29.119582 -31.095114 -29.998602 52.103477 -0.818195 2.184318 0.032409 -0.013017 1831070.000000 0 0 1
30.521082 -31.017914 -29.574732 52.614753 -0.793471 2.167719 0.032867 -0.014183 1725010.000000 0 0 1
31.621382 -30.584304 -30.519232 53.541899 -0.768728 2.177310 0.031652 -0.017248 -720612.000000 0 0 1
31.353482 -29.239144 -30.951032 52.876599 -0.750518 2.196101 0.035442 -0.025211 65102.200000 0 0 1
32.483582 -28.773044 -31.687332 53.732282 -0.724898 2.201516 0.033912 -0.023783 312676.000000 0 0 1
32.259682 -27.426134 -32.371692 53.299215 -0.704591 2.223527 0.032955 -0.018393 31895.200000 0 0 1
32.321182 -26.248194 -31.584962 52.261232 -0.682079 2.219767 0.031393 -0.011933 531176.000000 0 0 1
31.122182 -25.890364 -30.848572 50.897304 -0.693888 2.221937 0.029143 -0.012295 697770.000000 0 0 1
31.069982 -24.575644 -30.099162 49.752041 -0.669215 2.220541 0.027269 -0.006439 149059.000000 0 0 1
32.029082 -24.613744 -29.024802 49.740704 -0.655224 2.193855 0.029147 -0.016260 728656.000000 0 0 1
31.944682 -23.432244 -28.242862 48.653798 -0.632874 2.190122 0.024021 -0.012018 281441.000000 0 0 1
32.950882 -23.551544 -27.046952 48.702910 -0.620555 2.159575 0.019905 -0.016308 390922.000000 0 0 1
32.374782 -24.274444 -25.921652 48.055251 -0.643370 2.140537 0.019064 -0.016461 569344.000000 0 0 1
31.481482 -23.592744 -25.033512 46.630226 -0.643128 2.137497 0.022019 -0.004289 33419.000000 0 0 1
32.024282 -22.428244 -24.161712 45.960517 -0.610962 2.124341 0.001899 0.000514 -467961.000000 0 0 1
32.386782 -21.307844 -24.903812 46.077410 -0.581921 2.141801 -0.000545 -0.006066 10963.200000 0 0 1
32.742482 -20.167544 -24.023212 45.342195 -0.552061 2.129185 -0.009216 -0.004240 94350.900000 0 0 1
32.966782 -18.863444 -24.854912 45.391683 -0.519724 2.150248 -0.016743 -0.003300 1445090.000000 0 0 1
31.738582 -18.424244 -25.535522 44.708537 -0.525958 2.178709 -0.023437 -0.003423 1389440.000000 0 0 1
31.987482 -17.249044 -26.264602 44.839244 -0.494547 2.196602 -0.025238 -0.003912 543365.000000 0 0 1
31.035782 -17.060644 -27.539162 44.863022 -0.502620 2.231725 -0.021107 0.002174 663724.000000 0 0 1
29.693282 -16.749344 -27.207252 43.617268 -0.513588 2.244356 -0.011754 0.001720 327514.000000 0 0 1
28.903282 -16.685044 -28.391982 43.816607 -0.523540 2.275717 0.001217 -0.003326 -135774.000000 0 0 1
27.402082 -16.467744 -28.177052 42.614633 -0.541130 2.293222 -0.008377 -0.002639 -247429.000000 0 0 1
26.672482 -17.372144 -27.375352 41.983599 -0.577298 2.281080 -0.010308 0.006742 170609.000000 0 0 1
26.478182 -16.868944 -26.074762 40.811133 -0.567245 2.263881 -0.008833 0.006624 -160604.000000 0 0 1
25.905482 -17.873144 -25.070512 40.237717 -0.603940 2.243445 0.007413 0.005024 -309990.000000 0 0 1
25.764282 -17.394944 -23.758512 39.126068 -0.593858 2.223366 0.008522 0.006947 -20732.800000 0 0 1
25.343182 -18.522544 -22.955112 38.888285 -0.631144 2.202206 0.010288 0.010186 -123327.000000 0 0 1
25.358582 -18.147144 -21.438112 37.841368 -0.621133 2.173080 0.004683 0.017057 55525.300000 0 0 1
24.400982 -17.212644 -20.984712 36.497139 -0.614346 2.183362 0.016275 0.006343 -46738.100000 0 0 1
24.576682 -15.875344 -21.436112 36.270467 -0.573524 2.203103 0.007820 0.010642 -740063.000000 0 0 1
25.749982 -15.072144 -20.934712 36.448502 -0.529560 2.182623 -0.019812 0.006423 -969068.000000 0 0 1
25.652782 -14.533844 -19.635312 35.423768 -0.515468 2.158315 -0.019482 -0.002689 370068.000000 0 0 1
26.740682 -13.668544 -19.334412 35.717120 -0.472529 2.142803 -0.043185 0.000237 -257648.000000 0 0 1
26.718782 -12.807344 -18.017612 34.677885 -0.446982 2.117145 -0.022822 0.001101 -433168.000000 0 0 1
26.909882 -13.570344 -16.788912 34.498747 -0.467073 2.079050 -0.026514 0.013044 199612.000000 0 0 1
26.771482 -12.603444 -15.726012 33.509200 -0.439999 2.059299 -0.028308 0.015123 165943.000000 0 0 1
27.317382 -13.089144 -14.309812 33.501280 -0.446830 2.012126 -0.005941 0.000744 -32980.700000 0 0 1
26.574382 -14.205544 -13.847912 33.162628 -0.490910 2.001572 0.026989 -0.010313 677254.000000 0 0 1
27.110482 -14.608044 -12.547012 33.253582 -0.494230 1.957690 0.041972 -0.015792 403410.000000 0 0 1
26.335382 -15.840744 -11.976412 32.983571 -0.541522 1.942392 0.058789 -0.040328 737105.000000 0 0 1
25.021382 -15.473644 -11.543612 31.603136 -0.553851 1.944717 0.046555 -0.030652 836084.000000 0 0 1
24.178782 -16.601444 -11.347912 31.448316 -0.601684 1.939968 0.025285 -0.030086 419296.000000 0 0 1
22.731282 -16.288344 -10.884812 30.008340 -0.621754 1.941988 0.042313 -0.034184 -21586.100000 0 0 1
22.685482 -15.813044 -9.573712 29.263278 -0.608747 1.904091 0.027993 -0.023754 -68253.400000 0 0 1
21.341182 -15.652644 -9.226312 28.028131 -0.632823 1.906232 0.021129 -0.020638 -511587.000000 0 0 1
21.139782 -15.435244 -7.709312 27.286822 -0.630677 1.857226 0.022815 -0.009005 -427242.000000 0 0 1
21.513582 -14.170044 -7.291812 26.773025 -0.582436 1.846638 0.028279 -0.005486 357706.000000 0 0 1
21.279382 -13.832444 -5.924212 26.062327 -0.576403 1.800110 0.015869 0.003140 53154.900000 0 0 1
22.197382 -14.618244 -4.906312 27.027555 -0.582367 1.753338 0.024526 0.000034 -150349.000000 0 0 1
23.545682 -14.245444 -4.905012 27.953371 -0.544097 1.747181 0.042697 -0.003591 -47452.400000 0 0 1
24.313682 -15.034544 -3.990312 28.863736 -0.553808 1.709487 0.035049 -0.011511 -136744.000000 0 0 1
25.820082 -14.883944 -4.246312 30.103814 -0.522922 1.712324 0.048929 -0.015233 -374135.000000 0 0 1
26.340682 -13.548044 -4.014612 29.891439 -0.475053 1.705510 0.053254 -0.010892 312091.000000 0 0 1
27.693982 -13.467744 -4.409112 31.109115 -0.452632 1.713006 0.063962 -0.021500 117616.000000 0 0 1
28.536882 -12.246444 -3.911712 31.299050 -0.405376 1.696103 0.082010 -0.020090 -679555.000000 0 0 1
28.822882 -12.389244 -2.497612 31.472050 -0.405964 1.650240 0.082315 -0.022182 384075.000000 0 0 1
29.421182 -11.256544 -1.867912 31.556375 -0.365417 1.630024 0.084919 -0.023932 1506210.000000 0 0 1
30.921582 -10.932344 -2.313412 32.878751 -0.339834 1.641216 0.086591 -0.016097 858074.000000 0 0 1
30.986482 -10.324744 -3.579412 32.856880 -0.321632 1.679952 0.092915 -0.019376 -40020.200000 0 0 1
32.147782 -10.698944 -4.281112 34.150772 -0.321275 1.696486 0.102421 -0.023012 -168235.000000 0 0 1
32.055782 -10.451144 -5.824012 34.215767 -0.315163 1.741843 0.103278 -0.027006 -70058.300000 0 0 1
31.005582 -11.174344 -6.441012 33.581226 -0.345908 1.763796 0.092572 -0.034829 139668.000000 0 0 1
31.222082 -11.433444 -7.783012 34.148460 -0.351031 1.800734 0.089393 -0.028619 -729645.000000 0 0 1
30.036582 -12.076344 -8.448412 33.457585 -0.382276 1.826071 0.110162 -0.034666 -559552.000000 0 0 1
29.755882 -13.363944 -7.896612 33.561347 -0.422121 1.808312 0.096089 -0.035597 -359386.000000 0 0 1
28.494582 -13.840344 -8.254012 32.735684 -0.452157 1.825689 0.089521 -0.034805 -415632.000000 0 0 1
28.426982 -15.358344 -8.333912 33.368040 -0.495345 1.823226 0.085918 -0.037412 108553.000000 0 0 1
29.056782 -15.938744 -9.496512 34.474975 -0.501720 1.849866 0.086651 -0.039164 425086.000000 0 0 1
29.029582 -17.356144 -9.413012 35.107793 -0.538858 1.842235 0.078665 -0.038227 -86723.900000 0 0 1
29.358982 -17.987944 -10.792812 36.083247 -0.549698 1.874555 0.067963 -0.040564 1029120.000000 0 0 1
30.672182 -17.653244 -11.327912 37.158328 -0.522244 1.880583 0.076942 -0.031846 1314270.000000 0 0 1
30.918882 -18.133644 -12.629012 38.003924 -0.530427 1.909546 0.055861 -0.014527 -178965.000000 0 0 1
30.131882 -17.447744 -13.756412 37.437855 -0.524870 1.947058 0.042137 -0.012935 -237652.000000 0 0 1
30.694882 -16.243244 -14.119212 37.488277 -0.486721 1.956952 0.039085 -0.011376 225618.000000 0 0 1
29.910782 -15.668244 -15.164012 37.014808 -0.482531 1.992893 0.021105 -0.008799 -842287.000000 0 0 1
30.585882 -14.529444 -15.913612 37.414489 -0.443479 2.010126 0.009754 0.003250 480439.000000 0 0 1
31.614882 -14.822544 -16.885512 38.785681 -0.438416 2.021228 -0.017011 0.005285 715621.000000 0 0 1
32.855382 -15.081444 -16.270412 39.644071 -0.430334 1.993702 0.004608 0.002111 -1166580.000000 0 0 1
33.991482 -15.416244 -17.225512 41.107173 -0.425788 2.003183 -0.000856 0.004714 326486.000000 0 0 1
35.279082 -15.461744 -16.579712 41.935260 -0.413056 1.977261 0.014465 0.004380 1021550.000000 0 0 1
-35.309734 -16.072944 -17.435212 42.533557 0.427169 1.993159 0.020606 0.003201 152408.000000 0 0 1
-33.840834 -16.148844 -16.967712 41.156901 0.445242 1.995739 0.027012 0.002097 -2172.290000 0 0 1
-33.468534 -16.963644 -15.849412 40.732197 0.469115 1.970464 0.022587 0.002618 -65700.000000 0 0 1
-33.894834 -16.584944 -14.572712 40.451009 0.455056 1.939338 0.022268 -0.002521 -363202.000000 0 0 1
-33.196334 -17.420144 -13.475912 39.837900 0.483260 1.915873 0.016549 -0.000351 -773778.000000 0 0 1
-31.859134 -17.155744 -13.218312 38.523341 0.493961 1.921038 0.021784 0.002010 -511767.000000 0 0 1
-31.351534 -17.946544 -12.143312 38.111116 0.519900 1.895079 0.035434 0.008734 246664.000000 0 0 1
-29.920734 -17.510044 -11.735012 36.600034 0.529477 1.897189 0.051523 0.003963 117066.000000 0 0 1
-29.874234 -16.156244 -11.285312 35.788998 0.495759 1.891600 0.040221 -0.012312 -944783.000000 0 0 1
-28.655334 -15.892344 -10.725512 34.477984 0.506371 1.887129 0.056498 -0.012663 -999067.000000 0 0 1
-28.554834 -16.034644 -9.171512 34.008896 0.511659 1.843857 0.049752 -0.011471 -96018.600000 0 0 1
-28.597434 -17.422044 -8.788412 34.620472 0.547169 1.827455 0.048119 -0.010056 -14936.300000 0 0 1
-28.665234 -17.663344 -7.414912 34.477098 0.552242 1.787558 0.058521 -0.016183 -53703.800000 0 0 1
-28.877134 -19.162944 -7.083512 35.373485 0.585878 1.772409 0.058693 -0.024495 75972.100000 0 0 1
-30.069934 -19.713144 -7.595712 36.749202 0.580285 1.778988 0.050866 -0.022522 -242475.000000 0 0 1
-29.875534 -20.361844 -8.838712 37.219284 0.598240 1.810564 0.050478 -0.012554 11698.700000 0 0 1
-31.134534 -21.026044 -9.449412 38.739452 0.593975 1.817204 0.041077 -0.013426 1075150.000000 0 0 1
-32.187834 -20.065644 -9.808812 39.177794 0.557442 1.823855 0.023706 -0.015320 1741640.000000 0 0 1
-33.434134 -20.763344 -10.006912 40.609064 0.555734 1.819782 0.008154 -0.015544 749364.000000 0 0 1
-34.650134 -19.923844 -10.417912 41.305257 0.521835 1.825768 0.010488 -0.020866 -17425.700000 0 0 1
-34.943434 -19.650444 -11.776712 41.783663 0.512276 1.856518 0.005262 -0.014987 162676.000000 0 0 1
35.260182 -19.263844 -12.008812 41.935518 -0.500024 1.861226 0.030521 -0.020729 130150.000000 0 0 1
34.893682 -18.946244 -13.500912 41.938095 -0.497430 1.898558 0.022853 -0.012351 -246291.000000 0 0 1
35.129882 -20.091644 -14.304412 42.923175 -0.519520 1.910551 0.013939 0.000741 251891.000000 0 0 1
34.421482 -20.062644 -15.526212 42.759927 -0.527716 1.942391 0.012623 0.000742 -97476.300000 0 0 1
33.118982 -20.856344 -15.532012 42.108164 -0.562001 1.948578 0.006746 -0.003783 -1215300.000000 0 0 1
32.078182 -20.345844 -14.764912 40.754948 -0.565229 1.941515 0.024752 -0.000150 110370.000000 0 0 1
30.871182 -21.100344 -14.906412 40.254882 -0.599564 1.950129 0.029802 0.000344 555933.000000 0 0 1
29.977582 -20.842644 -16.126012 39.913901 -0.607547 1.986704 0.021092 0.000763 -926754.000000 0 0 1
29.465682 -19.568344 -16.074412 38.852712 -0.586228 1.997340 0.013643 0.003873 -465255.000000 0 0 1
28.742182 -19.266044 -17.193512 38.638198 -0.590518 2.031957 0.002399 0.004687 -561463.000000 0 0 1
27.940182 -17.965544 -17.158312 37.387461 -0.571439 2.047589 0.002049 0.005361 -408026.000000 0 0 1
26.778682 -18.043244 -16.365412 36.200596 -0.592919 2.039887 0.018448 0.000599 -90928.600000 0 0 1
26.269182 -16.712544 -16.467312 35.221462 -0.566615 2.057298 -0.000616 0.007534 -595861.000000 0 0 1
24.897882 -16.574244 -15.704012 33.782038 -0.587325 2.054276 0.007276 -0.005408 863527.000000 0 0 1
23.766582 -17.176444 -16.317612 33.558086 -0.625808 2.078589 0.019218 -0.008804 480023.000000 0 0 1
23.370082 -16.540244 -17.542012 33.577710 -0.615910 2.120495 0.012627 -0.005846 -1195370.000000 0 0 1
22.256682 -17.301044 -18.246312 33.579963 -0.660771 2.145241 0.025815 -0.004691 -520738.000000 0 0 1
21.029582 -17.440744 -17.585512 32.491124 -0.692379 2.142708 0.032009 -0.008241 -747317.000000 0 0 1
20.182382 -18.120744 -18.470012 32.815107 -0.731626 2.168627 0.031809 -0.014081 186586.000000 0 0 1
18.784682 -18.330744 -17.805412 31.716134 -0.773168 2.166872 0.032734 -0.009232 360077.000000 0 0 1
17.973682 -17.165644 -17.680912 30.501266 -0.762407 2.189130 0.038381 -0.012983 -378760.000000 0 0 1
16.677082 -17.588444 -17.422512 29.849998 -0.811989 2.194036 0.038239 -0.015189 -496177.000000 0 0 1
15.566982 -16.524544 -17.254812 28.515260 -0.815228 2.220698 0.043452 -0.002496 30863.600000 0 0 1
15.041382 -15.946644 -18.472012 28.666249 -0.814603 2.271011 0.054062 0.005352 126026.000000 0 0 1
13.905082 -15.199044 -18.089912 27.415455 -0.829829 2.291407 0.054475 0.005345 87405.700000 0 0 1
13.075782 -14.744744 -19.337512 27.610196 -0.845317 2.346720 0.062937 -0.002984 -68737.300000 0 0 1
13.598182 -13.694544 -20.082112 27.852151 -0.788929 2.376078 0.071823 -0.009164 93984.700000 0 0 1
12.853782 -13.578644 -21.294412 28.338159 -0.812815 2.421037 0.074317 0.006648 268457.000000 0 0 1
12.767482 -12.090544 -21.720312 27.945694 -0.758173 2.461052 0.067499 -0.001903 -874619.000000 0 0 1
13.938682 -11.548144 -22.196612 28.641510 -0.691877 2.457481 0.065310 0.000135 -947458.000000 0 0 1
13.708482 -10.180544 -22.526512 28.266760 -0.638778 2.492985 0.046547 -0.005947 337033.000000 0 0 1
15.022682 -9.486844 -22.966412 29.036826 -0.563261 2.483141 0.050330 0.000073 52996.000000 0 0 1
15.506482 -9.914944 -24.196412 30.401044 -0.568892 2.491301 0.063909 -0.001233 83187.200000 0 0 1
16.733282 -9.245344 -24.440012 31.028911 -0.504770 2.477787 0.066856 -0.016573 -130413.000000 0 0 1
22.186982 4.883956 -7.271412 23.853482 0.216672 1.880563 0.070531 0.014015 -380718.000000 0 1 0
22.192482 6.312056 -7.375512 24.222850 0.277106 1.880195 0.042555 0.005701 682503.000000 0 1 0
21.851382 6.912356 -6.110012 23.719102 0.306375 1.831333 0.035625 0.003850 -267307.000000 0 1 0
21.728582 8.388156 -6.355912 24.143116 0.368416 1.837196 0.033844 0.003115 -28343.500000 0 1 0
20.524882 8.701356 -7.053712 23.382455 0.400974 1.877237 0.035979 0.004200 709816.000000 0 1 0
20.230982 10.037756 -7.465012 23.786037 0.460569 1.890031 0.029008 0.008667 -358432.000000 0 1 0
19.523882 10.869356 -6.395312 23.242738 0.507989 1.849545 0.026214 -0.001509 -393961.000000 0 1 0
20.338982 11.211956 -5.276612 23.816481 0.503806 1.794203 0.022366 -0.004692 -12276.800000 0 1 0
19.774182 12.062656 -4.348712 23.567716 0.547755 1.756380 0.035515 -0.014042 -134102.000000 0 1 0
20.737282 12.484556 -3.196012 24.415435 0.541914 1.702074 0.028462 -0.020824 -237994.000000 0 1 0
21.989782 12.992556 -3.580512 25.791027 0.533661 1.710074 0.032091 -0.026937 738250.000000 0 0 1
22.870782 13.305156 -2.484612 26.575800 0.526895 1.664425 0.033562 -0.027103 295383.000000 0 0 1
23.541582 12.154056 -1.672912 26.546672 0.476587 1.633856 0.018761 -0.030318 -1346730.000000 0 0 1
24.586982 11.614956 -2.402612 27.298341 0.441327 1.658923 0.025978 -0.026140 -252456.000000 0 0 1
25.224082 10.514156 -1.771112 27.385007 0.394930 1.635516 0.024333 -0.032081 -69558.200000 0 0 1
26.700682 10.364956 -2.191412 28.725616 0.370285 1.647158 0.043041 -0.031671 80034.800000 0 0 1
27.571482 11.422956 -1.807812 29.898808 0.392776 1.631298 0.048791 -0.044035 608239.000000 0 0 1
28.913182 11.130956 -2.203412 31.060027 0.367490 1.641796 0.056640 -0.043414 257304.000000 0 0 1
29.862682 12.245056 -1.797212 32.325704 0.389136 1.626422 0.050079 -0.045487 -635561.000000 0 0 1
30.250482 12.388256 -0.498112 32.692639 0.388688 1.586033 0.066567 -0.048302 358213.000000 0 0 1
31.070582 13.526256 -0.204012 33.887789 0.410596 1.576817 0.077774 -0.046357 -413030.000000 0 0 1
32.541882 13.155656 0.035688 35.100522 0.384181 1.569780 0.084897 -0.048720 -309446.000000 0 0 1
33.350682 14.299756 0.290288 36.288225 0.405059 1.562797 0.080325 -0.047552 409080.000000 0 0 1
34.159782 14.762656 -0.801412 37.221888 0.407924 1.592329 0.081051 -0.037080 -242304.000000 0 0 1
33.486682 15.695456 -1.808012 37.026667 0.438302 1.619646 0.040831 -0.014853 290501.000000 0 0 1
32.299482 15.212656 -2.447712 35.786488 0.440169 1.639247 0.054413 -0.014536 365647.000000 0 0 1
31.906582 16.123656 -3.459812 35.916188 0.467910 1.667276 0.032803 -0.005336 176594.000000 0 0 1
30.507382 15.800556 -4.051912 34.594449 0.477885 1.688192 0.052632 -0.019822 -537064.000000 0 0 1
30.520282 14.569356 -4.866712 34.167801 0.445377 1.713718 0.032827 -0.023777 -473723.000000 0 0 1
29.416082 14.178356 -5.588512 33.129490 0.449139 1.740294 0.031155 -0.027181 -1009270.000000 0 0 1
28.056982 13.991056 -4.881912 31.729748 0.462580 1.725269 0.043627 -0.036132 -172794.000000 0 0 1
27.075282 13.570156 -5.850812 30.845616 0.464608 1.761633 0.046596 -0.038250 141187.000000 0 0 1
25.902282 13.214256 -5.172912 29.534789 0.471741 1.746851 0.037026 -0.027169 -40269.600000 0 0 1
24.637582 13.028656 -6.069012 28.523485 0.486431 1.785208 0.034745 -0.022021 84158.400000 0 0 1
24.818182 11.987156 -7.017512 28.440807 0.449954 1.820112 0.037630 -0.011901 780254.000000 0 0 1
23.803782 11.910656 -8.059812 27.810867 0.463942 1.864823 0.038904 -0.010949 488621.000000 0 0 1
23.572782 13.136156 -8.955012 28.432848 0.508400 1.891204 0.034434 -0.008492 -7619.750000 0 0 1
22.718082 14.171056 -8.440712 28.074467 0.557721 1.876175 0.033220 -0.017686 249773.000000 0 0 1
22.799282 15.324856 -9.250012 28.986569 0.591799 1.895590 0.041436 -0.022608 -875642.000000 0 0 1
21.857482 16.403856 -8.658612 28.667186 0.643816 1.877627 0.038867 -0.008728 167220.000000 0 0 1
20.488882 16.100156 -8.825712 27.511861 0.666022 1.897367 0.024339 -0.009609 130092.000000 0 0 1
20.002382 15.198656 -7.837912 26.315913 0.649770 1.873225 0.007639 -0.015821 -816818.000000 0 0 1
18.512782 14.813656 -8.056912 25.041592 0.674854 1.898364 -0.004614 -0.009624 -132081.000000 0 0 1
17.584282 15.850356 -7.979012 24.982101 0.733584 1.895881 0.008375 -0.013240 -567778.000000 0 1 0
16.275082 15.432556 -7.754212 23.731200 0.758833 1.903661 0.030913 -0.009038 -489767.000000 0 1 0
15.901682 15.654756 -6.293612 23.185004 0.777573 1.845698 0.041187 -0.006011 -590864.000000 0 1 0
16.456882 14.669256 -5.417412 22.701638 0.728030 1.811757 0.034699 -0.012148 545104.000000 0 1 0
16.215982 15.014456 -4.094612 22.475716 0.746944 1.753999 0.048429 -0.004089 -417927.000000 0 1 0
15.858682 13.846856 -3.146712 21.286968 0.717776 1.719163 0.032308 -0.002753 -397793.000000 0 1 0
16.915782 13.026756 -2.664912 21.516082 0.656238 1.694972 0.030890 -0.008308 506686.000000 0 1 0
16.550682 12.298056 -1.538112 20.676872 0.639041 1.645253 0.016933 -0.004928 -88040.400000 0 1 0
16.621982 13.082056 -0.220112 21.153697 0.666784 1.581202 0.023964 -0.011097 24009.100000 0 1 0
15.562782 14.047956 -0.119112 20.965672 0.734285 1.576478 0.021707 -0.014442 903009.000000 0 1 0
15.711582 14.867356 1.002388 21.654026 0.757797 1.524489 0.024730 -0.013022 231.913000 0 1 0
14.465782 15.786856 1.239088 21.448053 0.829038 1.512993 0.029960 -0.010212 260360.000000 0 1 0
14.504582 16.940656 0.379388 22.304991 0.862714 1.553786 0.041873 -0.008811 668993.000000 0 1 0
13.446482 17.758456 0.889588 22.292644 0.922711 1.530881 0.023426 -0.012034 207266.000000 0 1 0
13.304682 19.166956 0.208188 23.333026 0.964009 1.561874 0.016183 -0.007917 -401303.000000 0 1 0
13.008282 19.088556 -1.178712 23.129585 0.972615 1.621780 0.027641 -0.018869 428461.000000 0 1 0
12.368482 20.366956 -1.606212 23.882465 1.025040 1.638102 0.014654 -0.011532 1344070.000000 0 1 0
10.801682 20.389656 -1.490412 23.122191 1.083623 1.635299 0.007145 -0.016318 713834.000000 0 1 0
10.328782 20.639456 -0.185512 23.080409 1.106798 1.578834 0.004288 -0.013258 -79345.200000 0 1 0
8.912482 20.692056 -0.177712 22.530537 1.164091 1.578684 0.009133 -0.008690 655866.000000 0 1 0
8.269082 20.646356 1.266688 22.276764 1.189850 1.513904 0.007498 -0.010867 255437.000000 0 1 0
8.326082 21.850456 1.954188 23.464546 1.206733 1.487417 0.004066 -0.003992 126514.000000 0 1 0
7.412582 21.814356 3.036788 23.238644 1.243234 1.439743 0.012485 -0.005633 72983.800000 0 1 0
7.002182 23.214456 3.547888 24.505693 1.277845 1.425508 0.001639 -0.000083 116222.000000 0 1 0
7.657782 23.543356 4.766488 25.212113 1.256327 1.380596 -0.006476 0.003044 280409.000000 0 0 1
7.247382 24.818656 5.327988 26.398441 1.286683 1.367571 -0.009167 0.004374 126106.000000 0 0 1
7.926582 24.980456 6.736988 27.059950 1.263534 1.319185 -0.015321 0.004994 54363.300000 0 0 1
7.305882 24.167756 7.674788 26.388609 1.277232 1.275695 -0.005008 -0.006439 22468.600000 0 0 1
7.917182 24.421256 8.898288 27.170922 1.257295 1.237147 -0.006591 -0.008408 29247.000000 0 0 1
7.423082 23.376756 9.944288 26.466275 1.263325 1.185607 0.002797 -0.013236 378032.000000 0 0 1
6.207482 23.753856 10.588688 26.737592 1.315187 1.163615 0.006279 -0.014926 390558.000000 0 0 1
5.693882 22.698756 11.380788 26.022608 1.325022 1.118155 0.013954 -0.014650 110948.000000 0 0 1
4.348782 22.904656 12.139388 26.284975 1.383165 1.090731 0.030120 -0.018347 10730.400000 0 0 1
3.372282 23.077356 11.165188 25.857263 1.425694 1.124308 0.025632 -0.021023 -1186980.000000 0 0 1
2.145982 23.461956 11.695788 26.303233 1.479584 1.110010 0.026393 -0.023248 -237924.000000 0 0 1
1.024082 23.733756 10.644588 26.031657 1.527674 1.149538 0.044704 -0.019518 162949.000000 0 0 1
1.119682 25.093056 10.218188 27.116904 1.526205 1.184436 0.045791 -0.012796 179802.000000 0 0 1
0.414882 25.299056 8.993388 26.853219 1.554399 1.229288 0.037189 -0.015669 635307.000000 0 0 1
-1.070618 25.740956 9.094188 27.321187 -1.529228 1.231459 0.038563 -0.019206 317181.000000 0 0 1
-1.942618 24.892756 9.804388 26.824412 -1.492915 1.196624 0.030302 -0.019014 428184.000000 0 0 1
-3.279618 25.392956 9.627988 27.354273 -1.442353 1.211117 0.041732 -0.019228 -226098.000000 0 0 1
-4.300818 24.577356 10.420888 27.039570 -1.397559 1.175162 0.040033 -0.024132 -397935.000000 0 0 1
-4.510418 24.918756 11.753588 27.918365 -1.391730 1.136251 0.023238 -0.017208 -189911.000000 0 0 1
-5.586118 25.797256 11.945588 28.972404 -1.357549 1.145809 0.031182 -0.014569 -345393.000000 0 0 1
-6.011118 25.871456 13.456188 29.774733 -1.342501 1.101865 0.018115 -0.008482 181846.000000 0 0 1
-6.805818 24.740356 13.858588 29.162730 -1.302347 1.075587 0.025359 -0.018877 91832.100000 0 0 1
-7.321718 24.970556 15.140688 30.106090 -1.285577 1.043833 0.001802 0.004693 5030.430000 0 0 1
-8.482918 23.987456 15.420988 29.751719 -1.230883 1.025908 0.001064 -0.005616 -462369.000000 0 0 1
-9.703218 24.343856 14.857088 30.124887 -1.191506 1.055051 -0.005749 0.004618 -533034.000000 0 0 1
-10.653818 23.300656 15.165888 29.772950 -1.141944 1.036327 -0.006167 -0.001589 257174.000000 0 0 1
-12.079018 23.811256 14.853888 30.553503 -1.101340 1.063106 -0.003195 -0.012134 -158546.000000 0 0 1
-12.478118 24.785456 15.803688 31.933976 -1.104396 1.053092 0.005093 -0.008190 700252.000000 0 0 1
-13.888518 25.054656 15.760888 32.696059 -1.064636 1.067812 0.003944 -0.011168 568574.000000 0 0 1
-14.286918 26.213556 16.680388 34.197981 -1.071784 1.061275 0.023268 -0.012917 534498.000000 0 0 1
-15.662618 26.116256 17.110088 34.930381 -1.030578 1.058897 0.022484 -0.018259 906205.000000 0 0 1
-16.015918 27.244356 17.840988 36.291396 -1.039350 1.056866 0.040102 -0.015309 -450798.000000 0 0 1
-17.266018 27.016556 18.693388 37.114046 -1.002129 1.042950 0.029016 -0.019037 281941.000000 0 0 1
-18.451218 27.091056 17.870688 37.332750 -0.972880 1.071638 0.031692 -0.028898 156850.000000 0 0 1
-19.471618 26.414956 18.556788 37.699445 -0.935574 1.056147 0.029823 -0.021097 -665794.000000 0 0 1
-20.859218 26.586656 17.956188 38.267244 -0.905532 1.082376 0.029195 -0.029867 -799479.000000 0 0 1
-21.466518 27.878756 18.049688 39.545261 -0.914620 1.096816 0.028974 -0.027442 228784.000000 0 0 1
-22.105618 28.189756 16.828088 39.579101 -0.905781 1.131640 0.028842 -0.027038 -707775.000000 0 0 1
-22.976018 29.432056 16.944988 41.003365 -0.907968 1.144767 0.014857 -0.026963 -410028.000000 0 0 1
-24.273118 29.062856 17.387888 41.667403 -0.874961 1.140322 0.012717 -0.022765 -44766.100000 0 0 1
-25.036918 30.253856 17.300988 42.912320 -0.879474 1.155817 0.009888 -0.010941 188953.000000 0 0 1
-26.491278 30.164956 17.847588 43.934596 -0.850149 1.152471 0.014271 -0.005543 138101.000000 0 0 1
-27.389848 29.446256 17.016188 43.667338 -0.821564 1.170515 0.032121 -0.002492 126645.000000 0 0 1
-28.648778 29.199456 17.619988 44.540147 -0.794917 1.164078 0.049200 -0.003136 126763.000000 0 0 1
-28.774068 28.161956 18.817188 44.442427 -0.774648 1.133595 0.044177 -0.000543 -820894.000000 0 0 1
-28.818098 26.770256 18.423488 43.434483 -0.748575 1.132754 0.055895 -0.004515 205341.000000 0 0 1
-29.017778 25.879356 19.490288 43.493032 -0.728291 1.106130 0.056442 -0.001913 -164068.000000 0 0 1
-28.941158 24.394256 19.026088 42.363456 -0.700353 1.105021 0.056159 -0.005534 -221288.000000 0 0 1
-30.130968 23.887756 18.490388 42.666082 -0.670334 1.122563 0.063646 0.000346 -132071.000000 0 0 1
-29.767328 23.018056 17.494988 41.496980 -0.658226 1.135591 0.062740 -0.004422 -158751.000000 0 0 1
-30.433878 21.626056 17.410688 41.195137 -0.617799 1.134441 0.053166 -0.011987 282811.000000 0 0 1
-31.835898 21.517456 17.231288 42.112262 -0.594358 1.149247 0.052580 -0.009464 330258.000000 0 0 1
-32.200768 20.112756 17.151088 41.660200 -0.558315 1.146489 0.051391 -0.008795 1013020.000000 0 0 1
-33.629988 19.878656 16.523988 42.416733 -0.533849 1.170639 0.051830 -0.021698 616085.000000 0 0 1
-33.654858 19.917656 15.135288 41.933750 -0.534384 1.201528 0.041301 -0.019916 633819.000000 0 0 1
-34.957205 19.590156 14.618988 42.655541 -0.510796 1.220984 0.046403 -0.018891 952485.000000 0 0 1
-35.007968 20.154656 13.189188 42.493796 -0.522372 1.255204 0.047757 -0.020705 59040.500000 0 0 1
-34.916035 21.537556 13.014688 43.039260 -0.552709 1.263596 0.040935 -0.023142 -26601.100000 0 0 1
-35.185918 22.040556 11.679888 43.130670 -0.559607 1.296570 0.027145 -0.015105 -19208.100000 0 0 1
-34.170292 21.636456 10.556388 41.799311 -0.564471 1.315482 0.044316 -0.021312 -6610.890000 0 0 1
-34.381826 20.403156 9.922988 41.193014 -0.535574 1.327514 0.056748 -0.017543 320705.000000 0 0 1
-33.182708 19.896556 9.354488 39.805420 -0.540130 1.333572 0.084001 -0.018419 434147.000000 0 0 1
-32.480998 18.723756 10.139488 38.838170 -0.522925 1.306666 0.064438 -0.026630 184466.000000 0 0 1
-32.168548 19.140656 11.457488 39.146574 -0.536743 1.273766 0.059283 -0.021237 215814.000000 0 0 1
-31.591688 18.123756 12.280888 38.435992 -0.520847 1.245578 0.074035 -0.029569 134827.000000 0 0 1
-30.905718 18.770456 13.534788 38.609376 -0.545803 1.212631 0.048998 -0.012647 1411500.000000 0 0 1
-29.664188 19.519156 13.363488 37.941327 -0.581981 1.210860 0.052082 -0.007826 1283050.000000 0 0 1
-29.923548 20.910456 13.113488 38.789553 -0.609917 1.225934 0.055595 0.001121 1057150.000000 0 0 1
-28.560618 21.671256 13.341888 38.253865 -0.649097 1.214536 0.065431 -0.017080 733625.000000 0 0 1
-28.076378 21.587556 14.639588 38.322619 -0.655479 1.178827 0.060351 -0.003536 -272914.000000 0 0 1
-26.949628 22.420856 14.792288 38.049823 -0.693924 1.171510 0.067687 -0.020198 -452434.000000 0 0 1
-26.363478 22.329956 16.170988 38.146569 -0.702752 1.133030 0.052870 -0.021016 10257.300000 0 0 1
-25.377218 21.269956 16.227788 36.874860 -0.697575 1.115112 0.056622 -0.021315 445502.000000 0 0 1
-24.850318 21.079356 17.506488 36.991278 -0.703479 1.077809 0.049862 -0.016572 -405707.000000 0 0 1
-23.940518 19.874256 17.609688 35.752420 -0.692857 1.055784 0.056361 -0.024557 -222475.000000 0 0 1
-23.455218 19.739756 18.961088 36.046194 -0.699593 1.016880 0.040330 -0.017281 340518.000000 0 0 1
-22.582718 18.608556 19.108788 34.948581 -0.689215 0.992296 0.034280 -0.020588 398220.000000 0 0 1
-22.033418 18.557656 20.570188 35.397609 -0.699978 0.950695 0.032664 -0.015555 -39092.700000 0 0 1
-22.989918 18.021756 21.445188 36.238324 -0.664845 0.937529 0.029909 -0.007093 36538.200000 0 0 1
-22.942618 18.683856 22.682188 37.281790 -0.683444 0.916755 0.028137 -0.008634 643658.000000 0 0 1
-23.815918 17.880556 23.739988 38.085421 -0.644001 0.897795 0.012473 -0.009258 304868.000000 0 0 1
-23.063118 16.830456 24.166188 37.405565 -0.630419 0.868387 0.029608 -0.006271 -72294.700000 0 0 1
-23.807618 16.154656 25.156788 38.218315 -0.596184 0.852319 0.033362 0.000632 194251.000000 0 0 1
20.431082 25.245156 -34.343321 47.267438 0.890406 2.384120 0.020317 -0.016314 -34533.500000 0 0 1
21.302782 24.647256 33.491343 46.722219 0.858055 0.771568 0.026757 -0.013682 -109894.000000 0 0 1
21.309882 23.203256 33.520259 46.001194 0.827908 0.754400 0.031864 -0.019839 -86185.200000 0 0 1
20.042282 22.469256 32.989009 44.663578 0.842426 0.739789 0.026899 -0.026609 13259.000000 0 0 1
20.262282 21.827256 31.751891 43.533570 0.822563 0.753402 0.032428 -0.014500 -144376.000000 0 0 1
19.423482 20.754956 31.467411 42.405634 0.818525 0.734662 0.028393 -0.013643 -616257.000000 0 0 1
19.705482 20.006456 30.101781 41.166509 0.792977 0.750687 0.015984 0.005964 -178106.000000 0 0 1
20.924582 19.285156 30.075811 41.404224 0.744649 0.757735 0.022294 -0.001713 -156079.000000 0 0 1
21.150482 18.534656 28.896211 40.322045 0.719579 0.771830 0.015797 0.006837 -81602.800000 0 0 1
22.389582 17.626556 28.945321 40.617982 0.666928 0.777566 0.028667 0.002864 -567250.000000 0 0 1
23.595182 18.265356 29.137001 41.705163 0.658756 0.797298 0.036362 -0.002019 -787781.000000 0 0 1
24.617082 17.415556 29.614631 42.264981 0.615714 0.794433 0.035458 0.003567 161557.000000 0 0 1
26.029482 18.030456 29.675321 43.396496 0.605805 0.817813 0.033604 -0.008077 55422.300000 0 0 1
26.786082 17.900756 28.493281 43.009281 0.589123 0.846656 0.034812 -0.000284 -83910.500000 0 0 1
28.111982 18.365756 28.645651 44.137941 0.578697 0.864523 0.042800 -0.006648 531214.000000 0 0 1
28.951482 18.107256 27.327561 43.736216 0.558912 0.895887 0.043173 -0.000281 290670.000000 0 0 1
28.855882 19.120156 26.357971 43.508446 0.585188 0.920009 0.036664 -0.000009 291788.000000 0 0 1
29.883382 18.986656 25.382831 43.563720 0.566013 0.948799 0.047126 0.005799 18854.100000 0 0 1
30.100482 20.139756 24.440141 43.691752 0.589674 0.977163 0.047154 0.001165 -430773.000000 0 0 1
29.077382 20.432556 23.522751 42.618109 0.612533 0.986104 0.030971 0.008226 -269977.000000 0 0 1
29.401882 21.273456 22.427051 42.661495 0.626351 1.017261 0.025379 -0.001722 -604260.000000 0 0 1
30.223282 20.536656 21.394351 42.342877 0.596833 1.041108 0.038455 -0.002620 -431978.000000 0 0 1
29.473582 19.651956 20.621851 40.989659 0.588071 1.043616 0.034948 0.000998 87737.000000 0 0 1
30.289282 19.118656 19.600151 40.830497 0.563047 1.070099 0.046763 0.005670 126547.000000 0 0 1
31.130982 17.861656 19.955051 41.065567 0.520901 1.063368 0.058204 -0.000922 -138879.000000 0 0 1
30.434682 16.678956 20.126451 40.118966 0.501325 1.045269 0.074467 -0.006239 112569.000000 0 0 1
31.390282 15.619356 20.193851 40.461162 0.461714 1.048245 0.052579 -0.005645 -124225.000000 0 0 1
30.904082 14.233156 20.675551 39.813608 0.431600 1.024755 0.065445 -0.008664 -86236.700000 0 0 1
30.550382 14.103656 22.057551 40.233996 0.432502 0.990548 0.055092 -0.014186 -25422.000000 0 0 1
29.305082 14.657056 22.375451 39.677171 0.463771 0.971650 0.062612 -0.010971 -701548.000000 0 0 1
28.689982 14.096856 23.674451 39.778336 0.456705 0.933332 0.033215 -0.009089 -90808.800000 0 0 1
28.133182 12.849156 23.525751 38.859203 0.428433 0.920515 0.040310 -0.007342 132309.000000 0 0 1
27.323982 12.375756 24.612431 38.801173 0.425285 0.883665 0.025065 -0.006054 -77015.400000 0 0 1
26.795882 11.035756 24.213251 37.763589 0.390676 0.874762 0.030580 -0.000562 -376276.000000 0 0 1
25.787882 11.083056 23.228951 36.433956 0.405910 0.879465 0.010115 0.006818 -61134.000000 0 0 1
25.471082 9.807856 22.785351 35.554778 0.367560 0.875189 0.007435 0.014925 -693767.000000 0 0 1
24.198582 9.740156 21.965451 34.101657 0.382668 0.870928 0.004352 0.004766 -771455.000000 0 0 1
23.023182 9.616156 22.743651 33.761087 0.395648 0.831640 0.003281 0.006425 760272.000000 0 0 1
21.925382 9.321056 21.845251 32.323667 0.401978 0.828708 -0.006654 0.024444 -148809.000000 0 0 1
20.537182 9.292056 22.469851 31.827854 0.424890 0.786989 0.002240 0.008932 -563929.000000 0 0 1
20.274582 8.279856 23.432651 32.073413 0.387715 0.751604 0.022244 0.012552 -177084.000000 0 0 1
18.933182 8.335456 23.831511 31.557663 0.414722 0.714878 0.021894 0.006310 -256731.000000 0 0 1
18.514782 7.535056 25.090871 32.079994 0.386505 0.672712 0.029621 0.007940 -271996.000000 0 0 1
18.497582 6.134756 24.870781 31.596701 0.320236 0.664651 0.021833 0.003912 13420.900000 0 0 1
18.300682 5.478156 26.063181 32.314308 0.290853 0.632500 0.022347 0.000868 -134896.000000 0 0 1
18.615682 3.999556 26.005301 32.230664 0.211632 0.631997 0.029294 -0.007476 -373613.000000 0 0 1
19.994682 3.778356 25.922611 32.955197 0.186766 0.665511 0.035069 -0.002658 -369411.000000 0 0 1
20.314182 2.387256 25.842251 32.957350 0.116980 0.669532 0.030338 -0.003409 -1002910.000000 0 0 1
21.780282 2.141756 25.628181 33.701208 0.098019 0.706786 0.037345 -0.005618 -913683.000000 0 0 1
22.621682 2.381556 26.740971 35.106863 0.104891 0.704860 0.048692 -0.017603 654992.000000 0 0 1
23.974382 2.609756 26.342051 35.713939 0.108429 0.741310 0.052478 -0.012506 687069.000000 0 0 1
24.952682 3.019656 27.458641 37.225416 0.120430 0.741241 0.036834 -0.016420 -491337.000000 0 0 1
25.295682 1.892756 28.280431 37.989957 0.074686 0.731133 0.028368 -0.024925 150893.000000 0 0 1
26.179682 2.125956 29.354241 39.389934 0.081029 0.729929 0.023701 -0.008540 1108260.000000 0 0 1
27.689982 2.450056 29.065551 40.218703 0.088252 0.763114 0.039591 -0.016124 -107376.000000 0 0 1
27.813982 3.731956 28.446141 39.959079 0.133379 0.778622 0.019930 0.004075 535197.000000 0 0 1
29.112082 3.953756 27.872041 40.496866 0.134986 0.811720 0.014632 0.006143 561029.000000 0 0 1
29.672582 2.997656 26.797541 40.094342 0.100683 0.838792 0.015375 0.011713 -639466.000000 0 0 1
29.117382 3.168956 25.524601 38.850604 0.108407 0.853972 0.009202 0.021136 -184319.000000 0 0 1
29.224582 1.897656 24.883921 38.430285 0.064843 0.866486 0.032524 0.016374 -180060.000000 0 0 1
28.768382 2.046756 23.368551 37.120051 0.071026 0.889836 0.032368 0.010663 411971.000000 0 0 1
29.375482 3.093456 22.569851 37.173735 0.104921 0.918334 0.026506 0.019842 -1222900.000000 0 0 1
30.750082 3.011256 22.485451 38.212965 0.097616 0.941687 0.018004 0.020572 -1003350.000000 0 0 1
31.291582 4.379356 21.918351 38.454596 0.139050 0.964315 0.016770 0.021617 -322915.000000 0 0 1
30.958782 4.633656 20.524851 37.432425 0.148569 0.990445 0.019144 0.011976 -180738.000000 0 0 1
31.522482 5.764456 19.917851 37.730844 0.180870 1.014678 0.039132 0.007285 944637.000000 0 0 1
33.097282 5.617656 19.686051 38.916946 0.168129 1.040432 0.032282 -0.007976 1757620.000000 0 0 1
34.000682 5.779056 20.818451 40.284634 0.168360 1.027706 0.035548 -0.006248 773660.000000 0 0 1
33.956682 7.099856 21.313651 40.715303 0.206116 1.019866 0.043999 -0.008621 -542088.000000 0 0 1
34.513582 7.210056 22.798851 41.987615 0.205943 0.996803 0.046211 -0.004799 -1071.690000 0 0 1
33.826582 6.369156 23.644351 41.759539 0.186110 0.968905 0.044703 0.006510 -204159.000000 0 0 1
34.488782 6.279556 24.859681 42.975721 0.180102 0.953958 0.042549 0.003471 -36611.800000 0 0 1
33.812582 5.302856 25.851411 42.891799 0.155564 0.923901 0.042140 0.005359 99149.500000 0 0 1
34.023282 3.969056 25.461221 42.680333 0.116132 0.931593 0.040641 -0.002735 -110510.000000 0 0 1
33.600782 3.145556 26.483231 42.898352 0.093343 0.905429 0.026547 0.008025 -252876.000000 0 0 1
33.645382 1.627856 26.131691 42.632463 0.048345 0.911004 0.032139 0.011108 468017.000000 0 0 1
32.609082 1.193056 25.249841 41.259303 0.036570 0.912235 0.044668 0.004762 201728.000000 0 0 1
32.776682 -0.223144 25.070621 41.266169 -0.006808 0.917843 0.045818 -0.009384 261999.000000 0 0 1
31.976882 -0.919244 23.879841 39.920080 -0.028739 0.929554 0.063137 0.005057 503988.000000 0 0 1
30.591182 -0.989244 24.120421 38.969138 -0.032326 0.903376 0.064062 0.000134 -449074.000000 0 0 1
29.919782 -1.755344 23.145051 37.867769 -0.058601 0.913211 0.071907 -0.007908 1068990.000000 0 0 1
28.428782 -2.077444 23.536251 36.965748 -0.072946 0.880580 0.064550 0.000724 1336220.000000 0 0 1
27.622382 -0.896844 23.616551 36.353016 -0.032457 0.863679 0.054389 0.001876 -433516.000000 0 0 1
26.245382 -1.117944 23.653151 35.348853 -0.042570 0.837752 0.049621 0.000266 -492172.000000 0 0 1
25.367282 0.095856 23.693741 34.711691 0.003779 0.819500 0.042383 0.000965 -514876.000000 0 0 1
25.378882 0.805356 22.434551 33.882817 0.031723 0.847150 0.036026 0.001343 317686.000000 0 0 1
24.374682 1.816556 22.381751 33.141632 0.074389 0.829376 0.021599 0.006242 -107693.000000 0 0 1
24.468782 2.809256 21.165051 32.474183 0.114309 0.860907 0.012319 0.008731 27014.400000 0 0 1
24.054382 2.236856 19.905351 31.302393 0.092725 0.881616 0.023301 0.008114 182162.000000 0 0 1
23.563782 3.240156 19.090551 30.499173 0.136649 0.894464 0.014015 0.010584 -148159.000000 0 0 1
23.461082 2.931056 17.582851 29.464726 0.124289 0.931361 0.017795 0.009225 714535.000000 0 0 1
24.759182 2.806056 16.962151 30.143085 0.112852 0.973122 0.008313 0.003206 1019940.000000 0 0 1
24.678482 2.908456 15.522351 29.298975 0.117313 1.012442 0.007637 0.001966 69909.300000 0 0 1
24.012982 1.667956 14.812151 28.263142 0.069349 1.019162 0.011717 0.016624 -502619.000000 0 0 1
22.620982 1.613156 14.764851 27.061262 0.071192 0.993681 0.035953 0.011654 -244335.000000 0 0 1
22.281282 0.412456 14.064351 26.352070 0.018509 1.007815 0.051286 0.012352 298738.000000 0 0 1
20.720682 0.182156 14.135351 25.083620 0.008791 0.972145 0.067269 -0.013239 686150.000000 0 0 1
19.896482 1.021456 13.364151 23.989870 0.051293 0.979937 0.074128 -0.008421 434155.000000 0 1 0
20.012982 0.819556 11.967851 23.332822 0.040928 1.032214 0.085676 -0.002027 -954845.000000 0 1 0
19.774382 -0.626044 11.287151 22.777574 -0.031649 1.052342 0.088378 -0.000207 -25883.200000 0 1 0
20.745582 -1.644244 11.557051 23.804372 -0.079092 1.063860 0.074621 -0.010038 417514.000000 0 1 0
21.825382 -1.538944 10.640251 24.329623 -0.070395 1.118161 0.075979 -0.006978 -458995.000000 0 1 0
23.003182 -2.419644 11.054851 25.636122 -0.104802 1.124950 0.079622 -0.010164 -412266.000000 0 0 1
23.594082 -2.031844 12.265851 26.669462 -0.085905 1.092890 0.076566 -0.019974 -294777.000000 0 0 1
24.354182 -3.036744 12.797651 27.679015 -0.124051 1.090142 0.044806 -0.009228 -474375.000000 0 0 1
24.543482 -2.762444 14.325351 28.552220 -0.112081 1.045205 0.057463 -0.013073 -112685.000000 0 0 1
25.428482 -1.690844 14.492051 29.316995 -0.066396 1.053741 0.051434 -0.007822 -69980.700000 0 0 1
25.727882 -1.477244 15.887551 30.274088 -0.057355 1.018327 0.037251 -0.009107 51878.800000 0 0 1
26.895882 -0.474444 16.045851 31.322243 -0.017638 1.032955 0.059896 -0.003281 189598.000000 0 0 1
28.104582 -0.950144 15.494151 32.106681 -0.033795 1.067194 0.059816 -0.001612 494417.000000 0 0 1
29.264982 -0.175544 15.806851 33.261487 -0.005998 1.075571 0.042981 0.001808 1293760.000000 0 0 1
30.603782 -0.997144 15.925051 34.513664 -0.032571 1.091209 0.047675 0.005116 687547.000000 0 0 1
31.134582 -1.474044 14.685651 34.455817 -0.047309 1.130490 0.045003 0.008982 354358.000000 0 0 1
32.304882 -2.204944 15.045051 35.704632 -0.068149 1.135835 0.034136 0.011548 157817.000000 0 0 1
33.145582 -2.843644 13.924651 36.063996 -0.085583 1.174386 0.031897 0.003327 52958.500000 0 0 1
33.658482 -1.824444 13.088351 36.159742 -0.054152 1.200428 0.038444 -0.000880 -92857.000000 0 0 1
34.021182 -2.317944 11.805051 36.085633 -0.068027 1.237521 0.054141 -0.007867 162510.000000 0 0 1
33.228982 -1.491744 10.727651 34.949578 -0.044863 1.258813 0.085357 -0.005068 105526.000000 0 0 1
33.674882 -0.189544 10.410351 35.247822 -0.005629 1.270977 0.060986 0.000104 647477.000000 0 0 1
32.679182 0.485556 9.624251 34.070381 0.014857 1.284416 0.053355 -0.007063 -68517.900000 0 0 1
33.092082 1.912856 9.210551 34.403185 0.057740 1.299767 0.047464 -0.011357 10928.100000 0 0 1
33.995182 1.982856 8.127551 35.009444 0.058262 1.336506 0.058902 -0.006823 274353.000000 0 0 1
34.108182 3.254556 7.598951 35.095644 0.095131 1.352547 0.053500 -0.005177 -298001.000000 0 0 1
34.935982 3.290656 6.327651 35.656562 0.093914 1.392390 0.058199 -0.013527 -382530.000000 0 0 1
35.118082 4.568356 5.816651 35.888480 0.129359 1.408003 0.042012 -0.000677 148495.000000 0 0 1
35.487982 4.478756 4.451751 36.045446 0.125541 1.446976 0.036955 -0.000369 -275926.000000 0 0 1
-35.438734 5.781956 3.918351 36.120470 -0.161729 1.462102 0.031185 -0.016221 -161818.000000 0 0 1
35.147382 6.817456 3.760351 35.999394 0.191589 1.466149 0.057346 -0.023252 -242014.000000 0 0 1
35.680382 7.975856 3.201851 36.700896 0.219921 1.483444 0.049975 -0.025636 -871500.000000 0 0 1
34.684082 9.194456 3.062351 36.012519 0.259131 1.485658 0.090263 -0.037667 1436070.000000 0 0 1
33.453282 9.015756 2.334951 34.725465 0.263248 1.503505 0.105562 -0.045438 722198.000000 0 0 1
32.605182 7.973256 2.748451 33.678252 0.239833 1.489096 0.113039 -0.040708 -635786.000000 0 0 1
31.252982 8.001756 1.946551 32.319747 0.250647 1.510532 0.140011 -0.044834 593091.000000 0 0 1
31.469082 7.792456 0.531551 32.423880 0.242740 1.554402 0.139431 -0.049554 432606.000000 0 0 1
30.249182 7.865556 -0.204649 31.255749 0.254392 1.577344 0.150387 -0.039840 280357.000000 0 0 1
30.442182 7.785756 -1.656349 31.465662 0.250388 1.623461 0.119380 -0.032671 -731965.000000 0 0 1
29.337182 7.211656 -2.270949 30.295799 0.241040 1.645826 0.103214 -0.024391 193684.000000 0 0 1
29.598282 7.098856 -3.677149 30.658987 0.235394 1.691023 0.110199 -0.026060 -347358.000000 0 0 1
28.467082 6.453656 -4.482749 29.531669 0.222938 1.723180 0.082617 -0.021068 -474983.000000 0 0 1
28.477782 5.034756 -4.486349 29.265340 0.174988 1.724702 0.084945 -0.018169 764139.000000 0 0 1
27.380882 4.484656 -5.205149 28.229743 0.162346 1.756243 0.051214 -0.010931 -85351.600000 0 0 1
27.288582 2.928656 -5.346549 27.961211 0.106912 1.763194 0.073395 -0.010412 -456492.000000 0 0 1
26.932282 2.252756 -4.218549 27.353590 0.083451 1.725637 0.071352 -0.015413 436109.000000 0 0 1
26.527382 0.905756 -4.504849 26.922408 0.034131 1.738914 0.069498 -0.014093 -69252.800000 0 0 1
26.367782 -0.014644 -3.289249 26.572153 -0.000555 1.694900 0.068371 -0.018431 1272100.000000 0 0 1
27.660382 -0.205644 -2.632749 27.786154 -0.007434 1.665689 0.087180 -0.024399 2011460.000000 0 0 1
27.408782 -0.279544 -1.219149 27.437307 -0.010199 1.615245 0.084336 -0.017229 -511408.000000 0 0 1
28.547082 0.393156 -0.495649 28.554091 0.013771 1.588155 0.091877 -0.020130 -542992.000000 0 0 1
29.795282 -0.242244 -0.634449 29.803020 -0.008130 1.592086 0.102318 -0.018265 -320109.000000 0 0 1
30.774482 0.414556 0.099451 30.777435 0.013470 1.567565 0.084829 -0.013310 -378917.000000 0 0 1
-2.658118 -21.266644 -8.690912 23.127207 1.446451 1.956043 0.011175 0.001945 229220.000000 0 1 0
-3.150718 -21.747244 -7.482112 23.213179 1.426918 1.898977 0.017984 -0.005741 -38049.700000 0 1 0
-2.401218 -22.881844 -7.074412 24.070562 1.466239 1.869104 0.022645 -0.005250 343721.000000 0 1 0
-3.012918 -23.474744 -5.731412 24.351394 1.443147 1.808388 0.019498 -0.006585 -316154.000000 0 1 0
-2.680918 -22.792744 -4.561012 23.398704 1.453713 1.766978 0.014043 -0.008875 -375980.000000 0 1 0
-3.236418 -23.383044 -3.443712 23.855824 1.433261 1.715658 0.021422 -0.013486 -399627.000000 0 1 0
-2.817318 -22.739544 -2.124412 23.011677 1.447529 1.663247 0.024171 -0.015904 1038090.000000 0 1 0
-1.392318 -22.784944 -1.896412 22.906083 1.509765 1.653682 0.028972 -0.013801 508523.000000 0 1 0
-1.082318 -22.473744 -0.582712 22.507336 1.522674 1.596689 0.028082 -0.016420 687467.000000 0 1 0
0.433482 -22.279744 -0.296912 22.285939 -1.551342 1.584120 0.037617 -0.020804 818672.000000 0 1 0
1.189682 -21.186344 -0.807712 21.235087 -1.514702 1.608842 0.024030 -0.020104 -391200.000000 0 1 0
2.268382 -20.797344 -0.004512 20.920686 -1.462155 1.571012 0.022448 -0.021606 -430148.000000 0 1 0
3.107282 -19.774744 -0.735912 20.030908 -1.414937 1.607543 0.023001 -0.020597 -145616.000000 0 1 0
3.849082 -20.441744 -1.736212 20.873303 -1.384680 1.654071 0.017977 -0.009778 18785.600000 0 1 0
5.040582 -19.703644 -2.037412 20.439964 -1.320348 1.670640 0.031329 -0.003439 609210.000000 0 1 0
5.871882 -20.271344 -3.248612 21.353217 -1.288849 1.723526 0.020988 0.002300 -1560030.000000 0 1 0
6.451182 -21.476144 -2.999812 22.623912 -1.278983 1.703783 0.025699 0.007002 -655047.000000 0 1 0
7.231782 -21.970844 -4.024912 23.478002 -1.252812 1.743081 0.025441 0.003038 776723.000000 0 1 0
8.496082 -21.198744 -4.531712 23.283182 -1.189616 1.766681 0.030014 0.003330 -162347.000000 0 1 0
7.973582 -20.126944 -5.251412 22.276652 -1.193601 1.808772 0.027727 0.006673 12987.400000 0 1 0
9.057982 -19.467944 -5.893712 22.266202 -1.135311 1.838682 0.031299 0.003462 -37124.500000 0 1 0
8.697182 -18.273344 -6.829512 21.358800 -1.126574 1.896264 0.025765 0.007726 -866482.000000 0 1 0
9.532382 -18.106344 -7.915312 21.939876 -1.086200 1.939893 0.024282 0.013133 -297884.000000 0 1 0
9.101482 -17.025344 -8.683212 21.168313 -1.079866 1.993468 0.017601 0.015690 146533.000000 0 1 0
9.980182 -16.715944 -9.922712 21.851477 -1.032552 2.042156 0.025054 0.004242 65392.000000 0 1 0
9.442982 -17.358144 -11.083012 22.656307 -1.072565 2.081946 0.025901 0.006327 429823.000000 0 1 0
8.721182 -16.511444 -12.000312 22.196718 -1.084852 2.141988 0.011591 -0.000842 252505.000000 0 1 0
8.141382 -17.211644 -13.236812 23.189135 -1.128968 2.178300 0.016148 0.000296 431262.000000 0 1 0
7.161282 -18.219444 -12.927912 23.459817 -1.196290 2.154438 0.013106 0.010231 412820.000000 0 1 0
6.611182 -18.795244 -14.098612 24.407781 -1.232565 2.186616 0.011285 0.011849 5124.370000 0 1 0
5.475682 -19.779744 -13.754312 24.706325 -1.300727 2.161219 0.013843 0.020193 -271749.000000 0 1 0
5.896582 -20.844344 -12.920612 25.222977 -1.295113 2.108605 0.016742 0.007726 210912.000000 0 0 1
4.781482 -21.690944 -12.654712 25.563673 -1.353829 2.088662 0.021379 0.015428 255689.000000 0 0 1
5.023282 -23.203044 -12.474012 26.818195 -1.357594 2.054581 0.004086 0.016806 -290956.000000 0 0 1
5.535282 -23.881644 -13.598112 28.033568 -1.343038 2.077234 0.013475 0.009162 65839.000000 0 0 1
5.011282 -25.192534 -13.714512 29.118114 -1.374440 2.061216 0.003916 0.010294 328209.000000 0 0 1
3.575082 -25.420214 -14.269112 29.369645 -1.431073 2.078127 0.004201 0.001903 465770.000000 0 0 1
2.570482 -25.065044 -13.327212 28.504007 -1.468601 2.057320 0.015515 -0.000049 -401091.000000 0 0 1
1.246682 -25.242004 -13.734412 28.763642 -1.521447 2.068595 0.009604 -0.009045 -288034.000000 0 0 1
0.600782 -26.571414 -13.202212 29.676580 -1.548190 2.031825 0.007370 -0.011953 -717839.000000 0 0 1
0.864782 -27.755434 -13.915012 31.060257 -1.539649 2.035324 0.007464 -0.012817 -32300.900000 0 0 1
0.471282 -28.945614 -13.217312 31.824017 -1.554516 1.999096 0.000391 -0.010895 675498.000000 0 0 1
-1.035418 -29.334844 -13.423612 32.276904 1.535514 1.999717 -0.008698 -0.012137 395097.000000 0 0 1
-1.958118 -28.520264 -12.766412 31.308481 1.502247 1.990798 0.005542 -0.017220 -1222230.000000 0 0 1
-3.208318 -28.772034 -13.310912 31.863830 1.459747 2.001757 0.017515 -0.016259 -461307.000000 0 0 1
-4.385118 -28.001534 -12.597512 31.016326 1.415455 1.989041 0.018988 -0.007810 491200.000000 0 0 1
-4.718618 -28.236864 -11.240012 30.755873 1.405218 1.944922 0.028787 -0.020410 -181564.000000 0 0 1
-5.304218 -29.488944 -11.036212 31.930088 1.392828 1.923714 0.029085 -0.013787 -664766.000000 0 0 1
-5.693418 -29.662694 -9.552412 31.678684 1.381164 1.877104 0.029440 -0.010155 701219.000000 0 0 1
-6.964218 -29.084074 -9.187112 31.285568 1.335770 1.868843 0.030782 -0.003851 29348.800000 0 0 1
-7.002618 -27.693114 -9.085112 29.974731 1.323123 1.878732 0.036146 -0.005752 -1261000.000000 0 0 1
-8.413918 -27.104224 -8.823212 29.720062 1.269800 1.872217 0.037993 -0.001683 879478.000000 0 0 1
-9.367118 -27.299634 -9.900712 30.512900 1.240262 1.901254 0.043835 0.002338 421393.000000 0 0 1
-9.602218 -28.684794 -10.278712 31.947957 1.247772 1.898356 0.041166 -0.002115 -2092740.000000 0 0 1
-10.828018 -28.963164 -11.140512 32.866729 1.213030 1.916608 0.041810 -0.006407 -717059.000000 0 0 1
-10.810418 -28.547374 -12.532412 32.998168 1.208800 1.960367 0.052530 -0.013681 -261657.000000 0 0 1
-11.806418 -29.075944 -13.358012 34.106283 1.185081 1.973230 0.059893 -0.018027 -365000.000000 0 0 1
-11.785318 -28.364644 -14.745012 34.071427 1.177005 2.018357 0.076161 -0.022392 -133149.000000 0 0 1
-12.615918 -27.220234 -14.958112 33.523837 1.136793 2.033304 0.058247 -0.028187 115866.000000 0 0 1
-12.300218 -26.066104 -14.183912 32.123520 1.129892 2.028114 0.066957 -0.018870 -191319.000000 0 0 1
-13.172018 -24.814144 -14.472712 31.602266 1.082792 2.046500 0.094663 -0.018996 -3416.410000 0 0 1
-12.975418 -24.305744 -15.759812 31.741178 1.080443 2.090370 0.071451 -0.019844 314053.000000 0 0 1
-14.047818 -23.398444 -15.992712 31.632187 1.030102 2.100854 0.084427 -0.018845 244155.000000 0 0 1
-13.880118 -22.482644 -17.206312 31.530686 1.017702 2.148021 0.081111 -0.017516 37040.400000 0 0 1
-13.125018 -21.302144 -16.916312 30.202799 1.018597 2.165292 0.059696 -0.010511 384930.000000 0 0 1
-13.186218 -20.364144 -17.951112 30.179747 0.996166 2.207821 0.035393 -0.007253 -273660.000000 0 0 1
-13.417618 -18.883344 -17.507312 29.036514 0.953023 2.217979 0.028903 -0.008598 -284272.000000 0 0 1
-12.231018 -18.147244 -17.352512 27.929016 0.977742 2.241207 0.029593 -0.003365 -77409.500000 0 0 1
-12.408618 -16.719244 -17.269112 27.050493 0.932322 2.263218 0.024656 -0.003710 -254880.000000 0 0 1
-11.071918 -16.015144 -17.487412 26.170246 0.965906 2.302606 0.033908 -0.011712 3392.460000 0 0 1
-10.290718 -15.795244 -16.326512 24.938797 0.993362 2.284533 0.032480 -0.016542 58616.000000 0 1 0
-8.936218 -15.605244 -16.692512 24.536088 1.050736 2.319002 0.031716 -0.009000 -564454.000000 0 1 0
-8.150318 -14.863944 -15.616812 23.048847 1.069238 2.315227 0.024394 -0.006931 -319778.000000 0 1 0
-7.863318 -15.700744 -14.517312 22.783711 1.106489 2.261629 0.032717 -0.007204 -46006.800000 0 1 0
-6.765218 -16.571644 -14.687112 23.153808 1.183206 2.257935 0.039248 -0.003978 -689610.000000 0 1 0
-6.337818 -17.471444 -13.533012 22.990470 1.222806 2.200166 0.032026 -0.000564 -148081.000000 0 1 0
-5.664018 -16.726844 -12.440912 21.601961 1.244297 2.184520 0.023448 -0.007175 745128.000000 0 1 0
-5.341818 -17.532244 -11.310512 21.536998 1.275047 2.123707 0.012815 -0.009409 236810.000000 0 1 0
-4.295318 -18.690944 -11.508812 22.366357 1.344911 2.111290 0.025012 -0.004650 -94002.900000 0 1 0
-2.983118 -18.277044 -11.773512 21.944588 1.409006 2.137094 0.024260 0.008833 -250963.000000 0 1 0
-2.056918 -19.367144 -11.910112 22.829103 1.464986 2.119647 0.010401 0.017737 860615.000000 0 1 0
-0.607818 -18.909844 -12.209312 22.517081 1.538664 2.143879 0.010180 0.022788 -663251.000000 0 1 0
-0.431918 -18.463644 -13.546112 22.903927 1.547408 2.203630 0.016270 0.009412 323751.000000 0 1 0
0.817182 -17.839944 -13.866912 22.610233 -1.525022 2.231031 0.027507 0.009053 599080.000000 0 1 0
2.054082 -18.747244 -13.874012 23.412959 -1.461665 2.205052 0.021250 0.005768 -1040300.000000 0 1 0
2.046782 -19.671244 -14.993212 24.818211 -1.467120 2.219459 0.032861 0.003675 297786.000000 0 1 0
1.432582 -20.920744 -14.679212 25.597053 -1.502426 2.181535 0.027554 0.003745 -828077.000000 0 0 1
1.133582 -21.880144 -15.863112 27.049289 -1.519034 2.197468 0.034379 -0.002196 -33659.900000 0 0 1
2.196282 -22.659744 -16.391312 28.052857 -1.474174 2.194815 0.035835 0.004339 -437386.000000 0 0 1
3.229782 -21.896744 -16.897512 27.846451 -1.424352 2.222838 0.027698 0.000801 -1259970.000000 0 0 1
4.537082 -22.676344 -17.066512 28.741391 -1.373324 2.206564 0.027197 0.002117 -214023.000000 0 0 1
4.599882 -23.460444 -18.256812 30.080933 -1.377183 2.222980 0.024727 -0.006744 -783849.000000 0 0 1
5.909982 -23.859544 -18.415712 30.713909 -1.327985 2.213783 0.022465 -0.003594 -594293.000000 0 0 1
6.392782 -23.808644 -19.888312 31.674345 -1.308477 2.249648 0.038452 -0.005067 -49828.500000 0 0 1
6.246882 -22.533344 -20.490112 31.090510 -1.300360 2.290347 0.052863 -0.014781 59210.200000 0 0 1
6.579582 -22.517544 -21.870612 32.072642 -1.286513 2.321165 0.071724 -0.020141 50602.800000 0 0 1
7.054882 -21.120344 -22.209412 31.449933 -1.248417 2.354889 0.063144 -0.025739 308093.000000 0 0 1
5.896282 -20.303644 -22.105312 30.588379 -1.288165 2.378454 0.066262 -0.018678 642280.000000 0 0 1
6.243182 -18.923444 -22.366412 29.955474 -1.252123 2.413816 0.078498 -0.020232 247634.000000 0 0 1
4.989082 -18.049844 -22.628512 29.372391 -1.301124 2.450266 0.074334 -0.015338 -526166.000000 0 0 1
4.377382 -18.418744 -23.862012 30.459928 -1.337466 2.470898 0.065258 -0.016262 81340.800000 0 0 1
3.620282 -17.344144 -24.416112 30.167405 -1.365019 2.513848 0.055336 -0.012591 1579910.000000 0 0 1
2.169982 -17.189344 -23.764112 29.409444 -1.445221 2.511620 0.054450 -0.009740 843758.000000 0 0 1
2.312482 -16.284344 -22.652212 27.993752 -1.429733 2.513565 0.058179 -0.013059 237199.000000 0 0 1
1.065582 -16.042044 -22.010212 27.256781 -1.504469 2.510720 0.046821 0.000356 567023.000000 0 0 1
1.394382 -15.436944 -20.646412 25.817008 -1.480713 2.497627 0.044167 0.002542 6795.030000 0 0 1
1.858382 -14.105244 -20.671912 25.094610 -1.439800 2.538806 0.047261 -0.003078 -249629.000000 0 0 1
2.085582 -13.589144 -19.357912 23.743278 -1.418510 2.524045 0.044770 -0.001670 72846.800000 0 1 0
3.183382 -12.497044 -19.380512 23.279052 -1.321370 2.554456 0.040906 -0.003986 -804120.000000 0 1 0
4.474382 -13.039944 -19.402912 23.801959 -1.240256 2.523838 0.046269 -0.008261 -890410.000000 0 1 0
5.502382 -12.098544 -19.453112 23.560020 -1.143960 2.542208 0.046909 -0.009729 93014.500000 0 1 0
5.749082 -11.124944 -18.252712 22.135443 -1.093820 2.540277 0.043474 -0.002951 -852994.000000 0 1 0
4.817982 -10.079244 -18.119612 21.286720 -1.124895 2.589096 0.020435 0.000957 -362356.000000 0 1 0
4.977182 -8.926644 -19.000612 21.574999 -1.062164 2.648086 0.026447 -0.004540 -420658.000000 0 1 0
4.491382 -9.037544 -20.511212 22.859561 -1.109576 2.684344 0.033860 -0.003148 -590769.000000 0 1 0
3.109882 -9.037744 -20.635712 22.741697 -1.239388 2.707841 0.030584 -0.004972 -1048730.000000 0 1 0
2.734782 -9.155044 -22.006312 23.991074 -1.280516 2.731969 0.029960 -0.006473 1039850.000000 0 1 0
1.187182 -9.035544 -22.259612 24.052875 -1.440154 2.753005 0.012770 -0.004008 922340.000000 0 1 0
0.654082 -7.837944 -21.707312 23.088278 -1.487539 2.793977 0.012031 -0.003486 95140.900000 0 1 0
-0.744918 -7.709944 -21.967112 23.292749 1.474477 2.802594 0.009866 0.000233 788548.000000 0 1 0
-1.186418 -6.779244 -23.175812 24.176104 1.397543 2.852928 0.019560 0.009525 -137723.000000 0 1 0
-0.788718 -7.259844 -24.451012 25.518217 1.462580 2.851365 0.020758 0.001217 -283380.000000 0 0 1
-1.257718 -6.531344 -25.580642 26.431223 1.380558 2.887211 0.023212 -0.000615 -166262.000000 0 0 1
-0.888818 -4.980444 -25.733422 26.226014 1.394194 2.947471 0.035282 -0.004933 84079.000000 0 0 1
-1.418518 -4.410144 -26.955672 27.350865 1.259598 2.971393 0.034566 -0.003095 107133.000000 0 0 1
-0.917918 -3.134844 -27.417502 27.611397 1.285948 3.023013 0.020835 -0.001598 -258741.000000 0 0 1
-1.238018 -1.916044 -26.438142 26.536376 0.997145 3.055521 0.024326 -0.003065 925944.000000 0 0 1
-2.644318 -1.714544 -26.239642 26.428222 0.575241 3.022060 0.014925 -0.004839 667694.000000 0 0 1
-3.297918 -0.886744 -27.162662 27.376501 0.262668 3.016523 0.034110 -0.008938 -1343680.000000 0 0 1
-4.789018 -1.034044 -27.174602 27.612731 0.212655 2.963216 0.028901 -0.004637 -1096070.000000 0 0 1
-5.371818 0.002456 -26.378062 26.919483 -0.000457 2.940693 0.035383 -0.006032 437221.000000 0 0 1
-6.759618 -0.283944 -26.195732 27.055303 0.041981 2.888845 0.042718 -0.014138 -366420.000000 0 0 1
-7.588018 0.872156 -25.663182 26.775690 -0.114436 2.852317 0.044365 -0.012875 -1429510.000000 0 0 1
-7.725118 1.992856 -26.533342 27.706807 -0.252466 2.849513 0.050787 -0.016084 389827.000000 0 0 1
-8.609518 1.792556 -27.645252 29.010292 -0.205274 2.833608 0.060630 -0.015583 565066.000000 0 0 1
-10.079618 1.378256 -27.298182 29.132268 -0.135894 2.784860 0.054877 -0.014692 -432456.000000 0 0 1
-11.036018 2.066356 -28.107342 30.266916 -0.185094 2.761551 0.059006 -0.024598 271186.000000 0 0 1
-12.322118 1.565256 -27.809512 30.457406 -0.126351 2.721528 0.034211 -0.015614 114210.000000 0 0 1
-13.496518 2.207356 -28.600652 31.702141 -0.162115 2.695565 0.019624 -0.006123 -942235.000000 0 0 1
-14.693618 1.491056 -28.419992 32.028450 -0.101130 2.662331 0.021153 -0.003434 -362829.000000 0 0 1
-15.722118 1.948656 -29.254732 33.268928 -0.123315 2.645273 0.014944 0.001578 -292875.000000 0 0 1
-16.381018 3.301656 -28.884582 33.370013 -0.198889 2.617114 0.017119 0.007336 -1319970.000000 0 0 1
-15.704818 4.565256 -28.823342 33.140125 -0.282895 2.625475 0.026217 0.000503 -287160.000000 0 0 1
-15.597018 5.308456 -30.028302 34.251213 -0.328053 2.639771 0.018978 -0.010131 154744.000000 0 0 1
-16.896718 5.985556 -30.574672 35.442016 -0.340450 2.611316 0.006965 -0.005458 179088.000000 0 0 1
-17.471018 6.929756 -29.743002 35.183862 -0.377609 2.578034 0.010243 -0.005855 287087.000000 0 0 1
-18.478018 7.638656 -30.471252 36.445623 -0.391997 2.560885 0.004552 -0.009229 244029.000000 0 0 1
-19.248918 8.770956 -29.730652 36.487836 -0.427551 2.523198 0.019965 -0.010159 88385.700000 0 0 1
-18.353418 9.735956 -29.195372 35.833037 -0.487726 2.523114 0.016852 -0.008665 682964.000000 0 0 1
-19.099518 10.851656 -28.729892 36.165684 -0.516682 2.488810 0.036130 -0.005597 83432.700000 0 0 1
-8.129218 24.997256 30.940171 40.598536 -1.256380 0.704245 0.016679 -0.012152 246538.000000 0 0 1
-9.149418 26.009456 30.928271 41.433821 -1.232543 0.728085 0.018453 -0.011068 458230.000000 0 0 1
-8.833118 27.077456 31.847631 42.725685 -1.255464 0.729665 0.021657 -0.008627 1264180.000000 0 0 1
-7.484918 27.910556 31.594931 42.816618 -1.308786 0.740824 0.015577 -0.007901 1168270.000000 0 0 1
-7.451518 28.553256 30.331941 42.318319 -1.315521 0.771656 0.031542 -0.005176 1307530.000000 0 0 1
-6.107518 28.683556 29.794691 41.806360 -1.361002 0.777480 0.032129 -0.007793 1028990.000000 0 0 1
-5.915618 29.914956 28.875091 41.996071 -1.375567 0.812664 0.051187 -0.007561 -241235.000000 0 0 1
-6.057818 31.137856 29.557601 43.357986 -1.378648 0.820698 0.053551 -0.009504 407397.000000 0 0 1
-5.679618 32.170156 28.675181 43.467723 -1.396048 0.850391 0.064903 -0.008034 -193468.000000 0 0 1
-5.941118 33.503556 29.351311 44.936450 -1.395293 0.859028 0.059961 -0.008668 -303369.000000 0 0 1
-5.273318 33.759356 30.567701 45.846334 -1.415845 0.840967 0.053128 -0.013189 -262717.000000 0 0 1
-5.989618 -34.174281 31.440631 46.821686 1.397292 0.834569 0.053513 -0.015734 818860.000000 0 0 1
-7.175318 33.882856 32.252681 47.326193 -1.362111 0.820989 0.033437 -0.015632 800681.000000 0 0 1
-6.783118 33.141756 33.370680 47.518301 -1.368915 0.792215 0.043937 -0.006580 -24673.600000 0 0 1
-6.977018 31.753356 33.126656 46.414757 -1.354508 0.776016 0.047234 0.001204 -157744.000000 0 0 1
-6.807118 31.015756 -34.298482 46.740773 -1.354749 2.394698 0.033188 0.001441 622095.000000 0 0 1
-5.458018 31.105256 -33.810672 46.265413 -1.397095 2.390287 0.029432 0.003643 604419.000000 0 0 1
-5.276318 30.410256 -32.634982 44.918429 -1.399002 2.384068 0.026068 -0.000976 -538647.000000 0 0 1
-3.798018 30.319456 -32.214672 44.401345 -1.446179 2.382606 0.017268 -0.007334 -24205.900000 0 0 1
-3.216718 29.047556 -32.434932 43.659278 -1.460506 2.408204 0.026509 -0.004065 -156438.000000 0 0 1
-2.699018 28.908156 -33.702362 44.483878 -1.477701 2.430472 0.033801 -0.004581 -686536.000000 0 0 1
-1.991918 27.553356 -33.896022 43.727514 -1.498629 2.457772 0.039835 -0.009582 -396481.000000 0 0 1
-0.839418 27.287856 -33.068072 42.881570 -1.540044 2.451440 0.053258 -0.002071 632486.000000 0 0 1
-0.227418 26.081956 -33.340512 42.330956 -1.562077 2.477726 0.056982 -0.001061 -77289.600000 0 0 1
0.265482 25.734756 34.019741 42.657835 1.560481 0.647652 0.056227 -0.002476 -1191120.000000 0 0 1
-0.784818 25.291256 33.199531 41.742932 -1.539775 0.651240 0.053568 -0.000150 -102657.000000 0 0 1
-0.508718 25.148056 31.795221 40.541578 -1.550570 0.669291 0.058309 0.002162 -265291.000000 0 0 1
-0.190418 26.432856 30.998911 40.738981 -1.563593 0.706074 0.040778 0.002747 -331310.000000 0 0 1
-1.331118 27.239156 31.045851 41.322976 -1.521967 0.720770 0.041184 -0.005368 -163004.000000 0 0 1
-1.164218 28.401356 30.237401 41.500516 -1.529828 0.754516 0.033338 -0.007289 -22618.200000 0 0 1
-2.302518 29.413456 30.428501 42.383329 -1.492675 0.769964 0.043460 -0.012617 -146494.000000 0 0 1
-2.186318 30.208856 31.582541 43.758563 -1.498549 0.764476 0.049104 -0.011308 -113662.000000 0 0 1
-3.224918 31.153956 31.714661 44.573409 -1.467648 0.779144 0.051781 -0.009049 734.672000 0 0 1
-2.961718 32.128656 32.909579 46.087554 -1.478873 0.775507 0.050648 -0.007242 610814.000000 0 0 1
-1.723718 32.836756 32.776345 46.427497 -1.518351 0.787007 0.078621 -0.013097 473131.000000 0 0 1
-1.018418 32.927556 34.020688 47.356819 -1.539877 0.769311 0.052050 -0.013542 -387472.000000 0 0 1
0.372882 33.546056 33.894870 47.690031 1.559681 0.780257 0.042869 -0.014768 -321510.000000 0 0 1
0.457282 -33.799081 33.628873 47.681108 -1.557268 0.787968 0.048160 -0.013362 -262180.000000 0 0 1
1.777182 -33.331081 33.550523 47.326070 -1.517528 0.782827 0.033057 -0.009905 -195113.000000 0 0 1
1.826082 -31.816281 33.226121 46.038955 -1.513465 0.764547 0.037620 -0.019232 -159982.000000 0 0 1
1.433882 -30.848681 34.180547 46.065246 -1.524349 0.734743 0.039450 -0.010811 133643.000000 0 0 1
1.710182 -29.516681 33.711398 44.839910 -1.512922 0.719983 0.045398 -0.022447 65028.900000 0 0 1
1.147882 -28.517181 -34.021602 44.407394 -1.530566 2.443586 0.044993 -0.020617 474574.000000 0 0 1
-0.268718 -28.495381 -33.915032 44.297724 1.561366 2.442794 0.037831 -0.023399 162113.000000 0 0 1
-0.667718 -27.669681 -32.838582 42.946823 1.546669 2.441269 0.049161 -0.018520 -166927.000000 0 0 1
-2.129318 -27.222781 -32.725612 42.621350 1.492737 2.446231 0.036058 -0.017568 -291428.000000 0 0 1
-2.659018 -27.266081 -31.443272 41.703584 1.473583 2.424882 0.028168 -0.020009 -115430.000000 0 0 1
-3.731618 -26.376581 -31.309672 41.108935 1.430254 2.436616 0.046035 -0.023003 -639838.000000 0 0 1
-3.862218 -25.918181 -29.845322 39.716648 1.422869 2.421063 0.044987 -0.019333 -421257.000000 0 0 1
-4.100118 -26.900881 -28.875162 39.676736 1.419545 2.385847 0.041149 -0.019781 81179.600000 0 0 1
-4.539018 -26.432581 -27.603022 38.486502 1.400734 2.370591 0.033173 -0.014596 9204.810000 0 0 1
-3.482818 -25.747481 -26.719092 37.268924 1.436344 2.370180 0.042876 -0.010193 106486.000000 0 0 1
-2.848018 -24.605081 -27.288142 36.853276 1.455560 2.404541 0.045737 -0.012072 159794.000000 0 0 1
-1.741818 -24.119681 -26.556372 35.917041 1.498706 2.402947 0.041453 -0.013674 9324.630000 0 0 1
-0.859618 -23.135281 -27.395742 35.867909 1.533657 2.439969 0.049932 -0.009602 571108.000000 0 0 1
-0.130918 -23.748281 -28.475442 37.078954 1.565284 2.446459 0.030844 -0.009014 821966.000000 0 0 1
1.100682 -24.458281 -28.302502 37.422595 -1.525824 2.428427 0.035418 -0.006942 767281.000000 0 0 1
1.903682 -24.832781 -29.615142 38.695577 -1.494286 2.442360 0.021509 -0.010099 810091.000000 0 0 1
2.889382 -23.806481 -29.842432 38.284041 -1.450018 2.464664 0.031437 -0.005624 479049.000000 0 0 1
3.526182 -23.840281 -31.098172 39.343224 -1.423952 2.482311 0.043867 -0.002815 -507539.000000 0 0 1
4.605182 -22.737481 -31.302992 38.962521 -1.370963 2.503801 0.053889 -0.008784 759235.000000 0 0 1
5.825082 -22.871181 -30.532542 38.590914 -1.321408 2.483540 0.037822 -0.012174 1606640.000000 0 0 1
6.677282 -24.037081 -30.691632 39.551784 -1.299837 2.459073 0.034849 -0.001561 185020.000000 0 0 1
7.520582 -24.045581 -31.983752 40.714979 -1.267671 2.474385 0.030334 -0.003906 -103046.000000 0 0 1
6.795082 -24.801381 -32.981902 41.822094 -1.303379 2.479364 0.024262 -0.006813 276808.000000 0 0 1
7.154982 -24.582081 -34.341582 42.834761 -1.287557 2.500968 0.031173 -0.008491 -203507.000000 0 0 1
6.566182 -23.341281 33.688262 41.506978 -1.296571 0.623861 0.022702 -0.005812 510794.000000 0 0 1
5.134182 -23.349081 33.736959 41.348782 -1.354353 0.616492 0.032098 -0.006334 362869.000000 0 0 1
4.605182 -22.214681 33.110516 40.137339 -1.366388 0.600717 0.041192 -0.016316 -279808.000000 0 0 1
3.114282 -21.920081 33.342623 40.023983 -1.429666 0.586169 0.036414 -0.016567 383229.000000 0 0 1
2.099882 -22.875981 33.036492 40.238412 -1.479259 0.607603 0.046266 -0.019213 367208.000000 0 0 1
1.997882 -23.978581 33.904196 41.574732 -1.487669 0.617204 0.046319 -0.011382 -439519.000000 0 0 1
0.621182 -24.636681 33.722510 41.767926 -1.545588 0.631101 0.047022 -0.015548 73755.900000 0 0 1
0.589482 -25.486081 32.574061 41.363719 -1.547671 0.664049 0.048810 -0.016222 707499.000000 0 0 1
-0.767118 -25.889981 32.313081 41.412737 1.541175 0.675700 0.047213 -0.024708 965989.000000 0 0 1
-0.771018 -27.148981 31.410211 41.524246 1.542404 0.712958 0.044751 -0.027745 824647.000000 0 0 1
-2.072818 -27.256781 30.817021 41.193658 1.494895 0.725600 0.045569 -0.031900 652420.000000 0 0 1
-2.033218 -28.142881 29.741411 40.996430 1.498675 0.759089 0.050620 -0.035805 145255.000000 0 0 1
-3.344018 -28.063881 28.915201 40.433312 1.452198 0.773982 0.055897 -0.025108 640255.000000 0 0 1
-4.460218 -28.534481 29.668301 41.404326 1.415741 0.771952 0.055125 -0.021849 -195068.000000 0 0 1
-5.634418 -28.646481 28.924371 41.097284 1.376587 0.790060 0.071304 -0.019036 -32473.300000 0 0 1
-6.725218 -29.476181 29.660371 42.353411 1.346478 0.794969 0.069166 -0.017910 -1345.690000 0 0 1
-7.881618 -29.786881 28.874831 42.227172 1.312124 0.817842 0.074669 -0.012762 103229.000000 0 0 1
-8.986918 -30.092581 29.678781 43.210626 1.280586 0.813664 0.070330 -0.013368 -342624.000000 0 0 1
-8.992118 -31.384481 30.513801 44.687089 1.291757 0.819163 0.056320 -0.010229 -794516.000000 0 0 1
-9.090318 -32.640281 29.876461 45.173275 1.299179 0.848146 0.062327 -0.008244 779695.000000 0 0 1
-10.356218 -32.929881 29.260781 45.252863 1.266097 0.867669 0.067051 -0.007934 472373.000000 0 0 1
-10.346918 34.341256 28.774331 45.981982 -1.278150 0.894673 0.070994 -0.003121 -351881.000000 0 0 1
-10.325618 33.406256 29.806421 45.945827 -1.271019 0.864882 0.061669 0.001193 290518.000000 0 0 1
-9.969418 32.128256 29.352171 44.644866 -1.269916 0.853355 0.057991 -0.011326 -57810.100000 0 0 1
-10.233018 30.982756 30.392901 44.591190 -1.251795 0.820863 0.053714 0.009386 389857.000000 0 0 1
-11.619818 30.714256 30.552701 44.853686 -1.209118 0.821445 0.055428 0.019107 256362.000000 0 0 1
-11.828318 29.441256 31.101791 44.429923 -1.188774 0.795372 0.054643 0.017951 74752.900000 0 0 1
-11.875618 29.337756 32.649171 45.471997 -1.186168 0.769863 0.052648 0.010128 -450576.000000 0 0 1
-12.997118 30.023356 33.129673 46.560736 -1.162253 0.779114 0.055404 0.012887 -7912.900000 0 0 1
-13.080218 29.804456 -34.275766 47.267598 -1.157238 2.382038 0.055687 0.010465 -419808.000000 0 0 1
-14.477318 30.122956 -33.757842 47.503443 -1.122783 2.361204 0.066069 0.009298 -399536.000000 0 0 1
-14.559018 29.947356 -32.377092 46.444431 -1.118287 2.342161 0.055502 0.005953 10314.500000 0 0 1
-15.873918 30.209956 -31.915412 46.724899 -1.086994 2.322726 0.061525 0.001760 313031.000000 0 0 1
-16.108518 29.856156 -30.384022 45.541884 -1.076021 2.301195 0.065626 -0.001442 -37436.200000 0 0 1
-16.268418 28.441556 -30.204862 44.563631 -1.051224 2.315551 0.053124 -0.010816 77047.100000 0 0 1
-15.987818 28.200656 -28.841422 43.390263 -1.055047 2.297886 0.030944 -0.009963 -86418.900000 0 0 1
-16.456418 26.736556 -28.482752 42.390143 -1.019056 2.307593 0.029443 -0.021663 -509358.000000 0 0 1
-17.836618 26.643456 -28.641622 42.992571 -0.980865 2.299897 0.034270 -0.019113 -765997.000000 0 0 1
-18.150418 25.307556 -28.287402 42.072404 -0.948624 2.308176 0.025641 -0.025190 632953.000000 0 0 1
-19.651218 24.915356 -28.457812 42.623848 -0.902972 2.301844 0.015981 -0.021962 743848.000000 0 0 1
-20.608518 25.380156 -27.529022 42.740032 -0.888785 2.270648 0.019518 -0.026050 743392.000000 0 0 1
-21.882618 24.769956 -27.672882 43.106706 -0.847210 2.267851 0.032989 -0.027554 47168.800000 0 0 1
-23.000318 25.012556 -26.691032 43.209418 -0.827284 2.236628 0.050994 -0.033398 -679240.000000 0 0 1
-23.608618 26.276556 -26.757452 44.314619 -0.838829 2.219064 0.045215 -0.020744 495786.000000 0 0 1
-24.866418 26.349056 -26.077412 44.639029 -0.814339 2.194671 0.048498 -0.025398 613650.000000 0 0 1
-24.826918 26.212056 -24.518312 43.641670 -0.812530 2.167368 0.047048 -0.007558 -750201.000000 0 0 1
-24.551518 24.895356 -24.013312 42.416918 -0.792352 2.172595 0.039902 -0.013900 -212660.000000 0 0 1
-25.629618 23.983056 -23.976612 42.508143 -0.752222 2.170076 0.049350 -0.012630 -243409.000000 0 0 1
-26.521818 24.082056 -22.655012 42.386340 -0.737223 2.134699 0.026201 -0.012051 128585.000000 0 0 1
-25.861468 23.693656 -21.453112 41.114971 -0.741681 2.119737 0.011030 -0.008854 259183.000000 0 0 1
-25.011018 24.726756 -20.961912 40.943439 -0.779683 2.108276 0.010798 -0.003912 -151724.000000 0 0 1
-24.105918 24.263656 -19.829712 39.535272 -0.788659 2.096209 0.010036 -0.010826 -351798.000000 0 0 1
-24.810718 24.019956 -18.627812 39.236786 -0.769206 2.065481 -0.004401 -0.002197 -100693.000000 0 0 1
-23.887318 23.695856 -17.636212 37.988597 -0.781374 2.053584 0.001434 -0.007445 -807159.000000 0 0 1
-24.381218 23.697256 -16.206212 37.664904 -0.771173 2.015592 0.002987 -0.010719 -502776.000000 0 0 1
-24.625218 24.984056 -15.661412 38.417239 -0.792631 1.990693 0.008448 -0.018640 121442.000000 0 0 1
-25.092008 24.943656 -14.300212 38.161380 -0.782433 1.954902 -0.008944 -0.017739 106098.000000 0 0 1
-25.226008 26.384256 -13.692512 38.986733 -0.807837 1.929659 -0.009499 -0.012187 1286430.000000 0 0 1
-23.929218 26.953856 -13.350612 38.436398 -0.844771 1.925532 0.008423 -0.019012 1217810.000000 0 0 1
-24.024818 27.772256 -12.175212 38.687541 -0.857621 1.890944 0.014540 -0.020600 -347723.000000 0 0 1
-22.643118 28.340456 -11.857712 38.164087 -0.896685 1.886729 0.025799 -0.021871 -361440.000000 0 0 1
-21.848818 27.372956 -11.245712 36.784720 -0.897160 1.881488 0.022802 -0.021690 -265086.000000 0 0 1
-20.706518 27.793856 -10.548012 36.228702 -0.930501 1.866226 0.025588 -0.017223 -189787.000000 0 0 1
-19.763018 26.653256 -10.069712 34.675236 -0.932766 1.865442 0.045173 -0.014934 -87384.000000 0 0 1
-19.192918 26.056856 -11.211412 34.249432 -0.935940 1.904290 0.038144 -0.020535 -105602.000000 0 0 1
-18.482018 24.925456 -10.718112 32.828970 -0.932763 1.903377 0.041350 -0.007204 -78655.200000 0 0 1
-17.886418 23.960256 -11.777512 32.136079 -0.929537 1.946029 0.037524 -0.012669 -38453.900000 0 0 1
-17.580718 22.732456 -11.181312 30.836146 -0.912502 1.941857 0.028545 -0.005637 58543.400000 0 0 1
-17.039818 21.815856 -12.091012 30.207276 -0.907702 1.982606 0.042941 -0.002679 -84024.500000 0 0 1
-16.619118 20.487356 -11.467412 28.765055 -0.889270 1.980849 0.040111 0.002545 445132.000000 0 0 1
-17.749118 19.710256 -11.033512 28.727404 -0.837704 1.965003 0.048209 -0.001189 689023.000000 0 0 1
-17.330018 18.391156 -10.883012 27.513707 -0.815096 1.977462 0.064439 -0.007171 -1000700.000000 0 0 1
-18.499918 17.435056 -10.584112 27.536368 -0.755774 1.965320 0.064542 0.000016 273754.000000 0 0 1
-19.199018 17.000956 -11.777612 28.219620 -0.724753 2.001330 0.057035 0.000622 7695.030000 0 0 1
-19.959018 17.921556 -12.444212 29.570306 -0.731663 2.005162 0.053088 0.003975 -1157820.000000 0 0 1
-20.868918 17.464656 -13.617512 30.429633 -0.696824 2.034773 0.054129 0.005453 268730.000000 0 0 1
-20.123218 17.012456 -14.728812 30.187836 -0.701826 2.080485 0.082737 -0.000124 -66251.400000 0 0 1
-20.975518 16.863056 -15.836612 31.227124 -0.677139 2.102663 0.048409 0.006286 281484.000000 0 0 1
-20.290718 16.580956 -17.257112 31.375934 -0.685123 2.153174 0.094089 -0.008849 205574.000000 0 0 1
-19.586718 17.683656 -17.804912 31.833412 -0.734381 2.164356 0.061686 -0.016110 1114490.000000 0 0 1
-18.602518 17.336056 -18.829712 31.640963 -0.750173 2.208193 0.064572 -0.010715 632428.000000 0 0 1
-17.981818 18.546256 -19.529812 32.383992 -0.800849 2.218140 0.051985 -0.010009 239001.000000 0 0 1
-17.026118 19.258856 -18.711412 31.794798 -0.846854 2.200005 0.061446 -0.007314 696669.000000 0 0 1
-16.659418 20.512456 -19.262312 32.700668 -0.888684 2.200678 0.072998 -0.022500 63042.700000 0 0 1
32.351198 30.365756 1.852888 44.408471 0.753752 1.529060 0.040463 -0.009934 -176925.000000 0 0 1
33.588718 30.199556 1.209788 45.184939 0.732317 1.544019 0.048922 -0.012308 -205175.000000 0 0 1
33.695178 31.170156 0.205988 45.901918 0.746491 1.566309 0.057004 -0.009329 286572.000000 0 0 1
35.070368 31.303456 -0.520512 47.011785 0.728706 1.581868 0.047171 -0.010991 820071.000000 0 0 1
-35.471451 32.029656 0.221488 47.793009 -0.734454 1.566162 0.022313 -0.005936 -35425.300000 0 0 1
-34.274854 32.019156 -0.499112 46.906727 -0.751386 1.581437 0.018463 -0.007016 -683080.000000 0 0 1
-33.417748 33.183756 -0.002912 47.094666 -0.781885 1.570858 -0.008594 -0.005875 -306754.000000 0 0 1
-32.790938 32.903756 1.252888 46.470125 -0.787115 1.543832 -0.001885 -0.008137 226376.000000 0 0 1
-32.108988 34.063056 1.697088 46.841851 -0.814920 1.534558 -0.004039 -0.007501 -151752.000000 0 0 1
-31.312478 33.872556 3.004588 46.226063 -0.824652 1.505753 0.013100 -0.006231 -466046.000000 0 0 1
-30.511118 -33.831981 3.426488 45.686673 0.836964 1.495726 0.024613 -0.002973 40818.800000 0 0 1
-30.011888 -34.015781 4.759188 45.611804 0.847851 1.466265 0.034606 -0.015043 -525151.000000 0 0 1
-29.800298 -32.698181 5.608288 44.594638 0.831732 1.444701 0.032801 -0.012014 1498690.000000 0 0 1
-31.026708 -32.138581 6.236088 45.104698 0.802999 1.432094 0.038874 -0.010248 1497300.000000 0 0 1
-31.621548 -32.923081 7.151288 46.205979 0.805560 1.415402 0.032461 -0.019985 -1489040.000000 0 0 1
-32.717358 -32.240281 8.026888 46.629306 0.778054 1.397792 0.036036 -0.016416 1182270.000000 0 0 1
-34.030318 -31.974481 7.495488 47.292836 0.754261 1.411634 0.018054 -0.008673 799129.000000 0 0 1
-34.718804 -33.159981 7.174288 48.543281 0.762437 1.422461 0.015667 -0.008989 -1126200.000000 0 0 1
35.341718 -32.924681 6.828388 48.782154 -0.750007 1.430358 0.003752 0.003869 198736.000000 0 0 1
34.495958 -32.706681 7.952488 48.196890 -0.758779 1.405038 0.003408 0.008510 551633.000000 0 0 1
33.130098 -32.459781 7.621888 47.003553 -0.775179 1.407922 -0.007188 0.019205 680964.000000 0 0 1
32.287168 -32.453481 8.942388 46.643927 -0.787967 1.377886 -0.006902 0.012496 318593.000000 0 0 1
30.875038 -32.477181 8.737188 45.654942 -0.810682 1.378234 0.004845 0.010349 962826.000000 0 0 1
30.026448 -32.499281 9.885888 45.337861 -0.824927 1.350981 0.017043 0.004204 171912.000000 0 0 1
30.167238 -31.280581 10.922688 44.808951 -0.803515 1.324554 0.007109 0.011739 -633443.000000 0 0 1
29.697338 -29.972581 10.563088 43.495590 -0.790011 1.325489 0.015658 0.004371 251332.000000 0 0 1
30.278258 -29.386781 9.396788 43.227947 -0.770458 1.351669 0.017068 0.000467 18203.100000 0 0 1
29.719278 -27.960381 9.077688 41.802187 -0.754913 1.351894 0.015699 -0.001148 -23190.400000 0 0 1
29.928748 -27.744681 7.696288 41.529870 -0.747547 1.384400 0.027252 -0.009631 -102322.000000 0 0 1
29.238368 -26.577281 7.332788 40.187110 -0.737758 1.387302 0.006930 -0.007336 -44878.900000 0 0 1
29.495358 -26.108781 5.875288 39.826670 -0.724568 1.422734 -0.003828 -0.007325 -294883.000000 0 0 1
30.808588 -25.672481 5.720688 40.508908 -0.694713 1.429102 0.025904 -0.016969 -870546.000000 0 0 1
31.002958 -24.983981 4.533288 40.074099 -0.678303 1.457431 0.020151 -0.011577 260359.000000 0 0 1
32.483798 -24.573781 4.302488 40.958262 -0.647644 1.465557 0.031605 -0.022556 414736.000000 0 0 1
33.266758 -25.751481 4.024188 42.261212 -0.658742 1.475430 0.020547 -0.014235 -850633.000000 0 0 1
34.553758 -25.282181 3.724588 42.977010 -0.631671 1.484023 0.027634 -0.013563 -22478.400000 0 0 1
35.525818 -26.493281 3.532788 44.457376 -0.640774 1.491248 0.029373 -0.009102 -28804.400000 0 0 1
35.418578 -27.196581 4.758188 44.908463 -0.654835 1.464644 0.022675 -0.008352 -74271.400000 0 0 1
-35.615351 -28.538281 4.710288 45.881081 0.675528 1.467952 0.024226 -0.008201 -520272.000000 0 0 1
35.219048 -29.428881 5.728388 46.252079 -0.696072 1.446626 0.027502 -0.004734 310979.000000 0 0 1
33.905288 -29.836981 5.414688 45.487722 -0.721660 1.451477 0.013205 0.003845 301791.000000 0 0 1
32.862998 -28.929381 5.783988 44.162657 -0.721825 1.439449 0.011208 0.000399 767014.000000 0 0 1
31.396328 -29.426881 5.569988 43.390039 -0.753030 1.442071 -0.001949 0.003766 220057.000000 0 0 1
31.095128 -29.630881 4.215588 43.158629 -0.761290 1.472964 -0.008159 0.006890 82853.600000 0 0 1
29.770638 -29.330881 3.822488 41.966688 -0.777958 1.479586 0.004644 0.004218 370771.000000 0 0 1
28.656668 -30.355781 4.061788 41.942534 -0.814183 1.473803 0.016495 0.000111 -153994.000000 0 0 1
28.852848 -31.519881 3.292788 42.858280 -0.829546 1.493891 0.010129 0.010073 -439662.000000 0 0 1
27.807428 -32.428781 3.509588 42.862526 -0.861969 1.488824 0.028910 0.008766 -259952.000000 0 0 1
27.898928 -33.726881 2.749588 43.856732 -0.879688 1.508060 0.029523 0.006639 -295550.000000 0 0 1
27.652568 -33.544581 1.343788 43.493784 -0.881382 1.539895 0.032558 0.004459 258656.000000 0 0 1
27.333158 34.031256 0.642488 43.653644 0.894121 1.556078 0.036592 0.003394 -180351.000000 0 0 1
27.093638 34.301356 -0.891012 43.720042 0.902262 1.591178 0.034051 0.001996 -55939.500000 0 0 1
28.245688 -34.051281 -1.620312 44.271142 -0.878322 1.607404 0.029748 -0.000180 19760.700000 0 0 1
27.916688 -33.810981 -2.932312 43.944537 -0.880598 1.637574 0.035166 -0.004684 -178878.000000 0 0 1
29.004908 -33.385981 -3.956512 44.402279 -0.855503 1.660021 0.037279 -0.005219 -27260.500000 0 0 1
29.182548 -32.003381 -3.934812 43.489312 -0.831468 1.661398 0.025107 0.003703 -76531.600000 0 0 1
30.109408 -31.447081 -4.826712 43.804024 -0.807126 1.681209 0.029217 0.006219 -155345.000000 0 0 1
30.408698 -29.927581 -4.640512 42.917169 -0.777424 1.679135 0.025100 0.000295 -122063.000000 0 0 1
29.357838 -29.126781 -5.158912 41.675729 -0.781447 1.694902 0.016180 -0.003339 173914.000000 0 0 1
29.641538 -27.735081 -5.140412 40.917959 -0.752183 1.696756 0.024482 -0.010604 338432.000000 0 0 1
30.814748 -27.253881 -6.057012 41.581368 -0.724153 1.716983 0.015581 -0.007730 592941.000000 0 0 1
32.095988 -27.670581 -5.589512 42.744077 -0.711488 1.701939 0.013977 -0.004995 372102.000000 0 0 1
33.208258 -27.246181 -6.376112 43.425771 -0.687095 1.718157 0.012655 -0.012654 469465.000000 0 0 1
33.515128 -28.239481 -7.539612 44.469966 -0.700176 1.741163 -0.004794 0.014809 -381424.000000 0 0 1
32.538058 -28.197981 -8.607612 43.908340 -0.714061 1.768110 -0.007374 0.008038 531016.000000 0 0 1
32.555718 -29.260981 -9.514012 44.795047 -0.732150 1.784816 -0.018677 0.011073 174395.000000 0 0 1
32.238088 -30.719781 -8.981612 45.427620 -0.761287 1.769820 -0.027016 0.013489 539881.000000 0 0 1
33.341648 -31.256781 -8.251512 46.440707 -0.753135 1.749423 -0.017080 0.004255 151846.000000 0 0 1
32.976808 -32.507681 -7.693912 46.940553 -0.778234 1.735447 -0.010398 -0.005239 107812.000000 0 0 1
34.134878 -33.080381 -6.892312 48.031297 -0.769711 1.714790 -0.000929 -0.008383 -252132.000000 0 0 1
33.900928 34.334556 -6.518212 48.689031 0.791753 1.705074 0.009262 -0.006033 114329.000000 0 0 1
33.249658 34.271456 -5.227612 48.035407 0.800530 1.679841 0.021573 -0.006070 109881.000000 0 0 1
33.115348 32.771856 -4.776312 46.834111 0.780185 1.672958 0.022859 -0.010407 -338603.000000 0 0 1
32.141658 32.198656 -5.612712 45.840398 0.786284 1.693545 0.033341 -0.019767 -48933.800000 0 0 1
31.840088 30.844856 -5.270312 44.642721 0.769523 1.689128 0.039918 -0.007030 -388.027000 0 0 1
30.669568 30.252356 -6.080612 43.506336 0.778550 1.711019 0.047278 -0.012072 -113371.000000 0 0 1
30.871788 29.897156 -7.452712 43.617085 0.769361 1.742506 0.034638 -0.014159 535161.000000 0 0 1
29.661988 29.366356 -8.026112 42.504527 0.780390 1.760766 0.031680 -0.015232 696687.000000 0 0 1
29.900718 28.982556 -9.465212 42.704001 0.769807 1.794299 0.027503 -0.012893 -140200.000000 0 0 1
30.646408 27.760656 -9.520812 42.432325 0.736031 1.797099 0.018885 -0.007930 296199.000000 0 0 1
31.209368 27.388656 -10.783012 42.900308 0.720288 1.824872 0.021571 -0.003375 1072130.000000 0 0 1
32.446298 28.282556 -11.226712 44.482629 0.716942 1.825940 0.019267 -0.013708 17867.000000 0 0 1
33.661678 28.041456 -10.539912 45.061309 0.694564 1.806885 0.025120 -0.016891 119706.000000 0 0 1
34.606718 29.044156 -10.822112 46.457572 0.698228 1.805902 0.018609 -0.012043 -196367.000000 0 0 1
34.498138 30.347256 -9.950312 47.011553 0.721473 1.784066 0.015475 -0.015447 -470661.000000 0 0 1
35.176278 30.237256 -8.695812 47.194060 0.710037 1.756112 0.018215 -0.014600 230362.000000 0 0 1
34.793438 31.338656 -7.844712 47.478776 0.733205 1.736783 0.025807 -0.013564 157822.000000 0 0 1
-35.554066 31.639856 -6.850712 48.084346 -0.727211 1.713756 0.011715 -0.008827 789107.000000 0 0 1
-34.316371 31.942556 -7.462412 47.472390 -0.749587 1.728646 0.014163 -0.004108 -46341.900000 0 0 1
-33.557908 30.807356 -7.818612 46.220743 -0.742691 1.740772 0.019432 -0.005807 -1476910.000000 0 0 1
-32.164678 31.142756 -8.332912 45.539820 -0.769257 1.754814 0.046009 -0.009125 -929478.000000 0 0 1
-31.344518 31.708156 -7.334412 45.184948 -0.791165 1.733838 0.038255 -0.010083 298795.000000 0 0 1
-29.969228 31.856856 -7.671512 44.405698 -0.815920 1.744427 0.028703 -0.015901 282593.000000 0 0 1
-29.667228 32.973256 -8.706912 45.201663 -0.838127 1.764632 0.010763 -0.015655 -947673.000000 0 0 1
-29.764058 -34.375481 -8.217512 46.207146 0.857171 1.749588 0.003751 -0.010725 301696.000000 0 0 1
-28.705498 -33.992481 -7.352812 45.094991 0.869524 1.734579 0.012614 -0.015712 168555.000000 0 0 1
-28.982668 -32.555881 -6.766912 44.109767 0.843398 1.724815 0.003233 -0.005923 561299.000000 0 0 1
-30.016348 -32.521581 -5.756312 44.629245 0.825436 1.700137 -0.002492 -0.005487 283643.000000 0 0 1
-29.705498 -32.968481 -4.449612 44.599736 0.837414 1.670730 0.005184 -0.011667 179065.000000 0 0 1
-30.906748 -33.212581 -3.457212 45.500054 0.821344 1.646852 0.017539 -0.011428 140194.000000 0 0 1
-31.436918 -31.986381 -3.028012 44.950832 0.794061 1.638210 0.011220 -0.003378 173876.000000 0 0 1
-32.399418 -32.030881 -1.961212 45.602040 0.779678 1.613817 0.020596 -0.007205 -77291.300000 0 0 1
-33.112178 -30.702781 -1.754312 45.190206 0.747660 1.609627 0.033558 -0.001694 -333511.000000 0 0 1
-33.872498 -30.742981 -0.578312 45.747257 0.737003 1.583438 0.021080 -0.001032 -763833.000000 0 0 1
-34.553261 -29.537981 -0.459512 45.460217 0.707305 1.580905 0.027093 -0.001873 2225.610000 0 0 1
-35.505792 -29.482081 0.789188 46.157093 0.692972 1.553698 0.024623 0.001778 371025.000000 0 0 1
34.805158 -30.194881 0.673388 46.082354 -0.714589 1.556183 0.008312 0.015042 622428.000000 0 0 1
33.834418 -29.970381 1.692388 45.231137 -0.724912 1.533371 0.003868 0.013002 1079280.000000 0 0 1
33.025388 -28.569381 1.603888 43.697348 -0.713180 1.534084 0.000591 0.019635 -192718.000000 0 0 1
32.076868 -28.540781 0.556388 42.939623 -0.727130 1.557839 0.000251 0.011146 -37085.100000 0 0 1
31.425348 -27.277981 0.595088 41.617243 -0.714866 1.556497 0.004540 0.009798 599774.000000 0 0 1
30.131318 -27.211381 -0.320812 40.601213 -0.734521 1.578698 -0.001459 -0.001916 1065380.000000 0 0 1
29.045898 -28.015481 0.199988 40.355562 -0.767342 1.565841 -0.006411 0.007161 447822.000000 0 0 1
28.962328 -29.431881 -0.071612 41.292338 -0.793439 1.572531 -0.004113 0.014122 -411092.000000 0 0 1
28.477388 -29.745981 -1.520612 41.207976 -0.807183 1.607706 0.009545 0.000717 1742330.000000 0 0 1
27.021758 -29.593481 -1.675812 40.109324 -0.830792 1.612590 0.018732 0.009681 1740000.000000 0 0 1
26.675208 -30.118081 -2.928912 40.339113 -0.845945 1.643468 0.020377 0.003518 -1442300.000000 0 0 1
25.254998 -30.564181 -3.007712 39.762173 -0.880227 1.646511 0.021202 -0.000111 -1233680.000000 0 0 1
24.402498 -29.460481 -3.210612 38.388929 -0.879028 1.654528 0.041114 0.001028 925366.000000 0 0 1
23.042398 -29.891881 -3.476812 37.902043 -0.914079 1.662657 0.034239 -0.000320 1102230.000000 0 0 1
22.002398 -28.762481 -3.477312 36.379631 -0.917784 1.666527 0.040287 0.002903 -109778.000000 0 0 1
21.958398 -28.116481 -4.725412 35.986626 -0.907761 1.702487 0.042202 0.000401 132132.000000 0 0 1
21.220098 -26.917681 -4.613912 34.585290 -0.903210 1.704602 0.041443 -0.001455 6705.530000 0 0 1
20.751198 -26.295681 -5.965912 34.024508 -0.902707 1.747049 0.045866 -0.020217 343313.000000 0 0 1
19.575798 -26.905481 -6.498612 33.902046 -0.941801 1.763678 0.047339 -0.011264 148374.000000 0 0 1
19.034198 -26.120081 -7.593612 33.199733 -0.941055 1.801564 0.064212 -0.017649 686685.000000 0 0 1
17.482998 -26.316381 -7.608712 32.497687 -0.984407 1.807121 0.053330 -0.010354 488825.000000 0 0 1
16.918298 -25.586781 -6.541212 31.363986 -0.986579 1.780897 0.034149 -0.001448 185557.000000 0 0 1
15.499398 -25.531481 -6.600712 30.588515 -1.025194 1.788298 0.034873 -0.001790 578164.000000 0 0 1
14.791298 -24.663481 -5.496212 29.279313 -1.030579 1.759633 0.006406 0.012779 -91246.500000 0 0 1
14.903398 -25.199781 -4.216312 29.579005 -1.036717 1.713828 -0.007657 0.019401 69630.400000 0 0 1
14.350098 -24.289481 -3.328812 28.407485 -1.037173 1.688247 -0.011965 0.025628 -275390.000000 0 0 1
14.346198 -24.918081 -1.943412 28.818415 -1.048410 1.638284 -0.002606 0.020036 17651.200000 0 0 1
13.600798 -26.108981 -1.896212 29.500106 -1.090550 1.635119 0.002391 0.020634 322011.000000 0 0 1
14.338398 -27.065681 -1.123412 30.649679 -1.083623 1.607458 0.012123 0.013430 -5810.290000 0 0 1
13.885098 -28.524781 -1.276612 31.750415 -1.117786 1.611015 0.020977 0.007392 821964.000000 0 0 1
12.608298 -28.691781 -0.610812 31.345822 -1.156759 1.590284 0.035999 -0.002005 717362.000000 0 0 1
11.956798 -29.916681 -0.861912 32.229113 -1.190575 1.597543 0.042230 -0.004696 -260734.000000 0 0 1
12.565698 -31.235181 -0.363912 33.669953 -1.188315 1.581605 0.040647 -0.004239 -75351.500000 0 0 1
13.655698 -31.606481 -1.216712 34.451823 -1.162966 1.606120 0.043001 0.004224 199936.000000 0 0 1
14.248598 -32.851481 -0.925212 35.820363 -1.161557 1.596628 0.039775 0.006740 -383052.000000 0 0 1
15.648098 -33.004681 -1.529812 36.558341 -1.128068 1.612654 0.035412 0.006273 -489742.000000 0 0 1
16.547498 -32.035381 -1.135212 36.074562 -1.094006 1.602270 0.034456 0.016765 484794.000000 0 0 1
17.883098 -32.256081 -1.638612 36.918085 -1.064574 1.615196 0.033613 0.013269 882032.000000 0 0 1
18.842998 -31.068181 -1.211312 36.355986 -1.025608 1.604121 0.040821 0.016594 133931.000000 0 0 1
18.447498 -29.760581 -1.571812 35.049579 -1.015899 1.615657 0.035269 0.011817 -163444.000000 0 0 1
19.158298 -28.839181 -0.796812 34.631975 -0.984424 1.593806 0.035940 0.012905 -555056.000000 0 0 1
18.629498 -27.398581 -0.636512 33.138280 -0.973658 1.590005 0.032567 0.017565 -278582.000000 0 0 1
18.696498 -26.510781 -1.771712 32.488760 -0.956561 1.625356 0.024499 0.016687 197845.000000 0 0 1
17.763598 -26.795881 -2.800812 32.270872 -0.985390 1.657696 0.034902 0.015606 -224615.000000 0 0 1
32.138938 -29.681581 13.711688 45.846679 -0.745669 1.267071 -0.003883 0.006636 183142.000000 0 0 1
32.817518 -30.081581 14.899888 46.945689 -0.741928 1.247825 0.014074 0.014294 -137128.000000 0 0 1
31.936218 -30.402081 15.912288 46.876534 -0.760793 1.224463 -0.003071 0.025110 -443895.000000 0 0 1
32.691168 -31.120481 17.052888 48.249330 -0.760789 1.209558 0.003353 0.020243 365101.000000 0 0 1
31.826958 -31.555681 18.124688 48.344809 -0.781118 1.186503 -0.010765 0.011975 620054.000000 0 0 1
32.582838 -31.778381 19.284988 49.430938 -0.772900 1.170013 -0.023913 0.008906 181293.000000 0 0 1
33.455578 -33.053681 19.492588 50.909552 -0.779356 1.177877 -0.019965 0.019237 -895430.000000 0 0 1
34.375338 -33.139981 18.515588 51.212784 -0.767103 1.200875 -0.022580 0.026818 -1292620.000000 0 0 1
34.956648 34.352856 18.640088 52.436045 0.776687 1.207366 -0.006202 0.015316 -511766.000000 0 0 1
-35.443198 34.138656 17.631988 52.273847 -0.766652 1.226749 -0.001206 0.015883 667053.000000 0 0 1
-34.319912 -33.737081 17.909888 51.349889 0.776835 1.214526 0.005521 0.014332 527717.000000 0 0 1
-33.272158 -33.812781 16.994388 50.389978 0.793457 1.226794 0.014944 0.014110 -572316.000000 0 0 1
-32.080088 -32.937281 17.441788 49.175324 0.798581 1.208218 0.005580 0.005113 -2584.870000 0 0 1
-30.983268 -32.771181 16.573688 48.047897 0.813435 1.218620 0.016191 -0.001542 98437.300000 0 0 1
-31.255788 -31.939981 15.477988 47.293285 0.796224 1.237376 0.029926 -0.010200 -139609.000000 0 0 1
-30.094078 -31.969281 14.424788 46.214316 0.815603 1.253364 0.029291 -0.018781 -175840.000000 0 0 1
-28.882228 -31.608481 15.007288 45.370672 0.830437 1.233676 0.039070 -0.022750 -1087700.000000 0 0 1
-28.041348 -31.245181 13.929488 44.233575 0.839385 1.250437 0.042675 -0.022647 -24642.700000 0 0 1
-26.712788 -30.802981 14.630188 43.317884 0.856393 1.226281 0.040698 -0.022964 59991.000000 0 0 1
-25.667698 -30.628681 13.722488 42.252261 0.873294 1.240022 0.047321 -0.019039 -195214.000000 0 0 1
-24.428918 -30.422281 14.401688 41.589612 0.894232 1.217193 0.020907 -0.014714 1300340.000000 0 0 1
-23.138918 -30.363981 13.485488 40.487520 0.919627 1.231231 0.034996 -0.013836 817866.000000 0 0 1
-22.810518 -31.645381 13.051188 41.134941 0.946236 1.247939 0.030682 -0.016247 235769.000000 0 0 1
-21.504818 -31.693881 12.489188 40.285719 0.974635 1.255587 0.038964 -0.026726 362922.000000 0 0 1
-20.911818 -33.054381 12.083088 40.937724 1.006716 1.271176 0.039572 -0.019429 -181196.000000 0 0 1
-21.470618 -33.756581 10.992588 41.488929 1.004296 1.302642 0.027674 -0.016614 69515.900000 0 0 1
-21.140118 33.580156 11.083388 41.199186 -1.008938 1.298421 0.029066 -0.005356 -116872.000000 0 0 1
-21.932418 32.675756 10.126388 40.635941 -0.979652 1.318944 0.020104 -0.001361 -491615.000000 0 0 1
-21.697118 32.838456 8.775688 40.325449 -0.986920 1.351419 0.020341 -0.006269 368210.000000 0 0 1
-22.928518 33.023856 8.058288 41.002780 -0.963905 1.372978 0.016733 -0.009255 269355.000000 0 0 1
-22.730718 33.505156 6.575688 41.018541 -0.974698 1.409791 0.017540 -0.001010 -144434.000000 0 0 1
-21.988918 32.671756 5.638188 39.783732 -0.978404 1.428597 0.023890 -0.005676 1067720.000000 0 0 1
-20.570818 32.607056 5.863088 38.996852 -1.007987 1.419876 0.018249 -0.007874 1042050.000000 0 0 1
-19.697418 33.920556 5.587988 39.620929 -1.044694 1.429288 0.028559 -0.006970 -270512.000000 0 0 1
-19.877318 -33.707181 6.438788 39.657784 1.037981 1.407716 0.030908 -0.012479 21505.600000 0 0 1
-19.227118 -33.927081 7.679288 39.745445 1.055208 1.376362 0.030051 -0.015295 -404162.000000 0 0 1
-19.194718 -32.746281 8.637688 38.927700 1.040612 1.347043 0.026704 -0.017785 -534479.000000 0 0 1
-18.549718 -31.624081 8.029488 37.531950 1.040311 1.355192 0.038221 -0.019841 -54516.700000 0 0 1
-18.524518 -30.472381 8.878888 36.749945 1.024580 1.326779 0.045176 -0.015358 421192.000000 0 0 1
-17.796518 -30.564181 10.274988 36.830159 1.043518 1.288061 0.037029 -0.011094 916021.000000 0 0 1
-16.393818 -30.849581 10.205188 36.395052 1.082337 1.286585 0.047399 -0.014951 48981.900000 0 0 1
-15.790818 -30.828481 11.437388 36.476829 1.097424 1.251865 0.060375 -0.017458 422688.000000 0 0 1
-14.430018 -31.598781 11.250488 36.514133 1.142415 1.257587 0.068461 -0.013788 782141.000000 0 0 1
-13.459818 -30.909481 10.494488 35.308597 1.160100 1.269015 0.037761 -0.008314 -224609.000000 0 0 1
-12.296318 -31.633581 10.182688 35.434024 1.200060 1.279316 0.034828 0.001875 99342.700000 0 0 1
-11.198918 -30.778081 9.537388 34.112576 1.221828 1.287434 0.029765 0.006397 40210.400000 0 0 1
-10.425318 -29.974981 10.429188 33.405909 1.236082 1.253293 0.030509 0.007187 -296200.000000 0 0 1
-9.464918 -29.250981 9.688688 32.234690 1.257853 1.265509 0.029434 0.012545 38588.000000 0 0 1
-8.571218 -28.478581 10.698588 31.606252 1.278449 1.225478 0.023281 0.024264 -110769.000000 0 0 1
-9.236818 -27.476581 11.372988 31.138821 1.246494 1.196911 0.019478 0.009248 -323254.000000 0 0 1
-8.632518 -27.277781 12.643788 31.280395 1.264301 1.154683 0.023027 0.003194 112260.000000 0 0 1
-9.225218 -26.048681 13.416888 30.718908 1.230427 1.118799 0.031966 -0.003949 168716.000000 0 0 1
-9.021518 -24.711381 12.900388 29.299491 1.220755 1.114870 0.021677 -0.000075 3886.930000 0 0 1
-9.633018 -24.454881 11.661088 28.754430 1.195551 1.153226 0.019473 -0.000713 -70532.800000 0 0 1
-9.160818 -23.074781 11.155788 27.217967 1.192874 1.148486 0.008432 0.001808 -467573.000000 0 0 1
-7.892818 -23.173081 10.600188 26.676811 1.242518 1.162163 -0.000317 0.002820 -652381.000000 0 0 1
-7.385418 -21.872081 10.216688 25.245060 1.245153 1.154145 -0.001496 0.005067 305450.000000 0 0 1
-6.187018 -21.889981 9.219588 24.544883 1.295340 1.185729 -0.001220 -0.000559 419440.000000 0 1 0
-5.020918 -22.370081 9.862988 24.958139 1.350007 1.164531 -0.008632 -0.001504 -889221.000000 0 1 0
-3.996118 -22.507481 8.921688 24.538790 1.395081 1.198694 0.001522 -0.003355 -68159.400000 0 1 0
-2.914018 -23.488281 9.444588 25.483153 1.447364 1.191119 0.016405 -0.001107 129051.000000 0 0 1
-2.099018 -22.940581 10.461388 25.300529 1.479552 1.144518 0.018744 0.003061 79629.000000 0 0 1
-1.200218 -23.910481 11.046388 26.366159 1.520642 1.138496 0.026757 -0.001024 578592.000000 0 0 1
-0.293618 -23.249881 12.098388 26.210955 1.558168 1.091024 0.028683 0.005242 -401753.000000 0 0 1
-0.946818 -22.928581 13.309988 26.528703 1.529526 1.045210 0.032859 0.000415 -505165.000000 0 0 1
-0.176718 -22.443881 14.423188 26.679344 1.562923 0.999631 0.044873 -0.003372 -234608.000000 0 0 1
0.488082 -21.056081 14.248788 25.428817 -1.547620 0.976000 0.045191 -0.010580 -848567.000000 0 0 1
1.608682 -21.078081 13.466188 25.064149 -1.494624 1.003601 0.051700 -0.012231 -1284110.000000 0 0 1
1.897282 -19.804781 13.121788 23.832968 -1.475289 0.987746 0.048407 -0.014635 -559687.000000 0 1 0
3.295582 -19.512281 12.579388 23.448475 -1.403478 1.004548 0.055442 -0.022640 -142763.000000 0 1 0
3.590682 -20.060881 11.280688 23.293473 -1.393683 1.065250 0.062981 -0.014316 473821.000000 0 1 0
5.017482 -20.201981 11.225488 23.649667 -1.327356 1.076222 0.055742 -0.011524 1117930.000000 0 1 0
5.619982 -20.856881 9.933088 23.775196 -1.307593 1.139783 0.065500 -0.021323 -127087.000000 0 1 0
5.955382 -19.974581 8.836988 22.639409 -1.281039 1.169799 0.061492 -0.022273 -325679.000000 0 1 0
6.247082 -20.741581 7.708888 22.992742 -1.278251 1.228899 0.053699 -0.024214 367400.000000 0 1 0
7.637282 -21.481081 7.622988 24.039028 -1.229199 1.248117 0.063057 -0.009977 565646.000000 0 1 0
8.717082 -20.714881 7.092988 23.567017 -1.172478 1.265086 0.076977 -0.021895 214415.000000 0 1 0
9.328782 -19.678781 7.880288 23.159869 -1.128121 1.223607 0.085002 -0.015001 -131330.000000 0 1 0
9.988782 -20.020381 9.233288 24.204236 -1.108005 1.179406 0.054149 -0.007445 -51688.300000 0 1 0
9.097982 -20.488181 10.266888 24.656598 -1.152893 1.141320 0.067372 -0.005053 -205043.000000 0 1 0
9.597182 -19.987081 11.464088 24.960261 -1.123139 1.093597 0.051504 -0.004417 -65711.500000 0 1 0
8.729082 -20.220481 12.718088 25.432548 -1.163269 1.047115 0.054850 -0.005601 -130748.000000 0 0 1
8.752382 -21.495781 13.416888 26.808314 -1.184126 1.046649 0.046255 -0.004152 -210314.000000 0 0 1
7.741282 -21.668481 14.384888 27.136240 -1.227668 1.012079 0.059597 -0.004176 14422.300000 0 0 1
7.705182 -23.056481 15.081488 28.608083 -1.248277 1.015523 0.047924 -0.008255 34453.600000 0 0 1
7.601782 -24.124581 14.178788 28.996906 -1.265540 1.059881 0.045669 -0.005480 -240464.000000 0 0 1
7.737682 -25.352981 14.904988 30.410591 -1.274577 1.058563 0.041733 -0.009037 299472.000000 0 0 1
7.598382 -26.639681 14.049188 31.061032 -1.292946 1.101444 0.041236 -0.011035 200208.000000 0 0 1
8.717282 -26.816681 13.201588 31.135307 -1.256502 1.132931 0.039299 -0.003003 -43206.800000 0 0 1
8.509382 -27.948381 12.420988 31.745906 -1.275246 1.168793 0.040251 -0.005989 -109578.000000 0 0 1
9.733782 -28.414581 11.569288 32.186695 -1.240762 1.203125 0.036007 -0.009482 69351.900000 0 0 1
10.736082 -28.887881 12.444988 33.236288 -1.214969 1.187004 0.024094 -0.009525 -493088.000000 0 0 1
11.832382 -29.315581 11.684988 33.703820 -1.187172 1.216750 0.024653 -0.011565 14875.700000 0 0 1
12.850382 -30.138981 12.538788 35.081501 -1.167765 1.205294 0.021871 -0.012761 -293583.000000 0 0 1
13.470882 -29.475381 13.633288 35.158631 -1.142119 1.172591 0.023016 -0.009385 102584.000000 0 0 1
14.340482 -30.323281 14.336788 36.478683 -1.129047 1.166885 0.041438 -0.012731 884599.000000 0 0 1
15.809182 -30.418481 13.778788 36.946843 -1.091495 1.188626 0.044756 -0.011647 436401.000000 0 0 1
16.464282 -29.131381 13.736488 36.171827 -1.056378 1.181263 0.038832 -0.016009 582688.000000 0 0 1
17.832682 -29.310481 13.386988 36.828254 -1.024219 1.198777 0.037990 -0.015894 454817.000000 0 0 1
18.689082 -28.001081 13.445888 36.250989 -0.982258 1.190807 0.044171 -0.019548 -139575.000000 0 0 1
19.963782 -28.183881 12.894588 36.866708 -0.954495 1.213479 0.029917 -0.014357 -397552.000000 0 0 1
20.632682 -26.943381 12.694788 36.232734 -0.917273 1.212832 0.024627 -0.020881 840446.000000 0 0 1
22.039882 -27.194281 12.030888 37.013884 -0.889710 1.239745 0.025756 -0.013422 701039.000000 0 0 1
22.984982 -27.774381 12.881688 38.283985 -0.879475 1.227623 0.034657 -0.015722 81431.700000 0 0 1
24.118282 -28.341881 12.251988 39.179905 -0.865735 1.252750 0.020843 -0.017922 -1229760.000000 0 0 1
25.132482 -28.966381 13.154488 40.542983 -0.856148 1.240358 0.023783 -0.008159 -440109.000000 0 0 1
26.059782 -28.040481 13.738688 40.671026 -0.821993 1.226217 0.009429 -0.009920 1342260.000000 0 0 1
27.156782 -27.756981 12.801888 40.888007 -0.796328 1.252345 -0.010801 -0.002875 1224780.000000 0 0 1
28.470382 -27.103781 13.423888 41.537674 -0.760813 1.241715 0.012342 -0.007240 932280.000000 0 0 1
28.366482 -25.714781 13.729088 40.674256 -0.736406 1.226497 0.026074 -0.014085 -81646.900000 0 0 1
27.598482 -25.344081 14.861688 40.309657 -0.742842 1.193199 0.032648 -0.009474 -905797.000000 0 0 1
28.263382 -25.318181 16.245988 41.276642 -0.730487 1.166265 0.016930 -0.006589 -934751.000000 0 0 1
28.565982 -26.567681 16.801488 42.475252 -0.749169 1.164119 0.001488 -0.001945 89541.400000 0 0 1
29.101182 -26.257981 18.055888 43.155248 -0.734084 1.139120 0.012007 -0.000455 -477850.000000 0 0 1
29.794982 -27.425781 18.683888 44.598230 -0.744017 1.138521 0.008229 0.005918 -707284.000000 0 0 1
28.863582 -28.385581 19.108588 44.765899 -0.777049 1.129783 -0.003011 0.003882 -102273.000000 0 0 1
29.291882 -29.218881 20.159188 46.023366 -0.784151 1.117401 0.000505 0.002922 -1148380.000000 0 0 1
28.247982 -30.146081 20.639488 46.181416 -0.817892 1.107475 -0.006300 0.006455 -1398480.000000 0 0 1
27.173082 -29.460281 21.272988 45.374272 -0.825762 1.082826 -0.008763 0.009452 1125940.000000 0 0 1
26.001782 -30.247981 21.585788 45.353933 -0.860744 1.074763 -0.007661 0.005768 1171810.000000 0 0 1
25.197582 -30.898381 20.389288 44.781147 -0.886676 1.098076 0.012670 0.001880 -891639.000000 0 0 1
25.705982 -32.068981 19.824288 45.631343 -0.895090 1.121375 0.001804 -0.004247 -123385.000000 0 0 1
25.152182 -32.441081 18.577288 45.057426 -0.911287 1.145816 0.019906 0.001526 -655982.000000 0 0 1
25.392282 -31.455981 17.386288 44.006019 -0.891661 1.164632 0.016914 0.006366 -998932.000000 0 0 1
26.706982 -31.389481 16.990188 44.578346 -0.865823 1.179777 -0.004381 0.004638 -944254.000000 0 0 1
26.924582 -30.237781 16.192488 43.605655 -0.843295 1.190345 0.007514 -0.000879 -239515.000000 0 0 1
28.285682 -30.411281 15.497488 44.329425 -0.821595 1.213654 0.009953 0.003711 -505987.000000 0 0 1
28.291382 -31.385881 14.449688 44.657243 -0.837206 1.241298 0.028841 0.011656 273462.000000 0 0 1
28.649482 -32.674781 14.865188 45.928291 -0.850944 1.241200 0.036078 0.001241 -9061.280000 0 0 1
27.812882 -33.814381 14.149288 46.012728 -0.882476 1.258223 0.040546 0.000619 488150.000000 0 0 1
28.255082 -34.069481 12.798788 46.074811 -0.878421 1.289311 0.049180 -0.002579 455299.000000 0 0 1
27.618382 33.509356 12.348088 45.145622 0.881473 1.293749 0.040842 -0.010152 -291898.000000 0 0 1
27.975582 33.181656 10.883088 44.744799 0.870319 1.325106 0.060519 -0.011885 595339.000000 0 0 1
29.300182 32.622856 10.884788 45.179973 0.839005 1.327482 0.035626 -0.007706 783210.000000 0 0 1
29.584582 31.877256 9.700088 44.558934 0.822683 1.351348 0.033427 -0.013352 637972.000000 0 0 1
31.075982 31.393256 9.716688 45.229052 0.790477 1.354276 0.002599 -0.005512 398510.000000 0 0 1
31.273282 30.343256 10.607288 44.846916 0.770306 1.332011 -0.009636 -0.000627 996469.000000 0 0 1
32.659282 29.970356 10.756288 45.613031 0.742491 1.332738 0.005700 -0.002399 911448.000000 0 0 1
32.911282 28.996356 11.952488 45.462106 0.722244 1.304758 0.000420 0.009640 -526979.000000 0 0 1
32.262282 27.807856 11.752288 44.184250 0.711380 1.301572 -0.005765 -0.004755 -8912.030000 0 0 1
32.242282 27.027556 12.972088 44.026453 0.697641 1.271714 0.009211 -0.018605 -162071.000000 0 0 1
32.118482 25.508456 12.653988 42.923206 0.671194 1.271545 -0.004944 -0.014859 574607.000000 0 0 1
33.209382 25.019456 11.830488 43.229581 0.645664 1.293593 -0.005092 -0.005234 520043.000000 0 0 1
33.145082 23.643956 11.760788 42.378641 0.619628 1.289588 -0.002383 -0.008536 -498221.000000 0 0 1
32.051982 22.966056 10.911288 40.912412 0.621731 1.300830 -0.006310 -0.011690 -254333.000000 0 0 1
30.799782 23.077056 11.524688 40.174563 0.643028 1.279843 0.004085 -0.017221 -691718.000000 0 0 1
29.736582 22.590656 10.722788 38.853316 0.649675 1.291186 0.004602 -0.011684 116129.000000 0 0 1
28.609382 22.060956 11.656388 37.961215 0.656875 1.258694 -0.007643 -0.007736 -56369.500000 0 0 1
27.937382 23.065656 12.407288 38.294420 0.690169 1.240845 -0.000382 -0.014121 -446899.000000 0 0 1
27.276182 22.362856 13.400188 37.731319 0.686738 1.207724 0.030917 -0.023145 -610637.000000 0 0 1
24.053182 9.414256 26.254421 36.830400 0.373065 0.777248 0.020080 0.002865 -137324.000000 0 0 1
23.508582 8.184256 26.732351 36.527442 0.335016 0.749774 0.030319 -0.000066 -31116.200000 0 0 1
22.128782 8.268156 26.959241 35.844749 0.357576 0.719536 0.031741 -0.002830 -345789.000000 0 0 1
21.532382 6.970156 27.616811 35.705949 0.313061 0.686528 0.046593 -0.004810 -139566.000000 0 0 1
21.787282 6.716956 29.007351 36.894844 0.299051 0.666133 0.051787 -0.004045 175210.000000 0 0 1
23.120482 6.310256 29.231881 37.800514 0.266440 0.686736 0.047476 -0.008618 -241129.000000 0 0 1
23.396682 6.322456 30.727321 39.134977 0.263925 0.667838 0.047568 -0.012481 -356043.000000 0 0 1
23.335182 7.550256 31.305471 39.768952 0.312926 0.664567 0.051701 -0.009634 373771.000000 0 0 1
23.482782 7.391256 32.680441 40.915558 0.304935 0.645617 0.048517 -0.008261 -273875.000000 0 0 1
23.392682 8.702356 33.573903 41.834860 0.356148 0.639266 0.055894 -0.010640 -27103.500000 0 0 1
24.446882 9.616056 33.313010 42.424936 0.374756 0.667741 0.040643 -0.013741 30905.900000 0 0 1
24.740882 10.217856 -34.246424 43.466462 0.391658 2.478158 0.046173 -0.004366 -52119.200000 0 0 1
25.854182 11.287256 34.378643 44.471698 0.411633 0.687168 0.026993 -0.005768 -280427.000000 0 0 1
25.467082 12.533356 33.822664 44.154613 0.457339 0.698193 0.028881 -0.009269 124881.000000 0 0 1
25.655482 13.628956 -34.063032 44.768765 0.488318 2.435443 0.032820 -0.015823 -484497.000000 0 0 1
24.999682 15.014256 34.305030 45.024960 0.540844 0.704537 0.032053 -0.013646 -513272.000000 0 0 1
25.720982 15.643456 33.302877 44.892852 0.546426 0.735001 0.032979 -0.014298 78143.700000 0 0 1
25.541382 17.040756 33.327581 45.315308 0.588359 0.744452 0.028034 -0.014212 -88591.300000 0 0 1
26.392082 17.882856 34.351948 46.865710 0.595523 0.748094 0.022504 -0.017658 -258775.000000 0 0 1
25.950782 17.789256 -33.071052 45.646415 0.600928 2.381112 0.020962 -0.025690 327616.000000 0 0 1
26.918082 17.294156 -32.127252 45.341275 0.571066 2.358259 0.020781 -0.018247 -259073.000000 0 0 1
26.320582 16.637456 -30.904752 43.871194 0.563695 2.352434 0.018517 -0.012101 -169512.000000 0 0 1
25.664482 15.400056 -31.117502 43.175529 0.540459 2.375638 0.025118 -0.010637 -219576.000000 0 0 1
24.791882 15.121356 -30.076652 41.807868 0.547690 2.373737 0.031245 -0.010021 -394952.000000 0 0 1
23.932682 13.904156 -30.391362 41.106370 0.526309 2.402878 0.036181 -0.007868 -120839.000000 0 0 1
22.866982 14.033556 -31.362352 41.272711 0.550435 2.433926 0.035578 -0.012050 1128520.000000 0 0 1
22.224982 12.780756 -31.653862 40.734071 0.521881 2.460818 0.033746 -0.003085 76194.300000 0 0 1
21.417282 12.007756 -30.574582 39.213406 0.510989 2.464978 0.043381 -0.001977 -338423.000000 0 0 1
20.119982 12.523356 -30.349432 38.506313 0.556752 2.478623 0.041380 0.001661 36486.100000 0 0 1
19.401982 11.702956 -29.501812 37.198830 0.542757 2.486653 0.036638 0.007527 -223343.000000 0 0 1
18.101482 12.306856 -28.932992 36.280027 0.597095 2.493921 0.034619 0.005212 144491.000000 0 0 1
17.045582 12.394056 -29.871352 36.557655 0.628691 2.527163 0.018548 0.006615 -427765.000000 0 0 1
15.847382 12.767756 -29.289062 35.665168 0.678189 2.534348 0.010261 -0.001321 -702757.000000 0 0 1
14.818882 13.286956 -30.372792 36.313206 0.730946 2.561500 0.006886 -0.004601 193947.000000 0 0 1
14.125482 12.218856 -30.961412 36.158522 0.713151 2.598798 0.002048 0.007013 488379.000000 0 0 1
12.841682 12.021356 -30.338832 35.069453 0.752416 2.616160 0.001726 0.003635 235188.000000 0 0 1
11.757382 11.495956 -31.283342 35.341767 0.774156 2.657648 0.006532 0.006842 -428319.000000 0 0 1
11.373782 12.450456 -32.235182 36.379716 0.830560 2.659606 0.000443 0.010407 -120636.000000 0 0 1
10.593382 11.699756 -33.158222 36.722904 0.834986 2.697336 0.003630 0.017137 174727.000000 0 0 1
10.050682 12.537056 -34.365218 37.936291 0.895033 2.704218 0.012357 0.009622 618397.000000 0 0 1
11.027882 12.612856 33.355876 37.327105 0.852342 0.465471 0.006570 0.009358 733658.000000 0 0 1
10.502182 13.390456 32.292011 36.501700 0.905700 0.485008 0.009330 -0.000263 -922877.000000 0 0 1
11.453782 13.445456 31.141841 35.802006 0.865218 0.515928 0.016898 0.002442 -748968.000000 0 0 1
11.641482 12.148256 30.649731 34.964413 0.806697 0.502050 0.005935 0.002831 169899.000000 0 0 1
11.908082 12.109156 29.276631 33.846051 0.793770 0.525658 0.013853 0.001150 -702425.000000 0 0 1
12.415482 10.731456 28.709001 33.068339 0.712772 0.519290 0.019288 0.010762 540668.000000 0 0 1
11.532682 9.597656 28.961061 32.616879 0.694077 0.478001 0.017781 -0.000003 715024.000000 0 0 1
12.198182 8.412656 28.570091 32.184134 0.603756 0.478455 0.010599 -0.005053 -310536.000000 0 0 1
11.446982 7.106256 28.751331 31.751713 0.555571 0.438228 0.007935 -0.004352 -446178.000000 0 0 1
10.248782 7.083656 27.996911 30.643804 0.604776 0.418686 0.013171 -0.010953 -577761.000000 0 0 1
9.362782 6.111556 28.400201 30.521864 0.578306 0.375056 0.010289 -0.017654 -669819.000000 0 0 1
9.574982 4.676456 27.834991 29.804970 0.454328 0.365614 0.028708 -0.006413 -383989.000000 0 0 1
10.712782 4.017956 28.335981 30.558722 0.358825 0.383760 0.016847 0.001698 118049.000000 0 0 1
10.846082 2.771656 27.650521 29.830703 0.250190 0.384690 0.017196 0.003571 13610.000000 0 0 1
11.451282 1.616656 28.526381 30.781485 0.140250 0.385160 0.014563 -0.001610 170526.000000 0 0 1
10.487182 1.293956 29.506801 31.341771 0.122764 0.343882 0.021265 -0.002435 111882.000000 0 0 1
10.697882 0.113456 30.245221 32.081629 0.010605 0.339989 0.024042 -0.006460 48403.200000 0 0 1
9.661882 -0.092744 31.371381 32.825662 -0.009599 0.298778 0.041094 -0.012205 74175.000000 0 0 1
9.791482 0.823056 32.409831 33.866616 0.083861 0.294372 0.016206 -0.013108 -171185.000000 0 0 1
8.547482 1.180056 32.966456 34.076960 0.137192 0.255995 0.022078 -0.015007 -293806.000000 0 0 1
8.551682 2.315856 33.966260 35.102724 0.264464 0.255153 0.017059 -0.012116 -594100.000000 0 0 1
8.674782 3.629656 33.398757 34.697308 0.396280 0.274448 0.009989 -0.006437 311999.000000 0 0 1
9.954182 4.014256 32.919438 34.624982 0.383325 0.315174 -0.001004 0.002388 -151566.000000 0 0 1
9.763682 5.323456 32.127601 33.997814 0.499174 0.333232 -0.007514 -0.000529 -29172.000000 0 0 1
9.685882 6.465156 32.915502 34.914822 0.588567 0.340052 -0.011106 0.005579 153500.000000 0 0 1
9.870182 7.628856 32.117401 34.455005 0.658009 0.370477 -0.016283 0.007334 -234106.000000 0 0 1
10.034882 8.903256 32.929760 35.557501 0.725715 0.386859 -0.004221 0.003856 484744.000000 0 0 1
8.875382 9.328156 33.659604 36.038256 0.810266 0.365356 0.003713 0.000162 267598.000000 0 0 1
8.549282 8.590756 -33.933632 36.033078 0.787818 2.798550 0.002150 0.005925 -249863.000000 0 0 1
7.197982 9.134756 -33.443502 35.407944 0.903429 2.806926 0.005363 0.009779 79289.300000 0 0 1
6.616082 8.353856 -32.366852 34.075982 0.900965 2.823532 0.006247 0.008291 -181938.000000 0 0 1
5.247782 8.673256 -32.317922 33.870528 1.026669 2.837639 0.018861 0.004250 -88640.000000 0 0 1
4.565882 8.017156 -31.092322 32.432307 1.053095 2.853135 0.024036 0.002863 -394484.000000 0 0 1
5.035282 8.658056 -29.901152 31.534027 1.044037 2.818376 0.022213 -0.001115 303014.000000 0 0 1
4.724582 8.005456 -28.655782 30.125784 1.037636 2.827913 0.015424 0.000861 425468.000000 0 0 1
3.206582 7.871056 -28.324052 29.571737 1.183936 2.850073 0.023988 -0.002359 660575.000000 0 0 1
2.458782 6.910656 -29.131052 30.040322 1.228968 2.894926 0.024759 0.004337 38941.600000 0 0 1
1.082182 7.136356 -28.990772 29.875802 1.420299 2.897580 0.036663 0.002820 -750420.000000 0 0 1
0.305382 6.614556 -30.155942 30.874365 1.524661 2.925444 0.038724 0.000029 -545116.000000 0 0 1
0.539082 7.336656 -31.312062 32.164613 1.497450 2.910838 0.034707 0.002679 348786.000000 0 0 1
-0.146918 6.797056 -32.441482 33.146211 -1.549185 2.935016 0.054597 -0.011248 -637103.000000 0 0 1
0.038182 7.710256 -33.657262 34.529129 1.565844 2.916394 0.071328 -0.014403 841953.000000 0 0 1
1.345882 8.011856 -34.207228 35.158721 1.404364 2.908416 0.053727 -0.012223 1092700.000000 0 0 1
2.130782 6.861356 34.192645 34.939310 1.269691 0.207108 0.048830 -0.006191 -318438.000000 0 0 1
1.934582 6.283956 32.798257 33.450805 1.272144 0.197846 0.055513 -0.014879 744418.000000 0 0 1
0.644782 5.653656 32.560981 33.054455 1.457240 0.173011 0.073327 -0.015918 819173.000000 0 0 1
0.464782 5.390956 31.205101 31.670755 1.484794 0.171692 0.088897 -0.018337 89385.300000 0 0 1
1.105482 4.190556 30.447761 30.754658 1.312869 0.141390 0.084934 -0.015842 -49245.300000 0 0 1
0.962082 4.362156 29.044011 29.385516 1.353720 0.152605 0.072494 -0.016890 175261.000000 0 0 1
1.766682 3.490856 28.260601 28.530138 1.102290 0.137567 0.057940 -0.011590 158046.000000 0 0 1
1.743382 4.014456 26.752101 27.107750 1.161095 0.162164 0.062050 -0.013692 96369.300000 0 0 1
2.335482 5.275856 26.589131 27.207922 1.154052 0.213681 0.058133 -0.014227 301.714000 0 0 1
2.165782 5.665156 25.242951 25.961340 1.205642 0.235797 0.051114 -0.010196 -778326.000000 0 0 1
2.723982 7.076156 25.013751 26.137708 1.203329 0.294323 0.037850 -0.008390 229361.000000 0 0 1
4.137482 7.143256 24.867411 26.201774 1.045800 0.320514 0.032355 -0.005186 76006.900000 0 0 1
4.602782 6.758856 23.614151 24.989915 0.972936 0.333363 0.043265 -0.012814 25811.500000 0 1 0
6.171482 6.688956 23.500451 25.201200 0.825614 0.369486 0.039771 -0.012540 1610220.000000 0 0 1
6.959382 5.755756 24.351681 25.972410 0.691019 0.355139 0.041189 -0.009350 708110.000000 0 0 1
6.563982 4.380356 24.317611 25.565984 0.588463 0.313790 0.055505 -0.009444 -669400.000000 0 0 1
6.723882 3.610656 22.972051 24.206663 0.492800 0.320757 0.050446 -0.012942 760559.000000 0 1 0
5.838582 4.032956 21.877151 22.999206 0.604486 0.313652 0.032405 -0.020436 605736.000000 0 1 0
4.496182 3.598556 21.961751 22.704267 0.674959 0.256451 0.040164 -0.021080 -128263.000000 0 1 0
3.609782 4.111156 20.823151 21.529880 0.850244 0.256931 0.032932 -0.031191 -52023.200000 0 1 0
3.349082 5.486356 20.934651 21.899225 1.022737 0.297903 0.034144 -0.036447 -33711.200000 0 1 0
2.024682 5.805156 20.558651 21.458268 1.235215 0.290587 0.019803 -0.017160 -54738.200000 0 1 0
1.682282 7.268456 20.825751 22.121763 1.343352 0.343996 0.020776 0.003282 -96569.000000 0 1 0
2.390382 8.098956 19.960551 21.673269 1.283798 0.400219 0.017678 -0.005552 -25682.100000 0 1 0
1.875982 9.486656 19.984951 22.201671 1.375566 0.450671 0.030338 -0.006479 372589.000000 0 1 0
2.934082 10.487456 19.486351 22.322935 1.298000 0.509621 0.036781 -0.015823 -408988.000000 0 1 0
3.175482 10.449656 18.093751 21.134398 1.275780 0.543067 0.021737 -0.017012 176186.000000 0 1 0
4.257582 11.305956 17.688151 21.420138 1.210642 0.599227 0.022857 -0.019070 710583.000000 0 1 0
5.692682 10.784456 17.937551 21.690247 1.085110 0.597069 0.032628 -0.023071 -294990.000000 0 1 0
5.895582 9.586656 17.220051 20.571631 1.019436 0.578877 0.026944 -0.023667 213579.000000 0 1 0
7.212082 9.065056 17.359951 20.870008 0.898749 0.588430 0.035235 -0.023689 294242.000000 0 1 0
7.314182 7.643056 17.892151 20.785635 0.807382 0.533969 0.040254 -0.019112 -381758.000000 0 1 0
7.111582 7.613856 19.294151 21.927372 0.819494 0.495120 0.040801 -0.017410 -102674.000000 0 1 0
7.252482 6.298656 19.823451 22.028181 0.715127 0.451226 0.051087 -0.023219 344096.000000 0 1 0
8.712382 5.846156 20.073651 22.650267 0.591008 0.481625 0.063015 -0.016128 344755.000000 0 1 0
9.527382 5.734756 18.893151 21.922809 0.541833 0.531982 0.055528 -0.021337 -59035.800000 0 1 0
10.833182 5.257256 19.148951 22.620320 0.451812 0.561349 0.074501 -0.025983 245736.000000 0 1 0
10.904582 3.673556 19.020651 22.230386 0.324941 0.544059 0.086403 -0.026223 -362074.000000 0 1 0
10.188582 3.027156 20.053851 22.696427 0.288806 0.487368 0.071871 -0.024791 45849.700000 0 1 0
10.321582 1.646156 19.953551 22.525298 0.158155 0.482520 0.066809 -0.035476 15835.100000 0 1 0
9.416682 0.988256 21.025651 23.059240 0.104565 0.423125 0.071534 -0.021843 202675.000000 0 1 0
9.847282 1.043456 22.398351 24.489669 0.105570 0.416269 0.051850 -0.015970 -298595.000000 0 1 0
9.000482 0.261456 23.154351 24.843530 0.029041 0.370884 0.064019 -0.024046 -688095.000000 0 1 0
9.337282 0.256456 24.712541 26.418938 0.027459 0.361379 0.064551 -0.009216 -29463.600000 0 0 1
10.508482 -0.389944 25.160591 27.269682 -0.037091 0.395879 0.052894 -0.009514 101833.000000 0 0 1
10.513782 -1.757944 24.912511 27.097291 -0.165671 0.404313 0.049462 -0.009757 -516800.000000 0 0 1
11.858682 -2.407344 25.236951 27.987985 -0.200281 0.447096 0.029848 -0.003582 -198547.000000 0 0 1
11.799482 -3.789244 24.986251 27.890838 -0.310734 0.460436 0.031719 0.000824 -66588.700000 0 0 1
13.027982 -4.317144 25.403681 28.874089 -0.319987 0.495336 0.034386 0.002905 -124840.000000 0 0 1
12.855282 -5.855444 25.440911 29.099561 -0.427410 0.506864 0.038666 -0.005154 -92752.400000 0 0 1
12.879082 -6.461644 24.199231 28.164275 -0.465020 0.537059 0.039065 -0.012351 75581.400000 0 0 1
12.396882 -7.765644 24.260571 28.329546 -0.559619 0.542598 0.045202 -0.026729 -238593.000000 0 0 1
12.698182 -8.744644 23.111951 27.782636 -0.603070 0.588301 0.063920 -0.022075 -370005.000000 0 0 1
12.000482 -9.927944 23.310151 28.034599 -0.691164 0.589034 0.057405 -0.011377 -457932.000000 0 0 1
12.036782 -10.752644 22.187851 27.437277 -0.729110 0.628899 0.050807 -0.023274 41608.700000 0 0 1
11.333082 -12.092944 22.404251 27.868055 -0.817823 0.636905 0.050049 -0.014557 -149952.000000 0 0 1
9.927582 -11.974544 22.407651 27.277269 -0.878587 0.606800 0.031066 -0.008917 -709791.000000 0 0 1
9.406382 -13.218544 22.667851 27.875462 -0.952324 0.621196 0.030895 -0.005413 -247331.000000 0 0 1
7.888982 -13.045844 22.896751 27.508022 -1.026919 0.587433 0.023600 -0.001352 -45352.900000 0 0 1
7.138182 -12.662344 21.763051 26.170957 -1.057471 0.588863 0.019677 -0.006189 -906243.000000 0 0 1
5.870782 -12.287144 22.182451 26.028852 -1.125067 0.550572 0.007695 -0.007906 -520284.000000 0 0 1
5.247682 -11.089944 21.450951 24.711704 -1.128824 0.519539 -0.005676 -0.002052 192987.000000 0 1 0
5.583582 -9.832944 22.059251 24.788580 -1.054356 0.473680 0.001088 -0.002866 210261.000000 0 1 0
4.835682 -8.813344 21.374451 23.620457 -1.068969 0.439622 -0.008371 0.005560 439032.000000 0 1 0
5.169882 -7.424044 22.028351 23.813701 -0.962511 0.389686 -0.004037 0.001787 295938.000000 0 1 0
4.419582 -6.384544 21.435651 22.798733 -0.965303 0.347543 -0.014930 0.002006 -7392.140000 0 1 0
5.085982 -5.188744 21.752851 22.934184 -0.795399 0.322360 0.020494 -0.014451 -309539.000000 0 1 0
-7.826318 -15.391644 -20.540112 26.833751 1.100389 2.442549 0.014161 0.000763 -194570.000000 0 0 1
-7.326418 -14.831944 -19.362212 25.466806 1.111991 2.434559 0.015516 -0.002677 -42726.500000 0 0 1
-6.496618 -13.696544 -19.650312 24.818061 1.127899 2.484505 0.014391 -0.011044 371660.000000 0 1 0
-5.874718 -13.221544 -18.305612 23.332745 1.152668 2.472760 0.012753 -0.009766 -187882.000000 0 1 0
-4.964118 -14.169544 -17.846012 23.321634 1.233821 2.442168 0.015959 -0.003648 -508104.000000 0 1 0
-4.146718 -13.621344 -16.831612 22.046303 1.275282 2.439460 0.015558 -0.006592 427359.000000 0 1 0
-3.144618 -14.737044 -16.338012 22.226105 1.360567 2.396584 0.018817 0.004553 8041.530000 0 1 0
-2.094418 -14.984944 -17.209612 22.915189 1.431928 2.420392 0.014457 0.009292 -39729.200000 0 1 0
-1.201118 -15.990744 -16.660712 23.124141 1.495824 2.375305 0.016090 0.016230 2024730.000000 0 1 0
0.182082 -16.305044 -17.422312 23.862619 -1.559630 2.389278 0.012208 0.022062 1524280.000000 0 1 0
0.081282 -17.168944 -18.592612 25.307400 -1.566062 2.395978 0.031291 0.011518 -85217.700000 0 0 1
-0.303518 -18.545844 -18.367812 26.103965 1.554432 2.351305 0.024908 0.015408 -180441.000000 0 0 1
-0.813918 -19.309444 -19.619712 27.539975 1.528670 2.363721 0.030860 0.011395 -327490.000000 0 0 1
-2.103718 -18.835644 -19.886512 27.471449 1.459569 2.380231 0.057589 -0.001060 -616985.000000 0 0 1
-2.515518 -19.238944 -21.142812 28.696399 1.440783 2.399086 0.050193 -0.008464 -331067.000000 0 0 1
-3.502718 -18.232744 -21.735212 28.585336 1.380997 2.434667 0.048609 -0.001373 -52331.400000 0 0 1
-3.028518 -16.852144 -21.836312 27.748716 1.392983 2.476615 0.046414 0.002351 46524.300000 0 0 1
-3.271418 -16.161744 -20.587212 26.376836 1.371077 2.466267 0.027860 0.000763 333583.000000 0 0 1
-2.335518 -14.910344 -20.505612 25.460816 1.415421 2.507111 0.029272 0.006875 85114.600000 0 0 1
-2.584118 -13.926944 -21.508412 25.753626 1.387335 2.559221 0.024791 -0.000249 443046.000000 0 0 1
-1.569618 -12.896144 -21.585612 25.193509 1.449680 2.599814 0.001235 0.016937 608711.000000 0 0 1
-1.632818 -11.892444 -22.803312 25.769893 1.434351 2.657037 0.005388 0.021576 -174229.000000 0 0 1
-2.671318 -10.957444 -22.702212 25.349398 1.331671 2.680512 0.008406 0.000081 -107380.000000 0 0 1
-2.870318 -10.418144 -24.021412 26.340173 1.301955 2.718854 0.012746 -0.000595 -154730.000000 0 0 1
-3.779418 -9.172844 -24.039712 26.006400 1.179969 2.750195 0.006608 0.001731 -423949.000000 0 0 1
-5.107018 -9.425644 -23.642312 25.959263 1.074254 2.715885 0.019985 -0.012788 -209962.000000 0 0 1
-5.778018 -8.223744 -23.925812 25.951107 0.958326 2.743901 0.021943 -0.009730 -1260000.000000 0 0 1
-7.272218 -8.273844 -23.605012 26.048767 0.849739 2.704971 0.013559 -0.017372 -202666.000000 0 0 1
-8.162418 -8.699544 -24.623312 27.360823 0.817242 2.690446 0.015866 -0.011288 286555.000000 0 0 1
-8.382118 -7.661944 -25.593262 27.999649 0.740541 2.723972 0.018287 -0.012805 -310152.000000 0 0 1
-9.047718 -8.145844 -26.908732 29.534655 0.732992 2.716717 0.012824 -0.011837 557140.000000 0 0 1
-9.696618 -7.097944 -27.677092 30.173277 0.631883 2.731971 0.025980 -0.012560 367641.000000 0 0 1
-10.354018 -7.573344 -28.845682 31.569520 0.631517 2.723141 0.027607 -0.008406 -560264.000000 0 0 1
-11.290018 -6.619244 -29.472542 32.247630 0.530279 2.723696 0.039924 -0.014863 -800327.000000 0 0 1
-10.655218 -5.586844 -30.195522 32.504093 0.482921 2.762433 0.023903 -0.006767 -29209.200000 0 0 1
-11.448818 -5.024044 -31.234472 33.643851 0.413523 2.760842 0.052713 -0.013968 -455339.000000 0 0 1
-10.718518 -3.916544 -31.953602 33.930202 0.350328 2.798578 0.032492 -0.015993 -367110.000000 0 0 1
-9.807318 -4.431844 -32.893282 34.609142 0.424426 2.825386 0.033721 -0.012861 9832.860000 0 0 1
-9.379918 -3.408544 -33.796642 35.239382 0.348551 2.854457 0.031531 -0.016712 19264.800000 0 0 1
-8.248918 -3.873944 33.991221 35.191692 0.439058 0.261947 0.021766 -0.019256 472787.000000 0 0 1
-6.969818 -3.823644 -34.166532 35.079204 0.501768 2.912984 0.018661 -0.015588 125793.000000 0 0 1
-5.975618 -4.306944 33.701642 34.497224 0.624519 0.215181 0.011523 -0.018082 1785770.000000 0 0 1
-4.467018 -4.048944 34.160233 34.688178 0.736345 0.174691 0.020369 -0.017322 1520490.000000 0 0 1
-4.284118 -2.661144 34.217570 34.587244 0.555837 0.146337 0.031690 -0.022470 165371.000000 0 0 1
-2.911718 -2.341244 -34.368058 34.570550 0.677222 3.033305 0.032733 -0.025934 298191.000000 0 0 1
-2.726918 -0.914444 -33.870082 33.991981 0.323555 3.056878 0.051651 -0.025546 -208695.000000 0 0 1
-2.963618 -0.736844 -32.483042 32.626278 0.243689 3.047855 0.046855 -0.025734 109892.000000 0 0 1
-3.511118 0.500056 -32.189812 32.384595 -0.141469 3.031859 0.064098 -0.027283 -860982.000000 0 0 1
-3.943118 0.580756 -30.664292 30.922229 -0.146232 3.012340 0.083974 -0.030461 1087430.000000 0 0 1
-5.127418 -0.170644 -30.343072 30.773715 0.033268 2.974102 0.058101 -0.027275 247253.000000 0 0 1
-6.343318 0.356356 -30.777342 31.426254 -0.056119 2.938024 0.061761 -0.025946 -699340.000000 0 0 1
-7.492618 -0.683544 -30.696952 31.605528 0.090977 2.901234 0.052003 -0.022564 45793.900000 0 0 1
-7.899818 -0.934644 -29.376472 30.434484 0.117765 2.877143 0.041826 -0.018194 409514.000000 0 0 1
-8.853118 -2.022744 -29.374982 30.746687 0.224623 2.841763 0.027226 -0.007557 512121.000000 0 0 1
-9.224818 -2.567144 -27.958312 29.552575 0.271419 2.811627 0.028459 -0.006648 -130949.000000 0 0 1
-10.087018 -1.804044 -27.142382 29.012263 0.176977 2.780605 0.031618 -0.008530 234614.000000 0 0 1
-10.313118 -2.521644 -25.953472 28.041074 0.239803 2.753287 0.031283 -0.010650 -358493.000000 0 0 1
-11.122118 -1.727844 -24.974912 27.394036 0.154120 2.718179 0.030078 -0.007874 -235043.000000 0 0 1
-10.409018 -0.641744 -24.382712 26.519354 0.061575 2.737427 0.024649 -0.011587 39303.600000 0 0 1
-11.227518 0.149356 -23.561712 26.100455 -0.013302 2.696874 0.033558 -0.010489 -304383.000000 0 0 1
-10.562418 1.429056 -23.111212 25.450638 -0.134480 2.709472 0.032165 -0.010279 -49572.600000 0 0 1
-10.449518 2.433756 -24.141412 26.418239 -0.228827 2.723379 0.032962 -0.011151 -366490.000000 0 0 1
-9.630018 3.458456 -23.724112 25.836634 -0.344788 2.734398 0.026513 -0.009336 -812713.000000 0 0 1
-9.617218 4.690556 -24.669012 26.889633 -0.453779 2.732337 0.036261 -0.013989 -309779.000000 0 0 1
-10.842218 5.329656 -24.955712 27.726278 -0.456877 2.690736 0.046725 -0.009363 -87368.400000 0 0 1
-11.534218 4.787256 -26.076022 28.912193 -0.393411 2.694954 0.037021 -0.018619 280168.000000 0 0 1
-12.933518 5.423156 -26.312742 29.816890 -0.397041 2.651901 0.038443 -0.012785 379798.000000 0 0 1
-12.880018 6.761756 -26.731862 30.433676 -0.483432 2.643226 0.037748 -0.015725 603019.000000 0 0 1
-14.209618 7.207156 -27.014012 31.362608 -0.469393 2.608707 0.047869 -0.019522 538745.000000 0 0 1
-14.286818 8.740356 -27.288602 32.018351 -0.549035 2.591125 0.066882 -0.015474 -329132.000000 0 0 1
-14.018918 9.507056 -26.140192 31.148416 -0.595917 2.566633 0.076515 -0.021335 -240733.000000 0 0 1
-14.656618 10.747256 -26.140342 31.837673 -0.632708 2.534045 0.077380 -0.025424 -363470.000000 0 0 1
-14.408118 11.608756 -24.891612 31.015309 -0.678213 2.502369 0.070405 -0.020306 -350538.000000 0 0 1
-14.918718 11.197156 -23.638412 30.111775 -0.643849 2.473528 0.089347 -0.014092 -95690.600000 0 0 1
-14.633818 12.121456 -22.607412 29.532582 -0.691771 2.442626 0.086356 -0.014572 -311643.000000 0 0 1
-15.518518 12.144956 -21.344012 29.049806 -0.664047 2.396078 0.084744 -0.011956 102667.000000 0 0 1
-16.823518 12.662356 -21.440412 30.050911 -0.645200 2.365234 0.067633 -0.012748 -16846.300000 0 0 1
-17.472018 13.011556 -20.250612 29.743222 -0.640106 2.319716 0.060051 -0.000728 -188312.000000 0 0 1
-18.983618 13.207256 -20.428512 30.856660 -0.607847 2.294341 0.050158 -0.009099 -137945.000000 0 0 1
-19.413618 14.438356 -21.050912 32.070166 -0.639472 2.286835 0.046788 -0.013499 -201498.000000 0 0 1
-20.788918 14.665256 -21.121412 33.066038 -0.614365 2.263688 0.032909 -0.011762 -357541.000000 0 0 1
-21.141618 16.067856 -21.697912 34.292031 -0.649877 2.255882 0.023882 -0.013946 -223706.000000 0 0 1
-20.933818 16.189056 -23.091312 35.121489 -0.658275 2.288252 0.030960 -0.013004 149819.000000 0 0 1
-21.193018 17.527356 -23.522812 36.189431 -0.691009 2.278369 0.009561 -0.003201 -8787.440000 0 0 1
-21.042118 17.693156 -25.040712 37.186768 -0.699155 2.309563 0.009007 -0.003063 84008.700000 0 0 1
-19.700918 17.783656 -25.474732 36.787859 -0.734295 2.335713 0.022392 -0.010782 241039.000000 0 0 1
-19.593418 17.106256 -26.698862 37.274056 -0.717731 2.369261 0.019004 -0.020863 -465598.000000 0 0 1
-18.637618 17.775156 -27.700942 37.824055 -0.761717 2.392582 0.007129 -0.012110 -292208.000000 0 0 1
-18.986718 19.073456 -28.198102 38.979804 -0.787677 2.379515 -0.016634 -0.018458 373066.000000 0 0 1
-18.291418 20.126956 -27.542872 38.707624 -0.833139 2.362515 -0.025853 -0.023905 -1165450.000000 0 0 1
-18.987518 21.517556 -27.673712 39.866846 -0.847779 2.338040 0.006574 -0.026110 585418.000000 0 0 1
-20.131218 21.854756 -26.896062 40.078603 -0.826425 2.306465 0.023484 -0.018377 1163830.000000 0 0 1
-21.262218 20.974256 -27.023162 40.277197 -0.778580 2.306258 0.046152 -0.026231 -773896.000000 0 0 1
-22.406718 21.315456 -26.096802 40.465451 -0.760444 2.271709 0.051243 -0.018003 -545659.000000 0 0 1
-22.139818 21.056056 -24.694812 39.285656 -0.760314 2.250543 0.023155 -0.014755 30048.800000 0 0 1
-22.880918 21.918756 -23.861312 39.665230 -0.763924 2.216258 0.010484 -0.024422 -480785.000000 0 0 1
-22.885918 21.524256 -22.354312 38.558710 -0.754747 2.189215 -0.001915 -0.008689 -347263.000000 0 0 1
-21.686018 21.859456 -21.720112 37.681328 -0.789381 2.185132 0.000822 -0.005797 -476511.000000 0 0 1
-20.885918 20.832456 -21.246812 36.354364 -0.784117 2.194982 0.007909 -0.004465 -378487.000000 0 0 1
-21.408618 20.243156 -19.926412 35.569315 -0.757424 2.165440 0.028821 -0.014151 -1117990.000000 0 0 1
-22.363018 19.244356 -20.175212 35.741978 -0.710583 2.170585 0.037555 -0.013356 264103.000000 0 0 1
-23.035318 18.810956 -18.962212 35.271000 -0.684789 2.138402 0.024618 -0.004212 13538.900000 0 0 1
-24.106018 19.755256 -18.391112 36.188441 -0.686528 2.103895 -0.011729 0.001054 -878841.000000 0 0 1
-25.086538 19.973556 -19.401512 37.479274 -0.672411 2.114910 -0.004653 0.009416 -61616.300000 0 0 1
-25.904218 21.037356 -18.951612 38.376587 -0.682088 2.087288 -0.007304 0.005052 488874.000000 0 0 1
-27.427858 20.806656 -19.364412 39.499174 -0.648980 2.083171 -0.014594 0.005140 1092810.000000 0 0 1
-28.031258 19.609156 -18.838812 39.053441 -0.610421 2.074172 -0.003646 0.012212 193824.000000 0 0 1
-28.227368 19.562356 -17.425912 38.511459 -0.606031 2.040348 -0.017789 0.012566 -897945.000000 0 0 1
-29.185578 18.449156 -16.993212 38.482965 -0.563712 2.028152 -0.024985 0.016693 -411591.000000 0 0 1
-28.606578 17.162856 -16.940712 37.415073 -0.540391 2.040675 -0.016720 0.014588 -229776.000000 0 0 1
-29.524118 16.292756 -16.351812 37.476782 -0.504259 2.022299 -0.018837 0.007482 16122.300000 0 0 1
-28.933488 14.932556 -15.775912 36.180207 -0.476444 2.021987 0.012021 0.008796 -356582.000000 0 0 1
-28.272678 15.014856 -14.529212 35.155202 -0.488196 1.996858 0.017622 0.010760 372530.000000 0 0 1
-29.085748 15.104956 -13.323612 35.378794 -0.478988 1.956918 -0.011301 0.017975 168058.000000 0 0 1
-28.343028 15.716156 -12.142812 34.608853 -0.506290 1.929284 0.010303 0.002812 -338585.000000 0 0 1
-27.883198 17.057656 -12.342412 34.939540 -0.549017 1.931840 0.005408 0.008850 -229461.000000 0 0 1
-28.887698 18.029256 -12.241412 36.185706 -0.557963 1.915900 -0.008331 0.007042 -555647.000000 0 0 1
-28.454038 19.468656 -12.496212 36.671735 -0.600053 1.918520 0.020322 0.004128 -125149.000000 0 0 1
-27.621778 19.958656 -11.479312 35.959493 -0.625713 1.895712 -0.011583 -0.012397 55503.000000 0 0 1
-26.641938 20.862456 -11.952712 35.887355 -0.664331 1.910345 -0.009983 -0.013945 116300.000000 0 0 1
-25.871078 21.660456 -10.922412 35.465294 -0.697043 1.883860 0.017922 -0.015736 208042.000000 0 0 1
-26.547288 22.824456 -10.490612 36.548149 -0.710136 1.861927 0.020176 -0.022709 658912.000000 0 0 1
-25.574068 23.879656 -10.342412 36.486112 -0.751149 1.858198 0.022770 -0.017486 566828.000000 0 0 1
-26.171438 25.048456 -9.551112 37.464557 -0.763477 1.828579 0.047075 -0.002030 -223816.000000 0 0 1
-26.156518 24.655856 -8.226812 36.874857 -0.755873 1.795791 0.043769 -0.014515 346142.000000 0 0 1
-27.120818 25.314456 -7.403312 37.830801 -0.750962 1.767763 0.047238 -0.013494 337197.000000 0 0 1
-26.997118 24.744256 -5.941912 37.100255 -0.741885 1.731647 0.055668 -0.018037 15936.900000 0 0 1
-27.348128 23.362556 -5.931712 36.454277 -0.706965 1.734240 0.063320 -0.023625 96795.200000 0 0 1
-27.380738 22.865656 -4.598112 35.967842 -0.695780 1.698987 0.045952 -0.023858 -225071.000000 0 0 1
-27.472688 21.362056 -4.703612 35.117090 -0.660916 1.705141 0.035884 -0.016713 428444.000000 0 0 1
-26.449878 20.568256 -5.339912 33.928806 -0.660952 1.728839 0.033723 -0.019507 353820.000000 0 0 1
-26.411888 20.613456 -6.775512 34.182012 -0.662713 1.770336 0.026050 -0.017209 -926931.000000 0 0 1
-27.208658 19.615156 -7.619712 34.396590 -0.624626 1.794175 0.022806 -0.012919 -413715.000000 0 0 1
-26.853338 18.252756 -7.479912 33.319873 -0.596985 1.797214 0.010879 -0.001264 277093.000000 0 0 1
-27.136188 17.508056 -8.654312 33.433544 -0.572988 1.832629 -0.001640 0.004877 -215235.000000 0 0 1
-26.673438 16.063256 -8.736212 32.339170 -0.542050 1.844338 0.025467 0.014085 -502424.000000 0 0 1
-27.493988 15.204856 -8.041112 32.430950 -0.505162 1.821355 0.007291 0.011947 -382749.000000 0 0 1
-27.251948 13.913456 -8.388312 31.727223 -0.472051 1.838366 0.025739 0.002083 -298263.000000 0 0 1
-27.969048 12.863756 -7.565812 31.701504 -0.431080 1.811780 0.025447 -0.004644 -2816.560000 0 0 1
-29.381238 12.925856 -7.717312 33.013509 -0.414453 1.806742 0.022483 -0.004029 141539.000000 0 0 1
-30.011558 12.015156 -6.839612 33.042970 -0.380809 1.779295 0.030427 -0.017301 115110.000000 0 0 1
-30.606518 10.669856 -7.412812 33.249881 -0.335439 1.795628 0.024779 -0.010798 531787.000000 0 0 1
-29.556898 9.790056 -7.830812 32.105717 -0.319854 1.817189 0.040558 -0.005645 354086.000000 0 0 1
-30.131908 8.679556 -8.442312 32.473669 -0.280460 1.833792 0.020720 -0.007735 -984900.000000 0 0 1
-29.217218 7.694456 -9.065212 31.544073 -0.257507 1.862289 0.060818 -0.009271 -1267670.000000 0 0 1
-28.667988 8.134456 -10.262712 31.517395 -0.276480 1.902464 0.059831 -0.015985 69949.100000 0 0 1
-27.996978 7.008156 -10.799612 30.815202 -0.245278 1.928863 0.084756 -0.017588 -317705.000000 0 0 1
-27.280358 7.201856 -12.160912 30.724135 -0.258106 1.977746 0.073435 -0.011018 257417.000000 0 0 1
-26.082588 7.973656 -12.122612 29.846915 -0.296685 1.989044 0.083629 -0.015130 641893.000000 0 0 1
-25.307568 7.822556 -13.264012 29.624304 -0.299784 2.035034 0.067632 0.001799 -335671.000000 0 0 1
-31.066698 26.017056 -34.142171 52.987874 -0.697168 2.270955 0.004563 0.004252 -125218.000000 0 0 1
-31.676358 27.236256 34.323922 54.067891 -0.710173 0.883008 0.005477 -0.000795 143028.000000 0 0 1
-31.392628 27.639556 33.021917 53.290610 -0.721907 0.902490 0.019735 -0.007493 -353409.000000 0 0 1
-31.931358 29.035056 32.853941 54.240460 -0.737927 0.920140 0.027313 -0.018943 -103683.000000 0 0 1
-31.998318 29.501756 31.523001 53.739608 -0.744826 0.943957 0.042768 -0.019536 120931.000000 0 0 1
-32.437118 30.830656 31.550061 54.754929 -0.760012 0.956719 0.044602 -0.019382 -94355.800000 0 0 1
-32.256768 31.482156 30.151951 54.228824 -0.773246 0.981215 0.048691 -0.018418 298339.000000 0 0 1
-30.956268 31.373856 29.581491 53.081767 -0.792098 0.979688 0.037849 -0.018291 336765.000000 0 0 1
-30.772608 32.372956 28.580501 53.026472 -0.810737 1.001564 0.049612 -0.009822 1175840.000000 0 0 1
-29.328358 32.267256 27.929821 51.782268 -0.833075 1.001107 0.057825 -0.011373 628466.000000 0 0 1
-29.153768 31.150056 27.088791 50.537815 -0.818490 1.005092 0.060923 -0.016762 -111889.000000 0 0 1
-27.923018 31.090556 26.413761 49.436872 -0.839021 1.007126 0.049076 -0.007772 -201881.000000 0 0 1
-27.888118 31.799656 25.064961 49.165206 -0.850838 1.035831 0.059028 -0.010516 -236477.000000 0 0 1
-27.794908 33.217256 25.320661 50.170498 -0.874038 1.041771 0.054394 -0.012890 590840.000000 0 0 1
-28.687358 33.956656 24.437061 50.726610 -0.869316 1.068157 0.050932 -0.009680 478298.000000 0 0 1
-28.936938 -33.394081 24.970591 50.754719 0.856784 1.056427 0.058428 -0.011227 42593.100000 0 0 1
-29.703308 -33.527581 26.169581 51.877087 0.845806 1.042047 0.055275 -0.010787 389907.000000 0 0 1
-29.609348 -32.311881 26.956061 51.452895 0.829015 1.019376 0.047690 -0.015235 -116843.000000 0 0 1
-30.030018 -32.521081 28.443521 52.616125 0.825202 0.999663 0.051074 -0.017622 309604.000000 0 0 1
-31.432458 -32.628181 28.659671 53.609462 0.804061 1.006761 0.044830 -0.017683 318345.000000 0 0 1
-31.741568 -32.901281 30.041821 54.704044 0.803337 0.989426 0.035241 -0.012938 -1054860.000000 0 0 1
-33.208318 -33.013381 30.315971 55.782917 0.782454 0.996239 0.048426 -0.013176 -1039880.000000 0 0 1
-33.442998 -33.411181 31.673531 56.903020 0.784922 0.980481 0.037594 -0.013917 -46144.800000 0 0 1
-34.820818 -33.652281 31.862641 57.967174 0.768334 0.988831 0.044823 -0.019276 -53755.300000 0 0 1
-35.255233 -34.178281 33.214481 59.281431 0.769889 0.976067 0.030035 -0.013458 -242057.000000 0 0 1
-34.810314 33.279856 33.498115 58.663706 -0.762925 0.963049 0.010538 -0.003795 -351284.000000 0 0 1
-35.579783 32.682956 -34.271325 59.233608 -0.742987 2.187782 0.010317 -0.006149 -127448.000000 0 0 1
-35.147125 31.303156 -33.780732 57.933978 -0.727615 2.193324 -0.000077 -0.001332 157933.000000 0 0 1
-33.986148 31.324656 -32.969162 56.773744 -0.744670 2.190399 0.000760 0.001900 -207874.000000 0 0 1
-33.592168 30.029356 -32.601882 55.615454 -0.729456 2.197159 0.001011 -0.002406 323439.000000 0 0 1
-32.837268 29.973856 -31.214082 54.323449 -0.739842 2.182908 0.006959 -0.000933 506728.000000 0 0 1
-33.563408 30.282056 -30.005382 54.257057 -0.734048 2.156784 -0.000983 -0.006233 -82583.700000 0 0 1
-34.088918 31.629056 -29.881862 55.275466 -0.747985 2.141945 -0.009330 0.003249 336336.000000 0 0 1
-35.005807 31.734256 -28.637002 55.249863 -0.736418 2.115679 -0.009488 0.004085 37361.400000 0 0 1
-34.341594 31.372456 -27.473772 54.022072 -0.740246 2.104314 -0.012273 -0.004627 170314.000000 0 0 1
-35.349652 31.163956 -26.473252 54.052041 -0.722551 2.082626 0.003046 -0.002740 553487.000000 0 0 1
-34.848582 30.806556 -25.004012 52.807842 -0.723911 2.064046 0.007473 -0.004560 51286.700000 0 0 1
-34.339176 31.932356 -24.252612 52.792457 -0.749097 2.048111 0.019092 -0.009020 22744.500000 0 0 1
-33.963268 31.640556 -22.908112 51.763017 -0.750008 2.029245 0.018259 -0.012444 -806424.000000 0 0 1
-35.082940 31.432956 -21.891012 51.942851 -0.730579 2.005834 0.016968 -0.007064 -1342210.000000 0 0 1
35.663154 32.543356 -21.842312 52.990727 0.739690 1.995654 0.019325 -0.016178 -606866.000000 0 0 1
-35.502032 33.643056 -21.022712 53.237242 -0.758519 1.976742 0.028723 -0.022338 -331455.000000 0 0 1
-35.471370 33.415456 -19.455312 52.472087 -0.755562 1.950639 0.022562 -0.018611 -46612.300000 0 0 1
-34.241116 32.845956 -19.072612 51.137808 -0.764605 1.952999 0.027043 -0.019898 -131443.000000 0 0 1
-34.200338 32.359156 -17.759112 50.320613 -0.757743 1.931486 0.034719 -0.017202 -662110.000000 0 0 1
-32.863978 31.767056 -17.383712 48.901742 -0.768428 1.934227 0.026435 -0.005113 -705461.000000 0 0 1
-32.881378 31.291456 -16.022012 48.135695 -0.760628 1.910122 0.032838 -0.005279 -62846.000000 0 0 1
-31.637348 30.730556 -15.656512 46.801872 -0.770860 1.911900 0.028218 -0.000514 -205680.000000 0 0 1
-31.340848 30.648456 -14.129312 46.056640 -0.774229 1.882606 0.030931 -0.003055 -432621.000000 0 0 1
-32.220528 29.843956 -13.383012 45.912189 -0.747125 1.866582 0.028013 -0.002832 -150302.000000 0 0 1
-31.760538 29.396856 -12.116312 44.941205 -0.746768 1.843778 0.039767 -0.004532 -369782.000000 0 0 1
-32.752298 28.513856 -11.363412 44.887416 -0.716327 1.826735 0.024788 -0.008902 -262246.000000 0 0 1
-32.175778 27.934456 -10.207312 43.815565 -0.714956 1.805918 0.043997 -0.002146 555587.000000 0 0 1
-33.066978 26.950856 -9.657412 43.738304 -0.683844 1.793431 0.027618 -0.002924 -544132.000000 0 0 1
-32.397108 26.100056 -8.667912 42.496097 -0.678164 1.776207 0.031646 0.001009 -294554.000000 0 0 1
-32.272088 26.736556 -7.361612 42.550258 -0.691863 1.744681 0.034043 -0.002152 21696.400000 0 0 1
-31.148178 27.585156 -7.350012 42.251302 -0.724808 1.745645 0.044284 -0.007700 -771203.000000 0 0 1
-30.850368 27.951756 -5.863312 42.040746 -0.736144 1.710720 0.054779 -0.013709 -362276.000000 0 0 1
-29.950218 27.078756 -5.237912 40.714989 -0.735090 1.699802 0.057529 -0.016830 128016.000000 0 0 1
-30.046978 27.228756 -3.836012 40.730100 -0.736233 1.665117 0.058002 -0.015094 122323.000000 0 0 1
-29.277658 26.130856 -3.024012 39.359212 -0.728666 1.647703 0.063366 -0.019223 -23401.400000 0 0 1
-29.952848 24.917856 -2.950312 39.073994 -0.693893 1.646374 0.061637 -0.013794 -202576.000000 0 0 1
-29.395228 24.188056 -1.915712 38.115764 -0.688523 1.621078 0.030236 -0.014315 -245203.000000 0 0 1
-30.221858 22.974756 -1.533912 37.994118 -0.649999 1.611180 0.037938 -0.019815 -654363.000000 0 0 1
-30.253938 21.981556 -2.467712 37.477716 -0.628335 1.636689 0.027352 -0.014013 -563439.000000 0 0 1
-31.390258 21.211956 -2.330312 37.956893 -0.594264 1.632229 0.039652 -0.008128 -645228.000000 0 0 1
-31.701018 20.366456 -3.599112 37.851033 -0.571052 1.666026 0.041027 -0.004526 248253.000000 0 0 1
-30.653548 19.428256 -3.886712 36.499365 -0.564903 1.677486 0.034221 -0.013096 352212.000000 0 0 1
-30.854248 18.709056 -5.120412 36.444918 -0.545089 1.711760 0.031345 -0.006753 128111.000000 0 0 1
-29.678238 17.748656 -5.453612 35.007920 -0.538974 1.727216 0.037143 -0.002690 61892.900000 0 0 1
-29.465018 16.730456 -4.514412 34.182969 -0.516412 1.703249 0.044949 -0.012181 228759.000000 0 0 1
-28.788438 15.593756 -5.030212 33.124650 -0.496423 1.723243 0.029470 -0.009233 -322103.000000 0 0 1
-28.541988 14.432956 -4.090512 32.244187 -0.468177 1.698000 0.033261 -0.016194 -406984.000000 0 0 1
-29.663088 13.702456 -3.638812 32.876999 -0.432736 1.681703 0.053011 -0.020147 205131.000000 0 0 1
-29.298208 12.502856 -2.998212 31.995245 -0.403348 1.664642 0.052370 -0.026567 366804.000000 0 0 1
-30.547038 11.710556 -2.503512 32.810459 -0.366081 1.647173 0.065370 -0.030125 192302.000000 0 0 1
-31.390058 11.189256 -3.498112 33.507790 -0.342417 1.675384 0.058382 -0.022118 -8163.050000 0 0 1
-32.438278 10.458856 -2.937012 34.208999 -0.311900 1.656757 0.065631 -0.019650 -572957.000000 0 0 1
-33.576428 10.053556 -3.870712 35.262344 -0.290927 1.680787 0.047056 -0.016241 -268844.000000 0 0 1
-33.152628 9.199256 -4.898612 34.752258 -0.270672 1.712225 0.030116 -0.023525 215174.000000 0 0 1
-34.230591 8.838656 -5.720212 35.813071 -0.252690 1.731208 0.043377 -0.015680 -9008.990000 0 0 1
-33.694288 8.001656 -6.942512 35.320391 -0.233159 1.768643 0.039155 -0.021903 60050.000000 0 0 1
-33.127608 6.767956 -6.549312 34.440342 -0.201526 1.762125 0.032215 -0.018962 300725.000000 0 0 1
-32.628138 6.005556 -7.608812 34.037569 -0.182023 1.796243 0.030537 -0.009617 -647888.000000 0 0 1
-31.689578 4.841156 -7.168712 32.848997 -0.151596 1.790799 0.036855 -0.016251 -364806.000000 0 0 1
-30.412888 5.396556 -6.924812 31.654693 -0.175615 1.791341 0.040475 -0.025028 -104394.000000 0 0 1
-29.560848 4.321556 -6.557612 30.586302 -0.145164 1.786871 0.032586 -0.024486 -251816.000000 0 0 1
-28.124068 4.758956 -6.241112 29.198670 -0.167625 1.786205 0.081131 -0.026250 119060.000000 0 0 1
-27.291758 5.148256 -7.328412 28.723688 -0.186447 1.828783 0.079418 -0.026539 952594.000000 0 0 1
-25.891908 5.041956 -7.045712 27.303009 -0.192324 1.831806 0.097638 -0.024598 710479.000000 0 0 1
-25.057448 5.411756 -8.292712 26.943123 -0.212707 1.883661 0.099216 -0.025717 -232354.000000 0 0 1
-25.303318 4.606456 -9.397012 27.382132 -0.180077 1.921097 0.093500 -0.025275 -151255.000000 0 0 1
-24.419818 4.901356 -10.448612 27.009708 -0.198080 1.968006 0.095247 -0.027000 -305185.000000 0 0 1
-24.525018 3.998156 -11.716712 27.472588 -0.161602 2.011402 0.084436 -0.033226 -130620.000000 0 0 1
-25.464858 4.582156 -12.599712 28.778601 -0.178035 2.023964 0.080904 -0.014266 427019.000000 0 0 1
-25.808548 3.671956 -13.624112 29.413957 -0.141328 2.052382 0.072901 -0.013262 313004.000000 0 0 1
-26.635288 4.425556 -14.749712 30.766510 -0.164650 2.070776 0.056536 -0.000593 348263.000000 0 0 1
-25.835048 5.388356 -15.515612 30.614021 -0.205620 2.102281 0.037381 0.003818 759106.000000 0 0 1
-26.450598 6.202756 -16.523412 31.798293 -0.230341 2.117217 0.050261 0.002638 -449434.000000 0 0 1
-27.308338 5.529956 -17.600412 32.956035 -0.199799 2.134189 0.014622 0.012926 899479.000000 0 0 1
-28.624968 5.081956 -17.204112 33.781601 -0.175705 2.105138 0.021084 0.007298 686165.000000 0 0 1
-29.346058 4.540956 -18.244212 34.852011 -0.153521 2.121723 0.025473 0.012929 -371536.000000 0 0 1
-30.641878 3.949156 -17.636512 35.574810 -0.128174 2.089504 0.027946 0.009374 -376636.000000 0 0 1
-30.562098 2.723056 -16.942912 35.050237 -0.088864 2.075319 0.040614 0.002838 213193.000000 0 0 1
-30.317078 1.556356 -17.692912 35.136685 -0.051291 2.098494 0.060073 -0.004736 -81251.900000 0 0 1
-30.455818 0.312356 -16.768312 34.768243 -0.010256 2.074061 0.063464 -0.002415 -639261.000000 0 0 1
-30.158318 -0.903344 -17.403812 34.831492 0.029944 2.094000 0.075873 -0.001699 297392.000000 0 0 1
-30.484988 -2.058344 -16.601612 34.773335 0.067418 2.068517 0.078427 -0.007681 22738.100000 0 0 1
-30.165958 -3.420344 -17.265712 34.925472 0.112902 2.087893 0.080896 -0.009787 -36378.200000 0 0 1
-31.183508 -3.657644 -18.199112 36.290456 0.116761 2.096110 0.081627 -0.011980 255750.000000 0 0 1
-31.035068 -4.956144 -18.764912 36.604108 0.158358 2.109059 0.079918 -0.010005 53608.400000 0 0 1
-31.936588 -5.119544 -19.985112 38.020522 0.158951 2.124264 0.076999 -0.004344 -106212.000000 0 0 1
-31.615868 -6.316044 -20.603712 38.261841 0.197179 2.139443 0.082845 -0.002360 386887.000000 0 0 1
-32.558668 -6.650644 -21.617412 39.643542 0.201495 2.147537 0.077243 0.001089 -169822.000000 0 0 1
-32.149988 -7.779844 -22.557512 40.037346 0.237422 2.169306 0.073720 -0.001598 -726041.000000 0 0 1
-30.948508 -7.570944 -23.220812 39.425061 0.239919 2.200600 0.075953 -0.004536 -637150.000000 0 0 1
-30.985598 -8.163444 -24.533612 40.356502 0.257606 2.224237 0.070252 0.000914 299437.000000 0 0 1
-29.627808 -8.121544 -25.300852 39.798236 0.267547 2.259748 0.064324 0.002501 150062.000000 0 0 1
-29.488978 -6.832944 -25.852722 39.807690 0.227694 2.277645 0.057006 -0.003516 71476.400000 0 0 1
-29.318298 -6.934844 -27.259502 40.629240 0.232267 2.306263 0.041739 -0.007110 -291902.000000 0 0 1
-30.612738 -6.963844 -28.107472 42.138638 0.223676 2.301003 0.044802 -0.006905 -255922.000000 0 0 1
-31.384368 -8.055344 -27.769892 42.673575 0.251244 2.279370 0.047973 -0.002722 -62915.500000 0 0 1
-32.684578 -8.095744 -28.362882 44.025854 0.242806 2.270816 0.040718 -0.005131 1098780.000000 0 0 1
-33.668848 -9.175244 -27.849822 44.647386 0.266054 2.244357 0.043354 -0.003231 -444431.000000 0 0 1
-33.217748 -10.495044 -28.224262 44.834961 0.306022 2.251725 0.044097 -0.006012 4980.910000 0 0 1
-34.026418 -11.610244 -27.851452 45.478548 0.328825 2.229900 0.027945 0.000760 -18984.300000 0 0 1
-35.426115 -11.714444 -28.509502 46.957742 0.319354 2.223241 0.016927 0.005784 -398033.000000 0 0 1
35.322858 -10.596544 -28.235442 46.446003 -0.291449 2.224234 0.014093 0.000012 -648339.000000 0 0 1
34.345988 -10.537944 -29.264042 46.336587 -0.297699 2.254352 0.016417 -0.004000 -329486.000000 0 0 1
33.312488 -9.414244 -29.102502 45.225054 -0.275422 2.269864 0.008276 0.000033 15432.400000 0 0 1
32.315698 -9.801044 -28.166162 43.973827 -0.294473 2.265973 -0.007790 0.002711 -314840.000000 0 0 1
31.553688 -8.748244 -27.689222 42.881931 -0.270456 2.272747 -0.028398 0.013366 -164270.000000 0 0 1
30.436748 -9.164644 -26.724212 41.527940 -0.292470 2.269889 -0.043402 0.017083 91904.500000 0 0 1
30.908168 -9.578044 -25.443872 41.163630 -0.300503 2.237139 -0.058366 0.025737 378868.000000 0 0 1
29.745128 -10.001044 -24.741412 39.961619 -0.324350 2.238430 -0.061858 0.021254 290179.000000 0 0 1
29.780288 -10.079644 -23.203812 39.075333 -0.326364 2.206598 -0.070573 0.019742 140699.000000 0 0 1
30.643838 -11.108744 -22.701812 39.721798 -0.347777 2.179154 -0.084249 0.021690 338639.000000 0 0 1
30.827488 -11.055844 -21.292512 39.063241 -0.344347 2.147278 -0.077540 0.022317 -140802.000000 0 0 1
31.565248 -12.279844 -20.719012 39.704369 -0.371014 2.119794 -0.047060 0.018902 -147513.000000 0 0 1
32.935598 -12.288144 -21.049812 40.973732 -0.357100 2.110334 -0.028376 0.014734 -314879.000000 0 0 1
33.600938 -13.325844 -20.379312 41.495994 -0.377565 2.084166 -0.001354 0.012100 889828.000000 0 0 1
34.985578 -13.612244 -21.121912 43.074575 -0.371059 2.083295 0.022342 0.002468 841412.000000 0 0 1
-35.539812 -12.629444 -21.035812 43.186647 0.341442 2.079552 0.043555 -0.003317 150853.000000 0 0 1
-35.732940 -11.435644 -21.778412 43.381058 0.309731 2.096736 0.041934 0.011951 -873153.000000 0 0 1
-35.191142 -11.385844 -23.235112 43.679794 0.312913 2.131689 0.029287 0.008990 15483.900000 0 0 1
-35.653256 -12.326644 -24.184012 44.810348 0.332872 2.140874 0.016783 0.012790 -712517.000000 0 0 1
34.568648 -12.186044 -24.595512 44.141027 -0.338916 2.161810 0.015543 0.011947 -881848.000000 0 0 1
34.158378 -13.303844 -25.606892 44.715769 -0.371401 2.180542 0.004017 -0.005191 -214725.000000 0 0 1
33.929468 -14.604944 -24.995312 44.601332 -0.406478 2.165685 -0.001393 -0.012196 624297.000000 0 0 1
32.808158 -14.715144 -24.108612 43.291291 -0.421623 2.161437 -0.027414 0.006117 -31500.800000 0 0 1
-29.530438 7.931356 -20.172312 36.631617 -0.262390 2.153975 0.009079 -0.001799 -401309.000000 0 0 1
-28.220648 7.429556 -20.254912 35.522736 -0.257425 2.177540 -0.002232 0.002163 -265549.000000 0 0 1
-27.443038 8.297656 -21.023412 35.552149 -0.293620 2.203516 0.010585 -0.005806 574192.000000 0 0 1
-26.119428 7.591356 -21.551212 34.703140 -0.282848 2.240835 0.008268 -0.004879 1377640.000000 0 0 1
-25.107888 7.519956 -20.520112 33.287096 -0.291003 2.235033 0.012705 -0.001204 805134.000000 0 0 1
-24.077518 6.568456 -20.800112 32.488708 -0.266324 2.265589 0.035042 -0.009553 867809.000000 0 0 1
-22.725718 6.959256 -20.105112 31.130452 -0.297161 2.272912 0.026372 -0.010281 551307.000000 0 0 1
-22.167718 8.110056 -20.725112 31.411956 -0.350725 2.291328 0.027552 -0.008536 -267481.000000 0 0 1
-21.013418 8.575856 -20.066512 30.294784 -0.387481 2.294781 0.019738 -0.005306 -225029.000000 0 0 1
-20.370218 9.706056 -20.939712 30.783516 -0.444657 2.318866 0.029073 -0.003948 -720216.000000 0 0 1
-19.793118 9.151756 -22.071912 31.027270 -0.433094 2.362244 0.048799 -0.016357 -412435.000000 0 0 1
-19.164718 10.180156 -22.812912 31.485726 -0.488289 2.381174 0.043260 -0.013504 -410801.000000 0 0 1
-18.160618 9.470056 -23.709212 31.330763 -0.480669 2.429107 0.066548 -0.010693 -368970.000000 0 0 1
-18.738318 8.722256 -24.784112 32.271574 -0.435650 2.446487 0.050091 -0.012690 424802.000000 0 0 1
-17.738218 8.099356 -25.573592 32.159797 -0.428333 2.490140 0.051919 -0.006730 42355.600000 0 0 1
-18.424618 7.148856 -26.578842 33.121104 -0.370124 2.502227 0.031898 -0.004337 140864.000000 0 0 1
-18.996318 6.006556 -25.911452 32.685504 -0.306248 2.486105 0.038514 -0.003382 292778.000000 0 0 1
-19.681418 5.140256 -26.770252 33.621821 -0.255466 2.491812 0.021367 0.000124 -607903.000000 0 0 1
-19.981518 3.758856 -26.108942 33.091795 -0.185944 2.479952 0.013927 0.007070 121993.000000 0 0 1
-18.929618 2.823256 -25.954332 32.247923 -0.148054 2.506198 0.027813 0.004713 120919.000000 0 0 1
-17.798818 3.191256 -25.213052 31.027085 -0.177411 2.519420 0.041668 -0.000489 -238096.000000 0 0 1
-16.935418 2.035556 -24.605212 29.939411 -0.119621 2.535418 0.040426 -0.000582 343882.000000 0 0 1
-17.559818 1.282456 -23.532312 29.389822 -0.072904 2.499252 0.037284 -0.004571 484519.000000 0 0 1
-18.724118 0.582156 -23.967212 30.419710 -0.031081 2.478162 0.024487 -0.005942 5998.120000 0 0 1
-19.378018 -0.121844 -22.792412 29.916826 0.006288 2.436975 0.031102 -0.006458 -56138.500000 0 0 1
-18.565818 -1.227944 -22.434912 29.146573 0.066044 2.449210 0.024104 -0.002756 235743.000000 0 0 1
-19.023518 -1.888744 -21.303312 28.623289 0.098960 2.410230 0.024477 -0.005030 -356385.000000 0 0 1
-18.270418 -3.197144 -21.030412 28.041187 0.173236 2.418833 0.005875 -0.011536 -123988.000000 0 0 1
-18.450618 -4.163744 -22.073112 29.068615 0.221952 2.433102 0.010156 -0.020046 355959.000000 0 0 1
-18.753418 -5.473344 -21.541412 29.080588 0.283971 2.404981 0.014247 -0.022136 -417133.000000 0 0 1
-18.801118 -6.603544 -22.574612 30.111492 0.337771 2.418406 -0.000951 -0.027049 124031.000000 0 0 1
-17.496518 -7.062944 -22.908612 29.678575 0.383672 2.452606 -0.000058 -0.017720 296229.000000 0 0 1
-17.524718 -8.037344 -23.920612 30.723124 0.430007 2.463207 0.012805 -0.024566 213959.000000 0 0 1
-16.230018 -7.999944 -24.761612 30.668388 0.457960 2.510526 0.026027 -0.024413 -642974.000000 0 0 1
-16.227318 -8.752044 -25.952752 31.835035 0.494622 2.523916 0.038201 -0.043955 280898.000000 0 0 1
-14.938618 -8.788244 -26.549352 31.705893 0.531765 2.563238 0.049035 -0.040280 894323.000000 0 0 1
-13.741318 -9.560944 -25.879102 30.821476 0.607889 2.567426 0.048623 -0.037951 -277934.000000 0 0 1
-13.268618 -8.839644 -24.797412 29.480624 0.587684 2.570189 0.041765 -0.031536 -216845.000000 0 0 1
-12.432518 -9.771644 -24.120112 28.841504 0.666130 2.561294 0.026912 -0.030916 -323976.000000 0 0 1
-11.758918 -9.266244 -22.875012 27.338647 0.667392 2.562077 0.046313 -0.024583 -242052.000000 0 0 1
-12.660418 -9.030444 -21.810712 26.786980 0.619584 2.522195 0.050702 -0.019684 116605.000000 0 0 1
-11.956218 -8.655644 -20.659412 25.390601 0.626616 2.521223 0.054577 -0.020255 -785500.000000 0 0 1
-12.786918 -8.503244 -19.408912 24.749067 0.586845 2.472247 0.031542 -0.011447 4269.010000 0 1 0
-13.553918 -7.285044 -19.326512 24.704142 0.493185 2.469176 0.010991 0.001415 328909.000000 0 1 0
-14.917818 -7.484044 -19.656512 25.786250 0.464995 2.437635 -0.001954 -0.010945 -92595.600000 0 0 1
-15.702618 -6.138944 -19.541012 25.809107 0.372681 2.429715 -0.003338 -0.001243 -322173.000000 0 0 1
-15.849418 -5.738944 -18.197312 24.804873 0.347406 2.394428 0.001978 0.000194 -247333.000000 0 1 0
-14.981218 -4.693544 -17.851312 23.772581 0.303609 2.420251 -0.003859 0.003680 -686882.000000 0 1 0
-14.864718 -4.457044 -16.303812 22.508651 0.291310 2.380866 0.009259 0.008830 113853.000000 0 1 0
-15.989418 -4.020344 -15.544912 22.659853 0.246331 2.326789 0.020153 -0.000949 27268.800000 0 1 0
-16.538118 -2.776144 -15.910012 23.115900 0.166313 2.329900 -0.004108 -0.001837 381153.000000 0 1 0
-17.725418 -2.459544 -14.919512 23.298748 0.137878 2.265759 0.005673 -0.009018 557125.000000 0 1 0
-17.288718 -2.605144 -13.523012 22.103357 0.149559 2.229141 0.015966 -0.021532 546353.000000 0 1 0
-18.141118 -1.914044 -12.647212 22.197200 0.105120 2.177018 0.013109 -0.025848 -313671.000000 0 1 0
-17.539218 -0.599744 -12.146212 21.342782 0.034181 2.176209 0.006777 -0.013290 -130018.000000 0 1 0
-17.421318 0.411056 -13.118012 21.811775 -0.023591 2.216072 0.025316 -0.012000 366407.000000 0 1 0
-16.788718 1.555656 -12.580312 21.036762 -0.092397 2.211819 0.039135 -0.005404 -1042780.000000 0 1 0
-16.283618 2.466056 -13.683612 21.412120 -0.150302 2.264071 0.039305 0.002792 100370.000000 0 1 0
-15.395718 1.888256 -14.619812 21.315078 -0.122039 2.326623 0.027455 -0.003652 675323.000000 0 1 0
-14.160018 1.331456 -14.180112 20.083687 -0.093754 2.354703 0.023432 -0.002538 -632394.000000 0 1 0
-13.575618 0.459756 -15.285912 20.449154 -0.033853 2.415099 0.020256 0.000643 -255428.000000 0 1 0
-13.164518 1.048856 -16.459112 21.102299 -0.079505 2.465411 0.021606 -0.005434 114814.000000 0 1 0
-12.835018 0.086356 -17.446512 21.659315 -0.006728 2.507310 0.012900 0.004323 153436.000000 0 1 0
-12.256718 0.695356 -18.782812 22.438910 -0.056672 2.562692 0.031949 -0.001268 -161267.000000 0 1 0
-10.932618 1.134256 -18.710712 21.700217 -0.103380 2.610464 0.010931 0.007640 -643931.000000 0 1 0
-10.597718 2.010356 -19.741412 22.496144 -0.187470 2.641517 0.015871 0.008109 167023.000000 0 1 0
-9.254118 2.730956 -19.518612 21.773218 -0.286962 2.682490 0.011046 0.007619 -1072640.000000 0 1 0
-8.166118 1.903956 -19.712912 21.422172 -0.229061 2.739415 0.008109 0.009474 -309248.000000 0 1 0
-6.894918 2.428356 -19.328612 20.664754 -0.338629 2.780021 0.004270 0.009238 673809.000000 0 1 0
-6.291918 3.455156 -20.276612 21.509703 -0.502184 2.801347 0.004518 0.016034 -1025330.000000 0 1 0
-5.987818 2.892756 -21.557112 22.559501 -0.450042 2.842373 -0.003927 0.011771 208540.000000 0 1 0
-5.788218 3.878356 -22.522012 23.575117 -0.590336 2.841570 0.003726 0.004587 -290822.000000 0 1 0
-5.358118 3.217156 -23.901312 24.704903 -0.540733 2.885837 0.019831 -0.005674 657393.000000 0 1 0
-4.021218 2.696456 -23.859912 24.346180 -0.590691 2.941393 0.024852 -0.010995 576612.000000 0 1 0
-3.492418 2.258256 -25.065512 25.408199 -0.573993 2.977168 0.046988 -0.013808 -229377.000000 0 0 1
-2.120118 1.610156 -24.906712 25.048589 -0.649531 3.035109 0.037482 -0.016009 -531235.000000 0 0 1
-0.993818 2.462856 -24.792912 24.934751 -1.187257 3.034880 0.034317 -0.016802 225156.000000 0 1 0
0.277582 1.890856 -24.614612 24.688692 1.425035 3.064106 0.028948 -0.016444 76795.500000 0 1 0
0.547182 0.904556 -23.449312 23.473131 1.026769 3.096540 0.022852 -0.026949 -992254.000000 0 1 0
0.043882 -0.420444 -23.641312 23.645091 -1.466803 3.123714 0.019828 -0.022455 149713.000000 0 1 0
0.668382 -1.267944 -22.696512 22.741725 -1.085675 3.078525 0.015095 -0.017558 -597468.000000 0 1 0
0.093682 -2.672544 -22.768512 22.925017 -1.535757 3.024677 0.022524 -0.018200 -130022.000000 0 1 0
-1.087318 -2.830044 -22.020512 22.228233 1.203980 3.004775 0.013660 -0.014308 538403.000000 0 1 0
-2.348218 -2.698644 -22.703412 22.983510 0.854721 2.985313 0.022991 -0.015403 571418.000000 0 1 0
-3.007018 -1.306244 -22.777512 23.012246 0.409804 2.998639 0.027503 -0.010758 -1677290.000000 0 1 0
-3.458318 -0.900144 -21.514912 21.809669 0.254634 2.976999 0.013052 -0.008029 210852.000000 0 1 0
-4.376818 0.194156 -21.484712 21.926858 -0.044331 2.940433 0.006843 -0.004797 1596680.000000 0 1 0
-5.744018 -0.069944 -22.282012 23.010578 0.012176 2.889280 0.017193 -0.004550 67956.000000 0 1 0
-6.451018 -1.136344 -21.651212 22.620387 0.174361 2.847808 0.027044 -0.002290 -256721.000000 0 1 0
-7.713118 -1.186244 -22.274012 23.601504 0.152600 2.804602 0.011292 0.015189 -108712.000000 0 1 0
-8.613718 -2.362444 -21.805312 23.563720 0.267683 2.752824 0.026241 0.006776 -129520.000000 0 1 0
-8.269218 -3.664144 -22.224512 23.994476 0.417107 2.755094 0.036677 -0.008043 -72629.000000 0 1 0
-9.046018 -4.679744 -21.604712 23.885017 0.477412 2.701072 0.039438 -0.005080 -264127.000000 0 1 0
-10.021418 -5.334444 -22.565812 25.260661 0.489156 2.675472 0.037801 -0.013826 85106.500000 0 0 1
-11.308218 -4.788544 -22.788012 25.886279 0.400563 2.647317 0.028601 -0.008909 289505.000000 0 0 1
-12.164718 -5.615244 -23.569912 27.111844 0.432459 2.624699 0.023984 -0.016298 1102620.000000 0 0 1
-13.680818 -5.374644 -23.233512 27.492684 0.374336 2.577511 0.029045 -0.013122 776299.000000 0 0 1
-14.199018 -4.158344 -23.800812 28.024678 0.284895 2.585417 0.028777 -0.014411 933105.000000 0 0 1
-15.633618 -4.288944 -23.914312 28.891164 0.267754 2.545861 0.035832 -0.008609 1190550.000000 0 0 1
-16.272618 -2.976144 -24.511312 29.571269 0.180894 2.547916 0.030779 -0.008945 -184217.000000 0 0 1
-15.904618 -2.793144 -25.872362 30.498158 0.173846 2.583611 0.034267 -0.018841 -4699.100000 0 0 1
-16.206518 -1.579844 -26.486712 31.091688 0.097175 2.590381 0.028252 -0.004548 -337628.000000 0 0 1
-17.651218 -1.284244 -26.939152 32.232479 0.072629 2.560342 0.030653 -0.002047 -373996.000000 0 0 1
-18.076418 -1.937344 -28.127362 33.491173 0.106768 2.567792 0.033902 -0.015298 -260502.000000 0 0 1
-17.442518 -1.515744 -29.325732 34.154611 0.086682 2.603362 0.025811 -0.013053 -232618.000000 0 0 1
-17.750018 -2.372844 -30.585762 35.442663 0.132893 2.611904 0.023334 -0.008952 -332427.000000 0 0 1
-19.108718 -2.423844 -30.905512 36.416601 0.126171 2.584253 0.021687 -0.017751 -420903.000000 0 0 1
-19.297918 -3.327644 -31.983482 37.502346 0.170756 2.592196 0.021490 -0.023105 -106649.000000 0 0 1
-20.810118 -3.563444 -32.224462 38.524993 0.169591 2.561581 0.007893 -0.022896 115488.000000 0 0 1
-21.606718 -2.511644 -32.716692 39.287919 0.115724 2.554838 -0.003100 -0.014483 108642.000000 0 0 1
-22.154218 -1.765944 -31.666122 38.686835 0.079543 2.529634 -0.006361 -0.009682 -361372.000000 0 0 1
-23.261618 -0.797144 -32.143132 39.685252 0.034255 2.514866 -0.006595 -0.012063 -306873.000000 0 0 1
-22.706418 0.359556 -32.749782 39.852966 -0.015834 2.535298 0.008694 -0.013546 210878.000000 0 0 1
-23.654818 1.300656 -33.194962 40.781707 -0.054929 2.521745 0.018611 -0.017608 -50876.700000 0 0 1
-23.015818 2.583756 -33.818782 40.989190 -0.111792 2.541115 0.027716 -0.015060 -173117.000000 0 0 1
-22.317318 3.517956 -32.938442 39.942204 -0.156347 2.540384 0.016498 -0.014533 196589.000000 0 0 1
-23.174618 4.320656 -32.182202 39.892670 -0.184323 2.509376 0.023477 -0.018203 -822263.000000 0 0 1
-24.201418 5.174956 -32.924122 41.188428 -0.210656 2.497015 0.018489 -0.023380 623614.000000 0 0 1
-25.428248 4.446056 -33.218202 42.069135 -0.173097 2.480969 0.049399 -0.032302 843285.000000 0 0 1
-26.118238 4.963556 -34.318870 43.411797 -0.187802 2.482491 0.068402 -0.031888 -9227.400000 0 0 1
-27.553058 4.398256 34.290002 44.207690 -0.158293 0.683041 0.070294 -0.030241 98898.500000 0 0 1
-27.592678 3.028156 34.020420 43.908024 -0.109307 0.684380 0.072423 -0.035273 358295.000000 0 0 1
-28.885718 2.671456 33.570748 44.367967 -0.092221 0.712632 0.077561 -0.029550 92625.900000 0 0 1
-28.819288 1.211556 33.089682 43.896996 -0.042015 0.716966 0.072147 -0.011017 -219220.000000 0 0 1
-28.890708 0.317356 34.140662 44.725368 -0.010984 0.702329 0.061530 -0.006926 257472.000000 0 0 1
-29.048118 -0.988244 33.775521 44.559574 0.034008 0.710577 0.044632 -0.002330 -1089480.000000 0 0 1
-29.082398 -1.935544 -33.767902 44.607213 0.066456 2.429514 0.020142 -0.000417 245325.000000 0 0 1
-27.909628 -2.228844 -33.002222 43.278883 0.079690 2.438039 0.022739 -0.008289 880118.000000 0 0 1
-27.038348 -1.112344 -32.696502 42.442559 0.041116 2.450219 0.018172 -0.008318 -436263.000000 0 0 1
-27.070318 -0.586944 -31.270592 41.364194 0.021679 2.427950 0.030975 -0.009768 -589018.000000 0 0 1
-26.284108 -1.327644 -30.397362 40.207171 0.050468 2.428005 0.014875 -0.014427 58901.000000 0 0 1
-26.342758 -0.840944 -29.069322 39.238675 0.031912 2.405107 0.024597 -0.015251 592216.000000 0 0 1
-25.177228 -1.363544 -28.095712 37.750776 0.054105 2.410196 0.014520 -0.013692 801176.000000 0 0 1
-25.154718 -2.728644 -27.798622 37.589476 0.108052 2.403171 -0.001825 -0.004877 1277.890000 0 0 1
-24.274718 -2.970644 -26.724172 36.225240 0.121771 2.400487 0.008957 -0.018240 -379719.000000 0 0 1
-24.435418 -4.306344 -26.051122 35.976315 0.174442 2.380552 0.010874 -0.016428 -904145.000000 0 0 1
-25.630468 -4.385144 -25.376502 36.333418 0.169450 2.344004 0.025629 -0.012009 -949415.000000 0 0 1
-25.785558 -5.576044 -24.628612 36.090938 0.212968 2.321843 0.030496 -0.012961 418180.000000 0 0 1
-26.905568 -5.443444 -23.550012 36.168270 0.199622 2.279860 0.040216 -0.012287 443165.000000 0 0 1
-27.126298 -6.652144 -22.731312 36.011104 0.240483 2.253935 0.053167 -0.017652 -450982.000000 0 0 1
-28.239108 -6.596844 -21.913712 36.347990 0.229491 2.217910 0.075617 -0.012771 -769284.000000 0 0 1
-28.476108 -7.890144 -21.155312 36.341304 0.270298 2.192140 0.082228 -0.011632 56976.600000 0 0 1
-27.583258 -8.152444 -20.061512 35.067973 0.287376 2.179830 0.077821 -0.016599 709401.000000 0 0 1
-28.191068 -9.080444 -19.164612 35.277091 0.311610 2.145111 0.088059 -0.019228 286934.000000 0 0 1
-28.991418 -8.486544 -17.972312 35.150075 0.284770 2.107496 0.081976 -0.020403 432402.000000 0 0 1
-28.101008 -7.836244 -17.058312 33.794369 0.271951 2.099909 0.080592 -0.028940 530511.000000 0 0 1
-28.773758 -7.036344 -16.091412 33.710130 0.239834 2.068429 0.075410 -0.024129 -23953.000000 0 0 1
-27.788018 -6.394144 -15.088812 32.260367 0.226168 2.057506 0.083525 -0.023048 -229776.000000 0 0 1
-27.063628 -5.325144 -15.582812 31.679980 0.194282 2.085046 0.087847 -0.021367 -160072.000000 0 0 1
-26.376788 -4.733544 -14.516012 30.477139 0.177569 2.067229 0.077808 -0.029409 -224121.000000 0 0 1
-14.723418 21.406156 -5.328712 26.521646 -0.968297 1.773093 0.045356 -0.011538 -13332.100000 0 0 1
-14.359418 20.620856 -6.446912 25.941767 -0.962521 1.821943 0.061714 -0.011782 403761.000000 0 0 1
-15.122918 19.392256 -6.587812 25.459016 -0.908468 1.832536 0.048642 -0.026229 54933.800000 0 0 1
-15.047218 18.797456 -8.031312 25.382377 -0.895755 1.892742 0.049963 -0.029461 360234.000000 0 0 1
-13.782018 18.225756 -8.431712 24.356025 -0.923349 1.924299 0.044283 -0.022370 667833.000000 0 1 0
-13.797918 17.103056 -9.315812 23.868000 -0.891952 1.971760 0.029653 -0.025772 -262323.000000 0 1 0
-14.343118 15.729556 -8.701712 22.997038 -0.831468 1.958846 0.037597 -0.034939 636127.000000 0 1 0
-15.775818 15.796756 -8.634612 23.936801 -0.786061 1.939842 0.045233 -0.026452 753094.000000 0 1 0
-16.165118 15.047656 -7.456012 23.309550 -0.749612 1.896388 0.056769 -0.018176 426887.000000 0 1 0
-17.613018 15.489456 -7.066412 24.496445 -0.721335 1.863422 0.080954 -0.010396 673746.000000 0 1 0
-18.620518 14.847456 -7.841412 25.073061 -0.673136 1.888875 0.084129 -0.012479 -897968.000000 0 0 1
-19.868618 15.388156 -7.620512 26.260798 -0.658995 1.865217 0.069250 -0.012227 -429324.000000 0 0 1
-20.953818 14.644056 -8.472412 26.931257 -0.609969 1.890825 0.067785 0.000625 148701.000000 0 0 1
-21.200318 13.340056 -8.062712 26.313835 -0.561641 1.882211 0.089798 -0.006327 -42894.600000 0 0 1
-22.016418 12.656356 -8.987512 26.938474 -0.521729 1.910949 0.087258 -0.005050 369757.000000 0 0 1
-22.626618 11.319356 -8.466512 26.679083 -0.463861 1.893726 0.094999 -0.008539 71289.200000 0 0 1
-21.630518 10.321356 -8.448612 25.412374 -0.445214 1.909708 0.095184 -0.011722 -40579.100000 0 0 1
-21.894818 9.260456 -7.507512 24.929939 -0.400135 1.876689 0.097346 -0.019417 -146165.000000 0 1 0
-20.731218 8.293056 -7.180212 23.454501 -0.380530 1.881925 0.075751 -0.006045 -312431.000000 0 1 0
-20.635318 7.221556 -8.100312 23.314851 -0.336640 1.925627 0.069983 -0.007364 -662631.000000 0 1 0
-19.542418 6.508956 -7.726012 21.999179 -0.321512 1.929644 0.045510 -0.002943 -1425010.000000 0 1 0
-19.239918 5.344556 -8.690012 21.777397 -0.270953 1.981264 0.025531 -0.005717 -349192.000000 0 1 0
-20.225318 4.300156 -8.795712 22.470411 -0.209493 1.972987 0.037056 -0.002234 891333.000000 0 1 0
-19.899818 3.464156 -9.931912 22.508799 -0.172353 2.027783 0.019487 0.006191 -853031.000000 0 1 0
-20.681418 2.196056 -9.948912 23.054817 -0.105789 2.016988 0.007262 0.005017 -359339.000000 0 1 0
-20.351818 1.300256 -8.890912 22.247146 -0.063802 1.981923 0.011842 -0.007978 582473.000000 0 1 0
-21.482718 0.510856 -8.588912 23.141685 -0.023775 1.951038 0.031409 -0.005972 -216315.000000 0 1 0
-21.479518 -0.850744 -9.288912 23.417458 0.039587 1.978678 0.021280 -0.011841 -229482.000000 0 1 0
-20.471018 -1.687544 -8.789712 22.342100 0.082250 1.975139 0.021766 -0.005831 -53363.600000 0 1 0
-20.375818 -3.006744 -9.326412 22.609654 0.146507 1.995990 0.006776 -0.006162 -394692.000000 0 1 0
-21.365418 -4.005444 -8.736012 23.427390 0.185322 1.952926 0.016695 -0.002934 -52180.600000 0 1 0
-21.016618 -4.237744 -7.381912 22.674861 0.198970 1.902395 0.003060 -0.002462 486426.000000 0 1 0
-21.988518 -4.988444 -6.642512 23.505371 0.223090 1.857295 0.024929 -0.004358 -114359.000000 0 1 0
-22.127418 -6.505544 -6.878312 24.067736 0.285947 1.860627 0.033725 -0.009730 -10085.200000 0 1 0
-21.070418 -7.351744 -6.439312 23.226610 0.335706 1.851715 0.021678 -0.009878 584182.000000 0 1 0
-21.370718 -8.708644 -6.658512 24.018407 0.386958 1.851701 0.033886 -0.010160 32793.800000 0 1 0
-20.317518 -9.673144 -6.013812 23.292428 0.444344 1.831942 0.027430 -0.007599 360527.000000 0 1 0
-19.116718 -9.840544 -6.757112 22.537608 0.475387 1.875295 0.029063 0.004301 -238057.000000 0 1 0
-18.176018 -10.324644 -5.857112 21.708793 0.516585 1.843985 0.030279 -0.004572 -584225.000000 0 1 0
-17.427818 -11.644444 -6.213712 21.861659 0.589031 1.858998 0.022807 -0.003093 879027.000000 0 1 0
-16.276818 -11.699944 -7.115312 21.270900 0.623239 1.911881 0.014870 -0.002940 1132510.000000 0 1 0
-16.428918 -11.023444 -8.314712 21.460664 0.590982 1.968649 0.008686 -0.010214 96473.700000 0 1 0
-15.330118 -11.286544 -9.403112 21.232454 0.634632 2.029588 0.005795 -0.010207 655292.000000 0 1 0
-15.571018 -12.553744 -9.965112 22.346287 0.678525 2.033021 0.020218 -0.008268 -470779.000000 0 1 0
-14.607318 -12.901044 -10.890712 22.325284 0.723450 2.080387 0.023770 -0.002610 -574626.000000 0 1 0
-14.723818 -14.198444 -11.622912 23.526129 0.767235 2.087530 0.036444 -0.010053 -45668.300000 0 1 0
-15.419018 -14.116544 -12.866712 24.547408 0.741328 2.122522 0.029397 -0.008488 -19193.500000 0 1 0
-15.699618 -15.337144 -13.456312 25.744482 0.773720 2.120796 0.025566 -0.003735 -167523.000000 0 0 1
-16.060918 -15.200144 -15.007012 26.724668 0.757870 2.167044 0.033335 -0.004764 38647.300000 0 0 1
-16.253918 -16.357244 -15.724512 27.910743 0.788567 2.169274 0.033525 0.004570 64332.400000 0 0 1
-16.636518 -16.190144 -17.021612 28.785930 0.771801 2.203487 0.039007 -0.005885 -122442.000000 0 0 1
-17.259918 -17.430944 -17.753212 30.280673 0.790328 2.197266 0.049073 -0.015832 -511705.000000 0 0 1
-18.586718 -17.649144 -17.418712 30.989836 0.759530 2.167693 0.019602 -0.005471 -1048430.000000 0 0 1
-19.429218 -18.074444 -18.475112 32.334344 0.749290 2.178979 0.032827 -0.009804 -76047.600000 0 0 1
-20.899918 -17.933244 -18.078312 32.942878 0.709151 2.151698 0.037088 -0.014681 -495900.000000 0 0 1
-21.181918 -16.565144 -17.669512 32.175912 0.663694 2.152147 0.028348 -0.006460 202721.000000 0 0 1
-21.115918 -16.373344 -16.258312 31.277806 0.659562 2.117417 0.026573 -0.005927 -458894.000000 0 0 1
-21.053918 -14.921544 -15.738212 30.226003 0.616561 2.118449 0.042556 -0.009206 27752.700000 0 0 1
-22.304318 -14.276544 -15.567812 30.719035 0.569370 2.102243 0.055239 -0.001650 418809.000000 0 0 1
-22.193118 -12.969444 -15.112012 29.818013 0.528863 2.102274 0.061665 -0.003323 -284899.000000 0 0 1
-23.546118 -12.424844 -14.634212 30.380201 0.485547 2.073393 0.074947 -0.015316 -292669.000000 0 0 1
-23.990618 -12.994644 -13.401312 30.397462 0.496414 2.027363 0.073418 -0.007520 -343484.000000 0 0 1
-25.254508 -12.488444 -13.154612 31.093331 0.459241 2.007626 0.068751 -0.016873 -921734.000000 0 0 1
-25.948598 -12.915744 -11.843012 31.311390 0.461841 1.958683 0.071855 -0.015522 -205567.000000 0 0 1
-26.899368 -11.952944 -11.449512 31.583860 0.418152 1.941758 0.070279 -0.023062 7891.160000 0 0 1
-27.446978 -12.320244 -10.205812 31.769225 0.421917 1.897844 0.053699 -0.013651 -293820.000000 0 0 1
-28.191658 -11.310244 -9.419112 31.802687 0.381533 1.871480 0.040672 -0.018775 -698045.000000 0 0 1
-27.355818 -10.458344 -8.706112 30.553464 0.365162 1.859747 0.051494 -0.024250 129678.000000 0 0 1
-28.111418 -9.378144 -8.047412 30.707691 0.321996 1.835958 0.062863 -0.024482 169730.000000 0 0 1
-27.257338 -8.250344 -7.495312 29.448436 0.293917 1.828151 0.059140 -0.020301 -273676.000000 0 0 1
-26.440308 -8.694044 -6.422312 28.564355 0.317681 1.797572 0.040040 -0.027657 -177920.000000 0 0 1
-25.749808 -7.624244 -5.767312 27.467137 0.287865 1.782342 0.041358 -0.020993 79294.100000 0 0 1
-26.555728 -6.421644 -5.196712 27.810970 0.237263 1.758760 0.042036 -0.019075 -257006.000000 0 0 1
-27.580548 -6.482944 -4.241612 28.647975 0.230864 1.719402 0.044758 -0.016465 -111445.000000 0 0 1
-27.215088 -6.982044 -2.942112 28.250062 0.251134 1.675131 0.043634 -0.016885 -859465.000000 0 0 1
-26.611268 -5.864744 -2.095312 27.330297 0.216918 1.647538 0.041182 -0.017819 -22599.400000 0 0 1
-27.510508 -4.853044 -1.695312 27.986679 0.174610 1.631409 0.050205 -0.015586 200313.000000 0 0 1
-26.761528 -3.946744 -0.920612 27.066653 0.146423 1.604816 0.053168 -0.026301 -136232.000000 0 0 1
-27.607848 -2.852344 -0.177812 27.755374 0.102951 1.577203 0.062978 -0.030725 -96642.500000 0 0 1
-28.447268 -3.227444 0.873788 28.643096 0.112971 1.540286 0.064337 -0.029681 136743.000000 0 0 1
-27.798728 -3.598444 2.121088 28.110801 0.128731 1.495270 0.060795 -0.023208 -90226.600000 0 0 1
-28.808348 -3.982444 3.199588 29.257788 0.137369 1.461219 0.058319 -0.029432 -408429.000000 0 0 1
-29.295278 -5.279244 3.053888 29.923402 0.178294 1.468561 0.060350 -0.028125 -268892.000000 0 0 1
-30.286058 -5.493544 4.019388 31.041582 0.179438 1.440948 0.066862 -0.030195 12505.700000 0 0 1
-31.044148 -6.868644 3.853688 32.027618 0.217746 1.450180 0.063605 -0.023379 -266880.000000 0 0 1
-30.285778 -7.942544 4.262688 31.598780 0.256477 1.435483 0.054328 -0.015542 -260378.000000 0 0 1
-30.916398 -9.159144 3.935188 32.483832 0.288018 1.449355 0.066600 -0.011872 -233783.000000 0 0 1
-30.109408 -10.387044 4.432388 32.157631 0.332193 1.432523 0.059374 -0.009560 -6074.020000 0 0 1
-30.020088 -10.535044 5.822288 32.343344 0.337506 1.389795 0.042728 -0.007523 274522.000000 0 0 1
-29.121798 -11.558644 6.219088 31.943050 0.377837 1.374852 0.023854 -0.000861 -198541.000000 0 0 1
-29.197638 -11.816244 7.748888 32.437185 0.384550 1.329575 0.012363 -0.001548 -65381.000000 0 0 1
-28.525078 -10.816044 8.488688 31.665829 0.362427 1.299406 0.006236 -0.000261 466338.000000 0 0 1
-28.792198 -10.980844 9.873488 32.358235 0.364355 1.260721 0.025287 0.000417 -418818.000000 0 0 1
-29.049738 -9.702044 10.609288 32.412559 0.322333 1.237330 0.039500 -0.002261 -309499.000000 0 0 1
-27.920598 -8.868144 10.678388 31.180631 0.307543 1.221253 0.032715 -0.006651 22171.800000 0 0 1
-28.241228 -7.701644 11.383088 31.407913 0.266235 1.199925 0.053974 -0.015423 -391270.000000 0 0 1
-27.352768 -6.493444 11.237888 30.275879 0.233082 1.190514 0.057477 -0.016567 -488551.000000 0 0 1
-27.520428 -5.892844 9.983888 29.862646 0.210941 1.229905 0.063088 -0.025028 131920.000000 0 0 1
-26.842098 -4.691144 9.943888 29.006654 0.173021 1.220886 0.064292 -0.024611 -459833.000000 0 0 1
-26.941188 -4.044444 8.573488 28.560284 0.149009 1.265905 0.064308 -0.022021 -207964.000000 0 0 1
-26.193438 -4.733444 7.604388 27.682638 0.178782 1.292520 0.043565 -0.019169 2809.870000 0 0 1
-26.271578 -4.094244 6.371588 27.341467 0.154600 1.335596 0.041961 -0.025377 -686428.000000 0 0 1
-25.376108 -4.706244 5.327388 26.352925 0.183376 1.367238 0.036539 -0.020410 -301869.000000 0 0 1
-24.055118 -4.195644 5.493188 25.028529 0.172681 1.349518 0.048466 -0.025868 190063.000000 0 0 1
-23.207618 -4.680644 4.497088 24.098253 0.199016 1.383081 0.041588 -0.017710 -952537.000000 0 1 0
-21.912218 -3.901144 4.505288 22.708189 0.176189 1.371072 0.038526 -0.015180 -906764.000000 0 1 0
-21.943218 -2.534244 4.214088 22.487458 0.114982 1.382285 0.030140 -0.012402 26084.900000 0 1 0
-20.633418 -2.028544 4.301288 21.174372 0.097999 1.366236 0.017670 -0.006442 -477880.000000 0 1 0
-20.523018 -0.533744 4.746988 21.071617 0.026001 1.343567 0.013063 -0.011212 -523914.000000 0 1 0
-20.661418 0.636656 3.885188 21.033169 -0.030804 1.385012 0.017791 -0.013629 866322.000000 0 1 0
-21.925818 0.804156 3.242988 22.178935 -0.036660 1.424051 0.019585 -0.012512 105095.000000 0 1 0
-21.987318 2.016656 2.280188 22.197034 -0.091463 1.467890 0.039647 -0.010055 -286554.000000 0 1 0
-21.705818 3.265056 2.926788 22.144282 -0.149304 1.438239 0.042953 -0.010763 209865.000000 0 1 0
-21.811018 4.386756 2.069088 22.343797 -0.198478 1.478061 0.057112 -0.010714 -505528.000000 0 1 0
-20.540118 4.594456 1.270088 21.085981 -0.220060 1.510526 0.043075 -0.003482 -1018060.000000 0 1 0
-20.612418 5.235356 0.010188 21.266895 -0.248731 1.570317 0.044904 0.003026 677301.000000 0 1 0
-21.570418 4.776356 -0.973012 22.114323 -0.217915 1.614810 0.064062 -0.009054 432440.000000 0 1 0
-21.104118 3.506856 -1.811812 21.470084 -0.164665 1.655285 0.049741 -0.000371 -191625.000000 0 1 0
-20.874118 2.364356 -1.102512 21.036504 -0.112787 1.623230 0.012034 0.002245 405997.000000 0 1 0
-20.537118 1.283456 -1.954812 20.669828 -0.062413 1.665511 0.012651 0.003124 -334391.000000 0 1 0
-19.698018 0.220756 -1.210412 19.736407 -0.011207 1.632164 0.010937 0.001914 -597123.000000 0 1 0
-20.432218 -0.629944 -0.381012 20.445477 0.030821 1.589433 0.013952 -0.003013 4660.080000 0 1 0
-19.759118 -1.279744 0.658888 19.811477 0.064677 1.537532 0.016192 -0.009364 -697964.000000 0 1 0
-19.212618 -2.634444 0.213588 19.393572 0.136271 1.559783 0.021051 -0.003564 -416008.000000 0 1 0
-18.489418 -3.205244 1.241888 18.806235 0.171650 1.504712 0.025903 -0.004517 301457.000000 0 1 0
-17.765418 -4.414544 0.959688 18.330829 0.243558 1.518419 0.019572 -0.001343 -36681.400000 0 1 0
-18.589018 -5.672444 0.675288 19.446960 0.296175 1.536065 0.013838 -0.001074 -168887.000000 0 1 0
-19.257518 -6.265544 1.783788 20.329559 0.314554 1.482940 0.041116 -0.003947 843762.000000 0 1 0
-20.310218 -7.171244 1.465288 21.588858 0.339421 1.502872 0.033622 -0.008422 202924.000000 0 1 0
-21.077218 -7.582244 2.729988 22.565292 0.345322 1.449518 0.043211 -0.007407 -339007.000000 0 1 0
-20.272418 -8.301544 3.628788 22.204835 0.388669 1.406637 0.043335 -0.006244 244669.000000 0 1 0
-20.998918 -8.940944 4.642288 23.290468 0.402532 1.370131 0.047429 -0.005882 -126292.000000 0 1 0
-20.092818 -9.657544 5.682188 23.006016 0.448045 1.321227 0.034910 0.003625 55765.400000 0 1 0
-19.640518 -10.932344 5.093488 23.047988 0.507913 1.347962 0.034658 0.005379 -445483.000000 0 1 0
-18.569918 -11.323144 5.858988 22.525168 0.547563 1.307662 0.034593 0.001950 -742681.000000 0 1 0
-17.984718 -12.682044 5.390488 22.657045 0.614178 1.330576 0.020783 -0.000623 44490.100000 0 1 0
-18.781418 -13.812944 5.701288 24.000912 0.634129 1.330959 0.025594 0.005514 155963.000000 0 1 0
-18.216418 -14.979244 5.065088 24.121998 0.688188 1.359244 0.017546 0.004199 -273089.000000 0 1 0
-18.927418 -16.308344 5.289788 25.538033 0.711205 1.362152 0.028583 -0.003709 -272054.000000 0 0 1
-18.122218 -17.344344 4.813588 25.542351 0.763469 1.381207 0.025584 -0.012008 254165.000000 0 0 1
-18.639818 -18.577144 5.319588 26.848671 0.783714 1.371344 0.033590 -0.013520 19563.900000 0 0 1
-17.681918 -19.743944 5.047088 26.980487 0.840439 1.382623 0.026224 -0.015796 -504805.000000 0 0 1
-17.525318 -20.053944 3.664788 26.883603 0.852585 1.434050 0.030934 -0.020853 657277.000000 0 0 1
-16.669318 -21.202244 3.368988 27.179982 0.904524 1.446526 0.032666 -0.014327 484397.000000 0 0 1
-15.159118 -21.169344 3.662388 26.293594 0.949354 1.431054 0.037025 -0.010694 -236614.000000 0 0 1
-14.652518 -22.504944 3.766188 27.117393 0.993662 1.431461 0.044165 -0.014117 400963.000000 0 0 1
-13.245718 -22.469344 4.027788 26.392112 1.038132 1.417584 0.040471 -0.004136 325756.000000 0 0 1
-12.699818 -23.857044 4.346888 27.374064 1.081621 1.411325 0.042799 0.002831 -232012.000000 0 0 1
-12.691118 -24.610344 3.192588 27.873395 1.094682 1.456005 0.045967 -0.000267 -27151.200000 0 0 1
-12.065218 -25.841084 3.305988 28.709941 1.133977 1.455389 0.050852 -0.000870 -82783.200000 0 0 1
17.868482 19.345156 -24.463612 35.944207 0.825058 2.319377 0.046101 0.004217 -176588.000000 0 0 1
17.175182 19.562356 -25.646622 36.543424 0.850286 2.348735 0.032087 0.001499 -317892.000000 0 0 1
18.008582 19.551256 -26.783712 37.734968 0.826448 2.359989 0.039457 0.000064 -101501.000000 0 0 1
17.274182 19.688356 -28.141722 38.444573 0.850620 2.392060 0.023314 0.002177 8206.610000 0 0 1
16.812282 20.972856 -28.408372 39.109450 0.895068 2.383838 0.014640 0.009595 19875.400000 0 0 1
15.894982 20.972156 -29.466782 39.506620 0.922253 2.412636 -0.000853 0.011480 -94308.400000 0 0 1
15.337882 22.395456 -29.754892 40.276055 0.970300 2.402045 0.002263 0.009075 -280425.000000 0 0 1
14.828882 23.109156 -28.675592 39.701617 1.000286 2.377886 0.000827 0.012765 187771.000000 0 0 1
14.559282 24.430156 -28.999982 40.617781 1.033356 2.365952 0.003440 0.013854 -81956.000000 0 0 1
13.909582 25.254756 -27.833722 40.074870 1.067362 2.338581 0.003207 0.016310 98767.900000 0 0 1
12.572982 24.855556 -27.631432 39.234864 1.102486 2.352173 0.010731 0.003056 -637437.000000 0 0 1
11.936282 25.713056 -26.772242 38.992166 1.136188 2.327606 0.013961 0.010374 -18737.200000 0 0 1
10.424482 25.410556 -26.541532 38.194490 1.181492 2.339084 0.022568 0.007081 777372.000000 0 0 1
9.764882 26.245556 -25.601092 37.942035 1.214607 2.311412 0.023189 -0.002021 219487.000000 0 0 1
9.353382 27.573056 -26.087252 39.093527 1.243756 2.301379 0.036460 -0.010439 -148334.000000 0 0 1
8.782282 28.494556 -25.021612 38.924918 1.271825 2.268967 0.046589 -0.024457 88731.200000 0 0 1
9.797982 28.863356 -24.095912 38.854945 1.243541 2.239731 0.042630 -0.016654 332677.000000 0 0 1
9.293282 29.805156 -23.159812 38.872732 1.268548 2.209040 0.055061 -0.027413 -111599.000000 0 0 1
10.291682 30.220956 -22.028812 38.787800 1.242567 2.174787 0.036007 -0.021735 316307.000000 0 0 1
11.359282 31.001556 -22.541212 39.977944 1.219578 2.169826 0.028990 -0.028073 547559.000000 0 0 1
12.116382 31.683156 -21.493412 40.157139 1.205533 2.135579 0.012125 -0.008945 -119438.000000 0 0 1
13.313682 32.445456 -22.018612 41.409914 1.181408 2.131430 0.003455 0.009621 -290294.000000 0 0 1
14.340682 31.557056 -22.431212 41.287555 1.144259 2.145150 0.005686 0.008519 -412814.000000 0 0 1
15.368182 32.221156 -23.105312 42.523397 1.125751 2.145225 -0.000680 0.014599 75642.600000 0 0 1
16.601082 31.324156 -23.411712 42.484196 1.083456 2.154441 0.000291 0.014818 175639.000000 0 0 1
17.348282 30.950056 -22.283312 41.897671 1.059908 2.131581 0.010611 0.016352 -986095.000000 0 0 1
18.563982 30.502056 -22.760612 42.344330 1.024067 2.138281 0.010154 0.015379 -774254.000000 0 0 1
19.511282 29.890656 -21.703112 41.775190 0.992487 2.117087 0.021834 0.017182 -24361.800000 0 0 1
20.207882 30.865956 -20.939912 42.421052 0.991126 2.087045 0.024754 0.014155 784697.000000 0 0 1
21.254482 30.158956 -20.221112 42.073851 0.956890 2.072146 0.037004 0.013818 595972.000000 0 0 1
21.889782 30.968956 -19.102112 42.463272 0.955501 2.037394 0.040829 -0.004446 -291176.000000 0 0 1
22.796682 31.959356 -19.544712 43.852992 0.951198 2.032738 0.035595 -0.000019 20589.300000 0 0 1
23.381082 32.560056 -18.432712 44.120257 0.948032 2.001801 0.042300 -0.003266 -177446.000000 0 0 1
24.665482 33.414056 -18.573612 45.495760 0.934905 1.991332 0.049788 -0.004688 1122890.000000 0 0 1
25.780782 32.654656 -19.091912 45.776373 0.902492 2.001015 0.052620 -0.008035 -544249.000000 0 0 1
26.995682 33.172356 -18.729712 46.690193 0.887697 1.983567 0.051206 -0.014790 -368996.000000 0 0 1
28.214882 32.404156 -19.332012 47.115131 0.854397 1.993595 0.038141 -0.007125 327240.000000 0 0 1
28.553282 31.178156 -18.826712 46.279719 0.829315 1.989748 0.038866 0.003938 -921909.000000 0 0 1
29.913482 30.976656 -19.006412 47.070301 0.802857 1.986450 0.028771 0.009251 -736776.000000 0 0 1
30.355682 29.621756 -18.356212 46.215434 0.773162 1.979247 0.018264 0.001197 -403357.000000 0 0 1
30.359682 29.686756 -16.955812 45.722131 0.774192 1.950715 0.019292 0.000356 -81708.100000 0 0 1
30.770482 28.442956 -16.431612 45.009134 0.746111 1.944507 0.015248 -0.005344 -283000.000000 0 0 1
31.250882 28.413856 -14.928312 44.797537 0.737884 1.910534 0.024186 -0.002755 222703.000000 0 0 1
32.444982 29.124556 -14.626612 45.987546 0.731521 1.894475 0.025965 -0.001359 -43767.000000 0 0 1
32.379682 30.537056 -14.808512 46.906797 0.756120 1.891991 0.021933 -0.006673 348996.000000 0 0 1
33.797482 31.202956 -14.919512 48.357895 0.745504 1.884436 0.013026 -0.007466 1056370.000000 0 0 1
34.626082 31.074656 -13.749312 48.514362 0.731396 1.858141 0.004057 -0.005844 -119034.000000 0 0 1
-35.684434 31.680656 -14.088212 49.754603 -0.726034 1.857877 0.018320 -0.013709 -69076.200000 0 0 1
-34.929234 32.063356 -12.796212 49.110622 -0.742645 1.834397 0.016249 -0.007418 -274283.000000 0 0 1
-35.416734 33.251456 -12.144112 50.074782 -0.753876 1.815758 0.007521 -0.009583 -82668.100000 0 0 1
-34.616134 33.681556 -11.061212 49.548707 -0.771715 1.795933 0.019341 -0.002963 -92645.000000 0 0 1
-35.325134 -33.960181 -10.241112 50.060358 0.765700 1.776826 0.015309 -0.001248 -13705.000000 0 0 1
-34.496534 -33.249881 -9.358712 48.817527 0.766998 1.763698 0.004981 -0.001165 -26305.700000 0 0 1
-33.947734 -33.937981 -8.210012 48.699482 0.785254 1.740190 -0.004368 -0.009724 388245.000000 0 0 1
-33.156934 -33.049181 -7.255712 47.373791 0.783771 1.724560 0.001542 -0.000623 122281.000000 0 0 1
-34.128434 -32.288881 -6.604512 47.444088 0.757708 1.710456 0.006229 0.002630 -129665.000000 0 0 1
-33.553934 -31.321781 -5.790412 46.264991 0.751005 1.696283 0.010322 -0.003272 44001.800000 0 0 1
-34.653134 -30.353381 -5.265312 46.366917 0.719351 1.684599 0.003679 0.001037 111602.000000 0 0 1
-35.466134 -31.039781 -4.332912 47.329577 0.718940 1.662472 0.005501 -0.002160 -191971.000000 0 0 1
34.758582 -30.541481 -4.429212 46.481814 -0.720907 1.666230 -0.002916 0.001862 89708.000000 0 0 1
34.152182 -29.877781 -3.173212 45.487609 -0.718741 1.640613 -0.001454 0.002886 -116291.000000 0 0 1
34.757282 -28.621981 -2.994212 45.124846 -0.688896 1.637199 0.008948 -0.002816 314619.000000 0 0 1
33.970782 -27.777081 -2.165312 43.934825 -0.685426 1.620101 0.017093 -0.011491 -27181.700000 0 0 1
34.303182 -26.239081 -2.255312 43.246781 -0.652980 1.622970 0.030595 -0.016996 -297393.000000 0 0 1
34.105682 -25.834281 -3.589912 42.935942 -0.648269 1.654505 0.025331 -0.013696 249126.000000 0 0 1
33.828682 -24.470081 -3.624512 41.908253 -0.626228 1.657391 0.034728 -0.021027 -412855.000000 0 0 1
33.408282 -23.928881 -4.994912 41.396302 -0.621553 1.691752 0.041283 -0.029461 -667770.000000 0 0 1
34.353482 -24.040481 -6.006912 42.357873 -0.610590 1.713089 0.038250 -0.029692 -690627.000000 0 0 1
33.798482 -23.616681 -7.172112 41.851215 -0.609886 1.743018 0.025362 -0.025814 -244583.000000 0 0 1
34.817182 -23.293681 -8.315012 42.707975 -0.589636 1.766742 0.020178 -0.019337 -117012.000000 0 0 1
35.342482 -24.505181 -8.755812 43.889169 -0.606258 1.771642 0.016820 -0.012613 -203048.000000 0 0 1
-35.416334 -24.303581 -9.918512 44.083531 0.601421 1.797733 0.008212 -0.005004 158335.000000 0 0 1
-35.078234 -25.587181 -10.753212 44.730503 0.630207 1.813574 -0.006995 0.000998 126842.000000 0 0 1
-34.151434 -26.447581 -10.097112 44.359291 0.658948 1.800430 -0.001601 0.009305 413892.000000 0 0 1
-34.811234 -27.490681 -9.406012 45.343496 0.668433 1.779753 -0.006559 0.009748 -408278.000000 0 0 1
-33.811234 -28.463481 -8.818312 45.068081 0.699735 1.767733 -0.004048 0.009348 -372056.000000 0 0 1
-33.143034 -29.141481 -9.869612 45.222736 0.721240 1.790812 -0.006508 0.005274 85435.100000 0 0 1
-32.588934 -30.355281 -9.378512 45.513056 0.749927 1.778345 -0.006707 0.005815 -300629.000000 0 0 1
-32.034534 -31.307681 -10.432412 45.991494 0.773924 1.799622 0.005135 0.009191 -600470.000000 0 0 1
-30.719234 -31.012481 -10.805612 44.968952 0.790148 1.813461 0.005361 0.012197 -243464.000000 0 0 1
-30.335234 -31.618981 -12.049212 45.444141 0.806116 1.839149 0.001424 0.005865 -353999.000000 0 0 1
-30.596134 -30.864781 -13.368512 45.469498 0.789769 1.869216 -0.003430 0.001322 -555688.000000 0 0 1
-29.820234 -29.750581 -13.601012 44.264331 0.784229 1.883117 0.004640 0.008702 -454380.000000 0 0 1
-30.160834 -29.204781 -14.841612 44.529413 0.769295 1.910597 -0.009280 0.012044 -44044.700000 0 0 1
-29.228034 -28.078981 -15.359712 43.343142 0.765350 1.933042 -0.002537 0.008439 -67073.300000 0 0 1
-27.963234 -28.571981 -15.722812 42.959369 0.796165 1.945496 0.002977 0.008875 20890.300000 0 0 1
-27.216634 -27.640781 -16.546512 42.172800 0.793130 1.973982 0.021679 0.014162 256127.000000 0 0 1
-25.788634 -28.092081 -16.904312 41.713001 0.828123 1.988052 0.032689 0.005167 -279070.000000 0 0 1
-25.689334 -28.946481 -18.045612 42.702281 0.844943 2.007099 0.015867 0.011207 21890.000000 0 0 1
-25.894834 -28.423681 -19.345912 43.043146 0.831920 2.036950 0.011579 0.011318 -534834.000000 0 0 1
-24.677734 -27.678681 -19.872612 42.071614 0.842653 2.062754 0.025376 0.007463 -413933.000000 0 0 1
-24.335434 -26.578481 -19.126712 40.797796 0.829425 2.058748 0.026549 0.002680 -574155.000000 0 0 1
-22.981734 -26.238681 -19.179512 39.805555 0.851472 2.073538 0.042589 -0.006895 -468200.000000 0 0 1
-22.677134 -25.000581 -18.313012 38.401144 0.834092 2.067906 0.041504 -0.003149 -198312.000000 0 0 1
-22.753334 -25.245681 -16.934812 37.971654 0.837277 2.033071 0.052040 -0.000057 220362.000000 0 0 1
-22.233134 -24.182081 -16.153612 36.606345 0.827363 2.027820 0.063172 -0.005029 -32483.300000 0 0 1
-22.691034 -24.177381 -14.646812 36.248557 0.817101 1.986754 0.050873 0.008047 317370.000000 0 0 1
-24.087434 -23.923081 -14.460412 36.900160 0.781975 1.973470 0.015270 0.026680 573687.000000 0 0 1
-24.478234 -24.030581 -13.121512 36.726378 0.776170 1.936148 0.012443 0.025781 450882.000000 0 0 1
-26.019134 -24.117681 -12.911712 37.754075 0.747491 1.919836 0.004207 0.033499 -282450.000000 0 0 1
-26.499834 -25.416281 -13.189912 39.015412 0.764530 1.915661 0.011147 0.023963 566236.000000 0 0 1
-27.818034 -25.714781 -12.722212 39.961828 0.746129 1.894794 0.018262 0.019539 1077500.000000 0 0 1
-29.039534 -24.934481 -13.358512 40.539768 0.709488 1.906587 0.012629 0.013393 -313559.000000 0 0 1
-29.261734 -23.681581 -12.715312 39.733431 0.680387 1.896542 0.019527 0.022666 319390.000000 0 0 1
-29.919934 -23.675681 -11.429912 39.829427 0.669414 1.861860 0.026948 0.014689 -15982.900000 0 0 1
-31.426634 -24.030281 -11.309312 41.145939 0.652809 1.849239 0.024801 0.010789 414688.000000 0 0 1
-32.450834 -23.166381 -11.786512 41.577154 0.619989 1.858223 0.025368 0.000557 473534.000000 0 0 1
-32.448334 -22.912381 -13.184312 41.853288 0.614821 1.891266 0.029451 0.005724 -881259.000000 0 0 1
-33.864134 -22.574681 -13.675812 42.935110 0.587974 1.894967 -0.001001 -0.003499 -233960.000000 0 0 1
-34.748934 -23.638681 -13.501712 44.142631 0.597362 1.881644 0.000074 0.004792 438371.000000 0 0 1
35.426482 -23.277381 -13.731312 44.558063 -0.581323 1.884062 0.003608 -0.004837 975304.000000 0 0 1
34.412882 -24.460581 -13.575712 44.349368 -0.617936 1.881899 -0.003213 0.005673 123776.000000 0 0 1
34.720782 -25.507781 -14.425412 45.434261 -0.633607 1.893889 -0.004173 0.011203 133487.000000 0 0 1
34.138682 -26.740181 -13.964612 45.557626 -0.664463 1.882338 -0.007848 0.001717 45750.400000 0 0 1
34.006282 -27.864081 -15.055412 46.470417 -0.686447 1.900728 -0.003231 -0.000255 819868.000000 0 0 1
33.029782 -27.404381 -16.024812 45.812238 -0.692582 1.928147 0.010549 -0.017025 384673.000000 0 0 1
32.685882 -28.511781 -16.825612 46.523002 -0.717297 1.940847 0.013230 -0.009724 -162260.000000 0 0 1
31.754982 -28.195081 -18.027212 46.133739 -0.726087 1.972253 0.026029 -0.013682 -21376.000000 0 0 1
30.439782 -28.012381 -17.545612 44.934645 -0.743894 1.971938 0.043192 -0.021826 -172456.000000 0 0 1
29.544782 -28.102481 -18.658712 44.841846 -0.760384 1.999949 0.057160 -0.021068 305077.000000 0 0 1
28.076482 -28.332081 -18.243512 43.861388 -0.789929 1.999768 0.056140 -0.022394 15457.800000 0 0 1
27.568282 -27.351781 -17.404812 42.556522 -0.781456 1.992134 0.048876 -0.017285 -475222.000000 0 0 1
26.268982 -27.658281 -16.959412 41.745198 -0.811155 1.989154 0.052251 -0.015088 -133690.000000 0 0 1
25.816782 -26.671181 -15.881412 40.374217 -0.801675 1.975075 0.050236 -0.017188 -260616.000000 0 0 1
25.574082 -25.390981 -16.378112 39.585075 -0.781806 1.997360 0.059421 -0.023174 -142240.000000 0 0 1
25.592982 -24.424481 -15.403412 38.585245 -0.762041 1.981446 0.048096 -0.021427 -149591.000000 0 0 1
25.384982 -22.952481 -15.876112 37.726180 -0.735117 2.005151 0.041145 -0.025357 -404527.000000 0 0 1
24.047082 -22.591481 -16.010512 36.673883 -0.754198 2.022573 0.041036 -0.021438 -495947.000000 0 0 1
23.963382 -21.194181 -16.008912 35.773206 -0.724152 2.034777 0.043484 -0.023804 284458.000000 0 0 1
22.494082 -20.689881 -16.122012 34.553931 -0.743643 2.056211 0.040006 -0.021906 66626.900000 0 0 1
21.838682 -20.746281 -14.888412 33.600610 -0.759752 2.029849 0.041589 -0.029854 -837584.000000 0 0 1
20.599182 -20.142981 -15.037312 32.499027 -0.774201 2.051835 0.037232 -0.033538 -747440.000000 0 0 1
20.342482 -18.822881 -14.228012 31.153712 -0.746618 2.045083 0.015895 -0.021722 -212390.000000 0 0 1
20.176482 -19.077581 -12.883112 30.610768 -0.757411 2.005199 0.023217 -0.034424 167662.000000 0 0 1
19.824582 -17.906181 -12.182212 29.360716 -0.734597 1.998646 0.022471 -0.036760 -395415.000000 0 0 1
18.914782 -18.235781 -10.985012 28.477766 -0.767123 1.966806 0.020489 -0.017735 -449053.000000 0 0 1
19.684382 -18.707781 -9.910112 28.907893 -0.759966 1.920710 0.029154 -0.028738 195883.000000 0 0 1
18.865482 -19.070381 -8.799712 28.231556 -0.790799 1.887776 0.023382 -0.025639 25056.700000 0 0 1
19.569782 -19.845681 -7.635812 28.898669 -0.792398 1.838199 0.023588 -0.019796 -200333.000000 0 0 1
20.366982 -18.957081 -6.886212 28.663649 -0.749560 1.813411 0.020199 -0.016823 131348.000000 0 0 1
21.169782 -19.648181 -5.921912 29.483550 -0.748138 1.773027 0.030803 -0.002134 -96158.400000 0 0 1
22.398682 -18.788981 -5.568612 29.761321 -0.697981 1.759015 0.026043 -0.006170 -267239.000000 0 0 1
23.395582 -18.834981 -6.580712 30.747610 -0.677822 1.786488 0.022249 -0.022077 -51435.000000 0 0 1
24.173782 -17.690881 -6.512612 30.655393 -0.631765 1.784874 0.030067 -0.025762 -667199.000000 0 0 1
25.253382 -17.626581 -7.591512 31.718460 -0.609375 1.812483 0.042375 -0.034211 -592404.000000 0 0 1
26.248482 -18.574281 -7.675312 33.058995 -0.615830 1.805105 0.054845 -0.042840 -61313.300000 0 0 1
25.840382 -19.752181 -8.365712 33.583614 -0.652649 1.822548 0.060150 -0.046370 -508624.000000 0 0 1
26.872182 -20.880081 -8.169312 34.997566 -0.660568 1.806395 0.060839 -0.044581 -711192.000000 0 0 1
28.031082 -20.543281 -8.841812 35.860084 -0.632451 1.819930 0.067970 -0.042665 -372090.000000 0 0 1
29.031982 -21.545981 -8.525412 37.145227 -0.638456 1.802376 0.060235 -0.041799 255368.000000 0 0 1
-29.928158 29.995356 4.560888 42.617106 -0.786520 1.463571 0.037293 -0.011953 253207.000000 0 0 1
-29.188318 30.598656 3.521588 42.433916 -0.808983 1.487711 0.030660 -0.013607 -420784.000000 0 0 1
-28.222678 31.468556 4.042188 42.463265 -0.839722 1.475459 0.031238 -0.007587 -126501.000000 0 0 1
-27.753108 32.453156 2.977688 42.805478 -0.863306 1.501177 0.031033 -0.006760 -360693.000000 0 0 1
-26.758478 31.889156 2.109888 41.681963 -0.872659 1.520156 0.027771 -0.013967 213820.000000 0 0 1
-26.280818 32.922656 1.285288 42.145399 -0.897118 1.540295 0.018941 -0.016602 -177428.000000 0 0 1
-25.117058 33.789456 1.755688 42.138775 -0.931571 1.529120 0.049849 -0.009448 -233913.000000 0 0 1
-23.795618 33.287156 1.604688 40.949251 -0.950167 1.531599 0.031840 -0.011972 -157785.000000 0 0 1
-22.900418 34.129356 2.275988 41.163360 -0.979807 1.515477 0.038382 -0.004539 87065.200000 0 0 1
-21.434818 33.700056 2.006188 39.989623 -1.004293 1.520608 0.030686 -0.010795 175390.000000 0 0 1
-21.081718 34.004556 0.689388 40.015296 -1.015824 1.553567 0.046734 -0.009903 -103394.000000 0 0 1
-19.663018 33.947056 0.638288 39.235753 -1.045792 1.554528 0.042846 -0.015822 48665.600000 0 0 1
-19.025518 -34.119481 -0.578012 39.069725 1.062126 1.585591 0.044412 -0.015806 -118534.000000 0 0 1
-18.876518 -32.716881 -0.690412 37.778220 1.047486 1.589073 0.046868 -0.009254 203498.000000 0 0 1
-18.213718 -32.109481 0.414788 36.917887 1.054815 1.559561 0.041128 -0.008349 -214302.000000 0 0 1
-18.074018 -30.582681 0.198988 35.524782 1.037029 1.565195 0.047399 -0.015110 262511.000000 0 0 1
-17.108818 -30.208581 -0.799012 34.726193 1.055482 1.593807 0.066177 -0.009226 581390.000000 0 0 1
-16.932118 -28.805681 -0.835412 33.423971 1.039392 1.595793 0.048898 -0.003969 -224633.000000 0 0 1
-15.907318 -28.342381 -1.872712 32.555190 1.059353 1.628352 0.046524 0.001398 -371436.000000 0 0 1
-16.332118 -28.498881 -3.211912 33.003647 1.050407 1.668271 0.042398 0.004713 -557907.000000 0 0 1
-15.582418 -27.806281 -4.131712 32.141439 1.060010 1.699701 0.046047 0.008395 -630686.000000 0 0 1
-16.179118 -27.618181 -5.552812 32.486328 1.040873 1.742567 0.063354 0.007096 529161.000000 0 0 1
-17.335718 -26.750581 -5.575312 32.360544 0.995793 1.743948 0.030316 0.015452 168605.000000 0 0 1
-17.853418 -26.822781 -6.868112 32.945062 0.983528 1.780808 0.051843 0.014673 22456.500000 0 0 1
-18.388018 -25.449181 -7.341412 32.244013 0.945103 1.800494 0.030493 0.020404 453378.000000 0 0 1
-17.400218 -24.405281 -7.281712 30.844913 0.951419 1.809121 0.039924 0.015914 794595.000000 0 0 1
-18.018318 -23.139881 -7.595012 30.295183 0.909198 1.824200 0.016644 0.015739 349568.000000 0 0 1
-16.983518 -22.011881 -7.274612 28.738176 0.913638 1.826715 0.022933 0.011630 409705.000000 0 0 1
-15.916118 -21.972981 -8.195712 28.342625 0.943915 1.864151 0.050008 0.007459 -1263830.000000 0 0 1
-14.852818 -21.318181 -7.634112 27.080449 0.962275 1.856575 0.063827 -0.008841 -702112.000000 0 0 1
-13.676818 -21.158581 -8.600312 26.621538 0.996959 1.899756 0.060528 -0.001244 -13969.800000 0 0 1
-14.024318 -20.331981 -9.746412 26.553032 0.966972 1.946637 0.052817 0.001299 -395299.000000 0 0 1
-13.006618 -20.315081 -10.701312 26.389254 1.001310 1.988342 0.054219 0.002979 -89978.600000 0 0 1
-13.371318 -19.428581 -11.920112 26.426331 0.968014 2.038760 0.059032 -0.002097 -601064.000000 0 0 1
-14.383118 -19.922481 -12.731512 27.674370 0.945487 2.048845 0.050165 0.013654 -662829.000000 0 0 1
-14.613918 -19.036081 -13.757212 27.662246 0.916066 2.091313 0.045796 -0.007595 249598.000000 0 0 1
-15.811418 -19.554181 -14.612812 29.084381 0.890836 2.097201 0.055113 -0.005462 650957.000000 0 0 1
-17.066818 -19.456581 -13.968112 29.409913 0.850736 2.065699 0.064903 -0.009731 551460.000000 0 0 1
-18.213618 -19.593181 -14.781512 30.563405 0.821872 2.075599 0.049324 -0.001072 778569.000000 0 0 1
-19.665218 -19.406081 -14.253712 31.088344 0.778766 2.047092 0.027838 0.009392 409504.000000 0 0 1
-20.528918 -20.174581 -15.059412 32.484398 0.776693 2.052838 0.038296 -0.002232 77253.200000 0 0 1
-21.864218 -19.858181 -14.653412 32.971410 0.737355 2.031332 0.026433 0.008662 510401.000000 0 0 1
-22.947818 -20.642681 -15.471112 34.526482 0.732566 2.035429 0.028650 0.005595 -8453.990000 0 0 1
-23.141318 -20.016981 -16.701712 34.858963 0.713132 2.070451 0.026415 -0.010622 688266.000000 0 0 1
-24.034918 -20.766681 -17.557012 36.292988 0.712578 2.075739 0.028846 -0.014553 286325.000000 0 0 1
-24.210118 -20.106881 -18.932712 36.726885 0.693073 2.112387 0.033805 -0.015658 162196.000000 0 0 1
-23.013918 -20.046881 -19.700212 36.326522 0.716603 2.143980 0.027624 -0.021032 297249.000000 0 0 1
-23.245518 -19.651081 -21.072112 37.020981 0.701800 2.176321 0.038292 -0.026463 -148900.000000 0 0 1
-22.133718 -18.856281 -21.810312 36.347634 0.705611 2.214357 0.026386 -0.019791 -184412.000000 0 0 1
-20.970018 -19.562381 -22.105112 36.208623 0.750683 2.227479 0.024863 -0.019656 -266157.000000 0 0 1
-19.985618 -18.701981 -22.692312 35.554607 0.752231 2.263004 0.032397 -0.025466 387285.000000 0 0 1
-18.653918 -19.463681 -22.921012 35.386104 0.806639 2.275411 0.038670 -0.019948 -231185.000000 0 0 1
-18.596918 -20.622681 -23.781312 36.560787 0.837004 2.278986 0.020906 -0.012228 -76932.300000 0 0 1
-17.298518 -21.187881 -23.720012 36.205027 0.886114 2.285188 0.015425 -0.002298 102054.000000 0 0 1
-17.327718 -22.680681 -24.066912 37.334694 0.918404 2.271330 0.017869 0.002771 -219457.000000 0 0 1
-17.396318 -22.865581 -25.511722 38.422840 0.920414 2.296916 0.018334 0.005531 175746.000000 0 0 1
-17.536918 -24.198281 -25.995372 39.608833 0.943673 2.286704 0.025195 -0.007250 -237082.000000 0 0 1
-17.536118 -24.288281 -27.510272 40.672486 0.945458 2.313640 0.022533 0.003618 -353820.000000 0 0 1
-16.295818 -24.139781 -28.162192 40.514094 0.977005 2.339384 0.019680 0.007701 -184576.000000 0 0 1
-16.402718 -24.184881 -29.577752 41.578854 0.974836 2.362235 0.024443 0.003176 -677837.000000 0 0 1
-15.102218 -24.097881 -30.343052 41.587085 1.010973 2.388572 0.013555 -0.003476 -539155.000000 0 0 1
-14.201918 -25.140781 -30.125292 41.728726 1.056589 2.377386 0.020105 0.002416 927429.000000 0 0 1
-12.842018 -24.884681 -30.553952 41.445250 1.094382 2.399732 0.037147 -0.002933 1410440.000000 0 0 1
-11.857218 -25.990781 -30.124012 41.515906 1.142791 2.382705 0.043848 -0.007769 -696108.000000 0 0 1
-12.153518 -27.275981 -30.724212 42.844654 1.151628 2.370439 0.042845 -0.008274 461215.000000 0 0 1
-11.180818 -28.273081 -30.426222 43.013170 1.194212 2.356567 0.040804 -0.010647 1685010.000000 0 0 1
-9.749218 -28.177381 -31.144342 43.115915 1.237694 2.377976 0.033792 -0.012210 1664170.000000 0 0 1
-9.050418 -26.972681 -30.691992 41.850137 1.247061 2.394075 0.032351 -0.023788 -306061.000000 0 0 1
-8.000718 -26.570781 -31.509392 41.986423 1.278322 2.419564 0.035458 -0.018970 -679373.000000 0 0 1
-7.141918 -25.423481 -30.976672 40.705216 1.296936 2.435650 0.044938 -0.023173 -953198.000000 0 0 1
-7.696018 -24.110181 -30.911702 39.950755 1.261817 2.455528 0.057655 -0.017906 21235.300000 0 0 1
-8.662918 -23.782881 -29.941612 39.206782 1.221483 2.439798 0.046784 -0.009352 5924.300000 0 0 1
-9.133818 -22.301181 -30.081812 38.544581 1.182070 2.466169 0.053099 -0.021423 -278565.000000 0 0 1
-9.752018 -21.871881 -31.260532 39.378953 1.151382 2.487892 0.051507 -0.016815 -105065.000000 0 0 1
-10.237318 -20.568781 -31.160352 38.714919 1.108981 2.506247 0.055814 -0.020897 -58255.500000 0 0 1
-11.147418 -20.131081 -32.320452 39.675395 1.065085 2.522874 0.052510 -0.021715 171708.000000 0 0 1
-11.704318 -18.801481 -32.111082 39.007799 1.013982 2.537815 0.057729 -0.018962 209811.000000 0 0 1
-12.428418 -18.470381 -33.270752 40.032031 0.978502 2.551885 0.058888 -0.018945 -393892.000000 0 0 1
-13.218218 -17.105581 -33.167282 39.590287 0.912898 2.563970 0.069238 -0.023049 43122.300000 0 0 1
-12.446518 -15.919881 -33.254922 38.913343 0.907238 2.595556 0.068556 -0.022243 -72180.800000 0 0 1
-11.611618 -15.602181 -32.172542 37.594284 0.930998 2.597858 0.062864 -0.015605 -38473.400000 0 0 1
-11.259418 -14.119381 -32.269922 36.979444 0.897616 2.631389 0.056952 -0.019170 -339313.000000 0 0 1
-10.357818 -13.705681 -33.264802 37.438979 0.923637 2.664878 0.061277 -0.021494 -211163.000000 0 0 1
-10.771318 -13.664981 34.123586 38.303683 0.903266 0.471540 0.061847 -0.018287 -491495.000000 0 0 1
-11.546018 -12.420381 33.668470 37.698040 0.821865 0.466586 0.045274 -0.011353 -166797.000000 0 0 1
-12.915918 -12.406681 33.979139 38.410006 0.765291 0.485069 0.039165 -0.013112 -378499.000000 0 0 1
-13.591718 -11.544381 33.071343 37.572879 0.704128 0.494530 0.034270 -0.015501 627860.000000 0 0 1
-14.791818 -10.794081 33.705848 38.358757 0.630404 0.497664 0.043198 -0.015561 331940.000000 0 0 1
-14.348018 -9.749181 -34.218558 38.364331 0.596821 2.672407 0.057634 -0.024995 -220417.000000 0 0 1
-15.358518 -9.193781 -33.421892 37.913488 0.539398 2.649890 0.057836 -0.021122 -149552.000000 0 0 1
-14.781818 -8.294581 -32.303002 36.479942 0.511351 2.658366 0.058174 -0.035398 51211.100000 0 0 1
-14.278218 -7.022981 -32.784712 36.442106 0.457120 2.689737 0.055176 -0.041024 427562.000000 0 0 1
-15.229718 -5.962581 -32.769182 36.623981 0.373166 2.678660 0.053378 -0.036216 123138.000000 0 0 1
-15.434918 -5.315581 -31.395792 35.386267 0.331665 2.662104 0.054109 -0.036414 -183313.000000 0 0 1
-16.011718 -6.208281 -30.479702 34.984713 0.369887 2.628497 0.053772 -0.039029 -195295.000000 0 0 1
-16.272618 -5.701581 -29.170632 33.885571 0.337012 2.607748 0.058250 -0.042464 641201.000000 0 0 1
-15.061218 -5.076881 -28.352052 32.503136 0.325121 2.630656 0.056411 -0.036858 725044.000000 0 0 1
-14.610418 -3.883781 -28.920772 32.633712 0.259814 2.659925 0.059672 -0.023962 41754.700000 0 0 1
-13.405518 -3.423981 -28.327202 31.525576 0.250069 2.687243 0.046840 -0.015204 222176.000000 0 0 1
-12.979418 -2.078981 -28.942542 31.787705 0.158826 2.715276 0.028493 0.005500 -112589.000000 0 0 1
-12.922418 -2.150981 -30.375212 33.079739 0.164941 2.734415 0.033502 0.001553 171172.000000 0 0 1
-13.295618 -0.950981 -30.979592 33.725553 0.071404 2.735267 0.033644 -0.003988 -86991.700000 0 0 1
-13.471318 -1.009981 -32.520902 35.215132 0.074833 2.747883 0.028012 -0.013084 528537.000000 0 0 1
-14.739518 -1.558981 -32.917722 36.100696 0.105377 2.718517 0.017348 -0.013649 786653.000000 0 0 1
-14.780618 -1.404981 -34.321311 37.395094 0.094771 2.733306 0.020570 -0.011769 603425.000000 0 0 1
-16.106718 -2.058981 33.931452 37.616608 0.127144 0.446338 0.012507 -0.008547 603804.000000 0 0 1
-16.145418 -2.025981 32.533061 36.375530 0.124831 0.463783 0.020547 -0.013989 509993.000000 0 0 1
-17.478118 -1.889981 32.044961 36.550460 0.107716 0.501771 0.024743 -0.008239 276115.000000 0 0 1
-17.680418 -1.703981 30.528381 35.319722 0.096080 0.526952 0.033599 -0.005280 -18823.800000 0 0 1
-16.999418 -0.557981 30.015091 34.499235 0.032812 0.515550 0.024599 0.004234 108305.000000 0 0 1
-16.899418 -0.645981 28.599351 33.225449 0.038206 0.534023 0.020535 0.000984 -104746.000000 0 0 1
-16.180618 0.603019 27.932111 32.285892 -0.037251 0.525349 0.017077 0.000815 78455.700000 0 0 1
-16.596818 1.941019 28.150171 32.736127 -0.116422 0.535700 0.015859 -0.001309 -159302.000000 0 0 1
-17.972618 2.203019 27.937091 33.291881 -0.121968 0.575066 0.022146 -0.002911 224482.000000 0 0 1
-18.337518 2.946019 26.603431 32.445125 -0.159294 0.609470 0.019837 -0.005088 -260604.000000 0 0 1
-17.997618 4.335019 26.600271 32.408040 -0.236364 0.608000 0.017259 -0.002924 164728.000000 0 0 1
-18.317818 4.976019 25.385881 31.697731 -0.265248 0.642043 0.011517 -0.001076 -929759.000000 0 0 1
-18.024218 6.482019 25.404051 31.815952 -0.345226 0.646048 0.005929 -0.003420 945689.000000 0 0 1
-16.654918 6.913019 25.491741 31.225070 -0.393433 0.615669 0.008366 -0.002157 835643.000000 0 0 1
-15.894618 6.585019 24.340101 29.806742 -0.392766 0.615305 0.002057 -0.007472 -832400.000000 0 0 1
-14.684818 7.449019 23.992611 29.099435 -0.469439 0.601471 -0.006526 0.005217 -889108.000000 0 0 1
-13.646618 7.316019 24.906351 29.327131 -0.492113 0.556215 0.005827 -0.000742 -1104890.000000 0 0 1
-12.591718 8.011019 24.317951 28.532271 -0.566622 0.550436 0.015590 0.003792 -1015180.000000 0 0 1
-11.355118 8.116019 25.206961 28.813180 -0.620554 0.505688 0.024532 0.020114 -602283.000000 0 0 1
-10.402618 8.955019 24.557111 28.132872 -0.710755 0.509687 0.028600 0.017393 268519.000000 0 0 1
-9.234318 9.176019 25.325001 28.475035 -0.782232 0.474819 0.036634 0.004658 -119570.000000 0 0 1
-9.390918 10.351019 26.259021 29.746749 -0.833992 0.489107 0.042954 -0.007860 -538168.000000 0 0 1
-10.419318 10.270019 27.268941 30.945607 -0.778182 0.492424 0.028262 -0.005892 532735.000000 0 0 1
-10.627018 11.398019 28.014591 32.057224 -0.820390 0.507642 0.054675 -0.013213 -504087.000000 0 0 1
-11.211218 12.645019 27.231211 32.048818 -0.845428 0.555420 0.044893 -0.013292 811086.000000 0 0 1
-12.590318 12.489019 26.824281 32.156395 -0.781359 0.584149 0.030712 -0.009618 925877.000000 0 0 1
-12.816318 11.550019 25.799851 31.036966 -0.733476 0.589422 0.024749 -0.003052 -1577100.000000 0 0 1
-14.280818 11.463019 25.417771 31.327394 -0.676377 0.624323 -0.009122 0.003375 -614017.000000 0 0 1
-14.753418 12.725019 24.955491 31.660164 -0.711714 0.662869 0.006465 0.000826 -291709.000000 0 0 1
-15.976718 12.786019 24.262681 31.739809 -0.674918 0.700648 0.012940 0.008826 -44104.500000 0 0 1
-15.993618 12.262019 22.810551 30.438038 -0.654092 0.723627 0.004704 0.013289 -217183.000000 0 0 1
-16.023618 10.884019 22.758151 29.885642 -0.596663 0.705160 -0.004611 0.013864 86339.400000 0 0 1
-15.694618 10.461019 21.459651 28.570449 -0.587912 0.721049 0.006818 0.017905 -398053.000000 0 0 1
-16.008018 8.981019 21.193551 28.037153 -0.511274 0.713754 0.006427 0.008476 -940786.000000 0 0 1
-17.355118 8.755019 21.022351 28.631970 -0.467212 0.746270 0.010282 0.012368 -1238090.000000 0 0 1
-17.767018 7.429019 20.795151 28.342469 -0.396042 0.747030 0.003845 0.005026 121213.000000 0 0 1
-19.299018 7.329019 20.977351 29.431545 -0.362938 0.777384 0.024098 -0.001587 -110865.000000 0 0 1
-19.753718 7.516019 22.289551 30.716836 -0.363572 0.758823 0.013261 -0.000877 661148.000000 0 0 1
-21.157018 7.835019 22.256851 31.691866 -0.354668 0.792188 0.018732 -0.003094 620927.000000 0 0 1
-21.540518 8.552019 23.575151 33.059321 -0.377935 0.776862 0.033112 -0.008187 -836978.000000 0 0 1
-21.284318 9.958019 23.639951 33.332141 -0.437604 0.782400 0.025137 -0.005217 993096.000000 0 0 1
-19.951418 10.522019 23.577251 32.629108 -0.485312 0.763264 0.017180 0.002923 1417550.000000 0 0 1
-18.931718 9.957019 24.630191 32.622055 -0.484187 0.715117 0.011733 -0.004512 -297636.000000 0 0 1
-19.131418 10.592019 25.866341 33.871368 -0.505638 0.701827 0.023360 0.001310 403276.000000 0 0 1
-18.451718 9.922019 26.953891 34.138315 -0.493373 0.660722 0.025309 -0.006825 324173.000000 0 0 1
-30.261578 -13.870744 20.746951 39.224949 0.429786 1.013466 0.005429 0.007512 -135671.000000 0 0 1
-29.686718 -15.061544 21.162951 39.446443 0.469510 1.004514 0.009413 0.000697 52745.200000 0 0 1
-30.436178 -16.226644 20.754351 40.254292 0.489804 1.029111 0.001170 0.005139 289796.000000 0 0 1
-30.327768 -16.578344 19.235351 39.555199 0.500259 1.062956 -0.001759 0.004130 -194379.000000 0 0 1
-30.907458 -15.639244 18.431551 39.237469 0.468438 1.081796 0.003507 -0.009243 -596248.000000 0 0 1
-30.213868 -15.444144 17.227651 38.055110 0.472536 1.101002 0.014862 -0.011120 -1420340.000000 0 0 1
-30.840288 -14.442844 16.220251 37.720229 0.437977 1.126287 0.010706 -0.004839 -95276.600000 0 0 1
-32.123288 -14.813344 15.711451 38.706466 0.432080 1.152819 0.029383 -0.009135 476109.000000 0 0 1
-33.205348 -14.680844 16.594651 39.918727 0.416284 1.142072 0.025224 -0.009093 -1119090.000000 0 0 1
-33.669058 -13.299644 17.053951 40.016537 0.376198 1.130539 0.014471 -0.010642 -1841610.000000 0 0 1
-34.860602 -13.389244 17.727651 41.337671 0.366707 1.127577 0.010325 -0.011284 -630195.000000 0 0 1
-35.367043 -12.043644 18.059651 41.497326 0.328216 1.120536 0.012215 -0.000855 80121.700000 0 0 1
35.215388 -12.112944 19.225751 41.910338 -0.331290 1.094225 0.022281 0.006932 -558833.000000 0 0 1
-35.671589 -12.465044 20.427851 42.955054 0.336175 1.075192 0.009187 0.005692 -144354.000000 0 0 1
35.096458 -12.266344 21.583851 42.989384 -0.336233 1.044801 0.010169 -0.000213 -836561.000000 0 0 1
-35.712796 -12.575544 22.940451 44.269769 0.338571 1.026055 0.005947 -0.000208 490077.000000 0 0 1
-34.562277 -11.787044 23.242951 43.286490 0.328669 1.003971 -0.003813 0.003454 731696.000000 0 0 1
-33.374508 -12.390244 22.700351 42.221818 0.355478 1.003155 -0.002230 0.000629 104885.000000 0 0 1
-32.175048 -11.410744 22.675151 40.982939 0.340808 0.984496 0.007039 0.003754 -36263.700000 0 0 1
-32.301868 -10.364544 21.705651 40.273685 0.310488 1.001602 0.013722 0.001178 -317429.000000 0 0 1
-31.183078 -9.539344 21.741551 39.192837 0.296874 0.982755 0.018040 0.001287 -678936.000000 0 0 1
-31.471558 -8.134744 21.191751 38.803651 0.252943 0.993062 0.012789 0.003562 20735.100000 0 0 1
-31.746638 -8.050644 19.785451 38.263899 0.248355 1.027362 0.010791 0.003607 834790.000000 0 0 1
-32.951768 -8.608444 19.233351 39.113247 0.255533 1.056715 0.010394 0.003529 246066.000000 0 0 1
-33.155028 -8.388244 17.700451 38.508759 0.247801 1.093198 0.019291 0.001099 -418083.000000 0 0 1
-34.486728 -8.568044 17.310551 39.527218 0.243514 1.117490 -0.001849 0.004359 -187119.000000 0 0 1
-34.833726 -8.446544 15.937851 39.226874 0.237890 1.152396 0.010387 0.007737 -103824.000000 0 0 1
35.187858 -8.500144 15.722851 39.467022 -0.237024 1.161047 0.018696 0.002650 -87788.900000 0 0 1
34.614638 -9.742744 16.077451 39.390083 -0.274365 1.150359 0.016920 0.009286 -175802.000000 0 0 1
33.213068 -9.649944 16.094051 38.147710 -0.282762 1.135270 0.003214 0.010598 -489325.000000 0 0 1
32.412628 -10.960744 16.097751 37.813410 -0.326091 1.131044 0.018668 -0.002968 -341758.000000 0 0 1
32.603478 -11.790544 17.188951 38.697077 -0.347002 1.110524 0.029179 -0.010877 -526782.000000 0 0 1
31.683418 -12.805444 17.172451 38.245411 -0.384095 1.105143 0.037165 -0.011950 -437998.000000 0 0 1
31.336688 -13.276444 18.631551 38.799313 -0.400744 1.069910 0.037744 -0.012176 553428.000000 0 0 1
32.311498 -14.172544 19.191051 40.164541 -0.413352 1.072635 0.031445 -0.020459 396729.000000 0 0 1
32.018228 -14.320044 20.611251 40.682358 -0.420562 1.039515 0.032853 -0.020239 -35135.000000 0 0 1
32.681068 -15.503444 21.285751 41.970134 -0.442947 1.038905 0.016151 -0.010662 -240145.000000 0 0 1
32.692338 -15.428544 22.724351 42.699239 -0.440942 1.009604 0.010294 -0.015974 -139301.000000 0 0 1
33.146618 -16.669644 23.259451 43.790151 -0.465970 1.010831 0.007319 -0.012444 -173569.000000 0 0 1
33.554768 -16.548144 24.690901 44.826377 -0.458167 0.987460 0.010847 -0.006234 -1005210.000000 0 0 1
34.640568 -15.732744 24.845971 45.440185 -0.426317 0.992278 0.017620 0.001498 -896215.000000 0 0 1
34.943188 -15.588844 26.186961 46.365886 -0.419622 0.970618 0.004486 0.006936 -394314.000000 0 0 1
-35.500203 -14.533444 26.379561 46.554985 0.388575 0.968383 0.009420 0.001082 192819.000000 0 0 1
-34.169998 -14.954244 26.059741 45.500860 0.412530 0.960963 -0.008284 0.003844 341553.000000 0 0 1
-33.350748 -13.817844 26.231561 44.623985 0.392789 0.942416 -0.004201 -0.001288 480868.000000 0 0 1
-31.827008 -14.088444 26.008811 43.449982 0.416731 0.929054 0.008899 0.002514 228784.000000 0 0 1
-31.536018 -14.385844 24.683741 42.553026 0.427975 0.951982 0.003584 0.004076 1153290.000000 0 0 1
-30.138048 -14.717244 24.450241 41.505584 0.454266 0.940873 0.016758 -0.005137 1378450.000000 0 0 1
-29.780748 -16.189944 24.666541 41.921898 0.497946 0.941727 0.013331 0.000134 -692411.000000 0 0 1
-29.857948 -16.456744 26.082811 42.925919 0.503739 0.917731 0.022277 -0.005262 69070.300000 0 0 1
-29.476288 -17.774344 26.416601 43.389119 0.542626 0.916211 0.020477 -0.015074 -158582.000000 0 0 1
-29.200378 -17.997744 27.927031 44.232340 0.552357 0.887476 0.023471 -0.016447 -292360.000000 0 0 1
-28.032518 -17.356744 28.350091 43.483403 0.554392 0.860610 0.028760 -0.016679 -361180.000000 0 0 1
-27.618978 -17.934544 29.577401 44.263738 0.575922 0.838998 0.038639 -0.022725 -403110.000000 0 0 1
-26.288728 -17.406644 30.075271 43.573047 0.584858 0.808994 0.029980 -0.023402 -700666.000000 0 0 1
-26.431068 -16.100544 30.637301 43.548514 0.547122 0.790456 0.046201 -0.028428 -266377.000000 0 0 1
-25.298788 -15.348944 30.295651 42.349088 0.545336 0.773630 0.040851 -0.026966 -644392.000000 0 0 1
-25.136038 -14.017044 31.006171 42.304616 0.508696 0.748183 0.040308 -0.031914 -382217.000000 0 0 1
-24.597818 -14.121844 32.297091 42.983499 0.521165 0.720640 0.036260 -0.032655 175609.000000 0 0 1
-24.596618 -12.870844 32.877831 43.030269 0.482095 0.701209 0.029576 -0.021562 -388268.000000 0 0 1
-23.998618 -12.804044 34.280411 43.760985 0.490112 0.670750 0.022575 -0.013847 90658.800000 0 0 1
-22.588718 -12.967844 34.347797 43.106685 0.521146 0.648801 -0.001431 -0.002275 617849.000000 0 0 1
-22.006218 -14.279544 -34.368707 43.236409 0.575592 2.489642 -0.005690 -0.009449 -4559.100000 0 0 1
-22.115518 -15.018844 -33.006372 42.474491 0.596567 2.460820 -0.001645 -0.007327 -702799.000000 0 0 1
-21.103718 -14.613344 -32.114112 41.112443 0.605643 2.467268 -0.019742 -0.000405 940.747000 0 0 1
-21.230618 -15.182844 -30.796512 40.369333 0.620814 2.438535 -0.000546 -0.006423 527459.000000 0 0 1
-19.894818 -15.137444 -29.964332 39.023162 0.650424 2.446290 0.004996 -0.005277 688885.000000 0 0 1
-19.670718 -13.976244 -29.216822 37.893208 0.617745 2.451254 0.015987 -0.007105 79671.000000 0 0 1
-20.178818 -14.035644 -27.899572 37.182928 0.607742 2.419362 0.022084 -0.007992 -205766.000000 0 0 1
-19.820618 -12.940944 -26.904422 35.835358 0.578413 2.420036 0.021349 -0.001410 454308.000000 0 0 1
-18.496318 -12.998544 -26.354702 34.722417 0.612579 2.432589 0.023846 -0.012014 645583.000000 0 0 1
-18.093618 -11.783244 -25.733352 33.592101 0.577245 2.443475 0.031408 -0.022911 -241904.000000 0 0 1
-16.671718 -11.943344 -25.199192 32.489828 0.621637 2.458465 0.033407 -0.022647 -1017810.000000 0 0 1
-16.560718 -12.626344 -23.946412 31.735038 0.651407 2.425800 0.037982 -0.021113 513943.000000 0 0 1
-15.235618 -12.833044 -23.456212 30.773446 0.700010 2.437536 0.052812 -0.028246 117035.000000 0 0 1
-14.217718 -13.681244 -24.171112 31.201965 0.766171 2.456984 0.019526 -0.017849 -1106030.000000 0 0 1
-13.554418 -12.901544 -25.136172 31.336867 0.760725 2.501646 0.028380 -0.018833 -36726.900000 0 0 1
-12.909318 -13.701244 -26.117722 32.194875 0.815149 2.517063 0.018103 -0.012081 -223905.000000 0 0 1
-12.096418 -12.944344 -27.169572 32.435552 0.819247 2.563759 0.024953 -0.007521 -356784.000000 0 0 1
-12.796618 -12.140144 -28.080972 33.161386 0.759079 2.580731 0.048155 -0.014017 26677.700000 0 0 1
-11.890518 -11.522544 -28.973842 33.371200 0.769683 2.622418 0.051098 -0.018190 -77282.700000 0 0 1
-12.634318 -10.750844 -30.043672 34.319512 0.705030 2.637081 0.041914 -0.015720 -407159.000000 0 0 1
-11.864018 -9.809844 -30.710472 34.352890 0.690904 2.676925 0.039873 -0.012337 -39646.500000 0 0 1
-11.261418 -10.328744 -31.925602 35.394160 0.742226 2.695181 0.050908 -0.013575 48027.800000 0 0 1
-10.477718 -9.274944 -32.677162 35.547209 0.724582 2.736995 0.035843 -0.011998 -652052.000000 0 0 1
-9.263718 -8.919344 -32.103922 34.583710 0.766461 2.760600 0.026396 -0.006070 -744992.000000 0 0 1
-8.829018 -7.711644 -32.686772 34.725295 0.717947 2.797245 0.020296 -0.005808 -491958.000000 0 0 1
-7.350018 -7.403444 -32.445852 34.081770 0.789019 2.830502 0.035747 -0.004356 -703400.000000 0 0 1
-7.012018 -7.172944 -31.098472 32.676207 0.796743 2.829575 0.025011 0.003466 -160288.000000 0 0 1
-7.294618 -5.907044 -30.529152 31.939533 0.680677 2.843309 0.015727 -0.001868 -700538.000000 0 0 1
-6.505418 -4.747844 -31.113522 32.138975 0.630466 2.888302 0.018968 -0.005991 -146070.000000 0 0 1
-5.166418 -4.767744 -30.646342 31.442353 0.745288 2.916097 0.029234 -0.004148 318749.000000 0 0 1
-4.504918 -3.555044 -31.078702 31.604087 0.668088 2.958999 0.038738 -0.010704 -535037.000000 0 0 1
-3.037718 -3.382244 -30.750742 31.084971 0.839012 2.994818 0.030850 -0.007998 -563529.000000 0 0 1
-2.174518 -4.050044 -31.692622 32.024267 1.078057 2.997551 0.030878 -0.019554 1369730.000000 0 0 1
-0.747318 -3.943244 -31.520192 31.774678 1.383499 3.014945 0.028109 -0.011285 1444530.000000 0 0 1
-0.055318 -2.543644 -31.749882 31.851659 1.549052 3.061629 0.020399 -0.010695 -678770.000000 0 0 1
0.113282 -1.788744 -30.529802 30.582368 -1.507550 3.082952 0.020424 -0.007610 33735.800000 0 0 1
0.769682 -0.587144 -30.832792 30.847985 -0.651668 3.110206 0.005051 -0.000087 -22465.000000 0 0 1
1.117982 0.235256 -29.591342 29.613388 0.207403 3.103004 0.010793 -0.003619 294629.000000 0 0 1
0.016782 0.908056 -28.991992 29.006214 1.552317 3.110277 0.036232 -0.005624 -59166.700000 0 0 1
0.372482 2.204556 -28.666852 28.753908 1.403417 3.063758 0.052038 -0.007363 -570504.000000 0 0 1
-0.782518 3.107456 -28.271842 28.452867 -1.324106 3.028729 0.047440 -0.012425 -961444.000000 0 0 1
-1.644218 3.392256 -29.306432 29.547890 -1.119465 3.013664 0.038732 -0.014743 -526084.000000 0 0 1
-2.619418 4.305356 -28.823882 29.261128 -1.024216 2.968502 0.067571 -0.017583 -217517.000000 0 0 1
-3.870818 4.253256 -29.712632 30.264070 -0.832438 2.950404 0.082258 -0.022739 -430288.000000 0 0 1
-3.667418 4.883156 -30.977162 31.573402 -0.926633 2.946944 0.083448 -0.020585 1362450.000000 0 0 1
-4.930318 5.050456 -31.695872 32.472195 -0.797434 2.922489 0.092737 -0.015046 687252.000000 0 0 1
-4.647118 5.826556 -32.973562 33.805329 -0.897535 2.919304 0.094670 -0.011608 209052.000000 0 0 1
-4.086418 5.096756 -34.074592 34.695152 -0.894978 2.952174 0.092627 -0.016574 591849.000000 0 0 1
-2.988418 4.215456 -33.846212 34.238382 -0.954109 2.990093 0.084195 -0.021817 -335207.000000 0 0 1
-2.296618 3.706056 33.660042 33.941239 -1.016022 0.128812 0.070944 -0.020056 22110.000000 0 0 1
-3.009318 2.577956 33.120181 33.356382 -0.708347 0.119076 0.058443 -0.025165 172587.000000 0 0 1
-2.709118 2.112356 31.795221 31.980266 -0.662253 0.107627 0.054007 -0.018488 -216576.000000 0 0 1
-2.662118 3.071556 30.571641 30.840664 -0.856686 0.132180 0.057314 -0.015225 117869.000000 0 0 1
-3.864018 3.813056 30.454561 30.934613 -0.778760 0.176401 0.051219 -0.010273 114589.000000 0 0 1
-3.687618 4.715856 29.407221 30.010372 -0.907152 0.200827 0.058001 -0.011265 662374.000000 0 0 1
-5.048618 5.367456 29.015391 29.936450 -0.815999 0.248702 0.068064 -0.009536 465296.000000 0 0 1
-4.889018 6.128856 27.843901 28.926600 -0.897456 0.274463 0.068085 -0.007384 -56744.000000 0 0 1
-6.033218 6.907456 27.540621 29.027546 -0.852853 0.321459 0.059264 -0.005729 -125116.000000 0 0 1
-5.886418 7.722956 26.248991 27.987559 -0.919534 0.354326 0.055399 -0.006368 -209147.000000 0 0 1
-4.870218 8.682256 26.284211 28.106233 -1.059593 0.362047 0.058514 -0.013475 -132161.000000 0 0 1
-4.941718 9.374456 25.047551 27.197073 -1.085668 0.400247 0.058361 -0.011376 317457.000000 0 0 1
-4.115718 10.712356 25.146431 27.641213 -1.203982 0.428129 0.055050 -0.013773 -514136.000000 0 0 1
-4.323318 11.628856 24.142671 27.143874 -1.214856 0.474692 0.058167 -0.015175 82230.400000 0 0 1
-3.859418 12.944656 24.446601 27.930190 -1.281040 0.504792 0.056616 -0.013033 -1151990.000000 0 0 1
-2.359118 13.154756 24.536541 27.940202 -1.393347 0.498751 0.052913 -0.012980 -1065480.000000 0 0 1
-1.606618 12.524056 25.569181 28.516946 -1.443211 0.458695 0.065246 -0.015738 -98710.900000 0 0 1
-1.867018 13.036356 26.884261 29.936529 -1.428547 0.455498 0.077144 -0.020407 -825165.000000 0 0 1
-0.952918 12.532356 27.993791 30.685832 -1.494906 0.422002 0.072250 -0.012356 3312.580000 0 0 1
0.395282 12.905556 27.759681 30.615510 1.540177 0.435357 0.074293 -0.010639 -9026.870000 0 0 1
1.154782 12.443556 28.886931 31.474281 1.478260 0.408306 0.075293 -0.015532 -54926.600000 0 0 1
2.665182 12.678556 28.783001 31.564380 1.363601 0.422949 0.063752 -0.008599 -224427.000000 0 0 1
3.176382 13.960456 28.950831 32.297590 1.347078 0.459268 0.071006 -0.010069 -1427870.000000 0 0 1
4.535382 13.953956 28.805891 32.327417 1.256542 0.471106 0.056021 -0.009339 -1284090.000000 0 0 1
5.177682 15.375756 28.792551 33.048952 1.245980 0.513136 0.060579 -0.014813 -305992.000000 0 0 1
5.094082 16.047556 30.042251 34.438504 1.263420 0.510818 0.061778 -0.007549 607663.000000 0 0 1
3.899982 16.786956 30.332691 34.886729 1.342524 0.516684 0.047531 -0.005676 419856.000000 0 0 1
3.845882 18.216056 29.734961 35.082522 1.362726 0.559403 0.059320 -0.000272 -366622.000000 0 0 1
4.738882 19.086656 30.348581 36.163431 1.327435 0.574974 0.064000 0.000981 -285783.000000 0 0 1
5.045582 20.150656 29.463681 36.050177 1.325448 0.614093 0.051446 0.000069 -1318130.000000 0 0 1
6.219082 20.951056 29.841531 36.988385 1.282242 0.632113 0.046991 -0.002270 -1358660.000000 0 0 1
6.020482 21.698256 31.051491 38.356949 1.300141 0.627428 0.038334 -0.013265 151449.000000 0 0 1
7.154682 22.459556 31.433581 39.289835 1.262402 0.643428 0.024691 -0.016483 -73492.400000 0 0 1
7.373082 23.863356 30.814921 39.665872 1.271130 0.681129 0.021591 -0.007992 -67822.100000 0 0 1
7.827682 23.835756 29.465821 38.699489 1.253492 0.705325 0.013612 -0.001851 348834.000000 0 0 1
8.144082 25.159256 29.000241 39.247015 1.257740 0.739336 0.011776 0.003201 -72900.000000 0 0 1
8.544382 25.117656 27.545411 38.244643 1.242902 0.766645 0.026472 -0.001013 -328902.000000 0 0 1
7.504682 24.852856 26.636101 37.194980 1.277538 0.772568 0.026246 -0.001908 15783.800000 0 0 1
7.965582 24.899356 25.303991 36.382968 1.261174 0.801695 0.037870 -0.010704 -169197.000000 0 0 1
28.786198 2.263956 6.791988 29.663138 0.078486 1.339776 0.074906 -0.008766 12750.900000 0 0 1
29.103828 3.064056 7.909888 30.314808 0.104894 1.306816 0.070476 -0.011436 580654.000000 0 0 1
27.988048 3.164456 8.797188 29.508221 0.112586 1.268067 0.059755 0.002435 135257.000000 0 0 1
28.250038 4.089956 10.006588 30.247714 0.143778 1.233623 0.047066 0.001161 -95401.600000 0 0 1
28.217518 5.466656 9.784888 30.362093 0.191362 1.242667 0.049702 -0.003598 -194818.000000 0 0 1
29.299608 6.008456 9.078788 31.256886 0.202265 1.276092 0.059949 -0.020849 -513798.000000 0 0 1
29.197978 7.441456 8.527888 31.314885 0.249549 1.294986 0.055037 -0.026747 -104454.000000 0 0 1
28.096948 7.692556 7.677188 30.125622 0.267237 1.313115 0.075103 -0.030717 -25125.200000 0 0 1
28.220738 8.992556 7.125188 30.463821 0.308478 1.334719 0.077673 -0.041337 122947.000000 0 0 1
27.185388 9.351056 6.006488 29.369465 0.331296 1.364828 0.082944 -0.034709 -483561.000000 0 0 1
25.876098 9.493956 6.424688 28.301665 0.351651 1.341793 0.081879 -0.034790 -774959.000000 0 0 1
25.040898 9.614956 5.310788 27.344074 0.366612 1.375333 0.088112 -0.040179 -455634.000000 0 0 1
23.573698 10.008256 5.446088 26.182901 0.401491 1.361265 0.032469 -0.031329 -259648.000000 0 0 1
23.465598 11.330656 5.860288 26.708819 0.449844 1.349583 0.016950 -0.015176 -676148.000000 0 0 1
22.107098 11.583656 5.937588 25.654625 0.482646 1.337235 0.011993 -0.009692 -918950.000000 0 0 1
21.832198 12.954756 6.457988 26.194965 0.535536 1.321693 -0.006635 0.013560 -390995.000000 0 0 1
21.999298 13.979156 5.491388 26.637215 0.566069 1.363153 -0.010334 0.016574 238669.000000 0 0 1
21.902598 15.259956 6.089588 27.380159 0.608521 1.346512 0.017807 0.001068 -211281.000000 0 0 1
21.693798 16.284856 4.999988 27.582916 0.643929 1.388517 0.029700 0.000423 986801.000000 0 0 1
20.427598 16.271156 4.276888 26.463730 0.672620 1.408471 0.041079 -0.003603 1273250.000000 0 0 1
20.294998 17.363256 3.381788 26.922223 0.707704 1.444850 0.037136 -0.002651 -1402130.000000 0 0 1
18.879498 17.596156 2.964888 25.977889 0.750229 1.456416 0.040015 0.004088 -1241780.000000 0 0 1
18.121098 18.103656 4.088088 25.938948 0.784917 1.412532 0.040607 -0.002379 356032.000000 0 0 1
16.818998 18.329156 3.569188 25.131171 0.828337 1.428292 0.043141 -0.008617 -739231.000000 0 0 1
15.899798 19.065456 4.452288 25.221381 0.875689 1.393338 0.038346 -0.017836 -473192.000000 0 0 1
14.527398 18.925256 4.132088 24.213317 0.916114 1.399303 0.034190 -0.019993 443765.000000 0 1 0
13.764198 20.097156 4.401388 24.753202 0.970288 1.392035 0.020407 -0.016857 -232813.000000 0 1 0
12.294798 19.949756 3.993888 23.771957 1.018486 1.401987 0.012325 -0.008856 -502198.000000 0 1 0
11.624798 19.099856 4.908988 22.891889 1.024053 1.354676 0.008429 -0.022174 142020.000000 0 1 0
10.241198 19.293956 4.595488 22.321679 1.082815 1.363438 0.008092 -0.010305 21808.800000 0 1 0
9.328898 18.644556 5.604488 21.588378 1.106865 1.308181 0.010445 -0.015728 -862845.000000 0 1 0
9.226398 19.429556 6.751288 22.543601 1.127459 1.266652 0.015148 -0.018299 -110450.000000 0 1 0
8.582298 18.698956 7.802988 22.004395 1.140506 1.208299 0.019744 -0.021765 -491096.000000 0 1 0
7.797198 19.641356 8.798388 22.890845 1.192897 1.176279 0.013445 -0.019910 898349.000000 0 1 0
6.483898 19.923856 8.279988 22.529074 1.256172 1.194450 0.021839 -0.020626 545192.000000 0 1 0
6.476098 21.011956 7.358288 23.185912 1.271824 1.247852 0.016583 -0.015524 -1176190.000000 0 1 0
5.165898 21.175756 6.566788 22.764486 1.331517 1.278172 0.015014 -0.007763 -574678.000000 0 1 0
3.967798 21.324356 7.230388 22.863728 1.386831 1.249035 0.017180 -0.011931 -717696.000000 0 1 0
3.867698 22.502056 8.049688 24.209483 1.400578 1.231842 0.019606 -0.010257 -957682.000000 0 1 0
3.949498 23.922056 7.336488 25.331548 1.407174 1.276968 0.018523 -0.004148 401005.000000 0 0 1
2.853198 24.124356 6.411788 25.124416 1.453073 1.312740 0.038556 -0.005399 691196.000000 0 0 1
3.072798 25.190356 5.562988 25.979664 1.449413 1.354997 0.044319 -0.002939 197349.000000 0 0 1
1.845998 25.452356 4.655388 25.940369 1.498396 1.390354 0.042699 -0.006976 -676637.000000 0 0 1
0.664998 25.774256 5.275688 26.317055 1.545001 1.368962 0.062431 -0.016737 -514443.000000 0 0 1
-0.360102 26.001556 4.265988 26.351645 -1.556948 1.408194 0.062103 -0.015087 704213.000000 0 0 1
-1.622902 26.536056 4.997688 27.051302 -1.509714 1.384980 0.062103 -0.017474 -552773.000000 0 0 1
-2.540902 27.040656 4.104488 27.468164 -1.477105 1.420807 0.081071 -0.023363 -331535.000000 0 0 1
-3.627702 27.621256 4.851988 28.277832 -1.440206 1.398360 0.060871 -0.024469 368588.000000 0 0 1
-4.678902 28.214556 3.876488 28.861400 -1.406459 1.436075 0.058771 -0.028114 -222116.000000 0 0 1
-4.154702 29.198856 3.027788 29.647972 -1.429455 1.468493 0.052516 -0.020997 -99446.100000 0 0 1
-5.062802 29.645256 2.034888 30.143223 -1.401649 1.503238 0.058061 -0.027871 -66438.400000 0 0 1
-4.528502 30.702956 0.995488 31.051084 -1.424358 1.538731 0.047253 -0.018413 -294351.000000 0 0 1
-4.459602 32.063856 1.425788 32.403885 -1.432598 1.526782 0.041655 -0.009910 266054.000000 0 0 1
-3.277502 32.375756 2.164688 32.613148 -1.469907 1.504373 0.042962 -0.015439 -174952.000000 0 0 1
-2.672002 33.750656 1.935988 33.911567 -1.491792 1.513676 0.037929 -0.014121 -1778520.000000 0 0 1
-2.022402 33.782656 0.741188 33.851252 -1.511003 1.548899 0.024007 -0.011427 -170834.000000 0 0 1
-1.070302 -33.920081 0.620588 33.942637 1.539253 1.552512 0.034439 -0.017140 145442.000000 0 0 1
0.235398 -34.061081 1.390988 34.090285 -1.563885 1.529982 0.039949 -0.014675 -1158770.000000 0 0 1
-0.048202 -33.956781 2.794288 34.071592 1.569377 1.488692 0.035920 -0.013443 -979369.000000 0 0 1
1.145898 -33.974181 3.474288 34.170583 -1.537081 1.468946 0.040603 -0.017460 -660962.000000 0 0 1
0.973498 -34.010481 5.018888 34.392583 -1.542181 1.424344 0.043563 -0.021514 422552.000000 0 0 1
0.112498 33.721056 5.559088 34.176391 1.567460 1.407412 0.045688 -0.024037 164302.000000 0 0 1
-0.239702 33.959756 6.931988 34.660856 -1.563738 1.369444 0.065724 -0.030059 439517.000000 0 0 1
0.844998 33.886456 8.094388 34.850036 1.545865 1.336392 0.061556 -0.024170 359123.000000 0 0 1
1.229198 32.511856 8.174188 33.546222 1.533007 1.324649 0.051218 -0.024488 -381542.000000 0 0 1
2.250198 32.325856 9.109788 33.660252 1.501299 1.296739 0.058341 -0.018120 -696644.000000 0 0 1
2.772098 30.908856 9.191788 32.365581 1.481349 1.282834 0.048564 -0.018256 128374.000000 0 0 1
2.218698 30.090456 10.211588 31.853331 1.497195 1.244453 0.055700 -0.020724 315233.000000 0 0 1
3.087298 28.991256 10.340988 30.934776 1.464705 1.229951 0.042022 -0.021639 209720.000000 0 0 1
2.480798 27.903456 11.280988 30.199634 1.482123 1.187966 0.041464 -0.022462 -167417.000000 0 0 1
2.799798 28.368956 12.567588 31.154145 1.472423 1.155567 0.035516 -0.016508 -132866.000000 0 0 1
2.816898 27.456356 13.716588 30.820953 1.468559 1.109576 0.030143 -0.014330 -190329.000000 0 0 1
1.423198 26.885256 14.132688 30.406830 1.517910 1.087403 0.043278 -0.016589 778323.000000 0 0 1
0.499098 27.840756 14.650988 31.464396 1.552871 1.086442 0.040946 -0.019275 195039.000000 0 0 1
-0.205302 28.593756 13.694288 31.704551 -1.563616 1.124160 0.048895 -0.019452 -877951.000000 0 0 1
-0.862302 29.796856 14.376488 33.095008 -1.541865 1.121424 0.027899 -0.019083 21297.500000 0 0 1
-1.960002 29.431856 15.182588 33.175092 -1.504300 1.095446 0.018570 -0.018306 -295738.000000 0 0 1
-2.629102 30.507856 15.753988 34.435876 -1.484831 1.095629 0.017825 -0.012686 -348371.000000 0 0 1
-3.935502 30.054156 16.434188 34.479312 -1.440590 1.073969 0.009731 -0.007891 -318708.000000 0 0 1
-4.967202 29.911256 15.478688 34.043297 -1.406233 1.098787 0.018479 -0.018119 97490.000000 0 0 1
-6.150202 29.583756 16.211688 34.290559 -1.365825 1.078360 0.018926 -0.011795 -641421.000000 0 0 1
-7.341702 29.348456 15.328188 33.914389 -1.325671 1.101827 0.012025 -0.019816 -84442.100000 0 0 1
-8.561802 28.963756 15.971588 34.165702 -1.283377 1.084365 0.012556 -0.016921 60242.700000 0 0 1
-9.544702 28.582056 15.060188 33.687453 -1.248500 1.107325 0.019322 -0.016458 641788.000000 0 0 1
-10.860402 28.036756 15.770388 33.951629 -1.201231 1.087731 0.025178 -0.012180 833874.000000 0 0 1
-11.555302 29.060356 16.468188 35.344455 -1.192334 1.086106 0.029627 -0.019360 213916.000000 0 0 1
-10.997502 29.465456 17.717888 36.098223 -1.213575 1.057761 0.030908 -0.021759 -837478.000000 0 0 1
-11.772402 30.627556 18.308488 37.574424 -1.203834 1.061848 0.039803 -0.016537 257276.000000 0 0 1
-13.076702 30.239256 18.753388 37.909132 -1.162640 1.053315 0.037206 -0.008092 566558.000000 0 0 1
-13.917302 31.379156 18.842088 39.158230 -1.153344 1.068798 0.070270 -0.019104 290111.000000 0 0 1
-14.922802 31.215456 20.028288 39.977832 -1.124856 1.046060 0.071234 -0.019351 523307.000000 0 0 1
-14.262702 31.155656 21.298988 40.345340 -1.141484 1.014650 0.059996 -0.013006 29418.700000 0 0 1
-15.149302 30.575056 22.227388 40.723361 -1.110772 0.993436 0.046831 -0.007970 -226747.000000 0 0 1
-14.665802 30.333056 23.662388 41.171454 -1.120442 0.958525 0.028211 -0.000031 -117334.000000 0 0 1
-13.556202 29.428056 23.818588 40.213259 -1.139117 0.936877 0.018840 0.003632 822959.000000 0 0 1
-13.162502 29.168456 25.141888 40.696005 -1.146897 0.904858 0.038576 -0.001401 22043.500000 0 0 1
-12.616802 30.374056 26.013688 41.934221 -1.177101 0.901614 0.038647 -0.003007 -922403.000000 0 0 1
-13.553202 31.326056 26.383488 43.140462 -1.162464 0.912751 0.041627 0.003889 -213971.000000 0 0 1
-13.009702 32.521256 26.911188 44.171218 -1.190258 0.915685 0.042870 -0.000334 -473113.000000 0 0 1
-14.138102 33.493256 27.314188 45.472508 -1.171369 0.926451 0.053319 -0.001668 257787.000000 0 0 1
-14.964002 33.023656 28.389688 46.048426 -1.145343 0.906484 0.022967 -0.002026 228563.000000 0 0 1
-14.336702 33.065356 29.657388 46.673541 -1.161675 0.882242 0.056852 0.003920 -90204.800000 0 0 1
-15.100702 32.451156 30.905588 47.289154 -1.135262 0.858538 0.042921 0.006597 573114.000000 0 0 1
-16.351402 33.052056 31.220688 48.317058 -1.111384 0.868250 0.043670 0.010208 -22704.500000 0 0 1
-16.799302 32.579556 32.439088 48.948324 -1.094716 0.846350 0.039034 0.013578 67317.100000 0 0 1
-18.279602 32.830156 32.782088 49.866103 -1.062753 0.853430 0.043763 0.009039 133277.000000 0 0 1
-18.549802 34.229156 33.120588 51.114612 -1.074170 0.865884 0.052270 0.010587 -453425.000000 0 0 1
-19.911102 -34.250781 33.293588 51.749696 1.044216 0.871920 0.025541 0.007079 -394319.000000 0 0 1
-20.153702 -32.721981 33.595688 51.044784 1.018762 0.852423 0.028026 0.006077 -189127.000000 0 0 1
-19.728602 -32.167981 -33.943975 50.756184 1.020655 2.303343 0.032596 0.007561 -164114.000000 0 0 1
-20.610202 -32.369081 -32.864475 50.523376 1.003810 2.279013 0.020551 0.009019 -72221.900000 0 0 1
-20.241702 -31.582681 -31.591875 49.043234 1.000837 2.270726 0.024802 0.008582 -166735.000000 0 0 1
-20.357202 -30.214981 -31.763475 48.335071 0.977909 2.287830 0.030809 0.006144 -202078.000000 0 0 1
-19.581502 -29.590581 -30.796875 46.983882 0.986207 2.285611 0.036198 -0.001051 -217194.000000 0 0 1
-19.783102 -28.027281 -30.754375 46.073107 0.956154 2.301659 0.033903 -0.007064 -604604.000000 0 0 1
-21.007502 -27.662881 -30.223275 46.043419 0.921299 2.286844 0.042243 -0.009927 -727906.000000 0 0 1
-21.159802 -26.281581 -30.198475 45.281416 0.892942 2.300846 0.034311 -0.011203 380071.000000 0 0 1
-22.499802 -25.794281 -29.571075 45.233113 0.853510 2.283324 0.037750 -0.012460 249584.000000 0 0 1
-22.537802 -25.951681 -28.131075 44.416209 0.855687 2.256673 0.039952 -0.012866 -90517.400000 0 0 1
-21.732402 -25.116881 -27.351975 43.026568 0.857515 2.259711 0.041436 -0.023102 -347498.000000 0 0 1
-21.846502 -25.483681 -25.836275 42.358007 0.862094 2.226794 0.050193 -0.015558 402105.000000 0 0 1
-22.997502 -24.986181 -25.147175 42.256062 0.826819 2.208204 0.044726 -0.018154 497848.000000 0 0 1
-23.012102 -25.514981 -23.803375 41.799184 0.836929 2.176657 0.048740 -0.010705 -1650810.000000 0 0 1
-24.384202 -25.395781 -23.216575 42.172792 0.805716 2.153772 0.041019 -0.011129 -620060.000000 0 0 1
-25.374002 -26.254881 -23.807175 43.588305 0.802458 2.148597 0.022838 -0.004968 130988.000000 0 0 1
-25.272602 -27.637781 -23.440675 44.181632 0.830070 2.130049 0.027535 0.004875 -1661970.000000 0 0 1
-26.556202 -28.406581 -23.727075 45.553702 0.819051 2.118654 0.004591 0.011590 -155084.000000 0 0 1
-27.489902 -28.380081 -22.682175 45.558806 0.801330 2.091933 0.006858 0.013286 158537.000000 0 0 1
-28.355402 -27.223681 -22.657775 45.371052 0.765039 2.093689 0.005040 0.011316 872.102000 0 0 1
-28.868502 -26.914681 -21.230175 44.816412 0.750387 2.064300 -0.001172 0.010892 -172410.000000 0 0 1
-29.610602 -27.922481 -20.612675 45.621651 0.756065 2.039598 -0.005631 0.018431 -11384.300000 0 0 1
-30.097902 -27.552381 -19.379375 45.172753 0.741272 2.014188 -0.009350 0.018036 -923075.000000 0 0 1
-30.958502 -28.589981 -18.607975 46.065959 0.745644 1.986618 -0.007863 0.011976 -341861.000000 0 0 1
-32.278302 -28.765781 -19.029475 47.238542 0.727921 1.985412 -0.009878 0.007289 126649.000000 0 0 1
-33.232002 -27.718181 -18.965275 47.247700 0.695179 1.983842 -0.007717 0.013189 -276423.000000 0 0 1
-33.732902 -27.255581 -17.527475 46.775931 0.679589 1.954882 -0.009301 0.014574 -137167.000000 0 0 1
-32.893002 -26.249181 -16.937275 45.363426 0.673531 1.953434 -0.006791 0.013898 672823.000000 0 0 1
-33.396202 -25.756481 -15.679675 44.995053 0.656957 1.926741 -0.011463 0.013600 59763.300000 0 0 1
-33.102502 -26.633081 -14.421775 44.867407 0.677518 1.898037 0.001984 0.011982 45910.300000 0 0 1
-33.939502 -27.784581 -14.255775 46.120493 0.686010 1.885041 0.004881 0.016119 462198.000000 0 0 1
-33.731802 -28.447781 -13.040675 46.012715 0.700622 1.858149 -0.012205 0.012794 105997.000000 0 0 1
-34.686602 -29.666681 -12.806575 47.405492 0.707550 1.844345 -0.010357 0.013687 175863.000000 0 0 1
-34.278702 -30.659681 -13.700475 47.986962 0.729726 1.860329 -0.014156 0.007865 400803.000000 0 0 1
-34.632102 -31.952581 -13.237075 48.944561 0.745178 1.844657 -0.003892 0.003290 -246715.000000 0 0 1
-34.091202 -33.117481 -14.095075 49.574679 0.770911 1.859093 -0.009338 0.009311 -120667.000000 0 0 1
-32.739302 -33.442181 -13.852475 48.807094 0.796018 1.858573 0.005435 -0.001320 44762.600000 0 0 1
-32.254602 -34.286481 -14.887275 49.371582 0.815924 1.877099 0.008901 -0.009997 -195147.000000 0 0 1
-30.720802 -34.297181 -14.972875 48.417469 0.840349 1.885196 0.017234 -0.008358 2442.440000 0 0 1
-30.388102 33.746556 -16.183975 48.209831 -0.837716 1.913143 0.020484 -0.003121 880998.000000 0 0 1
-28.949502 33.573456 -16.305875 47.234861 -0.859220 1.923257 0.023572 -0.001766 1260590.000000 0 0 1
9.548282 20.100956 -8.769212 23.918971 1.127335 1.946172 0.040202 -0.014068 153746.000000 0 1 0
8.163482 20.381256 -8.969812 23.716988 1.189826 1.958650 0.026967 -0.012730 552183.000000 0 1 0
7.633182 20.268256 -10.282612 23.974982 1.210617 2.014059 0.025604 -0.020118 172990.000000 0 1 0
7.669782 18.908756 -11.056112 23.207848 1.185454 2.067347 0.026229 -0.012706 -316799.000000 0 1 0
8.927482 18.546156 -11.566212 23.610105 1.122167 2.082753 0.046112 -0.013173 -289369.000000 0 1 0
8.741982 17.385456 -12.303812 23.023034 1.104885 2.134610 0.046740 -0.021348 -237551.000000 0 1 0
10.023382 16.823356 -12.927412 23.465111 1.033470 2.154263 0.060581 -0.021947 -113313.000000 0 1 0
9.742482 15.782056 -13.859212 23.153120 1.017743 2.212535 0.057587 -0.026904 -156312.000000 0 1 0
10.863782 15.483656 -14.657012 23.928923 0.958978 2.230045 0.075462 -0.025482 -219492.000000 0 1 0
10.782382 14.156056 -15.414812 23.542942 0.919862 2.284652 0.070653 -0.030997 -592321.000000 0 1 0
10.723282 13.010556 -14.587512 22.294816 0.881473 2.284054 0.076441 -0.038360 388101.000000 0 1 0
11.986182 12.539056 -14.142012 22.380638 0.807937 2.254780 0.086059 -0.033695 -25498.900000 0 1 0
12.762882 11.663156 -15.172312 23.002596 0.740406 2.291071 0.079328 -0.037519 -309710.000000 0 1 0
13.290982 12.469056 -16.228912 24.402974 0.753502 2.298341 0.062011 -0.028673 115114.000000 0 1 0
14.220682 11.749956 -16.989212 25.078329 0.690548 2.315081 0.064110 -0.032241 -420538.000000 0 0 1
14.881482 12.498256 -18.158312 26.596789 0.698574 2.322283 0.045271 -0.031448 291232.000000 0 0 1
15.844782 13.502556 -17.783712 27.379491 0.705756 2.277758 0.030301 -0.020344 557497.000000 0 0 1
16.564782 14.054756 -18.895012 28.791485 0.703606 2.286662 0.016889 -0.017393 -11312.100000 0 0 1
17.833982 14.835056 -18.521612 29.684674 0.693858 2.244577 0.025341 -0.002186 -502426.000000 0 0 1
17.651782 16.129656 -17.894512 29.865779 0.740371 2.213253 0.026256 -0.010269 92137.600000 0 0 1
17.302682 17.080356 -18.852312 30.765744 0.778932 2.230357 0.026188 -0.003349 -272828.000000 0 0 1
17.025082 18.387256 -18.131512 30.930508 0.823845 2.197159 0.023535 0.001549 -36563.600000 0 0 1
18.099382 19.298056 -18.230812 32.130438 0.817439 2.174141 0.030025 0.011266 109694.000000 0 0 1
17.735882 20.544456 -17.627912 32.363242 0.858636 2.146815 0.018481 0.008792 -54464.200000 0 0 1
18.744082 21.707256 -17.702212 33.703321 0.858520 2.123789 0.026874 0.008394 -412557.000000 0 0 1
19.810582 21.688356 -16.818312 33.848184 0.830616 2.090790 0.032950 0.006200 -628258.000000 0 0 1
19.716182 22.732156 -15.884712 34.026501 0.856329 2.056503 0.026517 0.007642 -146439.000000 0 0 1
21.046382 23.188256 -15.245812 34.829300 0.833781 2.023868 0.022188 0.006696 -78565.000000 0 0 1
21.622282 22.302956 -14.246612 34.174711 0.800893 2.000802 0.028455 0.006585 180018.000000 0 0 1
22.465882 22.896756 -13.271312 34.714622 0.794896 1.963078 0.024294 0.006572 559859.000000 0 0 1
23.951982 23.036656 -13.711712 35.949909 0.765921 1.962119 0.026261 0.006640 -21593.900000 0 0 1
24.112582 23.838856 -14.841412 37.013175 0.779690 1.983379 0.026435 0.004077 729382.000000 0 0 1
25.528982 24.058756 -14.950612 38.132315 0.755758 1.973679 0.027719 0.007893 742574.000000 0 0 1
25.898482 24.674756 -16.289212 39.305386 0.761206 1.998109 0.027468 0.008740 -226304.000000 0 0 1
26.277282 23.632756 -17.213812 39.310533 0.732462 2.024050 0.026913 -0.000915 301145.000000 0 0 1
26.515482 24.177556 -18.489412 40.366859 0.739312 2.046579 0.018878 0.000222 -814457.000000 0 0 1
26.945582 23.076756 -19.437212 40.452518 0.708210 2.072015 0.020673 -0.002618 134765.000000 0 0 1
28.349282 22.979656 -19.656212 41.450127 0.681165 2.064867 0.006398 -0.003577 174189.000000 0 0 1
28.705882 21.975056 -20.554212 41.586132 0.653363 2.087776 0.014611 -0.009471 368776.000000 0 0 1
30.218382 22.197856 -20.848612 42.901748 0.633560 2.078260 0.020566 -0.007479 216013.000000 0 0 1
30.414082 23.259456 -21.700812 44.010725 0.652880 2.086423 0.006467 0.004142 547949.000000 0 0 1
31.828182 23.505956 -21.695512 45.124919 0.636118 2.072349 0.012584 -0.000974 654760.000000 0 0 1
32.326782 24.876956 -22.149412 46.416378 0.655894 2.068250 0.021941 0.005122 -317353.000000 0 0 1
32.414982 25.063156 -23.563412 47.266555 0.658182 2.092689 0.013144 0.004915 762092.000000 0 0 1
31.174782 25.002156 -24.291412 46.765880 0.675959 2.116975 0.003064 0.001639 33240.100000 0 0 1
31.392582 25.278356 -25.765992 47.836971 0.677924 2.139596 0.015499 -0.001987 -316016.000000 0 0 1
31.334482 26.668856 -26.070942 48.711104 0.705134 2.135559 0.018107 0.000546 154862.000000 0 0 1
30.014782 27.171156 -26.290512 48.273697 0.735713 2.146725 0.021606 0.011457 504068.000000 0 0 1
29.523182 27.060956 -27.747312 48.721935 0.741911 2.176698 0.025885 0.006579 -177975.000000 0 0 1
29.391382 25.704156 -28.156722 48.138944 0.718574 2.195560 0.019079 -0.000065 -114488.000000 0 0 1
28.873082 25.594256 -29.433752 48.529028 0.725273 2.222471 0.034730 -0.004598 -626883.000000 0 0 1
28.127282 24.284456 -29.763552 47.610375 0.712209 2.246118 0.036061 -0.010083 -80325.100000 0 0 1
26.895782 24.202756 -29.087902 46.424805 0.732744 2.247927 0.039247 -0.006257 -555202.000000 0 0 1
26.088582 23.151356 -29.451862 45.650975 0.725817 2.272020 0.043158 -0.011114 -922286.000000 0 0 1
24.736682 23.215356 -28.788532 44.493098 0.753683 2.274484 0.031979 -0.004942 -926059.000000 0 0 1
24.822482 22.917256 -27.387262 43.490439 0.745511 2.252003 0.039484 0.004646 745404.000000 0 0 1
23.603682 23.049156 -26.615892 42.388714 0.773512 2.249649 0.038864 -0.003121 489231.000000 0 0 1
23.753382 23.406856 -25.159502 41.774449 0.778050 2.217138 0.036738 0.004199 -598493.000000 0 0 1
24.261682 22.324156 -24.469212 41.057758 0.743832 2.209270 0.034064 0.001045 78417.600000 0 0 1
24.724482 22.672556 -23.184112 40.778031 0.742133 2.175531 0.038447 0.001520 -223144.000000 0 0 1
25.096082 21.432356 -22.291512 39.825503 0.706819 2.164856 0.058244 -0.005393 162665.000000 0 0 1
26.295482 20.782756 -22.679212 40.468777 0.668832 2.165680 0.036006 -0.005499 -25318.200000 0 0 1
26.354682 19.379856 -22.393212 39.643461 0.634058 2.171066 0.064558 -0.009220 84852.000000 0 0 1
27.541582 18.556556 -22.983912 40.387432 0.592901 2.176190 0.053325 -0.010249 542019.000000 0 0 1
28.732782 18.810756 -22.240112 40.915032 0.579658 2.145479 0.042010 -0.024019 -117309.000000 0 0 1
29.798682 18.068556 -22.782512 41.635045 0.545079 2.149806 0.024279 -0.018122 22045.600000 0 0 1
31.119982 18.090556 -22.000212 42.186856 0.526568 2.119398 0.025161 -0.016483 -111523.000000 0 0 1
31.834482 19.273156 -22.138512 43.301299 0.544394 2.107454 0.015945 -0.017894 135150.000000 0 0 1
33.180082 19.186056 -21.673912 44.031591 0.524266 2.085452 0.014896 -0.017296 665811.000000 0 0 1
33.541382 20.192756 -20.549012 44.215761 0.541907 2.054142 0.022896 -0.026107 -525548.000000 0 0 1
32.803182 19.884956 -19.414812 42.992966 0.544958 2.039333 0.028050 -0.022355 60466.100000 0 0 1
32.980382 20.891656 -18.460212 43.185024 0.564658 2.012486 0.018224 -0.009283 -412667.000000 0 0 1
32.142882 20.620456 -17.238712 41.899179 0.570394 1.994822 0.026216 -0.016326 -349281.000000 0 0 1
32.705182 19.577456 -16.434512 41.509022 0.539392 1.977873 0.026458 -0.025485 492395.000000 0 0 1
32.149282 19.479056 -15.138012 40.523689 0.544742 1.953640 0.030294 -0.018872 -453994.000000 0 0 1
32.757482 18.338456 -14.357412 40.193119 0.510355 1.936076 0.020706 -0.005528 12447.200000 0 0 1
34.178982 18.380456 -14.243412 41.339070 0.493406 1.922557 0.022489 -0.012862 776605.000000 0 0 1
34.776382 17.396256 -13.367612 41.118360 0.463833 1.901915 0.018636 -0.001690 99364.700000 0 0 1
34.592782 17.598556 -11.836412 40.576722 0.470611 1.866805 0.027569 -0.009939 -143868.000000 0 0 1
35.539782 18.524256 -11.286512 41.636636 0.480484 1.845303 0.025819 -0.010438 430132.000000 0 0 1
35.193082 18.997556 -9.961712 41.215238 0.494986 1.814913 0.013398 -0.008686 -325634.000000 0 0 1
34.015582 19.975956 -9.860612 40.661164 0.530998 1.815745 0.020065 -0.010542 -185681.000000 0 0 1
32.752982 19.380956 -9.997412 39.348793 0.534317 1.827684 0.036534 -0.016694 24950.000000 0 0 1
31.658882 20.287256 -9.796912 38.856621 0.569886 1.825677 0.019231 -0.006516 126967.000000 0 0 1
30.317482 19.680756 -10.171912 37.549296 0.575781 1.845119 0.011052 -0.001134 -599771.000000 0 0 1
30.144482 19.474756 -11.552012 37.701523 0.573591 1.882213 0.019969 -0.010710 31790.000000 0 0 1
28.863382 18.964256 -11.874212 36.520333 0.581305 1.901956 0.023002 -0.007864 -74669.100000 0 0 1
28.784582 18.338656 -13.253712 36.613103 0.567253 1.941202 0.035924 -0.005626 -197983.000000 0 0 1
29.352382 17.029556 -13.331712 36.459603 0.525716 1.945135 0.038346 -0.011073 358923.000000 0 0 1
29.035182 16.479456 -14.655312 36.460834 0.516231 1.984438 0.033727 -0.009530 501552.000000 0 0 1
30.282682 16.000956 -15.482212 37.586837 0.486098 1.995340 0.024409 -0.014984 323505.000000 0 0 1
30.947182 14.880756 -14.906312 37.434784 0.448205 1.980344 0.019576 -0.009232 -244412.000000 0 0 1
32.142282 14.686856 -15.602912 38.630051 0.428604 1.986579 0.018557 -0.007724 12365.200000 0 0 1
33.181282 13.791256 -14.833912 38.874685 0.393911 1.962304 0.014151 -0.010161 7413.740000 0 0 1
33.764982 14.351856 -13.689712 39.159392 0.401914 1.927929 0.020131 -0.003337 84676.100000 0 0 1
34.353382 13.388356 -12.859512 39.048303 0.371617 1.906383 0.019664 0.002256 410648.000000 0 0 1
35.245082 13.913756 -11.630012 39.636669 0.375991 1.868594 0.031393 0.005259 464809.000000 0 0 1
-35.097834 14.452256 -12.119512 39.844802 -0.390612 1.879861 0.012668 0.000165 -753615.000000 0 0 1
-34.202034 14.733856 -11.084212 38.855185 -0.406764 1.860084 0.007140 0.000765 -45470.200000 0 0 1
-32.761934 14.913656 -11.690112 37.847327 -0.427181 1.884807 0.023689 -0.008769 293132.000000 0 0 1
-32.088534 13.788756 -12.155212 36.980441 -0.405853 1.905716 0.016922 -0.009643 132009.000000 0 0 1
-31.778734 12.731856 -11.229512 36.029017 -0.381059 1.887757 0.025535 -0.002005 -895701.000000 0 0 1
-30.573834 11.848556 -11.645812 34.796157 -0.369718 1.912069 0.042060 -0.005626 -83595.500000 0 0 1
-30.689934 11.183056 -12.937412 35.132740 -0.349435 1.947916 0.030707 0.003262 269462.000000 0 0 1
-29.741034 10.135356 -12.952512 33.985616 -0.328444 1.961801 0.055305 -0.006665 -163670.000000 0 0 1
-29.537534 9.447156 -14.311612 34.154603 -0.309554 2.003167 0.052315 -0.007463 -333607.000000 0 0 1
-30.720934 8.906256 -14.864412 35.271064 -0.282173 2.005822 0.036665 -0.004004 11284.000000 0 0 1
-30.584734 8.024956 -15.939312 35.410275 -0.256600 2.037710 0.033242 -0.009535 -259091.000000 0 0 1
-31.835134 7.562556 -16.744512 36.756587 -0.233231 2.043788 0.035956 -0.014663 -202187.000000 0 0 1
-32.768434 6.955156 -15.895712 37.078540 -0.209148 2.013854 0.044793 -0.011344 -211856.000000 0 0 1
-33.612434 6.104756 -16.614212 37.988101 -0.179664 2.023450 0.036771 -0.009407 -355619.000000 0 0 1
-34.784234 5.494456 -15.838712 38.613428 -0.156664 1.993455 0.031847 -0.001792 75100.700000 0 0 1
-35.639934 4.496856 -16.421012 39.497801 -0.125511 1.999558 0.043144 -0.002945 251261.000000 0 0 1
34.967182 4.270456 -15.388012 38.441273 0.121526 1.982640 0.045751 -0.004323 -307503.000000 0 0 1
33.990982 3.084556 -15.586512 37.521203 0.090498 1.999185 0.048436 -0.007044 -528629.000000 0 0 1
34.467882 1.778656 -15.653512 37.897637 0.051558 1.996594 0.046238 -0.002875 -760403.000000 0 0 1
33.537482 0.747456 -15.590112 36.991526 0.022283 2.005841 0.035065 0.002927 -530757.000000 0 0 1
33.067282 0.382156 -14.136812 35.964435 0.011556 1.974772 0.041881 -0.005007 -25906.700000 0 0 1
34.088582 -0.071444 -13.235112 36.567810 -0.002096 1.941137 0.044642 -0.001915 274325.000000 0 0 1
33.700582 -0.016444 -11.872712 35.730810 -0.000488 1.909519 0.054687 -0.000984 -166448.000000 0 0 1
33.859782 1.330256 -11.187312 35.684876 0.039267 1.889676 0.054212 -0.010064 96351.200000 0 0 1
32.918982 2.247456 -11.732312 35.019388 0.068167 1.912426 0.058470 -0.009141 504403.000000 0 0 1
33.029182 3.514956 -11.076312 35.013804 0.106021 1.892667 0.060814 -0.009353 -83876.300000 0 0 1
32.009782 4.510456 -11.675812 34.369971 0.139987 1.917405 0.062992 -0.005144 -64428.100000 0 0 1
32.298982 4.988256 -12.944612 35.152097 0.153229 1.947918 0.060524 -0.010980 451503.000000 0 0 1
31.314882 5.933456 -13.312712 34.540643 0.187257 1.966461 0.060628 -0.013664 43893.800000 0 0 1
31.609782 6.498756 -14.731512 35.474351 0.202768 1.999038 0.043158 -0.008252 -338467.000000 0 0 1
31.198382 5.576556 -15.706512 35.371337 0.176877 2.030906 0.044169 -0.006027 202302.000000 0 0 1
31.360682 6.058056 -17.022712 36.193440 0.190823 2.060456 0.044467 -0.006875 -1182670.000000 0 0 1
30.449082 7.203756 -17.512712 35.857158 0.232312 2.081054 0.045032 -0.008140 744459.000000 0 0 1
29.151482 6.807556 -17.991312 34.926194 0.229412 2.111948 0.041825 -0.008388 1178580.000000 0 0 1
28.229182 6.246056 -17.063812 33.571917 0.217754 2.103978 0.032977 -0.006158 -67539.600000 0 0 1
26.772682 6.099556 -17.643412 32.638490 0.224004 2.141912 0.014646 0.001812 544193.000000 0 0 1
26.682682 5.256356 -18.746112 33.030463 0.194504 2.174311 0.026683 -0.004750 367248.000000 0 0 1
25.485982 5.364456 -19.506612 32.539523 0.207458 2.213641 0.013960 -0.005817 146350.000000 0 0 1
25.265482 4.121656 -20.401712 32.734729 0.161709 2.243680 0.021842 0.010300 -91923.100000 0 0 1
24.954782 2.960956 -19.622112 31.883157 0.118101 2.233738 0.016669 0.001237 197339.000000 0 0 1
24.455182 1.932256 -20.411212 31.912491 0.078848 2.264773 0.017109 0.004979 -790972.000000 0 0 1
23.576282 1.006256 -19.625712 30.692380 0.042655 2.264557 0.011475 0.006340 -953563.000000 0 0 1
22.341282 1.572356 -19.330812 29.585224 0.070263 2.282856 0.015452 0.004789 -692910.000000 0 0 1
21.483582 0.658156 -18.720212 28.503049 0.030626 2.287336 0.018410 0.001547 -325587.000000 0 0 1
20.057682 1.209956 -18.529612 27.333516 0.060251 2.315710 0.020508 -0.001611 -494247.000000 0 0 1
19.302482 1.285356 -19.781912 27.668791 0.066492 2.367355 0.018858 -0.006866 584298.000000 0 0 1
18.242982 2.200756 -19.824612 27.030815 0.120056 2.394118 0.018976 -0.007168 84105.100000 0 0 1
16.997482 2.082856 -18.939512 25.533464 0.121931 2.406476 0.047863 -0.008420 -1024720.000000 0 0 1
17.342382 2.217456 -17.569912 24.786632 0.127173 2.358658 0.042905 -0.012524 -95350.000000 0 1 0
16.318582 1.917956 -16.625712 23.374964 0.116995 2.362088 0.036910 -0.008046 572918.000000 0 1 0
15.258882 3.079456 -16.490812 22.677376 0.199139 2.385019 0.046556 -0.013365 439479.000000 0 1 0
14.524882 3.399756 -17.673212 23.127320 0.229925 2.440550 0.049395 -0.007189 127857.000000 0 1 0
13.711882 4.520756 -17.437512 22.638899 0.318474 2.450022 0.069734 -0.014913 -229609.000000 0 1 0
-19.464318 -21.871944 -17.480712 34.100102 0.843577 2.109041 0.057959 -0.017027 -60895.300000 0 0 1
-19.371318 -22.427444 -18.760312 35.074029 0.858384 2.135159 0.067133 -0.022775 538492.000000 0 0 1
-20.448918 -22.037544 -19.628512 35.903901 0.822772 2.149209 0.065744 -0.017833 272563.000000 0 0 1
-20.394818 -22.622444 -21.090512 37.047716 0.837136 2.176426 0.055049 -0.012698 -120320.000000 0 0 1
-20.555418 -24.064844 -21.068812 38.020216 0.863888 2.158135 0.041845 -0.010850 50624.800000 0 0 1
-19.827418 -24.770644 -22.022412 38.622506 0.895787 2.177541 0.038220 -0.011185 -305143.000000 0 0 1
-19.599318 -26.269884 -21.629512 39.269274 0.929812 2.154119 0.040626 -0.002543 -27028.800000 0 0 1
-20.800918 -27.003784 -21.620812 40.365110 0.914432 2.136051 0.039757 -0.000121 -8294.280000 0 0 1
-20.538118 -28.371754 -21.504112 41.099849 0.944214 2.121417 0.062197 -0.005026 127582.000000 0 0 1
-21.799218 -29.231574 -21.782912 42.475712 0.930026 2.109277 0.054412 0.005103 135381.000000 0 0 1
-22.336218 -29.065114 -23.074112 43.313995 0.915567 2.132604 0.037691 0.011930 -174836.000000 0 0 1
-21.663418 -29.778234 -24.065012 43.990587 0.941857 2.149631 0.033964 0.007159 -509219.000000 0 0 1
-22.028818 -29.364514 -25.499622 44.696468 0.927177 2.177919 0.026486 0.011551 555774.000000 0 0 1
-23.420118 -29.555484 -25.785402 45.682771 0.900699 2.170557 0.025655 0.016193 750342.000000 0 0 1
-23.833618 -28.930884 -26.992082 46.191016 0.881703 2.194885 0.025889 0.015664 -259374.000000 0 0 1
-23.303418 -29.373144 -28.388532 47.029136 0.900119 2.218852 0.032403 -0.000271 -451038.000000 0 0 1
-23.806318 -30.571134 -28.912332 48.345196 0.909167 2.211849 0.023785 0.007707 75685.200000 0 0 1
-23.493518 -30.619184 -30.316192 49.076994 0.916327 2.236646 0.032915 0.007541 79132.500000 0 0 1
-24.190718 -31.808054 -31.077892 50.623893 0.920595 2.231785 0.015170 0.008862 136862.000000 0 0 1
-23.527318 -32.999874 -30.808372 50.908567 0.951431 2.220777 0.010578 0.011930 -243445.000000 0 0 1
-24.387618 -34.014414 -31.218742 52.214425 0.948766 2.211669 0.012652 0.010717 -453442.000000 0 0 1
-23.846818 33.329531 -31.145422 51.473932 -0.949752 2.220652 0.016571 0.006725 -169540.000000 0 0 1
-22.885318 32.961062 -32.093172 51.382304 -0.963897 2.245410 0.015577 -0.002054 -418945.000000 0 0 1
-22.383018 31.726522 -31.747102 50.154264 -0.956390 2.256205 0.035349 -0.000869 -331420.000000 0 0 1
-21.389018 31.093732 -32.737802 49.960724 -0.968245 2.285337 0.041615 0.005558 -242066.000000 0 0 1
-21.780918 30.923792 -34.086118 50.917117 -0.957162 2.304255 0.035683 0.002045 -25373.000000 0 0 1
-21.131318 29.798762 34.126914 49.991450 -0.953966 0.819407 0.043339 -0.000827 -13395.600000 0 0 1
-21.284418 29.708522 32.545491 48.937018 -0.949121 0.843238 0.040804 -0.001120 -140865.000000 0 0 1
-20.449718 30.610032 31.870611 48.691898 -0.981821 0.857227 0.035422 0.002846 195267.000000 0 0 1
-20.365318 30.255852 30.488231 47.536249 -0.978351 0.874516 0.041486 -0.002587 -119496.000000 0 0 1
-19.913018 31.468072 29.658721 47.606802 -1.006607 0.898233 0.037793 -0.004382 456515.000000 0 0 1
-20.910818 32.515202 29.708721 48.755603 -0.999281 0.915569 0.021108 -0.006498 640131.000000 0 0 1
-20.482718 33.728381 29.022771 48.984351 -1.025038 0.936649 0.024037 -0.008490 213272.000000 0 0 1
-21.442518 -33.814164 29.186391 49.548206 1.005660 0.940913 0.022647 -0.009037 130492.000000 0 0 1
-21.535318 -33.353364 30.527801 50.081568 0.997470 0.915289 0.013316 0.002568 -23167.000000 0 0 1
-22.532618 -32.344804 30.562981 49.879866 0.962330 0.911284 0.018926 -0.002036 241581.000000 0 0 1
-21.970318 -30.898284 30.232561 48.491304 0.952691 0.897631 0.025478 -0.001966 15963.600000 0 0 1
-21.824518 -30.654964 28.871471 47.429930 0.952101 0.916352 0.020404 0.002864 -137117.000000 0 0 1
-21.872918 -29.300444 28.475401 46.344245 0.929536 0.909130 0.026385 -0.003003 390458.000000 0 0 1
-23.240518 -28.833234 27.832181 46.326098 0.892388 0.926309 0.029567 0.002841 221974.000000 0 0 1
-24.254318 -28.658124 28.831701 47.337374 0.868435 0.915911 0.032562 0.003838 502950.000000 0 0 1
-25.206598 -29.722504 28.789271 48.452265 0.867427 0.934553 0.030007 -0.003815 252484.000000 0 0 1
-26.272978 -29.654644 27.613231 48.292420 0.845790 0.962108 0.034554 0.006014 -248376.000000 0 0 1
-25.792068 -29.895614 26.319701 47.452136 0.858954 0.982845 0.039948 0.000011 234272.000000 0 0 1
-26.886448 -29.863594 25.428171 47.553204 0.837811 1.006607 0.041889 0.002134 306766.000000 0 0 1
-26.328478 -30.127464 24.017171 46.665591 0.852588 1.030179 0.045479 -0.001858 -163713.000000 0 0 1
-25.470988 -29.095854 23.577751 45.290731 0.851731 1.023258 0.031758 -0.003094 233007.000000 0 0 1
-25.003918 -29.277174 22.243051 44.464617 0.863961 1.046919 0.049388 -0.009948 494471.000000 0 0 1
-23.796918 -30.262504 22.035151 44.358318 0.904434 1.050942 0.053642 -0.019091 -146322.000000 0 0 1
-24.148618 -31.633654 21.898251 45.424412 0.918784 1.067768 0.057829 -0.024314 1238530.000000 0 0 1
-23.006218 -32.418014 21.449651 45.169694 0.953607 1.075982 0.052718 -0.011492 1005730.000000 0 0 1
-22.064718 -32.986544 22.539251 45.639695 0.981249 1.054282 0.050773 -0.012551 29956.500000 0 0 1
-21.382518 -32.087154 23.383351 45.095218 0.982986 1.025662 0.063921 -0.019505 430583.000000 0 0 1
-20.584718 -32.784624 24.355401 45.735629 1.010131 1.009214 0.048884 -0.019494 172057.000000 0 0 1
-19.720618 -31.886034 25.283251 45.220181 1.016905 0.977479 0.038312 -0.011177 195455.000000 0 0 1
-18.488318 -31.411984 24.691461 44.024980 1.038820 0.975383 0.044842 -0.012786 1234300.000000 0 0 1
-17.645618 -30.700124 25.624741 43.709185 1.049132 0.944368 0.046648 -0.007165 581846.000000 0 0 1
-16.995318 -31.503044 26.796061 44.713661 1.076064 0.928193 0.026878 -0.011594 -1002880.000000 0 0 1
-17.940418 -31.858324 27.781841 45.919953 1.057927 0.921023 0.022798 -0.008598 445281.000000 0 0 1
-17.331518 -32.630604 28.842481 46.872450 1.082546 0.907979 0.030149 -0.003272 -21961.200000 0 0 1
-17.918118 -32.127414 30.125651 47.547708 1.062045 0.884614 0.030777 -0.000589 122302.000000 0 0 1
-17.373318 -30.834224 30.538191 46.745724 1.057691 0.858884 0.038793 0.000760 448615.000000 0 0 1
-17.833218 -30.406994 31.815281 47.484956 1.040374 0.836577 0.035671 0.003809 -8190.280000 0 0 1
-17.426618 -28.909884 31.948421 46.477629 1.028327 0.812902 0.040752 0.001540 417965.000000 0 0 1
-18.229818 -27.974794 31.191171 45.692500 0.993261 0.819438 0.039571 -0.000418 207909.000000 0 0 1
-18.374018 -28.019794 29.791741 44.835937 0.990389 0.844024 0.040993 0.000742 -262705.000000 0 0 1
-17.113518 -27.907344 28.892871 43.663375 1.020708 0.847688 0.033915 0.002352 15281.100000 0 0 1
-16.741218 -26.543254 28.663601 42.501938 1.008098 0.830635 0.026936 0.004908 293286.000000 0 0 1
-15.608118 -26.386974 27.819041 41.397884 1.036644 0.833901 0.027726 0.001147 218714.000000 0 0 1
-15.390218 -24.999444 27.261211 40.062509 1.018969 0.822397 0.029683 0.005446 435614.000000 0 0 1
-16.385318 -24.686944 26.235521 39.575579 0.984834 0.846081 0.039657 -0.002738 505864.000000 0 0 1
-16.189918 -23.565244 25.437371 38.268708 0.968831 0.843699 0.043291 -0.001179 -166692.000000 0 0 1
-16.800418 -22.276144 26.046381 38.169289 0.924620 0.819768 0.045172 0.001984 -450792.000000 0 0 1
-16.623718 -21.170944 25.214441 36.882583 0.905137 0.818057 0.047904 -0.000114 43671.700000 0 0 1
-17.125918 -19.961144 25.767921 36.820240 0.861698 0.795636 0.043804 0.000321 -161991.000000 0 0 1
-16.912118 -18.680044 24.948351 35.459611 0.835029 0.790386 0.044436 -0.006089 300764.000000 0 0 1
-15.530818 -18.442344 24.710221 34.524214 0.870890 0.773119 0.050642 -0.013360 157308.000000 0 0 1
-15.335818 -17.372944 23.794891 33.214505 0.847599 0.772167 0.046915 -0.008213 1294290.000000 0 0 1
-13.872418 -16.756044 23.887611 32.308311 0.879270 0.738671 0.059091 -0.011151 900654.000000 0 0 1
-12.812218 -17.588044 23.431151 31.976727 0.941223 0.748433 0.045923 -0.012217 75764.700000 0 0 1
-11.566518 -16.986844 23.711931 31.378223 0.972997 0.714103 0.050308 -0.013217 -152672.000000 0 0 1
-11.083418 -15.942344 22.615751 29.807259 0.963286 0.709430 0.048352 -0.013866 -668344.000000 0 0 1
-10.543218 -16.496144 21.473251 29.058264 1.002099 0.739253 0.058778 -0.008466 173839.000000 0 0 1
-9.153818 -16.802044 21.569251 28.832857 1.071951 0.725634 0.062456 -0.007718 53035.900000 0 0 1
-8.901418 -18.213244 20.882251 29.103710 1.116203 0.770573 0.055298 -0.008332 -68266.600000 0 0 1
-8.713218 -18.202744 19.486651 28.053335 1.124353 0.802893 0.050659 -0.009077 -245060.000000 0 0 1
-8.183318 -19.436644 19.082551 28.441055 1.172297 0.835306 0.041116 -0.006084 182830.000000 0 0 1
-8.053718 -19.676044 17.559351 27.574261 1.182285 0.880453 0.029403 -0.016832 278630.000000 0 0 1
-7.145218 -18.726244 17.003151 26.283712 1.206285 0.867273 0.034938 -0.010811 -24339.500000 0 0 1
-7.442318 -18.533144 15.627451 25.359076 1.188939 0.906828 0.061301 -0.007565 360297.000000 0 0 1
-6.585318 -17.417944 14.961551 23.887218 1.209331 0.893945 0.040148 -0.005569 135453.000000 0 1 0
-6.735518 -16.181344 15.631051 23.484737 1.176359 0.842521 0.034814 -0.013764 -770056.000000 0 1 0
-5.633518 -15.359544 15.516151 22.547795 1.219255 0.811867 0.031213 -0.000480 -503449.000000 0 1 0
-5.735818 -14.108644 16.432451 22.404885 1.184659 0.747440 0.019520 -0.004825 886.742000 0 1 0
-5.332518 -14.360244 17.794851 23.479972 1.215239 0.710749 0.026344 0.003780 687507.000000 0 1 0
-6.307918 -14.983144 18.686951 24.768661 1.172318 0.715966 0.047361 -0.014441 1328870.000000 0 1 0
-7.545218 -14.154944 19.208151 25.024904 1.081064 0.695768 0.059774 -0.021070 552289.000000 0 0 1
-7.215418 -13.159144 20.110851 25.093259 1.069244 0.641090 0.053260 -0.022332 -1257400.000000 0 0 1
-8.310318 -12.654644 20.741951 25.679368 0.989725 0.630508 0.065811 -0.015023 -849916.000000 0 0 1
-7.988318 -11.745844 21.933751 26.131734 0.973553 0.574704 0.060348 -0.011783 -299072.000000 0 0 1
-7.371418 -10.524344 21.545151 25.085716 0.959791 0.537754 0.040078 -0.006327 183133.000000 0 0 1
-6.957018 -9.689244 22.656151 25.604350 0.948082 0.484612 0.033431 -0.008396 573593.000000 0 0 1
-5.478218 -9.907444 23.107551 25.731833 1.065699 0.455561 0.031714 -0.004075 386316.000000 0 0 1
-5.320018 -11.134944 23.788201 26.798658 1.125085 0.478549 0.035785 -0.003622 144184.000000 0 0 1
-4.139418 -11.275344 24.575211 27.353412 1.218951 0.454608 0.025879 0.002170 31169.900000 0 0 1
-3.938418 -12.647344 25.232171 28.497875 1.268911 0.483431 0.027231 -0.000868 -214512.000000 0 0 1
-2.734118 -12.915844 25.933191 29.100255 1.362189 0.470885 0.015422 0.001637 307830.000000 0 0 1
-2.803918 -14.173644 26.634061 30.300616 1.375492 0.497048 0.011995 0.004057 -63741.800000 0 0 1
-2.909018 -15.481444 25.758761 30.193563 1.385059 0.548858 0.023349 -0.010587 -307669.000000 0 0 1
-1.602018 -15.866644 25.430641 30.017234 1.470170 0.560101 0.022505 -0.011970 -63799.200000 0 0 1
-1.602718 -17.128944 24.782681 30.168704 1.477500 0.606813 0.031562 -0.011410 204478.000000 0 0 1
-0.265518 -17.948344 24.878671 30.678361 1.556004 0.625019 0.034973 -0.017913 730222.000000 0 0 1
0.213282 -18.444944 26.133691 31.987986 -1.559234 0.614634 0.037860 -0.019755 322829.000000 0 0 1
0.775182 -17.449444 26.985511 32.145012 -1.526401 0.574447 0.051417 -0.023339 -446694.000000 0 0 1
1.412682 -17.930044 28.280751 33.515415 -1.492170 0.566446 0.044263 -0.015307 1000420.000000 0 0 1
2.671882 -18.687344 28.048401 33.809297 -1.428781 0.592394 0.053394 -0.023083 2054770.000000 0 0 1
3.553682 -18.813944 29.177431 34.898648 -1.384110 0.580731 0.068960 -0.029312 596188.000000 0 0 1
4.228382 -17.483744 29.616981 34.651495 -1.333506 0.545804 0.073630 -0.026995 -1220830.000000 0 0 1
3.343882 -16.507444 30.084011 34.477891 -1.370933 0.510379 0.067858 -0.033806 -168250.000000 0 0 1
4.019382 -15.360344 30.599271 34.473337 -1.314862 0.478642 0.070765 -0.036108 105021.000000 0 0 1
3.032182 -14.399944 31.299131 34.585952 -1.363259 0.439495 0.059664 -0.034742 156323.000000 0 0 1
2.479282 -14.994744 32.478691 35.858814 -1.406935 0.437679 0.065709 -0.039254 438939.000000 0 0 1
1.429282 -14.175644 33.006466 35.950223 -1.470309 0.407497 0.055747 -0.026110 36522.100000 0 0 1
0.724682 -14.715744 34.233001 37.268977 -1.521591 0.406428 0.038384 -0.019045 -218531.000000 0 0 1
1.450182 -14.661844 -33.318362 36.430563 -1.472208 2.725244 0.058497 -0.012248 -693119.000000 0 0 1
0.828882 -15.369044 -32.334082 35.810437 -1.516917 2.697320 0.023023 -0.018115 -474533.000000 0 0 1
1.701182 -15.657444 -31.111222 34.870585 -1.462571 2.672969 0.035529 -0.014390 -159109.000000 0 0 1
1.036882 -16.369344 -30.097132 34.276346 -1.507538 2.642616 0.032785 -0.015150 -456785.000000 0 0 1
1.672982 -16.199044 -28.844552 33.124252 -1.467885 2.627621 0.029334 -0.015564 123217.000000 0 0 1
1.388182 -17.320844 -27.809922 32.792232 -1.490822 2.583118 0.044418 -0.014264 169000.000000 0 0 1
2.054982 -18.545144 -28.126082 33.752360 -1.460437 2.555860 0.047357 -0.014840 233329.000000 0 0 1
1.569982 -19.528944 -27.244362 33.557410 -1.490576 2.518150 0.068032 -0.018920 -850167.000000 0 0 1
2.172782 -20.896444 -27.559822 34.654381 -1.467190 2.490260 0.061395 -0.015804 885813.000000 0 0 1
3.540582 -21.002444 -27.094222 34.463535 -1.403787 2.475385 0.040637 -0.017035 946868.000000 0 0 1
3.723482 -21.041344 -25.686082 33.412233 -1.395649 2.447701 0.041647 -0.014303 -1118170.000000 0 0 1
5.088482 -21.584144 -25.197772 33.566287 -1.339273 2.419898 0.047290 -0.023395 -96691.900000 0 0 1
5.408782 -22.940544 -25.379002 34.635491 -1.339251 2.393144 0.059571 -0.022923 148836.000000 0 0 1
5.564882 -23.330044 -26.775362 35.946890 -1.336643 2.411120 0.034176 -0.014038 -619593.000000 0 0 1
5.073982 -24.738944 -27.124172 37.060510 -1.368501 2.391886 0.044767 -0.015164 -166871.000000 0 0 1
5.705282 -25.726064 -26.398852 37.299866 -1.352558 2.357100 0.050560 -0.011613 -271983.000000 0 0 1
5.085782 -26.934904 -26.689242 38.257939 -1.384176 2.342857 0.054541 -0.008101 -146024.000000 0 0 1
5.560482 -28.051764 -25.777102 38.500382 -1.375111 2.304370 0.053585 -0.011677 -38600.300000 0 0 1
6.881882 -28.477264 -25.997412 39.168614 -1.333680 2.296592 0.050579 -0.012984 -330876.000000 0 0 1
7.232482 -29.585844 -25.126982 39.484126 -1.331041 2.260595 0.047992 -0.013951 972311.000000 0 0 1
8.742182 -30.013034 -25.299872 40.215563 -1.287359 2.251200 0.045285 -0.017955 854967.000000 0 0 1
9.036682 -30.304284 -26.640362 41.348762 -1.280993 2.270884 0.047755 -0.018607 -143599.000000 0 0 1
10.415082 -30.542074 -26.820252 41.959721 -1.242155 2.264241 0.055641 -0.015542 217669.000000 0 0 1
10.844882 -30.370124 -28.313802 42.914185 -1.227819 2.291319 0.056879 -0.026445 140552.000000 0 0 1
10.109782 -31.244594 -29.113482 43.886526 -1.257859 2.296124 0.063638 -0.025950 -68010.600000 0 0 1
10.606482 -31.188684 -30.401452 44.827221 -1.242991 2.316096 0.070416 -0.007925 152146.000000 0 0 1
-34.206498 -4.408544 -5.485712 34.922955 0.128174 1.728530 0.087476 -0.024322 58417.100000 0 0 1
-33.674838 -3.726044 -4.322512 34.154974 0.110199 1.697692 0.073264 -0.026482 876537.000000 0 0 1
-32.774708 -2.648644 -4.656712 33.209664 0.080638 1.711482 0.076429 -0.025194 -65693.200000 0 0 1
-33.518568 -1.366644 -5.217412 33.949720 0.040750 1.725088 0.097334 -0.015547 -169640.000000 0 0 1
-34.301663 -0.664044 -4.285312 34.574687 0.019357 1.695060 0.075098 -0.017198 74574.400000 0 0 1
-35.192063 0.157556 -5.014412 35.547862 -0.004477 1.712329 0.065156 -0.020614 122522.000000 0 0 1
35.492033 1.015856 -4.053612 35.737209 0.028614 1.684469 0.090608 -0.019467 508385.000000 0 0 1
-35.201650 2.025256 -3.470112 35.430206 -0.057470 1.668896 0.071369 -0.017533 619906.000000 0 0 1
35.649616 2.733256 -2.499012 35.841468 0.076520 1.640577 0.084058 -0.020093 -19101.500000 0 0 1
-35.083964 4.015556 -2.156212 35.378785 -0.113960 1.631781 0.065199 -0.025847 -177872.000000 0 0 1
-35.045923 4.885056 -3.261312 35.534725 -0.138498 1.662704 0.068931 -0.024476 628898.000000 0 0 1
-33.782068 4.951256 -3.928712 34.368268 -0.145528 1.685359 0.041384 -0.019236 367893.000000 0 0 1
-32.790548 6.037856 -3.391712 33.513870 -0.182094 1.672173 0.029420 -0.025799 -273050.000000 0 0 1
-32.453978 5.845256 -2.059612 33.040425 -0.178199 1.633173 0.024573 -0.027580 211148.000000 0 0 1
-32.712608 7.060256 -1.368512 33.493802 -0.212566 1.611666 0.033053 -0.039506 -119277.000000 0 0 1
-31.988648 7.124956 0.008088 32.772529 -0.219156 1.570550 0.040263 -0.030879 701866.000000 0 0 1
-30.561208 7.255556 -0.146512 31.411017 -0.233095 1.575461 0.049882 -0.026353 965464.000000 0 0 1
-29.955478 7.709856 1.035188 30.949058 -0.251910 1.537342 0.042778 -0.033262 -288186.000000 0 0 1
-29.826078 9.228756 1.314088 31.248867 -0.300076 1.528732 0.046293 -0.031356 -242038.000000 0 0 1
-31.124398 9.802356 1.289688 32.656969 -0.305107 1.531294 0.045485 -0.031347 527225.000000 0 0 1
-31.021538 11.232956 1.484988 33.026055 -0.347415 1.525817 0.043091 -0.022801 -63272.200000 0 0 1
-32.370708 11.942656 1.286688 34.527458 -0.353442 1.533522 0.064148 -0.033405 -897272.000000 0 0 1
-32.739748 12.109756 -0.058712 34.907603 -0.354274 1.572478 0.063945 -0.034338 615035.000000 0 0 1
-33.999028 12.711356 -0.337012 36.299119 -0.357783 1.580081 0.077779 -0.031748 150334.000000 0 0 1
-35.246309 11.895156 0.001488 37.199423 -0.325484 1.570756 0.088913 -0.045943 -980362.000000 0 0 1
-35.530110 10.813256 -0.901112 37.150064 -0.295434 1.595055 0.079671 -0.040821 -600932.000000 0 0 1
34.887518 10.109656 -0.517212 36.326458 0.282053 1.585035 0.100976 -0.045207 -540629.000000 0 0 1
34.292068 9.137256 -1.521512 35.521126 0.260404 1.613643 0.085958 -0.054245 52129.800000 0 0 1
33.760938 9.779856 -2.718312 35.253875 0.281962 1.647980 0.081889 -0.050869 408359.000000 0 0 1
33.427648 8.784456 -3.673612 34.757297 0.256980 1.676687 0.064089 -0.050929 -15667.300000 0 0 1
32.743498 9.359456 -4.960612 34.414295 0.278417 1.715444 0.057048 -0.044622 -737540.000000 0 0 1
31.458668 9.825256 -4.796312 33.304475 0.302723 1.715313 0.086194 -0.043448 -676037.000000 0 0 1
30.816118 10.083856 -6.017612 32.977703 0.316245 1.754300 0.075228 -0.029763 201931.000000 0 0 1
29.328068 10.520556 -6.006012 31.731527 0.344422 1.761221 0.075127 -0.025236 -178172.000000 0 0 1
28.328338 9.681756 -5.555612 30.448250 0.329324 1.754285 0.069670 -0.020566 -229215.000000 0 0 1
27.124058 10.086956 -6.171912 29.589756 0.356034 1.780922 0.040862 -0.014197 -439606.000000 0 0 1
26.156998 8.890356 -6.321112 28.340491 0.327635 1.795730 0.038393 -0.007796 -343450.000000 0 0 1
26.475498 8.086456 -7.397112 28.654145 0.296433 1.831905 0.046630 -0.007860 -296695.000000 0 0 1
25.520398 7.118256 -7.615612 27.567332 0.272011 1.850692 0.041974 -0.010989 -893806.000000 0 0 1
25.840298 6.023956 -8.649512 27.907402 0.229032 1.885922 0.048542 -0.017541 -68295.100000 0 0 1
26.902838 5.117156 -8.401612 28.644983 0.187963 1.868475 0.058450 -0.016383 675042.000000 0 0 1
26.933068 4.213656 -9.468312 28.858170 0.155191 1.905086 0.049624 -0.013679 11775.000000 0 0 1
27.964428 3.018556 -9.381512 29.650188 0.107526 1.892735 0.065196 -0.009993 -21078.700000 0 0 1
29.324598 3.400656 -9.521612 31.018665 0.115450 1.882798 0.091358 -0.003616 556077.000000 0 0 1
30.120438 3.200056 -8.384812 31.429066 0.105845 1.840852 0.085084 -0.013412 -96276.900000 0 0 1
30.536218 1.712756 -8.130712 31.646526 0.056031 1.830633 0.087569 -0.018443 284533.000000 0 0 1
29.382538 0.965456 -7.607712 30.366806 0.032846 1.824021 0.089162 -0.020856 1513440.000000 0 0 1
29.701698 -0.291144 -6.990612 30.514657 -0.009802 1.801939 0.086040 -0.019422 -360846.000000 0 0 1
29.479758 -1.503744 -7.912012 30.560061 -0.050965 1.832680 0.075121 -0.016487 -782602.000000 0 0 1
30.322628 -1.529344 -9.005512 31.668595 -0.050393 1.859143 0.076504 -0.013371 -97429.800000 0 0 1
30.012058 -2.624344 -9.829612 31.689621 -0.087221 1.886183 0.052807 -0.015303 -48406.500000 0 0 1
31.117198 -2.860644 -10.875812 33.086955 -0.091674 1.905727 0.051419 -0.009220 1381650.000000 0 0 1
32.422258 -3.310944 -10.392512 34.207740 -0.101767 1.879481 0.067718 -0.005369 1464480.000000 0 0 1
33.309708 -3.574244 -11.473012 35.411042 -0.106894 1.900746 0.050296 -0.010421 -418427.000000 0 0 1
34.696538 -3.969144 -10.999912 36.614231 -0.113901 1.875937 0.061694 -0.007424 -843683.000000 0 0 1
34.689648 -5.186444 -10.248812 36.541880 -0.148411 1.855078 0.059141 -0.010130 963924.000000 0 0 1
-35.529541 -5.685144 -9.973412 37.338159 0.158667 1.841190 0.062567 -0.005089 726487.000000 0 0 1
-35.588198 -7.060044 -9.222212 37.435455 0.195839 1.819708 0.071450 -0.015140 -157146.000000 0 0 1
35.553269 -6.960244 -7.873912 37.073959 -0.193324 1.784810 0.069534 -0.013595 313732.000000 0 0 1
35.321078 -8.209544 -7.268212 36.983808 -0.228371 1.768608 0.070461 -0.009588 -37557.800000 0 0 1
34.921718 -8.141944 -5.758212 36.317691 -0.229057 1.730019 0.082627 -0.010911 463387.000000 0 0 1
-35.439096 -8.015844 -4.936512 36.668139 0.222443 1.705833 0.071061 -0.006710 1058190.000000 0 0 1
-35.534187 -8.733444 -3.691012 36.777372 0.240999 1.671327 0.078417 -0.014805 -566549.000000 0 0 1
-35.067902 -10.208544 -3.772112 36.717856 0.283279 1.673710 0.078162 -0.021565 30309.000000 0 0 1
-35.738911 -11.026544 -4.775912 37.704957 0.299264 1.697803 0.077037 -0.021473 -50272.400000 0 0 1
-34.855947 -11.809644 -5.489312 37.209371 0.326674 1.718862 0.064215 -0.021275 -610314.000000 0 0 1
-35.374092 -12.314544 -6.834112 38.074657 0.335002 1.751267 0.065635 -0.020963 -180717.000000 0 0 1
-35.337391 -11.318244 -7.884112 37.934062 0.309967 1.780160 0.058279 -0.014189 258731.000000 0 0 1
35.569032 -11.938744 -8.992412 38.581772 -0.323834 1.806034 0.067403 -0.015320 36690.200000 0 0 1
35.627505 -11.188544 -10.323412 38.743715 -0.304289 1.840508 0.054040 -0.020311 -10475.300000 0 0 1
34.788658 -10.041544 -10.504712 37.701887 -0.281006 1.853159 0.053855 -0.016682 513506.000000 0 0 1
34.919758 -9.595044 -11.842112 38.101050 -0.268156 1.886839 0.047231 -0.015749 -304334.000000 0 0 1
33.883998 -8.497944 -12.161912 36.989897 -0.245727 1.905818 0.042947 -0.008865 -64366.700000 0 0 1
34.212668 -7.816444 -13.377212 37.557333 -0.224611 1.934974 0.041257 -0.004400 184097.000000 0 0 1
33.163108 -7.000844 -13.805312 36.597680 -0.208049 1.957587 0.027124 -0.001617 -366341.000000 0 0 1
33.389018 -6.280544 -15.129112 37.190883 -0.185930 1.989741 0.016933 -0.004290 437288.000000 0 0 1
34.395588 -5.279044 -15.008412 37.896929 -0.152292 1.977988 0.019497 0.008049 948860.000000 0 0 1
33.805258 -4.140244 -15.637112 37.476077 -0.121866 2.001220 0.021422 0.003871 913079.000000 0 0 1
34.895608 -3.046744 -15.920312 38.476518 -0.087089 1.997384 0.023063 0.005592 259480.000000 0 0 1
35.528941 -3.139244 -17.246012 39.617994 -0.088129 2.021176 0.024952 0.001391 -123883.000000 0 0 1
-34.704287 -2.675344 -17.305912 38.872093 0.076938 2.032196 0.050433 -0.000274 -434446.000000 0 0 1
-34.442923 -1.189944 -16.859912 38.366490 0.034535 2.025776 0.046320 0.004915 -846983.000000 0 0 1
-34.712559 -0.254744 -17.892212 39.053270 0.007339 2.046708 0.036456 0.001328 176154.000000 0 0 1
-34.389047 1.074056 -17.472612 38.588241 -0.031222 2.040695 0.039399 -0.002394 -77435.900000 0 0 1
-34.535669 2.183056 -18.524412 39.250886 -0.063128 2.062296 0.033764 -0.004668 -29173.800000 0 0 1
-33.711008 2.080856 -19.670712 39.085790 -0.061648 2.098175 0.029579 -0.007062 243509.000000 0 0 1
-33.749998 3.344356 -20.342712 39.548363 -0.098770 2.111076 0.027257 -0.004465 -364194.000000 0 0 1
-32.825808 3.553656 -21.548812 39.427319 -0.107838 2.149030 0.019574 -0.001379 -78957.300000 0 0 1
-31.449208 3.648856 -21.187112 38.095414 -0.115507 2.160553 0.016018 -0.000006 552056.000000 0 0 1
-30.764468 4.131256 -22.384312 38.269795 -0.133488 2.195563 0.014046 -0.000020 262287.000000 0 0 1
-29.283558 4.367356 -21.958712 36.861709 -0.148049 2.208940 0.011212 0.002758 12695.100000 0 0 1
-28.527168 3.173656 -21.862712 36.081153 -0.110795 2.221733 0.019086 0.010290 -168786.000000 0 0 1
-27.192828 3.512656 -21.607612 34.909562 -0.128464 2.238214 0.010345 0.012676 -707625.000000 0 0 1
-26.482338 2.500056 -20.808512 33.772158 -0.094126 2.234634 0.020959 0.006000 -564819.000000 0 0 1
-26.973738 2.457956 -19.470412 33.357474 -0.090873 2.194062 0.029053 0.006048 232346.000000 0 0 1
-26.156718 1.643856 -18.672012 32.179500 -0.062764 2.189826 0.032387 0.009011 -110817.000000 0 0 1
-25.202518 2.383556 -17.734112 30.908688 -0.094296 2.181883 0.033779 0.003222 -656509.000000 0 0 1
-24.063418 3.039456 -18.150212 30.293837 -0.125645 2.213221 0.035381 -0.003338 -274697.000000 0 0 1
-23.286318 3.452256 -17.030212 29.055099 -0.147180 2.197077 0.045409 -0.008087 480536.000000 0 0 1
-22.107218 4.386256 -17.455312 28.507126 -0.195865 2.229780 0.044744 -0.006041 1258310.000000 0 0 1
-20.905218 3.735656 -17.931612 27.794352 -0.176828 2.272020 0.069270 -0.011124 1108270.000000 0 0 1
-19.805818 4.635356 -18.020312 27.175147 -0.229902 2.295772 0.066189 -0.011265 292946.000000 0 0 1
-18.536418 3.917356 -18.552612 26.516860 -0.208268 2.345709 0.075400 -0.015585 -247639.000000 0 0 1
-18.123618 3.012456 -17.589712 25.434984 -0.164711 2.334437 0.082630 -0.010592 -294799.000000 0 0 1
-16.930618 2.361856 -17.928712 24.772220 -0.138608 2.380007 0.058745 -0.008548 -522988.000000 0 1 0
-16.996618 0.875256 -17.395412 24.336217 -0.051450 2.367128 0.052026 -0.014714 124705.000000 0 1 0
-17.941618 -0.055944 -17.889212 25.336312 0.003118 2.354729 0.039487 -0.015602 -165437.000000 0 0 1
-19.248218 0.168556 -17.427212 25.965940 -0.008757 2.306564 0.049927 -0.021979 -70201.600000 0 0 1
-20.306118 -0.841444 -18.019812 27.161739 0.041414 2.296185 0.043211 -0.024313 266459.000000 0 0 1
-20.303618 -2.037544 -17.299912 26.752111 0.100019 2.274013 0.034541 -0.022641 450541.000000 0 0 1
-21.177618 -3.024044 -17.840512 27.855345 0.141836 2.265906 0.050781 -0.019254 87309.600000 0 0 1
-21.441218 -4.076244 -16.762012 27.519205 0.187871 2.225725 0.059909 -0.022586 57657.700000 0 0 1
-22.089918 -3.598844 -15.596212 27.279259 0.161499 2.179402 0.058783 -0.024495 210084.000000 0 0 1
-22.275618 -4.623544 -14.712812 27.093305 0.204655 2.144852 0.064586 -0.033259 14951.300000 0 0 1
-22.497618 -4.122344 -13.252612 26.434225 0.181224 2.095946 0.059808 -0.024109 -547404.000000 0 0 1
-23.655818 -3.381244 -13.091112 27.247161 0.141973 2.071973 0.066852 -0.027604 -270149.000000 0 0 1
-23.861318 -2.913244 -11.762712 26.762117 0.121489 2.025870 0.064250 -0.022334 38040.700000 0 0 1
-24.745518 -1.620544 -11.613412 27.383173 0.065395 2.008773 0.078612 -0.019142 79539.600000 0 0 1
-24.926318 -1.231644 -10.289512 26.994673 0.049371 1.961856 0.071355 -0.020601 564609.000000 0 0 1
-25.560098 0.047056 -10.157012 27.504286 -0.001841 1.949039 0.085223 -0.018758 -112665.000000 0 0 1
-25.817268 0.512556 -8.694412 27.246777 -0.019851 1.895575 0.090062 -0.014115 5220.730000 0 0 1
-24.624118 0.828056 -7.988512 25.900757 -0.033615 1.884336 0.067372 -0.009312 410938.000000 0 0 1
-24.841718 0.882756 -6.602912 25.719422 -0.035520 1.830432 0.061533 -0.014416 -850061.000000 0 0 1
-23.712018 1.420056 -5.783712 24.448470 -0.059816 1.809628 0.025182 -0.008434 -803034.000000 0 1 0
-23.637218 2.840856 -5.890412 24.525201 -0.119612 1.813345 0.056916 -0.013620 6282.380000 0 1 0
-22.372718 3.283456 -5.481612 23.267309 -0.145721 1.808625 0.043069 0.000134 -311521.000000 0 1 0
-22.052618 4.786856 -5.544812 23.237403 -0.213749 1.811737 0.064053 -0.018774 -362707.000000 0 1 0
-22.633218 5.439556 -4.448712 23.698995 -0.235862 1.759634 0.067153 -0.018925 519389.000000 0 1 0
-22.400618 6.824456 -4.511912 23.847814 -0.295722 1.761140 0.089537 -0.018388 -598906.000000 0 1 0
-22.965218 7.659956 -3.356512 24.440588 -0.321942 1.708565 0.083546 -0.014210 -349346.000000 0 1 0
-22.263518 7.624456 -2.096812 23.626112 -0.329946 1.659663 0.070268 -0.019929 232837.000000 0 1 0
-20.957318 8.137156 -2.090612 22.578599 -0.370356 1.663522 0.086755 -0.016113 -504020.000000 0 1 0
-20.754218 9.671956 -2.300412 23.012523 -0.436099 1.670927 0.093157 -0.013159 -576190.000000 0 1 0
-20.475618 9.958456 -3.630812 23.056552 -0.452674 1.728929 0.072004 -0.013744 443699.000000 0 1 0
-19.846518 11.183456 -3.829512 23.100198 -0.513147 1.737344 0.069905 -0.009560 -270629.000000 0 1 0
-19.691418 11.620356 -5.300712 23.470879 -0.533125 1.798604 0.080075 -0.006420 -207670.000000 0 1 0
-18.601718 10.970556 -5.907212 22.389108 -0.532856 1.837801 0.058666 -0.006642 6664.440000 0 1 0
-18.454818 11.542956 -7.184012 22.922264 -0.558938 1.889576 0.062142 -0.001125 -477007.000000 0 1 0
-17.090818 11.437456 -7.872212 22.020063 -0.589766 1.936388 0.037984 0.000651 -590362.000000 0 1 0
-16.650918 10.136456 -8.211712 21.152613 -0.546838 1.969488 0.012029 0.005269 821934.000000 0 1 0
-17.506818 9.428356 -9.145412 21.886551 -0.494013 2.001880 0.027648 0.000680 94242.100000 0 1 0
-17.751418 9.961056 -10.595412 22.947728 -0.511357 2.050729 0.038958 0.007799 496946.000000 0 1 0
-16.711318 9.817256 -11.585512 22.580318 -0.531149 2.109566 0.031890 0.006123 562678.000000 0 1 0
-17.080118 10.445956 -12.798312 23.762265 -0.548895 2.139569 0.052035 -0.000955 -105560.000000 0 1 0
-16.107218 10.199056 -13.990312 23.647242 -0.564473 2.203870 0.036518 0.009903 72117.500000 0 1 0
-16.144618 8.916456 -14.671612 23.567097 -0.504597 2.242789 0.038264 0.003497 94332.400000 0 1 0
-15.763818 7.872756 -13.790612 22.375416 -0.463183 2.234869 0.022528 0.004856 -425909.000000 0 1 0
-15.697618 6.492856 -14.486812 22.325772 -0.392193 2.276912 0.031553 -0.005743 -187563.000000 0 1 0
-14.606618 6.408056 -15.373312 22.152995 -0.413425 2.337772 0.045854 -0.001911 467697.000000 0 1 0
-14.573918 5.116856 -15.948512 22.202170 -0.337652 2.372197 0.033916 -0.011786 -6514.030000 0 1 0
32.136828 -16.061544 28.424731 45.811726 -0.463477 0.901456 0.018541 0.008355 83723.100000 0 0 1
31.142718 -15.015944 28.431081 44.762415 -0.449278 0.882587 0.018445 0.007069 398807.000000 0 0 1
30.097948 -15.146644 29.367341 44.696174 -0.466240 0.853906 0.034830 -0.001202 263882.000000 0 0 1
30.535838 -14.936144 30.830461 45.891645 -0.454918 0.834147 0.022730 -0.013785 -119746.000000 0 0 1
31.087698 -13.673844 31.181391 46.105294 -0.414379 0.828057 0.007412 -0.012569 17774.300000 0 0 1
31.517668 -13.597144 32.500081 47.270508 -0.407290 0.812709 -0.000948 -0.011205 -92020.100000 0 0 1
31.454438 -12.118144 33.060737 47.214864 -0.367735 0.795092 0.023881 -0.013054 42904.700000 0 0 1
31.338768 -11.997044 -34.305928 47.989000 -0.365607 2.367235 0.005534 -0.018560 56382.600000 0 0 1
31.511108 -10.632644 -33.937502 47.515861 -0.325429 2.366327 0.017719 -0.014942 19988.300000 0 0 1
31.119638 -10.313644 -32.465752 46.139226 -0.320027 2.351314 0.015097 -0.012689 -1272050.000000 0 0 1
29.795248 -10.337244 -32.147152 45.033929 -0.333949 2.365767 0.032992 -0.015537 -1374640.000000 0 0 1
29.570178 -10.203244 -30.771402 43.879161 -0.332260 2.347982 0.011426 -0.006140 50322.000000 0 0 1
28.055588 -10.348344 -30.474602 42.695499 -0.353369 2.365657 0.011805 -0.003465 223059.000000 0 0 1
27.804408 -10.264744 -29.072992 41.517333 -0.353656 2.346560 0.001769 -0.005250 303290.000000 0 0 1
26.932488 -11.303044 -28.627772 40.898252 -0.397357 2.346159 0.024949 -0.007236 -429297.000000 0 0 1
26.522648 -11.116344 -27.113812 39.524458 -0.396885 2.326775 0.023158 -0.007041 -291439.000000 0 0 1
25.692098 -9.975844 -26.772662 38.423649 -0.370366 2.341689 0.015850 -0.012736 1177750.000000 0 0 1
24.406498 -9.833944 -27.377332 37.972383 -0.383024 2.376012 0.039820 -0.021987 164705.000000 0 0 1
23.354198 -10.926444 -27.339742 37.580144 -0.437605 2.385475 0.041920 -0.012899 -1358020.000000 0 0 1
23.739098 -12.100044 -28.039272 38.680184 -0.471385 2.381686 0.039268 -0.021249 -505645.000000 0 0 1
22.979998 -13.231244 -27.846722 38.452387 -0.522414 2.380651 0.036043 -0.026711 -397821.000000 0 0 1
23.786498 -14.412144 -28.390172 39.743040 -0.544744 2.366481 0.030258 -0.013153 59952.400000 0 0 1
23.855598 -14.442644 -29.805282 40.817084 -0.544395 2.389434 0.034391 -0.021836 274526.000000 0 0 1
24.988298 -15.136444 -30.295962 42.087674 -0.544630 2.374353 0.028295 -0.013970 -518164.000000 0 0 1
25.017698 -15.105544 -31.873242 43.243106 -0.543205 2.399522 0.047390 -0.021441 80209.400000 0 0 1
23.823098 -15.638644 -32.432502 43.173770 -0.580895 2.420687 0.051552 -0.018626 454348.000000 0 0 1
23.950898 -15.841744 -33.856712 44.394632 -0.584366 2.438167 0.062160 -0.017796 -164041.000000 0 0 1
24.031798 -14.583844 33.975135 44.096775 -0.545446 0.691222 0.048623 -0.012482 -26781.700000 0 0 1
22.841398 -13.816144 33.968111 43.202406 -0.543995 0.666072 0.048732 -0.013536 80828.600000 0 0 1
22.925698 -12.810644 33.036230 42.202994 -0.509567 0.671654 0.051506 -0.007232 -430260.000000 0 0 1
21.891098 -11.610744 33.116623 41.361096 -0.487660 0.642382 0.049137 -0.008159 1660530.000000 0 0 1
20.523098 -12.051644 32.904770 40.609895 -0.530972 0.626192 0.046487 -0.007537 1312950.000000 0 0 1
20.264798 -12.389044 31.536701 39.480551 -0.548729 0.645514 0.041403 -0.002656 -1514870.000000 0 0 1
18.756398 -12.565144 31.405061 38.677683 -0.590246 0.623280 0.037185 0.001752 -289951.000000 0 0 1
17.987198 -11.379344 31.542781 38.052277 -0.564071 0.593599 0.022666 0.004774 648723.000000 0 0 1
16.842298 -11.583544 32.390561 38.301304 -0.602467 0.562963 0.007447 0.009869 529664.000000 0 0 1
16.146398 -10.293944 32.857741 38.030285 -0.567565 0.527658 0.010463 0.002795 -735640.000000 0 0 1
15.393298 -9.656044 31.806301 36.631047 -0.560244 0.519056 0.021427 -0.000547 435802.000000 0 0 1
14.696898 -8.466944 32.193721 36.388509 -0.522664 0.484899 0.030731 -0.000252 892138.000000 0 0 1
13.560698 -8.667644 33.268347 36.956778 -0.568727 0.450577 0.027163 -0.009159 -1649480.000000 0 0 1
12.714198 -9.709444 32.997092 36.670590 -0.652192 0.451430 0.026879 -0.005006 -209151.000000 0 0 1
11.576398 -9.734144 33.852695 37.077911 -0.699165 0.420181 0.036447 -0.006141 778688.000000 0 0 1
10.386798 -8.814344 33.395961 36.067554 -0.703687 0.387311 0.051411 -0.001814 -710570.000000 0 0 1
10.745798 -7.431544 33.308775 35.779526 -0.605050 0.373804 0.043443 -0.005144 493882.000000 0 0 1
9.799698 -6.691544 32.524631 34.621705 -0.599110 0.349836 0.058333 -0.002040 305676.000000 0 0 1
10.193198 -5.163144 32.581731 34.527214 -0.468857 0.337294 0.063747 -0.009566 204418.000000 0 0 1
10.160398 -4.556844 33.838620 35.623738 -0.421598 0.317914 0.068526 -0.025944 182845.000000 0 0 1
10.644198 -3.239144 33.731852 35.519415 -0.295407 0.318604 0.046718 -0.019935 -240409.000000 0 0 1
10.305998 -2.305844 -33.882682 35.490374 -0.220113 2.839448 0.034976 -0.023970 -226736.000000 0 0 1
8.921098 -2.065444 -33.794632 35.013272 -0.227515 2.876984 0.031777 -0.015430 -130398.000000 0 0 1
8.658398 -1.326344 -32.630592 33.785834 -0.152004 2.879334 0.022676 -0.009036 -333107.000000 0 0 1
7.149898 -1.191044 -32.331632 33.134183 -0.165066 2.921049 0.020770 -0.010628 -462428.000000 0 0 1
6.554498 -0.328644 -33.212962 33.855137 -0.050098 2.946510 0.031099 -0.014665 -178392.000000 0 0 1
5.224898 -0.089144 -32.769182 33.183231 -0.017060 2.983455 0.029687 -0.008771 420280.000000 0 0 1
4.479298 0.837456 -33.743822 34.050124 0.184828 3.007360 0.033415 -0.007183 299888.000000 0 0 1
5.286898 2.029956 -33.775242 34.246737 0.366602 2.975464 0.008883 -0.002912 709139.000000 0 0 1
4.767798 2.902756 33.979787 34.435211 0.546883 0.162818 0.023321 -0.003161 176808.000000 0 0 1
5.586298 4.206556 33.916885 34.630289 0.645427 0.203331 0.007075 -0.000381 -202319.000000 0 0 1
5.168198 5.147056 32.914504 33.713009 0.783349 0.218080 0.028115 -0.014406 106489.000000 0 0 1
6.132898 6.177656 32.830087 33.964547 0.789034 0.259187 0.022013 -0.009310 -187555.000000 0 0 1
5.828698 7.260556 31.823421 33.157495 0.894357 0.284630 0.039739 -0.013440 -559548.000000 0 0 1
4.700798 7.987256 32.229901 33.535955 1.038848 0.280001 0.042117 -0.006632 -309540.000000 0 0 1
4.534198 9.312456 31.640381 33.292559 1.117687 0.316361 0.035634 -0.017361 -64798.700000 0 0 1
4.122798 9.324756 30.155821 31.832720 1.154502 0.326029 0.043501 -0.024209 995806.000000 0 0 1
2.911398 8.534856 29.896181 31.226617 1.242055 0.292957 0.071540 -0.027642 1009310.000000 0 0 1
2.527698 8.580456 28.554611 29.922889 1.284312 0.303577 0.061965 -0.015642 453837.000000 0 0 1
1.105698 8.003156 28.329431 29.458950 1.433508 0.277812 0.059388 -0.019853 614261.000000 0 0 1
-0.061602 8.742356 28.637461 29.942223 -1.563750 0.296298 0.072235 -0.018712 775273.000000 0 0 1
-1.163602 8.294856 27.798771 29.033261 -1.431426 0.292659 0.071681 -0.019740 811828.000000 0 0 1
-2.543802 8.444156 28.448061 29.783667 -1.278193 0.300609 0.084695 -0.018625 -232394.000000 0 0 1
-2.921502 9.812556 28.723091 30.493235 -1.281422 0.342406 0.085729 -0.020261 1029460.000000 0 0 1
-4.216702 9.905756 29.377411 31.287966 -1.168348 0.351270 0.077309 -0.006181 799357.000000 0 0 1
-4.452202 11.226056 30.053621 32.389297 -1.193228 0.382090 0.067691 -0.003118 -136843.000000 0 0 1
-4.716402 12.369956 29.262771 32.118063 -1.206532 0.424851 0.066911 -0.011650 474842.000000 0 0 1
-5.891702 12.415956 28.456091 31.600905 -1.127734 0.449917 0.067672 -0.015572 194316.000000 0 0 1
-6.218102 13.797156 27.905771 31.745210 -1.147377 0.496921 0.058661 -0.011691 188220.000000 0 0 1
-5.255102 14.231356 26.964071 30.938789 -1.217065 0.512483 0.054257 -0.014012 -59056.700000 0 0 1
-5.498902 15.615256 26.678331 31.397571 -1.232208 0.555391 0.037943 -0.008805 -863794.000000 0 0 1
-4.433902 16.458856 26.080161 31.156511 -1.307650 0.578892 0.074623 -0.010875 -896135.000000 0 0 1
-4.243902 16.179156 24.674181 29.809243 -1.314269 0.595736 0.048847 0.002293 940027.000000 0 0 1
-3.166302 17.024056 24.136991 29.705862 -1.386908 0.622312 0.059618 0.005724 868895.000000 0 0 1
-2.921402 16.929856 22.655751 28.433038 -1.399920 0.648798 0.051249 -0.000729 -34692.200000 0 0 1
-2.425302 15.687756 22.220251 27.308008 -1.417412 0.620324 0.038493 -0.007768 -96329.400000 0 0 1
-2.449602 15.585556 20.840551 26.138834 -1.414900 0.647984 0.037757 0.001067 -195748.000000 0 0 1
-1.523302 14.466256 20.376651 25.035992 -1.465883 0.619973 0.032091 -0.004677 -353596.000000 0 0 1
-1.983002 13.164656 20.507051 24.449531 -1.421290 0.575812 0.036362 0.004362 -186338.000000 0 1 0
-1.041502 12.240156 20.007751 23.477994 -1.485912 0.550637 0.036818 0.008336 -297985.000000 0 1 0
-1.706502 10.849756 19.632051 22.495483 -1.414790 0.510069 0.025689 0.005218 -216378.000000 0 1 0
-1.961102 9.918956 20.717951 23.053526 -1.375601 0.454025 0.032445 -0.005947 -291768.000000 0 1 0
-2.804402 10.379156 21.709251 24.225670 -1.306902 0.459835 0.042290 -0.003776 -454262.000000 0 1 0
-4.326602 10.365656 21.401851 24.170344 -1.175382 0.483315 0.033278 0.004637 -15745.500000 0 1 0
-4.907102 9.054356 21.350651 23.704668 -1.074147 0.449432 0.027996 0.006738 662639.000000 0 1 0
-6.333402 9.154956 21.346851 24.075158 -0.965595 0.480691 0.030684 0.014539 629510.000000 0 1 0
-7.122502 7.834956 21.409951 23.885195 -0.832994 0.459286 0.031317 0.009379 -133356.000000 0 1 0
-7.144002 7.125156 22.646251 24.792283 -0.784077 0.419139 0.037497 0.002474 42532.600000 0 1 0
-7.748802 5.865056 22.492151 24.501830 -0.647901 0.407843 0.031991 0.002596 3045.010000 0 1 0
-7.901802 5.065256 23.810431 25.593591 -0.570040 0.375490 0.024589 0.004944 -216700.000000 0 0 1
-8.770902 5.696856 24.703261 26.825994 -0.576036 0.400489 0.021757 0.002536 4302.160000 0 0 1
-8.811502 4.827856 25.822461 27.708306 -0.501232 0.371071 0.020172 0.018909 -27865.000000 0 0 1
-9.805102 5.318756 26.903701 29.124531 -0.497026 0.393045 0.021980 0.014022 -311642.000000 0 0 1
-9.231202 6.233256 27.811101 29.958736 -0.593913 0.380945 0.026220 0.008677 -225736.000000 0 0 1
-10.089602 6.805456 28.786241 31.253191 -0.593407 0.399988 0.020996 0.007977 -157892.000000 0 0 1
-9.436802 7.898356 29.641371 32.094363 -0.696883 0.393509 0.048382 0.002529 311780.000000 0 0 1
-8.331202 7.463356 30.432421 32.422875 -0.730507 0.352219 0.060001 -0.001869 434074.000000 0 0 1
-7.911302 8.501356 31.336631 33.419248 -0.821334 0.354898 0.061565 -0.003154 -67306.400000 0 0 1
-6.770202 8.160956 32.296011 33.992192 -0.878275 0.317237 0.076063 -0.004930 728146.000000 0 0 1
-5.456202 8.198456 31.720541 33.214116 -0.983591 0.301029 0.078533 -0.010257 247922.000000 0 0 1
-4.533102 7.490656 32.497931 33.656715 -1.026586 0.263169 0.090155 -0.005338 -114148.000000 0 0 1
-3.051102 7.576356 32.102821 33.125541 -1.187953 0.249136 0.082240 -0.006747 -26477.600000 0 0 1
-2.532702 8.853156 32.371681 33.655886 -1.292159 0.277136 0.080629 -0.008267 -501125.000000 0 0 1
-1.205302 8.973356 31.929291 33.188152 -1.437275 0.276309 0.080195 -0.016218 -38974.500000 0 0 1
-0.813302 10.441956 31.813011 33.492739 -1.493065 0.318047 0.082045 -0.017139 -66759.500000 0 0 1
-1.045502 11.244956 32.932812 34.815402 -1.478088 0.330357 0.080062 -0.022008 138118.000000 0 0 1
-1.592302 12.476156 32.496951 34.845971 -1.443855 0.369277 0.078947 -0.023889 -289538.000000 0 0 1
-1.555402 13.501556 33.679200 36.318037 -1.456100 0.383553 0.069939 -0.019407 658873.000000 0 0 1
-0.220102 13.954556 33.948200 36.705018 -1.555025 0.390043 0.090446 -0.023275 577258.000000 0 0 1
-0.275402 14.705756 -33.629022 36.704853 -1.552071 2.729291 0.082290 -0.029118 -443731.000000 0 0 1
1.099198 15.159456 -33.167992 36.484696 1.498414 2.711899 0.072851 -0.025306 -610147.000000 0 0 1
1.726098 16.062356 -34.089589 37.723716 1.463745 2.699048 0.068817 -0.027092 -432681.000000 0 0 1
2.952798 16.420756 -33.563612 37.481679 1.392877 2.680276 0.056405 -0.027845 -829865.000000 0 0 1
3.888898 17.295256 34.378683 38.680011 1.349621 0.476082 0.057856 -0.024343 -186729.000000 0 0 1
3.440898 18.619956 34.296137 39.176109 1.388062 0.504461 0.051479 -0.019063 -196239.000000 0 0 1
4.258998 19.308056 33.413298 38.825102 1.353692 0.534329 0.040265 -0.004488 -149788.000000 0 0 1
4.021798 20.791156 33.517615 39.646910 1.379718 0.563477 0.040060 -0.009184 -49581.300000 0 0 1
4.169998 21.350256 -33.967382 40.336154 1.377911 2.571976 0.046934 -0.021981 -122431.000000 0 0 1
4.141098 22.763356 -33.946502 41.081432 1.390845 2.543342 0.029503 -0.013596 -30078.700000 0 0 1
3.913598 23.332556 -32.507292 40.205080 1.404612 2.512458 0.046137 -0.016641 -74438.500000 0 0 1
3.765398 24.684256 -32.333422 40.852673 1.419421 2.483997 0.053588 -0.019475 93930.400000 0 0 1
3.538098 25.007456 -30.983022 39.972974 1.430247 2.457668 0.051562 -0.012896 102675.000000 0 0 1
2.814198 26.366856 -30.737452 40.594602 1.464466 2.429783 0.040969 -0.014242 -94078.400000 0 0 1
3.689098 27.446156 -30.802542 41.420979 1.437185 2.409304 0.037041 -0.013453 101501.000000 0 0 1
3.113498 28.669756 -30.297842 41.828316 1.462622 2.380870 0.045481 -0.015206 -250019.000000 0 0 1
4.173198 29.777256 -30.221962 42.631767 1.431556 2.358744 0.056620 -0.024111 -88787.000000 0 0 1
5.000798 29.552856 -29.101982 41.776843 1.403169 2.341452 0.060461 -0.034788 189534.000000 0 0 1
5.719298 30.758756 -28.750252 42.489862 1.386955 2.313983 0.070743 -0.036088 -743582.000000 0 0 1
6.736898 30.559756 -27.586722 41.717043 1.353817 2.293323 0.072254 -0.040663 1160790.000000 0 0 1
8.016998 30.053556 -28.053152 41.886368 1.310110 2.304661 0.062021 -0.025756 1996330.000000 0 0 1
9.104798 30.914756 -28.516402 43.032600 1.284381 2.295174 0.065853 -0.032605 907380.000000 0 0 1
8.775498 32.078856 -29.493032 44.451111 1.303769 2.296275 0.064738 -0.035887 -1253660.000000 0 0 1
8.051198 33.118556 -28.845352 44.651034 1.332320 2.273152 0.056343 -0.039102 101835.000000 0 0 1
7.815298 34.270556 -29.678182 46.003743 1.346584 2.271984 0.054196 -0.033147 33255.900000 0 0 1
6.616698 34.177456 -30.647422 46.380423 1.379564 2.292659 0.036357 -0.019419 -409453.000000 0 0 1
6.901098 33.403156 -31.800972 46.633655 1.367063 2.321197 0.029391 -0.010003 411416.000000 0 0 1
5.709598 32.948756 -32.439752 46.589242 1.399213 2.341016 0.025136 -0.006646 245445.000000 0 0 1
6.003398 32.186156 -33.727982 47.006023 1.386394 2.371038 0.029895 -0.010192 83816.900000 0 0 1
6.204998 33.071856 33.948725 47.799221 1.385331 0.780963 0.033927 -0.005487 -5235.840000 0 0 1
6.571398 32.423856 32.744544 46.547769 1.370833 0.790541 0.032655 -0.005381 -392776.000000 0 0 1
5.974398 33.074156 31.551661 46.098812 1.392087 0.816967 0.019972 -0.006991 -172259.000000 0 0 1
6.470398 34.362756 31.247051 46.893957 1.384679 0.841515 0.030943 -0.006369 -28772.100000 0 0 1
5.858398 -33.997181 30.017931 45.729698 -1.400152 0.854732 0.006951 -0.013878 38631.200000 0 0 1
17.353282 -22.091144 29.090321 40.440101 -0.904940 0.767940 0.058953 0.004927 -449310.000000 0 0 1
16.404282 -21.142444 29.451171 39.792900 -0.910928 0.737561 0.044451 0.013877 439402.000000 0 0 1
15.064482 -21.606344 29.659221 39.666637 -0.961935 0.726187 0.062481 0.013391 482885.000000 0 0 1
14.815282 -22.054044 31.107381 40.908955 -0.979268 0.706860 0.057064 0.005196 -594947.000000 0 0 1
15.455282 -23.268044 31.471621 42.080049 -0.984484 0.725905 0.078948 -0.001967 177124.000000 0 0 1
15.480282 -23.464044 32.897222 43.271558 -0.987601 0.707098 0.062104 -0.009489 -127873.000000 0 0 1
16.343682 -24.635044 33.387513 44.595149 -0.985036 0.724727 0.072998 -0.017680 -145968.000000 0 0 1
15.960782 -25.925384 33.008759 44.904902 -1.018954 0.745010 0.093026 -0.020006 297068.000000 0 0 1
16.834182 -26.854674 33.699862 46.262770 -1.010859 0.754748 0.078112 -0.019893 614309.000000 0 0 1
16.444982 -28.333724 33.519228 46.869777 -1.044911 0.773948 0.074248 -0.013088 -47031.700000 0 0 1
16.936482 -28.874214 32.283551 46.505831 -1.040317 0.803512 0.063914 -0.020343 134934.000000 0 0 1
16.439782 -30.183374 31.997411 46.958884 -1.072059 0.821133 0.072020 -0.017718 -247970.000000 0 0 1
17.247982 -30.830314 30.844081 46.897318 -1.060728 0.853043 0.067811 -0.018308 -464569.000000 0 0 1
18.540582 -31.045184 31.340021 47.851369 -1.032429 0.856686 0.031713 -0.020027 -273529.000000 0 0 1
19.210482 -31.894584 30.327601 48.021563 -1.028679 0.887257 0.016620 -0.011604 -334275.000000 0 0 1
20.641182 -32.294334 30.684381 49.096982 -1.002081 0.895697 0.001938 -0.001631 -943089.000000 0 0 1
21.490382 -31.199234 30.701851 48.763023 -0.967619 0.889741 -0.002037 -0.008118 -101793.000000 0 0 1
22.794882 -31.689404 31.004151 49.850600 -0.947220 0.899577 -0.009949 0.003229 58491.400000 0 0 1
23.872982 -30.600064 30.902981 49.611263 -0.908270 0.898349 -0.013123 0.002768 -109900.000000 0 0 1
24.243682 -30.132604 29.616551 48.712114 -0.893277 0.917268 -0.014685 -0.005249 135697.000000 0 0 1
25.196082 -29.084294 29.761361 48.646452 -0.856908 0.912476 -0.023121 -0.007764 901741.000000 0 0 1
26.518882 -29.192834 28.902401 48.896027 -0.833358 0.938375 -0.025403 -0.009042 530092.000000 0 0 1
27.374482 -30.191684 29.357161 50.226915 -0.834298 0.946544 -0.029483 0.002952 108470.000000 0 0 1
28.537382 -30.280224 28.515911 50.442356 -0.815021 0.969979 -0.024356 -0.008807 673675.000000 0 0 1
29.526882 -31.371844 29.007801 51.937288 -0.815684 0.978201 -0.018577 0.001962 252757.000000 0 0 1
29.002682 -32.683814 28.881861 52.378900 -0.845002 0.986752 -0.018056 0.000541 115931.000000 0 0 1
29.976982 -33.566954 29.384381 53.747574 -0.841834 0.992365 -0.002609 -0.002751 -450202.000000 0 0 1
29.358682 33.790999 29.786301 53.767904 0.855471 0.983660 -0.013953 0.008089 -568248.000000 0 0 1
28.831582 33.568850 31.062911 54.065074 0.861170 0.958746 0.001064 0.004902 1286370.000000 0 0 1
27.699182 -34.318544 31.444401 54.164172 -0.891729 0.951406 -0.002525 0.006130 736926.000000 0 0 1
26.382482 34.216765 30.696321 53.000816 0.913965 0.953090 -0.003705 0.003975 -955969.000000 0 0 1
25.896482 32.883137 30.866181 52.006246 0.903705 0.935384 -0.005418 0.011074 442503.000000 0 0 1
24.479682 32.923970 30.620791 51.194487 0.931454 0.929635 -0.013990 0.015885 921117.000000 0 0 1
23.887882 31.502712 30.685821 50.046692 0.922017 0.910762 0.001631 0.008820 -259183.000000 0 0 1
24.106182 30.848842 29.446451 48.988290 0.907482 0.925930 -0.002519 -0.001942 -6252.600000 0 0 1
23.401582 29.651282 29.452251 47.898514 0.902659 0.908552 0.025373 -0.020962 -347675.000000 0 0 1
22.911782 29.179242 28.058951 46.515402 0.905140 0.923266 0.021107 -0.020703 444305.000000 0 0 1
21.655282 29.757872 27.701151 46.063391 0.941710 0.925581 0.035195 -0.024283 354394.000000 0 0 1
21.223482 29.452472 26.402991 44.888776 0.946378 0.941981 0.033746 -0.029038 289665.000000 0 0 1
19.877482 30.149792 26.062631 44.535211 0.987917 0.945652 0.043158 -0.021214 326828.000000 0 0 1
20.059582 31.466682 25.637801 45.275112 1.003268 0.968827 0.043698 -0.027007 -437539.000000 0 0 1
18.842082 31.967042 25.197801 44.853595 1.038191 0.974262 0.051055 -0.031300 -1217090.000000 0 0 1
18.872882 33.355382 24.595691 45.538063 1.055894 1.000225 0.067829 -0.030501 -115568.000000 0 0 1
19.438382 33.573020 23.322151 45.265010 1.045970 1.029514 0.079355 -0.032550 -33913.300000 0 0 1
20.844882 33.501980 23.260351 45.803228 1.014214 1.038130 0.060737 -0.028955 -319913.000000 0 0 1
21.311182 33.528180 21.768951 45.301132 1.004597 1.069527 0.062212 -0.027167 -229205.000000 0 0 1
20.995782 -33.998244 21.173851 45.222068 -1.017569 1.083522 0.081108 -0.017933 134002.000000 0 0 1
21.794482 -33.645894 20.071651 44.832096 -0.995997 1.106597 0.098235 -0.021333 -227717.000000 0 0 1
21.373382 -32.330074 19.417851 43.348680 -0.986658 1.106330 0.066024 -0.020522 -309282.000000 0 0 1
21.489582 -31.165024 20.210151 42.912831 -0.967124 1.080420 0.062903 -0.015705 147819.000000 0 0 1
21.256682 -29.915654 19.532251 41.572848 -0.953022 1.081696 0.074976 -0.021883 -291382.000000 0 0 1
22.098582 -29.454534 18.342451 41.138333 -0.927128 1.108648 0.059847 -0.016020 -323559.000000 0 0 1
21.572482 -30.023214 17.136351 40.748250 -0.947744 1.136754 0.048622 -0.014588 625256.000000 0 0 1
22.137982 -29.405514 15.990651 40.130729 -0.925473 1.160955 0.036122 -0.004821 -14183.200000 0 0 1
21.630882 -30.124854 14.726851 39.903409 -0.948065 1.192796 0.038535 -0.014992 -293765.000000 0 0 1
22.287782 -31.346784 14.500651 41.105170 -0.952721 1.210267 0.051810 -0.013705 48380.100000 0 0 1
22.487582 -31.659934 13.165651 41.004599 -0.953201 1.243929 0.054606 -0.010050 56076.500000 0 0 1
21.206882 -31.786944 12.260351 40.130510 -0.982454 1.260320 0.052399 -0.011534 453779.000000 0 0 1
20.400982 -32.872484 12.711651 40.723290 -1.015360 1.253344 0.065619 -0.018343 -573841.000000 0 0 1
19.341982 -33.176194 11.874351 40.196671 -1.042965 1.270916 0.061460 -0.010074 -525483.000000 0 0 1
18.255682 -33.991474 12.614651 40.593345 -1.077937 1.254807 0.058486 -0.012486 -108288.000000 0 0 1
17.690982 -33.203824 13.657251 40.024808 -1.081255 1.222582 0.059497 -0.009451 363715.000000 0 0 1
18.275682 -33.617294 14.905051 41.064383 -1.072850 1.199345 0.054434 -0.017353 -433068.000000 0 0 1
18.142182 -32.522404 16.097051 40.570440 -1.061957 1.162803 0.071732 -0.022365 467279.000000 0 0 1
16.835082 -32.171714 16.567051 39.911231 -1.088692 1.142746 0.087083 -0.036208 553000.000000 0 0 1
16.047082 -33.171904 17.201951 40.666831 -1.120229 1.134046 0.075521 -0.023092 -340073.000000 0 0 1
16.616982 -33.909514 18.452551 42.029464 -1.115149 1.116268 0.063188 -0.025852 -151431.000000 0 0 1
17.529382 33.829899 18.050151 42.160992 1.092725 1.128380 0.057253 -0.017076 401815.000000 0 0 1
18.212582 33.215395 19.163551 42.452353 1.069246 1.102448 0.049312 -0.013755 466558.000000 0 0 1
18.965982 31.909892 18.841751 41.628851 1.034534 1.101103 0.046844 -0.012587 -154235.000000 0 0 1
18.172982 30.814422 19.003751 40.508375 1.037943 1.082489 0.034660 -0.008397 -340141.000000 0 0 1
18.957882 29.664942 18.700151 39.863589 1.002145 1.082521 0.035137 -0.017248 400186.000000 0 0 1
18.161782 28.383562 18.327951 38.358711 1.001576 1.072643 0.033572 -0.007472 -86694.600000 0 0 1
17.863582 27.640422 19.463651 38.235248 0.997037 1.036716 0.023290 -0.013550 31633.600000 0 0 1
17.260182 26.375772 19.158751 36.887030 0.991337 1.024659 0.021240 -0.009277 -665366.000000 0 0 1
17.363682 25.331932 20.374051 36.855206 0.969905 0.985060 0.015245 -0.004685 24426.700000 0 0 1
16.350582 25.477252 21.376051 37.058973 1.000227 0.955976 0.005663 -0.009687 75070.100000 0 0 1
15.258682 24.640532 21.096351 35.847444 1.016342 0.941590 0.023982 -0.009366 -686903.000000 0 0 1
13.998782 24.998802 21.863651 36.040605 1.060325 0.918970 0.041372 -0.022369 -354294.000000 0 0 1
13.328082 26.204982 21.526051 36.437751 1.100286 0.938793 0.051212 -0.024427 623289.000000 0 0 1
12.052282 26.252612 22.206351 36.435960 1.140410 0.915414 0.056531 -0.023272 572199.000000 0 0 1
11.149882 27.269412 21.469751 36.453956 1.182659 0.941031 0.050556 -0.023158 -418921.000000 0 0 1
11.441382 28.601112 21.792751 37.733974 1.190262 0.955088 0.038643 -0.021626 -210635.000000 0 0 1
11.057782 29.391062 20.684651 37.602711 1.210948 0.988331 0.041465 -0.023484 -57714.100000 0 0 1
11.485182 30.865522 20.804751 38.954172 1.214567 1.007374 0.042436 -0.022535 -204672.000000 0 0 1
10.739482 31.583282 21.737551 39.816596 1.243025 0.993283 0.031017 -0.015339 -458484.000000 0 0 1
11.343482 31.527592 22.996651 40.638770 1.225422 0.969297 0.026167 -0.015180 -202252.000000 0 0 1
10.840082 32.662592 23.925711 41.914102 1.250354 0.963283 0.005948 -0.022128 1129360.000000 0 0 1
9.464182 32.478452 24.317691 41.662581 1.287249 0.947541 0.002968 -0.020928 583574.000000 0 0 1
9.198582 33.113904 25.519891 42.806651 1.299842 0.932079 0.001315 -0.010255 -31801.000000 0 0 1
7.812882 32.732773 26.154331 42.620706 1.336493 0.910117 0.043315 -0.018438 1018700.000000 0 0 1
6.644082 33.361860 25.564931 42.552594 1.374216 0.926314 0.041698 -0.023289 910759.000000 0 0 1
6.253882 32.874600 24.329051 41.373338 1.382808 0.942167 0.037236 -0.030571 -214649.000000 0 0 1
5.290582 31.625452 24.494431 40.350175 1.405042 0.918458 0.038823 -0.030933 385381.000000 0 0 1
6.044982 30.489072 24.975721 39.873700 1.375068 0.893908 0.023405 -0.022784 36606.200000 0 0 1
5.366082 29.300982 24.736011 38.719667 1.389667 0.877795 0.022992 -0.019888 -590219.000000 0 0 1
6.316182 28.083442 24.941361 38.087339 1.349570 0.856817 0.025567 -0.014662 354637.000000 0 0 1
7.382982 27.858852 24.020501 37.518109 1.311738 0.875989 0.015330 -0.016864 886075.000000 0 0 1
8.479182 28.791752 24.084601 38.482847 1.284393 0.894572 0.022175 -0.016737 -2121.120000 0 0 1
9.601682 28.388642 25.066741 39.069794 1.244652 0.874229 0.023066 -0.019847 -826182.000000 0 0 1
9.312982 28.485972 26.435831 39.962925 1.254818 0.847967 0.010473 -0.010337 830697.000000 0 0 1
10.436882 28.229292 27.331301 40.654907 1.216664 0.833518 0.020722 -0.004730 1175190.000000 0 0 1
11.400382 29.461022 27.502371 41.884376 1.201577 0.854460 0.020150 -0.008961 58590.300000 0 0 1
10.824482 30.550872 28.222591 42.977201 1.230287 0.854378 0.023010 -0.013579 40065.700000 0 0 1
11.655282 31.680312 28.195301 43.982528 1.218262 0.874922 0.014596 -0.001810 -82231.500000 0 0 1
11.068682 32.867200 29.036551 45.231514 1.245956 0.873752 0.019516 -0.004960 -62235.000000 0 0 1
11.239482 32.812033 30.470041 46.166859 1.240781 0.849980 0.031544 -0.017692 160331.000000 0 0 1
10.493082 31.816812 31.149441 45.746060 1.252232 0.821777 0.027195 -0.010638 -420709.000000 0 0 1
10.639682 31.766392 32.700681 46.814966 1.247605 0.797484 0.045279 -0.018740 -287678.000000 0 0 1
10.075782 30.576722 33.173347 46.226921 1.252478 0.770418 0.047277 -0.015973 159964.000000 0 0 1
10.222282 30.475952 -34.198732 46.934337 1.247168 2.387146 0.078289 -0.014918 -46046.000000 0 0 1
10.366382 28.997602 -33.778462 45.708941 1.227464 2.402367 0.065973 -0.010630 177348.000000 0 0 1
11.543782 28.396302 -34.324901 46.019645 1.184678 2.412644 0.065464 -0.006060 336311.000000 0 0 1
11.724682 27.025842 -33.947312 44.947573 1.161469 2.426854 0.047160 -0.012697 541097.000000 0 0 1
13.091182 26.465052 34.266800 45.232639 1.111430 0.711217 0.044732 -0.011160 762507.000000 0 0 1
13.247982 25.078682 34.378134 44.567986 1.084800 0.689815 0.033807 -0.014294 -305170.000000 0 0 1
13.275482 24.580152 -33.038542 43.266240 1.075594 2.439682 0.036953 -0.015504 -664235.000000 0 0 1
13.209482 23.068692 -32.933732 42.323583 1.050756 2.462498 0.023819 -0.035082 -342638.000000 0 0 1
14.318782 22.321392 -33.405252 42.651881 1.000432 2.470603 0.020951 -0.019982 112028.000000 0 0 1
14.148282 20.931292 -33.111762 41.649510 0.976402 2.489820 0.019966 -0.014033 943273.000000 0 0 1
15.489982 20.195992 -33.498232 42.070764 0.916514 2.491843 0.029277 -0.026695 1199380.000000 0 0 1
16.609782 20.461492 -32.670262 41.975035 0.888927 2.462792 0.016997 -0.027485 54619.400000 0 0 1
17.754382 19.756392 -33.076262 42.421365 0.838719 2.464995 0.019144 -0.028168 -412697.000000 0 0 1
19.011182 20.099092 -32.275592 42.510145 0.813207 2.432948 0.016485 -0.019836 -517075.000000 0 0 1
19.504982 21.433692 -32.617012 43.631605 0.832476 2.415169 0.012608 -0.012319 318553.000000 0 0 1
20.603982 21.859592 -31.827992 43.765134 0.814959 2.385096 0.022321 -0.010490 3061.170000 0 0 1
20.224782 22.140192 -30.339092 42.657830 0.830580 2.362028 0.020614 -0.005980 215310.000000 0 0 1
19.455282 23.353692 -30.244142 42.879028 0.876213 2.353694 0.004036 -0.000042 81821.100000 0 0 1
19.007682 23.633392 -28.917072 41.904967 0.893456 2.332373 0.003510 0.007747 -323078.000000 0 0 1
20.030982 24.165152 -27.903842 41.997848 0.878668 2.297502 0.012622 0.007751 -98426.300000 0 0 1
20.630882 25.380792 -28.345552 43.281500 0.888267 2.284862 0.018693 0.003478 439913.000000 0 0 1
19.751882 26.533262 -28.188152 43.459438 0.930876 2.276551 0.016034 0.006487 23336.200000 0 0 1
20.367182 27.816352 -28.822502 44.936713 0.938784 2.267121 0.020465 0.006024 -485117.000000 0 0 1
20.561682 27.862612 -30.252512 45.981762 0.935041 2.288855 0.008687 0.000306 245812.000000 0 0 1
21.391582 26.919142 -30.926332 46.245843 0.899320 2.303306 0.020389 -0.006413 -64122.300000 0 0 1
22.828482 26.737972 -30.427952 46.496441 0.864109 2.284205 0.037963 -0.020662 -302156.000000 0 0 1
23.766182 27.814382 -30.650882 47.727852 0.863721 2.268163 0.033490 -0.019689 605149.000000 0 0 1
25.072682 27.264722 -30.627002 48.062644 0.827257 2.261696 0.050143 -0.013730 -131343.000000 0 0 1
26.187682 28.207142 -31.073792 49.467344 0.822507 2.249993 0.047465 -0.012848 -381754.000000 0 0 1
26.477582 29.184602 -30.146132 49.614440 0.833993 2.223842 0.038949 -0.007847 -554922.000000 0 0 1
27.607182 29.877192 -30.574482 50.888133 0.824867 2.215320 0.040430 -0.006562 -261980.000000 0 0 1
27.839282 31.129092 -29.744702 51.271759 0.841130 2.189695 0.029270 0.000733 -172040.000000 0 0 1
28.334582 30.910352 -28.455902 50.675801 0.828847 2.167028 0.038139 -0.000636 276560.000000 0 0 1
27.478082 31.562862 -27.509482 50.080244 0.854474 2.152332 0.034424 0.005081 -88197.400000 0 0 1
28.030282 31.486992 -26.092962 49.577919 0.843412 2.125042 0.034641 0.010084 -257764.000000 0 0 1
27.963782 30.265582 -25.377732 48.394296 0.824907 2.122801 0.029544 0.012501 556878.000000 0 0 1
26.653182 29.761162 -25.081412 47.171984 0.840435 2.131405 0.036108 0.010585 549052.000000 0 0 1
26.145782 29.935572 -23.640112 46.244949 0.852872 2.107369 0.030598 0.017894 -475678.000000 0 0 1
25.877682 31.222922 -23.127112 46.683922 0.878737 2.089089 0.034938 0.014993 99440.000000 0 0 1
25.300682 31.044622 -21.877312 45.634525 0.886989 2.070770 0.033169 0.015988 -34988.100000 0 0 1
3.181882 -26.926314 -19.564412 33.435266 -1.453172 2.195853 0.019836 -0.010277 -276607.000000 0 0 1
2.554782 -27.809414 -18.687512 33.602285 -1.479186 2.160528 0.000446 -0.004513 -32980.200000 0 0 1
2.679782 -27.341054 -17.357112 32.495905 -1.473095 2.134277 0.016082 -0.005055 -194067.000000 0 0 1
2.617182 -28.433794 -16.284612 32.871247 -1.479010 2.089098 0.016787 -0.005997 -125994.000000 0 0 1
3.922682 -28.910254 -16.047412 33.297292 -1.435935 2.073668 0.021941 -0.005153 -72568.700000 0 0 1
3.935382 -29.968694 -15.125212 33.799141 -1.440227 2.034767 0.015054 -0.005811 -475555.000000 0 0 1
5.320282 -30.462444 -14.720512 34.248495 -1.397890 2.015084 0.038524 -0.010992 -895039.000000 0 0 1
5.953782 -29.537334 -13.922912 33.192606 -1.371894 2.003645 0.018725 0.004680 -1392940.000000 0 0 1
7.332482 -29.612484 -14.059612 33.590731 -1.328064 2.002651 0.030761 -0.003137 -627262.000000 0 0 1
8.040482 -30.443644 -12.970812 34.054468 -1.312582 1.961549 0.028860 -0.001545 -768566.000000 0 0 1
8.431082 -29.759634 -11.790912 33.102033 -1.294725 1.934993 0.021934 -0.005204 -130099.000000 0 0 1
8.481482 -30.549254 -10.572012 33.420950 -1.299984 1.892653 0.025440 -0.003286 -35608.400000 0 0 1
9.595082 -31.593214 -10.357012 34.604400 -1.275942 1.874753 0.032280 -0.003006 205305.000000 0 0 1
10.858882 -31.107104 -9.957112 34.419636 -1.234941 1.864277 0.027719 -0.001942 210703.000000 0 0 1
11.842682 -32.128254 -9.953212 35.658663 -1.217643 1.853679 0.037566 -0.004983 894874.000000 0 0 1
13.131882 -31.784844 -9.118312 35.579014 -1.179006 1.829972 0.048582 0.002812 1385800.000000 0 0 1
14.167282 -30.966844 -9.729512 35.416391 -1.141724 1.849092 0.046064 -0.017246 842320.000000 0 0 1
15.071682 -30.509884 -8.755612 35.137862 -1.111966 1.822629 0.050967 -0.008548 -154809.000000 0 0 1
16.222282 -29.616324 -9.275112 35.018806 -1.069684 1.838856 0.066797 -0.016122 -5190.050000 0 0 1
15.929782 -28.295024 -9.777512 33.911150 -1.058036 1.863276 0.052752 -0.017299 -333313.000000 0 0 1
15.160582 -28.212314 -10.936912 33.843670 -1.077698 1.899863 0.041484 -0.016442 -266212.000000 0 0 1
14.816882 -26.711634 -11.085512 32.495230 -1.064354 1.918929 0.031919 -0.008748 -552814.000000 0 0 1
13.849282 -26.305544 -10.119112 31.403514 -1.086192 1.898879 0.024660 -0.013282 423908.000000 0 0 1
13.400082 -24.952944 -10.187112 30.099649 -1.077978 1.916061 0.010242 -0.003009 268680.000000 0 0 1
12.696982 -24.509644 -11.489412 29.898873 -1.092821 1.965220 0.007107 -0.005044 -406541.000000 0 0 1
13.628082 -24.274144 -12.516812 30.522603 -1.059225 1.993342 0.007995 -0.008043 109988.000000 0 0 1
12.951582 -24.246944 -13.775412 30.747679 -1.080201 2.035340 0.016150 -0.012010 204311.000000 0 0 1
13.822182 -23.567444 -14.841312 31.092470 -1.040366 2.068408 0.014592 -0.014810 627577.000000 0 0 1
14.963082 -24.267244 -15.347712 32.378160 -1.018263 2.064641 0.021050 -0.019404 524803.000000 0 0 1
15.350582 -23.797544 -16.632312 32.842005 -0.997909 2.101841 0.025941 -0.027147 -1252390.000000 0 0 1
16.239582 -24.697844 -17.449112 34.324613 -0.989146 2.104071 0.027508 -0.024532 201151.000000 0 0 1
17.591282 -24.830144 -17.040012 34.876228 -0.954412 2.081264 0.036462 -0.025295 138272.000000 0 0 1
18.424182 -23.746544 -17.378812 34.718467 -0.910944 2.095046 0.027032 -0.029658 -1518010.000000 0 0 1
19.871982 -23.861344 -16.968912 35.386486 -0.876367 2.070916 0.028341 -0.022617 -681444.000000 0 0 1
20.523182 -24.848144 -17.768112 36.801319 -0.880435 2.074659 0.037345 -0.017437 752765.000000 0 0 1
21.721282 -25.291984 -17.057912 37.449578 -0.861204 2.043719 0.051823 -0.006500 1194250.000000 0 0 1
22.458582 -26.465714 -17.756612 38.988706 -0.867121 2.043651 0.047733 -0.007914 -139088.000000 0 0 1
23.096682 -26.016864 -18.940412 39.611528 -0.844786 2.069348 0.050909 -0.008202 -346454.000000 0 0 1
23.413282 -27.086124 -19.782512 40.904617 -0.858001 2.075588 0.044625 -0.018880 307615.000000 0 0 1
24.607482 -26.683594 -20.740112 41.805438 -0.825853 2.089910 0.037564 -0.010418 629361.000000 0 0 1
24.309882 -25.557134 -21.574712 41.347378 -0.810405 2.119746 0.037986 -0.006678 -56209.300000 0 0 1
24.590782 -24.334244 -20.909712 40.423731 -0.780155 2.114446 0.041667 0.002856 111218.000000 0 0 1
23.899082 -23.079444 -21.636612 39.648075 -0.767953 2.148040 0.055855 0.007861 321775.000000 0 0 1
24.535482 -22.652144 -22.876912 40.477927 -0.745508 2.171436 0.034698 0.008251 230845.000000 0 0 1
24.122282 -23.416944 -23.953912 41.279870 -0.770562 2.189870 0.027773 -0.003701 -294400.000000 0 0 1
23.214082 -22.607444 -24.917412 40.876247 -0.772160 2.226329 0.031760 -0.001789 240635.000000 0 0 1
23.825482 -21.446644 -25.522842 40.975939 -0.732901 2.243207 0.020147 0.011160 453907.000000 0 0 1
22.826682 -20.719044 -26.219732 40.469872 -0.737035 2.275598 0.015674 0.008781 337984.000000 0 0 1
23.468282 -20.015244 -27.490522 41.317055 -0.706154 2.298766 0.001014 0.008572 -99295.700000 0 0 1
22.780582 -18.972544 -28.078652 40.832867 -0.694446 2.329041 0.016109 0.004279 -85777.100000 0 0 1
23.416882 -18.551444 -29.280212 41.831056 -0.669982 2.346143 0.014167 0.001812 -179351.000000 0 0 1
22.541682 -17.505944 -29.983272 41.395436 -0.660311 2.380834 0.033608 -0.004823 -960459.000000 0 0 1
21.312482 -18.083044 -30.337912 41.250543 -0.703606 2.397134 0.039910 -0.010029 -484842.000000 0 0 1
20.561882 -17.068844 -30.907732 40.858589 -0.692839 2.428674 0.047919 -0.014479 166020.000000 0 0 1
19.210582 -17.624444 -31.491442 40.882495 -0.742364 2.450095 0.037327 -0.005953 539221.000000 0 0 1
19.370682 -18.283144 -32.684492 42.163642 -0.756524 2.457799 0.042674 -0.005779 678810.000000 0 0 1
18.094882 -18.799244 -33.032722 42.095095 -0.804487 2.473035 0.034536 -0.010667 154805.000000 0 0 1
18.105982 -19.470944 34.329839 43.422138 -0.821707 0.658997 0.065160 0.001395 -97351.000000 0 0 1
18.994682 -20.567444 34.384653 44.340975 -0.825131 0.683353 0.055677 0.006852 276363.000000 0 0 1
19.123682 -21.265244 33.135295 43.770693 -0.838372 0.712056 0.047275 -0.003109 -30384.000000 0 0 1
20.053182 -22.503544 33.251603 44.879936 -0.842913 0.736385 0.036997 -0.005960 351.916000 0 0 1
19.570482 -23.643044 33.985503 45.793140 -0.879363 0.734520 0.046035 0.007394 57595.600000 0 0 1
19.793882 -23.528844 -33.399322 45.397346 -0.871398 2.397512 0.044326 0.007290 -234541.000000 0 0 1
18.959982 -24.425344 -32.439912 44.815469 -0.910711 2.380170 0.041576 0.000409 -149550.000000 0 0 1
19.267382 -25.795334 -32.390872 45.670558 -0.929261 2.359200 0.038286 -0.006252 233426.000000 0 0 1
20.430082 -26.085814 -31.620112 45.800540 -0.906391 2.332821 0.011486 -0.005890 377796.000000 0 0 1
20.679282 -27.611664 -31.499032 46.714299 -0.927979 2.310801 0.012355 -0.007493 110872.000000 0 0 1
19.542282 -28.225834 -30.887922 46.180756 -0.965220 2.303455 0.015166 -0.007950 568063.000000 0 0 1
19.735982 -29.658204 -30.813702 47.102041 -0.983638 2.283908 0.008153 -0.004177 -632622.000000 0 0 1
18.465882 -30.257894 -30.226952 46.585380 -1.022850 2.276869 0.022881 -0.007736 652334.000000 0 0 1
17.302182 -30.365904 -31.089642 46.776271 -1.052886 2.297816 0.030874 -0.014630 507671.000000 0 0 1
17.350282 -31.203124 -32.195682 48.075245 -1.063325 2.304592 0.034359 -0.014012 -53080.600000 0 0 1
15.989182 -31.885184 -32.589822 48.315788 -1.105980 2.311107 0.063361 -0.020738 555745.000000 0 0 1
14.979482 -30.983604 -32.962372 47.653820 -1.120464 2.334643 0.083784 -0.025732 -1064120.000000 0 0 1
13.785482 -31.653684 -33.155172 47.867115 -1.160058 2.335953 0.068383 -0.015107 -730368.000000 0 0 1
12.800382 -30.855874 -34.007592 47.670233 -1.177559 2.365124 0.070849 -0.020568 146998.000000 0 0 1
12.099082 -29.767884 -33.341232 46.304994 -1.184744 2.374650 0.073973 -0.019137 112461.000000 0 0 1
11.288482 -29.154594 -34.340728 46.440347 -1.201378 2.403063 0.059141 -0.011654 386308.000000 0 0 1
10.317582 -28.087014 -33.698412 45.065684 -1.218755 2.415482 0.051722 -0.019205 -233306.000000 0 0 1
9.340782 -28.682514 -32.940592 44.665640 -1.255967 2.400147 0.044036 -0.007372 -1136450.000000 0 0 1
8.555982 -27.731334 -32.280862 43.408361 -1.271531 2.409318 0.026818 -0.009289 -302559.000000 0 0 1
7.464082 -28.326524 -31.381242 42.928858 -1.313151 2.390591 0.025274 -0.007044 717916.000000 0 0 1
6.389682 -29.024614 -32.089672 43.737893 -1.354106 2.394520 0.019893 -0.001926 663685.000000 0 0 1
6.701082 -30.246244 -32.674742 45.026421 -1.352767 2.382818 0.026248 -0.001159 -1000480.000000 0 0 1
5.481782 -31.111654 -32.919852 45.625668 -1.396389 2.376792 0.032354 -0.008633 -287571.000000 0 0 1
4.803682 -31.574144 -31.761272 45.041984 -1.419814 2.353428 0.039336 -0.019866 -777866.000000 0 0 1
3.797782 -32.438154 -32.109182 45.800181 -1.454249 2.347695 0.040435 -0.035493 -1148220.000000 0 0 1
2.919782 -32.705994 -30.828062 45.039722 -1.481759 2.324664 0.036439 -0.039670 482883.000000 0 0 1
1.882582 -31.790524 -30.527432 44.114688 -1.511647 2.335054 0.033898 -0.039550 77840.700000 0 0 1
0.696982 -31.830284 -31.302452 44.648587 -1.548903 2.347714 0.023990 -0.006872 -302401.000000 0 0 1
-0.281718 -30.746774 -30.859282 43.563044 1.561634 2.358000 0.026573 -0.009730 -620753.000000 0 0 1
-1.006418 -31.028644 -29.727062 42.982413 1.538373 2.334512 0.017607 -0.012834 -258717.000000 0 0 1
-1.677918 -29.836374 -29.271522 41.831168 1.514618 2.345849 0.030310 -0.008037 173945.000000 0 0 1
-2.450018 -30.069414 -27.963882 41.135763 1.489497 2.318279 0.028777 -0.006120 -65066.800000 0 0 1
-1.585618 -30.103884 -26.830412 40.356276 1.518173 2.298074 0.026021 -0.000103 -97715.800000 0 0 1
-2.234318 -30.145724 -25.562902 39.588115 1.496814 2.272764 0.034126 -0.000042 18992.000000 0 0 1
-1.424418 -30.759774 -24.388712 39.281064 1.524522 2.240657 0.034287 0.005194 103427.000000 0 0 1
-2.070518 -30.709554 -23.134712 38.504268 1.503476 2.215342 0.044154 -0.010253 -120690.000000 0 0 1
-1.299618 -31.389274 -22.179512 38.456551 1.529417 2.185531 0.039731 -0.006192 488370.000000 0 0 1
-1.939918 -31.175234 -20.720912 37.483526 1.508650 2.156518 0.017626 0.010239 422976.000000 0 0 1
-1.943218 -29.835954 -20.186812 36.075860 1.505758 2.164658 -0.004046 0.002700 1304050.000000 0 0 1
-0.604018 -29.267054 -20.045312 35.478724 1.550161 2.171224 0.018031 -0.007964 1341340.000000 0 0 1
-0.626718 -27.856624 -19.374012 33.937246 1.548302 2.178371 0.018924 -0.019549 -417729.000000 0 0 1
-1.149118 -27.894164 -18.064212 33.252378 1.529624 2.145095 0.016530 -0.024310 -131590.000000 0 0 1
-0.962018 -26.681164 -17.336412 31.833335 1.534756 2.146708 0.012301 -0.018148 -98513.400000 0 0 1
-1.874318 -26.600124 -16.078712 31.138476 1.500450 2.113393 0.015482 -0.019944 -212992.000000 0 0 1
-1.837918 -25.268224 -15.584112 29.744338 1.498188 2.122261 0.012868 -0.013442 -82409.700000 0 0 1
-2.771018 -25.106394 -14.555912 29.152773 1.460870 2.093584 0.019748 -0.013172 -333516.000000 0 0 1
-2.538418 -23.796744 -13.679612 27.565565 1.464527 2.090079 0.022327 -0.009079 -902900.000000 0 0 1
-1.459318 -23.905644 -12.846412 27.177928 1.509827 2.063124 0.018937 -0.002034 -1082760.000000 0 0 1
-1.284518 -22.784044 -12.039512 25.801405 1.514478 2.056264 0.018451 -0.003424 -89859.300000 0 0 1
0.021982 -22.745144 -11.233012 25.367748 -1.569830 2.029523 0.016221 -0.000664 -63999.000000 0 0 1
0.204282 -21.529444 -10.506212 23.957028 -1.561308 2.024774 0.003619 0.003326 -12336.400000 0 1 0
1.462282 -21.429944 -9.857612 23.633732 -1.502666 2.001048 -0.007554 0.002584 391167.000000 0 1 0
1.865882 -19.983044 -9.436812 22.177849 -1.477693 2.010317 -0.002287 0.001633 -1283390.000000 0 1 0
2.228582 -19.204044 -10.560512 22.029215 -1.455266 2.070752 -0.004306 0.010068 257868.000000 0 1 0
3.230282 -18.218344 -10.293512 21.173077 -1.395311 2.078487 -0.009049 0.010626 -70699.900000 0 1 0
4.601982 -18.635144 -9.802012 21.552872 -1.328689 2.042932 0.003292 -0.000429 -1370750.000000 0 1 0
4.575982 -19.197144 -8.494312 21.485421 -1.336795 1.977248 0.005020 -0.003865 -233368.000000 0 1 0
5.755882 -19.914644 -8.154612 22.276017 -1.289436 1.945580 0.024046 -0.005311 -22357.100000 0 1 0
5.449082 -21.118744 -7.186412 22.963849 -1.318283 1.889088 0.025318 -0.002726 -312928.000000 0 1 0
4.494982 -22.022244 -7.642612 23.740127 -1.369451 1.898562 0.007813 -0.003157 -201786.000000 0 1 0
4.434682 -23.209144 -6.849912 24.601871 -1.381997 1.852956 0.022842 -0.004353 433133.000000 0 1 0
3.351982 -24.147344 -7.497212 25.505651 -1.432864 1.869146 0.015681 -0.003323 398688.000000 0 0 1
3.835682 -24.864644 -8.594712 26.586314 -1.417740 1.899985 0.013325 -0.000946 23.247500 0 0 1
2.807382 -25.521044 -9.319212 27.313967 -1.461234 1.918977 0.005331 -0.002438 254587.000000 0 0 1
3.370882 -26.458544 -10.377512 28.620101 -1.444077 1.941847 -0.001062 -0.002215 78323.500000 0 0 1
4.015082 -27.609864 -9.893012 29.602317 -1.426387 1.911550 0.009632 -0.007422 -516848.000000 0 0 1
4.747182 -28.230814 -10.869512 30.621249 -1.404199 1.933674 0.022761 0.000688 -168526.000000 0 0 1
4.722282 -29.760494 -10.679712 31.969411 -1.413432 1.911404 0.020061 -0.009231 71910.600000 0 0 1
3.462882 -30.339404 -10.949012 32.439973 -1.457150 1.915073 0.019697 -0.007699 85761.300000 0 0 1
3.683682 -31.722964 -11.294912 33.874637 -1.455194 1.910739 0.024813 -0.006054 -322642.000000 0 0 1
2.441082 -32.477684 -11.735912 34.619221 -1.495776 1.916650 0.025724 -0.017507 -550807.000000 0 0 1
1.978382 -32.120244 -13.003912 34.709160 -1.509281 1.954819 0.019944 -0.019766 115023.000000 0 0 1
1.142282 -33.090834 -13.566112 35.781944 -1.536290 1.959655 0.020130 -0.015338 -312021.000000 0 0 1
0.941982 -32.909884 -15.068312 36.207759 -1.542181 2.000017 0.017890 -0.012111 130387.000000 0 0 1
0.087082 -31.801314 -15.337812 35.306935 -1.568058 2.020183 0.009436 -0.016775 199302.000000 0 0 1
-0.252618 -31.660174 -16.705012 35.797875 1.562817 2.056294 0.005545 -0.010862 -467219.000000 0 0 1
-1.442518 -30.733204 -16.847112 35.077570 1.523894 2.071772 0.002015 -0.000140 -527032.000000 0 0 1
-2.650618 -31.267094 -16.389612 35.401643 1.486225 2.052130 0.011057 -0.008660 -359004.000000 0 0 1
-3.792418 -30.737734 -17.026912 35.342701 1.448037 2.073465 0.008687 -0.007884 360260.000000 0 0 1
-5.149218 -30.982104 -16.346112 35.406223 1.406102 2.050677 0.022327 -0.006191 -94525.500000 0 0 1
-5.450518 -30.090014 -15.276212 34.183033 1.391599 2.034087 0.020513 -0.007955 462022.000000 0 0 1
-6.823518 -29.719124 -15.115912 34.033477 1.345108 2.031020 0.029280 -0.012268 1155350.000000 0 0 1
-7.760418 -30.689524 -14.292212 34.732381 1.323120 1.994890 0.030188 -0.006312 395514.000000 0 0 1
-7.874418 -31.929034 -14.964212 36.130283 1.328999 1.997831 0.032255 -0.000048 -181776.000000 0 0 1
-8.753718 -32.845724 -14.325712 36.887602 1.310340 1.969649 0.025616 0.009827 100086.000000 0 0 1
-8.760318 -34.258808 -14.902212 38.372973 1.320451 1.969639 0.052031 0.003980 93112.900000 0 0 1
-7.581218 33.735013 -14.709812 37.575318 -1.349740 1.973031 0.051612 -0.004337 18778.700000 0 0 1
-7.810818 32.419922 -15.082612 36.599801 -1.334375 1.995549 0.061261 -0.011095 -583382.000000 0 0 1
-7.609018 -22.145444 -3.226812 23.637474 1.239841 1.707736 0.057054 -0.016758 93590.000000 0 1 0
-7.353218 -20.996744 -3.998412 22.603548 1.233937 1.748625 0.042227 -0.020281 -622256.000000 0 1 0
-6.168618 -21.217744 -4.690012 22.588509 1.287866 1.779946 0.038914 -0.013336 -389755.000000 0 1 0
-5.987118 -20.324844 -5.900012 21.994432 1.284327 1.842373 0.026114 -0.011772 695995.000000 0 1 0
-6.974618 -20.529444 -6.934412 22.763775 1.243293 1.880341 0.037046 -0.014478 344673.000000 0 1 0
-6.940918 -19.357644 -7.687312 21.954259 1.226514 1.928529 0.017450 -0.012059 94319.400000 0 1 0
-7.868018 -19.530444 -8.915512 22.865483 1.187828 1.971332 0.024057 -0.021896 161328.000000 0 1 0
-7.375918 -20.255244 -9.965112 23.748317 1.221573 2.003816 0.036500 -0.013464 -210076.000000 0 1 0
-8.394418 -20.339344 -10.938512 24.572469 1.179374 2.032142 0.041873 -0.008276 351990.000000 0 1 0
-7.866918 -21.110544 -12.137912 25.590475 1.214084 2.064981 0.033428 -0.013460 79901.300000 0 0 1
-6.858118 -20.541144 -13.003412 25.259872 1.248561 2.111554 0.052408 -0.011968 414264.000000 0 0 1
-6.427818 -21.475444 -13.954612 26.405355 1.279973 2.127601 0.043438 -0.012371 -20697.100000 0 0 1
-5.394718 -20.935444 -14.969812 26.296218 1.318599 2.176422 0.039927 -0.004317 -851152.000000 0 0 1
-4.103918 -20.869444 -14.466312 25.722559 1.376627 2.168079 0.025519 -0.008848 255468.000000 0 0 1
-3.121118 -20.177944 -15.321212 25.527051 1.417333 2.214541 0.030075 -0.003594 1020900.000000 0 0 1
-3.274418 -18.624744 -15.324612 24.340227 1.396765 2.251835 0.037543 -0.001541 -960631.000000 0 1 0
-4.375818 -18.157744 -16.061312 24.633660 1.334316 2.281024 0.049875 -0.000656 -378590.000000 0 1 0
-4.400118 -18.232644 -17.482812 25.640575 1.333992 2.321074 0.055964 -0.004046 -984153.000000 0 0 1
-5.806618 -18.145444 -18.042912 26.239677 1.261090 2.329002 0.048049 0.004113 -572613.000000 0 0 1
-6.647918 -19.227744 -17.664512 26.943199 1.237916 2.285800 0.046817 -0.000111 109925.000000 0 0 1
-7.907618 -19.017844 -18.282112 27.539870 1.176744 2.296740 0.031081 0.009404 224742.000000 0 0 1
-9.007618 -19.954944 -17.723012 28.168105 1.146781 2.251303 0.028346 -0.002240 99081.800000 0 0 1
-8.644818 -21.311244 -18.029412 29.222623 1.185432 2.235680 0.030570 -0.000017 -274190.000000 0 0 1
-9.640218 -22.222744 -17.796512 30.058277 1.161496 2.204418 0.032025 0.000161 -651446.000000 0 0 1
-9.134118 -23.634744 -18.074712 31.124403 1.202008 2.190415 0.037053 -0.013623 -691639.000000 0 0 1
-8.840518 -23.777744 -19.476612 31.982406 1.214836 2.225569 0.030554 -0.017150 188359.000000 0 0 1
-7.740418 -24.612044 -19.732312 32.481240 1.266093 2.223704 0.041575 -0.030080 -73322.700000 0 0 1
-6.332718 -24.078344 -19.428112 31.580398 1.313616 2.233430 0.057924 -0.030894 -1516620.000000 0 0 1
-5.859818 -23.020844 -20.176412 31.167039 1.321546 2.274917 0.049011 -0.023751 5398.190000 0 0 1
-5.253018 -21.975944 -19.427512 29.798734 1.336164 2.280960 0.045207 -0.013041 842233.000000 0 0 1
-3.988018 -22.263244 -18.549012 29.251020 1.393546 2.257682 0.041149 -0.014827 367547.000000 0 0 1
-2.843518 -22.785944 -19.219712 29.944652 1.446646 2.267693 0.052246 -0.027065 1120550.000000 0 0 1
-1.732818 -22.885144 -18.293212 29.349175 1.495222 2.243746 0.055050 -0.018959 1180670.000000 0 0 1
-0.392818 -23.509144 -18.775812 30.089289 1.554089 2.244652 0.031626 -0.014488 534020.000000 0 0 1
0.249482 -22.707944 -19.734612 30.086008 -1.559810 2.286223 0.033844 -0.009929 -834301.000000 0 0 1
1.555782 -23.112444 -19.994912 30.600687 -1.503584 2.282882 0.036083 -0.013553 -281955.000000 0 0 1
2.128982 -22.221344 -21.171812 30.766318 -1.475280 2.329731 0.038797 -0.018056 -3641.980000 0 0 1
1.521182 -22.478244 -22.379312 31.755615 -1.503226 2.352847 0.035238 -0.025440 -532957.000000 0 0 1
0.890082 -21.337544 -22.890612 31.305961 -1.529106 2.390861 0.049092 -0.026207 -390091.000000 0 0 1
0.273682 -21.611544 -24.260712 32.491782 -1.558133 2.413842 0.058184 -0.024399 -123572.000000 0 0 1
-0.278118 -20.491644 -24.935912 32.276687 1.557225 2.453671 0.059755 -0.020211 661153.000000 0 0 1
-1.640118 -20.127244 -24.654612 31.869199 1.489489 2.455329 0.062424 -0.022680 595999.000000 0 0 1
-2.084618 -19.028544 -25.574052 31.944691 1.461679 2.499047 0.046936 -0.014083 123091.000000 0 0 1
-1.293818 -17.853144 -25.340822 31.025248 1.498453 2.526605 0.059209 -0.017565 428980.000000 0 0 1
-1.845418 -16.681344 -25.894592 30.857782 1.460617 2.566532 0.043074 -0.016493 -369835.000000 0 0 1
-1.231318 -15.476544 -25.241352 29.633856 1.491403 2.590159 0.042520 -0.006869 -150330.000000 0 0 1
0.115082 -15.249544 -25.586432 29.786362 -1.563250 2.604106 0.044659 -0.015873 -281479.000000 0 0 1
0.671682 -14.011144 -25.164242 28.809762 -1.522894 2.633065 0.041263 -0.014165 211983.000000 0 0 1
0.357682 -12.780744 -26.052012 29.020384 -1.542818 2.685350 0.027215 -0.005425 -40158.600000 0 0 1
1.003682 -11.599944 -25.604922 28.127889 -1.484487 2.714814 0.022743 -0.000117 158168.000000 0 0 1
0.660182 -10.542344 -26.507902 28.534991 -1.508256 2.762393 0.022806 -0.002491 -347652.000000 0 0 1
1.425682 -9.179844 -26.346052 27.935937 -1.416722 2.802594 0.027688 0.000960 852644.000000 0 0 1
2.821482 -9.199144 -26.660072 28.343332 -1.273194 2.795224 0.040083 0.003120 405197.000000 0 0 1
3.183482 -9.375844 -28.044912 29.741522 -1.243469 2.802193 0.032554 0.004097 -86058.500000 0 0 1
4.671282 -9.063444 -28.382082 30.158075 -1.094906 2.796696 0.032915 0.006173 -82047.800000 0 0 1
4.884982 -7.664344 -28.388332 29.807761 -1.003355 2.831747 0.025820 -0.000989 -372376.000000 0 0 1
6.110982 -7.298044 -28.924272 30.450272 -0.873695 2.823666 0.043938 0.001306 -597497.000000 0 0 1
7.396582 -7.333644 -28.024192 29.897276 -0.781126 2.785739 0.057340 -0.000311 77300.600000 0 0 1
7.852882 -8.612544 -27.713522 30.064647 -0.831502 2.743489 0.046301 0.004779 142160.000000 0 0 1
8.393182 -9.375744 -28.767322 31.399186 -0.840639 2.729240 0.050778 -0.012003 -1003910.000000 0 0 1
8.903382 -10.747944 -28.239492 31.500118 -0.878988 2.682576 0.057879 -0.009147 296082.000000 0 0 1
7.890382 -11.713944 -27.911522 31.281427 -0.978017 2.673147 0.063418 -0.012749 364231.000000 0 0 1
8.358982 -12.845944 -27.210342 31.229691 -0.993922 2.628636 0.064112 -0.014260 -36398.800000 0 0 1
9.208982 -13.928644 -27.965172 32.570897 -0.986620 2.603317 0.079504 -0.027563 -60233.400000 0 0 1
8.484282 -14.541044 -28.978802 33.514116 -1.042619 2.615298 0.087306 -0.036103 -373646.000000 0 0 1
9.211282 -15.569244 -29.637622 34.722294 -1.036552 2.593580 0.079143 -0.036334 -173229.000000 0 0 1
8.346282 -16.168044 -30.724112 35.707662 -1.094256 2.606918 0.065548 -0.037313 -333005.000000 0 0 1
7.818382 -15.215844 -31.614082 35.945781 -1.096145 2.645593 0.066083 -0.032351 424478.000000 0 0 1
7.005482 -15.796744 -32.632542 36.925556 -1.153381 2.654588 0.068960 -0.030292 -378482.000000 0 0 1
6.101882 -14.819844 -33.322022 36.975910 -1.180213 2.693285 0.072472 -0.028877 -255125.000000 0 0 1
6.837582 -13.858344 -34.049212 37.391912 -1.112450 2.715539 0.089062 -0.026548 -216939.000000 0 0 1
5.978882 -12.991844 34.076079 36.955570 -1.139490 0.397369 0.059690 -0.022343 -377999.000000 0 0 1
6.748182 -11.903444 33.335852 36.034830 -1.055063 0.389495 0.080175 -0.020488 -192175.000000 0 0 1
7.140582 -12.254144 32.033451 35.032755 -1.043189 0.416808 0.072406 -0.021179 123851.000000 0 0 1
7.385082 -11.084744 31.205161 33.928941 -0.983090 0.403427 0.073011 -0.012712 -169853.000000 0 0 1
7.731682 -11.486244 29.754661 32.818479 -0.978336 0.435537 0.059753 -0.007792 100023.000000 0 0 1
6.707082 -12.163044 29.052121 32.201713 -1.066855 0.445972 0.064959 -0.010968 300628.000000 0 0 1
7.060982 -12.143844 27.696251 31.054995 -1.044132 0.469388 0.043162 -0.006770 -43616.900000 0 0 1
6.011282 -12.869944 26.814281 30.344301 -1.133831 0.487156 0.050720 -0.018256 41804.700000 0 0 1
5.898682 -14.255944 26.977771 31.077749 -1.178476 0.519488 0.050676 -0.016156 24087.500000 0 0 1
5.408982 -15.057344 25.924541 30.464118 -1.225927 0.552936 0.020742 -0.013095 230705.000000 0 0 1
3.868182 -15.252344 25.893181 30.299400 -1.322421 0.546060 0.031291 -0.020337 381704.000000 0 0 1
3.147682 -14.025344 25.707891 29.453588 -1.350026 0.509831 0.026405 -0.025389 646214.000000 0 0 1
1.794482 -14.275544 25.305891 29.110126 -1.445749 0.516980 0.024290 -0.019559 838396.000000 0 0 1
0.961282 -13.012244 25.044491 28.239495 -1.497055 0.480291 0.019355 -0.020288 -360170.000000 0 0 1
1.360182 -12.337544 23.852171 26.888495 -1.460992 0.479822 0.005039 -0.012182 -147688.000000 0 0 1
0.558082 -11.250844 23.482951 26.044998 -1.521233 0.447273 0.003881 -0.007692 -632993.000000 0 0 1
-0.824018 -11.542044 22.936851 25.690405 1.499525 0.467233 0.013065 -0.006932 -1074640.000000 0 0 1
-0.921418 -12.191844 21.693251 24.901550 1.495363 0.513235 0.011735 -0.002506 494879.000000 0 1 0
-2.186018 -12.875144 21.606451 25.246519 1.402614 0.543664 0.026561 -0.001784 920715.000000 0 0 1
-2.512418 -13.633844 20.224451 24.519836 1.388563 0.600913 0.037435 -0.010022 142299.000000 0 1 0
-1.479518 -14.517344 19.862651 24.646849 1.469233 0.633619 0.045945 -0.019210 -155673.000000 0 1 0
-1.748918 -15.176244 18.615051 24.081055 1.456062 0.687214 0.051897 -0.029630 705996.000000 0 1 0
-2.812918 -16.343344 18.672251 24.973393 1.400352 0.726226 0.046245 -0.032538 513897.000000 0 1 0
-2.729918 -17.352744 17.656551 24.906304 1.414756 0.782832 0.035014 -0.027260 -39532.300000 0 1 0
-3.676018 -18.379044 17.981251 25.973597 1.373390 0.806139 0.039660 -0.006089 478776.000000 0 0 1
-3.371918 -19.730444 17.280351 26.443729 1.401532 0.858628 0.040258 -0.014888 296988.000000 0 0 1
-2.270718 -20.447644 17.802851 27.206687 1.460199 0.857466 0.043016 -0.016218 -192590.000000 0 0 1
-2.249718 -21.783844 17.392251 27.965827 1.467887 0.899616 0.033106 -0.032981 -106700.000000 0 0 1
-1.267118 -22.741944 18.175651 29.140280 1.515137 0.897291 0.052668 -0.021507 86112.100000 0 0 1
0.007682 -22.427144 17.682351 28.559454 -1.570454 0.903147 0.028166 -0.020651 -982448.000000 0 0 1
0.972282 -23.240144 18.345151 29.624216 -1.528984 0.902994 0.030422 -0.019921 1257230.000000 0 0 1
2.351282 -23.314944 17.552351 29.277981 -1.470287 0.927911 0.037402 -0.022207 976513.000000 0 0 1
3.080982 -22.125444 17.614351 28.448077 -1.432435 0.903104 0.051258 -0.031237 -979906.000000 0 0 1
4.080782 -22.054844 16.659451 27.939331 -1.387837 0.931947 0.056371 -0.023789 -437038.000000 0 0 1
4.971782 -20.848744 17.000851 27.357224 -1.336699 0.900218 0.055038 -0.017788 -303430.000000 0 0 1
5.997282 -21.110844 17.986051 28.374868 -1.294003 0.884246 0.061981 -0.013571 530186.000000 0 0 1
6.665982 -19.942544 18.475651 27.990892 -1.248213 0.849899 0.067412 -0.015604 588827.000000 0 0 1
7.647882 -19.223544 17.530551 27.117429 -1.192154 0.867850 0.051101 -0.009988 -564680.000000 0 0 1
6.913082 -18.513744 16.568051 25.788558 -1.213427 0.873096 0.036465 -0.007225 -177592.000000 0 0 1
7.740682 -17.740644 15.721651 24.936297 -1.159373 0.888634 0.050910 -0.009776 -262766.000000 0 1 0
7.107282 -16.698244 14.772651 23.400342 -1.168392 0.887567 0.035145 -0.006295 -231749.000000 0 1 0
6.492482 -17.338844 13.669251 23.013828 -1.212510 0.934826 0.042415 -0.012953 207508.000000 0 1 0
5.836182 -16.423244 12.806651 21.628552 -1.229354 0.937112 0.035393 -0.011837 34101.800000 0 1 0
6.279282 -16.634844 11.353351 21.096113 -1.209855 1.002529 0.046499 -0.013213 -454263.000000 0 1 0
7.560782 -16.114844 11.194751 21.027983 -1.132106 1.009394 0.040347 -0.013433 -865250.000000 0 1 0
8.154582 -16.527344 10.006951 20.971156 -1.112443 1.073357 0.043401 -0.009735 -1223460.000000 0 1 0
9.600582 -16.135144 10.079551 21.309890 -1.034054 1.078105 0.032015 -0.002950 -851151.000000 0 1 0
10.262982 -16.432744 8.841351 21.296323 -1.012525 1.142679 0.035702 -0.004892 444786.000000 0 1 0
11.644682 -16.076044 8.819551 21.721471 -0.943914 1.152692 0.033416 0.001589 854353.000000 0 1 0
12.580482 -17.050444 8.042851 22.664369 -0.935124 1.208024 0.032693 -0.004236 61943.100000 0 1 0
12.801382 -18.256944 8.735651 23.947922 -0.959280 1.197403 0.024016 -0.010198 23696.700000 0 1 0
13.406082 -19.128844 7.799351 24.626522 -0.959513 1.248542 0.022682 -0.015129 -180173.000000 0 1 0
13.887982 -20.508144 8.276851 26.114484 -0.975541 1.248290 0.027427 -0.022018 74081.300000 0 0 1
12.875582 -21.407844 8.707551 26.455583 -1.029317 1.235405 0.038837 -0.021778 337967.000000 0 0 1
13.521782 -22.581144 9.245651 27.896751 -1.031253 1.232984 0.041790 -0.023441 215410.000000 0 0 1
12.527782 -23.391744 10.054051 28.376098 -1.079104 1.208616 0.051144 -0.018615 -260710.000000 0 0 1
12.220182 -22.677844 11.186251 28.084688 -1.076546 1.161129 0.047553 -0.024544 531109.000000 0 0 1
11.140582 -23.156244 12.064451 28.387941 -1.122379 1.131851 0.050308 -0.017408 786163.000000 0 0 1
11.194982 -24.595044 12.616451 29.823123 -1.143649 1.133996 0.033433 -0.009259 -630220.000000 0 0 1
12.257182 -24.868444 13.470851 30.824371 -1.112860 1.118514 0.022152 -0.013351 -646603.000000 0 0 1
12.151682 -26.095074 14.153751 32.077172 -1.134988 1.113816 0.019182 -0.017690 708822.000000 0 0 1
13.414682 -26.460404 15.035051 33.258975 -1.101587 1.101723 0.020788 -0.014163 690187.000000 0 0 1
13.503382 -25.817184 16.259551 33.365271 -1.088888 1.061779 0.020802 -0.011731 -110049.000000 0 0 1
14.435282 -26.417054 17.100651 34.621819 -1.070692 1.054196 0.025392 -0.016880 -540632.000000 0 0 1
14.253182 -25.921224 18.526751 34.904205 -1.068057 1.011266 0.024728 -0.019277 -231008.000000 0 0 1
14.520582 -24.573144 18.752751 34.151902 -1.037086 0.989511 0.001051 -0.008058 309020.000000 0 0 1
15.847482 -24.448844 19.247951 34.919511 -0.995695 0.986984 0.012036 -0.012368 305530.000000 0 0 1
16.263182 -23.012744 19.708251 34.387391 -0.955586 0.960483 -0.006306 -0.009981 -29634.200000 0 0 1
16.353882 -21.951444 18.723751 33.164653 -0.930501 0.970885 -0.013723 -0.009748 195497.000000 0 0 1
15.141382 -21.298144 18.389151 31.953611 -0.952776 0.957587 -0.004125 -0.008362 -744524.000000 0 0 1
15.303482 -20.319544 17.193251 30.703230 -0.925288 0.976432 -0.003557 -0.009460 625684.000000 0 0 1
16.187182 -19.181544 17.469151 30.579858 -0.869858 0.962752 -0.005176 -0.006137 877561.000000 0 0 1
17.560782 -19.522744 17.569351 31.594314 -0.838255 0.981120 -0.007220 -0.015286 -563467.000000 0 0 1
18.365382 -18.201744 17.648451 31.305887 -0.780923 0.971887 0.007343 -0.010412 -346210.000000 0 0 1
18.535782 -17.843144 18.968251 31.964786 -0.766361 0.935506 0.000533 -0.002206 32817.700000 0 0 1
18.995582 -16.545844 19.112251 31.620804 -0.716581 0.921759 0.012802 -0.005206 -302419.000000 0 0 1
19.526082 -16.331844 20.529351 32.702465 -0.696552 0.892122 0.010411 0.000528 -791510.000000 0 0 1
20.770982 -16.893444 20.776251 33.889154 -0.682810 0.910862 0.009729 0.002873 -605594.000000 0 0 1
21.204882 -16.500444 22.068451 34.769645 -0.661271 0.883170 0.012311 0.005709 50140.400000 0 0 1
33.366418 -0.740844 -8.137612 34.352401 -0.022200 1.809956 0.087936 -0.015470 88778.200000 0 0 1
34.730268 -0.687344 -8.544712 35.772560 -0.019788 1.811990 0.067555 -0.012913 94401.600000 0 0 1
35.451908 -1.800244 -8.128412 36.416339 -0.050736 1.795900 0.065657 -0.012817 244746.000000 0 0 1
-34.739246 -1.762144 -8.914312 35.908012 0.050681 1.821674 0.057176 -0.012019 51567.700000 0 0 1
-33.868078 -2.809744 -8.612012 35.058639 0.082772 1.818982 0.072095 -0.011158 -41500.700000 0 0 1
-32.573778 -2.520444 -9.124712 33.921439 0.077223 1.843146 0.110712 -0.015068 -284562.000000 0 0 1
-31.621098 -3.648544 -8.861512 33.041370 0.114875 1.842315 0.101388 -0.008499 -764874.000000 0 0 1
-31.316958 -3.764444 -7.468812 32.414596 0.119631 1.803301 0.097398 -0.018267 -540624.000000 0 0 1
-30.277568 -4.601244 -7.175512 31.454579 0.150815 1.800946 0.087885 -0.022214 -832376.000000 0 0 1
-29.961148 -4.555544 -5.677612 30.832753 0.150893 1.755995 0.083437 -0.033149 -379578.000000 0 0 1
-29.491548 -3.289344 -5.283412 30.141096 0.111076 1.746996 0.080047 -0.028807 159637.000000 0 0 1
-29.346288 -3.194144 -3.882912 29.773884 0.108416 1.701582 0.078661 -0.034678 -513693.000000 0 0 1
-28.987748 -1.720244 -3.459912 29.244141 0.059274 1.689385 0.081377 -0.033442 654502.000000 0 0 1
-27.614638 -1.293444 -3.542412 27.870951 0.046805 1.698242 0.077758 -0.028487 1203670.000000 0 0 1
-27.416118 0.099056 -3.302712 27.614512 -0.003613 1.690684 0.074404 -0.029671 1698170.000000 0 0 1
-25.890868 0.330256 -2.822912 26.046400 -0.012755 1.679390 0.075872 -0.016488 1798610.000000 0 0 1
-25.560018 -0.248044 -1.568112 25.609276 0.009704 1.632067 0.067062 -0.017290 415844.000000 0 0 1
-24.185518 -0.059944 -1.289512 24.219945 0.002479 1.624063 0.045752 -0.014852 60053.900000 0 1 0
-23.806418 -0.871744 -0.000812 23.822374 0.036602 1.570830 0.033739 -0.014723 -153167.000000 0 1 0
-23.989918 -2.286644 -0.123612 24.098967 0.095030 1.575926 0.047995 -0.018770 507334.000000 0 1 0
-23.398618 -3.025244 0.951188 23.612543 0.128578 1.530502 0.041652 -0.014950 -105706.000000 0 1 0
-23.492118 -4.557344 0.693788 23.940141 0.191615 1.541812 0.042775 -0.007668 -111314.000000 0 1 0
-24.722318 -5.124444 1.107488 25.272109 0.204386 1.526960 0.036768 -0.011532 145597.000000 0 0 1
-24.708918 -6.520544 1.086588 25.577897 0.258012 1.528302 0.027167 -0.008688 -693074.000000 0 0 1
-25.894298 -7.240144 1.701788 26.941241 0.272641 1.507588 0.027204 -0.009760 -574646.000000 0 0 1
-25.982528 -7.072444 3.114888 27.107449 0.265761 1.455633 0.026508 -0.009426 488668.000000 0 0 1
-27.040658 -7.957144 3.514088 28.405319 0.286188 1.446766 0.023587 -0.006025 140091.000000 0 0 1
-27.134628 -8.152244 5.012388 28.772750 0.291858 1.395697 0.023030 -0.018050 -146314.000000 0 0 1
-26.140558 -9.018244 5.561988 28.206262 0.332205 1.372306 0.018482 0.001142 256042.000000 0 0 1
-25.980748 -9.034244 6.979988 28.378462 0.334650 1.322286 0.015226 0.003688 -233623.000000 0 0 1
-25.517198 -7.851844 7.814788 27.818156 0.298513 1.286040 0.021920 0.004240 813388.000000 0 0 1
-24.074718 -7.768244 7.760588 26.460620 0.312125 1.273132 0.029158 -0.002814 930373.000000 0 0 1
-23.645018 -6.559844 8.360788 25.923372 0.270624 1.242407 0.030540 -0.013887 -462232.000000 0 0 1
-22.229818 -6.138944 7.978788 24.403125 0.269443 1.237714 0.034652 -0.016012 43748.200000 0 1 0
-21.168118 -6.929544 8.510588 23.844033 0.316363 1.205820 0.043051 -0.019455 244242.000000 0 1 0
-19.938018 -6.573944 7.943688 22.446458 0.318494 1.209064 0.038414 -0.018319 -333599.000000 0 1 0
-18.703718 -6.819044 8.817288 21.773218 0.349606 1.153861 0.028250 -0.020512 -278842.000000 0 1 0
-18.515118 -5.753744 9.789388 21.719744 0.301298 1.103232 0.017925 -0.020074 28221.900000 0 1 0
-17.579418 -6.040244 10.803988 21.499922 0.330960 1.044293 0.019485 -0.019754 -169264.000000 0 1 0
-17.456218 -4.896844 11.822088 21.643946 0.273492 0.992966 0.016301 -0.013200 -90287.800000 0 1 0
-18.624418 -4.775344 12.599888 22.987606 0.250995 0.990686 0.033996 -0.017392 59410.300000 0 1 0
-18.654918 -3.691944 13.492388 23.316967 0.195383 0.953723 0.027484 -0.002131 -841059.000000 0 1 0
-19.890418 -3.626044 14.329288 24.781151 0.180321 0.954235 0.031425 -0.006012 -935818.000000 0 1 0
-19.815018 -4.541844 15.414988 25.512451 0.225320 0.922017 0.042788 -0.010207 235924.000000 0 0 1
-20.971718 -4.536344 16.217488 26.896065 0.213026 0.923579 0.034639 0.000021 -98332.500000 0 0 1
-20.786818 -5.541044 17.336088 27.628517 0.260508 0.892496 0.034853 0.003659 -751389.000000 0 0 1
-21.703118 -5.238244 18.308288 28.873136 0.236830 0.883960 0.029180 0.004321 -43009.800000 0 0 1
-21.654918 -6.126944 19.398288 29.711421 0.275729 0.859403 0.036408 0.002052 -285763.000000 0 0 1
-22.475418 -5.576044 20.592888 30.988768 0.243185 0.843935 0.021779 0.007601 -379767.000000 0 0 1
-22.184718 -4.299044 21.056588 30.887269 0.191412 0.820680 0.022470 0.013172 303598.000000 0 0 1
-22.932318 -3.904444 22.200688 32.155971 0.168642 0.808746 0.024269 0.008054 -35125.700000 0 0 1
-22.742018 -2.347144 22.381688 31.994506 0.102843 0.796032 0.019953 0.009564 -33499.000000 0 0 1
-23.754118 -1.563344 21.799088 32.278513 0.065719 0.829366 0.017753 0.009442 52574.300000 0 0 1
-23.415718 -0.169644 21.923688 32.077605 0.007245 0.818307 0.015174 0.004754 648612.000000 0 0 1
-24.627018 0.717756 21.435788 32.657284 -0.029137 0.854778 0.015165 0.007193 878253.000000 0 0 1
-25.718878 0.679356 22.346388 34.077607 -0.026409 0.855621 0.020301 0.005087 -180885.000000 0 0 1
-26.744628 1.551456 21.962088 34.641239 -0.057945 0.884099 0.020027 0.006258 -637957.000000 0 0 1
-27.810478 1.614556 23.026388 36.141998 -0.057991 0.880055 0.023017 0.001128 -846855.000000 0 0 1
-27.503048 2.372556 24.130888 36.665330 -0.086052 0.852452 0.029087 0.000363 434808.000000 0 0 1
-28.478138 2.190456 25.177588 38.075102 -0.076766 0.848298 0.025761 0.001345 139636.000000 0 0 1
-28.109218 2.967056 26.470288 38.724769 -0.105165 0.818182 0.047103 -0.004077 -90929.500000 0 0 1
-27.094608 2.393856 27.251988 38.503496 -0.088123 0.784446 0.039660 -0.005389 62112.700000 0 0 1
-26.367688 3.372756 27.960588 38.580111 -0.127222 0.760138 0.044408 -0.010806 384818.000000 0 0 1
-25.289118 2.835056 28.966688 38.557049 -0.111640 0.720815 0.036732 -0.009376 391330.000000 0 0 1
-25.841008 2.042156 29.985688 39.636720 -0.078864 0.712832 0.040453 -0.008467 417501.000000 0 0 1
-24.865718 1.948056 31.015688 39.800399 -0.078183 0.677279 0.032843 -0.011850 362277.000000 0 0 1
-25.208868 0.860756 32.012988 40.756096 -0.034132 0.667329 0.006531 -0.009993 -118359.000000 0 0 1
-24.875718 -0.436444 31.532488 40.165777 0.017543 0.668006 0.005790 -0.012529 49116.300000 0 0 1
-25.485618 -1.474844 32.268588 41.145518 0.057805 0.669302 0.007193 -0.015108 -336370.000000 0 0 1
-26.311258 -2.445844 31.406188 41.044039 0.092692 0.699471 0.006255 -0.006698 160809.000000 0 0 1
-27.576258 -2.048044 30.898788 41.465403 0.074132 0.730006 0.016384 -0.004142 312994.000000 0 0 1
-27.505398 -1.153544 29.835588 40.596058 0.041914 0.745221 0.021688 -0.002048 -747272.000000 0 0 1
-28.868008 -0.818044 29.196988 41.066960 0.028330 0.779933 0.054349 -0.011687 97602.000000 0 0 1
-29.673978 -0.110744 30.109788 42.274775 0.003732 0.778112 0.082775 -0.017384 944514.000000 0 0 1
-31.057598 -0.052244 29.650388 42.938592 0.001682 0.808575 0.064756 -0.016151 1308570.000000 0 0 1
-32.033708 0.155756 30.805588 44.442851 -0.004862 0.804945 0.065838 -0.007481 -316545.000000 0 0 1
-32.151958 -0.979644 31.623988 45.108588 0.030460 0.793908 0.063304 -0.009308 251162.000000 0 0 1
-32.955438 -0.744744 32.781788 46.489366 0.022595 0.788167 0.069601 -0.012747 167556.000000 0 0 1
-33.198658 -1.996644 33.670888 47.327225 0.060070 0.779239 0.069248 -0.010053 271759.000000 0 0 1
-34.185675 -2.869844 33.119888 47.684624 0.083752 0.802987 0.037417 -0.001276 267229.000000 0 0 1
-34.145862 -4.163544 33.690788 48.149187 0.121335 0.795796 0.038038 -0.001664 -319652.000000 0 0 1
-35.388570 -4.995244 33.373888 48.899077 0.140228 0.819611 0.030151 -0.006761 207940.000000 0 0 1
34.956148 -4.464244 33.956888 48.938042 -0.127022 0.803940 0.031884 -0.011533 118416.000000 0 0 1
33.838008 -4.967144 33.244588 47.695764 -0.145751 0.799572 0.030268 -0.017368 310423.000000 0 0 1
32.527728 -4.700644 34.068188 47.336989 -0.143518 0.767434 0.036254 -0.016116 97787.400000 0 0 1
32.448988 -5.469544 -33.512975 46.967778 -0.166989 2.365322 0.026342 -0.020065 33406.100000 0 0 1
31.884598 -6.760044 -33.529375 46.760504 -0.208922 2.370350 0.031551 -0.018601 971408.000000 0 0 1
30.383928 -7.024944 -33.973875 46.116776 -0.227213 2.398962 0.035912 -0.022463 1949840.000000 0 0 1
29.347178 -6.637844 -33.039875 44.687259 -0.222441 2.402912 0.037446 -0.024492 323318.000000 0 0 1
28.094728 -7.174844 -33.313275 44.165217 -0.250036 2.425365 0.060103 -0.024635 -1131450.000000 0 0 1
26.931408 -6.563344 -32.587775 42.782488 -0.239046 2.436742 0.046882 -0.031876 -963782.000000 0 0 1
25.735698 -7.207444 -32.943375 42.420977 -0.273061 2.460019 0.042576 -0.026911 -858361.000000 0 0 1
24.658998 -6.586344 -32.322175 41.184573 -0.261004 2.473190 0.046542 -0.027593 -21852.000000 0 0 1
23.320698 -7.330244 -32.701875 40.828912 -0.304545 2.499675 0.061439 -0.032251 348921.000000 0 0 1
23.234698 -8.743044 -32.549075 40.935733 -0.359903 2.490012 0.071031 -0.035391 124737.000000 0 0 1
23.207798 -9.244244 -31.220575 39.984775 -0.379062 2.466760 0.064673 -0.035707 -585154.000000 0 0 1
23.203998 -10.782344 -31.136875 40.301234 -0.434991 2.453728 0.066875 -0.029755 -1004100.000000 0 0 1
22.036398 -11.304444 -31.630075 40.172813 -0.473985 2.477295 0.076270 -0.033633 -691566.000000 0 0 1
21.920298 -12.702344 -31.486175 40.413218 -0.525194 2.464035 0.069029 -0.024069 -575085.000000 0 0 1
20.705298 -13.238444 -32.256075 40.551450 -0.568869 2.490523 0.045194 -0.016180 701871.000000 0 0 1
19.420198 -12.764844 -31.836175 39.416080 -0.581488 2.511029 0.033137 -0.017296 594385.000000 0 0 1
18.930698 -11.672944 -32.620775 39.480931 -0.552547 2.543198 0.026537 -0.021890 1518760.000000 0 0 1
17.456198 -11.180144 -32.196975 38.293076 -0.569645 2.569563 0.027255 -0.020469 1756030.000000 0 0 1
16.405198 -11.971544 -32.711875 38.503443 -0.630409 2.585991 0.021638 -0.018110 514198.000000 0 0 1
15.143998 -11.390844 -32.384575 37.521363 -0.644888 2.612166 0.049321 -0.020892 263813.000000 0 0 1
13.853298 -12.004844 -32.902875 37.664696 -0.714035 2.633293 0.034561 -0.022118 -832884.000000 0 0 1
13.642798 -13.365044 -32.554175 37.742875 -0.775114 2.611035 0.041923 -0.015503 660488.000000 0 0 1
12.459098 -13.944444 -33.120975 38.035189 -0.841595 2.627620 0.036747 -0.026450 867016.000000 0 0 1
11.121298 -13.655044 -32.373075 36.853215 -0.887309 2.643369 0.043673 -0.024650 244549.000000 0 0 1
10.456798 -12.411144 -32.636775 36.449145 -0.870653 2.680138 0.065571 -0.021725 716446.000000 0 0 1
9.355898 -12.255844 -31.717575 35.266742 -0.918785 2.689105 0.072524 -0.027429 931775.000000 0 0 1
8.196598 -11.307044 -32.130275 35.034098 -0.943547 2.731576 0.065649 -0.019045 -127161.000000 0 0 1
8.635298 -10.020544 -32.207975 34.818577 -0.859515 2.751892 0.054503 -0.012614 171976.000000 0 0 1
7.596998 -9.156844 -32.606775 34.709709 -0.878234 2.791712 0.063883 -0.010094 -259970.000000 0 0 1
8.095498 -7.763644 -32.922975 34.781224 -0.764476 2.813235 0.068035 -0.010154 -292203.000000 0 0 1
8.413398 -7.044444 -31.739975 33.583261 -0.697068 2.808736 0.049549 -0.012173 262916.000000 0 0 1
8.767398 -5.722744 -32.129375 33.792215 -0.578292 2.826579 0.048555 -0.010623 -193652.000000 0 0 1
8.977298 -4.766244 -31.000175 32.623914 -0.488078 2.824765 0.041477 -0.013948 -166101.000000 0 0 1
7.834398 -4.349044 -30.292275 31.589775 -0.506767 2.853990 0.044273 -0.010009 -35536.000000 0 0 1
8.187698 -3.385544 -29.328875 30.637937 -0.392083 2.848217 0.035139 -0.009376 -728781.000000 0 0 1
6.967098 -2.818244 -28.640175 29.609839 -0.384386 2.884967 0.026814 -0.007523 -1168380.000000 0 0 1
6.126998 -2.137344 -29.547475 30.251638 -0.335641 2.925409 0.024424 -0.004132 -68919.800000 0 0 1
4.908798 -1.744844 -28.953775 29.418733 -0.341524 2.963567 0.028009 -0.006433 226702.000000 0 0 1
3.804198 -2.829044 -28.967875 29.353248 -0.639434 2.979373 0.015065 -0.008390 -620091.000000 0 0 1
3.926598 -3.694444 -27.906975 28.422989 -0.754945 2.950752 0.018545 -0.010401 -192088.000000 0 0 1
2.945498 -4.693544 -27.956375 28.500249 -1.010356 2.945919 0.038144 -0.006697 -27099.000000 0 0 1
3.055498 -5.580044 -26.716775 27.463776 -1.069816 2.907825 0.028237 -0.009889 36647.400000 0 0 1
2.686498 -4.941744 -25.505075 26.117943 -1.072854 2.924532 0.027066 -0.015917 54580.300000 0 0 1
2.666698 -5.894944 -24.445375 25.287111 -1.145973 2.882851 0.024651 -0.020597 -145996.000000 0 0 1
2.657198 -5.267644 -23.051275 23.794328 -1.103605 2.891025 0.034061 -0.025486 459582.000000 0 1 0
3.850898 -4.546344 -22.727575 23.495559 -0.868028 2.885210 0.033424 -0.023262 411105.000000 0 1 0
3.683998 -3.779244 -21.538775 22.175963 -0.798160 2.901293 0.023151 -0.022514 -484660.000000 0 1 0
4.582898 -2.568844 -21.440475 22.074779 -0.510890 2.901289 0.029465 -0.020876 334432.000000 0 1 0
5.898698 -2.819744 -20.947175 21.943785 -0.445916 2.839055 0.029923 -0.026326 239972.000000 0 1 0
6.717398 -1.637044 -20.903175 22.016949 -0.239043 2.822157 0.041056 -0.008958 -89634.600000 0 1 0
8.121298 -2.109944 -20.513975 22.163720 -0.254184 2.753323 0.040332 -0.016466 -1661760.000000 0 1 0
8.681698 -2.797344 -21.626375 23.471197 -0.311708 2.742466 0.041959 -0.025445 499253.000000 0 1 0
9.902998 -3.532244 -21.510675 23.942749 -0.342617 2.686957 0.044744 -0.026123 1138670.000000 0 1 0
11.140198 -2.831044 -20.856575 23.814187 -0.248861 2.637897 0.049132 -0.023548 -533515.000000 0 1 0
10.915898 -2.486944 -19.506475 22.490982 -0.224004 2.620553 0.039194 -0.007579 -284568.000000 0 1 0
12.074198 -2.114344 -18.788275 22.433367 -0.173355 2.563515 0.045511 -0.012342 -44656.000000 0 1 0
12.392098 -0.607744 -18.715375 22.454369 -0.049004 2.556181 0.041754 -0.013568 93739.600000 0 1 0
12.810198 -0.006944 -19.943675 23.703404 -0.000542 2.570636 0.038180 -0.016484 198706.000000 0 1 0
12.870698 1.389956 -19.737875 23.604460 0.107577 2.561100 0.058621 -0.025991 4316.350000 0 1 0
13.238998 2.306256 -20.926375 24.869721 0.172471 2.570739 0.049309 -0.018964 445924.000000 0 1 0
14.601098 2.298456 -21.378075 25.990326 0.156135 2.536659 0.042727 -0.015556 712691.000000 0 0 1
14.818798 3.231556 -22.387575 27.041509 0.214710 2.546143 0.041862 -0.016247 -16521.600000 0 0 1
16.201898 3.196656 -23.101975 28.397559 0.194799 2.520976 0.029781 -0.011515 342415.000000 0 0 1
16.487498 2.075556 -23.902075 29.111075 0.125228 2.534070 0.028274 -0.010556 115510.000000 0 0 1
16.975898 0.930656 -23.227475 28.784767 0.054767 2.509743 0.031115 -0.015454 -453935.000000 0 0 1
9.449082 27.177156 3.620088 28.999793 1.236186 1.445638 -0.031195 0.007206 -17454.500000 0 0 1
9.468782 27.262156 5.023488 29.293658 1.236508 1.398457 -0.028857 0.009867 240595.000000 0 0 1
10.636982 27.911656 5.504688 30.372808 1.206693 1.388552 -0.033373 0.012448 -158157.000000 0 0 1
10.443882 28.491356 6.895488 31.118801 1.219443 1.347356 -0.027286 -0.002192 -55973.000000 0 0 1
10.405582 27.598756 7.991288 30.558602 1.210246 1.306213 -0.028657 -0.007757 70696.700000 0 0 1
10.531482 28.234156 9.262988 31.525904 1.213776 1.272574 -0.018520 -0.007316 -705475.000000 0 0 1
10.284382 27.202956 10.360288 30.872397 1.209345 1.228571 -0.005307 -0.007990 -388458.000000 0 0 1
11.321082 26.318156 10.691788 30.579839 1.164561 1.213615 0.008642 -0.009444 -173555.000000 0 0 1
11.934482 25.586256 9.692688 29.850235 1.134354 1.240091 0.006990 -0.012916 203607.000000 0 0 1
13.273982 24.829956 10.055088 29.896991 1.079857 1.227785 0.024037 -0.016577 1064230.000000 0 0 1
14.328082 25.744356 10.358688 31.230885 1.062936 1.232712 0.026748 -0.016133 714114.000000 0 0 1
15.539582 25.070756 10.745688 31.392534 1.015924 1.221432 0.049575 -0.019710 1023480.000000 0 0 1
16.728282 26.065956 10.896488 32.832955 1.000230 1.232504 0.050917 -0.021043 -546989.000000 0 0 1
17.295582 26.538556 9.693088 33.126848 0.993216 1.273846 0.048372 -0.025059 1862110.000000 0 0 1
18.757382 26.597256 9.686788 33.957138 0.956564 1.281513 0.052375 -0.033285 1925000.000000 0 0 1
19.461282 27.590856 10.673488 35.410735 0.956487 1.264615 0.056475 -0.034149 -708781.000000 0 0 1
19.423682 29.005856 10.456588 36.441176 0.980733 1.279761 0.061927 -0.047918 93785.600000 0 0 1
18.180182 29.566356 10.828688 36.358615 1.019497 1.268378 0.044252 -0.027677 27598.900000 0 0 1
18.325182 31.072656 11.368688 37.822867 1.037946 1.265499 0.042141 -0.015383 -568259.000000 0 0 1
18.635682 32.069056 10.364088 38.511392 1.044382 1.298320 0.052641 -0.036797 -303778.000000 0 0 1
17.828582 32.311456 9.244088 38.043944 1.066593 1.325355 0.040138 -0.044167 -913049.000000 0 0 1
16.470982 32.924056 9.581288 38.040607 1.106931 1.316184 0.032098 -0.032742 -728314.000000 0 0 1
16.515982 34.274256 9.898788 39.312698 1.121752 1.316261 0.029420 -0.028460 743892.000000 0 0 1
15.187482 -34.027981 10.204588 38.635434 -1.151004 1.303500 0.032285 -0.018084 749508.000000 0 0 1
15.204282 -32.486281 10.188588 37.287209 -1.133057 1.294030 0.029205 -0.008103 -248337.000000 0 0 1
15.565482 -31.911581 8.990388 36.625951 -1.116981 1.322797 0.037835 -0.010647 -176582.000000 0 0 1
15.600382 -30.545181 9.079988 35.479941 -1.098601 1.311998 0.053490 -0.012947 -143872.000000 0 0 1
16.270182 -29.851781 7.855288 34.893455 -1.071775 1.343728 0.040224 -0.004616 225505.000000 0 0 1
15.568182 -29.979381 6.621388 34.423457 -1.091831 1.377239 0.035313 -0.000311 517668.000000 0 0 1
16.381782 -29.371381 5.580488 34.090800 -1.062025 1.406361 0.047751 0.005238 437363.000000 0 0 1
16.065282 -29.789081 4.177888 34.101868 -1.076204 1.447976 0.044481 -0.005251 -176477.000000 0 0 1
16.461782 -31.074281 3.853488 35.375847 -1.083628 1.461650 0.033865 -0.003225 -102878.000000 0 0 1
16.313982 -31.290381 2.431688 35.371557 -1.090196 1.501995 0.039253 0.000503 -146105.000000 0 0 1
16.444082 -32.786681 1.972188 36.732327 -1.105911 1.517080 0.035768 -0.002676 -590418.000000 0 0 1
17.747282 -33.276181 2.083788 37.770523 -1.080839 1.515599 0.048664 0.007707 -187303.000000 0 0 1
17.783682 34.111656 1.756388 38.509081 1.090225 1.525171 0.047976 0.004373 -868678.000000 0 0 1
19.175082 33.519656 1.842888 38.660669 1.051178 1.523110 0.057630 -0.001395 -688265.000000 0 0 1
19.470582 33.219156 3.176688 38.635569 1.040641 1.488482 0.048827 -0.019292 -84869.500000 0 0 1
20.854682 33.123556 3.384788 39.287969 1.008894 1.484536 0.049075 -0.011827 -357050.000000 0 0 1
21.208082 33.230256 4.882288 39.722404 1.002750 1.447575 0.053435 -0.011117 -175901.000000 0 0 1
20.882382 32.158156 5.763488 38.774201 0.994868 1.421601 0.057339 -0.023004 91937.100000 0 0 1
21.731782 31.032856 5.631488 38.301725 0.959880 1.423232 0.043785 -0.035604 242.683000 0 0 1
21.246282 29.803856 6.474988 37.169877 0.951485 1.395703 0.051305 -0.040544 479575.000000 0 0 1
20.032582 29.315156 5.906088 35.993952 0.971331 1.405965 0.055964 -0.033617 544058.000000 0 0 1
19.104082 29.073156 6.964288 35.478382 0.989443 1.373217 0.054749 -0.047846 437907.000000 0 0 1
17.594182 28.903356 6.627788 34.480237 1.023986 1.377373 0.054876 -0.032476 10436.900000 0 0 1
16.881282 30.105856 6.471688 35.117274 1.059752 1.385449 0.035540 -0.037790 -373299.000000 0 0 1
16.919582 30.763556 5.169388 35.487902 1.067962 1.424610 0.049449 -0.033646 -407411.000000 0 0 1
17.027682 32.274756 5.362388 36.883018 1.085325 1.424890 0.050703 -0.027538 248080.000000 0 0 1
15.818582 32.968456 5.625588 36.997214 1.123431 1.418150 0.028470 -0.023127 62279.700000 0 0 1
16.140482 34.335956 5.492188 38.335847 1.131374 1.427037 0.037419 -0.025366 71319.000000 0 0 1
14.870682 -33.574581 5.676088 37.156529 -1.153850 1.417434 0.026978 -0.019838 -116557.000000 0 0 1
13.945682 -33.725181 4.636788 36.788173 -1.178698 1.444420 0.027608 -0.010908 -382826.000000 0 0 1
12.929282 -32.756081 4.705288 35.528396 -1.194855 1.437969 0.020218 -0.008561 181982.000000 0 0 1
11.956382 -32.854581 3.501388 35.137420 -1.221776 1.470982 0.013707 -0.006675 551709.000000 0 0 1
10.759482 -32.080181 3.562688 34.023480 -1.247193 1.465891 0.018892 -0.020135 539216.000000 0 0 1
10.160482 -31.994281 2.259488 33.644832 -1.263298 1.503589 0.025213 -0.010745 -1440500.000000 0 0 1
9.337882 -30.713781 2.319688 32.185608 -1.275647 1.498662 0.031578 -0.014046 -423450.000000 0 0 1
8.783882 -30.259881 1.044088 31.526292 -1.288279 1.537672 0.036977 -0.003182 176987.000000 0 0 1
7.791382 -31.142481 0.562988 32.107269 -1.325644 1.553261 0.033683 -0.008799 -1232070.000000 0 0 1
8.187082 -31.876381 -0.698812 32.918389 -1.319392 1.592027 0.044513 -0.005601 -915477.000000 0 0 1
9.298982 -32.680781 -0.670412 33.984614 -1.293583 1.590525 0.036178 -0.011998 -1024680.000000 0 0 1
9.585182 -33.439581 -1.785512 34.832016 -1.291639 1.622079 0.042060 0.001432 -66542.000000 0 0 1
10.852782 -34.310381 -1.679712 36.025082 -1.264442 1.617439 0.034915 0.000461 -25397.900000 0 0 1
10.724282 33.483456 -0.651012 35.164980 1.260834 1.589310 0.026118 -0.000643 243820.000000 0 0 1
11.823282 32.596656 -0.764312 34.683081 1.222840 1.592835 0.029866 0.000944 -281528.000000 0 0 1
11.949782 31.585456 0.383388 33.772552 1.209108 1.559444 0.017541 -0.002585 -785801.000000 0 0 1
12.287882 32.053256 1.718488 34.370866 1.204718 1.520777 0.011361 0.000580 696767.000000 0 0 1
13.547082 32.707956 1.825788 35.449503 1.178123 1.519270 0.020247 -0.003339 180552.000000 0 0 1
14.859382 31.917856 1.618188 35.244422 1.135086 1.524867 0.030106 -0.009252 -837730.000000 0 0 1
15.154182 31.496756 0.356488 34.954569 1.122355 1.560598 0.030719 -0.004340 177000.000000 0 0 1
15.979382 30.314356 0.514188 34.271930 1.085687 1.555793 0.044974 -0.004073 134603.000000 0 0 1
16.803782 29.910556 -0.699712 34.314691 1.058938 1.591189 0.036935 -0.002885 447208.000000 0 0 1
17.861482 30.829056 -1.043312 35.644799 1.045683 1.600070 0.039818 0.002069 346872.000000 0 0 1
17.458382 31.882856 -1.890312 36.398968 1.069814 1.622753 0.042396 -0.000805 -91419.100000 0 0 1
18.585582 32.677256 -2.630212 37.684810 1.053663 1.640648 0.039088 0.006639 331094.000000 0 0 1
19.468482 33.329356 -1.741412 38.638067 1.042132 1.615881 0.031965 0.007877 -273541.000000 0 0 1
20.353782 34.194556 -2.374312 39.864538 1.033888 1.630391 0.031454 0.009672 -1139030.000000 0 0 1
21.461982 -34.062381 -1.384912 40.283749 -1.008553 1.605182 0.036495 0.009701 390189.000000 0 0 1
22.449282 33.744256 -0.883812 40.539193 0.983756 1.592599 0.033634 0.010230 955427.000000 0 0 1
23.148182 32.939656 -1.786412 40.299510 0.958230 1.615139 0.036304 0.010317 -592180.000000 0 0 1
24.076582 33.645356 -2.818712 41.468505 0.949678 1.638821 0.032877 0.003104 -861274.000000 0 0 1
23.378282 34.337456 -3.850512 41.718477 0.973046 1.663225 0.027470 -0.007194 -456326.000000 0 0 1
24.225782 -33.789581 -4.722812 41.844107 -0.948778 1.683904 0.024990 -0.009262 -767704.000000 0 0 1
23.570482 -33.289381 -6.023112 41.231401 -0.954689 1.717402 0.024350 -0.020121 -311844.000000 0 0 1
22.567482 -32.331981 -5.811412 39.854997 -0.961419 1.717132 0.035084 -0.017189 -37092.200000 0 0 1
22.031682 -31.847281 -7.002112 39.353194 -0.965601 1.749679 0.041803 -0.020940 62051.000000 0 0 1
20.954782 -30.744081 -6.781212 37.819125 -0.972535 1.751078 0.055036 -0.015428 630816.000000 0 0 1
19.700082 -31.131281 -6.237212 37.365127 -1.006603 1.738507 0.057560 -0.008266 252346.000000 0 0 1
18.894282 -29.972581 -6.043712 35.942676 -1.008334 1.739748 0.065220 -0.012046 -274270.000000 0 0 1
17.798582 -30.133381 -5.019212 35.355377 -1.037273 1.713242 0.048918 -0.000225 -75093.100000 0 0 1
16.722482 -30.944081 -5.492212 35.599747 -1.075346 1.725692 0.045509 -0.001919 -263093.000000 0 0 1
15.563582 -30.623381 -4.769512 34.680900 -1.100590 1.708759 0.025004 0.005960 -45137.800000 0 0 1
14.338182 -31.487481 -5.145212 34.978824 -1.143493 1.718427 0.025119 0.010949 -137686.000000 0 0 1
14.438082 -32.845781 -4.745712 36.191509 -1.156648 1.702303 0.034565 0.009632 655115.000000 0 0 1
13.202982 -33.549381 -4.992012 36.397801 -1.195872 1.708381 0.042313 0.008318 879411.000000 0 0 1
13.475182 33.657856 -5.046512 36.604632 1.189982 1.709102 0.043417 0.002223 50730.300000 0 0 1
13.516882 33.152056 -3.711712 35.993634 1.183649 1.674101 0.044139 -0.002298 -68337.600000 0 0 1
13.967682 31.814556 -3.682912 34.940319 1.157099 1.676398 0.039858 -0.002794 -363362.000000 0 0 1
13.046282 30.656356 -4.134312 33.572461 1.168447 1.694256 0.034516 -0.009505 -452352.000000 0 0 1
12.004182 30.370856 -3.252412 32.818706 1.194389 1.670062 0.022409 -0.009355 -327947.000000 0 0 1
11.719682 29.026256 -3.267312 31.473001 1.187052 1.674797 0.014120 -0.006836 -125476.000000 0 0 1
10.622982 28.596656 -2.266212 30.590067 1.215118 1.644948 0.011017 -0.003209 -761827.000000 0 0 1
10.999582 28.652256 -0.849212 30.702829 1.204246 1.598459 0.019799 0.006487 -252359.000000 0 0 1
9.949382 28.360556 0.034588 30.055158 1.233393 1.569646 -0.002165 0.005830 -527760.000000 0 0 1
8.680882 29.241556 -0.078212 30.502990 1.282215 1.573360 -0.015950 0.006972 -877205.000000 0 0 1
7.742982 28.629956 0.771688 29.668563 1.306665 1.544783 -0.015940 0.003109 -214112.000000 0 0 1
6.562682 29.436056 0.837188 30.170367 1.351437 1.543044 0.009987 0.005581 405411.000000 0 0 1
5.422882 28.845656 1.708188 29.400636 1.384969 1.512663 0.019923 -0.000016 218878.000000 0 0 1
4.721482 27.836156 0.984288 28.250890 1.402779 1.535948 0.019016 -0.002717 181150.000000 0 0 1
3.583182 27.362656 1.690888 27.648024 1.440586 1.509600 0.036249 -0.004688 262156.000000 0 0 1
2.818382 26.374256 0.773288 26.535686 1.464339 1.541651 0.033212 -0.006815 143336.000000 0 0 1
1.648282 25.840456 1.369488 25.929163 1.507096 1.517955 0.033378 -0.001870 283824.000000 0 0 1
0.978182 24.932256 0.484688 24.956144 1.531583 1.551374 0.016048 0.001288 -19564.400000 0 1 0
-0.267518 24.239356 1.017988 24.262197 -1.559760 1.528826 0.021938 0.000862 375374.000000 0 1 0
-1.389618 25.110756 1.149988 25.175455 -1.515513 1.525101 0.028102 -0.001780 392605.000000 0 0 1
-2.604218 24.429756 1.377388 24.606749 -1.464597 1.514791 0.028728 0.001258 1497210.000000 0 1 0
-3.998718 25.209356 1.418288 25.563898 -1.413487 1.515288 0.048915 -0.012211 1302460.000000 0 0 1
-5.018818 24.388756 1.993488 24.979470 -1.367845 1.490906 0.032750 -0.019491 1598140.000000 0 1 0
-6.270218 25.042056 2.380288 25.924621 -1.325453 1.478851 0.028955 -0.015045 1377430.000000 0 0 1
-7.228218 25.507156 1.271988 26.542044 -1.294656 1.522854 0.034604 -0.013001 -880757.000000 0 0 1
-6.844118 26.707456 0.657388 27.578294 -1.319932 1.546957 0.041915 -0.014741 -194156.000000 0 0 1
-7.422518 26.906056 -0.590512 27.917348 -1.301623 1.591950 0.030240 -0.013453 -417931.000000 0 0 1
-6.866318 28.139256 -1.398312 28.998609 -1.331461 1.619035 0.030611 -0.013254 93838.700000 0 0 1
-7.248518 29.383956 -0.885612 30.277750 -1.328942 1.600050 0.039508 -0.030691 -76113.900000 0 0 1
-7.194918 30.413356 -1.827812 31.306229 -1.338496 1.629214 0.039973 -0.026623 -96484.600000 0 0 1
-7.335818 31.824856 -1.266512 32.683937 -1.344247 1.609556 0.029627 -0.023261 -477097.000000 0 0 1
-7.617318 32.861056 -2.208112 33.804560 -1.343015 1.636163 0.024082 -0.012408 -587167.000000 0 0 1
-6.889518 33.041156 -3.394812 33.922090 -1.365229 1.671041 0.013370 -0.011501 -382912.000000 0 0 1
-5.396018 33.408756 -3.270012 33.999337 -1.410664 1.667124 0.021829 -0.017671 -361721.000000 0 0 1
-5.277018 -34.016981 -2.823512 34.539458 1.416894 1.652635 0.020339 -0.011224 287497.000000 0 0 1
-4.174018 -33.804381 -1.944412 34.116555 1.447943 1.627820 0.023961 -0.016824 240849.000000 0 0 1
-4.103618 -32.306881 -1.783012 32.615233 1.444453 1.625492 0.029815 -0.011047 295350.000000 0 0 1
-5.303918 -31.694781 -1.338112 32.163353 1.404989 1.612412 0.024883 -0.005677 61025.400000 0 0 1
-5.245718 -30.311681 -1.747212 30.811821 1.399434 1.627533 0.030970 0.001739 -283893.000000 0 0 1
-6.567718 -29.572281 -1.599412 30.335010 1.352253 1.623546 0.046023 0.000383 -271388.000000 0 0 1
-6.855218 -29.263381 -0.218812 30.056403 1.340686 1.578076 0.031010 -0.000475 -391760.000000 0 0 1
-8.128818 -28.705081 -0.061512 29.833926 1.294838 1.572858 0.034432 -0.001721 -135626.000000 0 0 1
-8.215318 -27.905881 1.312488 29.119620 1.284491 1.525709 0.026436 0.007735 223210.000000 0 0 1
-7.344218 -26.778181 1.406488 27.802639 1.303117 1.520186 0.042643 0.001611 -43045.500000 0 0 1
-7.180618 -26.389181 2.778588 27.489466 1.305124 1.469545 0.039784 0.010224 -105160.000000 0 0 1
-8.173718 -25.342781 3.285188 26.830182 1.258803 1.448045 0.036869 0.006497 206444.000000 0 0 1
-7.668618 -24.047081 3.092088 25.428937 1.262091 1.448897 0.042796 -0.000136 150122.000000 0 0 1
-8.731418 -23.173881 3.453588 25.003874 1.210467 1.432231 0.041887 -0.004255 530016.000000 0 0 1
-8.248318 -21.784681 3.769688 23.596984 1.208848 1.410356 0.012391 0.007070 96342.100000 0 1 0
-7.272118 -21.758981 4.776688 23.434029 1.248255 1.365522 0.004335 0.009628 -368667.000000 0 1 0
-6.762718 -20.420381 5.130388 22.114412 1.250990 1.336670 -0.006909 0.003155 290412.000000 0 1 0
-7.670118 -19.373681 5.868988 21.647523 1.193826 1.296244 -0.004537 0.000058 64614.600000 0 1 0
-8.017918 -19.728381 7.172388 22.470852 1.184772 1.245926 -0.003543 0.000359 -19724.200000 0 1 0
-8.956218 -18.774881 7.630588 22.157073 1.125691 1.219212 -0.003231 -0.010117 -733518.000000 0 1 0
-26.946868 28.915656 -5.493912 39.905287 -0.820627 1.708909 0.041628 -0.013741 408244.000000 0 0 1
-26.132338 30.059956 -5.119412 40.158541 -0.855181 1.698624 0.037636 -0.018906 178673.000000 0 0 1
-25.028618 29.612256 -4.369312 39.018051 -0.869089 1.683014 0.025040 -0.013716 13903.800000 0 0 1
-24.144518 30.687256 -3.752712 39.226882 -0.904160 1.666610 0.020744 -0.011368 -245798.000000 0 0 1
-24.698018 31.116656 -2.507512 39.806105 -0.899894 1.633831 0.013809 -0.017810 543362.000000 0 0 1
-23.830618 31.932456 -1.719212 39.881522 -0.929679 1.613918 0.008906 -0.011700 931464.000000 0 0 1
-22.616918 31.242256 -0.966212 38.581564 -0.944196 1.595842 0.020189 -0.006959 1135820.000000 0 0 1
-21.616018 30.726456 -1.844012 37.613398 -0.957726 1.619841 0.027476 -0.022654 -676364.000000 0 0 1
-20.508218 30.312256 -1.153812 36.616269 -0.975972 1.602312 0.030586 -0.020919 -420548.000000 0 0 1
-19.210718 30.110256 -1.997412 35.772459 -1.002894 1.626662 0.049044 -0.021105 311174.000000 0 0 1
-18.100318 30.008356 -1.152912 35.063544 -1.028045 1.603683 0.042531 -0.014689 -727312.000000 0 0 1
-16.923418 29.638556 -1.781412 34.176300 -1.051978 1.622944 0.039800 -0.014803 -804035.000000 0 0 1
-15.595918 29.844956 -1.083412 33.691658 -1.089260 1.602959 0.043347 -0.021828 -404441.000000 0 0 1
-15.411118 29.090056 0.085788 32.920226 -1.083615 1.568190 0.038434 -0.020612 -152187.000000 0 0 1
-14.238018 29.554356 0.708788 32.812855 -1.121849 1.549194 0.048128 -0.025061 158672.000000 0 0 1
-13.711918 28.725456 1.912088 31.887687 -1.125437 1.510797 0.035151 -0.024905 132362.000000 0 0 1
-14.670018 28.822056 2.990688 32.478678 -1.099986 1.478584 0.033521 -0.016634 542112.000000 0 0 1
-14.192218 28.240156 4.207088 31.884558 -1.105107 1.438463 0.024178 -0.017479 288614.000000 0 0 1
-13.060818 28.994556 4.947588 32.183037 -1.147562 1.416451 0.037140 -0.015269 -36988.300000 0 0 1
-13.339518 30.162856 5.683188 33.466987 -1.154406 1.400155 0.028790 -0.014814 -422455.000000 0 0 1
-13.419818 31.400856 4.935388 34.503091 -1.166919 1.427262 0.029014 -0.024209 -107021.000000 0 0 1
-13.385418 32.622456 5.851288 35.743973 -1.181431 1.406356 0.028332 -0.015447 66515.200000 0 0 1
-14.474218 32.806056 6.730388 36.483399 -1.155280 1.385256 0.033239 -0.016332 -7085.990000 0 0 1
-14.225818 34.077756 7.338888 37.650055 -1.175336 1.374617 0.038868 -0.014448 836148.000000 0 0 1
-15.355418 -34.170181 8.329188 38.376627 1.148458 1.352017 0.033090 -0.011940 577232.000000 0 0 1
-15.423318 33.826756 9.538088 38.381027 -1.143005 1.319654 0.032407 -0.014003 587845.000000 0 0 1
-16.709018 33.987456 10.149888 39.209165 -1.113873 1.308949 0.052896 -0.019641 -235290.000000 0 0 1
-16.693418 33.505656 11.553388 39.176268 -1.108568 1.271437 0.054947 -0.016088 -114162.000000 0 0 1
-15.838718 34.143956 12.472288 39.651389 -1.136459 1.250815 0.065635 -0.021377 980716.000000 0 0 1
-14.512618 33.544456 12.373488 38.586912 -1.162474 1.244364 0.068937 -0.014746 529903.000000 0 0 1
-13.657618 33.815156 13.625388 38.931305 -1.186941 1.213241 0.081769 -0.015092 -258568.000000 0 0 1
-13.900018 32.923756 14.761388 38.666300 -1.171310 1.179093 0.074098 -0.016540 83613.700000 0 0 1
-13.144018 31.749656 14.781988 37.407393 -1.178289 1.164552 0.055437 -0.016903 -554161.000000 0 0 1
-14.005218 30.523456 14.436788 36.554731 -1.140620 1.164798 0.051560 -0.021586 -74523.800000 0 0 1
-14.227818 30.505956 13.071188 36.109557 -1.134392 1.200398 0.052689 -0.016463 29803.300000 0 0 1
-15.361118 29.805656 12.628288 35.830360 -1.094924 1.210612 0.029876 -0.015732 -142094.000000 0 0 1
-15.354818 29.688956 11.091088 35.216711 -1.093492 1.250405 0.015881 -0.003976 280315.000000 0 0 1
-14.512218 28.674956 10.505888 33.811703 -1.102286 1.254849 0.010470 0.000247 423887.000000 0 0 1
-14.421018 28.689656 9.101088 33.375019 -1.105026 1.294607 0.010952 0.001180 -330030.000000 0 0 1
-13.720418 27.482256 8.484888 31.867186 -1.107752 1.301288 0.020131 -0.000561 282577.000000 0 0 1
-12.310118 27.353956 8.618088 31.209764 -1.147917 1.291027 0.028640 -0.007754 312717.000000 0 0 1
-11.920018 26.145556 8.081488 29.849411 -1.143039 1.296633 0.034814 -0.010814 218736.000000 0 0 1
-10.741318 26.111156 7.058388 29.103079 -1.180528 1.325823 0.048536 -0.020909 301681.000000 0 0 1
-11.087118 26.486756 5.695288 29.273003 -1.174367 1.374990 0.050266 -0.021382 994920.000000 0 0 1
-9.988518 26.100356 4.831388 28.360913 -1.205295 1.399608 0.058479 -0.014420 702139.000000 0 0 1
-10.179318 26.554956 3.333588 28.633844 -1.204742 1.454110 0.049445 -0.018746 -87738.400000 0 0 1
-10.012818 27.939556 3.132288 29.844372 -1.226681 1.465649 0.046857 -0.016218 26496.700000 0 0 1
-10.247918 28.186056 1.753388 30.042435 -1.222074 1.512399 0.046920 -0.021353 -285728.000000 0 0 1
-9.873118 29.594156 1.197988 31.220629 -1.248790 1.532415 0.052390 -0.020906 22406.000000 0 0 1
-10.766718 30.562456 1.673388 32.446666 -1.232087 1.519200 0.043285 -0.026433 -133427.000000 0 0 1
-10.261418 31.899856 1.503788 33.543388 -1.259574 1.525950 0.037921 -0.025445 481401.000000 0 0 1
-11.011518 32.958956 2.448988 34.835956 -1.248358 1.500438 0.039752 -0.019618 945131.000000 0 0 1
-12.328218 33.425356 2.182188 35.693155 -1.217447 1.509621 0.050610 -0.025912 163436.000000 0 0 1
-12.346718 34.331656 1.081488 36.500324 -1.225568 1.541162 0.045965 -0.020966 -795046.000000 0 0 1
-13.740918 -33.974681 0.713388 36.655160 1.186463 1.551333 0.056629 -0.021584 -439580.000000 0 0 1
-14.631618 33.824056 0.163488 36.853463 -1.162523 1.566360 0.054850 -0.025862 -163167.000000 0 0 1
-14.724318 33.715356 -1.269612 36.812262 -1.159037 1.605292 0.046514 -0.018705 592767.000000 0 0 1
-13.428818 33.325456 -2.097612 35.990542 -1.187741 1.629112 0.041705 -0.021763 747470.000000 0 0 1
-13.020618 31.979956 -2.158512 34.596434 -1.184142 1.633228 0.035227 -0.022663 139394.000000 0 0 1
-11.610118 31.948456 -2.330712 34.072436 -1.222233 1.639254 0.029256 -0.020990 339769.000000 0 0 1
-11.119318 30.446356 -2.278312 32.493238 -1.220636 1.640970 0.004917 -0.025750 38136.900000 0 0 1
-11.333118 29.829956 -3.499312 32.101573 -1.207716 1.680021 0.006810 -0.024258 -810741.000000 0 0 1
-10.249218 29.936056 -4.345712 31.938990 -1.240935 1.707283 0.004941 -0.010741 -677513.000000 0 0 1
-10.519718 29.299256 -5.749312 31.656997 -1.226087 1.753422 0.011659 -0.006995 -261365.000000 0 0 1
-10.803118 27.889456 -5.644612 30.436668 -1.201238 1.757331 0.014460 -0.001187 -8775.600000 0 0 1
-10.780218 27.306756 -6.948512 30.168756 -1.194796 1.803204 0.010612 0.000342 137187.000000 0 0 1
-11.371618 25.847356 -7.018812 29.097478 -1.156329 1.814416 0.021931 0.003518 271038.000000 0 0 1
-10.778718 24.923856 -6.085812 27.828339 -1.162619 1.791269 0.015284 0.003823 -49978.600000 0 0 1
-11.295418 23.655656 -6.252512 26.949405 -1.125316 1.804939 0.018482 -0.001537 -83795.700000 0 0 1
-10.535018 22.556056 -5.413412 25.476799 -1.133847 1.784913 0.030206 -0.012666 1816110.000000 0 0 1
-9.158718 22.357556 -5.931012 24.878089 -1.182001 1.811517 0.037258 -0.014155 1935310.000000 0 1 0
-8.499918 21.161156 -5.614412 23.485415 -1.188846 1.812193 0.040798 -0.014767 -243712.000000 0 1 0
-8.218918 20.863256 -4.086412 22.793087 -1.195523 1.751054 0.026721 -0.025373 8642.030000 0 1 0
-9.326418 20.774156 -3.178912 22.992457 -1.148821 1.709500 0.029245 -0.026473 252402.000000 0 1 0
-10.160318 19.635256 -3.294112 22.352327 -1.093284 1.718707 0.042271 -0.025967 352894.000000 0 1 0
-11.445118 19.630556 -2.403912 22.850126 -1.042951 1.676195 0.044953 -0.023586 328349.000000 0 1 0
-11.271418 19.492356 -1.005412 22.539025 -1.046524 1.615419 0.042149 -0.028877 95094.800000 0 1 0
-10.997018 18.132456 -0.592512 21.214887 -1.025624 1.598729 0.043098 -0.031959 -682796.000000 0 1 0
-10.780118 18.132756 0.943188 21.116282 -1.034423 1.526115 0.034801 -0.026725 -516130.000000 0 1 0
-11.893018 18.292256 1.770788 21.890322 -0.994304 1.489814 0.053165 -0.026363 -740714.000000 0 1 0
-11.628618 18.380356 3.134188 21.974653 -1.006704 1.427681 0.047917 -0.023009 -252091.000000 0 1 0
-12.792318 18.386856 4.156488 22.781489 -0.962941 1.387318 0.062458 -0.027457 282875.000000 0 1 0
-13.487118 17.142356 4.231888 22.218722 -0.904174 1.379161 0.043324 -0.024975 628241.000000 0 1 0
-14.697618 17.195156 4.988588 23.164183 -0.863549 1.353738 0.059990 -0.031591 479846.000000 0 1 0
-15.030318 15.785056 5.515988 22.483429 -0.809886 1.322930 0.033557 -0.025597 -245214.000000 0 1 0
-14.414318 15.385756 6.773188 22.144302 -0.817985 1.259948 0.035753 -0.012533 438314.000000 0 1 0
-14.998318 15.986956 7.947588 23.317299 -0.817294 1.222981 0.041414 -0.009884 -100512.000000 0 1 0
-13.952418 16.046256 9.098588 23.128696 -0.855083 1.166481 0.028278 0.005773 1455770.000000 0 1 0
-12.776118 16.855856 8.892588 22.944001 -0.922218 1.172794 0.033001 -0.015160 1090420.000000 0 1 0
-11.743718 16.269156 8.082988 21.631806 -0.945563 1.187842 0.030868 -0.013375 -391073.000000 0 1 0
-10.599118 17.199756 7.713988 21.625876 -1.018524 1.206061 0.037087 -0.020783 -118361.000000 0 1 0
-9.644018 17.349156 8.733488 21.685804 -1.063451 1.156301 0.034901 -0.011167 -4732.300000 0 1 0
-8.777818 18.463956 8.564788 22.165815 -1.127019 1.174075 0.019414 -0.020426 -557273.000000 0 1 0
-7.640118 18.526656 9.540588 22.195297 -1.179659 1.126473 0.015370 -0.013210 -2049970.000000 0 1 0
-6.734118 17.531356 9.288788 20.951810 -1.204055 1.111474 0.012227 -0.012561 177463.000000 0 1 0
-5.413418 17.767156 9.829288 21.014086 -1.275045 1.084056 0.004925 -0.015101 1375200.000000 0 1 0
-4.528018 18.839056 9.103588 21.407669 -1.334918 1.131559 0.002709 -0.014660 -1574240.000000 0 1 0
-4.950618 20.179156 9.136988 22.697830 -1.330215 1.156497 0.007709 -0.018293 -406574.000000 0 1 0
-4.311518 21.089856 8.304488 23.072402 -1.369139 1.202602 0.015627 -0.026907 516122.000000 0 1 0
-2.871018 21.637356 8.619088 23.467138 -1.438879 1.194710 0.027686 -0.020013 737131.000000 0 1 0
-1.830718 20.737156 8.345088 22.428144 -1.482743 1.189546 0.019565 -0.008284 999541.000000 0 1 0
-0.531918 21.410656 8.254488 22.952901 -1.545958 1.202928 0.018843 -0.009209 2034700.000000 0 1 0
0.688082 20.438156 8.347688 22.087905 1.537143 1.183237 0.017564 -0.002694 393411.000000 0 1 0
1.028382 20.041556 9.679888 22.280524 1.519529 1.121363 0.014597 -0.000252 -522152.000000 0 1 0
1.965782 18.999756 9.625488 21.389367 1.467700 1.104017 0.003488 -0.020048 -772386.000000 0 1 0
2.906882 19.132856 10.801288 22.162670 1.420018 1.061728 0.004621 -0.016177 -5281.570000 0 1 0
3.867982 18.007856 10.927188 21.416059 1.359217 1.035340 0.016794 -0.018812 590944.000000 0 1 0
4.671082 18.192356 12.063288 22.322718 1.319465 0.999879 0.017490 -0.009332 431515.000000 0 1 0
6.104982 18.736656 11.659188 22.896937 1.255813 1.036538 0.027002 -0.014521 1088430.000000 0 1 0
7.024182 17.755656 11.125888 22.099498 1.194087 1.043215 0.023733 -0.010674 373155.000000 0 1 0
7.586282 16.836756 12.050488 22.050902 1.147461 0.992635 0.020916 -0.007625 671781.000000 0 1 0
8.959482 16.253356 11.493588 21.829944 1.067002 1.016311 0.023867 -0.005416 1522150.000000 0 1 0
9.974882 17.181456 11.120488 22.767651 1.044793 1.060502 0.032335 -0.011099 -65167.900000 0 1 0
11.083082 16.535756 10.556288 22.532224 0.980317 1.083207 0.030965 -0.014511 -432654.000000 0 1 0
12.058682 17.519556 9.940788 23.476923 0.967967 1.133570 0.039561 -0.010814 -90755.300000 0 1 0
12.943082 16.848756 9.029888 23.085554 0.915754 1.168917 0.029241 -0.008881 -59322.300000 0 1 0
13.639182 17.845056 8.289588 23.941398 0.918199 1.217231 0.033238 -0.006864 -273498.000000 0 1 0
14.598082 17.194556 7.288288 23.703921 0.866886 1.258261 0.031999 -0.017500 -80690.700000 0 1 0
15.785982 16.732856 7.901488 24.323223 0.814508 1.239939 0.041999 -0.012338 554788.000000 0 1 0
16.864582 16.471656 6.993288 24.589340 0.773612 1.282412 0.062536 -0.006103 1438840.000000 0 1 0
18.246582 16.206356 7.725388 25.598151 0.726249 1.264222 0.044645 -0.007399 769719.000000 0 0 1
18.386282 15.035356 8.514088 25.231072 0.685470 1.226595 0.044706 -0.005535 -696841.000000 0 0 1
19.547682 15.168056 9.233888 26.409212 0.659904 1.213603 0.044754 -0.001645 -820499.000000 0 0 1
19.864482 13.939656 10.138188 26.300085 0.611891 1.175067 0.043745 -0.007529 17963.700000 0 0 1
20.289082 12.749856 9.489788 25.773276 0.561047 1.193721 0.046478 -0.019005 227948.000000 0 0 1
20.555182 11.800656 10.462788 25.908317 0.521155 1.155087 0.055246 -0.021837 -160490.000000 0 0 1
21.572182 10.680156 10.101988 26.105074 0.459711 1.173449 0.055941 -0.015760 -1020750.000000 0 0 1
22.909582 11.147756 10.093988 27.404561 0.452869 1.193582 0.044149 -0.020674 407619.000000 0 0 1
23.753982 10.235956 9.410688 27.524307 0.406870 1.221853 0.055853 -0.019457 -41610.400000 0 0 1
24.021882 8.865856 10.011288 27.493273 0.353565 1.198091 0.074313 -0.031289 -428751.000000 0 0 1
22.905582 7.978356 9.739488 26.137664 0.335173 1.188963 0.074053 -0.021737 1189710.000000 0 0 1
23.104082 6.619256 10.098088 26.068842 0.279023 1.173027 0.070492 -0.024439 14611.200000 0 0 1
24.274082 5.997556 9.278388 26.670024 0.242225 1.215471 0.089260 -0.023505 340846.000000 0 0 1
23.956182 5.746456 7.906888 25.873525 0.235425 1.260230 0.097340 -0.019674 -16068.200000 0 0 1
25.043782 5.279356 7.172588 26.580230 0.207763 1.297562 0.104648 -0.024084 -404570.000000 0 0 1
24.544882 5.060556 5.776388 25.718225 0.203327 1.344261 0.101716 -0.028902 -403996.000000 0 0 1
23.670282 3.984356 5.650088 24.659295 0.166764 1.339617 0.098992 -0.019741 361858.000000 0 1 0
23.223582 3.752056 4.326488 23.919264 0.160178 1.388916 0.082677 -0.021976 -249747.000000 0 1 0
22.215282 2.602456 4.156288 22.750082 0.116616 1.387071 0.066516 -0.011994 -372316.000000 0 1 0
22.730282 1.315356 4.385488 23.186815 0.057804 1.380513 0.069875 -0.007671 726295.000000 0 1 0
21.795682 0.316556 3.953988 22.153690 0.014523 1.391355 0.045629 -0.005273 -292694.000000 0 1 0
22.321882 -1.117544 4.138188 22.729714 -0.050023 1.387715 0.051964 -0.006456 -561697.000000 0 1 0
22.312982 -1.452944 5.515488 23.030432 -0.065025 1.328959 0.052076 -0.004479 740701.000000 0 1 0
22.358482 -2.870944 5.649088 23.239110 -0.127706 1.325251 0.037945 -0.004690 -851344.000000 0 1 0
22.271582 -3.362044 7.134888 23.626962 -0.149825 1.264027 0.066656 -0.002597 -234021.000000 0 1 0
22.201182 -4.783544 7.227588 23.833019 -0.212219 1.262685 0.054803 -0.006494 596333.000000 0 1 0
22.175782 -5.226344 8.559288 24.338065 -0.231454 1.211428 0.076718 -0.005864 -114725.000000 0 1 0
21.986382 -6.754044 8.782488 24.620118 -0.298042 1.206042 0.085486 -0.014969 867739.000000 0 1 0
20.608082 -7.130044 8.628588 23.451718 -0.333092 1.194015 0.074995 -0.016219 1097010.000000 0 1 0
20.396782 -8.461744 9.026888 23.856122 -0.393248 1.182741 0.080994 -0.016413 -258624.000000 0 1 0
-26.090948 -33.452681 5.132488 42.733616 0.908410 1.450401 0.021545 -0.011948 -380579.000000 0 0 1
-26.673578 34.205656 5.713088 43.750955 -0.908494 1.439840 0.022485 -0.017434 -153675.000000 0 0 1
-26.851328 -34.215581 7.037188 44.059299 0.905412 1.410388 0.020718 -0.014121 -363618.000000 0 0 1
-27.607838 33.374956 7.752388 44.002044 -0.879687 1.393689 0.037130 -0.015338 1650640.000000 0 0 1
-29.022028 33.344856 7.367388 44.815577 -0.854600 1.405653 0.038222 -0.025142 1497140.000000 0 0 1
-29.654398 32.142656 7.792888 44.421422 -0.825641 1.394453 0.042863 -0.019029 1121720.000000 0 0 1
-31.224498 32.070956 7.787788 45.433084 -0.798770 1.398533 0.034429 -0.020348 1062540.000000 0 0 1
-31.770998 32.195956 6.484188 45.694864 -0.792041 1.428414 0.025007 -0.020787 -389215.000000 0 0 1
-33.165438 32.331856 6.492888 46.770212 -0.772672 1.431521 0.011188 -0.014742 -88132.800000 0 0 1
-33.788348 32.340756 5.050788 47.043463 -0.763511 1.463225 0.008236 -0.009389 3488.150000 0 0 1
-33.586688 31.054756 4.497988 45.964066 -0.746249 1.472781 0.011314 -0.012251 716961.000000 0 0 1
-34.452254 30.971356 3.352388 46.448048 -0.732243 1.498559 0.015727 0.002158 426058.000000 0 0 1
-34.133559 29.671356 2.618988 45.302851 -0.715577 1.512953 0.032438 -0.006903 19298.100000 0 0 1
-34.437426 28.535956 3.396388 44.852787 -0.691957 1.495001 0.040467 -0.014785 115677.000000 0 0 1
-33.804138 27.433256 2.821788 43.626434 -0.681735 1.506070 0.043014 -0.013791 -172981.000000 0 0 1
-34.287545 26.154856 3.603688 43.274690 -0.651649 1.487425 0.054261 -0.013405 -175271.000000 0 0 1
-35.621287 25.774756 3.322288 44.093670 -0.626375 1.495379 0.057918 -0.010180 -317869.000000 0 0 1
35.570067 24.890856 4.393788 43.635877 0.610571 1.469933 0.058949 -0.012246 -564049.000000 0 0 1
34.085018 24.581756 4.263688 42.240149 0.624806 1.469685 0.066808 -0.015079 -650850.000000 0 0 1
33.627558 23.728856 3.186888 41.279868 0.614499 1.493517 0.060466 -0.014865 -23244.200000 0 0 1
33.948718 22.368256 3.368688 40.794636 0.582595 1.488125 0.055920 -0.016050 -346808.000000 0 0 1
33.212128 21.311756 2.466288 39.538828 0.570508 1.508379 0.063060 -0.020057 501745.000000 0 0 1
31.869638 20.932856 2.762888 38.229463 0.581160 1.498462 0.065121 -0.030677 641189.000000 0 0 1
31.579418 20.043056 3.818288 37.597381 0.565535 1.469064 0.050541 -0.014725 -393628.000000 0 0 1
32.041478 18.586456 3.543388 37.211131 0.525640 1.475428 0.058426 -0.020671 -358055.000000 0 0 1
31.520228 18.057456 2.352188 36.402325 0.520243 1.506135 0.061661 -0.034582 260966.000000 0 0 1
31.795118 16.669756 2.012788 35.956385 0.482888 1.514788 0.055090 -0.032910 -191391.000000 0 0 1
31.001108 15.577356 2.825188 34.809544 0.465628 1.489546 0.069795 -0.030679 545788.000000 0 0 1
29.593888 15.720656 2.651488 33.614991 0.488305 1.491836 0.061101 -0.025373 507355.000000 0 0 1
28.875648 15.152756 3.748588 32.824700 0.483258 1.456346 0.058502 -0.036410 -432322.000000 0 0 1
27.398778 15.531556 3.679488 31.709003 0.515703 1.454495 0.035866 -0.029876 -620357.000000 0 0 1
26.589538 14.809756 2.788388 30.563172 0.508184 1.479436 0.041374 -0.026582 -560321.000000 0 0 1
25.411498 15.511556 2.568288 29.882247 0.548042 1.484743 0.010990 -0.007823 -443949.000000 0 0 1
24.475898 14.812156 1.508788 28.648664 0.544215 1.518107 0.004288 -0.020485 -482662.000000 0 0 1
24.819698 14.784456 0.113788 28.889626 0.537233 1.566858 0.019372 -0.016185 187960.000000 0 0 1
26.115798 14.333656 -0.220612 29.791563 0.501960 1.578202 0.030749 -0.019236 -610413.000000 0 0 1
26.731498 14.946156 -1.542612 30.664967 0.509819 1.621123 0.045721 -0.020782 404571.000000 0 0 1
27.369838 16.256456 -1.499612 31.868938 0.535963 1.617869 0.035787 -0.017283 183592.000000 0 0 1
28.424498 16.369056 -0.604612 32.806457 0.522494 1.589227 0.057406 -0.028442 -801989.000000 0 0 1
29.119828 17.783856 -0.600912 34.126104 0.548259 1.588406 0.068903 -0.021079 -133685.000000 0 0 1
30.228188 17.891456 -1.449312 35.156053 0.534427 1.612033 0.055042 -0.019812 230781.000000 0 0 1
30.968798 19.104456 -1.308212 36.410961 0.552749 1.606733 0.043355 -0.006769 312197.000000 0 0 1
30.210968 20.317456 -1.971112 36.460758 0.592043 1.624884 0.028999 0.004927 -200992.000000 0 0 1
30.936948 21.487856 -2.095612 37.725512 0.607072 1.626374 0.011794 0.012675 -54754.000000 0 0 1
30.133478 22.437356 -2.739112 37.669141 0.640035 1.643576 0.026029 0.011019 -469215.000000 0 0 1
30.864158 23.783556 -2.992312 39.079505 0.656548 1.647441 0.029562 0.010661 -67591.300000 0 0 1
31.184608 24.519456 -1.817212 39.711280 0.666311 1.616573 0.025646 0.013110 255199.000000 0 0 1
32.466828 24.205556 -1.300312 40.517831 0.640645 1.602894 0.029741 0.023643 -154301.000000 0 0 1
32.817678 24.775756 0.085588 41.119890 0.646663 1.568715 0.040023 -0.002897 -160939.000000 0 0 1
33.156108 26.131256 -0.047512 42.215782 0.667460 1.571922 0.057105 -0.000311 416812.000000 0 0 1
34.349938 26.269756 0.774088 43.250636 0.652886 1.552898 0.056248 -0.006973 730524.000000 0 0 1
35.029688 27.595856 0.339588 44.595130 0.667248 1.563181 0.049901 -0.006480 -553000.000000 0 0 1
35.563166 27.590856 -0.966412 45.021417 0.659826 1.592264 0.048563 -0.009895 24072.700000 0 0 1
34.625428 27.678656 -2.025612 44.374895 0.674359 1.616460 0.035528 -0.009765 -201273.000000 0 0 1
35.209548 27.231756 -3.423212 44.643019 0.658322 1.647551 0.027049 0.001913 297040.000000 0 0 1
-35.305074 28.100056 -3.880312 45.289273 -0.672249 1.656580 0.020804 0.001834 288887.000000 0 0 1
-34.701835 27.737656 -5.114012 44.718542 -0.674322 1.685407 0.018397 0.004015 197503.000000 0 0 1
-35.594976 27.774356 -6.412912 45.602002 -0.662606 1.711892 0.012660 0.003272 -182999.000000 0 0 1
34.776898 27.011656 -6.379112 44.494440 0.660379 1.714661 0.006363 0.012170 -826063.000000 0 0 1
33.875598 27.322656 -7.393412 44.144605 0.678727 1.739071 0.004315 0.004252 -114017.000000 0 0 1
32.602058 26.458156 -7.229112 42.605026 0.681743 1.741299 0.005109 0.017778 -382793.000000 0 0 1
32.641038 25.033556 -7.429512 41.800884 0.654252 1.749481 -0.001482 0.014015 -274359.000000 0 0 1
33.453748 24.339756 -6.488912 41.876998 0.628987 1.726375 0.000460 0.009655 54842.800000 0 0 1
33.598718 22.796356 -6.759412 41.161114 0.596143 1.735762 -0.006394 0.012304 -172654.000000 0 0 1
32.398518 22.100956 -6.606212 39.771324 0.598652 1.737675 -0.002868 0.015899 -81947.800000 0 0 1
32.739918 20.717856 -6.467712 39.280568 0.564189 1.736204 0.015986 0.008780 419197.000000 0 0 1
31.640078 19.883456 -5.718212 37.804025 0.561059 1.722638 0.030957 -0.002504 865774.000000 0 0 1
30.461918 19.736656 -6.524812 36.878682 0.574906 1.748659 0.017644 -0.002948 -441432.000000 0 0 1
29.530148 18.992856 -5.857512 35.595908 0.571558 1.736104 0.051064 -0.017801 191078.000000 0 0 1
28.153478 18.859056 -6.608712 34.524736 0.590214 1.763405 0.038280 -0.023314 732454.000000 0 0 1
28.277808 17.853056 -7.624412 34.300112 0.563149 1.794954 0.038032 -0.024375 204866.000000 0 0 1
27.120608 17.682556 -8.423512 33.453785 0.577778 1.825331 0.043688 -0.023150 61063.400000 0 0 1
27.223138 16.406956 -9.197812 33.089079 0.542391 1.852478 0.038510 -0.016764 -155723.000000 0 0 1
26.190198 16.341556 -10.162312 32.499931 0.557849 1.888817 0.038822 -0.014145 210498.000000 0 0 1
26.369298 15.306156 -11.098412 32.446772 0.525923 1.919894 0.029549 -0.002881 138131.000000 0 0 1
25.734098 15.562956 -12.546412 32.586222 0.543912 1.966028 0.030561 -0.002667 -102608.000000 0 0 1
24.335498 15.582456 -12.637212 31.539317 0.569539 1.983057 0.030367 -0.003912 -109278.000000 0 0 1
23.819298 15.699156 -13.953112 31.757074 0.582742 2.025694 0.018684 0.001861 -149061.000000 0 0 1
23.511998 14.347456 -14.762412 31.250477 0.547899 2.062797 0.020670 -0.002728 -81969.800000 0 0 1
24.642698 13.644256 -15.248812 32.030525 0.505667 2.066978 0.026517 -0.006738 333939.000000 0 0 1
25.372598 14.283456 -16.293112 33.365421 0.512730 2.080964 0.029213 -0.011395 -371048.000000 0 0 1
26.698888 13.549256 -16.560812 34.215105 0.469617 2.076040 0.040719 -0.011978 -183602.000000 0 0 1
26.557818 12.228456 -17.058712 33.850443 0.431507 2.098955 0.033641 -0.013674 -2414.440000 0 0 1
27.823838 11.653956 -17.283612 34.766419 0.396648 2.091090 0.038552 -0.012083 66818.100000 0 0 1
27.624478 10.245956 -17.919012 34.484524 0.355172 2.117208 0.039032 -0.004822 34350.800000 0 0 1
26.995058 10.376856 -19.193712 34.710385 0.366985 2.156718 0.026704 -0.009322 78840.900000 0 0 1
27.025618 9.260156 -20.072112 34.914527 0.330106 2.183270 0.019567 0.003666 -1004580.000000 0 0 1
28.360658 8.806956 -20.614312 36.150232 0.301093 2.177594 0.030992 -0.006376 -1226810.000000 0 0 1
28.701978 9.727156 -21.652712 37.245953 0.326754 2.191176 0.034749 -0.008478 257820.000000 0 0 1
29.335948 9.208156 -22.810812 38.284737 0.304147 2.209083 0.032221 -0.006054 784482.000000 0 0 1
30.840568 8.738056 -22.719512 39.289572 0.276094 2.187388 0.038299 -0.006651 366370.000000 0 0 1
31.767358 9.792056 -22.678412 40.241269 0.299002 2.169487 0.037239 -0.004470 -255959.000000 0 0 1
33.052878 9.216056 -22.741512 41.165578 0.271921 2.156085 0.034786 -0.001242 -241491.000000 0 0 1
34.207728 10.199556 -22.548012 42.220995 0.289773 2.134177 0.035534 -0.002442 -294754.000000 0 0 1
34.289818 10.803556 -21.237012 41.755468 0.305221 2.104359 0.030288 -0.007831 107849.000000 0 0 1
35.331338 11.745356 -21.210612 42.850284 0.320941 2.088624 0.005405 -0.000703 -288228.000000 0 0 1
35.268138 12.581756 -19.932012 42.419656 0.342672 2.059948 -0.000477 0.000337 -52003.900000 0 0 1
35.707214 11.789156 -18.789612 42.036161 0.318893 2.034190 0.012241 -0.003609 425074.000000 0 0 1
35.677535 12.681156 -17.688412 41.792082 0.341511 2.007824 0.004683 -0.004114 -245908.000000 0 0 1
-35.532010 11.858056 -16.417812 40.898433 -0.322106 1.983873 0.002356 -0.000743 -377973.000000 0 0 1
35.184298 10.739656 -16.160712 40.180140 0.296257 1.984722 0.003404 -0.003584 371607.000000 0 0 1
-35.753352 9.969256 -15.078612 40.063110 -0.271927 1.956673 -0.005226 -0.008326 373843.000000 0 0 1
35.048108 8.648356 -14.733412 38.990221 0.241924 1.958296 0.035141 -0.003926 -143274.000000 0 0 1
33.962508 8.841956 -13.859812 37.732301 0.254691 1.946922 0.041528 -0.003449 269756.000000 0 0 1
34.288468 8.592056 -12.520312 37.500409 0.245526 1.911204 0.037862 -0.003057 -365715.000000 0 0 1
33.137108 9.014256 -11.584812 36.242690 0.265602 1.896152 0.052035 -0.002964 -115482.000000 0 0 1
33.005558 10.415556 -11.466012 36.459842 0.305679 1.890709 0.044220 -0.004346 -53174.200000 0 0 1
32.050438 10.767256 -10.500612 35.403774 0.324101 1.871922 0.035773 -0.005195 -324516.000000 0 0 1
32.422978 10.472856 -9.042812 35.251988 0.312428 1.830216 0.054014 -0.008243 -243023.000000 0 0 1
33.403228 11.220856 -8.340812 36.211219 0.324078 1.803221 0.045969 -0.010634 197726.000000 0 0 1
33.091708 12.573856 -8.045512 36.302799 0.363121 1.794274 0.049715 -0.013455 -355085.000000 0 0 1
32.821118 12.892456 -6.593312 35.873569 0.374293 1.755640 0.050561 -0.019578 -161879.000000 0 0 1
34.077298 12.747056 -5.965912 36.869252 0.357949 1.733324 0.060365 -0.020725 571089.000000 0 0 1
33.882478 12.851156 -4.573112 36.525167 0.362523 1.696330 0.061958 -0.023204 146081.000000 0 0 1
35.285998 12.857656 -3.932412 37.760890 0.349431 1.675125 0.072787 -0.028253 -73574.900000 0 0 1
-35.612239 14.082256 -4.115312 38.515936 -0.376563 1.677848 0.072167 -0.022325 -1422810.000000 0 0 1
-34.280982 13.871156 -3.861212 37.182034 -0.384492 1.674830 0.067966 -0.031826 -966327.000000 0 0 1
-33.404098 15.136956 -3.701512 36.860038 -0.425468 1.671387 0.061075 -0.027466 149976.000000 0 0 1
-33.732358 15.911156 -2.598112 37.386990 -0.440743 1.640345 0.075723 -0.025191 164014.000000 0 0 1
-32.740858 16.908356 -2.388312 36.926418 -0.476705 1.635519 0.069497 -0.020344 70120.800000 0 0 1
-32.934718 17.949056 -1.296612 37.530594 -0.498988 1.605351 0.068611 -0.012751 -735261.000000 0 0 1
-34.052798 18.755356 -1.441512 38.902884 -0.503436 1.607859 0.049559 -0.006502 -431212.000000 0 0 1
-34.441037 19.415256 -0.268512 39.537442 -0.513319 1.577588 0.027364 -0.001464 -107880.000000 0 0 1
35.736313 20.155956 -0.263412 41.029453 0.513543 1.577216 0.017372 0.001506 210943.000000 0 0 1
35.712335 21.346056 -1.007712 41.617790 0.538743 1.595012 0.032146 0.004436 8746.660000 0 0 1
35.348298 21.096256 -2.332812 41.231010 0.538071 1.627406 0.007027 0.017431 -267260.000000 0 0 1
35.539664 22.327256 -3.238212 42.095844 0.560922 1.647797 0.034497 -0.014408 491272.000000 0 0 1
-34.628529 22.696456 -3.340612 41.538221 -0.580181 1.651306 0.046731 -0.002579 451683.000000 0 0 1
-34.448557 23.824856 -4.153512 42.090124 -0.605071 1.669639 0.042324 -0.009839 12125.800000 0 0 1
-32.988138 24.137456 -4.537912 41.126958 -0.631687 1.681361 0.030627 -0.019179 49610.100000 0 0 1
-32.456768 23.266156 -5.490312 40.310040 -0.621936 1.707423 0.009426 -0.004379 257948.000000 0 0 1
-31.155508 23.675656 -5.918512 39.575638 -0.649819 1.720909 0.021007 0.000553 522561.000000 0 0 1
-30.520798 22.867156 -7.051812 38.783424 -0.643009 1.753639 0.024254 -0.017397 187329.000000 0 0 1
-31.162018 23.028756 -8.360912 39.639624 -0.636424 1.783316 0.033911 -0.023545 375045.000000 0 0 1
-30.254768 22.698556 -9.400612 38.973670 -0.643659 1.814403 0.015924 -0.023251 507649.000000 0 0 1
-30.970938 22.457956 -10.777712 39.745665 -0.627393 1.845402 0.017907 -0.007651 176396.000000 0 0 1
-31.721408 23.567656 -11.221312 41.080409 -0.638979 1.847467 0.016578 -0.009360 248893.000000 0 0 1
-32.246298 23.405256 -12.569412 41.780616 -0.627850 1.876373 0.002692 -0.004104 147342.000000 0 0 1
-32.919598 24.721356 -13.088412 43.198980 -0.644116 1.878614 0.030010 -0.003181 423931.000000 0 0 1
-31.986018 25.783256 -13.245912 43.166374 -0.678437 1.882685 0.021157 -0.009794 70845.700000 0 0 1
-31.126488 25.651856 -14.371712 42.818478 -0.689274 1.913084 0.008082 -0.011611 879328.000000 0 0 1
-29.831548 26.585756 -14.139012 42.386735 -0.727930 1.910886 0.007664 -0.005493 1334960.000000 0 0 1
-28.725528 25.995356 -13.454212 41.011344 -0.735547 1.905046 0.011537 -0.010279 485346.000000 0 0 1
-28.930008 25.691556 -12.105812 40.540746 -0.726179 1.874031 0.023190 -0.006803 -772006.000000 0 0 1
-28.947938 26.853256 -11.064612 41.006171 -0.747877 1.844011 0.031053 -0.002886 -184880.000000 0 0 1
-27.775768 27.603456 -10.813812 40.624901 -0.782287 1.840231 0.022284 -0.005543 -202487.000000 0 0 1
-27.997238 28.541656 -9.787512 41.161473 -0.795027 1.810879 0.024639 -0.006173 308081.000000 0 0 1
-26.829498 29.525556 -9.501912 41.010569 -0.833202 1.804615 0.018373 -0.006211 250971.000000 0 0 1
-27.280048 30.717356 -8.856612 42.026141 -0.844595 1.783129 0.018074 -0.013117 -307174.000000 0 0 1
-26.224198 31.541356 -8.439612 41.878309 -0.877187 1.773713 0.020833 -0.016628 -849345.000000 0 0 1
34.410698 -25.143364 33.825537 54.410034 -0.631024 0.899913 0.015563 -0.010778 -274902.000000 0 0 1
33.965738 -23.815144 34.029727 53.654960 -0.611499 0.883781 0.015681 -0.018342 286212.000000 0 0 1
33.016638 -23.796844 -33.675182 52.824294 -0.624519 2.262038 0.022003 -0.013304 239211.000000 0 0 1
32.593178 -22.369044 -33.259502 51.661241 -0.601479 2.270250 0.018295 -0.015787 -174826.000000 0 0 1
31.864848 -21.702844 -34.223346 51.552104 -0.597922 2.296764 0.010215 -0.012752 -87901.600000 0 0 1
31.576598 -20.321744 -33.905232 50.592683 -0.571842 2.305222 0.008328 -0.011616 -6195.670000 0 0 1
31.186818 -19.522544 33.618309 49.839121 -0.559309 0.830460 0.006764 -0.006380 -691.600000 0 0 1
32.314498 -19.215244 32.822965 49.907909 -0.536463 0.853074 0.022770 -0.020509 209137.000000 0 0 1
32.038978 -18.774044 31.501221 48.695870 -0.530043 0.867288 0.022487 -0.011045 -497952.000000 0 0 1
33.364888 -18.813144 30.731621 49.107868 -0.513422 0.894642 0.007830 -0.010327 -212314.000000 0 0 1
34.192038 -17.740544 31.081811 49.496478 -0.478614 0.891867 -0.012305 -0.008107 424481.000000 0 0 1
35.235838 -17.513144 30.119191 49.552398 -0.461266 0.917478 -0.002391 -0.012900 385962.000000 0 0 1
-35.213140 -16.477344 30.505711 49.417269 0.437665 0.905479 -0.009169 -0.014813 -88752.200000 0 0 1
-34.227286 -16.440044 29.431201 48.041417 0.447780 0.911423 0.006191 -0.016170 747139.000000 0 0 1
-33.250818 -15.427444 29.681151 47.165598 0.434412 0.890149 0.007332 -0.014273 7198.030000 0 0 1
-32.068248 -16.020744 30.459701 47.040729 0.463314 0.866474 0.023321 -0.022431 -978291.000000 0 0 1
-31.183168 -15.054044 30.997471 46.474266 0.449762 0.840646 0.022116 -0.017844 297552.000000 0 0 1
-29.989208 -15.663144 31.457741 46.198227 0.481322 0.821765 0.029783 -0.021512 996176.000000 0 0 1
-28.949568 -14.668244 32.173541 45.698705 0.468979 0.789731 0.032215 -0.027530 673514.000000 0 0 1
-29.445248 -14.155044 33.390338 46.715121 0.448108 0.774508 0.039593 -0.032826 461646.000000 0 0 1
-28.693018 -13.010144 33.762521 46.178577 0.425699 0.750820 0.039474 -0.029478 76211.700000 0 0 1
-29.136968 -12.467344 -33.618372 46.201651 0.404314 2.385678 0.031660 -0.017779 -168838.000000 0 0 1
-28.925668 -13.451944 -32.623192 45.628081 0.435301 2.367393 0.047334 -0.015042 380139.000000 0 0 1
-28.954478 -12.861044 -31.356842 44.576000 0.418005 2.351032 0.052376 -0.009876 -532663.000000 0 0 1
-28.971528 -13.831844 -30.157152 44.046829 0.445428 2.324935 0.052093 -0.012678 -311939.000000 0 0 1
-30.187928 -14.525744 -30.179692 45.090155 0.448476 2.304088 0.050331 -0.012247 -286216.000000 0 0 1
-30.504898 -15.127944 -28.942822 44.688818 0.460377 2.275296 0.055462 -0.013810 770770.000000 0 0 1
-31.776108 -16.028944 -29.097042 45.970490 0.467188 2.256155 0.046230 -0.016906 284595.000000 0 0 1
-31.435818 -17.351844 -29.452472 46.440772 0.504360 2.257762 0.046888 -0.011505 342876.000000 0 0 1
-32.542008 -18.246444 -29.611382 47.631386 0.511024 2.241679 0.038695 -0.013377 -20820.500000 0 0 1
-32.268958 -19.665444 -30.197132 48.372328 0.547319 2.244986 0.046475 -0.018505 550990.000000 0 0 1
-33.467578 -20.342244 -30.651742 49.733439 0.546149 2.234858 0.020974 -0.021044 901642.000000 0 0 1
-33.144548 -21.525644 -31.382252 50.465436 0.575987 2.241907 0.015752 -0.023678 57072.400000 0 0 1
-34.388026 -22.423944 -31.591012 51.801174 0.577840 2.226669 0.023819 -0.024387 94382.100000 0 0 1
-34.952273 -22.819044 -30.340982 51.603734 0.578385 2.199332 0.032293 -0.027212 1677940.000000 0 0 1
35.393588 -23.697044 -30.508292 52.392861 -0.589982 2.192350 0.040559 -0.029024 1688460.000000 0 0 1
35.712776 -25.190534 -30.850002 53.494747 -0.614317 2.185470 0.037335 -0.022837 168082.000000 0 0 1
-35.179907 -25.363674 -32.110072 53.962937 0.624662 2.208111 0.044449 -0.022294 -18272.900000 0 0 1
-34.407196 -26.569304 -32.123872 54.052995 0.657560 2.207195 0.033595 -0.017399 232292.000000 0 0 1
-34.631235 -27.419754 -33.392892 55.373736 0.669699 2.218110 0.035341 -0.018539 767946.000000 0 0 1
35.591076 -27.991064 -33.375302 56.250646 -0.666432 2.205988 0.039719 -0.013148 213713.000000 0 0 1
35.366838 -29.159044 -34.099436 57.129980 -0.689487 2.210396 0.028608 -0.013763 -268838.000000 0 0 1
-35.546433 -30.478884 -33.687162 57.683067 0.708797 2.194449 0.035947 -0.013129 -601693.000000 0 0 1
35.419018 -31.056074 -32.558292 57.262806 -0.719859 2.175571 0.040897 -0.019418 -231707.000000 0 0 1
-35.195898 -31.589214 -31.612672 56.885769 0.731446 2.160027 0.029566 -0.025848 -207751.000000 0 0 1
35.746401 -32.000194 -30.266662 56.726435 -0.730157 2.133594 0.021797 -0.022513 -231331.000000 0 0 1
34.838308 -33.066684 -30.362022 56.823989 -0.759314 2.134496 0.027103 -0.017691 -100091.000000 0 0 1
34.424888 -33.522164 -29.086802 56.168056 -0.772113 2.115136 0.020184 -0.019001 -400701.000000 0 0 1
33.278948 34.237786 -29.156642 55.944831 0.799599 2.119015 0.016778 -0.022778 -49555.800000 0 0 1
32.072568 -33.992614 -29.714242 55.381257 -0.814453 2.137128 0.026665 -0.022482 162913.000000 0 0 1
31.018218 33.848900 -29.501402 54.572984 0.829009 2.141930 0.031821 -0.020646 160387.000000 0 0 1
29.684498 34.196792 -30.196832 54.428289 0.855917 2.158919 0.032819 -0.013370 16331.200000 0 0 1
29.557648 33.847984 -31.590762 54.930109 0.852960 2.183533 0.032776 -0.009138 -90370.000000 0 0 1
28.257908 34.130943 -32.068342 54.697433 0.879258 2.197263 0.031704 0.000609 40380.800000 0 0 1
27.899818 33.692057 -33.461322 55.074628 0.879165 2.223785 0.033724 -0.002372 23248.600000 0 0 1
27.769888 32.290372 -33.398102 54.122713 0.860522 2.235824 0.024502 -0.003318 -17890.600000 0 0 1
27.479178 31.651792 34.131330 54.054499 0.855847 0.887408 0.028711 0.003660 65362.600000 0 0 1
27.504068 30.130302 34.309142 53.305029 0.830934 0.871554 0.026399 -0.010647 63169.900000 0 0 1
28.822988 29.593102 34.381309 53.745611 0.798581 0.876683 0.030588 -0.008909 39615.600000 0 0 1
28.797118 28.221392 -34.146542 52.836610 0.775301 2.273478 0.028523 -0.010872 268684.000000 0 0 1
30.187278 27.580802 -33.971962 53.160762 0.740309 2.264049 0.048623 -0.009130 157945.000000 0 0 1
30.954408 27.870132 -32.827772 53.033784 0.733014 2.238262 0.053170 -0.008288 62.941100 0 0 1
32.138258 27.096302 -32.749682 53.288075 0.700484 2.232647 0.057077 -0.009655 272802.000000 0 0 1
32.937978 27.276742 -31.432362 53.074706 0.691656 2.204618 0.046696 -0.008449 -49257.400000 0 0 1
33.714758 28.480612 -31.234752 54.068844 0.701439 2.186686 0.033956 -0.003654 530972.000000 0 0 1
33.021618 29.730242 -31.067262 54.217058 0.732996 2.180978 0.024432 -0.005675 508398.000000 0 0 1
31.889358 29.930142 -30.014442 53.043485 0.753716 2.172255 0.026333 -0.003060 597925.000000 0 0 1
32.453498 30.250672 -28.747822 52.865584 0.750282 2.145744 0.014944 -0.000714 425221.000000 0 0 1
31.412968 30.506382 -27.803112 51.869326 0.770758 2.136514 0.019464 -0.001008 38541.400000 0 0 1
31.919788 30.909232 -26.415862 51.691888 0.769315 2.107173 0.022709 -0.001967 -146437.000000 0 0 1
32.319998 32.244732 -26.375102 52.725241 0.784232 2.094668 0.014909 -0.005573 -12641.900000 0 0 1
32.695458 32.610652 -25.065212 52.542483 0.784100 2.068088 0.006329 -0.011510 -391.954000 0 0 1
33.168828 34.087841 -25.083262 53.771016 0.799062 2.056107 0.014694 -0.014841 90069.500000 0 0 1
32.096028 -33.803104 -25.444112 53.105628 -0.811297 2.070451 0.029352 -0.007979 411454.000000 0 0 1
32.255608 -32.453634 -25.020712 52.150730 -0.788458 2.071197 0.031270 -0.017962 -803796.000000 0 0 1
32.623008 -31.473474 -26.157512 52.335988 -0.767466 2.094164 0.027438 -0.020728 588014.000000 0 0 1
33.945808 -31.658254 -26.657222 53.527287 -0.750543 2.092101 0.019303 -0.022145 437165.000000 0 0 1
34.994508 -31.001794 -25.948472 53.470085 -0.724973 2.077491 0.017936 -0.018510 13422.100000 0 0 1
-35.166665 -31.428104 -26.545022 54.120775 0.729318 2.083434 0.005326 -0.011939 50398.200000 0 0 1
-34.937849 -32.817324 -26.252042 54.651622 0.754112 2.071853 0.010228 -0.015802 -370427.000000 0 0 1
-34.837561 -33.236434 -24.897212 54.205050 0.761882 2.048021 0.011953 -0.009550 265521.000000 0 0 1
-33.568818 -32.823754 -24.019312 52.737006 0.774177 2.043679 0.000854 -0.005992 929415.000000 0 0 1
-33.444378 -31.418174 -23.847912 51.714128 0.754170 2.050086 -0.023113 -0.005420 -144973.000000 0 0 1
-32.708118 -31.025224 -22.685612 50.468035 0.758999 2.037007 0.002599 -0.009883 -130056.000000 0 0 1
-32.466988 -29.488994 -22.654512 49.365302 0.737369 2.047571 0.006754 -0.001675 217113.000000 0 0 1
-33.561618 -28.562374 -22.685412 49.566313 0.705099 2.046178 0.000885 -0.002934 -111296.000000 0 0 1
-33.820518 -28.180884 -24.033012 50.155512 0.694688 2.070505 0.000015 -0.005311 -595853.000000 0 0 1
-35.081515 -27.431044 -24.408512 50.783367 0.663621 2.072181 0.001236 -0.012452 -452640.000000 0 0 1
-35.075416 -26.086094 -24.012912 49.873731 0.639466 2.073132 0.000770 -0.011882 462758.000000 0 0 1
35.579406 -25.343944 -24.928912 50.295728 -0.618947 2.089376 0.004508 -0.012439 821872.000000 0 0 1
-35.326811 -24.965044 -26.331312 50.641633 0.615201 2.117593 0.016893 -0.024534 380787.000000 0 0 1
-34.276495 -23.993944 -26.241122 49.388095 0.610734 2.130960 0.011382 -0.023814 139506.000000 0 0 1
-33.870118 -23.548144 -27.500482 49.577984 0.607530 2.158788 0.022341 -0.027031 -444220.000000 0 0 1
-32.764268 -22.501344 -27.426852 48.291200 0.601788 2.174806 0.027072 -0.032096 -452384.000000 0 0 1
-33.157908 -21.321344 -26.704732 47.615011 0.571456 2.166205 0.024502 -0.017994 294620.000000 0 0 1
-34.137877 -20.445744 -27.286012 48.248830 0.539623 2.171868 0.024598 -0.018399 -293700.000000 0 0 1
-35.343327 -20.172344 -26.398252 48.507133 0.518637 2.146248 0.021763 -0.021510 -655998.000000 0 0 1
-35.194057 -19.594944 -25.096382 47.459582 0.508025 2.127976 0.012705 -0.024487 -152835.000000 0 0 1
-34.461850 -20.435644 -24.138212 46.774865 0.535252 2.113030 0.012353 -0.023986 100466.000000 0 0 1
-35.039361 -21.805944 -23.614412 47.548885 0.556675 2.090513 0.015046 -0.004683 743395.000000 0 0 1
35.443238 -21.414744 -22.698512 47.223266 -0.543501 2.072208 0.010335 0.004060 357990.000000 0 0 1
34.936848 -22.524044 -21.927812 46.997286 -0.572646 2.056212 0.015536 0.009275 56237.600000 0 0 1
34.066378 -21.940144 -20.761912 45.529606 -0.572175 2.044302 0.000566 0.011873 -166827.000000 0 0 1
32.816328 -21.498944 -21.248312 44.616216 -0.579973 2.067177 0.007672 0.010381 416050.000000 0 0 1
31.728588 -21.769744 -20.341412 43.524684 -0.601352 2.057091 0.012596 0.009488 702838.000000 0 0 1
30.324128 -21.319944 -20.755212 42.483780 -0.612783 2.081217 -0.002199 0.019944 -442408.000000 0 0 1
29.773068 -22.116844 -21.836912 43.039994 -0.638908 2.102919 -0.002148 0.023145 963697.000000 0 0 1
28.535468 -21.645744 -22.415512 42.252412 -0.648954 2.130004 0.015475 0.020684 822498.000000 0 0 1
28.594448 -20.353544 -23.306712 42.132079 -0.618602 2.156976 -0.003114 0.012038 -226876.000000 0 0 1
29.056408 -19.132544 -22.661712 41.519661 -0.582301 2.148148 -0.008905 0.020396 199336.000000 0 0 1
29.215168 -18.086144 -23.613712 41.692230 -0.554321 2.172905 -0.027581 0.011806 -539496.000000 0 0 1
29.783018 -16.743844 -23.045612 41.212677 -0.512157 2.164202 -0.035560 0.017845 -71321.400000 0 0 1
28.866238 -16.017044 -22.197212 39.780920 -0.506575 2.162754 -0.044571 0.004023 312512.000000 0 0 1
29.439118 -15.232944 -21.154012 39.321705 -0.477501 2.138827 -0.053432 -0.002117 -530087.000000 0 0 1
30.267838 -16.011844 -20.099612 39.705359 -0.486582 2.101591 -0.032296 -0.001834 283796.000000 0 0 1
31.485488 -16.506644 -20.625812 41.100236 -0.482868 2.096523 -0.034088 0.001238 -118704.000000 0 0 1
32.195458 -17.287444 -19.687812 41.509194 -0.492771 2.064965 -0.015438 0.014795 -92505.100000 0 0 1
33.416708 -18.029944 -20.273212 43.043680 -0.494784 2.061211 0.001123 0.002849 124942.000000 0 0 1
34.469628 -17.142044 -20.602812 43.663266 -0.461492 2.062192 -0.003828 -0.000900 -19971.000000 0 0 1
35.396768 -17.812944 -21.433212 45.051246 -0.466233 2.066615 0.009557 0.000652 891111.000000 0 0 1
-35.004032 -16.872544 -22.042112 44.674598 0.449158 2.086782 0.021718 -0.005959 1196650.000000 0 0 1
-34.122093 -16.275244 -21.071812 43.280736 0.445055 2.079292 0.036001 -0.008540 96910.600000 0 0 1
-33.368648 -15.262644 -21.665912 42.612519 0.428986 2.104169 0.053505 -0.010673 -436408.000000 0 0 1
-32.108078 -14.811944 -20.865812 41.057332 0.432224 2.103903 0.059680 -0.007955 966503.000000 0 0 1
-30.954548 -15.676844 -20.882712 40.497348 0.468792 2.112570 0.069579 -0.016582 731152.000000 0 0 1
-31.154278 -16.914644 -20.228712 40.815377 0.497400 2.089339 0.059784 -0.013281 -183781.000000 0 0 1
-30.075548 -18.029944 -20.540012 40.638770 0.540043 2.100675 0.048389 -0.017032 373027.000000 0 0 1
-30.215008 -19.233444 -19.817812 40.934311 0.566864 2.076173 0.037863 -0.011791 -813802.000000 0 0 1
-29.095788 -20.011444 -19.805812 40.488183 0.602476 2.081940 0.049790 -0.019365 -973246.000000 0 0 1
-29.463078 -21.442544 -19.355812 41.261400 0.629126 2.059070 0.032959 -0.002378 -211610.000000 0 0 1
-30.208008 -22.186044 -20.284712 42.617061 0.633470 2.066870 0.028625 -0.001526 9136.040000 0 0 1
-30.632918 -23.400444 -19.746912 43.311627 0.652337 2.044209 0.011002 0.006285 -223863.000000 0 0 1
-31.669308 -24.111744 -20.614212 44.824848 0.650732 2.048660 -0.002663 0.009607 -322279.000000 0 0 1
-31.141058 -24.451644 -21.849212 45.222080 0.665645 2.075049 -0.000798 -0.003204 201477.000000 0 0 1
-32.112748 -25.101644 -22.635812 46.622968 0.663465 2.077740 0.003261 -0.003013 19770.200000 0 0 1
-31.809418 -24.842744 -24.110312 47.013915 0.663040 2.109278 0.006456 -0.003754 -278482.000000 0 0 1
-30.647778 -25.474884 -24.563312 46.814659 0.693487 2.123150 0.010312 -0.007920 -427061.000000 0 0 1
-30.605398 -25.660824 -25.992392 47.652626 0.697745 2.147729 0.016511 -0.003809 554098.000000 0 0 1
-29.186308 -26.063694 -26.529402 47.275426 0.728940 2.166591 0.018723 -0.004367 582401.000000 0 0 1
-28.277768 -24.991644 -26.449862 46.084809 0.723787 2.182104 0.026302 -0.015209 400827.000000 0 0 1
-26.938238 -25.470524 -26.670212 45.669645 0.757400 2.194421 0.021266 -0.007790 1151820.000000 0 0 1
-25.903728 -24.317444 -26.835762 44.525267 0.753823 2.217688 0.029828 -0.009818 175239.000000 0 0 1
-25.973908 -23.634644 -28.095842 44.973511 0.738279 2.245569 0.033463 -0.017172 -30049.000000 0 0 1
-24.837618 -22.812044 -28.194122 43.956856 0.742914 2.267124 0.044580 -0.021275 -3248.580000 0 0 1
-24.597518 -22.159644 -29.569562 44.389714 0.733306 2.299811 0.019710 -0.012805 -58285.000000 0 0 1
-24.093618 -23.080844 -30.539072 45.231214 0.763933 2.312001 0.015825 -0.013304 200379.000000 0 0 1
-23.853518 -22.525444 -31.803412 45.692921 0.756771 2.340643 0.019293 -0.008789 -59026.600000 0 0 1
-23.165418 -23.516644 -32.789202 46.527421 0.792922 2.352837 0.025620 -0.013683 -48825.500000 0 0 1
-24.100018 -24.532644 -33.080182 47.717502 0.794294 2.336786 0.018270 -0.012349 -91631.700000 0 0 1
-23.699618 -25.463244 -34.068052 48.689638 0.821256 2.345771 0.015382 -0.003353 -251903.000000 0 0 1
-18.885318 -14.532644 -11.876312 26.625172 0.655878 2.033150 0.027730 0.019058 99834.600000 0 0 1
-19.355118 -14.095644 -10.590912 26.181581 0.629445 1.987248 0.028884 0.013839 413587.000000 0 0 1
-18.664218 -14.822844 -9.580412 25.687624 0.671185 1.952992 0.007756 0.002439 49542.000000 0 0 1
-19.109318 -14.256244 -8.224612 25.220047 0.640959 1.902986 0.025177 -0.011599 676705.000000 0 0 1
-20.385918 -14.657444 -7.692512 26.260257 0.623363 1.868090 0.050411 -0.014458 866036.000000 0 0 1
-20.716218 -13.967644 -6.461312 25.807079 0.593225 1.823858 0.037290 -0.028453 63512.200000 0 0 1
-21.942618 -14.451644 -5.656912 26.876182 0.582405 1.782863 0.047773 -0.030961 -507782.000000 0 0 1
-21.927218 -15.802244 -5.208912 27.525381 0.624463 1.761185 0.036030 -0.027522 308560.000000 0 0 1
-20.898818 -16.204044 -4.314012 26.794446 0.659533 1.732504 0.030726 -0.024585 -169420.000000 0 0 1
-20.965218 -17.685844 -3.837912 27.695831 0.700755 1.709817 0.012623 -0.017262 -309167.000000 0 0 1
-22.056418 -18.020744 -3.026612 28.642507 0.685039 1.676663 0.022237 -0.018285 41549.500000 0 0 1
-21.784918 -19.269544 -2.339312 29.178252 0.724205 1.651056 0.011560 -0.006853 -182383.000000 0 0 1
-23.048018 -20.065844 -1.961612 30.621842 0.716338 1.634899 0.020621 -0.017721 -325070.000000 0 0 1
-23.499218 -20.658044 -3.165612 31.448198 0.721145 1.671628 -0.004649 -0.009802 213420.000000 0 0 1
-24.449918 -21.682444 -2.854112 32.803549 0.725480 1.657913 0.008063 -0.007472 95648.700000 0 0 1
-24.434418 -22.866644 -3.819812 33.682565 0.752266 1.684447 0.011292 -0.008401 -273135.000000 0 0 1
-23.215218 -23.565244 -3.826512 33.300290 0.792880 1.685960 -0.002316 -0.004521 -314681.000000 0 0 1
-23.064118 -24.255944 -5.026712 33.846303 0.810579 1.719864 -0.002469 0.003954 -1051860.000000 0 0 1
-21.670218 -24.384844 -5.629412 33.104520 0.844273 1.741676 -0.007602 0.010823 -479665.000000 0 0 1
-21.244018 -23.191944 -6.267312 32.069515 0.829207 1.767491 -0.017916 0.016233 102712.000000 0 0 1
-20.686518 -22.240544 -5.385612 30.847669 0.821584 1.746283 -0.022069 0.016361 -821916.000000 0 0 1
-20.776218 -20.771044 -5.922812 29.969438 0.785274 1.769734 -0.016623 0.016701 -432000.000000 0 0 1
-19.766018 -20.512044 -6.843212 29.296228 0.803918 1.806561 -0.025479 0.018588 -356303.000000 0 0 1
-20.124318 -19.366444 -7.578912 28.939372 0.766209 1.835776 -0.028025 0.017619 550945.000000 0 0 1
-19.008718 -18.868644 -8.568212 28.120657 0.781700 1.880414 -0.010610 0.006769 127030.000000 0 0 1
-18.992218 -19.583644 -9.784312 28.981999 0.800728 1.915162 -0.017531 0.012693 -508091.000000 0 0 1
-17.734118 -19.674044 -10.367512 28.443844 0.837210 1.943882 0.027690 0.012332 -367467.000000 0 0 1
-17.012218 -18.461544 -10.999112 27.408478 0.826232 1.983736 0.022172 0.011030 -180619.000000 0 0 1
-16.632618 -17.318444 -10.210612 26.092702 0.805596 1.972863 0.024315 0.003549 33131.000000 0 0 1
-15.533318 -17.501744 -9.357412 25.202305 0.844914 1.951196 0.032785 -0.006244 -588610.000000 0 0 1
-15.475518 -16.379544 -8.309812 24.017371 0.813770 1.924092 0.025126 -0.003542 -87208.100000 0 1 0
-16.444818 -16.412544 -7.288212 24.349983 0.784416 1.874767 0.025268 -0.003483 381129.000000 0 1 0
-16.106918 -15.311744 -6.403012 23.127492 0.760095 1.851318 0.007681 -0.009533 -296137.000000 0 1 0
-16.768818 -15.481244 -5.021212 23.368243 0.745495 1.787358 0.005453 -0.008294 -120823.000000 0 1 0
-17.173118 -14.212044 -4.500212 22.740935 0.691330 1.770002 0.007678 -0.009340 165061.000000 0 1 0
-17.598118 -14.425144 -3.166212 22.973973 0.686637 1.709054 0.007999 -0.014288 -278970.000000 0 1 0
-18.414018 -13.318244 -2.478612 22.860342 0.626171 1.679434 0.012597 -0.011124 -656035.000000 0 1 0
-19.688018 -13.128844 -3.013412 23.855089 0.588126 1.697456 0.028850 -0.023067 -602614.000000 0 1 0
-20.386218 -12.274344 -2.177812 23.895612 0.541955 1.662062 0.028513 -0.017622 138442.000000 0 1 0
-21.898618 -12.401344 -2.582512 25.298462 0.515277 1.673056 0.034578 -0.017807 347403.000000 0 0 1
-22.362318 -11.688744 -3.706812 25.503735 0.481641 1.716657 0.041493 -0.026706 620110.000000 0 0 1
-23.754118 -11.950444 -3.875612 26.871763 0.466116 1.715527 0.038932 -0.024563 318024.000000 0 0 1
-24.365218 -11.272944 -5.127912 27.332007 0.433336 1.759530 0.050825 -0.027215 -156874.000000 0 0 1
-23.932818 -11.869844 -6.272312 27.441117 0.460415 1.801408 0.052652 -0.032780 292152.000000 0 0 1
-24.552118 -11.179744 -7.374712 27.967473 0.427292 1.837641 0.063334 -0.029476 -33780.400000 0 0 1
-23.810218 -11.418044 -8.719912 27.808903 0.447149 1.889742 0.084308 -0.027700 364716.000000 0 0 1
-22.460718 -11.010044 -8.779712 26.510154 0.455770 1.908353 0.073215 -0.026750 -91456.600000 0 0 1
-21.718018 -11.519244 -9.837012 26.478899 0.487671 1.951425 0.049315 -0.014551 361385.000000 0 0 1
-20.364418 -10.735044 -9.936812 25.073710 0.485129 1.978284 0.048196 -0.007368 298296.000000 0 0 1
-20.498918 -9.383444 -10.402612 24.828794 0.429283 2.003111 0.053482 -0.010836 333767.000000 0 1 0
-19.307918 -8.683144 -10.129612 23.469166 0.422621 2.017077 0.047366 -0.003370 -132823.000000 0 1 0
-19.215718 -7.294544 -10.768612 23.203819 0.362809 2.053401 0.032742 -0.003332 -94442.300000 0 1 0
-18.848118 -7.325944 -12.157712 23.595147 0.370712 2.112111 0.052964 -0.009641 335217.000000 0 1 0
-18.552018 -6.091644 -12.685712 23.285463 0.317263 2.146936 0.046092 -0.020865 -412229.000000 0 1 0
-17.948618 -6.190344 -14.053612 23.621542 0.332118 2.207998 0.041010 -0.011437 -198316.000000 0 1 0
-18.824118 -6.554844 -15.121112 25.019221 0.335084 2.219783 0.058793 -0.023431 613719.000000 0 0 1
-18.099918 -6.551444 -16.350212 25.255849 0.347290 2.274942 0.047945 -0.025494 -380550.000000 0 0 1
-18.684618 -7.449344 -17.461912 26.636930 0.379375 2.285711 0.046612 -0.027103 539718.000000 0 0 1
-19.917618 -6.912444 -18.000812 27.722241 0.334046 2.277496 0.052911 -0.033556 943559.000000 0 0 1
-20.415118 -7.812344 -18.954912 28.932654 0.365482 2.285163 0.063111 -0.034577 -867452.000000 0 0 1
-21.794518 -7.431444 -19.456912 30.146290 0.328615 2.272365 0.052976 -0.031880 -2001400.000000 0 0 1
-21.877118 -6.240144 -20.140212 30.383809 0.277858 2.295428 0.047498 -0.032421 -307484.000000 0 0 1
-23.001418 -6.125544 -20.950612 31.709867 0.260271 2.292543 0.033431 -0.028316 289287.000000 0 0 1
-24.371518 -6.039944 -20.186612 32.217249 0.242933 2.247951 0.062027 -0.027390 -541256.000000 0 0 1
-24.550018 -4.762744 -19.640012 31.798069 0.191621 2.236545 0.056029 -0.026285 -171748.000000 0 0 1
-25.744358 -4.739244 -18.915912 32.296194 0.182050 2.196541 0.071253 -0.020139 -526451.000000 0 0 1
-25.886728 -3.256844 -18.337612 31.890402 0.125154 2.183425 0.060146 -0.020234 72611.100000 0 0 1
-26.248148 -2.196144 -19.236212 32.616256 0.083474 2.201575 0.061002 -0.012942 986863.000000 0 0 1
-27.569918 -2.251744 -19.810412 34.023862 0.081493 2.192290 0.064656 -0.006904 769445.000000 0 0 1
-27.892858 -1.040644 -20.733412 34.770229 0.037291 2.209678 0.054740 -0.008498 -105736.000000 0 0 1
-27.078808 -1.036944 -21.900112 34.841814 0.038275 2.250495 0.047189 -0.002092 245857.000000 0 0 1
-27.581678 -1.827244 -22.998112 35.958322 0.066152 2.264744 0.047429 0.001350 -21650.900000 0 0 1
-26.836308 -1.706944 -24.367712 36.288931 0.063520 2.307016 0.044911 -0.003347 -425188.000000 0 0 1
-27.043708 -0.471644 -25.081982 36.887537 0.017438 2.318502 0.038635 -0.001649 247857.000000 0 0 1
-26.576788 0.786156 -24.570912 36.203224 -0.029572 2.316779 0.022852 0.001997 -178356.000000 0 0 1
-25.094988 0.981156 -24.203812 34.879014 -0.039078 2.337738 0.024072 -0.000711 -79514.200000 0 0 1
-24.216418 0.947056 -25.305552 35.038590 -0.039088 2.377802 0.014939 -0.001044 32449.200000 0 0 1
-22.847418 1.071656 -24.975212 33.866121 -0.046871 2.400111 0.012083 -0.003351 154019.000000 0 0 1
-21.971018 0.545256 -26.149082 34.158417 -0.024812 2.442651 0.007478 -0.011018 -304544.000000 0 0 1
-21.934118 1.316056 -27.324532 35.063765 -0.059929 2.464314 -0.008059 0.002246 -238151.000000 0 0 1
-21.245618 0.657956 -28.311522 35.402704 -0.030959 2.497591 -0.002786 0.002228 -342272.000000 0 0 1
-21.097318 1.460856 -29.608872 36.385660 -0.069133 2.521374 -0.010493 0.007210 -390876.000000 0 0 1
-20.076718 2.424956 -29.493552 35.760658 -0.120202 2.540554 0.000544 0.009180 184295.000000 0 0 1
-20.098118 3.341656 -30.516722 36.692933 -0.164760 2.552920 -0.008410 0.004530 -530288.000000 0 0 1
-19.607318 2.895456 -31.859752 37.521652 -0.146613 2.585081 -0.008598 0.006041 -1848600.000000 0 0 1
-18.227918 2.832556 -31.815412 36.776362 -0.154164 2.616156 -0.009882 0.007107 -1029600.000000 0 0 1
-17.696718 2.233056 -32.982592 37.496823 -0.125521 2.645839 -0.008785 0.010720 -912523.000000 0 0 1
-16.203218 2.093856 -33.049022 36.866874 -0.128512 2.682471 -0.002515 0.001053 -895856.000000 0 0 1
-15.478118 3.299356 -33.067782 36.659734 -0.210019 2.695220 0.000523 0.003101 -435815.000000 0 0 1
-14.092618 3.134456 -33.167062 36.172928 -0.218856 2.731046 0.004077 0.004184 -78384.900000 0 0 1
-13.286218 4.461756 -33.322592 36.150048 -0.323985 2.743457 0.014927 0.002337 -217788.000000 0 0 1
-13.334618 5.334456 -32.215952 35.272312 -0.380546 2.722232 0.019337 -0.013041 257071.000000 0 0 1
-12.675518 6.524456 -32.662582 35.638203 -0.475361 2.730050 0.043145 -0.007042 -79975.100000 0 0 1
-12.440418 7.500356 -31.453762 34.646190 -0.542551 2.708939 0.050531 -0.017044 769523.000000 0 0 1
-11.201118 7.231156 -30.751342 33.517155 -0.573258 2.732496 0.067414 -0.027060 1076790.000000 0 0 1
-11.367918 6.151756 -29.827172 32.507443 -0.496024 2.732668 0.066467 -0.028110 -246797.000000 0 0 1
-10.073818 5.355156 -29.561532 31.686648 -0.488600 2.773272 0.076914 -0.031251 -29298.600000 0 0 1
-9.517918 4.517656 -30.601652 32.364503 -0.443161 2.810019 0.065371 -0.031807 444731.000000 0 0 1
-10.338318 3.409356 -30.869012 32.732254 -0.318548 2.802558 0.063667 -0.024505 -185090.000000 0 0 1
-9.815418 2.525456 -32.068382 33.631852 -0.251832 2.835480 0.053853 -0.018408 121623.000000 0 0 1
-10.678818 1.441556 -32.354932 34.102153 -0.134181 2.820101 0.053171 -0.012636 526932.000000 0 0 1
-10.179818 0.635256 -33.449512 34.970017 -0.062323 2.845623 0.045919 -0.006803 -220960.000000 0 0 1
-10.473918 1.174856 33.882810 35.484194 -0.111703 0.301573 0.034584 -0.005221 -1199650.000000 0 0 1
-11.790618 1.043956 33.527791 35.555889 -0.088311 0.339383 0.013978 -0.000983 -1326610.000000 0 0 1
-11.982918 1.306256 32.173201 34.357117 -0.108581 0.358470 0.004245 -0.001926 119058.000000 0 0 1
-13.416418 1.040656 31.628121 34.371809 -0.077411 0.402266 -0.002289 0.002408 -51696.100000 0 0 1
-14.216418 2.130956 31.851531 34.945207 -0.148786 0.423951 -0.006428 0.014928 -839143.000000 0 0 1
-15.562618 1.813056 31.659611 35.324400 -0.115978 0.459547 -0.010279 0.013438 -429646.000000 0 0 1
-16.623318 2.895756 31.532501 35.763371 -0.172468 0.491347 0.001107 0.022098 -309525.000000 0 0 1
-16.904818 3.737356 32.624461 36.933672 -0.217582 0.487886 -0.004294 0.011913 435238.000000 0 0 1
-16.036418 4.879856 32.671911 36.721022 -0.295396 0.474036 -0.014696 0.011600 -343912.000000 0 0 1
-16.323418 5.806856 33.911665 38.081157 -0.341777 0.472331 -0.023496 0.004497 386663.000000 0 0 1
-17.655518 6.335956 33.864464 38.712576 -0.344551 0.505843 -0.005320 0.000733 405335.000000 0 0 1
-18.539918 5.578156 -34.108227 39.220091 -0.292257 2.625314 -0.004337 0.000510 -718894.000000 0 0 1
-19.968318 6.109856 -34.052872 39.945740 -0.296932 2.591504 -0.003469 -0.001819 -367086.000000 0 0 1
-20.341118 7.437156 -33.576322 39.955497 -0.350523 2.568712 0.006038 -0.009416 180636.000000 0 0 1
-19.897818 8.474156 34.381333 40.617860 -0.402619 0.561498 -0.016461 -0.004651 -590869.000000 0 0 1
-20.373118 9.840556 -33.858422 40.722147 -0.449969 2.552508 0.000447 0.005310 -216688.000000 0 0 1
-19.744618 10.263056 -32.608152 39.477485 -0.479354 2.542759 0.009913 -0.003452 404131.000000 0 0 1
-19.540918 11.644156 -32.434482 39.616025 -0.537389 2.529977 0.009994 -0.007027 491547.000000 0 0 1
-18.528118 12.386156 -33.393482 40.147636 -0.589275 2.553080 -0.003185 -0.014092 -70122.100000 0 0 1
-19.009318 12.431656 34.065329 40.943215 -0.579166 0.588068 0.004591 -0.013033 -10224.500000 0 0 1
-18.077718 12.816356 33.087024 39.822280 -0.616713 0.590132 -0.001909 -0.011467 -219570.000000 0 0 1
-18.551218 12.362656 31.730421 38.778893 -0.587823 0.612454 0.025366 -0.015356 -196170.000000 0 0 1
-18.796618 11.010056 31.492701 38.292615 -0.529873 0.605140 0.010117 0.001923 -316251.000000 0 0 1
-17.714418 10.131556 31.453881 37.493941 -0.519530 0.575527 0.007718 -0.000317 -437318.000000 0 0 1
-18.212118 8.674856 31.486771 37.394533 -0.444527 0.569788 0.005084 0.000981 -16353.900000 0 0 1
-18.782218 8.220956 30.256991 36.549163 -0.412577 0.595544 0.010998 0.002242 195938.000000 0 0 1
-18.904418 6.806456 30.197691 36.271275 -0.345596 0.587099 0.007822 -0.001569 -373100.000000 0 0 1
-19.354318 6.240656 28.867991 35.311419 -0.311917 0.613695 0.012579 0.000505 816035.000000 0 0 1
-20.763418 6.490956 28.673871 35.992262 -0.302990 0.649035 0.034388 -0.004306 1089670.000000 0 0 1
-21.374018 5.535256 27.768601 35.476512 -0.253404 0.671753 0.035043 -0.002907 405357.000000 0 0 1
-22.879118 5.840056 27.555391 36.288564 -0.249920 0.708497 0.041584 -0.002138 136514.000000 0 0 1
-23.070318 6.698856 26.448761 35.730256 -0.282596 0.737378 0.044214 0.001279 325375.000000 0 0 1
-24.456918 6.947956 26.303401 36.582562 -0.276797 0.768413 0.040052 -0.003631 57606.800000 0 0 1
-24.944818 7.453056 24.908251 36.030722 -0.290339 0.807502 0.039345 -0.006177 -234013.000000 0 0 1
-24.974018 6.598956 23.779201 35.109802 -0.258329 0.826736 0.024526 -0.002736 690109.000000 0 0 1
-26.025228 5.627956 23.746251 35.677315 -0.212971 0.842520 0.023031 0.001196 11118.100000 0 0 1
-26.046918 4.889256 22.406751 34.704600 -0.185550 0.868933 0.019552 0.008891 147161.000000 0 0 1
-26.665008 5.712856 21.394651 34.661080 -0.211055 0.905550 0.013409 0.006617 200979.000000 0 0 1
-26.679738 4.955656 20.165151 33.808287 -0.183653 0.931718 0.015275 0.005340 -351839.000000 0 0 1
-27.488438 5.488056 19.003751 33.865551 -0.197059 0.975018 0.036206 -0.005664 282272.000000 0 0 1
-28.864328 5.678056 19.321851 35.195506 -0.194235 0.989645 0.050708 -0.008065 151220.000000 0 0 1
-29.663938 6.061956 18.240751 35.347157 -0.201579 1.028568 0.064899 -0.004748 308553.000000 0 0 1
-31.170658 6.022356 18.653251 36.821495 -0.190854 1.039576 0.067515 -0.006355 320029.000000 0 0 1
-31.430438 7.037356 19.566251 37.686005 -0.220270 1.024892 0.064340 -0.018890 -87431.400000 0 0 1
-32.705688 6.830356 20.128951 39.006287 -0.205884 1.028571 0.077046 -0.018571 -35496.800000 0 0 1
-33.125168 7.938856 21.163651 40.102398 -0.235226 1.014858 0.083763 -0.014152 -41024.700000 0 0 1
-32.514388 7.922656 22.405751 40.273708 -0.239009 0.980825 0.057937 -0.013116 154644.000000 0 0 1
-33.178678 8.865856 23.266851 41.482218 -0.261115 0.975339 0.065055 -0.003793 306872.000000 0 0 1
-0.287818 32.139456 11.478088 34.128785 -1.561841 1.227793 0.035775 -0.000724 -199124.000000 0 0 1
-0.531218 32.490956 12.835288 34.938360 -1.554448 1.194617 0.022934 -0.003285 -59535.300000 0 0 1
-0.230118 33.846456 13.056388 36.278158 -1.563998 1.202639 0.019342 -0.007385 -364822.000000 0 0 1
-0.102718 34.155456 14.535988 37.120084 -1.567789 1.168433 0.007852 0.006472 -378750.000000 0 0 1
-1.223518 34.062956 15.361088 37.386428 -1.534892 1.147384 0.013213 0.016711 -610873.000000 0 0 1
-0.859818 34.360856 16.657288 38.195195 -1.545778 1.119525 0.004725 0.001422 537184.000000 0 0 1
-2.061018 -34.193381 17.640888 38.530975 1.510594 1.095236 0.005731 0.006380 297884.000000 0 0 1
-2.831718 33.438856 18.010488 38.086131 -1.486314 1.078230 0.002725 0.005419 -200045.000000 0 0 1
-3.485718 33.641556 19.230188 38.906357 -1.467551 1.053803 0.006638 -0.000562 361580.000000 0 0 1
-4.623418 32.597456 19.533388 38.282155 -1.429902 1.035323 0.004655 -0.005758 -5010.000000 0 0 1
-5.761318 32.726956 18.765488 38.162677 -1.396540 1.056728 0.005893 -0.009422 -92228.300000 0 0 1
-6.833918 31.914856 19.265688 37.900227 -1.359852 1.037556 0.018838 -0.025735 503828.000000 0 0 1
-8.053618 31.728156 18.329888 37.516948 -1.322214 1.060339 0.004616 -0.032631 -445746.000000 0 0 1
-8.689018 32.924256 18.129688 38.577082 -1.312770 1.081551 0.027465 -0.035166 -485642.000000 0 0 1
-9.294618 33.041656 16.866788 38.244339 -1.296583 1.114054 0.041799 -0.023337 208554.000000 0 0 1
-10.267818 34.280856 16.719688 39.498774 -1.279780 1.133716 0.095329 -0.034909 810752.000000 0 0 1
-11.552218 34.067556 17.297288 39.915514 -1.243867 1.122592 0.086289 -0.032322 155600.000000 0 0 1
-12.447118 -33.724881 16.822188 39.689852 1.217227 1.133114 0.072102 -0.035747 42338.600000 0 0 1
-13.878718 -33.760681 17.411488 40.442086 1.180765 1.125718 0.098794 -0.035694 232634.000000 0 0 1
-13.934418 -33.415381 18.767488 40.779582 1.175716 1.092556 0.085202 -0.026176 -70433.400000 0 0 1
-15.211418 -33.662881 19.313988 41.684613 1.146384 1.089040 0.076762 -0.032749 106216.000000 0 0 1
-15.261618 -33.273781 20.741388 42.074537 1.140758 1.055299 0.068590 -0.040378 -90524.600000 0 0 1
-15.160518 -31.840181 20.978788 41.033499 1.126415 1.034146 0.069462 -0.032494 97144.700000 0 0 1
-14.980318 -31.603781 22.356288 41.509186 1.128161 1.002038 0.045178 -0.012328 174831.000000 0 0 1
-14.717418 -30.111381 22.682888 40.469879 1.116176 0.975821 0.059340 -0.018272 16906.700000 0 0 1
-14.923318 -29.767481 24.007388 41.050737 1.106086 0.946135 0.050041 -0.012549 -187306.000000 0 0 1
-14.625118 -28.382881 24.251588 40.095156 1.095000 0.921218 0.045338 0.000321 287029.000000 0 0 1
-15.810618 -27.394081 24.004988 39.707062 1.047344 0.921593 0.053602 -0.000216 -258689.000000 0 0 1
-16.877618 -27.609381 24.849888 40.800109 1.022109 0.915916 0.055400 0.003526 -701930.000000 0 0 1
-17.914518 -26.696381 24.583388 40.471838 0.979768 0.917988 0.046585 0.005208 -322889.000000 0 0 1
-19.012918 -26.549581 25.733888 41.576488 0.949328 0.903387 0.048013 0.005953 978646.000000 0 0 1
-19.927218 -27.644981 25.910288 42.809836 0.946230 0.920727 0.062979 0.005960 563024.000000 0 0 1
-20.654718 -28.086381 24.785588 42.776016 0.936705 0.952771 0.055457 0.006306 -625741.000000 0 0 1
-22.055818 -27.455581 24.607388 42.962677 0.894030 0.960925 0.041906 0.006350 -121753.000000 0 0 1
-22.168218 -26.289081 23.794188 41.817569 0.870235 0.965507 0.056972 0.004525 -504850.000000 0 0 1
-23.500218 -26.056481 23.483788 42.221899 0.836935 0.980991 0.055606 0.003712 -595501.000000 0 0 1
-24.011118 -24.609081 23.184288 41.468686 0.797696 0.977521 0.049765 0.017529 70708.100000 0 0 1
-24.168418 -23.870281 24.415588 41.833285 0.779192 0.947592 0.037336 0.014976 103820.000000 0 0 1
-24.848518 -22.668481 24.207088 41.440222 0.739551 0.946970 0.025281 0.021425 22814.400000 0 0 1
-25.410578 -21.914281 25.431688 42.103491 0.711653 0.922251 0.029100 0.019868 315705.000000 0 0 1
-26.529108 -22.493181 26.089188 43.478529 0.703255 0.927236 0.026792 0.021313 426695.000000 0 0 1
-26.906408 -21.910881 27.346388 44.179933 0.683422 0.903356 0.013716 0.012263 -992566.000000 0 0 1
-28.300748 -22.316181 27.850188 45.547528 0.667712 0.912900 0.010001 0.008652 -130605.000000 0 0 1
-29.307928 -21.480281 27.237488 45.411870 0.632478 0.927560 0.010653 0.011572 568027.000000 0 0 1
-29.811538 -21.962881 26.024088 45.258691 0.634950 0.958183 0.010347 0.016612 114533.000000 0 0 1
-31.042518 -22.958681 26.134988 46.623777 0.636804 0.975746 0.004862 0.015658 360244.000000 0 0 1
-31.664908 -23.258981 24.914988 46.523147 0.633530 1.005650 -0.004410 0.016378 171486.000000 0 0 1
-31.268728 -24.551681 24.398088 46.645312 0.665641 1.020364 -0.011904 0.014836 17606.900000 0 0 1
-31.960418 -25.034481 23.066488 46.693216 0.664473 1.054111 -0.006965 0.011378 326951.000000 0 0 1
-33.161408 -25.788081 23.086288 47.934130 0.660966 1.068288 -0.006387 0.014795 73059.700000 0 0 1
-33.424818 -26.353381 21.812288 47.827765 0.667651 1.097234 0.000293 0.019291 418182.000000 0 0 1
-34.787451 -27.081381 21.547788 49.070104 0.661481 1.116175 0.000797 0.008915 142715.000000 0 0 1
-34.932901 -28.322181 22.223888 50.163281 0.681267 1.111820 0.002146 0.004638 153400.000000 0 0 1
-34.048528 -29.381381 21.915488 50.028556 0.711951 1.117357 -0.001809 -0.004390 -755416.000000 0 0 1
-34.584791 -30.319781 20.855288 50.500891 0.719780 1.145085 0.009719 0.001858 -250125.000000 0 0 1
-34.488123 -29.785981 19.532188 49.579650 0.712371 1.165865 0.000542 0.005636 456249.000000 0 0 1
-34.968791 -30.724581 18.583088 50.121326 0.720881 1.190967 -0.002658 0.015685 -325561.000000 0 0 1
-35.228183 -30.152681 17.132688 49.434179 0.707924 1.216878 0.003223 0.023675 -289696.000000 0 0 1
-34.048148 -29.911881 16.394588 48.195223 0.720819 1.223698 0.014262 0.006620 68898.900000 0 0 1
-34.249553 -29.218081 15.139888 47.496783 0.706287 1.246380 0.019373 0.000449 -220107.000000 0 0 1
-34.877354 -30.047881 14.004688 48.118981 0.711150 1.275480 0.009325 0.002940 63794.200000 0 0 1
-34.055028 -31.144581 13.637788 48.121920 0.740789 1.283458 0.011295 -0.001277 137768.000000 0 0 1
-34.645593 -32.116681 12.771688 48.937862 0.747537 1.306762 0.015887 -0.001458 -24304.300000 0 0 1
-34.873120 -31.598581 11.300788 48.397445 0.736176 1.335121 0.013470 -0.002681 810650.000000 0 0 1
35.499534 -30.771681 11.151988 48.285403 -0.714178 1.337732 0.025401 0.001831 778683.000000 0 0 1
35.676392 -29.892881 10.067288 47.620789 -0.697421 1.357784 0.019809 -0.006587 -43558.800000 0 0 1
34.553788 -28.864781 10.009288 46.122941 -0.695932 1.352043 0.043383 0.005245 41702.300000 0 0 1
34.957668 -27.791181 9.127088 45.581707 -0.671682 1.369198 0.043239 -0.034976 690190.000000 0 0 1
33.831758 -26.968881 8.795088 44.150447 -0.672999 1.370247 0.039881 -0.024355 402561.000000 0 0 1
34.014758 -25.874381 7.749888 43.434412 -0.650302 1.391408 0.030853 -0.027501 -262286.000000 0 0 1
34.738968 -24.800581 8.207688 43.465283 -0.620002 1.380823 0.039140 -0.034498 -370955.000000 0 0 1
34.963868 -23.910581 7.148488 42.956825 -0.599815 1.403608 0.041588 -0.040200 -81653.200000 0 0 1
35.394168 -22.459981 7.478288 42.580778 -0.565450 1.394255 0.047299 -0.045352 -1123710.000000 0 0 1
34.405028 -21.741181 8.132788 41.503339 -0.563559 1.373565 0.039775 -0.032642 -721363.000000 0 0 1
34.491068 -20.292581 7.941688 40.798199 -0.531804 1.374888 0.048504 -0.032794 -109024.000000 0 0 1
33.611098 -19.515681 8.940488 39.881074 -0.526057 1.344696 0.066530 -0.024827 7380.110000 0 0 1
34.067348 -19.647981 10.253588 40.641893 -0.523140 1.315749 0.054342 -0.030133 -371414.000000 0 0 1
33.191178 -18.973581 11.140488 39.821622 -0.519309 1.287252 0.052700 -0.020936 -32951.300000 0 0 1
33.692698 -18.975781 12.589888 40.666736 -0.512922 1.256038 0.055910 -0.027769 -67568.000000 0 0 1
34.828948 -18.183981 12.836488 41.333863 -0.481166 1.255018 0.033493 -0.019512 218202.000000 0 0 1
35.349328 -18.401681 14.158788 42.292649 -0.479965 1.229423 0.030949 -0.007954 1002150.000000 0 0 1
-34.794128 -17.768381 14.536088 41.685064 0.472149 1.214600 0.034653 -0.016464 1730940.000000 0 0 1
-33.606788 -18.250781 13.860088 40.676889 0.497506 1.223096 0.030769 -0.019435 1419650.000000 0 0 1
-32.466538 -17.544881 14.381988 39.607329 0.495442 1.199188 0.014410 -0.014039 930311.000000 0 0 1
-31.182658 -17.562481 13.492688 38.247242 0.512931 1.210261 0.037204 -0.015974 433628.000000 0 0 1
-30.620168 -18.866181 13.386988 38.376281 0.552200 1.214469 0.030914 -0.014841 246833.000000 0 0 1
-29.565838 -18.817981 12.431088 37.185846 0.566810 1.229938 -0.002244 -0.001027 481478.000000 0 0 1
-28.754398 -20.126781 12.173788 37.149749 0.610696 1.236933 -0.004140 -0.005900 63359.300000 0 0 1
-29.523688 -21.010881 11.392688 37.985506 0.618510 1.266185 0.011397 -0.005916 -94950.600000 0 0 1
-28.706768 -21.820281 10.547288 37.569249 0.649940 1.286229 0.008171 -0.001553 53155.400000 0 0 1
-29.440038 -22.771881 9.504488 38.413666 0.658373 1.320775 0.018378 -0.011902 405216.000000 0 0 1
-30.062348 -23.925781 10.039188 39.711120 0.672219 1.315218 0.025208 -0.015470 10832.300000 0 0 1
-31.268218 -23.799581 10.765488 40.743310 0.650594 1.303394 0.038904 -0.023185 -361733.000000 0 0 1
-31.986758 -25.165681 10.749888 42.095419 0.666611 1.312566 0.050463 -0.026573 -177950.000000 0 0 1
-32.482948 -25.385181 9.418888 42.287880 0.663354 1.346180 0.051861 -0.022347 -189210.000000 0 0 1
-33.178308 -26.598081 9.436388 43.558047 0.675759 1.352426 0.054746 -0.021089 -103981.000000 0 0 1
-33.217578 -27.379181 8.094688 43.801268 0.689346 1.384923 0.048802 -0.021966 -552.106000 0 0 1
-31.973518 -27.829381 7.620988 43.068083 0.716212 1.392908 0.039879 -0.016353 -307720.000000 0 0 1
-32.148878 -28.713981 6.495788 43.591723 0.729021 1.421225 0.032081 -0.015509 1025760.000000 0 0 1
-30.811708 -29.056681 5.706588 42.734263 0.756092 1.436860 0.040114 -0.010516 1258950.000000 0 0 1
-30.178178 -27.918881 5.106288 41.427775 0.746529 1.447224 0.039598 -0.003875 -96132.400000 0 0 1
-28.886598 -28.219181 4.636788 40.647971 0.773711 1.456476 0.033582 -0.008173 437622.000000 0 0 1
-28.149068 -27.019081 3.877188 39.210118 0.764918 1.471752 0.028677 -0.005008 419429.000000 0 0 1
-28.726218 -26.779681 2.605088 39.359032 0.750344 1.504560 0.042974 -0.006306 -100075.000000 0 0 1
-28.217028 -25.579681 2.086188 38.142797 0.736413 1.516075 0.035000 -0.010752 -163996.000000 0 0 1
-28.715418 -25.135381 0.638788 38.167665 0.719015 1.554059 0.039805 -0.011443 -297195.000000 0 0 1
-28.308438 -25.926481 -0.482312 38.389878 0.741507 1.583360 0.035593 -0.010541 -135993.000000 0 0 1
-28.377588 -25.184981 -1.726212 37.980924 0.725863 1.616261 0.046299 -0.013345 426477.000000 0 0 1
-29.835128 -24.831781 -2.153812 38.876614 0.694128 1.626226 0.059825 -0.013040 -81926.100000 0 0 1
-30.448128 -23.811281 -1.496112 38.682089 0.663686 1.609483 0.052632 -0.012436 -378490.000000 0 0 1
-31.581648 -23.467681 -2.292012 39.413017 0.639057 1.628983 0.068985 -0.019722 107319.000000 0 0 1
-32.146528 -22.081281 -1.945612 39.048274 0.601876 1.620643 0.058802 -0.018319 -181687.000000 0 0 1
-32.753148 -22.033481 -0.653012 39.479988 0.592177 1.587337 0.055911 -0.016784 178214.000000 0 0 1
-33.629088 -20.940681 -0.528612 39.619530 0.556940 1.584139 0.060288 -0.021297 -324204.000000 0 0 1
-33.827628 -20.634281 0.966188 39.636038 0.547728 1.546417 0.057735 -0.026067 -140779.000000 0 0 1
-34.544860 -21.568581 1.752088 40.762984 0.558142 1.527801 0.055086 -0.031367 202805.000000 0 0 1
-34.522986 -21.197681 3.085988 40.628827 0.550662 1.494767 0.061261 -0.031168 23097.900000 0 0 1
-35.601075 -21.990281 3.921688 42.028427 0.553322 1.477350 0.071808 -0.027231 1094410.000000 0 0 1
34.577128 -21.835681 3.569488 41.050164 -0.563264 1.483732 0.056710 -0.027687 356784.000000 0 0 1
33.908448 -20.650381 4.019488 39.904603 -0.547014 1.469898 0.052434 -0.032882 783328.000000 0 0 1
32.706268 -20.201281 3.070588 38.564494 -0.553302 1.491090 0.049094 -0.019036 1511870.000000 0 0 1
31.559498 -21.084281 3.121188 38.082682 -0.588981 1.488746 0.045722 -0.015200 728459.000000 0 0 1
30.459318 -20.460481 2.415688 36.772774 -0.591501 1.505057 0.035725 -0.019950 242228.000000 0 0 1
29.194158 -21.274981 2.647888 36.220643 -0.629756 1.497627 0.023695 -0.002658 -542542.000000 0 0 1
29.248808 -22.544481 2.020088 36.984147 -0.656670 1.516149 0.004958 -0.002929 189117.000000 0 0 1
28.077058 -23.277181 2.393688 36.549666 -0.692203 1.505258 -0.003735 0.008028 542792.000000 0 0 1
27.797528 -24.472281 1.463788 37.063969 -0.721867 1.531292 -0.000651 0.012517 -169610.000000 0 0 1
27.212208 -24.186081 0.222388 36.407695 -0.726590 1.564688 0.000736 0.006825 -121402.000000 0 0 1
27.061408 -25.344881 -0.541012 37.080662 -0.752656 1.585387 0.006500 0.003831 76564.900000 0 0 1
25.944798 -25.286781 -1.641112 36.266336 -0.772555 1.616063 0.016293 -0.002250 -64073.600000 0 0 1
26.292998 -24.417981 -2.717212 35.985314 -0.748440 1.646377 0.015740 -0.013081 78037.700000 0 0 1
26.983388 -25.000381 -3.791312 36.979675 -0.747270 1.673501 0.025808 -0.021995 -810558.000000 0 0 1
26.137298 -25.609681 -4.929812 36.923125 -0.775202 1.704712 0.029868 -0.022046 7689.570000 0 0 1
25.465998 -24.704281 -5.806612 35.951847 -0.770217 1.733018 0.030888 -0.032338 806046.000000 0 0 1
24.210398 -24.240681 -5.310712 34.669261 -0.786023 1.724584 0.028697 -0.028352 -371908.000000 0 0 1
23.605598 -23.269581 -6.277012 33.735716 -0.778230 1.757951 0.031446 -0.034550 -425105.000000 0 0 1
23.152098 -23.808481 -7.503512 34.046529 -0.799375 1.793011 0.049260 -0.039133 143076.000000 0 0 1
22.102998 -23.163081 -8.166212 33.041759 -0.808813 1.820532 0.042755 -0.038559 -368257.000000 0 0 1
22.429298 -21.792181 -8.757812 32.475712 -0.770992 1.843849 0.039180 -0.036345 -443520.000000 0 0 1
23.176098 -21.833381 -9.968612 33.364671 -0.755575 1.874208 0.048141 -0.036774 280391.000000 0 0 1
22.817598 -20.717381 -10.775012 32.648944 -0.737193 1.907128 0.040892 -0.034509 30870.800000 0 0 1
23.734198 -20.588081 -12.009812 33.636540 -0.714534 1.935900 0.036011 -0.032260 -865342.000000 0 0 1
25.071898 -20.394981 -11.763912 34.393967 -0.682894 1.919877 0.044139 -0.034507 -713652.000000 0 0 1
25.756498 -20.030081 -12.984112 35.116784 -0.660977 1.949526 0.042079 -0.039034 8308.710000 0 0 1
27.257158 -20.320381 -13.135812 36.447498 -0.640619 1.939497 0.037939 -0.031283 -199954.000000 0 0 1
27.467368 -21.690681 -13.381412 37.470043 -0.668422 1.935982 0.033911 -0.030758 143600.000000 0 0 1
28.013708 -22.349881 -12.280812 37.882758 -0.673410 1.900941 0.040251 -0.033140 -515127.000000 0 0 1
28.256238 -23.831381 -12.610212 39.055949 -0.700651 1.899563 0.024827 -0.021465 218975.000000 0 0 1
29.327178 -23.995581 -13.571112 40.249800 -0.685742 1.914708 0.019983 -0.021168 800855.000000 0 0 1
29.526858 -25.372181 -13.915012 41.342599 -0.709864 1.914077 0.032414 -0.011130 -113458.000000 0 0 1
-3.733218 -9.103244 -27.762972 29.454857 1.181616 2.801010 0.006581 0.002408 181144.000000 0 0 1
-3.749018 -7.907044 -27.077832 28.456730 1.128053 2.829015 0.007819 0.007426 -43604.100000 0 0 1
-4.465118 -6.916644 -27.786722 28.980669 0.997548 2.853551 0.011752 0.007628 -65218.600000 0 0 1
-4.518718 -5.525044 -27.058602 27.984154 0.885259 2.883685 0.006532 0.002179 201686.000000 0 0 1
-5.388018 -5.503844 -25.910322 27.030868 0.796032 2.852650 0.006220 0.005072 611451.000000 0 0 1
-5.091618 -4.301544 -25.200502 26.067090 0.701484 2.883018 0.012422 -0.003865 140204.000000 0 0 1
-5.457718 -4.382544 -23.693712 24.705978 0.676567 2.854346 0.010903 -0.003857 -24855.000000 0 1 0
-4.779118 -5.382244 -22.904312 24.008666 0.844683 2.837109 0.006430 -0.004648 356963.000000 0 1 0
-5.207618 -5.305844 -21.567912 22.813288 0.794741 2.809647 0.009890 -0.005376 -178390.000000 0 1 0
-4.609318 -6.361844 -20.639712 22.084306 0.943799 2.777893 0.011836 -0.011575 -394318.000000 0 1 0
-5.289718 -7.576344 -20.616212 22.592262 0.961287 2.720234 0.016196 -0.011358 128775.000000 0 1 0
-4.434818 -8.668644 -20.263012 22.481162 1.097917 2.693634 0.014069 -0.006697 -842460.000000 0 1 0
-5.127418 -10.047544 -20.313812 23.235630 1.098930 2.634691 0.023397 0.001269 846154.000000 0 1 0
-6.212418 -10.273244 -19.364812 22.784416 1.026915 2.586620 0.027977 -0.004153 716159.000000 0 1 0
-7.382018 -9.606944 -19.821512 23.231012 0.915620 2.592953 0.024935 -0.006049 -569358.000000 0 1 0
-8.531118 -9.638844 -18.750112 22.743219 0.846287 2.539984 0.026474 -0.006118 -69383.700000 0 1 0
-9.094718 -10.877044 -18.601312 23.388732 0.874405 2.490316 0.038919 -0.009966 -311691.000000 0 1 0
-9.710718 -10.948844 -17.336712 22.687812 0.845257 2.440507 0.029918 -0.013894 162544.000000 0 1 0
-10.712618 -12.164244 -17.224612 23.651983 0.848767 2.386565 0.028571 -0.015190 76182.200000 0 1 0
-11.804018 -12.097744 -18.104012 24.767832 0.797686 2.390507 0.035410 -0.025475 -186139.000000 0 1 0
-11.527218 -12.565544 -19.413612 25.839079 0.828469 2.420868 0.036862 -0.026465 -2016720.000000 0 0 1
-12.573118 -12.252244 -20.448512 26.950741 0.772474 2.432168 0.022863 -0.028640 699850.000000 0 0 1
-13.744018 -13.107444 -20.524112 27.963231 0.761695 2.394942 0.018689 -0.022815 721792.000000 0 0 1
-14.542218 -13.231444 -19.354712 27.588985 0.738238 2.348349 0.026367 -0.020423 -1447610.000000 0 0 1
-15.638118 -14.227544 -19.717512 28.909411 0.738203 2.321351 0.024906 -0.019187 -474306.000000 0 0 1
-15.154818 -15.522644 -19.960312 29.479401 0.797388 2.314602 0.031001 -0.015198 -214372.000000 0 0 1
-15.825318 -16.052444 -21.056812 30.846572 0.792523 2.322153 0.046256 -0.016772 -110976.000000 0 0 1
-15.483018 -17.496244 -21.335012 31.638982 0.846368 2.310849 0.013710 -0.008767 -283610.000000 0 0 1
-16.022418 -18.427844 -20.420012 31.832063 0.855108 2.267238 0.023242 0.000176 45112.300000 0 0 1
-15.598418 -19.728944 -20.758812 32.610890 0.901791 2.260827 0.015401 0.005206 -486821.000000 0 0 1
-16.213718 -20.902244 -20.046312 33.191009 0.911054 2.219267 0.021789 -0.003841 -513932.000000 0 0 1
-15.645618 -22.091044 -20.475412 33.941746 0.954566 2.218368 0.025380 0.000245 291423.000000 0 0 1
-16.386318 -23.242844 -20.001312 34.767711 0.956719 2.183748 0.049860 -0.010074 368796.000000 0 0 1
-15.725118 -24.574744 -20.442012 35.624055 1.001562 2.181966 0.051631 -0.006247 88078.300000 0 0 1
-16.068318 -24.901544 -21.784212 36.780833 0.997751 2.204670 0.038202 -0.006785 235244.000000 0 0 1
-15.463618 -26.119554 -22.173712 37.590266 1.036256 2.201705 0.043777 -0.003768 -126081.000000 0 0 1
-15.585118 -26.493284 -23.628112 38.769546 1.039049 2.226163 0.046155 -0.010860 -38227.300000 0 0 1
-16.809118 -27.122544 -23.968312 39.908130 1.015983 2.215032 0.059022 -0.008863 72164.000000 0 0 1
-16.827718 -28.541504 -23.872612 40.837375 1.038068 2.195156 0.060375 -0.007392 44533.300000 0 0 1
-18.012618 -29.136134 -24.682312 42.220673 1.017085 2.195186 0.059489 -0.008679 -24757.500000 0 0 1
-17.848218 -29.219054 -26.114912 43.061591 1.022443 2.222391 0.058095 -0.006469 150641.000000 0 0 1
-18.020418 -28.048804 -26.932882 42.858500 0.999735 2.250309 0.069150 -0.016667 -420183.000000 0 0 1
-16.750318 -27.852934 -27.731782 42.724827 1.029360 2.277169 0.072653 -0.016296 -594686.000000 0 0 1
-16.734418 -28.505964 -28.949982 43.940098 1.039954 2.290087 0.065157 -0.006259 49843.000000 0 0 1
-15.528718 -28.387284 -29.682312 43.909209 1.070236 2.313108 0.039445 0.001980 -61065.700000 0 0 1
-15.690718 -28.531804 -31.216382 45.107926 1.068001 2.335104 0.047264 -0.000069 -93697.700000 0 0 1
-15.846218 -29.823604 -31.648182 46.283447 1.082399 2.323741 0.041738 -0.004053 52271.400000 0 0 1
-16.309918 -29.861464 -32.951742 47.365998 1.070886 2.340167 0.043440 -0.001525 -196366.000000 0 0 1
-16.280718 -31.261874 -33.587872 48.687901 1.090659 2.332093 0.050292 -0.000750 453331.000000 0 0 1
-15.033518 -31.614104 -34.176819 48.923545 1.126914 2.344202 0.058034 -0.000450 58932.200000 0 0 1
-15.198918 -32.686524 33.660388 49.319750 1.135547 0.819628 0.056755 0.001208 506804.000000 0 0 1
-13.872218 -33.087634 32.940440 48.706289 1.173800 0.828058 0.061054 -0.001366 621466.000000 0 0 1
-12.969918 -33.831904 33.738936 49.508912 1.204713 0.821024 0.057920 0.007170 -111852.000000 0 0 1
-11.856918 -34.203645 32.950285 48.950967 1.237103 0.832365 0.065951 0.006651 48536.400000 0 0 1
-10.863918 33.617547 33.714340 48.834628 -1.258228 0.808785 0.056465 0.009024 91193.600000 0 0 1
-10.109818 -34.309016 -34.185655 49.477025 1.284237 2.333585 0.059127 0.001653 -548835.000000 0 0 1
-9.336018 33.655232 -33.288012 48.248602 -1.300199 2.332184 0.050387 0.001039 58923.400000 0 0 1
-8.631718 -34.300013 -32.185342 47.821478 1.324262 2.309096 0.038845 0.002840 -281025.000000 0 0 1
-9.510118 -33.705034 -31.277782 46.954993 1.295788 2.299794 0.048759 -0.002728 -384159.000000 0 0 1
-8.949918 -32.570224 -30.641322 45.604947 1.302627 2.307548 0.039539 -0.007759 -22463.100000 0 0 1
-9.995118 -31.783074 -29.758492 44.672520 1.266109 2.299828 0.045801 -0.013431 565171.000000 0 0 1
-10.124218 -32.133114 -28.372272 44.045688 1.265571 2.270715 0.058626 -0.005654 -67587.200000 0 0 1
-10.739518 -33.411364 -28.209622 45.027095 1.259794 2.247855 0.057325 -0.005932 -238065.000000 0 0 1
-11.062118 -33.789104 -26.774322 44.507734 1.254407 2.216256 0.053502 -0.007605 605427.000000 0 0 1
-9.915718 -33.941344 -25.917822 43.841417 1.286564 2.203308 0.037723 -0.004641 436313.000000 0 0 1
-10.344118 -33.958544 -24.551512 43.162023 1.275115 2.175869 0.034373 -0.012546 92931.500000 0 0 1
-9.216918 -34.128426 -23.518912 42.459867 1.307023 2.157849 0.045360 -0.016987 -198566.000000 0 0 1
-8.648418 33.310493 -23.555012 41.703989 -1.316774 2.171005 0.026857 -0.012296 337578.000000 0 0 1
-7.811518 33.129541 -22.386212 40.739770 -1.339239 2.152553 0.040308 -0.008285 132288.000000 0 0 1
-7.107218 31.766732 -22.327812 39.473650 -1.350690 2.172004 0.035016 -0.012707 -704531.000000 0 0 1
-5.882418 31.679442 -22.982712 39.577708 -1.387202 2.190383 0.018086 -0.018486 -606187.000000 0 0 1
-5.358518 30.358062 -22.897712 38.400923 -1.396085 2.209656 0.005475 -0.014213 1106710.000000 0 0 1
-3.796018 30.236222 -23.175712 38.285148 -1.445904 2.220995 0.019830 -0.022640 1339720.000000 0 0 1
-3.366518 30.546162 -24.485412 39.292962 -1.461028 2.243560 0.032206 -0.023013 13038.900000 0 0 1
-3.402618 31.909662 -24.815012 40.565862 -1.464565 2.229031 0.043739 -0.026754 -641823.000000 0 0 1
-3.083518 32.142222 -26.275032 41.629411 -1.475155 2.253851 0.025788 -0.007605 817616.000000 0 0 1
-1.897518 32.856985 -26.711852 42.387558 -1.513110 2.252583 0.043969 -0.017569 889585.000000 0 0 1
-2.171318 34.231167 -26.874642 43.574463 -1.507450 2.235406 0.054906 -0.012109 -316845.000000 0 0 1
-1.070918 -33.619474 -27.456722 43.419898 1.538953 2.255384 0.032865 -0.002375 -987697.000000 0 0 1
0.030182 -33.508484 -26.629942 42.801557 -1.569896 2.242311 0.061420 -0.009266 -1054200.000000 0 0 1
0.837282 -32.529154 -27.214362 42.420142 -1.545063 2.267305 0.035530 0.003070 -274850.000000 0 0 1
2.072982 -32.172894 -26.353792 41.640302 -1.506453 2.256078 0.041618 0.000295 -169922.000000 0 0 1
1.780182 -31.643584 -25.022312 40.380708 -1.514598 2.239106 0.044301 0.001704 500070.000000 0 0 1
2.870682 -30.803514 -24.626112 39.541658 -1.477871 2.243099 0.022626 0.003088 240091.000000 0 0 1
2.729082 -30.118084 -23.239512 38.139505 -1.480430 2.226011 0.025652 0.002556 -292437.000000 0 0 1
2.860382 -31.008314 -22.184212 38.233972 -1.478811 2.189798 0.033287 0.000218 440574.000000 0 0 1
3.047582 -30.271654 -20.976612 36.955095 -1.470460 2.174414 0.024510 0.005071 -292663.000000 0 0 1
3.114982 -31.130964 -19.665112 36.953439 -1.471068 2.131945 0.024143 0.004885 -887741.000000 0 0 1
1.932182 -31.768784 -19.327312 37.236192 -1.510051 2.116531 0.026944 0.003660 -388601.000000 0 0 1
1.786682 -33.084604 -19.850012 38.623908 -1.516845 2.110557 0.036885 0.005961 -110021.000000 0 0 1
2.253582 -34.230601 -18.822412 39.129220 -1.505056 2.072628 0.024189 -0.003116 850989.000000 0 0 1
3.681282 -34.349889 -18.821112 39.340831 -1.464034 2.069641 0.018402 -0.001650 611277.000000 0 0 1
4.131582 33.262176 -18.077112 38.081811 1.447217 2.065410 0.031130 -0.020202 224376.000000 0 0 1
5.302682 32.482432 -18.704812 37.856266 1.408976 2.087597 0.034199 -0.009250 838800.000000 0 0 1
6.510082 33.274350 -18.742912 38.740938 1.377588 2.075789 0.054979 -0.010814 327453.000000 0 0 1
7.536982 32.573772 -19.419812 38.665047 1.343416 2.097004 0.043368 -0.022087 -543096.000000 0 0 1
8.809882 33.387188 -19.549212 39.679844 1.312807 2.085956 0.035111 -0.026803 -507967.000000 0 0 1
9.513782 33.499407 -18.307012 39.342967 1.294084 2.054791 0.025712 -0.017232 -1035330.000000 0 0 1
10.784782 33.976466 -18.512112 40.167276 1.263436 2.049778 0.023500 -0.007431 -972080.000000 0 0 1
11.583682 34.027112 -17.189712 39.843598 1.242677 2.016873 0.008148 -0.000406 65436.800000 0 0 1
12.124082 32.785795 -16.683612 38.732992 1.216595 2.016102 0.013342 -0.006531 91283.100000 0 0 1
12.983882 33.065836 -15.582012 38.790847 1.196627 1.984161 0.009772 -0.014799 -12642.700000 0 0 1
14.107582 32.037302 -15.554312 38.305995 1.155997 1.988928 0.015593 -0.009057 -209722.000000 0 0 1
13.810982 30.888972 -14.812312 36.936113 1.150343 1.983432 0.034702 -0.009176 -436709.000000 0 0 1
14.915582 30.022782 -14.857112 36.668458 1.109705 1.987966 0.039934 -0.011355 -64534.500000 0 0 1
14.858382 28.767962 -13.967812 35.262827 1.094043 1.978068 0.049678 -0.022935 -474448.000000 0 0 1
14.926582 29.051882 -12.566112 34.996027 1.096177 1.938070 0.051162 -0.027931 577632.000000 0 0 1
13.665082 29.135852 -11.870012 34.300576 1.132244 1.924163 0.052952 -0.028237 749491.000000 0 0 1
12.993182 27.749832 -11.613912 32.768261 1.132890 1.933096 0.048014 -0.030355 -847082.000000 0 0 1
12.193482 27.270042 -12.673812 32.449372 1.150325 1.972049 0.040251 -0.031153 -81510.700000 0 0 1
11.625582 26.005842 -12.450712 31.088233 1.150409 1.982854 0.055576 -0.031374 307838.000000 0 0 1
10.655182 25.785952 -11.257012 30.086019 1.178949 1.954288 0.056282 -0.031843 -599805.000000 0 0 1
9.368182 26.352802 -11.252412 30.147136 1.229238 1.953306 0.031750 -0.026896 11019.800000 0 0 1
8.872982 26.443622 -9.904312 29.598824 1.247058 1.911997 0.015956 -0.016449 -607619.000000 0 0 1
7.866082 27.561912 -9.793912 30.289519 1.292790 1.900057 0.024098 -0.011162 -483818.000000 0 0 1
8.372882 28.865752 -9.960712 31.663111 1.288481 1.890815 0.028424 -0.022578 -414117.000000 0 0 1
7.335182 29.802262 -10.072012 32.302092 1.329465 1.887890 0.015682 -0.017751 -199782.000000 0 0 1
7.772182 31.201042 -10.595512 33.855232 1.326665 1.889110 0.037045 -0.014612 1016.660000 0 0 1
8.598282 31.926432 -9.671512 34.449466 1.307723 1.855366 0.034756 -0.010507 -72587.700000 0 0 1
8.994282 33.247549 -10.118812 35.898287 1.306596 1.856544 0.036947 -0.008677 -90448.000000 0 0 1
10.082482 33.273464 -11.232612 36.536987 1.276572 1.883289 0.033220 -0.011475 -1078390.000000 0 0 1
11.357582 33.202587 -10.681512 36.681074 1.241204 1.866277 0.040273 -0.008307 -1235790.000000 0 0 1
12.199582 33.315069 -11.797312 37.388504 1.219773 1.891815 0.038979 -0.012720 -588916.000000 0 0 1
13.658582 32.962591 -11.502312 37.488565 1.177967 1.882648 0.050386 -0.014619 -290367.000000 0 0 1
14.295282 33.737726 -10.536512 38.126202 1.170012 1.850800 0.055003 -0.009608 738927.000000 0 0 1
15.731382 33.625829 -10.646812 38.620298 1.133209 1.850093 0.052080 -0.016858 741105.000000 0 0 1
16.458482 -34.165280 -9.713212 39.147088 -1.121870 1.821536 0.072696 -0.022953 -199716.000000 0 0 1
16.313082 34.259154 -8.388012 38.860842 1.126396 1.788356 0.059865 -0.014704 -182827.000000 0 0 1
16.794582 -33.526254 -7.508812 38.241992 -1.106398 1.768430 0.051596 -0.012572 -1150340.000000 0 0 1
17.162982 -34.140014 -6.107012 38.696306 -1.104972 1.729278 0.050915 -0.009209 457996.000000 0 0 1
18.266082 33.707111 -6.204012 38.836952 1.074189 1.731229 0.045013 -0.016027 98599.500000 0 0 1
19.517982 34.339558 -6.390512 40.012442 1.053950 1.731196 0.042433 -0.018050 -1444850.000000 0 0 1
20.401282 33.412385 -7.247412 39.813626 1.022626 1.753850 0.027097 -0.013511 -204627.000000 0 0 1
20.650782 32.136672 -6.612012 38.767760 0.999646 1.742189 0.023870 -0.004615 -293054.000000 0 0 1
21.649382 32.278172 -5.631212 39.271958 0.979998 1.714682 0.032155 -0.005195 -895172.000000 0 0 1
22.009682 30.880882 -5.118512 38.265574 0.951579 1.704961 0.024413 -0.006616 -220682.000000 0 0 1
22.622282 30.127972 -6.159012 38.175853 0.926737 1.732837 0.024827 -0.010761 11197.300000 0 0 1
22.765182 28.797752 -5.708412 37.150370 0.901863 1.725064 0.027178 -0.007325 -854941.000000 0 0 1
23.687682 27.956382 -6.526712 37.219129 0.867867 1.747067 0.030937 -0.001500 131338.000000 0 0 1
25.036082 28.435292 -6.391512 38.421643 0.848883 1.737925 0.043257 -0.006581 110214.000000 0 0 1
25.959682 27.810752 -7.223612 38.723683 0.819810 1.758438 0.028964 -0.005230 -3392.560000 0 0 1
26.932282 26.847322 -6.484812 38.576927 0.783818 1.739699 0.032780 0.003754 435468.000000 0 0 1
28.012482 27.504442 -5.766812 39.679335 0.776247 1.716648 0.039759 -0.004522 387437.000000 0 0 1
28.610082 26.502112 -5.004012 39.318429 0.747168 1.698411 0.035444 0.010017 225806.000000 0 0 1
29.904582 26.985542 -4.265112 40.505490 0.734133 1.676289 0.047363 0.002131 434935.000000 0 0 1
29.614982 27.983642 -3.283312 40.876785 0.757083 1.651205 0.051708 -0.003385 834734.000000 0 0 1
30.730682 28.204142 -2.380912 41.779387 0.742554 1.627815 0.060287 -0.007236 688480.000000 0 0 1
30.469882 29.332432 -1.433112 42.318543 0.766380 1.604668 0.064448 -0.004021 112492.000000 0 0 1
30.487582 30.581372 -2.094912 43.233108 0.786934 1.619272 0.053760 -0.011046 28527.200000 0 0 1
30.089482 31.570292 -1.197312 43.629048 0.809409 1.598243 0.056087 -0.005526 -221559.000000 0 0 1
32.679108 22.559656 19.168851 44.094297 0.604212 1.121065 0.052864 -0.010916 -157112.000000 0 0 1
32.638648 22.599656 20.567451 44.710690 0.605621 1.092788 0.051004 -0.008314 202309.000000 0 0 1
33.438978 23.643056 21.145051 46.089831 0.615442 1.094176 0.066893 -0.008547 136191.000000 0 0 1
33.367348 23.661256 22.725451 46.794028 0.616817 1.063691 0.042426 -0.001283 190169.000000 0 0 1
32.114238 24.075556 23.239251 46.379084 0.643299 1.045960 0.033104 -0.001295 79305.600000 0 0 1
32.136098 24.287756 24.654091 47.227620 0.647189 1.021571 0.036359 -0.004406 -394201.000000 0 0 1
30.909348 24.932956 25.276211 47.073633 0.678781 1.003978 0.020041 -0.000135 -371217.000000 0 0 1
30.871978 26.344356 24.966751 47.649163 0.706431 1.019290 0.009439 0.005294 673275.000000 0 0 1
29.684888 26.904256 25.550441 47.516908 0.736300 1.003075 0.000134 0.002585 445925.000000 0 0 1
29.633938 28.443056 25.696261 48.450753 0.764896 1.011773 -0.009500 0.003677 -225649.000000 0 0 1
29.475668 29.159756 24.533831 48.176916 0.780010 1.036490 -0.010385 -0.004395 231134.000000 0 0 1
29.174428 30.515256 24.808771 48.967368 0.807858 1.039515 -0.006570 -0.004651 -312439.000000 0 0 1
29.406988 31.356556 23.518451 49.001245 0.817472 1.070192 -0.006823 -0.004521 440031.000000 0 0 1
30.805238 31.451456 23.271751 49.796899 0.795778 1.084524 -0.018923 -0.004122 190531.000000 0 0 1
30.968708 32.302356 22.125151 49.920190 0.806473 1.111619 -0.018925 -0.000694 312213.000000 0 0 1
32.472558 32.626456 21.941251 50.993834 0.787762 1.126002 -0.025713 -0.012503 377791.000000 0 0 1
32.955748 33.588856 22.871651 52.320215 0.794912 1.118372 -0.014942 0.002084 511074.000000 0 0 1
34.372048 33.765156 22.867051 53.333155 0.776491 1.127678 -0.020207 0.000757 536371.000000 0 0 1
34.712938 -33.724481 23.613451 53.850940 -0.770956 1.116871 -0.016241 0.014369 -703337.000000 0 0 1
34.284618 -32.542781 22.961351 52.551796 -0.759339 1.118616 -0.027487 0.012291 114159.000000 0 0 1
34.692588 -31.313981 23.566451 52.340411 -0.734257 1.103747 -0.019632 0.010964 -922174.000000 0 0 1
33.725508 -30.139681 23.337851 50.896616 -0.729310 1.094451 -0.022673 0.011826 394723.000000 0 0 1
32.405408 -30.409181 23.818611 50.419788 -0.753629 1.078778 -0.025101 0.010747 474372.000000 0 0 1
31.522128 -30.796381 22.786651 49.611421 -0.773753 1.093586 -0.022365 0.014100 -579214.000000 0 0 1
30.880048 -32.203681 22.887851 50.144872 -0.806377 1.096813 -0.032739 0.007671 88376.300000 0 0 1
29.919588 -32.379081 23.912921 50.153907 -0.824857 1.073796 -0.019250 0.000215 -62221.300000 0 0 1
29.388328 -33.669481 24.054641 50.753655 -0.853187 1.077026 -0.020508 -0.003482 -525347.000000 0 0 1
28.412528 -33.663581 25.205311 50.752499 -0.869788 1.051082 -0.019151 -0.003692 -502841.000000 0 0 1
28.078228 33.782956 25.566831 50.826546 0.877356 1.043705 -0.009374 -0.012483 55656.700000 0 0 1
27.229858 33.667556 26.689911 50.865713 0.890721 1.018418 -0.013574 -0.005796 -963551.000000 0 0 1
26.726628 32.280156 27.099091 49.906731 0.879239 0.996797 -0.007359 -0.000787 324764.000000 0 0 1
25.990798 31.694456 26.020831 48.550424 0.883953 1.005158 -0.013709 -0.004558 -119047.000000 0 0 1
24.658498 32.140956 25.993451 48.132546 0.916379 1.000313 -0.020153 -0.006150 -943319.000000 0 0 1
24.020698 32.061156 24.547301 46.983844 0.927798 1.021060 0.000369 -0.015824 -158565.000000 0 0 1
24.315398 32.963556 23.527351 47.237388 0.935250 1.049429 -0.000816 -0.024888 -449705.000000 0 0 1
25.578998 32.756756 22.972351 47.487041 0.907825 1.065850 -0.014122 -0.011425 -563038.000000 0 0 1
25.764598 33.415556 21.660451 47.429832 0.913968 1.096532 -0.006629 -0.013105 920341.000000 0 0 1
27.166738 33.402756 21.310051 48.040545 0.887993 1.111202 -0.006430 -0.005373 1177510.000000 0 0 1
27.353598 34.121856 20.099551 48.130160 0.895053 1.139985 -0.009611 -0.006857 -675459.000000 0 0 1
28.805818 34.258456 19.639851 48.878836 0.871645 1.157307 -0.012950 -0.007752 -428376.000000 0 0 1
29.292448 33.172656 18.897751 48.120656 0.847436 1.167213 -0.010035 -0.005802 240756.000000 0 0 1
30.405288 33.566856 18.089151 48.769178 0.834779 1.190804 -0.008046 0.006462 210209.000000 0 0 1
31.352718 32.481156 17.623651 48.462475 0.803074 1.198607 -0.006339 -0.000462 -214750.000000 0 0 1
32.225018 31.800156 18.505751 48.909759 0.778762 1.182767 -0.011169 0.000164 143800.000000 0 0 1
33.077868 30.929956 17.789051 48.654474 0.751854 1.196497 -0.005319 -0.003656 -165931.000000 0 0 1
34.067988 30.266356 18.730951 49.269956 0.726375 1.180816 0.009045 -0.014133 -78633.300000 0 0 1
34.780378 31.215956 19.543151 50.656148 0.731441 1.174721 0.014451 -0.012946 575962.000000 0 0 1
35.703682 30.560756 20.434451 51.247239 0.707941 1.160651 0.034901 -0.010648 564935.000000 0 0 1
-34.745007 31.491056 21.040551 51.396565 -0.736311 1.149026 0.044039 -0.005270 263424.000000 0 0 1
-33.895198 31.987956 19.975751 50.706453 -0.756457 1.165872 0.041101 -0.001387 1082900.000000 0 0 1
-32.741518 32.747256 20.419351 50.609679 -0.785486 1.155493 0.034448 0.001625 880251.000000 0 0 1
-33.028788 34.069456 21.166551 51.958171 -0.800907 1.151217 0.019872 0.003777 -439659.000000 0 0 1
-33.295928 33.962556 22.534651 52.629692 -0.795309 1.128325 0.027303 0.003401 126738.000000 0 0 1
-33.166978 -33.565681 23.209351 52.586855 0.791373 1.113691 0.019591 0.005433 -233425.000000 0 0 1
-33.055488 -33.666681 24.705791 53.258678 0.794558 1.088423 0.024171 -0.003574 -623201.000000 0 0 1
-34.243242 -34.041181 25.318381 54.519923 0.782439 1.087853 0.019933 0.007175 -1052920.000000 0 0 1
-34.135559 34.208256 26.663461 55.194033 -0.786462 1.066621 0.026328 0.004470 14629.800000 0 0 1
-35.478653 33.881956 27.334971 56.159793 -0.762382 1.062447 0.008977 0.001488 81912.700000 0 0 1
-35.283906 33.087956 28.490541 56.138024 -0.753291 1.038505 0.028645 -0.011766 118969.000000 0 0 1
35.074098 32.976156 29.281361 56.347292 0.754579 1.024345 0.025620 -0.010872 349426.000000 0 0 1
35.164088 31.842856 30.380181 56.333258 0.735873 1.001198 0.033278 -0.007541 -143591.000000 0 0 1
34.903958 30.465056 30.010201 55.199801 0.717597 0.995999 0.029594 -0.008247 515856.000000 0 0 1
-35.651359 29.888656 29.142011 54.896338 -0.697697 1.011187 0.027919 -0.008686 161555.000000 0 0 1
35.480668 28.405456 28.795381 53.804476 0.675100 1.006069 0.038022 -0.005439 -61382.000000 0 0 1
34.208058 28.348156 28.149821 52.594881 0.691997 1.006028 0.026790 0.004362 389319.000000 0 0 1
33.758138 27.095056 27.646701 51.362379 0.676338 1.002416 0.045760 -0.004994 4794.840000 0 0 1
33.697978 25.803456 28.555621 51.154623 0.653491 0.978555 0.042199 -0.006907 -871534.000000 0 0 1
34.952318 25.439456 29.059041 52.088946 0.629163 0.978975 0.036069 -0.008428 -321357.000000 0 0 1
34.866728 24.218556 29.799521 51.867510 0.607095 0.958765 0.036448 -0.006331 164646.000000 0 0 1
35.464448 23.036056 28.967141 51.258971 0.576061 0.970225 0.050948 -0.001608 -154425.000000 0 0 1
34.672378 22.920656 27.834401 50.022836 0.584114 0.980709 0.045882 -0.003334 84413.000000 0 0 1
35.358998 22.224256 26.780781 49.612362 0.561135 1.000596 0.050054 -0.016868 -15430.600000 0 0 1
35.211848 20.698056 26.784851 48.843750 0.531412 0.990373 0.042157 -0.019729 -15758.500000 0 0 1
33.831048 20.408456 26.596011 47.627646 0.542803 0.978322 0.055951 -0.008676 606863.000000 0 0 1
33.445088 19.197556 27.280731 47.237256 0.521084 0.955102 0.053736 -0.011249 -579360.000000 0 0 1
33.279808 19.244656 28.814811 48.043685 0.524287 0.927592 0.041707 -0.022336 636530.000000 0 0 1
32.048708 19.781356 29.370561 47.760355 0.552991 0.908465 0.039789 -0.020999 1097800.000000 0 0 1
31.877888 21.164656 29.015911 48.021510 0.586105 0.922000 0.033662 -0.022642 -1753260.000000 0 0 1
30.711728 21.754556 29.707301 47.947832 0.616306 0.902595 0.033578 -0.020548 -682945.000000 0 0 1
29.376848 21.510656 29.258771 46.709562 0.632032 0.893873 0.030856 -0.021601 755150.000000 0 0 1
28.950578 22.215856 28.053161 46.028904 0.654527 0.915406 0.014927 -0.006358 -426092.000000 0 0 1
28.821178 23.737456 28.266351 46.830692 0.688973 0.922805 0.009408 0.001639 -190615.000000 0 0 1
29.991148 24.569156 28.272181 47.983628 0.686347 0.940722 0.014703 -0.000038 233212.000000 0 0 1
29.904488 25.630756 29.208481 49.034165 0.708594 0.932689 0.005676 -0.000834 -210756.000000 0 0 1
30.224638 25.371656 30.651851 49.967846 0.698329 0.910398 0.016978 -0.013652 -427837.000000 0 0 1
31.492888 24.780356 30.825821 50.557880 0.666675 0.915097 0.020621 0.001514 -116718.000000 0 0 1
31.966748 24.883356 32.163481 51.725659 0.661439 0.899746 0.028940 -0.010300 80831.800000 0 0 1
31.396638 23.828656 33.132409 51.490875 0.649208 0.871784 0.035684 -0.004267 93180.300000 0 0 1
31.992768 23.892556 -34.325789 52.655970 0.641457 2.280868 0.035847 -0.012632 415852.000000 0 0 1
31.353738 23.001456 -33.438322 51.285916 0.632930 2.281013 0.028873 -0.017467 43860.000000 0 0 1
31.915328 23.038756 -31.948522 50.695961 0.625254 2.252605 0.024310 -0.026118 -213043.000000 0 0 1
31.507148 24.119456 -31.243552 50.503545 0.653362 2.237808 0.010286 -0.021185 131475.000000 0 0 1
31.760528 23.825956 -29.876162 49.688956 0.643613 2.215878 0.035036 -0.028533 -131199.000000 0 0 1
33.121438 24.325856 -29.273252 50.454932 0.633471 2.189754 0.024682 -0.004160 519382.000000 0 0 1
33.673908 23.532556 -28.285782 49.877838 0.609945 2.173778 0.016998 -0.012571 -150293.000000 0 0 1
34.700858 24.261056 -27.599532 50.541889 0.610154 2.148465 0.022004 -0.003459 254017.000000 0 0 1
35.338698 23.390056 -26.502902 49.983218 0.584683 2.129675 0.017110 -0.003496 -488273.000000 0 0 1
-35.375312 22.405456 -27.057402 49.854991 -0.564591 2.144471 0.018378 -0.009359 -211932.000000 0 0 1
-35.249507 21.338956 -26.196072 48.827379 -0.544358 2.137085 -0.000210 -0.005784 -723790.000000 0 0 1
-34.295237 20.215956 -26.571052 47.863023 -0.532640 2.159337 0.020563 -0.001575 -144874.000000 0 0 1
-32.976118 20.477956 -26.129882 46.792540 -0.555713 2.163276 0.027834 -0.004317 -500484.000000 0 0 1
-32.205138 19.321456 -26.217422 45.802214 -0.540382 2.180232 0.000706 -0.006847 -863677.000000 0 0 1
-30.777428 19.508656 -25.789322 44.642209 -0.564947 2.186691 0.013480 -0.006595 -943149.000000 0 0 1
-30.950408 19.841356 -24.455812 44.155338 -0.570071 2.157788 0.006225 -0.005881 -801005.000000 0 0 1
-29.792178 19.857756 -23.713012 42.944281 -0.587917 2.155774 0.015276 -0.005619 -970888.000000 0 0 1
-29.955758 20.379356 -22.264012 42.524720 -0.597392 2.121814 0.004284 -0.006186 -41240.800000 0 0 1
-30.581438 19.453456 -21.373412 42.077120 -0.566556 2.103609 -0.017173 0.006352 123476.000000 0 0 1
-30.924778 20.038356 -20.125612 41.987115 -0.574947 2.070686 -0.019348 0.010224 -386695.000000 0 0 1
-31.845508 19.084256 -19.254812 41.822159 -0.539887 2.049239 -0.019717 0.010239 99185.700000 0 0 1
-32.450898 19.523156 -18.064412 41.958758 -0.541611 2.015874 -0.017256 0.006163 333767.000000 0 0 1
-33.608918 20.275356 -18.419012 43.357922 -0.542823 2.009552 -0.024109 0.002718 -82628.100000 0 0 1
-34.807570 20.170456 -17.434212 43.844794 -0.525198 1.979734 -0.002888 -0.008819 -103553.000000 0 0 1
-34.567011 20.747756 -16.172312 43.438362 -0.540580 1.952287 -0.002037 -0.011690 -355874.000000 0 0 1
-35.700021 20.676156 -15.374612 44.026965 -0.524958 1.927523 0.010450 -0.005051 -972581.000000 0 0 1
-35.608617 21.617056 -14.135612 43.989615 -0.545605 1.897940 0.014851 -0.003615 -72115.400000 0 0 1
-35.714795 23.004356 -14.365112 44.845328 -0.572225 1.896870 0.019301 -0.009986 -154210.000000 0 0 1
34.523188 23.388056 -14.683512 44.209243 0.595437 1.909364 0.032124 -0.004503 -468311.000000 0 0 1
34.377448 24.926356 -14.862312 44.989115 0.627360 1.907474 0.029009 -0.003398 -21328.900000 0 0 1
34.659278 25.636156 -13.591712 45.201910 0.636852 1.876211 0.023269 -0.004469 204536.000000 0 0 1
34.665818 27.071656 -13.809412 46.100904 0.663006 1.875015 0.013613 0.002266 -159846.000000 0 0 1
-35.497301 27.616856 -14.252812 47.179357 -0.661181 1.877690 0.021347 0.004266 178898.000000 0 0 1
-35.367234 27.497756 -15.660612 47.457587 -0.660865 1.907091 0.028743 0.005904 -31644.300000 0 0 1
-34.121719 28.041456 -16.038612 46.987786 -0.687897 1.919134 0.035122 -0.003445 -395798.000000 0 0 1
-33.868988 27.860656 -17.598912 47.255118 -0.688371 1.952415 0.040110 -0.006350 -110199.000000 0 0 1
-33.493098 26.556056 -18.037612 46.393611 -0.670385 1.970120 0.042142 -0.015815 -187021.000000 0 0 1
-32.116818 26.337756 -17.922012 45.236776 -0.686854 1.978152 0.031896 -0.003801 -516191.000000 0 0 1
-31.736578 25.009556 -18.556412 44.463791 -0.667403 2.001310 0.025873 -0.006468 -346122.000000 0 0 1
-31.785788 25.015256 -19.968812 45.109343 -0.666761 2.029377 0.023520 -0.004010 220524.000000 0 0 1
-31.284448 23.811056 -20.481412 44.330253 -0.650577 2.051067 0.023846 -0.005076 -77060.200000 0 0 1
-31.088378 23.670656 -21.960512 44.822442 -0.650757 2.082822 0.021421 -0.003565 -1016160.000000 0 0 1
-32.284258 23.560356 -22.610912 45.919680 -0.630433 2.085643 0.025807 0.000241 -753230.000000 0 0 1
-32.049578 23.309756 -23.948412 46.303851 -0.628816 2.114374 0.028063 -0.004281 -239565.000000 0 0 1
-32.947838 24.036256 -24.955312 47.812856 -0.630267 2.119917 0.021409 0.008674 -578471.000000 0 0 1
-32.719438 25.467956 -25.005812 48.419717 -0.661414 2.113483 0.022194 0.012250 -98136.300000 0 0 1
-33.591408 26.235656 -25.798002 49.821975 -0.663062 2.115078 0.021967 0.005065 -814086.000000 0 0 1
-33.054308 27.562456 -26.226282 50.399346 -0.695045 2.118080 0.011109 0.013251 -272365.000000 0 0 1
-31.888158 27.525756 -27.016482 50.044102 -0.712106 2.141059 0.020195 0.005822 -132094.000000 0 0 1
-31.304628 28.838456 -27.057482 50.435539 -0.744416 2.137053 0.016545 -0.002546 621059.000000 0 0 1
-29.893988 28.978756 -27.691312 50.002276 -0.769853 2.157719 0.021643 0.004499 -33952.900000 0 0 1
-28.826078 28.495256 -26.885302 48.638892 -0.779627 2.156461 0.005331 0.008689 567587.000000 0 0 1
-27.594338 28.554156 -27.620202 48.370062 -0.802491 2.178542 0.033477 0.008331 725812.000000 0 0 1
-26.831088 29.917056 -27.616012 48.760451 -0.839725 2.172880 0.030783 -0.002762 -594726.000000 0 0 1
-26.281268 30.340756 -26.333632 48.007569 -0.856970 2.151402 0.035587 -0.002768 -301295.000000 0 0 1
-27.143508 30.563556 -25.282932 48.063787 -0.844595 2.124721 0.023900 -0.002266 -765090.000000 0 0 1
-26.428138 30.987856 -23.981012 47.262910 -0.864647 2.102957 0.012738 -0.006089 106930.000000 0 0 1
-25.976388 32.303656 -24.002912 47.900300 -0.893541 2.095667 0.022654 0.000624 683785.000000 0 0 1
-24.769818 32.443956 -23.216712 46.959236 -0.918733 2.087942 0.025504 0.013137 795547.000000 0 0 1
-24.134818 33.849656 -23.146712 47.582128 -0.951398 2.078828 0.019952 0.018658 -190126.000000 0 0 1
-24.869418 -33.917681 -22.469212 47.683986 0.938116 2.061459 0.002588 0.010762 -97586.800000 0 0 1
-24.509318 -32.629081 -22.847712 46.769451 0.926560 2.081187 0.009162 0.017922 -56558.300000 0 0 1
16.880882 8.008656 -24.796212 31.047622 0.442976 2.495846 0.037788 -0.013293 -501648.000000 0 0 1
15.476182 7.853456 -24.734612 30.215724 0.469593 2.529767 0.025444 -0.012993 181442.000000 0 0 1
15.188082 6.576456 -25.282442 30.218032 0.408628 2.561966 0.028007 -0.015963 -378981.000000 0 0 1
13.708282 6.197356 -25.293702 29.429502 0.424589 2.605024 0.032167 -0.016150 -283138.000000 0 0 1
13.148282 5.900256 -24.032812 28.022605 0.421812 2.601425 0.052490 -0.027441 623198.000000 0 0 1
11.826882 5.353656 -24.079712 27.356339 0.425071 2.647131 0.049305 -0.024702 423341.000000 0 0 1
11.070182 5.616556 -22.765612 25.930054 0.469517 2.642385 0.061292 -0.030858 -299114.000000 0 0 1
11.595582 4.847156 -21.675112 25.055197 0.395942 2.616135 0.067810 -0.028611 -43413.500000 0 0 1
11.144082 5.093456 -20.386312 23.785196 0.428705 2.600412 0.079086 -0.023519 -401241.000000 0 1 0
11.521582 6.422956 -19.746912 23.747457 0.508562 2.552667 0.074899 -0.033196 -257791.000000 0 1 0
11.175382 6.583256 -18.394912 22.507803 0.532355 2.527451 0.071528 -0.026018 -307677.000000 0 1 0
11.461782 7.892056 -17.910312 22.681187 0.603003 2.481043 0.073739 -0.026993 2171020.000000 0 1 0
13.011182 8.136256 -17.518212 23.288994 0.558835 2.422206 0.076265 -0.029248 1902740.000000 0 1 0
13.448382 7.518856 -16.313612 22.439387 0.509795 2.384751 0.080912 -0.035010 26334.900000 0 1 0
14.835782 7.620956 -16.157612 23.221710 0.474538 2.340326 0.064415 -0.032651 -826916.000000 0 1 0
15.402682 7.505556 -14.753012 22.610337 0.453427 2.281662 0.068106 -0.027802 -222187.000000 0 1 0
16.793882 7.709856 -14.843212 23.702263 0.430385 2.247512 0.069950 -0.025404 485552.000000 0 1 0
17.602882 7.810856 -13.670912 23.617044 0.417624 2.188124 0.095475 -0.028328 329433.000000 0 1 0
18.015482 9.261356 -13.328012 24.248014 0.474846 2.152746 0.078107 -0.032308 -221783.000000 0 1 0
16.875682 10.030656 -12.977512 23.533349 0.536281 2.154900 0.102153 -0.035474 689152.000000 0 1 0
17.055882 11.411056 -13.231912 24.417182 0.589643 2.143504 0.076945 -0.025110 -750078.000000 0 1 0
15.771882 12.169956 -12.999112 23.787328 0.657197 2.148942 0.077944 -0.022637 -621762.000000 0 1 0
15.269082 12.358756 -11.683112 22.855608 0.680445 2.107342 0.098846 -0.018465 220465.000000 0 1 0
15.829382 13.504756 -11.044112 23.556743 0.706317 2.058762 0.087322 -0.007527 -210184.000000 0 1 0
15.271382 14.903956 -11.357112 24.172856 0.773222 2.059894 0.073696 -0.005629 -718817.000000 0 1 0
14.059382 15.118756 -10.722612 23.264079 0.821689 2.049815 0.080908 -0.019398 -575499.000000 0 1 0
13.711182 16.467356 -10.795512 23.994028 0.876474 2.037478 0.068052 -0.017377 142018.000000 0 1 0
12.590882 16.966456 -9.837012 23.305744 0.932368 2.006541 0.063343 -0.020930 135515.000000 0 1 0
12.800182 16.796556 -8.425512 22.736714 0.919614 1.950417 0.066328 -0.017918 626060.000000 0 1 0
11.674582 17.181456 -7.606312 22.121353 0.973970 1.921805 0.054680 -0.012579 553150.000000 0 1 0
11.898682 17.067456 -6.057612 21.669595 0.961982 1.854116 0.040050 -0.012761 109345.000000 0 1 0
12.783682 18.027856 -5.517112 22.778600 0.953984 1.815435 0.038553 -0.010404 200977.000000 0 1 0
13.381982 17.526256 -4.325612 22.471270 0.918686 1.764501 0.039817 -0.013838 -475158.000000 0 1 0
14.460882 18.527556 -3.871412 23.819640 0.908055 1.734051 0.042764 -0.017773 -1043320.000000 0 1 0
15.626182 18.405956 -4.613112 24.581244 0.866898 1.759584 0.044865 -0.023691 -218771.000000 0 1 0
16.270782 19.705156 -4.668112 25.977351 0.880573 1.751477 0.034041 -0.020498 -82779.400000 0 0 1
17.661582 19.856256 -5.318112 27.101378 0.843828 1.768308 0.037172 -0.016107 9818.500000 0 0 1
18.730682 19.234956 -4.646612 27.247256 0.798680 1.742169 0.042309 -0.031363 131832.000000 0 0 1
18.944082 18.006356 -5.301912 26.668659 0.760026 1.770937 0.037465 -0.028669 -479250.000000 0 0 1
20.038482 17.151556 -4.622312 26.778394 0.707927 1.744279 0.044721 -0.034662 -497470.000000 0 0 1
21.340482 17.460056 -4.996012 28.021953 0.685720 1.750044 0.045203 -0.038737 32563.400000 0 0 1
22.258782 16.496156 -4.435012 28.057902 0.637786 1.729528 0.054999 -0.040718 330571.000000 0 0 1
23.763782 16.775356 -4.620312 29.452965 0.614689 1.728318 0.068949 -0.040408 -41902.600000 0 0 1
24.114582 17.846856 -3.783812 30.238064 0.637126 1.696259 0.073614 -0.037055 326159.000000 0 0 1
25.531482 17.864256 -3.699112 31.379478 0.610521 1.688954 0.053978 -0.026046 270101.000000 0 0 1
26.222582 19.135556 -3.118512 32.611630 0.630405 1.666568 0.063901 -0.020335 -156731.000000 0 0 1
26.257482 20.255756 -3.979412 33.400400 0.657075 1.690223 0.056740 -0.019818 284275.000000 0 0 1
26.310382 21.514756 -3.317212 34.148569 0.685458 1.668090 0.077378 -0.004786 -220755.000000 0 0 1
26.268882 22.841756 -4.159112 35.058496 0.715727 1.689710 0.058585 -0.005690 90239.100000 0 0 1
27.479082 23.086656 -4.841312 36.215078 0.698750 1.704880 0.053300 0.004409 153207.000000 0 0 1
27.480482 22.349456 -6.093312 35.941668 0.682789 1.741152 0.044449 0.000889 -50419.100000 0 0 1
28.540582 22.782656 -7.130812 37.208368 0.673676 1.763635 0.037712 0.004057 -3875.470000 0 0 1
28.179182 23.974856 -7.827112 37.816976 0.704958 1.779277 0.032724 0.000632 260477.000000 0 0 1
29.289382 24.750756 -8.243712 39.222781 0.701609 1.782552 0.024580 -0.002053 184426.000000 0 0 1
30.260882 24.268256 -9.362812 39.904028 0.675940 1.807638 0.016755 -0.002190 60020.800000 0 0 1
29.688482 24.117656 -10.662312 39.708339 0.682231 1.842648 0.017594 -0.002452 -189549.000000 0 0 1
30.563882 23.398756 -11.496412 40.172380 0.653391 1.861031 0.008788 -0.011693 19867.300000 0 0 1
29.922382 22.799056 -12.788012 39.732595 0.651099 1.898481 0.013790 -0.006169 -16157.300000 0 0 1
29.934282 23.682056 -13.907412 40.624095 0.669312 1.920207 0.017913 0.000401 81607.000000 0 0 1
29.667282 23.011356 -15.125012 40.477600 0.659715 1.953752 0.014597 -0.000167 -29381.200000 0 0 1
29.693882 23.868256 -16.435412 41.491481 0.677060 1.978079 0.012109 0.000922 -27002.900000 0 0 1
31.002482 24.315156 -16.726812 42.803819 0.665092 1.972274 0.007402 0.000249 39378.000000 0 0 1
31.077082 24.912756 -18.037812 43.724056 0.675743 1.996034 0.008373 -0.001335 -370877.000000 0 0 1
32.426982 25.555356 -18.355212 45.182952 0.667436 1.989134 0.007326 -0.005753 -305333.000000 0 0 1
33.412582 24.564456 -18.478412 45.401154 0.633952 1.989967 0.015793 -0.001722 -121559.000000 0 0 1
34.738482 25.053656 -18.664812 46.720691 0.624818 1.981765 0.024210 -0.009029 468394.000000 0 0 1
35.672782 23.811656 -18.696712 46.787919 0.588581 1.981883 0.023348 -0.017606 -207050.000000 0 0 1
35.469382 22.953556 -19.849812 46.679308 0.574360 2.010021 0.012129 -0.005809 267305.000000 0 0 1
-35.287934 23.345456 -20.962812 47.219573 -0.584466 2.030791 0.014243 -0.006697 -151621.000000 0 0 1
-35.368734 22.255656 -22.082312 47.264046 -0.561647 2.056931 0.006759 -0.000824 -24878.800000 0 0 1
-34.922334 20.955956 -21.658512 46.128220 -0.540473 2.059553 -0.008349 -0.003891 235723.000000 0 0 1
-34.405834 20.275956 -22.785412 45.978808 -0.532528 2.089280 -0.000729 -0.000648 52969.900000 0 0 1
-34.114334 18.758956 -22.749112 45.091111 -0.502755 2.099616 -0.011410 0.000748 209835.000000 0 0 1
-35.273234 17.996356 -22.457112 45.523530 -0.471773 2.086685 -0.013348 -0.002142 112311.000000 0 0 1
-35.169534 16.663256 -22.887112 45.148423 -0.442467 2.102416 -0.013304 -0.001558 -43377.100000 0 0 1
35.188982 15.775856 -22.396312 44.595256 0.421454 2.096952 -0.005983 0.000214 914652.000000 0 0 1
34.005082 16.029056 -23.192212 44.171879 0.440484 2.123564 0.016392 0.000019 894332.000000 0 0 1
33.088082 14.938056 -23.279312 43.126477 0.424070 2.140986 0.021763 -0.004506 -212505.000000 0 0 1
33.497582 13.598856 -23.970412 43.377385 0.385638 2.156279 0.012366 -0.005166 -864020.000000 0 0 1
33.498282 13.643256 -25.345142 44.166158 0.386768 2.182006 0.007488 0.003062 282436.000000 0 0 1
33.873382 12.347056 -25.812302 44.341072 0.349539 2.192143 0.011444 0.007681 -262534.000000 0 0 1
33.891382 12.247856 -27.416242 45.280084 0.346782 2.221167 0.018963 0.002697 -26953.800000 0 0 1
32.630582 12.145156 -28.051122 44.711577 0.356315 2.248980 0.020637 0.004183 317432.000000 0 0 1
32.085982 13.419556 -28.485162 44.955524 0.396129 2.257033 0.018744 0.001821 1389.440000 0 0 1
32.343182 13.914056 -30.002072 46.258044 0.406267 2.276515 0.020889 -0.011243 194320.000000 0 0 1
33.728182 14.117356 -30.272562 47.469127 0.396406 2.262346 0.027532 -0.006789 153530.000000 0 0 1
33.955782 14.081656 -31.674492 48.523825 0.393119 2.282021 0.023706 -0.012727 -405624.000000 0 0 1
35.446582 14.365956 -32.037002 49.891987 0.385054 2.268066 0.031743 -0.010096 817668.000000 0 0 1
-35.118834 13.411256 -31.626192 49.126473 -0.364791 2.270212 0.021357 -0.003088 285958.000000 0 0 1
-34.963034 13.257456 -30.234812 48.086565 -0.362435 2.250751 0.009605 -0.006489 -1718250.000000 0 0 1
-33.860034 12.302556 -29.846772 46.783379 -0.348505 2.262666 0.003406 0.000420 -686541.000000 0 0 1
-34.082634 10.990456 -30.271462 46.891124 -0.311937 2.272565 0.005567 -0.000405 163185.000000 0 0 1
-33.064634 10.018756 -30.083652 45.811261 -0.294212 2.287213 0.008651 -0.000394 20395.300000 0 0 1
-33.558434 8.610756 -30.489372 46.151007 -0.251171 2.292472 0.015637 -0.001323 -408961.000000 0 0 1
-33.904334 8.578756 -31.883662 47.325118 -0.247827 2.310021 0.018540 0.001724 94506.700000 0 0 1
-34.238234 7.292456 -32.388252 47.691042 -0.209856 2.317368 0.026924 -0.006477 267461.000000 0 0 1
-35.472334 6.509256 -31.822332 48.096962 -0.181483 2.293785 0.023817 0.002420 76706.000000 0 0 1
-35.117234 5.863656 -30.657452 46.983848 -0.165447 2.281689 0.019092 -0.003326 -56656.800000 0 0 1
35.313182 5.168356 -30.189302 46.745338 0.145326 2.272900 0.014509 0.001927 -566726.000000 0 0 1
35.463082 4.410756 -28.889842 45.953323 0.123741 2.250648 0.020984 -0.006793 -166728.000000 0 0 1
-35.368234 3.188556 -28.935522 45.807677 -0.089910 2.254507 0.043425 -0.000821 323514.000000 0 0 1
-35.456234 2.565156 -27.708472 45.071987 -0.072221 2.232878 0.050565 -0.007483 -622130.000000 0 0 1
-34.610634 1.329956 -27.681422 44.338763 -0.038407 2.245053 0.067513 -0.011869 -969732.000000 0 0 1
-33.263234 1.593456 -27.455202 43.159819 -0.047868 2.260267 0.068163 -0.009332 -1271240.000000 0 0 1
-32.534834 0.443656 -27.503792 42.604822 -0.013635 2.272547 0.065765 -0.011411 -231264.000000 0 0 1
-31.333834 0.563156 -26.519122 41.053503 -0.017971 2.273083 0.062123 -0.013663 -124683.000000 0 0 1
-31.715834 0.393056 -25.186022 40.501659 -0.012392 2.241901 0.053318 -0.003353 -558393.000000 0 0 1
-30.695034 0.515156 -24.253912 39.124197 -0.016781 2.239438 0.052235 0.000254 -670513.000000 0 0 1
-31.039234 0.200556 -22.792912 38.509624 -0.006461 2.204180 0.039684 0.004988 -625970.000000 0 0 1
-31.367734 -1.119344 -22.583612 38.667909 0.035669 2.194493 0.056378 -0.006781 221442.000000 0 0 1
-31.819534 -1.363744 -21.276012 38.301583 0.042833 2.159744 0.056663 -0.001779 1099880.000000 0 0 1
-33.363834 -1.132944 -21.011512 39.445058 0.033944 2.132558 0.049391 0.001119 1233490.000000 0 0 1
-34.259034 -2.192944 -21.394812 40.450320 0.063923 2.128119 0.056467 -0.008167 646336.000000 0 0 1
-35.616134 -1.903144 -21.099412 41.440514 0.053384 2.104993 0.052047 -0.007659 614291.000000 0 0 1
35.166582 -3.186344 -20.575312 40.867894 -0.090360 2.098394 0.036606 -0.003088 -150855.000000 0 0 1
34.698382 -4.176044 -21.445512 41.003988 -0.119777 2.121175 0.038038 0.004639 460404.000000 0 0 1
35.745782 -4.865744 -22.132912 42.323778 -0.135289 2.121096 0.036810 0.005195 127269.000000 0 0 1
35.209582 -5.837044 -23.219412 42.578478 -0.164286 2.147582 0.036225 -0.001581 -458234.000000 0 0 1
34.532182 -6.935244 -22.611912 41.855319 -0.198198 2.141518 0.032275 0.008030 740452.000000 0 0 1
33.740882 -7.789944 -23.474812 41.835357 -0.226900 2.166539 0.034992 0.009879 429578.000000 0 0 1
32.440382 -7.159544 -24.015112 40.992232 -0.217216 2.196719 0.012617 0.008219 -815444.000000 0 0 1
32.463882 -6.273244 -25.106532 41.516204 -0.190885 2.220236 0.014131 0.003117 307531.000000 0 0 1
31.116782 -5.892644 -25.377712 40.583317 -0.187156 2.246343 -0.022488 0.007792 426608.000000 0 0 1
30.931382 -4.714144 -26.373722 40.921226 -0.151243 2.271165 0.007957 -0.014408 9142.350000 0 0 1
31.168282 -5.001544 -27.757022 42.034861 -0.159113 2.292059 0.010890 -0.017597 234423.000000 0 0 1
30.997482 -3.825644 -28.532752 42.303633 -0.122797 2.311050 0.016536 -0.019078 -47252.000000 0 0 1
30.759682 -4.208744 -29.999262 43.172066 -0.135982 2.339045 0.018824 -0.019839 18522.100000 0 0 1
30.169982 -3.196644 -30.766232 43.208881 -0.105561 2.363188 0.014060 -0.026042 8943.040000 0 0 1
29.632282 -3.741844 -31.986492 43.763103 -0.125611 2.390437 0.030301 -0.027119 -356920.000000 0 0 1
29.167682 -2.563544 -32.859412 44.012116 -0.087665 2.413732 0.024934 -0.020017 -465569.000000 0 0 1
28.119582 -1.750844 -32.377252 42.919259 -0.062184 2.425499 0.017307 -0.015452 459406.000000 0 0 1
26.782482 -2.221044 -32.279272 42.002211 -0.082740 2.447311 0.030761 -0.018852 526039.000000 0 0 1
26.074382 -2.448344 -33.667732 42.654237 -0.093624 2.480493 0.042831 -0.030904 -768766.000000 0 0 1
26.575682 -3.583344 -34.292289 43.532382 -0.134027 2.477931 0.052800 -0.035636 -51962.500000 0 0 1
26.079682 -3.774144 33.150555 42.348002 -0.143718 0.671623 0.051607 -0.033945 -854566.000000 0 0 1
26.661382 -4.963944 32.325521 42.194897 -0.184077 0.698045 0.055183 -0.044595 495814.000000 0 0 1
28.010782 -4.928544 31.858721 42.706821 -0.174169 0.728781 0.057684 -0.038988 497446.000000 0 0 1
28.418882 -3.950644 30.984351 42.228787 -0.138130 0.747007 0.075229 -0.038916 -836806.000000 0 0 1
28.842882 -2.587544 31.547471 42.823476 -0.089472 0.742639 0.039372 -0.037796 -553597.000000 0 0 1
30.112082 -2.725844 32.158991 44.140326 -0.090277 0.754575 0.033579 -0.031746 144697.000000 0 0 1
30.735682 -1.489644 32.419491 44.698149 -0.048428 0.759329 0.013293 -0.021690 -120421.000000 0 0 1
32.258182 -1.438044 32.609271 45.891424 -0.044550 0.780482 0.012865 -0.021403 -246793.000000 0 0 1
32.943982 -1.736044 31.422261 45.559612 -0.052648 0.809728 0.024957 -0.020078 -762593.000000 0 0 1
34.311782 -1.773444 31.698071 46.746242 -0.051640 0.825638 0.034488 -0.007241 -392387.000000 0 0 1
35.169982 -2.337444 30.538951 46.637097 -0.066364 0.856851 0.031472 -0.005754 95488.300000 0 0 1
35.070582 -1.571744 29.354031 45.761066 -0.044787 0.874393 0.033544 0.001945 237460.000000 0 0 1
-35.308634 -1.898344 28.612371 45.485944 0.053713 0.890482 0.042732 0.002198 330309.000000 0 0 1
-35.136534 -1.117744 27.294611 44.506417 0.031801 0.910598 0.050558 0.003901 -34793.700000 0 0 1
35.602582 -1.509644 26.238931 44.252733 -0.042377 0.936099 0.046601 -0.016291 -576109.000000 0 0 1
-35.113534 -1.478044 25.118431 43.198153 0.042068 0.950262 0.045594 -0.011715 -83670.200000 0 0 1
-26.445438 15.555056 12.388688 33.087770 -0.531694 1.187026 0.056173 -0.010574 239761.000000 0 0 1
-27.581548 14.831256 12.848388 33.849505 -0.493369 1.181461 0.031858 -0.006420 123950.000000 0 0 1
-28.471218 15.663956 13.507788 35.191336 -0.502972 1.176847 0.051235 -0.015265 -7800.770000 0 0 1
-29.733388 14.924656 14.044688 36.111951 -0.465206 1.171336 0.051104 -0.019143 414189.000000 0 0 1
-30.728368 15.765156 14.599788 37.495687 -0.474032 1.170846 0.052456 -0.021540 244212.000000 0 0 1
-31.689888 14.925256 15.283288 38.217681 -0.440162 1.159388 0.050175 -0.009836 429708.000000 0 0 1
-32.686578 15.742856 16.105088 39.694128 -0.448844 1.153019 0.057683 -0.013979 -41393.700000 0 0 1
-32.142858 16.116256 17.345488 39.921961 -0.464763 1.121330 0.043998 -0.004692 915384.000000 0 0 1
-33.227208 16.473356 18.234488 41.326933 -0.460265 1.113833 0.051666 -0.012791 493563.000000 0 0 1
-32.770388 16.696056 19.740788 41.741530 -0.471208 1.078184 0.034282 -0.006024 -55991.200000 0 0 1
-32.271488 15.493756 20.251088 41.129211 -0.447607 1.055977 0.015365 -0.001274 399906.000000 0 0 1
-30.943828 15.544456 20.785588 40.388009 -0.465521 1.030200 0.019834 0.002711 783570.000000 0 0 1
-30.762018 16.201456 22.218988 41.261027 -0.484756 1.002143 0.016672 -0.011386 -341489.000000 0 0 1
-31.124318 17.563256 22.218988 42.081760 -0.513751 1.014558 0.006743 -0.008913 159986.000000 0 0 1
-31.349578 18.262156 23.444688 43.196710 -0.527477 0.997097 0.008157 -0.013704 -569430.000000 0 0 1
-32.147958 17.670556 24.645188 44.194174 -0.502585 0.979236 -0.000819 -0.000573 1766070.000000 0 0 1
-33.522778 17.206256 24.455188 44.920910 -0.474208 0.995116 0.050578 0.001052 1447690.000000 0 0 1
-34.526279 18.165056 24.190188 45.904231 -0.484327 1.015764 0.053710 -0.006502 -408841.000000 0 0 1
35.702291 17.482256 23.777788 46.321335 0.455348 1.031744 0.025241 -0.010548 -279914.000000 0 0 1
35.062668 16.944256 24.874088 46.208427 0.450163 1.002375 0.035683 -0.004505 -281605.000000 0 0 1
34.233988 15.820256 24.635288 45.046019 0.432888 0.992149 0.052674 -0.004419 276983.000000 0 0 1
33.654738 15.129356 25.887788 45.074564 0.422476 0.959008 0.066792 -0.003407 -684492.000000 0 0 1
32.781378 15.961656 26.634988 45.153248 0.453123 0.939886 0.047696 -0.006279 264631.000000 0 0 1
32.426758 15.449256 27.922188 45.495304 0.444619 0.910010 0.044765 -0.003733 -591241.000000 0 0 1
31.445558 14.327856 27.891388 44.407658 0.427534 0.891718 0.044814 -0.000097 -1225120.000000 0 0 1
31.994398 13.093956 27.452688 44.144572 0.388462 0.899653 0.031867 -0.001825 -312789.000000 0 0 1
31.036788 12.089456 27.386688 43.121547 0.371440 0.882653 0.019474 0.003336 -352039.000000 0 0 1
31.638678 10.722756 26.944488 42.918398 0.326764 0.892063 0.022667 0.000327 43995.100000 0 0 1
32.499828 10.192556 27.957688 44.065398 0.303904 0.883488 0.010068 0.002343 106052.000000 0 0 1
32.795648 8.811156 27.739588 43.848326 0.262470 0.885857 0.014455 0.004740 -737633.000000 0 0 1
33.919808 8.271756 28.600688 45.132856 0.239194 0.884470 0.007932 0.009761 -1000900.000000 0 0 1
35.153888 8.827556 28.220288 45.935893 0.246025 0.909246 0.012286 0.005312 -813327.000000 0 0 1
-35.452113 8.188756 29.058588 46.565111 -0.227000 0.896891 0.018504 0.000471 -876557.000000 0 0 1
-34.098268 8.862056 29.061188 45.670347 -0.254272 0.881071 0.020985 -0.000768 -577241.000000 0 0 1
-33.391738 8.980256 27.822488 44.381798 -0.262720 0.893242 0.019591 0.001699 756402.000000 0 0 1
-32.348188 9.961456 28.060288 43.966074 -0.298730 0.878605 0.027659 0.004443 240014.000000 0 0 1
-31.673898 10.502956 26.833288 42.820243 -0.320187 0.893550 0.026155 0.003333 -312522.000000 0 0 1
-30.646198 9.701256 26.295788 41.530378 -0.306576 0.885154 0.030411 0.002197 40685.900000 0 0 1
-30.006178 10.272156 25.204788 40.511347 -0.329830 0.899290 0.021871 0.000500 176550.000000 0 0 1
-29.096908 9.295756 24.383088 39.084218 -0.309227 0.897124 0.023405 -0.007089 217548.000000 0 0 1
-28.364748 9.808556 23.310988 38.002222 -0.332929 0.910424 0.023877 -0.011733 103569.000000 0 0 1
-27.848058 8.730156 22.516888 36.861093 -0.303789 0.913653 0.027737 -0.001322 -460898.000000 0 0 1
-26.809398 9.043656 21.467088 35.515735 -0.325345 0.921735 0.014274 0.001643 -1055850.000000 0 0 1
-25.611818 9.494956 22.046188 35.102049 -0.355018 0.891739 0.025116 -0.006067 751589.000000 0 0 1
-24.665418 10.282256 21.258688 34.147320 -0.394964 0.898789 0.013061 -0.003126 1496330.000000 0 0 1
-23.876718 9.483656 20.123388 32.634156 -0.378084 0.906334 0.001931 0.001824 -687026.000000 0 0 1
-24.754918 9.108956 19.160288 32.602081 -0.352589 0.942581 0.003999 0.004032 45542.100000 0 0 1
-24.085718 8.327856 18.136988 31.279791 -0.332892 0.952275 -0.000581 0.007315 139177.000000 0 0 1
-23.752018 6.843656 18.460188 30.850811 -0.280531 0.929332 0.002409 0.008239 -1376350.000000 0 0 1
-22.603718 6.673156 19.194688 30.395643 -0.287069 0.887317 0.001369 0.007873 -358855.000000 0 0 1
-22.497118 5.393256 19.735188 30.408637 -0.235291 0.864528 0.007240 0.001203 -286796.000000 0 0 1
-22.534618 4.106456 18.823188 29.647671 -0.180251 0.882922 0.019812 0.002239 -1104050.000000 0 0 1
-23.819618 3.825856 18.310388 30.286659 -0.159258 0.921571 0.032448 -0.002230 500008.000000 0 0 1
-23.795918 2.850056 17.314588 29.566256 -0.119203 0.945152 0.025670 0.001352 -147359.000000 0 0 1
-23.908918 1.359756 17.676888 29.765041 -0.056811 0.934922 0.023159 0.009449 397452.000000 0 0 1
-22.634618 0.758756 17.949288 28.897726 -0.033509 0.900611 0.005935 0.011850 950905.000000 0 0 1
-22.742718 -0.603944 18.335888 29.219869 0.026549 0.892440 0.019379 0.011320 96744.100000 0 0 1
-21.343718 -1.189544 18.660288 28.375618 0.055675 0.853145 0.032480 0.012372 318333.000000 0 0 1
-20.516218 -0.508144 19.600988 28.379079 0.024763 0.808361 0.011722 0.016649 237937.000000 0 0 1
-19.626218 -1.493044 20.123588 28.149181 0.075928 0.774329 0.010043 0.014519 -90140.600000 0 0 1
-18.762718 -0.895144 21.260088 28.369565 0.047673 0.723644 0.016228 0.010010 206318.000000 0 0 1
-19.345618 -0.811644 22.557688 29.728118 0.041930 0.709328 0.011788 0.010501 187218.000000 0 0 1
-18.288218 -0.823044 23.507988 29.795332 0.044974 0.661646 0.015226 0.010701 -214594.000000 0 0 1
-18.755718 -0.843144 24.975488 31.245205 0.044924 0.644603 0.018905 0.016709 623836.000000 0 0 1
-19.574518 0.278156 25.422588 32.086557 -0.014209 0.656206 0.023583 0.004009 1224710.000000 0 0 1
-20.946718 0.243456 24.975388 32.597458 -0.011622 0.697927 0.006891 0.006344 671655.000000 0 0 1
-21.781618 1.404356 25.651888 33.681307 -0.064385 0.705008 0.007631 -0.000560 -107048.000000 0 0 1
-21.464718 2.747056 25.312288 33.301537 -0.127288 0.707339 0.013322 -0.000201 -118750.000000 0 0 1
-22.555518 3.305256 24.647588 33.573497 -0.145503 0.746400 0.018702 -0.004905 -644905.000000 0 0 1
-22.113418 4.385056 23.571288 32.616523 -0.195759 0.763125 0.018839 0.000814 84174.600000 0 0 1
-21.657618 3.866156 22.322688 31.341697 -0.176652 0.778118 0.017190 -0.001349 1447680.000000 0 0 1
-20.310718 3.320956 22.419688 30.433476 -0.162073 0.742651 0.009534 0.005572 561666.000000 0 0 1
-19.907018 2.570356 21.159388 29.165319 -0.128408 0.759038 0.007332 0.006115 -401291.000000 0 0 1
-19.547818 3.366056 20.073488 28.220426 -0.170524 0.779435 0.002802 0.004108 226902.000000 0 0 1
-19.422518 2.513256 18.962888 27.260627 -0.128684 0.801521 0.023578 -0.000718 -303964.000000 0 0 1
-18.860018 3.165256 17.637688 26.015518 -0.166279 0.825802 0.007765 0.003685 719962.000000 0 0 1
-17.467318 3.503356 17.651288 25.078849 -0.197940 0.790019 0.011680 -0.006938 719388.000000 0 0 1
-17.130318 4.405956 16.610888 24.264827 -0.251746 0.816787 0.013798 -0.006173 475209.000000 0 1 0
-15.644518 4.874156 16.417988 23.196092 -0.302025 0.784430 0.032827 -0.005604 775578.000000 0 1 0
-15.174618 5.757256 17.512488 23.876814 -0.362623 0.747410 0.027971 -0.005986 550719.000000 0 1 0
-15.642518 7.157556 17.496888 24.536912 -0.429132 0.776908 0.021112 -0.013045 -377648.000000 0 1 0
-15.220718 8.089356 16.330788 23.744527 -0.488506 0.812383 0.014736 -0.002438 -12545.100000 0 1 0
-15.698818 7.730356 15.035888 23.071394 -0.457562 0.860958 0.024757 0.001582 1854630.000000 0 1 0
-17.128618 7.933956 14.795888 23.984485 -0.433776 0.906006 0.011085 0.004208 1286960.000000 0 1 0
-17.545518 7.290656 13.471088 23.290966 -0.393821 0.954052 0.015556 0.009207 -235054.000000 0 1 0
-17.271218 5.929856 13.349088 22.619821 -0.330727 0.939552 0.016722 -0.000627 91258.600000 0 1 0
-17.794218 5.387256 12.206788 22.241007 -0.293981 0.989819 0.017336 -0.006609 -803.826000 0 1 0
-17.477218 3.857756 12.159588 21.637722 -0.217247 0.974040 0.013464 -0.007444 137764.000000 0 1 0
-18.131518 3.186856 13.245888 22.679540 -0.173986 0.947092 0.006236 -0.003454 523076.000000 0 1 0
-17.655418 1.848656 13.504488 22.304764 -0.104327 0.920461 0.002737 -0.005790 374230.000000 0 1 0
-18.601618 1.307256 14.651888 23.715121 -0.070161 0.904818 0.008368 0.000618 615622.000000 0 1 0
-19.806518 0.811756 14.086088 24.318203 -0.040961 0.953000 0.018635 0.000844 250597.000000 0 1 0
-20.657418 0.270556 15.097388 25.587756 -0.013097 0.939708 0.014225 0.000893 -278273.000000 0 0 1
-22.048318 -0.096744 14.598088 26.443182 0.004388 0.985970 0.025702 0.000086 -515405.000000 0 0 1
-21.965218 -1.224344 13.735888 25.935390 0.055683 1.012644 0.035310 -0.008359 917064.000000 0 0 1
-23.231818 -1.460844 13.101088 26.711233 0.062799 1.058166 0.062220 -0.011125 529082.000000 0 0 1
-23.279818 -2.695044 12.126188 26.386694 0.115254 1.093300 0.060845 -0.019431 -280012.000000 0 0 1
-23.019818 -3.895044 12.782888 26.617393 0.167616 1.069862 0.049848 -0.015356 216826.000000 0 0 1
-22.976918 -4.945344 11.864888 26.328136 0.211997 1.103298 0.055208 -0.022537 -53275.900000 0 0 1
-22.851518 -6.266944 12.670888 26.870390 0.267665 1.079742 0.047544 -0.018438 -347878.000000 0 0 1
-23.950418 -6.586844 13.462988 28.253515 0.268385 1.074119 0.046017 -0.017568 -136344.000000 0 0 1
-23.877418 -7.943844 13.884188 28.740328 0.321174 1.066615 0.048312 -0.025700 -63712.300000 0 0 1
-24.879418 -8.276844 15.013788 30.214325 0.321161 1.050762 0.037927 -0.011523 583578.000000 0 0 1
-26.228618 -7.921944 14.719288 31.102332 0.293322 1.077816 0.040053 -0.011827 341029.000000 0 0 1
-27.123208 -8.476044 15.633588 32.433329 0.302886 1.067835 0.037331 -0.004387 -270083.000000 0 0 1
-28.580258 -7.932244 15.587388 33.506989 0.270729 1.086938 0.036902 -0.006206 748105.000000 0 0 1
-29.512658 -8.424244 14.591088 33.983301 0.278051 1.127012 0.035597 -0.007135 1110890.000000 0 0 1
-29.895328 -9.840744 14.720688 34.745785 0.318002 1.133305 0.042115 -0.011644 -280999.000000 0 0 1
-30.404868 -10.472744 16.051488 35.941406 0.331716 1.107833 0.036796 -0.010888 -825278.000000 0 0 1
-29.284418 -10.564844 16.846488 35.397701 0.346234 1.074786 0.035363 -0.007468 -295578.000000 0 0 1
-29.597008 -11.117944 18.099988 36.430772 0.359335 1.050851 0.031898 0.002203 -743160.000000 0 0 1
-28.424188 -11.174444 19.037188 35.989126 0.374571 1.013409 0.034583 0.007834 -1102410.000000 0 0 1
-27.516408 -12.167844 18.692688 35.420697 0.416351 1.014866 0.039949 0.005236 -984315.000000 0 0 1
-26.362478 -11.964144 19.443488 34.873632 0.426036 0.979375 0.030234 0.001323 -597566.000000 0 0 1
-25.207298 -12.876644 18.966388 34.072566 0.472274 0.980452 0.036792 0.001699 -186123.000000 0 0 1
-24.761118 -12.592444 17.635188 32.904141 0.470470 1.005156 0.032233 0.001846 -175523.000000 0 0 1
-23.762818 -13.481844 17.267788 32.320399 0.516066 1.007154 0.030929 -0.005640 -329157.000000 0 0 1
-23.266018 -13.414644 15.756088 31.137029 0.523018 1.040227 0.029936 -0.011618 53718.200000 0 0 1
-22.558118 -12.230544 15.436588 29.945670 0.496819 1.029221 0.031764 -0.016427 -64410.400000 0 0 1
-22.363518 -12.150944 14.070088 29.081605 0.497714 1.065789 0.023795 -0.010113 -598153.000000 0 0 1
-21.139718 -11.306444 13.792788 27.657989 0.491132 1.048708 0.028465 -0.017645 -1034730.000000 0 0 1
-21.206118 -9.868744 14.008888 27.264272 0.435564 1.031166 0.036315 -0.020973 122397.000000 0 0 1
-19.966018 -9.215544 13.770088 25.945779 0.432427 1.011340 0.043845 -0.020038 76726.000000 0 0 1
-19.468918 -9.156344 12.315588 24.790142 0.439611 1.050896 0.049156 -0.007949 -596857.000000 0 1 0
-18.814918 -10.326744 11.913588 24.547431 0.501967 1.064057 0.040527 -0.014845 -15787.600000 0 1 0
-18.652818 -10.279844 10.518588 23.753811 0.503699 1.112058 0.051830 -0.004732 -1069610.000000 0 1 0
-18.017918 -11.557644 9.797088 23.541611 0.570343 1.141578 0.045317 -0.008264 656278.000000 0 1 0
-16.648018 -11.852944 9.999388 22.751628 0.618717 1.115752 0.057484 -0.013231 332137.000000 0 1 0
-16.018318 -11.564844 11.237488 22.729128 0.625323 1.053641 0.052116 -0.015986 -843633.000000 0 1 0
-14.531818 -12.030044 11.183388 21.930889 0.691489 1.035684 0.056358 -0.017577 255422.000000 0 1 0
-14.231718 -13.389044 11.124088 22.484520 0.754899 1.053256 0.041217 -0.018748 583523.000000 0 1 0
-12.834418 -13.510044 10.805988 21.540960 0.811038 1.045293 0.052045 -0.027446 930508.000000 0 1 0
-12.377818 -15.037644 10.715288 22.229677 0.882115 1.067830 0.044617 -0.023079 11624.400000 0 1 0
-12.712918 -15.664844 9.510088 22.303529 0.889048 1.130294 0.026519 -0.022321 -48985.700000 0 1 0
-12.474918 -17.022944 9.670388 23.214664 0.938375 1.141134 0.021675 -0.016806 163616.000000 0 1 0
-12.826518 -17.860044 8.381088 23.531753 0.947981 1.206640 0.010873 -0.006710 -75448.500000 0 1 0
-11.883718 -17.818644 7.328088 22.636866 0.982614 1.241134 0.009304 -0.010452 -144102.000000 0 1 0
-12.417518 -18.507044 6.208988 23.135622 0.979826 1.299092 0.002893 -0.005076 -270431.000000 0 1 0
-11.572418 -18.434544 4.945888 22.320733 1.010217 1.347359 0.013701 -0.005961 -250704.000000 0 1 0
-12.052718 -19.227444 3.880288 23.022147 1.010868 1.401442 0.032456 -0.009103 76142.900000 0 1 0
-11.110818 -19.257044 2.833288 22.412308 1.047480 1.444041 0.034488 -0.011280 -111820.000000 0 1 0
-11.458118 -20.109244 1.628188 23.201750 1.052884 1.500563 0.043211 -0.016719 -132804.000000 0 1 0
-11.227018 -21.500744 1.853188 24.326164 1.089571 1.494542 0.039534 -0.017474 -192299.000000 0 1 0
-11.674718 -22.315344 0.780688 25.196887 1.088785 1.539808 0.046106 -0.024415 899408.000000 0 0 1
-10.588418 -22.472044 -0.405512 24.844956 1.130468 1.587119 0.052467 -0.019906 879983.000000 0 1 0
-10.474918 -21.477144 -1.409712 23.936978 1.117018 1.629723 0.049178 -0.031411 523222.000000 0 1 0
-11.583718 -21.282644 -2.328512 24.342462 1.072355 1.666599 0.061127 -0.026157 1597200.000000 0 1 0
-12.673318 -20.179244 -1.974012 23.910492 1.010016 1.653449 0.056860 -0.026971 1073440.000000 0 1 0
-13.666618 -20.510744 -0.998212 24.667053 0.983037 1.611275 0.055070 -0.017245 128569.000000 0 1 0
-14.425318 -19.360344 -0.797812 24.156764 0.930441 1.603829 0.041610 -0.013031 -289328.000000 0 1 0
25.745482 -20.412444 -4.142712 33.115854 -0.670369 1.696222 0.032562 -0.012676 364855.000000 0 0 1
24.567882 -20.592544 -3.351312 32.231429 -0.697597 1.674961 0.032259 -0.011066 502043.000000 0 0 1
24.595482 -21.806544 -2.649312 32.976991 -0.725367 1.651221 0.020490 -0.000791 -275973.000000 0 0 1
23.270582 -22.275544 -2.009412 32.276270 -0.763555 1.633093 0.018859 0.005755 91775.600000 0 0 1
22.279882 -22.636344 -2.960212 31.899217 -0.793334 1.663729 0.034799 -0.004110 377118.000000 0 0 1
21.060382 -22.893044 -2.242812 31.187519 -0.827070 1.642772 0.026723 0.001510 666132.000000 0 0 1
19.988382 -23.560444 -3.141512 31.056385 -0.867239 1.672125 0.034510 -0.000946 151356.000000 0 0 1
19.368882 -22.591844 -3.968812 30.021600 -0.862057 1.703383 0.031629 -0.000910 -339543.000000 0 0 1
18.286782 -23.091444 -4.696812 29.827525 -0.900996 1.728920 0.031491 -0.000268 -138572.000000 0 0 1
17.313682 -22.105744 -5.373712 28.588534 -0.906371 1.759889 0.010849 0.016640 -360153.000000 0 0 1
16.396282 -21.385244 -4.588812 27.335397 -0.916686 1.739466 0.004342 0.019820 52798.400000 0 0 1
16.993782 -20.457644 -3.720012 26.854093 -0.877625 1.709770 0.005758 0.008213 -528968.000000 0 0 1
16.117082 -19.890844 -2.595012 25.732083 -0.889821 1.671815 0.013522 0.009517 -213504.000000 0 0 1
15.655782 -20.910944 -1.701612 26.177597 -0.928135 1.635845 0.012650 0.010978 287595.000000 0 0 1
15.012682 -20.307244 -0.591812 25.260939 -0.934193 1.594226 0.020194 0.017286 -361550.000000 0 0 1
14.709082 -21.226444 0.626888 25.832383 -0.964811 1.546526 0.014342 0.010770 -816437.000000 0 0 1
13.840082 -22.285044 0.410588 26.236228 -1.015044 1.555146 0.020373 0.010510 -344370.000000 0 0 1
13.288482 -22.675144 1.664288 26.334688 -1.040707 1.507557 0.016009 0.005742 442779.000000 0 0 1
12.126582 -23.703844 1.751888 26.683241 -1.097922 1.505094 0.018139 -0.005229 516621.000000 0 0 1
12.652682 -25.022244 1.430088 28.075759 -1.102633 1.519838 0.024417 0.002813 441923.000000 0 0 1
11.664382 -26.042614 1.516988 28.575808 -1.149693 1.517685 0.029334 -0.005857 -47635.100000 0 0 1
12.073782 -27.421334 2.106188 30.035676 -1.156033 1.500616 0.033595 -0.008362 -170705.000000 0 0 1
12.148782 -27.387834 3.518288 30.167279 -1.153291 1.453904 0.044956 -0.020321 209304.000000 0 0 1
12.181882 -28.626494 4.132788 31.383983 -1.168464 1.438728 0.044919 -0.018535 -66512.500000 0 0 1
12.195182 -28.668674 5.658488 31.664394 -1.168601 1.391129 0.062036 -0.024055 -79170.800000 0 0 1
11.850582 -29.905884 6.235388 32.767030 -1.193516 1.379334 0.036553 -0.020434 -112589.000000 0 0 1
12.116682 -30.072804 7.600588 33.300998 -1.187782 1.340528 0.042151 -0.017354 -38508.600000 0 0 1
12.109382 -31.587644 8.004788 34.763386 -1.204718 1.338446 0.022613 -0.012017 -102693.000000 0 0 1
12.113082 -31.868664 9.381288 35.360247 -1.207567 1.302275 0.018645 -0.006598 -384811.000000 0 0 1
11.464882 -33.080564 9.624188 36.309672 -1.237176 1.302532 0.009515 -0.005200 -92437.500000 0 0 1
11.126082 -33.261104 11.168188 36.807869 -1.247990 1.262518 0.004816 -0.007471 -867624.000000 0 0 1
12.194982 -33.716624 11.895688 37.776127 -1.223745 1.250445 0.011697 -0.013582 -812211.000000 0 0 1
11.983482 -34.050212 13.271888 38.459899 -1.232398 1.218468 0.018622 -0.015190 134532.000000 0 0 1
10.934282 33.617636 13.655588 37.896953 1.256334 1.202170 0.014832 -0.011183 261611.000000 0 0 1
11.342182 32.364742 13.310188 36.786992 1.233722 1.200579 0.018140 -0.014834 -789835.000000 0 0 1
10.289282 31.489032 13.421488 35.743039 1.254976 1.185861 0.022246 -0.012750 -572288.000000 0 0 1
10.234382 30.443722 12.275988 34.384047 1.246492 1.205715 0.021359 -0.013768 -438906.000000 0 0 1
9.899782 30.996932 11.042688 34.362137 1.261656 1.243629 0.009064 -0.007644 -125731.000000 0 0 1
10.751882 31.887152 10.311788 35.195546 1.245583 1.273448 -0.002151 -0.011187 -155277.000000 0 0 1
10.277282 32.133932 8.876488 34.885587 1.261251 1.313522 -0.009538 -0.008414 119982.000000 0 0 1
9.096382 32.926712 8.789888 35.272860 1.301258 1.318945 0.002465 -0.009668 48719.100000 0 0 1
8.520282 33.084546 7.526088 34.983202 1.318743 1.353967 0.002685 -0.008519 -221434.000000 0 0 1
8.986482 34.301725 6.698488 36.086493 1.314571 1.384090 0.013589 -0.002354 -278156.000000 0 0 1
8.528782 -33.232434 7.191288 35.054949 -1.319578 1.364186 0.017823 -0.005735 -14795.200000 0 0 1
8.860682 -32.132364 6.381188 33.937002 -1.301728 1.381640 0.030535 -0.020122 -41278.900000 0 0 1
8.116682 -30.793784 6.751588 32.553366 -1.313076 1.361879 0.039245 -0.019700 270289.000000 0 0 1
8.472382 -30.334784 8.056988 32.509929 -1.298441 1.320355 0.030835 -0.011583 238160.000000 0 0 1
7.881082 -29.042004 8.303488 31.216941 -1.305810 1.301562 0.053353 -0.005183 -16560.900000 0 0 1
8.657082 -27.850214 7.713588 30.167515 -1.269421 1.312233 0.050547 -0.009766 -87313.300000 0 0 1
9.206282 -27.005454 8.724988 29.835811 -1.242247 1.274026 0.046562 -0.006127 368970.000000 0 0 1
10.014982 -25.903674 8.269388 28.977284 -1.201874 1.281399 0.053641 -0.021105 342364.000000 0 0 1
9.308082 -24.866844 7.352788 27.551113 -1.212625 1.300644 0.052442 -0.020354 -390639.000000 0 0 1
9.065182 -25.432884 6.062088 27.672334 -1.228400 1.349938 0.046061 -0.015440 -443554.000000 0 0 1
8.259382 -24.654244 5.236388 26.522988 -1.247539 1.372062 0.058773 -0.009443 56528.900000 0 0 1
8.119882 -25.324524 3.871488 26.874755 -1.260519 1.426237 0.056539 -0.011267 92483.100000 0 0 1
7.270882 -26.455514 3.712188 27.686464 -1.302584 1.436312 0.042054 -0.010432 88243.200000 0 0 1
7.890182 -27.672284 4.101888 29.066059 -1.293037 1.429201 0.041416 -0.012389 -72479.100000 0 0 1
6.951082 -28.829374 3.833488 29.902274 -1.334201 1.442242 0.039334 -0.012952 -1090530.000000 0 0 1
5.884082 -28.929524 4.712088 29.895544 -1.370140 1.412518 0.034343 -0.008823 282443.000000 0 0 1
4.773082 -29.724554 4.190688 30.395613 -1.411578 1.432484 0.030650 -0.003852 1142560.000000 0 0 1
4.925082 -31.266574 4.288588 31.941307 -1.414561 1.436125 0.033805 -0.005799 132382.000000 0 0 1
5.957082 -31.821154 3.442688 32.556486 -1.385733 1.464853 0.038861 -0.008209 539708.000000 0 0 1
6.054882 -33.158454 3.758388 33.915633 -1.390182 1.459752 0.035253 -0.011816 -450450.000000 0 0 1
7.101682 -33.868414 2.935588 34.729254 -1.364106 1.486168 0.035528 -0.009395 -534022.000000 0 0 1
6.692082 -34.098277 1.598588 34.785514 -1.377001 1.524825 0.038601 -0.010011 -131299.000000 0 0 1
7.480582 33.612372 1.106788 34.452513 1.351811 1.538666 0.016206 -0.004174 -539397.000000 0 0 1
6.949782 33.150662 -0.241112 33.872172 1.364147 1.577915 0.038786 -0.004790 234245.000000 0 0 1
5.906682 32.204452 -0.290412 32.742938 1.389400 1.579666 0.017997 -0.004722 -520295.000000 0 0 1
4.630482 32.766804 -0.136412 33.092649 1.430410 1.574918 0.032202 -0.012262 -893500.000000 0 0 1
3.539482 31.721372 -0.007312 31.918231 1.459676 1.571025 0.052869 -0.012471 -419390.000000 0 0 1
3.343782 30.923082 -1.185912 31.125942 1.463083 1.608906 0.054206 -0.011752 78141.300000 0 0 1
2.215282 30.084912 -1.072612 30.185426 1.497295 1.606338 0.036459 -0.014128 -47630.600000 0 0 1
2.151982 28.969932 -2.186812 29.131944 1.496649 1.645933 0.030804 -0.004740 -96180.400000 0 0 1
1.914782 29.636582 -3.427712 29.895528 1.506277 1.685705 0.032852 -0.016884 127398.000000 0 0 1
2.023682 28.845632 -4.535012 29.269987 1.500756 1.726360 0.027697 -0.023132 -344320.000000 0 0 1
1.725082 29.594632 -5.832012 30.213086 1.512572 1.765045 0.031711 -0.023276 174775.000000 0 0 1
0.360182 29.944002 -6.044212 30.550049 1.558768 1.769957 0.038357 -0.019380 404079.000000 0 0 1
0.017882 30.799932 -7.101412 31.608009 1.570216 1.797402 0.033729 -0.020103 -157871.000000 0 0 1
-0.017718 30.192312 -8.498512 31.365598 -1.570209 1.845176 0.034204 -0.018186 -697893.000000 0 0 1
-1.226818 29.544912 -8.820312 30.857816 -1.529296 1.860676 0.035079 -0.015046 -47329.600000 0 0 1
-1.435118 29.249002 -10.219012 31.015994 -1.521770 1.906544 0.043187 -0.012862 -36225.500000 0 0 1
-1.612018 30.467862 -11.170812 32.491172 -1.517937 1.921768 0.033415 -0.011339 144542.000000 0 0 1
-0.420418 31.246352 -11.384212 33.258256 -1.557342 1.920157 0.031126 -0.004849 445752.000000 0 0 1
-0.612518 32.615862 -11.646612 34.638320 -1.552019 1.913712 0.023966 -0.012183 -166091.000000 0 0 1
-0.787418 33.551006 -10.387512 35.131047 -1.547331 1.870963 0.023757 -0.021762 -427029.000000 0 0 1
0.341782 33.716963 -9.591112 35.056239 1.560660 1.847922 0.016335 -0.025474 -479650.000000 0 0 1
-0.017318 -34.297249 -8.438312 35.320061 1.570291 1.812039 0.026954 -0.021486 -538322.000000 0 0 1
1.142682 -33.919614 -7.507612 34.759318 -1.537121 1.788500 0.023571 -0.013957 -206984.000000 0 0 1
2.096982 -33.025454 -8.023012 34.050649 -1.507386 1.808653 0.030456 -0.015347 -41334.800000 0 0 1
3.035282 -32.644374 -7.025712 33.529520 -1.478083 1.781899 0.028505 -0.010555 510592.000000 0 0 1
4.421282 -32.135754 -7.586412 33.313782 -1.434073 1.800538 0.022606 -0.009488 1314060.000000 0 0 1
5.260382 -33.044374 -8.321912 34.479799 -1.412930 1.814559 0.028843 -0.005218 494483.000000 0 0 1
5.768982 -34.122066 -7.527512 35.415533 -1.403311 1.784978 0.036034 -0.002338 -866308.000000 0 0 1
6.072782 33.245504 -8.215612 34.779858 1.390123 1.809268 0.034470 -0.005134 314013.000000 0 0 1
4.944282 32.423182 -8.568812 33.898868 1.419470 1.826344 0.034215 -0.007470 343882.000000 0 0 1
4.154482 32.914910 -9.654912 34.552400 1.445241 1.853995 0.029140 -0.007226 385460.000000 0 0 1
3.104182 31.862622 -10.071712 33.560424 1.473679 1.875601 0.021937 -0.012961 153662.000000 0 0 1
3.815382 30.745212 -10.575712 32.736385 1.447331 1.899754 0.019454 -0.011139 253441.000000 0 0 1
3.098282 29.541052 -10.435312 31.482834 1.466298 1.908647 0.017993 -0.019002 -162064.000000 0 0 1
3.770682 28.418282 -11.214412 30.782785 1.438882 1.943686 0.012552 -0.021204 -16195.300000 0 0 1
3.749982 28.729252 -12.582412 31.587171 1.441002 1.980502 0.020072 -0.015903 1472.290000 0 0 1
5.003682 28.506562 -13.169412 31.797710 1.397039 1.997819 0.019829 -0.017335 -238684.000000 0 0 1
4.959282 29.256942 -14.509312 33.031550 1.402885 2.025567 0.023406 -0.015026 286407.000000 0 0 1
4.089982 28.701612 -15.513412 32.881248 1.429249 2.062129 0.032312 -0.014702 408804.000000 0 0 1
4.099782 29.360222 -16.767112 34.058287 1.432056 2.085534 0.054392 -0.013919 64692.200000 0 0 1
3.146582 28.606682 -17.743412 33.809347 1.461242 2.123286 0.043171 -0.017262 332496.000000 0 0 1
3.566382 27.273612 -18.148412 32.953511 1.440771 2.154032 0.050801 -0.012501 343459.000000 0 0 1
2.781882 26.910222 -19.289212 33.226084 1.467786 2.190193 0.061440 -0.025214 397043.000000 0 0 1
3.487282 25.819652 -20.102112 32.907605 1.436546 2.227949 0.061331 -0.021583 257878.000000 0 0 1
3.381582 24.608292 -19.425912 31.533620 1.434235 2.234499 0.061774 -0.026284 30969.500000 0 0 1
4.387882 23.718562 -19.864412 31.247697 1.387867 2.259722 0.063163 -0.019889 -92570.200000 0 0 1
4.567682 22.501392 -19.001612 29.803316 1.370522 2.262132 0.061475 -0.016054 16185.600000 0 0 1
3.584082 21.475392 -18.837112 28.790188 1.405428 2.284039 0.072812 -0.014690 -278585.000000 0 0 1
4.095682 20.477092 -17.975612 27.553739 1.373388 2.281522 0.055327 -0.008612 285272.000000 0 0 1
3.248282 19.145692 -17.742812 26.304301 1.402735 2.311112 0.053825 -0.018176 -110299.000000 0 0 1
2.222882 19.414892 -16.842212 25.798049 1.456799 2.282135 0.059369 -0.016605 -808732.000000 0 0 1
1.405682 18.291192 -16.545412 24.704136 1.494097 2.304658 0.044601 -0.010241 -144871.000000 0 1 0
1.866982 17.238192 -15.477412 23.242013 1.462912 2.299528 0.041153 -0.003678 449091.000000 0 1 0
2.985182 16.410192 -15.867712 23.021512 1.390854 2.331258 0.037394 -0.020854 315537.000000 0 1 0
2.739682 15.336792 -16.765212 22.886577 1.394026 2.392834 0.041535 -0.021473 -360508.000000 0 1 0
2.814282 15.577392 -18.253012 24.160873 1.392060 2.427180 0.031689 -0.019070 -1470130.000000 0 1 0
4.050382 15.928392 -18.743012 24.928293 1.321787 2.421701 0.045959 -0.017288 -1145640.000000 0 1 0
4.061182 16.415292 -20.070912 26.244933 1.328264 2.441455 0.042611 -0.009585 -598098.000000 0 0 1
4.392282 15.471592 -21.258212 26.656592 1.294181 2.493910 0.051205 -0.013189 269315.000000 0 0 1
3.448382 14.453292 -21.556112 26.181195 1.336587 2.538073 0.046916 -0.005340 405497.000000 0 0 1
2.137782 14.893292 -21.909312 26.578153 1.428230 2.539823 0.038962 -0.009205 395968.000000 0 0 1
1.300282 13.699992 -22.532112 26.402208 1.476169 2.593304 0.037665 -0.005682 337263.000000 0 0 1
0.572282 12.903592 -21.620312 25.184680 1.526475 2.603077 0.037412 -0.002163 -140318.000000 0 0 1
-0.278318 11.985892 -22.210912 25.240121 -1.547580 2.646626 0.015581 -0.002883 -495639.000000 0 0 1
-0.731518 10.960492 -21.216412 23.891497 -1.504154 2.663843 0.010735 0.000923 -655530.000000 0 1 0
-1.657318 11.432692 -20.235012 23.300405 -1.426836 2.622844 0.008782 -0.003129 362723.000000 0 1 0
-2.077918 10.412492 -19.297612 22.025793 -1.373824 2.638586 0.003319 -0.003139 -113408.000000 0 1 0
-3.164418 9.472492 -19.836912 22.209114 -1.248388 2.675182 0.004088 -0.003866 -917418.000000 0 1 0
-2.721218 8.494792 -20.789212 22.622066 -1.260785 2.736281 0.003664 0.001529 -433402.000000 0 1 0
-3.794818 7.784892 -21.323712 23.015340 -1.117232 2.755799 0.006845 0.010397 -232193.000000 0 1 0
-3.279318 6.562792 -22.124712 23.309377 -1.107402 2.821405 0.007592 0.005065 481663.000000 0 1 0
-2.510918 5.628192 -21.364012 22.235158 -1.151163 2.860746 0.007903 0.006968 277022.000000 0 1 0
-2.055818 4.551792 -22.187012 22.742223 -1.146571 2.920174 0.018982 0.000273 -42250.500000 0 1 0
-1.403718 3.419992 -21.270612 21.589481 -1.181318 2.969510 0.017976 0.002268 -122868.000000 0 1 0
-0.070618 3.637192 -20.911612 21.225684 -1.551383 2.969352 0.011068 -0.005923 -478915.000000 0 1 0
0.485782 2.508492 -20.264912 20.425356 1.379509 3.016170 0.009427 0.002133 124695.000000 0 1 0
2.019582 2.424892 -20.229712 20.474376 0.876341 2.986844 0.011992 -0.006781 140476.000000 0 1 0
2.662982 2.161492 -21.478812 21.750928 0.681823 2.983247 0.017958 -0.003250 1180760.000000 0 1 0
4.098282 2.025292 -21.304312 21.789250 0.458981 2.930221 0.030057 -0.007609 1281490.000000 0 1 0
4.768182 1.309692 -22.502712 23.039594 0.268062 2.925289 0.030286 -0.005238 597008.000000 0 1 0
6.190282 1.171692 -22.594312 23.456244 0.187066 2.869660 0.030826 -0.003966 758304.000000 0 1 0
6.688382 0.866992 -23.878112 24.812303 0.128908 2.866315 0.027846 -0.002487 -240892.000000 0 1 0
8.191382 0.532392 -23.796812 25.172811 0.064903 2.809425 0.024265 -0.011877 233786.000000 0 0 1
8.974582 1.722292 -23.632412 25.337725 0.189603 2.772615 0.029668 -0.021677 308971.000000 0 0 1
10.322282 1.442192 -23.303612 25.528176 0.138818 2.721028 0.032492 -0.019914 -431228.000000 0 0 1
14.000582 -21.269744 22.301851 33.849533 -0.988651 0.851504 0.003714 0.016011 588438.000000 0 0 1
12.925882 -22.254544 22.234651 34.010629 -1.044599 0.858259 -0.000209 0.022930 646847.000000 0 0 1
11.608682 -21.786044 22.111151 33.140552 -1.081216 0.840362 -0.003197 0.014893 262703.000000 0 0 1
11.257182 -21.326344 20.652251 31.749844 -1.085115 0.862596 -0.002299 -0.001764 -514609.000000 0 0 1
11.629082 -20.011244 20.331751 30.806907 -1.044369 0.850012 -0.010293 -0.003650 -53307.600000 0 0 1
11.352082 -19.710244 18.963851 29.614036 -1.048250 0.875820 0.010238 -0.009574 -33151.200000 0 0 1
11.434882 -18.200944 18.569051 28.404939 -1.009858 0.858298 0.028643 -0.018278 30222.400000 0 0 1
10.464682 -17.442444 19.265551 28.016243 -1.030410 0.812540 0.042930 -0.018254 -174732.000000 0 0 1
10.613082 -16.115744 18.904051 27.013290 -0.988432 0.795671 0.051459 -0.016493 -468650.000000 0 0 1
9.492082 -15.175044 19.315551 26.333858 -1.011833 0.747358 0.051788 -0.017168 -968882.000000 0 0 1
8.282182 -15.686444 18.878251 25.904583 -1.085013 0.754285 0.039628 -0.006840 -886975.000000 0 0 1
7.224482 -14.816444 19.234251 25.331336 -1.117119 0.708549 0.020666 -0.002973 -274965.000000 0 0 1
5.815982 -15.193544 18.819251 24.876367 -1.205211 0.712834 -0.003542 0.011296 -439158.000000 0 1 0
5.660782 -15.028244 17.426651 23.697695 -1.210557 0.744579 -0.009920 0.009028 520479.000000 0 1 0
4.304682 -15.294744 17.041051 23.299290 -1.296445 0.750427 -0.014346 0.011825 745735.000000 0 1 0
3.826282 -16.783544 16.833751 24.077021 -1.346649 0.796571 -0.003605 0.009944 -186938.000000 0 1 0
2.485482 -16.840544 16.405251 23.641358 -1.424265 0.803875 0.009942 0.011438 -662027.000000 0 1 0
1.938382 -18.102444 16.516651 24.581610 -1.464124 0.834011 0.020422 -0.001643 -921956.000000 0 1 0
0.461182 -17.937944 16.268151 24.220555 -1.545092 0.834340 0.031138 0.004405 -959525.000000 0 1 0
0.200782 -17.748544 14.944651 23.203313 -1.559484 0.870984 0.033999 0.001884 93597.300000 0 1 0
-1.205418 -17.665344 14.720051 23.026014 1.502666 0.877236 0.028405 0.001742 343770.000000 0 1 0
-1.689318 -17.964444 13.312751 22.423300 1.477035 0.935145 0.020638 -0.015716 1306360.000000 0 1 0
-3.117218 -18.244644 13.265651 22.771947 1.401574 0.948942 0.005502 -0.013232 1345680.000000 0 1 0
-3.494018 -19.352844 12.402951 23.250246 1.392178 1.008117 0.018593 -0.021422 -231183.000000 0 1 0
-5.011318 -19.537944 12.333151 23.642149 1.319717 1.022001 0.015629 -0.022240 -196259.000000 0 1 0
-5.588718 -20.090944 13.525451 24.855938 1.299484 0.995416 0.006550 -0.014840 -121491.000000 0 1 0
-5.832618 -21.469944 13.361451 25.952000 1.305534 1.029961 -0.026296 0.000530 -454546.000000 0 0 1
-6.661818 -22.175744 14.450751 27.294096 1.278963 1.012849 -0.006066 0.003595 -92750.700000 0 0 1
-8.023418 -21.816344 14.350351 27.317772 1.218378 1.017715 0.005695 -0.001285 -151170.000000 0 0 1
-8.739118 -22.659844 15.279051 28.693033 1.202708 1.009244 0.009095 0.001293 -53341.900000 0 0 1
-10.222218 -22.304644 15.398651 28.967384 1.141062 1.010325 0.027993 -0.003189 -232984.000000 0 0 1
-10.370618 -21.034044 15.992251 28.385433 1.112732 0.972305 0.017145 -0.001779 -36753.900000 0 0 1
-11.702718 -20.524444 16.025251 28.548469 1.052589 0.974798 0.032436 -0.007075 384435.000000 0 0 1
-11.944718 -19.350744 16.973951 28.376797 1.017772 0.929589 0.030061 -0.001885 -156297.000000 0 0 1
-12.070518 -19.694144 18.334351 29.490764 1.020946 0.899888 0.037903 0.000162 -42942.900000 0 0 1
-12.464618 -18.563644 19.140751 29.433721 0.979487 0.862817 0.033817 -0.003405 46024.300000 0 0 1
-12.894418 -19.021844 20.567351 30.840112 0.975075 0.840752 0.051271 -0.005792 20432.600000 0 0 1
-14.117318 -19.715944 20.465351 31.730864 0.949389 0.869817 0.059975 -0.003768 -151197.000000 0 0 1
-14.556418 -20.237744 21.696351 33.048256 0.947254 0.854620 0.049954 0.003602 76765.200000 0 0 1
-15.870718 -21.039344 21.556451 34.047236 0.924526 0.885201 0.052962 -0.004514 -473539.000000 0 0 1
-15.852718 -22.008444 20.479651 33.986709 0.946575 0.924069 0.051053 -0.004653 644059.000000 0 0 1
-17.125818 -22.421744 19.968551 34.565464 0.918519 0.954885 0.047521 -0.007819 1106290.000000 0 0 1
-18.159018 -23.227444 20.852651 36.112285 0.907257 0.955208 0.044241 -0.003519 144329.000000 0 0 1
-18.840818 -22.335944 21.718351 36.408208 0.870076 0.931634 0.053153 -0.000873 -111912.000000 0 0 1
-19.386018 -22.976144 22.825151 37.745310 0.869945 0.921388 0.042701 0.003364 180907.000000 0 0 1
-20.184118 -22.043844 23.808111 38.211986 0.829410 0.898156 0.030521 0.009431 -167500.000000 0 0 1
-21.336518 -21.444444 23.320751 38.196448 0.787921 0.914044 0.027534 0.018110 -300208.000000 0 0 1
-21.631318 -20.381544 24.168841 38.307364 0.755660 0.888059 0.029709 0.013595 383651.000000 0 0 1
-22.631618 -19.368444 23.512251 37.949344 0.707859 0.902602 0.029805 0.019151 451465.000000 0 0 1
-21.959918 -18.704044 22.469351 36.564341 0.705501 0.909025 0.030117 0.018938 116141.000000 0 0 1
-22.866118 -17.869344 21.820551 36.308529 0.663344 0.926075 0.024740 0.014891 -283004.000000 0 0 1
-22.352918 -17.343244 20.454951 34.911976 0.659861 0.944805 0.026867 0.013618 90111.800000 0 0 1
-21.297718 -16.394944 20.568951 33.844774 0.656052 0.917580 0.025472 0.019258 -9798.460000 0 0 1
-21.144718 -15.767744 19.307951 32.688191 0.640747 0.938907 0.026561 0.008216 11666.900000 0 0 1
-20.142218 -14.619244 19.108851 31.378009 0.627833 0.916011 0.021368 -0.002072 -211931.000000 0 0 1
-19.838418 -14.440244 17.729651 30.272496 0.629202 0.945092 0.019849 -0.004744 10373.700000 0 0 1
-18.985218 -13.340744 17.515451 29.072409 0.612530 0.924196 0.027452 -0.020017 -507071.000000 0 0 1
-18.718118 -13.088944 15.978451 27.874707 0.610233 0.960361 0.018641 -0.018744 -83848.400000 0 0 1
-18.269218 -11.790044 15.677751 26.805995 0.573100 0.946089 0.023450 -0.024367 -93714.500000 0 0 1
-16.873118 -11.681444 15.860651 25.936817 0.605547 0.912827 0.037967 -0.030299 -310349.000000 0 0 1
-16.298818 -10.507644 14.994551 24.513233 0.572632 0.912599 0.043540 -0.035449 -16261.800000 0 1 0
-16.844918 -9.272144 15.432751 24.655501 0.503182 0.894466 0.035021 -0.025129 388188.000000 0 1 0
-16.322918 -8.129044 14.735851 23.444921 0.462058 0.891134 0.022518 -0.015253 -595982.000000 0 1 0
-16.600518 -6.785944 15.366651 23.616947 0.388052 0.862340 0.033220 -0.005832 226825.000000 0 1 0
-15.873118 -6.587144 16.569451 23.872433 0.393359 0.803651 0.024338 -0.003167 -444955.000000 0 1 0
-14.532018 -6.251944 16.374251 22.768014 0.406283 0.768178 0.033823 -0.009113 -1020150.000000 0 1 0
-13.859418 -6.089944 17.761251 23.337372 0.414011 0.705843 0.035589 -0.005510 -108587.000000 0 1 0
-13.850618 -7.213544 18.638451 24.315976 0.480157 0.697406 0.034023 -0.007567 -44068.500000 0 1 0
-13.183818 -8.373844 18.186151 23.972284 0.565873 0.709585 0.035077 -0.013136 -582918.000000 0 1 0
-13.284018 -9.615844 19.132051 25.198511 0.626564 0.708631 0.036605 -0.015698 1207960.000000 0 0 1
-14.610518 -10.200444 19.200851 26.195209 0.609488 0.748088 0.035798 -0.016443 838733.000000 0 0 1
-15.444118 -9.544544 20.087751 27.076500 0.553553 0.734914 0.029843 -0.008099 -974318.000000 0 0 1
-16.821518 -10.175144 20.372051 28.311084 0.544006 0.767601 0.025546 -0.001375 796413.000000 0 0 1
-17.818518 -10.328944 19.344951 28.256217 0.525340 0.816705 0.024925 -0.011972 805268.000000 0 0 1
-18.359718 -9.185044 18.731951 27.790831 0.463874 0.831141 0.026356 -0.011618 -464253.000000 0 0 1
-19.537918 -9.497144 17.774751 28.068982 0.452456 0.885048 0.038244 -0.009656 922773.000000 0 0 1
-20.793618 -9.433844 18.503951 29.389933 0.425918 0.889756 0.036588 -0.012245 891408.000000 0 0 1
-21.863818 -9.581344 17.569551 29.639801 0.413022 0.936304 0.043976 -0.015076 843913.000000 0 0 1
-23.262418 -9.794044 18.254551 31.149511 0.398498 0.944646 0.046283 -0.008125 423545.000000 0 0 1
-23.756218 -8.645344 18.934251 31.584897 0.349021 0.927955 0.047887 -0.002563 174668.000000 0 0 1
-25.156078 -8.618744 18.996051 32.679672 0.330077 0.950495 0.033294 0.000208 -325107.000000 0 0 1
-25.826208 -7.443644 19.734551 33.344465 0.280615 0.937458 0.038914 -0.002855 -110255.000000 0 0 1
-25.665168 -7.488944 21.146251 34.087374 0.283912 0.901602 0.047646 -0.006735 245943.000000 0 0 1
-26.301958 -6.377944 21.725751 34.705611 0.237897 0.894382 0.038369 -0.004728 -486495.000000 0 0 1
-26.159598 -6.336544 23.290751 35.594037 0.237649 0.857481 0.035674 -0.000820 126910.000000 0 0 1
-24.913618 -6.151244 23.941381 35.095810 0.242062 0.820067 0.040426 -0.008785 88884.700000 0 0 1
-24.003918 -7.251244 23.895681 34.637728 0.293369 0.809481 0.042560 -0.007400 450321.000000 0 0 1
-22.837618 -6.898844 24.892231 34.478602 0.293366 0.764163 0.035110 -0.005148 284198.000000 0 0 1
-22.221618 -5.654844 24.656471 33.670746 0.249186 0.749130 0.024026 -0.002459 -217824.000000 0 0 1
-21.331218 -5.356644 25.685891 33.815374 0.246030 0.708111 0.019845 -0.004084 -565040.000000 0 0 1
-20.833118 -3.959644 25.507091 33.170910 0.187825 0.693584 0.011835 0.000928 361580.000000 0 0 1
-19.697718 -3.598644 26.330191 33.079137 0.180701 0.650179 0.002830 -0.001504 636440.000000 0 0 1
-19.946318 -3.355444 27.758251 34.345816 0.166663 0.629709 0.007741 -0.010166 -280859.000000 0 0 1
-20.627318 -2.026144 28.164521 34.969011 0.097912 0.634423 0.010494 -0.017089 416060.000000 0 0 1
-22.005418 -2.020244 27.825931 35.533115 0.091550 0.671164 0.004860 -0.010574 200295.000000 0 0 1
-22.827018 -1.219544 28.683511 36.678384 0.053375 0.672884 0.008609 -0.002752 67891.900000 0 0 1
-24.210918 -0.973844 28.105101 37.108134 0.040202 0.711499 0.014333 -0.003422 -1061220.000000 0 0 1
-24.139618 -0.233644 26.898721 36.143007 0.009679 0.731415 0.014535 -0.004819 -253748.000000 0 0 1
-25.294528 -0.014344 26.116091 36.357442 0.000567 0.769419 0.020496 -0.000664 -380610.000000 0 0 1
-25.918558 -1.253944 25.428671 36.331272 0.048342 0.795523 0.012104 0.001370 -95393.800000 0 0 1
-26.789998 -2.019544 26.250981 37.561903 0.075242 0.796976 0.010590 -0.003392 169690.000000 0 0 1
-26.836388 -3.394644 25.996381 37.517025 0.125826 0.805262 -0.011511 0.003967 620733.000000 0 0 1
-25.525308 -4.152444 26.419971 36.970245 0.161267 0.774704 0.018275 -0.016435 622819.000000 0 0 1
-25.457558 -4.557644 27.749681 37.932890 0.177152 0.750209 0.013253 -0.009099 -113082.000000 0 0 1
-24.341518 -5.403844 27.865701 37.392624 0.218458 0.729933 0.049205 -0.016486 -222049.000000 0 0 1
-24.338618 -5.868244 29.339591 38.569628 0.236593 0.706418 0.018057 -0.012236 114066.000000 0 0 1
-25.500948 -6.568544 29.778541 39.751800 0.252100 0.724076 0.027868 -0.013165 430704.000000 0 0 1
-25.383878 -7.123044 31.061951 40.742163 0.273577 0.703778 0.013761 -0.006216 -883831.000000 0 0 1
-26.737568 -7.510444 31.628971 42.091521 0.273838 0.720565 -0.000593 -0.013587 -215392.000000 0 0 1
-27.414498 -8.650644 31.020961 42.292888 0.305661 0.747370 0.002370 -0.015913 232118.000000 0 0 1
-28.774208 -8.655744 31.386121 43.450725 0.292205 0.763619 0.015901 -0.013871 -730561.000000 0 0 1
-29.546798 -9.572444 30.510491 43.537742 0.313305 0.794302 0.020995 -0.019792 -700962.000000 0 0 1
-29.416118 -10.922344 30.768831 43.946861 0.355527 0.795207 0.030472 -0.019527 -33392.900000 0 0 1
-30.329168 -11.624044 29.967231 44.192893 0.365995 0.825621 0.005923 -0.012882 -586702.000000 0 0 1
-29.791618 -12.832944 29.260991 43.685587 0.406737 0.836845 0.013641 -0.013294 -1468600.000000 0 0 1
-28.803398 -12.469944 28.427241 42.346703 0.408571 0.834838 0.027233 -0.007818 -1401190.000000 0 0 1
-27.931678 -13.550944 28.201031 41.941684 0.451694 0.833368 0.036071 -0.008810 -344551.000000 0 0 1
-26.690818 -12.953844 27.489771 40.446129 0.451843 0.823492 0.046474 -0.012256 -179400.000000 0 0 1
-25.699838 -12.257044 28.243571 40.105063 0.445023 0.789445 0.043566 -0.020143 423843.000000 0 0 1
-25.941638 -10.904344 28.642411 40.152970 0.397918 0.776555 0.050983 -0.017315 -681779.000000 0 0 1
-25.917738 -9.871744 27.473571 39.038155 0.363922 0.790117 0.051031 -0.018857 492988.000000 0 0 1
-24.619118 -9.542244 26.946521 37.726256 0.369767 0.775224 0.045828 -0.016293 746247.000000 0 0 1
-24.099518 -10.560544 26.101001 37.061761 0.413003 0.789420 0.034245 -0.013372 -474671.000000 0 0 1
-24.596118 -10.582244 24.627321 36.379360 0.406301 0.827174 0.040835 0.000364 486686.000000 0 0 1
-25.961138 -11.019344 24.597171 37.422286 0.401409 0.853583 0.043357 -0.002057 688633.000000 0 0 1
-26.620878 -10.671044 23.376151 36.999821 0.381241 0.886935 0.044961 0.005628 -620520.000000 0 0 1
-28.042228 -11.199144 23.294751 38.137027 0.379961 0.913704 0.041720 0.003114 -162819.000000 0 0 1
-29.051718 -10.520344 24.055751 39.158130 0.347435 0.909268 0.038628 -0.002002 269105.000000 0 0 1
-29.073768 -10.672344 25.457781 40.090916 0.351807 0.882786 0.046731 -0.009548 581009.000000 0 0 1
-30.547478 -10.583144 26.051111 41.518812 0.333508 0.892518 0.012997 -0.008112 1033530.000000 0 0 1
-31.163818 -9.319944 25.741771 41.481124 0.290597 0.901332 0.018613 -0.013663 1269210.000000 0 0 1
-32.597948 -9.216044 25.928821 42.659881 0.275528 0.917505 0.008732 -0.002460 1260150.000000 0 0 1
-33.124798 -9.271844 27.399301 43.976596 0.272922 0.898170 -0.004771 0.000591 -601247.000000 0 0 1
-33.228298 -10.546644 27.979971 44.701569 0.307342 0.894475 -0.005025 -0.004816 211102.000000 0 0 1
-33.914328 -10.516044 29.210921 45.978764 0.300676 0.882382 -0.001621 -0.002230 -1087160.000000 0 0 1
-34.377170 -11.937744 29.666001 46.950731 0.334230 0.886854 -0.004811 0.000726 572754.000000 0 0 1
-35.503339 -12.484744 28.948661 47.480321 0.338144 0.915117 -0.007002 -0.002388 2155370.000000 0 0 1
34.774888 -11.767844 29.227161 46.925493 -0.326304 0.898426 -0.006146 -0.000683 457914.000000 0 0 1
33.627688 -12.373644 28.427011 45.738642 -0.352584 0.900128 0.001269 0.002152 -417171.000000 0 0 1
33.699918 -12.089444 27.019301 44.854005 -0.344438 0.924313 0.010042 0.001422 -716560.000000 0 0 1
32.632088 -12.676144 26.368551 43.827369 -0.370516 0.925236 0.016432 0.004340 -566717.000000 0 0 1
32.390358 -12.189044 24.926221 42.650024 -0.359925 0.946611 0.024033 -0.004623 12859.000000 0 0 1
31.924778 -10.853344 24.809001 41.862549 -0.327708 0.936476 0.033537 -0.010338 23108.300000 0 0 1
32.155868 -10.215744 23.608151 41.178952 -0.307610 0.960261 0.026308 -0.011154 -201205.000000 0 0 1
31.787118 -8.690844 23.593151 40.528859 -0.266885 0.949448 0.046074 -0.000623 -940187.000000 0 0 1
30.431398 -8.517844 23.770461 39.543121 -0.272919 0.925885 0.067039 -0.011490 -1112400.000000 0 0 1
30.061858 -7.164544 23.523551 38.838170 -0.233962 0.920175 0.075590 -0.007947 559351.000000 0 0 1
28.523208 -6.968844 23.370351 37.527476 -0.239627 0.898540 0.072797 -0.003937 306903.000000 0 0 1
28.003868 -7.599444 22.240951 36.559924 -0.264989 0.916826 0.060575 -0.001171 -179551.000000 0 0 1
26.596378 -7.585744 22.253851 35.498517 -0.277840 0.893235 0.072042 -0.018677 -267197.000000 0 0 1
14.207882 -17.448644 26.614321 34.851702 -0.887415 0.701857 -0.006829 0.015846 -358062.000000 0 0 1
13.434482 -18.561644 26.258691 34.850234 -0.944291 0.717469 -0.031621 0.028615 26759.100000 0 0 1
14.214782 -19.689444 25.875111 35.485992 -0.945491 0.753697 -0.004373 0.027587 -637481.000000 0 0 1
13.400382 -21.022244 25.854911 35.916311 -1.003303 0.767188 -0.031861 0.013991 450439.000000 0 0 1
12.930382 -21.483644 27.195651 36.991150 -1.029002 0.744844 -0.014002 0.011206 -403830.000000 0 0 1
11.788282 -20.792544 27.539061 36.464961 -1.055035 0.714807 -0.013801 0.014145 -1460850.000000 0 0 1
11.276882 -21.082744 28.930241 37.531440 -1.079630 0.690658 -0.011340 0.010622 71506.200000 0 0 1
12.090682 -20.554044 30.014551 38.334405 -1.039070 0.671376 -0.008643 0.014490 217992.000000 0 0 1
11.446882 -19.583644 30.838261 38.282484 -1.041843 0.634202 -0.003162 0.012181 -2788.090000 0 0 1
11.306882 -18.123044 30.250711 37.032362 -1.012992 0.614829 -0.002352 0.014575 -411266.000000 0 0 1
12.452482 -17.372344 30.393721 37.156977 -0.948885 0.612903 -0.008704 0.022157 -798731.000000 0 0 1
12.143582 -16.084844 29.986651 36.130154 -0.924122 0.591757 -0.001163 0.018803 -209287.000000 0 0 1
13.043982 -14.946344 30.426631 36.322425 -0.853259 0.577772 -0.006500 0.016907 -308896.000000 0 0 1
12.584782 -13.702944 30.034241 35.329917 -0.827908 0.554606 0.021213 0.014853 280732.000000 0 0 1
13.398682 -12.687644 30.635031 35.763195 -0.758148 0.542137 0.017679 0.016334 508416.000000 0 0 1
13.037482 -11.196544 30.094581 34.655769 -0.709579 0.518858 0.018815 0.010423 23717.500000 0 0 1
12.918282 -10.943644 28.703071 33.324340 -0.702834 0.532925 0.036435 0.007141 -891285.000000 0 0 1
14.042582 -10.967244 27.927741 33.127530 -0.663047 0.567891 0.036926 0.007917 -1606110.000000 0 0 1
14.084282 -9.873944 26.898741 31.928107 -0.611438 0.568929 0.041346 -0.001032 -138635.000000 0 0 1
14.306382 -8.548044 27.276261 31.964606 -0.538578 0.548463 0.039333 -0.003062 -569368.000000 0 0 1
15.660382 -8.390244 27.560071 32.790262 -0.491847 0.572599 0.033770 -0.008219 -898470.000000 0 0 1
16.131182 -6.927844 27.843191 32.915852 -0.405650 0.562565 0.030664 -0.010647 -797694.000000 0 0 1
17.497482 -6.759344 27.988391 33.692738 -0.368644 0.590441 0.030884 -0.014331 -679492.000000 0 0 1
17.868582 -5.388744 27.955871 33.613323 -0.292902 0.588651 0.035128 -0.011664 -395288.000000 0 0 1
19.330082 -5.038444 27.684561 34.139023 -0.254980 0.625046 0.035219 -0.012360 -1094640.000000 0 0 1
19.738382 -5.598844 26.388761 33.426299 -0.276393 0.660866 0.033775 -0.009080 278040.000000 0 0 1
21.066682 -5.343044 26.003111 33.889747 -0.248388 0.696199 0.044463 -0.008137 167056.000000 0 0 1
22.255382 -5.835844 26.860881 35.367584 -0.256448 0.708287 0.050069 -0.022411 -816627.000000 0 0 1
22.490882 -4.980544 28.028961 36.280411 -0.217930 0.687926 0.043160 -0.018844 19164.600000 0 0 1
23.611382 -5.432644 28.766841 37.610399 -0.226150 0.699966 0.059101 -0.033885 -233354.000000 0 0 1
24.270682 -4.317644 29.514821 38.455594 -0.176054 0.695858 0.061835 -0.032665 -446766.000000 0 0 1
24.823982 -3.341944 28.678551 38.077000 -0.133821 0.717925 0.056784 -0.026372 107332.000000 0 0 1
25.476282 -2.270944 29.348571 38.929895 -0.088905 0.716845 0.043864 -0.035180 -343733.000000 0 0 1
26.287582 -1.388144 28.383081 38.711280 -0.052757 0.747782 0.050808 -0.033562 -60333.900000 0 0 1
27.622582 -1.807144 28.194481 39.512043 -0.065330 0.776220 0.049319 -0.033058 15891.300000 0 0 1
28.382582 -1.003044 27.304261 39.396697 -0.035325 0.805072 0.043524 -0.014537 342443.000000 0 0 1
29.840982 -0.833644 27.771131 40.772722 -0.027929 0.821505 0.018687 -0.012988 -59292.000000 0 0 1
30.024782 0.153656 28.786871 41.595613 0.005118 0.806450 -0.005387 0.001852 735952.000000 0 0 1
31.404182 0.366156 29.150601 42.849903 0.011659 0.822630 0.002757 -0.003070 964425.000000 0 0 1
31.699582 1.481056 30.184121 43.796554 0.046688 0.810427 0.012535 -0.008474 -95907.300000 0 0 1
31.579682 2.773856 29.662431 43.414633 0.087612 0.818611 -0.000146 0.002197 -227336.000000 0 0 1
32.142382 3.737856 30.482161 44.455218 0.115771 0.815256 -0.009813 0.004521 -228956.000000 0 0 1
32.222682 5.136656 29.856741 44.227948 0.158081 0.829744 -0.001408 0.007532 45276.800000 0 0 1
32.337682 6.242256 30.689391 45.016998 0.190688 0.820673 -0.008872 0.009165 500882.000000 0 0 1
31.061582 6.537756 31.246051 44.540766 0.207449 0.793274 -0.003410 0.009919 95981.200000 0 0 1
31.200082 7.382256 32.510301 45.660294 0.232337 0.778449 -0.008013 0.002863 -101882.000000 0 0 1
31.844082 6.694756 33.558564 46.744438 0.207218 0.769993 -0.015974 0.009632 172740.000000 0 0 1
31.922282 7.544956 -34.082509 47.303022 0.232095 2.375340 -0.002039 -0.002250 -315287.000000 0 0 1
32.070482 6.740556 -32.758582 46.336547 0.207164 2.356002 0.009642 -0.000408 182085.000000 0 0 1
30.913782 5.976556 -32.415292 45.189958 0.190974 2.370733 0.003785 0.007628 346260.000000 0 0 1
30.854782 4.621256 -32.871852 45.320329 0.148669 2.382299 0.007093 0.000212 9518.020000 0 0 1
31.543982 3.615856 -31.898522 45.006810 0.114131 2.358519 0.001756 -0.002586 -73142.700000 0 0 1
31.419082 2.284456 -32.378252 45.174425 0.072581 2.369910 0.004557 -0.001173 283429.000000 0 0 1
31.836982 1.320256 -31.395682 44.732822 0.041445 2.348786 0.005831 -0.000418 2935.860000 0 0 1
31.796382 -0.120844 -31.920962 45.055214 -0.003801 2.358146 0.012365 -0.018088 -592660.000000 0 0 1
32.904582 -0.359744 -32.764682 46.436681 -0.010933 2.354034 0.010559 -0.013656 -143242.000000 0 0 1
33.500782 -1.620544 -32.586152 46.763082 -0.048336 2.341771 0.014306 -0.010676 256500.000000 0 0 1
34.549582 -1.624344 -31.464732 46.758330 -0.046980 2.308949 0.028666 -0.011404 -978413.000000 0 0 1
33.907682 -1.622444 -30.194852 45.432283 -0.047812 2.297771 0.033423 -0.012143 -337126.000000 0 0 1
34.675182 -1.606944 -29.002652 45.233885 -0.046310 2.266819 0.046609 -0.014785 -352443.000000 0 0 1
33.892982 -1.404444 -27.662612 43.771301 -0.041414 2.254903 0.041285 -0.017772 -6548.830000 0 0 1
33.496682 -0.049644 -27.562202 43.378625 -0.001482 2.259306 0.040101 -0.019774 119298.000000 0 0 1
32.735482 0.232356 -26.420392 42.067837 0.007098 2.249832 0.032616 -0.014353 -177645.000000 0 0 1
32.222482 1.676856 -26.341012 41.652720 0.051993 2.255439 0.030269 -0.012930 -366797.000000 0 0 1
31.285182 1.838156 -27.351292 41.596089 0.058687 2.288352 0.028535 -0.015931 -376969.000000 0 0 1
30.888082 3.179856 -27.414682 41.421611 0.102586 2.294073 0.028531 -0.003368 -197878.000000 0 0 1
29.938882 3.451356 -28.581792 41.535134 0.114773 2.329712 0.019343 0.002374 -28527.300000 0 0 1
29.059282 4.536056 -28.248902 40.780119 0.154847 2.336040 0.021621 0.004080 945417.000000 0 0 1
28.124882 4.816456 -29.318802 40.912093 0.169607 2.369754 0.018309 0.001946 521365.000000 0 0 1
26.943982 5.749556 -29.003242 40.002795 0.210236 2.381875 0.017940 -0.000534 21784.800000 0 0 1
25.856382 5.205956 -28.285332 38.674468 0.198685 2.391124 0.023312 -0.001617 427866.000000 0 0 1
24.951182 6.186556 -27.774362 37.845081 0.243045 2.394837 0.029288 0.001201 -1061740.000000 0 0 1
23.641582 5.525556 -27.491922 36.677812 0.229600 2.418181 0.036718 0.005042 -1110700.000000 0 0 1
22.965382 5.091256 -28.710912 37.116655 0.218164 2.455191 0.041898 -0.001326 1532800.000000 0 0 1
21.612382 4.685356 -28.374012 35.974048 0.213487 2.479546 0.046688 -0.004435 766774.000000 0 0 1
20.818082 4.267356 -29.597272 36.436264 0.202182 2.518886 0.043423 -0.004136 -385003.000000 0 0 1
21.239082 3.048156 -30.125372 36.985509 0.142543 2.522695 0.040211 -0.008671 92563.100000 0 0 1
20.473482 2.605256 -31.224622 37.428970 0.126570 2.557543 0.032268 -0.010704 -216245.000000 0 0 1
20.544982 3.433956 -32.625652 38.708158 0.165612 2.573377 0.040251 -0.011741 312873.000000 0 0 1
21.795582 3.179156 -33.249142 39.883077 0.144841 2.556508 0.034005 -0.010883 169553.000000 0 0 1
21.894982 3.885156 34.307653 40.883978 0.175617 0.575084 0.041744 -0.017686 -279681.000000 0 0 1
23.288682 3.631556 33.713605 41.135849 0.154691 0.610141 0.052679 -0.011302 -226284.000000 0 0 1
23.539882 2.350256 33.187254 40.755902 0.099512 0.619286 0.060125 -0.016987 23734.200000 0 0 1
24.888982 2.017856 32.925570 41.323435 0.080897 0.648853 0.050013 -0.024713 -326335.000000 0 0 1
25.232282 0.522856 32.865604 41.437777 0.020719 0.654863 0.031980 -0.034378 -605081.000000 0 0 1
24.731682 -0.200444 31.715761 40.219221 -0.008105 0.662313 0.042174 -0.034243 503322.000000 0 0 1
23.324082 -0.307944 31.601791 39.278248 -0.013202 0.635859 0.062425 -0.037197 -87608.000000 0 0 1
22.603482 -1.252844 32.644461 39.725909 -0.055370 0.606335 0.057392 -0.039623 -594892.000000 0 0 1
22.584882 -2.596444 32.204501 39.420151 -0.114461 0.614685 0.066038 -0.047720 267887.000000 0 0 1
22.060782 -3.463144 33.195525 40.007678 -0.155711 0.592175 0.059832 -0.034512 -306595.000000 0 0 1
21.904282 -4.985344 32.782211 39.740717 -0.223785 0.600767 0.057263 -0.027346 -128322.000000 0 0 1
23.103382 -5.706944 32.630851 40.386977 -0.242170 0.630123 0.064049 -0.025797 -28307.300000 0 0 1
22.770582 -7.001344 32.271881 40.112249 -0.298299 0.635897 0.065160 -0.020431 -630620.000000 0 0 1
23.964982 -7.889244 32.010541 40.758254 -0.318025 0.667494 0.071337 -0.021902 -403714.000000 0 0 1
24.757582 -7.501644 30.916801 40.312046 -0.294210 0.696742 0.076831 -0.020344 -606780.000000 0 0 1
25.917082 -8.265344 30.790251 41.085893 -0.308718 0.723623 0.080021 -0.021672 -427990.000000 0 0 1
26.412382 -8.170044 29.321561 40.300341 -0.299991 0.756014 0.070193 -0.017663 -95846.900000 0 0 1
25.643682 -8.724744 28.283821 39.162407 -0.327944 0.763792 0.053848 -0.009324 -226238.000000 0 0 1
26.176982 -8.277544 27.032711 38.529464 -0.306265 0.793140 0.073048 -0.012533 92411.700000 0 0 1
25.567982 -8.944444 25.811601 37.416086 -0.336523 0.809510 0.056954 -0.013866 219119.000000 0 0 1
24.232482 -8.606044 25.480381 36.201201 -0.341251 0.789987 0.049550 -0.014473 -37574.500000 0 0 1
23.757682 -9.350344 24.426221 35.334072 -0.374952 0.807518 0.050552 -0.017297 -461931.000000 0 0 1
22.392782 -8.866744 23.940511 33.958856 -0.377023 0.788393 0.034635 -0.008449 -296570.000000 0 0 1
21.336882 -9.178544 24.826921 33.998297 -0.406244 0.752123 0.029237 -0.004464 -387941.000000 0 0 1
20.107182 -8.761544 24.292701 32.729172 -0.410934 0.734399 0.028985 -0.000697 482474.000000 0 0 1
18.988382 -8.716744 25.411381 32.898002 -0.430360 0.688139 0.027120 0.003219 374142.000000 0 0 1
18.438882 -9.899144 26.028621 33.398720 -0.492701 0.677201 0.041134 0.000178 655836.000000 0 0 1
19.301582 -10.642444 26.887091 34.766770 -0.503900 0.686679 0.026319 -0.001288 102351.000000 0 0 1
18.418882 -11.632344 27.751471 35.280459 -0.563292 0.665520 0.019789 0.004038 550295.000000 0 0 1
17.614482 -12.555044 27.067591 34.649005 -0.619244 0.674220 0.030782 0.001540 130036.000000 0 0 1
16.818682 -13.426844 27.851071 35.197022 -0.673721 0.657880 0.018157 0.005099 -340706.000000 0 0 1
17.301882 -14.788744 28.415631 36.407556 -0.707244 0.675352 0.023603 0.016250 -589384.000000 0 0 1
16.352082 -15.387444 29.282461 36.900224 -0.755015 0.654163 0.005288 0.017024 431006.000000 0 0 1
16.834682 -16.614444 29.938091 38.154103 -0.778814 0.668645 0.025339 0.011411 -33770.900000 0 0 1
17.053682 -17.829344 29.016651 38.087788 -0.807631 0.704653 0.022043 0.013277 23316.700000 0 0 1
18.162082 -17.628444 28.169771 37.870295 -0.770489 0.731986 0.022288 0.013463 302300.000000 0 0 1
18.630982 -18.769144 27.447691 38.115220 -0.789092 0.766815 0.015426 0.017894 283422.000000 0 0 1
19.595982 -18.350244 26.292301 37.576842 -0.752581 0.795827 0.030182 -0.000565 61918.800000 0 0 1
20.814882 -17.820744 26.753651 38.296162 -0.708056 0.797359 0.057621 -0.012343 -255802.000000 0 0 1
21.588882 -17.348244 25.672191 37.763776 -0.676916 0.823293 0.048920 -0.008811 -428789.000000 0 0 1
23.018282 -16.992644 26.094531 38.723582 -0.635922 0.831367 0.044089 -0.011483 -573567.000000 0 0 1
23.782282 -18.153744 26.349241 39.867754 -0.651978 0.848758 0.041668 -0.020771 -690988.000000 0 0 1
25.103282 -17.781344 26.577911 40.653860 -0.616293 0.858252 0.044859 -0.016892 -539360.000000 0 0 1
26.020282 -19.037344 26.580961 41.785440 -0.631643 0.881325 0.030992 -0.017873 -39204.300000 0 0 1
25.775582 -19.917244 27.733751 42.781283 -0.657883 0.865488 0.038811 -0.015712 234917.000000 0 0 1
26.523282 -21.100744 27.612631 43.717082 -0.672025 0.887154 0.035290 -0.011654 123350.000000 0 0 1
26.090282 -22.121244 28.730481 44.670939 -0.703258 0.872181 0.026713 0.000346 128596.000000 0 0 1
26.039982 -21.766444 30.082391 45.352056 -0.696243 0.845565 0.034018 -0.005964 -106113.000000 0 0 1
25.701282 -22.982444 30.714121 46.174732 -0.729609 0.843073 0.028307 -0.003850 -732757.000000 0 0 1
25.287482 -22.929244 32.181071 46.912986 -0.736528 0.814855 0.021084 -0.003288 -190054.000000 0 0 1
24.850882 -24.113544 32.695226 47.623598 -0.770341 0.814085 0.004513 0.002655 -30653.200000 0 0 1
24.516782 -23.935244 34.045298 48.301665 -0.773396 0.788588 0.006666 0.009576 -299596.000000 0 0 1
24.232582 -25.283774 -33.968202 48.788585 -0.806624 2.340932 -0.002430 0.004722 -129130.000000 0 0 1
23.049082 -26.001914 -34.165126 48.730027 -0.845525 2.347750 0.010325 0.005046 -469556.000000 0 0 1
22.771682 -26.498804 33.282309 48.253997 -0.860901 0.809678 0.003308 0.001480 -27268.500000 0 0 1
21.410482 -27.222804 33.244506 48.007155 -0.904347 0.805861 0.031632 -0.002714 121299.000000 0 0 1
21.544382 -28.559064 33.714630 49.157470 -0.924498 0.815026 0.018690 0.003650 968461.000000 0 0 1
20.303082 -29.292704 33.599664 48.981783 -0.964709 0.814871 0.029559 -0.000955 787701.000000 0 0 1
20.503182 -30.823894 33.868635 50.175466 -0.983829 0.829826 0.003869 -0.002656 -218092.000000 0 0 1
20.864782 -31.128764 -33.588362 50.324121 -0.980301 2.301563 -0.009957 0.001112 232261.000000 0 0 1
21.342782 -32.463614 -33.525602 51.316338 -0.989211 2.282748 -0.030747 0.007643 -313957.000000 0 0 1
22.195382 -32.738204 -32.319822 51.078331 -0.975012 2.255896 -0.015714 0.011570 -704557.000000 0 0 1
22.934382 -33.958944 -32.255042 52.149626 -0.976802 2.237641 -0.027043 0.007236 623821.000000 0 0 1
23.597382 -34.162180 -31.023272 51.829860 -0.966308 2.212498 -0.015131 0.003692 -55675.700000 0 0 1
24.831882 -33.364234 -30.585462 51.626204 -0.930975 2.204881 -0.005558 0.007389 -553295.000000 0 0 1
25.119182 -33.604734 -29.213982 51.124438 -0.928904 2.179042 0.012611 0.001761 -480210.000000 0 0 1
26.063982 -32.711324 -28.715512 50.734037 -0.898017 2.172443 0.022067 0.001524 -310689.000000 0 0 1
26.651482 -33.027184 -27.272972 50.447115 -0.891828 2.141976 0.024367 -0.003740 228714.000000 0 0 1
27.826082 -33.800054 -27.328322 51.609802 -0.882035 2.128829 0.022770 0.005034 -52530.900000 0 0 1
28.706882 -33.432824 -26.250372 51.292503 -0.861306 2.108049 0.024408 -0.003081 525071.000000 0 0 1
-26.494448 -30.637481 9.568988 41.619425 0.857788 1.338805 0.012895 -0.010640 -497515.000000 0 0 1
-26.696988 -31.742781 10.402988 42.761612 0.871526 1.325052 0.018359 -0.015209 206225.000000 0 0 1
-25.418558 -32.232481 10.784488 42.442209 0.903045 1.313881 0.017674 -0.021407 191113.000000 0 0 1
-25.461478 -33.574181 11.584288 43.700209 0.921963 1.302504 0.013127 -0.019940 125488.000000 0 0 1
-25.724968 34.043056 10.722888 43.996408 -0.923683 1.324595 0.020608 -0.016843 57112.300000 0 0 1
-25.789138 32.845956 11.453588 43.302669 -0.905174 1.303110 0.024849 -0.017823 36019.400000 0 0 1
-25.511308 31.626056 10.587488 41.989631 -0.892011 1.315900 0.031893 -0.018355 411831.000000 0 0 1
-26.647168 31.254956 9.783788 42.221633 -0.864810 1.336946 0.031967 -0.023391 554796.000000 0 0 1
-26.639468 29.893556 9.307088 41.108488 -0.842896 1.342413 0.046849 -0.023404 -204566.000000 0 0 1
-25.922228 29.688856 7.949588 40.206791 -0.853026 1.371767 0.045563 -0.016228 -281155.000000 0 0 1
-24.525018 29.769156 8.088588 39.409446 -0.881687 1.364082 0.040037 -0.013362 -526988.000000 0 0 1
-24.001018 29.675556 6.805888 38.768642 -0.890724 1.394331 0.035685 -0.005917 461324.000000 0 0 1
-22.560418 29.055156 6.725488 37.395277 -0.910569 1.389964 0.038106 -0.000005 508888.000000 0 0 1
-22.326018 27.644556 6.840788 36.186585 -0.891432 1.380610 0.048478 -0.005532 136208.000000 0 0 1
-22.823818 26.898356 5.735188 35.739902 -0.867162 1.409629 0.038245 -0.010336 -478297.000000 0 0 1
-23.125618 25.431456 6.010488 34.895259 -0.832850 1.397689 0.043446 -0.007923 -332343.000000 0 0 1
-24.219018 25.248156 6.901288 35.660314 -0.806200 1.376039 0.051696 -0.011195 332529.000000 0 0 1
-24.490518 23.873056 7.266388 34.964391 -0.772632 1.361448 0.052049 -0.022860 -53751.400000 0 0 1
-24.902818 22.868256 6.116588 34.358698 -0.742834 1.391821 0.041494 -0.030957 -67128.900000 0 0 1
-26.270238 23.041956 5.713888 35.407706 -0.720025 1.408713 0.037628 -0.027613 769711.000000 0 0 1
-26.539638 22.480356 4.475788 35.067812 -0.702778 1.442815 0.028385 -0.027659 -38303.800000 0 0 1
-26.173438 23.420256 3.303188 35.277022 -0.729940 1.477023 0.019809 -0.028303 -1305350.000000 0 0 1
-24.817218 23.614156 3.192788 34.405182 -0.760563 1.477863 0.023287 -0.028984 -925284.000000 0 0 1
-24.508918 24.239256 1.954788 34.526074 -0.779866 1.514148 0.023862 -0.020630 164557.000000 0 0 1
-23.307118 25.215556 1.994988 34.395145 -0.824709 1.512762 0.019805 -0.013903 139682.000000 0 0 1
-23.071918 25.853056 0.808088 34.660452 -0.842182 1.547480 0.016748 -0.016859 -348222.000000 0 0 1
-21.841018 26.526456 0.833088 34.371165 -0.881968 1.546556 0.033272 -0.019415 -677371.000000 0 0 1
-21.427418 27.010856 -0.585412 34.482797 -0.900161 1.587774 0.049599 -0.018647 -161254.000000 0 0 1
-21.156218 26.013456 -1.536612 33.565557 -0.888010 1.616592 0.041156 -0.021328 333742.000000 0 0 1
-20.063018 25.145356 -1.196712 32.190771 -0.897348 1.607981 0.035749 -0.021479 -141285.000000 0 0 1
-19.628418 24.082856 -2.237312 31.149066 -0.886954 1.642684 0.038633 -0.030035 -641424.000000 0 0 1
-20.569718 23.118956 -2.565712 31.051285 -0.843682 1.653519 0.028196 -0.028863 -620619.000000 0 0 1
-20.133318 22.233956 -3.565712 30.206185 -0.834939 1.689118 0.031989 -0.025505 168017.000000 0 0 1
-21.325918 21.621656 -4.364012 30.681189 -0.792284 1.713518 0.018903 -0.018377 314886.000000 0 0 1
-21.892618 22.504556 -5.334212 31.846437 -0.799181 1.739088 0.024365 -0.013641 -256970.000000 0 0 1
-23.223418 22.121856 -5.583612 32.555804 -0.761110 1.743157 0.036121 -0.015496 -72476.700000 0 0 1
-23.686618 22.770956 -6.893812 33.572265 -0.765691 1.777610 0.030274 -0.012461 68166.200000 0 0 1
-22.939418 22.132256 -7.981012 32.859553 -0.767492 1.816133 0.033752 -0.015844 340065.000000 0 0 1
-22.392918 23.135956 -8.748012 33.365295 -0.801717 1.836086 0.029575 -0.019471 -811304.000000 0 0 1
-21.617818 22.622856 -9.924812 32.827207 -0.808112 1.877938 0.019157 -0.022632 103881.000000 0 0 1
-22.428318 21.980856 -10.956012 33.259911 -0.775323 1.906471 0.003739 -0.012658 976878.000000 0 0 1
-21.541218 21.283856 -11.836712 32.513602 -0.779389 1.943413 0.008741 -0.014152 468069.000000 0 0 1
-22.123818 21.094756 -13.255212 33.318954 -0.761592 1.979945 0.007933 -0.008632 160195.000000 0 0 1
-23.140218 20.106156 -13.354412 33.437517 -0.715355 1.981641 0.002768 -0.001700 -24857.100000 0 0 1
-23.899018 20.289656 -14.497412 34.539950 -0.703898 2.003943 0.003637 -0.005705 -197036.000000 0 0 1
-24.934218 19.146656 -14.633312 34.676267 -0.654851 2.006444 0.019258 -0.008437 -57506.600000 0 0 1
-24.552318 18.111856 -15.526712 34.233528 -0.635572 2.041544 0.011723 -0.000323 667566.000000 0 0 1
-25.596448 17.122456 -15.712512 34.572239 -0.589574 2.042589 0.031227 0.001948 357888.000000 0 0 1
-25.317788 16.164556 -16.856712 34.444622 -0.568224 2.082182 0.041144 0.004297 -253927.000000 0 0 1
-24.127618 15.457656 -16.635812 33.133538 -0.569783 2.096803 0.055498 0.002738 -96788.700000 0 0 1
-23.918718 14.659156 -17.795712 33.221729 -0.549832 2.136091 0.062819 -0.003198 406732.000000 0 0 1
-22.982918 13.397456 -17.568312 31.880275 -0.527774 2.154444 0.061675 -0.006684 1098330.000000 0 0 1
-21.622518 13.699256 -17.236612 30.859418 -0.564734 2.163436 0.066015 -0.014208 667793.000000 0 0 1
-20.865518 12.507756 -17.187412 29.786254 -0.540012 2.185878 0.063274 -0.002780 -581470.000000 0 0 1
-19.577218 12.611356 -16.383912 28.473608 -0.572277 2.183898 0.068135 -0.005213 -675894.000000 0 0 1
-18.543818 13.280456 -17.067412 28.487545 -0.621494 2.213196 0.063646 -0.000451 185072.000000 0 0 1
-17.633818 13.811256 -16.108112 27.589375 -0.664429 2.194262 0.063584 0.011478 49261.400000 0 0 1
-16.857918 15.042456 -16.595712 28.033596 -0.728549 2.204327 0.051650 0.013256 268215.000000 0 0 1
-16.002218 14.815256 -17.717012 28.097247 -0.746901 2.253071 0.062492 0.003742 1458230.000000 0 0 1
-14.891018 15.762956 -17.864012 28.095126 -0.813835 2.259893 0.064443 -0.000213 1847550.000000 0 0 1
-13.891518 15.554456 -19.075812 28.263085 -0.841812 2.311676 0.067005 -0.003637 1392520.000000 0 0 1
-12.941218 14.481056 -18.796612 27.027555 -0.841492 2.339858 0.064126 -0.002077 967348.000000 0 0 1
-11.793818 14.495856 -19.658012 27.123079 -0.887818 2.381498 0.077321 -0.011153 1040150.000000 0 0 1
-11.023618 13.132756 -19.649412 26.078513 -0.872489 2.424122 0.068066 -0.013885 384303.000000 0 0 1
-11.772418 12.170556 -20.391312 26.505053 -0.802025 2.448599 0.070433 -0.004531 178612.000000 0 0 1
-11.409018 10.847356 -20.185712 25.598707 -0.760167 2.479234 0.048032 0.005467 -6607.790000 0 0 1
-12.074918 9.900156 -21.217212 26.343629 -0.686754 2.507150 0.053489 0.003604 98184.000000 0 0 1
-11.486718 10.130356 -22.471012 27.194028 -0.722735 2.543341 0.050938 -0.012683 -3421.460000 0 0 1
-11.965518 9.171556 -23.372812 27.813295 -0.653977 2.568719 0.043094 0.014459 -147572.000000 0 0 1
-11.348018 9.341956 -24.788212 28.818485 -0.688742 2.606359 0.044784 -0.013402 -133775.000000 0 0 1
-9.964618 9.022056 -24.913712 28.308729 -0.735796 2.646810 0.037100 -0.019598 243749.000000 0 0 1
-9.647918 8.523856 -26.241772 29.229592 -0.723619 2.685502 0.022309 -0.025509 -526752.000000 0 0 1
-9.348418 9.567456 -27.364042 30.458495 -0.796977 2.686919 0.052827 -0.034361 14030.300000 0 0 1
-8.148218 10.324856 -27.267852 30.274277 -0.902685 2.692160 0.048080 -0.035420 289163.000000 0 0 1
-8.012518 11.327856 -26.306962 29.741839 -0.955169 2.656240 0.032130 -0.029741 -165463.000000 0 0 1
-6.511618 11.707356 -26.323012 29.535814 -1.063206 2.670832 0.021153 -0.021432 13335.500000 0 0 1
-6.089118 12.320456 -27.529232 30.768971 -1.111777 2.678572 0.023013 -0.026148 380605.000000 0 0 1
-4.678418 12.518056 -27.515642 30.589212 -1.213136 2.689468 0.027683 -0.013929 337992.000000 0 0 1
-4.179918 12.790956 -28.974872 31.947198 -1.254949 2.706809 0.036825 -0.013935 1402440.000000 0 0 1
-2.726218 12.882356 -29.031822 31.878426 -1.362249 2.715782 0.047444 -0.020304 1398440.000000 0 0 1
-2.234518 12.700856 -30.327992 32.955908 -1.396644 2.739540 0.055677 -0.020773 -104398.000000 0 0 1
-0.711018 12.516556 -30.345442 32.833147 -1.514051 2.749815 0.064344 -0.028269 -662177.000000 0 0 1
-0.235218 11.346356 -29.750292 31.841404 -1.550069 2.777163 0.046689 -0.013245 -79623.500000 0 0 1
1.153782 11.110356 -29.798172 31.822983 1.467320 2.782946 0.061625 -0.013843 199685.000000 0 0 1
1.670682 10.620356 -31.199822 33.000182 1.414766 2.809751 0.066135 -0.005774 -556485.000000 0 0 1
1.749482 11.584456 -32.190822 34.256522 1.420909 2.792546 0.078943 -0.019395 249825.000000 0 0 1
2.019282 10.955556 -33.427542 35.234958 1.388526 2.819907 0.068987 -0.011910 -88918.400000 0 0 1
2.288282 11.939456 34.204001 36.300145 1.381435 0.341494 0.076194 -0.018699 151582.000000 0 0 1
3.597982 12.487056 34.207872 36.593039 1.290258 0.363047 0.060632 -0.016169 -46993.900000 0 0 1
3.783182 13.280156 33.046176 35.815147 1.293273 0.395803 0.063240 -0.017066 959359.000000 0 0 1
5.272082 13.469856 32.562851 35.631041 1.197727 0.418031 0.046748 -0.009858 639956.000000 0 0 1
5.784382 12.400956 31.817361 34.635058 1.134350 0.406156 0.047091 -0.011503 -284499.000000 0 0 1
7.118282 12.526156 31.416111 34.562212 1.054032 0.429983 0.035150 -0.002604 -647706.000000 0 0 1
7.720582 11.264856 30.812721 33.703533 0.969958 0.417197 0.012513 0.003165 -382750.000000 0 0 1
7.199582 10.875656 29.584141 32.331645 0.986038 0.415236 0.018467 -0.008902 -302839.000000 0 0 1
8.032582 9.969756 28.932171 31.638409 0.892592 0.416616 0.018627 -0.012493 -230019.000000 0 0 1
7.361082 9.283356 27.724841 30.150174 0.900379 0.403842 0.009811 -0.007759 252095.000000 0 0 1
6.571082 8.207656 28.240861 30.134547 0.895687 0.356400 0.008614 -0.008125 -1891.960000 0 0 1
6.068882 7.325656 27.243751 28.856862 0.878952 0.335944 0.022072 -0.019204 -383089.000000 0 0 1
5.357082 6.058456 27.688381 28.845271 0.846761 0.284175 0.045386 -0.023092 -558593.000000 0 0 1
6.144682 5.134056 28.357631 29.466436 0.696032 0.275201 0.032599 -0.010040 -464097.000000 0 0 1
5.417482 4.564356 29.427291 30.267935 0.700138 0.236233 0.043043 -0.013345 -320010.000000 0 0 1
5.996282 3.363956 30.194811 30.967696 0.511255 0.223885 0.060437 -0.016855 -40087.000000 0 0 1
5.899382 2.058856 29.564751 30.217811 0.335779 0.208279 0.067729 -0.013809 -139617.000000 0 0 1
7.135182 1.803656 28.953111 29.873845 0.247597 0.248919 0.085285 -0.014187 -341659.000000 0 0 1
7.107382 0.450356 28.244391 29.128393 0.063280 0.246995 0.077784 -0.016760 -52142.700000 0 0 1
7.196082 -0.630344 29.071551 29.955567 -0.087372 0.243546 0.064601 -0.016268 -78425.500000 0 0 1
7.276582 -1.795944 28.332341 29.306920 -0.241976 0.258613 0.068910 -0.008810 -187754.000000 0 0 1
8.002482 -3.059844 28.922021 30.164311 -0.365209 0.287993 0.057782 0.001317 -809533.000000 0 0 1
9.353182 -2.788344 28.972471 30.572225 -0.289729 0.324930 0.052437 -0.003638 -1262580.000000 0 0 1
10.136682 -3.965344 28.824281 30.810963 -0.372886 0.361067 0.042534 0.000317 437758.000000 0 0 1
11.651382 -3.584744 28.918901 31.383242 -0.298476 0.398933 0.034951 -0.001191 1053540.000000 0 0 1
12.677182 -4.579344 28.774491 31.775032 -0.346642 0.438077 0.036059 -0.003559 677027.000000 0 0 1
12.826682 -5.553644 29.843521 32.954551 -0.408607 0.438013 0.041483 -0.006883 -625806.000000 0 0 1
12.281182 -6.954944 29.431311 32.640477 -0.515278 0.447154 0.042235 -0.006570 -1057180.000000 0 0 1
10.907682 -6.852944 29.317001 32.022287 -0.560946 0.414001 0.042632 -0.005773 -1348160.000000 0 0 1
10.327982 -8.090444 29.006751 31.835736 -0.664507 0.424759 0.043519 0.001918 721392.000000 0 0 1
8.796482 -7.865844 28.756691 31.083707 -0.729603 0.389400 0.044482 -0.001073 926988.000000 0 0 1
8.080782 -7.426144 29.914231 31.863896 -0.743207 0.351629 0.058334 -0.005578 -335852.000000 0 0 1
6.689782 -7.473544 29.811251 31.453421 -0.840679 0.324562 0.066282 -0.010024 -320671.000000 0 0 1
5.949582 -6.592244 30.843421 32.096290 -0.836595 0.280326 0.053513 -0.007164 14647.800000 0 0 1
5.853182 -7.233644 32.096041 33.417678 -0.890494 0.282179 0.053477 -0.005378 164673.000000 0 0 1
4.977182 -6.571744 32.985078 33.999640 -0.922601 0.244908 0.046389 -0.009242 301352.000000 0 0 1
5.643382 -5.339844 33.702174 34.586098 -0.757769 0.226569 0.052499 -0.015563 87254.800000 0 0 1
5.693482 -4.264244 32.878452 33.639145 -0.642841 0.213068 0.059033 -0.014076 -85749.200000 0 0 1
6.094882 -3.055544 33.509767 34.196321 -0.464711 0.200721 0.052373 -0.014064 -431871.000000 0 0 1
6.161582 -1.829844 32.543561 33.172229 -0.288681 0.194996 0.065474 -0.010057 357232.000000 0 0 1
4.886482 -1.494044 31.991171 32.396680 -0.296724 0.158387 0.066700 -0.007164 279953.000000 0 0 1
4.913782 -0.264744 31.314891 31.699175 -0.053826 0.155868 0.068252 -0.019106 34303.700000 0 0 1
3.463082 0.224856 31.059901 31.253175 0.064838 0.111270 0.055819 -0.014093 260136.000000 0 0 1
2.877482 0.587656 32.275541 32.408884 0.201455 0.090744 0.045813 -0.016632 25501.200000 0 0 1
1.469382 0.778756 32.097821 32.140872 0.487350 0.051764 0.055804 -0.022225 626813.000000 0 0 1
0.772582 0.821456 33.477591 33.496578 0.816049 0.033672 0.045838 -0.016897 -405663.000000 0 0 1
1.004782 1.925356 34.311468 34.380131 1.089808 0.063211 0.034523 -0.011396 78110.200000 0 0 1
0.315782 1.942756 -33.212382 33.270653 1.409662 3.082399 0.025286 -0.006398 228666.000000 0 0 1
1.055682 2.892856 -32.194172 32.341116 1.220886 3.046230 0.016231 0.007553 326053.000000 0 0 1
2.256482 2.438156 -31.612302 31.786380 0.824077 3.036888 -0.000010 0.003333 -273432.000000 0 0 1
2.909082 3.576856 -31.133842 31.473366 0.887994 2.994575 -0.001502 0.010329 64692.100000 0 0 1
4.094282 3.327256 -30.155352 30.613380 0.682412 2.968392 0.001586 0.014479 -166187.000000 0 0 1
3.615582 2.710956 -28.890902 29.242194 0.643372 2.986433 0.001938 0.002098 943649.000000 0 0 1
4.667782 2.565356 -27.930562 28.433880 0.502527 2.953158 0.007621 -0.001841 46551.800000 0 0 1
4.088082 2.023556 -26.604932 26.993140 0.459631 2.971791 0.010888 -0.006596 35903.200000 0 0 1
3.973782 0.613156 -26.662002 26.963480 0.153093 2.991914 0.022804 -0.010138 138497.000000 0 0 1
3.393682 -0.012844 -25.534092 25.758631 -0.003785 3.009458 0.031764 -0.015421 -450643.000000 0 0 1
3.684282 -1.557144 -25.409992 25.722875 -0.399875 2.985462 0.032405 -0.014448 345111.000000 0 0 1
4.990782 -1.716544 -24.882312 25.435878 -0.331269 2.932583 0.024971 -0.022403 99520.000000 0 0 1
5.538182 -3.001444 -25.085012 25.863835 -0.496646 2.895565 0.031824 -0.023032 -698045.000000 0 0 1
6.961682 -3.167944 -24.560512 25.723912 -0.427049 2.839694 0.030821 -0.024999 -380454.000000 0 0 1
7.804382 -2.655644 -25.588322 26.883509 -0.327986 2.829921 0.022949 -0.015388 -585588.000000 0 0 1
9.144182 -2.712544 -25.149992 26.897882 -0.288373 2.779105 0.027094 -0.016156 -38669.500000 0 0 1
-28.867728 -4.445644 17.291351 33.942603 0.152800 1.036275 0.038036 -0.002872 -852704.000000 0 0 1
-30.249778 -4.229144 17.353751 35.129580 0.138907 1.054121 0.031549 0.001953 -402848.000000 0 0 1
-30.741918 -5.177044 18.314851 36.156619 0.166838 1.039627 0.023728 0.001556 -262216.000000 0 0 1
-32.156238 -4.895744 18.819051 37.578566 0.151088 1.046283 0.015102 0.005085 173064.000000 0 0 1
-33.175988 -4.991644 17.807451 37.982470 0.149339 1.082827 0.012479 0.010625 837631.000000 0 0 1
-34.464831 -4.756344 18.377751 39.347034 0.137139 1.084824 0.015589 0.012569 280325.000000 0 0 1
-35.576068 -5.015444 17.353551 39.899336 0.140055 1.120832 0.010066 0.008400 696862.000000 0 0 1
34.643148 -5.120644 17.913051 39.335049 -0.146749 1.097979 0.015507 0.013394 1089690.000000 0 0 1
33.636378 -5.241044 16.894151 38.003773 -0.154572 1.110137 0.012690 0.009908 917789.000000 0 0 1
32.245148 -5.709444 17.428151 37.095657 -0.175247 1.081713 0.023534 0.010786 253679.000000 0 0 1
31.826868 -4.796644 18.422151 37.085482 -0.149585 1.050948 0.031957 0.008922 -265408.000000 0 0 1
30.922098 -5.420344 19.265251 36.833492 -0.173527 1.020387 0.061265 0.004517 -243248.000000 0 0 1
30.174178 -4.598444 20.355751 36.687645 -0.151233 0.982626 0.061017 0.000106 551963.000000 0 0 1
29.215268 -3.581244 20.004351 35.588358 -0.121973 0.973869 0.071063 -0.001569 962560.000000 0 0 1
29.803048 -2.353744 19.472551 35.678313 -0.078813 0.993475 0.066394 -0.000246 553626.000000 0 0 1
28.695218 -1.262744 19.544651 34.741955 -0.043977 0.973310 0.064198 0.006241 360174.000000 0 0 1
29.176648 0.065356 19.398951 35.037128 0.002240 0.984033 0.056722 0.001337 -70576.900000 0 0 1
28.217478 1.022056 19.747451 34.456240 0.036205 0.960492 0.054063 0.001305 -37822.400000 0 0 1
28.597798 2.379356 19.174751 34.513279 0.083009 0.981741 0.029226 0.009255 13755.300000 0 0 1
28.762298 2.308556 17.776751 33.891180 0.080092 1.018640 0.023471 0.003085 157220.000000 0 0 1
28.801158 3.589556 17.198051 33.736694 0.123993 1.035876 0.009932 0.017177 -57815.800000 0 0 1
28.589468 3.541456 15.652051 32.785458 0.123245 1.073093 0.013956 0.011837 -91111.100000 0 0 1
28.176388 4.816856 15.201651 32.375934 0.169317 1.082032 0.004760 0.012998 327445.000000 0 0 1
27.772778 4.748256 13.847751 31.394798 0.169331 1.113990 0.022918 0.010564 -185087.000000 0 0 1
27.280528 6.056356 13.209451 30.909484 0.218460 1.129227 0.030245 0.010655 851995.000000 0 0 1
26.067498 6.538756 13.839251 30.229036 0.245769 1.095262 0.010182 0.011001 1051060.000000 0 0 1
25.513298 7.681056 13.188051 29.729643 0.292430 1.111185 0.029174 -0.004735 -1225490.000000 0 0 1
24.334198 8.254456 13.925651 29.226922 0.327032 1.074165 0.031929 -0.006182 -499653.000000 0 0 1
23.041198 7.746356 13.683551 27.895204 0.324325 1.058094 0.035710 0.000719 512387.000000 0 0 1
22.813498 6.407156 14.161251 27.605223 0.273796 1.032130 0.034832 -0.003278 949305.000000 0 0 1
21.282598 5.927656 13.999651 26.154852 0.271637 1.005981 0.058337 -0.006196 1594030.000000 0 0 1
20.876898 5.779856 12.625851 25.073167 0.270089 1.043082 0.063057 -0.011372 397324.000000 0 0 1
19.989198 4.703556 12.527351 24.054646 0.231101 1.023024 0.071895 -0.011187 -576041.000000 0 1 0
19.594598 4.406556 11.103951 22.949155 0.221206 1.065748 0.077429 -0.014321 -516192.000000 0 1 0
20.703998 4.124056 10.296551 23.487919 0.196618 1.117005 0.080327 -0.017064 38097.400000 0 1 0
20.380598 3.908356 8.948351 22.599048 0.189468 1.163682 0.093953 -0.015033 -271317.000000 0 1 0
21.369898 3.144556 8.044751 23.049485 0.146100 1.214270 0.084710 -0.007081 -1064220.000000 0 1 0
21.370698 1.765156 8.352151 23.012625 0.082410 1.199378 0.066163 -0.007415 595926.000000 0 1 0
22.246498 1.006456 7.529551 23.507738 0.045210 1.244749 0.050392 -0.002711 1744850.000000 0 1 0
23.839698 1.230656 7.650351 25.067381 0.051576 1.260657 0.065387 -0.004374 1219730.000000 0 0 1
24.295498 0.851256 8.925251 25.897026 0.035023 1.218937 0.056683 0.004366 363577.000000 0 0 1
24.120898 1.844356 9.969151 26.164926 0.076314 1.179906 0.052379 0.004014 -560255.000000 0 0 1
24.904098 1.461056 11.252051 27.367086 0.058600 1.147078 0.036415 0.007374 2272460.000000 0 0 1
26.369598 1.304656 11.165951 28.665943 0.049435 1.170686 0.040764 0.004872 2382050.000000 0 0 1
26.912748 0.566256 12.250751 29.575286 0.021037 1.143708 0.035052 -0.001068 253632.000000 0 0 1
28.450998 0.365856 12.240151 30.974416 0.012858 1.164544 0.049557 -0.003173 399436.000000 0 0 1
29.118958 1.559456 12.600451 31.766601 0.053504 1.162924 0.036590 0.001906 -236772.000000 0 0 1
30.513818 1.456856 12.533351 33.019697 0.047708 1.181463 0.041406 0.002316 -213326.000000 0 0 1
31.300528 2.701956 12.954151 33.982843 0.086110 1.179706 0.044573 0.002467 -478157.000000 0 0 1
31.002758 3.822156 12.158151 33.520151 0.122665 1.199620 0.049423 -0.002812 476486.000000 0 0 1
31.759918 4.971056 12.545851 34.508001 0.155260 1.198706 0.040652 -0.004393 1191800.000000 0 0 1
33.269678 5.095856 12.110551 35.770164 0.151987 1.225404 0.033291 0.002683 859177.000000 0 0 1
34.114658 4.089356 12.645051 36.611884 0.119302 1.218152 0.025939 0.001617 790559.000000 0 0 1
35.441048 4.204456 12.094351 37.683135 0.118080 1.244065 0.032150 0.006850 499929.000000 0 0 1
-35.070734 3.332256 12.801551 37.482529 -0.094731 1.222248 0.059884 0.014413 -747957.000000 0 0 1
-34.972087 1.964956 12.462151 37.178127 -0.056127 1.228978 0.049785 0.016028 316871.000000 0 0 1
35.499283 1.081156 12.766751 37.740666 0.030446 1.225712 0.057046 0.016603 -142388.000000 0 0 1
35.144918 0.701756 14.214351 37.917087 0.019965 1.186529 0.041496 0.021370 -353896.000000 0 0 1
-35.544810 -0.240244 14.864251 38.528395 0.006759 1.174722 0.046309 0.016985 98275.500000 0 0 1
35.759018 -0.365944 16.250551 39.280042 -0.010233 1.144271 0.048291 0.011334 317870.000000 0 0 1
-34.624132 -1.078244 17.039651 38.604959 0.031131 1.113655 0.031586 0.009915 667493.000000 0 0 1
-33.396858 -0.359544 17.119451 37.530721 0.010765 1.097138 0.030944 0.010806 677995.000000 0 0 1
-32.334138 -0.940544 17.870951 36.956082 0.029080 1.066065 0.035460 0.006558 567901.000000 0 0 1
-32.567818 -0.872044 19.418651 37.927658 0.026770 1.033294 0.025022 0.001832 -479696.000000 0 0 1
-33.540808 -1.686744 20.002751 39.088885 0.050247 1.033605 0.019709 0.004413 -58212.200000 0 0 1
-33.429228 -1.527744 21.407351 39.725583 0.045669 1.001688 0.015261 0.002007 423488.000000 0 0 1
-34.123402 -2.716844 22.174951 40.786226 0.079451 0.995972 0.013327 -0.000118 191429.000000 0 0 1
-33.324918 -3.892044 22.069751 40.159334 0.116264 0.988965 0.023284 0.000971 146347.000000 0 0 1
-33.827248 -5.016344 22.762451 41.080112 0.147220 0.983516 0.029024 0.000156 -395746.000000 0 0 1
-34.091244 -4.957644 24.312751 42.165164 0.144410 0.956226 0.034564 -0.011597 -370052.000000 0 0 1
-32.959128 -4.547544 25.003641 41.619302 0.137110 0.926332 0.036011 -0.012233 -955820.000000 0 0 1
-33.089958 -4.502644 26.375251 42.554353 0.135242 0.902307 0.049006 -0.021481 229269.000000 0 0 1
-31.926698 -3.750644 27.084541 42.035149 0.116941 0.870648 0.047157 -0.017838 264646.000000 0 0 1
-31.923478 -2.301744 26.875291 41.793393 0.071977 0.872321 0.043742 -0.011278 206426.000000 0 0 1
-31.223858 -1.824044 25.698121 40.480240 0.058352 0.883006 0.039548 -0.013817 112398.000000 0 0 1
-31.160708 -0.302144 25.698961 40.392049 0.009696 0.881184 0.038219 -0.017071 506920.000000 0 0 1
-32.421878 0.341056 25.460111 41.225135 -0.010519 0.905125 0.053067 -0.019354 553654.000000 0 0 1
-32.278518 1.659056 24.980561 40.849524 -0.051353 0.912808 0.035409 -0.009577 -138281.000000 0 0 1
-33.651618 2.252856 24.616871 41.755204 -0.066847 0.940292 0.056198 -0.012771 78355.500000 0 0 1
-34.267033 1.641156 23.495251 41.580642 -0.047857 0.970299 0.055263 -0.002588 602485.000000 0 0 1
-35.464668 2.265056 22.978951 42.319090 -0.063781 0.996800 0.053834 0.006439 952395.000000 0 0 1
-35.246351 3.604356 22.250251 41.837427 -0.101908 1.010040 0.055037 0.004758 -281421.000000 0 0 1
-34.488053 3.443956 21.069451 40.561169 -0.099529 1.024591 0.061391 -0.009333 -317115.000000 0 0 1
-35.231740 3.455156 19.878051 40.599883 -0.097757 1.059156 0.061409 -0.000557 -363259.000000 0 0 1
-34.568837 2.712656 18.723651 39.407336 -0.078311 1.075683 0.066551 0.000803 -560615.000000 0 0 1
-33.464658 3.376056 18.181751 38.234241 -0.100544 1.075223 0.071890 -0.007155 -274733.000000 0 0 1
-33.084848 2.676656 17.051551 37.316579 -0.080727 1.096241 0.072857 0.002687 -276028.000000 0 0 1
-31.978388 3.393356 16.272551 36.040645 -0.105718 1.102344 0.075598 0.001311 -259269.000000 0 0 1
-32.486628 4.549056 15.683451 36.359944 -0.139124 1.124820 0.082018 -0.005248 421288.000000 0 0 1
-31.683838 5.013656 14.593951 35.241818 -0.156939 1.143833 0.075368 -0.006355 -71638.100000 0 0 1
-32.073498 6.517556 14.268051 35.703853 -0.200477 1.159692 0.087267 -0.018762 11683.400000 0 0 1
-31.641578 7.018256 13.047451 34.938251 -0.218271 1.188078 0.084352 -0.015672 -32475.500000 0 0 1
-31.960008 8.398256 13.008951 35.513457 -0.256965 1.195756 0.074371 -0.021282 -246083.000000 0 0 1
-31.447058 9.223756 11.804651 34.833101 -0.285308 1.225058 0.069071 -0.016355 -277836.000000 0 0 1
-31.638458 10.608956 11.879951 35.421395 -0.323536 1.228778 0.065704 -0.016022 -106676.000000 0 0 1
-31.141378 11.294156 10.769551 34.832838 -0.347920 1.256468 0.050635 -0.027288 -278808.000000 0 0 1
-31.076398 12.767856 11.034851 35.362814 -0.389828 1.253450 0.052686 -0.022049 104027.000000 0 0 1
-30.521298 13.482256 9.926551 34.811740 -0.415958 1.281634 0.041666 -0.024536 236551.000000 0 0 1
-30.409918 14.870056 10.121651 35.331707 -0.454798 1.280251 0.050066 -0.022740 -131160.000000 0 0 1
-29.651388 15.494156 8.949251 34.631817 -0.481520 1.309419 0.046242 -0.025319 -230697.000000 0 0 1
-28.246468 15.502556 9.003551 33.455285 -0.501946 1.298315 0.056599 -0.018097 -84631.500000 0 0 1
-27.672868 16.466256 8.125651 33.210712 -0.536759 1.323617 0.039930 -0.017395 518329.000000 0 0 1
-26.167918 16.721056 8.470551 32.188567 -0.568597 1.304506 0.049872 -0.010708 366398.000000 0 0 1
-25.981018 17.226856 9.822851 32.684343 -0.585498 1.265541 0.045327 -0.014428 131375.000000 0 0 1
-26.263568 18.598756 9.929851 33.679232 -0.616180 1.271512 0.048465 -0.019539 -246570.000000 0 0 1
-26.288798 19.112656 11.377151 34.435942 -0.628635 1.234084 0.064768 -0.008188 219933.000000 0 0 1
-24.998318 19.178856 11.972451 33.705845 -0.654422 1.207664 0.057313 -0.008090 313255.000000 0 0 1
-24.910318 19.650156 13.324551 34.412152 -0.667896 1.173198 0.057143 -0.014101 -76080.100000 0 0 1
-25.520638 18.717356 14.409751 34.774751 -0.632805 1.143542 0.052986 -0.014936 401193.000000 0 0 1
-24.643618 17.611956 14.728551 33.681139 -0.620501 1.118209 0.050439 -0.011367 390551.000000 0 0 1
-25.096408 16.775056 15.727151 34.037853 -0.589219 1.090492 0.056275 -0.006969 -983340.000000 0 0 1
-24.046618 15.742856 16.097851 32.942649 -0.579659 1.060240 0.042086 -0.002744 214192.000000 0 0 1
-22.968918 16.360756 16.845251 32.848257 -0.618933 1.032330 0.033500 -0.010590 1087830.000000 0 0 1
-21.933218 15.420856 17.230451 31.870947 -0.612792 0.999608 0.019815 -0.019935 316411.000000 0 0 1
-22.295018 14.381156 18.363551 32.266166 -0.572880 0.965352 0.029887 -0.011204 -383021.000000 0 0 1
-22.414818 14.871756 19.695451 33.339226 -0.585792 0.938797 0.029687 -0.011048 204908.000000 0 0 1
-22.666518 13.775856 20.537951 33.546276 -0.546108 0.911922 0.035900 -0.010579 -546914.000000 0 0 1
-22.475018 14.127556 21.991751 34.472473 -0.561176 0.878962 0.022776 -0.005184 -182693.000000 0 0 1
-21.107218 14.220356 22.290451 33.831899 -0.592870 0.851495 0.021500 -0.005012 -51570.300000 0 0 1
-20.476518 15.493156 22.200251 33.943730 -0.647731 0.857895 0.036401 0.005906 -516022.000000 0 0 1
-19.033318 15.559056 22.753651 33.497463 -0.685299 0.824036 0.045192 -0.002062 277309.000000 0 0 1
-18.090618 14.887556 21.965251 32.115137 -0.688575 0.817628 0.030453 -0.004332 -185854.000000 0 0 1
-17.628918 15.602156 20.830651 31.434408 -0.724484 0.846418 0.028058 -0.005130 -1561300.000000 0 0 1
-16.492318 14.956256 19.992351 29.922905 -0.736593 0.839105 0.028617 0.003754 1228340.000000 0 0 1
-15.251418 14.693256 20.680551 29.600383 -0.766761 0.797276 0.034892 0.013122 974475.000000 0 0 1
-14.582718 15.809756 21.285751 30.260324 -0.825749 0.790597 0.029916 0.006354 -1347880.000000 0 0 1
-13.500018 15.400256 22.259351 30.247265 -0.851055 0.743782 0.013681 0.011659 -37443.000000 0 0 1
-12.368818 14.812556 21.604351 28.968042 -0.875062 0.729062 0.009757 0.026297 -318634.000000 0 0 1
-11.521218 14.338356 22.597251 29.136964 -0.893910 0.683206 0.024203 0.024721 153141.000000 0 0 1
-10.300318 13.549256 22.008551 27.821847 -0.920791 0.658268 0.025409 0.022313 -253218.000000 0 0 1
-9.727118 12.684956 22.977651 27.991023 -0.916615 0.607822 0.024931 0.015250 -263004.000000 0 0 1
-8.647118 11.908756 22.533751 26.913956 -0.942758 0.578559 0.028759 0.022941 72743.600000 0 0 1
-7.302918 12.648056 22.797951 27.074942 -1.047164 0.569758 0.031458 0.026018 -415568.000000 0 0 1
-7.070418 13.644656 21.740651 26.623736 -1.092709 0.615320 0.025029 0.023235 -87159.400000 0 0 1
-6.310418 14.722556 22.301051 27.457456 -1.165861 0.622876 0.022862 0.023260 246926.000000 0 0 1
-7.174918 15.823056 23.003651 28.827356 -1.145080 0.646860 0.039361 -0.001304 155508.000000 0 0 1
-7.976218 16.530256 22.110651 28.735871 -1.121228 0.692826 0.009235 0.013659 -637028.000000 0 0 1
-7.372818 17.721856 21.627951 28.916965 -1.176548 0.725854 0.009756 0.020919 -1082190.000000 0 0 1
-7.954618 18.244656 20.301251 28.430339 -1.159648 0.775502 -0.003419 0.033859 1580080.000000 0 0 1
-9.296318 18.798156 20.289951 29.180032 -1.111531 0.801908 0.010023 0.025684 1351870.000000 0 0 1
-10.352918 17.970956 20.799351 29.372626 -1.048142 0.783964 0.006695 0.022647 -1434130.000000 0 0 1
-11.683418 18.642856 20.778451 30.262226 -1.010978 0.813976 0.007591 0.015168 -1009510.000000 0 0 1
-12.330718 18.750156 19.527851 29.748141 -0.989074 0.854707 0.006135 0.014368 -97052.500000 0 0 1
-13.481018 19.563456 19.656451 30.835737 -0.967429 0.879603 0.011439 0.010159 448011.000000 0 0 1
-14.493118 19.512556 18.455851 30.518990 -0.931946 0.921365 0.012206 0.009513 19080.900000 0 0 1
-15.168918 18.281156 18.419551 30.059550 -0.878172 0.911237 0.028647 0.005421 -65043.100000 0 0 1
-16.077418 18.369056 17.324651 29.934079 -0.851828 0.953589 0.046086 -0.014405 -514793.000000 0 0 1
-16.889118 17.071456 17.036951 29.443753 -0.790767 0.953752 0.039707 -0.022342 -158495.000000 0 0 1
-17.857018 16.756056 17.975851 30.377125 -0.753601 0.937561 0.031372 -0.010632 -1303030.000000 0 0 1
-19.070418 17.389856 17.815451 31.360456 -0.739338 0.966618 0.031867 -0.013539 -1434090.000000 0 0 1
33.617118 -10.033344 12.228688 37.152650 -0.290043 1.235396 0.043317 -0.009784 798947.000000 0 0 1
32.225958 -10.308344 11.970088 35.889516 -0.309591 1.230755 0.026573 -0.001617 861897.000000 0 0 1
31.826588 -11.590244 12.422488 36.077468 -0.349241 1.219273 0.043364 -0.003661 629558.000000 0 0 1
30.317058 -11.881044 12.102888 34.738496 -0.373498 1.214933 0.029372 -0.000047 360245.000000 0 0 1
29.494138 -10.844344 12.663488 33.880199 -0.352336 1.187723 0.027937 0.000029 -956442.000000 0 0 1
28.153088 -11.131344 12.724888 32.839396 -0.376523 1.172891 0.027362 0.000070 -885736.000000 0 0 1
27.719378 -12.110344 13.849088 33.268928 -0.411899 1.141450 0.028333 -0.004040 -891227.000000 0 0 1
27.999038 -11.462344 15.068688 33.799361 -0.388569 1.108698 0.037570 -0.011052 27480.100000 0 0 1
27.684368 -12.153044 16.279688 34.338738 -0.413657 1.076865 0.045735 -0.015689 -653635.000000 0 0 1
26.248298 -12.042644 16.791788 33.406026 -0.430146 1.044126 0.036820 -0.024310 -223204.000000 0 0 1
25.912898 -10.682844 17.060688 32.812627 -0.391030 1.024012 0.021137 -0.034066 -9088.950000 0 0 1
25.211298 -10.036544 15.990988 31.496880 -0.378865 1.038282 0.047043 -0.026017 -24768.900000 0 0 1
24.934698 -8.563644 16.338488 31.016469 -0.330821 1.016002 0.080966 -0.017590 -897886.000000 0 0 1
26.041798 -7.786244 16.152488 31.618091 -0.290530 1.034609 0.057458 -0.010727 -1049330.000000 0 0 1
25.914098 -6.446144 16.557088 31.420223 -0.243802 1.015781 0.062471 -0.016959 -473601.000000 0 0 1
27.206478 -5.651944 16.431088 32.281846 -0.204829 1.036787 0.053542 -0.012971 -409794.000000 0 0 1
27.339838 -5.127244 15.063688 31.633370 -0.185384 1.074473 0.061710 -0.004609 257583.000000 0 0 1
28.506158 -4.326244 15.056688 32.527239 -0.150616 1.089538 0.056133 0.001370 -2901.940000 0 0 1
28.685878 -3.530244 13.700388 31.985041 -0.122450 1.128144 0.057792 -0.000016 -118618.000000 0 0 1
29.246718 -4.298744 12.663088 32.159035 -0.145937 1.166073 0.034858 0.002551 236874.000000 0 0 1
29.301258 -3.593244 11.481088 31.674761 -0.122022 1.199882 0.043346 -0.001521 -66295.400000 0 0 1
29.733388 -4.452544 10.279688 31.773755 -0.148644 1.241341 0.047483 -0.000055 139273.000000 0 0 1
31.036398 -5.014944 10.266988 33.072930 -0.160198 1.255146 0.052908 -0.006072 392410.000000 0 0 1
31.361788 -5.488044 8.980688 33.080706 -0.173237 1.295868 0.053038 -0.010271 233520.000000 0 0 1
32.711798 -6.248144 8.843388 34.457315 -0.188733 1.311244 0.054582 -0.009194 129854.000000 0 0 1
33.879518 -5.472444 8.844988 35.440135 -0.160143 1.318555 0.060091 -0.013725 -589620.000000 0 0 1
34.935138 -6.237044 8.377388 36.462929 -0.176671 1.338975 0.060096 -0.025253 -203411.000000 0 0 1
-35.279376 -5.525244 8.047788 36.605049 0.155352 1.349131 0.064927 -0.023544 229138.000000 0 0 1
-35.339078 -4.855144 6.789788 36.311487 0.136533 1.382702 0.070767 -0.024434 311283.000000 0 0 1
-34.124750 -4.153944 6.556988 34.996399 0.121132 1.382321 0.063926 -0.010285 62808.800000 0 0 1
-34.147785 -3.365044 5.255188 34.713279 0.098226 1.418824 0.074286 -0.022118 -447132.000000 0 0 1
-33.859468 -4.112144 4.107188 34.354655 0.120856 1.450957 0.069358 -0.025316 108658.000000 0 0 1
-33.738888 -3.373044 2.920388 34.032612 0.099644 1.484879 0.083013 -0.020805 -234166.000000 0 0 1
-33.125228 -4.238644 1.855188 33.446802 0.127267 1.515301 0.071724 -0.028134 94980.700000 0 0 1
-33.954488 -5.347544 1.443088 34.403285 0.156208 1.528838 0.068371 -0.014942 1199140.000000 0 0 1
-34.980889 -4.973744 0.463688 35.335757 0.141238 1.557674 0.060995 -0.011069 619968.000000 0 0 1
-34.428494 -4.947744 -0.990512 34.796300 0.142733 1.599266 0.072424 -0.011332 -1044470.000000 0 0 1
-34.189564 -6.242044 -1.493312 34.786770 0.180583 1.613737 0.071751 -0.016823 381401.000000 0 0 1
-33.264068 -6.266944 -2.585212 33.947845 0.186217 1.647023 0.067508 -0.014276 94570.600000 0 0 1
-31.798298 -5.967944 -2.208712 32.428792 0.185523 1.638959 0.065258 -0.028686 -1039330.000000 0 0 1
-31.289858 -6.912944 -1.356112 32.073089 0.217440 1.613091 0.066646 -0.026182 -239321.000000 0 0 1
-30.100018 -6.520244 -0.703812 30.806169 0.213323 1.593645 0.060296 -0.036471 -244552.000000 0 0 1
-29.643238 -7.670544 0.229288 30.620441 0.253208 1.563308 0.048424 -0.030505 -117461.000000 0 0 1
-29.088868 -8.820044 -0.429312 30.399667 0.294399 1.584919 0.047021 -0.021934 500722.000000 0 0 1
-28.570988 -9.652944 0.579388 30.163163 0.325817 1.551587 0.046527 -0.012366 -212337.000000 0 0 1
-28.074678 -11.055544 0.083488 30.173160 0.375142 1.568029 0.031690 -0.009722 792641.000000 0 0 1
-26.745628 -11.018144 -0.490112 28.930405 0.390775 1.587738 0.025614 -0.015309 1128100.000000 0 0 1
-26.183368 -12.241244 -0.877612 28.916899 0.437328 1.601150 0.030150 -0.013345 -233861.000000 0 0 1
-26.892818 -13.071144 -1.970612 29.966011 0.452422 1.636605 0.035377 -0.017812 -1547300.000000 0 0 1
-27.935898 -13.821944 -1.558412 31.207198 0.459458 1.620755 0.049522 -0.021906 -926669.000000 0 0 1
-28.311778 -14.764544 -2.505612 32.028529 0.480698 1.649107 0.049487 -0.025341 -121874.000000 0 0 1
-29.337448 -15.763844 -1.907412 33.359000 0.493063 1.628006 0.058898 -0.020043 184968.000000 0 0 1
-28.725178 -16.566644 -0.933312 33.173192 0.523133 1.598935 0.049015 -0.016836 594524.000000 0 0 1
-29.708748 -17.269544 -0.156512 34.363809 0.526552 1.575351 0.049877 -0.011532 493902.000000 0 0 1
-29.972728 -18.752344 -0.421812 35.358065 0.559064 1.582726 0.055309 -0.008760 1078350.000000 0 0 1
-28.833208 -19.577944 -0.009012 34.851828 0.596497 1.571055 0.059565 -0.018407 1418150.000000 0 0 1
-29.153888 -20.993244 -0.068312 35.925898 0.624078 1.572698 0.053560 -0.015881 236140.000000 0 0 1
-30.153218 -21.498344 1.033388 37.046771 0.619378 1.542899 0.051593 -0.009089 -261582.000000 0 0 1
-29.628828 -21.685444 2.325388 36.790398 0.631818 1.507548 0.044101 -0.014813 342976.000000 0 0 1
-30.616068 -22.029944 3.313688 37.863473 0.623730 1.483167 0.036880 -0.015054 564545.000000 0 0 1
-29.883988 -22.208344 4.681088 37.525670 0.639104 1.445727 0.027416 -0.013973 -168462.000000 0 0 1
-29.186578 -21.054844 5.046788 36.340513 0.624937 1.431471 0.023394 -0.017418 -96309.000000 0 0 1
-28.672508 -21.162644 6.360788 36.199860 0.635829 1.394166 0.016646 -0.019930 123391.000000 0 0 1
-28.062898 -19.787644 6.805188 35.005538 0.614152 1.375147 0.020022 -0.012768 271847.000000 0 0 1
-27.130578 -19.953344 7.857388 34.582406 0.634128 1.341587 0.025589 -0.023459 -289368.000000 0 0 1
-26.426398 -18.791844 8.121988 33.428351 0.618138 1.325373 0.035825 -0.016695 -426204.000000 0 0 1
-25.397438 -19.076544 9.193488 33.067577 0.644218 1.289063 0.038935 -0.007599 -52074.000000 0 0 1
-26.050158 -19.274444 10.477088 34.057075 0.637004 1.258092 0.034940 -0.011936 660710.000000 0 0 1
-25.102898 -19.701044 11.461288 33.906456 0.665411 1.225977 0.036658 0.008204 218880.000000 0 0 1
-24.806918 -18.567344 12.472288 33.401908 0.642524 1.188124 0.024809 -0.000150 -260616.000000 0 0 1
-23.910318 -17.589244 11.926488 31.989466 0.634243 1.188744 0.019510 -0.003721 299198.000000 0 0 1
-23.424618 -16.500144 12.728088 31.352380 0.613668 1.152758 0.017721 0.004578 334094.000000 0 0 1
-22.645918 -16.965244 13.995388 31.567832 0.642958 1.111471 0.022306 0.002158 -435224.000000 0 0 1
-23.501518 -17.518244 14.971088 32.914187 0.640556 1.098590 0.021180 -0.004091 -50928.100000 0 0 1
-22.765518 -17.968644 16.091688 33.167506 0.668178 1.064245 0.031009 -0.004495 -174235.000000 0 0 1
-23.638618 -18.691644 17.113388 34.655878 0.669060 1.054332 0.023329 0.006598 388379.000000 0 0 1
-24.568718 -17.796044 17.754588 35.150342 0.626874 1.041294 0.023782 0.003975 590254.000000 0 0 1
-25.412968 -18.438144 18.713788 36.551197 0.627663 1.033298 0.016296 0.011758 83460.000000 0 0 1
-26.368168 -17.486144 19.509788 37.170921 0.585567 1.018238 0.022125 0.014616 -29095.000000 0 0 1
-25.672408 -16.614844 20.402788 36.761384 0.574395 0.982426 0.020713 0.014703 491967.000000 0 0 1
-26.556778 -15.695844 21.033688 37.336819 0.533798 0.972362 0.019566 0.008225 -106282.000000 0 0 1
-25.878458 -14.993944 22.215188 37.256242 0.525134 0.931936 0.026651 0.007276 365401.000000 0 0 1
-24.855718 -14.088944 21.822888 35.951961 0.515672 0.918515 0.034655 0.005921 261991.000000 0 0 1
-23.814418 -13.929744 22.768288 35.770927 0.529264 0.880841 0.035079 0.009633 589888.000000 0 0 1
-22.593618 -13.236544 22.079488 34.251737 0.529953 0.870265 0.027214 0.011109 158714.000000 0 0 1
-22.942318 -11.883244 21.875288 33.853946 0.477914 0.868246 0.038858 0.007980 447912.000000 0 0 1
-21.862418 -11.161244 21.322088 32.514153 0.472030 0.855583 0.028106 0.004934 -537415.000000 0 0 1
-21.758118 -9.766044 21.974288 32.429318 0.421894 0.826294 0.040850 0.002137 -46644.700000 0 0 1
-21.163818 -9.776144 23.240088 32.917805 0.432728 0.786957 0.043158 -0.000807 -101659.000000 0 0 1
-19.772218 -9.929144 23.261988 32.103716 0.465387 0.760359 0.034972 0.002232 -453827.000000 0 0 1
-19.037118 -10.089244 24.632588 32.725664 0.487341 0.718644 0.023876 -0.001341 275224.000000 0 0 1
-19.356918 -11.268944 25.335688 33.816808 0.527203 0.723937 0.024321 0.002847 87839.300000 0 0 1
-18.607818 -11.331944 26.541488 34.338236 0.547002 0.687330 0.025385 0.001361 -728514.000000 0 0 1
-18.895618 -12.669844 27.303788 35.539642 0.590664 0.694673 0.025495 -0.018460 677567.000000 0 0 1
-20.076318 -12.746044 28.116788 36.824910 0.565672 0.702040 0.036936 -0.009497 457044.000000 0 0 1
-21.259018 -12.994044 27.348588 36.996436 0.548632 0.738882 0.029465 -0.003285 199690.000000 0 0 1
-22.401318 -13.516744 28.255188 38.508143 0.542909 0.746977 0.036254 -0.004621 -72831.500000 0 0 1
-22.180318 -14.795244 28.852188 39.285042 0.588264 0.745967 0.019877 -0.006386 -192596.000000 0 0 1
-21.300018 -14.771144 29.939188 39.600915 0.606337 0.713581 0.010433 -0.006647 -338898.000000 0 0 1
-21.768118 -15.701944 31.035288 41.031587 0.624897 0.713042 0.009338 -0.012322 -773980.000000 0 0 1
-21.733918 -17.055044 30.753288 41.340083 0.665354 0.731894 0.015381 -0.013673 7772.620000 0 0 1
-22.042518 -17.814744 31.917888 42.684767 0.679720 0.726117 0.016170 -0.012814 553789.000000 0 0 1
-23.526418 -18.084144 32.365388 43.909532 0.655346 0.742038 0.019398 -0.016065 427259.000000 0 0 1
-23.991718 -16.917744 33.010788 44.176065 0.614174 0.726875 0.024007 -0.023680 345151.000000 0 0 1
-25.262468 -17.172944 33.623588 45.427393 0.597027 0.737486 0.024375 -0.023701 414963.000000 0 0 1
-25.897028 -16.123944 -34.224675 45.847203 0.556884 2.413574 0.032220 -0.020135 133845.000000 0 0 1
-25.192878 -15.951244 -33.001175 44.476970 0.564449 2.406820 0.029661 -0.019725 -59167.700000 0 0 1
-25.885128 -14.958544 -32.255675 43.979841 0.523997 2.394135 0.034385 -0.016735 -355730.000000 0 0 1
-25.221628 -14.443344 -30.989175 42.486111 0.520072 2.388234 0.029077 -0.011507 -524242.000000 0 0 1
-25.363058 -15.385544 -29.959275 42.161094 0.545267 2.361133 0.040059 -0.007514 168444.000000 0 0 1
-24.941118 -14.825744 -28.743375 40.841690 0.536314 2.351494 0.055229 -0.005199 -353947.000000 0 0 1
-25.305878 -15.792544 -27.606675 40.643824 0.557928 2.317515 0.043963 -0.009888 -175538.000000 0 0 1
-26.602308 -15.742844 -27.062275 41.083898 0.534357 2.289896 0.052611 -0.015495 -148223.000000 0 0 1
-26.860238 -14.651844 -26.215575 40.291504 0.499370 2.279233 0.056397 -0.004272 -496328.000000 0 0 1
-26.046368 -14.434944 -24.883375 38.806742 0.506063 2.266874 0.056646 -0.018635 -247269.000000 0 0 1
-24.748218 -14.006944 -25.279875 38.049190 0.515027 2.297487 0.050233 -0.020002 371750.000000 0 0 1
-23.771718 -14.091744 -24.262875 36.774433 0.535105 2.291316 0.058580 -0.022557 228142.000000 0 0 1
-23.098018 -15.531644 -24.187675 36.875385 0.591977 2.286210 0.054075 -0.022215 -545657.000000 0 0 1
-22.432918 -15.822144 -25.406775 37.404281 0.614280 2.317534 0.045697 -0.010358 100254.000000 0 0 1
-21.992318 -17.153244 -25.460775 37.764360 0.662405 2.310679 0.038455 -0.012801 -125555.000000 0 0 1
-21.105718 -17.475544 -26.699675 38.258576 0.691583 2.343221 0.027889 -0.004532 199106.000000 0 0 1
-21.751518 -17.583044 -27.974075 39.558069 0.679817 2.356277 0.024777 -0.006211 268656.000000 0 0 1
-22.663318 -18.676144 -28.083575 40.633872 0.689246 2.333857 0.032380 -0.016484 -226092.000000 0 0 1
-23.487718 -18.586044 -29.361975 41.943289 0.669419 2.346250 0.026952 -0.013459 -170039.000000 0 0 1
-22.801518 -19.013544 -30.544175 42.595431 0.695056 2.370395 0.014069 -0.012984 352791.000000 0 0 1
-23.530918 -18.667544 -31.676575 43.653026 0.670654 2.382767 0.005407 -0.010684 -563354.000000 0 0 1
-22.774018 -19.170544 -32.932075 44.392423 0.699698 2.406606 0.004566 -0.019704 704002.000000 0 0 1
-21.641418 -18.350644 -33.327575 43.770131 0.703297 2.436301 0.001782 -0.008967 380555.000000 0 0 1
-20.373318 -18.590944 -32.811075 42.863293 0.739686 2.442586 0.008667 -0.011145 -518678.000000 0 0 1
-19.665518 -19.713144 -33.593675 43.633423 0.786608 2.449492 0.014369 -0.016784 -808423.000000 0 0 1
-19.439118 -19.502644 33.809888 43.604369 0.787029 0.683482 0.008442 -0.017236 145645.000000 0 0 1
-19.018318 -20.709544 33.199088 43.505874 0.827943 0.702709 0.010077 -0.016076 -483165.000000 0 0 1
-20.147218 -21.311344 32.365888 43.676475 0.813470 0.736183 0.010866 -0.016723 -919626.000000 0 0 1
-21.071118 -21.921044 33.221088 45.035152 0.805165 0.741183 0.009276 -0.013551 27398.100000 0 0 1
-22.313918 -22.207644 32.583088 45.307263 0.783011 0.768206 0.017076 -0.004450 294141.000000 0 0 1
-22.225018 -23.425144 31.654288 45.218169 0.811682 0.795350 0.023579 0.008747 -1002880.000000 0 0 1
-21.721418 -24.552944 32.259788 45.993054 0.846512 0.793429 0.019177 0.005279 -49109.400000 0 0 1
-21.746418 -25.643154 31.372888 45.986261 0.867441 0.819997 0.029587 0.013655 -253495.000000 0 0 1
-21.239718 -26.940264 31.991388 46.907914 0.903168 0.820297 0.031729 0.012106 -380384.000000 0 0 1
-22.048918 -27.360874 33.053488 48.242153 0.892495 0.815976 0.013468 0.005323 -330037.000000 0 0 1
-21.423518 -28.383614 33.770488 49.041233 0.924240 0.811220 0.021929 -0.003386 -333250.000000 0 0 1
-22.369118 -29.249624 -34.053475 50.155330 0.917912 2.317142 0.014438 -0.008083 -37705.100000 0 0 1
-23.328318 -30.099644 34.079388 51.103852 0.911464 0.840802 0.005499 -0.001338 243635.000000 0 0 1
-24.443718 -29.518824 33.453488 50.872313 0.879171 0.853171 0.004545 -0.002411 -677373.000000 0 0 1
-25.495298 -29.111794 -34.256475 51.681843 0.851529 2.295393 0.007437 -0.000723 -2282410.000000 0 0 1
-26.672418 -28.649334 34.002688 51.849639 0.821118 0.855562 0.013690 0.005463 -1244650.000000 0 0 1
-27.452418 -28.243114 -33.650875 51.804345 0.799594 2.277823 0.016919 0.006055 -428334.000000 0 0 1
-28.474978 -27.197914 -34.104975 52.093188 0.762463 2.284571 0.004656 0.003751 -427553.000000 0 0 1
-29.453278 -27.825384 33.846888 52.795449 0.756985 0.874872 0.003149 0.000923 -600659.000000 0 0 1
-30.266108 -26.803634 33.385088 52.431252 0.724802 0.880533 0.014191 -0.004178 -484096.000000 0 0 1
