# x y z rho theta phi s1 s2 stress_xx np intf bulk
-0.740525 -10.880403 -14.404621 18.067226 1.502841 2.493570 0.004173 0.011445 -951106.000000 1 0 0
2.185175 -13.662803 -13.061621 19.027693 -1.412203 2.327397 0.004896 0.018827 776419.000000 1 0 0
2.146475 -11.278103 -14.662321 18.622208 -1.382723 2.477306 0.005519 0.013963 333673.000000 1 0 0
-5.565225 -6.325403 -16.548321 18.569582 0.849242 2.670674 0.010216 0.001725 -1327140.000000 1 0 0
4.586875 -14.059503 -11.427621 18.689558 -1.255437 2.228681 0.005546 0.003739 134215.000000 1 0 0
14.073875 -10.675003 -7.887021 19.345148 -0.648918 1.990730 0.058234 -0.019292 -1291180.000000 1 0 0
7.082575 10.778597 -10.883121 16.875525 0.989449 2.271696 0.027046 -0.014821 655492.000000 1 0 0
5.758675 -4.094303 -12.658321 14.496853 -0.618057 2.632480 0.012903 -0.002182 2506240.000000 1 0 0
13.634475 0.518097 -10.046821 16.944201 0.037981 2.205496 0.018865 0.002852 1999460.000000 1 0 0
14.156175 5.069497 -10.405821 18.286011 0.343883 2.176157 0.028828 0.003054 14266.300000 1 0 0
4.063875 4.303297 -13.486821 14.728469 0.814005 2.728036 0.007636 -0.000500 1205130.000000 1 0 0
10.264275 -5.005603 -13.668621 17.811305 -0.453737 2.445592 0.026033 -0.000891 -88173.700000 1 0 0
2.629275 -7.452203 -11.954621 14.330435 -1.231613 2.557499 0.002974 0.004158 917910.000000 1 0 0
-5.682025 -2.069503 -15.050721 16.220125 0.349286 2.759548 0.005855 -0.005713 -763365.000000 1 0 0
10.651475 0.000397 -9.690621 14.400071 0.000037 2.308995 0.013221 0.000534 1246570.000000 1 0 0
-1.649625 -9.517003 -16.946321 19.505702 1.399167 2.623546 0.013774 0.004406 2196050.000000 1 0 0
8.628775 1.559097 -17.960821 19.986937 0.178757 2.687428 0.034451 -0.004527 -595505.000000 1 0 0
16.426475 -5.985003 -8.732121 19.542243 -0.349402 2.034019 0.057822 -0.006918 -1019750.000000 1 0 0
10.109975 7.571397 -9.874821 16.032771 0.642799 2.234343 0.027692 -0.005036 -896607.000000 1 0 0
13.984475 -2.284903 -10.679521 17.743689 -0.161957 2.216646 0.037806 -0.000543 -2580510.000000 1 0 0
7.179375 -1.776303 -13.705821 15.573959 -0.242547 2.646758 0.020685 -0.004573 1744320.000000 1 0 0
-2.772625 6.592797 -13.761021 15.508647 -1.172698 2.662282 -0.001620 -0.001820 -2359.340000 1 0 0
11.173975 1.849097 -13.916121 17.942556 0.163996 2.458450 0.020682 -0.000784 392535.000000 1 0 0
-2.372825 10.637097 -12.927421 16.908470 -1.351319 2.441144 0.000804 -0.000940 -1061450.000000 1 0 0
2.769275 -0.958703 -15.256321 15.535229 -0.333279 2.951818 0.016036 -0.006157 660454.000000 1 0 0
-9.060225 0.517497 -15.208921 17.710640 -0.057055 2.603611 0.004508 0.002346 -739663.000000 1 0 0
2.173675 -1.751303 -18.013921 18.228913 -0.678199 2.987857 0.039550 -0.019296 1241750.000000 1 0 0
1.045075 7.797797 -13.139821 15.315114 1.437568 2.602090 0.000839 -0.004134 387645.000000 1 0 0
9.356875 -9.088403 -9.785321 16.306523 -0.770844 2.214405 0.022439 -0.000972 -1479530.000000 1 0 0
3.964175 7.280197 -13.488421 15.832039 1.072174 2.590533 0.002297 -0.002938 612465.000000 1 0 0
-2.733625 9.029397 -15.494721 18.140813 -1.276821 2.594683 -0.001631 0.002712 -1865.550000 1 0 0
5.468075 -7.724203 -15.337121 18.021943 -0.954778 2.588730 0.024223 -0.003183 1187650.000000 1 0 0
4.327675 7.229697 -16.351221 18.394557 1.031409 2.665770 0.009097 0.000614 1493970.000000 1 0 0
-0.239925 5.055597 -13.361921 14.288371 -1.523375 2.779508 0.005798 -0.006464 1363610.000000 1 0 0
8.736775 4.174497 -16.732621 19.332312 0.445737 2.616996 0.023718 -0.001283 -2227340.000000 1 0 0
5.269975 0.336097 -14.415621 15.352385 0.063690 2.790456 0.010439 0.000456 -616580.000000 1 0 0
6.248675 7.871197 -11.554421 15.313599 0.899807 2.425719 0.007868 -0.006462 -1146450.000000 1 0 0
2.682275 -8.401103 -14.971221 17.375574 -1.261750 2.609258 0.014479 -0.000622 -369362.000000 1 0 0
4.024375 11.324897 -13.797421 18.298025 1.229358 2.424986 0.024689 -0.019691 -2628130.000000 1 0 0
0.552375 -4.422703 -13.727421 14.432862 -1.446544 2.827647 0.011721 -0.000197 2126210.000000 1 0 0
8.438375 -0.025403 -11.683921 14.412523 -0.003010 2.516106 0.007400 -0.000828 288006.000000 1 0 0
-1.007325 -4.915803 -16.331221 17.084748 1.368679 2.843488 0.012873 -0.009046 535072.000000 1 0 0
4.447575 0.884597 -11.736921 12.582478 0.196332 2.772899 0.007327 -0.006166 1295230.000000 1 0 0
-2.885925 -7.084403 -15.655821 17.424754 1.183959 2.687095 0.005747 0.003061 653004.000000 1 0 0
11.587775 -3.773003 -11.443921 16.717518 -0.314776 2.324778 0.024663 0.000874 2137440.000000 1 0 0
6.516075 -6.969503 -12.596521 15.802074 -0.819009 2.493346 0.019934 -0.000735 -579583.000000 1 0 0
3.388475 -3.948103 -14.662021 15.557768 -0.861530 2.800604 0.021875 -0.004296 2805700.000000 1 0 0
-0.821625 -1.375203 -18.317521 18.387437 1.032249 3.054360 0.031795 -0.021119 846043.000000 1 0 0
14.926475 2.965197 -8.537521 17.449393 0.196101 2.082053 0.019829 0.003624 -918182.000000 1 0 0
6.901075 4.244397 -14.415421 16.536145 0.551401 2.629564 0.012748 0.001639 4085850.000000 1 0 0
10.203275 -9.557503 -13.936521 19.740296 -0.752730 2.354621 0.051922 -0.013509 103669.000000 1 0 0
8.997775 -3.212203 -15.535421 18.238079 -0.342897 2.590232 0.035259 -0.010546 26897.700000 1 0 0
-5.605725 -2.072803 -17.955521 18.924096 0.354174 2.820268 0.007928 -0.003081 -766460.000000 1 0 0
5.124075 -8.921903 -11.073721 15.115680 -1.049469 2.392928 0.003665 0.003549 1556490.000000 1 0 0
-2.507125 3.791697 -17.187321 17.778263 -0.986578 2.883037 0.010663 -0.003956 2799330.000000 1 0 0
9.408075 9.276097 -14.391021 19.536103 0.778335 2.398881 0.056686 -0.018104 -524014.000000 1 0 0
9.791275 9.975697 -11.496521 18.098442 0.794728 2.259092 0.034343 -0.015329 -206696.000000 1 0 0
12.113975 -5.946203 -9.682221 16.608766 -0.456305 2.193161 0.031757 -0.003081 -418611.000000 1 0 0
8.100375 6.831997 -13.660621 17.288864 0.700660 2.481834 0.019918 -0.001826 602416.000000 1 0 0
3.808075 -4.218303 -17.524721 18.423120 -0.836464 2.828012 0.041425 -0.016749 440010.000000 1 0 0
9.334875 -7.437003 -12.270421 17.117597 -0.672719 2.370043 0.032332 -0.006666 783652.000000 1 0 0
12.057075 -8.682303 -8.834421 17.285903 -0.624089 2.107233 0.041801 -0.010815 1087560.000000 1 0 0
-3.036325 -2.416403 -13.749421 14.286527 0.672194 2.866517 0.005498 -0.006681 -2205330.000000 1 0 0
-0.470925 6.022097 -17.638721 18.644353 -1.492756 2.811654 0.016994 -0.000657 2032130.000000 1 0 0
1.042075 -8.338603 -17.437921 19.357151 -1.446471 2.692524 0.015139 -0.001456 1139940.000000 1 0 0
-0.000325 8.337097 -15.896821 17.950379 -1.570757 2.658576 -0.000249 0.000138 -932280.000000 1 0 0
1.746975 3.322297 -14.955221 15.419086 1.086696 2.895683 0.013377 -0.004774 2092630.000000 1 0 0
-2.074025 -0.415903 -15.766921 15.908185 0.197905 3.008227 0.014564 -0.013688 -634148.000000 1 0 0
14.181975 -4.224303 -8.431521 17.031256 -0.289496 2.088702 0.035621 -0.003118 1182750.000000 1 0 0
0.455375 0.622997 -14.585121 14.605521 0.939604 3.088733 0.012346 -0.009080 2149420.000000 1 0 0
8.733575 2.757997 -12.504121 15.499514 0.305882 2.509415 0.011851 -0.001125 819543.000000 1 0 0
5.917975 0.914897 -17.157221 18.172223 0.153382 2.805788 0.027386 0.001436 187548.000000 1 0 0
15.234375 1.527397 -12.470121 19.746469 0.099926 2.254297 0.039871 -0.000494 -1180240.000000 1 0 0
8.825975 -11.201903 -11.927521 18.591563 -0.903477 2.267321 0.031877 -0.006264 -570697.000000 1 0 0
-4.697525 0.736397 -14.997921 15.733615 -0.155497 2.834580 0.008916 -0.009658 -640983.000000 1 0 0
2.353275 5.118797 -17.231521 18.129129 1.139879 2.825599 0.017012 -0.003960 2395430.000000 1 0 0
5.951875 -11.569103 -12.335621 17.928650 -1.095645 2.329580 0.010223 -0.001254 571327.000000 1 0 0
12.803275 7.227397 -8.625021 17.045530 0.513904 2.101336 0.023793 -0.006418 1926900.000000 1 0 0
-5.045425 3.601397 -15.658821 16.841171 -0.619924 2.764649 0.001185 -0.006437 960233.000000 1 0 0
-0.846425 -4.210903 -19.121321 19.597782 1.372432 2.920635 0.024305 -0.014772 -1656160.000000 1 0 0
9.814375 4.437797 -10.177021 14.818494 0.424660 2.327844 0.006489 0.001524 727495.000000 1 0 0
13.352875 3.694297 -12.906821 18.934971 0.269915 2.320797 0.039982 0.001086 -393370.000000 1 0 0
-6.264725 5.903297 -17.068121 19.115869 -0.755704 2.674491 0.006426 -0.001824 -375266.000000 1 0 0
-10.201225 3.147697 -15.426121 18.760016 -0.299292 2.536215 0.019728 -0.005716 229744.000000 1 0 0
10.619775 13.359397 -8.379621 19.012395 0.899155 2.027225 0.056906 -0.016322 334577.000000 1 0 0
7.355875 13.308997 -12.456021 19.656825 1.065883 2.257090 0.046162 -0.018916 -1052650.000000 1 0 0
5.327775 15.095197 -11.317521 19.604501 1.231500 2.186205 0.019063 -0.015900 -646022.000000 1 0 0
14.178875 9.730697 -9.429021 19.612073 0.601459 2.072336 0.067131 -0.022490 -1549590.000000 1 0 0
8.291075 -17.280403 -1.959521 19.266395 -1.123442 1.672679 0.027341 -0.007999 -151200.000000 1 0 0
0.698075 -15.907003 -0.025121 15.922333 -1.526940 1.572374 0.006850 -0.006401 955499.000000 1 0 0
-9.171925 -11.790403 7.596779 16.758546 0.909668 1.100324 0.025360 -0.007212 260284.000000 1 0 0
2.026275 -15.893803 -2.638421 16.238227 -1.443992 1.734002 0.009318 -0.004483 2474440.000000 1 0 0
-1.250025 -11.001803 -9.500021 14.589470 1.457661 2.279903 0.001611 0.002927 1256430.000000 1 0 0
-4.744725 -12.724903 -12.989521 18.792638 1.213895 2.333948 0.031358 -0.000300 -643865.000000 1 0 0
-8.164425 -17.875503 -1.868821 19.740414 1.142353 1.665608 0.021088 -0.013352 -2108930.000000 1 0 0
-11.331025 -7.148103 -8.781821 16.018985 0.562790 2.151023 0.022911 -0.007688 3152630.000000 1 0 0
-13.576825 -11.622003 -4.663621 18.470260 0.707977 1.826053 0.014032 -0.006101 278150.000000 1 0 0
-5.720025 -13.489103 9.739479 17.593523 1.169732 0.984136 0.018441 -0.012576 -1470710.000000 1 0 0
0.125275 -14.023103 -3.781221 14.524488 -1.561863 1.834165 0.004938 -0.000712 -2316970.000000 1 0 0
-14.754525 -11.749303 1.993079 18.966141 0.672492 1.465516 0.007391 0.001041 522325.000000 1 0 0
-3.960725 -16.578103 -7.406921 18.584491 1.336279 1.980736 0.005613 -0.009963 1092650.000000 1 0 0
0.461875 -15.261903 -9.195521 17.824046 -1.540542 2.112861 0.006048 0.002095 2192240.000000 1 0 0
4.568675 -14.222303 -2.651321 15.171559 -1.259975 1.746454 0.004498 0.002732 1572070.000000 1 0 0
-3.538725 -18.055903 -2.483621 18.566275 1.377262 1.704969 -0.002410 -0.013941 988493.000000 1 0 0
-0.966925 -13.441603 0.684179 13.493692 1.498985 1.520071 0.005283 -0.002665 2153570.000000 1 0 0
-8.471425 -11.362203 -10.464521 17.617346 0.930130 2.206805 0.033733 -0.012428 1441470.000000 1 0 0
-3.751425 -14.103603 -0.389321 14.599191 1.310825 1.597467 -0.001106 0.000990 2952250.000000 1 0 0
-1.567925 -14.989403 -7.255521 16.726720 1.466573 2.019467 -0.001969 0.000566 -503686.000000 1 0 0
-14.274525 -7.934303 -1.855421 16.436478 0.507313 1.683922 0.007752 -0.001942 1546180.000000 1 0 0
-10.725625 -7.446103 -11.641821 17.493298 0.606846 2.298962 0.029374 -0.008107 1081490.000000 1 0 0
-9.548225 -14.737603 6.785479 18.825734 0.995912 1.202061 0.017352 -0.004617 655315.000000 1 0 0
-2.385825 -14.367303 -12.273021 19.045698 1.406239 2.271033 0.020599 0.002626 479673.000000 1 0 0
2.338575 -17.893403 -4.771121 18.665648 -1.440838 1.829275 0.015552 -0.005616 -549537.000000 1 0 0
-6.595325 -9.687403 -9.294721 14.957805 0.973063 2.241320 0.017447 -0.005553 -280942.000000 1 0 0
-10.817925 -15.417003 0.326579 18.836617 0.958938 1.553458 0.012203 -0.001093 537873.000000 1 0 0
-12.644225 -11.079903 4.129379 17.311627 0.719555 1.329942 0.024229 -0.002759 718460.000000 1 0 0
-17.095125 -9.039203 -1.600321 19.403905 0.486389 1.653364 0.011612 -0.005224 909823.000000 1 0 0
-1.403525 -19.216503 -4.069621 19.692782 1.497888 1.778952 0.006379 -0.010436 -627603.000000 1 0 0
3.262075 -14.167203 -8.764221 16.975345 -1.344485 2.113311 0.003033 0.003242 598988.000000 1 0 0
-4.216425 -8.008903 -13.164521 15.975775 1.086200 2.539285 0.006157 0.004154 1367950.000000 1 0 0
5.495275 -16.511203 1.237379 17.445600 -1.249507 1.499809 0.019411 -0.011394 3155780.000000 1 0 0
-2.786325 -13.794603 -3.209321 14.434487 1.371491 1.795007 -0.003103 -0.001078 -142132.000000 1 0 0
-0.411125 -13.929003 3.622379 14.398187 1.541289 1.316478 0.006941 -0.004351 -2092200.000000 1 0 0
1.324675 -16.094503 6.998679 17.600264 -1.488675 1.161846 0.024065 -0.012275 2439970.000000 1 0 0
-5.406025 -10.369503 -14.630121 18.729446 1.090224 2.467269 0.028684 -0.004909 399388.000000 1 0 0
-0.264125 -17.290803 -5.925221 18.279767 1.555522 1.900900 0.013993 -0.005768 -462719.000000 1 0 0
-6.429125 -13.389803 -1.355021 14.914977 1.123154 1.661771 0.003268 -0.002821 2540240.000000 1 0 0
-1.681725 -17.732903 -0.279021 17.814654 1.476243 1.586459 -0.001884 -0.008113 2501580.000000 1 0 0
-9.512825 -9.728603 -4.859121 14.448204 0.796612 1.913796 0.016396 -0.007257 3234490.000000 1 0 0
-0.746025 -16.578503 4.896879 17.302680 1.525827 1.283862 0.020656 -0.012924 2654250.000000 1 0 0
-6.834525 -9.935003 -6.369821 13.637802 0.968221 2.056772 0.013222 -0.007191 2659740.000000 1 0 0
-6.064625 -14.552703 -8.586221 17.952271 1.175947 2.069492 0.017457 -0.010974 901507.000000 1 0 0
-5.728325 -12.226303 -10.302721 16.983588 1.132644 2.222609 0.026386 -0.005641 767223.000000 1 0 0
-10.732025 -12.253003 -8.743921 18.486985 0.851474 2.063463 0.041216 -0.021586 179763.000000 1 0 0
4.063475 -17.036903 6.530479 18.692647 -1.336660 1.213907 0.041118 -0.013285 486744.000000 1 0 0
-6.765425 -14.352603 -4.241821 16.424410 1.130312 1.832020 0.010712 -0.008924 -1334900.000000 1 0 0
-2.785825 -12.247403 -7.166421 14.460888 1.347139 2.089290 0.005761 -0.003771 2032070.000000 1 0 0
-7.078425 -12.813603 4.345979 15.270234 1.066101 1.282202 0.003750 -0.001790 3499810.000000 1 0 0
2.537975 -16.298403 2.331479 16.658783 -1.416318 1.430380 0.012565 -0.008813 2905990.000000 1 0 0
-6.241525 -12.120103 7.222979 15.428057 1.095242 1.083576 0.007667 -0.003334 1871460.000000 1 0 0
-11.117425 -12.873103 -1.010321 17.039210 0.858450 1.630125 0.012497 0.001466 1526520.000000 1 0 0
-14.317425 -8.787203 4.644079 17.429029 0.550463 1.301082 0.020080 -0.001089 1273070.000000 1 0 0
-7.997825 -15.523203 4.285179 17.980484 1.095049 1.330157 0.008171 0.000512 1109080.000000 1 0 0
-16.432825 -9.368703 1.174579 18.952308 0.518160 1.508781 -0.003941 0.000865 -1642110.000000 1 0 0
-6.566725 -17.074903 2.319479 18.440558 1.203650 1.444681 -0.000139 0.000718 2012900.000000 1 0 0
-11.575125 -14.952903 -4.797521 19.508691 0.912045 1.819262 0.040243 -0.008749 -604296.000000 1 0 0
-10.149425 -10.150603 -12.573021 19.082097 0.785456 2.290140 0.035404 -0.004530 -4864.510000 1 0 0
-4.375525 -15.971603 -4.440321 17.145080 1.303400 1.832768 -0.001345 -0.012255 -919290.000000 1 0 0
-11.887825 -8.274803 -0.084621 14.484471 0.608086 1.576639 0.001222 0.002260 1587580.000000 1 0 0
-9.677525 -11.202503 3.475079 15.206141 0.858304 1.340228 0.005387 0.002896 2751530.000000 1 0 0
-14.103525 -12.963603 -0.610021 19.166026 0.743308 1.602630 0.008177 0.000130 -716194.000000 1 0 0
5.635175 -14.908303 -7.130421 17.460114 -1.209408 1.991479 0.005441 -0.001698 1104300.000000 1 0 0
-7.463525 -10.566303 -1.219321 12.993756 0.955820 1.664774 0.005880 -0.000256 1388770.000000 1 0 0
-11.773725 -8.200803 -6.027021 15.562736 0.608396 1.968468 0.020605 -0.009877 -37304.400000 1 0 0
-14.305425 -6.647703 -9.242721 18.282916 0.435009 2.100802 0.026241 -0.012612 1510910.000000 1 0 0
-3.788625 -16.448103 1.370479 16.934343 1.344407 1.489779 -0.003219 -0.006679 640856.000000 1 0 0
-7.821125 -15.628803 0.034379 17.476575 1.106805 1.568829 0.014767 -0.003743 -58277.800000 1 0 0
1.049775 -18.563103 3.637479 18.945239 -1.514305 1.377597 0.018094 -0.010131 1039570.000000 1 0 0
-14.217125 -8.825503 -4.613021 17.357883 0.555549 1.839788 0.015079 -0.008967 901904.000000 1 0 0
-3.191125 -14.514203 11.005279 18.492202 1.354377 0.933368 0.003047 -0.013614 -142601.000000 1 0 0
-10.815125 -12.150703 -3.847721 16.715606 0.843488 1.803067 0.015194 -0.008424 1054310.000000 1 0 0
-10.033325 -10.682103 0.507979 14.664003 0.816707 1.536148 0.005632 0.003574 1000660.000000 1 0 0
-0.020625 -13.141103 -11.187321 17.258191 1.569227 2.276057 0.006833 0.004077 417032.000000 1 0 0
-5.773725 -12.668903 -6.362321 15.307388 1.143179 1.999440 0.005313 -0.008788 1340280.000000 1 0 0
1.825875 -15.857403 9.939779 18.803996 -1.456158 1.013847 0.027408 -0.010653 -682318.000000 1 0 0
-9.002325 -15.622103 -5.615121 18.884426 1.048019 1.872703 0.030261 -0.014195 -767288.000000 1 0 0
-3.308125 -15.460103 5.848679 16.857210 1.359997 1.216475 0.005289 -0.006227 -1606980.000000 1 0 0
-17.338925 -5.629203 -6.473921 19.345229 0.313922 1.912032 0.027736 -0.012068 -845838.000000 1 0 0
18.828475 5.668097 -2.932421 19.880591 0.292409 1.718838 0.021135 0.016994 -194129.000000 1 0 0
12.911975 -12.498703 -5.894621 18.912515 -0.769136 1.887755 0.054118 -0.010594 154748.000000 1 0 0
11.039375 -13.550603 -1.608821 17.552064 -0.887169 1.662585 0.031426 -0.007804 2551180.000000 1 0 0
18.686475 -2.937403 4.530279 19.450864 -0.155918 1.335729 0.055329 -0.017766 -515128.000000 1 0 0
8.825175 -16.832203 4.887379 19.623793 -1.087896 1.319093 0.037250 -0.022091 -84951.000000 1 0 0
18.193175 -1.099603 6.712679 19.423203 -0.060367 1.217917 0.072649 -0.018178 -742570.000000 1 0 0
18.049875 -4.180103 -4.971121 19.182891 -0.227574 1.832932 0.068348 -0.014201 -345452.000000 1 0 0
5.551775 -11.786003 14.624279 19.585750 -1.130577 0.727740 0.012529 0.000268 302870.000000 1 0 0
15.950875 -8.959603 -0.773421 18.311283 -0.511781 1.613046 0.035570 -0.005521 742491.000000 1 0 0
13.925975 -12.693703 -1.324621 18.889613 -0.739139 1.640978 0.038531 -0.005833 568966.000000 1 0 0
11.411875 -2.056103 13.795279 18.021325 -0.178260 0.698982 0.036757 -0.007686 -1884750.000000 1 0 0
17.058875 -6.171803 -1.395521 18.194610 -0.347143 1.647571 0.043370 -0.008132 -2332110.000000 1 0 0
17.894175 3.716397 -0.953321 18.300872 0.204776 1.622911 0.027655 0.007835 -276137.000000 1 0 0
9.756975 -11.081903 9.590479 17.606374 -0.848892 0.994746 0.025319 -0.003183 -114915.000000 1 0 0
9.020575 -11.105003 4.235279 14.920772 -0.888601 1.282988 0.007810 -0.005268 -334260.000000 1 0 0
14.076875 -10.139803 6.789879 18.629988 -0.624231 1.197744 0.027312 -0.002587 1458780.000000 1 0 0
16.214475 -0.438203 -4.708321 16.889923 -0.027019 1.853304 0.020351 0.002350 -457671.000000 1 0 0
15.785275 -0.486403 -1.703121 15.884336 -0.030804 1.678223 0.018829 0.001500 1088270.000000 1 0 0
12.924275 -5.198003 -0.304721 13.933735 -0.382392 1.592667 0.014769 -0.002142 990040.000000 1 0 0
14.259875 -7.513203 1.074079 16.153820 -0.484917 1.504257 0.022891 -0.000997 2780480.000000 1 0 0
15.596675 2.509497 3.725479 16.230620 0.159532 1.339197 0.032945 -0.005510 1512250.000000 1 0 0
15.885375 -7.117203 4.986479 18.107034 -0.421219 1.291802 0.044779 -0.011128 -906343.000000 1 0 0
13.625875 -12.107003 3.241179 18.513488 -0.726442 1.394818 0.012537 -0.000575 433799.000000 1 0 0
14.104375 -0.847703 9.156479 16.837253 -0.060030 0.995811 0.036328 -0.015192 1853120.000000 1 0 0
14.145575 -2.820403 -1.601321 14.512622 -0.196803 1.681361 0.009258 0.000288 399307.000000 1 0 0
15.038875 1.945997 9.171679 17.722143 0.128683 1.026839 0.046355 -0.012719 -1555300.000000 1 0 0
14.386775 -10.191103 -2.951921 17.876009 -0.616319 1.736689 0.040529 -0.007698 82454.700000 1 0 0
7.313975 -12.585903 6.110179 15.787130 -1.044372 1.173382 0.009202 -0.005668 -506648.000000 1 0 0
12.436575 -4.682403 6.970179 15.005889 -0.360087 1.087731 0.016658 -0.003154 3318660.000000 1 0 0
14.999775 -9.048503 -5.581721 18.385436 -0.542800 1.879259 0.062466 -0.013569 450914.000000 1 0 0
14.292375 -4.548203 4.611679 15.691581 -0.308093 1.272497 0.020023 -0.007280 1460470.000000 1 0 0
17.134175 -4.160503 0.892479 17.654638 -0.238209 1.520223 0.022903 -0.010514 -935994.000000 1 0 0
10.172375 -14.495303 1.134179 17.744785 -0.958883 1.506837 0.025545 -0.008780 -587168.000000 1 0 0
16.450475 -2.520803 8.619079 18.741961 -0.152053 1.092935 0.058835 -0.015996 581327.000000 1 0 0
16.052175 -2.572703 3.154979 16.560345 -0.158920 1.379111 0.026175 -0.008650 2054430.000000 1 0 0
7.756075 -15.164103 2.650579 17.237526 -1.098010 1.416416 0.015473 -0.012188 800106.000000 1 0 0
16.776975 -6.965503 7.889379 19.804732 -0.393526 1.161070 0.063426 -0.009894 624130.000000 1 0 0
10.206575 -8.572903 5.170479 14.296947 -0.698624 1.200760 0.013107 -0.006057 120487.000000 1 0 0
10.895175 -11.835503 2.185479 16.234540 -0.826743 1.435767 0.011998 -0.004008 1277190.000000 1 0 0
12.447875 -7.269003 12.118079 18.831777 -0.528538 0.871746 0.046424 -0.013303 1445670.000000 1 0 0
15.243175 -9.894903 4.228579 18.658627 -0.575768 1.342181 0.023438 -0.002412 -404967.000000 1 0 0
7.443275 -10.272003 7.817579 14.900702 -0.943739 1.018498 0.008212 -0.004619 964987.000000 1 0 0
15.212575 -3.252503 -4.416321 16.171119 -0.210632 1.847410 0.034975 -0.002953 992368.000000 1 0 0
11.956875 -9.118503 9.886179 17.995846 -0.651527 0.989199 0.037905 -0.003162 47896.200000 1 0 0
16.954175 -6.566203 2.410079 18.340326 -0.369503 1.439006 0.043766 -0.012564 2060690.000000 1 0 0
17.702975 3.947397 2.072579 18.255762 0.219390 1.457021 0.032018 0.007824 1268910.000000 1 0 0
14.791675 -4.900203 8.788079 17.889549 -0.319902 1.057282 0.054412 -0.009970 53030.500000 1 0 0
12.856775 -12.657703 6.133379 19.056034 -0.777596 1.243103 0.022420 -0.001633 -886324.000000 1 0 0
18.292475 0.782897 -0.903421 18.331496 0.042773 1.620099 0.028969 0.002055 112788.000000 1 0 0
11.796675 -2.146903 10.890079 16.197671 -0.180022 0.833453 0.021531 -0.005187 982384.000000 1 0 0
5.795375 -12.408503 10.340179 17.160321 -1.133856 0.924087 0.005934 -0.004597 -1140660.000000 1 0 0
10.881875 -5.010603 11.016279 16.275127 -0.431513 0.827283 0.028320 -0.008396 1530720.000000 1 0 0
17.814075 1.320097 5.173379 18.596983 0.073969 1.288894 0.053162 -0.007977 -340802.000000 1 0 0
12.349275 -7.784403 7.166579 16.262268 -0.562439 1.114432 0.024423 -0.007142 -685095.000000 1 0 0
10.771075 -7.880003 14.384579 19.622095 -0.631614 0.747956 0.049518 -0.012689 356682.000000 1 0 0
14.192775 -0.218903 3.779479 14.689018 -0.015422 1.310570 0.013073 -0.003827 874134.000000 1 0 0
11.670175 -7.685403 2.614479 14.215974 -0.582363 1.385832 0.011434 -0.000070 1923430.000000 1 0 0
9.305175 6.068897 3.539479 11.659576 0.577925 1.262361 0.008656 -0.000520 1814820.000000 1 0 0
-3.972225 14.764297 -9.950421 18.242092 -1.307977 2.147740 -0.001486 -0.005794 -115390.000000 1 0 0
8.980675 -6.402503 9.265379 14.404576 -0.619345 0.872094 0.012300 -0.005625 -1315480.000000 1 0 0
5.807175 -10.493603 -8.494721 14.696914 -1.065345 2.187064 0.001500 0.002148 -173775.000000 1 0 0
5.408175 1.108797 0.552779 5.548275 0.202220 1.471000 0.002718 -0.000721 3424410.000000 1 0 0
-0.517025 9.886697 10.966279 14.774078 -1.518549 0.734352 0.009130 0.000296 1171320.000000 1 0 0
-6.379125 -5.169803 1.074079 8.280927 0.681065 1.440725 0.009899 -0.003147 3670280.000000 1 0 0
-1.067525 3.952097 -10.814121 11.563040 -1.306976 2.779709 0.008408 -0.005954 1116050.000000 1 0 0
10.938475 5.728797 1.251879 12.411146 0.482450 1.469757 0.009368 0.000868 1352490.000000 1 0 0
-10.201225 -1.713303 -13.630621 17.111231 0.166398 2.492428 0.011906 0.001278 1876760.000000 1 0 0
7.486575 10.928497 -6.128921 14.596045 0.970174 2.004135 0.007293 -0.006611 677473.000000 1 0 0
-12.403725 -2.919003 -9.592221 15.949410 0.231127 2.216068 0.014573 -0.001401 -725264.000000 1 0 0
-3.914325 -8.671103 2.472079 9.829605 1.146761 1.316574 0.009001 -0.000485 -1311260.000000 1 0 0
8.054675 -6.644303 -5.938121 12.011904 -0.689741 2.087887 0.006958 -0.005199 3050090.000000 1 0 0
14.510675 3.125897 -4.281821 15.448784 0.212178 1.851636 0.019582 0.004108 1143320.000000 1 0 0
-2.511125 -4.847803 9.879579 11.287738 1.092859 0.504846 0.008194 -0.002221 2874900.000000 1 0 0
3.471175 -1.879003 -4.539021 6.015182 -0.496152 2.425832 0.003028 -0.004682 -2147340.000000 1 0 0
-4.126525 8.446497 -3.453521 10.014905 -1.116352 1.922863 0.008882 -0.002744 15245.000000 1 0 0
5.902575 0.017397 11.711579 13.114945 0.002947 0.466840 0.009532 -0.005922 1636360.000000 1 0 0
7.110775 4.655297 12.365679 15.004830 0.579660 0.602161 0.007412 0.001161 1475790.000000 1 0 0
1.260675 -14.413003 12.404079 19.057417 -1.483550 0.862054 0.005294 -0.008202 353127.000000 1 0 0
2.967875 8.701897 -9.082821 12.923967 1.242107 2.350107 0.003548 -0.003957 -1811320.000000 1 0 0
-4.501125 -8.884703 -4.616521 10.977720 1.101871 2.004832 0.010026 -0.002220 461404.000000 1 0 0
5.713275 -6.444103 -4.116221 9.545221 -0.845440 2.016656 0.005297 -0.004713 2096880.000000 1 0 0
-3.185325 3.468697 8.692979 9.886660 -0.827959 0.496483 0.004455 -0.002011 2571360.000000 1 0 0
-3.811725 3.162797 -11.054121 12.113056 -0.692623 2.720344 0.004454 -0.007115 -613027.000000 1 0 0
3.037575 -6.117703 8.509479 10.911663 -1.109935 0.676367 0.002336 -0.003837 140345.000000 1 0 0
-5.155225 -8.706603 10.517279 14.594329 1.036202 0.766069 0.013032 -0.006128 2278890.000000 1 0 0
-13.286825 -2.564003 6.522079 15.021696 0.190630 1.121672 0.015757 -0.000180 616999.000000 1 0 0
3.983675 -5.816703 -8.287021 10.880185 -0.970298 2.436670 0.003868 -0.002947 2816030.000000 1 0 0
2.955875 -0.608103 12.303379 12.668075 -0.202896 0.240532 0.008210 -0.006758 2337840.000000 1 0 0
1.365475 -1.266603 -7.462121 7.691037 -0.747852 2.897000 0.005263 -0.004795 -446395.000000 1 0 0
3.623075 -3.533603 3.424579 6.110709 -0.772897 0.975900 0.001583 -0.003061 2388300.000000 1 0 0
1.441675 0.475897 -11.856421 11.953226 0.318838 3.014238 0.005721 -0.007759 1185270.000000 1 0 0
4.031075 3.604697 -10.643221 11.938239 0.729617 2.671494 0.002204 -0.002529 1131470.000000 1 0 0
2.862475 3.304697 3.402779 5.540189 0.856981 0.909426 -0.003274 0.001141 -576592.000000 1 0 0
-5.331725 0.865397 2.609979 5.999016 -0.160908 1.120683 0.008215 -0.005478 2408090.000000 1 0 0
-9.442825 -9.389603 5.718979 14.492698 0.782572 1.165152 0.013910 -0.001258 -1191270.000000 1 0 0
-3.043025 3.852397 -0.552621 4.940279 -0.902242 1.682891 0.005382 -0.006917 516633.000000 1 0 0
-16.012225 -6.531803 4.975179 17.994672 0.387320 1.290666 0.039455 -0.002117 602867.000000 1 0 0
1.039475 6.703497 -8.079021 10.549311 1.416957 2.443134 0.006089 -0.003607 370971.000000 1 0 0
-1.608525 6.485797 -9.387221 11.522710 -1.327694 2.522959 0.004810 -0.004292 1173540.000000 1 0 0
2.057175 -0.361703 5.273079 5.671698 -0.174046 0.377150 0.003452 -0.003032 2064930.000000 1 0 0
-3.426625 -0.537103 -6.203921 7.107663 0.155479 2.631808 0.005215 -0.007958 185582.000000 1 0 0
1.900075 -1.105603 -2.392821 3.249344 -0.526984 2.398532 0.003387 -0.004990 840967.000000 1 0 0
2.368575 -8.487403 -7.684621 11.691859 -1.298651 2.287977 0.000989 0.002071 2931530.000000 1 0 0
-2.431625 14.057497 -5.620121 15.333355 -1.399514 1.946072 0.003911 0.003152 3686100.000000 1 0 0
6.948775 -5.105803 -8.259121 11.940175 -0.633687 2.334649 0.008960 -0.003962 4547020.000000 1 0 0
-14.162325 -4.991803 -2.132821 15.167019 0.338874 1.711886 0.007904 -0.001141 701887.000000 1 0 0
-2.710825 6.943697 -6.686421 10.013577 -1.198592 2.301959 0.007772 -0.005264 -2697860.000000 1 0 0
-5.682425 -1.063603 -7.964221 9.841241 0.185033 2.513705 0.008893 -0.007455 -770372.000000 1 0 0
-5.668225 -10.601903 3.556679 12.537108 1.079821 1.283154 0.004616 -0.001808 -3243710.000000 1 0 0
8.098575 -7.576503 6.737479 12.976284 -0.752105 1.024864 0.006418 -0.005036 -35278.000000 1 0 0
8.885875 -6.033203 13.080879 16.925357 -0.596469 0.687465 0.029182 -0.007565 520596.000000 1 0 0
-4.783925 9.459497 -0.782721 10.629237 -1.102577 1.644502 0.005139 0.000156 2017240.000000 1 0 0
2.773275 6.545697 12.168279 14.092701 1.170045 0.528736 0.007891 0.001594 330307.000000 1 0 0
6.072475 -2.889303 10.968579 12.865953 -0.444103 0.549994 0.012431 -0.007702 -817483.000000 1 0 0
-9.719625 -6.495603 -1.138721 11.745665 0.589131 1.667897 0.007187 -0.001114 -1711830.000000 1 0 0
0.817775 -13.282703 6.272379 14.711957 -1.509307 1.130347 0.007582 -0.007456 1178240.000000 1 0 0
-0.490525 -3.087303 8.767979 9.308572 1.413229 0.342478 0.008079 -0.003522 -702500.000000 1 0 0
4.274875 0.791097 3.435679 5.541144 0.182987 0.902015 -0.000900 0.000031 3024640.000000 1 0 0
-10.223525 5.458597 8.311679 14.261864 -0.490418 0.948638 -0.003565 -0.004953 -127654.000000 1 0 0
9.417375 8.004197 0.006079 12.359375 0.704459 1.570304 0.005569 0.000813 -1049380.000000 1 0 0
4.282375 2.768097 8.157579 9.620145 0.573835 0.558656 0.000526 0.000252 3596250.000000 1 0 0
1.362775 2.665197 -9.716521 10.167163 1.098132 2.842746 0.007242 -0.006887 2697090.000000 1 0 0
-1.420325 -10.130803 3.036879 10.671135 1.431506 1.282220 0.008874 -0.003558 -2945790.000000 1 0 0
-9.985725 9.542297 9.004079 16.487680 -0.762695 0.993083 0.012418 -0.006242 1563260.000000 1 0 0
9.858175 -2.004203 -7.624921 12.622989 -0.200570 2.219370 0.017774 -0.002337 1192870.000000 1 0 0
-5.199025 -1.887403 6.700879 8.688724 0.348236 0.690048 0.004010 -0.000798 1390320.000000 1 0 0
3.088675 -7.764303 -4.895221 9.684395 -1.192184 2.100729 -0.000923 -0.001534 3114710.000000 1 0 0
-5.095225 4.850697 -13.005521 14.786283 -0.760817 2.645747 -0.001069 -0.008179 2562490.000000 1 0 0
-5.708025 9.553397 5.422679 12.379596 -1.032227 1.117386 0.005348 -0.000894 1893360.000000 1 0 0
-0.515225 -1.727603 -9.260321 9.434173 1.280963 2.949318 0.004929 -0.006028 -368107.000000 1 0 0
-16.720425 0.189697 6.332079 17.880263 -0.011345 1.208804 0.023447 -0.010301 -393464.000000 1 0 0
-5.998225 -2.897903 4.073679 7.808419 0.450058 1.021950 0.004628 -0.003495 4104830.000000 1 0 0
0.999775 -5.624203 -5.078621 7.643533 -1.394871 2.297532 0.000159 -0.002713 1218500.000000 1 0 0
-7.052525 1.421497 -8.440821 11.090817 -0.198894 2.435748 0.002604 -0.004972 1363690.000000 1 0 0
8.014775 2.000697 4.747379 9.527697 0.244627 1.049192 0.003905 -0.001257 -1184820.000000 1 0 0
0.524975 -8.061903 -0.530521 8.096378 -1.505770 1.636369 0.003141 -0.000781 1277390.000000 1 0 0
5.490075 5.481697 -3.441021 8.487081 0.784635 1.988259 0.005145 0.000865 271019.000000 1 0 0
-0.711225 -0.280803 -1.190221 1.414679 0.376029 2.570547 0.004716 -0.006869 495283.000000 1 0 0
9.115975 6.423997 -6.260821 12.789317 0.613871 2.082353 0.005940 -0.005706 785341.000000 1 0 0
-15.051525 -7.171103 2.431579 16.848908 0.444620 1.425974 0.006423 0.001474 1146610.000000 1 0 0
-6.461125 6.744797 8.903179 12.903682 -0.806876 0.809346 0.002099 -0.001889 -1281600.000000 1 0 0
-9.416425 -3.269103 -9.578921 13.824320 0.334152 2.336305 0.005535 -0.001002 2634870.000000 1 0 0
15.031075 3.453097 -1.237021 15.472146 0.225812 1.650833 0.012056 0.006576 1476350.000000 1 0 0
12.182275 1.686997 -5.759521 13.580348 0.137604 2.008772 0.011770 0.003163 -815034.000000 1 0 0
1.776475 -9.462503 12.668779 15.912033 -1.385218 0.649848 -0.003410 -0.001067 -1588850.000000 1 0 0
-3.681025 6.308797 7.919379 10.773459 -1.042616 0.745008 0.003535 -0.000315 10856.200000 1 0 0
-3.988425 13.042997 -12.349521 18.399401 -1.274036 2.306611 0.003644 -0.009170 1289640.000000 1 0 0
-10.239425 7.722497 6.443179 14.352607 -0.646179 1.105239 0.000371 -0.007264 -170927.000000 1 0 0
8.029475 -9.297603 -7.038021 14.158094 -0.858456 2.091052 0.007585 -0.002416 859139.000000 1 0 0
5.814175 -3.815603 -0.340121 6.962696 -0.580762 1.619665 0.003983 -0.003444 -1540640.000000 1 0 0
-1.713025 -4.479103 4.119379 6.321875 1.205512 0.861095 0.005240 -0.001732 1133270.000000 1 0 0
9.869575 -2.075503 -2.583021 10.410966 -0.207273 1.821521 0.009916 -0.003524 -2367600.000000 1 0 0
13.546375 7.000697 1.438779 15.316139 0.476993 1.476719 0.015171 -0.002355 -344363.000000 1 0 0
5.377575 -3.706503 -3.237021 7.289361 -0.603476 2.030938 0.006845 -0.007088 -2565420.000000 1 0 0
-12.337625 -5.943303 1.890279 13.824362 0.448918 1.433631 0.002690 0.000827 2020760.000000 1 0 0
3.737475 -5.699403 -0.219621 6.819102 -0.990378 1.603009 0.002670 -0.004241 -1003300.000000 1 0 0
-5.242525 3.773297 -8.649121 10.794866 -0.623857 2.500137 0.006897 -0.007065 2443370.000000 1 0 0
-1.725725 -9.247303 7.311979 11.914520 1.386299 0.910054 0.005233 -0.005353 1984770.000000 1 0 0
-7.446225 -7.480303 2.551379 10.858671 0.787681 1.333616 0.011437 -0.001611 -4470550.000000 1 0 0
-5.732525 13.047097 -8.513921 16.600465 -1.156816 2.109324 0.005311 -0.007427 1020030.000000 1 0 0
9.307175 -13.982403 -4.183021 17.309788 -0.983508 1.814869 0.026259 -0.000111 933370.000000 1 0 0
-6.405625 -5.174503 -6.786321 10.670598 0.679483 2.260078 0.012740 -0.003582 1245800.000000 1 0 0
3.352475 0.446597 -6.142421 7.011981 0.132434 2.638280 0.006250 -0.007732 934066.000000 1 0 0
-3.637425 5.689697 4.994179 8.399127 -1.001980 0.934020 0.004240 -0.000318 -180980.000000 1 0 0
-2.658825 -10.821203 -2.857821 11.503692 1.329864 1.821852 0.007167 -0.000720 3587820.000000 1 0 0
-12.650925 -0.434503 1.774179 12.782113 0.034332 1.431545 0.007047 -0.005025 1279610.000000 1 0 0
8.483375 -12.024403 -6.095021 15.928063 -0.956380 1.963469 0.013972 -0.001092 -295907.000000 1 0 0
6.179075 3.967997 0.958279 7.405692 0.570849 1.441035 0.002385 0.001661 -552580.000000 1 0 0
3.531075 -4.713503 -10.930221 12.415931 -0.927846 2.647372 0.004047 -0.000360 660644.000000 1 0 0
-7.627725 4.181197 8.657879 12.272875 -0.501428 0.787741 -0.001587 -0.000369 1919980.000000 1 0 0
8.194875 8.735597 4.087379 12.655959 0.817325 1.241940 0.007450 0.000087 1007670.000000 1 0 0
0.235675 10.596397 -6.315321 12.337846 1.548559 2.108152 0.003015 0.002234 591609.000000 1 0 0
5.372275 8.097597 3.305879 10.264563 0.985030 1.242884 0.003952 0.001032 3129930.000000 1 0 0
8.125975 6.709397 -3.726921 11.177541 0.690200 1.910735 0.003918 -0.001392 1651020.000000 1 0 0
10.588875 2.508797 -8.165721 13.605048 0.232638 2.214545 0.006916 0.000821 1007750.000000 1 0 0
3.379375 -12.489803 -0.338321 12.943331 -1.306553 1.596938 0.000532 -0.000131 -2530310.000000 1 0 0
0.631775 2.125797 5.286479 5.732802 1.281915 0.397205 0.001972 -0.001461 1270920.000000 1 0 0
-4.898425 13.391797 1.426879 14.330763 -1.220135 1.471064 0.006679 0.001455 2079560.000000 1 0 0
8.263775 4.075097 -7.899921 12.136933 0.458135 2.279565 0.003046 0.001530 208516.000000 1 0 0
-13.870925 -0.606103 -3.571221 14.336092 0.043668 1.822554 0.007225 -0.004233 167980.000000 1 0 0
-8.657525 0.015797 -0.535521 8.674086 -0.001825 1.632574 0.005423 -0.006039 -253864.000000 1 0 0
1.779375 -3.818903 -1.098521 4.353957 -1.134767 1.825857 0.003662 -0.005109 -1826270.000000 1 0 0
8.087275 -5.595603 -0.236421 9.837209 -0.605270 1.594832 0.005053 -0.003543 3181170.000000 1 0 0
-2.301225 -1.127403 7.370879 7.803623 0.455547 0.334588 0.008304 -0.002975 2294560.000000 1 0 0
-5.799825 8.855097 -11.631121 15.726846 -0.990935 2.403229 0.003415 -0.003438 -5072.670000 1 0 0
-6.159825 9.194797 -8.795521 14.136793 -0.980541 2.242311 0.004406 -0.002380 983732.000000 1 0 0
-1.532525 14.014097 -8.400021 16.410481 -1.461873 2.108156 0.008349 -0.002585 1507780.000000 1 0 0
-1.532825 7.222397 9.736579 12.219392 -1.361667 0.648793 0.004211 -0.001520 -30974.700000 1 0 0
10.018575 2.304897 -4.026521 11.040710 0.226128 1.944104 0.006301 -0.000448 -1587630.000000 1 0 0
-3.044225 -7.524803 -6.998721 10.717838 1.186366 2.282332 0.005463 -0.000509 1825500.000000 1 0 0
-5.521525 -4.954103 -1.595821 7.587952 0.731285 1.782688 0.012003 -0.003177 1510930.000000 1 0 0
5.662375 7.430397 -8.738821 12.792196 0.919624 2.322846 -0.000831 -0.003220 960029.000000 1 0 0
-9.612425 5.314497 -7.429321 13.260370 -0.505050 2.165502 0.001612 -0.000144 -1688420.000000 1 0 0
-0.353325 6.218597 -5.312621 8.186558 -1.514040 2.276993 0.007674 -0.004025 -1280310.000000 1 0 0
-8.321825 2.885097 -6.310721 10.835209 -0.333723 2.192508 0.004104 -0.002514 712202.000000 1 0 0
3.688775 1.356797 -2.009221 4.414174 0.352459 2.043365 0.001011 -0.002925 2899410.000000 1 0 0
-6.766525 12.458597 -3.550121 14.615261 -1.073250 1.816156 0.003100 -0.001228 2487830.000000 1 0 0
-6.627225 3.169397 -2.349421 7.712650 -0.446088 1.880335 0.008355 -0.005168 198733.000000 1 0 0
12.190075 4.011897 -0.818721 12.859376 0.317946 1.634507 0.005339 0.002752 868254.000000 1 0 0
2.229175 12.466897 -5.523421 13.816690 1.393859 1.982056 0.008194 0.001433 1393040.000000 1 0 0
-9.132225 -1.463503 -4.260821 10.183024 0.158906 2.002506 0.007190 -0.002730 -793930.000000 1 0 0
-1.171125 5.705597 3.509079 6.799927 -1.368349 1.028567 0.003153 -0.001110 178046.000000 1 0 0
11.596875 2.616297 12.055579 16.931317 0.221889 0.778413 0.027960 -0.001876 -885047.000000 1 0 0
-7.061925 -2.399003 -5.742621 9.412954 0.327478 2.226953 0.010055 -0.004747 160584.000000 1 0 0
7.521175 -7.337303 10.824879 15.085824 -0.773024 0.770514 0.010095 -0.003937 -1169230.000000 1 0 0
-5.541025 -1.975503 -10.819421 12.315252 0.342474 2.643590 0.006817 -0.001972 -1201280.000000 1 0 0
0.772975 -6.142203 4.428779 7.611717 -1.445608 0.949811 0.003735 -0.002230 530514.000000 1 0 0
-4.826725 -9.397803 7.483479 12.946754 1.096327 0.954496 0.002730 -0.004746 3625750.000000 1 0 0
-8.833425 9.338197 1.668079 12.962014 -0.813169 1.441749 0.008695 -0.004981 1479560.000000 1 0 0
-8.127625 7.220497 -9.050821 14.146068 -0.726363 2.265050 0.004379 -0.002995 -379888.000000 1 0 0
-1.222325 -10.652803 -0.102221 10.723187 1.456554 1.580329 0.006098 -0.001451 -647375.000000 1 0 0
-3.887825 10.291497 7.674979 13.414000 -1.209599 0.961657 0.006567 0.000025 2062780.000000 1 0 0
-7.546625 12.045797 1.851679 14.334626 -1.011123 1.441259 0.007107 -0.004963 849371.000000 1 0 0
-8.153725 -8.205303 -2.804721 11.902802 0.788551 1.808669 0.015299 -0.003006 -595053.000000 1 0 0
5.450475 4.594197 -8.044921 10.748724 0.700357 2.416523 0.003956 -0.000246 1676010.000000 1 0 0
-8.949725 -0.220603 -10.192921 13.566204 0.024644 2.420897 0.005987 -0.001540 -1148580.000000 1 0 0
-15.262425 -2.261003 -1.557121 15.507365 0.147072 1.671378 0.013178 -0.005020 -724081.000000 1 0 0
-7.233425 -5.804803 8.781579 12.772404 0.676262 0.812696 0.008024 -0.000341 -852168.000000 1 0 0
8.210175 3.447497 -0.960121 8.956229 0.397548 1.678204 0.009060 0.001400 1999200.000000 1 0 0
11.980875 7.337597 -5.845021 15.216635 0.549518 1.965051 0.010729 -0.006805 -188629.000000 1 0 0
3.748375 13.317097 -9.568021 16.820892 1.296424 2.175864 0.001461 -0.005316 802042.000000 1 0 0
-9.793925 5.524897 -0.415721 11.252479 -0.513615 1.607750 0.004982 -0.003505 1244310.000000 1 0 0
11.283775 -1.257903 -5.108321 12.449933 -0.111021 1.993589 0.022781 -0.001881 -795210.000000 1 0 0
10.680875 1.725097 -1.212421 10.887011 0.160130 1.682392 0.007964 0.001510 -502749.000000 1 0 0
14.637875 5.129497 4.877379 16.259396 0.337055 1.266132 0.030754 -0.008511 2465110.000000 1 0 0
0.818475 -0.786503 10.352679 10.414723 -0.765480 0.109208 0.009082 -0.004645 1843640.000000 1 0 0
-7.969825 1.363797 -12.544221 14.924327 -0.169479 2.569042 0.000771 -0.003926 139993.000000 1 0 0
3.110275 -11.425203 -7.826221 14.193619 -1.305008 2.154826 -0.002403 0.003939 -875978.000000 1 0 0
2.910075 4.990197 -6.761421 8.893111 1.042852 2.434569 0.005039 -0.001047 -1318020.000000 1 0 0
6.522075 8.037597 0.546879 10.365303 0.889115 1.518011 0.005830 -0.000497 1123940.000000 1 0 0
-9.059225 -5.501403 6.673079 12.524575 0.545749 1.008892 0.005074 -0.000138 -2140230.000000 1 0 0
-0.219825 -6.746403 -11.863021 13.648939 1.538224 2.624284 0.003367 0.006386 1870860.000000 1 0 0
6.534275 -13.402003 -4.660421 15.621458 -1.117150 1.873744 0.008673 0.001048 2136470.000000 1 0 0
-3.333225 -0.260603 9.986279 10.531100 0.078025 0.323069 0.006243 -0.001076 971108.000000 1 0 0
8.577375 8.478197 6.945279 13.917187 0.779583 1.048302 0.003411 0.001366 -451830.000000 1 0 0
-7.972625 5.732097 -2.626421 10.164535 -0.623346 1.832152 0.008117 -0.005948 1741440.000000 1 0 0
-5.367025 5.838997 -6.343521 10.155742 -0.827491 2.245446 0.008281 -0.005214 -543132.000000 1 0 0
3.375275 -13.652403 2.573179 14.296917 -1.328427 1.389829 0.008972 -0.007524 -2169860.000000 1 0 0
-11.302725 -7.128103 6.494979 14.857530 0.562654 1.118368 0.017576 -0.000806 73135.600000 1 0 0
-12.872825 -3.709603 -6.781221 15.015184 0.280571 2.039381 0.010639 -0.004507 708115.000000 1 0 0
5.993875 0.296997 -7.285021 9.438553 0.049510 2.452521 0.009079 -0.001734 644247.000000 1 0 0
-1.434225 2.232297 -2.485321 3.635515 -0.999720 2.323511 0.006691 -0.007581 2529880.000000 1 0 0
7.557675 0.951597 -4.949921 9.084366 0.125252 2.147046 0.007333 -0.001153 118873.000000 1 0 0
3.713275 -4.468903 10.870179 12.325595 -0.877487 0.490878 0.005435 -0.005473 -326494.000000 1 0 0
5.967775 -2.521803 2.112679 6.814488 -0.399811 1.255574 0.003150 -0.003542 -1431190.000000 1 0 0
-6.365225 7.716097 1.128679 10.066189 -0.881039 1.458434 0.004138 -0.000811 871333.000000 1 0 0
6.115775 -3.403003 7.955979 10.596260 -0.507767 0.721480 0.008208 -0.007161 94658.100000 1 0 0
6.811175 -2.272303 -7.888621 10.667043 -0.322003 2.403171 0.008359 -0.005383 1281700.000000 1 0 0
12.143375 -8.185003 -5.815821 15.756891 -0.593083 1.948834 0.034795 -0.007738 854073.000000 1 0 0
5.554375 -9.558303 9.857079 14.811288 -1.044386 0.842618 0.001614 -0.002415 2028560.000000 1 0 0
-6.699525 7.612397 -4.471921 11.082883 -0.849096 1.986133 0.007215 -0.005266 529104.000000 1 0 0
-1.319725 -7.569803 9.782779 12.439709 1.398190 0.665812 0.004744 -0.004062 -999413.000000 1 0 0
10.074875 -9.217003 0.795879 13.678073 -0.740959 1.512577 0.007831 -0.001217 2107940.000000 1 0 0
11.149875 6.146897 9.805979 16.070510 0.503839 0.914503 0.017101 -0.003652 2676970.000000 1 0 0
-15.206425 -4.238903 -4.977921 16.552443 0.271856 1.876261 0.020788 -0.009151 1550760.000000 1 0 0
-4.748325 -4.598703 7.886479 10.290345 0.769392 0.697585 0.006472 -0.000988 -741698.000000 1 0 0
2.943375 10.837397 -11.103321 15.792288 1.305599 2.350523 0.001490 -0.005811 -518185.000000 1 0 0
9.950575 -1.338403 1.514579 10.153778 -0.133703 1.421073 0.005481 -0.002286 -263472.000000 1 0 0
-1.601525 -2.580803 0.701479 3.117290 1.015401 1.343824 0.004678 -0.006667 -393933.000000 1 0 0
1.586775 2.991997 0.883979 3.500189 1.083173 1.315480 0.000698 -0.001728 -1104480.000000 1 0 0
-9.002925 -2.390503 4.253679 10.240163 0.259536 1.142423 0.004105 -0.002855 2612640.000000 1 0 0
9.958975 4.889397 -2.717821 11.422519 0.456385 1.811036 0.003268 0.000462 1347470.000000 1 0 0
2.502575 8.484597 2.559079 9.208700 1.283974 1.289191 0.000952 0.000321 1567960.000000 1 0 0
-8.187925 -0.100303 2.449779 8.547140 0.012249 1.280100 0.005798 -0.006182 1450000.000000 1 0 0
6.897075 1.978497 13.729679 15.491552 0.279359 0.481570 0.011721 -0.001823 -914801.000000 1 0 0
6.820675 4.463697 3.783579 8.986750 0.579488 1.136230 0.000583 0.000944 152134.000000 1 0 0
-0.344725 3.329097 7.755979 8.447303 -1.467615 0.407384 0.001088 -0.002294 59061.100000 1 0 0
2.698175 -10.219103 9.160479 13.986586 -1.312655 0.856683 0.002132 -0.005614 1205780.000000 1 0 0
1.370375 -4.516203 6.887879 8.349664 -1.276191 0.600720 0.004931 -0.004009 -507755.000000 1 0 0
-0.187425 10.832797 -2.038821 11.024582 -1.553496 1.756801 0.006631 -0.002640 2866240.000000 1 0 0
8.778775 5.564397 8.088879 13.170397 0.564936 0.909461 0.004559 -0.001622 397089.000000 1 0 0
2.611675 11.461897 -2.939221 12.117547 1.346764 1.815799 0.008858 -0.003578 1830140.000000 1 0 0
1.479675 2.517397 -6.659821 7.271860 1.039411 2.728378 0.005255 -0.007671 2725560.000000 1 0 0
-13.709225 -2.222903 3.588479 14.344383 0.160747 1.317944 0.002214 -0.000828 1674520.000000 1 0 0
-0.978225 -10.612703 -5.358021 11.928737 1.478881 2.036632 0.003235 -0.000806 424761.000000 1 0 0
-5.717125 2.835597 0.412079 6.394993 -0.460429 1.506314 0.008868 -0.006379 1114420.000000 1 0 0
3.796975 7.268497 -5.042721 9.626895 1.089399 2.122121 0.006700 -0.002397 -2252300.000000 1 0 0
2.986075 9.809297 -6.456421 12.117109 1.275296 2.132744 0.006480 -0.002072 146627.000000 1 0 0
-12.280125 1.756597 -2.537821 12.662055 -0.142080 1.772590 0.006748 -0.003767 1308580.000000 1 0 0
-2.524325 9.663397 -5.671721 11.485725 -1.315281 2.087258 0.002530 0.000184 826650.000000 1 0 0
-1.268625 3.265997 1.756379 3.919313 -1.200300 1.106119 0.002424 -0.003600 45739.100000 1 0 0
12.918075 3.740897 9.705779 16.585328 0.281876 0.945666 0.037476 -0.009041 -2140790.000000 1 0 0
-2.512225 -9.546403 11.627279 15.252498 1.313471 0.703907 -0.001106 -0.006688 638614.000000 1 0 0
-0.509425 -8.885003 -7.538621 11.663344 1.513524 2.273590 -0.000028 0.001257 1926880.000000 1 0 0
2.318175 7.664697 -0.437621 8.019540 1.277095 1.625393 0.005638 0.000515 1803280.000000 1 0 0
-11.787125 -1.268303 -5.470821 13.056600 0.107188 2.003149 0.005930 -0.000672 78646.100000 1 0 0
-6.156425 -7.207503 -11.016321 14.533031 0.863887 2.431068 0.010815 0.000152 1194350.000000 1 0 0
-4.674325 -2.242803 -1.311321 5.347807 0.447368 1.818530 0.008045 -0.004721 -1866670.000000 1 0 0
-10.464825 3.561997 4.522579 11.943789 -0.328077 1.182453 0.002230 -0.006584 2988610.000000 1 0 0
6.776075 9.350097 -3.644521 12.108759 0.943681 1.876519 0.002518 -0.000487 1565290.000000 1 0 0
1.240275 -2.658203 -11.432321 11.802639 -1.134237 2.890430 0.005965 -0.004225 353318.000000 1 0 0
1.354875 8.761997 7.532179 11.633658 1.417381 0.866566 -0.000138 0.006492 3054200.000000 1 0 0
10.402575 0.383997 10.374279 14.696485 0.036897 0.787100 0.011398 -0.003775 -525208.000000 1 0 0
-5.236225 -0.873703 -3.853921 6.560039 0.165334 2.198743 0.008102 -0.006773 -427847.000000 1 0 0
11.730675 5.681897 5.444079 14.125533 0.451059 1.175147 0.009927 -0.002783 2021080.000000 1 0 0
9.877775 -3.422603 3.642079 11.070203 -0.333549 1.235554 0.008500 -0.006107 -371211.000000 1 0 0
7.290075 -1.641703 -3.432521 8.223295 -0.221502 2.001394 0.007984 -0.003772 -3215020.000000 1 0 0
2.456275 9.153397 10.439379 14.099596 1.308627 0.737127 0.004136 0.003648 2885930.000000 1 0 0
2.432775 -10.782703 6.301179 12.723598 -1.348893 1.052690 0.002153 -0.004605 1416190.000000 1 0 0
5.912475 -7.456603 -1.324321 9.607919 -0.900389 1.709073 0.000547 -0.003273 1395660.000000 1 0 0
-0.259625 -5.575403 -2.299921 6.036734 1.524264 1.961661 0.000834 -0.000155 742428.000000 1 0 0
7.719075 -5.056403 2.717579 9.619593 -0.579919 1.284392 0.004700 -0.005247 796870.000000 1 0 0
-2.736425 -12.480803 4.640879 13.593977 1.354961 1.222399 0.008271 -0.004477 -1668760.000000 1 0 0
4.888275 -10.254103 -1.171721 11.419929 -1.125950 1.673580 0.003331 -0.003038 383470.000000 1 0 0
1.040675 0.127497 1.182379 1.580278 0.121906 0.725437 -0.001213 -0.003297 -1680490.000000 1 0 0
-1.635225 8.466697 2.393479 8.949171 -1.380009 1.300048 0.001570 0.001502 -86060.400000 1 0 0
-7.490225 0.632697 -3.110621 8.135093 -0.084270 1.963157 0.006873 -0.002710 -1873710.000000 1 0 0
4.437175 -6.349703 12.879179 15.029321 -0.960876 0.541499 0.011334 -0.005665 -987610.000000 1 0 0
-5.100425 13.017797 8.314579 16.266825 -1.197375 1.034289 0.017493 -0.006367 -332943.000000 1 0 0
0.625875 6.120197 8.181079 10.236141 1.468887 0.644776 0.000062 0.002465 1836000.000000 1 0 0
8.007175 -0.524603 -0.715821 8.056206 -0.065423 1.659767 0.008600 -0.002746 3581770.000000 1 0 0
2.446775 -9.221703 -2.394221 9.836605 -1.311444 1.816665 0.001280 -0.001055 1544890.000000 1 0 0
-7.206325 12.130697 4.779279 14.897196 -1.034758 1.244204 0.011062 -0.002660 305193.000000 1 0 0
-15.032025 0.283097 0.135579 15.035302 -0.018831 1.561779 0.010797 -0.009007 1257920.000000 1 0 0
6.911275 -0.540403 3.908679 7.958362 -0.078033 1.057397 0.003759 -0.001848 1024230.000000 1 0 0
-4.277925 -5.083103 5.089479 8.369072 0.871201 0.917094 0.005111 -0.002414 288549.000000 1 0 0
2.886275 5.099297 6.844779 9.010239 1.055741 0.707996 -0.002780 0.001029 -818125.000000 1 0 0
2.051675 -7.168903 1.816579 7.674796 -1.292056 1.331834 0.000361 -0.003002 1174260.000000 1 0 0
-2.511725 6.467197 -1.801721 7.167956 -1.200348 1.824879 0.006450 -0.001742 2920930.000000 1 0 0
2.648975 -3.695303 -6.505121 7.936557 -0.948851 2.531579 0.003262 -0.005110 -522086.000000 1 0 0
-5.136625 0.872297 -12.080321 13.155986 -0.168214 2.734403 0.005531 -0.003146 606436.000000 1 0 0
-7.496525 6.367497 -11.886221 15.428064 -0.704142 2.450309 0.004529 -0.005980 3195810.000000 1 0 0
-0.978325 11.254397 -9.039421 14.468231 -1.484086 2.245642 0.004410 0.001908 1766380.000000 1 0 0
4.675075 5.920797 -0.612521 7.568840 0.902428 1.651812 0.002419 0.001207 1394920.000000 1 0 0
-2.689625 13.361397 3.524979 14.077872 -1.372153 1.317712 0.006230 0.004680 1062210.000000 1 0 0
1.479875 -7.853503 10.241779 12.990827 -1.384545 0.662616 0.002560 -0.003883 -721103.000000 1 0 0
13.050275 -0.241803 -1.007221 13.091319 -0.018526 1.647811 0.014079 -0.002527 -205376.000000 1 0 0
-1.070325 3.179697 -5.411221 6.366897 -1.246098 2.586590 0.007924 -0.009673 1934280.000000 1 0 0
6.600175 1.089397 7.253279 9.867074 0.163581 0.744983 0.003934 -0.002083 1084110.000000 1 0 0
5.530675 -6.124503 6.875079 10.740792 -0.836304 0.876180 0.002475 -0.005174 1899880.000000 1 0 0
12.180675 -4.905203 2.612679 13.388650 -0.382835 1.374395 0.010730 -0.003532 -1027570.000000 1 0 0
4.444775 -9.222303 13.766979 17.156241 -1.121685 0.639411 0.007486 -0.000268 -467146.000000 1 0 0
-2.709825 -4.344103 -1.402421 5.308594 1.013065 1.838149 0.007759 -0.004727 1732890.000000 1 0 0
-9.274625 -5.179803 -7.494921 13.000880 0.509340 2.185227 0.011259 -0.002622 339623.000000 1 0 0
-10.648225 -3.226303 7.754279 13.561806 0.294197 0.962131 0.000553 0.000607 -384706.000000 1 0 0
12.123675 -0.647003 1.682379 12.256937 -0.053316 1.433102 0.010445 -0.001180 207527.000000 1 0 0
-7.580125 4.596597 4.397079 9.895519 -0.545113 1.110347 0.005941 -0.004887 1923540.000000 1 0 0
-1.055025 10.569997 6.922679 12.679172 -1.471313 0.993228 0.001139 0.005151 1243970.000000 1 0 0
7.334375 -9.957303 1.831779 12.501854 -0.935938 1.423746 0.003042 -0.003193 2819040.000000 1 0 0
-4.309225 -1.727903 1.725379 4.952979 0.381349 1.214984 0.005201 -0.003898 2416680.000000 1 0 0
6.690275 -14.921703 -0.909821 16.378180 -1.149308 1.626376 0.018060 -0.007313 -1879300.000000 1 0 0
-10.485325 1.656997 2.346279 10.871647 -0.156734 1.353269 0.005129 -0.004666 489493.000000 1 0 0
-2.906725 8.312197 -11.325921 14.346364 -1.234394 2.480730 -0.001773 -0.001722 -886131.000000 1 0 0
-1.284425 -5.165303 -6.856721 8.680134 1.327075 2.481495 -0.001218 -0.003221 699537.000000 1 0 0
12.875875 -0.444803 6.407679 14.389036 -0.034532 1.109268 0.013867 -0.007930 1999830.000000 1 0 0
5.964175 -13.254003 3.734679 15.006259 -1.147950 1.319278 0.006811 -0.006295 -975440.000000 1 0 0
-5.643625 3.487097 -4.945421 8.274511 -0.553465 2.211387 0.008194 -0.006542 1844230.000000 1 0 0
-4.433225 7.948297 3.317479 9.686825 -1.062017 1.221248 0.003061 -0.000613 42639.900000 1 0 0
14.100675 6.154097 -4.010121 15.899151 0.411520 1.825772 0.020626 0.000508 -35516.100000 1 0 0
-6.726425 -8.547703 5.365579 12.128374 0.904077 1.112525 0.011714 -0.003279 -632822.000000 1 0 0
1.601175 11.405897 2.693479 11.828486 1.431326 1.341070 0.001033 -0.001106 1111920.000000 1 0 0
-7.411825 7.129297 5.997679 11.905217 -0.765971 1.042821 0.003204 -0.005423 -578352.000000 1 0 0
-17.362125 -4.027803 5.264079 18.584324 0.227956 1.283611 0.027735 -0.003042 -566135.000000 1 0 0
7.469875 -13.061203 -8.621921 17.341614 -1.051285 2.091143 0.018944 0.001297 -603544.000000 1 0 0
-2.325125 12.864797 -2.791821 13.368002 -1.391991 1.781189 0.002522 0.001349 46008.100000 1 0 0
-5.483925 13.936297 -5.805421 16.062276 -1.195906 1.940600 0.000972 0.000962 1704860.000000 1 0 0
-5.657325 2.423497 7.505079 9.705920 -0.404732 0.686849 0.004324 -0.002193 -110318.000000 1 0 0
-7.437025 5.028097 1.465179 9.096035 -0.594498 1.409013 0.006981 -0.002820 1442680.000000 1 0 0
10.826375 -5.702203 -5.001421 13.218915 -0.484775 1.958813 0.017191 -0.003786 3426970.000000 1 0 0
-9.555225 -0.810003 6.790679 11.750394 0.084568 0.954630 -0.000809 -0.000956 748449.000000 1 0 0
-11.258925 -4.591503 -2.565621 12.426894 0.387221 1.778749 0.005580 -0.004184 18775.900000 1 0 0
6.630375 -4.366303 13.495679 15.657580 -0.582349 0.531740 0.022151 -0.011750 -1103550.000000 1 0 0
0.275375 10.292597 -11.688921 15.577043 1.544048 2.419454 -0.001915 0.002280 -1889810.000000 1 0 0
-11.849325 -3.193903 1.428179 12.355048 0.263286 1.454943 0.004604 -0.003019 2436700.000000 1 0 0
5.202275 5.986097 5.450079 9.622909 0.855341 0.968708 0.000202 0.002210 -4914980.000000 1 0 0
-7.197325 -0.034503 8.102079 10.837267 0.004794 0.726336 -0.000398 0.000462 1258480.000000 1 0 0
1.759075 2.060397 9.598379 9.973388 0.864126 0.275096 0.003304 -0.004269 1972500.000000 1 0 0
10.535075 -4.969603 -2.058821 11.828926 -0.440769 1.745737 0.011437 -0.002135 2224970.000000 1 0 0
-9.739525 -2.352203 -1.562821 10.140691 0.236973 1.725527 0.006434 -0.003654 466500.000000 1 0 0
-1.982325 -5.214603 -9.918221 11.379490 1.207519 2.629227 0.008316 -0.002691 1293400.000000 1 0 0
7.716575 -1.581503 6.562079 10.252198 -0.202149 0.876213 0.007013 -0.005409 2744450.000000 1 0 0
1.519475 -11.887003 -2.573021 12.256838 -1.443659 1.782295 0.002595 0.002514 -2993930.000000 1 0 0
-0.739125 -1.563403 4.767479 5.071429 1.129172 0.347972 0.006489 -0.003545 2874310.000000 1 0 0
7.690175 1.454197 9.850079 12.580840 0.186891 0.671414 0.008421 -0.002537 1739330.000000 1 0 0
-3.780125 10.757897 -7.955621 13.903726 -1.232891 2.179974 0.001659 0.002417 2191960.000000 1 0 0
-9.609025 12.650297 6.308179 17.092586 -0.921187 1.192800 0.012279 -0.007036 692211.000000 1 0 0
-2.628025 -2.411103 -10.900021 11.468670 0.742377 2.825371 0.010800 -0.005948 -2152220.000000 1 0 0
1.186975 -11.838903 10.990879 16.197776 -1.470870 0.825020 0.001597 -0.001488 714710.000000 1 0 0
1.387575 3.443197 -1.951721 4.194065 1.187715 2.054830 0.004263 -0.003710 2876940.000000 1 0 0
-1.825025 -9.334903 -12.093721 15.386007 1.377726 2.475142 0.002008 0.008898 1225580.000000 1 0 0
1.342975 -2.666703 1.598479 3.386742 -1.104266 1.079259 0.004883 -0.004004 2170850.000000 1 0 0
-1.097625 -2.165803 -6.505421 6.943773 1.101725 2.784369 0.002991 -0.008573 -302537.000000 1 0 0
1.776875 5.853697 4.045979 7.334371 1.276088 0.986460 -0.003504 0.002436 -1082410.000000 1 0 0
-11.017025 8.594197 3.666679 14.445747 -0.662478 1.314165 0.002775 -0.005408 2735550.000000 1 0 0
-16.437225 -1.500303 3.874079 16.954108 0.091022 1.340256 0.017765 -0.002535 -46149.500000 1 0 0
-12.208225 0.211197 6.733979 13.943882 -0.017298 1.066794 -0.005319 0.001494 -25368.100000 1 0 0
-5.093825 3.008097 4.686179 7.546918 -0.533433 0.900856 0.004062 -0.003032 624094.000000 1 0 0
5.282975 -6.081703 3.877979 8.940674 -0.855564 1.122151 -0.000817 -0.004713 190371.000000 1 0 0
9.885875 3.483497 6.401379 12.281813 0.338786 1.022531 0.003232 0.002048 1459750.000000 1 0 0
-12.124925 5.774997 3.248279 13.817225 -0.444501 1.333486 0.000885 -0.005275 2418810.000000 1 0 0
-4.942425 12.323897 -1.328021 13.344274 -1.189390 1.670481 0.001896 0.001942 718265.000000 1 0 0
-1.690725 -12.157503 10.251379 15.992317 1.432614 0.874971 0.001403 -0.008179 273473.000000 1 0 0
5.211575 6.274997 13.919179 16.133185 0.877715 0.530079 0.005696 0.001017 792388.000000 1 0 0
12.962975 -3.637103 -5.913621 14.705038 -0.273543 1.984659 0.017118 -0.003118 -155618.000000 1 0 0
3.530375 -2.529403 6.387579 7.724156 -0.621693 0.597115 0.001084 -0.004085 1220240.000000 1 0 0
7.238275 -11.785203 -0.654921 13.846030 -1.020013 1.618114 0.006885 0.001033 -1531740.000000 1 0 0
-6.069225 -6.540403 -4.077621 9.810166 0.822747 1.999457 0.013904 -0.003846 -378447.000000 1 0 0
0.251075 -8.902503 5.095379 10.260628 -1.542601 1.051125 0.004544 -0.004335 1229400.000000 1 0 0
-10.293725 2.521497 -0.401921 10.605671 -0.240225 1.608702 0.006728 -0.003123 -1001940.000000 1 0 0
-1.854125 8.946097 -0.392921 9.144661 -1.366434 1.613777 0.007336 -0.000988 -677954.000000 1 0 0
-3.565725 2.352897 -6.610521 7.870801 -0.583279 2.567857 0.009425 -0.010420 540024.000000 1 0 0
-12.771025 2.958397 6.404679 14.590103 -0.227634 1.116340 -0.002939 -0.003566 1223700.000000 1 0 0
11.459975 1.674397 7.939679 14.041835 0.145082 0.969841 0.013061 -0.009828 -3156790.000000 1 0 0
6.066475 2.593797 -3.198321 7.332064 0.404039 2.022179 0.004831 -0.000659 648897.000000 1 0 0
10.569675 -2.371203 6.362379 12.562663 -0.220686 1.039732 0.009855 -0.005293 3153000.000000 1 0 0
-1.046825 10.998997 4.074279 11.775973 -1.475908 1.217511 0.001941 0.003007 1043000.000000 1 0 0
-1.720225 -12.173003 7.382779 14.340384 1.430411 1.029994 0.005951 -0.004603 316214.000000 1 0 0
8.084475 8.639397 -7.798421 14.170861 0.818567 2.153536 0.008696 -0.006171 1928760.000000 1 0 0
-4.654125 -6.045403 -8.772721 11.626195 0.914704 2.425787 0.009511 -0.002838 -1078270.000000 1 0 0
-8.558725 -5.458903 -11.668621 15.466354 0.567763 2.425615 0.011049 0.002121 2467960.000000 1 0 0
6.065575 -0.656903 -9.925921 11.651036 -0.107880 2.590465 0.010356 -0.003457 323458.000000 1 0 0
-11.201325 -5.523803 -5.382121 13.599607 0.458143 1.977687 0.006371 -0.007102 -1078170.000000 1 0 0
3.869775 8.920197 -2.734121 10.100519 1.161477 1.844907 0.010092 -0.004064 1280110.000000 1 0 0
11.665575 -10.428303 -4.039921 16.160325 -0.729456 1.823466 0.026143 -0.006182 157504.000000 1 0 0
3.983975 -11.298003 3.931479 12.608468 -1.231784 1.253696 0.003169 -0.005405 -460871.000000 1 0 0
-0.959125 0.816697 3.190179 3.429892 -0.705366 0.376082 0.005372 -0.003725 -691905.000000 1 0 0
-10.611925 -5.135303 4.480379 12.611823 0.450700 1.207612 0.007836 -0.002112 2684840.000000 1 0 0
4.586375 -8.692103 2.814479 10.222954 -1.085275 1.291884 -0.001353 -0.004463 4346950.000000 1 0 0
-3.782125 -5.785703 2.571879 7.375187 0.991823 1.214591 0.008568 -0.001669 1672930.000000 1 0 0
10.011375 5.075197 12.323079 16.668639 0.469187 0.738770 0.020716 0.000030 1013480.000000 1 0 0
1.587575 -12.300503 -5.290821 13.483900 -1.442440 1.974015 0.003499 0.001362 2214730.000000 1 0 0
9.851275 -10.763703 -1.714521 14.691647 -0.829630 1.687763 0.013447 -0.002590 1140370.000000 1 0 0
9.718575 -4.382303 -9.274421 14.130469 -0.423619 2.286756 0.019396 -0.005570 3345120.000000 1 0 0
-7.531325 -3.095103 -12.988621 15.329866 0.389922 2.581631 0.006746 0.002650 1981970.000000 1 0 0
0.431875 6.184397 -2.477321 6.676107 1.501077 1.950960 0.006502 -0.002392 3155000.000000 1 0 0
-5.915425 -9.524103 0.977179 11.254140 1.015006 1.483858 0.008576 0.000976 -256033.000000 1 0 0
-9.046625 -4.080203 0.630079 9.944168 0.423701 1.507392 0.004893 -0.003453 2561150.000000 1 0 0
1.784375 3.817497 12.040079 12.756206 1.133551 0.336668 0.005986 -0.003432 1434430.000000 1 0 0
6.630475 4.234797 9.598479 12.410782 0.568381 0.686612 -0.000836 0.002595 2004690.000000 1 0 0
-8.391725 9.849497 -3.583421 13.426636 -0.865145 1.840960 0.002053 -0.002613 1557520.000000 1 0 0
16.461175 2.134197 -6.126421 17.693448 0.128931 1.924371 0.036765 0.006719 -2328230.000000 1 0 0
-10.964425 2.723897 -5.051421 12.375584 -0.243501 1.991252 0.003035 0.000864 1111160.000000 1 0 0
-13.840525 4.022697 1.466979 14.487728 -0.282853 1.469366 0.006121 -0.004966 1038580.000000 1 0 0
-17.529125 10.344097 3.219579 20.606704 -0.533115 1.413914 0.041559 -0.015396 -2193370.000000 1 0 0
-14.428525 2.954097 -1.192621 14.776040 -0.201949 1.651597 0.012793 -0.007279 711150.000000 1 0 0
-14.442625 5.050197 5.130479 16.137401 -0.336384 1.247256 -0.001465 -0.004958 1648920.000000 1 0 0
-17.549425 7.399097 3.112979 19.298176 -0.399000 1.408779 0.027985 -0.012076 -1752360.000000 1 0 0
-15.045025 12.437397 -3.445021 19.821952 -0.690798 1.745482 0.050896 -0.018387 -51149.700000 1 0 0
-8.502825 12.436197 -9.625721 17.877683 -0.971083 2.139359 0.017755 -0.012985 1786020.000000 1 0 0
-12.469325 8.897397 -9.792221 18.180631 -0.619757 2.139580 0.017401 -0.002419 -936725.000000 1 0 0
-13.848625 -3.571703 -12.181621 18.786521 0.252410 2.276308 0.016263 0.002294 62013.500000 1 0 0
-14.820625 5.761597 -7.582321 17.616428 -0.370775 2.015745 0.025447 -0.000977 -427303.000000 1 0 0
-10.794325 13.573997 -8.349121 19.247822 -0.898976 2.019469 0.022438 -0.012775 1089730.000000 1 0 0
-10.995825 13.565897 3.867079 17.885638 -0.889656 1.352864 0.016270 -0.004521 -1236940.000000 1 0 0
-15.345625 3.262997 2.979379 15.969097 -0.209513 1.383125 0.007260 -0.002242 727172.000000 1 0 0
-11.228925 9.380297 -12.488521 19.236473 -0.695939 2.277342 0.030393 -0.008520 1151370.000000 1 0 0
-13.062725 11.707797 -9.019521 19.724580 -0.730753 2.045723 0.033448 -0.012228 16328.100000 1 0 0
-8.834125 14.630297 -3.458021 17.436894 -1.027570 1.770436 0.008472 -0.008928 91477.100000 1 0 0
-16.800925 8.108097 -4.113321 19.103186 -0.449630 1.787817 0.040378 -0.007072 -2570900.000000 1 0 0
-16.962525 6.685397 0.315879 18.235174 -0.375434 1.553473 0.022486 -0.005644 -576202.000000 1 0 0
-10.539625 2.767297 -12.471521 16.561415 -0.256766 2.423477 0.011439 -0.006870 426924.000000 1 0 0
-17.024825 0.890597 2.274079 17.199107 -0.052264 1.438187 0.019176 -0.007530 859956.000000 1 0 0
-12.699825 1.194297 -6.912821 14.508584 -0.093765 2.067425 0.008096 -0.004359 2683610.000000 1 0 0
-12.413025 9.079897 -5.467921 16.322557 -0.631543 1.912393 0.012785 -0.003495 -123350.000000 1 0 0
-9.712425 13.957697 1.238579 17.049416 -0.962863 1.498086 0.017885 -0.005851 -189300.000000 1 0 0
-12.338425 11.113597 2.765779 16.834438 -0.733219 1.405755 0.011403 -0.008928 -173079.000000 1 0 0
-12.709325 6.890297 -3.643521 14.909003 -0.496793 1.817681 0.003526 -0.000736 -371682.000000 1 0 0
-15.803825 3.609997 -9.416321 18.747268 -0.224573 2.097026 0.029576 -0.008243 -888271.000000 1 0 0
-15.188525 5.775897 -4.687521 16.912278 -0.363392 1.851640 0.017049 -0.000037 -22091.600000 1 0 0
-17.788125 5.212697 7.712879 20.076805 -0.285063 1.176489 0.006226 -0.009779 -912272.000000 1 0 0
-15.832525 9.986497 -2.124421 18.839112 -0.562729 1.683803 0.037300 -0.008873 -1544220.000000 1 0 0
-8.806125 9.909297 -8.338421 15.661139 -0.844275 2.132262 0.007401 -0.005749 1003100.000000 1 0 0
-17.133425 4.192997 -1.330021 17.689105 -0.240009 1.646056 0.023282 -0.007418 -493620.000000 1 0 0
-10.307625 5.465997 -4.535221 12.517687 -0.487582 1.941536 0.000802 -0.001180 -117587.000000 1 0 0
-18.123725 2.810197 6.115679 19.333084 -0.153831 1.248936 0.027148 -0.012438 -291109.000000 1 0 0
-10.450725 10.069597 -5.751621 15.610752 -0.766827 1.948126 0.003909 -0.006380 1135120.000000 1 0 0
-15.419825 0.425397 -5.791221 16.476960 -0.027581 1.929941 0.015710 -0.000461 -989759.000000 1 0 0
-16.340325 -4.227203 -8.814621 19.041350 0.253148 2.052083 0.029388 -0.013212 -2080320.000000 1 0 0
-10.085025 9.729597 -1.066321 14.053819 -0.767462 1.646743 0.001831 -0.002885 1928980.000000 1 0 0
-17.412525 -3.071203 -3.274921 17.982031 0.174583 1.753940 0.029262 -0.009551 -121795.000000 1 0 0
-11.999425 5.156197 -11.484821 17.391771 -0.405848 2.292094 0.020980 -0.004763 -65860.600000 1 0 0
-16.469425 7.031197 5.878679 18.847773 -0.403499 1.253601 0.016337 -0.008109 1324540.000000 1 0 0
-12.153525 6.030697 -8.691521 16.112728 -0.460611 2.140544 0.010839 -0.002338 1687320.000000 1 0 0
-14.600325 8.325497 -0.097721 16.807526 -0.518240 1.576610 0.024895 -0.007796 1223570.000000 1 0 0
-15.025425 11.733297 3.775979 19.434291 -0.662983 1.375258 0.018819 -0.012037 2400550.000000 1 0 0
-17.343825 3.975597 -4.123721 18.265232 -0.225330 1.798529 0.023960 -0.006731 360195.000000 1 0 0
-14.025325 13.331497 -0.827821 19.368114 -0.760041 1.613551 0.032483 -0.010276 -1059340.000000 1 0 0
-10.064725 6.887797 -13.101721 17.899596 -0.600145 2.391985 0.005923 -0.009686 1123650.000000 1 0 0
-15.823225 -1.198403 -8.258921 17.889114 0.075593 2.050677 0.018590 -0.008528 756701.000000 1 0 0
-11.601525 11.972397 -0.029721 16.671369 -0.801129 1.572579 0.017275 -0.006935 707886.000000 1 0 0
-11.985225 7.419697 -0.888621 14.123993 -0.554324 1.633754 0.002481 -0.001252 1694970.000000 1 0 0
-11.509625 0.145897 -11.648221 16.376013 -0.012675 2.362139 0.009880 -0.003895 -1379860.000000 1 0 0
-19.167525 -1.316503 -4.671621 19.772487 0.068576 1.809320 0.038968 -0.011091 -1222140.000000 1 0 0
-18.022525 1.364397 -5.152721 18.794242 -0.075561 1.848518 0.027844 -0.007180 -1236780.000000 1 0 0
-13.320725 -0.112203 -9.441121 16.327556 0.008423 2.187357 0.012262 -0.004436 -479570.000000 1 0 0
-6.165425 11.268897 -13.170821 18.397582 -1.070168 2.368708 0.003112 -0.005644 -1530430.000000 1 0 0
16.513475 5.950597 7.013879 18.902353 0.345864 1.190648 0.060553 -0.014801 -65057.900000 1 0 0
14.950375 10.160397 -5.262221 18.826533 0.596909 1.854081 0.060017 -0.019804 137436.000000 1 0 0
2.396975 16.918897 4.386979 17.642000 1.430059 1.319493 0.012922 -0.002221 2005820.000000 1 0 0
-3.809725 18.244097 -5.892121 19.546820 -1.364935 1.876995 0.001236 -0.011109 75391.400000 1 0 0
5.421275 14.558497 5.533579 16.491227 1.214326 1.228611 0.011019 -0.004093 718007.000000 1 0 0
9.872675 5.898697 15.109079 18.988118 0.538562 0.650614 0.031681 -0.004956 -1847160.000000 1 0 0
4.671475 12.767897 -1.147921 13.644032 1.220048 1.655029 0.009343 -0.004366 1066200.000000 1 0 0
3.603275 13.575997 13.014179 19.148372 1.311363 0.823512 0.021945 -0.007789 340454.000000 1 0 0
-0.755325 12.412597 9.217479 15.479180 -1.510020 0.932938 0.011564 0.000093 1438890.000000 1 0 0
-7.760725 13.864397 8.356279 17.952096 -1.060491 1.086623 0.019699 -0.017318 2240630.000000 1 0 0
11.433375 12.812897 -4.175921 17.672881 0.842233 1.809342 0.033436 -0.014645 756513.000000 1 0 0
-5.761825 16.186197 0.862579 17.202780 -1.228812 1.520633 0.009432 0.004030 2482820.000000 1 0 0
3.255575 10.617497 6.773079 13.007867 1.273274 1.023136 0.000876 0.005457 1021230.000000 1 0 0
-1.199225 15.524997 2.394679 15.754306 -1.493705 1.418203 0.007273 -0.000643 -2009490.000000 1 0 0
9.915575 8.908497 9.507079 16.372675 0.731950 0.951248 0.020517 -0.002149 1507190.000000 1 0 0
7.275775 12.289097 6.134979 15.543384 1.036242 1.165055 0.010252 -0.001950 944802.000000 1 0 0
11.882475 13.989497 -1.500221 18.416023 0.866659 1.652350 0.030022 -0.007945 993594.000000 1 0 0
9.631475 15.963897 -1.205321 18.683258 1.027933 1.635355 0.012558 -0.000854 1667940.000000 1 0 0
10.109775 13.772997 2.977579 17.342692 0.937595 1.398251 0.020501 -0.005611 1805880.000000 1 0 0
-6.041625 14.522097 6.193779 16.904302 -1.176548 1.195657 0.007867 -0.004784 -407754.000000 1 0 0
-0.899825 18.283297 -6.289121 19.355663 -1.521620 1.901728 0.022256 -0.001965 509182.000000 1 0 0
-3.487025 15.758197 5.383479 17.013582 -1.353022 1.248841 0.006486 -0.000503 3235230.000000 1 0 0
7.150475 12.301497 10.587779 17.735760 1.044264 0.931073 0.009519 -0.000826 3364870.000000 1 0 0
1.536575 14.619997 6.232679 15.967206 1.466080 1.169793 0.005199 -0.002206 734491.000000 1 0 0
17.452375 7.745697 -1.437421 19.148039 0.417702 1.645936 0.026564 0.009852 390472.000000 1 0 0
2.083475 16.251097 -3.328121 16.718714 1.443287 1.771201 0.010223 -0.002958 1908280.000000 1 0 0
6.710575 11.200597 0.528979 13.067709 1.031019 1.530305 0.012144 -0.004430 1512060.000000 1 0 0
12.695675 9.256697 3.156779 16.025974 0.630005 1.372521 0.018505 -0.003805 -1626730.000000 1 0 0
6.098975 14.287197 -3.478321 15.919178 1.167331 1.791072 0.005059 -0.002000 -147278.000000 1 0 0
3.110575 16.482797 1.554579 16.845622 1.384273 1.478381 0.014572 -0.010104 -852107.000000 1 0 0
2.607675 19.099197 -2.650821 19.457804 1.435102 1.707456 0.012159 -0.006210 -102842.000000 1 0 0
3.980075 11.889597 10.700279 16.483309 1.247769 0.864319 0.009573 -0.005873 3393230.000000 1 0 0
8.078575 11.497797 3.291079 14.432391 0.958315 1.340738 0.009358 -0.001607 857007.000000 1 0 0
0.791175 12.488897 0.125479 12.514562 1.507531 1.560770 0.004831 -0.002219 -2566180.000000 1 0 0
12.034875 9.969597 -4.585521 16.286746 0.691815 1.856205 0.027480 -0.010586 -688617.000000 1 0 0
-1.430025 16.465897 9.922779 19.277766 -1.484166 1.030108 0.016867 -0.007290 -435849.000000 1 0 0
8.156875 14.786897 -8.054621 18.709993 1.066704 2.015841 0.024532 -0.001722 1534370.000000 1 0 0
14.471975 7.644697 -1.395021 16.426367 0.485985 1.655824 0.018548 0.002791 1396130.000000 1 0 0
12.506875 8.369597 5.985179 16.195507 0.589754 1.192263 0.019595 -0.007843 179715.000000 1 0 0
-3.076125 14.201497 10.156179 17.728312 -1.357486 0.960782 0.020109 -0.012923 1339780.000000 1 0 0
-4.621525 17.209797 -3.144721 18.094885 -1.308445 1.745474 0.006116 -0.001780 139630.000000 1 0 0
-7.159525 16.480597 -1.756621 18.054213 -1.160973 1.668248 0.011226 -0.000891 535896.000000 1 0 0
8.332275 11.292697 -1.892621 14.160997 0.935119 1.704848 0.008563 -0.004712 -788702.000000 1 0 0
8.595175 12.907697 -4.221721 16.071982 0.983328 1.836591 0.022707 -0.007780 2185710.000000 1 0 0
2.556375 14.875497 -7.377421 16.800054 1.400607 2.025427 0.002265 -0.001283 -180166.000000 1 0 0
11.367675 11.419497 9.640779 18.776942 0.787672 1.031611 0.033873 -0.010583 5917.750000 1 0 0
8.646475 15.807497 1.477679 18.078220 1.070270 1.488967 0.015102 -0.002334 829510.000000 1 0 0
6.059975 9.999097 7.693779 13.996409 1.025939 0.988795 0.004300 0.007354 2360970.000000 1 0 0
14.516475 11.376797 2.572479 18.621955 0.664733 1.432211 0.039273 -0.010183 2088930.000000 1 0 0
12.158775 12.654097 1.116379 17.584319 0.805358 1.507266 0.025659 -0.004562 1781190.000000 1 0 0
5.236375 15.830797 8.161579 18.564620 1.251353 1.115609 0.019802 -0.007160 694922.000000 1 0 0
11.603375 15.079797 4.998579 19.672935 0.914954 1.313896 0.038171 -0.009169 -96955.700000 1 0 0
5.959275 16.825797 1.712079 17.931860 1.230407 1.475174 0.011663 -0.012236 967401.000000 1 0 0
-0.642025 16.221197 -4.273121 16.786870 -1.531238 1.828180 0.006489 -0.002436 2322330.000000 1 0 0
16.106475 6.442197 2.590079 17.539354 0.380485 1.422582 0.029186 -0.005168 867985.000000 1 0 0
7.629975 16.725197 -3.251921 18.668790 1.142801 1.745880 0.008591 -0.004134 281896.000000 1 0 0
14.898275 8.227297 7.366979 18.545064 0.504555 1.162281 0.054669 -0.015657 895873.000000 1 0 0
2.103375 12.948497 8.586779 15.678665 1.409761 0.991216 0.007512 -0.000964 1799370.000000 1 0 0
15.908675 7.456597 -5.966021 18.554789 0.438306 1.898147 0.025109 -0.001574 -1304180.000000 1 0 0
-2.944625 17.084097 0.628679 17.347404 -1.400113 1.534548 0.005045 0.001937 1507400.000000 1 0 0
-2.875825 18.656597 4.626279 19.435572 -1.417855 1.330458 0.011060 0.000498 352482.000000 1 0 0
-0.818125 19.017397 0.759579 19.050136 -1.527803 1.530913 0.011409 -0.010917 687371.000000 1 0 0
7.070575 16.823797 -6.133021 19.252198 1.172937 1.895009 0.005829 0.000506 1851900.000000 1 0 0
11.023875 10.073697 0.746079 14.951984 0.740391 1.520877 0.011809 -0.003741 -1095850.000000 1 0 0
9.135575 8.578497 14.240879 18.969765 0.753960 0.721653 0.030950 -0.009441 -121972.000000 1 0 0
6.358775 12.408097 -8.380821 16.267546 1.097223 2.112022 0.011197 -0.009930 1471990.000000 1 0 0
6.307875 8.999897 13.301679 17.254625 0.959478 0.690535 0.012830 -0.004464 1067500.000000 1 0 0
16.743575 9.401797 2.873079 19.416376 0.511642 1.422279 0.045438 -0.011226 -519431.000000 1 0 0
2.644375 14.699497 -0.739721 14.953766 1.392805 1.620284 0.011778 -0.004628 -1122170.000000 1 0 0
9.122775 12.903297 8.202579 17.804561 0.955380 1.092011 0.023862 -0.010247 920687.000000 1 0 0
7.250675 9.372097 10.536379 15.856348 0.912333 0.843986 0.007640 -0.001055 1013230.000000 1 0 0
4.399675 15.751697 -5.326421 17.200112 1.298424 1.885646 0.011048 -0.002465 2770230.000000 1 0 0
0.237475 16.388397 -8.240521 18.345085 1.556307 2.036660 0.008941 -0.000849 595822.000000 1 0 0
-2.424125 15.757797 -2.028521 16.071697 -1.418156 1.697351 -0.002211 0.004188 823248.000000 1 0 0
13.322775 10.578497 7.615379 18.638533 0.671082 1.149896 0.045365 -0.014280 2659410.000000 1 0 0
-1.018725 15.863797 7.038479 17.384995 -1.506667 1.153971 0.010354 -0.004635 2200220.000000 1 0 0
13.388075 13.399297 6.595279 20.056905 0.785817 1.235734 0.046230 -0.014696 -740596.000000 1 0 0
5.331375 17.410897 4.420379 18.737733 1.273653 1.332644 0.015528 -0.011667 290142.000000 1 0 0
10.780175 9.551797 -1.947821 14.534201 0.725055 1.705217 0.010412 -0.000003 890282.000000 1 0 0
3.194875 12.710597 4.758779 13.943188 1.324543 1.222499 0.003665 0.000631 1405090.000000 1 0 0
-0.201325 18.046797 3.520079 18.387995 -1.559641 1.378174 0.007939 -0.004689 2098120.000000 1 0 0
-7.595525 15.931897 -5.767221 18.568204 -1.125921 1.886617 0.017791 -0.014479 -671545.000000 1 0 0
-12.497925 -9.160203 8.264279 17.561485 0.632492 1.080836 0.035818 -0.004062 402564.000000 1 0 0
-13.309325 -11.769803 6.881779 19.053222 0.724089 1.201256 0.043542 -0.001655 302684.000000 1 0 0
-6.425625 -12.279703 12.234279 18.486680 1.088705 0.847594 0.030747 -0.015168 -131328.000000 1 0 0
-1.718825 -10.643503 14.382879 17.975142 1.410688 0.643245 -0.001971 -0.005849 235838.000000 1 0 0
-8.891925 2.836997 11.049579 14.464027 -0.308844 0.701407 -0.000459 0.002054 1922230.000000 1 0 0
0.380975 9.995197 15.288479 18.269830 1.532699 0.579356 0.012918 -0.001522 -1357120.000000 1 0 0
1.060575 -6.735203 16.610779 17.955661 -1.414611 0.389498 0.006752 -0.010279 1040610.000000 1 0 0
6.073575 2.342297 17.731979 18.889091 0.368078 0.351835 0.020185 -0.009370 3118080.000000 1 0 0
-5.091625 -3.012703 17.678679 18.642337 0.534293 0.322935 0.034969 -0.012653 -49326.600000 1 0 0
-4.431125 8.198697 12.896579 15.911482 -1.075302 0.625756 0.007972 0.002591 221522.000000 1 0 0
0.087275 -4.793303 18.608979 19.216594 -1.552591 0.252140 0.016926 -0.015764 -13534.400000 1 0 0
-11.706825 2.094697 11.205679 16.340280 -0.177056 0.815135 0.010043 -0.001734 1754650.000000 1 0 0
-3.313925 -6.072603 14.329079 15.911666 1.071247 0.449788 0.017176 -0.007065 1782910.000000 1 0 0
-7.526925 -2.244403 14.633279 16.607974 0.289789 0.492614 0.014440 -0.000460 858405.000000 1 0 0
-6.230825 -1.104603 10.639279 12.378917 0.175457 0.536569 0.004166 0.001245 3150060.000000 1 0 0
-3.983825 2.436997 11.221379 12.154389 -0.548995 0.394375 0.003254 0.001930 1462160.000000 1 0 0
-6.515625 6.284597 13.517979 16.269151 -0.767351 0.590080 -0.000567 0.003907 1210720.000000 1 0 0
-9.092125 5.473497 12.583679 16.461315 -0.541892 0.700625 -0.001584 -0.000101 263159.000000 1 0 0
-12.244825 -2.248003 15.889579 20.185836 0.181566 0.664598 0.034482 0.003012 835286.000000 1 0 0
-3.465925 -7.614603 16.912579 18.868761 1.143653 0.459381 0.021193 -0.007646 -843975.000000 1 0 0
-0.461725 -5.285303 14.387379 15.334415 1.483657 0.353285 0.014184 -0.006450 2110660.000000 1 0 0
-14.215725 -2.136403 13.657079 19.828436 0.149168 0.811016 0.054362 -0.006317 -318025.000000 1 0 0
-6.535825 1.428897 12.266679 13.972479 -0.215239 0.499302 0.005347 -0.000039 2544500.000000 1 0 0
2.267875 -2.195403 14.500579 14.840143 -0.769162 0.214333 0.011630 -0.007431 1024930.000000 1 0 0
-12.628225 3.967497 9.120479 16.074708 -0.304412 0.967475 -0.001532 -0.004694 -701507.000000 1 0 0
-9.132325 -3.096603 12.560279 15.835053 0.326915 0.654759 0.004121 0.004570 579903.000000 1 0 0
-7.168125 -7.205203 15.333079 18.395659 0.787978 0.585355 0.040895 -0.009047 981203.000000 1 0 0
-3.215725 6.128997 19.499879 20.691805 -1.087605 0.341073 0.047413 -0.009639 814076.000000 1 0 0
0.766975 5.379697 16.126479 17.017424 1.429182 0.325018 0.016140 -0.006829 1475860.000000 1 0 0
3.440475 1.488197 16.719979 17.135031 0.408253 0.220549 0.018175 -0.010923 853646.000000 1 0 0
-11.763225 11.448897 7.819679 18.182356 -0.771857 1.126226 0.011504 -0.009811 -1311010.000000 1 0 0
0.693675 -9.445203 15.411379 18.088771 -1.497486 0.551030 -0.007820 0.002218 857212.000000 1 0 0
-2.504025 -3.646203 18.864479 19.376107 0.969019 0.230313 0.033851 -0.017284 1820720.000000 1 0 0
-12.892925 2.303597 13.838479 19.053545 -0.176806 0.757881 0.023457 -0.009899 76639.500000 1 0 0
-5.407925 -0.636203 15.844979 16.754515 0.117104 0.331012 0.024863 -0.002625 1871240.000000 1 0 0
-4.528225 -5.965803 11.676679 13.872291 0.921541 0.570323 0.012864 -0.002990 192084.000000 1 0 0
2.370775 1.763897 13.928679 14.238680 0.639661 0.209051 0.009085 -0.005701 317273.000000 1 0 0
0.059475 3.290197 14.332979 14.705891 1.552722 0.225681 0.016262 -0.005274 -301640.000000 1 0 0
-13.082625 6.897597 12.192279 19.167253 -0.485196 0.881364 0.012451 -0.007823 117505.000000 1 0 0
0.884575 1.401897 18.229479 18.304690 1.007905 0.090683 0.021933 -0.011598 1983620.000000 1 0 0
-2.077425 6.456097 12.470579 14.195500 -1.259482 0.498108 0.005305 0.000417 2646180.000000 1 0 0
-13.368725 -2.643703 10.882779 17.439807 0.195234 0.896920 0.035134 -0.003368 -540577.000000 1 0 0
-2.597125 3.657697 13.528179 14.252559 -0.953361 0.320191 0.007991 0.000228 -316198.000000 1 0 0
3.602975 6.169597 16.436079 17.921776 1.042233 0.410050 0.013119 -0.000117 1251610.000000 1 0 0
-3.812625 12.338197 12.297179 17.832213 -1.271094 0.809853 0.022419 -0.009120 872929.000000 1 0 0
3.773275 -1.421803 16.944779 17.417941 -0.360355 0.233620 0.027030 -0.015808 -554823.000000 1 0 0
-15.749625 0.545697 9.054079 18.174840 -0.034634 1.049315 0.039036 -0.008972 660877.000000 1 0 0
-4.748525 4.613897 15.285779 16.658078 -0.771020 0.408747 0.015913 0.003069 1000710.000000 1 0 0
-8.037325 -8.212203 10.485179 15.555637 0.796160 0.831127 0.020929 -0.010774 3713600.000000 1 0 0
-2.661225 -0.434103 14.754279 14.998644 0.161697 0.180759 0.023157 -0.004083 1969050.000000 1 0 0
-1.898225 1.079397 17.199979 17.338040 -0.517038 0.126281 0.033640 -0.011944 1673760.000000 1 0 0
-0.664325 -2.399703 14.383679 14.597607 1.300724 0.171411 0.015265 -0.006293 -419028.000000 1 0 0
5.206875 -8.217403 16.372679 19.044734 -1.006008 0.536122 0.020525 -0.006799 1602180.000000 1 0 0
-4.534025 9.975597 10.544679 15.207241 -1.144197 0.804601 0.007963 -0.005306 160731.000000 1 0 0
-6.255325 2.071797 15.283379 16.643410 -0.319834 0.407072 0.018731 0.004422 -130186.000000 1 0 0
-5.034325 6.860597 17.313079 19.291317 -0.937742 0.456832 0.029881 0.000325 -1599260.000000 1 0 0
-4.386525 9.286697 15.617879 18.692311 -1.129516 0.581710 0.021534 0.003766 -582750.000000 1 0 0
-4.253025 -9.920703 18.478079 21.399719 1.165794 0.528681 0.026509 -0.006152 1490940.000000 1 0 0
-6.937025 -4.139803 11.093279 13.723014 0.538041 0.629418 0.005891 0.002113 -69745.500000 1 0 0
-2.358725 -0.781603 19.460279 19.618281 0.319980 0.127001 0.039641 -0.015997 -884762.000000 1 0 0
-5.695825 -4.522903 15.290379 16.932063 0.671117 0.443995 0.022725 -0.007482 1899190.000000 1 0 0
-12.887725 -0.039703 9.668179 16.111136 0.003081 0.927179 0.017030 0.000255 1193900.000000 1 0 0
-14.407825 8.771097 10.324879 19.776772 -0.546845 1.021519 0.006874 -0.009374 -256127.000000 1 0 0
-8.496825 10.576497 12.723179 18.599398 -0.894005 0.817477 0.016186 -0.011379 298255.000000 1 0 0
-10.543025 7.127197 10.762979 16.667154 -0.594444 0.868778 0.007415 -0.002640 -1125810.000000 1 0 0
-9.917125 -6.533703 14.862779 19.024743 0.582558 0.674156 0.038528 -0.007287 -962838.000000 1 0 0
-0.580225 -13.397603 14.466379 19.725835 1.527515 0.747527 -0.006886 -0.010908 40559.300000 1 0 0
3.894075 -5.650603 16.955779 18.291844 -0.967394 0.384574 0.029103 -0.011904 2886310.000000 1 0 0
-7.378025 9.202397 10.350079 15.692148 -0.894989 0.850549 0.005340 -0.004525 379991.000000 1 0 0
-10.355925 -6.768003 11.839379 17.123725 0.578859 0.807368 0.032227 -0.010644 1708170.000000 1 0 0
-10.929025 -4.035103 10.629279 15.770454 0.353685 0.831187 0.017268 0.002363 -1458980.000000 1 0 0
-10.127725 -10.272503 9.792679 17.435358 0.792495 0.974410 0.035021 -0.013915 1394230.000000 1 0 0
-9.916025 -3.644803 15.296179 18.589923 0.352238 0.604439 0.032920 -0.011638 1598440.000000 1 0 0
5.622875 -3.299803 16.036079 17.310727 -0.530697 0.386148 0.028361 -0.014416 792726.000000 1 0 0
-11.365325 0.456997 15.400679 19.145766 -0.040188 0.636147 0.026318 0.000745 -780145.000000 1 0 0
-3.194925 3.186397 18.912279 19.443121 -0.784062 0.234211 0.040741 -0.010934 -562656.000000 1 0 0
0.506475 7.302997 13.932879 15.738977 1.501556 0.483772 0.010552 -0.003610 1381990.000000 1 0 0
-13.180125 -7.440103 12.143779 19.404695 0.513903 0.894618 0.047338 -0.010552 -891755.000000 1 0 0
-1.571425 -1.041203 12.123379 12.269059 0.585172 0.154255 0.010853 -0.004105 720885.000000 1 0 0
2.088875 -4.821103 13.095879 14.110580 -1.161936 0.381548 0.009402 -0.007711 1344150.000000 1 0 0
-14.696825 -4.143003 8.644479 17.546742 0.274768 1.055659 0.036092 -0.002935 -2735720.000000 1 0 0
8.115875 0.933297 16.065879 18.023622 0.114494 0.470418 0.025338 -0.007524 631523.000000 1 0 0
-1.241425 11.347397 13.367779 17.578455 -1.461828 0.706769 0.017572 -0.002884 2492830.000000 1 0 0
2.856275 -12.467403 -13.896321 18.886561 -1.345583 2.397611 0.007567 0.018698 126262.000000 1 0 0
0.761875 -10.897303 -13.973821 17.736948 -1.500996 2.478085 -0.000447 0.016579 -2535720.000000 1 0 0
3.384475 -14.425003 -12.406721 19.325168 -1.340339 2.267898 0.009625 0.011220 -1273690.000000 1 0 0
-4.912025 -10.316603 -16.099721 19.742373 1.126428 2.524373 0.019815 -0.010567 -567268.000000 1 0 0
-1.180925 -12.231903 -15.139221 19.498976 1.474550 2.459747 0.010538 0.011839 -202502.000000 1 0 0
5.785575 -14.997903 -11.901121 20.001166 -1.202627 2.208089 0.015539 0.001189 -427053.000000 1 0 0
1.934675 -11.802103 -16.144621 20.091824 -1.408315 2.504018 0.012569 0.012738 -588419.000000 1 0 0
1.259175 -14.638703 -13.979221 20.280428 -1.484991 2.331313 0.018644 0.022114 65162.000000 1 0 0
-0.972525 -10.607503 -15.961721 19.189619 1.479369 2.553120 0.006095 0.005582 -202454.000000 1 0 0
-6.097825 -5.731603 -15.167621 17.323148 0.754449 2.637410 0.012948 0.004193 124807.000000 1 0 0
-6.336525 -7.679403 -16.668521 19.415570 0.880917 2.603159 0.015865 0.006933 326912.000000 1 0 0
4.974575 -12.523503 -11.530121 17.734943 -1.192690 2.278559 0.004553 0.008419 -239638.000000 1 0 0
-1.829225 -15.611503 -13.091521 20.456124 1.454157 2.265269 0.021183 0.005088 -225500.000000 1 0 0
15.675475 -7.418103 -8.805921 19.449756 -0.442003 2.040646 0.039488 -0.004954 551274.000000 1 0 0
19.203075 -3.505903 -4.060821 19.938398 -0.180581 1.775900 0.071865 -0.023086 550686.000000 1 0 0
14.919375 -11.616403 -8.820221 20.864440 -0.661563 2.007262 0.066920 -0.022955 35412.600000 1 0 0
18.091775 -3.558003 -6.426521 19.526184 -0.194186 1.906171 0.083940 -0.009767 667450.000000 1 0 0
9.731775 -9.053203 -15.413021 20.352620 -0.749291 2.429964 0.070069 -0.018987 202099.000000 1 0 0
1.198375 1.852097 -15.290321 15.448634 0.996507 2.998308 0.011688 -0.008346 -167117.000000 1 0 0
4.775675 -4.332803 -13.980521 15.395948 -0.736814 2.709437 0.017404 -0.003875 426242.000000 1 0 0
13.188375 -5.444403 -8.659121 16.689971 -0.391508 2.116269 0.035658 -0.004638 -1486320.000000 1 0 0
2.916175 0.888797 -12.262421 12.635704 0.295838 2.897919 0.007534 -0.007076 -1134620.000000 1 0 0
0.664175 6.249697 -12.835421 14.291532 1.464921 2.686258 0.008972 -0.005690 83445.400000 1 0 0
2.979575 -1.054403 -16.829721 17.123935 -0.340124 2.955954 0.029646 -0.008471 51438.400000 1 0 0
13.222675 4.272997 -11.412521 17.981748 0.312564 2.258381 0.025671 0.001492 829919.000000 1 0 0
-3.877525 9.389997 -16.575721 19.441239 -1.179183 2.591749 0.000438 0.003015 108898.000000 1 0 0
-0.386825 -4.888603 -17.762821 18.427313 1.491833 2.872227 0.018387 -0.007888 -22250.100000 1 0 0
-0.516625 -8.604803 -17.639021 19.632743 1.510829 2.687021 0.013942 0.005017 -881590.000000 1 0 0
5.534375 -10.020703 -12.194521 16.725733 -1.066194 2.387784 0.005802 0.000628 463497.000000 1 0 0
1.758975 -9.625403 -18.141521 20.612063 -1.390048 2.646955 0.031456 -0.000418 -258294.000000 1 0 0
10.865375 8.635097 -14.536521 20.098053 0.671523 2.379337 0.067098 -0.021008 -432970.000000 1 0 0
11.075575 -3.824103 -12.942521 17.458550 -0.332458 2.405844 0.023683 0.000013 549522.000000 1 0 0
4.862275 7.500697 -12.202221 15.126016 0.995657 2.509350 -0.002214 -0.005367 -941915.000000 1 0 0
9.696875 -5.936003 -12.504121 16.900253 -0.549310 2.403685 0.029708 -0.006358 -1294240.000000 1 0 0
-3.437525 0.324297 -15.826221 16.198488 -0.094062 2.926790 0.013126 -0.010967 -3704980.000000 1 0 0
-0.782825 10.678197 -12.833521 16.713347 -1.497617 2.446291 -0.003481 -0.000004 -1066270.000000 1 0 0
6.714175 -5.395103 -12.589521 15.253961 -0.676895 2.541579 0.017523 -0.002199 170886.000000 1 0 0
17.830375 -6.177803 -8.011621 20.500575 -0.333532 1.972297 0.052928 -0.013230 -310495.000000 1 0 0
13.201675 4.794897 -14.081021 19.888449 0.348389 2.357458 0.048790 -0.000755 587675.000000 1 0 0
14.171275 0.860397 -11.530221 18.289650 0.060640 2.252895 0.024813 0.002516 -442712.000000 1 0 0
15.084275 6.161497 -11.233721 19.791308 0.387788 2.174395 0.046644 -0.001877 957074.000000 1 0 0
8.077675 1.540997 -11.757121 14.347592 0.188507 2.531245 0.000603 0.001061 486544.000000 1 0 0
10.015075 1.272897 -8.975521 13.508589 0.126420 2.297528 0.007601 -0.000076 284871.000000 1 0 0
-0.150925 -5.660803 -13.001321 14.181037 1.544141 2.730814 0.005406 0.001895 37997.800000 1 0 0
10.668975 -5.647903 -9.104621 15.120184 -0.486872 2.216988 0.024173 -0.006074 -1144800.000000 1 0 0
10.195275 8.482097 -11.192521 17.354023 0.693929 2.271757 0.035363 -0.014356 617567.000000 1 0 0
8.219675 8.201797 -14.464521 18.548717 0.784309 2.465163 0.038635 -0.013808 714173.000000 1 0 0
8.664275 10.624597 -10.556921 17.303188 0.886680 2.227001 0.039454 -0.016391 181107.000000 1 0 0
7.050075 1.618897 -17.975921 19.376742 0.225715 2.759017 0.031266 0.002176 -2361380.000000 1 0 0
12.142875 2.678197 -12.975221 17.971603 0.217082 2.377463 0.025977 0.000489 -1112320.000000 1 0 0
2.501875 -0.883503 -19.293021 19.474615 -0.339466 3.004924 0.050212 -0.021364 -316019.000000 1 0 0
10.225875 -2.197503 -15.363621 18.585973 -0.211677 2.543879 0.040019 -0.008559 -109906.000000 1 0 0
8.249175 -0.701903 -13.125321 15.518235 -0.084883 2.578859 0.012123 -0.003025 660997.000000 1 0 0
0.573375 4.357997 -14.541021 15.190859 1.439979 2.848039 0.008301 -0.006377 136020.000000 1 0 0
3.937775 -7.862203 -15.754921 18.042667 -1.106470 2.632534 0.029524 -0.005985 -1682310.000000 1 0 0
11.277275 -5.810503 -14.667121 19.392352 -0.475765 2.428489 0.046497 0.001445 15822.300000 1 0 0
-5.909225 4.388797 -16.765321 18.310010 -0.638814 2.727886 0.003087 -0.005985 276587.000000 1 0 0
11.383475 7.889497 -9.050121 16.544859 0.606057 2.149579 0.033466 -0.009084 -1056000.000000 1 0 0
9.563975 6.146297 -13.477421 17.632001 0.571192 2.440864 0.024830 0.002942 426993.000000 1 0 0
12.038475 0.519897 -10.258821 15.825251 0.043159 2.276089 0.013797 0.003898 -1153500.000000 1 0 0
5.533475 -7.247203 -13.792221 16.533803 -0.918691 2.557446 0.018910 -0.002789 -827778.000000 1 0 0
8.660375 -10.243203 -10.646921 17.125485 -0.868935 2.241708 0.019648 -0.001089 261653.000000 1 0 0
10.017275 4.614197 -15.993021 19.427129 0.431654 2.537876 0.043955 -0.000436 -1609270.000000 1 0 0
9.855275 -0.367403 -11.029121 14.795369 -0.037263 2.411997 0.008295 0.000617 -637444.000000 1 0 0
-1.654625 5.449797 -14.013521 15.126693 -1.276029 2.755560 0.003478 -0.004919 570349.000000 1 0 0
1.214275 -0.734403 -14.945321 15.012542 -0.543947 3.046924 0.014696 -0.009933 -322513.000000 1 0 0
11.586075 -10.434203 -14.021821 20.969530 -0.733136 2.303223 0.079246 -0.020667 1242980.000000 1 0 0
9.297075 -7.763403 -10.685921 16.152242 -0.695743 2.293714 0.026176 -0.003573 -8120.040000 1 0 0
14.041575 -0.994503 -9.743521 17.119903 -0.070708 2.176249 0.020627 0.003211 775099.000000 1 0 0
4.044075 10.983097 -12.207821 16.911944 1.217993 2.377263 0.015071 -0.016532 -1673920.000000 1 0 0
-1.243425 2.785197 -16.975621 17.247468 -1.150906 2.963811 0.016592 -0.013313 625659.000000 1 0 0
5.843075 -0.629903 -17.593021 18.548657 -0.107389 2.819198 0.018806 -0.002396 23121.300000 1 0 0
6.331575 -6.701703 -16.241821 18.676146 -0.813789 2.625301 0.029984 -0.004081 302906.000000 1 0 0
-2.013125 -5.053703 -19.813821 20.547021 1.191716 2.873644 0.024102 -0.017717 -908794.000000 1 0 0
-0.050425 -4.244603 -15.212121 15.793284 1.558917 2.869468 0.012274 -0.006515 30788.600000 1 0 0
0.366775 0.833197 -13.013621 13.045423 1.156120 3.071753 0.007889 -0.010116 1170950.000000 1 0 0
15.225275 0.643797 -13.781021 20.546046 0.042260 2.306000 0.042211 -0.004879 710711.000000 1 0 0
-0.274025 6.842097 -16.308121 17.687402 -1.530768 2.744060 0.007606 0.002130 -305125.000000 1 0 0
-5.199125 -0.543603 -18.057021 18.798468 0.104178 2.859799 0.011306 -0.013481 -348087.000000 1 0 0
10.454975 -8.354403 -12.926821 18.606592 -0.674182 2.338860 0.031859 -0.015595 217517.000000 1 0 0
4.181575 8.632497 -17.111421 19.616480 1.119707 2.630679 0.022850 -0.012127 -273371.000000 1 0 0
9.171175 0.513997 -16.881521 19.218751 0.055986 2.643275 0.029224 -0.003241 -406702.000000 1 0 0
3.331875 4.770897 -18.463821 19.359120 0.961162 2.836280 0.025877 -0.007378 -320328.000000 1 0 0
1.422675 -8.212903 -15.888021 17.941711 -1.399274 2.658442 0.006606 0.002817 -767317.000000 1 0 0
4.696375 7.625797 -14.840921 17.333830 1.018801 2.598631 0.007626 -0.008264 277551.000000 1 0 0
-5.757225 -0.455903 -15.125321 16.190393 0.079023 2.776851 0.004474 -0.006208 -378604.000000 1 0 0
2.801975 3.386797 -13.756721 14.441912 0.879616 2.832321 0.007098 -0.003654 -741850.000000 1 0 0
-2.481425 -10.235803 -18.145321 20.980510 1.332959 2.615679 0.020610 0.003640 82258.600000 1 0 0
6.186875 -9.188003 -15.440521 19.002803 -0.978171 2.519291 0.023536 -0.005323 533579.000000 1 0 0
-1.852925 5.174197 -17.723921 18.556482 -1.226916 2.840907 0.010436 0.008335 1480170.000000 1 0 0
10.038075 -12.169503 -11.700621 19.640883 -0.881083 2.208968 0.055164 -0.010092 -1060680.000000 1 0 0
10.915975 3.586897 -9.307121 14.786712 0.317477 2.251609 0.009238 0.000670 -598631.000000 1 0 0
4.864575 -0.475803 -10.987721 12.025826 -0.097500 2.723037 0.009977 -0.007100 701378.000000 1 0 0
6.429575 9.421197 -11.433721 16.150182 0.971941 2.357405 0.017270 -0.013366 -24619.600000 1 0 0
10.819075 -9.504603 -9.432021 17.214903 -0.720811 2.150646 0.035781 -0.008169 -1837380.000000 1 0 0
3.122875 -2.365503 -14.614121 15.130118 -0.648269 2.879678 0.015106 -0.004145 -157202.000000 1 0 0
9.101375 -4.435303 -14.554921 17.729993 -0.453454 2.533818 0.031198 -0.010081 -630878.000000 1 0 0
-4.009325 -6.496103 -16.583521 18.256155 1.017833 2.710189 0.004915 -0.000833 -2239250.000000 1 0 0
5.886975 -7.525303 -11.250821 14.760340 -0.906947 2.437552 0.005586 -0.000611 -452893.000000 1 0 0
5.512375 6.396097 -17.058821 19.034172 0.859472 2.681972 0.019387 -0.000625 -951361.000000 1 0 0
9.189975 1.170597 -19.391721 21.491040 0.126695 2.695910 0.063093 -0.014128 373539.000000 1 0 0
13.105775 5.818397 -9.424421 17.159102 0.417817 2.152248 0.013594 -0.001139 1224430.000000 1 0 0
-1.878725 -0.866503 -17.264321 17.387847 0.432144 3.022323 0.022225 -0.014733 203183.000000 1 0 0
-0.662625 -0.347603 -19.513921 19.528262 0.483121 3.103266 0.038120 -0.023644 -198802.000000 1 0 0
2.903475 6.412297 -16.420821 17.865920 1.145618 2.736623 0.008715 -0.001559 1190370.000000 1 0 0
7.576975 3.705197 -15.757621 17.872931 0.454815 2.650138 0.018627 0.003440 -155726.000000 1 0 0
3.016675 -9.949903 -14.824421 18.107025 -1.276419 2.529959 0.015398 0.007666 242899.000000 1 0 0
9.034475 -10.397303 -13.296121 19.144516 -0.855417 2.338540 0.042989 -0.010928 -540219.000000 1 0 0
3.766375 0.189397 -14.831421 15.303349 0.050244 2.892602 0.016071 -0.003350 -2743720.000000 1 0 0
-1.349125 -2.734103 -18.907321 19.151560 1.112408 2.981717 0.033915 -0.017645 183213.000000 1 0 0
9.224775 10.026797 -13.002421 18.833377 0.827034 2.332828 0.050613 -0.022065 -180289.000000 1 0 0
4.501275 2.095597 -10.726421 11.819861 0.435715 2.708069 0.004128 -0.002478 117025.000000 1 0 0
-0.363125 7.051197 -18.901421 20.177090 -1.519343 2.784098 0.027526 -0.000773 40430.700000 1 0 0
0.622175 -1.644603 -17.694721 17.781872 -1.209124 3.042546 0.031232 -0.016816 -1581150.000000 1 0 0
-4.571025 -2.323303 -14.004921 14.914081 0.470240 2.790624 0.006837 -0.006655 -4473840.000000 1 0 0
10.055775 6.030297 -10.306821 15.611331 0.540188 2.291900 0.013192 0.000538 99453.900000 1 0 0
8.092875 5.319197 -17.678721 20.157521 0.581468 2.640438 0.039927 -0.009570 -51982.200000 1 0 0
11.304275 0.277197 -13.515621 17.622017 0.024517 2.444908 0.020976 0.000678 304182.000000 1 0 0
6.723275 11.967797 -11.885321 18.157408 1.058954 2.284412 0.036222 -0.019154 -855246.000000 1 0 0
-1.009325 0.571997 -15.237921 15.282021 -0.515584 3.065604 0.013195 -0.011652 -1022040.000000 1 0 0
-4.585125 -2.855403 -18.910121 19.666453 0.556982 2.863359 0.011214 -0.007957 174368.000000 1 0 0
5.872575 -11.949003 -13.905021 19.251374 -1.113996 2.377900 0.019426 -0.001748 310616.000000 1 0 0
2.135775 -4.721803 -13.977721 14.907503 -1.146013 2.786545 0.012007 -0.001338 865407.000000 1 0 0
11.664975 1.970597 -15.436921 19.448738 0.167353 2.487703 0.046313 -0.002869 352222.000000 1 0 0
9.641175 2.251497 -13.698621 16.901885 0.229418 2.515766 0.015056 -0.002229 -189430.000000 1 0 0
-2.297825 -3.964903 -16.332521 16.963245 1.045556 2.868044 0.005855 -0.009605 -956415.000000 1 0 0
-2.960925 9.963797 -14.249721 17.637995 -1.281939 2.511375 0.000302 -0.004595 -83805.600000 1 0 0
3.484275 5.760497 -13.595721 15.171260 1.026813 2.681812 0.003363 -0.000637 -136005.000000 1 0 0
-5.406125 -2.626603 -16.465721 17.528411 0.452269 2.791594 0.008737 -0.006532 405471.000000 1 0 0
-4.236325 6.097797 -13.497021 15.404517 -0.963616 2.638660 -0.000338 -0.002603 -870413.000000 1 0 0
5.763075 -1.140303 -14.115621 15.289345 -0.195341 2.747206 0.015025 -0.000749 -885346.000000 1 0 0
6.773275 -2.905703 -12.674521 14.661645 -0.405250 2.614887 0.016870 -0.004814 387073.000000 1 0 0
2.752775 -3.214003 -18.174321 18.660480 -0.862544 2.912827 0.043690 -0.022655 -133992.000000 1 0 0
7.464975 -11.972603 -12.017421 18.533415 -1.013273 2.276302 0.021046 -0.002200 -1569150.000000 1 0 0
-6.242925 -5.410003 -17.675821 19.510943 0.714042 2.704400 0.024513 0.001330 470518.000000 1 0 0
0.565575 8.714597 -11.882021 14.746067 1.505987 2.507780 0.000432 0.000552 9630.910000 1 0 0
0.244775 8.450197 -14.373521 16.675247 1.541838 2.609934 -0.006159 -0.002013 -43271.200000 1 0 0
7.674875 -2.414903 -15.103021 17.112472 -0.304843 2.652105 0.024548 -0.008565 101514.000000 1 0 0
14.206975 1.597897 -9.004921 16.896154 0.112002 2.132888 0.009295 0.003076 540851.000000 1 0 0
2.790375 10.719597 -14.571421 18.303613 1.316142 2.491612 0.007083 -0.002760 -878142.000000 1 0 0
6.052875 1.051097 -15.585121 16.752256 0.171938 2.766107 0.014047 0.002872 -55387.900000 1 0 0
16.719075 -5.482503 -10.241221 20.358485 -0.316870 2.097914 0.080051 -0.012375 381133.000000 1 0 0
5.002275 -4.204903 -11.264821 13.023062 -0.699010 2.615927 0.006616 -0.000040 -1145310.000000 1 0 0
8.960775 -3.752303 -17.043621 19.617856 -0.396563 2.623532 0.040460 -0.010809 251217.000000 1 0 0
13.376075 -9.554803 -8.754521 18.624051 -0.620272 2.060161 0.063417 -0.015738 -628702.000000 1 0 0
2.419975 -7.679603 -13.525421 15.740699 -1.265529 2.604626 0.004768 0.003772 74417.200000 1 0 0
-7.116925 -2.394603 -18.365421 19.841205 0.324567 2.753467 0.015411 -0.006529 -852507.000000 1 0 0
-1.499425 -6.365503 -15.813421 17.112340 1.339459 2.749456 0.007064 -0.000721 -866247.000000 1 0 0
1.487075 -6.998803 -18.248621 19.601194 -1.361434 2.767927 0.035955 -0.022702 -454126.000000 1 0 0
5.345375 10.814997 -14.549421 18.900340 1.111755 2.449319 0.039687 -0.025640 -514806.000000 1 0 0
5.220975 -3.440803 -17.444721 18.531487 -0.582700 2.797422 0.026583 -0.014420 -243191.000000 1 0 0
4.026075 12.895597 -13.991321 19.448979 1.268180 2.373714 0.026048 -0.021309 30360.000000 1 0 0
9.196375 10.442697 -15.447321 20.790454 0.848775 2.408339 0.075665 -0.027465 112817.000000 1 0 0
2.514275 3.845097 -16.260721 16.897260 0.991691 2.866238 0.016654 -0.005355 454173.000000 1 0 0
16.668275 1.492997 -11.736121 20.440082 0.089333 2.182389 0.058523 0.006661 195799.000000 1 0 0
10.181075 -3.634903 -10.607121 15.145224 -0.342920 2.346699 0.022057 -0.002594 1471330.000000 1 0 0
14.911975 -2.104503 -11.919321 19.205888 -0.140202 2.240314 0.060593 -0.005622 -891048.000000 1 0 0
-2.684225 -8.596703 -16.077921 18.428454 1.268149 2.630992 0.009437 0.007002 370992.000000 1 0 0
14.019875 8.205597 -9.110521 18.624992 0.529528 2.081918 0.052065 -0.008248 1383600.000000 1 0 0
-8.237625 0.334597 -16.610821 18.544266 -0.040596 2.680887 -0.003920 -0.002151 -218759.000000 1 0 0
-3.495225 3.860497 -15.902021 16.733030 -0.835016 2.825114 0.006775 -0.007274 -472780.000000 1 0 0
15.141575 4.099997 -9.640521 18.412412 0.264436 2.121853 0.026687 0.004701 309727.000000 1 0 0
5.347075 1.124197 -12.999721 14.101340 0.207227 2.743697 0.009299 -0.002208 -402084.000000 1 0 0
7.890975 -7.733303 -12.896221 16.981872 -0.775307 2.433204 0.030866 -0.004335 -1639210.000000 1 0 0
3.246575 -5.995803 -11.845621 13.667796 -1.074522 2.619307 0.004650 0.000705 -903235.000000 1 0 0
-3.270325 3.187697 -18.471421 19.027607 -0.772604 2.899213 0.014050 -0.011300 -134479.000000 1 0 0
0.839975 5.140597 -17.768321 18.516061 1.408827 2.856433 0.023785 -0.010533 -564998.000000 1 0 0
6.286175 7.112497 -10.146821 13.894660 0.846992 2.389510 -0.000192 -0.000910 231358.000000 1 0 0
9.641575 3.675897 -11.589221 15.517159 0.364243 2.414131 0.014657 0.001614 145911.000000 1 0 0
4.483575 1.545597 -17.596121 18.224017 0.331967 2.878329 0.024723 -0.001528 414232.000000 1 0 0
2.623275 8.080697 -13.291221 15.774530 1.256895 2.572843 0.001614 -0.003574 -552677.000000 1 0 0
14.604075 -3.479603 -9.823921 17.941462 -0.233901 2.150235 0.040969 -0.000707 622650.000000 1 0 0
-1.318725 9.174397 -16.198621 18.662902 -1.428034 2.621873 -0.001956 0.001207 -1833080.000000 1 0 0
-5.331825 2.026497 -15.671221 16.676997 -0.363213 2.792522 0.006485 -0.009148 359127.000000 1 0 0
4.480275 4.339997 -11.972021 13.499545 0.769495 2.661271 0.002875 -0.003592 390319.000000 1 0 0
9.245575 2.975997 -17.624321 20.123467 0.311410 2.637907 0.034413 -0.002536 923522.000000 1 0 0
-4.023725 14.300597 -13.321821 19.954156 -1.296520 2.301806 0.012898 -0.012907 -198799.000000 1 0 0
15.545675 -4.899203 -7.916621 18.120240 -0.305296 2.022939 0.043765 -0.003530 503582.000000 1 0 0
1.120775 9.115297 -16.759621 19.110983 1.448455 2.640301 -0.000272 0.004818 -99083.700000 1 0 0
0.430875 -3.146703 -12.743721 13.133538 -1.434714 2.897343 0.008602 -0.002089 455392.000000 1 0 0
7.523875 3.644497 -13.057621 15.504597 0.451083 2.572105 0.007945 0.000943 191319.000000 1 0 0
-2.956425 7.459797 -15.139621 17.134677 -1.193471 2.654220 -0.002467 0.002299 30422.500000 1 0 0
12.351575 -5.141703 -11.025221 17.336494 -0.394461 2.260041 0.033414 -0.000589 -175621.000000 1 0 0
0.371675 -4.272203 -20.162621 20.613616 -1.484016 2.932028 0.042993 -0.016025 -502649.000000 1 0 0
3.339875 -4.695403 -16.092321 17.092816 -0.952522 2.797752 0.031238 -0.013922 478583.000000 1 0 0
-5.665825 4.108297 -14.273321 15.896772 -0.627375 2.685716 0.001289 -0.003639 611212.000000 1 0 0
12.265375 -7.511803 -9.912721 17.467932 -0.549516 2.174240 0.031767 -0.002375 -41443.300000 1 0 0
-2.139225 -1.703703 -14.857021 15.106620 0.672549 2.959559 0.012104 -0.008111 596509.000000 1 0 0
7.108975 5.824197 -14.381921 17.067468 0.686383 2.572984 0.018091 -0.000990 14860.500000 1 0 0
4.010975 -5.519103 -18.448921 19.670056 -0.942346 2.787378 0.054886 -0.018259 -137037.000000 1 0 0
7.500475 7.192397 -12.217621 16.039263 0.764433 2.436779 0.012721 -0.006794 -452172.000000 1 0 0
12.534575 -2.541303 -11.187421 16.992121 -0.200032 2.289472 0.028478 0.002894 -2035360.000000 1 0 0
7.457075 -0.717503 -10.666721 13.034635 -0.095922 2.529307 0.012202 -0.001314 -1880430.000000 1 0 0
5.283575 3.947297 -14.454621 15.888152 0.641635 2.713535 0.004416 0.000901 1382530.000000 1 0 0
14.725975 2.920497 -13.046821 19.889776 0.195782 2.286245 0.043361 -0.004194 -271017.000000 1 0 0
-6.653825 6.736597 -15.734621 18.363916 -0.791580 2.599872 0.008134 -0.000836 586354.000000 1 0 0
-11.289525 3.810097 -16.445021 20.307854 -0.325487 2.514584 0.049423 -0.023950 440369.000000 1 0 0
-5.087625 6.572297 -17.965121 19.794560 -0.912048 2.708277 0.000715 0.009759 104603.000000 1 0 0
-10.141625 1.600397 -15.544621 18.629253 -0.156514 2.557876 0.027159 -0.011776 -726782.000000 1 0 0
-7.573225 5.776697 -17.979521 20.346674 -0.651630 2.654418 0.012670 -0.004492 -503533.000000 1 0 0
-8.747425 3.813697 -15.603621 18.290290 -0.411133 2.592713 0.006844 -0.000998 -544190.000000 1 0 0
8.908775 13.290197 -12.209821 20.126484 0.980264 2.222642 0.072575 -0.025056 -2126950.000000 1 0 0
13.995075 9.926097 -11.027521 20.395974 0.616911 2.142031 0.069565 -0.014072 433957.000000 1 0 0
8.520775 15.917997 -9.169121 20.249914 1.079315 2.040697 0.040977 -0.008083 -194269.000000 1 0 0
7.094675 13.402597 -14.067421 20.684689 1.083945 2.318680 0.062875 -0.020492 -244068.000000 1 0 0
4.752475 15.928897 -12.551921 20.829462 1.280849 2.217557 0.037890 -0.022260 -60735.000000 1 0 0
11.064975 10.939597 -11.560321 19.384258 0.779700 2.209776 0.073461 -0.021115 -399516.000000 1 0 0
15.685275 10.062897 -8.961021 20.678241 0.570412 2.019009 0.081193 -0.024427 451957.000000 1 0 0
13.134775 10.611697 -8.650321 18.972572 0.679545 2.044222 0.079445 -0.026222 -574044.000000 1 0 0
10.361675 11.798397 -8.238921 17.732634 0.850141 2.054001 0.039061 -0.012094 -181021.000000 1 0 0
5.513475 16.088097 -10.066921 19.762798 1.240635 2.105269 0.015012 -0.015121 -268353.000000 1 0 0
6.778875 14.615297 -11.728321 19.927709 1.136509 2.200052 0.031758 -0.003904 -931437.000000 1 0 0
10.644075 13.775597 -9.915421 20.034445 0.912940 2.088538 0.067723 -0.015941 -414385.000000 1 0 0
8.162475 -18.638003 -1.088921 20.376136 -1.158010 1.624263 0.049332 -0.007681 -307214.000000 1 0 0
7.294075 -17.404103 -3.233021 19.145724 -1.173933 1.740473 0.030819 -0.005780 250175.000000 1 0 0
4.654775 -18.346103 5.809379 19.798871 -1.322319 1.272994 0.041068 0.000426 174049.000000 1 0 0
9.769875 -17.169203 -2.566621 19.920330 -1.053457 1.700000 0.049727 -0.009040 -925327.000000 1 0 0
-9.625025 -12.272503 -9.858621 18.451229 0.905717 2.134484 0.043100 -0.017346 -992034.000000 1 0 0
-5.089825 -7.040803 -12.178721 14.959962 0.944863 2.521953 0.006565 0.002422 418671.000000 1 0 0
-10.965225 -9.486803 -5.513021 15.512221 0.713236 1.934137 0.019185 -0.008266 76367.200000 1 0 0
-4.464025 -11.512903 -13.995721 18.664262 1.200902 2.418658 0.023818 -0.002407 363692.000000 1 0 0
-3.170125 -15.522403 7.442479 17.503862 1.369338 1.131624 0.008313 -0.001734 322615.000000 1 0 0
-4.782525 -12.034403 -11.563221 17.361091 1.192530 2.299687 0.021671 -0.000054 522144.000000 1 0 0
-14.343625 -12.950803 -4.292421 19.796155 0.734413 1.789363 0.025877 -0.010403 -578944.000000 1 0 0
-3.222825 -12.265003 -3.273621 13.097080 1.313839 1.823425 0.004494 -0.001814 907495.000000 1 0 0
-2.485425 -17.296503 -1.597021 17.546989 1.428078 1.661936 -0.008664 -0.009750 -1106910.000000 1 0 0
-5.720825 -12.192603 3.702779 13.967748 1.132087 1.302494 0.003069 -0.000777 809236.000000 1 0 0
-8.909325 -10.873003 -11.867721 18.396768 0.884338 2.271948 0.034877 -0.005498 298556.000000 1 0 0
-10.065825 -12.146003 -7.294621 17.379808 0.878778 2.003931 0.032345 -0.014893 -158796.000000 1 0 0
-10.941525 -15.189103 6.129779 19.697716 0.946540 1.254349 0.056508 -0.008970 -596946.000000 1 0 0
-9.296325 -15.817203 0.546579 18.354953 1.039444 1.541014 0.017042 0.001469 -2294360.000000 1 0 0
-14.772025 -7.676203 -8.131121 18.527060 0.479239 2.025146 0.020224 -0.016187 -242671.000000 1 0 0
-2.343825 -16.534903 5.144179 17.474527 1.429984 1.271988 0.010275 -0.008372 525558.000000 1 0 0
4.409175 -15.718303 5.672579 17.282477 -1.297313 1.236370 0.033231 -0.009972 -631889.000000 1 0 0
4.181875 -14.581903 -9.969721 18.152557 -1.291507 2.152225 0.003603 0.001739 -523972.000000 1 0 0
-7.455525 -14.154003 -0.339121 16.001114 1.085984 1.591992 0.003000 0.003433 1466020.000000 1 0 0
3.013675 -14.851203 9.622779 17.950998 -1.370590 1.005036 0.024152 -0.011092 -1049510.000000 1 0 0
2.413075 -17.274703 10.392779 20.303895 -1.432006 1.033446 0.046660 -0.011341 -383643.000000 1 0 0
-8.353825 -17.032603 -5.918321 19.872657 1.114809 1.873196 0.034785 -0.018341 -537569.000000 1 0 0
-6.515025 -9.194203 -7.765921 13.685337 0.954321 2.174218 0.014105 -0.005610 304955.000000 1 0 0
-6.035625 -13.052603 -4.831321 15.170395 1.137672 1.894912 0.003519 -0.005435 112421.000000 1 0 0
2.141075 -19.468603 -4.658421 20.132352 -1.461261 1.804302 0.013759 -0.012153 -34113.000000 1 0 0
-5.482025 -13.082803 8.251079 16.410138 1.173997 1.043957 0.011537 -0.003899 1200560.000000 1 0 0
2.194275 -17.448803 3.370479 17.906303 -1.445698 1.381438 0.017699 -0.010245 660166.000000 1 0 0
-17.594225 -10.128703 -2.647621 20.473331 0.522348 1.700480 0.028166 -0.018385 567485.000000 1 0 0
-3.329525 -15.528703 2.593479 16.092001 1.359583 1.408925 -0.002230 -0.002489 -148668.000000 1 0 0
-10.244725 -10.416103 -14.106321 20.308567 0.793693 2.338659 0.053836 -0.011932 95222.600000 1 0 0
6.122275 -14.528603 -5.649821 16.747628 -1.171983 1.914897 0.003645 -0.000999 319390.000000 1 0 0
-7.265725 -12.352703 -10.686321 17.876730 1.039107 2.211523 0.031214 -0.013173 -2141010.000000 1 0 0
-7.204625 -14.260903 3.768779 16.415958 1.102996 1.339150 0.001790 0.003793 930503.000000 1 0 0
3.254875 -14.992903 -3.217821 15.675960 -1.357019 1.777537 0.006546 -0.002218 933040.000000 1 0 0
-7.600925 -11.531103 7.800079 15.861325 0.988004 1.056678 0.014554 -0.009576 -1222570.000000 1 0 0
-12.670425 -12.432103 -0.968721 17.777381 0.775905 1.625315 0.008657 0.003564 -1482990.000000 1 0 0
-1.943125 -13.670003 3.982779 14.370360 1.429597 1.289967 0.004448 -0.002680 -2218260.000000 1 0 0
-3.157025 -13.975603 5.198779 15.241771 1.348630 1.222723 0.003766 -0.003399 29589.000000 1 0 0
-14.553425 -10.370003 -4.500921 18.428169 0.619097 1.817534 0.019288 -0.007780 601686.000000 1 0 0
-6.155125 -8.694403 -10.484321 14.946545 0.954761 2.348233 0.015992 -0.003029 280244.000000 1 0 0
0.828775 -19.463003 2.292679 19.615089 -1.528240 1.453645 0.016427 -0.009594 108932.000000 1 0 0
6.473775 -14.198503 -8.243821 17.648451 -1.143007 2.056819 0.010874 0.003700 -2323280.000000 1 0 0
-3.959825 -16.707103 -5.799221 18.122871 1.338076 1.896520 -0.000658 -0.013305 14470.300000 1 0 0
-3.633125 -13.831203 -13.140721 19.421131 1.313923 2.313959 0.032779 0.005753 -810399.000000 1 0 0
-8.239125 -14.592103 -4.683421 17.399629 1.056791 1.843325 0.016445 -0.009913 -2566570.000000 1 0 0
-4.529625 -14.406803 10.184179 18.215130 1.266173 0.977490 0.014586 -0.007231 -2009950.000000 1 0 0
-0.131325 -12.016303 -10.048021 15.664339 1.559868 2.267194 0.009139 0.005031 857500.000000 1 0 0
2.498275 -17.150503 6.732179 18.593100 -1.426146 1.200299 0.028884 -0.014832 -1618110.000000 1 0 0
-2.903225 -19.027203 -3.581221 19.577750 1.419381 1.754755 -0.004286 -0.016261 -1165150.000000 1 0 0
0.648575 -15.395703 -3.228421 15.743920 -1.528694 1.777320 0.000641 -0.001531 -918363.000000 1 0 0
5.807975 -17.830803 0.424179 18.757666 -1.255907 1.548181 0.018220 -0.013209 -613577.000000 1 0 0
-7.027425 -16.715203 3.833079 18.533084 1.172810 1.362469 0.005740 0.000163 239550.000000 1 0 0
-5.246425 -13.547703 -9.489721 17.352811 1.201324 2.149417 0.016960 -0.008700 22280.000000 1 0 0
5.697875 -15.209603 -2.124921 16.380265 -1.212356 1.700887 0.011777 -0.001811 -511519.000000 1 0 0
-8.847325 -10.206003 -0.460621 13.514800 0.856587 1.604886 0.004879 0.001717 215312.000000 1 0 0
-7.338125 -18.238803 -3.176121 19.914561 1.188278 1.730968 0.020642 -0.019338 121082.000000 1 0 0
7.910575 -15.935003 -1.108221 17.824973 -1.110011 1.633009 0.021240 -0.008953 -396464.000000 1 0 0
-8.084925 -10.120203 -9.543821 16.089408 0.896733 2.205792 0.030670 -0.011306 -1699480.000000 1 0 0
-9.255925 -14.927503 -7.039121 18.922255 1.015758 1.951961 0.041692 -0.015421 -674979.000000 1 0 0
-11.578925 -10.615103 -12.030421 19.785928 0.741998 2.224372 0.052424 -0.000777 -449550.000000 1 0 0
6.558475 -16.237203 2.413279 17.677225 -1.186918 1.433850 0.023015 -0.008691 529261.000000 1 0 0
-2.250725 -11.153703 -6.174021 12.945632 1.371679 2.067943 0.005368 -0.002384 -438942.000000 1 0 0
-12.432525 -15.250003 -3.420921 19.970803 0.886827 1.742941 0.030735 -0.012550 227341.000000 1 0 0
-0.546425 -19.772203 -2.819321 19.979669 1.543167 1.712378 0.018200 -0.009465 -56700.500000 1 0 0
-5.867025 -15.580403 -4.676121 17.292688 1.210655 1.844616 0.003816 -0.014752 -2831930.000000 1 0 0
1.899575 -15.978603 -1.034621 16.124347 -1.452469 1.635006 0.007228 -0.007234 -408977.000000 1 0 0
-13.215125 -11.984503 5.290279 18.607926 0.736602 1.282518 0.034511 -0.004010 340203.000000 1 0 0
2.024575 -15.140603 -8.746421 17.602177 -1.437867 2.090813 0.007855 0.002180 -141858.000000 1 0 0
-11.687925 -16.720003 -0.029421 20.400170 0.960716 1.572239 0.054184 -0.008983 483289.000000 1 0 0
-7.403825 -16.646203 -1.151021 18.254795 1.152295 1.633891 0.016937 -0.004670 870099.000000 1 0 0
-2.987025 -14.417703 -1.756121 14.828231 1.366509 1.689506 -0.004536 -0.002065 214187.000000 1 0 0
-1.783125 -10.356203 -13.312321 16.960199 1.400289 2.473356 0.004181 0.011368 -115871.000000 1 0 0
1.651375 -19.510303 4.775979 20.154129 -1.486356 1.331548 0.031416 -0.009362 210468.000000 1 0 0
-17.362025 -9.645403 2.415379 20.007693 0.507091 1.449779 0.029957 -0.001333 -826604.000000 1 0 0
-2.725025 -15.746903 -7.992421 17.868114 1.399442 2.034541 -0.003773 -0.002813 -1117420.000000 1 0 0
-10.357425 -12.190703 0.185279 15.997619 0.866525 1.559214 0.010020 0.002574 50712.600000 1 0 0
-6.746925 -11.511503 -6.710021 14.935196 1.040658 2.036751 0.016789 -0.008597 -397682.000000 1 0 0
-2.287825 -13.716403 -6.684321 15.428999 1.405523 2.018871 -0.001205 -0.003999 411945.000000 1 0 0
-14.406425 -14.464103 -1.161721 20.447615 0.787396 1.627641 0.046476 -0.005298 447886.000000 1 0 0
-9.619525 -11.273403 -4.452321 15.474109 0.864393 1.862649 0.014540 -0.008565 1130740.000000 1 0 0
9.540675 -15.254803 -5.177121 18.722609 -1.011894 1.850964 0.029333 -0.001753 265471.000000 1 0 0
-5.562325 -10.909803 -9.381821 15.426660 1.099303 2.224532 0.021310 -0.004438 -308704.000000 1 0 0
-10.384325 -15.983403 -4.916321 19.684349 0.994636 1.823227 0.035986 -0.010366 -1773160.000000 1 0 0
2.171875 -17.368403 -3.254221 17.803607 -1.446395 1.754614 0.011592 -0.004957 513163.000000 1 0 0
-0.404825 -14.512603 -8.155821 16.652235 1.542909 2.082626 0.003890 0.000103 -1792760.000000 1 0 0
-0.591425 -18.193003 -7.185821 19.569649 1.538299 1.946785 0.011549 -0.009164 -217793.000000 1 0 0
-1.784425 -9.924403 -10.591121 14.623604 1.392895 2.380740 0.002876 0.004124 475657.000000 1 0 0
-4.993325 -17.279603 2.025979 18.100347 1.289487 1.458631 0.000917 -0.004747 -52344.100000 1 0 0
0.282775 -12.901603 -2.676121 13.179262 -1.548882 1.775274 0.004317 -0.000747 -1419960.000000 1 0 0
2.582375 -14.891003 3.093179 15.426548 -1.399086 1.368918 0.014429 -0.006404 -1511700.000000 1 0 0
-9.512425 -13.147003 6.820679 17.602601 0.944444 1.172898 0.017006 -0.005407 -169630.000000 1 0 0
-0.892125 -17.792503 -4.540021 18.384255 1.520698 1.820329 0.004957 -0.010936 -710053.000000 1 0 0
-9.662425 -17.508203 -2.170021 20.114885 1.066511 1.678888 0.041788 -0.019944 -1807710.000000 1 0 0
1.249075 -16.109103 1.393079 16.217400 -1.493413 1.484790 0.006733 -0.010042 -13341.300000 1 0 0
-0.333325 -17.915603 4.123279 18.386989 1.552193 1.344623 0.014789 -0.012782 24363.800000 1 0 0
-17.348825 -9.617003 -0.130121 19.836467 0.506163 1.577356 0.005189 -0.002693 1124570.000000 1 0 0
-14.736025 -7.292103 -10.644621 19.586555 0.459518 2.145357 0.041302 -0.017197 392201.000000 1 0 0
2.855875 -12.633203 -8.840921 15.681700 -1.348472 2.169743 -0.000649 0.005700 573141.000000 1 0 0
-11.451725 -14.689903 1.626379 18.697068 0.908641 1.483700 0.029871 -0.003571 169779.000000 1 0 0
-2.164025 -15.541603 10.357879 18.801864 1.432445 0.987358 0.005083 -0.011775 -209040.000000 1 0 0
-6.987125 -15.942003 1.298779 17.454346 1.157728 1.496317 0.008454 0.000116 -1613390.000000 1 0 0
-12.493925 -15.209303 -6.071321 20.598107 0.883103 1.869992 0.042220 -0.011566 66015.500000 1 0 0
0.839375 -13.668503 -5.138821 14.626688 -1.509464 1.929790 0.005636 0.000551 -38319.600000 1 0 0
5.847775 -16.455403 -7.384721 18.960772 -1.229345 1.970856 0.025503 -0.007769 87600.800000 1 0 0
-6.620225 -12.907303 5.874079 15.650260 1.096878 1.186039 0.007455 -0.004208 215457.000000 1 0 0
-2.583125 -13.548503 0.607179 13.805909 1.382400 1.526802 0.004096 -0.002290 1646030.000000 1 0 0
-4.222225 -15.500403 0.196379 16.066370 1.304854 1.558573 -0.005508 -0.002803 -399528.000000 1 0 0
-17.848125 -7.637503 -1.914421 19.507743 0.404338 1.669091 0.017777 -0.007888 846347.000000 1 0 0
1.365175 -12.974403 -11.869121 17.637315 -1.465961 2.308993 0.004767 0.013952 -1356130.000000 1 0 0
1.304575 -17.148903 -5.791721 18.147474 -1.494869 1.895626 0.018774 -0.004043 -1119300.000000 1 0 0
-12.720425 -6.398403 -9.118621 16.908519 0.466047 2.140392 0.022326 -0.008183 597693.000000 1 0 0
-11.647525 -13.583803 -8.901521 19.985535 0.861989 2.032415 0.056705 -0.020282 729631.000000 1 0 0
-4.305325 -9.780703 3.624879 11.284402 1.156134 1.243769 0.007776 -0.002452 -4198190.000000 1 0 0
-7.011525 -14.362303 9.799779 18.747610 1.116642 1.020756 0.021109 -0.011811 -1964690.000000 1 0 0
-5.265425 -15.868903 -8.076421 18.568127 1.250419 2.020792 0.010588 -0.015095 472047.000000 1 0 0
-0.260625 -13.410303 2.115179 13.578591 1.551364 1.414386 0.006040 -0.004849 762200.000000 1 0 0
-11.040525 -13.450403 -4.705721 18.026379 0.883481 1.834902 0.033715 -0.010440 -1300600.000000 1 0 0
-9.751825 -10.617003 6.685179 15.890578 0.827848 1.136579 0.022911 -0.005367 -346178.000000 1 0 0
-15.626025 -8.028203 -4.861321 18.227922 0.474604 1.840760 0.029306 -0.010064 809745.000000 1 0 0
-14.693825 -7.411303 5.464079 17.340475 0.467147 1.250229 0.033662 -0.001197 995461.000000 1 0 0
-1.558325 -19.346003 -0.138021 19.409154 1.490420 1.577908 0.011131 -0.009635 -422170.000000 1 0 0
-15.064125 -11.952503 -1.405121 19.281197 0.670729 1.643736 0.001418 -0.003514 281979.000000 1 0 0
-4.347625 -12.148803 -6.874821 14.620479 1.227133 2.060335 0.005974 -0.007592 -1245710.000000 1 0 0
-7.312725 -18.414303 1.925379 19.906521 1.192773 1.473924 0.020928 -0.003903 -69111.800000 1 0 0
-2.426225 -11.749203 -8.678621 14.807052 1.367157 2.197051 0.002942 -0.000772 485574.000000 1 0 0
-1.259825 -20.350403 -5.210521 21.044609 1.508969 1.820993 0.020210 -0.007723 -166723.000000 1 0 0
-5.288925 -8.951003 -13.893721 17.353059 1.037113 2.499175 0.018440 0.000676 569732.000000 1 0 0
-8.112625 -19.187603 -0.962121 20.854363 1.170786 1.616948 0.028181 -0.004656 188317.000000 1 0 0
-17.226725 -7.307103 5.645379 19.545437 0.401170 1.277788 0.052363 -0.004543 -763154.000000 1 0 0
-3.661825 -14.580103 -4.262821 15.625620 1.324734 1.847109 -0.003103 -0.004818 -2968110.000000 1 0 0
-2.901325 -14.816203 -10.826021 18.577952 1.377422 2.192886 0.013938 -0.005425 -235223.000000 1 0 0
-0.021425 -16.606303 6.283979 17.755510 1.569506 1.209040 0.028678 -0.015331 -550208.000000 1 0 0
-11.167425 -11.617203 3.941179 16.589264 0.805136 1.330929 0.020715 -0.001103 -810764.000000 1 0 0
-0.206625 -14.597603 -0.149121 14.599827 1.556643 1.581010 -0.002767 -0.002337 774536.000000 1 0 0
-7.365625 -9.527803 -2.411621 12.281994 0.912695 1.768435 0.009992 -0.001522 -137088.000000 1 0 0
-11.036925 -14.452803 -0.922021 18.208442 0.918614 1.621455 0.016010 -0.002910 541561.000000 1 0 0
0.276175 -14.574803 -10.557421 17.998897 -1.551850 2.197600 0.004295 0.002305 -204943.000000 1 0 0
-1.386925 -14.103903 -3.896121 14.697734 1.472775 1.839086 -0.002565 -0.000277 -4625820.000000 1 0 0
-11.518925 -8.159203 -7.596821 16.030281 0.616295 2.064516 0.023370 -0.009999 461442.000000 1 0 0
-0.159525 -17.212203 -0.272521 17.215099 1.561528 1.586627 0.003319 -0.009333 -39148.700000 1 0 0
-12.887225 -9.539703 4.586379 16.676971 0.637229 1.292193 0.021343 -0.001261 240802.000000 1 0 0
3.929475 -16.693903 1.578779 17.222651 -1.339621 1.478999 0.017188 -0.015271 1275250.000000 1 0 0
-3.743225 -18.052803 -8.031021 20.110016 1.366345 1.981609 0.016633 -0.011739 2070.890000 1 0 0
-13.390125 -11.358403 2.737179 17.770788 0.703487 1.416154 0.011896 -0.000305 49247.000000 1 0 0
-8.589725 -12.249603 4.063979 15.503292 0.959249 1.305561 0.009919 -0.000667 1672290.000000 1 0 0
-8.337925 -9.544203 -5.957921 14.003915 0.852753 2.010252 0.012427 -0.008240 556590.000000 1 0 0
3.803075 -17.552703 -5.281621 18.720478 -1.357428 1.856811 0.002724 0.005429 -1100870.000000 1 0 0
-2.509625 -13.091303 11.201479 17.411306 1.381392 0.871937 -0.001244 -0.010399 43801.600000 1 0 0
0.060975 -16.786503 -9.409021 19.243702 -1.567164 2.081671 0.012879 -0.002613 -359834.000000 1 0 0
-6.926125 -10.959303 -14.592621 19.519788 1.007189 2.415209 0.033294 -0.000175 213858.000000 1 0 0
-4.423725 -19.002203 -1.463321 19.565131 1.342070 1.645659 0.002968 -0.012546 -114399.000000 1 0 0
-2.477025 -17.274703 1.038279 17.482249 1.428377 1.511371 0.002482 -0.010428 5621.300000 1 0 0
4.096275 -14.520103 -7.443621 16.823209 -1.295832 2.029138 0.003522 0.000081 445629.000000 1 0 0
-0.846425 -15.889203 -6.180521 17.069916 1.517576 1.941285 0.002772 -0.002631 -298176.000000 1 0 0
-9.489925 -15.206503 8.289979 19.748928 1.012866 1.137606 0.029333 -0.013934 -248746.000000 1 0 0
-7.261525 -12.089903 -1.763721 14.212889 1.029916 1.695210 0.002390 -0.000673 946954.000000 1 0 0
-7.423425 -15.064503 -9.359121 19.226014 1.112945 2.079213 0.038660 -0.013801 1077810.000000 1 0 0
-4.956925 -13.136903 -0.717821 14.059324 1.209986 1.621875 0.001954 -0.000249 257308.000000 1 0 0
-6.458325 -13.822803 -7.243021 16.889085 1.133713 2.014025 0.012063 -0.010093 546130.000000 1 0 0
5.774475 -15.307103 0.286279 16.362577 -1.210062 1.553299 0.012620 -0.006592 -703669.000000 1 0 0
-14.419125 -12.963603 0.976879 19.414439 0.732293 1.520458 0.012052 -0.002304 1014230.000000 1 0 0
0.939275 -15.317103 11.149679 18.968691 -1.509551 0.942467 0.017960 -0.009034 12859.700000 1 0 0
-9.450325 -10.681303 1.968079 14.396951 0.846469 1.433666 0.006092 0.003249 462875.000000 1 0 0
-9.418625 -8.792603 -3.552321 13.365603 0.751036 1.839810 0.011310 -0.004026 -856879.000000 1 0 0
-12.251925 -7.403103 -12.235421 18.831387 0.543531 2.278033 0.032948 -0.010359 489647.000000 1 0 0
-13.364325 -8.442403 -0.646021 15.820768 0.563411 1.611641 0.001084 -0.001111 -618542.000000 1 0 0
-11.270525 -9.687403 0.373579 14.866407 0.710003 1.545665 0.001650 0.003471 222897.000000 1 0 0
-15.778925 -12.333803 3.106779 20.266950 0.663459 1.416897 0.037651 0.003761 239976.000000 1 0 0
-10.365825 -12.560303 -2.398321 16.460968 0.880827 1.717014 0.017239 -0.005028 829360.000000 1 0 0
-3.333625 -8.862303 -12.193121 15.437800 1.211011 2.481316 0.004311 0.004518 -1821390.000000 1 0 0
-0.220925 -15.468803 3.930679 15.961921 1.556515 1.321984 0.015632 -0.010020 -1184580.000000 1 0 0
-15.778325 -7.896303 1.203779 17.684915 0.464010 1.502676 -0.000266 0.002253 528518.000000 1 0 0
-6.111025 -13.490103 -13.269221 19.884661 1.145450 2.301387 0.031681 -0.005385 -780065.000000 1 0 0
-15.267525 -10.449503 1.131579 18.535639 0.600197 1.509710 0.003964 0.001271 -7123.050000 1 0 0
-9.928825 -8.603603 -12.418921 18.078527 0.714011 2.328071 0.029338 -0.006565 271948.000000 1 0 0
-13.167825 -11.650603 -6.233421 18.654321 0.724341 1.911504 0.021375 -0.014288 -209957.000000 1 0 0
-12.251325 -11.461903 -3.745921 17.190175 0.752120 1.790469 0.013383 -0.004516 -151055.000000 1 0 0
-11.733025 -11.002503 -9.036821 18.449474 0.753278 2.082673 0.036098 -0.025035 830346.000000 1 0 0
-13.294425 -8.521603 -5.843621 16.837677 0.570016 1.925227 0.016676 -0.009121 -2513920.000000 1 0 0
-13.561125 -8.260503 -3.245121 16.207123 0.547107 1.772387 0.009553 -0.004860 371496.000000 1 0 0
-4.479425 -16.989003 -3.191821 17.857189 1.312997 1.750504 -0.000212 -0.014454 -5657.530000 1 0 0
-15.495325 -8.978303 -1.809121 17.999665 0.525150 1.671475 0.007360 -0.002186 -705222.000000 1 0 0
-9.431825 -15.777103 3.587879 18.728299 1.031983 1.378029 0.019992 -0.001245 -388630.000000 1 0 0
4.767475 -16.880903 7.980779 19.271392 -1.295547 1.143814 0.051836 -0.031969 242471.000000 1 0 0
-8.360925 -15.416503 5.863179 18.491904 1.073856 1.248161 0.013610 -0.000905 934349.000000 1 0 0
1.015375 -15.997003 8.571379 18.177008 -1.507409 1.079748 0.020758 -0.012582 44829.600000 1 0 0
-10.896725 -7.906303 -10.105521 16.833591 0.627680 2.214696 0.024934 -0.008511 722493.000000 1 0 0
-4.818725 -15.797003 5.570179 17.429639 1.274722 1.245509 0.006356 -0.012290 -1944070.000000 1 0 0
-1.301225 -13.215603 -12.145021 17.995746 1.472651 2.311602 0.008769 0.008088 -435438.000000 1 0 0
-6.572925 -14.311903 -2.671321 15.974037 1.140266 1.738815 0.009861 -0.005072 509223.000000 1 0 0
-17.528625 -7.107003 -7.060521 20.189431 0.385197 1.928062 0.039354 -0.020256 115114.000000 1 0 0
-17.168125 -3.992903 -10.158321 20.344023 0.228514 2.093618 0.046142 -0.016546 414195.000000 1 0 0
-15.193225 -5.323003 -9.037421 18.461945 0.336990 2.082331 0.022129 -0.014467 108787.000000 1 0 0
-16.004725 -5.483303 -5.612521 17.824652 0.330072 1.891120 0.026363 -0.012706 428791.000000 1 0 0
-15.229825 -4.427003 -12.225221 20.025033 0.282884 2.227484 0.046299 -0.016808 191748.000000 1 0 0
-18.623225 -5.276703 -5.587121 20.146564 0.276103 1.851804 0.040667 -0.015824 -277776.000000 1 0 0
-17.367625 -4.684003 -7.724921 19.576738 0.263430 1.976425 0.037443 -0.014267 502745.000000 1 0 0
12.329475 -7.952003 8.790579 17.103350 -0.572823 1.030992 0.036112 -0.005861 243634.000000 1 0 0
16.065775 -3.219503 1.694279 16.472550 -0.197775 1.467759 0.023073 -0.009027 805675.000000 1 0 0
12.203475 -2.134803 12.442979 17.558756 -0.173182 0.783216 0.037463 -0.008664 416619.000000 1 0 0
9.726275 -10.079603 5.219979 14.948144 -0.803236 1.214073 0.011408 -0.004391 470176.000000 1 0 0
17.104775 -2.059603 7.270879 18.699759 -0.119834 1.171444 0.061595 -0.018153 -846189.000000 1 0 0
5.034775 -12.744903 8.985479 16.386590 -1.194571 0.990414 0.010752 -0.004969 -385496.000000 1 0 0
15.084575 -9.047703 -2.143021 17.719985 -0.540271 1.692031 0.028738 -0.005194 315168.000000 1 0 0
11.156875 -8.541003 6.475279 15.471064 -0.653371 1.138958 0.019554 -0.005823 -1634230.000000 1 0 0
19.947575 -3.221503 3.551079 20.515701 -0.160116 1.396829 0.085187 -0.020942 610939.000000 1 0 0
13.694175 -8.590903 6.834379 17.551147 -0.560280 1.170819 0.033546 -0.006658 -1139530.000000 1 0 0
8.402175 -11.078403 8.804179 16.457251 -0.921923 1.006321 0.013324 -0.005121 -1546820.000000 1 0 0
16.931675 -0.024203 -0.727721 16.947324 -0.001429 1.613750 0.026918 0.003162 -1186960.000000 1 0 0
12.389275 -12.405803 2.357979 17.690623 -0.786065 1.437109 0.010087 -0.004750 -1697710.000000 1 0 0
10.321775 -11.701603 3.610779 16.015751 -0.847969 1.343390 0.007444 -0.002222 -954000.000000 1 0 0
16.487875 2.944997 2.445479 16.926411 0.176752 1.425812 0.028371 0.002892 264721.000000 1 0 0
18.405575 -3.307503 0.366979 18.703995 -0.177803 1.551175 0.046932 -0.009496 389073.000000 1 0 0
13.646075 -11.773903 -0.065521 18.023442 -0.711881 1.574432 0.036148 -0.002888 -44755.800000 1 0 0
16.936975 -7.685603 -0.786821 18.615819 -0.425990 1.613075 0.041676 -0.005556 -169407.000000 1 0 0
10.327575 -5.732703 9.694879 15.281144 -0.506740 0.883520 0.020872 -0.007910 -708760.000000 1 0 0
11.401975 -13.331503 6.165679 18.594343 -0.863253 1.232809 0.024533 -0.002150 -222313.000000 1 0 0
13.172875 -1.729903 10.191079 16.744411 -0.130576 0.916469 0.029409 -0.007903 1125410.000000 1 0 0
15.543775 -2.055403 -1.462621 15.747155 -0.131470 1.663812 0.016839 0.000716 -570165.000000 1 0 0
10.560475 -12.437803 9.260779 18.761253 -0.866847 1.054558 0.030450 -0.006046 298164.000000 1 0 0
14.676475 1.223697 3.279779 15.088184 0.083186 1.351673 0.018271 -0.002840 1399120.000000 1 0 0
14.876875 -5.929203 5.220879 16.844418 -0.379257 1.255659 0.037087 -0.010168 -905768.000000 1 0 0
14.278275 -3.371403 -3.091321 14.993057 -0.231874 1.778469 0.013457 -0.000392 1295880.000000 1 0 0
14.102675 0.692197 9.517679 17.027942 0.049043 0.977684 0.036040 -0.010968 -110594.000000 1 0 0
15.507975 -3.510903 4.369179 16.489798 -0.222640 1.302631 0.029465 -0.011278 -365836.000000 1 0 0
18.506775 4.931297 -4.294521 19.628075 0.260409 1.791376 0.020098 0.008523 387735.000000 1 0 0
18.349575 -5.746803 -5.025121 19.874217 -0.303508 1.826417 0.084311 -0.015014 409952.000000 1 0 0
17.371075 0.039897 5.971079 18.368713 0.002297 1.239713 0.057274 -0.009798 571231.000000 1 0 0
16.922675 -6.491703 3.945079 18.549469 -0.366297 1.356481 0.049249 -0.018803 -160440.000000 1 0 0
9.816175 -6.628003 14.225179 18.510630 -0.593896 0.694323 0.038284 -0.010438 -918519.000000 1 0 0
8.537475 -12.293503 5.138379 15.824716 -0.963791 1.240096 0.008994 -0.006645 -2197470.000000 1 0 0
16.735875 -10.352203 -0.534521 19.686120 -0.553957 1.597952 0.041099 -0.004527 -203142.000000 1 0 0
14.967875 -8.800703 0.476779 17.370002 -0.531529 1.543344 0.036191 -0.004996 88048.300000 1 0 0
9.988375 -12.918503 1.428679 16.391964 -0.912622 1.483528 0.014919 -0.006025 240001.000000 1 0 0
17.084575 -8.251103 8.796379 20.912668 -0.449920 1.136663 0.064820 -0.005740 442021.000000 1 0 0
19.194575 -0.111403 -1.885321 19.287264 -0.005804 1.668702 0.049899 -0.002145 -67262.900000 1 0 0
13.469575 -1.131203 7.729679 15.571031 -0.083785 1.051333 0.019041 -0.010300 168541.000000 1 0 0
12.823375 -9.871803 -3.081221 16.473778 -0.656071 1.758942 0.028356 -0.003108 -1069830.000000 1 0 0
8.800575 -15.180203 1.500279 17.610778 -1.045407 1.485502 0.024702 -0.006740 -2016670.000000 1 0 0
11.604875 -8.352703 11.260779 18.200162 -0.623864 0.903686 0.047153 -0.009545 480960.000000 1 0 0
13.968275 -4.024903 -0.568221 14.547695 -0.280546 1.609865 0.012505 -0.003927 -916775.000000 1 0 0
7.142175 -13.323403 10.465679 18.386249 -1.078717 0.965249 0.021652 -0.004530 174983.000000 1 0 0
15.454775 -6.618103 1.754279 16.903457 -0.404598 1.466827 0.023947 -0.006085 1170610.000000 1 0 0
16.078575 -6.142703 -2.651321 17.415019 -0.364931 1.723634 0.048991 -0.006922 143820.000000 1 0 0
11.150675 -8.516803 3.888079 14.559898 -0.652270 1.300476 0.014583 -0.003834 542822.000000 1 0 0
10.580575 -14.620203 -0.434421 18.052358 -0.944344 1.594863 0.029923 -0.011370 612713.000000 1 0 0
13.462175 -12.831103 4.638979 19.167355 -0.761402 1.326344 0.014056 -0.001037 616359.000000 1 0 0
12.785775 -11.132603 6.551079 18.174915 -0.716391 1.202050 0.018697 -0.004056 1429850.000000 1 0 0
10.860775 -10.401103 1.493979 15.111960 -0.763782 1.471774 0.008227 -0.004205 196328.000000 1 0 0
14.054975 -7.624703 12.022479 20.005460 -0.497060 0.926095 0.061202 -0.014554 1561010.000000 1 0 0
15.322775 -1.741403 -4.982421 16.206309 -0.113162 1.883295 0.024464 0.001051 -337721.000000 1 0 0
12.948475 -11.479403 -7.098221 18.703594 -0.725331 1.960064 0.060415 -0.013284 221072.000000 1 0 0
17.656375 -5.233603 1.923979 18.515936 -0.288164 1.466699 0.062649 -0.014164 93921.300000 1 0 0
10.653275 -9.824303 9.276279 17.206352 -0.744938 1.001405 0.024637 -0.002971 -722193.000000 1 0 0
16.473175 1.705097 9.902279 19.295802 0.103140 1.031907 0.064890 -0.015755 722866.000000 1 0 0
18.280175 3.749097 0.597879 18.670243 0.202286 1.538768 0.022836 0.007931 558049.000000 1 0 0
13.324975 -4.009203 5.771379 15.064444 -0.292263 1.177633 0.019507 -0.008599 -669173.000000 1 0 0
12.202175 -6.247903 6.704179 15.260255 -0.473227 1.115952 0.018328 -0.006024 -176702.000000 1 0 0
16.627775 -10.280103 3.585479 19.875087 -0.553730 1.389403 0.026838 -0.003730 -1013020.000000 1 0 0
16.325875 -8.119703 -5.454121 19.031847 -0.461527 1.861450 0.059851 -0.011917 737439.000000 1 0 0
14.078275 -0.221203 5.365879 15.067827 -0.015711 1.206689 0.017527 -0.007988 489322.000000 1 0 0
18.274375 -4.314703 5.324879 19.517269 -0.231861 1.294464 0.070961 -0.015480 88652.600000 1 0 0
13.717675 -13.524703 7.148379 20.547300 -0.778315 1.215467 0.035474 -0.003510 -163661.000000 1 0 0
15.087975 -13.767703 -0.977621 20.448774 -0.739676 1.618623 0.041757 -0.002296 552676.000000 1 0 0
18.018575 -5.919403 7.981079 20.576832 -0.317409 1.172480 0.085875 -0.014253 585359.000000 1 0 0
14.394575 3.362197 9.542879 17.594735 0.229460 0.997539 0.045476 -0.012363 -2564050.000000 1 0 0
18.906575 3.747297 3.154479 19.530785 0.195665 1.408573 0.050172 0.003258 471000.000000 1 0 0
14.813575 -10.644403 8.149279 19.978891 -0.623072 1.150650 0.026003 -0.001897 -28461.200000 1 0 0
14.824875 -4.823103 10.387079 18.733143 -0.314538 0.983063 0.056352 -0.012526 170833.000000 1 0 0
17.813175 -7.875203 2.031779 19.582036 -0.416265 1.466852 0.082579 -0.013900 163545.000000 1 0 0
18.553675 -5.973203 -1.837021 19.577861 -0.311463 1.664766 0.060594 -0.012940 -1340740.000000 1 0 0
14.412775 -12.842803 -5.404521 20.046808 -0.727860 1.843769 0.075533 -0.021554 -89556.300000 1 0 0
15.639175 -1.318403 9.242879 18.214082 -0.084102 1.038564 0.066628 -0.017982 -210703.000000 1 0 0
13.080475 -10.226503 10.281679 19.529289 -0.663553 1.016347 0.038348 -0.010664 -672642.000000 1 0 0
16.538475 2.261497 4.951479 17.411280 0.135899 1.282433 0.043123 -0.005072 -1190800.000000 1 0 0
15.216475 2.465297 0.028079 15.414914 0.160619 1.568975 0.015898 0.007014 -1280880.000000 1 0 0
15.064775 -9.883103 -6.954321 19.312839 -0.580610 1.939159 0.063663 -0.013577 529185.000000 1 0 0
16.084575 0.020697 -3.188921 16.397658 0.001287 1.766518 0.015590 0.006061 301714.000000 1 0 0
11.988575 2.388297 13.545079 18.245522 0.196640 0.734183 0.038045 -0.004151 -608458.000000 1 0 0
17.596075 -3.036703 9.633979 20.289331 -0.170895 1.076026 0.053858 -0.017808 319552.000000 1 0 0
8.050175 -18.227803 4.561379 20.441729 -1.154914 1.345761 0.055804 -0.015673 -35537.900000 1 0 0
6.855975 -11.164103 6.629679 14.683127 -1.020067 1.102332 0.010339 -0.006769 181779.000000 1 0 0
18.064475 2.216997 -1.501921 18.261876 0.122116 1.653133 0.023830 0.009551 86970.800000 1 0 0
17.561375 -2.295003 3.608579 18.074589 -0.129948 1.369796 0.033013 -0.012872 -1317260.000000 1 0 0
12.635875 -13.513703 -1.775721 18.585981 -0.818955 1.666483 0.039482 -0.003504 -519875.000000 1 0 0
15.033375 -8.328603 4.316979 17.720166 -0.505915 1.324700 0.022759 -0.002937 227134.000000 1 0 0
12.007875 -3.163403 14.825279 19.338694 -0.257591 0.697248 0.054178 -0.013974 205658.000000 1 0 0
12.220575 -13.904803 -6.372921 19.578052 -0.849776 1.902351 0.049371 -0.012442 187924.000000 1 0 0
10.621575 -12.050503 -1.253921 16.112256 -0.848341 1.648699 0.026218 -0.006933 -747716.000000 1 0 0
13.190275 -7.998403 2.180279 15.579198 -0.545102 1.430387 0.017815 -0.000806 127605.000000 1 0 0
8.822675 -7.803603 10.040979 15.477631 -0.724182 0.864867 0.017552 -0.004865 -846246.000000 1 0 0
15.559875 -3.729403 8.079579 17.924780 -0.235243 1.103192 0.055330 -0.017789 -840720.000000 1 0 0
10.415975 -17.087103 4.952079 20.615157 -1.023362 1.328209 0.053762 -0.023249 114101.000000 1 0 0
15.397575 -6.305403 8.402679 18.639969 -0.388674 1.103148 0.062327 -0.005008 344980.000000 1 0 0
16.609575 -4.991103 -0.381621 17.347470 -0.291911 1.592797 0.026918 -0.005853 -716020.000000 1 0 0
14.024475 -10.567303 3.369079 17.880282 -0.645731 1.381239 0.023135 -0.002228 1226100.000000 1 0 0
14.977375 -10.068503 -4.392021 18.573808 -0.591856 1.809520 0.057555 -0.013618 181744.000000 1 0 0
13.546575 -6.604403 -0.013521 15.070767 -0.453624 1.571693 0.016858 -0.002478 -386552.000000 1 0 0
17.754275 -0.860003 -4.942421 18.449428 -0.048401 1.841999 0.046611 -0.002198 -40817.800000 1 0 0
14.452875 0.306897 -1.375321 14.521408 0.021231 1.665648 0.014585 0.003222 -3017780.000000 1 0 0
4.934075 -12.925603 11.615779 18.064956 -1.206140 0.872386 0.007793 -0.000578 -326256.000000 1 0 0
12.140975 -7.449003 13.672479 19.744052 -0.550318 0.805867 0.056061 -0.013020 436744.000000 1 0 0
12.161375 -5.745403 11.618979 17.773839 -0.441350 0.858316 0.041867 -0.010297 169250.000000 1 0 0
13.302675 -4.666903 8.323579 16.371411 -0.337409 1.037446 0.032349 -0.009870 -1420920.000000 1 0 0
15.355675 -1.130903 3.177879 15.721788 -0.073515 1.367262 0.019477 -0.002763 56052.800000 1 0 0
15.238575 -10.352303 5.723079 19.290878 -0.596731 1.269590 0.025033 -0.004905 355737.000000 1 0 0
13.722975 -8.066803 -5.588521 16.870830 -0.531424 1.908428 0.044875 -0.009781 -564144.000000 1 0 0
9.866875 -2.332603 13.626379 16.984536 -0.232145 0.639689 0.029446 -0.007078 -1315640.000000 1 0 0
10.089575 -9.223203 13.823379 19.441008 -0.740568 0.779817 0.054486 -0.004174 -82494.300000 1 0 0
20.312975 6.343897 -3.121621 21.508289 0.302710 1.716446 0.068341 0.011382 1353060.000000 1 0 0
11.256175 -3.584503 10.483079 15.793830 -0.308294 0.844981 0.020656 -0.006337 781867.000000 1 0 0
10.361375 -14.080803 -2.989421 17.735945 -0.936412 1.740156 0.033626 -0.002726 578411.000000 1 0 0
14.914675 -12.828203 2.543679 19.836346 -0.710332 1.442209 0.022816 0.001040 840983.000000 1 0 0
11.638075 -0.625603 14.477879 18.586155 -0.053703 0.677790 0.054831 -0.006175 330814.000000 1 0 0
19.074075 -1.892903 5.625379 19.976193 -0.098916 1.285331 0.083201 -0.020872 569231.000000 1 0 0
19.098375 -0.469203 7.901679 20.673766 -0.024563 1.178612 0.090840 -0.020790 362918.000000 1 0 0
19.201575 0.825897 0.435279 19.224257 0.042985 1.548152 0.042306 -0.001076 548613.000000 1 0 0
18.476675 0.894697 3.785579 18.881700 0.048385 1.368939 0.034540 -0.008321 -235625.000000 1 0 0
16.686075 -3.865403 -4.241921 17.645405 -0.227639 1.813572 0.040876 -0.005736 -715748.000000 1 0 0
11.132875 -8.181803 15.931479 21.087789 -0.633782 0.714404 0.072374 -0.020257 559971.000000 1 0 0
16.592675 -7.518203 6.389979 19.304716 -0.425432 1.233427 0.047158 -0.009123 604675.000000 1 0 0
18.797575 2.167697 6.131379 19.890740 0.114811 1.257440 0.050465 -0.006612 -20048.700000 1 0 0
15.263875 2.010297 7.572379 17.157159 0.130949 1.113689 0.037726 -0.010311 75638.100000 1 0 0
8.578775 -15.547603 3.939779 18.189150 -1.066592 1.352465 0.022648 -0.021531 148232.000000 1 0 0
11.406775 -15.172003 1.890479 19.075589 -0.926125 1.471529 0.030637 -0.008616 320145.000000 1 0 0
8.330075 -16.231703 6.253279 19.286312 -1.096646 1.240594 0.032873 -0.008991 15551.500000 1 0 0
14.522075 -11.721203 -2.452021 18.822584 -0.679073 1.701438 0.040389 -0.008643 659329.000000 1 0 0
13.635575 -4.855103 3.186179 14.820684 -0.342065 1.354123 0.014560 -0.004114 -2355550.000000 1 0 0
-1.082825 10.254797 -5.535921 11.703837 -1.465594 2.063490 0.003330 0.002416 -2299700.000000 1 0 0
8.320575 -1.724803 -7.946221 11.633974 -0.204399 2.322684 0.007838 -0.004684 -1963720.000000 1 0 0
2.869975 -9.990803 7.596079 12.874522 -1.291067 0.939727 0.002461 -0.005190 709539.000000 1 0 0
-6.355225 1.243597 8.363179 10.577248 -0.193239 0.658884 0.000490 -0.000377 -271524.000000 1 0 0
7.566175 -6.227203 -7.367021 12.259611 -0.688628 2.215445 0.005909 -0.004947 38835.800000 1 0 0
-11.370325 -4.530103 -4.132221 12.918257 0.379139 1.896393 0.006923 -0.004764 99966.700000 1 0 0
2.085775 -3.277903 2.953479 4.880383 -1.004103 0.920812 0.003476 -0.002830 1483890.000000 1 0 0
-3.560025 -4.230803 8.824379 10.413603 0.871285 0.559747 0.006404 -0.001706 -1928580.000000 1 0 0
-4.865725 -1.039303 -2.310121 5.485626 0.210434 2.005479 0.005814 -0.005765 -422092.000000 1 0 0
4.909375 -5.149803 -3.725821 8.031449 -0.809295 2.053193 0.007795 -0.004581 201821.000000 1 0 0
2.700875 14.272497 -8.866321 17.017948 1.383772 2.118816 0.008971 -0.004546 -376833.000000 1 0 0
5.556475 -5.512603 13.632879 15.720006 -0.781435 0.521182 0.021200 -0.008335 -1262810.000000 1 0 0
-4.790825 -0.901603 9.895479 11.031110 0.186018 0.457744 0.008709 0.000163 -815363.000000 1 0 0
-1.035325 11.993097 -2.689921 12.334584 -1.484683 1.790643 0.000147 0.000008 -1012290.000000 1 0 0
3.031475 9.391097 -10.505221 14.413265 1.258553 2.387449 0.002473 -0.003371 -752605.000000 1 0 0
-10.691225 2.673197 1.114879 11.076607 -0.245013 1.469974 0.005052 -0.003913 202339.000000 1 0 0
5.601675 -8.906103 -0.737621 10.547109 -1.009347 1.640789 0.000465 -0.002403 670969.000000 1 0 0
-7.125325 5.414697 9.448579 13.014025 -0.649822 0.758265 -0.004076 -0.000548 -312816.000000 1 0 0
-5.562225 -1.826203 5.164479 7.806741 0.317234 0.847925 0.005458 -0.004442 616657.000000 1 0 0
6.687075 -3.794003 -7.374221 10.653195 -0.516076 2.335340 0.008542 -0.005256 511538.000000 1 0 0
6.209575 4.627797 11.073079 13.512528 0.640466 0.610315 0.002754 0.002888 120643.000000 1 0 0
3.723775 -9.917003 3.252479 11.081158 -1.211593 1.272895 -0.002070 -0.004729 823890.000000 1 0 0
-6.605625 6.730297 -5.833221 11.088627 -0.794746 2.124751 0.006456 -0.004900 435.407000 1 0 0
-11.071425 8.352197 5.265579 14.834486 -0.646306 1.207930 0.001408 -0.006955 -299518.000000 1 0 0
-9.162525 -5.561703 5.031579 11.840658 0.545555 1.131900 0.006280 -0.001784 -692820.000000 1 0 0
3.232075 9.824797 -7.998521 13.074758 1.252977 2.229071 0.004883 -0.003579 836197.000000 1 0 0
-8.106825 -8.592103 6.089279 13.290002 0.814450 1.094844 0.008676 -0.001249 -2684860.000000 1 0 0
-7.765625 -5.646503 -7.524621 12.198682 0.628693 2.235516 0.010001 -0.003635 -977340.000000 1 0 0
9.305675 -1.552503 6.998379 11.746623 -0.165311 0.932562 0.007998 -0.006148 3108280.000000 1 0 0
-4.088525 -0.281403 -4.782321 6.298081 0.068719 2.433079 0.007414 -0.008256 -751430.000000 1 0 0
9.064575 1.163297 -4.554421 10.210903 0.127637 2.033127 0.005344 -0.000029 -3116810.000000 1 0 0
-1.882825 -10.667503 10.686079 15.216206 1.396095 0.792197 -0.002807 -0.006308 11352.600000 1 0 0
-12.928025 0.333697 -2.664121 13.203891 -0.025806 1.773959 0.008168 -0.006461 -409906.000000 1 0 0
-9.747125 -5.336103 -5.998521 12.627854 0.500886 2.065786 0.009789 -0.002537 -298312.000000 1 0 0
-5.676625 8.350897 -0.166321 10.098971 -0.973782 1.587266 0.004640 -0.000581 232114.000000 1 0 0
6.274375 9.628197 0.313979 11.496458 0.993250 1.543482 0.009477 -0.002029 569138.000000 1 0 0
-0.506625 -12.070003 0.033379 12.080677 1.528847 1.568033 0.007107 -0.001800 -110815.000000 1 0 0
6.208075 4.798297 2.328179 8.184392 0.658004 1.282347 0.001967 0.000313 396807.000000 1 0 0
3.446975 -7.346303 -8.217321 11.548773 -1.132081 2.362472 0.002231 -0.000649 1293060.000000 1 0 0
-6.529525 -9.951803 4.700079 12.797024 0.990134 1.194714 0.007579 -0.001211 -2468980.000000 1 0 0
-0.021225 6.479997 -9.220121 11.269492 -1.567521 2.528980 0.004543 -0.004711 -1185030.000000 1 0 0
-17.303125 -2.773303 4.288679 18.041123 0.158926 1.330782 0.028592 -0.003817 440073.000000 1 0 0
-8.379125 0.775697 -9.073021 12.374617 -0.092312 2.393806 0.003784 -0.004277 901158.000000 1 0 0
-10.071825 -5.986603 -11.769621 16.607379 0.536285 2.358448 0.015501 0.003244 -444673.000000 1 0 0
2.284875 9.416897 6.343479 11.581810 1.332761 0.991171 -0.001616 0.005281 393684.000000 1 0 0
-11.434825 1.755497 -1.187221 11.629552 -0.152333 1.673061 0.006898 -0.005387 -1697520.000000 1 0 0
-6.061125 -5.304203 -3.067321 8.618600 0.718897 1.934668 0.013808 -0.003444 615223.000000 1 0 0
-6.940925 -8.367103 1.316179 10.950670 0.878295 1.450313 0.010613 0.000284 -175021.000000 1 0 0
0.046675 10.923297 -7.833121 13.441666 1.566523 2.192904 0.005966 0.000887 847403.000000 1 0 0
-2.987825 9.329997 -4.186021 10.653578 -1.260877 1.974603 0.006789 -0.002185 486757.000000 1 0 0
3.456675 -4.813603 9.317579 11.042493 -0.948022 0.566484 0.008501 -0.005339 -864419.000000 1 0 0
-9.028425 1.551997 -0.546821 9.177155 -0.170237 1.630417 0.004642 -0.004201 -1608700.000000 1 0 0
2.443175 3.652097 -10.438021 11.325158 0.981195 2.743151 0.004155 -0.004048 92285.900000 1 0 0
-13.785725 0.472497 1.114879 13.838801 -0.034261 1.490147 0.007039 -0.006985 -282061.000000 1 0 0
9.532075 -12.676203 -5.080021 16.653924 -0.926038 1.880771 0.027297 -0.002273 -2172360.000000 1 0 0
-4.692925 9.489597 -8.223321 13.405186 -1.111531 2.231210 0.003673 -0.001851 -449923.000000 1 0 0
-2.434825 7.133497 8.411479 11.294606 -1.241873 0.730660 0.003504 -0.000193 -1101480.000000 1 0 0
-10.657925 -1.070403 -4.404221 11.581636 0.100097 1.960891 0.004111 -0.002620 -2486850.000000 1 0 0
2.757275 -7.083903 9.673679 12.303020 -1.199608 0.666023 0.001308 -0.003748 -401758.000000 1 0 0
-16.185625 -6.504403 3.352279 17.762868 0.382111 1.380934 0.021993 -0.001884 2100.540000 1 0 0
-10.798325 -0.113103 6.067179 12.386576 0.010474 1.058914 -0.001748 0.000162 -1306680.000000 1 0 0
-8.444625 9.830197 9.344679 15.977093 -0.861072 0.946064 0.008040 -0.008392 -279954.000000 1 0 0
0.239275 -5.990203 -3.731321 7.061341 -1.530873 2.127529 -0.000809 -0.000209 398499.000000 1 0 0
4.906875 1.496397 -3.020921 5.953368 0.296000 2.102997 0.003418 -0.001471 297107.000000 1 0 0
0.298875 5.329897 3.852379 6.583157 1.514780 0.945685 -0.000340 0.000743 -3101990.000000 1 0 0
6.069075 -11.193403 -1.557821 12.827811 -1.073960 1.692538 -0.000538 0.000047 -2750970.000000 1 0 0
6.239575 -13.451803 5.290679 15.744033 -1.136487 1.228083 0.010716 -0.008167 -530300.000000 1 0 0
8.178875 -8.214703 -5.878321 12.997307 -0.787584 2.040108 0.005832 -0.002883 472457.000000 1 0 0
-13.137925 -1.390503 -4.670521 14.012578 0.105446 1.910608 0.006750 -0.003056 -2925300.000000 1 0 0
-6.815125 -1.373903 -6.907921 9.800659 0.198930 2.352997 0.007972 -0.005221 -363679.000000 1 0 0
-5.679425 12.841897 -4.673721 14.799117 -1.154400 1.892107 0.002101 0.001068 870718.000000 1 0 0
-4.254625 6.919197 -6.604621 10.468913 -1.019492 2.253482 0.008306 -0.004984 -3676920.000000 1 0 0
-9.345525 -3.676103 -8.013521 12.847922 0.374764 2.244291 0.006618 -0.001323 596575.000000 1 0 0
-2.146825 -6.274403 9.267679 11.395914 1.241126 0.621088 0.005253 -0.001783 170099.000000 1 0 0
7.621275 -5.948303 9.982679 13.896763 -0.662729 0.769375 0.013276 -0.005515 -112695.000000 1 0 0
9.674275 -5.060103 12.109679 16.304618 -0.481915 0.733681 0.026827 -0.008573 14971.400000 1 0 0
-6.543225 2.854597 -8.984521 11.475371 -0.411376 2.470173 0.003447 -0.005102 535501.000000 1 0 0
7.445275 5.449297 8.969579 12.867801 0.631825 0.799513 0.001109 0.002552 143542.000000 1 0 0
12.656075 3.350497 11.188679 17.221748 0.258797 0.863629 0.031783 -0.004991 -1386960.000000 1 0 0
-7.429525 -7.279003 -3.845321 11.089104 0.775165 1.924917 0.015072 -0.006411 -1964440.000000 1 0 0
2.286275 1.470497 -5.749721 6.359930 0.571569 2.699958 0.005707 -0.005659 -917807.000000 1 0 0
12.824875 6.848197 -7.076021 16.169270 0.490459 2.023748 0.015551 -0.003796 -513423.000000 1 0 0
0.849075 -7.755703 1.017479 7.868108 -1.461753 1.441116 0.000836 -0.002158 -473.234000 1 0 0
-10.093325 -6.173603 -8.417221 14.520268 0.548943 2.189142 0.010847 -0.003997 260316.000000 1 0 0
-6.739025 0.197297 3.060379 7.404006 -0.029268 1.144676 0.007996 -0.006657 200149.000000 1 0 0
10.743475 -7.850303 1.310479 13.370373 -0.631037 1.472625 0.007515 -0.001631 220928.000000 1 0 0
6.282275 1.006897 10.514779 12.289890 0.158924 0.544158 0.008842 -0.004369 556257.000000 1 0 0
-12.943425 5.276797 1.928679 14.110161 -0.387111 1.433680 0.004739 -0.004981 519605.000000 1 0 0
2.024175 7.357097 3.642079 8.455111 1.302307 1.125467 -0.002434 0.002306 -106284.000000 1 0 0
10.218875 -9.471003 -0.778321 13.954608 -0.747434 1.626600 0.009552 -0.000993 921668.000000 1 0 0
6.743175 -11.691903 -9.002121 16.223723 -1.047656 2.159008 0.001346 0.001592 -395411.000000 1 0 0
10.270175 3.478997 12.001779 16.174752 0.326615 0.734737 0.017232 -0.001583 -1100290.000000 1 0 0
-11.107925 -3.167803 -1.884521 11.703521 0.277809 1.732522 0.006063 -0.002435 556603.000000 1 0 0
12.395675 1.056297 6.809679 14.182392 0.085010 1.069970 0.013890 -0.007577 -258291.000000 1 0 0
-9.650225 9.285697 3.065379 13.738543 -0.766150 1.345780 0.006778 -0.002904 1053760.000000 1 0 0
-6.618225 7.654697 -8.758921 13.383347 -0.857889 2.284270 0.005198 -0.004938 -687953.000000 1 0 0
8.490075 5.459097 12.063379 15.729216 0.571437 0.696736 0.010913 0.001019 -847648.000000 1 0 0
1.326375 4.871197 -2.735121 5.741839 1.304952 2.067294 0.005687 -0.004306 424406.000000 1 0 0
1.280975 0.529197 9.526279 9.626575 0.391766 0.144477 0.007015 -0.004355 764606.000000 1 0 0
2.588875 12.685597 -4.003021 13.551783 1.369481 1.870657 0.008380 -0.001701 460924.000000 1 0 0
2.114875 0.623897 12.902379 13.089436 0.286867 0.169262 0.008813 -0.007428 -117490.000000 1 0 0
-12.387425 -1.772803 0.859079 12.543092 0.142148 1.502252 0.004960 -0.004786 -148147.000000 1 0 0
3.229075 8.712297 -1.280321 9.379247 1.215859 1.707730 0.008731 -0.001586 407425.000000 1 0 0
3.702375 -2.795603 -5.829521 7.450254 -0.646747 2.469402 0.003623 -0.004639 -1323310.000000 1 0 0
-7.775525 -7.252803 9.192779 14.055928 0.750630 0.857917 0.011730 -0.003576 -119095.000000 1 0 0
-7.180325 10.900897 -3.543121 13.525544 -0.988336 1.835847 0.003340 -0.000168 357553.000000 1 0 0
0.460975 0.498397 2.577979 2.665872 0.824385 0.257497 -0.000438 -0.002832 -2627460.000000 1 0 0
-7.084725 4.596597 -1.930021 8.662968 -0.575534 1.795472 0.009246 -0.005083 -301386.000000 1 0 0
-6.421125 -3.779803 -6.049921 9.597880 0.532033 2.252787 0.015352 -0.004629 472325.000000 1 0 0
2.985175 -6.138403 13.416479 15.053012 -1.118159 0.470632 0.007914 -0.004793 -1550830.000000 1 0 0
-5.466625 -0.659403 -11.674521 12.907875 0.120043 2.700884 0.007235 -0.006667 -426170.000000 1 0 0
11.936775 2.440497 -0.551721 12.196189 0.201673 1.616049 0.004637 0.002659 -762917.000000 1 0 0
6.073375 -10.841303 10.644179 16.362099 -1.060150 0.862503 0.008221 -0.004997 246559.000000 1 0 0
-8.219225 6.378897 -10.452621 14.747992 -0.659994 2.358519 0.005939 -0.005716 534337.000000 1 0 0
2.994275 7.882597 11.266679 14.072636 1.207773 0.642485 0.006358 0.003331 917560.000000 1 0 0
-6.184325 -10.246803 -0.364221 11.973951 1.027780 1.601219 0.012017 0.000030 -363018.000000 1 0 0
11.279975 4.290597 6.135979 13.538733 0.363473 1.100426 0.009535 -0.004043 1304600.000000 1 0 0
-7.978025 10.600897 1.390379 13.340204 -0.925646 1.466382 0.005936 -0.003120 -212263.000000 1 0 0
4.235375 -2.728503 -3.512621 6.141794 -0.572299 2.179642 0.002345 -0.006370 -4861590.000000 1 0 0
6.306775 6.557797 6.385079 11.115275 0.804908 0.958874 0.001618 0.001804 -4851320.000000 1 0 0
-0.346525 10.414897 -10.250521 14.617228 -1.537537 2.347964 0.000672 0.000740 -262293.000000 1 0 0
14.131275 6.499697 -2.437221 15.744175 0.431098 1.726223 0.013579 0.003319 556893.000000 1 0 0
1.436275 9.613597 -6.182221 11.519722 1.422493 2.137275 0.006517 -0.001376 -1859680.000000 1 0 0
0.668075 7.359097 7.177779 10.301609 1.480262 0.799922 -0.002647 0.003968 336246.000000 1 0 0
12.244475 6.270697 1.967479 13.896754 0.473300 1.428741 0.011160 -0.001857 -1349520.000000 1 0 0
-6.798225 6.656897 -3.205621 10.040226 -0.774895 1.895764 0.006434 -0.006552 786782.000000 1 0 0
1.073475 9.697897 11.095579 14.775433 1.460554 0.721300 0.008156 -0.000282 557267.000000 1 0 0
-3.519325 13.658097 -10.978421 17.873304 -1.318609 2.232213 0.001466 -0.003099 -117959.000000 1 0 0
-10.028325 -5.495603 -2.319821 11.668356 0.501313 1.770943 0.009691 -0.003378 -1207120.000000 1 0 0
-3.990225 3.829597 -12.462321 13.634411 -0.764860 2.723917 0.003454 -0.008203 -103170.000000 1 0 0
-3.199325 8.268297 2.355979 9.173388 -1.201600 1.311058 0.003661 -0.000424 -2616090.000000 1 0 0
7.052775 8.999797 7.021179 13.417710 0.906099 1.020104 0.008388 0.004897 -618817.000000 1 0 0
-1.366025 -2.245703 -8.048521 8.466871 1.024308 2.825927 0.004085 -0.006978 -2020620.000000 1 0 0
0.886975 -1.401503 4.848579 5.124417 -1.006555 0.329600 0.005711 -0.003836 742479.000000 1 0 0
2.604975 -8.675503 -6.109521 10.925955 -1.279094 2.164187 -0.002066 0.000077 473861.000000 1 0 0
5.339475 3.839397 8.739879 10.937845 0.623403 0.645084 0.001496 0.000251 281416.000000 1 0 0
6.175075 -7.321403 -2.855521 9.994423 -0.870130 1.860545 0.004294 -0.003881 684428.000000 1 0 0
1.827075 2.353297 -8.240121 8.762180 0.910619 2.794657 0.004178 -0.006167 -11083.100000 1 0 0
-5.375125 10.951197 -0.637321 12.215845 -1.114515 1.622992 0.004357 -0.000897 512439.000000 1 0 0
-5.438825 3.239097 -3.419421 7.194790 -0.537142 2.066060 0.007725 -0.004359 390360.000000 1 0 0
1.939075 13.754497 -6.413421 15.299613 1.430742 2.003348 0.001729 0.001146 928115.000000 1 0 0
-5.319325 -2.600403 2.673379 6.496481 0.454696 1.146684 0.003091 -0.003729 452192.000000 1 0 0
10.366275 -3.388903 -1.816521 11.056404 -0.315964 1.735840 0.008491 -0.001258 138386.000000 1 0 0
2.425575 -3.396803 7.065579 8.206345 -0.950686 0.533584 0.004848 -0.005596 -2463170.000000 1 0 0
-2.835925 9.843397 -11.625221 15.494538 -1.290288 2.419280 -0.000068 -0.001622 -2725200.000000 1 0 0
0.477675 -2.016903 9.341079 9.568272 -1.338245 0.218353 0.009770 -0.004756 -884800.000000 1 0 0
9.392175 2.679097 5.100679 11.018504 0.277868 1.089510 0.005064 -0.002693 -1017820.000000 1 0 0
13.538175 2.029097 -4.980921 14.567395 0.148772 1.919758 0.012712 0.004458 -1413940.000000 1 0 0
-6.435425 3.751097 7.654379 10.680587 -0.527738 0.771791 0.001644 -0.002198 -297421.000000 1 0 0
10.681375 0.067997 1.894479 10.848292 0.006366 1.395262 0.006217 0.000750 1736290.000000 1 0 0
15.428275 6.504597 -4.809021 17.420337 0.398989 1.850486 0.025512 -0.001893 -276610.000000 1 0 0
8.149875 -4.842303 -9.349321 13.314585 -0.536112 2.349260 0.016068 -0.004047 2650680.000000 1 0 0
4.531175 5.660397 -2.189821 7.574098 0.895748 1.864103 0.003282 -0.001254 263385.000000 1 0 0
-1.605425 -10.409503 1.408079 10.626280 1.417775 1.437896 0.006932 -0.001026 -1088430.000000 1 0 0
-2.795825 12.143697 -12.918721 17.949356 -1.344511 2.374212 -0.000483 -0.005535 13028.300000 1 0 0
8.397375 4.220497 -9.474421 13.345155 0.465723 2.360227 0.004119 0.001167 -1140270.000000 1 0 0
4.072575 7.656697 -8.899421 12.426205 1.081958 2.369112 0.001768 -0.004122 -1653850.000000 1 0 0
-1.731425 -4.997103 -2.476621 5.839736 1.237256 2.008762 0.003309 -0.002296 -754629.000000 1 0 0
-3.277525 -9.109603 7.037679 11.968958 1.225429 0.942219 0.005633 -0.004329 145081.000000 1 0 0
1.040575 7.220897 -1.358621 7.420917 1.427676 1.754915 0.007121 -0.001602 1012360.000000 1 0 0
0.344175 -0.763603 -2.241721 2.393086 -1.147340 2.784020 0.006188 -0.004131 -1313960.000000 1 0 0
4.136175 -6.677903 7.497479 10.858845 -1.016247 0.808687 0.001947 -0.004633 84769.300000 1 0 0
-14.028525 3.751897 5.924779 15.683726 -0.261331 1.183414 -0.002717 -0.002684 -1016530.000000 1 0 0
4.215175 6.199697 12.673579 14.724929 0.973688 0.534176 0.007236 0.004950 -2288130.000000 1 0 0
8.390875 10.066997 -7.243121 14.973778 0.875958 2.075697 0.023067 -0.009767 934648.000000 1 0 0
12.570275 5.339197 9.535279 16.656542 0.401657 0.961288 0.038981 -0.005734 1813290.000000 1 0 0
7.627275 4.064797 0.362279 8.650384 0.489643 1.528904 0.005613 0.001977 -1403750.000000 1 0 0
-10.921825 -7.511303 -1.103021 13.301225 0.602446 1.653818 0.008204 -0.001952 -1265350.000000 1 0 0
10.478975 6.850197 0.215279 12.521200 0.578978 1.553602 0.008527 -0.000828 -790972.000000 1 0 0
14.638075 3.654097 4.235579 15.670539 0.244630 1.297103 0.027135 -0.006885 196676.000000 1 0 0
2.156475 5.581697 8.196479 10.148300 1.202114 0.630606 -0.002695 0.003452 607247.000000 1 0 0
4.306275 0.086297 11.704879 12.472195 0.020037 0.352600 0.009323 -0.006266 237110.000000 1 0 0
-1.482125 -1.520703 -0.502421 2.182123 0.798245 1.803125 0.006205 -0.007950 -1031890.000000 1 0 0
3.152275 -5.055603 -9.424521 11.149778 -1.013261 2.577858 0.001588 -0.000162 735485.000000 1 0 0
-3.965925 -5.328503 -1.295521 6.767561 0.930963 1.763416 0.007625 -0.003889 139766.000000 1 0 0
-1.295525 -8.689003 8.681979 12.351272 1.422787 0.791299 0.004054 -0.004482 -191605.000000 1 0 0
3.935575 8.592297 -5.973621 11.180361 1.141280 2.134471 0.006653 -0.001943 296303.000000 1 0 0
-14.274025 -1.797203 -2.670721 14.632514 0.125248 1.754345 0.008489 -0.005988 -807797.000000 1 0 0
8.882675 -10.544003 -6.528021 15.254277 -0.870708 2.013016 0.005173 -0.002761 321493.000000 1 0 0
14.856075 6.137397 1.608079 16.154149 0.391768 1.471085 0.018214 -0.002876 -389661.000000 1 0 0
-5.763125 0.459997 -8.395821 10.193872 -0.079648 2.538551 0.006720 -0.006662 56043.200000 1 0 0
-8.192325 -4.570903 -12.955221 15.995158 0.508926 2.514857 0.012148 0.002399 806468.000000 1 0 0
0.931775 -10.600403 11.955179 16.005095 -1.483122 0.727317 0.001116 -0.003341 -592387.000000 1 0 0
0.138975 11.682797 3.273879 12.133645 1.558901 1.297592 0.000886 0.001022 -910925.000000 1 0 0
5.298775 -13.243403 -3.681621 14.731567 -1.190198 1.823387 0.002822 0.002621 141471.000000 1 0 0
-7.498625 1.705797 -6.947121 10.363475 -0.223675 2.305472 0.004225 -0.002948 377106.000000 1 0 0
1.553475 2.766697 4.122479 5.202185 1.059174 0.655979 0.000134 -0.000855 -1343900.000000 1 0 0
17.297675 5.462797 2.225779 18.275826 0.305899 1.448705 0.030475 -0.002800 -188868.000000 1 0 0
2.348175 -8.302303 -3.628821 9.360048 -1.295161 1.968923 -0.000311 -0.000583 402339.000000 1 0 0
-0.298625 -9.465703 -0.631721 9.491458 1.539259 1.637402 0.007625 0.000702 -781463.000000 1 0 0
0.730375 11.902897 -5.596021 13.172997 1.509512 2.009548 0.004492 0.001035 -214825.000000 1 0 0
6.059675 -5.008803 7.862579 11.118809 -0.690739 0.785348 0.005440 -0.005117 -995192.000000 1 0 0
-6.006425 -1.944103 -9.273621 11.218588 0.313029 2.543889 0.007598 -0.003470 -94159.400000 1 0 0
2.072975 -1.302803 11.192179 11.456849 -0.561091 0.215365 0.007819 -0.006125 -678473.000000 1 0 0
18.007075 2.125497 -5.873921 19.059786 0.117493 1.884080 0.038084 0.006100 -1955190.000000 1 0 0
-8.912225 4.669697 7.850479 12.761812 -0.482636 0.908215 0.000216 -0.004229 -919506.000000 1 0 0
11.426275 -7.145403 -4.807321 14.308280 -0.558850 1.913444 0.021165 -0.004625 142294.000000 1 0 0
10.857875 0.583497 8.883479 14.041016 0.053688 0.885786 0.009910 -0.007442 -40558.600000 1 0 0
-8.459525 -7.311903 -1.518121 11.284156 0.712760 1.705741 0.011619 -0.003091 -1853130.000000 1 0 0
10.290675 -10.449103 -3.241721 15.019670 -0.793037 1.788340 0.021874 -0.003010 62563.900000 1 0 0
7.776975 -13.902803 -3.732321 16.361525 -1.060779 1.800938 0.018815 -0.003817 -831451.000000 1 0 0
1.665075 -1.126303 -11.627021 11.799519 -0.594730 2.970392 0.005905 -0.008726 517359.000000 1 0 0
-11.736725 -2.636503 -6.312321 13.584817 0.220969 2.054047 0.007549 -0.003573 955972.000000 1 0 0
2.772075 -12.028503 -6.338721 13.876191 -1.344292 2.045197 0.002005 0.003056 1102980.000000 1 0 0
-5.472325 1.441097 1.133779 5.771357 -0.257497 1.373061 0.006625 -0.006139 652945.000000 1 0 0
0.274775 6.808997 -3.934421 7.868774 1.530464 2.094400 0.007367 -0.003339 942452.000000 1 0 0
5.474875 -11.749003 3.644679 13.464658 -1.134728 1.296692 -0.001210 -0.006583 -2948170.000000 1 0 0
-4.359925 -9.275003 1.087979 10.306227 1.131376 1.465034 0.011802 0.000138 -1278880.000000 1 0 0
7.039475 -6.052303 -4.881721 10.488841 -0.710137 2.054906 0.005973 -0.005369 -853006.000000 1 0 0
-6.988125 -6.067703 2.212279 9.515518 0.715016 1.336158 0.010571 -0.002436 -321117.000000 1 0 0
-6.189525 -0.766603 7.108079 9.456357 0.123227 0.720203 0.002403 -0.000630 -385397.000000 1 0 0
4.270375 -5.029203 3.198579 7.332114 -0.866816 1.119378 0.000308 -0.002889 -631128.000000 1 0 0
-2.413425 10.604797 -8.749421 13.958464 -1.347029 2.248259 0.002309 0.001461 -813514.000000 1 0 0
-2.357725 -5.033203 2.752979 6.202491 1.132719 1.110905 0.006042 -0.000341 315424.000000 1 0 0
15.237875 5.218997 6.383479 17.325691 0.329979 1.193466 0.046647 -0.014872 -41672.800000 1 0 0
6.800275 0.248397 0.156079 6.806600 0.036511 1.547864 0.003947 -0.001329 5149520.000000 1 0 0
-9.836325 9.397597 0.436979 13.610991 -0.762592 1.538686 0.002018 -0.003534 -1694450.000000 1 0 0
7.235575 10.478097 -2.647421 13.005879 0.966446 1.775785 0.004901 -0.001886 -982425.000000 1 0 0
1.550275 -4.144803 -5.370121 6.958516 -1.212878 2.452359 0.001934 -0.004376 107137.000000 1 0 0
0.826875 -8.052203 -7.906721 11.315385 -1.468466 2.344457 0.000533 0.001565 890639.000000 1 0 0
-10.444425 0.184997 -10.485121 14.800608 -0.017711 2.358060 0.008355 -0.002768 -3884920.000000 1 0 0
5.839675 -2.501303 0.535479 6.375348 -0.404687 1.486705 0.003704 -0.002724 277771.000000 1 0 0
-3.366025 5.321197 -1.044721 6.382531 -1.006773 1.735221 0.006769 -0.005051 1331640.000000 1 0 0
-0.369425 4.612197 -5.123221 6.903349 -1.490870 2.407047 0.006515 -0.006501 -895052.000000 1 0 0
3.962375 -9.659103 9.941079 14.416093 -1.181509 0.809885 0.001427 -0.002164 -2074950.000000 1 0 0
7.340675 -13.401103 -0.724621 15.297063 -1.069670 1.618184 0.015046 -0.003981 898969.000000 1 0 0
13.052775 -0.037603 0.589779 13.066147 -0.002881 1.525643 0.008504 -0.003241 68859.200000 1 0 0
9.374275 2.406897 -0.651521 9.700240 0.251327 1.638012 0.008547 0.000925 -947043.000000 1 0 0
-0.777525 -5.758703 4.403379 7.290881 1.436591 0.922340 0.003009 -0.001307 -429059.000000 1 0 0
11.423275 -3.757403 3.385979 12.492964 -0.317778 1.296332 0.012150 -0.006078 -746858.000000 1 0 0
1.807175 -8.178203 11.710879 14.397693 -1.353317 0.620847 -0.001819 -0.003306 30417.800000 1 0 0
9.488875 -5.881303 -5.847021 12.602227 -0.554859 2.053265 0.010640 -0.006299 52842.100000 1 0 0
3.215475 6.400997 -0.151321 7.164841 1.105279 1.591918 0.001598 0.001555 -193913.000000 1 0 0
6.467275 -1.409903 11.411279 13.192072 -0.214647 0.525625 0.012058 -0.006240 338318.000000 1 0 0
-4.896025 -7.589903 -3.823421 9.807968 0.997894 1.971241 0.013310 -0.002733 -224991.000000 1 0 0
-3.462725 -8.509003 -5.781321 10.854366 1.184314 2.132497 0.008696 -0.000198 -564410.000000 1 0 0
9.788975 5.292597 2.242979 11.351941 0.495651 1.371902 0.007797 -0.001312 -217492.000000 1 0 0
8.879275 -1.417103 0.301679 8.996706 -0.158262 1.537258 0.007792 -0.002826 705450.000000 1 0 0
-3.899925 9.665297 9.101279 13.836931 -1.187278 0.852965 0.006342 -0.001879 247131.000000 1 0 0
-14.335025 -3.571003 -6.104421 15.984648 0.244141 1.962640 0.018810 -0.004186 -138433.000000 1 0 0
10.662075 6.414197 -5.871521 13.758507 0.541588 2.011699 0.004748 -0.006612 -641987.000000 1 0 0
-1.755825 4.387497 2.763379 5.474424 -1.190128 1.041669 0.002094 -0.003707 396968.000000 1 0 0
6.855175 -3.697703 2.712579 8.247698 -0.494671 1.235669 0.004179 -0.004220 -1835970.000000 1 0 0
8.322775 -11.194403 -1.626821 14.043852 -0.931483 1.686896 0.012446 -0.002358 -2327940.000000 1 0 0
4.552775 0.581297 1.832379 4.941991 0.126993 1.190950 0.001194 -0.001330 148610.000000 1 0 0
-10.818625 2.228697 3.791079 11.678271 -0.203163 1.240179 0.000197 -0.004379 137765.000000 1 0 0
-0.888525 -3.128103 4.354179 5.434462 1.294040 0.641471 0.006129 -0.003366 219247.000000 1 0 0
8.533075 -8.722403 -8.478821 14.858805 -0.796370 2.178064 0.011443 -0.001936 -515310.000000 1 0 0
12.054275 -4.796403 0.979979 13.010434 -0.378695 1.495402 0.009593 -0.002041 309080.000000 1 0 0
2.905275 4.869897 3.504979 6.666438 1.032897 1.017182 -0.002304 0.000774 -508322.000000 1 0 0
6.054175 7.502197 2.006979 9.847028 0.891810 1.365542 0.002908 0.001191 -64963.700000 1 0 0
-1.778925 -1.270703 -10.120121 10.353555 0.620265 2.928841 0.007802 -0.004163 1496260.000000 1 0 0
-0.917525 -8.539103 6.109779 10.539807 1.463757 0.952453 0.002554 -0.004305 -198455.000000 1 0 0
-4.209725 -0.258403 2.325779 4.816410 0.061305 1.066848 0.005278 -0.005116 858810.000000 1 0 0
-8.505825 6.258997 -7.851321 13.159306 -0.634382 2.210100 0.003456 -0.003158 -1876450.000000 1 0 0
6.433375 11.121197 -9.438821 15.942418 1.046352 2.204405 0.011741 -0.011266 192625.000000 1 0 0
-11.249525 -5.750603 3.127079 13.015371 0.472557 1.328162 0.005124 0.000815 1611650.000000 1 0 0
1.483675 -6.189603 3.009279 7.040471 -1.335531 1.129153 0.001351 -0.002530 518874.000000 1 0 0
10.152775 2.256297 7.345179 12.732689 0.218681 0.955898 0.007685 -0.003298 -1773410.000000 1 0 0
-4.140125 -2.574903 -10.582721 11.651813 0.556395 2.709871 0.007982 -0.006067 -4311310.000000 1 0 0
-8.345525 11.844797 5.844279 15.623783 -0.957008 1.187410 0.012703 -0.004344 -986377.000000 1 0 0
6.943575 5.950897 -2.967521 9.614187 0.708565 1.884581 0.006071 0.000109 -2479560.000000 1 0 0
3.956875 -9.817403 -2.401521 10.853827 -1.187666 1.793903 -0.000094 -0.002967 -166020.000000 1 0 0
8.542975 -12.874703 -7.467221 17.160996 -0.984956 2.020976 0.013820 -0.000383 654042.000000 1 0 0
-1.336325 9.492297 3.655379 10.259204 -1.430936 1.206489 -0.002650 0.002588 89527.400000 1 0 0
0.507675 -13.099103 4.693979 13.923996 -1.532059 1.226946 0.006965 -0.006654 -539949.000000 1 0 0
-11.380025 -7.027103 -5.049921 14.296393 0.553184 1.931818 0.009276 -0.007305 33857.500000 1 0 0
3.588875 10.302497 -3.407621 11.429495 1.235592 1.873543 0.008685 -0.003176 -130260.000000 1 0 0
11.725275 -8.072803 -7.363221 16.027141 -0.602963 2.048141 0.038021 -0.007725 380387.000000 1 0 0
11.844775 -4.767103 -5.901921 14.066152 -0.382629 2.003782 0.019344 -0.004754 322647.000000 1 0 0
1.363175 -10.332003 -2.669721 10.758064 -1.439617 1.821577 -0.001495 0.001538 -1235430.000000 1 0 0
2.359375 -12.090003 -3.883521 12.915748 -1.378068 1.876203 0.002775 0.002956 -1687420.000000 1 0 0
-7.644925 -5.674303 7.242879 11.962520 0.638511 0.920447 0.006532 0.001548 -3360830.000000 1 0 0
-7.379025 -0.785203 9.523679 12.073401 0.106011 0.661918 -0.000531 0.000551 990438.000000 1 0 0
16.213675 2.645797 -7.651621 18.122660 0.161757 2.006681 0.038439 0.003800 -327037.000000 1 0 0
-1.927425 6.381697 -5.452021 8.611943 -1.277484 2.256318 0.008397 -0.003707 -930720.000000 1 0 0
7.749775 1.118297 8.324379 11.428249 0.143311 0.754807 0.009390 -0.005154 -755282.000000 1 0 0
7.976475 8.251297 -3.748121 12.072964 0.802332 1.886469 0.004240 -0.000843 809224.000000 1 0 0
8.066775 0.575397 3.981279 9.014129 0.071209 1.113336 0.002824 -0.003060 470224.000000 1 0 0
-6.990225 5.724997 5.385679 10.518763 -0.686220 1.033277 0.006582 -0.005915 -102365.000000 1 0 0
-6.137325 -2.018303 -4.493521 7.869691 0.317717 2.178509 0.006155 -0.004818 -1524320.000000 1 0 0
-15.222225 -2.167303 3.066879 15.678619 0.141427 1.373918 0.009219 -0.000258 -864879.000000 1 0 0
1.102075 1.293897 -10.500721 10.637381 0.865288 2.981126 0.006173 -0.008028 531089.000000 1 0 0
1.505175 -9.175203 9.359279 13.192650 -1.408196 0.782105 0.003971 -0.004048 -685972.000000 1 0 0
-0.219925 -6.819603 -1.266221 6.939645 1.538559 1.754286 0.003504 -0.000642 743983.000000 1 0 0
-0.375225 -10.191403 -8.446521 13.241949 1.533995 2.262514 0.000603 0.003262 -379893.000000 1 0 0
-4.426625 6.413897 3.814979 8.676817 -0.966704 1.115560 0.002783 0.000275 -235180.000000 1 0 0
10.782875 -1.139203 -8.607621 13.844108 -0.105259 2.241776 0.019079 0.000620 365952.000000 1 0 0
2.998575 -0.998703 6.341679 7.085602 -0.321504 0.462344 0.002499 -0.002267 -11206.900000 1 0 0
1.864675 -12.177803 6.733079 14.039596 -1.418856 1.070623 0.007242 -0.006473 152843.000000 1 0 0
2.906175 -4.884803 -1.301521 5.831047 -1.034104 1.795898 0.005776 -0.004408 -2598700.000000 1 0 0
-1.063025 9.506397 -1.702221 9.715923 -1.459437 1.746904 0.006304 -0.002904 609065.000000 1 0 0
4.484275 -2.477603 2.590579 5.740935 -0.504768 1.102634 0.003088 -0.003245 -2173350.000000 1 0 0
17.767175 6.785897 -2.634021 19.200494 0.364836 1.708415 0.019000 0.014698 -86707.900000 1 0 0
-7.192825 3.536997 -5.412221 9.671567 -0.457017 2.164701 0.006161 -0.005698 -255783.000000 1 0 0
-13.913925 -6.046003 2.239179 15.335103 0.409914 1.424256 -0.000366 0.002164 1071800.000000 1 0 0
6.754975 -6.174603 3.292379 9.726005 -0.740541 1.225460 0.002441 -0.005944 -764853.000000 1 0 0
-4.627025 1.986497 3.552079 6.162207 -0.405528 0.956444 0.007401 -0.005674 968100.000000 1 0 0
7.010675 -12.146503 -5.479121 15.056821 -1.047328 1.943244 0.010094 0.001112 -725114.000000 1 0 0
2.936675 -12.332503 3.335279 13.108729 -1.337025 1.313536 0.004892 -0.006669 -641449.000000 1 0 0
3.309575 11.351297 -6.068021 13.290076 1.287101 2.044947 0.004925 0.000108 519243.000000 1 0 0
-5.686625 -8.405603 6.566979 12.087890 0.975998 0.996470 0.007045 -0.003312 -631796.000000 1 0 0
-3.920425 6.475297 6.383679 9.902048 -1.026384 0.870188 0.006134 -0.001223 372421.000000 1 0 0
4.330075 4.278097 -6.952721 9.240779 0.779360 2.422488 0.004336 -0.000820 -757188.000000 1 0 0
-0.248425 -2.683703 1.579579 3.123947 1.478491 1.040678 0.003763 -0.004023 -880096.000000 1 0 0
-13.216125 -0.993303 6.580479 14.797139 0.075017 1.109943 0.004736 0.000546 -192035.000000 1 0 0
-0.597325 -9.184603 -5.973921 10.972760 1.505852 2.146508 0.001030 0.001888 -355925.000000 1 0 0
2.033375 -1.684303 -3.875321 4.689307 -0.691777 2.543510 0.004433 -0.005016 -941882.000000 1 0 0
11.388675 -1.987703 1.129879 11.615916 -0.172793 1.473372 0.010070 -0.002882 1089770.000000 1 0 0
0.488375 -4.223103 -1.913121 4.661882 -1.455664 1.993662 0.002804 -0.004627 -1590640.000000 1 0 0
1.179275 -7.292403 -11.301821 13.501888 -1.410471 2.562674 0.000745 0.004072 -872911.000000 1 0 0
-4.436925 4.156597 -9.964721 11.673014 -0.752789 2.593758 0.005183 -0.005986 149218.000000 1 0 0
-1.128325 5.760397 -2.258821 6.289480 -1.377369 1.938145 0.007098 -0.002782 969273.000000 1 0 0
-11.328725 1.821397 -3.810521 12.090392 -0.159413 1.891431 0.005693 -0.001793 74910.900000 1 0 0
-1.849125 -11.272503 4.100679 12.136892 1.408206 1.226145 0.009950 -0.005153 -660437.000000 1 0 0
-3.531525 -5.558403 -9.735821 11.753881 1.004790 2.546875 0.005944 -0.001627 -1650000.000000 1 0 0
-12.871125 -3.745203 -8.338221 15.786650 0.283159 2.127254 0.017647 -0.000617 2636.850000 1 0 0
11.421075 4.426597 0.502079 12.259192 0.369755 1.529830 0.009333 0.002419 400088.000000 1 0 0
-8.852625 -2.278503 -2.922621 9.596992 0.251914 1.880247 0.009814 -0.004759 479479.000000 1 0 0
-2.526725 -6.099603 -6.431221 9.216838 1.178071 2.343074 0.001493 -0.001907 -75824.800000 1 0 0
-0.015325 2.674597 -1.851421 3.252916 -1.565067 2.176277 0.005685 -0.005971 -595523.000000 1 0 0
8.099775 6.033497 -5.130621 11.328403 0.640227 2.040810 0.005110 -0.002857 -801177.000000 1 0 0
-9.919725 -0.903303 -0.849521 9.996929 0.090811 1.655877 0.006298 -0.004024 -273256.000000 1 0 0
6.110675 0.512297 -8.870021 10.783324 0.083641 2.536709 0.007841 -0.001601 487319.000000 1 0 0
-4.173125 2.520997 7.922979 9.302903 -0.543431 0.551638 0.001758 -0.000688 -2844260.000000 1 0 0
-10.234925 -3.345503 1.449579 10.864960 0.315923 1.436980 0.005976 -0.004257 814184.000000 1 0 0
-1.859725 -8.131303 -7.893521 11.484091 1.345952 2.328622 0.001420 -0.000931 -816641.000000 1 0 0
-9.420525 -9.857103 4.221879 14.273508 0.808041 1.270520 0.008254 0.000346 -304617.000000 1 0 0
-1.110525 -10.728303 7.337579 13.044915 1.467650 0.973407 0.004779 -0.007301 402368.000000 1 0 0
9.518575 3.785697 -3.769621 10.915348 0.378537 1.923409 0.003828 0.001261 -717578.000000 1 0 0
12.907975 -0.804303 3.063179 13.290816 -0.062230 1.338232 0.010447 -0.002371 -817962.000000 1 0 0
6.655375 12.028397 -6.858221 15.362667 1.065419 2.033558 0.000468 -0.004313 -323975.000000 1 0 0
-11.879025 -0.105103 -6.499721 13.541368 0.008848 2.071440 0.004580 -0.001144 639054.000000 1 0 0
-7.591525 -6.748603 -11.540321 15.373806 0.726685 2.419839 0.015968 -0.000280 -1242860.000000 1 0 0
4.135575 5.974597 6.554879 9.785971 0.965329 0.836824 -0.001485 0.002957 -4219460.000000 1 0 0
-4.296925 -1.342703 -7.276821 8.556783 0.302867 2.587571 0.004069 -0.008221 -1665920.000000 1 0 0
9.587775 9.330797 0.828279 13.404300 0.771816 1.508965 0.009311 -0.001010 -750349.000000 1 0 0
-8.917825 3.779197 4.859579 10.836302 -0.400837 1.105762 0.004073 -0.006198 736540.000000 1 0 0
-6.905125 7.831297 -12.079421 15.966289 -0.848165 2.428829 0.002375 -0.006114 -603861.000000 1 0 0
11.185075 -3.611603 7.196579 13.781884 -0.312327 1.021395 0.014292 -0.003135 1217050.000000 1 0 0
11.782075 6.966297 6.389179 15.105237 0.533970 1.134067 0.012111 -0.006939 345990.000000 1 0 0
-9.843525 -0.774603 -14.838621 17.823571 0.078530 2.554452 0.001415 0.004929 -23522.400000 1 0 0
1.714975 -12.954403 11.961079 17.715110 -1.439176 0.829573 0.007970 -0.003803 91943.400000 1 0 0
2.794675 3.057597 13.045179 13.687067 0.830294 0.307469 0.003946 -0.003951 -1630490.000000 1 0 0
-2.553725 -1.345903 10.896879 11.272752 0.485041 0.258961 0.008216 -0.002529 -76512.400000 1 0 0
2.523375 -10.000403 -8.288721 13.231719 -1.323628 2.247759 -0.003575 0.004151 -1139030.000000 1 0 0
13.897175 3.627197 -7.514321 16.209659 0.255307 2.052817 0.013958 0.003419 -2388700.000000 1 0 0
7.382675 -1.583303 4.979479 9.044664 -0.211262 0.987781 0.003833 -0.003837 221659.000000 1 0 0
-1.281225 8.747797 10.117579 13.436179 -1.425368 0.718171 0.007766 0.000374 213941.000000 1 0 0
-12.285725 -4.638103 0.868179 13.160728 0.360978 1.504781 0.003607 -0.001766 -231796.000000 1 0 0
-4.904825 4.868497 -5.198521 8.647785 -0.781681 2.215722 0.009600 -0.006495 38069.800000 1 0 0
-11.259225 0.333097 1.944579 11.430769 -0.029576 1.399847 0.004972 -0.004729 -1756830.000000 1 0 0
-1.370425 2.305797 -4.078121 4.881172 -1.034550 2.559802 0.007148 -0.009381 839875.000000 1 0 0
3.191375 -9.925703 13.103179 16.745081 -1.259709 0.672111 0.003651 0.000223 -3462570.000000 1 0 0
8.938875 4.698797 -1.556021 10.217797 0.483963 1.723677 0.006700 -0.000326 -1503250.000000 1 0 0
4.083675 2.347197 3.824379 6.067257 0.521666 0.888817 -0.002736 0.001622 187373.000000 1 0 0
-5.528025 -3.289503 7.468979 9.857258 0.536779 0.710994 0.005124 -0.000770 -176767.000000 1 0 0
1.759875 -5.842203 7.647479 9.783273 -1.278207 0.673427 0.003973 -0.003853 -1121780.000000 1 0 0
-5.817225 -6.289203 -9.752521 12.980980 0.824364 2.420816 0.013553 -0.001312 -1524080.000000 1 0 0
-11.723925 -5.872803 5.451579 14.200702 0.464387 1.176785 0.008100 0.000482 -627151.000000 1 0 0
10.578975 6.164797 4.480679 13.038248 0.527632 1.219989 0.007018 -0.001507 -947259.000000 1 0 0
1.346175 -3.760003 0.421079 4.015858 -1.226990 1.465749 0.009574 -0.004536 -884844.000000 1 0 0
8.714875 4.401197 6.986679 12.005551 0.467657 0.949667 0.004999 0.002115 203348.000000 1 0 0
-7.936425 12.164497 3.398479 14.916819 -0.992718 1.340949 0.010757 -0.003474 -175342.000000 1 0 0
-6.254925 13.294097 -7.030121 16.287409 -1.131023 2.017094 0.004221 -0.004067 350900.000000 1 0 0
4.454575 -6.896203 -0.992621 8.269592 -0.997276 1.691119 0.003387 -0.004653 -454539.000000 1 0 0
-1.914425 -8.178803 11.145679 13.956504 1.340864 0.645829 0.002236 -0.003323 -379361.000000 1 0 0
11.727675 8.902197 -5.722121 15.796523 0.649285 1.941466 0.019205 -0.010904 518534.000000 1 0 0
-3.295325 -2.908303 -1.802921 4.750570 0.723093 1.960070 0.008628 -0.004883 -2568220.000000 1 0 0
-2.085825 5.997697 4.776679 7.946049 -1.236109 0.925871 0.002566 0.000215 -718713.000000 1 0 0
0.307775 -11.449603 -5.690021 12.789233 -1.543922 2.031867 -0.000109 -0.000680 -709145.000000 1 0 0
-8.872725 6.298397 -1.448921 10.976995 -0.617313 1.703179 0.006304 -0.005645 -341189.000000 1 0 0
2.901475 0.025597 3.952179 4.902951 0.008822 0.633295 -0.000100 -0.001229 1049940.000000 1 0 0
-10.152525 4.044497 -0.960721 10.970629 -0.379103 1.658481 0.008237 -0.004034 -38757.700000 1 0 0
6.470175 5.368497 13.606279 15.994210 0.692608 0.553480 0.013888 0.002658 -1013140.000000 1 0 0
-8.786825 -1.572103 5.624279 10.550465 0.177043 1.008555 0.002165 -0.002268 -103577.000000 1 0 0
12.927975 -1.794803 -1.408921 13.127792 -0.137949 1.678327 0.016089 -0.003401 -1218600.000000 1 0 0
5.409975 -5.543403 5.372579 9.426651 -0.797579 0.964369 0.000137 -0.006186 268705.000000 1 0 0
-9.094125 -1.286503 3.120879 9.700417 0.140533 1.243244 0.002582 -0.003969 688661.000000 1 0 0
1.980875 5.434997 5.570379 8.030702 1.221292 0.804273 0.000252 0.000504 -1288380.000000 1 0 0
9.323575 3.026097 -7.326321 12.237700 0.313838 2.212634 0.005266 0.000154 -446093.000000 1 0 0
2.276175 -2.343403 -1.504721 3.596762 -0.799950 2.002429 0.002004 -0.004587 60165.500000 1 0 0
-6.161225 0.359097 -3.848521 7.273291 -0.058218 2.128372 0.007499 -0.004013 -3772480.000000 1 0 0
-3.991225 4.123097 4.940679 7.572326 -0.801648 0.859963 0.004250 -0.002956 12664.000000 1 0 0
-6.485325 1.765997 -12.158621 13.892813 -0.265860 2.636591 0.004556 -0.003366 -1444270.000000 1 0 0
-0.090525 3.100997 6.248079 6.975878 -1.541612 0.460863 0.000857 -0.001982 866511.000000 1 0 0
-8.807825 9.564097 -2.052421 13.162909 -0.826539 1.727360 0.002349 -0.001173 828851.000000 1 0 0
-1.380825 -3.721403 -6.117221 7.292181 1.215494 2.566008 0.000295 -0.003995 233794.000000 1 0 0
-3.490625 7.068897 -2.967421 8.423738 -1.112121 1.930791 0.007824 -0.002064 1336730.000000 1 0 0
6.969375 -0.372403 -4.280921 8.187622 -0.053383 2.120991 0.008669 -0.002461 -196900.000000 1 0 0
-5.196625 -10.879903 7.021979 13.952971 1.125200 1.043429 0.004291 -0.004412 1004200.000000 1 0 0
9.764275 8.383297 -1.500621 12.956566 0.709447 1.686876 0.006809 -0.000943 198575.000000 1 0 0
13.817075 4.582797 -4.229621 15.159264 0.320259 1.853562 0.009847 -0.001656 743199.000000 1 0 0
4.675675 1.076597 -6.789021 8.313351 0.226310 2.526363 0.004024 -0.003156 -112625.000000 1 0 0
8.859575 -4.677203 3.714579 10.684867 -0.485738 1.215734 0.005057 -0.005102 -573532.000000 1 0 0
-8.840125 -3.272803 -0.704221 9.452776 0.354575 1.645364 0.004480 -0.002910 -317208.000000 1 0 0
-8.578125 -4.428103 -10.407521 14.195380 0.476530 2.393757 0.006573 -0.001833 202122.000000 1 0 0
10.562175 -1.182603 10.594879 15.006983 -0.111501 0.786967 0.018427 -0.005481 758204.000000 1 0 0
2.221875 -11.648703 9.806379 15.388115 -1.382320 0.879846 0.000762 -0.007303 -112980.000000 1 0 0
-6.358825 -10.459603 2.132779 12.425244 1.024558 1.398293 0.008318 -0.000464 -1024020.000000 1 0 0
-3.651225 -1.513603 6.628479 7.717459 0.392983 0.537690 0.008027 -0.002565 -1317050.000000 1 0 0
4.813875 -7.609703 3.957679 9.835863 -1.006753 1.156690 -0.001898 -0.003289 211299.000000 1 0 0
11.555575 -9.551703 -5.356821 15.920486 -0.690744 1.913966 0.026372 -0.007018 144538.000000 1 0 0
11.331875 1.122597 11.432879 16.136367 0.098743 0.783403 0.014058 -0.002560 8658.610000 1 0 0
-10.282625 -3.498403 4.349979 11.700150 0.327940 1.189862 0.006813 -0.002103 1845250.000000 1 0 0
2.190475 8.674997 8.949679 12.655059 1.323462 0.785264 -0.001239 0.005129 166699.000000 1 0 0
6.597775 8.805097 4.120679 11.749058 0.927735 1.212452 0.004173 0.001989 512015.000000 1 0 0
-4.269825 3.488097 0.404879 5.528305 -0.684972 1.497493 0.008530 -0.005677 -555651.000000 1 0 0
4.845175 6.981897 4.243979 9.499156 0.964134 1.107640 0.001552 0.001823 -1349140.000000 1 0 0
-8.383325 13.088997 0.986579 15.574830 -1.001138 1.507409 0.006368 -0.004294 483443.000000 1 0 0
8.831675 8.162797 -9.151621 15.112310 0.746060 2.221283 0.012265 -0.009677 -1427570.000000 1 0 0
7.078375 1.948997 6.011179 9.488744 0.268687 0.884720 0.000824 -0.000590 -1016410.000000 1 0 0
11.520375 -6.207703 3.143879 13.458774 -0.494239 1.335025 0.009216 0.000181 180282.000000 1 0 0
11.454175 4.715297 -2.085421 12.561096 0.390523 1.737591 0.003811 0.002062 1245630.000000 1 0 0
-3.970625 14.350297 -6.084221 16.084609 -1.300857 1.958716 0.000343 0.002332 368275.000000 1 0 0
7.280575 -3.009003 7.027179 10.556615 -0.391912 0.842410 0.007392 -0.005942 -1580910.000000 1 0 0
-8.004725 -0.337703 0.892479 8.061401 0.042163 1.459859 0.006913 -0.003662 207399.000000 1 0 0
-3.249025 1.140397 10.746379 11.284562 -0.337562 0.310084 0.006267 -0.000289 -405589.000000 1 0 0
7.116375 -1.277903 -1.809921 7.453297 -0.177679 1.816084 0.008023 -0.002857 -1799370.000000 1 0 0
-7.761625 5.313797 3.000079 9.873183 -0.600332 1.262053 0.007844 -0.003244 744495.000000 1 0 0
9.474375 -2.116703 2.808679 10.106082 -0.219804 1.289169 0.004498 -0.003382 -1761430.000000 1 0 0
0.288175 3.447697 1.623279 3.821609 1.487405 1.132096 0.001836 -0.001661 -4304270.000000 1 0 0
-7.637825 -3.089103 4.026579 9.170184 0.384335 1.116206 0.006592 -0.003253 301257.000000 1 0 0
-2.285125 8.446697 -6.691721 11.015789 -1.306586 2.223663 0.002928 -0.003091 -465596.000000 1 0 0
4.486075 9.823897 7.392979 13.087779 1.142427 0.970513 0.001627 0.006315 -392915.000000 1 0 0
-11.860425 -3.211403 6.750679 14.019788 0.264426 1.068419 0.011014 -0.002185 -2009100.000000 1 0 0
-4.871825 2.328197 -5.687621 7.842462 -0.445804 2.382171 0.007439 -0.008665 -686513.000000 1 0 0
-2.673125 3.041597 -1.873321 4.461641 -0.849787 2.004101 0.009088 -0.006716 710255.000000 1 0 0
2.231475 5.228397 11.454779 12.787790 1.167403 0.460661 0.007358 -0.002314 68818.100000 1 0 0
-0.667625 1.664097 4.497179 4.841442 -1.189261 0.379385 0.004176 -0.004313 221333.000000 1 0 0
5.115375 1.464897 7.701279 9.360699 0.278907 0.604608 0.000667 -0.000642 345578.000000 1 0 0
3.397575 -8.046703 1.927279 8.944683 -1.171273 1.353627 0.000106 -0.002602 2040710.000000 1 0 0
5.083775 6.454897 -4.627821 9.430121 0.903672 2.083745 0.007522 -0.002067 -2439230.000000 1 0 0
-4.003425 2.904497 -8.022721 9.424838 -0.627638 2.589124 0.010785 -0.011051 1560960.000000 1 0 0
-8.840725 -2.179703 -12.824921 15.728577 0.241731 2.524199 0.008601 -0.000274 1360920.000000 1 0 0
-7.862425 8.085397 1.395679 11.363947 -0.799379 1.447669 0.005678 -0.001409 -1388720.000000 1 0 0
7.297875 0.886697 -6.563021 9.854870 0.120908 2.299586 0.006056 -0.000411 363067.000000 1 0 0
9.035475 8.861397 5.460179 13.783241 0.775672 1.163480 0.006275 0.002241 644527.000000 1 0 0
9.426875 -1.066903 -1.396421 9.589278 -0.112697 1.716939 0.008849 -0.003738 959469.000000 1 0 0
5.503175 0.179497 4.276879 6.972005 0.032605 0.910392 0.000859 -0.000879 -489448.000000 1 0 0
-4.279825 -7.381803 -8.041421 11.724861 1.045377 2.326559 0.010823 -0.003467 -113833.000000 1 0 0
-2.139925 7.396597 -0.603921 7.723577 -1.289174 1.649068 0.006876 -0.002333 223912.000000 1 0 0
13.366775 -3.248603 -7.421721 15.630292 -0.238413 2.065566 0.020632 -0.001213 1096300.000000 1 0 0
-4.838725 -5.015503 1.620679 7.155077 0.803336 1.342306 0.008501 -0.003094 1594430.000000 1 0 0
-8.951225 1.288297 2.515279 9.386734 -0.142943 1.299520 0.006404 -0.005315 -1444010.000000 1 0 0
-1.016125 11.220597 10.217179 15.209374 -1.480484 0.834203 0.009708 -0.000569 700978.000000 1 0 0
-8.619325 0.301497 7.417079 11.375268 -0.034965 0.860530 -0.003721 -0.001385 233013.000000 1 0 0
-6.104225 12.937497 -2.215521 14.475805 -1.129942 1.724450 0.000936 -0.000070 -278631.000000 1 0 0
-13.069525 -0.764003 3.313479 13.504641 0.058390 1.322907 0.002266 -0.004043 729267.000000 1 0 0
-6.625025 12.735297 8.601579 16.735170 -1.091112 1.030976 0.017267 -0.009041 -633162.000000 1 0 0
-8.057325 1.105097 -14.093621 16.271812 -0.136304 2.618217 -0.000673 -0.000212 -64037.400000 1 0 0
7.304875 2.940697 3.717279 8.707873 0.382717 1.129749 0.002366 -0.000191 -321964.000000 1 0 0
-1.626725 0.737397 -2.008021 2.687403 -0.425596 2.414631 0.004282 -0.007822 504957.000000 1 0 0
-6.223125 9.669097 -10.333921 15.459904 -0.998927 2.302897 0.001794 -0.004750 -182252.000000 1 0 0
-10.196925 13.697597 5.231279 17.859668 -0.930868 1.273527 0.009238 -0.002998 612319.000000 1 0 0
-5.633525 8.344497 2.396779 10.349482 -0.976965 1.337090 0.004232 -0.000342 -1491570.000000 1 0 0
-2.382325 -10.695303 -1.254921 11.029044 1.351629 1.684827 0.006950 -0.000030 490286.000000 1 0 0
-2.311725 -12.370203 8.813879 15.363934 1.386049 0.959813 0.004117 -0.004731 262891.000000 1 0 0
-14.763625 -6.420003 -1.679021 16.186419 0.410186 1.674713 0.014411 -0.002569 645683.000000 1 0 0
-2.679225 -9.238903 3.308879 10.172721 1.288545 1.239499 0.008599 -0.001912 -1186660.000000 1 0 0
4.775975 -2.676203 7.388279 9.195579 -0.510752 0.637712 0.005406 -0.004360 -552823.000000 1 0 0
-15.042225 -1.275903 -0.302021 15.099261 0.084619 1.590800 0.006115 -0.007354 5025.980000 1 0 0
5.471675 8.930197 -2.822221 10.846777 1.021079 1.834015 0.007058 0.000868 -534313.000000 1 0 0
-5.674125 -5.652103 8.644679 11.784415 0.783454 0.747238 0.006585 0.001488 -2858050.000000 1 0 0
3.460275 3.591497 7.035979 8.624231 0.804004 0.616619 -0.000580 0.000635 522106.000000 1 0 0
3.313575 2.293597 9.361379 10.191947 0.605460 0.406507 0.004782 -0.004262 -355654.000000 1 0 0
9.909075 -3.139503 5.153079 11.601744 -0.306826 1.110555 0.008843 -0.005086 -625101.000000 1 0 0
6.602575 10.093997 -5.061821 13.080704 0.991538 1.968138 0.002169 -0.003137 136677.000000 1 0 0
-4.467425 12.088897 -8.498821 15.437917 -1.216814 2.153779 -0.001308 -0.002634 -604546.000000 1 0 0
-3.437725 -7.234603 2.109779 8.283031 1.127203 1.313248 0.008325 -0.002644 846533.000000 1 0 0
-7.517125 -4.025703 1.172679 8.607475 0.491672 1.434132 0.007154 -0.003973 2228630.000000 1 0 0
-2.007325 -3.902903 -10.880921 11.732708 1.095762 2.758199 0.009826 -0.002745 -828299.000000 1 0 0
-5.349725 8.442997 -4.427121 10.931750 -1.006016 1.987751 0.006067 -0.005497 -1541380.000000 1 0 0
-10.984225 -3.400203 -10.034921 15.261527 0.300198 2.288333 0.013527 0.002484 -346601.000000 1 0 0
4.646575 -11.254103 -7.759721 14.438101 -1.179237 2.138204 -0.001442 0.002887 -3871430.000000 1 0 0
-9.440825 -4.056903 7.179079 12.535023 0.405861 0.960974 0.001860 0.001770 -986281.000000 1 0 0
-5.752525 -9.600403 -5.251621 12.362799 1.030968 2.009529 0.013058 -0.006719 -892555.000000 1 0 0
4.856075 4.266097 -9.467321 11.463473 0.720813 2.542537 0.001614 0.002210 360932.000000 1 0 0
-3.386125 -7.065003 -14.152621 16.176427 1.123860 2.636008 0.002871 0.006599 -133515.000000 1 0 0
0.529775 -0.724003 -8.664521 8.710842 -0.939091 3.038420 0.007383 -0.009487 -942203.000000 1 0 0
-7.794525 2.191197 -2.955721 8.619295 -0.274047 1.920819 0.008034 -0.003723 82565.900000 1 0 0
-2.265625 7.567197 -12.581721 14.855815 -1.279889 2.580966 -0.001996 -0.001972 -197627.000000 1 0 0
-9.862925 8.873297 7.526579 15.253265 -0.732628 1.054755 0.004060 -0.007717 -208430.000000 1 0 0
-10.842925 -2.985703 -14.366121 18.244695 0.268700 2.477398 0.017909 0.007481 -34097.500000 1 0 0
-3.228125 4.823297 7.946879 9.840624 -0.980988 0.630796 0.004185 -0.001896 -317916.000000 1 0 0
8.679675 -2.254703 -3.585021 9.657785 -0.254151 1.951103 0.008140 -0.003166 -5893430.000000 1 0 0
1.981375 -8.358803 -1.115121 8.662501 -1.338052 1.699884 0.001291 -0.000112 -680558.000000 1 0 0
-13.738825 -2.870803 5.053679 14.917657 0.205992 1.225185 0.015696 -0.003665 185314.000000 1 0 0
7.062075 2.728997 -1.919921 7.810661 0.368754 1.819149 0.007969 -0.000501 1631800.000000 1 0 0
-11.112725 4.336197 8.866379 14.862972 -0.372031 0.931611 -0.003916 -0.003068 -2787760.000000 1 0 0
-1.687525 -2.374103 8.079679 8.588674 0.952855 0.346001 0.009511 -0.003190 -1587250.000000 1 0 0
3.104675 11.944497 -9.979821 15.871573 1.316498 2.250787 0.001119 -0.005355 271333.000000 1 0 0
3.615975 -4.883803 -7.000321 9.269914 -0.933467 2.426703 0.002886 -0.004980 632434.000000 1 0 0
8.337675 -13.662603 -9.841521 18.789334 -1.022870 2.122081 0.018850 0.000131 456094.000000 1 0 0
-6.308925 -5.751403 -0.425121 8.547625 0.739203 1.620552 0.013181 -0.002491 -32906.300000 1 0 0
-1.161525 -3.973503 9.908579 10.738613 1.286402 0.395755 0.006632 -0.002023 887571.000000 1 0 0
2.812375 3.283097 1.828979 4.693969 0.862470 1.170551 -0.003352 0.000456 -556957.000000 1 0 0
-9.136425 13.302297 7.726279 17.891919 -0.968964 1.124275 0.013370 -0.019031 597332.000000 1 0 0
4.045675 -11.070403 -0.054421 11.786614 -1.220425 1.575414 0.000103 -0.002349 -157349.000000 1 0 0
-12.509025 -1.419803 -9.069821 15.516224 0.113019 2.195107 0.012667 -0.000093 -31562.300000 1 0 0
-4.384325 0.952897 -13.467121 14.194846 -0.214013 2.820000 0.004741 -0.006929 86499.400000 1 0 0
3.971075 -3.090803 4.943379 7.054041 -0.661387 0.794296 0.002044 -0.001913 264039.000000 1 0 0
1.851575 -1.229503 1.107879 2.483426 -0.586176 1.108383 0.000094 -0.003850 200115.000000 1 0 0
8.285475 -8.975003 7.426079 14.294979 -0.825325 1.024544 0.011029 -0.004607 -1221270.000000 1 0 0
-0.105125 2.304497 -6.338921 6.745641 -1.525211 2.792567 0.005266 -0.008265 838025.000000 1 0 0
-3.829725 -9.825003 -3.462621 11.098974 1.199119 1.888069 0.009206 -0.001819 1605400.000000 1 0 0
-9.453525 2.339397 -5.333821 11.103673 -0.242589 2.071868 0.004264 -0.000715 -1407330.000000 1 0 0
8.948575 -7.640703 5.365579 12.932392 -0.706723 1.142969 0.008629 -0.005449 159301.000000 1 0 0
-5.592725 -4.316103 4.690679 8.479964 0.657267 0.984658 0.005601 -0.002190 -851808.000000 1 0 0
-0.132525 -12.422803 10.293779 16.133985 1.560129 0.878874 0.007013 -0.005423 -1642280.000000 1 0 0
-14.268925 -8.351103 3.131779 16.827097 0.529515 1.383590 0.006515 -0.000686 -690822.000000 1 0 0
10.865375 -1.317403 -3.568521 11.512005 -0.120659 1.885971 0.014533 -0.001612 -663310.000000 1 0 0
-13.780525 2.957397 2.681779 14.347160 -0.211400 1.382770 0.001070 -0.003527 -228420.000000 1 0 0
-6.326025 6.122497 1.066479 8.867973 -0.769050 1.450243 0.006802 -0.001901 646571.000000 1 0 0
7.060175 -6.806603 -0.411221 9.815550 -0.767114 1.612703 0.001110 -0.003227 -71713.400000 1 0 0
-7.066825 7.703697 10.005379 14.470472 -0.828489 0.807324 0.000908 -0.002361 317878.000000 1 0 0
-12.591925 -5.125803 -1.862221 13.722183 0.386587 1.706925 -0.000563 -0.003189 -1386970.000000 1 0 0
-9.515825 -5.520903 0.155879 11.002527 0.525719 1.556628 0.008275 -0.001501 -975068.000000 1 0 0
-1.766525 1.734497 2.075879 3.230846 -0.776250 0.873016 0.005471 -0.004108 445670.000000 1 0 0
-7.125725 7.241397 7.566679 12.667613 -0.793449 0.930635 0.002276 -0.005025 -223067.000000 1 0 0
5.695775 7.151597 -0.497121 9.156108 0.898234 1.625117 0.005498 -0.000663 -844195.000000 1 0 0
0.028675 -3.994003 7.544579 8.536601 -1.563617 0.486891 0.007619 -0.003755 -846605.000000 1 0 0
6.541075 0.629497 13.028279 14.591709 0.095942 0.467151 0.012770 -0.004641 308331.000000 1 0 0
5.773675 6.136097 -7.814521 11.491464 0.815819 2.318598 -0.000820 -0.001468 32199.700000 1 0 0
10.045775 5.307497 9.044779 14.522229 0.486055 0.898450 0.009805 -0.001972 -1317660.000000 1 0 0
-1.259125 -5.018703 -8.479921 9.933873 1.324983 2.593725 0.004681 -0.002699 808269.000000 1 0 0
10.119675 -3.523803 -8.005721 13.375970 -0.335082 2.212443 0.022181 -0.007478 551991.000000 1 0 0
8.427475 -5.363803 1.328079 10.077525 -0.566802 1.438626 0.005399 -0.004727 884071.000000 1 0 0
15.822375 3.238597 -5.193221 16.964834 0.201896 1.881908 0.021982 0.007358 -581788.000000 1 0 0
-6.934125 3.532397 1.191979 7.872784 -0.471157 1.418807 0.008159 -0.005576 546365.000000 1 0 0
-1.772325 3.815997 0.388079 4.225349 -1.135994 1.478821 0.006338 -0.005378 -806707.000000 1 0 0
-2.520625 10.003097 6.876679 12.397750 -1.323951 0.982828 0.003976 0.001748 -966401.000000 1 0 0
5.537775 -5.755003 -8.670221 11.788119 -0.804632 2.397208 0.006276 -0.002783 -299573.000000 1 0 0
-1.233225 -0.925103 6.171679 6.361311 0.643597 0.244784 0.008132 -0.004300 516799.000000 1 0 0
-5.637125 5.084197 -7.771721 10.863972 -0.733871 2.367945 0.007183 -0.005448 267439.000000 1 0 0
6.789975 -1.225403 2.485379 7.333654 -0.178550 1.225048 0.001726 -0.001273 -1195710.000000 1 0 0
8.816475 7.573997 3.182379 12.050859 0.709738 1.303547 0.007582 -0.000349 284249.000000 1 0 0
-5.131325 -4.999603 -7.716721 10.529687 0.772397 2.393303 0.011560 -0.006732 -11348.600000 1 0 0
-2.193125 7.836197 -10.019921 12.907928 -1.297907 2.459509 0.001963 -0.002206 208376.000000 1 0 0
-2.819425 -2.335203 1.712779 4.041775 0.691734 1.133194 0.005083 -0.002644 72790.800000 1 0 0
5.925975 -2.056303 -9.191821 11.128124 -0.333998 2.542769 0.008385 -0.002937 1128510.000000 1 0 0
1.109675 -7.561603 5.081079 9.177504 -1.425085 0.984061 0.002452 -0.002458 472665.000000 1 0 0
1.733875 11.963497 1.220379 12.149935 1.426868 1.470183 0.004815 -0.003762 -245541.000000 1 0 0
-1.064325 6.938597 2.508879 7.454622 -1.418591 1.227542 0.002289 0.000789 709204.000000 1 0 0
8.716775 7.850497 -6.589121 13.454701 0.733157 2.082572 0.012141 -0.008751 152671.000000 1 0 0
3.740975 -11.131103 5.479079 12.958266 -1.246573 1.134236 0.007953 -0.004783 27649.400000 1 0 0
7.987075 -7.159803 12.367079 16.370730 -0.730836 0.714473 0.021674 -0.005007 655492.000000 1 0 0
-8.485025 -0.031003 -4.148021 9.444718 0.003654 2.025493 0.009096 -0.000490 -1677700.000000 1 0 0
-3.367625 -5.018703 11.227879 12.751217 0.979789 0.493809 0.009479 -0.004025 -209455.000000 1 0 0
-8.278225 0.088697 -11.613521 14.262214 -0.010714 2.522294 0.003269 -0.001436 -1587250.000000 1 0 0
1.322775 -4.898203 5.339479 7.365607 -1.307035 0.759877 0.002928 -0.003546 -512687.000000 1 0 0
6.757075 3.794197 -7.597121 10.852200 0.511641 2.346269 0.001370 -0.000118 -1443250.000000 1 0 0
16.404675 4.249897 -1.193121 16.988188 0.253493 1.641087 0.018472 0.010516 -949329.000000 1 0 0
7.985575 7.485697 0.253279 10.948480 0.753099 1.547661 0.007274 0.000468 -3138790.000000 1 0 0
5.536975 -10.354103 13.834979 18.145859 -1.079728 0.703733 0.009906 -0.003473 -540642.000000 1 0 0
-5.111825 -9.283103 9.024579 13.919403 1.067447 0.865387 0.003535 -0.005591 624025.000000 1 0 0
-12.644825 -3.187003 2.844179 13.346833 0.246898 1.356052 0.005648 -0.000672 539430.000000 1 0 0
-2.064125 -1.184703 -5.753121 6.225957 0.521044 2.749350 0.005052 -0.009362 -1397870.000000 1 0 0
-2.510125 13.127497 -4.352621 14.056216 -1.381866 1.885630 0.004499 0.003688 458053.000000 1 0 0
3.860175 -0.404403 -4.884921 6.239146 -0.104382 2.470185 0.007984 -0.004877 -269461.000000 1 0 0
-8.948025 3.856597 -7.357621 12.209631 -0.406942 2.217561 0.003531 -0.002890 116134.000000 1 0 0
-4.461625 7.998597 -11.264721 14.518181 -1.061984 2.458944 0.006208 -0.002773 -803541.000000 1 0 0
-10.067925 -6.543903 7.335179 14.070914 0.576358 1.022422 0.006911 -0.000589 -1155220.000000 1 0 0
8.084475 5.320797 4.190779 10.546670 0.582083 1.162163 0.002788 0.000959 -2005590.000000 1 0 0
-6.754825 -7.649803 4.026079 10.970709 0.847450 1.195031 0.010604 -0.000506 -510788.000000 1 0 0
-4.123825 11.842197 7.911479 14.826836 -1.235698 1.007954 0.011308 -0.002201 -78660.100000 1 0 0
-7.239325 9.977597 -7.926221 14.655554 -0.943123 2.142225 0.004786 -0.005501 -85611.700000 1 0 0
13.106375 5.541497 4.684379 14.980943 0.400014 1.252773 0.014348 -0.003866 -1182440.000000 1 0 0
5.414075 3.904597 -3.730621 7.646935 0.624809 2.080431 0.005099 -0.000230 435969.000000 1 0 0
-2.925025 -4.239303 5.129679 7.269186 0.966828 0.787422 0.005927 -0.001385 -907093.000000 1 0 0
12.406975 -2.404303 -5.163821 13.652060 -0.191414 1.958696 0.019957 -0.000271 -2303220.000000 1 0 0
-5.152025 9.656497 6.921579 12.949886 -1.080686 1.006893 0.005683 -0.002211 152488.000000 1 0 0
1.784775 3.736197 -0.453821 4.165398 1.125149 1.679963 0.001355 -0.002287 561115.000000 1 0 0
-0.010425 9.636597 7.694279 12.331506 -1.569715 0.897005 0.000994 0.004527 1029460.000000 1 0 0
-5.510125 2.122197 5.954079 8.385479 -0.367635 0.781232 0.004875 -0.003443 798789.000000 1 0 0
8.922475 0.811797 10.622879 13.896587 0.090734 0.700650 0.016844 -0.002791 -2340160.000000 1 0 0
0.350475 -2.791303 -10.088521 10.473417 -1.445890 2.869647 0.005414 -0.004130 -1864250.000000 1 0 0
1.200875 10.665797 -2.823221 11.098284 1.458677 1.828007 0.008949 -0.002973 332743.000000 1 0 0
2.348175 -4.246303 11.614779 12.587617 -1.065658 0.395732 0.006718 -0.005711 -956941.000000 1 0 0
6.567275 -3.083503 9.437779 11.904149 -0.438972 0.655384 0.009576 -0.007681 442732.000000 1 0 0
-10.637625 -8.337603 5.712679 14.673425 0.664775 1.170902 0.011533 -0.001021 -1001410.000000 1 0 0
-3.031825 0.853797 -6.832421 7.523490 -0.274503 2.709628 0.008278 -0.009821 544185.000000 1 0 0
11.150975 2.573897 -5.070721 12.517244 0.226850 1.987883 0.004603 0.001381 -2839880.000000 1 0 0
-1.965325 -4.014903 0.000979 4.470117 1.115578 1.570577 0.004067 -0.003994 979415.000000 1 0 0
-1.149225 -6.361203 -10.604821 12.419656 1.392063 2.594180 0.005122 0.002751 571783.000000 1 0 0
0.369475 6.912997 -6.645121 9.596024 1.517401 2.335727 0.005806 -0.002419 -2099140.000000 1 0 0
2.051775 3.867797 -6.119721 7.524667 1.083066 2.520577 0.004207 -0.004527 -2059020.000000 1 0 0
1.632875 -14.658403 6.389479 16.073596 -1.459859 1.161990 0.020014 -0.010411 -38361.000000 1 0 0
-1.715825 5.361397 -10.523621 11.934623 -1.261063 2.650403 0.006521 -0.004272 -457244.000000 1 0 0
13.751675 4.312597 -0.789221 14.433639 0.303891 1.625503 0.006476 0.001938 -312742.000000 1 0 0
-2.477325 3.421997 -6.158721 7.468403 -0.944182 2.540356 0.008063 -0.010130 -322293.000000 1 0 0
5.636875 7.824797 14.120279 17.099242 0.946519 0.599206 0.010161 -0.003093 455349.000000 1 0 0
15.911975 0.670597 -5.860721 16.970230 0.042119 1.923411 0.016814 0.003356 -171017.000000 1 0 0
6.253775 -8.251603 10.520079 14.760444 -0.922267 0.777427 0.005108 -0.001590 251701.000000 1 0 0
0.005775 -5.940403 -6.255821 8.626918 -1.569824 2.382050 0.000039 -0.003532 -254259.000000 1 0 0
8.809275 5.512397 -7.495621 12.813047 0.559138 2.195675 0.002664 -0.001491 104533.000000 1 0 0
-15.997125 -0.666303 5.161279 16.822329 0.041627 1.258956 0.018264 -0.010530 -426174.000000 1 0 0
-0.432725 3.899297 -12.264921 12.877114 -1.460273 2.832004 0.007083 -0.004518 508241.000000 1 0 0
-11.373225 3.608997 5.855879 13.291592 -0.307274 1.114563 -0.000623 -0.005303 1020950.000000 1 0 0
5.261275 -9.508703 -9.591921 14.494875 -1.065414 2.293941 0.001987 0.002271 -32345.200000 1 0 0
1.533875 11.201697 -11.794121 16.338056 1.434710 2.377312 -0.003186 0.001234 -2146220.000000 1 0 0
6.014375 2.410297 1.181879 6.586279 0.381158 1.390373 0.003534 0.001212 -303386.000000 1 0 0
5.740775 4.592297 4.954679 8.865356 0.674707 0.977761 -0.002076 0.001407 -426001.000000 1 0 0
0.341675 -1.494103 -6.226521 6.412382 -1.345980 2.900239 0.001530 -0.005811 -483763.000000 1 0 0
12.814475 6.907297 -4.557521 15.254262 0.494377 1.874200 0.011333 -0.006529 -289552.000000 1 0 0
7.383075 3.110497 12.688779 15.006335 0.398733 0.563180 0.010201 -0.000949 -98722.200000 1 0 0
-2.505725 -0.077603 8.618979 8.976162 0.030960 0.283052 0.005490 -0.001851 870459.000000 1 0 0
2.433075 -15.043403 13.298079 20.225299 -1.410448 0.853304 0.019536 -0.010472 28247.800000 1 0 0
18.958275 4.609597 -1.720221 19.586315 0.238516 1.658737 0.028678 0.008872 773670.000000 1 0 0
-0.488125 -13.243003 7.196479 15.079944 1.533954 1.073306 0.006022 -0.006341 274833.000000 1 0 0
4.449575 1.660397 -0.601921 4.787269 0.357155 1.696864 0.001665 -0.001915 613612.000000 1 0 0
2.707375 -0.417103 -7.322421 7.818037 -0.152860 2.783611 0.004135 -0.004702 172678.000000 1 0 0
7.173375 -11.288003 0.900979 13.404778 -1.004692 1.503532 0.000739 -0.000456 382536.000000 1 0 0
-11.949025 -7.356803 1.252279 14.087936 0.551871 1.481789 0.005204 0.001029 415086.000000 1 0 0
0.127775 -7.088603 10.113079 12.350667 -1.552773 0.611429 0.003206 -0.004322 -3176710.000000 1 0 0
-4.684725 -7.169903 10.628579 13.649939 0.992043 0.678279 0.010213 -0.001672 -732371.000000 1 0 0
11.904975 0.744097 -1.654021 12.042338 0.062422 1.708582 0.007836 0.000553 1373440.000000 1 0 0
6.498675 -9.651503 -7.331721 13.752760 -0.978193 2.133067 0.000384 -0.001081 -609733.000000 1 0 0
-10.971925 4.735297 3.565679 12.470776 -0.407433 1.280827 0.001541 -0.003996 80847.100000 1 0 0
5.931575 -9.137403 1.979879 11.072291 -0.995017 1.391016 -0.003344 -0.003708 2279660.000000 1 0 0
11.682875 -1.348903 5.840979 13.131114 -0.114951 1.109823 0.011272 -0.009338 -298793.000000 1 0 0
-6.456325 3.576797 4.138179 8.461805 -0.505908 1.059805 0.004666 -0.004841 -2531410.000000 1 0 0
9.591175 6.360397 -3.134021 11.927589 0.585565 1.836672 0.006830 -0.001947 774356.000000 1 0 0
-2.343225 6.551097 10.925879 12.953085 -1.227292 0.567037 0.004263 -0.001062 236649.000000 1 0 0
1.794475 9.844497 2.932579 10.427573 1.390494 1.285717 0.000628 0.000370 -85127.400000 1 0 0
2.894875 6.114797 -5.598121 8.781230 1.128637 2.262058 0.005213 -0.002057 -2037270.000000 1 0 0
12.003475 0.087997 -5.586521 13.240105 0.007331 2.006380 0.014442 0.000344 566058.000000 1 0 0
-2.780425 -12.461103 6.260179 14.219694 1.351264 1.114922 0.004853 -0.004732 -468510.000000 1 0 0
10.805175 1.792897 -2.769921 11.297732 0.164431 1.818496 0.003956 0.001133 531308.000000 1 0 0
-8.874625 5.340097 0.879279 10.394649 -0.541688 1.486106 0.005953 -0.003974 -628727.000000 1 0 0
1.244975 -10.074003 5.445879 11.519249 -1.447837 1.078372 0.002578 -0.004236 347002.000000 1 0 0
9.354775 -5.765803 -1.253121 11.060136 -0.552354 1.684341 0.010606 -0.004242 1686180.000000 1 0 0
-7.996125 8.495197 -4.311321 12.437599 -0.815652 1.924779 0.002840 -0.004222 -654546.000000 1 0 0
-7.568025 -0.045203 -1.679921 7.752366 0.005973 1.789227 0.005253 -0.004437 -1772720.000000 1 0 0
4.088175 8.832897 2.733879 10.109765 1.137320 1.296967 0.003906 -0.000367 664830.000000 1 0 0
-1.318425 -10.513203 -3.786221 11.251718 1.446041 1.913996 0.006974 0.000541 862244.000000 1 0 0
3.139575 7.895097 -3.706521 9.269724 1.192308 1.982152 0.010039 -0.003581 245071.000000 1 0 0
-4.353825 1.675897 -10.957221 11.909035 -0.367444 2.739072 0.005881 -0.006729 -410792.000000 1 0 0
1.196975 2.741797 10.952779 11.354011 1.159170 0.266640 0.005153 -0.003467 871739.000000 1 0 0
2.192075 5.584597 -8.056221 10.044681 1.196753 2.501497 0.003888 -0.001523 8534.920000 1 0 0
15.515575 6.206597 4.046579 17.193886 0.380527 1.333218 0.031242 -0.007192 159709.000000 1 0 0
-4.510925 8.970397 4.537679 11.018484 -1.104857 1.146341 0.004981 0.002392 221579.000000 1 0 0
-0.830325 -8.098803 -12.393921 14.828666 1.468629 2.560400 0.001661 0.006706 56005.500000 1 0 0
14.295075 -4.207303 -5.293321 15.813596 -0.286236 1.912117 0.024570 -0.000674 -370401.000000 1 0 0
-6.065525 -6.246903 -5.648821 10.378997 0.800128 2.146297 0.011171 -0.003582 537361.000000 1 0 0
-9.008725 2.495497 -12.141721 15.323382 -0.270233 2.485473 0.004862 -0.004239 -749836.000000 1 0 0
10.466075 5.346097 13.792279 18.120332 0.472252 0.705713 0.022659 -0.003580 247094.000000 1 0 0
-0.400125 10.869697 5.491379 12.184648 -1.534002 1.103269 0.001411 0.005953 825379.000000 1 0 0
0.460675 11.125797 -0.647721 11.154153 1.529414 1.628899 0.006338 -0.001643 -50020.100000 1 0 0
-1.410725 -0.624703 3.625379 3.940022 0.416870 0.402354 0.005759 -0.003960 224272.000000 1 0 0
-4.910325 6.703597 8.826979 12.122915 -0.938595 0.755216 0.005843 -0.002558 -2876980.000000 1 0 0
3.562575 -8.558403 -11.289021 14.607539 -1.176346 2.454072 -0.000816 0.006063 197795.000000 1 0 0
6.874675 -3.837903 11.978979 14.334804 -0.509168 0.581468 0.019971 -0.008635 -144532.000000 1 0 0
-2.566325 -1.838603 -12.343121 12.740452 0.621671 2.891193 0.008079 -0.007633 925905.000000 1 0 0
-16.070825 -4.981303 5.323379 17.647186 0.300569 1.264367 0.026290 -0.003234 495728.000000 1 0 0
-8.956925 7.179097 5.735279 12.831967 -0.675663 1.107441 0.002547 -0.004795 -4061100.000000 1 0 0
-12.854025 1.425497 5.983279 14.249829 -0.110448 1.137479 -0.005077 -0.002499 166466.000000 1 0 0
-3.641725 3.612997 10.229879 11.444052 -0.781438 0.464817 0.005426 -0.001165 637547.000000 1 0 0
2.087475 -12.357503 -1.186121 12.588579 -1.403452 1.665158 -0.000451 0.001261 -3353850.000000 1 0 0
10.295475 -5.143403 -3.629821 12.067601 -0.463311 1.876318 0.016860 -0.001897 751982.000000 1 0 0
3.378075 -13.471203 0.980079 13.922832 -1.325100 1.500344 0.004893 -0.001354 304461.000000 1 0 0
10.148275 -1.713403 -6.109621 11.968739 -0.167259 2.106522 0.016251 -0.001947 -621959.000000 1 0 0
11.950875 -5.512103 -1.564221 13.253433 -0.432154 1.689096 0.016659 -0.001354 -252898.000000 1 0 0
1.422175 0.895097 5.994079 6.225172 0.561747 0.273329 0.003103 -0.004236 395655.000000 1 0 0
-10.836225 11.688297 6.577179 17.242371 -0.823209 1.179427 0.010711 -0.005872 -366216.000000 1 0 0
4.787575 -14.114003 3.127779 15.228557 -1.243768 1.363935 0.009028 -0.007184 -3993620.000000 1 0 0
5.173675 -3.464603 -1.694521 6.453045 -0.590072 1.836504 0.006898 -0.004650 -2040620.000000 1 0 0
2.006875 -2.790703 -7.634421 8.372572 -0.947347 2.718533 0.002752 -0.004163 64133.600000 1 0 0
-2.910025 14.786397 -8.800121 17.451301 -1.376476 2.099330 0.004506 -0.006943 -994473.000000 1 0 0
-2.349725 6.151297 -8.021421 10.377999 -1.205913 2.454236 0.008447 -0.007509 -23284.300000 1 0 0
2.630375 -3.438503 -11.332521 12.131290 -0.917779 2.776684 0.004983 0.000167 -271198.000000 1 0 0
14.892175 2.799397 -2.741421 15.398990 0.185809 1.749776 0.018326 0.007139 685455.000000 1 0 0
-3.529425 13.022097 2.192979 13.668980 -1.306121 1.409665 0.005296 0.001996 74927.800000 1 0 0
7.940175 -5.074603 13.974179 16.854544 -0.568678 0.593292 0.025634 -0.010783 -1299660.000000 1 0 0
-11.460525 7.210797 2.948579 13.857610 -0.561604 1.356380 0.003784 -0.004170 932991.000000 1 0 0
-2.338925 11.952897 4.168479 12.873171 -1.377559 1.241041 0.003365 0.001535 306863.000000 1 0 0
1.758275 1.438297 0.736479 2.388018 0.685630 1.257279 -0.000913 -0.001703 -1195670.000000 1 0 0
-6.902825 8.489597 5.324179 12.168366 -0.888123 1.117932 0.003093 -0.002865 -627269.000000 1 0 0
-1.162325 9.092497 1.030479 9.224228 -1.443652 1.458848 0.004169 0.000719 127147.000000 1 0 0
4.875975 12.991897 -8.473121 16.259099 1.211755 2.118972 0.003627 -0.012145 -1184870.000000 1 0 0
8.878975 6.903997 7.133479 13.318705 0.660912 1.005580 0.002136 -0.000266 -1568230.000000 1 0 0
7.194375 -13.687103 2.852979 15.723718 -1.086854 1.388341 0.016742 -0.008595 -1071290.000000 1 0 0
4.226275 -13.308503 -1.410621 14.034511 -1.263306 1.671477 -0.002813 0.002819 -3173450.000000 1 0 0
12.138875 -11.856803 -4.636921 17.590824 -0.773644 1.837547 0.032761 -0.004982 -1007830.000000 1 0 0
2.931675 -0.027203 -1.909321 3.498709 -0.009279 2.148046 0.002553 -0.004963 317218.000000 1 0 0
-13.573625 -3.162703 -10.657421 17.544988 0.228919 2.223623 0.015137 -0.004135 629561.000000 1 0 0
-6.618725 13.628097 4.978579 15.947376 -1.118680 1.253301 0.013396 -0.003221 434233.000000 1 0 0
7.276075 -4.312803 -0.691921 8.486477 -0.535062 1.652419 0.002565 -0.003018 -1131040.000000 1 0 0
11.843675 1.950397 -7.289321 14.043179 0.163213 2.116553 0.012467 0.001639 -548507.000000 1 0 0
-7.651025 -4.629903 9.740679 13.223275 0.544187 0.742721 0.004899 0.001003 20216.200000 1 0 0
0.971275 2.827197 8.443679 8.957239 1.239882 0.340268 0.002894 -0.003027 -1659760.000000 1 0 0
1.593675 8.093297 -8.710821 11.996652 1.376371 2.383435 0.004869 -0.003110 -1715390.000000 1 0 0
-8.635525 -2.412503 -5.470721 10.503392 0.272424 2.118646 0.008164 -0.004425 -140322.000000 1 0 0
6.649975 -0.499003 7.116079 9.752423 -0.074898 0.752953 0.005237 -0.004267 719543.000000 1 0 0
-10.896425 6.431397 7.186479 14.551303 -0.533205 1.054259 -0.000475 -0.006451 583742.000000 1 0 0
-6.088725 10.978597 4.814079 13.445353 -1.064429 1.204620 0.003767 -0.002115 98458.200000 1 0 0
6.028275 -1.295803 -6.894121 9.249222 -0.211732 2.411891 0.008730 -0.002627 -8600.130000 1 0 0
4.594475 -5.706203 11.420579 13.568330 -0.892910 0.570357 0.009048 -0.006225 -1209650.000000 1 0 0
-8.988425 -7.369803 2.711179 11.935505 0.686771 1.341644 0.012165 -0.001223 -2997950.000000 1 0 0
-1.178525 12.806597 -9.334621 15.891287 -1.479030 2.198645 0.010873 0.000738 576242.000000 1 0 0
-4.753325 9.270197 -2.303221 10.669371 -1.096998 1.788381 0.004860 -0.002687 646474.000000 1 0 0
-3.235125 9.653797 -0.282321 10.185359 -1.247444 1.598518 0.005125 -0.001944 -843706.000000 1 0 0
-3.487925 10.778497 -6.373921 12.998788 -1.257831 2.083285 0.004183 0.001174 966818.000000 1 0 0
4.840475 -4.785603 0.412279 6.819250 -0.779698 1.510301 0.001885 -0.004529 -1792050.000000 1 0 0
-2.284125 2.952597 -10.733021 11.363661 -0.912362 2.806877 0.008705 -0.005394 -1957280.000000 1 0 0
-3.632525 12.170897 -2.239921 12.897411 -1.280753 1.745354 0.002999 0.000510 -790939.000000 1 0 0
-0.140425 0.335997 0.125779 0.385271 -1.174925 1.238231 -0.000776 -0.004564 -1582090.000000 1 0 0
-4.811125 -1.635003 0.188079 5.084834 0.327593 1.533800 0.005706 -0.004353 271529.000000 1 0 0
2.544075 2.414197 -2.457921 4.282761 0.759210 2.182069 -0.001095 -0.003450 1783470.000000 1 0 0
6.101475 -9.680103 8.423079 14.208471 -1.008387 0.936239 0.005509 -0.004063 -335816.000000 1 0 0
-4.358625 -5.553303 6.607379 9.669242 0.905349 0.818469 0.003994 -0.002126 270591.000000 1 0 0
-6.257925 5.308397 -11.973421 14.515630 -0.703488 2.540758 0.002895 -0.005204 1432070.000000 1 0 0
-13.023825 3.009697 7.950579 15.552813 -0.227105 1.034217 0.000139 -0.002998 569478.000000 1 0 0
4.686175 -7.396903 -4.911621 10.039842 -1.006085 2.081983 0.003672 -0.003462 1882680.000000 1 0 0
-6.100525 2.472197 -1.048121 6.665337 -0.385018 1.728701 0.010673 -0.006357 -534160.000000 1 0 0
-6.959025 -2.737103 -14.413121 16.237543 0.374732 2.662995 0.006752 -0.000434 -1033220.000000 1 0 0
2.777275 -6.099103 0.931879 6.766144 -1.143496 1.432630 0.000312 -0.002632 -559207.000000 1 0 0
4.799375 -7.920803 12.836379 15.828637 -1.026035 0.625007 0.008318 -0.003248 -429718.000000 1 0 0
-10.047925 -1.789403 8.000679 12.968177 0.176239 0.905939 0.003365 0.001760 -113685.000000 1 0 0
-4.561025 13.273997 -0.121721 14.036266 -1.239829 1.579468 0.005086 0.003962 650620.000000 1 0 0
6.877675 2.283197 -4.470421 8.514697 0.320525 2.123540 0.007212 -0.000090 -2125720.000000 1 0 0
5.037875 4.544397 0.038379 6.784777 0.733945 1.565140 -0.000330 0.000883 -755109.000000 1 0 0
-5.979925 12.253097 1.811679 13.754275 -1.116767 1.438695 0.005700 -0.000089 -970183.000000 1 0 0
6.570875 -7.260303 6.607079 11.812785 -0.835203 0.977236 0.002597 -0.004637 -2708700.000000 1 0 0
-0.336825 4.941797 7.645379 9.109700 -1.502743 0.574881 -0.000898 -0.000804 -305627.000000 1 0 0
-5.768025 -3.360603 -1.473021 6.836195 0.527547 1.787973 0.008900 -0.004774 -951219.000000 1 0 0
2.360975 -6.432103 -5.192321 8.596880 -1.219004 2.219278 -0.001007 -0.001172 -967590.000000 1 0 0
-14.344125 -4.851303 -3.759421 15.601997 0.326132 1.814149 0.012591 -0.009385 -204400.000000 1 0 0
-12.342425 -5.134303 -6.354321 14.801146 0.394213 2.014528 0.016004 -0.011130 -1680370.000000 1 0 0
-14.790425 -3.772003 -1.246121 15.314617 0.249707 1.652254 0.006475 -0.002650 674036.000000 1 0 0
12.060275 2.926797 8.669879 15.138797 0.238078 0.961009 0.023492 -0.008116 -1948940.000000 1 0 0
8.804375 -6.539603 7.713679 13.408366 -0.638856 0.957839 0.010920 -0.004647 158325.000000 1 0 0
-8.862325 -1.773903 -9.664721 13.232323 0.197552 2.389685 0.002100 0.000856 -125535.000000 1 0 0
-8.935625 5.186997 -3.770121 10.998370 -0.525947 1.920681 0.006615 -0.004276 -611585.000000 1 0 0
-4.120225 -6.323303 4.134579 8.605531 0.993301 1.069622 0.008565 -0.001081 -1240000.000000 1 0 0
-0.227825 -9.220503 3.536779 9.878177 1.546093 1.204629 0.004756 -0.003882 -411487.000000 1 0 0
7.914875 -10.370103 3.271479 13.449418 -0.918875 1.325088 0.005502 -0.005750 676273.000000 1 0 0
-0.119825 6.518997 9.543979 11.558513 -1.552417 0.599337 0.001820 -0.001090 -144550.000000 1 0 0
-0.023625 3.502497 -9.669821 10.284624 -1.564051 2.794076 0.007125 -0.006592 456974.000000 1 0 0
4.521875 -3.110903 11.026579 12.317082 -0.602605 0.461857 0.010770 -0.008005 -2647710.000000 1 0 0
8.508875 -9.052803 1.210779 12.482795 -0.816361 1.473648 0.003147 -0.000951 1072710.000000 1 0 0
-0.252025 -0.368903 11.498079 11.506756 0.971452 0.038837 0.011918 -0.004230 -960497.000000 1 0 0
10.878275 6.069297 11.366179 16.863074 0.508910 0.831149 0.025269 -0.004330 561392.000000 1 0 0
-6.457525 -2.923303 -11.801821 13.766928 0.425095 2.600718 0.007259 -0.001712 571304.000000 1 0 0
-1.696025 2.850197 8.474179 9.100101 -1.034021 0.373055 0.005645 -0.003460 955847.000000 1 0 0
-1.618525 13.554297 -6.860521 15.277609 -1.451949 2.036506 0.008853 0.000359 22684.200000 1 0 0
7.692975 3.023697 9.712379 12.753624 0.374498 0.705112 0.008505 -0.000833 776293.000000 1 0 0
6.488675 8.449497 -7.910521 13.269259 0.915915 2.209498 0.003832 -0.006374 -220378.000000 1 0 0
6.574775 -2.984503 -3.923421 8.217552 -0.426119 2.068540 0.009848 -0.005333 -2430940.000000 1 0 0
2.007175 8.244897 1.033879 8.548449 1.331997 1.449556 0.003915 0.001520 774942.000000 1 0 0
-17.742225 6.335797 6.575779 19.954191 -0.342988 1.234976 0.026151 -0.006677 304347.000000 1 0 0
-14.569925 2.953497 -10.226921 18.044273 -0.200002 2.173374 0.030865 -0.007855 -93540.100000 1 0 0
-18.391525 0.023997 -4.367321 18.902970 -0.001305 1.803942 0.040726 -0.009397 297864.000000 1 0 0
-13.080125 7.900797 0.126279 15.281630 -0.543378 1.562533 0.006355 -0.003778 -1215530.000000 1 0 0
-12.660425 -4.501403 -12.753621 18.525761 0.341610 2.330113 0.022532 0.006551 71800.900000 1 0 0
-17.334625 -0.657803 -8.619421 19.370502 0.037929 2.031945 0.042158 -0.014727 1312270.000000 1 0 0
-16.703925 -2.141303 -2.195521 16.983127 0.127496 1.700436 0.024003 -0.007910 -715724.000000 1 0 0
-15.446025 4.215697 1.689479 16.099880 -0.266442 1.465665 0.007536 -0.003045 91039.500000 1 0 0
-13.239025 5.877397 4.439479 15.150068 -0.417807 1.273398 -0.001466 -0.004986 988349.000000 1 0 0
-10.121825 14.287897 2.716479 17.719329 -0.954442 1.416883 0.024022 -0.004473 472358.000000 1 0 0
-11.835325 2.423997 -6.375121 13.659899 -0.202017 2.056356 0.004346 -0.000303 406533.000000 1 0 0
-16.032225 10.441397 3.640879 19.475908 -0.577271 1.382747 0.018523 -0.010563 -789562.000000 1 0 0
-12.854925 1.100397 -8.481421 15.440028 -0.085393 2.152339 0.011253 -0.002934 744284.000000 1 0 0
-12.312325 14.448397 4.002679 19.400283 -0.865050 1.362983 0.034209 -0.010661 -480412.000000 1 0 0
-10.569725 11.240997 -1.001221 15.462262 -0.816166 1.635594 0.005836 -0.003418 213943.000000 1 0 0
-16.715825 5.596097 8.899179 19.746658 -0.323051 1.103283 -0.003625 -0.013767 808402.000000 1 0 0
-11.747325 12.601097 -9.186821 19.523959 -0.820449 2.060700 0.029380 -0.010753 -579413.000000 1 0 0
-17.324525 -0.567403 2.910879 17.576528 0.032740 1.404418 0.022944 -0.005157 1002890.000000 1 0 0
-13.351125 14.804997 -0.726821 19.949154 -0.836988 1.607238 0.045166 -0.015268 17538.700000 1 0 0
-16.453525 4.670097 -10.404921 20.019757 -0.276562 2.117334 0.057556 -0.008616 576466.000000 1 0 0
-12.026725 7.672797 -8.854921 16.790579 -0.567878 2.126304 0.013231 -0.000718 45642.300000 1 0 0
-15.000525 13.268497 -2.094821 20.135964 -0.724205 1.675019 0.057193 -0.019573 934941.000000 1 0 0
-11.954525 10.612297 -5.426221 16.881214 -0.725990 1.898041 0.020006 -0.008895 1352220.000000 1 0 0
-17.813725 2.826097 -0.869821 18.057470 -0.157336 1.618985 0.032042 -0.009205 -265371.000000 1 0 0
-9.529125 15.406397 0.593879 18.124955 -1.016872 1.538025 0.025867 -0.008718 225010.000000 1 0 0
-8.178925 13.235497 -3.718121 15.996800 -1.017280 1.805371 0.002152 -0.003296 147037.000000 1 0 0
-18.003325 11.374197 2.073279 21.396041 -0.563462 1.473744 0.078555 -0.009088 324894.000000 1 0 0
-8.161325 15.610497 -7.212321 19.034506 -1.089068 1.959412 0.037158 -0.025406 -100300.000000 1 0 0
-6.219725 15.257597 -5.386021 17.334603 -1.183715 1.886735 -0.001951 -0.004128 -1385880.000000 1 0 0
-17.492725 5.296797 -0.248621 18.278766 -0.294024 1.584398 0.037119 -0.006778 602461.000000 1 0 0
-5.415925 12.307497 -12.206421 18.160491 -1.156247 2.307894 0.001908 -0.007882 259194.000000 1 0 0
-11.215425 3.745397 -11.405521 16.428623 -0.322306 2.338169 0.014487 -0.005473 812695.000000 1 0 0
-11.955225 11.070997 1.247779 16.341705 -0.747016 1.494366 0.010658 -0.007475 80490.500000 1 0 0
-12.937725 0.148097 -10.958621 16.955767 -0.011446 2.273530 0.013547 -0.007467 -31865.800000 1 0 0
-14.064125 -2.294003 -13.109221 19.362689 0.161686 2.314523 0.031255 -0.001248 193377.000000 1 0 0
-18.805325 -2.376203 -3.572721 19.288622 0.125692 1.757096 0.033141 -0.009250 403854.000000 1 0 0
-18.303625 4.712397 -5.220121 19.608137 -0.251985 1.840268 0.042666 -0.009345 382972.000000 1 0 0
-8.182125 15.361497 -2.183221 17.541072 -1.081380 1.695583 0.012874 -0.006039 -158261.000000 1 0 0
-16.143725 8.922297 -5.331921 19.200433 -0.504898 1.852193 0.038425 -0.006690 -65369.200000 1 0 0
-18.447325 1.646397 2.180079 18.648517 -0.089013 1.453625 0.050749 -0.011878 304304.000000 1 0 0
-15.671125 -2.766603 -8.500821 18.041680 0.174741 2.061421 0.016896 -0.008458 -29683.000000 1 0 0
-9.803725 10.424297 -7.190521 16.015074 -0.816067 2.036425 0.010071 -0.007625 438467.000000 1 0 0
-13.897625 12.132097 -7.723121 19.999459 -0.717675 1.967268 0.042665 -0.013625 -22526.500000 1 0 0
-11.169425 6.564997 -3.754821 13.489030 -0.531375 1.852884 -0.000957 -0.002999 -1177680.000000 1 0 0
-13.136925 5.063597 -12.565921 18.871173 -0.367899 2.299468 0.049854 -0.013551 -323760.000000 1 0 0
-17.804625 8.902097 2.615179 20.077130 -0.463638 1.440169 0.038093 -0.018342 830382.000000 1 0 0
-13.567925 8.830197 -6.609821 17.485729 -0.576947 1.958445 0.015177 -0.002897 214535.000000 1 0 0
-15.939625 6.856897 -3.735221 17.749382 -0.406249 1.782824 0.021096 -0.002611 -912019.000000 1 0 0
-14.896225 -0.359803 -9.278521 17.553288 0.024149 2.127737 0.027634 -0.009104 14511.100000 1 0 0
-10.023925 5.845497 -6.026021 13.075238 -0.527941 2.049775 0.000888 -0.000266 182178.000000 1 0 0
-12.952725 12.183997 -0.840621 17.802514 -0.754826 1.618033 0.022119 -0.010552 -916267.000000 1 0 0
-10.664225 3.464297 -13.929121 17.881484 -0.314098 2.463816 0.016150 -0.007506 573351.000000 1 0 0
-10.953325 6.350897 -11.837121 17.332820 -0.525445 2.322564 0.009337 -0.007654 355320.000000 1 0 0
-5.818425 11.548497 -14.696021 19.575364 -1.104093 2.419979 0.010531 -0.013114 -301095.000000 1 0 0
-15.809525 13.122097 3.509179 20.843341 -0.692775 1.401631 0.039572 -0.015166 437355.000000 1 0 0
-15.119225 10.857897 -3.207521 18.888438 -0.622805 1.741437 0.039405 -0.008777 642573.000000 1 0 0
-18.265425 7.665197 -4.497121 20.312683 -0.397336 1.794041 0.047759 -0.005938 -955143.000000 1 0 0
-4.117125 16.180497 -10.662921 19.810530 -1.321634 2.139150 0.012513 -0.011728 -151058.000000 1 0 0
-15.807125 4.318197 -4.515821 16.997196 -0.266674 1.839706 0.017431 0.000277 747389.000000 1 0 0
-18.616925 -1.855403 -6.077621 19.671550 0.099334 1.884890 0.037802 -0.011600 638971.000000 1 0 0
-10.940325 8.561497 -5.892221 15.090004 -0.664018 1.971940 0.004292 -0.002330 592280.000000 1 0 0
-11.041325 13.569697 -6.773721 18.759820 -0.887772 1.940218 0.026304 -0.011708 246589.000000 1 0 0
-9.539025 10.460397 -4.499421 14.854551 -0.831436 1.878529 -0.003210 -0.003126 -834563.000000 1 0 0
-11.045325 6.413097 -0.068221 12.772301 -0.526045 1.576138 0.005290 -0.003505 -1172940.000000 1 0 0
-14.672925 9.184897 -1.407821 17.367758 -0.559301 1.651945 0.026471 -0.007718 -129218.000000 1 0 0
-18.500825 3.639097 4.799879 19.456680 -0.194220 1.321527 0.029058 -0.013415 173589.000000 1 0 0
-14.911225 13.216897 0.468779 19.931150 -0.725235 1.547274 0.032472 -0.005742 -290630.000000 1 0 0
-16.916825 2.460497 -9.134721 19.382367 -0.144434 2.061549 0.044373 -0.008739 834423.000000 1 0 0
-9.135625 8.448997 -8.899821 15.298758 -0.746371 2.191656 0.006573 -0.002385 -1642240.000000 1 0 0
-17.711025 4.678797 -2.736721 18.521911 -0.258274 1.719095 0.025339 -0.003516 761880.000000 1 0 0
-13.654525 5.843197 -4.372921 15.482617 -0.404351 1.857134 0.007422 0.000394 -1808740.000000 1 0 0
-12.221725 9.648997 3.380879 15.934367 -0.668303 1.356996 0.003454 -0.002991 1006350.000000 1 0 0
-17.550525 2.421597 -4.074721 18.179340 -0.137113 1.796857 0.024248 -0.002593 789844.000000 1 0 0
-11.421525 1.427597 -12.561721 17.037785 -0.124347 2.399841 0.018967 -0.003018 728743.000000 1 0 0
-11.278225 12.045697 3.579679 16.885239 -0.818291 1.357175 0.012753 -0.005929 691508.000000 1 0 0
-16.308125 13.038597 -4.303321 21.318502 -0.674445 1.774051 0.057436 -0.013747 1389640.000000 1 0 0
-11.115025 4.191497 -4.546721 12.719477 -0.360612 1.936345 0.000782 -0.002438 -1076450.000000 1 0 0
-11.135725 14.983297 -9.058021 20.749730 -0.931655 2.022542 0.040283 -0.018565 474419.000000 1 0 0
-15.487725 6.981397 -0.200021 16.989689 -0.423494 1.582570 0.021681 -0.005770 -246764.000000 1 0 0
-12.917025 8.409497 -4.118121 15.953937 -0.577106 1.831878 0.005535 -0.002933 849381.000000 1 0 0
-19.286825 1.960897 -5.959021 20.281437 -0.101322 1.869013 0.063771 -0.010650 675040.000000 1 0 0
-12.584125 10.161697 -8.852421 18.438700 -0.679298 2.071565 0.019757 -0.009675 713923.000000 1 0 0
-16.696625 10.826597 -1.040121 19.926724 -0.575271 1.623017 0.037700 -0.010885 663282.000000 1 0 0
-10.704625 6.542197 -14.538121 19.202768 -0.548582 2.429635 0.027604 -0.016305 -204009.000000 1 0 0
-13.667225 12.839097 -4.171721 19.210380 -0.754166 1.789700 0.036807 -0.016981 1099.540000 1 0 0
-18.064525 7.807297 -0.058221 19.679541 -0.407944 1.573755 0.043947 -0.010526 387220.000000 1 0 0
-12.856025 6.677697 -2.083321 14.635889 -0.479064 1.713625 0.001031 -0.000191 1277290.000000 1 0 0
-13.864525 8.589097 -10.505721 19.400201 -0.554636 2.143048 0.030807 -0.008399 -674201.000000 1 0 0
-15.051125 1.496597 -0.928521 15.153822 -0.099108 1.632108 0.011716 -0.006828 -588722.000000 1 0 0
-13.455025 2.872297 -2.478221 13.979605 -0.210317 1.749012 0.006285 -0.003434 863413.000000 1 0 0
-11.318725 9.153997 -10.894421 18.182343 -0.680052 2.213268 0.019713 -0.008345 313493.000000 1 0 0
-15.306225 4.330297 -8.053821 17.829639 -0.275706 2.039477 0.018553 -0.003778 850345.000000 1 0 0
-18.536225 10.446597 4.449479 21.737546 -0.513208 1.364648 0.078308 -0.027843 410222.000000 1 0 0
-15.515025 6.084297 -6.195321 17.779670 -0.373725 1.926713 0.023880 -0.000504 685577.000000 1 0 0
-7.733025 11.263597 -12.978921 18.844646 -0.969154 2.330536 0.006421 -0.008827 -1581330.000000 1 0 0
-16.805825 8.925097 -2.799621 19.233590 -0.488195 1.716874 0.036091 -0.007008 669728.000000 1 0 0
-20.756625 -1.122703 -4.681021 21.307508 0.054036 1.792292 0.062977 -0.013309 340781.000000 1 0 0
-15.491525 4.340597 4.139579 16.612172 -0.273186 1.318953 0.008906 -0.007245 8447.490000 1 0 0
-6.900925 12.505197 -9.430321 17.115305 -1.066538 2.154344 0.007018 -0.008078 -84267.300000 1 0 0
-17.254625 1.526597 5.696579 18.234681 -0.088245 1.253074 0.024136 -0.015584 -62041.900000 1 0 0
-10.354625 14.206497 -3.232921 17.874412 -0.940959 1.752666 0.028420 -0.016161 -437505.000000 1 0 0
-10.032625 8.491997 -13.072321 18.537884 -0.702423 2.353456 0.006857 -0.005475 330612.000000 1 0 0
-13.790025 11.728897 2.756079 18.311958 -0.704804 1.419715 0.018505 -0.007539 -960505.000000 1 0 0
-16.812225 6.635297 1.910979 18.174981 -0.375904 1.465458 0.012341 -0.006178 656082.000000 1 0 0
-9.243825 13.140697 -8.413421 18.135928 -0.957759 2.053199 0.025952 -0.018357 -54328.200000 1 0 0
-5.571125 9.835197 -12.864721 17.125116 -1.055413 2.420704 -0.000868 -0.004298 -733064.000000 1 0 0
-16.047725 1.834797 3.105279 16.448061 -0.113839 1.380863 0.010349 -0.004910 -592625.000000 1 0 0
-18.705725 -4.741303 4.709079 19.863523 0.248240 1.331446 0.047063 -0.005131 731744.000000 1 0 0
-5.295325 14.411397 -9.149121 17.872752 -1.218670 2.108195 0.004694 -0.006789 -630557.000000 1 0 0
-15.354625 -0.895303 -6.747621 16.795728 0.058242 1.984219 0.014596 -0.006094 764915.000000 1 0 0
-8.965625 10.937097 -9.529721 17.053390 -0.884131 2.163755 0.011242 -0.011112 420578.000000 1 0 0
-16.789525 1.132397 -6.054621 17.883761 -0.067345 1.916176 0.019997 -0.006347 -2280780.000000 1 0 0
-11.316425 8.768997 -1.434621 14.388013 -0.659242 1.670672 0.000185 -0.003749 -326159.000000 1 0 0
-10.891525 10.922497 -12.771221 20.025742 -0.786818 2.262357 0.038286 -0.009497 -30601.200000 1 0 0
-13.893825 11.848197 -10.413421 21.020406 -0.706098 2.089087 0.055163 -0.014271 174892.000000 1 0 0
-13.230325 5.678597 -7.511721 16.239271 -0.405432 2.051683 0.012516 0.000829 43354.300000 1 0 0
-8.742625 15.596597 -4.702021 18.487735 -1.059892 1.827953 0.015800 -0.011455 351437.000000 1 0 0
-8.652225 6.163997 -12.971621 16.766598 -0.619011 2.455391 0.004124 -0.008721 -325074.000000 1 0 0
-16.519725 7.417897 4.327379 18.618612 -0.422049 1.336229 0.025636 -0.008077 48216.200000 1 0 0
-12.704725 5.440897 -10.079721 17.105969 -0.404627 2.200929 0.017907 -0.003917 600948.000000 1 0 0
-12.637725 9.003097 -13.243421 20.399903 -0.618999 2.277316 0.058130 -0.016516 576833.000000 1 0 0
-10.810725 5.227997 -8.405321 14.657870 -0.450437 2.181488 0.002676 -0.000798 -2165240.000000 1 0 0
-17.651825 -4.527403 -2.608921 18.408986 0.251071 1.712995 0.016693 -0.009157 448146.000000 1 0 0
-8.955325 13.108997 -11.012421 19.321415 -0.971473 2.177253 0.036353 -0.015516 -48640.800000 1 0 0
-15.175625 6.071297 6.141779 17.460862 -0.380566 1.211361 0.005340 -0.008973 136107.000000 1 0 0
-16.377725 -3.250203 -4.507121 17.294734 0.195907 1.834447 0.024279 -0.009708 530161.000000 1 0 0
-11.250725 -1.067203 -12.621821 16.941904 0.094573 2.411340 0.010144 0.005655 104908.000000 1 0 0
-15.407825 6.817897 -8.638221 18.934193 -0.416596 2.044543 0.024893 -0.000606 262622.000000 1 0 0
-14.946425 9.152397 1.242479 17.570024 -0.549449 1.500021 0.025409 -0.009347 -108148.000000 1 0 0
-19.250625 5.077597 8.303379 21.571153 -0.257889 1.175665 0.049661 -0.029248 -1068810.000000 1 0 0
-16.419525 0.622497 0.855879 16.453596 -0.037894 1.518755 0.015069 -0.007194 200819.000000 1 0 0
-17.362325 3.806797 7.108379 19.143435 -0.215841 1.190364 0.007983 -0.010515 406731.000000 1 0 0
-15.556525 4.051197 -1.440421 16.139779 -0.254759 1.660162 0.012507 -0.005477 -1566150.000000 1 0 0
-10.934725 13.347497 0.483679 17.261455 -0.884437 1.542772 0.018414 -0.009383 -1016630.000000 1 0 0
-13.549525 3.408297 0.039879 13.971675 -0.246431 1.567942 0.008529 -0.005182 -473350.000000 1 0 0
-15.149025 0.096097 -4.202421 15.721404 -0.006343 1.841392 0.013382 -0.005823 -147921.000000 1 0 0
-18.885225 6.554097 3.384679 20.274712 -0.334043 1.403070 0.031585 -0.012025 233234.000000 1 0 0
-14.206125 1.297197 -6.276121 15.584813 -0.091060 1.985269 0.010215 -0.001261 807613.000000 1 0 0
-14.426025 11.825597 5.261279 19.381331 -0.686662 1.295885 0.014066 -0.015105 156625.000000 1 0 0
17.694875 5.587897 5.979379 19.495799 0.305881 1.259071 0.052483 -0.017671 -602199.000000 1 0 0
18.576875 7.587497 -0.281021 20.068617 0.387759 1.584800 0.041967 0.009141 928457.000000 1 0 0
16.838975 5.366797 8.465979 19.596591 0.308535 1.124073 0.071138 -0.013820 545724.000000 1 0 0
11.661675 12.426697 10.832379 20.193016 0.817146 1.004581 0.041093 -0.007507 506856.000000 1 0 0
-2.317525 16.349297 -0.593921 16.523413 -1.429984 1.606748 -0.001099 0.003979 -182970.000000 1 0 0
14.989675 12.615897 3.425979 19.889408 0.699620 1.397682 0.043897 -0.017447 177351.000000 1 0 0
13.640575 11.803997 6.637779 19.221336 0.713344 1.218202 0.046973 -0.009765 698599.000000 1 0 0
-0.805725 15.812297 8.626679 18.030461 -1.519885 1.071907 0.011455 -0.006919 -201641.000000 1 0 0
0.732775 12.956997 9.437479 16.046393 1.514302 0.942043 0.005818 -0.002142 25262.600000 1 0 0
0.790675 15.508497 -3.981121 16.030844 1.519857 1.821764 0.009935 -0.001533 1349540.000000 1 0 0
5.399475 10.255397 13.745479 17.979591 1.086174 0.700524 0.016593 -0.002480 481162.000000 1 0 0
-1.440725 16.576997 -2.962621 16.901173 -1.484103 1.746998 0.000238 0.005105 -1184610.000000 1 0 0
8.611175 10.045197 3.337179 13.645332 0.862112 1.323725 0.011112 -0.002066 335021.000000 1 0 0
12.629175 13.572997 -4.919721 19.181396 0.821403 1.830179 0.053070 -0.021318 115606.000000 1 0 0
2.439775 11.583397 7.795179 14.173652 1.363204 0.988460 0.007073 0.003041 347351.000000 1 0 0
-0.366225 15.045997 -8.775721 17.422096 -1.546461 2.098687 0.010325 -0.000035 -937318.000000 1 0 0
2.399175 15.845797 0.265379 16.028592 1.420530 1.554239 0.013448 -0.008660 -682341.000000 1 0 0
1.837875 13.327097 5.355079 14.479854 1.433756 1.191971 0.005811 0.000929 339082.000000 1 0 0
17.634775 9.273097 -1.862221 20.011084 0.484106 1.663991 0.026641 0.010311 705385.000000 1 0 0
-7.212025 14.866897 7.202879 18.025521 -1.119135 1.159723 0.018626 -0.013029 -1155840.000000 1 0 0
8.554175 15.918797 -0.075421 18.071738 1.077707 1.574970 0.009579 -0.006156 -1040620.000000 1 0 0
15.750875 10.436097 2.125279 19.013653 0.585163 1.458786 0.043168 -0.008146 322820.000000 1 0 0
14.192375 7.483397 8.636179 18.221096 0.485235 1.077007 0.053788 -0.015320 -683059.000000 1 0 0
3.987675 18.992797 -1.816221 19.491705 1.363845 1.664111 0.014726 -0.003263 -123473.000000 1 0 0
-0.317525 17.614197 -4.973321 18.305592 -1.552772 1.845938 0.011779 -0.001368 -4087.800000 1 0 0
1.431775 13.674997 -0.754821 13.770449 1.466476 1.625638 0.004902 -0.002543 -647272.000000 1 0 0
10.245575 14.746197 4.256679 18.453765 0.963573 1.338033 0.022543 -0.011536 -180599.000000 1 0 0
-1.587525 15.366597 -5.240821 16.313146 -1.467851 1.897860 0.004569 -0.000944 498447.000000 1 0 0
14.980575 8.769997 -6.089421 18.395965 0.529633 1.908180 0.033733 -0.014743 10179.800000 1 0 0
-2.344425 18.549297 0.910279 18.719011 -1.445074 1.522149 0.009836 -0.002701 -403739.000000 1 0 0
-3.769525 19.352397 3.487279 20.022130 -1.378422 1.395732 0.020125 -0.009610 -70302.400000 1 0 0
1.872475 17.683297 -2.676221 17.982417 1.465300 1.720176 0.012980 -0.007445 -439232.000000 1 0 0
2.796275 12.211497 3.334979 12.963869 1.345690 1.310619 0.005309 -0.001276 81966.200000 1 0 0
-2.548525 16.046897 1.773679 16.344535 -1.413294 1.462064 0.006420 -0.002465 -1495600.000000 1 0 0
11.816475 12.836897 -2.627821 17.644275 0.826765 1.720286 0.019594 -0.005335 367601.000000 1 0 0
7.183075 11.697397 4.634279 14.488002 1.020092 1.245204 0.008359 -0.000590 276030.000000 1 0 0
7.125075 15.757797 1.946379 17.402967 1.146146 1.458720 0.013898 -0.006356 -652622.000000 1 0 0
5.537475 12.207197 10.327779 16.921652 1.144933 0.914320 0.009100 0.003559 1977940.000000 1 0 0
-1.374725 14.112497 3.010679 14.495400 -1.473691 1.361574 0.004518 -0.001127 -408086.000000 1 0 0
4.618075 15.988897 1.583679 16.717640 1.289618 1.475923 0.010414 -0.009125 -2041060.000000 1 0 0
7.441275 13.286497 11.819979 19.277331 1.060260 0.910749 0.023603 -0.004565 91913.900000 1 0 0
0.763175 17.234697 -9.479121 19.684282 1.526544 2.073228 0.012434 -0.003829 -69266.700000 1 0 0
9.720175 9.485597 15.421879 20.549762 0.773185 0.722031 0.037235 -0.013381 -375544.000000 1 0 0
13.511275 7.566697 -0.080321 15.485991 0.510510 1.575983 0.007835 0.000550 478511.000000 1 0 0
12.491175 13.638597 -0.061921 18.494448 0.829282 1.574144 0.032970 -0.006404 590398.000000 1 0 0
9.360975 12.436897 3.439579 15.941611 0.925584 1.353325 0.015108 0.001196 50870.400000 1 0 0
-0.644125 12.908197 0.632179 12.939710 -1.520937 1.521921 0.004975 -0.001896 -1083830.000000 1 0 0
15.990475 7.529297 -0.886421 17.696648 0.440066 1.620907 0.030143 0.006999 -1261380.000000 1 0 0
-4.304425 18.578497 -2.396221 19.220575 -1.343125 1.695791 0.013835 -0.001174 69951.600000 1 0 0
11.529775 9.273997 -3.295421 15.159239 0.677389 1.789933 0.014015 -0.004839 -237723.000000 1 0 0
14.747175 9.780097 7.744479 19.315963 0.585588 1.158257 0.052771 -0.016881 1005620.000000 1 0 0
4.308375 13.829997 4.611979 15.202015 1.268801 1.262559 0.005977 0.002834 -241874.000000 1 0 0
2.177075 15.973097 5.659779 17.085449 1.435335 1.233154 0.004664 0.002789 141377.000000 1 0 0
6.160975 18.411097 5.351479 20.138630 1.247876 1.301833 0.027412 -0.020082 132489.000000 1 0 0
10.759575 17.044797 -0.708921 20.169188 1.007713 1.605952 0.033594 -0.010093 -80549.700000 1 0 0
10.028075 13.608597 -4.432521 17.475796 0.935737 1.827235 0.030039 -0.010481 1109360.000000 1 0 0
16.542175 7.963297 2.302279 18.502923 0.448652 1.446045 0.027939 -0.006930 -126188.000000 1 0 0
4.061675 14.072097 -0.536321 14.656356 1.289800 1.607398 0.012543 -0.004541 -1211780.000000 1 0 0
5.578775 13.189797 -2.401421 14.521030 1.170654 1.736935 0.010907 -0.003023 -157913.000000 1 0 0
-6.187625 16.949297 -2.929021 18.279621 -1.220763 1.731724 0.006925 -0.000280 -567603.000000 1 0 0
18.209875 9.900797 2.450679 20.871779 0.497997 1.453109 0.064384 -0.013412 6935.660000 1 0 0
7.943375 12.860797 9.314179 17.755316 1.017505 1.018568 0.021218 -0.004363 480415.000000 1 0 0
-2.581825 15.724497 6.707279 17.289107 -1.408057 1.172392 0.009420 -0.004159 10890.000000 1 0 0
11.250875 16.105997 6.196379 20.600496 0.961043 1.265278 0.039738 -0.010646 491573.000000 1 0 0
13.516475 11.813497 1.401479 18.006053 0.718267 1.492884 0.034312 -0.010737 166785.000000 1 0 0
17.446775 7.899197 -5.718021 19.987072 0.425147 1.860936 0.026097 0.012520 468835.000000 1 0 0
9.402875 9.274397 8.047579 15.465834 0.778519 1.023541 0.014296 -0.001718 -370398.000000 1 0 0
-2.082125 14.199997 -1.970521 14.486480 -1.425205 1.707244 -0.001112 0.002090 549490.000000 1 0 0
11.017875 11.637597 0.720079 16.042000 0.812746 1.525894 0.012497 -0.000815 -305422.000000 1 0 0
11.752275 9.766697 -0.646321 15.294511 0.693388 1.613067 0.011711 -0.000281 -1166800.000000 1 0 0
-0.326225 16.225597 11.075979 19.648250 -1.550693 0.971922 0.018544 -0.006883 6554.340000 1 0 0
1.659375 20.271097 -2.109121 20.447965 1.489119 1.674126 0.020726 -0.008742 -580848.000000 1 0 0
9.375975 14.419397 1.742479 17.287688 0.994257 1.469832 0.018609 -0.002918 -334078.000000 1 0 0
8.552075 11.610697 -5.176321 15.321246 0.935947 1.915431 0.015682 -0.008084 -1417770.000000 1 0 0
10.565075 10.203797 10.237779 17.903921 0.768005 0.962077 0.021145 -0.004693 419175.000000 1 0 0
-5.095225 15.725497 5.767279 17.507544 -1.257460 1.235110 0.005071 -0.003951 2215150.000000 1 0 0
14.345275 9.103697 -1.970721 17.104033 0.565482 1.686272 0.027849 -0.003143 -535013.000000 1 0 0
12.202375 9.602397 6.932779 17.004923 0.666720 1.150871 0.021653 -0.009891 -603738.000000 1 0 0
3.198475 12.897197 9.736879 16.473456 1.327703 0.938418 0.008395 -0.005911 -433201.000000 1 0 0
8.536075 12.630597 -2.614621 15.467152 0.976480 1.740655 0.015456 -0.003396 -851304.000000 1 0 0
9.475375 17.005597 2.174179 19.588265 1.062449 1.459573 0.018847 -0.010736 126226.000000 1 0 0
9.535775 14.203697 -7.468121 18.666785 0.979552 1.982395 0.045609 -0.017713 884587.000000 1 0 0
6.432675 11.460997 7.221679 14.996213 1.059344 1.068355 0.004542 0.004253 -978481.000000 1 0 0
5.511475 16.924097 -5.695121 18.687852 1.255969 1.880472 0.010062 0.002068 920300.000000 1 0 0
-4.059325 17.334097 -4.620221 18.392811 -1.340760 1.824713 -0.001000 -0.001114 303340.000000 1 0 0
-0.074425 18.327797 -0.512521 18.335113 -1.566736 1.598753 0.010992 -0.016258 -431887.000000 1 0 0
6.548875 15.615597 -2.773921 17.158941 1.173695 1.733169 0.008103 -0.003377 537495.000000 1 0 0
-0.669025 20.579297 0.576179 20.598229 -1.538298 1.542820 0.018291 -0.011804 4099.070000 1 0 0
-1.331325 18.885297 4.275379 19.408909 -1.500417 1.348696 0.010955 -0.003310 -715872.000000 1 0 0
7.268975 13.779197 -4.386721 16.184795 1.085366 1.845269 0.009366 -0.000599 -1262380.000000 1 0 0
-0.873825 11.989197 7.695179 14.273058 -1.498041 1.001380 0.005666 0.007354 254605.000000 1 0 0
7.695775 10.874697 10.966079 17.255112 0.954936 0.882106 0.011679 0.000094 125877.000000 1 0 0
1.481775 16.014297 -7.307921 17.665194 1.478531 1.997300 0.007135 -0.003263 -542051.000000 1 0 0
8.907875 7.102797 14.779779 18.661239 0.673130 0.656712 0.028090 -0.004387 117089.000000 1 0 0
11.374875 11.363697 -4.901221 16.809026 0.784907 1.866677 0.035082 -0.016565 -852083.000000 1 0 0
-3.270425 17.119697 4.546779 18.012576 -1.382038 1.315613 0.007606 0.002853 -342955.000000 1 0 0
3.963775 15.364197 -6.799521 17.262779 1.318314 1.975649 0.011859 -0.003391 -408388.000000 1 0 0
-4.458525 14.032797 9.363479 17.449143 -1.263161 1.004375 0.022109 -0.012228 -406403.000000 1 0 0
6.219175 17.608997 0.311579 18.677580 1.231290 1.554114 0.014562 -0.015213 -358469.000000 1 0 0
9.828275 10.791697 -2.132121 14.751327 0.832087 1.715842 0.012569 -0.002397 -986511.000000 1 0 0
7.160975 18.205497 -2.873221 19.773090 1.196043 1.716622 0.013772 -0.004203 226460.000000 1 0 0
3.540275 10.354097 10.331279 15.049126 1.241338 0.814127 0.005811 0.001337 821310.000000 1 0 0
0.043075 18.640897 2.051479 18.753492 1.568486 1.461185 0.010703 -0.006106 390617.000000 1 0 0
-0.846225 17.331997 -7.529621 18.915851 -1.522011 1.980196 0.018747 0.002732 -46851.100000 1 0 0
10.141275 8.593797 12.984979 18.582478 0.702987 0.797112 0.032530 -0.009285 123974.000000 1 0 0
3.718875 11.497697 5.573079 13.307377 1.257971 1.138677 0.002539 0.001781 67249.100000 1 0 0
13.056675 13.890797 8.092879 20.710521 0.816342 1.169337 0.046337 -0.019149 -101560.000000 1 0 0
-0.526825 17.385197 6.819979 18.682471 -1.540503 1.197113 0.008367 -0.003020 -446236.000000 1 0 0
12.095975 13.722297 5.716779 19.164958 0.848306 1.267892 0.030736 -0.009636 -227029.000000 1 0 0
4.950775 14.501597 -4.572921 15.991188 1.241808 1.860810 0.010498 -0.001299 -622871.000000 1 0 0
3.768575 17.717197 4.588179 18.685626 1.361213 1.322714 0.009528 -0.005047 -636970.000000 1 0 0
7.104575 11.681697 2.016079 13.820333 1.024384 1.424396 0.013289 -0.003344 975692.000000 1 0 0
6.318275 8.869397 11.726279 16.002888 0.951818 0.748427 0.006842 0.000488 653890.000000 1 0 0
-5.342025 14.894797 1.741879 15.919370 -1.226436 1.461158 0.006833 0.003488 125341.000000 1 0 0
6.797575 13.776097 5.827179 16.429969 1.112416 1.208238 0.012485 -0.002450 260823.000000 1 0 0
5.781575 15.945697 4.836779 17.637639 1.222960 1.293007 0.009648 -0.010363 651919.000000 1 0 0
1.209775 18.018397 4.304679 18.564925 1.503756 1.336795 0.011197 -0.004304 664149.000000 1 0 0
7.658675 18.183997 -6.790521 20.866821 1.172169 1.902254 0.021721 0.000515 426279.000000 1 0 0
-2.335425 18.802997 -5.874621 19.837290 -1.447224 1.871445 0.013868 -0.007128 -2566500.000000 1 0 0
13.578175 10.222897 -4.476021 17.575814 0.645349 1.828302 0.033536 -0.009427 -2501330.000000 1 0 0
-1.719225 18.013097 9.744379 20.551893 -1.475642 1.076815 0.024766 -0.012714 -257010.000000 1 0 0
3.435475 11.875297 -1.632621 12.469588 1.289188 1.702102 0.009004 -0.004569 -214436.000000 1 0 0
4.367975 13.930897 -10.900921 18.220296 1.266959 2.212155 0.015141 -0.017076 -701116.000000 1 0 0
11.536675 13.321097 2.406879 17.785937 0.857061 1.435055 0.026746 -0.008455 -144277.000000 1 0 0
15.855375 6.559897 -7.282721 18.640365 0.392289 1.972184 0.019228 0.007453 44989.000000 1 0 0
2.363175 16.154897 2.967979 16.594403 1.425544 1.390975 0.010521 -0.003018 -61824.900000 1 0 0
13.541375 10.549797 3.527379 17.524539 0.661853 1.368130 0.029708 -0.005177 -224754.000000 1 0 0
-4.870725 19.453297 -5.795821 20.874536 -1.325460 1.852144 -0.002879 -0.011742 257843.000000 1 0 0
5.486975 12.104197 0.075179 13.290001 1.145192 1.565139 0.012408 -0.004175 69587.600000 1 0 0
4.725175 15.491597 9.629079 18.842400 1.274745 1.034411 0.015659 -0.003915 -310025.000000 1 0 0
7.762575 9.253297 13.905379 18.418486 0.872783 0.715190 0.022935 -0.011437 -1945580.000000 1 0 0
-5.006225 13.591297 6.875479 16.033024 -1.217877 1.127596 0.008499 -0.002004 -1530970.000000 1 0 0
-4.540625 17.182997 0.559079 17.781598 -1.312451 1.539350 0.006537 0.002173 -537775.000000 1 0 0
-0.701425 16.539197 3.491279 16.918217 -1.528412 1.362941 0.009780 -0.004172 -1311070.000000 1 0 0
7.931175 16.626797 -4.791721 19.034561 1.125708 1.825272 0.013065 -0.007518 587270.000000 1 0 0
3.183175 16.380497 -4.483921 17.278855 1.378861 1.833304 0.010585 -0.005399 225021.000000 1 0 0
9.641575 14.409197 8.256479 19.202978 0.981093 1.126350 0.033347 -0.008328 367257.000000 1 0 0
12.790575 11.029297 9.055579 19.163708 0.711591 1.078628 0.040409 -0.015938 -20680.700000 1 0 0
3.647375 12.205097 12.239079 17.665299 1.280404 0.805388 0.014878 -0.005670 559440.000000 1 0 0
-3.166725 19.323697 6.058779 20.497371 -1.408362 1.270725 0.020175 -0.004986 116063.000000 1 0 0
-2.766825 15.709897 10.294979 18.985331 -1.396464 0.997672 0.022825 -0.014658 -755341.000000 1 0 0
2.088475 14.321697 7.716079 16.401543 1.425991 1.080998 0.007323 0.001381 -229936.000000 1 0 0
4.493075 17.245097 7.757779 19.436158 1.315920 1.160216 0.023699 -0.012657 622045.000000 1 0 0
-1.989725 13.397897 9.323979 16.443821 -1.423364 0.967913 0.017304 -0.007572 -1434770.000000 1 0 0
5.887175 17.754397 2.977579 18.940523 1.250616 1.412935 0.011901 -0.014033 571668.000000 1 0 0
7.191575 15.491997 -7.015521 18.464513 1.136187 1.960534 0.003892 0.003387 -517536.000000 1 0 0
11.015675 7.724797 9.445979 16.439103 0.611568 0.958676 0.017998 -0.005336 656029.000000 1 0 0
9.075975 16.531597 -2.606121 19.038353 1.068715 1.708115 0.016272 0.001226 -56352.400000 1 0 0
14.997275 11.439097 -6.227721 19.863426 0.651608 1.889701 0.107399 -0.019957 365977.000000 1 0 0
11.085575 6.237397 16.113979 20.529379 0.512510 0.668225 0.054301 -0.020035 -228835.000000 1 0 0
8.557175 8.521297 10.251179 15.840594 0.783297 0.866961 0.009401 -0.000706 -627502.000000 1 0 0
16.538575 9.333697 4.460379 19.507366 0.513801 1.340105 0.059528 -0.010190 -57752.900000 1 0 0
-3.319225 14.376497 4.540779 15.437603 -1.343894 1.272243 0.002540 0.004032 -1166000.000000 1 0 0
4.914575 14.461897 12.834479 19.950523 1.243211 0.871975 0.025539 -0.007143 -1121500.000000 1 0 0
16.185175 10.253097 -4.259821 19.627327 0.564679 1.789573 0.064101 -0.028096 -10767.500000 1 0 0
14.678975 14.119097 6.023179 21.239112 0.765959 1.283262 0.053402 -0.011882 -1032900.000000 1 0 0
6.282675 9.548797 9.207679 14.677632 0.988849 0.892680 0.005671 0.002291 1220240.000000 1 0 0
10.433975 12.067297 8.513979 18.082459 0.857859 1.080552 0.028882 -0.012060 120637.000000 1 0 0
8.025175 11.491897 -0.360221 14.021301 0.961190 1.596490 0.008909 -0.003698 345795.000000 1 0 0
7.338375 13.583197 -8.788721 17.765039 1.075467 2.088309 0.024005 -0.009471 -621067.000000 1 0 0
2.770775 15.394197 -2.184921 15.793428 1.392715 1.709585 0.010169 -0.003724 779361.000000 1 0 0
12.094575 13.685997 -7.855921 19.882172 0.847049 1.976999 0.062153 -0.021703 -159275.000000 1 0 0
-8.113825 14.644197 9.723579 19.360647 -1.064838 1.044616 0.036846 -0.025388 466268.000000 1 0 0
11.522375 9.492997 2.141079 15.081987 0.689130 1.428352 0.017136 -0.001290 -1708660.000000 1 0 0
12.035175 8.802297 4.511079 15.578052 0.631478 1.277009 0.016155 -0.003282 363664.000000 1 0 0
14.089675 8.072297 6.018979 17.317882 0.520272 1.215830 0.030937 -0.010576 -1554700.000000 1 0 0
16.347575 7.548397 7.124179 19.364282 0.432577 1.194043 0.071166 -0.016782 803698.000000 1 0 0
13.569375 8.178697 2.481379 16.036716 0.542426 1.415441 0.021953 -0.002782 -2292160.000000 1 0 0
-4.185925 17.415897 -7.209621 19.308394 -1.334920 1.953460 0.001953 -0.013637 303954.000000 1 0 0
3.001175 19.483197 -4.149221 20.144926 1.417958 1.778250 0.019072 -0.012518 365421.000000 1 0 0
-0.064825 14.807997 6.295279 16.090728 -1.566419 1.168822 0.007939 0.001148 369649.000000 1 0 0
6.849775 16.069497 8.291479 19.336411 1.167859 1.127631 0.031363 -0.008197 905601.000000 1 0 0
12.882075 15.161797 -1.959921 19.991729 0.866511 1.668991 0.056641 -0.016082 210487.000000 1 0 0
12.684675 15.789897 4.032879 20.651536 0.894021 1.374251 0.042397 -0.010615 -91054.100000 1 0 0
3.023675 18.069897 1.285479 18.366171 1.405000 1.500747 0.017933 -0.013385 -632861.000000 1 0 0
10.384275 14.560597 -1.350721 17.935122 0.951282 1.646179 0.021199 0.001078 127083.000000 1 0 0
-6.346125 15.819097 -0.570821 17.054119 -1.189283 1.604274 0.007854 -0.000012 -396638.000000 1 0 0
-3.932225 15.940597 -2.563521 16.617360 -1.328945 1.725683 0.003615 0.001663 -664074.000000 1 0 0
-6.905825 16.935897 1.818679 18.379952 -1.183616 1.471685 0.019548 -0.002831 1146030.000000 1 0 0
-0.011125 19.562697 -6.629621 20.655535 -1.570228 1.897540 0.031804 -0.005079 -190548.000000 1 0 0
4.854475 14.713497 7.074579 17.032398 1.252109 1.142458 0.016794 -0.005031 -312517.000000 1 0 0
8.754975 12.488897 6.720079 16.666781 0.959386 1.155783 0.020027 -0.003814 -282561.000000 1 0 0
-7.445025 17.562097 -5.687421 19.904834 -1.169836 1.860565 0.022670 -0.012038 112602.000000 1 0 0
-7.987025 17.776497 -1.204421 19.525549 -1.148523 1.632520 0.040269 -0.008263 357310.000000 1 0 0
-13.808925 -9.105903 9.220979 18.937538 0.582970 1.062242 0.054405 -0.008188 634272.000000 1 0 0
-12.617325 -13.004803 7.648679 19.667844 0.800520 1.171367 0.051191 -0.006910 247686.000000 1 0 0
-3.503425 -15.099803 12.468079 19.892989 1.342812 0.893411 0.005293 -0.015865 197467.000000 1 0 0
-1.814625 -14.092303 15.231579 20.829951 1.442734 0.750666 0.008872 -0.004984 -1103240.000000 1 0 0
-6.956625 -13.715203 12.718579 19.956545 1.101389 0.879789 0.037898 -0.017709 301214.000000 1 0 0
-9.873325 -11.664603 9.020479 17.745832 0.868376 1.037569 0.033039 -0.008403 635667.000000 1 0 0
-10.641025 -10.542703 11.292479 18.759000 0.780757 0.924822 0.057001 -0.021401 368524.000000 1 0 0
-5.851325 -12.251803 10.727679 17.303982 1.125238 0.902112 0.023399 -0.013014 1004440.000000 1 0 0
-12.476725 -10.460703 7.323679 17.853046 0.697731 1.148101 0.029329 -0.002653 -162501.000000 1 0 0
-7.652525 -11.209803 12.382879 18.372711 0.971800 0.831210 0.035339 -0.019570 667360.000000 1 0 0
-14.888025 -11.664003 7.299679 20.272828 0.664567 1.202451 0.059086 0.001199 1209400.000000 1 0 0
-11.120625 -9.225703 9.064479 17.057159 0.692533 1.010523 0.031405 -0.010256 -36924.500000 1 0 0
-5.168025 -11.797503 13.080479 18.357246 1.157915 0.777669 0.026250 -0.021034 -489766.000000 1 0 0
4.122075 -12.537803 14.573179 19.661270 -1.253157 0.735922 0.006020 0.000518 -6636.560000 1 0 0
6.707575 -12.721203 14.019079 20.083703 -1.085567 0.798150 0.027589 -0.005659 -185548.000000 1 0 0
6.729575 -8.268903 15.769179 19.034940 -0.887672 0.594492 0.022895 -0.013184 639047.000000 1 0 0
0.741075 -1.695203 14.381479 14.499995 -1.158671 0.127943 0.012197 -0.007850 -1677620.000000 1 0 0
-0.066225 -6.270903 15.551479 16.768336 1.560236 0.383312 0.006825 -0.008343 124154.000000 1 0 0
-1.434925 -4.626703 18.210579 18.843847 1.270063 0.259985 0.018900 -0.023487 -2024770.000000 1 0 0
-5.297825 12.515097 12.907379 18.742866 -1.170354 0.811163 0.019267 -0.015022 338366.000000 1 0 0
-4.078825 8.842997 11.517679 15.082849 -1.138627 0.701883 0.004714 0.005843 -251095.000000 1 0 0
-0.555025 -3.841103 14.992979 15.487141 1.427293 0.253294 0.014377 -0.007418 59587.300000 1 0 0
-4.798725 9.211997 14.079379 17.496216 -1.090552 0.635610 0.021197 -0.003608 413040.000000 1 0 0
-13.529225 -2.598203 16.784079 21.713956 0.189734 0.687299 0.050772 -0.000011 -121928.000000 1 0 0
-0.302725 0.909197 17.272779 17.299340 -1.249383 0.055422 0.028430 -0.010489 -219881.000000 1 0 0
-3.152825 -7.263203 15.409679 17.324914 1.161258 0.474652 0.018041 -0.007832 441509.000000 1 0 0
-7.495825 5.476597 12.620679 15.667228 -0.630982 0.634199 -0.004329 0.003316 -1561940.000000 1 0 0
-10.063125 10.223697 13.067879 19.405152 -0.793313 0.831967 0.024523 -0.015913 1296230.000000 1 0 0
-5.586225 2.183597 11.212179 12.715619 -0.372628 0.491207 0.003811 0.001491 -58606.000000 1 0 0
-7.211825 -7.391803 16.922479 19.824719 0.797722 0.547929 0.039839 -0.012676 -76513.000000 1 0 0
-4.721125 2.766897 18.814679 19.594308 -0.530112 0.283038 0.031878 -0.001725 -1137410.000000 1 0 0
1.072175 -8.324803 16.521879 18.531713 -1.442709 0.470049 0.004963 -0.002321 775066.000000 1 0 0
-15.036025 -3.526503 13.874779 20.761208 0.230373 0.838871 0.066859 -0.014131 681118.000000 1 0 0
-14.351525 2.281497 13.212479 19.640293 -0.157653 0.832913 0.033207 -0.004497 -767432.000000 1 0 0
-5.513325 0.904197 16.177679 17.115245 -0.162555 0.332527 0.027497 -0.001910 941930.000000 1 0 0
4.675575 5.783697 15.310279 17.021069 0.890951 0.452196 0.010574 0.001731 -185748.000000 1 0 0
-0.975525 -11.970103 13.909979 18.377229 1.489479 0.712219 -0.007994 -0.006044 -263864.000000 1 0 0
-5.900425 -4.074403 16.799279 18.265584 0.604340 0.403422 0.033427 -0.011567 78654.800000 1 0 0
-12.851825 -1.606003 9.795679 16.238965 0.124319 0.923263 0.016657 0.001869 -879363.000000 1 0 0
-14.279525 10.337897 10.242179 20.388212 -0.626630 1.044473 0.005243 -0.004074 615519.000000 1 0 0
-3.564425 -3.418703 17.691379 18.367840 0.764533 0.272238 0.030459 -0.015303 -1968410.000000 1 0 0
-7.808225 9.418797 11.836179 17.022845 -0.878618 0.801943 -0.002016 -0.001268 322995.000000 1 0 0
-4.660125 10.766197 16.141979 19.954730 -1.162297 0.628467 0.025893 0.001231 276520.000000 1 0 0
-12.421725 12.771997 8.394579 19.694977 -0.799300 1.130476 0.018804 -0.012566 -3476.530000 1 0 0
-12.643425 3.164697 10.480379 16.724528 -0.245265 0.893553 0.006859 -0.002767 515515.000000 1 0 0
-10.194925 -3.468003 13.725379 17.445617 0.327890 0.665267 0.022728 -0.000252 -1046860.000000 1 0 0
-4.435625 -6.567103 17.693779 19.387404 0.976751 0.421092 0.025745 -0.009424 -391274.000000 1 0 0
0.926175 -3.663803 17.869079 18.264316 -1.323193 0.208415 0.022247 -0.017886 -410994.000000 1 0 0
-5.958625 1.783097 13.748579 15.089999 -0.290765 0.424838 0.011335 0.003209 -715356.000000 1 0 0
-10.599725 8.584897 10.148179 17.001181 -0.680759 0.931152 0.010970 -0.010791 -174270.000000 1 0 0
4.562375 2.525297 17.135579 17.911462 0.505530 0.295412 0.019451 -0.010516 140477.000000 1 0 0
0.564975 -5.265003 13.146879 14.173210 -1.463898 0.382896 0.010437 -0.005422 -819476.000000 1 0 0
-3.982525 5.899797 20.910279 22.088637 -0.977028 0.328110 0.058094 -0.009512 -43670.600000 1 0 0
-10.813825 10.896597 8.967679 17.779030 -0.789211 1.042114 0.015562 -0.013169 8281.270000 1 0 0
0.617275 4.155797 13.132279 13.787981 1.423341 0.309638 0.011972 -0.002535 -1804050.000000 1 0 0
-3.249125 7.222897 13.314279 15.491839 -1.148078 0.536626 0.006583 0.006704 81687.500000 1 0 0
0.668875 8.851697 14.201779 16.747849 1.495375 0.558641 0.011855 0.001815 85351.800000 1 0 0
-4.053325 -6.646403 13.067779 15.210883 1.023164 0.537274 0.015752 -0.006129 120871.000000 1 0 0
-5.236725 8.253597 16.554579 19.224964 -1.005410 0.533371 0.027326 0.005383 466325.000000 1 0 0
1.624975 -10.707703 15.759879 19.122480 -1.420188 0.602088 -0.006188 0.003121 -21427.500000 1 0 0
-15.058925 -0.902503 14.250779 20.752601 0.059860 0.813859 0.050246 -0.006059 379961.000000 1 0 0
-13.766925 -5.340103 8.304879 16.941545 0.370027 1.058468 0.040511 -0.005727 -661562.000000 1 0 0
-14.091025 -1.926503 12.067379 18.651811 0.135876 0.867177 0.046863 -0.007609 85521.100000 1 0 0
9.407975 1.278397 16.933579 19.413665 0.135057 0.511011 0.039617 -0.007334 -701690.000000 1 0 0
5.047575 -6.762903 16.892679 18.883259 -0.929627 0.463295 0.028041 -0.009292 605250.000000 1 0 0
-6.243825 -2.712503 10.996079 12.932779 0.409830 0.554339 0.005483 0.001705 23811.700000 1 0 0
0.619575 -6.199303 18.044879 19.090125 -1.471184 0.332446 0.016000 -0.010320 9427.030000 1 0 0
-8.452325 12.031297 12.030979 18.998378 -0.958376 0.885034 0.018099 -0.010615 412422.000000 1 0 0
-6.621225 -5.772803 14.887779 17.286175 0.717051 0.533065 0.031941 -0.007303 -165424.000000 1 0 0
-3.987825 -9.112903 17.110079 19.791477 1.158300 0.526607 0.023734 -0.009138 377131.000000 1 0 0
2.463475 -6.082503 16.304479 17.575596 -1.185978 0.382653 0.018764 -0.009130 -323369.000000 1 0 0
2.364975 5.207597 16.072679 17.059988 1.144505 0.341876 0.017432 -0.005169 -447598.000000 1 0 0
1.069875 -8.846803 13.955679 16.558126 -1.450447 0.568277 0.000224 -0.002736 -381366.000000 1 0 0
-9.918225 -2.905903 11.197479 15.238077 0.285010 0.745372 -0.000362 0.001247 -713250.000000 1 0 0
-1.156725 10.051397 12.425679 16.023923 -1.456219 0.683376 0.008908 -0.000602 -25033.200000 1 0 0
-12.291925 -3.759103 11.365679 17.158116 0.296787 0.846767 0.021102 0.003688 -1926030.000000 1 0 0
-1.789725 6.887097 19.720779 20.965313 -1.316553 0.346290 0.041985 -0.016259 407693.000000 1 0 0
0.540575 -13.345103 15.592979 20.531074 -1.530311 0.708280 -0.012260 -0.010658 -949848.000000 1 0 0
4.131075 -8.615603 15.249179 17.995329 -1.123693 0.559734 0.009206 -0.002919 -119537.000000 1 0 0
4.456275 -4.401203 16.140179 17.312838 -0.779181 0.370168 0.028549 -0.010961 -576871.000000 1 0 0
8.109375 1.727497 14.708579 16.884564 0.209887 0.513306 0.012555 0.000547 -64265.100000 1 0 0
-6.378525 -0.154903 11.977379 13.570821 0.024280 0.489468 0.005580 0.001595 141053.000000 1 0 0
-3.085225 -11.027103 18.558079 21.806373 1.297986 0.552835 0.020942 -0.009169 37369.300000 1 0 0
3.306375 -1.545903 13.478979 13.964412 -0.437354 0.264445 0.011823 -0.008582 434550.000000 1 0 0
-2.836725 8.897397 15.694379 18.262645 -1.262158 0.536759 0.018287 0.003243 -1412840.000000 1 0 0
-3.302825 4.044297 14.890079 15.779083 -0.885978 0.337277 0.017282 0.000430 -107414.000000 1 0 0
-4.224725 -9.074303 19.868079 22.247064 1.135070 0.466684 0.034107 -0.011546 -60455.300000 1 0 0
-5.706625 -3.002303 19.176979 20.232052 0.484315 0.324371 0.042610 -0.015104 -858235.000000 1 0 0
-6.646425 -8.725803 11.096879 15.603055 0.919851 0.779594 0.021779 -0.011293 -702508.000000 1 0 0
-11.688725 2.471497 12.751779 17.474051 -0.208374 0.752833 0.019013 -0.010361 703394.000000 1 0 0
-11.662725 -7.653003 11.699679 18.206320 0.580717 0.872888 0.043792 -0.007729 -735253.000000 1 0 0
-11.155625 -7.178503 15.647579 20.514034 0.571783 0.703204 0.062284 -0.023123 134949.000000 1 0 0
0.345075 5.621797 17.658979 18.535458 1.509492 0.308753 0.018461 -0.009601 14763.400000 1 0 0
-2.266425 -0.100103 13.203279 13.396764 0.044139 0.170162 0.015025 -0.003213 -60361.900000 1 0 0
-5.751925 -10.632303 18.424179 22.035900 1.074900 0.580664 0.047217 -0.006746 1945700.000000 1 0 0
0.465075 2.569697 19.284579 19.460592 1.391750 0.134597 0.043929 -0.011000 -345988.000000 1 0 0
-0.767725 10.927497 14.801079 18.413895 -1.500655 0.637142 0.021471 -0.001138 -1318010.000000 1 0 0
-12.796625 -2.324303 14.378779 19.388277 0.179675 0.735311 0.039687 -0.000045 -542101.000000 1 0 0
-13.608825 8.312897 11.686679 19.770757 -0.548356 0.938363 0.008783 -0.011865 837368.000000 1 0 0
-17.977525 -0.686603 6.853879 19.251974 0.038174 1.206803 0.054069 -0.016480 248272.000000 1 0 0
-2.075825 -7.624603 17.708179 19.391318 1.304985 0.419724 0.014559 -0.008971 -1614740.000000 1 0 0
5.632575 2.503997 14.523379 15.777339 0.418318 0.401383 0.009996 -0.001986 -3238910.000000 1 0 0
-13.874825 -6.488203 11.069979 18.898465 0.437413 0.944978 0.034218 -0.010733 279878.000000 1 0 0
3.148575 7.703397 16.362779 18.357461 1.182791 0.470499 0.018238 -0.008233 -137437.000000 1 0 0
0.915575 1.975497 14.545979 14.708038 1.136801 0.148584 0.013185 -0.005620 -1363640.000000 1 0 0
-14.330925 0.635197 9.735479 17.336621 -0.044295 0.974532 0.024361 -0.003945 -2399020.000000 1 0 0
-9.514525 -5.152503 15.545779 18.940584 0.496325 0.608046 0.031163 -0.002324 -425090.000000 1 0 0
-2.657425 0.035297 18.136379 18.330068 -0.013282 0.145502 0.037860 -0.014133 182480.000000 1 0 0
6.887175 3.750797 17.562779 19.234159 0.498693 0.419964 0.028400 -0.008785 -158626.000000 1 0 0
-4.180125 -0.892503 14.833079 15.436652 0.210353 0.280562 0.022046 -0.002879 -483832.000000 1 0 0
5.087875 -9.189803 17.660179 20.548014 -1.065160 0.536586 0.031506 -0.005312 -96396.700000 1 0 0
1.965475 6.880397 13.493879 15.273759 1.292544 0.487582 0.013903 0.001060 -1484250.000000 1 0 0
-3.698825 -0.851803 20.319079 20.670555 0.226344 0.184673 0.045116 -0.016028 -1217470.000000 1 0 0
-10.776825 1.635097 16.340279 19.642256 -0.150575 0.588284 0.031741 -0.001301 -204033.000000 1 0 0
-4.054625 7.050597 18.550679 20.255335 -1.048905 0.413197 0.039479 -0.006523 -918781.000000 1 0 0
-12.659425 0.910397 14.620979 19.361376 -0.071791 0.714895 0.034789 -0.006048 -645984.000000 1 0 0
-16.185025 -4.630303 8.621079 18.913428 0.278643 1.097505 0.053391 -0.000858 -2500150.000000 1 0 0
-2.345925 0.838497 15.663979 15.860854 -0.343276 0.157724 0.027399 -0.005188 227030.000000 1 0 0
-13.987225 -8.821303 12.200479 20.550171 0.562665 0.935157 0.082102 -0.026262 455253.000000 1 0 0
6.267275 -3.248603 14.565279 16.185781 -0.478215 0.451299 0.027063 -0.011766 777475.000000 1 0 0
-15.695125 0.519397 7.475279 17.392140 -0.033081 1.126516 0.026321 -0.010813 -352008.000000 1 0 0
-14.287825 5.848497 12.271379 19.721400 -0.388527 0.899200 0.034080 -0.015214 -101159.000000 1 0 0
0.124475 9.365097 16.718379 19.163109 1.557506 0.510654 0.013419 -0.010212 -418648.000000 1 0 0
-10.518125 -5.580603 10.813979 16.084658 0.487804 0.833463 0.023166 -0.004273 146424.000000 1 0 0
-3.127725 -11.036703 15.018779 18.898550 1.294644 0.652274 0.013708 -0.009965 -919330.000000 1 0 0
-3.600825 2.747697 12.724079 13.506220 -0.651816 0.341986 0.011258 0.001535 -1702360.000000 1 0 0
-12.444325 -7.838103 7.348279 16.440629 0.562082 1.107434 0.033633 -0.003355 50246.900000 1 0 0
-8.254625 -1.911803 13.227079 15.708260 0.227591 0.569731 0.005626 0.001652 -62198.400000 1 0 0
-9.907425 6.350497 9.569979 15.168071 -0.570011 0.888046 -0.000509 -0.000951 -943271.000000 1 0 0
-17.799225 -3.526503 6.726179 19.351747 0.195594 1.215813 0.046193 -0.005414 262364.000000 1 0 0
-1.289525 0.003897 20.367379 20.408161 -0.003022 0.063229 0.044863 -0.017574 -903202.000000 1 0 0
-2.618025 2.644397 20.280279 20.618841 -0.790410 0.181467 0.046725 -0.010202 -1117370.000000 1 0 0
-3.869525 11.290797 11.115679 16.309925 -1.240626 0.820947 0.014106 -0.006566 -120232.000000 1 0 0
-4.177625 -4.791003 14.818279 16.124133 0.853683 0.405228 0.020128 -0.008687 725247.000000 1 0 0
-0.106725 -14.283303 13.258679 19.488887 1.563324 0.822597 -0.004542 -0.014827 438858.000000 1 0 0
-12.125025 0.395597 8.331579 14.716927 -0.032615 0.969002 -0.001186 0.001635 -681834.000000 1 0 0
-7.822525 2.155397 15.493579 17.489672 -0.268866 0.482430 0.014782 0.005627 -1282440.000000 1 0 0
3.694775 -2.158203 18.391379 18.882585 -0.528663 0.228593 0.032578 -0.015863 -378362.000000 1 0 0
-2.178425 4.902097 12.645779 13.736514 -1.152621 0.401193 0.006186 0.000974 -234816.000000 1 0 0
-10.435725 -6.210903 13.336679 18.037369 0.536851 0.738630 0.030738 -0.008649 -46090.700000 1 0 0
2.464275 -3.761703 14.249579 14.942341 -0.990847 0.305696 0.012181 -0.008591 -350124.000000 1 0 0
6.803075 1.149697 16.962279 18.311814 0.167415 0.386318 0.016660 -0.006326 -796840.000000 1 0 0
-1.877525 -5.663303 13.790479 15.025825 1.250674 0.408330 0.009685 -0.005958 -1741040.000000 1 0 0
-12.905825 3.435697 14.967179 20.059431 -0.260179 0.728548 0.016706 -0.000642 134960.000000 1 0 0
-13.286025 -6.720303 13.583079 20.153932 0.468291 0.831231 0.047214 -0.014024 -518454.000000 1 0 0
-9.524325 6.923697 11.960179 16.783809 -0.628584 0.777596 0.001506 0.001222 -276778.000000 1 0 0
-1.180425 -2.402003 12.858079 13.133667 1.114025 0.205218 0.013044 -0.004062 488406.000000 1 0 0
0.149375 6.585197 15.307879 16.664882 1.548117 0.406346 0.012320 -0.003337 435197.000000 1 0 0
-16.431925 -0.771303 9.632679 19.062832 0.046905 1.041053 0.058859 -0.010352 1278.300000 1 0 0
-1.349325 2.772197 13.868879 14.207447 -1.117817 0.218749 0.012349 -0.002642 -2781280.000000 1 0 0
-11.188025 -3.393703 16.206679 19.983632 0.294512 0.624941 0.031190 -0.007565 -791951.000000 1 0 0
-5.174025 -1.494203 17.180079 18.004396 0.281140 0.303769 0.035027 -0.007105 350659.000000 1 0 0
-11.977525 6.532997 11.115679 17.598280 -0.499334 0.887137 0.011093 -0.003492 -1570430.000000 1 0 0
-2.937825 4.749297 18.747179 19.561272 -1.016826 0.289515 0.045384 -0.007101 182829.000000 1 0 0
5.155275 -1.812403 16.267179 17.160500 -0.338066 0.324083 0.026088 -0.014304 -912328.000000 1 0 0
-8.049825 -4.174603 12.222379 15.218855 0.478413 0.638304 0.012530 0.000222 -1956820.000000 1 0 0
-11.706725 -0.802203 16.293779 20.079297 0.068418 0.624130 0.042804 0.001944 263837.000000 1 0 0
2.142875 2.025897 17.443579 17.691089 0.757345 0.167472 0.018427 -0.009818 -1074140.000000 1 0 0
-8.925125 -7.473803 11.650879 16.469929 0.697127 0.784979 0.024061 -0.011849 988466.000000 1 0 0
-7.262425 6.992797 14.744379 17.861656 -0.766486 0.599750 0.004196 0.001073 -539843.000000 1 0 0
-5.664825 3.475697 15.835279 17.173432 -0.550329 0.397375 0.017257 0.001568 -349275.000000 1 0 0
-9.427225 4.249497 11.623679 15.557658 -0.423493 0.727054 -0.003477 -0.001016 -148247.000000 1 0 0
-10.277425 0.065297 14.283779 17.597047 -0.006353 0.623715 0.013311 0.003107 -326058.000000 1 0 0
8.208775 -0.657003 15.678779 17.709877 -0.079866 0.483630 0.025386 -0.011749 147567.000000 1 0 0
-8.688225 -7.460703 14.811479 18.722373 0.709531 0.658173 0.047512 -0.010007 -924519.000000 1 0 0
0.069575 4.035897 15.718079 16.228103 1.553559 0.251374 0.016817 -0.007318 -43819.900000 1 0 0
-8.114125 3.021997 9.668479 12.978867 -0.356521 0.730351 -0.002931 0.002860 -333415.000000 1 0 0
-2.043625 -9.683303 13.130179 16.442152 1.362802 0.645884 -0.004672 -0.004316 619326.000000 1 0 0
-6.113425 10.159497 10.312979 15.714544 -1.029095 0.854932 0.013851 -0.006342 -1205310.000000 1 0 0
-8.610125 -2.748003 15.681379 18.099487 0.308940 0.522851 0.027519 -0.008793 467631.000000 1 0 0
4.235975 5.908897 17.882579 19.304020 0.948831 0.386151 0.016993 -0.004638 58686.500000 1 0 0
-6.829625 -0.990403 15.217479 16.709169 0.144012 0.425757 0.019745 0.000035 -298748.000000 1 0 0
-0.864025 -9.860703 15.448579 18.347714 1.483396 0.569836 -0.004863 -0.002994 -272571.000000 1 0 0
-4.460925 5.872797 16.223079 17.820715 -0.921185 0.426669 0.024370 0.000774 -66963.900000 1 0 0
3.811975 0.080997 17.381879 17.795152 0.021245 0.215937 0.025919 -0.013436 -794682.000000 1 0 0
1.474875 0.157697 19.074779 19.132363 0.106518 0.077605 0.021758 -0.017044 -373933.000000 1 0 0
-6.447425 6.429497 17.857079 20.044525 -0.784006 0.471538 0.021885 -0.001864 -1672940.000000 1 0 0
-12.263725 0.591097 10.997479 16.483109 -0.048162 0.840357 0.016698 -0.004016 -245177.000000 1 0 0
-5.399825 5.214997 14.005379 15.890404 -0.767988 0.492035 0.005840 0.004395 -491350.000000 1 0 0
-8.731125 -9.512903 9.930279 16.289208 0.828223 0.915211 0.028968 -0.011262 -748842.000000 1 0 0
6.823375 -3.650603 17.099479 18.769058 -0.491265 0.424982 0.029997 -0.011122 424091.000000 1 0 0
-16.682225 1.790097 9.602979 19.331795 -0.106897 1.050952 0.048271 -0.014261 934231.000000 1 0 0
-4.100425 -9.601203 11.391579 15.452011 1.167170 0.741845 0.010633 -0.007724 691022.000000 1 0 0
-11.047525 -3.976703 9.073379 14.838739 0.345523 0.912885 0.009197 0.002059 -364618.000000 1 0 0
3.687475 -5.155503 18.450779 19.509175 -0.949908 0.330905 0.025464 -0.017003 -244750.000000 1 0 0
2.554175 -1.780603 16.017279 16.317095 -0.608800 0.191994 0.015870 -0.011747 -872402.000000 1 0 0
-3.113625 -4.456303 20.104479 20.826506 0.960942 0.264087 0.034015 -0.017492 -830488.000000 1 0 0
-6.361525 -3.339303 14.444979 16.133114 0.483386 0.461553 0.021132 -0.000891 419135.000000 1 0 0
-9.760725 5.265497 14.019279 17.875609 -0.494713 0.669280 0.012407 -0.000212 143108.000000 1 0 0
-5.935725 -5.202303 11.767179 14.169096 0.719645 0.590824 0.012217 -0.000902 -41336.400000 1 0 0
5.999575 1.964197 19.263579 20.271617 0.316391 0.316684 0.036696 -0.019668 -67930.300000 1 0 0
-2.798225 11.819497 13.386579 18.075704 -1.338330 0.736857 0.026389 -0.015952 190158.000000 1 0 0
3.335675 1.332897 15.109179 15.530313 0.380152 0.233411 0.011379 -0.006482 -1687730.000000 1 0 0
-5.749425 7.355397 12.627079 15.703531 -0.907338 0.636650 -0.003595 -0.004182 -654177.000000 1 0 0
-1.677625 -1.606703 15.290379 15.465821 0.763807 0.150767 0.022331 -0.005770 132483.000000 1 0 0
-7.737525 10.605497 14.113079 19.274980 -0.940495 0.749255 0.037447 -0.011914 38832.300000 1 0 0
-10.184225 1.968997 10.668579 14.879985 -0.190982 0.771343 -0.000186 0.003124 185105.000000 1 0 0
-13.652625 5.152597 9.053879 17.173123 -0.360879 1.015480 -0.000084 -0.008594 -844286.000000 1 0 0
0.436275 -4.738303 20.175979 20.729495 -1.478981 0.231610 0.026580 -0.019928 -263028.000000 1 0 0
-14.455925 -2.998703 7.564179 16.588634 0.204537 1.097317 0.023316 -0.001676 1189610.000000 1 0 0
-2.356225 2.539197 17.684579 18.020645 -0.822757 0.193428 0.030593 -0.008886 465317.000000 1 0 0
-6.171325 -8.292103 14.701279 17.971417 0.930991 0.612807 0.027877 -0.009695 21144.800000 1 0 0
-8.036825 2.028497 12.166279 14.721539 -0.247236 0.598064 -0.001726 0.002787 725436.000000 1 0 0
-14.373825 -3.558303 10.101879 17.925298 0.242676 0.972114 0.024750 -0.002164 -575720.000000 1 0 0
-0.607325 7.021697 12.814679 14.624947 -1.484518 0.502834 0.010885 -0.000264 239220.000000 1 0 0
-1.832625 -2.238603 19.277879 19.493755 0.884788 0.148960 0.029779 -0.016779 4614.840000 1 0 0
-12.869925 10.382697 7.447179 18.135486 -0.678838 1.147639 0.006373 -0.009778 -535129.000000 1 0 0
-19.525625 2.316197 6.771479 20.795858 -0.118072 1.239132 0.061543 -0.021626 1052530.000000 1 0 0
-16.153825 8.378397 6.681779 19.385298 -0.478467 1.218895 0.009739 -0.005449 401608.000000 1 0 0
-12.463025 7.213397 13.604379 19.810079 -0.524673 0.813801 0.024682 -0.004136 -201542.000000 1 0 0
-15.980125 8.400997 10.428279 20.849224 -0.484008 1.046994 0.014158 -0.003550 124068.000000 1 0 0
1.691675 10.911997 15.291679 18.861837 1.416992 0.625414 0.016050 -0.004600 -683399.000000 1 0 0
2.303475 14.495697 12.605079 19.347332 1.413206 0.861216 0.017756 -0.007505 466162.000000 1 0 0
-3.266025 13.688797 11.685379 18.292025 -1.336584 0.877828 0.016352 -0.011362 320227.000000 1 0 0
9.096375 4.703597 15.808579 18.835579 0.477222 0.574814 0.028257 -0.001431 -310067.000000 1 0 0
-0.288625 12.558797 12.797979 17.933069 -1.547818 0.776098 0.017633 -0.009421 556261.000000 1 0 0
3.604975 13.282097 14.578479 20.048491 1.305765 0.756619 0.026001 -0.006753 -80570.400000 1 0 0
-2.880825 -4.056603 -13.731121 14.604755 0.953286 2.793959 0.001216 -0.002724 -257472.000000 1 0 0
5.966075 -11.573303 16.162879 20.755097 -1.094823 0.678137 0.021779 -0.002230 195585.000000 1 0 0
7.736375 -13.518803 7.276279 17.191677 -1.051018 1.133773 0.003018 -0.007260 -438916.000000 1 0 0
-0.076525 15.632397 1.299979 15.686543 -1.565901 1.487829 0.003778 -0.000760 -3139630.000000 1 0 0
-13.691225 8.114097 9.050079 18.308253 -0.534997 1.053747 0.000528 -0.003637 510134.000000 1 0 0
-15.565725 -9.832503 4.839879 19.036658 0.563386 1.313735 0.039417 -0.000754 107856.000000 1 0 0
9.300275 -11.028503 11.151579 18.234053 -0.870208 0.912740 0.021916 -0.006988 289402.000000 1 0 0
-5.534525 -10.605003 -16.756821 20.588543 1.089799 2.521613 0.034114 -0.004946 16824.300000 1 0 0
-2.066125 -12.558503 -15.028521 19.693687 1.407737 2.438914 0.015773 0.009587 -45552.800000 1 0 0
5.636075 -15.576903 -12.639321 20.836451 -1.223628 2.222569 0.032508 -0.002740 5907.410000 1 0 0
2.731175 -12.156403 -16.522121 20.693427 -1.349796 2.495469 0.026043 0.012395 209680.000000 1 0 0
0.419375 -14.280203 -14.241421 20.172212 -1.541437 2.354619 0.021190 0.019272 402944.000000 1 0 0
-6.996525 -5.868903 -14.891821 17.468879 0.697974 2.591502 0.023114 0.009524 22858.500000 1 0 0
-5.963525 -8.238703 -17.339721 20.102382 0.944247 2.611125 0.010236 -0.002521 38067.100000 1 0 0
-2.394525 -16.371303 -13.165921 21.144616 1.425563 2.242935 0.026130 -0.001812 236158.000000 1 0 0
16.282875 -8.133403 -8.953721 20.284314 -0.463253 2.027967 0.060893 -0.014028 61954.600000 1 0 0
19.096075 -2.618603 -3.738721 19.634032 -0.136278 1.762387 0.066750 -0.019412 60004.700000 1 0 0
14.945275 -12.527803 -8.553421 21.294790 -0.697630 1.984133 0.018724 -0.000394 -291279.000000 1 0 0
18.585275 -2.746203 -6.434621 19.858460 -0.146701 1.900776 0.158915 -0.004556 -223732.000000 1 0 0
9.252375 -9.683503 -15.937821 20.818040 -0.808162 2.442735 0.074045 -0.004547 135992.000000 1 0 0
-4.740225 9.436197 -16.180421 19.321428 -1.105275 2.563368 0.002860 -0.002984 514387.000000 1 0 0
2.584375 -9.391803 -18.549621 20.951692 -1.302269 2.658047 0.043755 0.002481 178597.000000 1 0 0
10.967675 7.779897 -14.937421 20.098339 0.616972 2.408662 0.078374 -0.042598 333811.000000 1 0 0
18.626675 -5.951803 -8.477821 21.313152 -0.309278 1.979886 0.066924 -0.015599 340013.000000 1 0 0
12.398675 5.302597 -14.080721 19.496445 0.404134 2.377803 0.048024 0.004165 88738.100000 1 0 0
15.907475 6.264497 -10.770821 20.206491 0.375157 2.132983 0.039110 -0.006843 229767.000000 1 0 0
3.275275 -0.351603 -19.146521 19.427823 -0.106941 2.971214 0.051648 -0.019235 221517.000000 1 0 0
10.105075 -1.617103 -14.621221 17.846783 -0.158683 2.530922 0.027661 -0.005442 -70994.900000 1 0 0
12.029475 -6.215303 -14.251321 19.658037 -0.476897 2.381775 0.040666 0.009238 453507.000000 1 0 0
10.058275 6.431597 -12.717921 17.443619 0.568911 2.387784 0.033609 -0.004598 446121.000000 1 0 0
10.505975 5.109197 -16.640121 20.331577 0.452639 2.529482 0.046133 -0.008142 205104.000000 1 0 0
11.583075 -10.933503 -14.830021 21.763240 -0.756558 2.320505 0.068703 -0.006157 306959.000000 1 0 0
-1.008125 2.104697 -17.595421 17.749504 -1.124099 3.009732 0.022469 -0.014713 435139.000000 1 0 0
6.273475 -1.189303 -16.957121 18.119461 -0.187353 2.781463 0.028460 0.000583 96243.400000 1 0 0
7.207275 -6.537203 -15.912221 18.651504 -0.736685 2.592759 0.031899 -0.003505 347513.000000 1 0 0
-2.539125 -4.566603 -20.437121 21.094476 1.063343 2.891290 0.035196 -0.022930 404799.000000 1 0 0
15.596975 -0.220703 -13.650221 20.727828 -0.014149 2.289681 0.036226 0.002694 -19681.600000 1 0 0
-4.271325 -0.375403 -18.172121 18.671131 0.087664 2.909877 0.013555 -0.022393 136849.000000 1 0 0
3.565875 8.700697 -17.831721 20.159064 1.181838 2.656327 0.025888 -0.015496 175203.000000 1 0 0
10.102775 0.525697 -16.695821 19.521600 0.051988 2.596827 0.048215 -0.024580 -173418.000000 1 0 0
4.249175 4.580497 -18.306121 19.342970 0.822904 2.812688 0.030491 -0.007419 579601.000000 1 0 0
-2.545025 -11.130603 -17.832621 21.174745 1.346009 2.572081 0.026611 -0.008745 263221.000000 1 0 0
6.260575 -9.565303 -16.309321 19.916922 -0.991258 2.530232 0.039568 -0.003334 210488.000000 1 0 0
10.381875 -12.325503 -10.828921 19.415635 -0.870785 2.162460 0.039375 -0.002579 243742.000000 1 0 0
6.090675 7.063297 -17.409521 19.750390 0.859205 2.649778 0.037739 -0.001759 160287.000000 1 0 0
8.666975 1.362197 -20.161321 21.987517 0.155896 2.731149 0.068211 -0.019733 118103.000000 1 0 0
-1.297025 -0.466803 -20.210821 20.257775 0.345470 3.073494 0.040038 -0.021290 212050.000000 1 0 0
-0.731825 6.650397 -19.679821 20.786022 -1.461195 2.813881 0.026490 -0.008514 -68701.000000 1 0 0
8.655175 6.031597 -17.959421 20.828659 0.608627 2.610483 0.060321 -0.022738 88539.800000 1 0 0
12.147075 0.070797 -13.128721 17.886301 0.005828 2.395004 0.019027 -0.000469 13835.100000 1 0 0
-4.734625 -2.390903 -19.725221 20.425901 0.467626 2.878909 0.014233 -0.014920 489341.000000 1 0 0
5.448875 -11.237103 -14.369921 19.038313 -1.119301 2.426130 0.010961 -0.008292 -7650.200000 1 0 0
11.951475 2.848397 -15.660621 19.904928 0.233965 2.476356 0.068263 -0.002106 54109.600000 1 0 0
-2.833725 -3.989503 -17.116421 17.802191 0.953194 2.863127 0.001823 -0.007684 114903.000000 1 0 0
-6.854825 -4.773403 -17.325521 19.234024 0.608277 2.692346 0.012439 -0.007513 105650.000000 1 0 0
2.977075 10.072197 -15.241021 18.509480 1.283405 2.538203 0.004206 -0.016817 218657.000000 1 0 0
17.280375 -6.111503 -10.679321 21.213433 -0.339938 2.098352 0.089037 -0.013928 -4707.620000 1 0 0
9.690975 -3.473403 -17.583521 20.375469 -0.344153 2.611925 0.039865 -0.012572 -91756.800000 1 0 0
-7.428825 -1.713003 -18.949021 20.425161 0.226627 2.759079 0.008344 0.002197 507326.000000 1 0 0
1.919175 -7.280603 -19.046321 20.480546 -1.313058 2.765131 0.052153 -0.027258 255405.000000 1 0 0
5.769175 10.217497 -13.944521 18.224442 1.056785 2.442078 0.039006 -0.022836 349272.000000 1 0 0
5.887375 -3.680403 -18.078021 19.365469 -0.558696 2.774900 0.034157 -0.019826 608555.000000 1 0 0
4.668975 13.191997 -14.624721 20.241309 1.230629 2.378235 0.034224 -0.024763 -13758.200000 1 0 0
9.781475 11.140797 -15.177621 21.216852 0.850277 2.367931 0.105149 -0.033712 -135358.000000 1 0 0
17.060675 0.630997 -11.809621 20.758900 0.036969 2.175957 0.067651 0.001053 223509.000000 1 0 0
15.315775 -2.891403 -12.266221 19.834146 -0.186590 2.237552 0.062028 -0.003942 -33080.800000 1 0 0
-8.707425 0.404597 -17.433521 19.491296 -0.046432 2.677942 0.011528 -0.010894 432114.000000 1 0 0
-3.329225 3.721497 -19.255021 19.891936 -0.840977 2.887856 0.024594 -0.011481 77631.700000 1 0 0
3.936975 1.872297 -16.891121 17.444633 0.443911 2.889010 0.019375 -0.006784 482716.000000 1 0 0
-4.622625 14.145097 -14.042721 20.460949 -1.254937 2.327211 0.008991 -0.015285 360403.000000 1 0 0
0.849775 9.391197 -17.627321 19.990977 1.480556 2.650385 0.001986 -0.000422 233211.000000 1 0 0
1.015975 -4.941503 -19.964221 20.591765 -1.368022 2.894079 0.043103 -0.007375 497289.000000 1 0 0
4.310875 -6.282503 -17.969521 19.518124 -0.969412 2.740560 0.057894 -0.024995 103495.000000 1 0 0
-6.479825 7.670397 -15.753121 18.681112 -0.869339 2.574125 0.002032 -0.003215 -87333.000000 1 0 0
-11.922725 3.131697 -16.648121 20.715184 -0.256864 2.504229 0.066822 -0.030118 239287.000000 1 0 0
-4.478425 7.061397 -17.424621 19.327106 -1.005600 2.694167 -0.004048 0.016901 360502.000000 1 0 0
-8.177925 5.069297 -17.788821 20.224203 -0.554906 2.645777 0.015792 -0.007570 384635.000000 1 0 0
-8.294825 4.196597 -14.861321 17.529244 -0.468380 2.582622 -0.007050 -0.022297 474873.000000 1 0 0
9.442075 13.717997 -12.869521 21.046634 0.967967 2.228722 0.078626 -0.032315 523219.000000 1 0 0
14.830775 9.994597 -11.474021 21.248459 0.593000 2.141225 0.131782 -0.031942 108486.000000 1 0 0
8.651975 15.595797 -10.053121 20.473173 1.064303 2.084078 0.051698 -0.012859 72138.500000 1 0 0
7.213775 12.564597 -14.498821 20.496913 1.049612 2.356561 0.092877 -0.043048 148091.000000 1 0 0
4.124175 15.460897 -13.089221 20.673071 1.310117 2.256417 0.036213 -0.021708 252456.000000 1 0 0
11.353275 11.170997 -10.685121 19.179673 0.777306 2.161694 0.086053 -0.046752 348348.000000 1 0 0
15.931475 10.903097 -9.329721 21.441388 0.600162 2.020975 0.088017 -0.036543 297002.000000 1 0 0
13.388475 11.412397 -8.206521 19.412394 0.705888 2.007270 0.098095 -0.028976 -45399.900000 1 0 0
10.496575 11.415497 -7.380021 17.174294 0.827310 2.014971 0.042191 -0.019850 -39169.300000 1 0 0
6.308475 16.599697 -10.160221 20.459152 1.207618 2.090485 0.046861 -0.012701 74589.300000 1 0 0
11.247075 13.227497 -10.403721 20.241067 0.866140 2.110627 0.099242 -0.048596 97376.400000 1 0 0
7.820275 -19.406203 -1.530921 20.978587 -1.187725 1.643837 0.040554 -0.011162 -3013.660000 1 0 0
7.828875 -17.542603 -4.005921 19.623496 -1.151042 1.776380 0.036042 0.005543 182484.000000 1 0 0
3.958175 -18.818303 5.368679 19.965430 -1.363482 1.298547 0.047764 -0.011306 127010.000000 1 0 0
10.284575 -17.919403 -2.293321 20.787900 -1.049763 1.681341 0.049389 -0.016923 367831.000000 1 0 0
-3.485025 -14.733403 7.867579 17.062162 1.338526 1.091548 0.022988 -0.033952 -12726.800000 1 0 0
-15.289825 -12.917103 -4.370021 20.487249 0.701477 1.785752 0.022574 -0.009219 20188.400000 1 0 0
-9.288825 -12.677103 -7.165121 17.272237 0.938443 1.998557 0.029295 -0.014944 129803.000000 1 0 0
-11.583825 -15.491403 6.761079 20.490992 0.928731 1.234542 0.055850 -0.007697 239096.000000 1 0 0
-14.868325 -7.292603 -7.267421 18.084926 0.456002 1.984332 0.047882 -0.033721 -276863.000000 1 0 0
5.353075 -15.622703 5.622579 17.445276 -1.240687 1.242640 0.039903 -0.014265 126639.000000 1 0 0
2.692475 -14.069503 9.188679 17.018583 -1.381713 1.000454 0.014923 -0.007834 391507.000000 1 0 0
3.251275 -17.550303 10.040679 20.479237 -1.387618 1.058379 0.038598 -0.007169 278789.000000 1 0 0
-7.449325 -17.117903 -5.640621 19.502093 1.160337 1.864220 -0.011620 -0.017990 -61377.100000 1 0 0
1.920775 -19.797103 -3.794721 20.248816 -1.474076 1.759316 0.023567 -0.013452 -16142.900000 1 0 0
-16.977925 -10.842703 -2.761221 20.333187 0.568344 1.707016 -0.064166 -0.017246 -121587.000000 1 0 0
-3.881825 -14.775203 2.765679 15.524953 1.313877 1.391696 -0.001472 -0.002426 48398.900000 1 0 0
-10.904525 -9.919103 -14.575321 20.730105 0.738111 2.350543 0.055193 -0.007845 212622.000000 1 0 0
0.252575 -20.168703 2.561779 20.332316 -1.558274 1.444465 0.014493 -0.010833 254242.000000 1 0 0
5.230275 -18.575903 0.540879 19.305763 -1.296339 1.542776 0.011564 -0.004562 88711.700000 1 0 0
-6.799625 -19.015503 -3.080021 20.428186 1.227382 1.722147 -0.021621 -0.024927 56929.400000 1 0 0
-9.437825 -15.498003 -7.776621 19.741744 1.023807 1.975686 0.052341 -0.018114 -4023.660000 1 0 0
-11.884625 -11.403603 -12.463221 20.654742 0.764746 2.218563 0.046648 0.001811 242203.000000 1 0 0
-13.355725 -15.030903 -3.466921 20.403994 0.844343 1.741539 0.035356 -0.012976 150081.000000 1 0 0
-0.666625 -20.701703 -2.664221 20.883078 1.538606 1.698723 0.024703 -0.005898 243092.000000 1 0 0
-11.612525 -17.003303 -0.933121 20.611496 0.971600 1.616084 0.034631 0.002639 -193980.000000 1 0 0
0.913575 -20.015503 5.096579 20.674383 -1.525185 1.321712 0.031602 -0.014472 274263.000000 1 0 0
-18.098025 -10.154003 2.095779 20.857482 0.511292 1.470146 0.043954 0.014551 -430050.000000 1 0 0
-14.448025 -15.133203 -0.488621 20.928402 0.808557 1.594146 0.034769 -0.012040 61212.800000 1 0 0
9.576575 -16.039203 -4.642421 19.248867 -1.032532 1.814377 0.030586 0.002314 121787.000000 1 0 0
-0.214625 -19.064803 -7.207821 20.382970 1.559539 1.932234 0.020732 -0.004705 109786.000000 1 0 0
-10.000625 -17.840303 -2.993321 20.670000 1.059879 1.716122 0.030152 0.020354 542266.000000 1 0 0
-14.621925 -6.801003 -11.449821 19.777582 0.435359 2.188211 0.041320 -0.014587 -170.406000 1 0 0
-12.358025 -14.919603 1.794579 19.455998 0.879031 1.478427 0.053124 -0.018102 284538.000000 1 0 0
-2.561125 -16.153803 9.749579 19.040982 1.413559 1.033248 0.010517 -0.026035 308576.000000 1 0 0
-12.025725 -14.984903 -6.866821 20.403887 0.894519 1.914042 0.023833 -0.003505 108065.000000 1 0 0
5.089275 -17.025903 -7.341721 19.227141 -1.280336 1.962584 0.018254 -0.005700 -67215.600000 1 0 0
-17.773025 -7.412603 -2.834321 19.464339 0.395135 1.716932 0.015261 -0.012292 2567.990000 1 0 0
-12.007625 -13.631903 -9.779321 20.631213 0.848664 2.064631 0.053793 -0.023648 82001.400000 1 0 0
-7.846625 -13.913303 9.742079 18.709827 1.057294 1.023134 0.035592 -0.014359 482936.000000 1 0 0
-16.093525 -8.413003 -5.593421 19.001751 0.481687 1.869586 0.049328 -0.004675 206353.000000 1 0 0
-0.704125 -19.616203 0.177879 19.629642 1.534917 1.561734 0.013360 -0.007078 203029.000000 1 0 0
-14.562225 -11.270903 -1.836421 18.505785 0.658674 1.670195 -0.011928 -0.006991 -130894.000000 1 0 0
-6.897225 -18.898403 1.221379 20.154729 1.220854 1.510159 0.020371 -0.015737 62217.600000 1 0 0
-2.042725 -20.887903 -5.185821 21.618741 1.473312 1.813035 0.020483 -0.008545 145455.000000 1 0 0
-8.797625 -19.808103 -1.181921 21.706130 1.152824 1.625274 0.038917 -0.004280 95144.800000 1 0 0
-17.925525 -7.460203 5.020279 20.054483 0.394374 1.317773 0.058023 -0.000425 79939.900000 1 0 0
-2.800925 -15.753203 -10.706021 19.251687 1.394835 2.160492 0.017641 -0.004994 141002.000000 1 0 0
-2.861325 -18.269403 -8.309821 20.273416 1.415440 1.993127 0.009963 -0.006068 139307.000000 1 0 0
4.267375 -18.247503 -5.733421 19.597295 -1.341064 1.867701 0.011964 0.032518 576405.000000 1 0 0
0.756875 -17.416103 -9.261121 19.739855 -1.527365 2.059134 0.022733 -0.003410 -31169.500000 1 0 0
-7.609725 -10.439303 -14.998621 19.795090 0.940904 2.430569 0.031746 -0.002706 560572.000000 1 0 0
-4.456725 -19.916403 -1.719721 20.481283 1.350651 1.654861 -0.000589 -0.003277 227805.000000 1 0 0
-10.244625 -15.657103 8.650379 20.613740 0.991396 1.137746 0.039924 -0.019224 121612.000000 1 0 0
-7.368625 -14.880603 -10.289521 19.534667 1.111010 2.125547 0.040154 -0.021267 291026.000000 1 0 0
-12.628125 -8.273203 -12.297721 19.471758 0.579981 2.254369 0.037020 -0.012842 273506.000000 1 0 0
-15.681525 -13.273103 3.210279 20.794023 0.702410 1.415792 0.048360 0.000884 108095.000000 1 0 0
-6.118425 -14.420903 -13.079621 20.407696 1.169540 2.266487 0.013393 -0.000154 359870.000000 1 0 0
-13.940325 -11.586303 -6.782721 19.354079 0.693440 1.928852 0.032401 -0.020271 324917.000000 1 0 0
-11.876425 -10.483503 -8.254121 17.862917 0.723183 2.051137 0.037919 -0.017122 222330.000000 1 0 0
-9.991625 -15.011003 3.635179 18.395035 0.983519 1.371870 0.014028 0.004621 503961.000000 1 0 0
5.119275 -17.688303 8.336779 20.213484 -1.289078 1.145669 0.060413 -0.027807 246097.000000 1 0 0
-5.193925 -16.657403 5.716279 18.360876 1.268541 1.254205 0.011981 0.010057 596496.000000 1 0 0
-18.391925 -7.473203 -6.908721 21.020040 0.385952 1.905695 0.049947 -0.025746 92439.600000 1 0 0
-17.182625 -3.083103 -10.431421 20.336240 0.177542 2.109411 0.070385 -0.032103 -162133.000000 1 0 0
-15.920825 -3.928603 -12.645521 20.707868 0.241926 2.227693 0.057417 -0.026039 236011.000000 1 0 0
-19.430725 -5.450603 -6.056421 21.069940 0.273486 1.862353 0.066270 -0.015447 292360.000000 1 0 0
5.352675 -13.533103 8.560979 16.884501 -1.194154 1.039059 0.026045 -0.009181 269966.000000 1 0 0
19.710275 -3.976303 3.025179 20.333658 -0.199066 1.421465 0.061232 -0.015403 -19480.800000 1 0 0
18.464275 -2.430903 0.728379 18.637845 -0.130902 1.531706 0.052339 -0.018027 326313.000000 1 0 0
14.495475 -11.508003 0.266579 18.510105 -0.671012 1.556394 0.041401 -0.000137 77687.500000 1 0 0
11.269175 -14.144103 5.691979 18.959129 -0.898046 1.265869 0.027532 0.010120 393590.000000 1 0 0
10.272375 -12.832603 8.446179 18.480674 -0.895756 1.096146 0.030877 -0.019162 50027.700000 1 0 0
17.689075 5.256797 -4.652221 19.031039 0.288865 1.817753 0.011563 0.012256 -125210.000000 1 0 0
19.006975 -6.000003 -4.387621 20.408732 -0.305774 1.787475 0.086410 -0.022164 8911.230000 1 0 0
17.474075 -10.211603 0.046679 20.239128 -0.528859 1.568490 0.049237 -0.006418 149441.000000 1 0 0
17.894575 -8.673403 8.535679 21.640276 -0.451328 1.165344 0.099466 -0.012297 -35614.000000 1 0 0
19.886675 0.505197 -2.093521 20.002947 0.025398 1.675649 0.060373 -0.006266 -91206.800000 1 0 0
7.317775 -13.500303 11.382479 19.114624 -1.074081 0.932927 0.017397 -0.000193 280088.000000 1 0 0
16.518175 -6.488803 -3.419121 18.073324 -0.374308 1.761124 0.060934 -0.006203 204169.000000 1 0 0
14.610575 -6.878403 12.214279 20.247714 -0.440002 0.923236 0.073783 -0.022978 397951.000000 1 0 0
17.065275 1.200797 9.356779 19.499098 0.070249 1.070305 0.107269 -0.039176 334848.000000 1 0 0
16.564175 -10.224203 2.639279 19.643625 -0.553005 1.436031 0.017880 -0.006476 304045.000000 1 0 0
16.691675 -7.875903 -6.296221 19.500878 -0.440872 1.899555 0.071773 0.002158 285312.000000 1 0 0
18.016875 -4.201503 6.232279 19.521827 -0.229104 1.245862 0.083752 -0.016198 6553.320000 1 0 0
13.774375 -13.196003 8.037879 20.699647 -0.763957 1.171999 0.047189 -0.009693 140935.000000 1 0 0
15.414975 -14.054903 -1.822121 20.939959 -0.739280 1.657923 0.052212 -0.014664 193336.000000 1 0 0
18.786675 -6.147803 7.470879 21.131698 -0.316259 1.209445 0.102943 -0.022888 347638.000000 1 0 0
19.470775 3.051897 2.837379 19.911702 0.155477 1.427812 0.040800 0.004225 120293.000000 1 0 0
15.718075 -10.358403 8.200979 20.533155 -0.582685 1.159932 0.048273 -0.023133 315015.000000 1 0 0
14.296075 -4.177503 10.841079 18.421680 -0.284298 0.941599 0.055997 -0.010060 -148045.000000 1 0 0
18.752475 -7.738103 1.995179 20.384168 -0.391359 1.472761 0.088872 -0.017428 156357.000000 1 0 0
18.825775 -5.063703 -1.872221 19.584588 -0.262758 1.666539 0.058385 -0.012659 377918.000000 1 0 0
14.953775 -13.514203 -5.803421 20.974479 -0.734873 1.851144 0.098240 -0.028364 597579.000000 1 0 0
13.937275 -9.842703 10.426879 19.996156 -0.614884 1.022254 0.046626 -0.003984 408301.000000 1 0 0
14.446275 2.289097 0.555479 14.637055 0.157149 1.532837 0.009040 0.001716 -62563.700000 1 0 0
12.930275 2.352597 13.665579 18.959820 0.179976 0.765891 0.031808 -0.010882 -66012.000000 1 0 0
18.260275 -3.522703 9.159579 20.730291 -0.190575 1.113142 0.075409 -0.020585 81277.300000 1 0 0
7.327075 -18.425803 5.144879 20.485752 -1.192315 1.316934 0.052907 -0.023831 379417.000000 1 0 0
12.922475 -3.017403 15.036879 20.054995 -0.229390 0.723063 0.051776 -0.000921 356698.000000 1 0 0
11.427075 -13.778103 -6.879621 19.176635 -0.878405 1.937725 0.038801 -0.013271 122960.000000 1 0 0
10.858875 -17.592303 4.280479 21.112243 -1.017788 1.366632 0.046261 -0.020231 611784.000000 1 0 0
18.369175 -0.183503 -4.684021 18.957856 -0.009989 1.820457 0.067415 -0.011464 388257.000000 1 0 0
4.270775 -13.563103 11.378979 18.212041 -1.265743 0.895914 0.010574 -0.009407 25777.500000 1 0 0
9.542475 -2.504003 14.502679 17.540141 -0.256620 0.597352 0.038593 -0.008451 420859.000000 1 0 0
9.177975 -9.422703 14.001579 19.211111 -0.798554 0.754189 0.043324 -0.009315 407742.000000 1 0 0
20.987575 5.739897 -2.834421 21.942166 0.266962 1.700335 0.077304 0.009781 367762.000000 1 0 0
14.797175 -13.750003 2.346379 20.335301 -0.748732 1.455154 0.029334 0.005291 277804.000000 1 0 0
11.368575 0.040697 13.856579 17.923474 0.003580 0.687087 0.048486 -0.030855 67572.800000 1 0 0
19.760575 0.147897 7.613479 21.177046 0.007484 1.203048 0.117055 -0.023972 134473.000000 1 0 0
19.897075 1.471297 0.385579 19.955124 0.073811 1.551473 0.047758 0.000043 314525.000000 1 0 0
18.053275 0.153297 3.368979 18.365573 0.008491 1.386312 0.036266 -0.001446 115525.000000 1 0 0
10.384675 -8.556303 16.381479 21.199166 -0.689166 0.687647 0.066003 -0.009286 108160.000000 1 0 0
19.488475 2.655897 5.699079 20.477645 0.135446 1.288765 0.070944 -0.005237 230770.000000 1 0 0
15.734575 2.749497 7.205679 17.523082 0.172996 1.147014 0.053886 -0.012099 37760.700000 1 0 0
11.364675 -16.121103 1.895379 19.815102 -0.956752 1.474997 0.013167 -0.004383 257785.000000 1 0 0
8.993775 -15.885303 6.838179 19.493371 -1.055624 1.212376 0.037526 -0.009797 192375.000000 1 0 0
6.096175 6.536197 7.311179 11.547232 0.820217 0.885175 0.003896 0.004200 -1240620.000000 1 0 0
18.399975 2.823997 -6.384021 19.679679 0.152290 1.901170 0.043892 0.005053 327055.000000 1 0 0
13.906575 4.574897 -7.448821 16.425816 0.317822 2.041465 0.016832 0.003436 252253.000000 1 0 0
-10.464125 -3.809003 -14.081221 17.952359 0.349097 2.472470 0.010484 0.007912 -3310.960000 1 0 0
7.774875 -14.029103 -10.513321 19.177965 -1.064737 2.151004 0.015438 0.001423 48829.500000 1 0 0
2.189875 -15.776603 13.851079 21.108035 -1.432872 0.855025 0.013182 -0.016950 335637.000000 1 0 0
-9.514525 -8.003503 2.237679 12.632872 0.699356 1.392725 0.008652 0.001872 496743.000000 1 0 0
-13.687925 3.085897 -9.899621 17.172203 -0.221740 2.185224 0.021669 -0.006216 370053.000000 1 0 0
-12.932925 -5.289803 -13.208221 19.227576 0.388257 2.328068 0.029368 0.005810 178751.000000 1 0 0
-18.074225 -1.153703 -8.288321 19.917452 0.063745 1.999985 0.078793 -0.030809 410125.000000 1 0 0
-12.450025 14.816697 4.867479 19.955701 -0.871978 1.324396 0.041919 -0.022595 215127.000000 1 0 0
-16.960425 6.368197 9.395579 20.408010 -0.359186 1.092365 -0.006129 -0.014503 236019.000000 1 0 0
-13.543125 15.238197 0.096579 20.386962 -0.844225 1.566059 0.047683 -0.029830 133614.000000 1 0 0
-15.943125 5.408797 -10.715121 19.956256 -0.327071 2.137591 0.043575 -0.005861 -217954.000000 1 0 0
-18.512625 2.930397 -0.234821 18.744590 -0.156989 1.583324 0.060728 -0.007640 58422.800000 1 0 0
-9.885325 15.474397 -0.284221 18.364569 -1.002322 1.586274 0.024682 -0.010379 -43020.400000 1 0 0
-18.897025 11.582697 2.318879 22.285278 -0.549878 1.466553 0.110480 -0.029986 -62172.800000 1 0 0
-8.648325 16.305197 -7.639821 19.975481 -1.083123 1.963253 0.049633 -0.031651 79586.500000 1 0 0
-14.832325 -1.757703 -12.951321 19.769272 0.117955 2.285143 0.040756 -0.019467 94641.900000 1 0 0
-18.890225 5.355097 -4.839021 20.222111 -0.276237 1.812435 0.055641 -0.007081 -111936.000000 1 0 0
-16.763925 9.152997 -6.013521 20.024210 -0.499762 1.875817 0.047317 0.000544 -100772.000000 1 0 0
-19.212925 1.191797 1.848979 19.338449 -0.061952 1.475039 0.058563 -0.014638 430603.000000 1 0 0
-13.453025 12.624097 -7.042821 19.747229 -0.753621 1.935474 0.032878 0.005258 -173367.000000 1 0 0
-13.996525 4.731497 -12.334921 19.246819 -0.325988 2.266442 0.093406 -0.033539 81165.800000 1 0 0
-14.114925 9.605297 -6.659521 18.325994 -0.597523 1.942703 0.023517 -0.005138 182857.000000 1 0 0
-6.564925 11.379597 -15.258621 20.135019 -1.047533 2.430754 0.019714 -0.030195 -404044.000000 1 0 0
-15.191025 13.769497 3.191479 20.749743 -0.736353 1.416375 0.050291 -0.024343 94378.700000 1 0 0
-18.675825 8.319197 -5.050521 21.059517 -0.419066 1.812978 0.064117 -0.008228 147006.000000 1 0 0
-4.755325 16.101997 -11.362221 20.272826 -1.283634 2.165744 0.008636 -0.010258 -241555.000000 1 0 0
-19.350125 -1.988403 -6.666821 20.562772 0.102400 1.900981 0.046352 -0.014368 -167263.000000 1 0 0
-10.291525 13.898297 -6.291521 18.402755 -0.933411 1.919712 0.019125 -0.017790 45247.400000 1 0 0
-18.863925 3.185697 4.048179 19.554644 -0.167299 1.362270 0.033754 -0.016285 80102.100000 1 0 0
-15.457925 12.440297 0.492979 19.848211 -0.677651 1.545956 0.038663 -0.008519 99060.400000 1 0 0
-17.047125 2.181897 -8.235921 19.057690 -0.127300 2.017680 0.011524 -0.015908 183587.000000 1 0 0
-16.102225 13.862497 -4.729221 21.767315 -0.710791 1.789805 0.024094 0.020740 168532.000000 1 0 0
-10.518725 15.673897 -8.846021 20.846264 -0.979732 2.009035 0.037109 -0.017090 92463.300000 1 0 0
-19.440525 1.748497 -6.872121 20.693412 -0.089699 1.909317 0.081836 -0.020133 -38159.900000 1 0 0
-17.187625 10.287497 -0.431221 20.035793 -0.539346 1.592321 0.041770 -0.008795 -42402.800000 1 0 0
-11.302625 5.821097 -14.380621 19.194707 -0.475593 2.417646 0.028248 -0.032358 167153.000000 1 0 0
-12.934225 12.288897 -3.921721 18.267213 -0.759819 1.787167 0.034931 -0.016356 282910.000000 1 0 0
-18.641325 7.304497 -0.621321 20.030994 -0.373456 1.601819 0.030220 -0.006974 -403026.000000 1 0 0
-14.595525 9.186297 -10.398621 20.138240 -0.561751 2.113394 0.035762 -0.006349 592006.000000 1 0 0
-18.707625 11.354097 4.672279 22.376795 -0.545495 1.360448 0.073605 -0.028200 197438.000000 1 0 0
-8.096425 12.005197 -13.448321 19.761938 -0.977452 2.319263 0.007021 -0.009903 413785.000000 1 0 0
-21.216825 -1.927103 -4.889821 21.858128 0.090580 1.796413 0.069358 -0.026187 313312.000000 1 0 0
-10.537625 13.282497 -3.109921 17.237688 -0.900125 1.752204 0.017452 -0.005171 258820.000000 1 0 0
-18.772625 -4.622503 3.768879 19.697295 0.241433 1.378269 0.041289 -0.009291 -33615.000000 1 0 0
-11.650125 11.455897 -12.977221 20.865552 -0.776992 2.242020 0.061206 -0.013171 268765.000000 1 0 0
-14.828425 11.718897 -10.303121 21.526008 -0.668798 2.069897 0.060395 -0.002956 236217.000000 1 0 0
-12.668025 8.572997 -14.090021 20.796726 -0.594946 2.315170 0.073225 -0.021313 276473.000000 1 0 0
-18.238625 -5.169503 -2.990821 19.191566 0.276193 1.727274 0.010023 -0.008780 -208065.000000 1 0 0
-9.732625 12.664797 -11.330121 19.582970 -0.915573 2.187771 0.046068 -0.017990 162258.000000 1 0 0
-15.491725 7.711997 -8.328321 19.204931 -0.461897 2.019342 0.020669 -0.001301 -86769.400000 1 0 0
-14.513725 8.709097 1.962779 17.039633 -0.540463 1.455351 0.023402 -0.010416 8880.740000 1 0 0
-19.807825 5.841997 8.215779 22.225613 -0.286802 1.192160 0.069989 -0.026621 246022.000000 1 0 0
-18.778225 5.676197 3.731679 19.969136 -0.293543 1.382819 0.030130 -0.014501 137691.000000 1 0 0
-14.917625 12.340097 5.890579 20.236414 -0.691117 1.275432 0.042693 -0.023543 -17170.700000 1 0 0
18.137075 6.283797 5.507479 19.969274 0.333519 1.291377 0.059027 -0.016236 233439.000000 1 0 0
18.391375 8.147797 0.463479 20.120738 0.417036 1.547759 0.047083 0.013026 86875.100000 1 0 0
15.996275 5.226997 8.881679 19.028572 0.315826 1.085178 0.031291 -0.001345 81654.500000 1 0 0
12.568875 12.708097 10.846679 20.907482 0.790906 1.025357 0.068473 -0.017595 141068.000000 1 0 0
15.472375 12.487597 4.234079 20.328844 0.679049 1.360981 0.051796 -0.014558 251995.000000 1 0 0
4.969375 10.103197 14.578779 18.420371 1.113681 0.657621 0.021576 -0.006717 204909.000000 1 0 0
12.414075 14.252197 -5.548121 19.698122 0.854220 1.856317 0.036312 0.011212 187383.000000 1 0 0
18.297675 9.424997 -2.525521 20.736773 0.475649 1.692889 0.058570 0.001513 -131389.000000 1 0 0
14.613275 7.664797 9.468379 19.024908 0.483062 1.049871 0.063252 -0.013698 145987.000000 1 0 0
4.531975 19.672197 -2.196621 20.306631 1.344372 1.679181 0.010101 -0.002325 369230.000000 1 0 0
-4.680125 19.435897 3.744879 20.339169 -1.334497 1.385618 0.021454 -0.000179 274824.000000 1 0 0
7.141775 12.977697 12.667079 19.490522 1.067714 0.863331 0.035680 0.003601 -69241.300000 1 0 0
0.336675 17.112197 -10.319121 19.985617 1.551124 2.113353 0.009538 0.006396 -51630.000000 1 0 0
10.458975 9.152897 15.917879 21.131601 0.718900 0.717771 0.050413 -0.010774 -18223.800000 1 0 0
-1.187325 12.175997 0.899379 12.266765 -1.473590 1.497412 0.001374 0.001700 505567.000000 1 0 0
-5.021625 19.190197 -2.278321 19.966751 -1.314858 1.685151 0.015993 0.000202 -4088.240000 1 0 0
6.177475 18.121097 6.255979 20.141316 1.242252 1.254968 0.032189 -0.027263 104382.000000 1 0 0
11.479775 17.252397 -1.292621 20.762979 0.983670 1.633093 0.041741 -0.008609 485725.000000 1 0 0
18.594075 10.506397 3.073679 21.577106 0.514317 1.427859 0.069651 -0.012323 317693.000000 1 0 0
11.453675 17.025197 6.068279 21.397851 0.978595 1.283258 0.042440 0.000280 -195568.000000 1 0 0
18.056075 7.571697 -6.369221 20.589303 0.397070 1.885302 0.031814 0.015710 348821.000000 1 0 0
0.478375 15.783697 10.831279 19.148643 1.540497 0.969585 0.009822 -0.002266 512513.000000 1 0 0
0.725375 20.156597 -2.239521 20.293596 1.534825 1.681378 0.019922 -0.013392 451702.000000 1 0 0
14.597775 9.770497 -1.342921 17.617068 0.589833 1.647099 0.040748 -0.005007 36865.600000 1 0 0
10.371075 17.114097 1.876679 20.099090 1.025980 1.477289 0.045916 -0.019792 288387.000000 1 0 0
0.238675 17.445197 -0.353121 17.450403 1.557116 1.591033 0.009413 -0.010812 75982.100000 1 0 0
0.050675 20.905097 1.103779 20.934278 1.568372 1.518046 0.021982 -0.008684 219805.000000 1 0 0
5.775475 17.165197 -0.401721 18.115228 1.246231 1.592974 0.010893 -0.022368 2165.590000 1 0 0
7.904475 18.708697 -2.562521 20.471018 1.171043 1.696304 0.021158 -0.007410 231270.000000 1 0 0
10.448475 9.476197 12.813179 19.056403 0.736639 0.833374 0.039330 -0.006778 73915.700000 1 0 0
12.836775 14.813897 8.137979 21.224067 0.856780 1.177287 0.052773 -0.017056 252268.000000 1 0 0
0.397875 17.504797 6.637979 18.725357 1.548071 1.208426 0.004645 -0.008404 3414.860000 1 0 0
7.585975 18.351297 -7.722921 21.306352 1.178813 1.941713 0.026732 0.007599 124263.000000 1 0 0
-0.987125 18.508897 9.396879 20.781122 -1.517514 1.101585 0.036025 -0.016142 -53008.300000 1 0 0
16.029275 7.094097 -8.048721 19.288488 0.416659 2.001248 0.049737 0.006620 -265201.000000 1 0 0
-5.375525 19.573397 -6.591621 21.341593 -1.302770 1.884793 0.009921 -0.018356 225253.000000 1 0 0
3.893475 15.916697 9.802879 19.094419 1.330892 1.031666 0.013514 -0.004213 159642.000000 1 0 0
9.261275 15.112697 7.743779 19.342465 1.021008 1.158896 0.032836 0.001466 30841.800000 1 0 0
-2.412325 19.551497 6.589479 20.772616 -1.448034 1.248000 0.018052 -0.004831 22140.800000 1 0 0
4.853775 17.922197 8.318179 20.345918 1.306316 1.149616 0.024554 -0.018221 221038.000000 1 0 0
15.870975 11.752897 -6.429621 20.769171 0.637411 1.885543 0.134887 -0.029624 -1146.050000 1 0 0
11.706575 6.806597 15.674779 20.714062 0.526656 0.712513 0.060127 -0.019406 220415.000000 1 0 0
17.358475 9.583597 4.869879 20.417583 0.504453 1.329961 0.071453 -0.015039 157762.000000 1 0 0
5.047075 14.664397 11.915779 19.557691 1.239323 0.915665 0.014412 -0.029249 525612.000000 1 0 0
15.845875 10.247697 -3.372421 19.169775 0.574059 1.747641 0.056999 -0.035667 77431.600000 1 0 0
15.257075 14.390797 6.726379 22.025384 0.756188 1.260446 0.065278 0.004891 297262.000000 1 0 0
12.496175 14.488997 -8.166521 20.803305 0.859113 1.974208 0.093889 -0.024881 354849.000000 1 0 0
-8.343225 15.552597 9.566079 20.074923 -1.078414 1.074106 0.039273 -0.023865 234953.000000 1 0 0
-3.851625 17.787497 -8.017621 19.887491 -1.357553 1.985752 -0.007226 0.040553 -7894.890000 1 0 0
2.358175 20.005097 -4.614821 20.665466 1.453459 1.796006 0.020974 -0.006336 55581.400000 1 0 0
7.068175 15.939497 9.206879 19.717842 1.153413 1.084979 0.029346 -0.024960 350299.000000 1 0 0
13.529875 15.560897 -1.391121 20.667227 0.855102 1.638158 0.068999 -0.017519 327414.000000 1 0 0
13.556875 16.010097 4.338179 21.422695 0.868180 1.366882 0.066546 -0.028983 362086.000000 1 0 0
2.440275 18.433497 0.629779 18.604983 1.439179 1.536940 0.011812 -0.015449 -22155.500000 1 0 0
-7.579025 16.390697 2.208679 18.192714 -1.137680 1.449092 0.025825 -0.016575 381313.000000 1 0 0
0.188875 20.028297 -5.826021 20.859312 1.561366 1.853862 0.034364 0.000409 224688.000000 1 0 0
-7.075625 18.032097 -6.425721 20.408598 -1.196867 1.891099 0.024606 -0.019377 27357.500000 1 0 0
-7.417525 18.536897 -1.206021 20.002268 -1.190161 1.631127 0.036143 -0.009811 181174.000000 1 0 0
-14.597725 -9.483503 8.849979 19.528250 0.576134 1.100457 0.063334 0.002440 423363.000000 1 0 0
-13.207125 -13.575503 8.127079 20.609994 0.799152 1.165461 0.056507 -0.003716 15458.200000 1 0 0
-3.843825 -15.986103 12.499879 20.653752 1.334828 0.920765 0.032593 -0.017490 132454.000000 1 0 0
-2.302325 -14.749903 14.749779 20.986098 1.415955 0.791420 0.009894 -0.031827 53516.900000 1 0 0
-6.928825 -13.867103 13.655979 20.658919 1.107421 0.848618 0.016297 -0.011427 17221.500000 1 0 0
-10.012625 -10.947603 11.878779 19.005474 0.829976 0.895641 0.061829 -0.014770 -242650.000000 1 0 0
-7.439725 -10.600903 13.080379 18.407199 0.958863 0.780428 0.038051 -0.010682 357413.000000 1 0 0
-15.376525 -12.217303 6.701479 20.751141 0.671404 1.241957 0.064517 -0.016827 208401.000000 1 0 0
-4.367625 -12.306103 13.024279 18.443106 1.229749 0.786698 0.022876 -0.021756 412377.000000 1 0 0
3.658575 -12.320303 13.772979 18.837993 -1.282135 0.750823 0.005191 -0.005953 493799.000000 1 0 0
6.691175 -13.545903 14.490379 20.934049 -1.111990 0.806275 0.025879 -0.006369 398693.000000 1 0 0
7.427975 -8.356903 16.407179 19.854676 -0.844180 0.598177 0.047796 -0.017660 587483.000000 1 0 0
-5.349425 13.310597 13.424179 19.646804 -1.188660 0.818557 0.016548 -0.013082 517836.000000 1 0 0
-13.970625 -1.795203 17.034879 22.104032 0.127798 0.690907 0.063923 -0.013119 310937.000000 1 0 0
-10.609425 10.320097 12.296679 19.242469 -0.771575 0.877549 0.027199 0.002300 502574.000000 1 0 0
-6.946425 -8.284203 17.111579 20.240726 0.873008 0.563476 0.050996 -0.013025 76397.100000 1 0 0
-5.010725 2.022897 18.299779 19.080917 -0.383704 0.287126 0.036955 -0.007949 592529.000000 1 0 0
-14.529925 -4.245303 14.234979 20.779219 0.284264 0.816112 0.039822 -0.010066 -47118.600000 1 0 0
-14.695225 3.158197 13.086879 19.929632 -0.211693 0.854422 0.033164 0.007689 225085.000000 1 0 0
-14.410225 10.520597 9.319079 20.129153 -0.630629 1.089460 -0.016452 -0.006000 -268599.000000 1 0 0
-4.591225 11.508497 15.553179 19.885327 -1.191202 0.672698 0.026070 0.004330 205949.000000 1 0 0
-13.361125 12.804197 8.532279 20.378099 -0.764116 1.138785 0.025987 -0.020753 54807.900000 1 0 0
-4.198825 -6.466803 18.608279 20.142436 0.994921 0.392816 0.033440 -0.009220 397420.000000 1 0 0
0.338875 -2.961903 17.614079 17.864587 -1.456880 0.167663 0.013292 -0.028106 118687.000000 1 0 0
-4.395825 6.679597 21.261979 22.715899 -0.988750 0.359720 0.057990 -0.009745 315834.000000 1 0 0
2.078875 -10.759403 16.592779 19.884838 -1.379934 0.583674 0.003139 0.003657 316478.000000 1 0 0
-15.240625 -0.200103 13.637479 20.452323 0.013129 0.840898 0.046858 -0.009956 45281.400000 1 0 0
-14.287825 -6.002903 7.866779 17.379960 0.397748 1.101078 0.044012 -0.002478 168169.000000 1 0 0
10.109575 0.653197 16.794879 19.613723 0.064522 0.542768 0.038629 0.008814 607492.000000 1 0 0
-7.933025 12.026597 11.235479 18.270411 -0.987686 0.908468 0.028702 -0.028111 62485.000000 1 0 0
-1.832325 7.830997 19.819879 21.389472 -1.340948 0.385479 0.051611 -0.023303 551531.000000 1 0 0
1.150675 -14.067503 15.684979 21.100646 -1.489181 0.732745 -0.010368 0.008022 614465.000000 1 0 0
-3.098425 -11.615603 17.812379 21.489609 1.310119 0.593688 0.018915 -0.016297 445300.000000 1 0 0
-2.484725 8.793197 16.570579 18.922956 -1.295403 0.503940 0.026996 -0.009113 496374.000000 1 0 0
-3.493225 -9.434603 20.355579 22.706033 1.216191 0.459029 0.021388 -0.021808 188233.000000 1 0 0
-6.600125 -2.684403 19.120279 20.404723 0.386286 0.356707 0.046595 -0.017580 120882.000000 1 0 0
-11.005525 -8.047403 16.000979 21.021741 0.631370 0.705691 0.096295 -0.020569 224954.000000 1 0 0
-0.222625 6.354397 17.867679 18.965281 -1.535776 0.341881 0.021898 -0.008584 110870.000000 1 0 0
-5.988425 -11.283403 19.074279 22.956579 1.082869 0.590100 0.071689 -0.011692 485565.000000 1 0 0
0.596075 3.472997 19.021079 19.344727 1.400821 0.183180 0.032690 -0.005283 104217.000000 1 0 0
-17.939625 -1.062103 7.725679 19.561297 0.059135 1.164786 0.030206 -0.014384 15710.500000 1 0 0
-1.578825 -8.391703 17.449179 19.426457 1.384829 0.455100 0.010519 -0.011438 155591.000000 1 0 0
5.711975 3.302497 15.031879 16.416167 0.524214 0.413611 0.009467 -0.004586 391112.000000 1 0 0
-14.272725 -6.961903 10.348979 18.954686 0.453821 0.993232 0.069661 0.000060 94787.300000 1 0 0
3.869075 8.321097 16.403779 18.796126 1.135562 0.510048 0.021752 -0.016816 177588.000000 1 0 0
6.338475 4.524497 17.617179 19.261680 0.619938 0.416221 0.032965 -0.027671 299022.000000 1 0 0
5.867075 -9.705703 17.830779 21.131964 -1.027076 0.566504 0.043073 -0.004495 353308.000000 1 0 0
-4.443725 -0.397603 19.943279 20.436222 0.089238 0.220085 0.043321 -0.013847 703987.000000 1 0 0
-11.362025 1.917497 17.033279 20.564654 -0.167188 0.594766 0.050716 -0.005563 228105.000000 1 0 0
-16.683925 -3.973903 9.092879 19.411999 0.233831 1.083300 0.050399 -0.001048 322839.000000 1 0 0
-13.511225 -9.624103 12.377779 20.697487 0.618936 0.929752 0.086175 -0.025077 -25032.200000 1 0 0
-15.119825 6.113797 12.645479 20.637242 -0.384256 0.911260 0.048982 -0.021880 41619.600000 1 0 0
0.884575 9.223097 17.270179 19.598650 1.475180 0.492418 0.013572 -0.010713 309457.000000 1 0 0
-3.829625 -10.398903 15.073179 18.708392 1.217937 0.633956 0.022904 -0.011141 695192.000000 1 0 0
-18.728425 -3.352103 6.818779 20.211043 0.177109 1.226665 0.116203 -0.008365 -191203.000000 1 0 0
-0.595525 -0.498003 20.778379 20.792876 0.696452 0.037344 0.048369 -0.022145 515646.000000 1 0 0
-1.672425 2.574897 20.221279 20.453049 -0.994765 0.150687 0.043666 -0.020039 -211172.000000 1 0 0
-8.170225 2.080497 16.374379 18.417419 -0.249344 0.475486 0.015707 0.013684 639728.000000 1 0 0
2.840175 -2.153303 18.806379 19.141139 -0.648702 0.187298 0.024052 -0.013526 110948.000000 1 0 0
-12.295025 4.127197 14.740679 19.633874 -0.323861 0.721557 0.003502 0.002318 173211.000000 1 0 0
-13.143925 -5.781003 13.584879 19.766934 0.414359 0.813096 0.033494 -0.004855 -87931.900000 1 0 0
-17.239025 -0.729103 10.131879 20.009262 0.042269 1.039839 0.064181 -0.013687 327523.000000 1 0 0
-7.342825 7.930797 14.616779 18.178692 -0.823875 0.636702 0.010565 -0.003880 -59838.600000 1 0 0
-9.462825 0.547697 14.204979 17.077074 -0.057814 0.588425 0.010609 0.002906 351489.000000 1 0 0
7.526675 -0.853303 15.047279 16.846352 -0.112889 0.466369 0.022164 -0.009881 172721.000000 1 0 0
4.017075 6.565397 18.533479 20.068163 1.021705 0.393621 0.023879 -0.000899 75818.600000 1 0 0
2.014075 0.385097 19.823079 19.928855 0.188923 0.103076 0.030276 -0.016816 294125.000000 1 0 0
-7.071325 7.108397 17.628079 20.280092 -0.788013 0.517152 0.017449 -0.005253 389136.000000 1 0 0
7.667875 -3.605903 16.666779 18.697068 -0.439575 0.470346 0.031979 -0.005611 323878.000000 1 0 0
-16.268725 2.642197 9.529379 19.038426 -0.161004 1.046581 0.030820 -0.010748 233607.000000 1 0 0
4.324975 -5.299603 19.140279 20.325882 -0.886319 0.343237 0.051687 -0.021619 -46026.500000 1 0 0
-3.751225 -4.007303 20.647179 21.364367 0.818392 0.259842 0.034418 -0.012466 454797.000000 1 0 0
-9.870325 6.056197 14.534279 18.583490 -0.550342 0.672756 0.010872 0.002742 19813.300000 1 0 0
6.659175 2.225297 19.895379 21.097930 0.322503 0.339259 0.053623 -0.011987 -59518.800000 1 0 0
-7.507225 11.406697 14.568679 19.967914 -0.988719 0.753053 0.032796 -0.013016 169771.000000 1 0 0
-14.263325 5.011697 9.767779 17.999140 -0.337894 0.997171 0.002245 -0.006038 158130.000000 1 0 0
1.137275 -5.314903 20.456279 21.166033 -1.359997 0.259699 0.036299 -0.017169 271760.000000 1 0 0
-6.108925 -8.372803 13.756779 17.224162 0.940470 0.645680 0.026428 -0.003588 356887.000000 1 0 0
-13.123225 10.321597 6.533679 17.928842 -0.666463 1.197783 -0.001982 -0.009980 128307.000000 1 0 0
-19.544225 2.490497 7.705179 21.155356 -0.126746 1.198002 0.046214 -0.027010 15076.300000 1 0 0
-15.893725 9.092597 6.111879 19.303908 -0.519642 1.248639 0.013030 -0.016193 83621.000000 1 0 0
-12.150125 8.099997 13.740579 20.050910 -0.587998 0.815802 -0.010930 -0.010612 200255.000000 1 0 0
-16.467725 9.064997 10.901279 21.730118 -0.503204 1.045272 0.031506 -0.010214 434951.000000 1 0 0
2.405275 10.649097 14.722279 18.328506 1.348657 0.638073 0.018108 -0.035483 460481.000000 1 0 0
1.593175 14.536597 13.234679 19.723275 1.461634 0.835215 0.022099 -0.019587 621217.000000 1 0 0
8.974375 4.843997 16.740179 19.601972 0.494946 0.547161 0.029909 -0.006332 6878.480000 1 0 0
-0.555125 13.459497 12.939879 18.679044 -1.529576 0.805503 0.023864 -0.006693 127697.000000 1 0 0
4.346875 12.752297 14.845679 20.047708 1.242278 0.736956 0.041693 -0.003407 134397.000000 1 0 0
-3.642525 -4.550703 -13.451521 14.660160 0.895792 2.732686 -0.001295 -0.002758 126624.000000 1 0 0
5.726675 -12.350403 16.654179 21.510205 -1.136622 0.685274 -0.005607 0.018285 199283.000000 1 0 0
8.671275 -13.626803 7.405879 17.768731 -1.004084 1.140882 0.010578 -0.005914 -14776.800000 1 0 0
-0.294725 15.159597 0.505379 15.170882 -1.551357 1.537478 0.001236 -0.000524 -15904.800000 1 0 0
-14.238625 7.527697 8.541279 18.230692 -0.486329 1.083192 0.005764 -0.005202 132745.000000 1 0 0
-16.442525 -9.566103 4.589479 19.568604 0.526922 1.334058 0.057807 0.000060 320432.000000 1 0 0
8.572875 -10.443103 11.326679 17.630832 -0.883433 0.873124 -0.003904 -0.002396 152325.000000 1 0 0
-26.050025 6.120297 30.890372 40.869022 -0.230759 0.713863 0.073039 -0.033027 181526.000000 0 0 1
-24.934325 5.254397 30.687452 39.887955 -0.207691 0.692987 0.060633 -0.027448 515192.000000 0 0 1
-24.163525 5.038897 31.849342 40.294504 -0.205587 0.659312 0.051793 -0.018707 -532173.000000 0 0 1
-22.774825 4.454797 31.676912 39.267858 -0.193163 0.632270 0.056964 -0.022530 -808412.000000 0 0 1
-22.617425 3.050297 31.812942 39.152465 -0.134056 0.622300 0.031014 -0.026110 393596.000000 0 0 1
-21.324525 2.663897 31.355352 38.013022 -0.124278 0.600845 0.051862 -0.022216 250486.000000 0 0 1
-20.960325 1.391097 32.127046 38.385121 -0.066271 0.579081 0.044193 -0.027748 -146300.000000 0 0 1
-21.634125 0.198097 31.717512 38.393687 -0.009156 0.598622 0.045611 -0.018594 260701.000000 0 0 1
-21.673025 -0.718503 32.792600 39.314003 0.033140 0.584261 0.037422 -0.022922 -291974.000000 0 0 1
-22.300325 -2.025803 32.300897 39.303388 0.090593 0.606172 0.044395 -0.037946 -70781.300000 0 0 1
-21.432725 -3.012603 31.684442 38.371101 0.139646 0.599289 0.073429 -0.046117 468303.000000 0 0 1
-21.560625 -4.355803 32.210564 39.004539 0.199343 0.599149 0.081443 -0.047598 -262523.000000 0 0 1
-22.811825 -5.153603 31.672432 39.371080 0.222188 0.636032 0.058229 -0.030423 784279.000000 0 0 1
-24.061325 -4.769503 32.217017 40.492366 0.195686 0.650746 0.040367 -0.024243 390940.000000 0 0 1
-24.298525 -5.203303 33.573967 41.769654 0.210955 0.637160 0.029461 -0.023548 -641355.000000 0 0 1
-25.421785 -4.484003 -33.542551 42.325833 0.174588 2.485668 0.030656 -0.019429 -29416.800000 0 0 1
-25.405235 -4.806703 -32.147511 41.255216 0.186991 2.464241 0.035211 -0.020848 -312501.000000 0 0 1
-26.539105 -4.382103 -31.463861 41.394462 0.163642 2.434261 0.038236 -0.018029 -686129.000000 0 0 1
-26.634135 -4.756903 -29.974941 40.379479 0.176738 2.407339 0.030305 -0.016148 -695409.000000 0 0 1
-26.865205 -6.160503 -29.847401 40.627065 0.225414 2.395973 0.036595 -0.016089 538781.000000 0 0 1
-26.854255 -6.473603 -28.471691 39.669834 0.236551 2.371314 0.024579 -0.020554 -341631.000000 0 0 1
-26.993605 -7.974203 -28.187671 39.834500 0.287241 2.356920 0.036757 -0.014724 -448931.000000 0 0 1
-28.226275 -8.453003 -28.637851 41.088957 0.290973 2.341962 0.056962 -0.008028 -373231.000000 0 0 1
-28.444555 -9.811903 -28.268691 41.285410 0.332167 2.325007 0.063105 -0.015221 -313337.000000 0 0 1
-29.917035 -10.132203 -28.024281 42.226187 0.326552 2.296512 0.097726 -0.011891 -158780.000000 0 0 1
-30.022645 -10.882403 -26.826651 41.706775 0.347743 2.269493 0.113888 -0.016297 -843633.000000 0 0 1
-31.369745 -11.145103 -26.607731 42.617433 0.341373 2.245082 0.109385 -0.014412 -451050.000000 0 0 1
-31.480785 -12.019503 -25.365961 42.177485 0.364723 2.216061 0.117885 -0.018037 -6051.860000 0 0 1
-31.347675 -11.275503 -24.165221 41.155457 0.345283 2.198354 0.133547 -0.012937 158711.000000 0 0 1
-31.340445 -12.052803 -22.969421 40.682771 0.367140 2.170743 0.141972 -0.021405 -592250.000000 0 0 1
-31.148415 -11.122803 -21.720421 39.569144 0.342978 2.151872 0.160514 -0.026131 98110.000000 0 0 1
-30.652315 -11.626403 -20.489121 38.659303 0.362535 2.129387 0.153572 -0.027918 -863483.000000 0 0 1
-29.407215 -12.184103 -20.620121 37.926588 0.392793 2.145618 0.140903 -0.042830 -1723470.000000 0 0 1
-28.974755 -12.746503 -19.268521 37.057869 0.414438 2.117598 0.159037 -0.047808 -35500.900000 0 0 1
-28.307215 -11.826903 -18.419821 35.783570 0.395761 2.111520 0.161190 -0.041580 14099.200000 0 0 1
-27.704795 -12.470003 -17.336221 34.980011 0.422939 2.089326 0.177857 -0.024166 -10926.500000 0 0 1
-27.167005 -11.431903 -16.285721 33.674312 0.398309 2.075587 0.170008 -0.036270 1841130.000000 0 0 1
-25.923695 -10.661703 -16.567821 32.560752 0.390186 2.104619 0.128588 -0.042736 1899040.000000 0 0 1
-25.934895 -9.396603 -15.889721 31.833915 0.347604 2.093407 0.131947 -0.040034 -593969.000000 0 0 1
-24.596425 -8.682003 -16.003021 30.601601 0.339326 2.121101 0.106064 -0.041044 399771.000000 0 0 1
-23.508025 -9.376803 -15.338521 29.594288 0.379538 2.115650 0.093428 -0.041266 723078.000000 0 0 1
-22.374725 -8.539203 -15.244621 28.389167 0.364584 2.137658 0.094373 -0.063102 -37897.600000 0 0 1
-21.471825 -8.870703 -14.027721 27.138637 0.391776 2.114012 0.063676 -0.026265 121565.000000 0 0 1
-20.677925 -10.030303 -14.275821 27.055177 0.451635 2.126635 0.049485 -0.026119 134959.000000 0 0 1
-19.554125 -10.142403 -13.448021 25.808553 0.478482 2.118899 0.067861 -0.022503 -69552.200000 0 0 1
-18.470025 -11.127703 -13.934921 25.673909 0.542236 2.144523 0.071104 -0.012950 -84275.400000 0 0 1
-17.770225 -10.715203 -15.080221 25.651697 0.542612 2.199237 0.090726 -0.030701 228739.000000 0 0 1
-18.520525 -10.927803 -16.282521 26.973083 0.533062 2.218878 0.074312 -0.033584 61100.000000 0 0 1
-17.793725 -10.519803 -17.633021 27.169953 0.533930 2.277052 0.079973 -0.029112 229019.000000 0 0 1
-18.605925 -10.700903 -18.802121 28.534357 0.521935 2.290191 0.062804 -0.023157 680533.000000 0 0 1
-18.037525 -10.223903 -20.054021 28.845177 0.515660 2.339536 0.071675 -0.024852 68555.200000 0 0 1
-19.039525 -10.657903 -21.143521 30.383267 0.510319 2.340460 0.094760 -0.021653 526825.000000 0 0 1
-20.236825 -9.887503 -21.028421 30.813735 0.454478 2.321887 0.082956 -0.039187 647275.000000 0 0 1
-21.288625 -10.469003 -21.812621 32.227256 0.457038 2.314255 0.101191 -0.015518 330264.000000 0 0 1
-22.262225 -9.386603 -22.305721 32.882521 0.399020 2.316305 0.074423 -0.028531 -384331.000000 0 0 1
-21.714925 -8.504403 -23.237021 32.921452 0.373278 2.354394 0.072867 -0.038158 312878.000000 0 0 1
-22.676125 -8.148603 -24.205321 34.154120 0.344978 2.358462 0.059762 -0.031982 135434.000000 0 0 1
-21.981725 -7.428903 -25.426961 34.422597 0.325907 2.401892 0.056723 -0.038154 411757.000000 0 0 1
-21.145925 -8.372903 -26.120831 34.634570 0.377017 2.425207 0.066875 -0.043097 738629.000000 0 0 1
-20.347025 -7.640903 -27.071071 34.716390 0.359235 2.465107 0.068410 -0.053326 -511902.000000 0 0 1
-19.364125 -8.477503 -27.851571 34.964945 0.412657 2.492375 0.092585 -0.054936 -761664.000000 0 0 1
-19.793825 -9.448003 -28.784181 36.188249 0.445340 2.490466 0.096384 -0.047946 -968364.000000 0 0 1
-18.725925 -10.097503 -29.321631 36.226756 0.494534 2.513912 0.076715 -0.042858 -1072150.000000 0 0 1
-19.080825 -11.254103 -30.259801 37.501844 0.532895 2.509662 0.072323 -0.036021 -342361.000000 0 0 1
-19.425425 -10.887803 -31.578681 38.640710 0.510863 2.527399 0.071574 -0.026229 133990.000000 0 0 1
-19.490825 -12.001603 -32.411721 39.679345 0.551925 2.526710 0.064209 -0.027283 -66712.400000 0 0 1
-20.212325 -11.810503 -33.764521 41.086116 0.528812 2.535357 0.061216 -0.029507 -57807.600000 0 0 1
-19.688025 -10.805803 33.264708 40.136324 0.501961 0.593849 0.054433 -0.031153 -293011.000000 0 0 1
-20.149625 -10.916703 31.910635 39.287026 0.496512 0.622808 0.072454 -0.035340 131579.000000 0 0 1
-19.526025 -12.069903 31.036042 38.602903 0.553654 0.636835 0.069917 -0.027690 -1364790.000000 0 0 1
-18.157025 -11.973203 30.942682 37.821750 0.582973 0.612664 0.071703 -0.032341 -1064590.000000 0 0 1
-17.544625 -12.887003 30.037662 37.096494 0.633525 0.627127 0.072883 -0.031559 122693.000000 0 0 1
-17.528725 -14.371703 30.384822 37.908304 0.686754 0.640939 0.075123 -0.025930 -602030.000000 0 0 1
-18.795525 -15.016803 30.160102 38.579890 0.674104 0.673318 0.063939 -0.028631 535670.000000 0 0 1
-19.041425 -16.327103 30.710632 39.652151 0.708804 0.684870 0.070714 -0.033711 -132084.000000 0 0 1
-19.256625 -16.327203 32.250572 40.957229 0.703259 0.664183 0.045453 -0.034806 -715710.000000 0 0 1
-18.133225 -15.975203 32.974095 40.881682 0.722213 0.632463 0.057967 -0.029405 -568904.000000 0 0 1
-18.529825 -15.536203 -33.661721 41.446827 0.697746 2.518652 0.045268 -0.025005 -224961.000000 0 0 1
-17.310625 -15.239403 -32.795601 40.092999 0.721852 2.528701 0.045014 -0.020591 -522040.000000 0 0 1
-16.761725 -14.017703 -33.253911 39.790376 0.696482 2.560253 0.041291 -0.018461 -736195.000000 0 0 1
-15.603225 -13.695103 -32.540051 38.598852 0.720363 2.573691 0.043249 -0.016241 -693569.000000 0 0 1
-15.828025 -13.279403 -31.007321 37.260205 0.698062 2.553830 0.058285 -0.025973 -473945.000000 0 0 1
-16.021525 -14.389003 -30.115761 37.022854 0.731767 2.520833 0.050238 -0.023257 -143534.000000 0 0 1
-16.470025 -13.935703 -28.862221 36.034613 0.702240 2.499690 0.044508 -0.025066 -159904.000000 0 0 1
-16.468625 -15.205403 -28.012571 35.876511 0.745537 2.466750 0.049370 -0.013555 1255910.000000 0 0 1
-15.175825 -15.673503 -27.537801 35.132533 0.801529 2.471600 0.059356 -0.022298 1135850.000000 0 0 1
-14.410425 -16.385403 -28.531851 35.919470 0.849442 2.488697 0.052073 -0.020741 585303.000000 0 0 1
-13.087625 -16.986003 -27.912801 35.198504 0.914307 2.486532 0.071952 -0.019156 1271150.000000 0 0 1
-12.041625 -16.001603 -27.781321 34.246954 0.925680 2.517007 0.064030 -0.019607 -126351.000000 0 0 1
-10.870225 -16.520803 -27.237381 33.659674 0.988837 2.513584 0.084815 -0.029401 1017500.000000 0 0 1
-9.567325 -15.656503 -27.564741 33.113060 1.022272 2.554299 0.081463 -0.033182 1087770.000000 0 0 1
-9.581725 -14.390003 -26.949751 32.018287 0.983353 2.571218 0.074530 -0.027226 -112461.000000 0 0 1
-8.309325 -13.778003 -26.980651 31.413911 1.028111 2.603867 0.083066 -0.028828 136363.000000 0 0 1
-8.252025 -12.261803 -27.315731 31.057960 0.978431 2.645624 0.057289 -0.034270 -145464.000000 0 0 1
-8.922525 -11.967903 -28.523201 32.193402 0.930157 2.659432 0.078351 -0.033157 242564.000000 0 0 1
-8.571225 -10.706303 -29.104991 32.174389 0.895703 2.701240 0.056623 -0.030083 33999.100000 0 0 1
-7.411325 -10.676903 -30.140211 32.823106 0.964010 2.734465 0.054383 -0.023103 395653.000000 0 0 1
-6.122725 -11.004203 -29.579481 32.148498 1.063054 2.739104 0.046586 -0.024352 1819030.000000 0 0 1
-4.995425 -10.842703 -30.482961 32.737278 1.139065 2.768321 0.060626 -0.024761 938981.000000 0 0 1
-4.737925 -9.356703 -30.993461 32.719878 1.102068 2.815298 0.047156 -0.020020 -386070.000000 0 0 1
-3.528625 -8.992903 -31.676541 33.116865 1.196877 2.845582 0.062722 -0.032504 815156.000000 0 0 1
-3.728525 -7.651103 -32.115261 33.223956 1.117345 2.882527 0.057102 -0.031500 842216.000000 0 0 1
-2.391125 -7.029803 -32.674311 33.507405 1.242931 2.918135 0.063769 -0.034141 837693.000000 0 0 1
-1.835825 -7.546803 -33.878921 34.757816 1.332172 2.916233 0.073653 -0.042316 -206538.000000 0 0 1
-0.641625 -6.863603 33.682564 34.380749 1.477585 0.201874 0.090400 -0.035414 107812.000000 0 0 1
0.057475 -7.568303 32.489885 33.359784 -1.563202 0.228868 0.094249 -0.034561 -179507.000000 0 0 1
-0.574925 -7.406303 31.254352 32.125043 1.493325 0.233352 0.097560 -0.031671 -197307.000000 0 0 1
0.207075 -8.024803 30.283622 31.329509 -1.544998 0.259117 0.087697 -0.037561 -126184.000000 0 0 1
-0.080025 -7.453803 28.878692 29.825232 1.560061 0.252608 0.082917 -0.027272 62558.900000 0 0 1
0.354575 -6.127503 28.722052 29.370535 -1.512995 0.210528 0.081566 -0.032450 -59186.800000 0 0 1
0.370175 -5.656603 27.424222 28.003967 -1.505448 0.203834 0.079741 -0.025831 119642.000000 0 0 1
-0.740725 -4.622003 27.020152 27.422622 1.411887 0.171538 0.071765 -0.010331 542447.000000 0 0 1
-2.011325 -5.215503 27.174302 27.743280 1.202727 0.202875 0.049132 -0.001533 -683288.000000 0 0 1
-3.050725 -4.331603 26.852592 27.370265 0.957194 0.194801 0.036755 0.000838 985106.000000 0 0 1
-4.494925 -4.875203 27.210142 28.006496 0.825960 0.239041 0.031335 0.001521 1076020.000000 0 0 1
-4.893725 -6.021303 26.467972 27.581845 0.888338 0.285163 0.030811 0.003782 -908230.000000 0 0 1
-6.243125 -6.235103 26.726802 28.145605 0.784755 0.318869 0.031555 0.000256 -329314.000000 0 0 1
-6.679725 -7.689303 26.675562 28.553979 0.855544 0.364744 0.039330 -0.005585 52774.400000 0 0 1
-6.031525 -8.484903 27.630082 29.526163 0.952823 0.360323 0.038378 -0.009194 -246121.000000 0 0 1
-6.529125 -9.780403 27.668372 30.063676 0.982167 0.401884 0.051838 -0.015604 366350.000000 0 0 1
-5.780125 -10.560103 28.811922 31.225831 1.069986 0.395783 0.041474 -0.014898 369612.000000 0 0 1
-6.166425 -11.913803 28.845802 31.812636 1.093179 0.435308 0.067897 -0.023262 -130840.000000 0 0 1
-5.387925 -12.585903 29.794032 32.789008 1.166310 0.430735 0.076843 -0.025912 -108548.000000 0 0 1
-5.435725 -14.111903 29.691712 33.321025 1.203124 0.471076 0.083499 -0.032185 361221.000000 0 0 1
-6.721025 -14.731903 29.688872 33.817603 1.142780 0.499313 0.078328 -0.032406 5027.470000 0 0 1
-6.646825 -16.123403 29.890012 34.605740 1.179777 0.528172 0.074019 -0.028547 110041.000000 0 0 1
-6.674425 -16.584903 31.365052 36.102264 1.188188 0.518056 0.099935 -0.032103 316175.000000 0 0 1
-7.921225 -16.245603 31.960684 36.717173 1.117124 0.514668 0.090108 -0.031803 -164087.000000 0 0 1
-8.048725 -16.703703 33.224265 38.047963 1.121772 0.509024 0.091841 -0.031057 -563848.000000 0 0 1
-9.452025 -16.931503 33.821879 38.986358 1.061641 0.520579 0.096000 -0.026453 217527.000000 0 0 1
-10.142125 -18.095303 33.298034 39.230878 1.059940 0.557140 0.091006 -0.024770 472775.000000 0 0 1
-10.647325 -17.999503 31.949023 38.184915 1.036625 0.579581 0.080526 -0.033160 -350207.000000 0 0 1
-11.216525 -19.396203 31.434492 38.602467 1.046497 0.619252 0.079111 -0.027684 301356.000000 0 0 1
-12.506425 -19.713703 31.943191 39.565240 1.005464 0.631141 0.061291 -0.024485 451024.000000 0 0 1
-12.732425 -21.137603 31.846492 40.287864 1.028644 0.659215 0.059302 -0.015499 -73710.700000 0 0 1
-12.169525 -22.020403 33.002111 41.498613 1.065923 0.651363 0.066579 -0.017617 828730.000000 0 0 1
-10.720225 -22.090503 32.993533 41.127689 1.118989 0.639789 0.066904 -0.019738 1405400.000000 0 0 1
-10.115525 -22.777603 -33.763001 41.965263 1.152860 2.505708 0.064394 -0.026308 398592.000000 0 0 1
-10.581225 -24.241903 -33.634301 42.788998 1.159238 2.475190 0.087716 -0.017798 -374785.000000 0 0 1
-9.902025 -25.060013 33.336016 42.864255 1.194493 0.679780 0.085867 -0.020414 -30493.500000 0 0 1
-10.142125 -26.432933 33.587145 43.927884 1.204426 0.700380 0.108367 -0.025909 -435037.000000 0 0 1
-9.410525 -27.207473 32.492103 43.411304 1.237796 0.725043 0.103430 -0.028084 1817150.000000 0 0 1
-7.970825 -27.023093 32.330784 42.884277 1.283967 0.716806 0.092617 -0.039206 1526140.000000 0 0 1
-7.152625 -27.826403 33.148026 43.866393 1.319199 0.714137 0.093155 -0.041465 410902.000000 0 0 1
-5.620825 -27.528063 33.030560 43.363647 1.369380 0.704847 0.096095 -0.043912 764387.000000 0 0 1
-5.241825 -26.328883 33.717993 43.099767 1.374276 0.672408 0.098530 -0.039972 31008.600000 0 0 1
-5.129625 -25.193273 32.936568 41.783149 1.369931 0.662798 0.112902 -0.044028 667.576000 0 0 1
-4.614525 -23.947503 33.731306 41.624245 1.380436 0.626002 0.115273 -0.041847 180923.000000 0 0 1
-3.299525 -24.105603 -33.648171 41.523082 1.434764 2.515543 0.105381 -0.044815 117210.000000 0 0 1
-2.883325 -22.846603 -33.129861 40.346853 1.445256 2.534178 0.104327 -0.040736 -96716.400000 0 0 1
34.315436 -15.986103 1.968879 37.907534 -0.435962 1.518834 0.192840 -0.040942 365070.000000 0 0 1
35.304246 -16.086603 3.009879 38.913082 -0.427548 1.493370 0.208386 -0.040975 598102.000000 0 0 1
34.807076 -16.583203 4.296279 38.794242 -0.444616 1.459823 0.173875 -0.051215 172957.000000 0 0 1
35.772786 -16.428403 5.538079 39.752421 -0.430514 1.431027 0.145244 -0.037052 589782.000000 0 0 1
36.891646 -17.291103 5.310779 41.087470 -0.438295 1.441178 0.154681 -0.039671 673687.000000 0 0 1
-36.615615 -17.259503 6.450879 40.990335 0.440482 1.412764 0.132528 -0.029804 822247.000000 0 0 1
-35.269465 -18.040503 6.338179 40.119415 0.472809 1.412149 0.114676 -0.029270 239041.000000 0 0 1
-35.315583 -19.429703 6.500379 40.828405 0.502977 1.410904 0.125288 -0.036717 535678.000000 0 0 1
-34.052105 -19.965003 6.903179 40.072448 0.530291 1.397665 0.105463 -0.032505 512929.000000 0 0 1
-34.193055 -21.507603 7.205279 41.032402 0.561474 1.394281 0.101048 -0.029976 -190770.000000 0 0 1
-34.314019 -22.271803 6.059279 41.354564 0.575713 1.423747 0.113116 -0.034039 308135.000000 0 0 1
-34.565712 -23.653803 6.309379 42.356807 0.600121 1.421282 0.122000 -0.034534 -175600.000000 0 0 1
-34.065158 -24.577403 5.182579 42.324258 0.624998 1.448039 0.105036 -0.026147 -248898.000000 0 0 1
-34.769779 -24.577403 3.982279 42.764995 0.615316 1.477541 0.103355 -0.020737 -372582.000000 0 0 1
-34.105064 -25.289893 2.985779 42.563470 0.638058 1.500590 0.092246 -0.011793 -88626.500000 0 0 1
-34.543496 -24.992503 1.524479 42.663830 0.626330 1.535056 0.077767 -0.009464 433517.000000 0 0 1
-35.832171 -25.538963 1.194679 44.018296 0.619224 1.543652 0.075325 -0.008988 688488.000000 0 0 1
-36.363885 -24.958603 0.021179 44.105152 0.601511 1.570316 0.071552 -0.003063 -472515.000000 0 0 1
37.068236 -23.813103 0.290379 44.059078 -0.571023 1.564206 0.100029 -0.010869 -1366320.000000 0 0 1
35.722446 -24.125903 0.404279 43.108187 -0.594004 1.561418 0.063715 0.007709 -830423.000000 0 0 1
34.948996 -22.994803 0.696079 41.841102 -0.581946 1.554159 0.094717 -0.013972 195501.000000 0 0 1
33.456406 -23.191803 0.344779 40.710069 -0.606144 1.562327 0.058747 -0.000626 177075.000000 0 0 1
33.125036 -23.203803 -1.052121 40.457279 -0.611056 1.596805 0.062248 -0.006209 -614655.000000 0 0 1
31.765956 -23.452103 -1.221721 39.504047 -0.635957 1.601728 0.062092 0.000816 -489557.000000 0 0 1
31.417496 -23.150803 -2.684021 39.118061 -0.635049 1.639464 0.051735 0.005791 -125317.000000 0 0 1
31.595766 -21.758903 -3.037121 38.483326 -0.603078 1.649799 0.083303 -0.011612 193387.000000 0 0 1
31.444716 -21.501003 -4.467221 38.353870 -0.599751 1.687535 0.082365 -0.036287 78519.800000 0 0 1
31.369856 -19.965103 -4.762721 37.488088 -0.566785 1.698187 0.088185 -0.039392 125555.000000 0 0 1
30.141706 -19.417003 -4.342921 36.116525 -0.572280 1.691335 0.090146 -0.034039 161547.000000 0 0 1
30.266326 -17.982403 -4.348121 35.472855 -0.536099 1.693681 0.092742 -0.039005 109282.000000 0 0 1
29.461156 -17.329903 -3.186021 34.328355 -0.531719 1.663740 0.119097 -0.037359 19008.400000 0 0 1
30.042706 -17.321103 -1.878021 34.729120 -0.522998 1.624899 0.120934 -0.032575 302332.000000 0 0 1
30.480496 -18.560003 -1.200521 35.706800 -0.546948 1.604424 0.104112 -0.019743 266393.000000 0 0 1
29.397536 -19.683603 -1.054521 35.394510 -0.590007 1.600594 0.089302 -0.007665 245951.000000 0 0 1
28.505576 -19.321303 0.009079 34.436619 -0.595676 1.570533 0.084900 0.004327 215014.000000 0 0 1
27.561076 -20.398603 0.083979 34.288817 -0.637150 1.568347 0.068889 0.011169 -71296.400000 0 0 1
26.647476 -20.131303 1.318779 33.422994 -0.646991 1.531329 0.057389 0.007805 -444413.000000 0 0 1
25.878176 -21.253903 1.652179 33.528168 -0.687598 1.521499 0.050385 0.012755 -98895.500000 0 0 1
25.123776 -20.988203 2.835379 32.859522 -0.695952 1.484401 0.045317 0.010498 998052.000000 0 0 1
23.602376 -20.624203 2.652579 31.455780 -0.718161 1.486369 0.023806 0.001361 619879.000000 0 0 1
23.356476 -19.274303 2.162979 30.359549 -0.689933 1.499490 0.064567 -0.015050 235504.000000 0 0 1
23.457576 -18.279303 3.183879 29.908659 -0.661959 1.464141 0.095957 -0.024242 -398491.000000 0 0 1
23.203176 -16.862703 2.603679 28.801342 -0.628449 1.480271 0.096021 -0.009345 1022200.000000 0 0 1
21.826976 -16.619703 2.234379 27.524968 -0.650776 1.489530 0.087644 -0.009387 856766.000000 0 0 1
21.757276 -15.375403 1.527679 26.685499 -0.615194 1.513517 0.109096 -0.027902 98974.400000 0 0 1
20.311676 -14.953703 1.241279 25.253083 -0.634618 1.521623 0.074872 -0.016779 -363045.000000 0 0 1
19.405176 -14.777103 2.294079 24.498703 -0.650823 1.477018 0.057729 -0.012030 160373.000000 0 1 0
18.267276 -14.045103 1.892279 23.120100 -0.655467 1.488859 0.053736 -0.012548 -210334.000000 0 1 0
18.436076 -12.519503 2.258879 22.399317 -0.596545 1.469779 0.066523 -0.017168 -319646.000000 0 1 0
19.328676 -11.843103 1.372279 22.709909 -0.549721 1.510333 0.079039 -0.020950 625454.000000 0 1 0
19.741776 -10.580003 1.903179 22.478796 -0.491969 1.486029 0.089875 -0.022226 -825839.000000 0 1 0
20.734276 -9.842603 1.046579 22.975691 -0.443205 1.525229 0.097874 -0.028542 -870557.000000 0 1 0
20.322776 -9.508403 -0.250021 22.438526 -0.437614 1.581939 0.117629 -0.022926 -497537.000000 0 1 0
21.271276 -8.885003 -0.998821 23.073970 -0.395671 1.614098 0.128166 -0.023471 -1310820.000000 0 1 0
20.707876 -8.377903 -2.318721 22.458447 -0.384445 1.674226 0.132715 -0.020600 -148107.000000 0 1 0
21.638776 -7.811603 -3.247521 23.233686 -0.346441 1.711032 0.155809 -0.029438 169522.000000 0 1 0
22.639976 -8.668703 -3.731621 24.528349 -0.365673 1.723524 0.146743 -0.032194 -707866.000000 0 1 0
22.197676 -9.728503 -4.745721 24.696203 -0.413054 1.764163 0.130096 -0.034814 -407258.000000 0 1 0
21.747876 -9.193803 -5.960621 24.352107 -0.399959 1.818077 0.123452 -0.045380 -414642.000000 0 1 0
20.361376 -9.059503 -6.034121 23.088327 -0.418634 1.835216 0.112075 -0.028460 -920023.000000 0 1 0
19.838976 -8.935503 -7.485221 23.009927 -0.423188 1.902130 0.112600 -0.024351 -255888.000000 0 1 0
19.804676 -10.148103 -8.219021 23.722595 -0.473526 1.924595 0.110972 -0.025211 1364360.000000 0 1 0
21.093476 -10.621503 -8.695221 25.166603 -0.466479 1.923575 0.113348 -0.023432 889898.000000 0 0 1
20.990376 -12.045303 -9.230421 25.901465 -0.520969 1.935173 0.099811 -0.029296 582664.000000 0 0 1
19.966676 -12.182303 -10.253921 25.538590 -0.547836 1.983958 0.113083 -0.035059 807674.000000 0 0 1
19.879076 -13.501803 -10.774321 26.335572 -0.596627 1.992282 0.111578 -0.031268 -27864.100000 0 0 1
18.627276 -13.830203 -11.644621 25.958566 -0.638665 2.035978 0.113373 -0.031589 254562.000000 0 0 1
18.394176 -15.231203 -11.892821 26.679101 -0.691609 2.032834 0.106017 -0.037293 -840.903000 0 0 1
17.397776 -15.319103 -12.882121 26.519928 -0.721948 2.078020 0.116106 -0.040341 -401361.000000 0 0 1
17.300976 -16.732103 -13.519121 27.605320 -0.768684 2.082575 0.098186 -0.039659 -421769.000000 0 0 1
16.523176 -17.523103 -12.681421 27.219348 -0.814759 2.055445 0.087240 -0.032737 -34534.400000 0 0 1
16.766076 -18.859103 -12.924721 28.351640 -0.844082 2.044148 0.083176 -0.034392 29282.300000 0 0 1
15.802276 -19.824403 -12.149321 28.112717 -0.897819 2.017688 0.075590 -0.030005 866708.000000 0 0 1
14.426476 -19.593603 -12.452121 27.332907 -0.936131 2.043812 0.069851 -0.029828 -96435.600000 0 0 1
13.543576 -20.383603 -11.729521 27.138559 -0.984340 2.017737 0.054839 -0.022716 397295.000000 0 0 1
12.065076 -20.082103 -12.127621 26.380601 -1.029798 2.048473 0.059386 -0.026133 479379.000000 0 0 1
11.134576 -20.736003 -11.317721 26.116114 -1.078013 2.019016 0.068795 -0.027689 471511.000000 0 0 1
9.760976 -20.482203 -11.700821 25.528543 -1.126077 2.046926 0.062977 -0.022680 1698930.000000 0 0 1
8.751976 -21.204503 -10.734821 25.327148 -1.179354 2.008484 0.055295 -0.018083 99700.800000 0 0 1
8.862976 -22.581403 -10.754521 26.535482 -1.196781 1.988091 0.086909 -0.022691 59031.100000 0 0 1
8.180976 -23.278003 -9.676321 26.503301 -1.232833 1.944535 0.090027 -0.032337 269512.000000 0 0 1
8.537076 -24.745303 -9.781021 27.944231 -1.238585 1.928388 0.106017 -0.029990 1188340.000000 0 0 1
9.828976 -25.074163 -9.221521 28.466803 -1.197209 1.900687 0.079888 -0.026967 450200.000000 0 0 1
10.173576 -26.404373 -9.360021 29.804405 -1.203027 1.890250 0.092707 -0.024550 -514391.000000 0 0 1
11.651676 -26.669953 -9.127321 30.501737 -1.158903 1.874692 0.054884 -0.015267 -602989.000000 0 0 1
11.870176 -26.643963 -7.727621 30.174790 -1.151682 1.829777 0.059077 -0.027864 534945.000000 0 0 1
13.156176 -27.209503 -7.409821 31.118282 -1.120424 1.811224 0.035025 -0.014288 225061.000000 0 0 1
13.347076 -27.485323 -5.895321 31.118198 -1.118729 1.761398 0.049365 -0.026382 56747.900000 0 0 1
12.622776 -28.596933 -5.317821 31.708016 -1.155115 1.739305 0.063621 -0.022692 -235956.000000 0 0 1
11.247176 -28.749833 -5.432821 31.345931 -1.197892 1.744994 0.075749 -0.029694 -657602.000000 0 0 1
10.539076 -29.807633 -4.522121 31.937700 -1.230945 1.712866 0.089048 -0.036630 123472.000000 0 0 1
10.696376 -31.184983 -4.813121 33.317889 -1.240373 1.715764 0.076461 -0.021860 -162701.000000 0 0 1
9.807376 -31.632983 -5.810921 33.624352 -1.270157 1.744487 0.083266 -0.022789 -136987.000000 0 0 1
9.916976 -33.147233 -6.132321 35.138168 -1.280092 1.746215 0.079796 -0.014231 23624.600000 0 0 1
9.467176 -33.973803 -5.055821 35.628753 -1.299030 1.713180 0.082414 -0.011777 135688.000000 0 0 1
9.765876 32.712284 -5.364221 34.557788 1.280681 1.726651 0.072221 -0.011332 245282.000000 0 0 1
9.235876 31.790204 -4.213421 33.371715 1.288054 1.697391 0.060417 -0.013762 2583950.000000 0 0 1
7.792476 31.453734 -4.258821 32.683292 1.327942 1.701474 0.060866 -0.015855 1819880.000000 0 0 1
7.545676 30.390214 -3.350521 31.491718 1.327425 1.677392 0.047406 -0.011662 113052.000000 0 0 1
6.100376 29.892144 -3.560521 30.715341 1.369481 1.686977 0.054719 -0.020194 -1058.870000 0 0 1
5.970876 29.164284 -4.794421 30.152832 1.368854 1.730478 0.057049 -0.021216 85407.800000 0 0 1
5.496076 30.001364 -5.843121 31.055285 1.389611 1.760077 0.056602 -0.027131 -386176.000000 0 0 1
5.817176 29.375834 -7.216121 30.803434 1.375300 1.807257 0.059664 -0.036474 121097.000000 0 0 1
5.105776 28.172654 -7.640121 29.633407 1.391511 1.831563 0.065138 -0.035087 243221.000000 0 0 1
5.360576 26.962404 -6.905921 28.344289 1.374539 1.816918 0.057762 -0.033477 -686455.000000 0 0 1
4.606776 25.720704 -7.381621 27.152630 1.393568 1.846118 0.057249 -0.031133 1547080.000000 0 0 1
3.156476 25.831134 -7.211921 27.004122 1.449203 1.841145 0.063775 -0.029695 1124370.000000 0 0 1
2.433276 26.473844 -8.216421 27.826153 1.479141 1.870542 0.080659 -0.031500 -370901.000000 0 0 1
2.009776 25.564744 -9.384921 27.306997 1.492343 1.921631 0.078028 -0.030269 120896.000000 0 0 1
3.061376 25.180914 -10.291021 27.374359 1.449815 1.956204 0.063496 -0.030600 392687.000000 0 0 1
2.627476 24.400504 -11.401121 27.060557 1.463528 2.005695 0.073726 -0.024714 -500399.000000 0 0 1
2.290176 22.909204 -11.139021 25.576440 1.471160 2.021411 0.079540 -0.027945 -704952.000000 0 0 1
1.049576 22.717704 -10.563321 25.075474 1.524628 2.005632 0.094127 -0.022966 -985236.000000 0 0 1
1.016976 21.430104 -10.044221 23.689026 1.523376 2.008657 0.056084 -0.025203 496998.000000 0 1 0
-0.303324 20.994404 -9.303021 22.965261 -1.556349 1.987875 0.056257 -0.017828 420556.000000 0 1 0
-1.397524 20.617004 -10.076121 22.990044 -1.503115 2.024483 0.070298 -0.031071 -1377730.000000 0 1 0
-2.433024 20.264304 -9.260221 22.412347 -1.451304 1.996734 0.052061 -0.022378 -1303570.000000 0 1 0
-3.627524 19.734304 -9.997121 22.417495 -1.389008 2.033034 0.042413 -0.039169 -1084260.000000 0 1 0
-4.781924 19.506904 -9.273021 22.121822 -1.330397 2.003338 0.040497 -0.031362 163629.000000 0 1 0
-5.782924 18.906404 -10.128321 22.214347 -1.273962 2.044220 0.049550 -0.038220 112128.000000 0 1 0
-6.739324 17.908004 -9.426121 21.329952 -1.210860 2.028534 0.046866 -0.037270 54672.600000 0 1 0
-7.751924 18.491204 -8.641521 21.833296 -1.173830 1.977730 0.059062 -0.026032 -319555.000000 0 1 0
-8.998824 18.695204 -9.238021 22.711902 -1.122185 1.989688 0.069900 -0.031372 -1028690.000000 0 1 0
-9.994524 19.197704 -8.256921 23.165040 -1.090797 1.935250 0.073309 -0.029154 -783811.000000 0 1 0
-10.237024 18.171804 -7.382521 22.124934 -1.057764 1.910995 0.066295 -0.023844 -899758.000000 0 1 0
-11.293424 18.375804 -6.518521 22.532259 -1.019724 1.864289 0.094274 -0.025377 -669907.000000 0 1 0
-11.613324 17.134304 -5.655421 21.457806 -0.975138 1.837507 0.057109 -0.029371 -132983.000000 0 1 0
-12.603324 17.404904 -4.686821 21.994107 -0.944062 1.785537 0.080175 -0.026985 -21858.600000 0 1 0
-13.054124 16.272104 -4.033621 21.247626 -0.894691 1.761794 0.063390 -0.025996 -4555.500000 0 1 0
-14.209324 16.655704 -3.068521 22.107310 -0.864493 1.710047 0.055905 -0.024157 91334.200000 0 1 0
-15.471924 16.715604 -3.692821 23.074418 -0.824018 1.731527 0.110188 -0.036143 815358.000000 0 1 0
-16.566024 16.962104 -2.780521 23.872105 -0.797211 1.687537 0.113917 -0.033289 171913.000000 0 1 0
-17.968224 16.898404 -3.352621 24.892834 -0.754725 1.705889 0.124803 -0.047558 -651609.000000 0 1 0
-18.111624 17.927604 -4.302621 25.844582 -0.780292 1.738056 0.125645 -0.047540 -318275.000000 0 0 1
-19.442224 18.278404 -4.544821 27.069457 -0.754554 1.739490 0.101206 -0.048534 -480510.000000 0 0 1
-19.534924 19.146504 -5.884121 27.979005 -0.775357 1.782683 0.103416 -0.029360 -100828.000000 0 0 1
-19.075824 20.465204 -5.946821 28.602033 -0.820521 1.780240 0.114080 -0.046571 2634.110000 0 0 1
-19.582124 21.148004 -7.059421 29.673777 -0.823824 1.811001 0.108706 -0.029935 -274870.000000 0 0 1
-19.737024 22.678404 -6.892921 30.844326 -0.854634 1.796174 0.112979 -0.033661 -318361.000000 0 0 1
-18.529924 23.355024 -6.705721 30.557845 -0.900091 1.792040 0.136082 -0.034872 -177758.000000 0 0 1
-17.971024 23.363134 -5.379621 29.962210 -0.915117 1.751322 0.129563 -0.038909 127444.000000 0 0 1
-16.575424 24.038334 -5.425821 29.698917 -0.967124 1.754522 0.121379 -0.037854 31764.500000 0 0 1
-15.984324 24.471644 -4.154821 29.523253 -0.992191 1.711996 0.103824 -0.045747 303511.000000 0 0 1
-14.728124 25.108574 -4.281821 29.422646 -1.040305 1.716843 0.117743 -0.051116 175643.000000 0 0 1
-14.605924 26.456054 -5.035421 30.636763 -1.066356 1.735904 0.122961 -0.029201 -368699.000000 0 0 1
-15.252724 27.491344 -4.344521 31.737902 -1.064261 1.708115 0.138272 -0.030587 174590.000000 0 0 1
-14.872724 28.679924 -5.053121 32.699694 -1.092398 1.725949 0.110777 -0.026605 -23362.200000 0 0 1
-15.545024 29.943024 -4.512021 34.038078 -1.091944 1.703746 0.104662 -0.013676 -758097.000000 0 0 1
-16.832124 30.052854 -4.992121 34.805397 -1.060244 1.714722 0.137390 -0.024059 -526023.000000 0 0 1
-17.613824 31.103994 -4.379121 36.012247 -1.055534 1.692699 0.131686 -0.017803 508323.000000 0 0 1
13.164175 -8.422803 18.838062 24.476759 -0.569191 0.692534 0.098664 -0.035395 -119330.000000 0 1 0
13.751075 -9.586903 19.362262 25.610505 -0.608827 0.713573 0.097935 -0.033933 -52253.400000 0 0 1
13.811375 -10.683703 18.497862 25.437502 -0.658400 0.756579 0.095738 -0.034152 -5922.620000 0 0 1
14.446175 -11.910203 19.198462 26.816522 -0.689475 0.772857 0.120974 -0.044480 -1624480.000000 0 0 1
15.800175 -11.839603 19.406862 27.684798 -0.643075 0.794007 0.111969 -0.045665 -944018.000000 0 0 1
16.305975 -12.985003 20.072662 28.937984 -0.672502 0.804260 0.109722 -0.044641 -156719.000000 0 0 1
16.712275 -14.123403 19.109062 29.050420 -0.701638 0.852916 0.102990 -0.047422 -624672.000000 0 0 1
15.666975 -14.518603 18.238962 28.087429 -0.747373 0.864049 0.114828 -0.048085 388591.000000 0 0 1
16.070475 -15.665903 17.491162 28.453848 -0.772651 0.908765 0.116036 -0.043095 464136.000000 0 0 1
15.154375 -15.905103 16.213862 27.304152 -0.809564 0.934993 0.107197 -0.037996 81430.600000 0 0 1
13.863175 -16.392103 16.432362 27.035369 -0.868791 0.917497 0.130299 -0.037762 -455339.000000 0 0 1
13.141975 -16.401903 15.226662 25.953519 -0.895296 0.943831 0.140465 -0.041309 -164350.000000 0 0 1
12.778675 -17.861203 14.767562 26.465034 -0.949781 0.978819 0.110828 -0.017493 -440179.000000 0 0 1
13.851675 -18.492003 14.143162 27.089705 -0.927895 1.021501 0.102349 -0.020861 -250248.000000 0 0 1
13.450775 -19.653803 13.428062 27.340596 -0.970627 1.057398 0.093705 -0.020534 -673287.000000 0 0 1
14.541575 -20.498203 12.814662 28.210801 -0.953785 1.099270 0.088051 -0.014150 -478501.000000 0 0 1
15.326275 -21.233303 13.757562 29.580710 -0.945586 1.087065 0.079647 -0.004559 234358.000000 0 0 1
15.747975 -22.509503 13.301762 30.522341 -0.960329 1.119865 0.047004 -0.015350 -140442.000000 0 0 1
16.518875 -23.238303 14.437962 31.958515 -0.952828 1.102046 0.044416 -0.010567 -43176.400000 0 0 1
17.796375 -22.652603 14.569762 32.282028 -0.904884 1.102544 0.027474 -0.006454 -547374.000000 0 0 1
18.519875 -23.341703 15.555162 33.612259 -0.900078 1.089665 0.032075 -0.015208 297025.000000 0 0 1
19.898075 -22.631403 15.790462 34.021353 -0.849579 1.088140 0.025532 -0.014317 245328.000000 0 0 1
20.848675 -23.036103 14.864362 34.442395 -0.835202 1.124562 0.025575 -0.011813 -708147.000000 0 0 1
22.085675 -22.386803 15.051562 34.863957 -0.792169 1.124395 0.033087 -0.009026 717397.000000 0 0 1
23.352675 -23.209003 14.640362 36.032561 -0.782313 1.152385 0.032231 -0.012166 448125.000000 0 0 1
23.685675 -24.322503 15.492062 37.317547 -0.798662 1.142698 0.030698 -0.006394 380888.000000 0 0 1
24.740375 -25.074493 14.894962 38.244951 -0.792105 1.170749 0.038912 -0.008316 62984.700000 0 0 1
25.123975 -26.226893 15.818862 39.614397 -0.806873 1.160020 0.036150 -0.011675 -66189.100000 0 0 1
25.825775 -25.847243 17.025362 40.310217 -0.785814 1.134751 0.049892 -0.009057 695157.000000 0 0 1
26.392475 -26.890243 17.849962 41.692554 -0.794740 1.128370 0.078271 -0.011652 396744.000000 0 0 1
26.749175 -26.416793 19.294262 42.256761 -0.779146 1.096631 0.081904 -0.008535 421980.000000 0 0 1
25.592375 -26.220363 20.099462 41.790734 -0.797518 1.069053 0.086930 -0.007703 382572.000000 0 0 1
25.985875 -25.820193 21.340362 42.395272 -0.782200 1.043306 0.087070 -0.000313 45516.600000 0 0 1
24.800075 -25.896563 22.310062 42.230493 -0.807023 1.014208 0.073954 -0.000436 56601.700000 0 0 1
24.190675 -27.156873 22.492862 42.762289 -0.843101 1.016909 0.074735 -0.000231 -656402.000000 0 0 1
23.002775 -27.087393 23.200292 42.439464 -0.866763 0.992417 0.079446 -0.006901 -352819.000000 0 0 1
22.265475 -28.481223 23.099832 42.901442 -0.907277 1.002212 0.092865 -0.018762 360235.000000 0 0 1
23.099175 -29.458063 23.764632 44.340806 -0.905803 1.005159 0.102356 -0.032973 918240.000000 0 0 1
22.922875 -30.701533 23.159852 44.770761 -0.929452 1.027105 0.108927 -0.033771 -177578.000000 0 0 1
24.019575 -31.622283 23.715592 46.252979 -0.921194 1.032427 0.090262 -0.032042 -17552.500000 0 0 1
23.728875 -31.966323 25.059122 47.041098 -0.932236 1.009000 0.093163 -0.033824 -10823.100000 0 0 1
24.919575 -32.251953 25.749502 48.210067 -0.912954 1.007341 0.090741 -0.036853 -572026.000000 0 0 1
24.754975 -32.641783 27.293642 49.226392 -0.921952 0.983093 0.087830 -0.036400 171232.000000 0 0 1
24.101875 -33.844313 27.653252 49.910322 -0.951969 0.983564 0.102072 -0.025458 172628.000000 0 0 1
22.772275 34.024967 27.207782 49.158298 0.980986 0.984268 0.098413 -0.022401 -123009.000000 0 0 1
22.066775 32.732733 27.738612 48.247331 0.977631 0.958283 0.115762 -0.031072 -35964.500000 0 0 1
21.639875 32.895380 29.058272 48.936422 0.988930 0.935027 0.081915 -0.033026 -46791.600000 0 0 1
21.157775 31.728674 29.626432 48.291673 0.982678 0.910325 0.086005 -0.029810 -28140.800000 0 0 1
20.849475 32.105137 31.103662 49.324215 0.994834 0.888475 0.081875 -0.036186 -58109.900000 0 0 1
22.065875 32.286603 31.799682 50.403843 0.971273 0.888086 0.075362 -0.030229 180021.000000 0 0 1
21.878675 32.597873 33.187421 51.407224 0.979683 0.869015 0.066027 -0.030319 -48685.000000 0 0 1
23.197175 32.675247 -33.891891 52.482768 0.953436 2.272830 0.047436 -0.026932 -97824.000000 0 0 1
23.780375 31.453734 -33.676491 51.855083 0.923439 2.277637 0.029193 -0.014216 -618713.000000 0 0 1
25.021675 31.590214 -33.044361 52.114831 0.900909 2.257599 0.020655 -0.009455 -134173.000000 0 0 1
25.655075 30.239184 -32.580651 51.323386 0.867229 2.258560 0.028348 -0.009300 -142140.000000 0 0 1
26.136375 29.402494 -33.620471 51.748940 0.844138 2.277965 0.038186 -0.011481 318222.000000 0 0 1
25.064475 28.608844 33.741070 50.844407 0.851338 0.845157 0.053936 -0.020461 168452.000000 0 0 1
25.340075 27.965054 32.307021 49.678036 0.834603 0.862780 0.083548 -0.024541 -854272.000000 0 0 1
26.438975 27.152714 32.351866 49.829033 0.798715 0.864189 0.072541 -0.021406 -707215.000000 0 0 1
26.486575 26.318404 31.248122 48.689241 0.782213 0.873970 0.096474 -0.033881 -102412.000000 0 0 1
27.718875 25.368984 31.116172 48.786653 0.741163 0.879157 0.077182 -0.016621 91842.100000 0 0 1
27.959875 24.359414 32.097354 49.044631 0.716689 0.857339 0.090232 -0.012245 155156.000000 0 0 1
28.540675 24.874064 33.275036 50.403544 0.716861 0.849748 0.075765 -0.020699 -1012340.000000 0 0 1
28.556575 23.825244 -33.464241 50.029748 0.695319 2.303507 0.071381 -0.025079 -239393.000000 0 0 1
27.561675 23.930344 -32.448471 48.838617 0.714993 2.297490 0.073042 -0.017465 1827700.000000 0 0 1
26.184075 23.674624 -32.888051 48.246425 0.735109 2.320836 0.062812 -0.011401 1206540.000000 0 0 1
25.830475 22.227904 -33.084951 47.496391 0.710576 2.341414 0.050121 -0.004414 -982303.000000 0 0 1
25.752375 21.516304 -31.870961 46.280604 0.696020 2.330417 0.027525 -0.014011 253544.000000 0 0 1
25.318175 20.187504 -32.014371 45.535319 0.673124 2.350497 0.034037 -0.011850 -161785.000000 0 0 1
25.087975 19.481204 -30.676931 44.158780 0.660256 2.338794 0.045017 -0.013106 -710318.000000 0 0 1
23.900375 19.739004 -30.011521 43.145655 0.690327 2.340032 0.041553 -0.004105 -553919.000000 0 0 1
23.765575 18.965504 -28.819851 41.893635 0.673535 2.329428 0.045540 -0.003305 1243740.000000 0 0 1
22.460475 19.280504 -27.936231 40.701889 0.709362 2.327271 0.057043 -0.002859 1269680.000000 0 0 1
22.398975 18.534204 -26.716121 39.483945 0.691261 2.313976 0.059510 -0.004159 330105.000000 0 0 1
23.152575 19.092704 -25.614701 39.454860 0.689590 2.277349 0.053965 0.005926 341091.000000 0 0 1
23.146375 18.141704 -24.392721 38.208388 0.664773 2.263231 0.070777 0.008974 338899.000000 0 0 1
24.030875 17.027404 -24.560521 38.348854 0.616450 2.265880 0.077649 -0.011239 496304.000000 0 0 1
24.128675 16.316004 -23.325321 37.315888 0.594579 2.246027 0.079149 -0.011182 88126.600000 0 0 1
25.094575 15.079004 -23.458721 37.515672 0.541071 2.246318 0.100576 -0.014020 -115009.000000 0 0 1
26.461675 15.367604 -23.378921 38.509186 0.526144 2.223202 0.115494 -0.020080 244039.000000 0 0 1
27.413075 14.284004 -23.395521 38.766736 0.480358 2.218673 0.118071 -0.027527 700117.000000 0 0 1
27.522875 13.507804 -22.059021 37.769959 0.456248 2.194488 0.108998 -0.028115 -339606.000000 0 0 1
26.296375 12.870004 -21.755121 36.474945 0.455149 2.209855 0.100764 -0.018456 80999.400000 0 0 1
26.265375 12.423904 -20.428821 35.518446 0.441827 2.183597 0.091269 -0.028289 626598.000000 0 0 1
24.810875 11.957204 -20.103521 34.098472 0.449091 2.201326 0.090602 -0.018305 1207060.000000 0 0 1
23.782575 12.964704 -20.088521 33.723035 0.499100 2.208922 0.099424 -0.019686 -108202.000000 0 0 1
22.533075 12.380604 -20.365221 32.798796 0.502414 2.240704 0.074610 -0.021061 141265.000000 0 0 1
21.490475 13.544804 -20.380321 32.567771 0.562380 2.246930 0.067043 -0.017941 -233540.000000 0 0 1
21.804075 14.535004 -21.406721 33.836840 0.587969 2.255761 0.066196 -0.009200 721543.000000 0 0 1
20.932275 15.705904 -21.503221 33.870696 0.643706 2.258626 0.054706 -0.002823 235082.000000 0 0 1
19.602975 15.574304 -22.253921 33.497352 0.671370 2.297418 0.057058 0.007654 149943.000000 0 0 1
18.551875 14.950004 -21.510021 32.099154 0.678297 2.305156 0.053678 -0.004431 404714.000000 0 0 1
17.425375 14.804804 -22.371421 31.989160 0.704269 2.345275 0.061557 -0.015232 192823.000000 0 0 1
16.341575 13.897904 -21.746121 30.546564 0.704763 2.362997 0.067189 -0.022354 179873.000000 0 0 1
15.180275 13.875604 -22.564221 30.530594 0.740526 2.402484 0.069581 -0.024101 -171729.000000 0 0 1
14.167775 13.038004 -22.029521 29.257737 0.743895 2.423325 0.082241 -0.028996 -618533.000000 0 0 1
12.919875 13.198004 -22.863421 29.391266 0.796047 2.462111 0.074532 -0.035292 -897462.000000 0 0 1
12.521575 14.576804 -22.992221 29.965234 0.861096 2.445411 0.089351 -0.029454 -14346.900000 0 0 1
11.745175 14.783104 -24.161821 30.664032 0.899418 2.478274 0.075569 -0.023352 -415973.000000 0 0 1
11.256375 16.229204 -24.277821 31.297055 0.964387 2.458655 0.073002 -0.030853 -105909.000000 0 0 1
12.263175 17.261604 -24.187021 32.145924 0.953104 2.422515 0.055670 -0.010088 1229490.000000 0 0 1
13.414875 17.277704 -25.078201 33.277531 0.910595 2.424330 0.067446 -0.019635 916227.000000 0 0 1
13.147175 17.194404 -26.592701 34.288008 0.918004 2.458412 0.094253 -0.020694 393694.000000 0 0 1
14.386275 17.292704 -27.321581 35.390271 0.876888 2.452791 0.090989 -0.024629 1213580.000000 0 0 1
14.056375 17.020104 -28.670461 36.183711 0.880479 2.485461 0.097444 -0.030329 -244714.000000 0 0 1
15.139475 17.543504 -29.609761 37.599417 0.858822 2.477548 0.084966 -0.022662 203557.000000 0 0 1
16.252575 16.660004 -29.660891 37.702392 0.797777 2.476259 0.078589 -0.020280 -351341.000000 0 0 1
17.423675 17.185204 -30.177031 38.853171 0.778508 2.460197 0.068437 -0.017028 -251678.000000 0 0 1
18.648275 16.241604 -30.083271 38.942920 0.716528 2.453560 0.069053 -0.009784 -542744.000000 0 0 1
19.780975 16.710704 -30.713031 40.172439 0.701460 2.441108 0.059959 -0.007586 -1099170.000000 0 0 1
20.785475 15.741904 -30.718691 40.292449 0.648189 2.437800 0.068208 -0.006324 -632803.000000 0 0 1
22.078375 16.241004 -31.350711 41.642429 0.634226 2.423185 0.069575 -0.005178 -429316.000000 0 0 1
22.013075 16.457504 -32.727821 42.737983 0.641979 2.443047 0.065085 -0.002906 -76480.600000 0 0 1
23.128475 17.225004 -33.132641 43.924925 0.640135 2.425386 0.053461 -0.002570 69888.800000 0 0 1
23.225175 17.503304 33.209309 44.143319 0.645823 0.719240 0.030275 0.006052 38902.200000 0 0 1
24.319075 18.361904 32.945451 44.877385 0.646720 0.746424 0.031986 0.006883 102244.000000 0 0 1
24.271875 18.858704 31.592892 44.078175 0.660544 0.771670 0.059556 0.006118 -162222.000000 0 0 1
25.122175 20.141504 31.316442 44.916850 0.675802 0.799299 0.078749 -0.000533 -431323.000000 0 0 1
26.479375 19.839904 31.361902 45.588902 0.643027 0.812165 0.049099 -0.001759 -1160480.000000 0 0 1
27.201975 21.049504 31.308782 46.510955 0.658574 0.832338 0.060353 -0.014649 -379087.000000 0 0 1
28.691275 20.744204 31.112492 47.132774 0.626005 0.849840 0.064893 -0.015528 -312717.000000 0 0 1
29.211175 20.135104 32.288736 47.971634 0.603505 0.832431 0.057704 -0.017627 66861.600000 0 0 1
30.590475 19.815704 32.198182 48.632934 0.574809 0.847225 0.055579 -0.014357 286518.000000 0 0 1
31.219075 19.286404 33.505420 49.691138 0.553388 0.830816 0.048007 -0.017571 -80940.300000 0 0 1
31.189975 20.100904 -33.216261 49.801414 0.572476 2.300937 0.047915 -0.020969 57611.300000 0 0 1
30.086375 19.887404 -32.356721 48.452618 0.584076 2.302047 0.054921 -0.024971 -36957.700000 0 0 1
30.414975 20.204704 -30.880731 47.821756 0.586363 2.272797 0.072367 -0.022493 675315.000000 0 0 1
31.498375 19.386604 -30.381151 47.864416 0.551724 2.258460 0.072441 -0.029355 577298.000000 0 0 1
31.995375 19.960404 -29.155901 47.667476 0.557774 2.228943 0.077375 -0.035018 424714.000000 0 0 1
33.485575 19.620704 -28.865141 48.367883 0.530021 2.210282 0.081118 -0.023719 428775.000000 0 0 1
34.382775 20.295604 -29.718791 49.772415 0.533245 2.210669 0.050804 -0.020776 -445939.000000 0 0 1
35.651875 20.381904 -29.108741 50.336835 0.519345 2.187414 0.054038 -0.009335 494739.000000 0 0 1
36.706475 21.257504 -29.889081 51.890307 0.524926 2.184629 0.054465 -0.014933 585001.000000 0 0 1
-36.901426 20.562504 -30.861161 52.315801 -0.508376 2.201733 0.038643 -0.015793 261207.000000 0 0 1
-35.681326 21.250904 -31.070091 51.866256 -0.537159 2.213101 0.045400 -0.028169 1206.620000 0 0 1
-34.766626 20.693104 -32.143011 51.672972 -0.536883 2.242151 0.042865 -0.033324 -415624.000000 0 0 1
-34.204726 19.456004 -31.744761 50.559166 -0.517170 2.249614 0.064106 -0.025693 203670.000000 0 0 1
-33.334226 19.063704 -32.805381 50.505331 -0.519498 2.277779 0.062594 -0.021603 844141.000000 0 0 1
-32.376226 17.821804 -32.566701 49.258773 -0.503196 2.293127 0.051587 -0.013449 919038.000000 0 0 1
-33.217326 16.664704 -32.509801 49.376009 -0.464996 2.289504 0.046975 -0.011957 709647.000000 0 0 1
-32.444426 15.505204 -32.665221 48.580539 -0.445812 2.308234 0.036580 -0.009780 74815.700000 0 0 1
-33.425026 14.403404 -33.080681 49.183553 -0.406871 2.308508 0.038862 -0.008898 142072.000000 0 0 1
-32.924726 13.084604 -32.941571 48.377593 -0.378271 2.319823 0.049966 -0.017736 71692.500000 0 0 1
-34.034126 12.209604 -33.020401 48.966754 -0.344445 2.310871 0.062166 -0.022319 -31257.600000 0 0 1
-33.785026 10.725904 -33.151781 48.533634 -0.307411 2.322752 0.072309 -0.021510 -356425.000000 0 0 1
-33.345126 10.315504 33.488059 48.371037 -0.300018 0.806102 0.075165 -0.021080 -15628.200000 0 0 1
-33.362326 8.887204 33.466382 48.083531 -0.260339 0.800978 0.091921 -0.023363 -610633.000000 0 0 1
-32.555926 8.413504 32.281339 46.612876 -0.252899 0.805790 0.107358 -0.028114 -1126610.000000 0 0 1
-31.210826 8.412004 32.613021 45.918260 -0.263266 0.780956 0.094851 -0.027653 -1146100.000000 0 0 1
-30.516826 7.989904 31.444422 44.540621 -0.256072 0.787002 0.094922 -0.031196 -105661.000000 0 0 1
21.512975 -4.375403 -31.696631 38.556824 -0.200648 2.535844 0.079390 -0.043963 -474239.000000 0 0 1
22.764475 -4.378503 -32.313621 39.768866 -0.190019 2.519285 0.064382 -0.047932 -291947.000000 0 0 1
23.716775 -3.441803 -31.825541 39.839635 -0.144115 2.496163 0.057919 -0.039624 208019.000000 0 0 1
23.358775 -1.885903 -31.921591 39.600214 -0.080562 2.508322 0.067056 -0.037924 12040.000000 0 0 1
24.506375 -1.120503 -31.558601 39.972031 -0.045691 2.480818 0.065344 -0.030411 363275.000000 0 0 1
24.278675 0.243097 -31.868421 40.063817 0.010012 2.490532 0.061603 -0.036779 404345.000000 0 0 1
25.355875 1.269397 -31.376521 40.361093 0.050021 2.461310 0.054201 -0.024017 633668.000000 0 0 1
26.553575 1.429397 -32.145271 41.718748 0.053779 2.450458 0.053327 -0.026387 291902.000000 0 0 1
27.411175 2.161797 -31.239691 41.616874 0.078703 2.419841 0.061063 -0.022157 -351114.000000 0 0 1
28.887275 1.797997 -31.385781 42.693966 0.062162 2.396660 0.066418 -0.026796 -475586.000000 0 0 1
29.534075 2.292297 -32.538481 44.003056 0.077460 2.403064 0.082930 -0.025959 36775.100000 0 0 1
29.679475 1.390597 -33.587931 44.843663 0.046820 2.417349 0.059712 -0.017510 -101034.000000 0 0 1
30.131875 2.072197 32.966472 44.710314 0.068663 0.741680 0.064053 -0.025201 -577955.000000 0 0 1
29.162475 2.863797 32.401972 43.686830 0.097888 0.735214 0.064520 -0.018712 -424479.000000 0 0 1
29.135075 4.228497 32.750168 44.037556 0.144128 0.732227 0.075417 -0.019896 -381513.000000 0 0 1
28.484875 5.198097 31.817452 43.020444 0.180500 0.738337 0.088097 -0.021057 -364016.000000 0 0 1
28.750175 6.524797 32.091182 43.577397 0.223168 0.743036 0.100766 -0.030139 56848.400000 0 0 1
28.185375 7.429497 31.180292 42.682824 0.257732 0.751726 0.094836 -0.029387 -207775.000000 0 0 1
28.525675 8.865997 31.441042 43.368873 0.301342 0.759808 0.084041 -0.028302 186190.000000 0 0 1
29.893675 9.146597 31.202752 44.169037 0.296926 0.786341 0.077763 -0.022784 274142.000000 0 0 1
30.259775 10.520497 31.465472 44.904463 0.334600 0.794390 0.070594 -0.017734 476077.000000 0 0 1
31.619075 10.907597 30.815462 45.478943 0.332186 0.826334 0.074425 -0.013079 566349.000000 0 0 1
32.817775 10.392797 31.428882 46.613209 0.306690 0.830850 0.068822 -0.013400 1926590.000000 0 0 1
34.015775 10.842997 30.717852 47.098089 0.308581 0.860300 0.079397 -0.018742 1239290.000000 0 0 1
34.467675 12.295397 30.901172 47.896554 0.342651 0.869557 0.085560 -0.018352 -694710.000000 0 0 1
34.799075 12.794197 32.190836 49.101090 0.352319 0.855815 0.089019 -0.016519 18819.000000 0 0 1
35.301875 14.095697 32.235889 49.840381 0.379894 0.867438 0.088079 -0.013414 -384741.000000 0 0 1
34.329575 15.265197 32.079509 49.402843 0.418409 0.864073 0.083913 -0.019632 -1264230.000000 0 0 1
33.786475 15.416897 30.815322 48.257546 0.428084 0.878171 0.080154 -0.028230 -218214.000000 0 0 1
32.715075 16.312397 30.748062 47.768334 0.462543 0.871484 0.073591 -0.029745 9424.840000 0 0 1
31.368475 15.775597 31.288632 47.030088 0.465975 0.842915 0.079145 -0.022496 -824761.000000 0 0 1
30.759375 14.796897 30.468722 45.754020 0.448376 0.842064 0.081313 -0.018402 730556.000000 0 0 1
29.410775 14.566197 30.899162 45.076890 0.459854 0.815538 0.060958 -0.017237 279884.000000 0 0 1
28.432275 13.924297 29.927962 43.565620 0.455402 0.813495 0.056784 -0.013215 -350286.000000 0 0 1
28.731475 12.636697 29.417852 43.018529 0.414357 0.817782 0.072303 -0.017260 -99699.400000 0 0 1
27.913775 12.265197 28.325012 41.616346 0.414001 0.822185 0.068856 -0.019631 19181.800000 0 0 1
27.989375 10.704697 28.182902 41.137229 0.365291 0.816062 0.075238 -0.014776 -34927.600000 0 0 1
29.063875 10.122897 27.488052 41.264693 0.335158 0.841775 0.086713 -0.013054 -202724.000000 0 0 1
28.840475 8.743097 27.318062 40.675438 0.294348 0.834416 0.100763 -0.018130 345232.000000 0 0 1
29.995975 7.909297 26.675242 40.913128 0.257811 0.860581 0.095235 -0.018813 156576.000000 0 0 1
30.373175 8.229497 25.341152 40.403321 0.264594 0.892837 0.103270 -0.011427 430890.000000 0 0 1
31.417675 7.336197 24.950232 40.784852 0.229395 0.912522 0.112768 -0.002168 346354.000000 0 0 1
32.040575 7.570197 23.548052 40.477365 0.232014 0.949907 0.106884 -0.008560 290000.000000 0 0 1
32.676175 8.885297 23.403162 41.162956 0.265500 0.966055 0.087601 -0.013429 810654.000000 0 0 1
31.807075 9.961297 22.947782 40.466260 0.303503 0.967835 0.104953 -0.009581 157635.000000 0 0 1
31.305575 9.828697 21.474762 39.214892 0.304214 0.991282 0.109139 0.002524 674060.000000 0 0 1
32.295875 10.036697 20.413262 39.502660 0.301311 1.027738 0.106804 -0.016565 764143.000000 0 0 1
31.927175 9.460997 19.166262 38.421356 0.288087 1.048532 0.123336 -0.028849 -808298.000000 0 0 1
32.764475 10.103697 18.046762 38.746369 0.299121 1.086296 0.148629 -0.059104 900536.000000 0 0 1
34.118675 9.670297 17.862762 39.707391 0.276188 1.104188 0.136766 -0.047617 1320690.000000 0 0 1
35.059075 10.024197 18.916962 41.078884 0.278493 1.092234 0.125758 -0.035430 916771.000000 0 0 1
36.555775 9.684397 18.539462 42.116789 0.258972 1.114984 0.124027 -0.033040 667408.000000 0 0 1
36.782975 8.304797 18.488762 41.997515 0.222055 1.114936 0.096578 -0.026329 166205.000000 0 0 1
-36.684826 7.983297 17.476062 41.411620 -0.214278 1.135137 0.113323 -0.027239 -242957.000000 0 0 1
-36.766526 6.435897 17.168862 41.084888 -0.173292 1.139677 0.112710 -0.028980 -226517.000000 0 0 1
36.363875 6.035597 16.681362 40.460199 0.164478 1.145829 0.094049 -0.029491 26015.100000 0 0 1
36.496075 4.745997 16.045762 40.149153 0.129316 1.159657 0.118193 -0.030990 -643301.000000 0 0 1
35.303275 3.806997 16.104362 38.989293 0.107422 1.145000 0.109276 -0.030052 -670775.000000 0 0 1
35.058675 3.207197 17.324462 39.236893 0.091227 1.113488 0.111525 -0.027285 1414050.000000 0 0 1
33.811475 2.425597 17.332562 38.072524 0.071616 1.098142 0.097272 -0.029732 1508390.000000 0 0 1
33.616175 1.448197 18.526162 38.410457 0.043054 1.067494 0.100089 -0.037797 -131170.000000 0 0 1
34.405075 0.311097 18.407962 39.021264 0.009042 1.079531 0.116517 -0.034372 -209455.000000 0 0 1
34.133675 -0.516403 19.534162 39.331386 -0.015128 1.051055 0.116055 -0.033740 -33698.800000 0 0 1
34.990675 -1.789503 19.673562 40.182070 -0.051098 1.059153 0.122500 -0.029309 146933.000000 0 0 1
34.661775 -2.502803 20.881562 40.543092 -0.072081 1.029735 0.121575 -0.028850 253585.000000 0 0 1
35.494075 -3.631903 20.873062 41.336483 -0.101969 1.041467 0.105492 -0.028046 1791.640000 0 0 1
35.049275 -4.609203 22.050162 41.664206 -0.130756 1.013097 0.094738 -0.032090 237747.000000 0 0 1
35.277675 -3.950503 23.307152 42.465800 -0.111518 0.989814 0.092165 -0.036449 259365.000000 0 0 1
34.424775 -4.495703 24.268382 42.358362 -0.129860 0.960720 0.085492 -0.035831 28745.300000 0 0 1
34.675875 -3.803003 25.639852 43.292969 -0.109236 0.936960 0.060727 -0.031800 -50921.700000 0 0 1
33.778675 -4.180703 26.624712 43.212874 -0.123141 0.906978 0.069250 -0.028635 -148373.000000 0 0 1
34.225075 -3.602503 27.833872 44.261250 -0.104873 0.890718 0.078307 -0.029406 74782.500000 0 0 1
33.398175 -4.072203 29.042952 44.446755 -0.121330 0.858686 0.072900 -0.029066 14015.800000 0 0 1
33.717875 -5.397603 29.509102 45.131102 -0.158735 0.858131 0.072662 -0.025667 337150.000000 0 0 1
32.603975 -5.986903 30.167652 44.821306 -0.181602 0.832451 0.069654 -0.033505 116049.000000 0 0 1
32.844275 -7.463603 30.471572 45.419913 -0.223448 0.835394 0.073831 -0.025800 493892.000000 0 0 1
33.999175 -7.656903 31.292042 46.837634 -0.221513 0.839149 0.079634 -0.021234 38092.400000 0 0 1
34.636775 -8.841103 30.996592 47.314480 -0.249915 0.856457 0.073721 -0.011793 237778.000000 0 0 1
35.886875 -9.161203 31.874376 48.864827 -0.249942 0.860185 0.078108 -0.005681 560604.000000 0 0 1
35.600675 -9.455603 33.231594 49.610033 -0.259608 0.836781 0.069013 -0.010716 906872.000000 0 0 1
36.830075 -9.380503 -33.893141 50.923406 -0.249394 2.299055 0.062763 -0.012472 946579.000000 0 0 1
36.579375 -9.687103 -32.378551 49.802221 -0.258881 2.278569 0.083790 -0.011191 97768.200000 0 0 1
35.925075 -8.696703 -31.564461 48.606161 -0.237510 2.277581 0.088128 -0.013321 401215.000000 0 0 1
36.639175 -7.458103 -31.453601 48.860838 -0.200812 2.270170 0.085456 -0.013100 127403.000000 0 0 1
35.887775 -6.311103 -30.717571 47.658489 -0.174077 2.271211 0.102658 -0.011205 -68417.200000 0 0 1
36.061675 -6.418403 -29.334501 46.927106 -0.176140 2.246066 0.100663 -0.002522 52482.000000 0 0 1
35.727275 -5.256703 -28.582581 46.054696 -0.146086 2.240333 0.111285 -0.011899 -132241.000000 0 0 1
36.464875 -5.110403 -27.228181 45.794947 -0.139239 2.207524 0.109227 -0.014410 407656.000000 0 0 1
-36.543026 -4.798103 -27.328091 45.882885 0.130553 2.208815 0.119704 -0.013594 46514.600000 0 0 1
-36.054326 -4.517203 -26.038611 44.702671 0.124639 2.192578 0.128339 -0.012347 -203813.000000 0 0 1
-34.598126 -4.085403 -25.859841 43.387236 0.117537 2.209337 0.120747 -0.000079 -1301540.000000 0 0 1
-34.299526 -3.810103 -24.508121 42.327560 0.110630 2.188311 0.133486 -0.014786 999746.000000 0 0 1
-32.898726 -3.893403 -24.202621 41.027450 0.117797 2.201747 0.137879 -0.010413 1465280.000000 0 0 1
-31.840426 -3.003303 -24.965421 40.572217 0.094045 2.233605 0.108169 -0.012274 -439618.000000 0 0 1
-31.553826 -3.503303 -26.227951 41.180365 0.110573 2.261272 0.108838 -0.012916 89700.100000 0 0 1
-30.506226 -2.766003 -26.850031 40.733337 0.090423 2.290506 0.095912 -0.006641 353270.000000 0 0 1
-29.985526 -3.450803 -28.114491 41.248811 0.114578 2.320720 0.078670 -0.004456 339381.000000 0 0 1
-30.981426 -3.427503 -29.139731 42.669901 0.110183 2.322536 0.121464 -0.009187 499227.000000 0 0 1
-30.533226 -4.281903 -30.224721 43.175761 0.139329 2.346249 0.103508 -0.004891 -1010700.000000 0 0 1
-31.632326 -4.478203 -31.264071 44.700117 0.140636 2.345379 0.098543 -0.011798 -380815.000000 0 0 1
-32.712526 -5.372803 -30.928241 45.337980 0.162790 2.321524 0.102748 -0.016766 1191000.000000 0 0 1
-33.624026 -4.775803 -29.958551 45.286844 0.141092 2.293652 0.123642 -0.017517 -26215.000000 0 0 1
-34.692426 -3.799503 -30.611711 46.422812 0.109085 2.290831 0.149730 -0.022885 -264377.000000 0 0 1
-34.273426 -2.540703 -31.134571 46.373316 0.073995 2.306879 0.162125 -0.013640 -160232.000000 0 0 1
-33.808326 -1.620703 -30.159511 45.334597 0.047901 2.298645 0.149448 -0.011567 -11713.200000 0 0 1
-33.653926 -0.188003 -30.719751 45.566711 0.005586 2.310638 0.143989 -0.009280 450043.000000 0 0 1
-34.888226 0.421597 -31.088811 46.732004 -0.012084 2.298635 0.165575 -0.007966 218113.000000 0 0 1
-34.713826 1.772897 -31.458671 46.881136 -0.051027 2.306394 0.165991 0.002022 -530284.000000 0 0 1
-35.977626 2.531297 -31.811221 48.091068 -0.070242 2.293585 0.148577 0.001920 -347573.000000 0 0 1
-36.664626 1.980097 -32.927491 49.319725 -0.053953 2.301822 0.131212 0.001051 -75484.800000 0 0 1
36.380575 2.384097 -33.034821 49.198878 0.065439 2.306967 0.103781 -0.002854 -117545.000000 0 0 1
35.700175 1.789397 33.579203 49.043525 0.050081 0.816629 0.091156 -0.004452 -98682.700000 0 0 1
36.155475 2.226697 32.320173 48.546577 0.061509 0.842290 0.075955 0.005070 384829.000000 0 0 1
-37.107826 1.501097 31.826282 48.909675 -0.040430 0.862270 0.084532 0.002015 202572.000000 0 0 1
-36.850126 1.655797 30.313692 47.745088 -0.044903 0.882908 0.082956 -0.003551 -400698.000000 0 0 1
-36.219926 2.814797 29.942132 47.077993 -0.077558 0.881478 0.072604 -0.000834 -117081.000000 0 0 1
-36.349826 3.005497 28.567952 46.330020 -0.082495 0.906356 0.069923 -0.002271 74299.400000 0 0 1
-35.850426 4.419497 28.135182 45.786171 -0.122657 0.909056 0.069668 -0.000807 146436.000000 0 0 1
-35.357726 4.481397 26.821572 44.605476 -0.126072 0.925661 0.063142 0.001603 338141.000000 0 0 1
-34.683626 5.731097 26.572862 44.067181 -0.163760 0.923530 0.067853 -0.004955 372724.000000 0 0 1
-33.706026 5.793297 25.363672 42.579037 -0.170214 0.932679 0.082540 -0.004217 -445196.000000 0 0 1
-32.565426 5.013297 25.477322 41.650139 -0.152746 0.912591 0.079853 -0.007066 -362778.000000 0 0 1
-31.577626 5.152797 24.476142 40.283735 -0.161753 0.917769 0.086252 -0.012095 63026.000000 0 0 1
-31.901626 4.808497 22.992052 39.616535 -0.149603 0.951619 0.092537 -0.012904 -324018.000000 0 0 1
-31.845626 3.396697 22.793862 39.309561 -0.106260 0.952245 0.100716 -0.017379 -49768.700000 0 0 1
-32.532926 3.107697 21.596362 39.172081 -0.095236 0.986850 0.114718 -0.020047 -328587.000000 0 0 1
-32.385426 1.661997 21.134462 38.707151 -0.051274 0.993203 0.126482 -0.013129 -10979.800000 0 0 1
-31.262826 1.273697 20.365862 37.333028 -0.040719 0.993789 0.143978 -0.011572 -16263.500000 0 0 1
-31.331526 1.599497 18.954262 36.653608 -0.051006 1.027315 0.145168 -0.015969 -88375.700000 0 0 1
-30.083226 1.237397 18.123262 35.142343 -0.041109 1.028960 0.119988 -0.021383 -80662.800000 0 0 1
-29.841826 -0.187203 18.078562 34.891318 0.006273 1.026122 0.138927 -0.015205 1234770.000000 0 0 1
-28.478226 -0.575503 17.774362 33.574820 0.020206 1.012908 0.136538 -0.012372 1191170.000000 0 0 1
-27.971126 -0.539303 16.330862 32.394009 0.019278 1.042420 0.142690 -0.008860 -276926.000000 0 0 1
-27.619826 0.796197 15.940062 31.899441 -0.028819 1.047547 0.139766 -0.015558 314845.000000 0 0 1
-27.846026 0.923497 14.569562 31.440836 -0.033152 1.088972 0.155384 -0.015707 -165433.000000 0 0 1
-27.272726 2.221997 13.953062 30.715254 -0.081294 1.099242 0.152389 -0.023805 141220.000000 0 0 1
-25.863026 2.158997 13.848562 29.416663 -0.083285 1.080630 0.128578 -0.036738 231113.000000 0 0 1
-25.392426 3.347997 13.145162 28.788534 -0.131094 1.096614 0.128813 -0.041326 -966373.000000 0 0 1
-23.903026 3.389897 12.922262 27.383041 -0.140879 1.079343 0.116305 -0.043197 -1247670.000000 0 0 1
-23.240926 3.610897 14.153662 27.450053 -0.154136 1.029071 0.101365 -0.025776 570975.000000 0 0 1
-21.873826 3.903297 13.838662 26.176489 -0.176587 1.013766 0.082313 -0.030224 186440.000000 0 0 1
-21.079926 4.447797 15.021662 26.263978 -0.207947 0.961916 0.067807 -0.032779 -478201.000000 0 0 1
-21.446826 5.761997 15.381362 27.013946 -0.262466 0.965038 0.064506 -0.024108 343538.000000 0 0 1
-20.564326 6.310797 16.324462 27.003810 -0.297757 0.921628 0.052489 -0.016890 -248879.000000 0 0 1
-20.940626 7.775497 16.722762 27.903745 -0.355533 0.928168 0.048898 -0.020123 -235947.000000 0 0 1
-20.647326 8.723597 15.714062 27.374166 -0.399755 0.959356 0.066855 -0.021698 732156.000000 0 0 1
-21.139626 10.021197 16.082662 28.389438 -0.442671 0.968542 0.065276 -0.011395 -182262.000000 0 0 1
-20.362926 10.798497 17.174962 28.744315 -0.487594 0.930406 0.062299 -0.010342 -248817.000000 0 0 1
-20.607826 10.380297 18.503262 29.577082 -0.466608 0.894903 0.070807 -0.023382 201794.000000 0 0 1
-19.790526 11.062897 19.397362 29.838068 -0.509726 0.863096 0.073825 -0.018332 -497264.000000 0 0 1
-12.945325 -33.626110 -20.409021 41.410443 1.203306 2.086155 0.154808 -0.055787 261422.000000 0 0 1
-13.911225 -33.915110 -19.388321 41.468830 1.181547 2.057302 0.166115 -0.047852 362205.000000 0 0 1
-14.995925 -32.989110 -19.472721 41.138133 1.144147 2.063886 0.139581 -0.065898 -171432.000000 0 0 1
-16.134525 -33.495610 -18.599021 41.571653 1.121903 2.034649 0.112001 -0.051872 -1146020.000000 0 0 1
-16.943425 33.535797 -19.101821 42.149839 -1.102970 2.041135 0.105564 -0.057644 -39841.900000 0 0 1
-17.610325 32.702497 -18.204021 41.363791 -1.076824 2.026501 0.085797 -0.047171 -935776.000000 0 0 1
-18.973225 33.124797 -17.719721 42.085912 -1.050632 2.005384 0.083746 -0.047190 -1257150.000000 0 0 1
-18.912425 -33.748510 -16.940721 42.233041 1.060009 1.983541 0.106836 -0.042066 913776.000000 0 0 1
-20.225525 -33.456410 -16.431321 42.407446 1.027050 1.968674 0.082727 -0.035676 744241.000000 0 0 1
-20.578625 -33.952910 -15.039021 42.455294 1.025909 1.932889 0.086310 -0.031152 -562286.000000 0 0 1
-20.381925 32.670997 -14.879821 41.282272 -1.013022 1.939537 0.077219 -0.039301 399711.000000 0 0 1
-20.782525 32.244497 -13.568421 40.690576 -0.998277 1.910761 0.087579 -0.030147 46848.400000 0 0 1
-21.057325 30.764497 -13.393421 39.613747 -0.970571 1.915694 0.080884 -0.033150 -62557.400000 0 0 1
-19.902625 29.991797 -13.190821 38.335625 -0.984918 1.922063 0.113560 -0.044989 -149224.000000 0 0 1
-20.127525 28.618797 -13.379921 37.458979 -0.957861 1.936053 0.134403 -0.048914 350807.000000 0 0 1
-18.972925 27.711197 -12.805821 35.942612 -0.970436 1.935086 0.115590 -0.045959 -555891.000000 0 0 1
-17.763825 27.938697 -13.419221 35.723938 -1.004458 1.955880 0.131494 -0.048267 -1090090.000000 0 0 1
-16.855925 26.968197 -12.938021 34.333631 -1.012176 1.957170 0.137986 -0.053207 -489923.000000 0 0 1
-15.456825 27.124197 -13.525521 34.023157 -1.052838 1.979629 0.101573 -0.052897 -430634.000000 0 0 1
-15.393825 27.173397 -14.920321 34.611838 -1.055371 2.016481 0.078458 -0.038100 -107441.000000 0 0 1
-14.066325 27.425597 -15.331621 34.425041 -1.096890 2.032375 0.117707 -0.045756 -851.423000 0 0 1
-13.976725 27.980197 -16.741721 35.475703 -1.107531 2.062264 0.132587 -0.053999 -235956.000000 0 0 1
-14.213625 27.021797 -17.739521 35.311404 -1.086561 2.097138 0.107650 -0.055357 177170.000000 0 0 1
-14.422925 27.549397 -18.968721 36.425299 -1.088503 2.118533 0.092270 -0.050079 -166412.000000 0 0 1
-13.997825 26.552697 -20.108121 36.129231 -1.085649 2.161037 0.071541 -0.027652 -124432.000000 0 0 1
-12.625925 26.710797 -20.392821 35.899134 -1.129234 2.174942 0.070860 -0.032624 -272544.000000 0 0 1
-12.240125 25.543197 -21.032521 35.279491 -1.123932 2.209517 0.050587 -0.028847 599440.000000 0 0 1
-10.826425 25.567897 -21.709721 35.245437 -1.170249 2.234398 0.089062 -0.040598 517092.000000 0 0 1
-10.789325 26.388497 -22.902521 36.568946 -1.182671 2.247573 0.079890 -0.032589 327148.000000 0 0 1
-9.537225 26.231097 -23.562021 36.526674 -1.222071 2.271903 0.082456 -0.046130 72773.100000 0 0 1
-9.552125 26.895397 -24.920921 37.890075 -1.229534 2.288579 0.078947 -0.035411 -592442.000000 0 0 1
-10.528525 26.343697 -25.756701 38.317723 -1.190583 2.307956 0.054841 -0.024080 -378751.000000 0 0 1
-10.753125 27.169097 -26.880651 39.703387 -1.193929 2.314525 0.070074 -0.013563 115877.000000 0 0 1
-11.896225 26.597497 -27.753721 40.239484 -1.150216 2.331890 0.042886 -0.001053 28596.700000 0 0 1
-12.074725 27.080097 -29.028001 41.494042 -1.151366 2.345592 0.053361 0.007075 -1288710.000000 0 0 1
-13.300825 26.637797 -29.439051 41.870537 -1.107692 2.350540 0.058816 0.013144 -1092980.000000 0 0 1
-13.696025 26.889497 -30.948811 43.225630 -1.099701 2.368827 0.059674 0.003486 227926.000000 0 0 1
-12.909825 26.417897 -32.062871 43.503983 -1.116248 2.399432 0.064806 0.007379 68736.900000 0 0 1
-12.976225 25.026097 -32.117151 42.734054 -1.092452 2.421218 0.066446 0.002337 61665.900000 0 0 1
-12.384925 24.406197 -33.390451 43.173731 -1.101206 2.454979 0.061089 -0.003021 47621.600000 0 0 1
-13.123225 24.573597 33.287258 43.406477 -1.080291 0.696842 0.070354 -0.004523 175218.000000 0 0 1
-12.537425 23.777497 32.235553 41.972459 -1.085563 0.695058 0.061217 -0.007017 -179087.000000 0 0 1
-13.306625 23.875697 30.900362 41.254667 -1.062343 0.724222 0.073365 -0.003016 -597892.000000 0 0 1
-14.498025 23.170697 30.932532 41.278269 -1.011690 0.723692 0.054778 -0.006970 -798649.000000 0 0 1
-15.034425 22.976697 29.685892 40.437789 -0.991381 0.746437 0.067454 -0.008158 399529.000000 0 0 1
-16.122125 21.865397 29.518192 40.116607 -0.935450 0.743935 0.052631 -0.009414 799242.000000 0 0 1
-15.525125 20.576897 29.694522 39.321786 -0.924426 0.714887 0.039292 -0.009247 201944.000000 0 0 1
-16.551025 19.632797 29.899692 39.412876 -0.870363 0.709592 0.030268 -0.006639 -59479.400000 0 0 1
-15.969325 18.279697 30.233942 38.771870 -0.852754 0.676465 0.018566 -0.017201 -413958.000000 0 0 1
-15.579825 17.655597 29.055512 37.398848 -0.847774 0.681054 0.034580 -0.023904 -629368.000000 0 0 1
-14.716225 16.628397 29.285982 36.752410 -0.846327 0.648741 0.018393 -0.039947 -675836.000000 0 0 1
-14.318825 15.981797 27.981292 35.261868 -0.840226 0.654211 0.032806 -0.029759 414014.000000 0 0 1
-13.387325 16.816197 27.237372 34.696965 -0.898440 0.668088 -0.001651 -0.024419 322640.000000 0 0 1
-12.703025 16.064297 26.279982 33.317652 -0.901714 0.661990 -0.016060 -0.015934 -144846.000000 0 0 1
-11.652425 16.827797 25.466992 32.672947 -0.965155 0.677006 0.009335 -0.014193 33494.500000 0 0 1
-12.189125 17.650897 24.381722 32.474564 -0.966429 0.721532 0.006196 -0.014895 159208.000000 0 0 1
-12.828325 18.850297 24.721472 33.631099 -0.973253 0.745015 0.008902 -0.016931 89021.400000 0 0 1
-11.863825 19.890997 25.347402 34.335010 -1.032997 0.740342 0.014240 -0.014232 60843.400000 0 0 1
-11.645125 19.780797 26.741142 35.241702 -1.038721 0.709339 0.028327 -0.019057 -420271.000000 0 0 1
-12.722925 20.171197 27.516622 36.413109 -1.008075 0.714106 0.038476 -0.018812 -531585.000000 0 0 1
-12.481025 19.727097 28.993552 37.223117 -1.006690 0.677866 0.038327 -0.024305 -230005.000000 0 0 1
-11.338725 20.321297 29.546442 37.610026 -1.061853 0.667131 0.052406 -0.027719 -230771.000000 0 0 1
-11.202225 20.031497 30.927532 38.513153 -1.060894 0.638420 0.052503 -0.023480 -26336.000000 0 0 1
-10.121725 20.887497 31.633252 39.235182 -1.119558 0.633016 0.043286 -0.017867 385976.000000 0 0 1
-8.822525 20.310197 31.542692 38.539363 -1.161000 0.612081 0.049882 -0.019489 46896.100000 0 0 1
-7.869125 21.210597 32.048827 39.229324 -1.215537 0.614675 0.066681 -0.018611 -1136620.000000 0 0 1
-6.664325 20.547897 32.592085 39.100810 -1.257169 0.585312 0.055668 -0.012623 -1559810.000000 0 0 1
-6.927025 19.816597 33.782228 39.773360 -1.234516 0.556009 0.043611 -0.013990 383312.000000 0 0 1
-5.761325 19.310197 -33.455161 39.055401 -1.280848 2.599455 0.026261 -0.002568 645066.000000 0 0 1
-4.837625 18.262097 33.713722 38.646111 -1.311844 0.510766 0.015837 -0.007594 45557.300000 0 0 1
-5.387825 16.949597 33.660317 38.070126 -1.263024 0.486090 0.016939 -0.011350 -152610.000000 0 0 1
-4.839625 16.079797 32.711552 36.769927 -1.278445 0.474267 0.025501 -0.011658 -505139.000000 0 0 1
-5.404025 14.663897 32.616487 36.167231 -1.217714 0.446823 0.039050 -0.022429 -252310.000000 0 0 1
-4.817425 13.755297 33.509714 36.541986 -1.233923 0.410254 0.048309 -0.019981 -50572.000000 0 0 1
-5.277525 12.463397 33.077161 35.739154 -1.170246 0.388400 0.047052 -0.024546 -211422.000000 0 0 1
-4.505525 11.300897 33.631498 35.764336 -1.191422 0.347097 0.058941 -0.032273 -471315.000000 0 0 1
-4.635525 11.115497 -32.796761 34.938087 -1.175693 2.789668 0.079124 -0.034694 239019.000000 0 0 1
-3.653125 10.133997 -32.458321 34.199208 -1.224814 2.821149 0.104110 -0.035940 364219.000000 0 0 1
-3.793325 9.620897 -31.012521 32.691397 -1.195231 2.819720 0.110043 -0.033343 58292.500000 0 0 1
-5.004425 8.945997 -30.750811 32.414310 -1.060762 2.819832 0.111095 -0.031645 44831.100000 0 0 1
-5.153625 9.040697 -29.355761 31.145702 -1.052692 2.800920 0.137491 -0.031756 16952.500000 0 0 1
-6.362925 8.238697 -28.837021 30.658388 -0.913162 2.795165 0.128390 -0.032644 -580265.000000 0 0 1
-6.114125 6.888097 -28.572811 30.020559 -0.844854 2.829766 0.141314 -0.025951 78984.700000 0 0 1
-7.235025 6.040197 -28.358551 29.883724 -0.695636 2.820728 0.135332 -0.041985 -602070.000000 0 0 1
-7.108225 5.342497 -26.969061 28.397172 -0.644520 2.823103 0.122880 -0.042183 -210754.000000 0 0 1
-7.148425 6.117697 -25.758151 27.422774 -0.707858 2.791374 0.086194 -0.026471 232833.000000 0 0 1
-6.020925 6.924797 -25.439581 27.043976 -0.855105 2.795409 0.105944 -0.033900 189760.000000 0 0 1
-6.336825 7.850397 -24.232421 26.248701 -0.891682 2.747084 0.068005 -0.017953 231575.000000 0 0 1
-6.567925 7.135897 -22.984721 24.947065 -0.826821 2.742309 0.047621 -0.014046 -115025.000000 0 1 0
-7.761125 7.560697 -22.366221 24.852506 -0.772318 2.690470 0.051639 -0.009950 -136182.000000 0 1 0
-7.760825 7.733497 -20.861021 23.563098 -0.783634 2.657991 0.037317 -0.006866 -91041.700000 0 1 0
-6.978025 8.872097 -20.513521 23.413916 -0.904333 2.638561 0.019342 -0.003422 -53973.500000 0 1 0
-6.747625 9.259097 -19.181321 22.342435 -0.941030 2.603163 0.016143 0.002554 -902493.000000 0 1 0
-7.894325 9.698197 -18.317821 22.179224 -0.887577 2.542593 0.019033 0.008121 -1254750.000000 0 1 0
-7.603325 9.486897 -16.953321 20.862091 -0.895169 2.519460 0.007271 0.002312 -255066.000000 0 1 0
-8.692825 9.590097 -16.089721 20.649801 -0.834436 2.464138 0.019172 -0.010015 -96174.600000 0 1 0
-9.498225 10.956897 -16.046621 21.627851 -0.856588 2.406759 0.051477 -0.023496 611109.000000 0 1 0
-8.573725 12.033097 -15.753321 21.597947 -0.951722 2.388226 0.028906 -0.019320 393683.000000 0 1 0
-9.265125 13.244997 -15.800221 22.603528 -0.960393 2.344816 0.055858 -0.033430 352701.000000 0 1 0
-8.199825 14.380197 -15.869521 22.931831 -1.052564 2.335094 0.062804 -0.025490 574516.000000 0 1 0
-7.371325 14.618297 -14.759121 22.042293 -1.103752 2.304442 0.054445 -0.015428 26910.100000 0 1 0
-8.065025 15.275197 -13.702721 22.048602 -1.085015 2.241424 0.049490 -0.030454 -1105330.000000 0 1 0
-7.184625 15.763597 -12.538721 21.385260 -1.143152 2.197312 0.030473 -0.035829 -584871.000000 0 1 0
-6.544225 16.992997 -12.710021 22.206609 -1.203189 2.180169 0.046955 -0.042334 331606.000000 0 1 0
-5.711125 17.153397 -13.885921 22.796377 -1.249396 2.225757 0.042215 -0.027224 -494187.000000 0 1 0
-5.698425 18.631697 -14.374221 24.212196 -1.273985 2.206417 0.073314 -0.023989 110638.000000 0 1 0
-5.160825 19.541697 -13.427621 24.265470 -1.312598 2.157193 0.071100 -0.033364 -138811.000000 0 1 0
-5.236725 20.853897 -13.897321 25.601638 -1.324769 2.144599 0.078593 -0.026219 211881.000000 0 0 1
-4.512525 21.905697 -12.994021 25.866330 -1.367640 2.097114 0.078649 -0.025827 -419220.000000 0 0 1
-4.853525 23.285997 -13.335121 27.269393 -1.365307 2.081756 0.084943 -0.026915 1076300.000000 0 0 1
-6.166825 23.887597 -13.190321 27.975553 -1.318152 2.061781 0.069100 -0.021771 938045.000000 0 0 1
-6.848025 23.717697 -11.858921 27.387198 -1.289710 2.018625 0.044081 -0.022017 -585028.000000 0 0 1
-7.158625 22.370597 -11.486921 26.146489 -1.261092 2.025648 0.045211 -0.025391 -106684.000000 0 0 1
-7.967325 22.186297 -10.337921 25.740681 -1.226029 1.984079 0.054382 -0.026192 -86514.100000 0 0 1
-7.477625 22.581397 -8.933421 25.409455 -1.251020 1.930053 0.059669 -0.025479 -267945.000000 0 0 1
-7.312225 23.987597 -8.911321 26.613626 -1.274911 1.912232 0.055704 -0.018186 -30190.800000 0 0 1
-6.741325 24.452697 -7.690421 26.505140 -1.301790 1.865178 0.055774 -0.023147 127036.000000 0 0 1
-7.018825 25.960697 -7.468021 27.910447 -1.306746 1.841667 0.059555 -0.018001 63882.100000 0 0 1
-6.230725 26.893697 -8.205321 28.799656 -1.343133 1.859709 0.053130 -0.020065 -34392.600000 0 0 1
-6.481925 27.010597 -9.561221 29.376941 -1.335273 1.902302 0.059483 -0.018978 -105024.000000 0 0 1
-5.862625 28.273997 -10.195421 30.622474 -1.366343 1.910215 0.061122 -0.022367 107210.000000 0 0 1
-6.592225 29.477097 -10.004921 31.819100 -1.350778 1.890654 0.053799 -0.022128 -64537.400000 0 0 1
-7.540725 29.616697 -11.041321 32.494954 -1.321483 1.917485 0.065388 -0.022781 465628.000000 0 0 1
-8.717225 30.629197 -10.759021 33.613900 -1.293522 1.896607 0.068965 -0.023061 1366950.000000 0 0 1
-9.809425 30.139697 -9.943521 33.218967 -1.256144 1.874789 0.059830 -0.023730 624057.000000 0 0 1
-10.884725 31.063297 -9.906421 34.373578 -1.233761 1.863142 0.055558 -0.029187 270343.000000 0 0 1
-12.044125 30.520297 -9.047421 34.035354 -1.194931 1.839855 0.079881 -0.033377 -115365.000000 0 0 1
-12.731925 29.379697 -9.515621 33.403825 -1.161868 1.859663 0.093921 -0.041905 381807.000000 0 0 1
-13.896125 29.222197 -8.672121 33.499922 -1.126913 1.832648 0.118692 -0.037816 626665.000000 0 0 1
-14.696525 28.000197 -9.180521 32.928420 -1.087450 1.853343 0.128392 -0.041908 -24130.200000 0 0 1
-14.096225 26.728697 -9.011421 31.533038 -1.085484 1.860614 0.114354 -0.042123 453409.000000 0 0 1
-14.916525 25.746097 -9.683321 31.291068 -1.045684 1.885421 0.150381 -0.049537 330848.000000 0 0 1
-15.094725 24.489097 -8.836921 30.094148 -1.018416 1.868831 0.146618 -0.045353 832141.000000 0 0 1
-13.982325 23.604597 -9.122621 28.912015 -1.036016 1.891812 0.133960 -0.045005 972557.000000 0 0 1
-14.251125 22.278297 -8.652921 27.826069 -1.001706 1.887004 0.129622 -0.042422 303691.000000 0 0 1
-13.275525 21.197397 -9.228021 26.659437 -1.011276 1.924255 0.124251 -0.044718 95558.300000 0 0 1
-13.485425 20.965397 -10.599921 27.088058 -0.999200 1.972855 0.126153 -0.032699 138746.000000 0 0 1
-12.781325 19.846797 -11.092821 26.082720 -0.998651 2.010083 0.115368 -0.028929 -168286.000000 0 0 1
-12.964025 19.571697 -12.639321 26.662140 -0.985763 2.064687 0.110211 -0.022325 -105396.000000 0 0 1
-14.223325 19.039997 -12.978021 27.078654 -0.929203 2.070621 0.121191 -0.019104 -308807.000000 0 0 1
-14.439625 18.875797 -14.355121 27.764509 -0.917776 2.114175 0.110438 -0.014836 -189227.000000 0 0 1
-15.923725 18.653997 -14.676321 28.582005 -0.864195 2.110033 0.101323 -0.011482 -225133.000000 0 0 1
-16.667825 19.839697 -14.490421 29.688420 -0.872063 2.080689 0.082757 -0.016667 187841.000000 0 0 1
-18.050725 19.557497 -14.668021 30.388735 -0.825442 2.074508 0.082450 -0.011641 568601.000000 0 0 1
-18.972925 20.637497 -15.339321 31.955797 -0.827397 2.071470 0.084284 -0.013349 246733.000000 0 0 1
-19.213325 21.814397 -14.602121 32.530627 -0.848711 2.036300 0.089645 -0.028080 432765.000000 0 0 1
-19.950925 22.718997 -15.421121 33.941173 -0.850179 2.042437 0.081581 -0.021268 152165.000000 0 0 1
-20.548325 23.982897 -14.625821 34.804133 -0.862373 2.004498 0.083137 -0.014289 840266.000000 0 0 1
-21.774125 23.579197 -13.969121 35.003248 -0.825177 1.981310 0.110033 -0.020102 797927.000000 0 0 1
-22.287225 24.755297 -13.350621 35.885710 -0.837815 1.951993 0.116428 -0.034102 38717.600000 0 0 1
-26.174945 -0.781303 3.733079 26.451353 0.029840 1.429194 0.193789 -0.048533 -146463.000000 0 0 1
-26.794195 -0.041403 4.755379 27.212942 0.001545 1.395148 0.211054 -0.046974 273238.000000 0 0 1
-28.169075 -0.382903 4.851879 28.586433 0.013592 1.400244 0.208552 -0.045833 -98714.400000 0 0 1
-28.721455 0.380097 6.060079 29.356277 -0.013233 1.362869 0.204868 -0.041174 -603302.000000 0 0 1
-28.885145 1.766097 5.877479 29.529908 -0.061066 1.370423 0.228091 -0.056302 104432.000000 0 0 1
-29.298645 2.438497 7.074979 30.239249 -0.083038 1.334641 0.239448 -0.040661 -253463.000000 0 0 1
-28.169775 2.945897 7.973079 29.424217 -0.104198 1.296396 0.246745 -0.041837 -125531.000000 0 0 1
-27.501995 1.953797 8.750979 28.926747 -0.070923 1.263459 0.205059 -0.051100 1684840.000000 0 0 1
-26.340195 2.454697 9.507579 28.110949 -0.092924 1.225776 0.183086 -0.059751 1275870.000000 0 0 1
-25.672835 1.203097 10.217479 27.657527 -0.046828 1.192402 0.150646 -0.051410 -316929.000000 0 0 1
-24.638525 0.586897 9.486679 26.408303 -0.023816 1.203353 0.155626 -0.050319 262496.000000 0 0 1
-25.043925 -0.374703 8.524379 26.457582 0.014961 1.242754 0.141720 -0.039860 -329835.000000 0 0 1
-23.785925 -1.042903 7.963979 25.105434 0.043817 1.247998 0.123128 -0.048306 -268878.000000 0 0 1
-22.890725 -1.466303 8.965179 24.627419 0.063969 1.198203 0.118161 -0.061079 -467643.000000 0 1 0
-21.815625 -2.061603 8.287279 23.427563 0.094221 1.209229 0.136828 -0.038998 -110011.000000 0 1 0
-20.623525 -2.286103 9.277679 22.729527 0.110399 1.150340 0.120403 -0.025736 571941.000000 0 1 0
-19.853725 -1.102203 9.629879 22.093434 0.055459 1.119791 0.101734 -0.029580 1266920.000000 0 1 0
-20.459625 -0.401303 10.752979 23.116744 0.019612 1.086981 0.111875 -0.037109 -69845.400000 0 1 0
-20.002425 1.094997 10.877379 22.795030 -0.054689 1.073351 0.074223 -0.030512 -194929.000000 0 1 0
-20.321625 2.025097 9.866679 22.680847 -0.099324 1.120733 0.079474 -0.031221 407078.000000 0 1 0
-21.704125 2.322497 9.907879 23.971423 -0.106602 1.144699 0.107703 -0.040383 -340431.000000 0 1 0
-22.011725 3.716797 9.498079 24.259928 -0.167277 1.168521 0.101492 -0.045015 -635731.000000 0 1 0
-21.727825 4.683097 10.491079 24.578294 -0.212287 1.129797 0.077753 -0.043432 527152.000000 0 1 0
-21.987525 6.011997 10.140979 24.948644 -0.266904 1.152205 0.058833 -0.036748 -356203.000000 0 1 0
-22.149725 6.906197 11.430679 25.864383 -0.302243 1.113029 0.063266 -0.044524 -307078.000000 0 0 1
-23.275825 6.501797 12.157879 27.052752 -0.272394 1.104687 0.077073 -0.042031 154571.000000 0 0 1
-23.384725 7.352397 13.312479 27.894896 -0.304624 1.073288 0.098090 -0.029840 -482789.000000 0 0 1
-24.448525 6.984397 14.314879 29.179238 -0.278266 1.058036 0.124675 -0.028297 -130693.000000 0 0 1
-25.811115 6.959997 13.909079 30.134991 -0.263387 1.091044 0.137281 -0.033669 495493.000000 0 0 1
-26.654155 6.375497 14.868279 31.179427 -0.234782 1.073715 0.135889 -0.033074 101507.000000 0 0 1
-28.151535 6.411797 14.475879 32.298160 -0.223940 1.106051 0.143873 -0.026595 125378.000000 0 0 1
-28.484815 5.436897 13.511879 31.992427 -0.188602 1.134764 0.163623 -0.024606 850916.000000 0 0 1
-29.851165 5.637297 13.111179 33.087372 -0.186649 1.163357 0.194061 -0.022106 818458.000000 0 0 1
-30.437355 4.666497 11.982079 33.042079 -0.152130 1.199707 0.213034 -0.021928 298999.000000 0 0 1
-30.873265 3.351397 12.422379 33.447060 -0.108130 1.190275 0.196998 -0.020606 304831.000000 0 0 1
-31.607145 2.656797 11.435879 33.717199 -0.083860 1.224761 0.184454 -0.011470 29274.400000 0 0 1
-32.600755 1.613497 12.012679 34.780987 -0.049452 1.218152 0.156428 -0.002336 330223.000000 0 0 1
-31.987165 0.529697 12.692079 34.417266 -0.016558 1.193110 0.148206 -0.007838 668838.000000 0 0 1
-33.078745 -0.185103 13.304179 35.654436 0.005596 1.188403 0.138156 -0.012584 814017.000000 0 0 1
-32.700175 -1.145403 14.448479 35.768309 0.035013 1.154970 0.134115 -0.015366 -217634.000000 0 0 1
-32.785385 -2.506903 14.033279 35.750510 0.076316 1.167412 0.121471 -0.015953 242140.000000 0 0 1
-33.075925 -3.374603 15.095979 36.514290 0.101674 1.144582 0.125205 -0.012330 -182425.000000 0 0 1
-33.097685 -4.858303 14.632779 36.512711 0.145746 1.158452 0.111871 -0.012014 -719875.000000 0 0 1
-34.148862 -5.219003 13.830579 37.211123 0.151657 1.189980 0.093178 -0.024591 -798106.000000 0 0 1
-33.992885 -6.584703 13.471779 37.153242 0.191339 1.199740 0.104304 -0.029971 -805424.000000 0 0 1
-34.953808 -6.909103 12.307079 37.695737 0.195148 1.238214 0.098138 -0.031351 1305030.000000 0 0 1
-36.360365 -6.900503 12.639979 39.108339 0.187550 1.241683 0.091115 -0.028761 851099.000000 0 0 1
-36.912065 -5.653803 12.879679 39.501293 0.151988 1.238667 0.100366 -0.029012 -964615.000000 0 0 1
35.944136 -5.699903 12.649679 38.529005 -0.157267 1.236276 0.124009 -0.030933 558196.000000 0 0 1
35.094836 -6.488503 13.503179 38.158669 -0.182820 1.209092 0.113916 -0.029787 966557.000000 0 0 1
33.744566 -6.104303 13.183379 36.739076 -0.178962 1.203774 0.122453 -0.027995 1149550.000000 0 0 1
32.585506 -7.132003 13.344979 35.927276 -0.215473 1.190232 0.112499 -0.025934 414681.000000 0 0 1
32.081746 -7.232803 14.679679 36.014509 -0.221742 1.150967 0.117219 -0.027194 143142.000000 0 0 1
31.184486 -8.283403 14.968679 35.568923 -0.259630 1.136430 0.099742 -0.024894 -388003.000000 0 0 1
30.602096 -8.264803 16.347179 35.665467 -0.263780 1.094661 0.090844 -0.032491 -533029.000000 0 0 1
31.545356 -8.482203 17.348479 36.986849 -0.262676 1.082588 0.078831 -0.033815 -735118.000000 0 0 1
31.011136 -8.763203 18.577179 37.196718 -0.275402 1.047855 0.071310 -0.041725 -1089380.000000 0 0 1
31.928826 -9.482603 19.602679 38.647571 -0.288695 1.038845 0.080139 -0.032730 365127.000000 0 0 1
32.959946 -8.604703 20.088479 39.546756 -0.255366 1.037972 0.081706 -0.032442 375955.000000 0 0 1
34.135096 -8.821303 19.313079 40.199691 -0.252891 1.069653 0.054971 -0.031107 96664.300000 0 0 1
35.405086 -8.002303 19.721779 41.309872 -0.222286 1.073091 0.040897 -0.023652 751273.000000 0 0 1
35.690996 -8.224703 21.129579 42.284182 -0.226488 1.047539 0.042792 -0.023476 -597148.000000 0 0 1
37.021986 -7.942303 21.439079 43.512547 -0.211326 1.055595 0.045053 -0.017503 -536882.000000 0 0 1
-37.046805 -8.306803 22.925479 44.351396 0.220576 1.027564 0.045309 -0.008304 -560697.000000 0 0 1
36.704016 -7.638603 23.951179 44.488111 -0.205185 1.002292 0.049672 -0.014499 -108640.000000 0 0 1
36.486196 -8.458103 25.063479 45.066173 -0.227793 0.981052 0.052951 -0.011356 -389226.000000 0 0 1
36.185656 -7.742903 26.406179 45.460318 -0.210798 0.951009 0.066474 -0.010639 672206.000000 0 0 1
-37.085575 -7.349203 27.228179 46.591033 0.195634 0.946646 0.047118 -0.022917 729880.000000 0 0 1
36.809216 -6.753003 28.436879 47.001889 -0.181442 0.921011 0.060053 -0.031771 596843.000000 0 0 1
-36.390695 -6.258603 29.302679 47.139153 0.170317 0.899986 0.067899 -0.026630 463387.000000 0 0 1
-35.942188 -7.236803 30.173879 47.483420 0.198689 0.882190 0.067459 -0.019592 -170095.000000 0 0 1
-34.640415 -6.960403 30.657079 46.778863 0.198293 0.856135 0.065954 -0.032459 474899.000000 0 0 1
-34.158011 -7.723603 31.955879 47.408881 0.222374 0.831121 0.056582 -0.021171 203122.000000 0 0 1
-34.119724 -9.130903 31.761879 47.501010 0.261486 0.838395 0.057335 -0.018335 92570.600000 0 0 1
-33.649995 -9.822403 32.900779 48.075597 0.284008 0.817077 0.054176 -0.017229 -76256.800000 0 0 1
-33.882385 -11.320003 32.885179 48.555056 0.322438 0.826742 0.056945 -0.016411 242747.000000 0 0 1
-35.271978 -11.594003 32.916679 49.618959 0.317577 0.845457 0.054831 -0.014838 -91719.500000 0 0 1
-35.425396 -13.007003 33.201979 50.264423 0.351885 0.849250 0.049904 -0.016942 -390826.000000 0 0 1
-36.900025 -13.364203 33.269579 51.449768 0.347478 0.867622 0.054078 -0.011770 -559780.000000 0 0 1
-37.153585 -14.687003 33.535479 52.160572 0.376453 0.872482 0.056577 -0.021714 -318736.000000 0 0 1
35.864376 -14.999103 33.553479 51.352337 -0.396112 0.858733 0.051154 -0.017258 -203649.000000 0 0 1
35.627006 -16.497103 33.612379 51.683943 -0.433654 0.862758 0.040038 -0.014253 -215262.000000 0 0 1
35.954726 -16.995603 -33.005404 51.681230 -0.441566 2.263518 0.053662 -0.021961 153558.000000 0 0 1
35.861926 -18.428903 -32.881804 52.028024 -0.474694 2.254930 0.051668 -0.034596 -222279.000000 0 0 1
36.263866 -19.046803 -31.532704 51.692941 -0.483626 2.226857 0.058959 -0.031336 -329356.000000 0 0 1
35.259146 -18.903703 -30.598504 50.366912 -0.492137 2.223721 0.072033 -0.028059 -551511.000000 0 0 1
35.689836 -19.635803 -29.471804 50.278389 -0.502981 2.197123 0.068581 -0.026808 -247543.000000 0 0 1
34.643006 -19.647603 -28.284504 48.848535 -0.515911 2.188328 0.067662 -0.021167 699390.000000 0 0 1
33.420046 -20.293103 -28.554004 48.415294 -0.545707 2.201573 0.074071 -0.018436 107441.000000 0 0 1
32.558166 -19.605403 -29.444804 48.077048 -0.542010 2.229953 0.054582 -0.013312 -1787700.000000 0 0 1
31.178306 -20.208003 -29.515904 47.451436 -0.575069 2.242121 0.045251 -0.005753 -192966.000000 0 0 1
30.202746 -19.542303 -30.362004 47.073971 -0.574290 2.271800 0.035086 -0.001469 584720.000000 0 0 1
29.059076 -20.337603 -30.543204 46.807428 -0.610639 2.281713 0.041246 -0.002814 -151315.000000 0 0 1
28.057276 -19.794603 -31.558004 46.636302 -0.614412 2.314045 0.037014 0.003277 -64178.600000 0 0 1
28.488076 -19.930403 -32.890504 47.859970 -0.610461 2.328457 0.024279 0.003843 -89624.100000 0 0 1
27.537676 -19.463603 -33.812204 47.753750 -0.615275 2.357534 0.037278 0.002761 -111930.000000 0 0 1
28.167976 -19.491703 32.672979 47.337986 -0.605324 0.809022 0.046482 0.005197 -93280.900000 0 0 1
28.988776 -18.383703 32.369179 47.181283 -0.565164 0.814737 0.022623 0.003474 79095.100000 0 0 1
29.201476 -18.204703 30.974379 46.298483 -0.557460 0.837914 0.031696 -0.000324 -141400.000000 0 0 1
28.005976 -17.607503 30.166879 44.770520 -0.561259 0.831442 0.022697 0.001809 171191.000000 0 0 1
27.858876 -16.241003 30.298979 44.248336 -0.527806 0.816538 0.031202 -0.001132 186266.000000 0 0 1
26.830376 -15.680103 29.514279 42.858224 -0.528882 0.811172 0.027212 0.003076 75418.300000 0 0 1
26.490676 -14.210503 29.966479 42.446250 -0.492368 0.786981 0.038541 -0.005160 -19410.100000 0 0 1
27.524776 -13.340603 29.569379 42.543309 -0.451314 0.802318 0.039084 -0.000014 -17937.500000 0 0 1
27.732976 -12.328403 30.494679 43.023632 -0.418304 0.783016 0.072088 -0.011286 -265542.000000 0 0 1
29.178876 -11.827003 30.568279 43.882850 -0.385091 0.800165 0.081513 -0.010733 -309569.000000 0 0 1
29.509466 -11.053503 29.427079 43.115444 -0.358398 0.819594 0.077397 -0.018583 542017.000000 0 0 1
30.944046 -11.006903 29.386079 44.070711 -0.341747 0.840898 0.080708 -0.011970 753856.000000 0 0 1
31.468476 -10.359703 28.098879 43.441172 -0.318034 0.867381 0.091426 -0.014515 -215623.000000 0 0 1
31.418136 -8.959203 28.150479 43.125585 -0.277787 0.859580 0.090202 -0.020405 25921.700000 0 0 1
31.727526 -8.500703 26.821879 42.406498 -0.261780 0.886027 0.083159 -0.018909 45470.300000 0 0 1
31.564836 -6.953403 26.635179 41.882233 -0.216826 0.881552 0.087206 -0.023983 1083120.000000 0 0 1
30.208996 -6.485503 26.811179 40.908245 -0.211478 0.856087 0.095741 -0.021900 748282.000000 0 0 1
30.157476 -5.116703 26.610379 40.543388 -0.168066 0.854835 0.105225 -0.026414 282245.000000 0 0 1
28.706376 -4.595203 26.463679 39.312825 -0.158729 0.832328 0.096506 -0.018916 161238.000000 0 0 1
28.053476 -5.004003 25.268679 38.086004 -0.176517 0.845358 0.117360 -0.021765 82808.700000 0 0 1
26.789176 -4.371803 25.174979 37.020970 -0.161767 0.823007 0.101171 -0.019215 117855.000000 0 0 1
25.934576 -4.843203 23.959879 35.638949 -0.184620 0.833492 0.093966 -0.011239 -146544.000000 0 0 1
26.346876 -4.263403 22.762779 35.078178 -0.160428 0.864638 0.104168 -0.010865 24795.700000 0 0 1
25.692476 -4.685903 21.597579 33.889769 -0.180401 0.879821 0.095859 -0.011829 29735.100000 0 0 1
26.149276 -3.731803 20.495979 33.433459 -0.141754 0.910896 0.102107 -0.010709 126116.000000 0 0 1
25.562276 -2.482603 20.600579 32.923808 -0.096816 0.894762 0.088477 -0.004332 -342222.000000 0 0 1
25.972176 -1.658203 19.571379 32.562900 -0.063759 0.926003 0.101311 -0.002533 610015.000000 0 0 1
24.820276 -0.777803 18.918079 31.217700 -0.031327 0.919768 0.082786 -0.011029 771951.000000 0 0 1
23.806476 -1.505303 18.261779 30.041751 -0.063147 0.917408 0.075843 -0.010173 -738057.000000 0 0 1
22.827476 -0.680703 17.767379 28.935044 -0.029811 0.909623 0.090247 -0.015744 -233579.000000 0 0 1
21.649176 -1.405003 17.060079 27.599043 -0.064808 0.904422 0.080503 -0.018964 -68706.000000 0 0 1
21.912276 -2.071503 15.826879 27.109575 -0.094256 0.947381 0.102170 -0.024109 -484736.000000 0 0 1
20.845776 -2.800603 15.297979 26.008036 -0.133549 0.941963 0.102810 -0.027691 -689108.000000 0 0 1
21.111576 -3.290203 13.843179 25.458941 -0.154605 0.995903 0.117979 -0.038310 -77360.400000 0 0 1
20.049876 -4.130603 13.434279 24.485491 -0.203174 0.990032 0.123032 -0.037395 557774.000000 0 1 0
20.232976 -4.528703 12.105479 24.008854 -0.220198 1.042331 0.118174 -0.038715 -84894.400000 0 1 0
19.130076 -5.468703 11.556679 23.009201 -0.278443 1.044582 0.110735 -0.040278 -69678.400000 0 1 0
19.195876 -6.726103 12.120079 23.677382 -0.337025 1.033420 0.117153 -0.043990 -189992.000000 0 1 0
17.980576 -7.381903 12.058579 22.873630 -0.389567 1.015515 0.103990 -0.029142 -760369.000000 0 1 0
18.145976 -8.862403 12.440279 23.718752 -0.454321 1.018679 0.113160 -0.039740 -139950.000000 0 1 0
18.855876 -9.550303 11.437779 24.032793 -0.468826 1.074782 0.098688 -0.043061 383443.000000 0 1 0
18.638776 -10.928903 11.509579 24.480917 -0.530325 1.081341 0.111025 -0.040945 2532.760000 0 1 0
19.103776 -11.675603 10.227579 24.614576 -0.548590 1.142294 0.102192 -0.035653 -218474.000000 0 1 0
18.337076 -11.340503 9.125979 23.412366 -0.553873 1.170389 0.082850 -0.026503 -44067.600000 0 1 0
19.014876 -11.777803 8.004679 23.756200 -0.554562 1.227120 0.096056 -0.042085 -271829.000000 0 1 0
18.696876 -11.049903 6.702479 22.728765 -0.533778 1.271456 0.091460 -0.031204 -240678.000000 0 1 0
19.201376 -9.706703 6.755879 22.551160 -0.468055 1.266544 0.103139 -0.023672 672255.000000 0 1 0
19.429876 -9.202203 5.490879 22.188970 -0.442314 1.320739 0.078907 -0.031205 -117191.000000 0 1 0
20.145176 -7.794103 5.361479 22.255822 -0.369160 1.327501 0.123089 -0.024359 70181.000000 0 1 0
20.352676 -7.406103 4.008879 22.026187 -0.348994 1.387771 0.096926 -0.028792 88692.200000 0 1 0
21.272676 -6.393703 3.867379 22.546902 -0.291970 1.398418 0.140621 -0.027095 -575283.000000 0 1 0
21.704276 -6.154703 2.404179 22.687795 -0.276317 1.464629 0.144795 -0.029769 -34086.500000 0 1 0
20.581676 -5.916003 1.602379 21.474918 -0.279895 1.496111 0.084353 -0.042575 581236.000000 0 1 0
21.101376 -5.388903 0.404279 21.782373 -0.250037 1.552235 0.097084 -0.033691 113458.000000 0 1 0
-25.978395 -15.243403 -0.553421 30.125481 0.530636 1.589168 0.118649 -0.026939 -239248.000000 0 0 1
-24.866725 -14.737203 -1.298521 28.934846 0.534996 1.615689 0.118764 -0.015406 1344210.000000 0 0 1
-23.582425 -15.188603 -0.819221 28.062351 0.572191 1.599993 0.114791 -0.017518 658517.000000 0 0 1
-23.044125 -14.607403 0.482679 27.288109 0.564965 1.553107 0.139908 -0.039515 -1091680.000000 0 0 1
-23.684825 -14.940303 1.678779 28.053554 0.562757 1.510919 0.114364 -0.020333 -303136.000000 0 0 1
-23.086625 -14.376403 2.814779 27.342205 0.556955 1.467667 0.139899 -0.017287 48400.600000 0 0 1
-23.672525 -15.000403 4.080779 28.320545 0.564805 1.426200 0.140172 -0.003180 -136384.000000 0 0 1
-23.360725 -16.351803 4.166379 28.817766 0.610706 1.425711 0.160989 -0.024386 310225.000000 0 0 1
-23.858325 -16.980803 5.340979 29.767321 0.618558 1.390395 0.152116 -0.032866 -254267.000000 0 0 1
-23.752125 -18.531503 5.101379 30.554936 0.662553 1.403053 0.108850 -0.031270 164374.000000 0 0 1
-24.530525 -19.219103 6.076279 31.749673 0.664584 1.378228 0.104507 -0.032782 373802.000000 0 0 1
-24.587225 -20.618903 5.889479 32.624481 0.697840 1.389278 0.093873 -0.034872 -257550.000000 0 0 1
-25.293285 -21.495503 6.909979 33.905084 0.704407 1.365555 0.091272 -0.030607 -304806.000000 0 0 1
-24.518925 -21.889203 8.011379 33.830417 0.728794 1.331715 0.088971 -0.017869 -278366.000000 0 0 1
-25.240345 -22.640303 8.977479 35.074969 0.731149 1.311965 0.082432 -0.010302 -11371.800000 0 0 1
-24.378025 -23.310703 10.069479 35.200446 0.763021 1.280683 0.063845 -0.016861 256949.000000 0 0 1
-23.666825 -22.367603 10.865779 34.329192 0.757183 1.248741 0.077297 -0.018822 -72235.000000 0 0 1
-22.955025 -22.915403 11.928079 34.559050 0.784534 1.218397 0.085953 -0.017669 -156316.000000 0 0 1
-22.964125 -22.120903 13.245879 34.527362 0.766697 1.177068 0.063723 -0.010954 -771890.000000 0 0 1
-24.218225 -22.126403 13.831579 35.600740 0.740293 1.171772 0.062523 -0.018312 -860699.000000 0 0 1
-24.436725 -21.451303 15.068879 35.838290 0.720431 1.136834 0.059356 -0.000662 -259057.000000 0 0 1
-25.825425 -21.689703 15.731879 37.214081 0.698577 1.134330 0.054110 -0.001166 -314469.000000 0 0 1
-26.892985 -21.264403 14.937879 37.397162 0.669047 1.159892 0.064805 -0.007742 -111179.000000 0 0 1
-27.344215 -22.194703 13.929579 37.872736 0.681821 1.194155 0.054168 -0.010227 -411953.000000 0 0 1
-28.429655 -23.202403 14.416279 39.426208 0.684502 1.196463 0.039417 -0.015044 -213419.000000 0 0 1
-27.998755 -24.000503 15.505379 40.004640 0.708659 1.172781 0.031506 -0.006570 -348921.000000 0 0 1
-29.007285 -24.736403 16.141479 41.398787 0.706097 1.170271 0.045074 -0.014854 -4727.060000 0 0 1
-29.469825 -26.039433 15.513879 42.275325 0.723678 1.195044 0.062109 -0.015425 312406.000000 0 0 1
-30.155965 -25.950123 14.245279 42.257769 0.710576 1.226957 0.077566 -0.027701 444303.000000 0 0 1
-31.037355 -27.076083 14.206579 43.569009 0.717339 1.238652 0.108925 -0.035615 3783.000000 0 0 1
-31.623395 -27.428183 12.864379 43.793111 0.714474 1.272645 0.154336 -0.046934 -266913.000000 0 0 1
-31.020655 -28.512753 12.192179 43.862368 0.743297 1.289122 0.135146 -0.045862 119785.000000 0 0 1
-31.621265 -28.792063 10.915379 44.136524 0.738602 1.320894 0.137671 -0.036338 -71294.200000 0 0 1
-30.961555 -29.934733 10.139279 44.243769 0.768538 1.339573 0.103630 -0.038865 -78682.700000 0 0 1
-31.138705 -31.209573 10.706879 45.368421 0.786535 1.332550 0.098956 -0.029434 -47442.300000 0 0 1
-30.584595 -32.266223 9.971479 45.562671 0.812148 1.350159 0.103562 -0.032465 -404320.000000 0 0 1
-30.742855 -33.549823 10.814379 46.772476 0.829030 1.337473 0.106242 -0.030295 169237.000000 0 0 1
-32.081545 -33.949393 11.074879 48.004581 0.813678 1.337995 0.103449 -0.029823 269187.000000 0 0 1
-32.065955 32.929902 11.811079 47.456353 -0.798690 1.319270 0.113824 -0.034676 43642.300000 0 0 1
-33.450355 32.440477 12.350179 48.206200 -0.770073 1.311713 0.114226 -0.031386 854810.000000 0 0 1
-34.474392 32.191585 11.397979 48.525207 -0.751169 1.333693 0.071902 -0.028477 574902.000000 0 0 1
-35.096075 33.318812 10.741479 49.570728 -0.759426 1.352374 0.099321 -0.025891 -678723.000000 0 0 1
-36.552835 32.995271 10.383279 50.325045 -0.734290 1.362979 0.083381 -0.013086 -345438.000000 0 0 1
-36.825475 32.177828 9.275979 49.775215 -0.718146 1.383343 0.053016 -0.018959 406669.000000 0 0 1
36.143876 32.053680 9.221579 49.181863 0.725494 1.382180 0.037590 -0.016142 469180.000000 0 0 1
35.620436 31.491124 7.868579 48.191502 0.723947 1.406785 0.046116 -0.020904 -18381.100000 0 0 1
36.051756 30.158154 7.695379 47.628376 0.696618 1.408514 0.058069 -0.021832 225442.000000 0 0 1
35.763806 29.783824 6.317679 46.968490 0.694419 1.435879 0.076417 -0.018438 173969.000000 0 0 1
36.045546 28.279984 6.019879 46.209066 0.665257 1.440150 0.081593 -0.015128 144330.000000 0 0 1
35.090956 27.434544 6.642679 45.035037 0.663552 1.422756 0.077961 -0.012015 241262.000000 0 0 1
35.466386 27.039464 7.958379 45.302681 0.651388 1.394209 0.063160 -0.008291 53122.800000 0 0 1
34.470696 25.961864 8.439179 43.971206 0.645519 1.377673 0.062792 -0.002270 -423647.000000 0 0 1
34.507926 24.784494 7.714979 43.180887 0.622854 1.391165 0.067691 -0.008862 394796.000000 0 0 1
33.404816 24.008474 8.176579 41.942162 0.623175 1.374591 0.065740 -0.007608 -239706.000000 0 0 1
33.387396 22.603504 7.463179 41.004093 0.595127 1.387766 0.075237 -0.011067 799709.000000 0 0 1
34.462606 21.729304 7.894779 41.498932 0.562558 1.379389 0.083573 -0.008006 -156348.000000 0 0 1
35.654866 22.040104 7.261379 42.541313 0.553659 1.399266 0.092426 -0.012266 -826717.000000 0 0 1
36.615476 20.809904 7.159879 42.720125 0.516812 1.402402 0.075868 -0.013221 112488.000000 0 0 1
36.392876 19.966804 6.025779 41.945497 0.501803 1.426640 0.102508 -0.021626 401764.000000 0 0 1
-37.176045 18.788904 6.070079 42.094264 -0.467961 1.426090 0.117244 -0.020571 104977.000000 0 0 1
36.665756 17.723604 5.139379 41.047741 0.450266 1.445262 0.118132 -0.025632 -345242.000000 0 0 1
37.129706 17.775904 3.842279 41.344418 0.446505 1.477729 0.144249 -0.026586 -220953.000000 0 0 1
36.764466 16.613604 3.112579 40.463884 0.424427 1.493798 0.129853 -0.029919 -1001160.000000 0 0 1
-36.882515 16.190404 1.830979 40.321230 -0.413646 1.525371 0.164322 -0.027478 383240.000000 0 0 1
-35.609498 15.583304 2.018279 38.922348 -0.412508 1.518919 0.174169 -0.049501 643797.000000 0 0 1
-34.519439 16.415204 2.405079 38.299282 -0.443885 1.507958 0.173523 -0.046645 -73277.600000 0 0 1
-33.178825 15.636904 2.428979 36.759313 -0.440418 1.504670 0.175643 -0.042440 -78332.100000 0 0 1
-33.005875 14.718304 3.522079 36.310071 -0.419464 1.473644 0.184091 -0.038582 -1187730.000000 0 0 1
-31.721445 14.349504 3.811479 35.024073 -0.424815 1.461756 0.171346 -0.042533 -1318030.000000 0 0 1
-31.499295 13.572504 5.129879 34.680457 -0.406843 1.422333 0.177955 -0.030144 -161775.000000 0 0 1
-31.921275 12.234304 5.219779 34.581673 -0.365997 1.419277 0.205739 -0.036087 201697.000000 0 0 1
-31.692915 11.537304 6.452779 34.339316 -0.349122 1.381760 0.188267 -0.021463 -119846.000000 0 0 1
-32.032295 10.044204 6.262479 34.149269 -0.303855 1.386367 0.211761 -0.031185 98750.400000 0 0 1
-33.402115 9.759204 6.051979 35.320954 -0.284261 1.398604 0.194721 -0.006498 62179.000000 0 0 1
-33.632555 8.424104 5.814579 35.155705 -0.245425 1.404638 0.220378 -0.022808 282405.000000 0 0 1
-35.105204 7.914904 5.922379 36.470476 -0.221755 1.407686 0.189160 -0.006772 414886.000000 0 0 1
-35.464034 7.748904 7.256379 37.018890 -0.215119 1.373501 0.173195 0.004944 207864.000000 0 0 1
-36.698855 7.028904 7.246779 38.062150 -0.189237 1.379234 0.122033 0.000447 495369.000000 0 0 1
-37.139945 6.383504 8.590679 38.651318 -0.170214 1.346664 0.109674 0.001364 113474.000000 0 0 1
36.684196 7.250604 9.600279 38.606565 0.195134 1.319490 0.096444 0.002130 183335.000000 0 0 1
-36.758995 7.885204 10.454979 39.021875 -0.211309 1.299557 0.127879 -0.005899 -139377.000000 0 0 1
37.010856 8.729904 11.575779 39.749382 0.231640 1.275295 0.104213 -0.015384 -563366.000000 0 0 1
36.289886 7.955804 12.492579 39.195857 0.215815 1.246416 0.089243 -0.022388 205383.000000 0 0 1
35.775496 8.742304 13.503879 39.225868 0.239669 1.219346 0.110672 -0.033610 -120886.000000 0 0 1
34.989026 8.063104 14.683979 38.792587 0.226493 1.182594 0.117022 -0.045939 218031.000000 0 0 1
33.646726 7.646404 14.482579 37.420780 0.223460 1.173399 0.113435 -0.051519 363525.000000 0 0 1
33.275496 7.031204 15.690779 37.455267 0.208240 1.138540 0.109275 -0.041129 -229982.000000 0 0 1
31.740496 6.905304 15.769879 36.108606 0.214217 1.118831 0.111171 -0.036541 -279040.000000 0 0 1
31.102956 8.148104 16.114679 35.964821 0.256214 1.106193 0.105032 -0.044430 -40749.500000 0 0 1
29.697666 8.076904 16.107679 34.736797 0.265548 1.088622 0.100125 -0.038201 107114.000000 0 0 1
29.020676 7.445204 17.377179 34.635200 0.251132 1.045210 0.093353 -0.038845 -475519.000000 0 0 1
28.897776 8.236104 18.541879 35.308868 0.277647 1.017924 0.128061 -0.038615 146383.000000 0 0 1
28.130576 7.653704 19.597579 35.127960 0.265647 0.978954 0.123486 -0.029039 36984.600000 0 0 1
28.758776 6.651004 20.636079 36.015980 0.227273 0.960671 0.122906 -0.019394 -232823.000000 0 0 1
27.803976 6.364704 21.618579 35.790131 0.225036 0.922239 0.108184 -0.013861 -35060.000000 0 0 1
28.133176 5.273604 22.454479 36.379804 0.185301 0.905587 0.108972 -0.018402 -483133.000000 0 0 1
27.304476 5.153604 23.768079 36.565224 0.186551 0.863187 0.118127 -0.014234 1339690.000000 0 0 1
25.916876 4.809404 23.564879 35.357013 0.183483 0.841314 0.084577 -0.014317 1298540.000000 0 0 1
25.049876 5.965804 23.472979 34.843476 0.233802 0.831634 0.100106 -0.005257 622216.000000 0 0 1
23.513476 5.738204 23.385279 33.655339 0.239360 0.802591 0.089344 -0.018167 319118.000000 0 0 1
23.263576 5.417104 22.023779 32.489780 0.228781 0.825938 0.080938 -0.009378 -3825.060000 0 0 1
21.916876 5.281404 21.646979 31.254350 0.236466 0.805699 0.067166 -0.017663 -561644.000000 0 0 1
21.161576 3.929204 21.951579 30.742849 0.183586 0.775546 0.068962 -0.021806 1102370.000000 0 0 1
19.948276 3.853404 21.137379 29.318445 0.190819 0.765612 0.074395 -0.033958 83364.500000 0 0 1
18.849676 4.155704 21.871579 29.170981 0.216994 0.723079 0.084974 -0.034678 -1687710.000000 0 0 1
17.527076 4.313204 21.107779 27.773017 0.241293 0.707467 0.114757 -0.040818 -113284.000000 0 0 1
16.897776 3.030704 21.069379 27.177909 0.177468 0.683703 0.102856 -0.037489 410977.000000 0 0 1
15.830776 2.971604 20.098679 25.756568 0.185551 0.675600 0.117847 -0.044669 81662.900000 0 0 1
14.870176 1.842004 20.500379 25.392531 0.123245 0.631168 0.118833 -0.042732 -598676.000000 0 0 1
15.382976 0.504304 20.439879 25.586694 0.032771 0.645419 0.089051 -0.027447 148293.000000 0 0 1
14.516976 -0.361596 21.163679 25.666606 -0.024903 0.601371 0.104386 -0.029263 219542.000000 0 0 1
15.004076 -1.831396 21.248979 26.076722 -0.121459 0.618302 0.076324 -0.013713 9470.830000 0 0 1
14.564476 -2.484696 20.061879 24.915390 -0.168973 0.634783 0.101557 -0.017712 105027.000000 0 1 0
14.917676 -3.867896 20.006079 25.253532 -0.253696 0.656376 0.094521 -0.019002 -151528.000000 0 0 1
14.249776 -4.588596 18.799479 24.031890 -0.311527 0.672491 0.093241 -0.025018 601782.000000 0 1 0
12.841376 -4.539296 18.613079 23.064103 -0.339780 0.631716 0.102917 -0.028095 176637.000000 0 1 0
12.379876 -5.258696 17.509279 22.079177 -0.401682 0.655042 0.096094 -0.027977 -959466.000000 0 1 0
10.875276 -5.213896 17.433279 21.198480 -0.447054 0.605209 0.089170 -0.018189 -898823.000000 0 1 0
10.210976 -5.976896 18.392779 21.869651 -0.529571 0.571633 0.088891 -0.013502 -1141640.000000 0 1 0
8.868876 -6.114796 18.103079 21.065829 -0.603622 0.536784 0.074894 -0.023640 -644619.000000 0 1 0
7.983676 -6.991596 19.016979 21.777672 -0.719247 0.508999 0.069543 -0.027086 -113076.000000 0 1 0
8.086076 -8.429696 18.929479 22.243417 -0.806201 0.552881 0.069784 -0.025194 -91083.000000 0 1 0
9.279276 -8.924096 19.517979 23.381530 -0.765889 0.583099 0.095124 -0.031135 258879.000000 0 1 0
9.518376 -10.365896 19.106679 23.730075 -0.827995 0.634839 0.102707 -0.034948 93546.500000 0 1 0
9.885376 -10.390996 17.741179 22.813218 -0.810329 0.679844 0.103885 -0.018229 -100588.000000 0 1 0
10.039876 -11.684396 17.236079 23.117237 -0.860954 0.729370 0.092756 -0.026353 175362.000000 0 1 0
9.661276 -11.997296 15.776779 22.049538 -0.892839 0.773435 0.071855 -0.017365 -74785.600000 0 1 0
10.386276 -13.067796 15.262179 22.618049 -0.899235 0.830131 0.066009 -0.016141 -313706.000000 0 1 0
9.992276 -13.420296 13.944879 21.780945 -0.930783 0.875995 0.048366 -0.005506 -500869.000000 0 1 0
10.804876 -14.586196 13.220479 22.456258 -0.933235 0.941320 0.068216 -0.010914 370103.000000 0 1 0
12.144276 -14.380396 12.849979 22.790375 -0.869503 0.971776 0.047078 -0.010891 -318241.000000 0 1 0
12.274676 -13.334996 11.922679 21.694241 -0.826778 0.988937 0.018770 -0.010350 -268805.000000 0 1 0
13.746476 -12.884096 11.625079 22.138383 -0.753026 1.017952 0.042855 -0.011646 470544.000000 0 1 0
14.415776 -13.812596 10.833179 22.714757 -0.764034 1.073646 0.044796 -0.008856 375648.000000 0 1 0
15.640176 -13.243096 10.307279 22.939806 -0.702596 1.104794 0.040138 -0.025791 685115.000000 0 1 0
16.583376 -14.286696 9.681279 23.934185 -0.711137 1.154369 0.038904 -0.027624 -142724.000000 0 1 0
17.073976 -15.289396 10.574379 25.240915 -0.730312 1.138521 0.038062 -0.016134 -294633.000000 0 0 1
16.164876 -16.282896 10.874279 25.390665 -0.789035 1.128209 0.062253 -0.013761 -524682.000000 0 0 1
16.557776 -17.074796 12.131779 26.699975 -0.800770 1.099127 0.050959 -0.006010 -126553.000000 0 0 1
17.584976 -18.004396 11.925879 27.849888 -0.797183 1.128274 0.062871 -0.017430 -176188.000000 0 0 1
17.862476 -18.746396 13.102279 29.020082 -0.809538 1.102362 0.046965 -0.017369 -653225.000000 0 0 1
19.176076 -19.516596 13.030279 30.305240 -0.794199 1.126339 0.027809 -0.015335 -687595.000000 0 0 1
20.274976 -18.664496 13.164579 30.540861 -0.744063 1.125142 0.032480 -0.014116 -562802.000000 0 0 1
21.510276 -19.358896 13.081279 31.758128 -0.732806 1.146254 0.024570 -0.017486 736343.000000 0 0 1
22.417976 -18.670196 11.957479 31.529719 -0.694437 1.181816 0.054377 -0.018842 -152077.000000 0 0 1
22.180176 -18.835396 10.546179 30.950836 -0.704029 1.223093 0.041342 -0.007818 -12033.000000 0 0 1
20.909076 -18.510596 10.009879 29.665288 -0.724628 1.226614 0.044960 -0.009179 296438.000000 0 0 1
20.500076 -16.988496 9.962879 28.427471 -0.692000 1.212727 0.094094 -0.024020 143981.000000 0 0 1
21.442076 -16.288196 9.157579 28.441681 -0.649640 1.242979 0.097092 -0.023837 256064.000000 0 0 1
21.124776 -14.929996 8.969879 27.379183 -0.615244 1.237016 0.101779 -0.037470 64295.200000 0 0 1
-35.825868 24.742697 8.322979 44.327935 -0.604415 1.381916 0.095794 -0.011821 832666.000000 0 0 1
-34.787569 24.110197 9.131879 43.299743 -0.606059 1.358302 0.096601 -0.021423 931924.000000 0 0 1
-33.866705 25.030997 9.714679 43.218972 -0.636491 1.344081 0.107523 -0.015461 -340972.000000 0 0 1
-32.858165 24.128297 10.436579 42.080351 -0.633388 1.320165 0.122991 -0.032981 -499430.000000 0 0 1
-32.069155 23.398797 9.508779 40.820966 -0.630340 1.335698 0.133149 -0.029513 -191594.000000 0 0 1
-31.197645 22.530397 10.168879 39.803492 -0.625459 1.312455 0.127757 -0.032367 -450323.000000 0 0 1
-30.425505 21.693497 9.167479 38.475471 -0.619400 1.330214 0.112063 -0.039393 -139975.000000 0 0 1
-31.246375 20.797097 8.436579 38.471172 -0.587253 1.349703 0.115862 -0.039211 767534.000000 0 0 1
-30.412335 20.139797 7.460679 37.231482 -0.584921 1.369044 0.105470 -0.041721 253906.000000 0 0 1
-31.249765 19.420497 6.428879 37.350154 -0.556050 1.397810 0.117998 -0.032122 -23946.000000 0 0 1
-32.087215 18.354897 6.946979 37.613191 -0.519600 1.385035 0.134200 -0.035426 898066.000000 0 0 1
-32.969535 17.924297 5.906279 37.988877 -0.497964 1.414689 0.129802 -0.033527 -147977.000000 0 0 1
-33.782985 16.720497 6.292979 38.216053 -0.459590 1.405374 0.142343 -0.025152 6583.580000 0 0 1
-34.787758 16.884397 7.296279 39.351069 -0.451863 1.384302 0.118269 -0.020106 393567.000000 0 0 1
-35.513267 15.718097 7.570179 39.567137 -0.416681 1.378285 0.122286 -0.020380 242530.000000 0 0 1
-36.465255 15.843897 8.804179 40.721708 -0.409884 1.352872 0.114467 -0.015449 312004.000000 0 0 1
36.819786 16.708697 8.667779 41.352238 0.426007 1.359622 0.124492 -0.017989 -44306.500000 0 0 1
36.302576 17.109297 9.922979 41.340907 0.440423 1.328402 0.124986 -0.014371 165224.000000 0 0 1
35.324486 18.291897 9.743279 40.955394 0.477806 1.330593 0.082202 -0.014533 322301.000000 0 0 1
34.047466 17.970997 9.215079 39.586669 0.485657 1.335859 0.071409 -0.014311 154362.000000 0 0 1
33.282926 19.150197 9.084179 39.458909 0.522117 1.338494 0.064174 -0.008236 307268.000000 0 0 1
31.838256 18.946697 8.537879 38.020353 0.536803 1.344304 0.050897 -0.009659 497109.000000 0 0 1
31.149656 20.200597 8.646579 38.119923 0.575321 1.341979 0.046513 -0.010135 105396.000000 0 0 1
29.811456 20.398697 8.227879 37.047642 0.600082 1.346840 0.024599 -0.001726 428398.000000 0 0 1
29.500886 20.265397 6.691879 36.411123 0.601908 1.385959 0.018558 0.011555 -381797.000000 0 0 1
29.674396 18.935797 6.224179 35.747372 0.567978 1.395789 0.031141 0.001240 -4152.610000 0 0 1
29.530806 18.582197 4.865079 35.228334 0.561648 1.432252 0.035063 -0.002678 26698.800000 0 0 1
28.103976 18.715897 4.282379 34.036114 0.587508 1.444643 0.059856 -0.000030 -279920.000000 0 0 1
27.082076 17.931097 4.900979 32.847872 0.584836 1.421035 0.056586 -0.004223 1873150.000000 0 0 1
25.731076 18.258797 4.444779 31.862643 0.617141 1.430842 0.091587 -0.011802 1641760.000000 0 0 1
25.071376 19.551397 4.937079 32.174614 0.662320 1.416741 0.099028 -0.011678 -683267.000000 0 0 1
25.763076 20.645697 4.417379 33.309070 0.675574 1.437787 0.079538 -0.011820 141933.000000 0 0 1
25.132676 21.793097 4.946979 33.631281 0.714351 1.423166 0.081149 -0.006018 -131473.000000 0 0 1
25.931676 23.071897 4.766779 35.035503 0.727106 1.434317 0.053287 -0.003325 -82817.600000 0 0 1
27.184376 23.046397 5.414779 36.047837 0.703204 1.420015 0.050898 -0.005430 675116.000000 0 0 1
28.047176 24.154897 5.016579 37.353302 0.710974 1.436088 0.061399 0.003744 -354487.000000 0 0 1
29.465236 24.201697 5.590279 38.537949 0.687633 1.425224 0.053263 0.000288 -296132.000000 0 0 1
30.319356 23.154597 5.151379 38.495914 0.652205 1.436577 0.044966 -0.001743 160653.000000 0 0 1
30.612926 22.997597 3.751579 38.472264 0.644293 1.473127 0.053943 -0.006939 -359444.000000 0 0 1
31.425016 24.191497 3.057179 39.775703 0.656064 1.493860 0.074306 -0.018795 -38132.600000 0 0 1
30.721106 25.396497 2.872979 39.962763 0.690798 1.498843 0.054711 -0.023303 -812551.000000 0 0 1
31.490206 26.300397 2.204679 41.087767 0.695835 1.517113 0.102144 -0.017804 -1406470.000000 0 0 1
31.118156 27.811097 2.544879 41.812357 0.729338 1.509894 0.094852 -0.009180 1070480.000000 0 0 1
29.778526 28.220497 2.261479 41.088579 0.758542 1.515729 0.123423 -0.010381 442760.000000 0 0 1
28.692876 27.550997 2.841479 39.879977 0.765099 1.499485 0.106438 -0.001817 -461182.000000 0 0 1
27.329276 28.182997 2.418779 39.332190 0.800776 1.509261 0.073337 0.004519 237586.000000 0 0 1
27.098376 29.549697 2.723879 40.186143 0.828644 1.502963 0.067797 -0.003452 380206.000000 0 0 1
25.771276 29.954597 2.399679 39.587814 0.860327 1.510143 0.057860 0.007084 517157.000000 0 0 1
25.388076 31.365597 2.940179 40.459853 0.890335 1.498063 0.076264 -0.005432 -174721.000000 0 0 1
25.287476 31.600797 4.319179 40.702852 0.895923 1.464481 0.059973 -0.018485 367757.000000 0 0 1
26.531076 31.533797 5.024779 41.515380 0.871343 1.449465 0.065874 -0.023411 335228.000000 0 0 1
26.498776 31.369897 6.588979 41.589304 0.869376 1.411696 0.076661 -0.034693 40202.100000 0 0 1
26.015276 30.165897 7.189679 40.477987 0.859143 1.392229 0.085578 -0.032504 -133858.000000 0 0 1
26.818976 29.063897 6.917379 40.147450 0.825548 1.397633 0.092143 -0.033311 -378210.000000 0 0 1
26.261076 27.765297 7.441379 38.934945 0.813233 1.378490 0.104958 -0.032091 -535693.000000 0 0 1
24.923576 27.645497 7.053779 37.884218 0.837130 1.383510 0.072767 -0.039062 -327696.000000 0 0 1
24.433476 26.328397 7.306579 36.654677 0.822710 1.370117 0.083791 -0.026555 611380.000000 0 0 1
23.245876 25.884897 6.350479 35.365622 0.839061 1.390251 0.092807 -0.017395 521647.000000 0 0 1
23.484576 25.665097 4.989079 35.144181 0.829734 1.428355 0.057910 -0.019534 -91842.800000 0 0 1
23.606576 26.822497 4.192979 35.976351 0.849083 1.453983 0.056966 -0.009945 -144475.000000 0 0 1
23.644576 26.463297 2.753779 35.594317 0.841592 1.493353 0.053662 0.002020 -3961.840000 0 0 1
24.785476 25.739597 2.332879 35.809063 0.804280 1.505602 0.038334 0.020270 94835.800000 0 0 1
24.780876 25.719497 0.922879 35.727245 0.803982 1.544962 0.050584 0.015384 154865.000000 0 0 1
25.927076 24.949697 0.176579 35.982382 0.766190 1.565889 0.075514 0.007812 -205638.000000 0 0 1
27.160676 25.612197 0.415279 37.334427 0.756064 1.559673 0.085261 0.007266 10803.400000 0 0 1
28.238576 25.253197 -0.413621 37.885515 0.729646 1.581714 0.088254 0.006677 437281.000000 0 0 1
28.934176 23.901597 0.080379 37.529713 0.690435 1.568655 0.079517 -0.005446 87933.100000 0 0 1
28.042076 22.759497 -0.116421 36.116012 0.681786 1.574020 0.076072 -0.007480 740676.000000 0 0 1
28.356676 21.784797 0.861279 35.768985 0.655074 1.546715 0.068207 -0.006027 -286129.000000 0 0 1
27.221676 20.864197 1.372179 34.325169 0.653950 1.530810 0.065595 -0.004944 -212430.000000 0 0 1
26.820076 19.899697 0.391079 33.398613 0.638342 1.559087 0.102178 -0.029541 1029300.000000 0 0 1
25.513276 19.429497 0.767079 32.078358 0.650849 1.546881 0.082466 -0.020699 297617.000000 0 0 1
25.050276 18.146597 0.070779 30.932512 0.626919 1.568508 0.110744 -0.028315 -312204.000000 0 0 1
23.765176 17.804897 0.531479 29.699839 0.642990 1.552900 0.102579 -0.028411 -15413.700000 0 0 1
23.245476 16.704397 -0.269521 28.626241 0.623106 1.580212 0.127916 -0.052480 36252.500000 0 0 1
21.726976 16.580397 -0.028221 27.330786 0.651848 1.571829 0.109004 -0.034026 -1289210.000000 0 0 1
21.254676 15.678297 -0.952121 26.428711 0.635544 1.606830 0.110693 -0.033908 637193.000000 0 0 1
19.866876 15.366697 -0.787021 25.128620 0.658362 1.602121 0.105351 -0.033552 870496.000000 0 0 1
18.859376 16.440497 -1.324521 25.054348 0.716981 1.623687 0.105951 -0.033714 -517072.000000 0 0 1
18.881776 17.665797 -0.534321 25.862857 0.752139 1.591458 0.089290 -0.030232 -113518.000000 0 0 1
17.911376 18.516097 -1.083321 25.784430 0.801997 1.612823 0.065332 -0.027888 36903.500000 0 0 1
17.892376 19.936297 -0.392921 26.790809 0.839377 1.585463 0.064263 -0.020729 26602.600000 0 0 1
17.563976 19.922797 1.010779 26.578803 0.848239 1.532758 0.072140 -0.021729 108050.000000 0 0 1
17.815876 21.157197 1.645879 27.708146 0.870923 1.511361 0.086331 -0.022876 203400.000000 0 0 1
16.786476 22.295897 1.352679 27.941413 0.925445 1.522366 0.075782 -0.024658 -100234.000000 0 0 1
15.502876 22.093197 1.871579 27.054599 0.958928 1.501563 0.070868 -0.022464 -151746.000000 0 0 1
14.651976 23.144597 1.352079 27.425916 1.006420 1.521477 0.057581 -0.021515 261424.000000 0 0 1
13.181776 22.999997 1.780179 26.569308 1.050375 1.503745 0.050295 -0.023864 -21662.400000 0 0 1
13.127676 23.206197 3.189579 26.852130 1.055982 1.451732 0.052769 -0.020405 496627.000000 0 0 1
11.772576 23.054097 3.616179 26.137362 1.098665 1.431998 0.036994 -0.020875 692493.000000 0 0 1
11.422676 23.469997 5.077179 26.591277 1.117851 1.378683 0.053163 -0.022846 -11882.100000 0 0 1
12.027976 22.616597 6.000779 26.309542 1.082017 1.340687 0.061170 -0.043123 181350.000000 0 0 1
11.272476 22.528397 7.229679 26.208122 1.106855 1.291316 0.054238 -0.029946 -272090.000000 0 0 1
11.942576 21.513597 8.202679 25.937308 1.064033 1.249022 0.062522 -0.024385 627095.000000 0 0 1
13.177676 21.898197 8.795879 27.028682 1.029076 1.239332 0.078489 -0.023296 -105833.000000 0 0 1
14.277376 21.804297 7.942179 27.246083 0.991057 1.275004 0.089099 -0.022632 -1408580.000000 0 0 1
15.604476 21.799497 8.690879 28.182426 0.949533 1.257307 0.103362 -0.027972 -588285.000000 0 0 1
15.755076 20.766397 9.616979 27.784023 0.921762 1.217350 0.108841 -0.028954 1510810.000000 0 0 1
17.163576 20.543697 9.927279 28.551405 0.874800 1.215681 0.105637 -0.029772 1837620.000000 0 0 1
17.745076 21.337197 11.132279 29.901360 0.877052 1.189310 0.081309 -0.019756 -237843.000000 0 0 1
17.021676 20.863597 12.241479 29.578386 0.886462 1.144100 0.088426 -0.023378 20453.200000 0 0 1
17.159476 21.588097 13.412279 30.665661 0.899198 1.118123 0.085739 -0.025754 -705770.000000 0 0 1
18.108076 20.922997 14.382979 31.185643 0.857394 1.091443 0.087930 -0.024578 1325870.000000 0 0 1
19.506476 21.082097 14.001479 31.953072 0.824198 1.117214 0.096429 -0.022057 1524800.000000 0 0 1
20.444176 20.607997 15.016479 32.682542 0.789389 1.093404 0.087449 -0.029191 524104.000000 0 0 1
21.850676 21.154797 14.770279 33.810333 0.769218 1.118695 0.095075 -0.027783 -304824.000000 0 0 1
22.591576 20.570497 13.700779 33.484862 0.738607 1.149259 0.098445 -0.033600 635103.000000 0 0 1
23.858276 21.263797 13.672879 34.760812 0.727962 1.166533 0.101362 -0.033525 517637.000000 0 0 1
24.725176 20.768197 12.481079 34.618343 0.698637 1.201956 0.105493 -0.026334 51837.300000 0 0 1
24.242576 20.997697 11.145179 33.953215 0.713795 1.236345 0.123892 -0.018762 242613.000000 0 0 1
25.280676 20.707797 10.245679 34.247619 0.686289 1.266979 0.132500 -0.032760 -193960.000000 0 0 1
25.082476 21.551697 9.017379 34.277097 0.709830 1.304590 0.105026 -0.026549 107283.000000 0 0 1
25.416576 22.974497 9.143479 35.460303 0.734975 1.309999 0.101616 -0.028164 1546870.000000 0 0 1
26.844876 23.280697 9.171379 36.698126 0.714413 1.318205 0.070802 -0.024168 1322960.000000 0 0 1
27.200576 24.732997 9.617679 38.001214 0.737920 1.314925 0.099885 -0.023322 -260836.000000 0 0 1
28.488076 25.070597 9.192079 39.046122 0.721676 1.333150 0.077157 -0.016728 -86495.200000 0 0 1
29.204076 26.048197 9.935579 40.374526 0.728343 1.322157 0.088089 -0.023737 647308.000000 0 0 1
30.551456 26.457797 9.282879 41.467799 0.713714 1.345026 0.087634 -0.027054 94894.500000 0 0 1
30.344386 27.249297 8.112579 41.582687 0.731710 1.374442 0.100971 -0.030025 1347190.000000 0 0 1
31.584226 27.582897 7.403179 42.581529 0.717873 1.396049 0.091699 -0.019518 869963.000000 0 0 1
31.400656 28.558697 6.238579 42.901285 0.738036 1.424862 0.111551 -0.012636 123932.000000 0 0 1
31.224216 29.913097 6.606679 43.742351 0.763956 1.419180 0.112378 -0.026046 83616.400000 0 0 1
31.057836 30.745197 5.420379 44.036767 0.780340 1.447396 0.119197 -0.028891 -11429.000000 0 0 1
31.021256 32.255397 5.673379 45.110045 0.804900 1.444695 0.090489 -0.027771 209388.000000 0 0 1
29.901676 32.716497 6.402779 44.782530 0.830320 1.427330 0.099622 -0.033796 -3154.260000 0 0 1
29.918966 -33.959110 6.330379 45.699446 -0.848562 1.431827 0.083603 -0.032436 919357.000000 0 0 1
28.577176 -33.320710 6.888579 44.433964 -0.861883 1.415139 0.097712 -0.038203 940798.000000 0 0 1
27.536576 -33.497210 5.971779 43.772003 -0.882751 1.433940 0.088336 -0.035383 -181085.000000 0 0 1
26.264776 -33.017310 6.406879 42.673520 -0.898814 1.420089 0.079847 -0.036627 432243.000000 0 0 1
25.191576 -33.065610 5.342079 41.910474 -0.919744 1.442985 0.084190 -0.025329 -257765.000000 0 0 1
25.605076 -32.314010 4.214279 41.443640 -0.900717 1.468933 0.064966 -0.007328 -635366.000000 0 0 1
24.675276 -32.443310 3.208179 40.886795 -0.920567 1.492251 0.062113 -0.006254 -422250.000000 0 0 1
25.074176 -31.690410 1.961079 40.457906 -0.901430 1.522305 0.062608 0.001802 -57244.600000 0 0 1
25.245676 -30.279410 2.227879 39.486077 -0.875808 1.514344 0.079026 0.000028 35897.300000 0 0 1
25.892176 -29.709010 1.112079 39.424190 -0.853937 1.542585 0.068737 0.003566 -218159.000000 0 0 1
26.150876 -28.187810 1.217179 38.469500 -0.822866 1.539151 0.060585 -0.002920 17146.000000 0 0 1
25.018176 -27.355810 1.062279 37.086088 -0.830002 1.542149 0.073076 -0.009427 -25683.500000 0 0 1
24.675876 -27.078410 -0.277621 36.636269 -0.831787 1.578374 0.080806 -0.011251 -362792.000000 0 0 1
23.463176 -26.185210 -0.573021 35.164104 -0.840170 1.587093 0.068846 -0.009993 -438315.000000 0 0 1
23.572476 -24.798010 -0.281221 34.215230 -0.810729 1.579016 0.065113 -0.017792 -133909.000000 0 0 1
23.568276 -24.341910 1.090479 33.899577 -0.801544 1.538623 0.044791 -0.005502 1048320.000000 0 0 1
22.158776 -24.316010 1.817079 32.948163 -0.831782 1.515619 0.027282 -0.009544 1101580.000000 0 0 1
22.303276 -23.559910 2.975979 32.578550 -0.812791 1.479321 0.018040 -0.003557 267597.000000 0 0 1
21.046576 -23.429310 3.644379 31.704454 -0.838921 1.455593 0.030531 -0.006744 333894.000000 0 0 1
21.070576 -22.780910 5.054179 31.440161 -0.824381 1.409340 0.014047 -0.004451 -228912.000000 0 0 1
21.261176 -21.407610 5.200579 30.616489 -0.788830 1.400107 0.039338 0.005691 301199.000000 0 0 1
20.203676 -20.622210 4.665679 29.244360 -0.795649 1.410570 0.028622 0.000728 -430982.000000 0 0 1
20.273676 -19.078910 5.041579 28.292123 -0.755047 1.391642 0.029196 -0.000453 -79731.800000 0 0 1
20.040776 -18.615810 6.370679 28.084989 -0.748553 1.341969 0.046614 -0.004110 313415.000000 0 0 1
18.662876 -18.541910 6.711279 27.150444 -0.782147 1.321019 0.037802 0.000303 485694.000000 0 0 1
20.057175 -25.869773 -11.944221 34.845370 -0.911291 1.920669 0.082316 -0.033133 99393.200000 0 0 1
19.860375 -24.506503 -12.260121 33.842484 -0.889739 1.941499 0.100860 -0.035030 185516.000000 0 0 1
18.567975 -24.254903 -12.825121 33.129349 -0.917427 1.968305 0.084674 -0.026019 712512.000000 0 0 1
18.437975 -22.776503 -13.292821 32.178053 -0.890279 1.996654 0.083566 -0.031324 -54604.200000 0 0 1
18.395975 -21.721003 -12.283921 31.001751 -0.868092 1.978207 0.094958 -0.038653 -1311370.000000 0 0 1
19.497175 -21.426803 -11.512121 31.173332 -0.832515 1.949045 0.088737 -0.043305 -1760030.000000 0 0 1
19.615775 -22.122603 -10.151421 31.260831 -0.845387 1.901526 0.095430 -0.026561 19869.400000 0 0 1
18.727175 -21.696203 -9.121121 30.077020 -0.858715 1.878907 0.083573 -0.030457 -590885.000000 0 0 1
17.408475 -22.025103 -9.435521 29.617380 -0.901941 1.895028 0.076978 -0.012340 -1495870.000000 0 0 1
16.401975 -21.513003 -8.407821 28.328882 -0.919393 1.872129 0.069648 -0.025290 -1034490.000000 0 0 1
16.213275 -20.105803 -8.513521 27.195471 -0.892166 1.889198 0.076466 -0.032351 -26065.700000 0 0 1
15.383875 -19.638703 -7.468721 26.040815 -0.906294 1.861690 0.085831 -0.035065 -258982.000000 0 0 1
13.912675 -19.598103 -7.886521 25.295165 -0.953458 1.887862 0.063113 -0.022550 -525005.000000 0 0 1
13.394075 -20.922203 -8.047121 26.113138 -1.001352 1.884059 0.061591 -0.021426 -835395.000000 0 0 1
12.023675 -21.062503 -8.275321 25.625743 -1.052081 1.899620 0.070230 -0.021522 -419948.000000 0 0 1
11.476375 -22.431403 -7.925221 26.413711 -1.097895 1.875533 0.074045 -0.021447 -265789.000000 0 0 1
11.504875 -22.692703 -6.559821 26.274554 -1.101576 1.823130 0.074979 -0.024971 287742.000000 0 0 1
10.806575 -23.883703 -6.235821 26.946220 -1.145893 1.804331 0.059710 -0.021403 26719.100000 0 0 1
10.909075 -24.293703 -4.766721 27.053901 -1.148733 1.747914 0.073406 -0.027745 -463361.000000 0 0 1
10.158575 -25.332683 -4.294821 27.629458 -1.189422 1.726873 0.069200 -0.024383 -1043990.000000 0 0 1
10.787875 -25.907703 -3.201921 28.246055 -1.176235 1.684399 0.068252 -0.029094 -687795.000000 0 0 1
9.997675 -26.882763 -2.366421 28.779097 -1.214747 1.653116 0.086906 -0.025618 -340740.000000 0 0 1
8.962375 -26.251803 -1.666721 27.789553 -1.241803 1.630809 0.073198 -0.015919 -455796.000000 0 0 1
8.372875 -27.035723 -0.656821 28.310188 -1.270467 1.593999 0.078613 -0.017577 120457.000000 0 0 1
7.613975 -26.141743 0.351679 27.230259 -1.287379 1.557881 0.070032 -0.011051 333285.000000 0 0 1
6.287375 -25.798973 -0.009121 26.554061 -1.331750 1.571140 0.067301 -0.013061 136790.000000 0 0 1
5.609375 -25.224253 1.130379 25.865146 -1.351977 1.527080 0.066083 -0.009589 64953.600000 0 0 1
4.151375 -24.777903 0.880879 25.138702 -1.404795 1.535748 0.051866 -0.011052 86886.000000 0 0 1
3.371675 -25.928463 0.561879 26.152803 -1.441484 1.549310 0.058762 -0.008971 -247103.000000 0 0 1
2.045675 -25.468113 0.425879 25.553687 -1.490645 1.554130 0.050552 -0.004192 21427.800000 0 0 1
0.913775 -26.510303 0.219079 26.526951 -1.536341 1.562538 0.067113 -0.004191 238195.000000 0 0 1
0.582175 -27.252493 1.348579 27.292049 -1.549437 1.521363 0.063906 -0.004936 -276674.000000 0 0 1
1.067775 -28.570573 1.277879 28.619063 -1.533440 1.526130 0.060982 -0.008443 109677.000000 0 0 1
0.266675 -29.652813 2.099079 29.728212 -1.561803 1.500129 0.093034 -0.017224 128588.000000 0 0 1
0.371675 -29.461443 3.471079 29.667544 -1.558181 1.453529 0.079945 -0.012022 -113671.000000 0 0 1
-0.105825 -30.544873 4.155479 30.826425 1.567332 1.435582 0.094193 -0.024150 -432367.000000 0 0 1
0.282775 -30.483283 5.637179 31.001424 -1.561520 1.387943 0.088498 -0.025122 -1094900.000000 0 0 1
1.608375 -30.745333 5.935179 31.354246 -1.518531 1.380353 0.059382 -0.008651 -826864.000000 0 0 1
1.759975 -30.665813 7.342779 31.581735 -1.513467 1.336148 0.067433 -0.010144 -491849.000000 0 0 1
3.209275 -30.956013 7.694979 32.059115 -1.467493 1.328405 0.070042 -0.015105 -473234.000000 0 0 1
3.356675 -32.355863 7.543779 33.392780 -1.467424 1.342919 0.063037 -0.014502 336885.000000 0 0 1
4.715975 -32.762943 7.701779 33.984824 -1.427836 1.342186 0.068779 -0.013746 525476.000000 0 0 1
4.902475 33.792366 7.378679 34.934269 1.426725 1.357977 0.035113 0.000947 -458297.000000 0 0 1
4.905675 33.517472 6.043379 34.409432 1.425466 1.394249 0.037708 -0.000917 4129.560000 0 0 1
4.690075 32.133607 5.818379 32.991196 1.425864 1.393507 0.027781 -0.002177 -542038.000000 0 0 1
4.995975 31.654014 4.414779 32.348518 1.414257 1.433894 0.034557 -0.006244 820939.000000 0 0 1
6.389275 31.592334 4.063079 32.487028 1.371247 1.445400 0.047378 -0.009204 538666.000000 0 0 1
7.051675 30.378824 4.362879 31.490217 1.342711 1.431802 0.028550 -0.010430 355849.000000 0 0 1
8.428875 30.377824 3.597779 31.730145 1.300137 1.457165 0.038126 -0.014446 466718.000000 0 0 1
9.453875 30.862174 4.469879 32.585723 1.273546 1.433190 0.044777 -0.016019 -951803.000000 0 0 1
10.570475 31.082854 3.679779 33.036639 1.242991 1.459180 0.036821 -0.021357 -1496160.000000 0 0 1
11.697075 31.590664 4.513579 33.987704 1.216179 1.437603 0.056992 -0.030078 -1008760.000000 0 0 1
12.280275 30.658494 5.403279 33.465562 1.189815 1.408629 0.064718 -0.029437 -720685.000000 0 0 1
13.264575 31.323014 6.115579 34.561256 1.170216 1.392911 0.106397 -0.031873 -655178.000000 0 0 1
14.017375 30.363944 7.023579 34.172892 1.138300 1.363790 0.089338 -0.032767 -419968.000000 0 0 1
13.497375 30.058524 8.261179 33.969708 1.148744 1.325140 0.078247 -0.025392 -82631.600000 0 0 1
14.287475 29.052344 8.905479 33.577942 1.113743 1.302366 0.069359 -0.030999 327948.000000 0 0 1
14.110075 29.071684 10.425979 33.955236 1.118934 1.258704 0.051436 -0.015567 24107.200000 0 0 1
14.851675 30.150904 10.963879 35.353301 1.113104 1.255474 0.067061 -0.019987 11777.900000 0 0 1
14.494575 30.336234 12.287979 35.796288 1.125068 1.220395 0.047063 -0.010712 72226.100000 0 0 1
15.445075 31.266554 13.103179 37.253738 1.111976 1.211380 0.053054 -0.014050 -57655.400000 0 0 1
16.531475 30.632204 13.696379 37.406047 1.075914 1.195924 0.051012 -0.017989 -963945.000000 0 0 1
17.299775 31.499734 14.428179 38.725803 1.068565 1.189016 0.049929 -0.010511 -358348.000000 0 0 1
18.340875 30.665084 15.253279 38.850966 1.031773 1.167329 0.042232 -0.013493 865658.000000 0 0 1
19.487075 30.252204 14.481479 38.789885 0.998542 1.188199 0.042807 -0.019306 790326.000000 0 0 1
20.082475 28.980634 14.817579 38.245831 0.964810 1.172954 0.037875 -0.013910 139575.000000 0 0 1
21.486375 28.671734 14.270679 38.566629 0.927684 1.191759 0.068931 -0.016364 377869.000000 0 0 1
22.528175 29.073404 15.162979 39.783130 0.911566 1.179766 0.079515 -0.020912 682492.000000 0 0 1
23.839875 28.813264 14.642279 40.161426 0.879574 1.197609 0.093596 -0.022725 821265.000000 0 0 1
24.906875 29.054584 15.748079 41.382644 0.862112 1.180408 0.106711 -0.036465 -117448.000000 0 0 1
24.737175 28.186624 16.835179 41.107625 0.850484 1.148848 0.096921 -0.029312 515436.000000 0 0 1
25.851075 28.220624 17.738979 42.182378 0.829192 1.136766 0.089916 -0.027426 368850.000000 0 0 1
26.866475 27.076044 17.798379 42.091590 0.789283 1.134210 0.059244 -0.022624 -90271.900000 0 0 1
26.419775 25.808914 18.348479 41.240408 0.773703 1.109717 0.072123 -0.014041 55499.000000 0 0 1
26.257575 25.855104 19.796979 41.831412 0.777675 1.077813 0.100789 -0.019513 -27633.400000 0 0 1
25.790075 24.488874 20.410779 41.005278 0.759524 1.049782 0.109550 -0.018446 20062.600000 0 0 1
26.764075 23.492754 20.328779 41.005907 0.720398 1.052095 0.063253 -0.010702 161449.000000 0 0 1
26.116475 22.258904 20.638879 40.043631 0.705824 1.029311 0.062110 -0.011466 454473.000000 0 0 1
27.056075 21.013304 20.455079 39.899879 0.660345 1.032516 0.032166 -0.008642 168492.000000 0 0 1
26.371975 19.785904 20.482679 38.813698 0.643669 1.014885 0.033870 0.009767 577725.000000 0 0 1
27.273175 18.632304 20.602879 38.929005 0.599343 1.013089 0.039408 -0.003024 629400.000000 0 0 1
27.909975 18.398804 22.021379 40.030286 0.582829 0.988291 0.068953 0.003009 48944.100000 0 0 1
26.933975 17.975204 22.967779 39.699696 0.588496 0.953861 0.045348 0.022680 391782.000000 0 0 1
27.513975 17.375604 24.100779 40.494172 0.563274 0.933323 0.078538 0.025265 -78462.000000 0 0 1
26.401075 16.658904 24.872379 39.914547 0.562898 0.898044 0.060179 0.017037 177017.000000 0 0 1
25.906575 15.507504 24.157579 38.668100 0.539385 0.895995 0.055403 0.015999 -54340.800000 0 0 1
24.870575 14.919704 24.887279 38.216747 0.540341 0.861613 0.054456 0.013438 -226731.000000 0 0 1
24.166575 13.756004 24.161279 36.837730 0.517477 0.855443 0.043043 0.006842 -217795.000000 0 0 1
23.117175 13.116904 24.827779 36.371356 0.516111 0.819456 0.037398 0.003713 -138853.000000 0 0 1
22.621075 11.970304 24.110879 35.161566 0.486707 0.815208 0.037723 0.003515 298740.000000 0 0 1
21.290575 11.419204 24.709879 34.558138 0.492303 0.774139 0.045018 -0.005025 161308.000000 0 0 1
20.247275 12.362404 24.741579 34.277207 0.548156 0.764384 0.054429 -0.010149 604496.000000 0 0 1
18.987575 11.658704 24.579179 33.175132 0.550663 0.736399 0.062810 -0.017165 592661.000000 0 0 1
17.773875 12.542404 24.848779 33.025510 0.614518 0.719081 0.056445 -0.021468 -443674.000000 0 0 1
17.539375 12.936704 26.231279 34.103782 0.635505 0.693270 0.079199 -0.021580 508662.000000 0 0 1
16.481275 13.895804 26.274779 33.986612 0.700490 0.687095 0.085515 -0.023036 225135.000000 0 0 1
16.073575 14.311804 27.669479 35.054067 0.727482 0.661068 0.087315 -0.018898 -32798.500000 0 0 1
15.542975 13.257104 28.490679 35.057862 0.706194 0.622067 0.084533 -0.016714 56685.600000 0 0 1
15.910775 13.442504 29.822479 36.376282 0.701507 0.609677 0.083681 -0.009807 485461.000000 0 0 1
17.363475 13.030404 30.253979 37.236876 0.643788 0.622414 0.089584 -0.009078 790763.000000 0 0 1
18.296375 14.082604 29.931379 37.801647 0.655986 0.657044 0.103226 -0.021591 498018.000000 0 0 1
19.594075 13.551804 29.725379 38.094321 0.605085 0.675635 0.088917 -0.008651 461195.000000 0 0 1
20.722375 14.588804 29.399479 38.814680 0.613414 0.711425 0.073284 -0.009633 228037.000000 0 0 1
20.703275 15.295404 28.140079 38.137108 0.636289 0.740893 0.081976 -0.017555 137856.000000 0 0 1
20.725375 14.521604 26.919379 36.946869 0.611174 0.754525 0.071280 -0.009812 -319212.000000 0 0 1
20.385775 15.414604 25.701779 36.245983 0.647422 0.782585 0.058616 -0.007671 -232485.000000 0 0 1
21.399375 16.309104 25.274079 36.914756 0.651219 0.816658 0.053314 0.005173 36275.900000 0 0 1
21.292875 16.776404 23.958579 36.178001 0.667312 0.846990 0.037171 -0.000014 -592779.000000 0 0 1
22.390075 17.772504 23.653379 37.103365 0.670929 0.879548 0.042474 0.000250 -614705.000000 0 0 1
22.404575 18.260804 22.359279 36.542568 0.683849 0.912374 0.051954 -0.006223 -518997.000000 0 0 1
23.641675 18.868704 22.113979 37.469786 0.673589 0.939513 0.055117 -0.005088 -153642.000000 0 0 1
23.973875 20.254904 22.817779 38.802820 0.701511 0.942157 0.080375 -0.015327 -609799.000000 0 0 1
23.043575 21.229704 22.444279 38.541566 0.744451 0.949193 0.077141 -0.014915 -86487.200000 0 0 1
23.272875 22.444404 23.061579 39.714159 0.767279 0.951221 0.107968 -0.022574 1325410.000000 0 0 1
22.109775 23.529364 22.693979 39.465045 0.816493 0.958143 0.096727 -0.032267 1447430.000000 0 0 1
22.447775 24.179604 21.513679 39.387742 0.822523 0.992972 0.113228 -0.031388 -354712.000000 0 0 1
21.576375 25.179484 21.185479 39.349344 0.862308 1.002265 0.111549 -0.033092 -455043.000000 0 0 1
22.154875 26.040504 20.011979 39.615977 0.865847 1.041241 0.114359 -0.034979 208460.000000 0 0 1
21.838975 25.512834 18.717379 38.447182 0.862829 1.062335 0.099964 -0.033653 93257.500000 0 0 1
22.294975 26.397344 17.705779 38.824995 0.869451 1.097255 0.099004 -0.039958 -178132.000000 0 0 1
22.017875 25.730634 16.334279 37.598683 0.862999 1.121383 0.081595 -0.027128 527249.000000 0 0 1
20.705375 25.451764 15.829579 36.429115 0.887869 1.121279 0.078350 -0.025147 278701.000000 0 0 1
20.764575 24.947044 14.518679 35.557202 0.876641 1.150185 0.086590 -0.017053 801047.000000 0 0 1
19.337875 24.461194 14.014579 34.186428 0.901842 1.148402 0.076223 -0.019035 1955100.000000 0 0 1
18.320275 25.464064 13.771279 34.259293 0.947132 1.157127 0.060131 -0.018691 50228.500000 0 0 1
17.684075 25.876554 14.911879 34.708597 0.971297 1.126713 0.064649 -0.021610 -1774780.000000 0 0 1
16.229175 26.252454 14.617279 34.150290 1.017104 1.128487 0.057853 -0.018438 -709341.000000 0 0 1
15.354075 25.179204 14.367779 32.805076 1.023208 1.117452 0.064628 -0.020193 45226.800000 0 0 1
14.996275 24.275974 15.425379 32.436915 1.017434 1.075207 0.084819 -0.026066 -490440.000000 0 0 1
14.089175 24.871884 16.500579 33.005826 1.055396 1.047279 0.089738 -0.031979 -416284.000000 0 0 1
14.801075 25.751284 17.324879 34.385344 1.049135 1.042752 0.074451 -0.027055 531689.000000 0 0 1
13.851775 26.557204 18.041779 34.966592 1.090032 1.028654 0.070515 -0.035205 149924.000000 0 0 1
14.398975 27.874514 18.491779 36.417920 1.093985 1.038207 0.071320 -0.031048 -548869.000000 0 0 1
14.505175 28.862074 17.445079 36.711717 1.105096 1.075615 0.058290 -0.022409 526224.000000 0 0 1
15.161875 30.031614 18.047879 38.177300 1.103265 1.078400 0.045366 -0.020066 159956.000000 0 0 1
14.945175 31.333504 17.215279 38.749355 1.125741 1.110434 0.040879 -0.014818 69228.400000 0 0 1
13.642175 31.887094 17.107579 38.672535 1.166533 1.112556 0.049373 -0.016586 258299.000000 0 0 1
13.744475 33.186668 16.661879 39.596511 1.178146 1.136479 0.041718 -0.014340 -173614.000000 0 0 1
12.379075 33.897203 16.580979 39.713860 1.220650 1.140092 0.051758 -0.021164 -150545.000000 0 0 1
12.398175 -32.896403 16.015979 38.631589 -1.210374 1.143312 0.055981 -0.026516 10090.500000 0 0 1
13.044575 -31.825213 16.737679 38.251209 -1.181800 1.117899 0.043082 -0.022059 -25169.800000 0 0 1
12.801575 -31.680203 18.265479 38.744591 -1.186771 1.079881 0.048122 -0.025849 -160245.000000 0 0 1
13.629475 -32.552913 19.050379 40.104509 -1.174285 1.075811 0.056520 -0.023389 510835.000000 0 0 1
13.281875 -32.416603 20.412279 40.545104 -1.181935 1.043214 0.051128 -0.024988 -1120610.000000 0 0 1
14.205975 -33.012593 21.431079 41.844141 -1.164428 1.033093 0.058796 -0.026003 -1252530.000000 0 0 1
15.390475 -32.298583 21.239279 41.607357 -1.126120 1.035066 0.058537 -0.024122 -111801.000000 0 0 1
16.416675 -32.813723 22.121779 42.844145 -1.106909 1.028235 0.060647 -0.021264 715346.000000 0 0 1
17.851575 -32.282763 21.895579 42.898390 -1.065672 1.035140 0.079461 -0.031555 297907.000000 0 0 1
17.914075 -30.969793 22.320279 42.169148 -1.046383 1.013017 0.082364 -0.025477 554391.000000 0 0 1
19.036875 -30.422673 21.620879 41.897542 -1.011661 1.028573 0.081436 -0.020247 117217.000000 0 0 1
-5.147925 13.557897 18.932262 23.848444 -1.207912 0.653670 0.030463 0.017012 -543657.000000 0 1 0
-4.822025 14.184297 17.759962 23.234941 -1.243098 0.700741 0.033431 -0.006987 339731.000000 0 1 0
-5.928725 14.926897 17.254962 23.573200 -1.192720 0.749582 0.036011 -0.007164 214186.000000 0 1 0
-5.663525 16.400197 17.311762 24.509980 -1.238285 0.786518 0.048943 -0.015044 -219275.000000 0 1 0
-5.645225 17.024797 18.543762 25.798903 -1.250617 0.768749 0.063668 -0.006985 322598.000000 0 0 1
-5.253225 18.409997 18.435962 26.578357 -1.292837 0.804258 0.070554 -0.001139 -313900.000000 0 0 1
-4.421125 18.794797 19.654162 27.551349 -1.339765 0.776508 0.068911 -0.003728 -90123.200000 0 0 1
-5.214325 18.982397 20.845462 28.671482 -1.302716 0.756788 0.057699 0.000186 313577.000000 0 0 1
-4.621425 19.912097 21.729662 29.833327 -1.342743 0.754858 0.066126 -0.009798 -389398.000000 0 0 1
-5.546425 20.434597 22.827662 31.135795 -1.305758 0.747833 0.046370 -0.004379 -133965.000000 0 0 1
-5.925225 19.355897 23.717762 31.181586 -1.273734 0.706508 0.046869 -0.010887 287493.000000 0 0 1
-6.675325 19.736797 24.884442 32.455147 -1.244657 0.697059 0.040137 -0.018864 673634.000000 0 0 1
-5.819625 20.500797 25.975562 33.598818 -1.294200 0.687067 0.041613 -0.019820 -245630.000000 0 0 1
-5.221425 21.654597 25.441472 33.814987 -1.334190 0.719140 0.056860 -0.020979 -336805.000000 0 0 1
-4.183325 22.126797 26.251752 34.586845 -1.383940 0.709006 0.066135 -0.014500 -539417.000000 0 0 1
-2.802725 21.608897 25.898552 33.845749 -1.441814 0.699454 0.077357 -0.012987 -1105030.000000 0 0 1
-2.566125 20.266697 26.349692 33.341120 -1.444849 0.659488 0.085561 -0.012152 576845.000000 0 0 1
-1.228625 19.933097 25.942772 32.739354 -1.509237 0.656057 0.081176 -0.006646 1078930.000000 0 0 1
-0.508425 18.870797 26.848242 32.820628 -1.543860 0.612820 0.084463 -0.004105 -55824.300000 0 0 1
-0.902425 17.558397 26.551302 31.844675 -1.519446 0.584886 0.089647 -0.010773 -68535.300000 0 0 1
-0.076825 16.486697 27.052292 31.680335 -1.566137 0.547335 0.088236 -0.008309 810603.000000 0 0 1
1.297775 16.258397 26.319112 30.963129 1.491143 0.554783 0.098410 -0.009905 -30431.200000 0 0 1
1.346675 16.088097 24.913472 29.687060 1.487285 0.574980 0.078034 -0.009205 -151743.000000 0 0 1
0.739075 14.860697 24.443562 28.615980 1.521104 0.546800 0.087070 -0.010178 101420.000000 0 0 1
0.801875 14.620197 22.910402 27.189698 1.516004 0.568679 0.083914 -0.021322 182200.000000 0 0 1
2.128275 14.373397 22.468662 26.757520 1.423794 0.574040 0.072003 -0.015605 -9279.690000 0 0 1
2.234975 13.832497 21.140562 25.362501 1.410607 0.585318 0.057536 -0.018207 -309475.000000 0 0 1
3.686275 13.552797 20.770462 25.073473 1.305227 0.594580 0.041039 -0.021031 -130795.000000 0 0 1
4.404375 14.673397 20.303862 25.435289 1.279192 0.646403 0.056062 -0.015697 369280.000000 0 0 1
5.817475 14.502897 20.206862 25.543968 1.189320 0.658253 0.058724 -0.013996 566414.000000 0 0 1
6.407675 15.587597 19.302162 25.624304 1.180779 0.717768 0.066666 -0.027821 -321371.000000 0 0 1
6.290775 15.196497 17.969362 24.359913 1.178312 0.741197 0.064026 -0.038136 264207.000000 0 1 0
6.670075 16.256097 17.080262 24.504815 1.181432 0.799568 0.063596 -0.027799 -167787.000000 0 1 0
6.555575 15.743297 15.615562 23.122992 1.176229 0.829389 0.058738 -0.023490 256934.000000 0 1 0
7.553975 14.915797 15.014562 22.471774 1.102009 0.839074 0.052904 -0.025510 109589.000000 0 1 0
7.840475 13.679597 15.609562 22.186998 1.050353 0.790422 0.054687 -0.028137 -215032.000000 0 1 0
8.967475 12.933897 14.890762 21.666474 0.964560 0.813069 0.057365 -0.028210 791550.000000 0 1 0
10.287475 13.490597 15.014362 22.655230 0.919301 0.846334 0.061754 -0.028716 902193.000000 0 1 0
11.264975 12.825997 14.219362 22.217023 0.850105 0.876271 0.068045 -0.018112 1580570.000000 0 1 0
12.674775 13.572897 14.160662 23.353754 0.819602 0.919328 0.078965 -0.009230 1267030.000000 0 1 0
13.514975 13.325297 15.297362 24.376780 0.778331 0.892409 0.083716 -0.016173 1029140.000000 0 1 0
14.812475 13.932197 15.204562 25.390830 0.754784 0.928768 0.074679 -0.014632 1176490.000000 0 0 1
15.946175 13.183897 14.439462 25.230809 0.690855 0.961495 0.083065 -0.016607 -244191.000000 0 0 1
17.161875 13.877697 14.388662 26.346803 0.679984 0.993064 0.074092 -0.024850 -169054.000000 0 0 1
18.072775 13.303697 13.504762 26.191452 0.634557 1.029069 0.075626 -0.020860 -166152.000000 0 0 1
19.527875 13.817297 13.561462 27.498525 0.615787 1.055066 0.056774 -0.027661 175035.000000 0 0 1
20.272475 13.311797 14.650462 28.333959 0.581032 1.027379 0.038190 -0.019268 -765853.000000 0 0 1
21.610175 13.639797 14.487062 29.375478 0.563027 1.055068 0.044861 -0.040731 -741644.000000 0 0 1
22.500075 13.265997 15.701562 30.475878 0.532736 1.029540 0.054058 -0.025069 -175548.000000 0 0 1
22.567275 11.880997 15.974862 30.093790 0.484599 1.011210 0.057411 -0.021072 263184.000000 0 0 1
23.458975 11.591497 17.031462 31.221099 0.458931 0.993797 0.043683 -0.013958 -388028.000000 0 0 1
23.795375 10.083997 17.213962 31.052011 0.400837 0.983204 0.069246 -0.017547 -508578.000000 0 0 1
22.818075 9.283297 17.828562 30.408910 0.386389 0.944320 0.045277 -0.013032 109215.000000 0 0 1
22.738475 8.061997 17.166162 29.609309 0.340725 0.952368 0.054580 -0.010054 229244.000000 0 0 1
21.829375 7.034197 17.937362 29.116155 0.311729 0.907063 0.088809 -0.011069 277912.000000 0 0 1
21.750875 5.733297 17.430662 28.456972 0.257727 0.911543 0.109349 -0.032889 627993.000000 0 0 1
20.771975 5.001297 18.205062 28.069774 0.236274 0.865099 0.101757 -0.032238 -104389.000000 0 0 1
20.212375 3.742297 17.571162 27.042386 0.183076 0.863523 0.125044 -0.019093 -995297.000000 0 0 1
19.168275 3.996097 16.654762 25.705499 0.205531 0.865963 0.120409 -0.032354 332635.000000 0 0 1
18.776875 2.852597 15.903362 24.771461 0.150768 0.873688 0.100851 -0.031431 -252583.000000 0 1 0
17.952175 1.800997 16.654062 24.553655 0.099987 0.825388 0.096608 -0.024974 -216578.000000 0 1 0
18.723375 1.013097 17.606662 25.721308 0.054056 0.816856 0.110923 -0.032807 632060.000000 0 0 1
17.861475 0.440197 18.557762 25.760757 0.024640 0.766434 0.095526 -0.019392 -125690.000000 0 0 1
18.681975 -0.315803 19.634562 27.104095 -0.016903 0.760614 0.093929 -0.015068 164387.000000 0 0 1
19.170675 -1.562903 19.184262 27.166033 -0.081346 0.786700 0.097117 -0.017841 197298.000000 0 0 1
18.386075 -2.645303 19.700462 27.076809 -0.142895 0.756013 0.068220 -0.016055 -29953.400000 0 0 1
18.605175 -3.948603 18.942262 26.843124 -0.209128 0.787435 0.064218 -0.014588 -135168.000000 0 0 1
18.281575 -3.705703 17.624662 25.662754 -0.199992 0.813747 0.090043 -0.026243 180140.000000 0 0 1
18.147175 -4.891903 16.909062 25.281754 -0.263309 0.838170 0.096771 -0.027805 -371314.000000 0 0 1
17.620575 -4.679303 15.501362 23.930582 -0.259568 0.866151 0.079047 -0.031666 429682.000000 0 1 0
16.199375 -4.696503 15.263562 22.747598 -0.282182 0.835244 0.084967 -0.032797 996307.000000 0 1 0
15.740075 -4.510403 13.928862 21.496672 -0.279077 0.865901 0.077895 -0.028099 215912.000000 0 1 0
16.142075 -3.222503 13.199662 21.099341 -0.197043 0.894901 0.074186 -0.026326 -201320.000000 0 1 0
15.436575 -2.100603 13.712862 20.754348 -0.135249 0.849016 0.069298 -0.013437 279432.000000 0 1 0
15.646175 -0.962603 12.916962 20.311999 -0.061446 0.881586 0.055657 -0.019317 -50448.900000 0 1 0
14.696975 0.212397 13.249662 19.788879 0.014451 0.837192 0.065005 -0.009717 -586741.000000 0 1 0
14.917875 1.525497 12.670362 19.631816 0.101905 0.869250 0.063886 -0.012528 -487841.000000 0 1 0
15.963075 2.222397 13.261962 20.871954 0.138332 0.882275 0.087707 -0.025667 -432149.000000 0 1 0
16.278175 3.600697 12.621362 20.910351 0.217693 0.922795 0.090409 -0.027406 117109.000000 0 1 0
15.245975 4.541697 12.926862 20.498062 0.289524 0.888421 0.079375 -0.020336 633652.000000 0 1 0
15.403575 5.755097 12.273962 20.519294 0.357561 0.929585 0.096620 -0.022148 96328.900000 0 1 0
14.181675 6.721097 12.402462 20.002853 0.442574 0.902009 0.082650 -0.024912 112896.000000 0 1 0
14.444175 8.007897 11.817062 20.307722 0.506218 0.949733 0.076845 -0.025625 551144.000000 0 1 0
13.417075 8.977597 12.050362 20.145133 0.589697 0.929572 0.060713 -0.015891 -45081.100000 0 1 0
13.558375 9.761497 13.374562 21.400824 0.623997 0.895722 0.061983 -0.020036 -132264.000000 0 1 0
13.171175 9.119597 14.578662 21.660662 0.605601 0.832474 0.070231 -0.022074 455528.000000 0 1 0
13.690975 9.823697 15.682262 23.019148 0.622395 0.821300 0.095426 -0.025435 -97908.900000 0 1 0
13.361275 9.202497 17.050162 23.535455 0.603132 0.760566 0.091557 -0.029812 1145910.000000 0 1 0
12.012375 9.582497 17.438162 23.242438 0.673348 0.722322 0.071386 -0.037061 800192.000000 0 1 0
11.424875 8.939197 18.551562 23.549893 0.663937 0.663639 0.080031 -0.026682 -169638.000000 0 1 0
12.018775 8.970997 19.981062 24.983446 0.641203 0.643881 0.091313 -0.035983 559853.000000 0 1 0
13.372975 8.482597 20.033562 25.536925 0.565265 0.668917 0.117685 -0.039098 852507.000000 0 0 1
14.024775 8.716197 21.275662 26.931770 0.556068 0.660014 0.106021 -0.034062 327707.000000 0 0 1
15.499175 8.232597 21.193762 27.516825 0.488267 0.691624 0.098337 -0.035334 300819.000000 0 0 1
16.302875 9.044497 20.365762 27.610703 0.506505 0.741281 0.100518 -0.026998 -59159.100000 0 0 1
17.435775 8.351197 19.889362 27.736897 0.446682 0.771203 0.085513 -0.023138 -108496.000000 0 0 1
18.320575 9.179197 18.935962 27.901107 0.464473 0.824831 0.097354 -0.021183 -373428.000000 0 0 1
19.098075 10.062197 19.696862 29.222434 0.484912 0.831143 0.073816 -0.017597 83178.200000 0 0 1
19.703675 11.112397 18.892562 29.472853 0.513510 0.874975 0.066903 -0.015259 729977.000000 0 0 1
20.793175 11.954197 19.627162 30.991684 0.521766 0.884981 0.041498 -0.002356 244215.000000 0 0 1
20.121175 12.966897 20.373862 31.434000 0.572457 0.865647 0.041762 0.003799 750933.000000 0 0 1
21.017875 13.703697 21.190362 32.841648 0.577781 0.869474 0.032973 0.008099 692475.000000 0 0 1
22.208275 14.569697 20.626662 33.629492 0.580615 0.910501 0.012560 0.013339 947295.000000 0 0 1
23.370175 13.844597 20.249562 33.880418 0.534816 0.930195 -0.013673 0.022945 -318336.000000 0 0 1
24.512275 14.586197 20.082362 34.884238 0.536777 0.957354 -0.010022 0.004660 -987626.000000 0 0 1
25.831375 13.847097 19.989862 35.476705 0.492076 0.972223 0.010948 0.003510 -516753.000000 0 0 1
26.020175 13.161797 18.720162 34.651506 0.468301 1.000073 0.031467 -0.015933 323821.000000 0 0 1
26.859975 12.027397 18.946262 35.001106 0.421007 0.998808 0.071589 -0.024459 101762.000000 0 0 1
27.257675 11.335397 17.606962 34.372623 0.394104 1.033008 0.117551 -0.029253 -16639.600000 0 0 1
27.997575 12.150097 16.661762 34.772164 0.409443 1.071088 0.117312 -0.044981 479319.000000 0 0 1
28.269775 11.632097 15.386562 34.223269 0.390353 1.104486 0.148241 -0.051181 389624.000000 0 0 1
27.032675 11.337297 14.446762 32.680403 0.397111 1.112900 0.121197 -0.060762 251538.000000 0 0 1
26.460275 12.456997 13.914462 32.387269 0.440000 1.126716 0.140783 -0.067831 493437.000000 0 0 1
25.300275 12.175097 13.099962 30.982994 0.448514 1.134251 0.126525 -0.058390 677396.000000 0 0 1
24.957875 13.421697 12.262262 30.877185 0.493408 1.162409 0.107428 -0.058199 -219052.000000 0 0 1
24.323775 14.422097 13.024162 31.133129 0.535199 1.139182 0.071096 -0.054047 53582.800000 0 0 1
24.229975 15.573297 12.249562 31.299697 0.571246 1.168683 0.049211 -0.040765 -299513.000000 0 0 1
23.364575 16.696897 12.825962 31.451471 0.620474 1.150751 0.053504 -0.035467 489361.000000 0 0 1
21.973275 16.369997 12.773762 30.231947 0.640291 1.134567 0.071854 -0.047549 766986.000000 0 0 1
21.084775 17.432697 13.114862 30.339187 0.690865 1.123783 0.060793 -0.038049 -217742.000000 0 0 1
20.322775 18.115397 11.939262 29.727576 0.728034 1.157509 0.093634 -0.030061 1245800.000000 0 0 1
19.214875 17.275397 11.477362 28.273320 0.732298 1.152786 0.093132 -0.030251 617221.000000 0 0 1
18.023275 17.302297 12.201862 27.804557 0.764991 1.116485 0.083305 -0.022997 -2023320.000000 0 0 1
16.856275 16.831397 11.461062 26.434559 0.784660 1.122353 0.084519 -0.019129 -1385520.000000 0 0 1
16.947275 15.455297 11.158162 25.506488 0.739386 1.118020 0.087015 -0.023351 -625489.000000 0 0 1
15.749675 14.991897 10.675462 24.223434 0.760753 1.114409 0.086026 -0.026078 -732546.000000 0 1 0
15.940675 13.668597 9.881562 23.207347 0.708813 1.130956 0.092836 -0.028705 -38158.600000 0 1 0
16.451575 12.621197 10.692062 23.329576 0.654401 1.094709 0.117796 -0.019869 398429.000000 0 1 0
16.615875 11.459297 9.968662 22.511709 0.603752 1.112054 0.094004 -0.022559 -272136.000000 0 1 0
17.060175 10.336497 10.866662 22.715129 0.544735 1.071977 0.107993 -0.028927 -696834.000000 0 1 0
17.468475 9.191497 10.128362 22.185918 0.484369 1.096714 0.097196 -0.026170 971752.000000 0 1 0
18.196475 8.181797 10.902462 22.735813 0.422551 1.070679 0.113362 -0.019313 1726000.000000 0 1 0
19.565575 8.535797 11.643462 24.315464 0.411374 1.071452 0.101883 -0.025029 551590.000000 0 1 0
19.376475 9.395397 12.682162 24.991169 0.451484 1.038555 0.092409 -0.026771 -93518.800000 0 1 0
20.377175 9.342897 13.677662 26.260187 0.429898 1.022948 0.090292 -0.026097 -953898.000000 0 0 1
19.899775 9.582797 15.152562 26.784906 0.448781 0.969499 0.068729 -0.016257 20310.000000 0 0 1
19.218775 8.499897 15.758462 26.266684 0.416408 0.927369 0.089842 -0.020501 1344880.000000 0 0 1
17.968275 8.074797 15.159962 24.857307 0.422348 0.914888 0.111758 -0.028437 257599.000000 0 1 0
17.398275 6.806697 15.779762 24.454693 0.372922 0.869426 0.109656 -0.026275 -177743.000000 0 1 0
16.386675 6.944597 16.750362 24.440237 0.400850 0.815698 0.124531 -0.026526 -22896.300000 0 1 0
15.877875 5.696097 17.056062 23.988783 0.344443 0.779875 0.118649 -0.024677 -354045.000000 0 1 0
14.517075 5.739497 17.810862 23.683625 0.376502 0.719656 0.101589 -0.025918 436154.000000 0 1 0
13.860475 4.478397 17.877862 23.060502 0.312518 0.683671 0.087545 -0.020534 336471.000000 0 1 0
13.337475 3.857997 16.710762 21.726066 0.281575 0.693275 0.078731 -0.023590 -733682.000000 0 1 0
13.077075 2.335797 16.793762 21.412527 0.176754 0.669236 0.064688 -0.018974 -1114140.000000 0 1 0
14.189075 1.608997 17.084262 22.266359 0.112915 0.696226 0.077727 -0.015325 -1077020.000000 0 1 0
14.168275 0.284297 16.686662 21.892134 0.020063 0.704058 0.074810 -0.021440 -303041.000000 0 1 0
13.500075 -0.726503 17.591962 22.186865 -0.053763 0.655243 0.079049 -0.020805 -344982.000000 0 1 0
12.118475 -0.566303 17.740262 21.491744 -0.046697 0.599805 0.069343 -0.005394 -302331.000000 0 1 0
11.541775 -1.601403 18.565062 21.918910 -0.137868 0.560502 0.074107 -0.011639 117535.000000 0 1 0
-26.114335 14.019597 28.477972 41.103558 -0.492695 0.805384 0.115829 -0.018506 139133.000000 0 0 1
-25.028725 13.995997 29.401932 41.070654 -0.509877 0.772903 0.107293 -0.020324 412171.000000 0 0 1
-24.585225 12.679297 29.625772 40.532509 -0.476151 0.751136 0.080512 -0.013346 398023.000000 0 0 1
-23.473225 12.674497 30.743242 40.703589 -0.495099 0.714691 0.079968 -0.018826 250046.000000 0 0 1
-23.982325 13.033597 32.040253 42.090431 -0.497813 0.705598 0.078448 -0.020497 -3813.900000 0 0 1
-22.978625 13.002097 33.010833 42.270402 -0.514919 0.674620 0.057852 -0.010394 -959271.000000 0 0 1
-23.473625 13.201397 -33.448181 42.942622 -0.512308 2.463713 0.048454 -0.007468 -230086.000000 0 0 1
-24.179225 12.076397 -32.960681 42.624885 -0.463210 2.454784 0.050275 -0.015273 -147834.000000 0 0 1
-24.897925 12.444497 -31.835311 42.287814 -0.463504 2.423139 0.033902 -0.015594 -402469.000000 0 0 1
-25.703375 11.218697 -31.349411 42.063146 -0.411544 2.411772 0.033126 -0.020639 -274577.000000 0 0 1
-24.969425 10.273597 -30.627131 40.829403 -0.390335 2.419046 0.025196 -0.023398 354191.000000 0 0 1
-24.303825 9.195797 -31.301411 40.681899 -0.361720 2.448727 0.019910 -0.024481 282828.000000 0 0 1
-23.320525 8.400597 -30.413471 39.235139 -0.345753 2.457763 0.024612 -0.017142 -307007.000000 0 0 1
-23.977925 7.660197 -29.396591 38.701151 -0.309221 2.433462 0.026960 -0.015016 471265.000000 0 0 1
-23.128725 6.688297 -28.755841 37.504261 -0.281498 2.444536 0.025342 -0.009643 -81128.600000 0 0 1
-23.662925 5.789097 -27.578181 36.796790 -0.239936 2.418061 0.027664 -0.009477 -143173.000000 0 0 1
-24.507125 4.722597 -27.978371 37.492551 -0.190369 2.413189 0.043748 -0.012010 200379.000000 0 0 1
-24.922425 3.912097 -26.919251 36.892789 -0.155700 2.388623 0.069977 -0.005490 -184101.000000 0 0 1
-25.844015 2.764697 -27.481161 37.825532 -0.106571 2.384046 0.064323 -0.003673 1104620.000000 0 0 1
-27.204105 3.063197 -27.825951 39.034985 -0.112128 2.364345 0.079523 -0.006538 824309.000000 0 0 1
-27.381905 3.992397 -28.908931 40.017924 -0.144784 2.378063 0.066360 -0.008492 -374498.000000 0 0 1
-28.768315 4.055297 -29.622691 41.491749 -0.140041 2.365908 0.082465 -0.014126 1389380.000000 0 0 1
-29.926135 4.557697 -28.855551 41.820916 -0.151137 2.332256 0.074505 -0.002632 1953500.000000 0 0 1
-31.130015 4.325497 -29.607351 43.178502 -0.138065 2.326357 0.096624 -0.021201 599335.000000 0 0 1
-31.591895 5.599097 -30.340401 44.158098 -0.175411 2.328267 0.109774 -0.042964 -950996.000000 0 0 1
-30.823065 5.846897 -31.483221 44.445931 -0.187465 2.357952 0.100278 -0.033194 1613.250000 0 0 1
-31.038505 7.029097 -32.232991 45.296387 -0.222707 2.362572 0.106489 -0.034118 -814490.000000 0 0 1
-30.556335 8.348097 -31.551551 44.708844 -0.266695 2.354223 0.078074 -0.039356 1622690.000000 0 0 1
-29.094405 8.399597 -31.405431 43.627270 -0.281059 2.374394 0.044221 -0.043630 2110960.000000 0 0 1
-28.497025 7.776197 -30.261141 42.288135 -0.266392 2.368271 0.037508 -0.046163 -522498.000000 0 0 1
-28.522005 8.644997 -28.976771 41.567944 -0.294298 2.342133 0.038563 -0.035876 644358.000000 0 0 1
-29.821325 8.967197 -28.427511 42.164504 -0.292097 2.310684 0.039912 -0.039561 893141.000000 0 0 1
-30.309725 7.922297 -27.636921 41.776089 -0.255658 2.293679 0.037951 -0.022768 -637867.000000 0 0 1
-31.684725 8.095297 -26.982771 42.397235 -0.250144 2.260654 0.047201 -0.015476 -329566.000000 0 0 1
-31.677745 8.915597 -25.834711 41.837778 -0.274350 2.236353 0.015900 -0.013330 -13507.200000 0 0 1
-31.498485 8.129697 -24.657321 40.819481 -0.252586 2.219379 0.024347 -0.012029 -239599.000000 0 0 1
-31.195885 8.924197 -23.384321 39.995637 -0.278628 2.195272 0.031140 -0.009504 -363852.000000 0 0 1
-32.175565 9.721297 -22.800721 40.615803 -0.293412 2.166843 0.032356 -0.013140 -276314.000000 0 0 1
-31.536525 10.609297 -21.905921 39.836905 -0.324520 2.153029 0.034991 -0.010936 113437.000000 0 0 1
-32.501605 11.479097 -21.051421 40.389186 -0.339510 2.119070 0.022797 -0.003682 27545.500000 0 0 1
-32.933365 10.835997 -19.840321 39.945759 -0.317871 2.090567 0.030492 -0.011650 226208.000000 0 0 1
-33.434205 11.870497 -18.987821 40.240429 -0.341158 2.062195 0.028545 -0.003138 396749.000000 0 0 1
-32.300515 12.395797 -18.051321 39.023445 -0.366433 2.051695 0.026606 -0.003099 424436.000000 0 0 1
-31.824605 11.548097 -16.969921 37.870071 -0.348091 2.035445 0.062941 -0.000836 759681.000000 0 0 1
-32.816415 11.180797 -15.987921 38.177754 -0.328373 2.002893 0.066667 -0.005802 409043.000000 0 0 1
-33.407185 12.239397 -15.027421 38.622095 -0.351183 1.970438 0.059387 -0.003729 87976.500000 0 0 1
-34.015415 13.328197 -15.717321 39.770887 -0.373442 1.977078 0.034510 -0.002345 249409.000000 0 0 1
-34.749788 14.170397 -14.864121 40.364465 -0.387198 1.947920 0.022972 0.001502 -106811.000000 0 0 1
-35.386697 15.418097 -15.471821 41.585013 -0.410901 1.952016 0.029535 -0.004247 586175.000000 0 0 1
-36.498665 15.076597 -16.319621 42.729221 -0.391725 1.962681 0.040826 -0.012967 1265180.000000 0 0 1
37.074566 16.197197 -16.744121 43.786279 0.411891 1.963195 0.044311 -0.014042 23343.900000 0 0 1
36.657256 16.256497 -18.258221 44.061216 0.417413 1.998061 0.044600 -0.012091 326535.000000 0 0 1
35.602936 15.368297 -18.633121 43.022631 0.407497 2.018726 0.074910 -0.015841 1314380.000000 0 0 1
34.291236 15.937897 -18.397221 42.051910 0.435077 2.023600 0.120106 -0.029195 601646.000000 0 0 1
33.183686 14.942697 -18.844421 40.982355 0.423105 2.048586 0.122188 -0.029778 -134351.000000 0 0 1
32.850086 14.716397 -20.224621 41.288446 0.421178 2.082699 0.115308 -0.025703 248099.000000 0 0 1
31.936016 13.646597 -20.411821 40.283758 0.403826 2.102150 0.077704 -0.024275 -67839.000000 0 0 1
32.415876 12.201497 -20.157821 40.074971 0.360002 2.097866 0.066350 -0.002908 -142958.000000 0 0 1
32.593306 12.009997 -18.787721 39.491038 0.353043 2.066609 0.079267 0.000265 59301.900000 0 0 1
33.249816 10.782397 -18.574021 39.582883 0.313585 2.059231 0.071326 0.002751 -90549.400000 0 0 1
33.367256 10.531997 -17.072621 38.932905 0.305742 2.024741 0.056853 0.010185 170875.000000 0 0 1
32.137286 10.124197 -16.495421 37.515376 0.305188 2.026058 0.068455 0.004115 329339.000000 0 0 1
32.319606 9.880997 -15.102021 37.017051 0.296703 1.991031 0.042568 0.006788 -121055.000000 0 0 1
31.866486 10.975797 -14.132421 36.546770 0.331705 1.967840 0.063813 -0.000929 -74116.800000 0 0 1
30.452196 10.991997 -14.052721 35.293614 0.346404 1.980313 0.063804 0.008315 178686.000000 0 0 1
30.019346 12.033397 -13.208121 34.934485 0.381243 1.958521 0.075247 0.001909 420674.000000 0 0 1
28.463976 12.123197 -13.174621 33.626485 0.402644 1.973376 0.092739 0.002771 436123.000000 0 0 1
27.803276 10.967897 -12.608621 32.439085 0.375741 1.970001 0.080251 0.003802 423420.000000 0 0 1
26.405076 10.949797 -12.846221 31.339296 0.393102 1.993149 0.085908 0.006309 170201.000000 0 0 1
25.905276 10.300897 -14.182221 31.278222 0.378468 2.041397 0.076023 -0.001419 -488268.000000 0 0 1
26.143376 8.883397 -14.328721 31.107927 0.327555 2.049482 0.069586 0.004054 619342.000000 0 0 1
27.536176 8.645497 -14.481721 32.290956 0.304222 2.035856 0.070013 -0.003112 -67401.100000 0 0 1
28.102876 7.468197 -13.636221 32.116851 0.259742 2.009296 0.069469 -0.005538 -273759.000000 0 0 1
27.624876 6.168097 -13.972621 31.566016 0.219677 2.029345 0.068797 -0.015499 1027410.000000 0 0 1
26.422176 5.864897 -13.239521 30.129941 0.218427 2.025743 0.089061 -0.014381 336311.000000 0 0 1
26.164676 4.344797 -13.239621 29.643804 0.164554 2.033784 0.087702 -0.012807 -273842.000000 0 0 1
25.459876 3.942297 -12.087621 28.457997 0.153623 2.009485 0.098707 -0.007881 357106.000000 0 0 1
25.161476 2.549397 -12.036921 28.008691 0.100977 2.015020 0.093178 -0.016141 -35464.300000 0 0 1
24.475876 2.045997 -10.752421 26.811736 0.083399 1.983442 0.104275 -0.017109 17582.500000 0 0 1
25.388976 2.019097 -9.662921 27.240575 0.079360 1.933417 0.118272 -0.008546 555421.000000 0 0 1
25.019976 1.037897 -8.714321 26.514446 0.041459 1.905684 0.143258 -0.001977 -526590.000000 0 0 1
26.142776 0.640697 -7.732421 27.269866 0.024503 1.858292 0.187091 -0.000136 -374590.000000 0 0 1
25.925276 -0.432303 -6.878721 26.825802 -0.016673 1.830115 0.140711 -0.013393 289880.000000 0 0 1
26.112476 -1.631703 -7.612421 27.248354 -0.062406 1.853936 0.119800 -0.014489 -412025.000000 0 0 1
26.327176 -2.913903 -6.730021 27.329548 -0.110232 1.819610 0.121152 -0.021457 -281538.000000 0 0 1
27.677176 -2.937703 -6.323821 28.542020 -0.105746 1.794212 0.118852 -0.027546 307119.000000 0 0 1
27.945276 -3.992303 -5.356521 28.732721 -0.141901 1.758319 0.110992 -0.041970 827967.000000 0 0 1
29.481716 -4.011403 -4.992921 30.169392 -0.135234 1.737057 0.143388 -0.039279 810829.000000 0 0 1
30.275126 -4.452103 -6.092121 31.201257 -0.146008 1.767311 0.118263 -0.026373 -834406.000000 0 0 1
31.555286 -4.661903 -5.602221 32.386020 -0.146677 1.744654 0.109916 -0.022902 -761416.000000 0 0 1
32.506796 -4.921503 -6.835921 33.580393 -0.150258 1.775798 0.115280 -0.033192 -7923.560000 0 0 1
32.364916 -6.176103 -7.398821 33.769433 -0.188560 1.791686 0.107210 -0.045704 -172436.000000 0 0 1
32.848736 -6.172303 -8.685521 34.533680 -0.185735 1.825035 0.116232 -0.036775 -715643.000000 0 0 1
31.887586 -6.878203 -9.703721 34.033660 -0.212447 1.859929 0.098854 -0.036549 441669.000000 0 0 1
30.658226 -6.262503 -10.014621 32.854808 -0.201496 1.880540 0.101956 -0.043262 -32721.300000 0 0 1
29.713696 -6.477603 -9.007021 31.717338 -0.214642 1.858737 0.118949 -0.042272 -901121.000000 0 0 1
28.361976 -5.734003 -9.187621 30.359395 -0.199483 1.878246 0.121859 -0.034263 225399.000000 0 0 1
27.479176 -6.217703 -10.204721 29.965001 -0.222523 1.918303 0.103465 -0.032990 475419.000000 0 0 1
26.299976 -5.442703 -10.259121 28.749979 -0.204066 1.935679 0.097205 -0.030734 -248356.000000 0 0 1
25.076776 -6.155503 -9.680221 27.576105 -0.240707 1.929474 0.127222 -0.026763 -1028880.000000 0 0 1
25.145276 -6.320703 -8.273321 27.215511 -0.246265 1.879677 0.126945 -0.036433 823644.000000 0 0 1
23.957976 -6.900103 -7.720521 26.099856 -0.280420 1.871097 0.123078 -0.042640 219819.000000 0 0 1
22.910576 -5.865503 -7.289521 24.747439 -0.250634 1.869788 0.138747 -0.035764 -503930.000000 0 1 0
22.207576 -5.296903 -8.364421 24.314546 -0.234143 1.921979 0.131916 -0.033307 258757.000000 0 1 0
21.584076 -4.062303 -8.088221 23.404999 -0.186032 1.923650 0.100984 -0.029308 -75314.700000 0 1 0
21.617476 -3.038903 -9.272621 23.717751 -0.139661 1.972467 0.107453 -0.020482 -598646.000000 0 1 0
22.935876 -2.845303 -9.687221 25.059777 -0.123424 1.967700 0.109362 -0.022706 110230.000000 0 0 1
22.975576 -2.239503 -10.983421 25.564194 -0.097166 2.014891 0.119382 -0.016829 -523599.000000 0 0 1
24.386176 -2.240503 -11.563221 27.081608 -0.091619 2.011943 0.104787 -0.025380 -587467.000000 0 0 1
25.305176 -1.379103 -10.921821 27.596015 -0.054445 1.977708 0.090716 -0.017610 1150660.000000 0 0 1
26.562476 -1.454803 -11.620921 29.029767 -0.054714 1.982652 0.080113 -0.014726 484967.000000 0 0 1
27.644076 -0.419703 -11.257021 29.851158 -0.015181 1.957465 0.075935 -0.005419 -1075000.000000 0 0 1
28.807176 -0.548103 -12.001621 31.212060 -0.019024 1.965483 0.074644 -0.014824 -609598.000000 0 0 1
29.770216 0.376197 -11.639921 31.967093 0.012636 1.943486 0.087906 -0.010992 -569034.000000 0 0 1
29.622096 1.706397 -12.367421 32.145505 0.057542 1.965714 0.083492 -0.011466 -478610.000000 0 0 1
29.841586 1.472697 -13.752021 32.890837 0.049310 2.002161 0.053281 -0.018625 369780.000000 0 0 1
30.110106 2.693397 -14.504421 33.529854 0.089214 2.018151 0.060907 -0.018158 -120793.000000 0 0 1
30.444876 2.413797 -15.963121 34.460675 0.079119 2.052429 0.066254 -0.018427 -184867.000000 0 0 1
29.374096 1.843297 -16.676921 33.828316 0.062670 2.086316 0.050339 -0.012203 -340968.000000 0 0 1
29.693866 1.738697 -18.042921 34.789305 0.058487 2.116049 0.039592 -0.013849 -239370.000000 0 0 1
28.633376 1.015297 -18.866121 34.304979 0.035444 2.153104 0.014161 -0.007873 -696964.000000 0 0 1
28.696076 -0.387703 -18.626521 34.213482 -0.013510 2.146494 0.041235 -0.014845 150228.000000 0 0 1
28.275176 -1.102103 -19.750621 34.507785 -0.038958 2.180168 0.029743 -0.015190 -240470.000000 0 0 1
28.155176 -2.638003 -19.668121 34.445725 -0.093422 2.178506 0.040322 -0.023406 194490.000000 0 0 1
26.944976 -3.121303 -19.088521 33.168447 -0.115326 2.184015 0.026779 -0.019996 514065.000000 0 0 1
26.829576 -4.566703 -19.087221 33.241584 -0.168596 2.182419 0.038918 -0.020205 -190651.000000 0 0 1
27.651776 -5.346503 -18.015621 33.433044 -0.190994 2.139876 0.055264 -0.016247 -1299750.000000 0 0 1
28.999876 -5.175203 -18.176921 34.614679 -0.176597 2.123655 0.059298 -0.017341 -1217990.000000 0 0 1
29.713406 -5.581203 -17.028421 34.698753 -0.185671 2.083747 0.057409 -0.016568 -59786.800000 0 0 1
31.249786 -5.458003 -17.123021 36.049088 -0.172913 2.065751 0.072145 -0.011133 76721.700000 0 0 1
31.866846 -6.371403 -18.041421 37.169659 -0.197336 2.077594 0.060596 -0.013681 -155433.000000 0 0 1
33.159956 -5.875403 -18.286621 38.321059 -0.175364 2.068256 0.067844 -0.005748 -669571.000000 0 0 1
34.019186 -6.899903 -18.958421 39.551680 -0.200109 2.070691 0.064238 0.005346 -623394.000000 0 0 1
34.237856 -8.047503 -18.166421 39.585502 -0.230856 2.047571 0.061980 -0.007773 -198567.000000 0 0 1
34.787316 -9.157403 -18.821121 40.598645 -0.257400 2.052839 0.048526 0.001216 -197191.000000 0 0 1
35.572196 -10.028103 -17.827321 41.033613 -0.274778 2.020231 0.058092 -0.005586 -865493.000000 0 0 1
34.756466 -10.570603 -16.815121 40.031211 -0.295245 2.004297 0.033582 -0.006593 -277732.000000 0 0 1
35.357576 -11.406503 -15.874021 40.401127 -0.312063 1.974591 0.053458 -0.020985 -601598.000000 0 0 1
36.359996 -10.703003 -14.895321 40.724368 -0.286276 1.945245 0.086234 -0.023966 -186195.000000 0 0 1
36.855596 -11.469103 -13.805121 40.993373 -0.301691 1.914275 0.076155 -0.019596 735185.000000 0 0 1
-36.759715 -12.654603 -14.132721 41.366042 0.331545 1.919469 0.075875 -0.012505 507698.000000 0 0 1
-35.308822 -12.511703 -14.693121 40.238581 0.340545 1.944590 0.108404 -0.017879 244370.000000 0 0 1
-35.343991 -12.085703 -16.014221 40.641324 0.329481 1.975817 0.107520 -0.017925 89857.700000 0 0 1
-34.059055 -12.116103 -16.618421 39.786821 0.341778 2.001694 0.141298 -0.017700 26832.300000 0 0 1
-33.923365 -11.438903 -18.067821 40.100989 0.325225 2.038187 0.160205 -0.022345 108561.000000 0 0 1
-33.994125 -10.034103 -18.131621 39.812554 0.287021 2.043646 0.144870 -0.021306 293836.000000 0 0 1
-35.270337 -9.424103 -17.932221 40.674008 0.261097 2.027371 0.116877 -0.019704 -223872.000000 0 0 1
-35.423445 -7.903603 -18.076921 40.547040 0.219522 2.032893 0.144397 -0.019765 -474315.000000 0 0 1
-36.670665 -7.517603 -17.578421 41.355204 0.202202 2.009824 0.122583 -0.008127 -190896.000000 0 0 1
-36.761615 -6.143703 -17.745821 41.280450 0.165592 2.015161 0.120446 -0.011795 -164254.000000 0 0 1
25.524575 28.107697 -27.691221 46.993088 0.833525 2.200941 0.053722 0.011980 -705.279000 0 0 1
25.732475 27.327697 -26.576321 45.992001 0.815454 2.186884 0.048902 0.013320 -344786.000000 0 0 1
26.966875 26.667197 -26.648191 46.351676 0.779811 2.183294 0.051034 0.005719 -411886.000000 0 0 1
27.168575 25.485397 -25.688861 45.249912 0.753442 2.174519 0.057527 0.003489 -334061.000000 0 0 1
27.451675 25.860597 -24.373221 44.904553 0.755563 2.144538 0.056526 0.003501 295398.000000 0 0 1
27.703475 24.737897 -23.498321 43.950167 0.728908 2.134900 0.070845 -0.000952 35568.600000 0 0 1
28.427575 25.129597 -22.172221 43.945774 0.723897 2.099641 0.072665 -0.005569 -18124.300000 0 0 1
27.632875 25.913997 -21.343521 43.481685 0.753309 2.083876 0.059048 -0.007443 136507.000000 0 0 1
28.369875 26.469797 -20.228421 43.757159 0.750764 2.051370 0.035966 0.001447 275111.000000 0 0 1
27.586575 27.591797 -19.513421 43.624534 0.785493 2.034545 0.041916 -0.002495 -195241.000000 0 0 1
26.589875 27.114997 -18.657021 42.312279 0.795176 2.027438 0.056572 -0.004314 -192557.000000 0 0 1
25.938275 28.182097 -17.997321 42.319360 0.826834 2.010061 0.052925 -0.012620 -56001.100000 0 0 1
24.814375 27.699597 -17.066721 40.918136 0.840285 2.001042 0.057930 -0.017732 89497.000000 0 0 1
23.717175 27.084797 -17.702121 40.118022 0.851591 2.027789 0.068795 -0.017358 462591.000000 0 0 1
22.508675 27.033097 -16.954421 39.049727 0.876471 2.019919 0.046065 -0.006364 752169.000000 0 0 1
21.485075 25.993897 -17.510721 37.998901 0.880079 2.049717 0.048015 -0.016170 -187969.000000 0 0 1
21.051475 26.354097 -18.795221 38.612995 0.896792 2.079172 0.052354 -0.014132 -71150.500000 0 0 1
20.176875 25.386097 -19.350621 37.762504 0.899234 2.108808 0.052378 -0.006773 -23598.300000 0 0 1
19.549075 25.830297 -20.656321 38.419450 0.922940 2.138447 0.047266 -0.000111 214203.000000 0 0 1
18.617275 26.865197 -20.393521 38.525802 0.964792 2.128627 0.035697 0.005101 199571.000000 0 0 1
17.533375 26.858297 -21.331521 38.520399 0.992448 2.157684 0.034532 -0.003752 744347.000000 0 0 1
16.440175 27.967797 -21.109121 38.704935 1.039377 2.147646 0.038168 0.001453 451769.000000 0 0 1
15.673375 27.643397 -19.953421 37.522674 1.055007 2.131485 0.049095 0.004209 240984.000000 0 0 1
14.738675 28.624197 -19.520021 37.651088 1.095298 2.115828 0.034911 -0.004729 476947.000000 0 0 1
13.982175 28.274597 -18.214021 36.423957 1.111547 2.094460 0.031910 -0.003170 117612.000000 0 0 1
13.105575 27.189897 -18.164521 35.227779 1.121651 2.112540 0.038610 -0.002413 -125400.000000 0 0 1
12.451975 27.149997 -16.916221 34.326849 1.140784 2.086099 0.043350 -0.008076 243876.000000 0 0 1
11.760975 25.801797 -16.519721 32.816984 1.143113 2.098313 0.063160 -0.009293 197901.000000 0 0 1
12.642075 24.807697 -16.039221 32.132546 1.099496 2.093423 0.055805 -0.010627 180583.000000 0 0 1
11.926675 23.562497 -15.969321 30.861887 1.102223 2.114658 0.076084 -0.014143 340468.000000 0 0 1
12.867875 22.355197 -15.982321 30.344219 1.048504 2.125511 0.075036 -0.020428 -155904.000000 0 0 1
13.573475 22.317497 -17.186321 31.267867 1.024370 2.152739 0.077160 -0.012290 -337839.000000 0 0 1
14.519575 21.262997 -17.261921 30.998500 0.971669 2.161401 0.077950 -0.010083 -182176.000000 0 0 1
13.895275 19.917397 -17.750821 30.081107 0.961653 2.201977 0.093623 -0.020638 360527.000000 0 0 1
13.018475 19.465897 -16.682621 28.752594 0.981330 2.189786 0.100243 -0.030023 488757.000000 0 0 1
12.527075 18.136197 -16.892621 27.770666 0.966324 2.224701 0.088222 -0.028533 636823.000000 0 0 1
13.681875 17.034297 -16.873221 27.605553 0.894110 2.228405 0.091798 -0.027801 927155.000000 0 0 1
14.370275 16.881097 -15.615521 27.116798 0.865569 2.184454 0.089412 -0.025347 336922.000000 0 0 1
15.373475 15.904597 -15.804321 27.185962 0.802377 2.191172 0.104826 -0.026389 -521412.000000 0 0 1
15.942875 15.182097 -14.574821 26.402590 0.760960 2.155584 0.145874 -0.019451 -702580.000000 0 0 1
16.579275 15.929997 -13.547921 26.686763 0.765429 2.103268 0.122359 -0.021387 891249.000000 0 0 1
17.854975 16.527697 -13.776321 27.959827 0.746814 2.086007 0.094161 -0.019076 83855.200000 0 0 1
19.017375 15.636297 -14.254821 28.449152 0.688138 2.095623 0.090538 -0.025193 -810062.000000 0 0 1
19.515375 14.593997 -13.343921 27.782995 0.642105 2.071783 0.123518 -0.030003 336179.000000 0 0 1
20.319475 15.111897 -12.316221 28.159187 0.639467 2.023478 0.107824 -0.021947 -532717.000000 0 0 1
21.129375 13.969497 -11.647121 27.879253 0.584167 2.001786 0.130805 -0.032155 -471017.000000 0 0 1
20.319775 13.143297 -10.883121 26.534540 0.574139 1.993414 0.188651 -0.036984 70585.300000 0 0 1
21.014375 12.022397 -10.376521 26.340353 0.519655 1.975711 0.195426 -0.022091 -262069.000000 0 0 1
21.189075 10.743897 -11.194421 26.262583 0.469271 2.011139 0.159240 -0.021310 -385974.000000 0 0 1
22.134175 10.862897 -12.258721 27.535440 0.456240 2.032192 0.126646 -0.005380 587157.000000 0 0 1
22.250275 9.757497 -13.131021 27.617154 0.413278 2.066290 0.110954 -0.000472 -217381.000000 0 0 1
22.727875 8.381797 -12.551721 27.282898 0.353315 2.048857 0.114421 0.010650 -514130.000000 0 0 1
21.833575 7.828997 -11.612521 25.939330 0.344294 2.034966 0.121109 -0.003281 371342.000000 0 0 1
22.317475 6.746797 -10.820621 25.703595 0.293575 2.005318 0.123417 0.011957 -789105.000000 0 0 1
22.450975 5.367397 -11.534221 25.804912 0.234667 2.034180 0.128516 0.002535 808198.000000 0 0 1
21.237075 4.583197 -11.691921 24.672253 0.212551 2.064499 0.123153 -0.014149 1377180.000000 0 1 0
20.326575 5.116497 -12.637721 24.475706 0.246592 2.113365 0.065105 -0.019155 535388.000000 0 1 0
19.242675 4.046697 -13.136221 23.647761 0.207278 2.159755 0.062036 -0.030082 786041.000000 0 1 0
19.843875 3.086497 -13.984621 24.471932 0.154303 2.179075 0.071649 -0.029027 447519.000000 0 1 0
19.365875 1.763497 -13.750121 23.816231 0.090812 2.186266 0.090618 -0.026771 -298162.000000 0 1 0
20.384875 0.746297 -14.285521 24.903337 0.036594 2.181738 0.105886 -0.020083 -246076.000000 0 1 0
21.639775 0.684997 -13.609621 25.572854 0.031644 2.131982 0.132926 -0.017200 1220200.000000 0 0 1
22.712475 0.387197 -14.535921 26.968490 0.017046 2.140042 0.083965 -0.022512 439583.000000 0 0 1
22.771375 -1.109203 -15.018121 27.300363 -0.048672 2.153289 0.078743 -0.021561 -1155930.000000 0 0 1
21.806375 -1.508103 -15.941821 27.054279 -0.069049 2.200931 0.083050 -0.022619 -186631.000000 0 0 1
22.198275 -2.666503 -16.647821 27.875143 -0.119549 2.210837 0.073191 -0.022228 -119576.000000 0 0 1
21.086675 -3.182303 -17.597721 27.648774 -0.149785 2.260714 0.076265 -0.023476 -168021.000000 0 0 1
20.341275 -4.175703 -16.982221 26.825357 -0.202469 2.256304 0.093824 -0.018809 -181634.000000 0 0 1
19.658475 -4.988503 -17.895321 27.047797 -0.248513 2.293771 0.083173 -0.012576 -476229.000000 0 0 1
19.081275 -6.189403 -17.147821 26.390368 -0.313662 2.278086 0.086132 -0.013578 -452126.000000 0 0 1
19.962575 -7.216603 -16.767121 27.050325 -0.346889 2.239347 0.082922 -0.011122 418967.000000 0 0 1
19.288375 -8.143403 -15.920421 26.302400 -0.399490 2.220919 0.093027 -0.008004 519739.000000 0 0 1
20.348075 -9.117803 -15.274921 27.027795 -0.421266 2.171419 0.125197 -0.004775 491565.000000 0 0 1
20.939975 -9.922203 -16.284121 28.321463 -0.442502 2.183369 0.097834 -0.011138 370510.000000 0 0 1
21.812975 -10.859503 -15.689021 28.980684 -0.461923 2.142852 0.081636 -0.020048 -362895.000000 0 0 1
22.453275 -11.841003 -16.678121 30.372992 -0.485297 2.152096 0.063799 -0.019290 -658397.000000 0 0 1
23.379675 -11.278803 -17.532321 31.324158 -0.449484 2.164827 0.051177 -0.013387 -104196.000000 0 0 1
23.914475 -12.095303 -18.581721 32.611023 -0.468256 2.177057 0.043361 -0.010626 81095.900000 0 0 1
23.029675 -12.048603 -19.882121 32.723592 -0.482017 2.223803 0.054579 -0.016086 1152350.000000 0 0 1
21.652475 -12.424903 -19.776821 31.848556 -0.520957 2.240769 0.063097 -0.027159 629432.000000 0 0 1
21.391675 -13.809103 -19.571721 32.114597 -0.573231 2.226143 0.048999 -0.014502 -810062.000000 0 0 1
19.919875 -14.209103 -19.500121 31.288252 -0.619605 2.243677 0.060625 -0.025275 -302577.000000 0 0 1
19.241675 -13.952503 -20.711621 31.525952 -0.627386 2.287590 0.062512 -0.022385 -249298.000000 0 0 1
17.850175 -14.205403 -20.613821 30.746574 -0.672183 2.305602 0.085093 -0.027268 -57779.000000 0 0 1
17.104175 -13.483303 -21.724321 30.761963 -0.667569 2.354923 0.081409 -0.026561 -386805.000000 0 0 1
17.339075 -14.030503 -23.009521 32.045851 -0.680316 2.371748 0.074747 -0.024423 211797.000000 0 0 1
16.595075 -13.299303 -23.947721 32.027509 -0.675594 2.415423 0.094515 -0.031253 -107385.000000 0 0 1
16.275875 -13.924703 -25.354071 33.190818 -0.707703 2.440113 0.091735 -0.037682 -334325.000000 0 0 1
15.403475 -15.030803 -25.220391 33.155093 -0.773154 2.435155 0.092032 -0.036258 173198.000000 0 0 1
15.261275 -15.792203 -26.398591 34.339275 -0.802494 2.447693 0.100100 -0.034343 -148232.000000 0 0 1
16.283075 -16.950703 -26.580071 35.481897 -0.805484 2.417524 0.087989 -0.031442 -665431.000000 0 0 1
17.538475 -16.503803 -26.951841 36.143815 -0.755014 2.412356 0.090119 -0.026875 -619934.000000 0 0 1
18.409675 -17.605103 -27.203271 37.267596 -0.763062 2.389037 0.086413 -0.023275 1297660.000000 0 0 1
19.941175 -17.218903 -27.268031 37.916838 -0.712271 2.373380 0.058025 -0.012884 995035.000000 0 0 1
20.492675 -16.882903 -26.020061 37.175606 -0.689116 2.346086 0.052691 -0.011737 394744.000000 0 0 1
21.891775 -16.595103 -26.092571 37.887591 -0.648634 2.330469 0.049999 -0.008596 537569.000000 0 0 1
22.592575 -16.445503 -24.726821 37.313465 -0.629217 2.295186 0.054877 -0.002571 -28221.200000 0 0 1
22.418375 -15.195103 -24.072321 36.234670 -0.595669 2.297413 0.055758 -0.014662 568915.000000 0 0 1
21.058775 -14.816903 -23.790521 35.057118 -0.613136 2.316681 0.070899 -0.021629 840375.000000 0 0 1
20.952175 -13.485603 -23.104621 33.980563 -0.571889 2.318472 0.076745 -0.021492 81159.100000 0 0 1
21.622375 -12.405203 -23.774721 34.447838 -0.520872 2.332515 0.087921 -0.026428 341906.000000 0 0 1
21.115875 -11.179503 -23.258221 33.343760 -0.486918 2.342739 0.094045 -0.029565 51595.800000 0 0 1
21.425775 -9.938203 -24.151421 33.780510 -0.434306 2.367351 0.100021 -0.031793 -266110.000000 0 0 1
21.035475 -8.748003 -23.567821 32.778971 -0.394111 2.373147 0.108945 -0.035208 -202456.000000 0 0 1
20.922375 -7.700903 -24.520321 33.140547 -0.352681 2.403701 0.086935 -0.032674 -449362.000000 0 0 1
20.166875 -6.494103 -23.864021 31.911874 -0.311533 2.415554 0.082632 -0.037134 13301.800000 0 0 1
18.899675 -7.002803 -23.482221 30.945947 -0.354842 2.432287 0.094237 -0.032346 -15938.500000 0 0 1
18.151475 -6.171003 -22.584521 29.624617 -0.327714 2.437743 0.086443 -0.022989 142392.000000 0 0 1
18.712775 -6.055803 -21.133621 28.869891 -0.312982 2.392093 0.089629 -0.025814 -596563.000000 0 0 1
18.605175 -7.158303 -20.254521 28.418998 -0.367289 2.364151 0.091059 -0.027332 379686.000000 0 0 1
19.339275 -8.344803 -20.553221 29.429206 -0.407359 2.343949 0.086382 -0.028738 -221792.000000 0 0 1
18.917675 -9.472003 -19.641821 28.868640 -0.464204 2.319086 0.081654 -0.028853 591483.000000 0 0 1
17.570975 -9.946403 -19.713421 28.218594 -0.515097 2.344231 0.092267 -0.020102 353776.000000 0 0 1
17.237275 -10.884103 -18.714021 27.673126 -0.563209 2.313460 0.097984 -0.023243 -350113.000000 0 0 1
15.736775 -11.272203 -18.584021 26.834204 -0.621580 2.335814 0.122113 -0.032953 229955.000000 0 0 1
14.945175 -10.357303 -17.830021 25.466480 -0.606026 2.346385 0.119951 -0.022191 349634.000000 0 0 1
14.657675 -9.178603 -18.577421 25.381386 -0.559460 2.391948 0.109365 -0.020432 -726718.000000 0 0 1
13.697275 -8.169703 -17.875721 23.956227 -0.537803 2.413106 0.128294 -0.000455 -19604.800000 0 1 0
12.339375 -8.316903 -18.218121 23.522988 -0.593072 2.456691 0.111843 -0.014869 -170025.000000 0 1 0
11.668975 -7.223903 -17.542621 22.273152 -0.554323 2.477722 0.105324 -0.019396 -257261.000000 0 1 0
10.169775 -7.077803 -17.801221 21.688778 -0.608012 2.533532 0.095115 -0.018559 -251002.000000 0 1 0
9.814375 -6.576503 -19.085421 22.446061 -0.590368 2.587312 0.087206 -0.025535 -304713.000000 0 1 0
8.438575 -6.336203 -19.155221 21.869602 -0.644052 2.638060 0.078766 -0.037339 -181177.000000 0 1 0
7.848575 -5.780203 -20.492321 22.692424 -0.634782 2.697607 0.085055 -0.049420 134352.000000 0 1 0
7.706575 -6.752103 -21.514421 23.829656 -0.719480 2.697131 0.079470 -0.040725 -13897.300000 0 1 0
6.795675 -6.298403 -22.484921 24.319185 -0.747440 2.750716 0.089894 -0.045385 -96257.200000 0 1 0
6.777375 -7.263803 -23.681621 25.681021 -0.820027 2.744385 0.083635 -0.034261 -6329.270000 0 0 1
6.223275 -8.540303 -23.381621 25.658646 -0.941071 2.717122 0.087137 -0.033674 131985.000000 0 0 1
6.064275 -9.365003 -24.539921 26.957122 -0.996148 2.714881 0.072509 -0.017470 -66205.400000 0 0 1
5.258675 -10.665503 -24.287621 27.042469 -1.112720 2.686292 0.066528 -0.018469 131838.000000 0 0 1
5.999775 -11.751503 -23.709421 27.133591 -1.098741 2.633766 0.061220 -0.021236 35583.000000 0 0 1
5.294975 -12.987303 -23.712621 27.549867 -1.183666 2.607471 0.058957 -0.018494 -705285.000000 0 0 1
5.857175 -14.086703 -22.725521 27.371354 -1.176749 2.550382 0.077518 -0.011492 -296065.000000 0 0 1
6.898475 -14.850603 -23.293421 28.473019 -1.135929 2.528874 0.076628 -0.007209 371446.000000 0 0 1
8.173675 -14.199603 -23.413721 28.576914 -1.048491 2.531025 0.085877 -0.010936 380563.000000 0 0 1
8.973175 -13.848803 -22.127021 27.602758 -0.995872 2.500802 0.085421 -0.007604 -640067.000000 0 0 1
9.493875 -14.862803 -21.309321 27.660870 -1.002358 2.450230 0.083748 -0.006820 502844.000000 0 0 1
8.501775 -15.502403 -20.482321 27.057904 -1.069170 2.429477 0.085704 -0.003244 356539.000000 0 0 1
8.971875 -15.738703 -19.041321 26.282565 -1.052689 2.381083 0.090956 -0.013954 262287.000000 0 0 1
9.870575 -16.839803 -18.999921 27.239754 -1.040626 2.342709 0.104846 -0.014964 343678.000000 0 0 1
10.535475 -17.002903 -17.688821 26.701860 -1.016069 2.294890 0.107696 -0.019275 290184.000000 0 0 1
9.676275 -17.794503 -16.644621 26.216751 -1.072742 2.258656 0.092816 -0.017518 -275818.000000 0 0 1
9.415275 -19.158803 -16.912021 27.234603 -1.114025 2.240783 0.091484 -0.024097 -59522.400000 0 0 1
8.579275 -19.476503 -17.992521 27.868781 -1.155876 2.272626 0.100229 -0.018680 -117079.000000 0 0 1
7.050475 -19.338303 -17.751421 27.180730 -1.221187 2.282452 0.094932 -0.012326 174353.000000 0 0 1
6.510975 -18.064603 -17.425821 25.930328 -1.224863 2.307736 0.097009 -0.008014 83155.500000 0 0 1
5.094375 -17.962603 -17.426321 25.539860 -1.294443 2.321726 0.084133 -0.007913 432171.000000 0 0 1
4.677975 -16.531603 -17.194221 24.306760 -1.295034 2.356587 0.060544 0.008745 -137632.000000 0 1 0
5.041275 -15.951803 -15.960921 23.121969 -1.264697 2.332690 0.040033 0.001276 92631.100000 0 1 0
4.703475 -14.582803 -15.914821 22.092133 -1.258795 2.375152 0.028672 0.009888 -129341.000000 0 1 0
10.325975 29.841797 -18.244721 36.469555 1.237668 2.094710 0.049879 -0.015180 344100.000000 0 0 1
9.247775 29.774197 -19.213321 36.622068 1.269646 2.123086 0.080778 -0.020834 660261.000000 0 0 1
8.358475 28.751997 -18.723321 35.314362 1.287885 2.129621 0.061293 -0.021463 156211.000000 0 0 1
7.438875 28.248497 -19.857721 35.321998 1.313305 2.167829 0.084177 -0.017268 -354765.000000 0 0 1
6.612075 29.289297 -20.269221 36.227390 1.348768 2.164579 0.086323 -0.017938 -764837.000000 0 0 1
5.868575 28.893797 -21.378321 36.418735 1.370414 2.198162 0.090330 -0.023120 -870429.000000 0 0 1
4.686575 29.794497 -21.561921 37.075497 1.414778 2.191451 0.076560 -0.026455 -828733.000000 0 0 1
3.669375 29.756097 -20.582321 36.366490 1.448101 2.172405 0.082741 -0.030060 -468102.000000 0 0 1
2.765275 30.802597 -20.787721 37.263603 1.481262 2.162596 0.083309 -0.043910 -782021.000000 0 0 1
1.437375 30.414897 -20.090021 36.479322 1.523573 2.154027 0.101257 -0.043707 142185.000000 0 0 1
0.744775 29.250097 -20.628521 35.800262 1.545340 2.184882 0.110114 -0.049741 447843.000000 0 0 1
0.279875 29.289497 -22.001121 36.633349 1.561241 2.215018 0.142394 -0.069586 -347724.000000 0 0 1
-0.570425 28.078697 -22.451321 35.955534 -1.550484 2.245184 0.134354 -0.060354 481943.000000 0 0 1
-1.796425 27.931797 -21.736521 35.438521 -1.506570 2.231102 0.146871 -0.062740 170355.000000 0 0 1
-2.137425 26.571997 -21.866121 34.478499 -1.490530 2.257764 0.157716 -0.067961 -76980.000000 0 0 1
-3.254425 26.103497 -20.911221 33.604509 -1.446762 2.242441 0.149744 -0.071571 -92542.800000 0 0 1
-4.530225 26.587197 -21.240521 34.330187 -1.402026 2.237899 0.142107 -0.070789 340374.000000 0 0 1
-5.573025 26.124397 -20.367721 33.591469 -1.360620 2.222241 0.128138 -0.071117 1558050.000000 0 0 1
-7.040925 26.527397 -20.758721 34.412235 -1.311357 2.218349 0.123412 -0.077044 1608310.000000 0 0 1
-8.154825 26.092897 -19.956621 33.846819 -1.267884 2.201379 0.109578 -0.060789 648515.000000 0 0 1
-8.615425 26.977997 -18.943821 34.072074 -1.261683 2.160353 0.108824 -0.069925 555925.000000 0 0 1
-9.816025 26.379897 -18.106021 33.467616 -1.214568 2.142423 0.130407 -0.050952 618457.000000 0 0 1
-9.489125 25.439097 -17.118621 32.097326 -1.213768 2.133334 0.128993 -0.055871 483192.000000 0 0 1
-10.677125 24.980997 -16.424221 31.745964 -1.166886 2.114564 0.103492 -0.039673 763852.000000 0 0 1
-10.368425 24.132997 -15.186421 30.340290 -1.165005 2.095015 0.077959 -0.024961 -173061.000000 0 0 1
-9.866625 22.818397 -15.284021 29.182715 -1.162676 2.122026 0.085981 -0.024272 -243108.000000 0 0 1
-10.005425 22.207497 -13.978321 28.083357 -1.147491 2.091792 0.087350 -0.024827 -242028.000000 0 0 1
-9.432325 20.782097 -13.935021 26.740402 -1.144731 2.118962 0.091083 -0.014445 356030.000000 0 0 1
-10.207325 19.748997 -14.590121 26.591051 -1.093758 2.151587 0.079852 -0.012643 -34485.300000 0 0 1
-10.480425 19.834397 -15.981621 27.543689 -1.084690 2.189805 0.090819 -0.007302 -54226.400000 0 0 1
-9.230225 19.822797 -16.879821 27.623698 -1.135015 2.228199 0.098524 -0.018906 -211337.000000 0 0 1
-8.762425 18.522797 -17.006721 26.628982 -1.128931 2.263545 0.097094 -0.019964 -370050.000000 0 0 1
-8.041125 18.399697 -18.206021 27.104755 -1.158785 2.307285 0.111515 -0.024130 -100664.000000 0 0 1
-7.341125 17.090497 -18.569521 26.283157 -1.165083 2.355362 0.096815 -0.021838 -254060.000000 0 0 1
-8.224525 16.018997 -18.745321 25.993040 -1.096468 2.376282 0.093337 -0.026768 -729553.000000 0 0 1
-7.843225 15.081497 -19.723021 26.037767 -1.091233 2.430237 0.095755 -0.032734 1515850.000000 0 0 1
-6.429625 14.333697 -19.554721 25.083502 -1.149135 2.464799 0.065968 -0.028155 1329340.000000 0 0 1
-6.384525 13.346297 -18.543521 23.722310 -1.124598 2.468169 0.044952 -0.024450 687296.000000 0 1 0
-5.062725 12.832397 -18.292621 22.911167 -1.195017 2.495455 0.047036 -0.013341 1254570.000000 0 1 0
-4.316625 13.558197 -17.103521 22.248335 -1.262566 2.447689 0.017721 0.000535 129048.000000 0 1 0
-3.899925 14.837297 -17.329321 23.144333 -1.313764 2.416971 0.025817 -0.012488 -371754.000000 0 1 0
-3.100425 15.334797 -16.259321 22.564001 -1.371303 2.375445 0.015338 -0.002265 145912.000000 0 1 0
-2.532125 16.721997 -16.534021 23.651864 -1.420513 2.344875 0.044896 -0.007676 -125732.000000 0 1 0
-3.424925 17.782497 -16.470321 24.478946 -1.380525 2.308832 0.056059 -0.022514 22724.300000 0 1 0
-2.655725 18.974297 -16.785021 25.471823 -1.431735 2.290237 0.070953 -0.027477 739844.000000 0 0 1
-3.547425 20.006897 -17.508221 26.821595 -1.395310 2.282026 0.091068 -0.024354 362306.000000 0 0 1
-3.699225 19.647197 -18.883921 27.500893 -1.384692 2.327689 0.096998 -0.028926 -197651.000000 0 0 1
-4.223425 20.692497 -19.691821 28.875328 -1.369458 2.321236 0.135444 -0.036593 -28934.900000 0 0 1
-3.388825 21.992097 -19.821121 29.799552 -1.417906 2.298489 0.125562 -0.040649 -126570.000000 0 0 1
-2.295625 21.908097 -20.724121 30.244401 -1.466393 2.325704 0.148036 -0.041848 231975.000000 0 0 1
-1.326625 22.936397 -20.515121 30.801111 -1.513021 2.299699 0.147385 -0.047426 127452.000000 0 0 1
-0.163925 22.421397 -19.677321 29.831910 -1.563485 2.291091 0.137575 -0.049892 -645943.000000 0 0 1
-0.461225 22.538397 -18.310221 29.042319 -1.550335 2.252951 0.129470 -0.042028 141493.000000 0 0 1
0.680775 22.109297 -17.576821 28.252949 1.540015 2.242248 0.107981 -0.036672 389375.000000 0 0 1
0.585775 22.286997 -16.076421 27.486445 1.544519 2.195535 0.104609 -0.037179 376315.000000 0 0 1
-0.389625 21.429497 -15.450821 26.421639 -1.552617 2.195404 0.087821 -0.025427 64302.700000 0 0 1
-0.014225 21.094797 -14.134421 25.392371 -1.570122 2.161133 0.082192 -0.029246 94043.900000 0 0 1
-0.951425 20.174097 -13.315121 24.190739 -1.523671 2.153666 0.064137 -0.022015 78950.700000 0 1 0
-0.804825 18.817397 -13.645021 23.257876 -1.528052 2.197754 0.045427 -0.015455 -270089.000000 0 1 0
-1.552525 18.021297 -12.778521 22.146514 -1.484859 2.185846 0.029274 -0.010198 -80632.800000 0 1 0
-1.265425 16.525997 -12.920821 21.015649 -1.494374 2.232953 0.014802 0.000208 286107.000000 0 1 0
0.032775 16.107597 -12.498721 20.388079 1.568762 2.230700 0.011458 0.002727 368060.000000 0 1 0
0.154875 14.726497 -12.373221 19.235132 1.560280 2.269547 0.009406 0.001415 24605.700000 0 1 0
0.559075 13.890297 -13.616421 19.459184 1.530569 2.345834 0.004753 -0.003465 -671238.000000 0 1 0
-0.317025 13.634597 -14.643621 20.010956 -1.547549 2.391727 0.007264 -0.010462 -754310.000000 0 1 0
0.270975 12.735097 -15.540521 20.093878 1.549522 2.454977 0.005990 -0.009759 -189106.000000 0 1 0
-0.380725 12.686297 -16.924321 21.154662 -1.540795 2.498138 0.008850 -0.003050 -179495.000000 0 1 0
-0.206725 13.881697 -17.608721 22.423454 -1.555906 2.473947 0.019330 -0.003657 -146355.000000 0 1 0
-0.451025 13.836397 -18.987721 23.498571 -1.538211 2.511609 0.033955 -0.006867 -317061.000000 0 1 0
-0.925425 15.117297 -19.627821 24.791943 -1.509656 2.484386 0.045443 -0.010314 -513946.000000 0 1 0
0.006175 16.150197 -19.560021 25.365790 1.570414 2.451392 0.054392 -0.022856 -759184.000000 0 0 1
-0.514925 17.412797 -19.892121 26.441769 -1.541233 2.422341 0.102762 -0.036181 -910609.000000 0 0 1
0.475775 18.505697 -20.088421 27.317244 1.545092 2.397016 0.139027 -0.043561 -754709.000000 0 0 1
1.058475 18.312697 -21.375521 28.167146 1.513061 2.432390 0.139045 -0.053089 -47636.200000 0 0 1
1.960175 19.335697 -21.756521 29.172893 1.469766 2.412499 0.144951 -0.045575 120731.000000 0 0 1
2.467975 19.082097 -23.211521 30.149495 1.442176 2.449451 0.157565 -0.059187 432361.000000 0 0 1
3.583775 18.185397 -23.168021 29.670007 1.376221 2.466832 0.131166 -0.051475 194951.000000 0 0 1
4.043275 17.946297 -24.507621 30.643778 1.349198 2.497689 0.133646 -0.066080 584733.000000 0 0 1
5.101475 16.793697 -24.555721 30.183385 1.275881 2.521029 0.083553 -0.053316 -1567590.000000 0 0 1
6.363275 17.070997 -24.132121 30.236889 1.213997 2.494935 0.076659 -0.038388 -1153950.000000 0 0 1
7.289675 16.002897 -24.291521 29.988499 1.143360 2.514996 0.074333 -0.037394 143786.000000 0 0 1
7.797775 15.779497 -25.713561 31.160633 1.111823 2.541342 0.068280 -0.037398 -1057210.000000 0 0 1
8.790775 16.769997 -26.051431 32.205397 1.087979 2.513101 0.057135 -0.031288 415567.000000 0 0 1
9.125575 16.883497 -27.442011 33.487200 1.075274 2.531295 0.069308 -0.034094 314144.000000 0 0 1
9.655975 15.594097 -28.218561 33.655622 1.016374 2.565229 0.079488 -0.043888 661532.000000 0 0 1
10.845275 14.923197 -27.741911 33.315693 0.942349 2.554759 0.085774 -0.042212 844357.000000 0 0 1
10.901075 13.554997 -28.069221 33.022001 0.893493 2.586812 0.082234 -0.033244 204165.000000 0 0 1
10.114075 12.574397 -27.055691 31.502704 0.893415 2.603791 0.081457 -0.026578 524778.000000 0 0 1
8.727375 12.812697 -27.087741 31.210223 0.972833 2.621780 0.083851 -0.030010 -265633.000000 0 0 1
7.948075 11.911397 -26.336871 29.978059 0.982379 2.643590 0.104082 -0.031371 -171981.000000 0 0 1
6.442975 12.134297 -26.329911 29.698776 1.082679 2.660664 0.068462 -0.032869 -751822.000000 0 0 1
5.985175 13.182397 -25.431651 29.263745 1.144598 2.624075 0.082994 -0.026399 188086.000000 0 0 1
4.573875 13.352697 -25.431181 29.085388 1.240780 2.634917 0.089426 -0.036989 224327.000000 0 0 1
4.025275 14.149097 -26.590621 30.388500 1.293629 2.636279 0.101055 -0.027403 -930383.000000 0 0 1
4.119575 13.608897 -27.857891 31.276750 1.276853 2.669657 0.111955 -0.040753 105023.000000 0 0 1
3.695375 14.473297 -28.869611 32.505177 1.320813 2.664109 0.112375 -0.057648 -128905.000000 0 0 1
3.716075 13.802697 -30.293291 33.496375 1.307804 2.700710 0.148494 -0.050347 -194920.000000 0 0 1
5.033775 13.728197 -30.767631 34.065370 1.219345 2.697949 0.122443 -0.039789 -130618.000000 0 0 1
4.993875 13.223497 -32.082611 35.058431 1.209703 2.726598 0.131146 -0.040819 -437606.000000 0 0 1
5.995775 12.057097 -32.260981 34.958458 1.109326 2.746180 0.134678 -0.033990 435413.000000 0 0 1
7.378875 12.354597 -32.056751 35.138571 1.032396 2.719650 0.139361 -0.028075 791627.000000 0 0 1
7.820175 12.451397 -30.699271 34.038767 1.010002 2.694925 0.115627 -0.030866 -587071.000000 0 0 1
7.888675 11.067397 -30.003131 32.937916 0.951541 2.716255 0.101924 -0.027769 -244365.000000 0 0 1
9.117575 10.409997 -30.268791 33.282096 0.851486 2.712784 0.084392 -0.023688 192591.000000 0 0 1
9.104975 9.105397 -29.828511 32.489212 0.785421 2.734069 0.085546 -0.026836 355998.000000 0 0 1
10.370375 8.218997 -30.163581 32.938400 0.670179 2.728185 0.061815 -0.020740 60930.400000 0 0 1
11.352075 8.310797 -29.205451 32.417547 0.631943 2.692669 0.063296 -0.019282 -993095.000000 0 0 1
12.206075 7.214097 -29.300541 32.550778 0.533794 2.690907 0.044149 -0.016496 -1297200.000000 0 0 1
13.272875 7.249597 -28.212391 32.010387 0.499918 2.649511 0.043360 -0.000830 152192.000000 0 0 1
14.124975 6.095097 -28.107211 32.041854 0.407373 2.640802 0.047862 -0.010556 644156.000000 0 0 1
15.050975 5.839997 -29.159511 33.330384 0.370132 2.635949 0.038885 -0.005487 -269147.000000 0 0 1
15.922775 4.555197 -28.793921 33.217081 0.278638 2.619627 0.057065 -0.015363 411679.000000 0 0 1
16.614075 4.682597 -27.564611 32.523253 0.274719 2.582121 0.017285 -0.012510 310539.000000 0 0 1
17.483075 3.590197 -27.342301 32.651935 0.202537 2.563281 0.036563 -0.016123 180758.000000 0 0 1
18.393775 3.597097 -26.085351 32.120330 0.193123 2.518561 0.024703 -0.009018 293960.000000 0 0 1
19.365175 4.615397 -26.059511 32.793445 0.233970 2.489237 0.052258 -0.015088 336163.000000 0 0 1
20.088775 4.800397 -24.831621 32.298794 0.234561 2.447774 0.063354 -0.018236 37720.400000 0 0 1
20.901775 6.068697 -24.871821 33.050276 0.282574 2.422715 0.063961 -0.016268 -628274.000000 0 0 1
20.157975 7.190097 -25.191471 33.055282 0.342620 2.437349 0.067925 -0.017062 -290517.000000 0 0 1
20.977075 8.169397 -25.780061 34.225550 0.371373 2.423771 0.060011 -0.028273 -580208.000000 0 0 1
21.290875 8.086597 -27.332821 35.577767 0.362985 2.446908 0.114992 -0.026664 615024.000000 0 0 1
20.227075 8.352897 -28.278571 35.757279 0.391625 2.482990 0.079525 -0.013957 975004.000000 0 0 1
19.126675 7.447497 -28.226341 34.900161 0.371316 2.512861 0.074197 -0.005164 186708.000000 0 0 1
17.817575 8.040297 -28.820321 34.824176 0.423898 2.545606 0.060296 0.001283 -194006.000000 0 0 1
17.769275 7.945697 -30.228041 35.952965 0.420489 2.569493 0.054414 -0.000381 -38925.500000 0 0 1
16.816175 8.830297 -30.713781 36.112245 0.483531 2.587748 0.033262 0.001616 -775110.000000 0 0 1
16.416375 8.665597 -32.165311 37.137544 0.485689 2.618169 0.011134 0.008305 -153574.000000 0 0 1
15.647575 7.500197 -32.374271 36.731362 0.446967 2.649571 0.020591 0.008678 1417280.000000 0 0 1
14.249275 7.817297 -32.639651 36.462293 0.501776 2.679590 0.020488 0.004575 1159980.000000 0 0 1
13.477775 6.559497 -33.097141 36.333155 0.452943 2.716341 0.025113 0.003262 -117705.000000 0 0 1
13.277075 5.538497 -32.092761 35.169603 0.395201 2.720185 0.028562 -0.002554 -354293.000000 0 0 1
12.395875 4.667597 -32.674261 35.256936 0.360124 2.756456 0.019010 -0.005607 -553068.000000 0 0 1
12.020975 3.494197 -31.688111 34.071243 0.282880 2.765357 0.037191 -0.014141 12859.500000 0 0 1
13.133975 2.699397 -31.328641 34.077438 0.202705 2.737188 0.047314 -0.024490 91558.000000 0 0 1
12.935475 1.831597 -30.201241 32.905869 0.140660 2.733318 0.057592 -0.025843 -466908.000000 0 0 1
12.092375 0.604197 -30.518321 32.832278 0.049924 2.763910 0.065767 -0.023043 -192327.000000 0 0 1
12.651975 -0.496603 -31.227661 33.696972 -0.039231 2.756384 0.058733 -0.029948 134051.000000 0 0 1
13.700575 -1.196303 -30.566951 33.518284 -0.087097 2.718805 0.074845 -0.039327 449828.000000 0 0 1
14.335675 -2.470003 -31.186051 34.411949 -0.170622 2.705139 0.073837 -0.039386 141346.000000 0 0 1
13.498075 -3.612303 -31.219901 34.204225 -0.261489 2.720762 0.084611 -0.039241 -56956.900000 0 0 1
14.134075 -4.719503 -31.870511 35.182030 -0.322269 2.704237 0.094865 -0.039254 -298257.000000 0 0 1
13.361575 -6.030503 -31.944021 35.147107 -0.423961 2.711354 0.104298 -0.038247 -316616.000000 0 0 1
13.343775 -6.578603 -30.631501 34.053241 -0.458039 2.689461 0.112429 -0.035308 -128028.000000 0 0 1
12.772275 -7.816903 -30.574181 34.044317 -0.549212 2.686158 0.134465 -0.039924 -290342.000000 0 0 1
13.088075 -8.620103 -29.255701 33.188852 -0.582413 2.649809 0.106351 -0.033681 -303076.000000 0 0 1
14.469875 -8.888303 -29.208811 33.786593 -0.550841 2.614969 0.107176 -0.032423 -159152.000000 0 0 1
14.864875 -9.477003 -27.959501 33.053166 -0.567568 2.579037 0.118469 -0.031261 93035.700000 0 0 1
14.571875 -11.035403 -27.854601 33.316639 -0.648162 2.560852 0.107929 -0.029584 -465387.000000 0 0 1
13.218675 -11.368003 -27.954131 32.945384 -0.710269 2.583939 0.097692 -0.036575 -493678.000000 0 0 1
12.991675 -12.705403 -28.380371 33.699501 -0.774258 2.572073 0.090162 -0.039731 243152.000000 0 0 1
-10.278525 -2.726203 -17.883621 20.806349 0.259263 2.605140 0.019558 0.003435 -231671.000000 0 1 0
-11.076325 -2.508103 -19.013021 22.146569 0.222683 2.603151 0.031916 -0.001294 -85193.800000 0 1 0
-11.884725 -3.637203 -19.319921 22.972490 0.296989 2.569930 0.031930 -0.002312 -622703.000000 0 1 0
-12.764325 -3.390403 -20.522021 24.404429 0.259621 2.569766 0.037985 -0.008348 109543.000000 0 1 0
-13.859725 -2.562803 -20.056821 24.513996 0.182845 2.529032 0.042307 -0.008300 380068.000000 0 1 0
-14.685525 -2.097403 -21.070621 25.768873 0.141862 2.528161 0.042931 -0.009316 -122217.000000 0 0 1
-15.478625 -0.798803 -20.803321 25.942322 0.051561 2.501276 0.056065 -0.011918 65429.900000 0 0 1
-14.733025 0.420697 -20.708021 25.417733 -0.028547 2.523021 0.061913 -0.012549 -326255.000000 0 0 1
-15.472725 1.429797 -20.127821 25.427912 -0.092146 2.484161 0.059887 -0.009915 -700256.000000 0 0 1
-15.104025 2.879997 -20.640821 25.738482 -0.188416 2.501339 0.086217 -0.016576 -389006.000000 0 0 1
-13.818725 3.341897 -20.368921 24.839855 -0.237282 2.532224 0.089764 -0.023980 -315043.000000 0 1 0
-13.599625 4.620897 -21.000521 25.442570 -0.327542 2.541722 0.099227 -0.027843 672437.000000 0 0 1
-12.204325 5.305097 -20.725821 24.630251 -0.410049 2.570810 0.079287 -0.025335 510085.000000 0 1 0
-12.093125 5.813997 -19.430321 23.613208 -0.448145 2.537219 0.083965 -0.036158 763734.000000 0 1 0
-10.819825 6.418797 -19.154421 22.916401 -0.535437 2.560456 0.066119 -0.024806 198348.000000 0 1 0
-10.633725 7.143197 -17.847021 21.968558 -0.591513 2.519034 0.047485 -0.023076 -458651.000000 0 1 0
-11.390425 8.315297 -17.721021 22.647749 -0.630594 2.469407 0.064278 -0.029948 -310286.000000 0 1 0
-12.559325 8.231097 -16.961821 22.653719 -0.580146 2.416961 0.101333 -0.024573 -704710.000000 0 1 0
-13.384825 9.489497 -16.931421 23.577046 -0.616724 2.371910 0.115436 -0.021678 -471525.000000 0 1 0
-12.884325 10.533197 -16.119521 23.168794 -0.685333 2.340250 0.085031 -0.018050 -52024.700000 0 1 0
-13.653625 11.687997 -16.310421 24.270570 -0.707988 2.307736 0.099370 -0.025113 -432654.000000 0 1 0
-13.143325 12.981797 -15.762121 24.284120 -0.779215 2.277159 0.100667 -0.019081 -536697.000000 0 1 0
-13.286725 13.194297 -14.368821 23.602745 -0.781908 2.225315 0.108256 -0.014872 166561.000000 0 1 0
-12.841425 14.435997 -13.902621 23.803006 -0.843789 2.194530 0.095991 -0.016722 -718748.000000 0 1 0
-13.155125 14.735597 -12.395421 23.320412 -0.842004 2.131198 0.081223 -0.012936 1177350.000000 0 1 0
-14.502125 15.087597 -12.015721 24.131406 -0.805182 2.092005 0.088538 -0.019928 1495090.000000 0 1 0
-15.508825 14.079897 -12.210221 24.245755 -0.737143 2.098560 0.087474 -0.022488 -655534.000000 0 1 0
-16.778525 14.352597 -11.453121 24.873478 -0.707629 2.049304 0.053579 -0.016575 299379.000000 0 1 0
-17.933125 13.556497 -11.813121 25.395382 -0.647297 2.054621 0.053093 -0.016651 1078480.000000 0 0 1
-19.084125 13.821097 -11.039521 26.021099 -0.626796 2.008933 0.105372 -0.026321 -347350.000000 0 0 1
-20.389625 13.410397 -11.702721 27.065277 -0.581774 2.017937 0.092023 -0.031048 -681504.000000 0 0 1
-20.610125 12.022497 -11.690521 26.570397 -0.528072 2.026376 0.101694 -0.036998 1245030.000000 0 0 1
-21.862625 11.744297 -12.377821 27.732893 -0.492952 2.033448 0.129715 -0.029465 585771.000000 0 0 1
-22.477725 10.458297 -11.884821 27.493146 -0.435483 2.017819 0.118437 -0.032485 -250231.000000 0 0 1
-21.698125 9.296597 -12.186921 26.566076 -0.404791 2.047373 0.112199 -0.031573 545879.000000 0 0 1
-22.024725 8.252697 -11.335621 26.109229 -0.358509 2.019904 0.104483 -0.028375 -390708.000000 0 0 1
-20.991725 7.131497 -11.437321 24.946404 -0.327496 2.047076 0.116720 -0.032133 -321700.000000 0 1 0
-21.102825 6.361897 -12.647421 25.411813 -0.292806 2.091740 0.134930 -0.029277 623530.000000 0 0 1
-20.128125 5.319997 -12.644721 24.358423 -0.258398 2.116607 0.144529 -0.035064 66080.600000 0 1 0
-20.348825 4.179097 -13.698821 24.883674 -0.202556 2.153777 0.157345 -0.042173 -167141.000000 0 1 0
-21.359025 3.300497 -13.258621 25.355320 -0.153312 2.121061 0.150978 -0.040687 354779.000000 0 0 1
-21.261825 2.083797 -14.009421 25.547432 -0.097695 2.151209 0.130323 -0.044913 52980.400000 0 0 1
-22.255125 0.944397 -13.591721 26.094393 -0.042410 2.118663 0.175367 -0.039122 14816.600000 0 0 1
-23.498225 0.995497 -14.234521 27.491438 -0.042339 2.115050 0.128593 -0.032553 97191.000000 0 0 1
-24.077125 -0.276603 -14.388021 28.049948 0.011488 2.109406 0.124478 -0.039215 -280130.000000 0 0 1
-25.347195 -0.398403 -15.248821 29.583197 0.015717 2.112335 0.128318 -0.033705 259719.000000 0 0 1
-26.477975 0.136997 -14.544521 30.210015 -0.005174 2.073101 0.165164 -0.041615 637191.000000 0 0 1
-27.675525 -0.234603 -15.237621 31.593905 0.008477 2.074070 0.143384 -0.024749 687827.000000 0 0 1
-28.956135 0.130497 -14.428621 32.352123 -0.004507 2.033073 0.153674 -0.029298 -251027.000000 0 0 1
-29.206465 -0.614603 -13.268121 32.084862 0.021040 1.997126 0.161924 -0.026444 -392051.000000 0 0 1
-30.347385 -0.178603 -12.613621 32.864861 0.005885 1.964707 0.184687 -0.034893 -535599.000000 0 0 1
-30.358135 -0.720503 -11.144121 32.346977 0.023729 1.922522 0.174062 -0.040686 -149311.000000 0 0 1
-30.510125 -2.087203 -10.871221 32.456241 0.068304 1.912349 0.185279 -0.033577 915793.000000 0 0 1
-29.519045 -2.996603 -11.408121 31.788345 0.101168 1.937861 0.196710 -0.036463 275652.000000 0 0 1
-29.720505 -4.473703 -10.887021 31.966383 0.149404 1.918327 0.197606 -0.039610 -308751.000000 0 0 1
-30.863515 -5.024103 -11.486521 33.312735 0.161369 1.922831 0.188851 -0.036684 -211361.000000 0 0 1
-31.124455 -6.330603 -10.961621 33.600080 0.200659 1.903117 0.200011 -0.033830 -15940.800000 0 0 1
-30.287295 -7.507103 -11.553921 33.274163 0.242966 1.925416 0.213949 -0.033837 230017.000000 0 0 1
-28.921355 -7.398203 -11.186821 31.879824 0.250434 1.929335 0.169548 -0.027463 183796.000000 0 0 1
-28.218585 -8.406203 -11.930921 31.769477 0.289525 1.955783 0.176455 -0.030535 401011.000000 0 0 1
-26.739445 -8.593103 -11.478821 30.341435 0.310940 1.958779 0.159632 -0.036441 -323628.000000 0 0 1
-25.890575 -7.521003 -11.856221 29.452629 0.282711 1.985100 0.132341 -0.030257 646469.000000 0 0 1
-24.516325 -7.685403 -11.539121 28.164995 0.303778 1.992918 0.121496 -0.036951 219279.000000 0 0 1
-24.166925 -7.674403 -10.012021 27.261278 0.307486 1.946859 0.115502 -0.028626 -871244.000000 0 0 1
-24.394525 -6.480603 -9.261221 26.886080 0.259661 1.922462 0.122442 -0.027571 1160670.000000 0 0 1
-25.802085 -6.205903 -9.157821 28.073591 0.236036 1.903085 0.135863 -0.037077 293484.000000 0 0 1
-26.113685 -4.811703 -8.577721 27.904378 0.182216 1.883253 0.143473 -0.035071 -336067.000000 0 0 1
-25.918495 -4.615703 -7.204221 27.294210 0.176238 1.837908 0.143473 -0.038293 373113.000000 0 0 1
-26.314925 -3.320403 -6.872321 27.399437 0.125516 1.824323 0.184709 -0.039370 -157344.000000 0 0 1
-26.136865 -2.968903 -5.382421 26.849964 0.113106 1.772627 0.180895 -0.037785 -349609.000000 0 0 1
-24.801425 -3.058403 -4.977721 25.480232 0.122696 1.767417 0.144844 -0.026388 -59130.500000 0 0 1
-24.809625 -2.968103 -3.537621 25.235726 0.119069 1.711443 0.135828 -0.023849 -652843.000000 0 0 1
-23.447525 -3.256203 -2.944321 23.854943 0.137989 1.694538 0.115820 -0.018539 -746300.000000 0 1 0
-23.143025 -4.631303 -3.056621 23.798981 0.197508 1.699587 0.115140 -0.013581 487866.000000 0 1 0
-21.847625 -4.888403 -2.541921 22.531679 0.220124 1.683852 0.086358 -0.010481 -55247.600000 0 1 0
-21.676425 -6.383603 -2.525421 22.737536 0.286399 1.682094 0.100453 -0.020496 -179953.000000 0 1 0
-22.373325 -7.143103 -1.565221 23.538044 0.309039 1.637343 0.119558 -0.019115 348143.000000 0 1 0
-22.684725 -8.460903 -2.011621 24.294655 0.356997 1.653692 0.120000 -0.031510 17595.900000 0 1 0
-23.037725 -9.419103 -0.830021 24.902715 0.388117 1.604133 0.131152 -0.030583 -150341.000000 0 1 0
-21.901625 -9.832803 -0.100721 24.007818 0.421983 1.574992 0.099567 -0.022380 160906.000000 0 1 0
-22.111825 -10.546703 1.077579 24.521968 0.445055 1.526839 0.072251 -0.015120 198965.000000 0 1 0
-20.734425 -11.023903 1.642879 23.540218 0.488663 1.500949 0.071383 -0.012615 84766.300000 0 1 0
-20.280325 -12.182703 0.972479 23.678166 0.540945 1.529714 0.073723 -0.014928 683953.000000 0 1 0
-19.132325 -12.632603 1.703379 22.989781 0.583565 1.496635 0.052932 -0.013239 346544.000000 0 1 0
-18.436725 -13.839103 1.021379 23.075459 0.643902 1.526519 0.051499 -0.013316 -92009.100000 0 1 0
-19.326025 -14.940703 1.072579 24.451386 0.658114 1.526916 0.078218 -0.018577 575591.000000 0 1 0
-18.901125 -16.009103 0.222179 24.770815 0.702745 1.561827 0.083656 -0.028106 778684.000000 0 1 0
-17.627525 -16.807003 0.725379 24.366599 0.761574 1.541023 0.082765 -0.018336 -45167.900000 0 1 0
-16.452625 -16.063103 0.778579 23.006919 0.773419 1.536949 0.074625 -0.017258 -407224.000000 0 1 0
-15.455125 -16.859103 1.423779 22.915440 0.828819 1.508624 0.087586 -0.011799 180634.000000 0 1 0
-15.307825 -16.685103 2.981079 22.838761 0.828421 1.439896 0.097192 -0.017498 -109854.000000 0 1 0
-14.718225 -15.436303 3.330579 21.586995 0.809207 1.415891 0.053074 -0.014861 -55016.400000 0 1 0
-14.008525 -15.387703 4.534679 21.297500 0.832281 1.356233 0.036293 -0.009746 -236695.000000 0 1 0
-14.703525 -15.698803 5.902479 22.304379 0.818123 1.302973 0.091597 -0.014886 -747695.000000 0 1 0
-15.630925 -14.690103 6.291879 22.354254 0.754379 1.285479 0.081983 -0.020062 385690.000000 0 1 0
-16.072425 -14.814203 7.655379 23.160058 0.744684 1.233918 0.094845 -0.030501 -84678.800000 0 1 0
-16.987925 -16.008803 8.013379 24.679660 0.755734 1.240106 0.080900 -0.022962 -536323.000000 0 1 0
-16.355025 -17.299203 7.872179 25.074299 0.813446 1.251441 0.078889 -0.009280 221849.000000 0 0 1
-17.030425 -18.439503 8.448679 26.484539 0.825103 1.246118 0.082786 -0.020657 -56389.000000 0 0 1
-16.841225 -18.701503 9.966879 27.068649 0.837690 1.193716 0.089930 -0.021437 -147961.000000 0 0 1
-15.487825 -18.978803 10.233479 26.547915 0.886340 1.175077 0.065474 -0.020240 -120143.000000 0 0 1
-15.294925 -19.301803 11.633179 27.236468 0.900701 1.129494 0.064115 -0.024172 26628.700000 0 0 1
-13.961425 -20.043103 11.785579 27.120974 0.962376 1.121251 0.067019 -0.017372 -136325.000000 0 0 1
-12.765125 -19.327803 11.723979 25.960818 0.987107 1.102235 0.070875 -0.025141 -1106640.000000 0 0 1
-11.652225 -20.129103 11.792479 26.077149 1.046055 1.101549 0.073407 -0.022730 -828387.000000 0 0 1
-10.381625 -19.475703 12.277079 25.254857 1.081056 1.063143 0.082184 -0.025580 -356604.000000 0 0 1
-9.638625 -18.649103 11.383379 23.880399 1.093767 1.073919 0.071332 -0.028353 298068.000000 0 1 0
-8.537425 -18.075003 12.110179 23.371987 1.129526 1.026111 0.060852 -0.017283 205791.000000 0 1 0
-7.544025 -17.390703 11.173279 22.004341 1.161499 1.038195 0.044670 -0.015615 -223217.000000 0 1 0
-6.690525 -18.283503 10.496179 22.118304 1.219999 1.076347 0.040208 -0.016482 -285961.000000 0 1 0
-6.159625 -17.597103 9.385279 20.873008 1.234089 1.104437 0.034743 -0.009817 379705.000000 0 1 0
-5.006425 -18.345603 8.609679 20.874674 1.304388 1.145659 0.028268 -0.010803 1125220.000000 0 1 0
-3.749925 -18.312003 9.299579 20.877585 1.368809 1.109138 0.027311 -0.011829 188965.000000 0 1 0
-2.744525 -18.791803 8.440679 20.782429 1.425773 1.152565 0.035833 -0.014969 259355.000000 0 1 0
-1.344225 -18.971203 9.066579 21.069322 1.500058 1.125948 0.034942 -0.021833 537510.000000 0 1 0
-0.403425 -19.722203 8.284279 21.395264 1.550344 1.173202 0.043480 -0.003894 -280833.000000 0 1 0
0.811375 -19.749203 8.955879 21.700164 -1.529735 1.145369 0.049044 -0.016341 -916274.000000 0 1 0
2.055075 -20.257603 8.248579 21.968907 -1.469695 1.185897 0.059679 -0.024827 -257280.000000 0 1 0
2.187275 -21.631903 7.918279 23.139199 -1.470025 1.221537 0.058598 -0.015643 -147088.000000 0 1 0
2.142075 -22.543903 9.018879 24.375320 -1.476063 1.191787 0.065613 -0.023753 -218182.000000 0 1 0
2.023875 -24.003403 8.534579 25.555791 -1.486679 1.230296 0.062818 -0.016650 36740.900000 0 0 1
1.709475 -24.835303 9.592079 26.678129 -1.502072 1.203012 0.079689 -0.019835 -192732.000000 0 0 1
1.473575 -26.103803 9.071879 27.674518 -1.514406 1.236816 0.078472 -0.019787 -1209840.000000 0 0 1
1.554775 -27.255593 10.137379 29.121317 -1.513814 1.215244 0.101866 -0.027773 69901.700000 0 0 1
0.613575 -27.292433 11.182579 29.500906 -1.548319 1.182017 0.095744 -0.036679 -44353.000000 0 0 1
-0.737125 -27.366393 10.733279 29.405205 1.543867 1.197150 0.081381 -0.031626 85639.300000 0 0 1
-1.703525 -27.457483 11.964879 29.999562 1.508833 1.160550 0.079924 -0.035684 92760.600000 0 0 1
-1.575525 -28.579933 12.741379 31.331096 1.515725 1.151992 0.086148 -0.038983 -127069.000000 0 0 1
-1.293125 -28.224183 14.084679 31.569841 1.525012 1.108345 0.086471 -0.037173 -39721.200000 0 0 1
-0.852425 -29.388243 15.010879 33.010937 1.541799 1.098734 0.078585 -0.022796 172082.000000 0 0 1
-1.035925 -29.014263 16.399779 33.344465 1.535107 1.056607 0.089423 -0.022613 15352.200000 0 0 1
-0.867825 -30.150213 17.197679 34.721011 1.542021 1.052604 0.085953 -0.020874 -79637.300000 0 0 1
-1.195125 -29.926873 18.706379 35.312528 1.530883 1.012505 0.085995 -0.019263 540736.000000 0 0 1
-2.608225 -29.757183 18.821479 35.306385 1.483369 1.008548 0.077785 -0.011542 407233.000000 0 0 1
-3.021625 -29.887143 20.178579 36.187658 1.470038 0.979293 0.095385 -0.016071 397933.000000 0 0 1
-4.570825 -29.901333 20.296079 36.426817 1.419107 0.979817 0.089360 -0.022077 268158.000000 0 0 1
-5.240125 -28.681333 20.004879 35.359199 1.390088 0.969440 0.083235 -0.021335 349468.000000 0 0 1
-6.581925 -28.667713 20.479879 35.841107 1.345114 0.962576 0.077478 -0.029777 533525.000000 0 0 1
-6.696325 -27.743293 21.696279 35.850517 1.333959 0.920795 0.102258 -0.038714 -71027.500000 0 0 1
-5.701825 -28.057123 22.668979 36.518428 1.370305 0.901092 0.106255 -0.031168 298379.000000 0 0 1
-5.653625 -27.097713 23.692779 36.436209 1.365109 0.862878 0.124374 -0.034612 -308873.000000 0 0 1
-4.520925 -27.407243 24.694079 37.167099 1.407315 0.844096 0.146951 -0.035743 -31833.800000 0 0 1
-4.713925 -28.550433 25.512379 38.577581 1.407164 0.848210 0.141765 -0.039235 152639.000000 0 0 1
-4.200525 -29.703673 24.874479 38.970403 1.430314 0.878519 0.139533 -0.034317 -123372.000000 0 0 1
-4.374025 -30.956373 25.673779 40.454568 1.430429 0.883264 0.124236 -0.030186 -159819.000000 0 0 1
-3.766125 -30.825313 26.901479 41.086168 1.449222 0.856935 0.126923 -0.034066 -56252.600000 0 0 1
-4.041425 -31.923653 27.729379 42.477891 1.444870 0.859527 0.107585 -0.031576 -205499.000000 0 0 1
-3.437325 -31.708323 29.127279 43.192955 1.462813 0.830709 0.113785 -0.035033 138476.000000 0 0 1
-2.022225 -31.778473 29.175179 43.187403 1.507247 0.829088 0.104558 -0.032231 207189.000000 0 0 1
-1.540325 -31.578413 30.489479 43.922399 1.522057 0.803534 0.109528 -0.035676 21415.500000 0 0 1
-29.216965 2.870897 -9.740321 30.931326 -0.097947 1.891149 0.163021 -0.033747 397770.000000 0 0 1
-30.373285 2.564597 -10.523821 32.246929 -0.084236 1.903237 0.143867 -0.044820 589217.000000 0 0 1
-30.938995 3.829797 -10.907621 33.028245 -0.123159 1.907366 0.122696 -0.043759 -159786.000000 0 0 1
-31.807565 3.810997 -12.175821 34.270913 -0.119246 1.934012 0.145046 -0.045302 -36077.300000 0 0 1
-33.010025 3.091997 -12.006821 35.261678 -0.093396 1.918252 0.164817 -0.053378 -203686.000000 0 0 1
-33.633135 2.802897 -13.171721 36.228970 -0.083145 1.942892 0.157959 -0.044853 -469907.000000 0 0 1
-34.754557 1.753297 -12.956821 37.132634 -0.050405 1.927229 0.130728 -0.043763 92205.400000 0 0 1
-34.314196 0.401497 -12.780021 36.619041 -0.011700 1.927299 0.153123 -0.038065 611181.000000 0 0 1
-35.358514 -0.290303 -12.098321 37.372158 0.008210 1.900461 0.136522 -0.034294 477772.000000 0 0 1
-34.970756 -1.763803 -11.826421 36.958477 0.050394 1.896517 0.136477 -0.033647 -42909.500000 0 0 1
-35.242819 -2.632203 -12.897921 37.621020 0.074549 1.920733 0.131995 -0.030054 163140.000000 0 0 1
-34.765075 -3.929303 -12.604021 37.187514 0.112547 1.916577 0.151590 -0.031995 -12836.800000 0 0 1
-35.211414 -5.062703 -13.554521 38.068355 0.142801 1.934842 0.140775 -0.031360 243931.000000 0 0 1
-34.628298 -6.263603 -13.098521 37.548941 0.178946 1.927128 0.154430 -0.034836 376843.000000 0 0 1
-35.277156 -7.267803 -13.850721 38.589392 0.203177 1.937913 0.154077 -0.028313 -386637.000000 0 0 1
-35.014673 -8.648103 -13.296221 38.439648 0.242139 1.923993 0.169219 -0.026509 881220.000000 0 0 1
-33.688545 -9.211403 -13.222821 37.344491 0.266904 1.932723 0.175598 -0.022729 1045110.000000 0 0 1
-32.963255 -9.328803 -14.434721 37.174775 0.275794 1.969575 0.166012 -0.024267 -351826.000000 0 0 1
-31.744395 -10.266303 -14.321621 36.307195 0.312789 1.976273 0.178843 -0.028091 -38375.500000 0 0 1
-32.067945 -11.604903 -13.990521 36.861383 0.347223 1.960100 0.171483 -0.021051 -680558.000000 0 0 1
-30.901515 -12.295003 -13.779521 35.999249 0.378675 1.963592 0.188127 -0.020804 -645866.000000 0 0 1
-31.145945 -13.700103 -14.250121 36.889411 0.414396 1.967406 0.191212 -0.026775 -13032.900000 0 0 1
-31.174975 -13.795603 -15.692421 37.529319 0.416618 2.002190 0.178271 -0.027546 155825.000000 0 0 1
-31.362915 -15.137103 -16.224421 38.418695 0.449666 2.006783 0.169033 -0.026853 382509.000000 0 0 1
-30.302735 -16.255603 -15.798021 37.842804 0.492373 2.001449 0.164352 -0.015581 214079.000000 0 0 1
-29.035745 -15.844903 -16.218421 36.839824 0.499538 2.026664 0.159033 -0.029477 -766346.000000 0 0 1
-28.115735 -16.927503 -16.259521 36.625223 0.541937 2.030791 0.144648 -0.027559 1979210.000000 0 0 1
-26.593165 -16.428703 -16.380621 35.290558 0.553390 2.053487 0.137819 -0.039757 1761110.000000 0 0 1
-26.358795 -16.002403 -17.703421 35.556632 0.545623 2.091965 0.142742 -0.037687 -862249.000000 0 0 1
-25.016525 -15.783403 -17.973021 34.611729 0.562844 2.116799 0.093630 -0.027921 -738767.000000 0 0 1
-24.853525 -15.488803 -19.483221 35.173806 0.557306 2.157853 0.103385 -0.021547 107353.000000 0 0 1
-25.425335 -16.423703 -20.393421 36.497634 0.573529 2.163686 0.103228 -0.028138 1095940.000000 0 0 1
-26.833445 -16.405203 -20.667321 37.633796 0.548739 2.152166 0.119081 -0.033648 818849.000000 0 0 1
-27.326995 -17.587203 -21.566121 39.002204 0.571851 2.156692 0.120863 -0.031027 -363143.000000 0 0 1
-26.698655 -17.570103 -22.751221 39.231935 0.582041 2.189422 0.114733 -0.018371 -192362.000000 0 0 1
-27.178835 -18.625603 -23.585221 40.519931 0.600791 2.192062 0.116311 -0.020796 1767.360000 0 0 1
-26.323505 -18.820503 -24.870021 40.812451 0.620702 2.226066 0.105562 -0.022188 1897090.000000 0 0 1
-24.959525 -19.332503 -24.711921 40.092426 0.659031 2.234926 0.092194 -0.021812 1538700.000000 0 0 1
-24.886825 -20.719603 -24.438621 40.569720 0.694278 2.217283 0.078247 -0.018340 201829.000000 0 0 1
-23.416725 -21.228803 -24.511921 39.997992 0.736431 2.230432 0.075518 -0.004336 779255.000000 0 0 1
-22.773625 -21.150403 -25.811041 40.400339 0.748460 2.263840 0.078425 -0.010191 453162.000000 0 0 1
-21.375125 -21.371003 -25.641711 39.637269 0.785302 2.274321 0.056311 -0.011897 168054.000000 0 0 1
-20.659225 -21.093703 -26.976991 39.993824 0.795804 2.311123 0.052730 -0.011942 -318804.000000 0 0 1
-20.743125 -22.131103 -27.970521 41.260308 0.817760 2.315704 0.073374 -0.012270 -189142.000000 0 0 1
-21.798225 -22.008303 -28.899311 42.363878 0.790194 2.321521 0.095357 -0.016328 -71129.600000 0 0 1
-21.280325 -22.099303 -30.292391 43.114503 0.804275 2.349846 0.096201 -0.024842 -131741.000000 0 0 1
-20.660125 -23.332503 -30.637741 43.702604 0.846070 2.347666 0.090974 -0.031985 106723.000000 0 0 1
-20.151025 -23.267503 -31.956951 44.369891 0.857053 2.374944 0.093578 -0.020015 767119.000000 0 0 1
-19.276625 -24.537903 -32.413281 44.992419 0.904907 2.375199 0.103860 -0.013986 553147.000000 0 0 1
-18.610525 -24.596803 -33.667321 45.660079 0.923069 2.399931 0.095142 -0.016247 -134570.000000 0 0 1
-19.393125 -24.469703 33.024386 45.447439 0.900623 0.757363 0.135700 -0.018022 -113699.000000 0 0 1
-18.630325 -24.336903 31.633362 44.045925 0.917438 0.769598 0.133935 -0.016818 -29040.300000 0 0 1
-17.977025 -23.099703 31.509242 43.007000 0.909468 0.748583 0.088423 -0.017405 83035.100000 0 0 1
-17.273325 -23.061803 30.260622 41.784205 0.927935 0.760905 0.094766 -0.020221 330142.000000 0 0 1
-16.495725 -21.727803 30.001872 40.550200 0.921434 0.737919 0.064597 -0.017315 185816.000000 0 0 1
-17.327625 -20.626703 29.673662 40.077846 0.872103 0.737130 0.076214 -0.026032 309873.000000 0 0 1
-16.585025 -19.419203 29.522432 39.035145 0.863954 0.713151 0.066939 -0.020862 167165.000000 0 0 1
-16.078925 -18.673703 30.799392 39.444158 0.859924 0.674795 0.062801 -0.022715 297865.000000 0 0 1
-15.549625 -17.369503 30.496462 38.386517 0.840625 0.652682 0.066030 -0.017741 141389.000000 0 0 1
-14.984825 -16.813803 31.684912 38.873932 0.842852 0.617949 0.055990 -0.023999 126945.000000 0 0 1
-14.462825 -15.345103 31.568332 37.963207 0.814988 0.588903 0.066803 -0.026575 -427828.000000 0 0 1
-13.314325 -15.334203 30.755012 36.854848 0.855787 0.583589 0.072809 -0.028559 -101951.000000 0 0 1
-12.949725 -14.041103 30.255302 35.780320 0.825811 0.563136 0.064090 -0.030920 -615294.000000 0 0 1
-11.573625 -14.007003 29.622162 34.750790 0.880239 0.550206 0.064951 -0.023821 -471783.000000 0 0 1
-10.979625 -12.745703 29.481112 33.943204 0.859700 0.518543 0.072944 -0.026444 336666.000000 0 0 1
-9.677725 -12.763403 30.088492 34.086364 0.922042 0.489191 0.070643 -0.024704 600541.000000 0 0 1
-9.203725 -11.310103 30.283402 33.611180 0.887720 0.448746 0.069472 -0.018331 -92160.700000 0 0 1
-9.998425 -10.563303 31.207432 34.430447 0.812864 0.436136 0.064214 -0.014258 300049.000000 0 0 1
-9.599425 -9.191203 31.191272 33.904611 0.763677 0.402789 0.046121 -0.007267 420614.000000 0 0 1
-10.422125 -8.293203 32.212348 34.857328 0.672132 0.392071 0.030501 -0.010308 1283630.000000 0 0 1
-11.791825 -8.024803 31.861040 34.908029 0.597545 0.420919 0.050752 -0.015528 1014560.000000 0 0 1
-12.618025 -7.345503 32.792739 35.896166 0.527186 0.418882 0.051595 -0.016585 325336.000000 0 0 1
-12.286525 -5.820403 33.069449 35.755059 0.442405 0.390054 0.038885 -0.014175 -331090.000000 0 0 1
-12.375325 -4.956303 31.956268 34.625377 0.380936 0.395213 0.043977 -0.015850 280206.000000 0 0 1
-12.566325 -3.582103 32.308554 34.850921 0.277691 0.384329 0.046850 -0.021236 -615600.000000 0 0 1
-12.118525 -2.579103 31.247722 33.614440 0.209695 0.377491 0.044406 -0.019805 615058.000000 0 0 1
-10.700925 -2.367903 31.378972 33.237880 0.217771 0.336026 0.044954 -0.016352 802651.000000 0 0 1
-10.339025 -1.285103 30.565362 32.292233 0.123662 0.328511 0.039600 -0.009355 623701.000000 0 0 1
-8.796325 -0.992703 30.678072 31.929687 0.112379 0.280920 0.042709 -0.008623 892052.000000 0 0 1
-8.499225 -0.580203 32.023040 33.136816 0.068160 0.260005 0.050531 -0.027998 -267339.000000 0 0 1
-7.172325 -0.108103 32.056415 32.849166 0.015071 0.220140 0.069970 -0.024372 -121081.000000 0 0 1
-6.838525 0.349997 33.485653 34.178603 -0.051136 0.201709 0.104641 -0.047140 -393502.000000 0 0 1
-7.462025 1.560697 33.887032 34.733968 -0.206180 0.221284 0.096554 -0.033083 -297745.000000 0 0 1
-6.924125 2.752797 33.330410 34.153150 -0.378406 0.219941 0.104492 -0.028698 -161843.000000 0 0 1
-7.715125 4.038197 33.612925 34.722600 -0.482202 0.253495 0.101202 -0.024392 -338950.000000 0 0 1
-8.876325 4.141297 32.850515 34.279670 -0.436536 0.289772 0.063141 -0.014105 -483779.000000 0 0 1
-9.631225 5.297897 33.135559 34.911223 -0.502901 0.320310 0.049647 -0.001103 258113.000000 0 0 1
-10.860625 5.297397 32.173631 34.367981 -0.453809 0.359277 0.036096 0.004302 150962.000000 0 0 1
-11.858125 6.220497 32.521662 35.170559 -0.483115 0.390591 0.048912 0.004828 -199895.000000 0 0 1
-12.856025 6.330897 31.547882 34.650058 -0.457586 0.426374 0.029630 0.010205 5518.850000 0 0 1
-13.735225 7.605697 31.764432 35.432784 -0.505707 0.459058 0.053045 -0.005598 250981.000000 0 0 1
-14.633625 7.604497 32.864007 36.769747 -0.479251 0.465096 0.065769 -0.006284 246239.000000 0 0 1
-15.322025 8.840297 32.898648 37.352862 -0.523311 0.493346 0.052858 0.000702 -195589.000000 0 0 1
-16.282325 8.911597 -33.828061 38.585857 -0.500781 2.639746 0.062678 -0.001880 -524880.000000 0 0 1
-15.555825 9.195997 -32.670331 37.334978 -0.533895 2.636355 0.065797 -0.005701 -130793.000000 0 0 1
-16.295525 9.572097 -31.513611 36.746113 -0.531108 2.601389 0.067566 -0.007156 -1407340.000000 0 0 1
-15.490325 9.830997 -30.242611 35.372506 -0.565511 2.596299 0.087514 -0.011704 155009.000000 0 0 1
-14.571625 10.906497 -30.247151 35.301191 -0.642524 2.599888 0.092181 -0.014640 -644536.000000 0 0 1
-13.376325 10.766897 -30.915321 35.363954 -0.677735 2.634591 0.095349 -0.020813 -1213150.000000 0 0 1
-12.678425 12.164997 -30.882701 35.531266 -0.764735 2.624317 0.098145 -0.020983 -240341.000000 0 0 1
-13.072725 13.182897 -31.768941 36.796067 -0.789594 2.612725 0.093404 -0.024483 120914.000000 0 0 1
-12.115525 14.226797 -31.878821 36.951954 -0.865375 2.611401 0.090286 -0.026009 53665.800000 0 0 1
-12.166825 15.346997 -30.821831 36.517766 -0.900472 2.575537 0.088729 -0.028346 851773.000000 0 0 1
-13.447225 16.005797 -30.985641 37.378113 -0.872050 2.548075 0.091668 -0.026649 1156660.000000 0 0 1
-13.741725 16.893897 -29.940081 37.022253 -0.887930 2.512744 0.078873 -0.021769 -1600570.000000 0 0 1
-15.146425 17.350797 -30.026541 37.842536 -0.853127 2.487270 0.072033 -0.033635 -2026460.000000 0 0 1
-15.364325 18.317997 -31.023641 39.167305 -0.872866 2.485005 0.065496 -0.026553 -183989.000000 0 0 1
-16.698925 18.561197 -31.388101 40.107169 -0.838164 2.469637 0.057180 -0.026315 110439.000000 0 0 1
-17.368325 19.609797 -30.449061 40.166506 -0.845940 2.431146 0.027919 -0.012846 -366942.000000 0 0 1
-16.705925 20.865397 -30.585711 40.619434 -0.895658 2.423379 0.025145 -0.005463 388861.000000 0 0 1
-17.480725 21.971197 -30.175571 41.217403 -0.898732 2.392207 0.006225 -0.002946 997054.000000 0 0 1
-18.825125 22.362397 -30.942991 42.566781 -0.871070 2.384634 0.027821 0.000858 908007.000000 0 0 1
-19.929625 21.758497 -30.331091 42.315449 -0.829240 2.369977 0.029484 -0.001444 -761199.000000 0 0 1
-21.042625 21.611697 -31.143301 43.356230 -0.798739 2.372169 0.055822 -0.012727 -247612.000000 0 0 1
-22.347525 21.227197 -30.316321 43.232917 -0.759693 2.347921 0.065274 -0.017535 371571.000000 0 0 1
-23.012525 22.350797 -29.708121 43.723070 -0.770812 2.317824 0.091627 -0.022541 687817.000000 0 0 1
-23.582225 23.347397 -30.619701 45.152944 -0.780394 2.316016 0.090479 -0.013781 -479265.000000 0 0 1
-24.788125 22.903997 -31.486761 46.156910 -0.745913 2.321520 0.099057 -0.031101 -453816.000000 0 0 1
-24.479225 21.867197 -32.434351 46.145356 -0.729099 2.350226 0.100458 -0.030024 1065760.000000 0 0 1
-25.639935 21.560697 -33.275751 47.218064 -0.699189 2.352832 0.124856 -0.031327 987853.000000 0 0 1
-25.545805 20.428097 33.545395 46.852843 -0.674537 0.772779 0.129012 -0.025920 -150962.000000 0 0 1
-25.368665 19.111197 -33.832551 46.405264 -0.645634 2.387754 0.128335 -0.027196 359599.000000 0 0 1
-25.130085 18.179597 33.005364 45.292085 -0.626272 0.754342 0.115236 -0.034233 -351725.000000 0 0 1
-25.069205 16.763497 33.617888 45.162399 -0.589401 0.731194 0.079463 -0.023435 -765096.000000 0 0 1
-26.244975 16.017697 33.589517 45.537029 -0.547969 0.741242 0.083512 -0.012667 -273701.000000 0 0 1
-26.513815 15.352797 32.374185 44.573295 -0.524872 0.757853 0.095638 -0.019277 -188898.000000 0 0 1
-27.415995 14.094297 32.521619 44.810063 -0.474856 0.758649 0.075652 -0.018128 284609.000000 0 0 1
-28.679815 14.401197 33.096383 46.100942 -0.465356 0.769999 0.081407 -0.016262 155643.000000 0 0 1
-29.581425 13.282197 33.074871 46.318728 -0.422026 0.775500 0.061880 -0.014577 200655.000000 0 0 1
-29.401925 12.011497 -33.899901 46.453768 -0.387836 2.388761 0.054155 -0.016984 76467.600000 0 0 1
-28.218545 11.253497 33.748058 45.407697 -0.379470 0.732921 0.052792 -0.026243 157109.000000 0 0 1
-28.544445 9.843397 33.786738 45.312487 -0.332075 0.729304 0.063069 -0.022168 -180764.000000 0 0 1
-27.369105 8.809697 33.787838 44.365490 -0.311412 0.705050 0.058468 -0.026029 585464.000000 0 0 1
-26.518365 8.780097 32.646762 42.966555 -0.319735 0.707763 0.045351 -0.028112 850799.000000 0 0 1
-25.436605 9.719797 32.553099 42.440542 -0.364997 0.696600 0.034191 -0.027646 -9242.910000 0 0 1
-24.130825 9.138697 32.016118 41.119878 -0.362023 0.678358 0.042220 -0.019457 -784058.000000 0 0 1
-24.139425 8.936697 30.637532 40.015432 -0.354566 0.698756 0.051630 -0.014877 212109.000000 0 0 1
-22.886525 8.587497 30.078252 38.758733 -0.358964 0.682437 0.064169 -0.013485 112797.000000 0 0 1
-22.830325 8.830597 28.494322 37.565005 -0.369069 0.709736 0.089151 -0.019044 149208.000000 0 0 1
-23.209425 10.156497 28.043032 37.792109 -0.412496 0.734697 0.096074 -0.022175 296570.000000 0 0 1
-23.345125 10.173397 26.657062 36.865863 -0.410968 0.762542 0.086026 -0.024325 -607054.000000 0 0 1
-23.887425 11.541197 26.088792 37.207975 -0.450077 0.793771 0.091329 -0.021775 717226.000000 0 0 1
-25.261645 11.763597 26.364692 38.361829 -0.435809 0.813081 0.110032 -0.020717 -371345.000000 0 0 1
-26.181945 11.122097 25.571812 38.250659 -0.401701 0.838562 0.117351 -0.013903 -886948.000000 0 0 1
-27.611885 11.604397 25.880772 39.583994 -0.397856 0.858175 0.108739 -0.014727 -197594.000000 0 0 1
-27.856175 12.860297 25.295352 39.764413 -0.432514 0.881324 0.120288 -0.020654 -26906.600000 0 0 1
-29.068205 13.448497 25.734992 41.086646 -0.433326 0.893923 0.092291 -0.019624 243178.000000 0 0 1
-29.368615 14.721497 24.928132 41.238936 -0.464660 0.921683 0.099829 -0.020873 -209516.000000 0 0 1
-28.604555 15.795897 25.360032 41.362570 -0.504543 0.910798 0.098016 -0.017344 -140394.000000 0 0 1
-28.980915 16.928497 24.553832 41.585552 -0.528665 0.939191 0.098874 -0.004675 218058.000000 0 0 1
-23.702425 -8.841303 31.402762 40.325018 0.357027 0.678139 0.087894 -0.031780 655218.000000 0 0 1
-22.538125 -8.636803 30.561052 38.942770 0.365948 0.668474 0.090081 -0.039206 805389.000000 0 0 1
-22.811725 -8.841003 29.186052 38.083642 0.369740 0.697629 0.087387 -0.035311 -690169.000000 0 0 1
-21.615325 -8.577003 28.321882 36.645822 0.377746 0.687469 0.115718 -0.037654 -1339160.000000 0 0 1
-21.262925 -7.211003 28.336372 36.153292 0.326963 0.670061 0.106659 -0.037016 -414005.000000 0 0 1
-19.963725 -6.937203 28.760022 35.690531 0.334437 0.633743 0.100886 -0.037565 -75148.800000 0 0 1
-18.734625 -7.375303 27.875492 34.386398 0.375040 0.625527 0.101304 -0.034547 -385543.000000 0 0 1
-18.367725 -8.750403 27.965362 34.583296 0.444591 0.628963 0.098427 -0.029893 413144.000000 0 0 1
-17.669925 -9.119403 29.177612 35.308962 0.476442 0.598199 0.085092 -0.031507 -294316.000000 0 0 1
-16.266525 -8.599103 29.516732 34.781919 0.486295 0.557420 0.067673 -0.025873 -213259.000000 0 0 1
-15.195625 -9.178803 28.790842 33.824105 0.543387 0.552542 0.069061 -0.015790 -1386620.000000 0 0 1
-13.981525 -8.749203 29.235112 33.566701 0.559152 0.513652 0.060411 -0.019809 -1043900.000000 0 0 1
-12.874425 -9.705603 28.758242 32.969472 0.645971 0.510974 0.055569 -0.016480 -260702.000000 0 0 1
-12.620025 -9.574003 27.411862 31.659703 0.649005 0.523993 0.061947 -0.024721 572854.000000 0 0 1
-11.401125 -10.274303 27.070602 31.118555 0.733459 0.515760 0.079136 -0.022747 769180.000000 0 0 1
-11.027625 -10.068003 25.609102 29.644550 0.739940 0.527889 0.061264 -0.016342 174683.000000 0 0 1
-11.917025 -10.699903 24.685682 29.425946 0.731635 0.575521 0.061330 -0.022873 273887.000000 0 0 1
-11.501925 -10.435103 23.319962 28.017964 0.736805 0.587513 0.075201 -0.032578 242557.000000 0 0 1
-12.513825 -11.074303 22.365962 27.919031 0.724446 0.641664 0.091779 -0.039963 -291005.000000 0 0 1
-12.630225 -12.451703 22.566862 28.702452 0.778281 0.666105 0.080316 -0.035268 203529.000000 0 0 1
-13.848525 -12.946003 22.053162 29.081310 0.751728 0.710052 0.086334 -0.028976 468176.000000 0 0 1
-15.105125 -12.883803 22.952292 30.347404 0.706200 0.713130 0.094920 -0.030597 -340436.000000 0 0 1
-16.308025 -13.437703 22.506962 30.872105 0.689201 0.753880 0.086918 -0.026671 -164662.000000 0 0 1
-17.347125 -13.138303 23.417992 31.967798 0.648205 0.748737 0.093290 -0.025998 474523.000000 0 0 1
-18.659825 -13.921203 23.047452 32.759335 0.640970 0.790432 0.103184 -0.024182 51348.500000 0 0 1
-18.524625 -15.330103 23.227362 33.431784 0.691317 0.802698 0.088615 -0.019408 1431050.000000 0 0 1
-19.793025 -16.057003 23.043002 34.359440 0.681560 0.835718 0.081762 -0.010014 1723210.000000 0 0 1
-20.731525 -15.978003 24.294472 35.711540 0.656625 0.822628 0.087669 -0.019421 -390086.000000 0 0 1
-20.317325 -16.840103 25.306942 36.562605 0.692089 0.806328 0.092994 -0.029015 -227635.000000 0 0 1
-20.934225 -16.668903 26.524632 37.678246 0.672451 0.789814 0.091833 -0.029900 -818296.000000 0 0 1
-20.399725 -17.601903 27.613212 38.580633 0.711907 0.773131 0.081085 -0.034551 -187801.000000 0 0 1
-20.593525 -18.972403 27.348002 39.140242 0.744448 0.797192 0.088405 -0.028260 125506.000000 0 0 1
-20.304525 -19.780903 28.476552 40.180491 0.772336 0.783120 0.082446 -0.029635 -376384.000000 0 0 1
-20.431625 -21.254203 28.095052 40.724985 0.805128 0.809483 0.093402 -0.020952 871057.000000 0 0 1
-21.798325 -21.651403 27.875202 41.484661 0.782017 0.833971 0.096817 -0.020699 673800.000000 0 0 1
-21.825925 -22.973203 27.393232 41.887089 0.811002 0.857966 0.097275 -0.008664 -439276.000000 0 0 1
-23.194525 -23.566103 27.093082 42.747892 0.793344 0.884356 0.099514 -0.001133 63356.200000 0 0 1
-24.058025 -23.824403 28.241342 44.090409 0.780519 0.875605 0.099182 0.003356 1076610.000000 0 0 1
-25.219015 -24.545803 27.812232 44.855495 0.771871 0.902002 0.077280 0.010452 524933.000000 0 0 1
-25.975175 -25.325383 28.926402 46.398507 0.772732 0.897669 0.048023 0.001324 -457288.000000 0 0 1
-26.936955 -24.601903 29.609952 46.985130 0.740122 0.888988 0.028881 0.015300 -293126.000000 0 0 1
-27.654375 -25.480853 30.454952 48.389487 0.744515 0.890052 0.015522 0.021944 -216852.000000 0 0 1
-28.671585 -24.693703 31.286812 49.098914 0.710995 0.879911 -0.002753 0.018994 -769773.000000 0 0 1
-29.781935 -24.291603 30.573272 49.109781 0.684210 0.898800 0.012825 0.018068 -1004170.000000 0 0 1
-30.622265 -23.500403 31.320232 49.708641 0.654562 0.889145 0.028503 0.000157 -805201.000000 0 0 1
-31.938855 -23.241103 30.554372 49.938052 0.629059 0.912405 0.037800 -0.006740 -731132.000000 0 0 1
-32.789595 -24.326803 30.552742 50.994323 0.638301 0.928370 0.046152 -0.010327 -804829.000000 0 0 1
-33.703455 -24.207603 29.503432 50.915454 0.622871 0.952731 0.042774 -0.009538 -494875.000000 0 0 1
-34.850116 -25.201073 29.656972 52.241369 0.626080 0.967098 0.047166 -0.011617 -630329.000000 0 0 1
-34.391806 -26.501363 29.555902 52.523042 0.656538 0.973121 0.035817 -0.011507 -207187.000000 0 0 1
-35.344716 -27.513703 29.826372 53.813245 0.661455 0.983326 0.026708 -0.008304 -222527.000000 0 0 1
-34.744936 -28.834693 30.238092 54.341442 0.692706 0.980694 0.022239 -0.004462 -52326.100000 0 0 1
-34.247427 -28.862423 31.601502 54.814055 0.700277 0.956331 0.037732 -0.009395 -104263.000000 0 0 1
-33.869695 -30.174833 31.885539 55.446951 0.727770 0.958114 0.023068 -0.013452 -187507.000000 0 0 1
-33.060835 -30.386353 33.183045 55.834253 0.743270 0.934385 0.015469 -0.013356 -48023.500000 0 0 1
-33.852245 -30.263853 -33.524461 56.442579 0.729489 2.206765 0.029467 -0.007863 -128625.000000 0 0 1
-33.059685 -30.337093 -32.373161 55.329048 0.742479 2.195803 0.026486 -0.012387 -161145.000000 0 0 1
-33.729025 -29.709113 -31.106001 54.661338 0.722115 2.176168 0.043043 -0.020280 -74912.500000 0 0 1
-33.850485 -28.302093 -30.963631 53.903713 0.696364 2.182698 0.037638 -0.019830 136390.000000 0 0 1
-32.607645 -27.599613 -30.915491 52.732957 0.702409 2.197237 0.044365 -0.014228 222676.000000 0 0 1
-32.729445 -26.102093 -30.906871 52.036242 0.673221 2.206755 0.049359 -0.015674 -375926.000000 0 0 1
-33.307205 -25.617713 -29.731241 51.474108 0.655635 2.186577 0.042639 -0.023125 -115339.000000 0 0 1
-33.071535 -24.200503 -29.645631 50.579187 0.631726 2.197062 0.060783 -0.024278 440948.000000 0 0 1
-31.622165 -23.689403 -29.358881 49.224923 0.642950 2.209834 0.075931 -0.023802 205802.000000 0 0 1
-31.567995 -22.296003 -29.004971 48.321200 0.614932 2.214614 0.078281 -0.023520 431071.000000 0 0 1
-30.311895 -21.959003 -28.406371 46.988623 0.626938 2.219981 0.100501 -0.021184 515369.000000 0 0 1
-30.103845 -20.452403 -28.278001 46.088910 0.596763 2.231349 0.107288 -0.027434 -29480.000000 0 0 1
-29.819405 -19.828203 -29.537341 46.419921 0.586808 2.260498 0.117523 -0.022530 200136.000000 0 0 1
-29.447945 -18.447803 -29.433561 45.539405 0.559645 2.273564 0.105103 -0.025677 -320013.000000 0 0 1
-29.004365 -17.986303 -30.831241 45.992670 0.555085 2.305478 0.114480 -0.022621 766382.000000 0 0 1
-30.029525 -17.896503 -31.859851 47.298069 0.537446 2.309862 0.102350 -0.030474 626859.000000 0 0 1
-31.026325 -16.936003 -31.636561 47.437675 0.499658 2.300848 0.090962 -0.029258 -785452.000000 0 0 1
-31.556595 -16.266603 -32.935961 48.427250 0.475950 2.318712 0.086291 -0.033301 510886.000000 0 0 1
-32.506345 -16.916503 -33.787001 49.843675 0.479839 2.315643 0.088333 -0.045459 260225.000000 0 0 1
-33.831385 -17.001103 -33.351461 50.457111 0.465665 2.292929 0.079866 -0.039158 -63352.500000 0 0 1
-34.859996 -17.574503 33.511128 51.449764 0.466958 0.861451 0.081934 -0.041870 32583.300000 0 0 1
-34.999445 -18.977503 33.532066 52.052918 0.496853 0.870830 0.063998 -0.037439 -251472.000000 0 0 1
-35.856008 -19.433303 32.549928 52.180498 0.496666 0.897208 0.066511 -0.032621 -829144.000000 0 0 1
-36.221825 -20.896603 32.772240 53.129166 0.523266 0.906074 0.054117 -0.026980 -314470.000000 0 0 1
-35.101040 -21.711503 32.634757 52.616535 0.553943 0.901751 0.060433 -0.029680 -297530.000000 0 0 1
-35.381121 -23.002103 33.148877 53.663475 0.576462 0.904959 0.052159 -0.021757 310459.000000 0 0 1
-34.105293 -23.908103 33.456122 53.423595 0.611403 0.894072 0.050932 -0.019062 760517.000000 0 0 1
-33.311875 -23.530203 -33.315731 52.662030 0.614982 2.255744 0.034656 -0.022167 -113827.000000 0 0 1
-32.436805 -22.482403 -33.667201 51.875670 0.606090 2.277063 0.041900 -0.028240 -661017.000000 0 0 1
-31.034185 -22.621703 -32.992071 50.629427 0.629878 2.280539 0.062153 -0.029128 -445601.000000 0 0 1
-30.322955 -23.713903 -33.510411 51.037030 0.663696 2.287085 0.056374 -0.018138 223090.000000 0 0 1
-28.967545 -23.619503 -33.077911 49.911399 0.684048 2.295258 0.080613 -0.019485 462692.000000 0 0 1
-28.493875 -23.901203 -31.613411 48.811640 0.697967 2.275307 0.084349 -0.019679 -1065670.000000 0 0 1
-28.446795 -25.258353 -31.250491 49.232080 0.726098 2.258493 0.075805 -0.014467 -46309.800000 0 0 1
-28.190105 -25.361573 -29.896161 48.287388 0.732628 2.238430 0.066165 -0.017874 -125684.000000 0 0 1
-28.026015 -26.868313 -29.561211 48.797838 0.764312 2.221554 0.060910 -0.019239 -195303.000000 0 0 1
-29.227605 -27.588633 -29.471291 49.839167 0.756559 2.203501 0.055454 -0.013445 -40604.800000 0 0 1
-29.021115 -28.793883 -28.797611 50.006152 0.781468 2.184478 0.063667 -0.017024 118759.000000 0 0 1
-29.791645 -29.987873 -29.440481 51.512683 0.788681 2.179152 0.049102 -0.005326 -7120.580000 0 0 1
-29.436185 -30.315013 -30.755331 52.262600 0.800105 2.199970 0.058567 -0.010578 214084.000000 0 0 1
-29.923905 -31.612543 -31.105441 53.500854 0.812833 2.191246 0.066535 0.000085 -360514.000000 0 0 1
-29.486045 -32.197563 -32.489111 54.421064 0.829328 2.210547 0.038996 -0.014280 194570.000000 0 0 1
-28.077015 -32.335453 -32.645521 53.848216 0.855771 2.222134 0.046663 -0.011949 237076.000000 0 0 1
-27.837535 -32.956893 -33.862651 54.843088 0.869408 2.236288 0.040223 -0.011607 -425083.000000 0 0 1
-26.350475 -33.176493 33.719537 54.148263 0.899570 0.898574 0.058401 -0.014647 -307675.000000 0 0 1
-26.118055 -33.761623 32.461387 53.625942 0.912360 0.920616 0.049287 -0.008712 -153153.000000 0 0 1
-24.821025 33.754110 32.401842 52.965107 -0.936738 0.912515 0.056121 -0.001658 -457045.000000 0 0 1
-24.655925 32.773662 31.245122 51.558561 -0.925819 0.919758 0.067219 -0.007478 -616895.000000 0 0 1
-25.695255 31.859924 31.066462 51.385075 -0.892100 0.921556 0.059486 -0.027162 -270944.000000 0 0 1
-25.649735 31.193994 29.833062 50.209419 -0.882626 0.934560 0.059809 -0.023400 -432036.000000 0 0 1
-26.997495 30.542974 29.501162 50.319545 -0.846937 0.944342 0.056358 -0.023073 -445247.000000 0 0 1
-27.344415 29.418414 30.275782 50.296949 -0.821920 0.924867 0.062519 -0.025492 -208516.000000 0 0 1
-28.583545 28.870094 29.912982 50.450846 -0.790386 0.936124 0.063831 -0.031921 -85001.300000 0 0 1
-28.896295 27.640314 30.825602 50.489609 -0.763186 0.914062 0.061619 -0.042642 -263880.000000 0 0 1
-28.019805 26.589204 30.586112 49.270737 -0.759207 0.901064 0.064318 -0.029207 -361095.000000 0 0 1
-28.507925 25.346884 31.109112 49.223401 -0.726770 0.886667 0.079595 -0.032578 -147708.000000 0 0 1
-29.520015 24.672954 30.202992 48.912234 -0.696195 0.905244 0.098084 -0.036074 -374571.000000 0 0 1
-29.025675 24.351594 28.950362 47.682422 -0.698054 0.918328 0.084810 -0.028989 -710252.000000 0 0 1
-29.875945 23.574944 28.141532 47.331764 -0.668056 0.934079 0.093512 -0.020099 -98222.000000 0 0 1
-29.216355 23.162584 26.814302 45.925020 -0.670332 0.947307 0.097883 -0.021166 -177777.000000 0 0 1
-28.031805 22.414404 26.956462 44.886952 -0.674501 0.926619 0.096102 -0.019275 -43762.700000 0 0 1
-27.545555 21.998904 25.673002 43.609774 -0.673909 0.941349 0.086203 -0.017085 120055.000000 0 0 1
-26.083995 21.492304 25.696212 42.456910 -0.689184 0.920741 0.075573 -0.018823 -113326.000000 0 0 1
-25.968125 20.247304 26.345302 42.170746 -0.662239 0.896011 0.103569 -0.020803 1113130.000000 0 0 1
-24.630525 19.847704 26.711892 41.401924 -0.678278 0.869531 0.085809 -0.006139 907793.000000 0 0 1
-24.772325 18.487604 27.361402 41.280818 -0.641129 0.846229 0.115925 -0.013939 -635157.000000 0 0 1
-23.561525 17.998004 27.824542 40.660531 -0.652321 0.817135 0.107978 -0.010434 -487739.000000 0 0 1
-23.639525 16.891304 28.668272 40.816824 -0.620416 0.792083 0.106416 -0.017351 441273.000000 0 0 1
-22.286125 16.089604 28.648752 39.702616 -0.625310 0.764710 0.112633 -0.019961 1869480.000000 0 0 1
-21.278225 16.667504 29.575202 40.065710 -0.664483 0.740446 0.121485 -0.023103 2051270.000000 0 0 1
-20.041125 15.918204 29.644122 39.163885 -0.671242 0.712202 0.098604 -0.023628 1574190.000000 0 0 1
-18.911025 16.381104 30.616322 39.538925 -0.713835 0.685135 0.076859 -0.025773 201626.000000 0 0 1
-19.272825 16.139704 31.981125 40.678301 -0.697153 0.666167 0.067861 -0.022727 720884.000000 0 0 1
-18.136325 16.367604 32.798896 40.897339 -0.734182 0.640192 0.056167 -0.021733 -220378.000000 0 0 1
-18.495525 16.005304 -33.610841 41.568532 -0.713345 2.512505 0.056357 -0.030557 978464.000000 0 0 1
-19.508025 16.722104 -32.848541 41.703938 -0.708654 2.477799 0.074346 -0.026952 1392780.000000 0 0 1
-20.863025 16.517904 -33.248801 42.586262 -0.669678 2.466646 0.070672 -0.014869 -79636.600000 0 0 1
-21.832425 17.404404 -32.473641 42.826457 -0.673020 2.431438 0.071592 -0.022652 -445270.000000 0 0 1
-22.024825 16.969304 -31.154891 41.757364 -0.656469 2.412972 0.078648 -0.029418 186953.000000 0 0 1
-22.974125 17.747704 -30.459511 42.078180 -0.657752 2.380205 0.082599 -0.029974 -510793.000000 0 0 1
-23.227125 17.443904 -28.960761 41.018469 -0.644150 2.354690 0.082700 -0.030689 70987.500000 0 0 1
-24.006325 16.327704 -28.576911 40.737420 -0.597274 2.348283 0.073919 -0.029714 259907.000000 0 0 1
-25.391745 16.444304 -28.879171 41.822988 -0.574703 2.332990 0.084099 -0.030638 -61013.900000 0 0 1
-26.242825 15.429004 -28.115121 41.439113 -0.531499 2.316472 0.082855 -0.030377 -192965.000000 0 0 1
-25.902155 14.062804 -28.260601 40.833144 -0.497391 2.335190 0.054161 -0.022994 -132399.000000 0 0 1
-26.815495 13.218804 -27.599541 40.688355 -0.457995 2.316264 0.031927 -0.017901 143792.000000 0 0 1
-26.407805 11.711404 -27.685301 40.012561 -0.417421 2.334935 0.041573 -0.020199 29527.400000 0 0 1
-25.288915 11.388004 -26.895671 38.634091 -0.423117 2.340837 0.038850 -0.020636 -300659.000000 0 0 1
-24.709425 10.238104 -27.453161 38.328195 -0.392807 2.369232 0.030575 -0.013720 -6143.260000 0 0 1
-23.425725 9.764804 -26.724211 36.855114 -0.394940 2.381998 0.070848 -0.014401 30584.100000 0 0 1
-23.733125 9.069504 -25.520591 36.011355 -0.365020 2.358424 0.057279 -0.010964 -406840.000000 0 0 1
-22.657725 8.570704 -24.786921 34.658634 -0.361633 2.367668 0.093834 0.005588 -957946.000000 0 0 1
-23.059825 7.615604 -23.731021 33.954592 -0.318977 2.344661 0.093812 0.011614 73479.100000 0 0 1
-23.563725 6.403604 -24.323221 34.465553 -0.265349 2.354243 0.086421 -0.015547 196719.000000 0 0 1
-24.073025 5.470504 -23.397721 34.013090 -0.223451 2.329393 0.094228 -0.005866 -89984.200000 0 0 1
35.989786 24.778197 -10.172521 44.863169 0.602952 1.799531 0.057824 -0.004359 241151.000000 0 0 1
36.977686 24.269997 -9.279921 45.194015 0.580820 1.777602 0.066941 -0.002526 -36078.400000 0 0 1
-36.879755 23.125697 -9.813021 44.622971 -0.560077 1.792518 0.087682 -0.005178 -239497.000000 0 0 1
-35.786635 22.510897 -8.933521 43.211475 -0.561493 1.779038 0.089858 -0.005675 -185465.000000 0 0 1
-36.357645 21.932297 -7.773921 43.166397 -0.542797 1.751876 0.085144 -0.007281 -94899.500000 0 0 1
-35.410108 21.173997 -7.078421 41.860697 -0.538922 1.740707 0.106443 -0.001215 -722221.000000 0 0 1
-35.946187 20.425597 -5.871221 41.758887 -0.516729 1.711862 0.099088 0.012066 -18638.000000 0 0 1
-36.592155 19.207697 -6.238321 41.795192 -0.483379 1.720615 0.085383 0.009885 376240.000000 0 0 1
-37.120695 18.470697 -5.162021 41.782282 -0.461714 1.694658 0.090576 0.000107 51412.100000 0 0 1
36.387926 17.262297 -5.592021 40.661269 0.442956 1.708761 0.085619 0.005716 1045770.000000 0 0 1
35.245986 17.604197 -6.420021 39.917464 0.463221 1.732330 0.074256 0.003094 567172.000000 0 0 1
34.610216 16.499597 -6.982721 38.972582 0.444856 1.750939 0.080524 0.002302 416979.000000 0 0 1
33.500046 16.945997 -8.003221 38.385824 0.468317 1.780831 0.055976 -0.002272 370869.000000 0 0 1
33.095446 15.847597 -8.814621 37.737944 0.446581 1.806549 0.062309 -0.001679 -282044.000000 0 0 1
32.457496 16.296797 -9.978721 37.664964 0.465323 1.838932 0.057054 -0.002353 -557568.000000 0 0 1
31.802196 15.093397 -10.741021 36.804345 0.443124 1.866948 0.055696 -0.001498 833369.000000 0 0 1
30.595646 14.581897 -10.120021 35.371459 0.444753 1.860958 0.057010 0.003561 736500.000000 0 0 1
30.846086 13.894997 -8.894621 34.980941 0.423238 1.827890 0.062242 0.003170 -63323.900000 0 0 1
29.737216 12.810397 -8.588321 33.498769 0.406762 1.830069 0.072756 0.013870 684866.000000 0 0 1
29.979506 11.739097 -9.433821 33.549578 0.373219 1.855831 0.074633 0.008195 521053.000000 0 0 1
28.977076 10.757797 -9.321421 32.284517 0.355481 1.863694 0.098372 0.000258 -333169.000000 0 0 1
29.507306 9.485197 -9.909921 32.540077 0.311020 1.880257 0.102922 0.002288 478860.000000 0 0 1
30.626576 8.950597 -9.166821 33.198358 0.284331 1.850554 0.102980 0.002675 904341.000000 0 0 1
30.591406 7.557097 -9.022921 32.777385 0.242185 1.849676 0.114307 0.002306 137308.000000 0 0 1
31.752316 7.097597 -8.065521 33.520711 0.219915 1.813794 0.144190 -0.010431 257351.000000 0 0 1
33.010876 7.288297 -8.667521 34.899329 0.217299 1.821781 0.141663 -0.011723 -778366.000000 0 0 1
33.972356 6.731897 -7.833921 35.507883 0.195624 1.793251 0.141571 -0.007476 -151824.000000 0 0 1
35.416726 7.016197 -8.336221 37.054879 0.195572 1.797708 0.137680 -0.011211 310275.000000 0 0 1
35.826246 6.427997 -9.594821 37.641727 0.177532 1.828539 0.149181 -0.022362 1641170.000000 0 0 1
-37.117535 6.239397 -9.559221 38.833236 -0.166541 1.819514 0.148748 -0.021839 1144490.000000 0 0 1
-36.579015 5.527697 -10.854421 38.553835 -0.149982 1.856194 0.153776 -0.037188 -533048.000000 0 0 1
-35.201700 5.376797 -11.026821 37.278149 -0.151571 1.871088 0.153819 -0.045937 -181519.000000 0 0 1
-34.531059 6.342597 -11.786221 37.034276 -0.181653 1.894681 0.136368 -0.042671 -373931.000000 0 0 1
-33.746775 7.309397 -10.893821 36.207008 -0.213301 1.876407 0.126902 -0.034443 -432475.000000 0 0 1
-34.632821 8.094597 -10.082421 36.967689 -0.229604 1.847032 0.132182 -0.026293 681608.000000 0 0 1
-35.063822 9.370997 -10.599621 37.810570 -0.261152 1.854939 0.125289 -0.034604 -107081.000000 0 0 1
-36.048143 10.110497 -9.703521 38.676208 -0.273446 1.824397 0.108186 -0.016775 -228946.000000 0 0 1
-35.396181 10.739197 -8.637321 37.984514 -0.294573 1.800194 0.115596 -0.011436 -129220.000000 0 0 1
-36.255815 11.431397 -7.761121 38.799432 -0.305432 1.772187 0.106706 -0.004957 -749974.000000 0 0 1
-35.562392 12.403397 -6.830021 38.277633 -0.335586 1.750191 0.112152 -0.008223 16926.900000 0 0 1
-34.894255 13.450997 -7.559421 38.153417 -0.367926 1.770248 0.107567 -0.007953 33162.600000 0 0 1
-34.393961 14.440097 -6.711521 37.901260 -0.397495 1.748814 0.120528 -0.011662 53354.300000 0 0 1
-33.404195 15.387297 -7.418721 37.518616 -0.431667 1.769842 0.103406 -0.012100 100312.000000 0 0 1
-34.053075 16.219597 -8.367221 38.635445 -0.444511 1.789095 0.077197 -0.009430 34264.800000 0 0 1
-33.289985 17.338397 -8.730121 38.536452 -0.480172 1.799322 0.070524 0.001888 93866.300000 0 0 1
-33.971075 18.026597 -9.956821 39.725690 -0.487862 1.824137 0.049301 -0.004361 -82509.500000 0 0 1
-33.366465 17.855597 -11.204821 39.467599 -0.491360 1.858655 0.032990 -0.004147 29596.300000 0 0 1
-34.246979 18.036697 -12.336121 40.624597 -0.484752 1.879329 0.033069 -0.004348 145057.000000 0 0 1
-33.480765 18.289697 -13.659021 40.522136 -0.499979 1.914605 0.015095 -0.000953 -165900.000000 0 0 1
-32.960675 19.580997 -13.689521 40.709023 -0.536049 1.913758 0.008717 0.003010 25388.400000 0 0 1
-32.484095 19.903397 -14.983021 40.937178 -0.549714 1.945504 0.005274 0.001904 -434983.000000 0 0 1
-31.884315 21.337497 -15.110121 41.233652 -0.589766 1.945988 0.026086 -0.003169 -815402.000000 0 0 1
-30.586525 21.276597 -14.573221 40.007598 -0.607780 1.943636 0.024539 0.001965 -297219.000000 0 0 1
-29.858755 22.454697 -14.495821 40.073526 -0.644799 1.940920 0.039955 -0.001229 -324761.000000 0 0 1
-29.354155 22.965697 -15.883821 40.514015 -0.663896 1.973663 0.027271 -0.001120 -675702.000000 0 0 1
-30.316075 23.586597 -16.755721 41.906398 -0.661196 1.982135 0.040925 -0.000454 261194.000000 0 0 1
-29.741115 24.109797 -17.926721 42.275094 -0.681204 2.008708 0.051560 -0.000027 361945.000000 0 0 1
-28.891025 25.442797 -17.790621 42.409120 -0.722019 2.003691 0.074147 -0.006816 715473.000000 0 0 1
-29.756485 26.499797 -17.369221 43.466970 -0.727572 1.981872 0.094242 -0.014846 351785.000000 0 0 1
-29.003445 27.676997 -17.263421 43.649074 -0.762000 1.977414 0.090727 -0.022656 349689.000000 0 0 1
-29.807965 28.971997 -16.817721 44.841132 -0.771177 1.955248 0.092183 -0.026403 85677.600000 0 0 1
-29.870505 29.179297 -15.433121 44.518083 -0.773693 1.924816 0.083521 -0.024111 -204545.000000 0 0 1
-28.732175 29.638397 -14.776021 43.844079 -0.800922 1.914539 0.074023 -0.019929 -472608.000000 0 0 1
-29.100055 29.999697 -13.332721 43.869767 -0.800619 1.879597 0.080727 -0.022429 36162.800000 0 0 1
-29.918735 31.154497 -13.250921 45.180973 -0.805630 1.868458 0.068743 -0.017782 192047.000000 0 0 1
-29.786995 31.831997 -12.009721 45.219183 -0.818574 1.839611 0.063858 -0.016099 -225141.000000 0 0 1
-28.775475 32.969297 -12.109821 45.405399 -0.853216 1.840768 0.062143 -0.022120 -307990.000000 0 0 1
-29.047875 33.810297 -13.191021 46.485678 -0.861018 1.858515 0.052142 -0.026235 328036.000000 0 0 1
-28.095085 -33.162210 -13.364621 45.471739 0.867929 1.869112 0.074600 -0.027212 280668.000000 0 0 1
-28.475745 -32.178210 -14.499821 45.349201 0.846365 1.896248 0.058407 -0.026549 -95973.300000 0 0 1
-27.804745 -32.582610 -15.629121 45.596049 0.864354 1.920664 0.057384 -0.026563 -225493.000000 0 0 1
-28.138475 -31.711010 -16.659521 45.551087 0.845019 1.945216 0.059794 -0.012849 300726.000000 0 0 1
-27.333175 -32.108910 -17.953221 45.830150 0.865569 1.973312 0.058175 -0.014559 204151.000000 0 0 1
-27.654355 -33.364210 -18.514621 47.124569 0.878702 1.974565 0.055989 -0.011781 237560.000000 0 0 1
-26.964105 33.571697 -17.908121 46.634993 -0.894120 1.964927 0.047943 -0.018648 -354082.000000 0 0 1
-27.050325 32.230997 -18.594121 46.003245 -0.872568 1.986891 0.067892 -0.030023 511339.000000 0 0 1
-28.309765 31.560897 -18.700821 46.338469 -0.839647 1.986212 0.080743 -0.033542 472969.000000 0 0 1
-29.161275 32.095797 -19.701621 47.630600 -0.833267 1.997238 0.078834 -0.023778 -800684.000000 0 0 1
-30.641385 31.777497 -19.597121 48.298561 -0.803598 1.988595 0.089061 -0.038196 -548106.000000 0 0 1
-30.965505 30.521597 -20.154621 47.923263 -0.778179 2.004859 0.091945 -0.037035 -552902.000000 0 0 1
-32.337725 30.415697 -20.331621 48.828454 -0.754779 2.000266 0.105955 -0.032766 -762241.000000 0 0 1
-32.722465 29.072197 -20.988921 48.543662 -0.726396 2.017918 0.106042 -0.034235 -763260.000000 0 0 1
-34.075690 28.786897 -21.105621 49.348610 -0.701463 2.012726 0.099719 -0.032734 -512154.000000 0 0 1
-34.287056 27.542297 -21.785521 49.079418 -0.676741 2.030724 0.099195 -0.024386 -1158320.000000 0 0 1
-35.675376 26.997897 -21.688621 49.719364 -0.647817 2.022191 0.099166 -0.017087 -928450.000000 0 0 1
-36.642025 27.666197 -22.492821 51.127130 -0.646719 2.026327 0.091839 -0.013788 275242.000000 0 0 1
36.701446 26.725897 -22.775521 50.793642 0.629401 2.035763 0.095296 -0.013276 582652.000000 0 0 1
35.751366 27.185797 -23.913021 50.882810 0.650132 2.060045 0.104061 -0.020375 182579.000000 0 0 1
36.377046 27.183797 -25.168891 51.920337 0.641757 2.076885 0.100913 -0.021528 162162.000000 0 0 1
35.454406 27.509597 -26.221261 51.974488 0.659881 2.099602 0.099019 -0.025689 356089.000000 0 0 1
36.219006 27.934497 -27.488071 53.364282 0.656973 2.111923 0.087488 -0.022549 8484.320000 0 0 1
36.878416 26.831797 -28.012341 53.522464 0.628994 2.121604 0.071597 -0.010699 -601193.000000 0 0 1
-36.892295 27.137097 -29.197571 54.313549 -0.634206 2.138354 0.053129 -0.008041 -899582.000000 0 0 1
-36.458275 25.804197 -29.928751 53.766091 -0.615924 2.161141 0.047045 -0.009307 427713.000000 0 0 1
-35.415281 25.007497 -29.317121 52.336513 -0.614823 2.165382 0.054255 -0.004103 606777.000000 0 0 1
-34.197331 25.454897 -29.900001 52.071290 -0.639877 2.182439 0.033933 0.000989 -40171.500000 0 0 1
-32.848205 24.959397 -29.346801 50.628162 -0.649769 2.189100 0.051432 0.001747 4287.210000 0 0 1
-32.479335 23.593397 -29.513071 49.825465 -0.628233 2.204743 0.065338 -0.007311 166153.000000 0 0 1
-32.857535 22.801097 -28.389061 49.045351 -0.606646 2.188093 0.048160 -0.006697 -17176.400000 0 0 1
-32.547275 21.303897 -28.704311 48.343755 -0.579569 2.206513 0.046607 -0.012609 864695.000000 0 0 1
-31.178585 20.981497 -29.011151 47.476039 -0.592337 2.228207 0.082494 -0.015915 648618.000000 0 0 1
-31.047335 19.590997 -29.384321 47.023212 -0.562905 2.245787 0.066086 -0.019357 112587.000000 0 0 1
-29.634255 18.978397 -29.629501 46.002999 -0.569612 2.270613 0.091651 -0.026329 169691.000000 0 0 1
-29.123905 19.470397 -30.877001 46.697831 -0.589296 2.293225 0.103079 -0.035685 215071.000000 0 0 1
-27.869615 18.909297 -31.240831 45.937637 -0.596144 2.318655 0.101663 -0.030117 178757.000000 0 0 1
-27.840935 17.460097 -31.859221 45.770980 -0.560135 2.340688 0.092949 -0.029569 -455835.000000 0 0 1
-28.111195 16.431897 -30.907791 44.894744 -0.528968 2.330146 0.063639 -0.021364 88015.800000 0 0 1
-28.141385 15.288397 -31.683641 45.050258 -0.497662 2.350819 0.047432 -0.015807 44875.600000 0 0 1
-28.717885 14.069197 -30.861371 44.441911 -0.455544 2.338410 0.047438 -0.020121 78885.800000 0 0 1
-30.074675 14.232897 -30.481311 45.123960 -0.442021 2.312441 0.031131 -0.020805 255315.000000 0 0 1
-30.847305 13.042497 -30.481471 45.285572 -0.400013 2.309182 0.026155 -0.019124 101758.000000 0 0 1
-30.521745 12.105497 -29.313951 44.016221 -0.377588 2.299604 0.027520 -0.027482 -513317.000000 0 0 1
-30.735965 12.722697 -28.055691 43.516530 -0.392461 2.271445 0.011493 -0.021038 210817.000000 0 0 1
-30.904505 11.726197 -27.064041 42.720656 -0.362652 2.256880 0.015816 -0.017302 -35608.100000 0 0 1
-30.873745 12.225597 -25.590381 41.922798 -0.377042 2.227383 0.011453 -0.014649 -296068.000000 0 0 1
-29.591465 12.578297 -25.161071 40.828273 -0.401926 2.234789 0.019512 -0.018383 -308309.000000 0 0 1
-29.642185 13.371097 -23.981821 40.405112 -0.423755 2.206240 0.022708 -0.009303 471576.000000 0 0 1
-28.181275 13.695697 -23.547421 39.194865 -0.452373 2.215271 0.027649 -0.005904 282163.000000 0 0 1
-27.407045 14.634897 -24.294221 39.440278 -0.490463 2.234419 0.044878 -0.008927 710120.000000 0 0 1
-25.994095 14.547397 -24.133621 38.337337 -0.510216 2.251715 0.061936 -0.019976 740254.000000 0 0 1
-25.481425 15.179197 -22.800421 37.410831 -0.537249 2.226176 0.069926 -0.012578 -653019.000000 0 0 1
-25.666845 16.600997 -22.759921 38.110288 -0.574114 2.210817 0.084904 -0.012379 51701.500000 0 0 1
-25.902045 17.123497 -21.480321 37.756248 -0.584130 2.175990 0.080482 -0.007968 1249240.000000 0 0 1
-27.408865 17.278597 -20.996321 38.608824 -0.562474 2.145781 0.061955 -0.001516 1320690.000000 0 0 1
-28.177935 16.077497 -20.960921 38.624372 -0.518499 2.144428 0.063815 -0.000212 351861.000000 0 0 1
-29.386345 16.309397 -20.251921 39.238935 -0.506673 2.113109 0.050452 0.007863 -56527.600000 0 0 1
-30.402125 15.105997 -20.318521 39.564159 -0.461143 2.110123 0.012517 0.004427 875286.000000 0 0 1
-31.096825 14.831897 -21.573821 40.650061 -0.445045 2.130247 0.013924 0.004670 765984.000000 0 0 1
-31.915795 15.911697 -22.042021 41.924346 -0.462489 2.124401 -0.002806 0.012508 -416675.000000 0 0 1
-32.389765 15.795997 -23.491021 43.016723 -0.453747 2.148487 -0.000081 0.004607 35904.100000 0 0 1
-33.555065 14.993097 -23.674121 43.717266 -0.420207 2.143050 0.013411 0.000729 339718.000000 0 0 1
-34.072302 15.231797 -24.966521 44.902746 -0.420392 2.160378 0.019955 -0.003593 395868.000000 0 0 1
-35.240285 14.270097 -25.416581 45.733095 -0.384755 2.160072 0.020541 -0.005515 283716.000000 0 0 1
-35.050505 12.919997 -25.701061 45.343233 -0.353158 2.173427 0.021133 -0.013025 -96407.500000 0 0 1
-34.840139 12.116797 -24.510621 44.287951 -0.334698 2.157282 0.017491 -0.014137 -144078.000000 0 0 1
-34.958763 10.635797 -24.835421 44.181822 -0.295341 2.167741 0.028312 -0.021359 1849650.000000 0 0 1
-36.300315 10.223697 -25.281871 45.402752 -0.274531 2.161368 0.039988 -0.022375 1501420.000000 0 0 1
-36.182005 8.997697 -25.996521 45.452339 -0.243735 2.179679 0.047456 -0.016692 187222.000000 0 0 1
36.893276 8.374697 -26.557681 46.222936 0.223215 2.182858 0.074958 -0.015513 163890.000000 0 0 1
36.009056 8.019597 -25.513981 44.854535 0.219134 2.175862 0.068653 -0.010659 -165569.000000 0 0 1
35.039366 7.131197 -26.017321 44.221173 0.200777 2.199807 0.094181 -0.009964 -198258.000000 0 0 1
34.284506 6.288197 -24.986521 42.887003 0.181396 2.192736 0.100965 -0.018327 271820.000000 0 0 1
35.105996 5.291797 -24.367321 43.060427 0.149611 2.172305 0.094305 -0.027197 130396.000000 0 0 1
34.313946 4.445697 -23.599121 41.882331 0.128842 2.169367 0.099894 -0.027451 -254537.000000 0 0 1
35.042356 3.520397 -22.611021 41.852338 0.100125 2.141539 0.091519 -0.018903 68829.500000 0 0 1
35.836706 2.528497 -23.289921 42.814521 0.070439 2.145960 0.100695 -0.026722 295286.000000 0 0 1
36.760176 1.897797 -22.437121 43.108428 0.051581 2.118211 0.122223 -0.020288 222707.000000 0 0 1
-36.754435 0.862197 -23.190221 43.467439 -0.023454 2.133539 0.132144 -0.019888 289697.000000 0 0 1
36.819036 -0.123003 -23.705921 43.790721 -0.003341 2.142833 0.130175 -0.020106 64114.000000 0 0 1
-36.672475 -1.163803 -24.017721 43.852888 0.031724 2.150395 0.136153 -0.022895 519016.000000 0 0 1
-23.784725 29.247197 27.314862 46.553339 -0.888040 0.943765 0.045231 -0.025644 -968710.000000 0 0 1
-25.059725 29.444997 26.794952 47.042185 -0.865682 0.964784 0.028423 -0.027162 -120255.000000 0 0 1
-25.186795 28.946197 25.468352 46.053164 -0.854734 0.984811 0.030711 -0.018596 -351681.000000 0 0 1
-25.688245 27.506497 25.278082 45.337344 -0.819566 0.979358 0.044510 -0.029362 149748.000000 0 0 1
-26.976475 27.127297 25.772712 46.128659 -0.788186 0.977962 0.049303 -0.021538 574279.000000 0 0 1
-27.040985 26.900197 27.140062 46.812589 -0.782788 0.952362 0.059190 -0.024237 -881430.000000 0 0 1
-26.316065 25.680197 27.732982 46.055685 -0.773170 0.924590 0.054724 -0.023386 -963989.000000 0 0 1
-24.979825 25.788697 28.053952 45.563942 -0.801329 0.907516 0.054418 -0.022960 -1062720.000000 0 0 1
-24.844725 26.266397 29.383602 46.589485 -0.813206 0.888352 0.049786 -0.020890 -78325.400000 0 0 1
-23.400825 26.051097 29.880572 46.033758 -0.838940 0.864394 0.050903 -0.004234 -226534.000000 0 0 1
-22.356225 26.842297 29.278212 45.579858 -0.876330 0.873236 0.068409 -0.011181 1010820.000000 0 0 1
-21.141825 26.618997 30.020232 45.351539 -0.899579 0.847385 0.104445 -0.013886 930043.000000 0 0 1
-20.355025 25.255697 29.758052 44.019529 -0.892433 0.828449 0.082563 0.002202 -670080.000000 0 0 1
-19.666625 25.245897 28.541462 42.880608 -0.908990 0.842495 0.079311 -0.009566 -17884.600000 0 0 1
-20.302825 24.529197 27.454642 42.043354 -0.879392 0.859247 0.079048 -0.015505 161348.000000 0 0 1
-20.079725 23.016497 27.403792 41.035623 -0.853438 0.839540 0.061508 0.001018 -84349.000000 0 0 1
-20.661225 22.297497 28.445992 41.632188 -0.823469 0.818566 0.049174 0.002027 -73102.200000 0 0 1
-20.290625 20.940797 28.418212 40.716351 -0.801166 0.798257 0.069753 -0.004846 -56908.900000 0 0 1
-20.711425 20.116397 29.621012 41.364682 -0.770825 0.772606 0.081677 -0.011996 282210.000000 0 0 1
-19.791025 20.216097 30.707642 41.753258 -0.796023 0.744458 0.062744 -0.008610 265441.000000 0 0 1
-20.343725 19.624697 31.864632 42.595196 -0.767410 0.725632 0.058418 -0.011722 -217297.000000 0 0 1
-19.697025 19.980497 33.205891 43.472109 -0.792542 0.701549 0.065320 -0.004929 -812948.000000 0 0 1
-19.913925 21.319597 33.549599 44.459704 -0.819475 0.715741 0.030115 0.001241 236647.000000 0 0 1
-19.029225 22.269297 32.968660 44.101764 -0.863693 0.726417 0.055273 0.004169 -394819.000000 0 0 1
-17.581125 22.318497 33.472013 43.904293 -0.903577 0.703804 0.053374 0.011824 -336552.000000 0 0 1
-16.811825 21.185897 33.083319 42.731554 -0.900008 0.685326 0.057235 -0.010613 -193556.000000 0 0 1
-15.492325 21.385197 33.545271 42.692201 -0.943854 0.666893 0.052025 -0.007421 -301850.000000 0 0 1
-14.475725 20.248597 33.137569 41.444551 -0.950140 0.644227 0.049372 -0.021624 -567848.000000 0 0 1
-13.149725 20.345297 33.486868 41.330579 -0.997007 0.626269 0.045678 -0.023147 -894048.000000 0 0 1
-12.888425 20.313097 -33.015531 40.850443 -1.005403 2.511894 0.066945 -0.021738 -305507.000000 0 0 1
-11.371125 20.374597 -32.683091 40.157330 -1.061753 2.521589 0.061426 -0.018826 361783.000000 0 0 1
-10.766625 21.652897 -32.814551 40.762273 -1.109361 2.506510 0.066135 -0.016468 -114001.000000 0 0 1
-9.412225 21.479997 -32.437261 40.026943 -1.157811 2.515606 0.051835 -0.008587 -188664.000000 0 0 1
-8.680225 22.832797 -32.321051 40.513371 -1.207505 2.494413 0.059660 -0.012470 -181033.000000 0 0 1
-8.831325 23.618897 -31.150431 40.077350 -1.212982 2.461092 0.061386 -0.016818 -158784.000000 0 0 1
-8.022525 23.278597 -30.055401 38.853328 -1.238913 2.455237 0.051353 -0.019333 -80680.800000 0 0 1
-7.824725 24.495797 -29.113131 38.843851 -1.261609 2.418090 0.061337 -0.022307 540327.000000 0 0 1
-6.813325 25.404197 -29.597551 39.595576 -1.308766 2.415081 0.060154 -0.018279 285707.000000 0 0 1
-6.381325 26.183597 -28.516331 39.236249 -1.331742 2.384426 0.081162 -0.020722 13180.500000 0 0 1
-5.005225 26.835497 -28.855591 39.722051 -1.386400 2.383920 0.101851 -0.028772 -242122.000000 0 0 1
-4.002825 25.826097 -28.637551 38.770082 -1.417028 2.401863 0.097067 -0.013126 370754.000000 0 0 1
-2.769825 26.013397 -29.310521 39.287089 -1.464719 2.412921 0.100038 -0.017566 598024.000000 0 0 1
-1.939025 27.306897 -29.119911 39.967433 -1.499907 2.387059 0.105461 -0.032410 -743058.000000 0 0 1
-1.325725 27.419797 -27.838561 39.097165 -1.522485 2.363189 0.119871 -0.043240 127056.000000 0 0 1
-0.613925 28.593697 -27.670761 39.795068 -1.549329 2.339677 0.114302 -0.036259 -804358.000000 0 0 1
-0.090525 28.972797 -26.232291 39.084067 -1.567672 2.306591 0.127716 -0.047046 899205.000000 0 0 1
0.997075 28.227497 -25.642171 38.148482 1.535488 2.307929 0.158326 -0.055239 595284.000000 0 0 1
2.191475 28.210197 -26.364301 38.674205 1.493268 2.320883 0.142861 -0.051271 -753354.000000 0 0 1
3.553475 28.135997 -25.661471 38.246210 1.445165 2.306292 0.118707 -0.052451 153962.000000 0 0 1
3.975075 26.861297 -25.104871 36.980874 1.423877 2.317007 0.138279 -0.043713 -227070.000000 0 0 1
5.253675 27.079097 -24.583321 36.948860 1.379165 2.298737 0.103892 -0.034554 -553658.000000 0 0 1
5.807175 26.024797 -23.688821 35.667542 1.351253 2.297161 0.105079 -0.030053 -924786.000000 0 0 1
7.173175 26.140497 -23.521821 35.889498 1.302980 2.285503 0.089356 -0.031169 -1102630.000000 0 0 1
7.771975 25.061097 -22.824921 34.776992 1.270080 2.286730 0.083584 -0.024108 445450.000000 0 0 1
9.225575 25.287297 -22.336821 34.978453 1.220971 2.263458 0.070497 -0.007040 -218251.000000 0 0 1
9.432175 26.078897 -21.159321 34.882541 1.223756 2.222558 0.072548 -0.007194 478073.000000 0 0 1
10.810075 26.292897 -20.857021 35.258892 1.180723 2.203763 0.079071 -0.012748 876480.000000 0 0 1
11.681975 25.135297 -20.261221 34.333202 1.135733 2.202022 0.062058 -0.005210 -24124.600000 0 0 1
11.897875 24.062897 -21.196221 34.203249 1.111599 2.239174 0.054500 -0.008460 80440.500000 0 0 1
12.363175 22.888197 -20.507521 33.125158 1.075543 2.238382 0.051048 -0.004534 -420617.000000 0 0 1
12.393875 21.766697 -21.527721 33.027867 1.053184 2.280758 0.047810 -0.003472 -335202.000000 0 0 1
11.185275 21.252197 -22.034521 32.592735 1.086322 2.313194 0.049160 -0.012285 -569574.000000 0 0 1
11.315875 20.206197 -22.949121 32.603705 1.060293 2.351643 0.053002 -0.005469 -509184.000000 0 0 1
10.643975 20.373297 -24.276321 33.432098 1.089353 2.383485 0.056481 -0.006138 -789544.000000 0 0 1
9.254975 20.399497 -24.255821 33.017251 1.144881 2.395933 0.061947 -0.014001 -1069170.000000 0 0 1
8.677975 20.125897 -25.486371 33.614195 1.163699 2.431348 0.060781 -0.011440 -221372.000000 0 0 1
7.128975 19.985997 -25.456561 33.140592 1.228167 2.446725 0.072091 -0.027314 281105.000000 0 0 1
6.451575 21.232597 -25.299561 33.652842 1.275809 2.421555 0.090532 -0.032259 19527.600000 0 0 1
6.541675 21.851297 -24.042421 33.140771 1.279915 2.382504 0.099028 -0.034761 190297.000000 0 0 1
5.119875 21.880197 -23.336821 32.396965 1.340936 2.375088 0.123527 -0.042057 1521180.000000 0 0 1
4.271875 22.818897 -24.027221 33.410452 1.385731 2.373379 0.119834 -0.037327 -116110.000000 0 0 1
2.906175 22.801597 -23.688421 33.007574 1.444025 2.371242 0.154617 -0.045499 233446.000000 0 0 1
2.142975 23.936897 -24.388621 34.239921 1.481508 2.363546 0.141009 -0.046025 307922.000000 0 0 1
0.733875 24.005897 -24.263421 34.139937 1.540235 2.361296 0.167294 -0.061459 -154179.000000 0 0 1
0.162975 25.001597 -25.029021 35.377370 1.564278 2.356732 0.155791 -0.047873 -339580.000000 0 0 1
-1.342425 24.785397 -25.191241 35.365472 -1.516687 2.363583 0.166615 -0.047178 -453868.000000 0 0 1
-1.749525 23.594997 -25.742721 34.963873 -1.496784 2.398332 0.185626 -0.054168 -311355.000000 0 0 1
-3.020625 23.746297 -26.337751 35.590560 -1.444272 2.403897 0.167036 -0.039325 -149496.000000 0 0 1
-3.515625 22.422997 -26.860881 35.166139 -1.415276 2.440020 0.148744 -0.036752 -353352.000000 0 0 1
-2.775025 21.837197 -27.937491 35.567785 -1.444396 2.474254 0.184070 -0.046217 -349093.000000 0 0 1
-3.368325 20.754097 -28.497951 35.414847 -1.409902 2.505948 0.148378 -0.044898 -232352.000000 0 0 1
-4.567925 20.937997 -29.443941 36.417184 -1.355998 2.512425 0.093404 -0.030104 -97861.200000 0 0 1
-4.230725 21.256097 -30.775931 37.641448 -1.374328 2.528040 0.097943 -0.028371 224763.000000 0 0 1
-3.544325 22.519497 -30.971491 38.456771 -1.414688 2.507076 0.127603 -0.035690 406833.000000 0 0 1
-3.138325 22.622897 -32.527811 39.745478 -1.432953 2.529422 0.100986 -0.021377 -133506.000000 0 0 1
-2.214825 21.629097 -32.888361 39.425469 -1.468752 2.557460 0.101044 -0.018096 -11738.000000 0 0 1
-1.743425 21.935797 33.689134 40.238992 -1.491485 0.578605 0.092055 -0.001971 60516.700000 0 0 1
-0.547025 21.098897 33.194623 39.336315 -1.544875 0.566346 0.103560 0.000716 -2673.230000 0 0 1
-0.940625 19.760597 32.797949 38.302368 -1.523231 0.542752 0.090870 0.006569 -409148.000000 0 0 1
0.092575 18.953997 32.341676 37.486619 1.565912 0.530108 0.099863 0.001160 -554266.000000 0 0 1
-0.360525 17.567097 31.951807 36.464378 -1.550276 0.502778 0.094060 0.000142 515343.000000 0 0 1
-1.250025 17.611897 30.804742 35.505966 -1.499939 0.520454 0.079570 -0.001612 482991.000000 0 0 1
-1.740725 16.319997 30.515142 34.648901 -1.464536 0.493467 0.068652 -0.004084 190736.000000 0 0 1
-2.850225 16.225597 29.413842 33.713023 -1.396908 0.510547 0.072271 -0.006472 665214.000000 0 0 1
-4.110225 16.803197 29.746732 34.410892 -1.330897 0.526727 0.041971 -0.007797 334816.000000 0 0 1
-4.248925 18.099097 29.172342 34.592719 -1.340213 0.567386 0.056845 -0.010828 -371870.000000 0 0 1
-5.669225 18.640497 29.258972 35.152464 -1.275550 0.587471 0.037224 -0.012055 -321580.000000 0 0 1
-6.667225 18.076497 28.464352 34.371951 -1.217442 0.595038 0.022085 -0.007436 -514410.000000 0 0 1
-7.930425 18.661297 28.693372 35.134673 -1.168954 0.615182 0.027011 -0.019362 155647.000000 0 0 1
-9.015525 17.870197 27.848252 34.295026 -1.103555 0.623191 0.027488 -0.017000 258779.000000 0 0 1
-9.299825 16.567297 28.331382 34.112011 -1.059291 0.590720 0.022745 -0.021218 49221.000000 0 0 1
-9.942725 16.468697 29.600282 35.302301 -1.027635 0.576308 0.020996 -0.028559 -497017.000000 0 0 1
-10.707725 15.135697 29.823482 35.116731 -0.955089 0.556201 0.023084 -0.036062 -42672.700000 0 0 1
-9.896125 13.974097 29.617252 34.210968 -0.954604 0.524201 0.038693 -0.017113 -487463.000000 0 0 1
-8.906625 13.745597 30.532932 34.648656 -0.995855 0.492369 0.021267 -0.018809 -1052390.000000 0 0 1
-9.316725 13.290997 31.935265 35.823360 -0.959413 0.470228 0.046625 -0.029507 -807017.000000 0 0 1
-9.867825 12.036997 32.012091 35.595467 -0.884104 0.452560 0.055992 -0.023981 14052.200000 0 0 1
-10.194225 11.918197 33.392836 36.892373 -0.863205 0.439083 0.057481 -0.012057 -393190.000000 0 0 1
-11.002425 10.650097 33.674360 36.992438 -0.769128 0.426779 0.062474 -0.020902 -746583.000000 0 0 1
-10.358525 9.412897 33.488649 36.295886 -0.737607 0.395882 0.073189 -0.024468 -308916.000000 0 0 1
-10.433325 8.566997 -33.279811 35.913696 -0.687486 2.756226 0.112583 -0.031430 202371.000000 0 0 1
-9.444725 8.770297 -32.073451 34.566273 -0.748389 2.759490 0.087596 -0.031798 163274.000000 0 0 1
-9.823025 9.993397 -31.428731 34.411116 -0.793995 2.722186 0.081422 -0.035659 278191.000000 0 0 1
-8.909525 10.500997 -30.464511 33.432574 -0.867205 2.717038 0.086138 -0.030892 364986.000000 0 0 1
-7.799525 11.448897 -31.039041 33.990174 -0.972768 2.721808 0.061025 -0.019169 207703.000000 0 0 1
-8.255925 12.683797 -31.500331 34.947244 -0.993786 2.693715 0.062531 -0.021694 -498663.000000 0 0 1
-7.182725 13.509697 -31.795671 35.285523 -1.082133 2.693089 0.034411 -0.018510 -455347.000000 0 0 1
-7.554625 14.998097 -32.019641 36.156226 -1.104189 2.658562 0.039894 -0.011142 2480.100000 0 0 1
-8.260425 15.287997 -33.202841 37.475140 -1.075415 2.659435 0.034868 -0.019665 132383.000000 0 0 1
-8.665925 16.670597 -33.242781 38.184939 -1.091409 2.627162 0.050795 -0.024748 -1010700.000000 0 0 1
-9.185925 17.100297 33.236106 38.489481 -1.077850 0.528605 0.064223 -0.034109 1079080.000000 0 0 1
-10.401325 16.511897 32.730986 38.107057 -1.008660 0.537636 0.036119 -0.032585 690513.000000 0 0 1
-11.546225 16.666397 33.522563 39.177115 -0.964929 0.543958 0.054805 -0.043338 51919.800000 0 0 1
-12.911425 16.240097 32.832661 38.838503 -0.899091 0.563551 0.068366 -0.045363 897649.000000 0 0 1
-13.012225 14.824997 32.792793 38.268340 -0.850427 0.541538 0.066142 -0.044451 856438.000000 0 0 1
-14.353125 14.461497 33.146340 38.907929 -0.789159 0.551161 0.052578 -0.031865 444069.000000 0 0 1
-14.652825 12.931397 33.054992 38.399985 -0.723073 0.533942 0.060507 -0.028804 -39016.600000 0 0 1
-14.688725 12.325397 31.767382 37.105803 -0.698135 0.543063 0.030872 -0.022572 -128655.000000 0 0 1
-13.416825 11.893097 31.354202 36.118457 -0.725268 0.519447 0.038599 -0.019742 -597374.000000 0 0 1
-13.227325 11.260297 29.985002 34.653381 -0.705243 0.525080 0.033412 -0.009731 -533868.000000 0 0 1
-13.895325 10.068997 29.726232 34.323660 -0.627067 0.523536 0.023701 -0.000169 -30167.200000 0 0 1
-13.956525 9.864497 28.342932 33.097050 -0.615276 0.542621 0.013457 0.006199 178110.000000 0 0 1
-14.851525 8.594897 28.034622 32.869136 -0.524627 0.549250 0.028072 0.005982 247536.000000 0 0 1
-14.374425 7.336997 28.468262 32.724572 -0.471949 0.515725 0.016680 0.000818 -348003.000000 0 0 1
-15.141725 6.244597 28.069022 32.498259 -0.391159 0.528214 0.034737 0.005953 -67843.800000 0 0 1
-14.321225 4.915797 28.070422 31.893748 -0.330651 0.494675 0.042453 0.008715 -54849.000000 0 0 1
-13.377325 4.676097 27.045852 30.533536 -0.336277 0.482634 0.038315 -0.003054 -156624.000000 0 0 1
-13.903825 4.563497 25.724372 29.595358 -0.317140 0.517208 0.043772 0.002308 -952582.000000 0 0 1
-12.970925 4.325897 24.544292 28.095917 -0.321907 0.508267 0.030281 0.010010 -819939.000000 0 0 1
-12.202325 3.172797 24.750032 27.776384 -0.254383 0.471152 0.030294 0.004771 -109325.000000 0 0 1
-11.635725 2.824197 23.514042 26.387049 -0.238113 0.470988 0.048896 -0.003705 -162163.000000 0 0 1
-10.572825 1.692797 23.512972 25.836216 -0.158761 0.427324 0.053463 -0.011495 82382.700000 0 0 1
-9.329525 2.177297 23.968372 25.812081 -0.229273 0.380250 0.053336 -0.022628 58817.500000 0 0 1
-8.339025 1.178597 24.124292 25.552102 -0.140405 0.335877 0.051152 -0.012407 -844322.000000 0 0 1
-6.931825 1.687797 24.068582 25.103695 -0.238838 0.288167 0.066609 -0.025565 -1637200.000000 0 0 1
-6.531025 2.113497 22.766662 23.779026 -0.312973 0.292846 0.071184 -0.024603 269976.000000 0 1 0
-5.146225 2.373597 22.629962 23.328798 -0.432154 0.245384 0.062791 -0.019551 309790.000000 0 1 0
-4.528925 3.568897 23.407222 24.106975 -0.667395 0.241531 0.075396 -0.018609 -850413.000000 0 1 0
-4.237625 3.235397 24.699622 25.268490 -0.652081 0.212593 0.077862 -0.020025 56601.400000 0 0 1
-3.784025 4.382597 25.427992 26.078896 -0.858562 0.223891 0.083031 -0.013681 144182.000000 0 0 1
4.452675 -23.653703 13.323779 27.510854 -1.384729 1.065222 0.106284 -0.016781 353256.000000 0 0 1
3.844075 -24.911903 13.357279 28.527123 -1.417697 1.083509 0.111913 -0.034895 -152262.000000 0 0 1
2.428675 -24.823003 13.370279 28.299193 -1.473267 1.078715 0.096842 -0.037654 517227.000000 0 0 1
1.745175 -26.110933 13.956879 29.658404 -1.504059 1.080840 0.085325 -0.040822 -60219.900000 0 0 1
1.709375 -26.065723 15.377879 30.312094 -1.505311 1.038726 0.127428 -0.044695 -4924.690000 0 0 1
2.401075 -27.143593 15.949279 31.574029 -1.482568 1.041253 0.115432 -0.042666 -100413.000000 0 0 1
2.449875 -27.241183 17.482979 32.461338 -1.481105 1.002047 0.123774 -0.040566 -464299.000000 0 0 1
3.266075 -26.294763 18.034479 32.051899 -1.447219 0.973190 0.141522 -0.055669 -68686.700000 0 0 1
3.800675 -26.801173 19.331579 33.263463 -1.429926 0.950636 0.125329 -0.052595 590796.000000 0 0 1
4.467175 -25.682343 20.211079 32.985241 -1.398580 0.911285 0.116069 -0.046209 994740.000000 0 0 1
3.475475 -24.718703 20.651379 32.397109 -1.431111 0.879619 0.129527 -0.047621 915383.000000 0 0 1
4.134475 -23.783403 21.421179 32.274000 -1.398678 0.845003 0.114359 -0.050052 669262.000000 0 0 1
3.010475 -22.839703 22.045479 31.886018 -1.439743 0.807394 0.139258 -0.048935 777489.000000 0 0 1
2.272675 -22.023803 21.167979 30.631622 -1.467969 0.807856 0.131785 -0.054390 -273044.000000 0 0 1
2.971375 -21.093803 20.378879 29.480100 -1.430852 0.807543 0.094866 -0.039086 -565397.000000 0 0 1
2.084675 -20.049403 19.674879 28.167806 -1.467192 0.797514 0.068692 -0.044372 -21844.300000 0 0 1
1.736175 -19.054903 20.589779 28.107697 -1.479933 0.748763 0.070324 -0.043575 -128942.000000 0 0 1
0.844175 -18.140003 20.024179 27.032205 -1.524293 0.736606 0.075717 -0.049995 -338517.000000 0 0 1
0.822175 -16.848403 20.821479 26.796989 -1.522037 0.680897 0.059933 -0.038996 -221350.000000 0 0 1
1.945075 -16.023203 20.641979 26.203390 -1.449996 0.663633 0.033337 -0.022636 -235759.000000 0 0 1
1.659275 -14.675603 21.012379 25.683586 -1.458211 0.612654 0.032402 -0.015598 702231.000000 0 0 1
2.848675 -13.654703 20.775979 25.024132 -1.365124 0.591262 0.019139 -0.010549 140067.000000 0 0 1
3.006875 -13.289503 19.414679 23.718810 -1.348283 0.611940 0.005166 -0.006527 -260509.000000 0 1 0
1.906675 -12.820203 18.665979 22.724695 -1.423154 0.606942 -0.000823 0.000323 -71607.400000 0 1 0
1.170975 -11.553703 19.182679 22.423969 -1.469791 0.544369 -0.007910 -0.004409 -257538.000000 0 1 0
1.853675 -10.317703 18.987379 21.688976 -1.393033 0.504453 0.003143 -0.001132 -77602.200000 0 1 0
1.560975 -9.369303 20.093079 22.225038 -1.405707 0.441588 0.013790 -0.008856 -255382.000000 0 1 0
0.096175 -8.941603 20.173379 22.066416 -1.560041 0.417238 0.014946 -0.010287 -425455.000000 0 1 0
-0.150825 -8.148703 21.311079 22.816358 1.552289 0.365273 0.020535 -0.016356 -331985.000000 0 1 0
-1.442225 -7.603503 21.171479 22.541624 1.383344 0.350453 0.021782 -0.017903 -325129.000000 0 1 0
-1.867925 -7.095903 22.555879 23.719373 1.313396 0.314512 0.024686 -0.009064 -268914.000000 0 1 0
-2.220625 -8.090203 23.454979 24.910211 1.302911 0.343502 0.030065 -0.007229 -54835.600000 0 1 0
-2.188225 -7.599203 24.793879 26.024463 1.290427 0.308749 0.041172 0.000547 273276.000000 0 0 1
-2.507925 -8.634203 25.922779 27.437741 1.288111 0.333857 0.048802 -0.006582 244217.000000 0 0 1
-1.334625 -9.399703 26.004979 27.683832 1.429753 0.350048 0.052714 -0.011384 -1985.540000 0 0 1
-1.483625 -10.304703 27.039179 28.974217 1.427803 0.367537 0.066670 -0.024942 -568997.000000 0 0 1
-0.364225 -11.311603 27.169979 29.432852 1.538608 0.394686 0.081409 -0.027673 247.528000 0 0 1
0.895075 -10.762503 27.599179 29.636925 -1.487821 0.372987 0.085310 -0.029698 309878.000000 0 0 1
1.729075 -11.887203 27.871779 30.350146 -1.426353 0.406928 0.104172 -0.039214 -46837.500000 0 0 1
2.877975 -11.383003 28.759479 31.063856 -1.323155 0.387602 0.112242 -0.046894 -102523.000000 0 0 1
2.363875 -10.939503 29.965379 31.987256 -1.357982 0.357453 0.113052 -0.056424 94531.500000 0 0 1
3.429375 -10.557503 30.808879 32.747649 -1.256720 0.345823 0.132271 -0.048028 370352.000000 0 0 1
2.880175 -9.958103 32.169479 33.798441 -1.289250 0.311732 0.125966 -0.055436 235824.000000 0 0 1
2.105675 -10.872803 32.984479 34.794074 -1.379500 0.323932 0.125342 -0.059392 245665.000000 0 0 1
1.984975 -10.495103 -33.543004 35.202563 -1.383871 2.833313 0.102713 -0.058512 -255488.000000 0 0 1
3.222775 -10.464103 -32.593704 34.383620 -1.272031 2.817509 0.088595 -0.035751 -9753.480000 0 0 1
3.955675 -9.263603 -32.783204 34.295775 -1.167222 2.843493 0.080211 -0.043381 171697.000000 0 0 1
4.129975 -8.590803 -31.531704 32.940962 -1.122672 2.848029 0.098172 -0.042167 -34445.400000 0 0 1
2.999575 -7.564403 -31.309004 32.349210 -1.193278 2.887312 0.089620 -0.033738 93135.500000 0 0 1
3.145275 -6.572203 -32.284904 33.096853 -1.124437 2.919631 0.126576 -0.043433 137666.000000 0 0 1
2.520075 -5.341703 -31.953504 32.494784 -1.129984 2.958815 0.095085 -0.016992 -15552.200000 0 0 1
2.676375 -4.225403 -33.006004 33.382830 -1.006179 2.991198 0.095899 -0.017670 138895.000000 0 0 1
1.906275 -4.341903 33.692479 34.024537 -1.157093 0.139823 0.107342 -0.031442 -146961.000000 0 0 1
2.266675 -3.320203 32.794679 33.040165 -0.971781 0.121977 0.123885 -0.023805 501531.000000 0 0 1
1.426375 -3.474903 31.473779 31.697133 -1.181289 0.118784 0.127227 -0.025606 1376520.000000 0 0 1
0.022275 -3.253703 31.714479 31.880954 -1.563950 0.102238 0.110999 -0.026696 496329.000000 0 0 1
-0.694225 -3.990303 30.748179 31.013787 1.398542 0.130969 0.110351 -0.022865 120494.000000 0 0 1
-2.234825 -3.907403 30.764579 31.092146 1.051260 0.145285 0.084946 -0.019554 283052.000000 0 0 1
-2.786725 -2.622103 30.411279 30.651055 0.754972 0.125164 0.081606 -0.017604 -417524.000000 0 0 1
-4.172625 -2.745103 30.284379 30.693485 0.581898 0.163453 0.070361 -0.014036 -247969.000000 0 0 1
-4.787625 -1.562703 29.464479 29.891787 0.315502 0.169289 0.040524 -0.004644 -156772.000000 0 0 1
-4.401025 -1.620403 28.128379 28.516669 0.352785 0.165211 0.049157 -0.002343 206992.000000 0 0 1
-5.287625 -0.900603 27.242579 27.765593 0.168704 0.194403 0.040668 -0.004425 576720.000000 0 0 1
-5.546725 0.599197 27.478579 28.039214 -0.107610 0.200308 0.057745 -0.006076 307004.000000 0 0 1
-6.503025 0.871297 28.503579 29.248974 -0.133190 0.226245 0.046355 -0.005242 -63969.300000 0 0 1
-6.949825 2.211997 28.443479 29.363659 -0.308143 0.251008 0.053196 -0.002209 158194.000000 0 0 1
-8.303925 2.473297 29.155679 30.415884 -0.289480 0.288866 0.032307 -0.005978 606608.000000 0 0 1
-9.449025 2.034497 28.457579 30.054235 -0.212075 0.327423 0.026497 0.000599 314279.000000 0 0 1
-10.679325 2.668097 28.779779 30.813023 -0.244826 0.365309 0.028344 0.005708 322974.000000 0 0 1
-11.791425 2.148497 27.831879 30.302924 -0.180231 0.406639 0.038641 0.008224 -390211.000000 0 0 1
-12.091325 0.807897 28.162279 30.658878 -0.066717 0.406353 0.047170 0.003560 42964.000000 0 0 1
-12.190025 0.059097 26.954679 29.583017 -0.004848 0.424721 0.047574 0.004846 -797348.000000 0 0 1
-12.362725 -1.438803 27.173579 29.888301 0.115861 0.429507 0.055686 -0.008023 206356.000000 0 0 1
-11.247025 -2.176303 27.695379 29.971084 0.191138 0.392201 0.057865 -0.007264 1365940.000000 0 0 1
-9.997225 -2.154703 26.977179 28.850571 0.212283 0.362352 0.053869 -0.004607 342018.000000 0 0 1
-9.978725 -2.823503 25.567779 27.590912 0.275744 0.385331 0.046956 -0.003784 -590833.000000 0 0 1
-10.668225 -2.048203 24.587779 26.880570 0.189683 0.416020 0.030993 -0.004215 375762.000000 0 0 1
-10.615725 -2.676603 23.309279 25.752287 0.246988 0.439101 0.041573 -0.002956 571579.000000 0 0 1
-9.417525 -2.245103 22.370879 24.375941 0.234028 0.408433 0.051562 -0.007211 745081.000000 0 1 0
-8.162025 -2.508703 22.952479 24.489356 0.298198 0.356159 0.052411 -0.005105 -325807.000000 0 1 0
-7.137725 -2.024703 22.108079 23.319813 0.276401 0.323784 0.047127 -0.009930 275697.000000 0 1 0
-5.667625 -2.240203 22.555279 23.364098 0.376416 0.263893 0.044018 -0.008630 293809.000000 0 1 0
-5.256625 -3.591603 22.498279 23.381708 0.599397 0.275765 0.039787 -0.009983 -153544.000000 0 1 0
-5.686525 -4.435403 23.582179 24.660262 0.662417 0.296782 0.040571 0.000135 -34999.100000 0 1 0
-5.415625 -5.916803 23.363179 24.701734 0.829594 0.330712 0.044461 0.001241 -83484.000000 0 1 0
-6.322625 -6.488703 22.433979 24.194261 0.798361 0.383812 0.046587 -0.004002 11407.500000 0 1 0
-6.045725 -6.210903 21.076179 22.788844 0.798874 0.390165 0.046201 -0.008426 -618625.000000 0 1 0
-7.255125 -6.309403 20.159979 22.335401 0.715791 0.445020 0.056772 -0.007898 197900.000000 0 1 0
-8.215425 -5.229403 20.278679 22.495882 0.566851 0.447713 0.068469 -0.009932 39800.000000 0 1 0
-8.999725 -5.065603 19.165679 21.771050 0.512664 0.494242 0.055181 -0.013561 -295747.000000 0 1 0
-9.713525 -3.692003 19.160679 21.797135 0.363225 0.496939 0.049008 -0.016729 -38818.200000 0 1 0
-8.881125 -2.581903 18.962379 21.097688 0.282920 0.453796 0.043401 -0.007029 -204945.000000 0 1 0
-9.617025 -1.419203 18.684179 21.061810 0.146514 0.479747 0.041918 -0.013980 515012.000000 0 1 0
-8.580525 -0.246603 18.425879 20.327303 0.028732 0.435973 0.031103 -0.005909 717095.000000 0 1 0
-7.940725 0.209297 19.605479 21.153575 -0.026351 0.384952 0.046480 0.010136 231892.000000 0 1 0
-8.712825 1.090497 20.406379 22.215373 -0.124513 0.406349 0.090496 0.004770 -85404.700000 0 1 0
-8.514925 2.538997 19.905379 21.798499 -0.289788 0.419841 0.073446 -0.014003 11679.300000 0 1 0
-9.024825 2.909797 18.655679 20.927225 -0.311898 0.470250 0.044681 -0.027765 -39843.400000 0 1 0
-8.851025 4.309197 18.460279 20.921083 -0.453079 0.489907 0.042359 -0.020949 -337364.000000 0 1 0
-9.688825 4.931997 17.351979 20.476550 -0.470853 0.559713 0.030974 -0.008540 280482.000000 0 1 0
-11.005725 5.291397 17.788179 21.576473 -0.448158 0.601611 0.035856 0.003359 581328.000000 0 1 0
-11.698525 6.092997 16.823779 21.378018 -0.480176 0.664920 0.026365 0.016911 -74409.900000 0 1 0
-11.482725 7.602197 16.994779 21.873932 -0.584803 0.681002 0.021950 0.022920 -1336890.000000 0 1 0
-10.178425 7.986497 16.824379 21.223671 -0.665311 0.655542 0.012244 0.020444 -1103490.000000 0 1 0
-10.057025 9.396597 16.801879 21.719644 -0.751462 0.686325 -0.002275 0.010696 -442858.000000 0 1 0
-8.634825 9.800797 17.131379 21.542980 -0.848560 0.651428 0.004431 0.011059 -551714.000000 0 1 0
-8.576225 10.260097 18.480779 22.811410 -0.874556 0.626380 0.024836 0.027186 -130549.000000 0 1 0
-8.308925 11.634897 18.791779 23.612285 -0.950644 0.650390 0.059076 0.023341 -357521.000000 0 1 0
-9.097325 12.733697 18.104679 23.930896 -0.950452 0.712791 0.068936 0.008302 -250438.000000 0 1 0
-8.825925 12.913197 16.687379 22.871734 -0.971243 0.753049 0.049333 -0.007533 -398542.000000 0 1 0
-9.672825 13.809197 16.028379 23.262983 -0.959760 0.810677 0.060481 -0.022272 -319926.000000 0 1 0
-9.226025 14.186097 14.585279 22.340440 -0.994170 0.859436 0.056169 -0.022202 -100534.000000 0 1 0
-7.992525 14.846997 14.477479 22.224113 -1.076960 0.861327 0.052718 -0.014425 -270113.000000 0 1 0
-7.754025 15.163097 13.116179 21.496013 -1.098090 0.914524 0.043411 -0.032829 -561552.000000 0 1 0
-6.853925 16.360297 12.952779 21.963836 -1.174073 0.940069 0.024777 -0.019850 55206.300000 0 1 0
-5.515625 16.191497 13.407279 21.733426 -1.242476 0.906003 0.020710 -0.016467 -146347.000000 0 1 0
-4.856725 17.441197 13.344279 22.491174 -1.299214 0.935630 0.019620 -0.019874 616722.000000 0 1 0
-3.300425 17.273997 13.386779 22.101802 -1.382008 0.920167 0.018316 -0.023466 645614.000000 0 1 0
-2.609525 16.757797 14.546879 22.343793 -1.416317 0.861832 0.034977 -0.021449 118296.000000 0 1 0
-2.784325 15.432297 14.745479 21.525274 -1.392295 0.816150 0.033334 -0.012618 496251.000000 0 1 0
-1.604625 14.856697 15.656579 21.643122 -1.463207 0.762086 0.037262 -0.013654 1150900.000000 0 1 0
-0.379725 14.556497 14.952379 20.871259 -1.544716 0.772153 0.023936 -0.022187 508168.000000 0 1 0
0.641875 14.100197 15.815279 21.197892 1.525305 0.728644 0.032321 -0.022271 16259.500000 0 1 0
1.441175 15.245297 16.481479 22.497449 1.476544 0.748672 0.033371 -0.020313 -554117.000000 0 1 0
0.674775 16.016997 17.389979 23.651869 1.528693 0.744764 0.026071 -0.015686 -275107.000000 0 1 0
1.510675 16.674197 18.300679 24.803746 1.480443 0.740963 0.046990 -0.016823 20862.500000 0 1 0
0.648375 17.725997 19.087679 26.057069 1.534235 0.748760 0.058282 -0.017814 813108.000000 0 0 1
0.084875 18.843697 18.339979 26.295379 1.566292 0.798949 0.045161 -0.015228 285188.000000 0 0 1
-0.984025 18.471897 17.482779 25.452443 -1.517575 0.813609 0.053613 -0.012027 -443197.000000 0 0 1
-1.685625 19.607497 16.714879 25.820195 -1.485039 0.866685 0.051805 -0.014219 -171759.000000 0 0 1
-2.476825 20.423597 17.511279 27.016715 -1.450113 0.865625 0.042448 -0.010145 -90679.000000 0 0 1
-3.018325 21.492797 16.746479 27.413412 -1.431274 0.913617 0.048148 -0.016386 -14179.300000 0 0 1
-3.877025 22.536897 17.530579 28.814306 -1.400434 0.916755 0.039758 0.001663 329220.000000 0 0 1
-5.078625 21.962897 18.013779 28.855806 -1.343554 0.896601 0.059068 0.000796 -18788.600000 0 0 1
-5.726325 22.878197 18.878479 30.209265 -1.325539 0.895763 0.062626 0.006180 -77840.000000 0 0 1
-6.914625 22.263697 19.633279 30.478679 -1.269663 0.870866 0.059148 0.001253 233199.000000 0 0 1
-8.191025 22.566797 19.084779 30.668910 -1.222616 0.899139 0.042445 0.004324 -309440.000000 0 0 1
-9.189625 21.778997 19.672079 30.753286 -1.171513 0.876722 0.005658 0.000685 -919671.000000 0 0 1
-10.526925 22.341997 19.246879 31.311712 -1.130476 0.908808 0.015100 -0.007570 -982548.000000 0 0 1
-10.877125 23.619797 19.703279 32.625540 -1.139238 0.922384 0.031359 0.000757 36631.800000 0 0 1
-11.945325 24.093697 18.895979 32.867234 -1.110525 0.958292 0.009207 0.001631 -60529.600000 0 0 1
-12.229925 25.607697 19.118779 34.217728 -1.125239 0.977932 0.025071 -0.002134 66431.200000 0 0 1
-12.834225 25.836297 20.391679 35.327782 -1.109751 0.955484 0.025741 0.000378 338240.000000 0 0 1
-13.285325 27.154297 20.566379 36.562709 -1.115783 0.973395 0.040080 -0.016491 -92823.200000 0 0 1
-14.205125 27.444997 21.800579 37.819025 -1.093180 0.956425 0.076480 -0.038432 -63989.600000 0 0 1
-15.384225 26.675697 21.808579 37.734352 -1.047676 0.954582 0.072444 -0.031805 -116240.000000 0 0 1
-16.108725 26.945597 22.982079 38.906711 -1.031978 0.938874 0.061572 -0.023344 -427692.000000 0 0 1
-17.578525 26.531097 22.984479 39.257992 -0.985640 0.945333 0.079497 -0.025606 -345974.000000 0 0 1
-17.798125 25.166997 23.023579 38.473838 -0.955254 0.929267 0.071561 -0.028279 -836525.000000 0 0 1
-19.156425 24.915997 22.877479 38.873572 -0.915346 0.941582 0.087164 -0.021233 -483574.000000 0 0 1
28.297675 24.405197 23.381022 44.079976 0.711675 1.011697 0.072093 -0.021209 20592.500000 0 0 1
28.216475 23.589797 24.541722 44.214750 0.696327 0.982364 0.072656 -0.022413 149296.000000 0 0 1
27.709875 22.287297 24.208472 43.018728 0.677363 0.973096 0.076581 -0.020286 -153548.000000 0 0 1
27.139575 21.519097 25.370322 42.933452 0.670400 0.938595 0.099441 -0.030412 -498677.000000 0 0 1
25.907575 22.071197 25.736672 42.669855 0.705608 0.923342 0.095332 -0.027619 -366078.000000 0 0 1
25.354275 21.233597 26.747492 42.533907 0.697178 0.890722 0.089299 -0.026375 -492979.000000 0 0 1
24.146575 21.721797 27.505102 42.560830 0.732583 0.868131 0.102709 -0.020489 -524636.000000 0 0 1
24.395375 22.860297 28.322562 43.816607 0.752925 0.867954 0.116950 -0.030379 377557.000000 0 0 1
23.241175 23.062897 29.146162 43.835468 0.781548 0.843438 0.119842 -0.017717 459727.000000 0 0 1
22.989975 24.504897 29.682942 44.834206 0.817284 0.847232 0.112251 -0.014162 -503738.000000 0 0 1
22.404075 25.264397 28.690092 44.309748 0.845331 0.866511 0.119707 -0.031928 -29584.000000 0 0 1
21.835575 26.504197 29.146062 45.041733 0.881679 0.867035 0.104563 -0.032084 633795.000000 0 0 1
20.469075 26.470497 29.900622 44.874463 0.912562 0.841538 0.094338 -0.030558 366983.000000 0 0 1
19.327075 26.179997 29.063172 43.630220 0.934865 0.841795 0.088294 -0.030492 1295770.000000 0 0 1
18.089275 26.399497 29.765152 43.704915 0.970064 0.821603 0.075954 -0.022459 674904.000000 0 0 1
17.524375 25.229297 30.593722 43.354319 0.963701 0.787432 0.059099 -0.019100 -496481.000000 0 0 1
18.153775 24.991397 31.859012 44.374837 0.942570 0.769940 0.056191 -0.013908 279260.000000 0 0 1
17.461675 24.065697 32.719353 44.211129 0.943106 0.737621 0.062702 -0.022456 78785.100000 0 0 1
17.941675 24.056297 -33.699701 45.125148 0.929976 2.414042 0.088960 -0.019209 -40656.400000 0 0 1
17.767775 25.304397 -33.023791 45.239110 0.958621 2.389094 0.076243 -0.015571 169699.000000 0 0 1
18.058375 25.126397 -31.665171 44.273285 0.947629 2.367736 0.069963 -0.009306 -16505.300000 0 0 1
18.210875 26.530097 -30.980351 44.668380 0.969241 2.337220 0.060863 -0.006337 -34506.800000 0 0 1
16.977875 27.213697 -30.866611 44.514955 1.013008 2.336991 0.082731 -0.011781 121869.000000 0 0 1
17.107175 28.497097 -30.357131 45.014391 1.030147 2.310931 0.072965 -0.008046 -310672.000000 0 0 1
16.752675 28.563597 -28.864401 43.928178 1.040359 2.287737 0.086467 -0.008919 -210205.000000 0 0 1
17.381175 27.650397 -27.960701 42.993610 1.009609 2.278836 0.062268 -0.001849 18413.100000 0 0 1
17.164775 28.045297 -26.596021 42.290856 1.021573 2.250913 0.072790 -0.013642 -202622.000000 0 0 1
17.768275 27.246997 -25.433071 41.291059 0.992933 2.234383 0.063515 -0.009486 260805.000000 0 0 1
19.168275 27.464697 -25.356761 42.008305 0.961465 2.218821 0.067404 -0.004056 -421590.000000 0 0 1
19.758075 26.778297 -24.343021 41.231558 0.935124 2.202348 0.052933 0.001526 -338890.000000 0 0 1
21.254575 27.127297 -24.248421 42.138262 0.906190 2.183949 0.045705 0.001295 -135018.000000 0 0 1
21.933575 26.177297 -23.476321 41.442373 0.873378 2.173026 0.041693 0.003980 -768981.000000 0 0 1
23.325175 26.250897 -23.582821 42.300388 0.844345 2.162178 0.050344 0.007531 -229043.000000 0 0 1
23.989375 26.162197 -22.199821 41.866248 0.828696 2.129699 0.058988 0.000152 -45313.100000 0 0 1
23.765975 24.941397 -21.538121 40.629860 0.809526 2.129522 0.065920 -0.002025 -26279.500000 0 0 1
24.245975 25.093797 -20.218821 40.328237 0.802580 2.095962 0.064973 0.001330 -192089.000000 0 0 1
23.817875 24.032997 -19.239321 38.923355 0.789894 2.087811 0.062622 -0.008176 -766067.000000 0 0 1
24.131775 22.681597 -19.552221 38.458897 0.754430 2.104114 0.061783 0.000330 144860.000000 0 0 1
23.876375 21.784297 -18.485221 37.233591 0.739612 2.090319 0.065567 -0.007516 -755466.000000 0 0 1
24.065675 20.328797 -18.824021 36.698235 0.701422 2.109403 0.072286 -0.008499 45685.300000 0 0 1
23.247175 19.667297 -19.763421 36.301881 0.702172 2.146492 0.072105 -0.010570 521224.000000 0 0 1
21.840975 19.678497 -19.488221 35.271266 0.733362 2.156186 0.067096 -0.014470 110359.000000 0 0 1
20.961775 19.437697 -20.704221 35.297094 0.747691 2.197614 0.053185 0.001354 -268956.000000 0 0 1
20.982675 20.364197 -21.853221 36.503924 0.770441 2.212616 0.058504 0.004518 -223878.000000 0 0 1
20.858675 21.720197 -21.592121 37.054972 0.805629 2.192850 0.056158 0.006864 -24378.100000 0 0 1
20.444775 22.552597 -22.793221 38.028139 0.834381 2.213520 0.057921 0.009781 473759.000000 0 0 1
19.038475 22.534397 -23.005821 37.410298 0.869292 2.233131 0.070783 0.006609 -73651.300000 0 0 1
18.772975 23.007297 -24.283221 38.359290 0.886401 2.256279 0.074133 0.009180 669643.000000 0 0 1
17.225175 23.054997 -24.518221 37.807178 0.929132 2.276418 0.070233 0.006135 671477.000000 0 0 1
16.609375 24.065497 -23.741321 37.665233 0.966696 2.252768 0.059293 -0.006353 -636553.000000 0 0 1
15.236375 24.090097 -23.986921 37.253889 1.006840 2.270351 0.058161 -0.004510 -227091.000000 0 0 1
14.436675 25.196597 -23.241921 37.195067 1.050496 2.245756 0.057372 -0.007105 136163.000000 0 0 1
14.638475 26.481097 -23.827921 38.513676 1.065814 2.237867 0.049502 -0.002051 94966.000000 0 0 1
13.591175 27.353797 -23.471221 38.520754 1.109659 2.225991 0.071009 -0.009771 127926.000000 0 0 1
13.586975 28.676297 -24.297721 39.966425 1.128323 2.224277 0.068921 -0.019498 138814.000000 0 0 1
13.482875 28.600697 -25.752771 40.779811 1.130275 2.254293 0.071251 -0.023600 -83104.200000 0 0 1
12.954875 29.803697 -26.342811 41.833394 1.160761 2.251973 0.097384 -0.030851 213398.000000 0 0 1
13.814075 31.127597 -26.346721 43.057005 1.153120 2.229261 0.107285 -0.026568 -132173.000000 0 0 1
14.989975 30.981297 -27.088091 43.798456 1.120161 2.237592 0.093293 -0.016334 -461780.000000 0 0 1
15.681275 32.200397 -27.255201 45.006821 1.117611 2.221290 0.096044 -0.027735 357288.000000 0 0 1
17.167375 32.030497 -27.658491 45.669066 1.078789 2.221352 0.100712 -0.019289 406831.000000 0 0 1
18.023175 31.425897 -26.696111 45.001158 1.050080 2.205864 0.063386 -0.016248 1220110.000000 0 0 1
19.411675 31.494497 -27.105541 45.863131 1.018440 2.203106 0.065989 -0.013916 409765.000000 0 0 1
20.335875 30.743797 -26.133191 45.184871 0.986405 2.187515 0.039312 -0.004793 -766435.000000 0 0 1
20.567275 31.530197 -24.950321 45.162868 0.992803 2.156099 0.039787 -0.008454 127585.000000 0 0 1
21.358175 32.705497 -25.151541 46.458812 0.992283 2.142865 0.042692 -0.020222 228155.000000 0 0 1
22.896075 32.426097 -25.317251 47.081262 0.955988 2.138545 0.012302 -0.006708 253162.000000 0 0 1
23.236975 31.958797 -26.639131 47.654643 0.942118 2.163980 0.026407 -0.002825 -601398.000000 0 0 1
24.503075 32.333097 -27.068191 48.770040 0.922301 2.159179 0.011355 0.006700 -963426.000000 0 0 1
24.806475 31.496397 -28.326861 49.089666 0.903664 2.185900 0.020147 -0.000359 268483.000000 0 0 1
24.043075 31.714597 -29.557261 49.573348 0.922127 2.209597 0.044383 -0.014811 112922.000000 0 0 1
22.754175 31.168097 -29.580171 48.622929 0.940188 2.224787 0.032479 -0.021129 -336797.000000 0 0 1
21.813575 31.895097 -30.557611 49.263545 0.970947 2.239907 0.056551 -0.028603 -361983.000000 0 0 1
21.288975 33.167097 -30.166971 49.631874 1.000157 2.224102 0.079315 -0.028254 601026.000000 0 0 1
20.370975 33.668597 -31.153271 50.190411 1.026676 2.240434 0.087742 -0.037794 1493570.000000 0 0 1
18.831475 33.313197 -31.037951 49.272182 1.056293 2.252257 0.093377 -0.040821 936627.000000 0 0 1
18.352075 31.950297 -31.165971 48.259071 1.049417 2.272874 0.085429 -0.031226 116460.000000 0 0 1
18.544875 31.305497 -32.440181 48.747429 1.035996 2.298926 0.095797 -0.036582 -140691.000000 0 0 1
17.825075 31.892897 -33.728741 49.724422 1.061143 2.316261 0.104570 -0.045263 86375.500000 0 0 1
18.337775 33.234897 -33.902211 50.893932 1.066601 2.299810 0.105134 -0.047141 359675.000000 0 0 1
18.072275 33.762997 32.653526 50.326930 1.079333 0.864753 0.096641 -0.042752 -91231.000000 0 0 1
16.605875 -33.855810 32.416046 49.726964 -1.114787 0.860734 0.101549 -0.037838 -779589.000000 0 0 1
15.696975 33.135797 32.216942 48.808887 1.128396 0.849894 0.102826 -0.033931 227051.000000 0 0 1
14.353075 33.560497 32.460256 48.846555 1.166660 0.843925 0.095342 -0.031045 820136.000000 0 0 1
13.673675 -33.777510 31.230812 47.992220 -1.186145 0.862228 0.079633 -0.031529 -622215.000000 0 0 1
14.319375 -32.545110 30.898752 47.105855 -1.156302 0.855365 0.096034 -0.030707 423247.000000 0 0 1
13.698175 -31.922210 29.770322 45.748656 -1.165449 0.862242 0.089115 -0.035686 88964.100000 0 0 1
14.274675 -30.515210 29.396202 44.711084 -1.133248 0.853340 0.090254 -0.033595 -55615.900000 0 0 1
13.847375 -29.525510 30.306562 44.519583 -1.132257 0.822015 0.088877 -0.026904 297896.000000 0 0 1
14.222875 -28.251410 29.869222 43.504055 -1.104401 0.814015 0.106818 -0.032597 -461607.000000 0 0 1
13.948475 -27.124310 30.928212 43.437800 -1.095820 0.778438 0.108006 -0.030283 417676.000000 0 0 1
12.568275 -27.035410 31.291142 43.220487 -1.135636 0.761229 0.101679 -0.020703 464324.000000 0 0 1
11.813975 -26.168410 30.457212 41.856869 -1.146729 0.755904 0.077583 -0.019189 -392640.000000 0 0 1
11.886575 -24.621710 30.535002 40.986652 -1.121029 0.730263 0.074080 -0.019417 -564339.000000 0 0 1
11.369575 -24.076410 31.747442 41.434778 -1.129611 0.697885 0.092850 -0.025335 -56410.500000 0 0 1
11.818575 -22.823110 32.163746 41.171345 -1.092984 0.674184 0.097052 -0.026567 -262225.000000 0 0 1
10.998975 -22.299810 33.341055 41.591885 -1.112578 0.640789 0.094382 -0.028211 -352959.000000 0 0 1
11.001375 -22.887210 -33.240531 41.830462 -1.122726 2.489225 0.090362 -0.024345 967483.000000 0 0 1
12.285475 -23.008910 -32.577581 41.732980 -1.080363 2.466453 0.108176 -0.026972 985523.000000 0 0 1
12.856475 -21.756810 -31.818621 40.633390 -1.037082 2.470377 0.106939 -0.037830 -236238.000000 0 0 1
13.352275 -20.793610 -32.747761 41.025276 -0.999971 2.495154 0.104745 -0.036502 661863.000000 0 0 1
14.279475 -19.825610 -32.217471 40.434189 -0.946606 2.492757 0.096382 -0.038798 275910.000000 0 0 1
14.653275 -18.728210 -33.235541 40.866435 -0.906869 2.520550 0.085825 -0.038148 412528.000000 0 0 1
15.565675 -19.146310 33.574044 41.666388 -0.888187 0.633801 0.086411 -0.023940 1033080.000000 0 0 1
15.387075 -18.196510 32.506379 40.305579 -0.868859 0.632591 0.082366 -0.026139 473551.000000 0 0 1
16.448075 -17.045310 32.545358 40.252728 -0.803228 0.629154 0.073782 -0.028418 -456644.000000 0 0 1
16.190175 -16.082110 33.583654 40.603175 -0.782050 0.596834 0.069703 -0.026659 101780.000000 0 0 1
16.930975 -14.895010 33.470456 40.358279 -0.721513 0.592883 0.068545 -0.027247 514100.000000 0 0 1
18.462675 -14.940210 33.776379 41.290726 -0.680333 0.612847 0.065012 -0.020559 471724.000000 0 0 1
19.226375 -15.549810 32.747694 41.034882 -0.680069 0.646752 0.064852 -0.018973 932926.000000 0 0 1
20.650575 -15.542610 32.945062 41.873572 -0.645194 0.665230 0.067345 -0.014881 898999.000000 0 0 1
21.512175 -16.251510 31.897223 41.765034 -0.646984 0.701724 0.062786 -0.011831 -403257.000000 0 0 1
21.656675 -15.460110 30.759552 40.671570 -0.619976 0.713171 0.060846 -0.007349 236289.000000 0 0 1
22.356375 -16.191110 29.797312 40.618215 -0.626802 0.747200 0.052131 -0.005431 -305030.000000 0 0 1
22.592675 -15.427710 28.457602 39.475034 -0.599132 0.765694 0.049050 0.002589 -295329.000000 0 0 1
23.407675 -14.292910 28.561382 39.597463 -0.548183 0.765129 0.015794 0.003754 8362.980000 0 0 1
23.421575 -13.548510 27.396592 38.505916 -0.524433 0.779179 0.025756 -0.000646 -211286.000000 0 0 1
24.044875 -12.200210 27.449852 38.477208 -0.469545 0.776450 0.018800 0.000918 417.317000 0 0 1
23.200975 -11.268210 28.110372 38.150371 -0.452125 0.742426 0.032728 -0.011176 376131.000000 0 0 1
23.924875 -10.091510 28.464432 38.528718 -0.399157 0.739531 0.042047 -0.013376 -40750.500000 0 0 1
22.982075 -8.904110 28.522192 37.695814 -0.369630 0.712636 0.058072 -0.012574 -240363.000000 0 0 1
22.078975 -8.920610 29.594652 37.985548 -0.383977 0.677563 0.058154 -0.017405 -376256.000000 0 0 1
21.257575 -7.768110 29.451622 37.143318 -0.350352 0.655213 0.061267 -0.017990 57205.700000 0 0 1
20.072575 -7.683610 30.442342 37.265028 -0.365584 0.614755 0.041682 -0.006005 -128439.000000 0 0 1
20.349675 -7.522010 31.815202 38.508402 -0.354061 0.598488 0.054752 -0.016461 24461.800000 0 0 1
20.569075 -8.705010 32.526967 39.457162 -0.400352 0.601723 0.061801 -0.025494 -396974.000000 0 0 1
20.617775 -8.427910 -33.853041 40.523459 -0.388043 2.559645 0.071459 -0.034148 171505.000000 0 0 1
19.355475 -8.251010 -33.224401 39.326510 -0.402961 2.577052 0.067520 -0.044053 240162.000000 0 0 1
19.490775 -7.690510 -31.989231 38.240622 -0.375818 2.561706 0.080590 -0.044340 -241872.000000 0 0 1
18.197175 -6.992910 -31.577431 37.110270 -0.366886 2.588508 0.080521 -0.039919 -224158.000000 0 0 1
18.345575 -6.142710 -30.477181 36.099191 -0.323100 2.575983 0.080128 -0.037591 1099940.000000 0 0 1
17.063475 -5.856710 -29.880601 34.904348 -0.330632 2.598416 0.080763 -0.029391 1007930.000000 0 0 1
17.340175 -4.890310 -28.685331 33.873958 -0.274883 2.580784 0.078001 -0.022753 -191717.000000 0 0 1
18.041375 -5.397210 -27.577341 33.393575 -0.290684 2.542465 0.085438 -0.016966 494121.000000 0 0 1
17.313375 -6.257510 -26.646781 32.387657 -0.346818 2.537020 0.094400 -0.028796 816872.000000 0 0 1
15.939675 -5.859510 -26.011951 31.064911 -0.352272 2.563199 0.106718 -0.029560 647725.000000 0 0 1
15.961675 -4.773010 -25.071071 30.101749 -0.290566 2.555083 0.081045 -0.019285 203010.000000 0 0 1
14.607675 -4.542610 -24.700821 29.054260 -0.301494 2.587089 0.101398 -0.031404 379504.000000 0 0 1
14.445275 -3.317310 -23.787121 28.026731 -0.225733 2.584375 0.092623 -0.021983 -21988.800000 0 0 1
14.503875 -2.022610 -24.378721 28.438976 -0.138559 2.600661 0.079069 -0.033445 103833.000000 0 0 1
14.260175 -1.056610 -23.404021 27.426579 -0.073960 2.593143 0.084966 -0.032338 -23950.200000 0 0 1
14.682875 0.372390 -23.826921 27.990135 0.025357 2.589181 0.067683 -0.035693 -614467.000000 0 0 1
13.917075 0.839390 -24.906621 28.543464 0.060241 2.631268 0.088697 -0.041616 -64759.600000 0 0 1
14.242675 2.155390 -25.359911 29.165469 0.150194 2.625023 0.081413 -0.017966 -382884.000000 0 0 1
13.446775 2.653390 -26.605281 29.928201 0.194823 2.665888 0.063020 -0.025525 -720859.000000 0 0 1
12.177075 3.018390 -26.178121 29.029052 0.242978 2.694691 0.072361 -0.041430 -866446.000000 0 0 1
11.488075 3.573390 -27.271961 29.807798 0.301565 2.726123 0.063615 -0.039740 477231.000000 0 0 1
10.206075 4.393390 -26.907401 29.111408 0.406493 2.749969 0.057320 -0.043911 516360.000000 0 0 1
10.557875 5.635390 -26.345711 28.936531 0.490291 2.715204 0.047883 -0.047844 555741.000000 0 0 1
9.440475 6.534390 -26.384081 28.773956 0.605450 2.731147 0.053395 -0.048744 345071.000000 0 0 1
8.202475 5.257497 -30.961421 32.458149 0.569997 2.836728 0.048171 -0.027100 -28443.200000 0 0 1
7.590775 4.292797 -30.098001 31.335884 0.514687 2.859576 0.052145 -0.018202 605135.000000 0 0 1
7.687375 2.992097 -30.647731 31.738491 0.371181 2.878664 0.032905 -0.011376 -265503.000000 0 0 1
7.379675 1.894197 -29.640111 30.603656 0.251253 2.889993 0.042962 -0.016442 -519318.000000 0 0 1
8.430775 1.783597 -28.740191 30.004296 0.208484 2.850285 0.076457 -0.032463 78019.100000 0 0 1
8.148275 0.662797 -27.881531 29.055352 0.081163 2.856375 0.073197 -0.036798 -680807.000000 0 0 1
9.226075 0.459897 -26.863221 28.407122 0.049806 2.810387 0.078019 -0.050725 -39666.300000 0 0 1
10.343975 -0.180803 -27.508141 29.389255 -0.017477 2.781866 0.096824 -0.030777 743167.000000 0 0 1
11.369375 -0.559703 -26.575041 28.910357 -0.049189 2.736897 0.091839 -0.038012 717886.000000 0 0 1
12.370975 -1.589203 -27.163231 29.889926 -0.127762 2.711136 0.077787 -0.034142 42972.700000 0 0 1
11.715675 -2.796103 -27.294301 29.833774 -0.234281 2.726005 0.093669 -0.040875 -187633.000000 0 0 1
12.524775 -3.791103 -27.882671 30.800743 -0.293921 2.702787 0.108187 -0.037167 -190433.000000 0 0 1
11.992575 -5.221803 -27.677981 30.613064 -0.410663 2.700119 0.099738 -0.024572 -393488.000000 0 0 1
11.971675 -5.549503 -26.289061 29.414838 -0.434067 2.676399 0.105607 -0.027778 -94935.900000 0 0 1
11.383275 -6.767103 -25.998721 29.177151 -0.536349 2.670481 0.104173 -0.033581 -92121.500000 0 0 1
10.936475 -6.831803 -24.496721 27.683377 -0.558370 2.657052 0.102279 -0.036605 649471.000000 0 0 1
12.047975 -6.941203 -23.590721 27.383501 -0.522683 2.609001 0.103937 -0.026951 344676.000000 0 0 1
11.707775 -6.471703 -22.308021 26.011588 -0.504967 2.601417 0.095531 -0.026932 -329694.000000 0 0 1
12.776175 -6.525403 -21.209621 25.605850 -0.472209 2.546884 0.095594 -0.026462 50941.900000 0 0 1
13.669675 -5.397603 -21.303921 25.881483 -0.376067 2.537704 0.090457 -0.020454 414928.000000 0 0 1
14.771275 -5.688003 -20.438021 25.850660 -0.367571 2.482615 0.088844 -0.015157 143344.000000 0 0 1
15.434075 -4.520803 -19.727921 25.452685 -0.284940 2.457641 0.099914 -0.011776 126696.000000 0 0 1
16.299775 -3.796803 -20.612121 26.551043 -0.228855 2.459604 0.088827 -0.012416 402682.000000 0 0 1
16.906475 -2.655103 -20.050921 26.361296 -0.155774 2.435063 0.091990 -0.005269 65856.600000 0 0 1
18.053875 -2.053903 -20.899921 27.694180 -0.113278 2.425945 0.066944 -0.011020 -476607.000000 0 0 1
19.218175 -2.785703 -20.851121 28.493291 -0.143949 2.391742 0.086155 -0.018492 -608845.000000 0 0 1
20.290775 -2.136103 -21.516421 29.651895 -0.104888 2.382752 0.087184 -0.021922 -541905.000000 0 0 1
21.511675 -2.993703 -21.719521 30.715664 -0.138278 2.356207 0.054294 -0.013245 -1066390.000000 0 0 1
22.489975 -2.671703 -20.714321 30.692345 -0.118241 2.311628 0.045138 -0.011607 -452442.000000 0 0 1
23.717875 -3.260203 -20.867921 31.759040 -0.136602 2.287722 0.034312 -0.023541 -892630.000000 0 0 1
24.692175 -2.596103 -21.854121 33.076364 -0.104754 2.292570 0.024463 -0.017866 -1174500.000000 0 0 1
24.364575 -2.750203 -23.233121 33.778307 -0.112401 2.329267 0.032066 -0.015938 95658.200000 0 0 1
25.037975 -1.818403 -24.058221 34.770746 -0.072499 2.334927 0.043159 -0.013133 -358611.000000 0 0 1
26.422775 -2.252003 -24.525621 36.121194 -0.085024 2.317171 0.047350 -0.022966 -1127910.000000 0 0 1
27.420175 -2.223103 -23.509121 36.186834 -0.080899 2.277933 0.041565 -0.014896 -207126.000000 0 0 1
28.668075 -2.750803 -23.827021 37.378501 -0.095661 2.261984 0.050679 -0.013575 168202.000000 0 0 1
29.588175 -1.813103 -24.706021 38.589311 -0.061201 2.265594 0.064501 -0.025529 -613034.000000 0 0 1
28.972575 -1.501003 -25.954431 38.926798 -0.051761 2.300635 0.062314 -0.026180 380694.000000 0 0 1
29.607375 -0.412103 -26.620121 39.817048 -0.013918 2.303068 0.067993 -0.032592 -844637.000000 0 0 1
29.090975 -0.282603 -28.080581 40.433695 -0.009714 2.338500 0.059751 -0.031315 183752.000000 0 0 1
27.720275 0.008697 -28.255061 39.582347 0.000314 2.365748 0.059215 -0.025922 121315.000000 0 0 1
27.374175 1.304597 -27.739971 38.994274 0.047622 2.362264 0.052723 -0.020819 -533081.000000 0 0 1
25.854075 1.619197 -27.830001 38.020573 0.062547 2.392008 0.054475 -0.018932 540382.000000 0 0 1
25.087375 1.162997 -26.716911 36.667728 0.046325 2.387104 0.049974 -0.012108 -803222.000000 0 0 1
23.723575 1.286197 -26.912131 35.898818 0.054163 2.418354 0.054462 -0.013713 -446470.000000 0 0 1
22.797275 0.883197 -25.716321 34.377681 0.038722 2.415919 0.052283 -0.010049 122807.000000 0 0 1
22.722375 1.829897 -24.722821 33.628451 0.080359 2.396722 0.059747 -0.012051 171640.000000 0 0 1
21.992575 1.297897 -23.631721 32.308143 0.058947 2.391239 0.042752 -0.009820 -66015.800000 0 0 1
22.233875 2.049297 -22.335421 31.581891 0.091910 2.356358 0.043407 -0.015186 -537146.000000 0 0 1
21.815175 3.390797 -22.288221 31.371391 0.154199 2.360953 0.053257 -0.011141 184789.000000 0 0 1
22.137975 3.930397 -21.061921 30.808156 0.175710 2.323545 0.046282 -0.013056 -393189.000000 0 0 1
21.550975 5.287197 -20.756721 30.384872 0.240583 2.322832 0.066921 -0.015244 -317463.000000 0 0 1
22.103575 6.304797 -21.602121 31.543147 0.277860 2.325185 0.067775 -0.014907 402287.000000 0 0 1
21.744375 7.666297 -21.197121 31.319449 0.338958 2.314208 0.072230 -0.019377 -112196.000000 0 0 1
22.392575 8.040997 -19.851121 30.986320 0.344752 2.266130 0.073189 -0.026541 -521234.000000 0 0 1
23.795575 8.133997 -19.813221 32.014919 0.329376 2.238106 0.055142 -0.018842 256330.000000 0 0 1
24.385075 8.018197 -18.489621 31.635256 0.317679 2.195014 0.070188 -0.028390 90277.900000 0 0 1
24.322875 9.219897 -17.515021 31.358965 0.362328 2.163413 0.074922 -0.039573 -521440.000000 0 0 1
23.053075 9.683497 -17.126321 30.307182 0.397672 2.171340 0.064995 -0.029570 -372461.000000 0 0 1
23.009075 11.039997 -16.753321 30.528230 0.447366 2.151702 0.068767 -0.026267 -849571.000000 0 0 1
21.653275 11.705197 -16.422821 29.590286 0.495578 2.159168 0.057169 -0.032063 694174.000000 0 0 1
20.628575 11.667597 -17.435821 29.422420 0.514744 2.205083 0.067271 -0.041342 699236.000000 0 0 1
20.029175 10.369097 -17.525721 28.562859 0.477707 2.231388 0.071494 -0.036015 -568918.000000 0 0 1
19.004875 10.233497 -18.724621 28.574834 0.493946 2.285354 0.088926 -0.027126 -33252.200000 0 0 1
19.480775 10.338997 -20.018621 29.784906 0.487927 2.307846 0.083301 -0.029850 -118305.000000 0 0 1
18.490175 10.288197 -21.028021 29.831380 0.507754 2.353073 0.076413 -0.028942 -69749.600000 0 0 1
19.138175 10.256997 -22.425421 31.214984 0.491988 2.372322 0.080625 -0.026881 -85926.700000 0 0 1
19.860375 11.429697 -22.650821 32.220058 0.522212 2.350409 0.073910 -0.030660 300371.000000 0 0 1
20.663375 11.404197 -23.846121 33.550980 0.504304 2.361350 0.085713 -0.025538 322379.000000 0 0 1
21.141675 12.821597 -24.209121 34.604123 0.545157 2.345637 0.085168 -0.011375 -280630.000000 0 0 1
21.908375 12.803597 -25.371651 35.883557 0.528882 2.356121 0.093262 -0.002682 -122987.000000 0 0 1
22.049275 14.093497 -25.988671 36.881001 0.568733 2.352744 0.087847 -0.009040 497193.000000 0 0 1
20.797075 14.648497 -26.780051 36.935998 0.613642 2.381888 0.089457 -0.012819 1080780.000000 0 0 1
19.637075 14.840397 -25.963761 35.776654 0.647161 2.382874 0.072118 -0.009728 95858.800000 0 0 1
18.572475 15.363597 -26.730951 35.993342 0.691122 2.407836 0.078860 -0.012055 -240782.000000 0 0 1
17.193375 15.040497 -26.174131 34.740665 0.718708 2.424036 0.077257 -0.021486 -341654.000000 0 0 1
16.794975 13.702897 -26.344171 34.115333 0.684357 2.453107 0.080399 -0.020052 426773.000000 0 0 1
15.431675 13.501897 -25.973211 33.091472 0.718800 2.473317 0.069067 -0.025094 458659.000000 0 0 1
15.164175 11.987497 -25.770871 32.214749 0.668930 2.498044 0.063369 -0.028959 865356.000000 0 0 1
13.766775 11.670897 -25.612271 31.332449 0.703191 2.527742 0.058953 -0.034598 944327.000000 0 0 1
13.653675 10.293697 -25.602081 30.787166 0.646001 2.552748 0.062624 -0.036492 733268.000000 0 0 1
12.198975 9.729797 -25.404681 29.814120 0.673271 2.590785 0.074349 -0.048097 657164.000000 0 0 1
11.597575 10.004897 -24.175621 28.619266 0.711805 2.576861 0.093994 -0.054309 285727.000000 0 0 1
10.292475 9.436997 -24.158421 27.903786 0.742065 2.617495 0.090836 -0.053031 431820.000000 0 0 1
9.237375 10.015897 -23.200321 26.905430 0.825812 2.610573 0.087772 -0.048107 -157704.000000 0 0 1
8.831575 11.312497 -23.439921 27.484527 0.907940 2.592198 0.096581 -0.044269 -255454.000000 0 0 1
8.048175 11.882497 -22.408421 26.610227 0.975459 2.571958 0.089566 -0.034998 297367.000000 0 0 1
8.854575 12.748597 -21.354621 26.399812 0.963736 2.513063 0.102318 -0.042992 297435.000000 0 0 1
9.748375 11.848597 -20.725521 25.786960 0.882339 2.504319 0.121082 -0.044459 -15375.400000 0 0 1
10.528375 12.591497 -19.759821 25.687409 0.874398 2.448450 0.141276 -0.051011 556929.000000 0 0 1
11.539875 11.673197 -18.937321 25.061013 0.791142 2.427440 0.145248 -0.050917 1186870.000000 0 0 1
12.625275 10.985997 -19.577621 25.756027 0.716082 2.434291 0.133071 -0.050915 802077.000000 0 0 1
12.185875 10.079197 -20.558521 25.937204 0.691061 2.485902 0.124474 -0.052227 -909151.000000 0 0 1
13.347475 9.466197 -21.344221 26.894976 0.616882 2.487522 0.124047 -0.046703 -104459.000000 0 0 1
14.170075 8.610797 -20.548121 26.403828 0.546044 2.462631 0.123384 -0.057027 -137873.000000 0 0 1
15.128175 8.104997 -21.412921 27.442045 0.491841 2.465935 0.100623 -0.049535 -851003.000000 0 0 1
16.033275 7.038697 -20.858621 27.234009 0.413673 2.443242 0.142372 -0.049176 -312077.000000 0 0 1
16.979875 7.374797 -19.883621 27.167300 0.409743 2.391896 0.114023 -0.046468 -29728.800000 0 0 1
17.454275 6.176797 -19.280921 26.731226 0.340131 2.376457 0.110335 -0.040443 178942.000000 0 0 1
18.370175 6.315897 -18.026221 26.500916 0.331152 2.318847 0.147643 -0.036169 301278.000000 0 0 1
19.721575 6.651997 -18.305021 27.717564 0.325312 2.292164 0.122545 -0.045034 443899.000000 0 0 1
20.564675 6.727397 -17.172221 27.623340 0.316160 2.241652 0.107105 -0.043914 135902.000000 0 0 1
21.086275 5.377897 -16.494221 27.305899 0.249719 2.219374 0.088899 -0.042625 -233106.000000 0 0 1
22.396675 4.981097 -16.856421 28.470358 0.218842 2.204420 0.066205 -0.039489 443552.000000 0 0 1
22.777475 3.787897 -16.163621 28.185531 0.164792 2.181534 0.103948 -0.045877 578881.000000 0 0 1
24.303575 3.535297 -16.413921 29.539446 0.144451 2.159954 0.021887 -0.009745 379934.000000 0 0 1
24.779375 2.428797 -15.676121 29.422054 0.097705 2.132704 0.031543 -0.016328 44175.400000 0 0 1
26.014475 2.054197 -16.273721 30.753969 0.078800 2.128405 0.025035 -0.017217 324932.000000 0 0 1
26.764675 0.955697 -15.461821 30.924571 0.035692 2.094378 0.046308 -0.032072 203521.000000 0 0 1
25.984375 -0.240103 -15.549321 30.282450 -0.009240 2.110027 0.062793 -0.032468 906530.000000 0 0 1
26.931575 -1.297603 -15.560221 31.130596 -0.048144 2.094207 0.059258 -0.022395 84508.700000 0 0 1
26.303075 -2.606803 -15.974921 30.884386 -0.098784 2.114430 0.042782 -0.024340 -232437.000000 0 0 1
25.616975 -3.273603 -14.933021 29.831879 -0.127101 2.095056 0.054348 -0.020848 378319.000000 0 0 1
25.449975 -4.672403 -15.308321 30.064552 -0.181570 2.105030 0.051228 -0.012115 -1008060.000000 0 0 1
24.826575 -5.467803 -14.166921 29.102532 -0.216779 2.079211 0.061539 -0.019668 -91821.000000 0 0 1
23.531975 -5.088403 -13.752021 27.726590 -0.212955 2.089767 0.081849 -0.013599 323706.000000 0 0 1
22.520275 -5.716403 -14.532121 27.404791 -0.248584 2.129723 0.089437 -0.008898 -171636.000000 0 0 1
21.066075 -5.500803 -14.035321 25.904219 -0.255418 2.143393 0.099849 -0.016802 59340.800000 0 0 1
20.640275 -6.333203 -12.976921 25.189897 -0.297718 2.111995 0.106337 -0.013960 288224.000000 0 0 1
20.950975 -5.844003 -11.711421 24.703301 -0.272023 2.064719 0.123916 -0.017701 -401593.000000 0 1 0
20.626575 -6.973903 -10.682221 24.252851 -0.326037 2.026899 0.116673 -0.022486 -529752.000000 0 1 0
19.309375 -7.433503 -10.649021 23.270380 -0.367481 2.046114 0.112610 -0.022913 -111701.000000 0 1 0
19.175775 -8.584003 -11.447621 23.925791 -0.420897 2.069701 0.111471 -0.024908 -1840120.000000 0 1 0
17.875475 -9.268403 -11.353921 23.115956 -0.478336 2.084232 0.132022 -0.033256 -1479310.000000 0 1 0
16.776475 -8.436703 -11.622121 22.083971 -0.465956 2.125004 0.107936 -0.020490 -331127.000000 0 1 0
15.611075 -9.180403 -11.913921 21.677799 -0.531601 2.152671 0.110361 -0.021175 -96874.600000 0 1 0
14.448875 -8.234703 -12.258021 20.660092 -0.518008 2.205972 0.078406 -0.007716 -543718.000000 0 1 0
14.634275 -7.434303 -13.451521 21.222023 -0.470032 2.257314 0.081275 -0.008491 237019.000000 0 1 0
15.538275 -6.365903 -13.470321 21.527012 -0.388833 2.246877 0.076335 -0.005752 -220837.000000 0 1 0
15.181975 -5.422503 -14.611921 21.757852 -0.343045 2.307122 0.057005 -0.004147 -21866.900000 0 1 0
14.089175 -4.587903 -14.300621 20.592753 -0.314804 2.338450 0.062041 -0.003244 132970.000000 0 1 0
13.729975 -3.705303 -15.389921 20.954502 -0.263590 2.395644 0.053168 -0.004319 -260004.000000 0 1 0
14.633475 -2.467003 -15.642821 21.562063 -0.167016 2.382526 0.072227 -0.011055 -725967.000000 0 1 0
15.759875 -2.720903 -16.446321 22.940324 -0.170962 2.370167 0.068596 -0.007734 -140635.000000 0 1 0
16.705275 -1.684403 -16.353021 23.437677 -0.100491 2.343011 0.074578 -0.012906 -128853.000000 0 1 0
17.831775 -1.932903 -15.336721 23.599223 -0.107975 2.278226 0.095683 -0.014104 -863731.000000 0 1 0
17.473475 -2.012903 -13.987521 22.472758 -0.114692 2.242629 0.075406 -0.005662 325979.000000 0 1 0
18.560075 -2.465603 -13.181821 22.897947 -0.132071 2.184228 0.076129 -0.002579 240533.000000 0 1 0
18.131775 -2.712803 -11.731521 21.765779 -0.148514 2.140033 0.079727 0.004223 -593179.000000 0 1 0
17.995675 -1.563103 -10.939221 21.117627 -0.086642 2.115324 0.084797 -0.003312 520324.000000 0 1 0
17.891575 -1.998803 -9.609821 20.407164 -0.111256 2.061112 0.096032 -0.009524 -913932.000000 0 1 0
17.899075 -0.806503 -8.554221 19.854522 -0.045028 2.016225 0.090822 -0.007959 66773.000000 0 1 0
19.168775 -0.285003 -8.187821 20.846188 -0.014867 1.974441 0.105516 -0.005381 855637.000000 0 1 0
19.850075 0.487197 -9.214521 21.889957 0.024539 2.005286 0.090940 0.004018 -71131.900000 0 1 0
19.182775 1.831797 -9.663921 21.557498 0.095203 2.035643 0.079602 -0.002703 -408342.000000 0 1 0
19.248375 2.954997 -8.756621 21.352057 0.152330 1.993367 0.070101 0.005399 226646.000000 0 1 0
18.651375 4.061697 -9.393021 21.274398 0.214422 2.028086 0.066677 -0.001199 -488019.000000 0 1 0
18.964075 5.496597 -8.855421 21.639482 0.282112 1.992401 0.091127 0.009342 223269.000000 0 1 0
18.258475 6.527597 -9.633921 21.651648 0.343350 2.031916 0.077246 0.005834 890891.000000 0 1 0
18.721375 7.834097 -9.391521 22.362102 0.396316 2.004214 0.095950 0.013129 -118935.000000 0 1 0
-26.769365 -29.053323 5.782179 39.926533 0.826290 1.425465 0.077200 -0.016580 36644.400000 0 0 1
-26.781565 -28.166723 6.938879 39.481192 0.810601 1.394127 0.082585 -0.015066 328041.000000 0 0 1
-25.926935 -27.056643 6.574679 38.045950 0.806717 1.397116 0.079901 -0.016203 -440466.000000 0 0 1
-26.144035 -25.767513 7.333779 37.433402 0.778145 1.373605 0.067170 -0.013282 1039390.000000 0 0 1
-27.392415 -25.027153 7.113879 37.779757 0.740307 1.381367 0.062088 -0.018313 982125.000000 0 0 1
-28.579335 -25.641873 7.498779 39.121806 0.731276 1.377925 0.062120 -0.016259 -642378.000000 0 0 1
-28.927255 -25.766763 9.067579 39.786092 0.727677 1.340867 0.082765 -0.021832 223204.000000 0 0 1
-27.938215 -26.611033 9.685779 39.780715 0.761073 1.324845 0.073073 -0.020773 422194.000000 0 0 1
-28.178365 -26.751533 11.057779 40.397268 0.759428 1.293532 0.065664 -0.023811 518167.000000 0 0 1
-26.966545 -27.573743 11.672279 40.295756 0.796531 1.276919 0.037140 -0.016030 1885110.000000 0 0 1
-25.843665 -26.762913 12.096279 39.121203 0.802870 1.256445 0.030431 -0.005575 605586.000000 0 0 1
-26.081325 -26.255773 13.366979 39.348154 0.788731 1.224187 0.042593 -0.015540 -432107.000000 0 0 1
-24.843925 -25.617213 14.039479 38.348001 0.800721 1.195974 0.050541 -0.014699 -170553.000000 0 0 1
-24.022125 -26.626773 14.538379 38.696408 0.836778 1.185640 0.045300 -0.008178 -571582.000000 0 0 1
-22.916325 -26.144753 15.261979 37.968856 0.851108 1.157139 0.040390 -0.008091 -247248.000000 0 0 1
-22.178625 -27.268443 15.998679 38.618870 0.887972 1.143655 0.035909 -0.013586 -583093.000000 0 0 1
-22.916725 -27.974313 16.959579 39.942030 0.884454 1.132271 0.038092 -0.007170 253173.000000 0 0 1
-22.184725 -29.119743 17.433979 40.547072 0.919758 1.126338 0.043140 -0.004130 -137759.000000 0 0 1
-23.010925 -30.192993 18.127779 42.068229 0.919578 1.125291 0.063281 -0.022932 -153182.000000 0 0 1
-24.065425 -30.736243 17.346879 42.717391 0.906529 1.152631 0.050160 -0.017691 374826.000000 0 0 1
-24.780025 -31.684583 18.094479 44.106378 0.907075 1.148072 0.046058 -0.025368 161144.000000 0 0 1
-25.752345 -32.585023 17.271379 44.980746 0.901990 1.176701 0.035463 -0.029122 605927.000000 0 0 1
-24.986025 -33.370613 16.381979 44.791389 0.928100 1.196369 0.030772 -0.028336 754222.000000 0 0 1
-25.856755 33.625882 15.945179 45.315786 -0.915275 1.211230 0.040044 -0.032368 -474223.000000 0 0 1
-25.288965 32.730428 14.772479 43.920824 -0.912960 1.227765 0.048621 -0.035588 3774.110000 0 0 1
-24.180025 31.944924 15.133979 42.827434 -0.922876 1.209624 0.037641 -0.037009 -3248.310000 0 0 1
-22.983825 32.695168 15.076379 42.714487 -0.958078 1.210067 0.034503 -0.034026 -1044250.000000 0 0 1
-21.676025 31.903114 15.102079 41.421390 -0.974008 1.197597 0.036065 -0.040654 -430838.000000 0 0 1
-21.560825 31.110144 13.996579 40.356095 -0.964751 1.216610 0.014406 -0.013960 -242356.000000 0 0 1
-20.426025 30.297574 13.954379 39.113810 -0.977610 1.205995 0.032882 -0.022600 -442005.000000 0 0 1
-20.370725 29.431504 12.693979 37.977848 -0.965365 1.229990 0.029988 -0.013342 -105739.000000 0 0 1
-19.947625 30.220564 11.562679 38.011653 -0.987376 1.261711 0.009438 0.003136 250655.000000 0 0 1
-20.593425 29.731444 10.392679 37.630515 -0.965022 1.290982 0.038094 -0.006820 181112.000000 0 0 1
-20.120025 30.392274 9.063079 37.558556 -0.986024 1.327086 0.032118 -0.001506 805836.000000 0 0 1
-18.807225 30.115184 8.542079 36.518531 -1.012550 1.334698 0.041583 -0.013964 648167.000000 0 0 1
-18.521025 30.753864 7.328679 36.640661 -1.028736 1.369423 0.055536 -0.015293 266280.000000 0 0 1
-17.652625 29.828464 6.442679 35.254227 -1.036425 1.387014 0.071707 -0.024057 228773.000000 0 0 1
-18.402025 28.695674 5.941379 34.603124 -1.000574 1.398241 0.064628 -0.009934 453411.000000 0 0 1
-18.325625 27.480354 6.718879 33.706701 -0.982658 1.370118 0.052612 -0.001636 -430271.000000 0 0 1
-19.463825 26.579684 6.265579 33.534722 -0.938731 1.382853 0.050337 0.004142 -232137.000000 0 0 1
-19.212525 26.093744 4.962079 32.781501 -0.936128 1.418844 0.067016 -0.017836 75303.100000 0 0 1
-20.339025 25.464594 4.443979 32.891799 -0.896838 1.435273 0.065534 -0.014752 -875403.000000 0 0 1
-19.874325 24.578374 3.264179 31.776408 -0.890827 1.467891 0.082534 -0.021919 -1002390.000000 0 0 1
-19.482025 25.218524 2.059379 31.933748 -0.913032 1.506262 0.097040 -0.029837 118409.000000 0 0 1
-18.415325 26.142804 2.074179 32.044853 -0.957115 1.506024 0.090834 -0.023883 206945.000000 0 0 1
-17.025525 25.440774 2.442179 30.709375 -0.981027 1.491187 0.093365 -0.030917 87618.700000 0 0 1
-16.532425 24.368574 1.619179 29.491867 -0.974693 1.515866 0.132745 -0.042994 247297.000000 0 0 1
-16.375625 24.791564 0.251579 29.712725 -0.987053 1.562329 0.133976 -0.043757 -503146.000000 0 0 1
-16.097725 23.621644 -0.698821 28.593831 -0.972607 1.595238 0.128312 -0.041303 753759.000000 0 0 1
-17.232025 22.725804 -0.769521 28.530633 -0.922031 1.597771 0.140014 -0.058683 875869.000000 0 0 1
-17.069225 21.678504 -1.763721 27.648267 -0.903798 1.634631 0.135813 -0.054014 116235.000000 0 0 1
-16.049325 20.533304 -1.446121 26.101507 -0.907361 1.626228 0.131939 -0.052649 208952.000000 0 0 1
-16.413125 19.692704 -0.355521 25.638246 -0.875982 1.584664 0.128956 -0.054992 -269406.000000 0 0 1
-15.375925 18.823804 -0.023821 24.305457 -0.885875 1.571776 0.131918 -0.045471 -384636.000000 0 1 0
-15.802225 17.691304 0.928279 23.739297 -0.841740 1.531683 0.103193 -0.036150 333565.000000 0 1 0
-16.571825 16.605504 0.397979 23.463302 -0.786413 1.553834 0.096988 -0.038066 733617.000000 0 1 0
-17.228925 15.854404 1.443579 23.458088 -0.743875 1.509219 0.114436 -0.048866 191092.000000 0 1 0
-17.976325 14.633204 0.880779 23.196006 -0.683235 1.532816 0.126463 -0.043049 -869686.000000 0 1 0
-18.918425 14.913104 -0.087221 24.089730 -0.667556 1.574417 0.135605 -0.044712 -377582.000000 0 1 0
-19.462525 13.666104 -0.484821 23.786284 -0.612184 1.591180 0.114081 -0.035448 344753.000000 0 1 0
-20.802325 13.912504 -1.271421 25.058152 -0.589475 1.621557 0.122248 -0.028557 168898.000000 0 0 1
-21.530425 12.681604 -1.551821 25.035783 -0.532298 1.632820 0.104555 -0.034612 1448050.000000 0 0 1
-22.690625 12.410104 -0.756921 25.873694 -0.500480 1.600055 0.124423 -0.033216 823345.000000 0 0 1
-23.937025 13.353704 -0.799421 27.421554 -0.508864 1.599953 0.129125 -0.031874 -257180.000000 0 0 1
-23.751425 14.572704 -0.141721 27.866000 -0.550324 1.575882 0.124276 -0.037449 615624.000000 0 0 1
-24.954925 15.333704 -0.071521 29.289518 -0.550981 1.573238 0.104993 -0.023256 302361.000000 0 0 1
-24.741225 16.481404 0.936779 29.742939 -0.587646 1.539295 0.098815 -0.029265 99578.900000 0 0 1
-24.640725 15.949904 2.233079 29.437245 -0.574474 1.494864 0.102022 -0.038598 140148.000000 0 0 1
-24.233025 16.917104 3.139079 29.720056 -0.609450 1.464977 0.084968 -0.038951 198410.000000 0 0 1
-25.398085 17.816004 3.660179 31.238912 -0.611712 1.453359 0.098747 -0.037930 1176400.000000 0 0 1
-26.429905 17.107004 4.485279 31.801056 -0.574446 1.429283 0.107726 -0.038060 1872380.000000 0 0 1
-27.657805 17.803304 4.663979 33.221446 -0.571933 1.429940 0.094747 -0.038220 565265.000000 0 0 1
-28.577435 17.910404 3.415279 33.898621 -0.559844 1.469875 0.109941 -0.039328 -651027.000000 0 0 1
-29.651975 18.812304 3.638179 35.304090 -0.565357 1.467560 0.116858 -0.033366 211299.000000 0 0 1
-30.326855 18.967704 2.397279 35.850228 -0.558917 1.503877 0.121073 -0.028340 -394666.000000 0 0 1
-31.566635 19.862304 2.436079 37.375099 -0.561627 1.505571 0.115743 -0.036581 -235446.000000 0 0 1
-32.791095 19.190504 2.720179 38.091084 -0.529492 1.499323 0.161461 -0.029292 410747.000000 0 0 1
-33.900575 20.034604 2.499579 39.457347 -0.533762 1.507405 0.138492 -0.025459 20573.600000 0 0 1
-34.508476 20.599604 3.807179 40.369211 -0.538169 1.476347 0.124720 -0.031003 -833899.000000 0 0 1
-33.628455 21.440804 4.462379 40.130959 -0.567594 1.459370 0.112816 -0.032926 73909.500000 0 0 1
-34.134988 21.891104 5.709979 40.951455 -0.570242 1.430908 0.101225 -0.028326 266672.000000 0 0 1
-33.074105 22.774704 6.465179 40.674096 -0.603031 1.411169 0.099060 -0.029739 63086.700000 0 0 1
-32.796655 23.922714 5.749879 40.999731 -0.630203 1.430091 0.095149 -0.023277 326395.000000 0 0 1
-31.960725 24.882984 6.402079 41.007773 -0.661523 1.414036 0.087420 -0.027601 -62188.900000 0 0 1
-32.234835 26.333434 6.065979 42.063410 -0.684976 1.426081 0.084283 -0.022346 299187.000000 0 0 1
-33.417325 26.793244 6.738079 43.358935 -0.675824 1.414762 0.092061 -0.016827 681692.000000 0 0 1
-33.691705 28.167384 6.474879 44.389825 -0.696330 1.424410 0.084515 -0.017254 127498.000000 0 0 1
-34.651562 28.804654 7.527979 45.684891 -0.693517 1.405261 0.076478 -0.017863 -360979.000000 0 0 1
-34.091758 28.930694 8.837579 45.577799 -0.703688 1.375659 0.095650 -0.023495 311558.000000 0 0 1
-34.914296 29.451724 9.880879 46.733755 -0.700734 1.357759 0.094156 -0.017931 -67012.400000 0 0 1
-36.233255 28.752224 10.245479 47.376249 -0.670784 1.352816 0.080033 -0.014061 34505.500000 0 0 1
-35.888482 27.530914 10.880579 46.522267 -0.654371 1.334731 0.091376 -0.020259 1298680.000000 0 0 1
-37.092385 26.959994 11.432079 47.258636 -0.628509 1.326468 0.087374 -0.019603 817322.000000 0 0 1
-36.705605 25.829804 12.325479 46.544577 -0.613206 1.302789 0.107772 -0.015029 113249.000000 0 0 1
-35.831254 26.229074 13.367779 46.373921 -0.631892 1.278386 0.139369 -0.025547 -30406.400000 0 0 1
-35.557536 25.135764 14.180679 45.795596 -0.615344 1.255970 0.148342 -0.027250 823871.000000 0 0 1
-34.192623 25.402574 14.943379 45.141232 -0.638958 1.233395 0.153515 -0.030842 957367.000000 0 0 1
-34.354693 26.255274 16.069979 46.128392 -0.652553 1.214959 0.157697 -0.037502 -1381980.000000 0 0 1
-33.112235 26.436374 16.580379 45.499571 -0.673757 1.197800 0.174511 -0.030854 -1292570.000000 0 0 1
-32.951985 27.727054 17.404779 46.449426 -0.699502 1.186719 0.159426 -0.037245 -132668.000000 0 0 1
-32.922105 28.878074 16.569479 46.822599 -0.720054 1.209082 0.174227 -0.031489 150746.000000 0 0 1
-33.324095 30.037904 17.319479 48.090907 -0.733581 1.202378 0.144626 -0.027105 -63901.200000 0 0 1
-32.707355 31.306194 16.743479 48.272072 -0.763513 1.216579 0.115046 -0.035182 950228.000000 0 0 1
-31.285795 31.435114 16.941979 47.476289 -0.787779 1.205901 0.109220 -0.031594 731659.000000 0 0 1
-30.853795 32.628367 16.342479 47.787484 -0.813345 1.221771 0.101505 -0.029050 170106.000000 0 0 1
-29.412015 32.555197 15.758679 46.618059 -0.836078 1.225965 0.119719 -0.032411 94307.200000 0 0 1
-29.147305 31.972774 14.477979 45.622752 -0.831593 1.247872 0.109465 -0.029900 -42471.400000 0 0 1
-28.968655 30.576564 14.430979 44.523728 -0.812395 1.240716 0.123567 -0.033912 -341027.000000 0 0 1
-30.170545 29.658134 14.159579 44.613455 -0.776834 1.247827 0.150928 -0.034890 -184371.000000 0 0 1
-30.477075 29.462064 12.834779 44.289918 -0.768466 1.276789 0.153024 -0.036970 -604292.000000 0 0 1
-31.461475 28.519774 12.597579 44.293350 -0.736394 1.282403 0.154140 -0.034604 -387823.000000 0 0 1
-31.567355 28.094814 11.129779 43.699982 -0.727260 1.313273 0.134350 -0.022969 477328.000000 0 0 1
-30.382485 27.427334 10.680279 42.301565 -0.734324 1.315554 0.103751 -0.010343 446144.000000 0 0 1
-30.288375 27.584734 9.289279 42.007070 -0.738715 1.347817 0.098397 -0.016311 103186.000000 0 0 1
-29.328365 26.633144 8.561779 40.531240 -0.737273 1.357954 0.108019 -0.013153 122151.000000 0 0 1
-29.231175 27.093744 7.206279 40.502630 -0.747468 1.391923 0.095269 -0.019245 143521.000000 0 0 1
-28.105615 26.425504 6.627379 39.142751 -0.754598 1.400664 0.078639 -0.009549 407110.000000 0 0 1
-27.853375 26.712934 5.130679 38.932187 -0.764501 1.438627 0.078104 -0.012879 35207.200000 0 0 1
-26.907125 27.725224 4.829479 38.935912 -0.800372 1.446439 0.060035 -0.002218 363342.000000 0 0 1
-26.813805 27.805544 3.413279 38.778588 -0.803553 1.482663 0.054284 -0.007451 -34334.100000 0 0 1
-25.711105 28.781534 2.970579 38.707389 -0.841684 1.493976 0.049021 -0.007250 296930.000000 0 0 1
-24.341625 28.457364 3.113679 37.577004 -0.863192 1.487840 0.041560 -0.004184 689611.000000 0 0 1
-23.493125 29.636284 2.997779 37.937092 -0.900513 1.491694 0.043611 -0.000480 372373.000000 0 0 1
-22.074625 29.281784 3.466779 36.833823 -0.924824 1.476537 0.037927 -0.013106 -251254.000000 0 0 1
-21.095725 30.120024 2.929579 36.889401 -0.959810 1.491297 0.040965 -0.011620 -1155420.000000 0 0 1
-19.814525 29.669334 3.197879 35.820541 -0.981978 1.481402 0.049600 -0.017407 -291826.000000 0 0 1
-18.662125 30.600894 2.726279 35.946101 -1.023162 1.494880 0.054536 -0.021216 216759.000000 0 0 1
-18.457425 31.717074 3.537079 36.866790 -1.043762 1.474706 0.055350 -0.019842 -242097.000000 0 0 1
-17.530825 32.619284 3.020979 37.154728 -1.077649 1.489398 0.060606 -0.013173 -399487.000000 0 0 1
-17.219625 33.835075 3.843379 38.158870 -1.100032 1.469905 0.057537 -0.022960 -204197.000000 0 0 1
-18.104525 -33.124503 3.730179 37.933109 1.070598 1.472301 0.066693 -0.030092 133456.000000 0 0 1
-17.553625 -32.023433 4.413279 36.784603 1.069375 1.450530 0.053016 -0.028661 -151487.000000 0 0 1
-18.588325 -30.938413 4.663679 36.393147 1.029776 1.442296 0.059267 -0.026317 -337175.000000 0 0 1
-18.921325 -30.102463 3.563279 35.733343 1.009638 1.470912 0.074192 -0.032145 -193533.000000 0 0 1
-19.954525 -29.234973 3.881879 35.608085 0.971873 1.461562 0.080663 -0.032584 -720813.000000 0 0 1
-20.335325 -28.209783 2.809179 34.888519 0.946207 1.490190 0.074834 -0.039798 157454.000000 0 0 1
-19.408225 -27.141083 2.721379 33.477208 0.950017 1.489416 0.086703 -0.043988 447234.000000 0 0 1
-19.989925 -26.137133 1.871279 32.958284 0.917884 1.513989 0.090280 -0.039123 352792.000000 0 0 1
-18.979925 -24.985003 1.698179 31.422472 0.921146 1.516727 0.090825 -0.028755 757975.000000 0 0 1
-17.796525 -25.408143 0.993279 31.036698 0.959784 1.538787 0.123429 -0.038258 157513.000000 0 0 1
-16.820325 -24.406603 1.175379 29.664577 0.967375 1.531164 0.113511 -0.037723 -21277.600000 0 0 1
-15.456325 -24.683003 0.497579 29.127242 1.011340 1.553713 0.107603 -0.032605 -249535.000000 0 0 1
-15.346525 -24.725403 -0.930421 29.115753 1.015311 1.602758 0.097419 -0.026001 138217.000000 0 0 1
-15.653325 -23.507603 -1.562821 28.285622 0.983336 1.626076 0.118513 -0.030446 -285720.000000 0 0 1
-15.722125 -23.710103 -3.086021 28.616040 0.985268 1.678849 0.072492 -0.016500 -452053.000000 0 0 1
-14.532025 -24.103803 -3.701121 28.387874 1.028252 1.701545 0.100360 -0.018995 -359830.000000 0 0 1
-14.634725 -24.159303 -5.102721 28.703395 1.026153 1.749520 0.073946 -0.009548 918802.000000 0 0 1
-13.254525 -24.540103 -5.778121 28.483079 1.075573 1.775076 0.102229 -0.019365 982102.000000 0 0 1
-12.963825 -25.929043 -5.608221 29.526737 1.107170 1.761894 0.076184 -0.018098 355270.000000 0 0 1
-11.958525 -26.300123 -6.570621 29.628970 1.144045 1.794419 0.069405 -0.012456 432539.000000 0 0 1
23.946775 12.677397 27.892262 38.886279 0.486889 0.770909 0.050697 -0.001741 -462933.000000 0 0 1
24.562975 11.439997 28.014032 38.974341 0.435867 0.768748 0.056803 -0.012201 -9740.940000 0 0 1
24.079975 10.553497 29.017942 39.156896 0.413055 0.736136 0.064093 -0.016391 -203804.000000 0 0 1
24.289975 10.902997 30.539362 40.515810 0.421912 0.717025 0.080721 -0.020690 246024.000000 0 0 1
23.410075 11.945197 30.912622 40.574741 0.471821 0.704603 0.073904 -0.013116 314815.000000 0 0 1
23.734075 12.256297 32.249743 41.875638 0.476682 0.691749 0.063199 -0.016772 86003.700000 0 0 1
22.696875 13.272897 32.777314 42.019879 0.529160 0.676062 0.057996 -0.007834 308962.000000 0 0 1
21.381475 12.812297 33.007668 41.362164 0.539849 0.646801 0.078278 -0.006066 274357.000000 0 0 1
20.586375 13.799597 33.654775 41.795593 0.590532 0.634745 0.065063 -0.000957 -121106.000000 0 0 1
19.328675 13.309797 -33.538441 40.933793 0.603036 2.531044 0.066369 0.001298 -276819.000000 0 0 1
18.262475 12.853197 33.556148 40.308036 0.613274 0.587204 0.064283 -0.000034 632800.000000 0 0 1
17.160775 12.303497 -33.590721 39.676250 0.622015 2.580399 0.055666 -0.003280 1076140.000000 0 0 1
15.785075 12.146797 33.584990 39.046957 0.655872 0.535295 0.047523 0.002295 547135.000000 0 0 1
15.667575 11.145897 32.570424 37.822433 0.618335 0.533288 0.045781 0.008430 -537226.000000 0 0 1
14.305175 10.921497 32.328394 37.000570 0.652063 0.507984 0.038171 0.012520 -402374.000000 0 0 1
14.037275 9.696697 31.443182 35.773520 0.604513 0.497138 0.038863 0.007983 -560941.000000 0 0 1
14.513775 8.520597 32.040129 36.191437 0.530858 0.483666 0.019503 0.005092 113798.000000 0 0 1
15.286175 7.820497 31.065122 35.494635 0.472889 0.504935 0.028600 -0.009081 127019.000000 0 0 1
15.718675 6.435997 31.486272 35.775469 0.388626 0.494707 0.047285 -0.013027 848698.000000 0 0 1
14.629775 5.448497 31.627742 35.270817 0.356511 0.458514 0.044006 -0.010603 889174.000000 0 0 1
15.018975 4.220397 32.175163 35.757831 0.273940 0.451468 0.054957 -0.020026 -170652.000000 0 0 1
13.948575 3.114697 32.052912 35.094918 0.219694 0.419431 0.041532 -0.010870 -341198.000000 0 0 1
14.400475 1.886797 32.623916 35.710693 0.130281 0.418839 0.046490 -0.021885 -307996.000000 0 0 1
13.360775 1.031397 33.007586 35.624077 0.077043 0.385654 0.050082 -0.018713 -552015.000000 0 0 1
13.851675 -0.390003 33.422839 36.181586 -0.028148 0.393030 0.033934 -0.025940 79812.400000 0 0 1
14.321575 -1.299503 32.394725 35.443116 -0.090490 0.417780 0.021924 -0.024311 144881.000000 0 0 1
14.732575 -2.520103 32.957758 36.188583 -0.169417 0.425766 0.074293 -0.039496 -430035.000000 0 0 1
15.039675 -3.644303 31.886542 35.443255 -0.237730 0.451828 0.079046 -0.037680 -653016.000000 0 0 1
15.358975 -4.941803 32.326954 36.129649 -0.311293 0.462928 0.091888 -0.039629 744007.000000 0 0 1
16.516375 -5.015603 33.181987 37.403091 -0.294825 0.479674 0.074930 -0.033038 817085.000000 0 0 1
17.938675 -4.657003 32.652533 37.545595 -0.254000 0.516249 0.094095 -0.035990 -215332.000000 0 0 1
18.190375 -3.260903 32.698052 37.559098 -0.177381 0.514424 0.107733 -0.040730 77254.900000 0 0 1
19.221175 -2.915903 31.802262 37.273851 -0.150555 0.548695 0.127060 -0.048396 -249619.000000 0 0 1
19.264175 -1.390403 31.512492 36.960504 -0.072051 0.549857 0.136210 -0.048096 -89084.000000 0 0 1
19.772175 -0.667003 32.629801 38.158718 -0.033722 0.545038 0.129692 -0.056956 151526.000000 0 0 1
19.721175 0.762097 32.448726 37.979276 0.038624 0.546440 0.120962 -0.046391 -146969.000000 0 0 1
21.011475 1.431297 31.949503 38.266192 0.068015 0.582795 0.126840 -0.036134 -336210.000000 0 0 1
21.082875 1.307697 30.524022 37.120259 0.061947 0.605354 0.139019 -0.040367 10251.300000 0 0 1
21.956375 2.241497 29.939762 37.195377 0.101736 0.635235 0.109982 -0.035164 -31631.800000 0 0 1
21.217275 3.589697 29.745482 36.713109 0.167600 0.626279 0.091865 -0.019073 217538.000000 0 0 1
20.994775 4.290397 30.953292 37.646971 0.201580 0.605533 0.096075 -0.029308 311964.000000 0 0 1
20.087075 5.376997 30.843432 37.198387 0.261552 0.593192 0.093707 -0.028375 -15161.300000 0 0 1
19.683375 5.934797 32.224786 38.224258 0.292844 0.567876 0.091630 -0.024364 -665516.000000 0 0 1
18.704075 5.155697 32.804606 38.112541 0.268966 0.534094 0.080295 -0.017232 -398072.000000 0 0 1
18.507375 5.595097 -33.763811 38.907878 0.293581 2.621531 0.073781 -0.013284 -485169.000000 0 0 1
17.400975 4.834597 -33.050381 37.662912 0.271000 2.641486 0.074847 -0.014782 -457828.000000 0 0 1
17.762275 3.504297 -32.724681 37.398974 0.194787 2.636264 0.079744 -0.018131 -347109.000000 0 0 1
16.650175 2.766997 -32.323261 36.464747 0.164679 2.660360 0.057409 -0.015137 -277008.000000 0 0 1
16.666675 1.299697 -32.842211 36.852111 0.077824 2.670757 0.072440 -0.037567 -155951.000000 0 0 1
17.690275 0.483997 -32.298981 36.829394 0.027353 2.640356 0.085243 -0.034696 190764.000000 0 0 1
17.553175 -0.866303 -32.670221 37.097274 -0.049313 2.648058 0.097150 -0.036556 -609553.000000 0 0 1
18.609975 -1.724003 -31.964321 37.027303 -0.092375 2.612496 0.092683 -0.035424 -323689.000000 0 0 1
18.586875 -1.796403 -30.559601 35.813241 -0.096350 2.593087 0.087000 -0.036340 338628.000000 0 0 1
19.089775 -0.653103 -29.905551 35.485040 -0.034199 2.573196 0.088637 -0.026351 -494285.000000 0 0 1
18.686575 -0.667403 -28.430391 34.028233 -0.035700 2.559828 0.073052 -0.015224 39925.800000 0 0 1
17.295475 -0.603803 -28.158361 33.051344 -0.034897 2.590510 0.080596 -0.025552 279224.000000 0 0 1
16.934975 -0.621503 -26.761291 31.675643 -0.036683 2.577088 0.082320 -0.024685 -19363.500000 0 0 1
17.562975 -1.654603 -25.774311 31.233170 -0.093932 2.541392 0.084758 -0.015501 -854126.000000 0 0 1
18.846275 -1.262803 -25.360001 31.621297 -0.066905 2.501418 0.077160 -0.014393 -224829.000000 0 0 1
19.604175 -2.392003 -24.925821 31.801602 -0.121415 2.471544 0.062228 -0.013490 176126.000000 0 0 1
20.456875 -3.141203 -25.965271 33.204611 -0.152362 2.468629 0.066716 -0.023285 -537757.000000 0 0 1
21.662975 -2.496003 -26.276601 34.146365 -0.114714 2.448899 0.062884 -0.011937 -367463.000000 0 0 1
22.126275 -2.974703 -27.519141 35.436197 -0.133641 2.460020 0.065033 -0.021466 -417654.000000 0 0 1
23.415175 -2.411703 -28.119581 36.671482 -0.102636 2.444632 0.055050 -0.025995 111856.000000 0 0 1
24.537075 -3.189403 -27.731551 37.165566 -0.129258 2.413076 0.052705 -0.028022 239538.000000 0 0 1
25.745275 -2.759303 -28.347681 38.393020 -0.106769 2.401424 0.040353 -0.024651 204896.000000 0 0 1
26.991175 -3.613003 -28.107521 39.135790 -0.133068 2.372016 0.044498 -0.019270 -305532.000000 0 0 1
27.062375 -4.753403 -28.876801 39.860213 -0.173873 2.381035 0.064424 -0.031641 577856.000000 0 0 1
28.189675 -5.568503 -28.523181 40.487502 -0.195026 2.352506 0.062119 -0.032526 288480.000000 0 0 1
28.083675 -6.556903 -27.277211 39.695491 -0.229369 2.328371 0.057816 -0.024436 -316286.000000 0 0 1
28.062375 -5.919203 -26.028611 38.730123 -0.207883 2.307771 0.050682 -0.013369 276564.000000 0 0 1
27.828875 -6.886903 -25.076651 38.088241 -0.242599 2.289465 0.025111 -0.012180 -331536.000000 0 0 1
27.970675 -6.428203 -23.565121 37.134827 -0.225897 2.258265 0.019773 -0.009251 978383.000000 0 0 1
29.340675 -6.379303 -23.108021 37.888670 -0.214090 2.226721 0.019061 -0.004425 1295520.000000 0 0 1
29.308375 -6.126803 -21.744621 37.004690 -0.206078 2.198908 0.024070 -0.008536 1128940.000000 0 0 1
30.711475 -5.587603 -21.208921 37.739029 -0.179970 2.167585 0.041470 -0.004240 1033130.000000 0 0 1
31.060175 -4.355903 -21.850121 38.224811 -0.139332 2.179277 0.062270 -0.006529 742002.000000 0 0 1
32.339475 -3.918003 -21.371321 38.960567 -0.120565 2.151410 0.077968 -0.004214 685270.000000 0 0 1
32.878075 -2.582403 -21.964121 39.623973 -0.078384 2.158335 0.098692 -0.022496 64501.800000 0 0 1
32.044875 -1.457803 -21.772321 38.768972 -0.045461 2.167104 0.068566 -0.019670 145392.000000 0 0 1
32.602775 -0.333203 -22.349621 39.529198 -0.010220 2.171709 0.098162 -0.028302 677439.000000 0 0 1
31.474675 0.759597 -22.301721 38.582365 0.024129 2.187107 0.076350 -0.022296 404423.000000 0 0 1
30.287375 0.511197 -22.998521 38.033122 0.016877 2.220182 0.059302 -0.021960 15403.600000 0 0 1
29.357275 1.552897 -22.725621 37.157973 0.052847 2.228871 0.053297 -0.014374 -441204.000000 0 0 1
28.073975 1.396997 -23.527921 36.656005 0.049720 2.267714 0.036685 -0.010353 -888633.000000 0 0 1
27.131675 2.367797 -23.200021 35.776741 0.087050 2.276365 0.038392 -0.006746 -209823.000000 0 0 1
26.217675 2.632397 -24.251821 35.811267 0.100070 2.314763 0.051320 -0.012877 -37782.200000 0 0 1
25.222975 3.726797 -23.810321 34.885798 0.146693 2.322004 0.058301 -0.010354 -149299.000000 0 0 1
25.899075 4.890197 -23.403021 35.247376 0.186620 2.296905 0.059237 -0.009638 584933.000000 0 0 1
24.907575 5.896497 -23.161321 34.519600 0.232456 2.306301 0.070369 -0.012807 160140.000000 0 0 1
25.405675 7.172797 -22.575421 34.735385 0.275168 2.278283 0.083634 -0.007135 -98416.800000 0 0 1
26.191375 7.957997 -23.477421 36.062545 0.294976 2.279723 0.091742 -0.005619 276099.000000 0 0 1
26.574675 9.206097 -22.947321 36.298004 0.333485 2.255176 0.104746 -0.007283 97186.100000 0 0 1
27.599875 9.964797 -23.859521 37.819664 0.346480 2.253478 0.133413 -0.003033 61678.500000 0 0 1
27.211375 10.404197 -25.168471 38.498807 0.365197 2.283322 0.141121 -0.018558 -311452.000000 0 0 1
26.081775 11.220597 -25.252441 37.997981 0.406274 2.297719 0.141325 -0.018862 -212075.000000 0 0 1
25.768675 11.576297 -26.751861 38.906263 0.422221 2.328972 0.132594 -0.012527 -3806.460000 0 0 1
25.319675 10.520897 -27.588621 38.896108 0.393816 2.359287 0.111882 -0.015764 881612.000000 0 0 1
26.406275 9.717597 -28.078971 39.751122 0.352623 2.355152 0.116043 -0.027639 761644.000000 0 0 1
27.253075 10.195797 -29.299581 41.293460 0.357995 2.359649 0.106185 -0.027961 -563132.000000 0 0 1
28.281375 11.154897 -29.065311 42.060197 0.375692 2.333724 0.100470 -0.025302 1246210.000000 0 0 1
29.187875 11.428297 -30.167501 43.504208 0.373194 2.337047 0.105972 -0.028645 770493.000000 0 0 1
29.989775 10.241697 -30.731571 44.144178 0.329088 2.340836 0.081397 -0.025633 -1288110.000000 0 0 1
29.196075 9.356197 -31.467061 43.933190 0.310121 2.369207 0.078098 -0.023564 -283624.000000 0 0 1
29.766175 8.099697 -31.731661 44.255266 0.265678 2.370306 0.076323 -0.014665 -765460.000000 0 0 1
28.806275 7.135097 -32.417551 43.950071 0.242806 2.400305 0.074485 -0.029249 -446839.000000 0 0 1
27.725075 6.825897 -31.595411 42.585709 0.241398 2.406734 0.093749 -0.034159 -1035610.000000 0 0 1
26.653375 6.342897 -32.325651 42.374314 0.233632 2.438521 0.065944 -0.037128 -351595.000000 0 0 1
25.341975 6.357697 -31.488171 40.916267 0.245803 2.448973 0.090585 -0.029317 -763139.000000 0 0 1
24.911875 7.690997 -31.283231 40.723378 0.299445 2.446803 0.108259 -0.030435 691873.000000 0 0 1
23.818275 7.832497 -30.336451 39.356810 0.317705 2.450901 0.107642 -0.029096 266758.000000 0 0 1
22.467175 7.429797 -30.902981 38.922616 0.319375 2.488091 0.106529 -0.026153 -1328380.000000 0 0 1
22.020775 8.367597 -31.854161 39.618415 0.363135 2.504829 0.097393 -0.025907 1635110.000000 0 0 1
20.603175 8.241997 -32.204961 39.109856 0.380537 2.538259 0.085383 -0.020776 1598600.000000 0 0 1
20.222775 9.268197 -33.312651 40.057369 0.429739 2.552821 0.087200 -0.013121 -269417.000000 0 0 1
20.600875 8.884997 33.301152 40.153530 0.407188 0.592861 0.081379 -0.020792 -35794.600000 0 0 1
20.613975 9.979697 32.414526 39.689190 0.450865 0.615111 0.072844 -0.013285 -315868.000000 0 0 1
19.357475 10.163497 31.557822 38.391466 0.483480 0.605881 0.061258 -0.012753 -107965.000000 0 0 1
19.116475 9.166397 30.558492 37.192525 0.447116 0.606532 0.057620 -0.014376 280613.000000 0 0 1
20.170075 9.031197 29.586292 36.928893 0.420983 0.641550 0.081276 -0.018860 -196665.000000 0 0 1
19.971675 9.823297 28.228782 35.947589 0.457116 0.667654 0.070384 -0.019187 356652.000000 0 0 1
18.864575 9.338697 27.483792 34.618525 0.459671 0.653593 0.059752 -0.010413 526026.000000 0 0 1
17.588075 9.792797 27.893392 34.398846 0.508038 0.625139 0.063164 -0.021100 394609.000000 0 0 1
16.341575 9.217597 27.132922 32.987977 0.513572 0.604987 0.072465 -0.021858 222410.000000 0 0 1
16.312675 9.610997 25.794712 31.997528 0.532421 0.633185 0.074937 -0.022691 186479.000000 0 0 1
15.185475 9.262997 25.010472 30.690805 0.547733 0.618210 0.086921 -0.024015 128907.000000 0 0 1
15.002175 7.800497 24.582492 29.836420 0.479486 0.602522 0.086648 -0.027528 -63129.000000 0 0 1
14.862575 6.932297 25.665242 30.457471 0.436430 0.568595 0.068678 -0.021997 49682.200000 0 0 1
14.600775 5.624097 25.287962 29.737084 0.367676 0.554080 0.068444 -0.029040 -185507.000000 0 0 1
14.694975 4.798497 26.532562 30.707405 0.315624 0.527547 0.068492 -0.017247 -414378.000000 0 0 1
15.971275 4.346897 26.881822 31.569123 0.265733 0.551914 0.057042 -0.017046 -165028.000000 0 0 1
16.092075 4.254897 28.242012 32.782164 0.258494 0.532569 0.047395 -0.015020 177057.000000 0 0 1
17.192875 3.252497 28.702362 33.615462 0.186968 0.547470 0.076535 -0.023543 156308.000000 0 0 1
16.861675 1.857997 28.556412 33.215011 0.109748 0.536028 0.065935 -0.019896 1114980.000000 0 0 1
15.851375 1.384897 29.523912 33.538715 0.087146 0.494316 0.056087 -0.019378 846511.000000 0 0 1
15.663575 -0.190103 29.585332 33.476493 -0.012136 0.486950 0.060092 -0.023757 -238062.000000 0 0 1
14.934975 -0.745103 28.500112 32.184858 -0.049848 0.483199 0.058049 -0.016051 147594.000000 0 0 1
15.623075 -0.884603 27.285072 31.453747 -0.056561 0.520709 0.063159 -0.010279 -1285130.000000 0 0 1
16.768675 -1.886703 27.172312 31.985663 -0.112042 0.555730 0.068834 -0.013858 -78118.900000 0 0 1
17.988875 -1.559503 27.801342 33.150359 -0.086476 0.576008 0.084844 -0.024512 350003.000000 0 0 1
18.768475 -0.443703 27.364272 33.185176 -0.023636 0.601313 0.085905 -0.025889 -1610140.000000 0 0 1
20.153675 -0.365803 27.941732 34.453517 -0.018149 0.624940 0.115360 -0.019417 -633457.000000 0 0 1
21.038475 -1.239203 27.200272 34.409415 -0.058834 0.659189 0.087507 -0.015990 254212.000000 0 0 1
22.382475 -0.894503 27.512252 35.478153 -0.039943 0.683337 0.086049 -0.018993 331203.000000 0 0 1
23.368975 -1.548703 26.511942 35.374999 -0.066175 0.723559 0.078761 -0.011863 -148088.000000 0 0 1
23.352275 -0.864003 25.249372 34.403576 -0.036982 0.746725 0.087706 0.006040 239774.000000 0 0 1
22.770575 -1.615303 24.210022 33.275118 -0.070820 0.756021 0.084455 0.013448 -200148.000000 0 0 1
22.884075 -0.948503 22.884612 32.377246 -0.041424 0.785816 0.081087 -0.019066 -825302.000000 0 0 1
21.918575 0.008597 22.734362 31.579665 0.000392 0.767131 0.062969 -0.006748 -575915.000000 0 0 1
21.912775 0.499897 21.388962 30.625273 0.022809 0.797624 0.058487 -0.004002 67380.900000 0 0 1
-31.054305 -27.439410 -9.989921 42.627334 0.723677 1.807351 0.037457 0.013693 17798.900000 0 0 1
-31.224085 -26.157010 -9.382621 41.799117 0.697321 1.797195 0.041516 0.010146 -67994.900000 0 0 1
-31.771325 -26.322010 -8.050121 42.036528 0.691869 1.763490 0.054103 0.004822 -285916.000000 0 0 1
-31.946865 -24.968310 -7.257821 41.190953 0.663394 1.747920 0.082016 -0.004421 897365.000000 0 0 1
-30.759215 -24.295310 -6.774621 39.777970 0.668524 1.741941 0.082997 -0.009342 191093.000000 0 0 1
-30.065795 -25.000810 -5.771821 39.526022 0.693677 1.717346 0.086948 -0.010767 -141275.000000 0 0 1
-28.838915 -24.150410 -5.320721 37.989938 0.697148 1.711314 0.090748 -0.012561 -168091.000000 0 0 1
-28.971385 -23.073710 -4.380221 37.295088 0.672561 1.688516 0.094728 -0.011670 -180342.000000 0 0 1
-29.707835 -21.949810 -4.771221 37.243981 0.636331 1.699257 0.093262 -0.015922 -249224.000000 0 0 1
-29.625255 -20.742310 -3.736021 36.357351 0.610831 1.673736 0.097605 -0.018052 -771463.000000 0 0 1
-28.443615 -20.028710 -3.803121 34.995031 0.613509 1.679687 0.112620 -0.032908 -585556.000000 0 0 1
-28.463955 -18.899710 -2.977221 34.296641 0.586145 1.657714 0.120981 -0.024575 -80199.200000 0 0 1
-27.410685 -17.821810 -3.332721 32.864412 0.576500 1.672379 0.120373 -0.025232 78999.400000 0 0 1
-27.612115 -17.111710 -4.552221 32.801863 0.554792 1.710025 0.133464 -0.038048 248121.000000 0 0 1
-26.755495 -15.963110 -4.576921 31.490087 0.537937 1.716658 0.131310 -0.041343 128382.000000 0 0 1
-27.099285 -14.903710 -5.659821 31.440823 0.502818 1.751798 0.130452 -0.052083 -619095.000000 0 0 1
-28.226135 -14.228410 -5.224321 32.038350 0.466911 1.734592 0.126462 -0.032826 -615972.000000 0 0 1
-28.528845 -13.112710 -6.047321 31.975119 0.430833 1.761068 0.164097 -0.052389 -382812.000000 0 0 1
-29.946825 -12.583910 -5.825721 33.001608 0.397805 1.748255 0.148336 -0.033502 -345297.000000 0 0 1
-30.906065 -13.279710 -6.591121 34.277958 0.405828 1.764286 0.146245 -0.025884 359941.000000 0 0 1
-32.220735 -12.773710 -6.371621 35.241183 0.377437 1.752597 0.127435 -0.025316 1000740.000000 0 0 1
-33.336035 -13.628910 -7.112321 36.709992 0.388099 1.765773 0.095963 -0.019937 493003.000000 0 0 1
-33.795315 -14.837110 -6.467621 37.471232 0.413693 1.744267 0.087724 -0.028181 502564.000000 0 0 1
-34.184205 -15.808710 -7.486821 38.399579 0.433164 1.767025 0.086700 -0.016525 -574052.000000 0 0 1
-35.199824 -16.887110 -7.116621 39.684359 0.447317 1.751102 0.071645 -0.023179 -367462.000000 0 0 1
-36.564485 -16.645110 -6.979321 40.776613 0.427191 1.742803 0.056694 -0.025518 -215604.000000 0 0 1
-37.021205 -15.739210 -5.979521 40.669977 0.401990 1.718357 0.075223 -0.033592 -350215.000000 0 0 1
35.854916 -15.827610 -5.656821 39.599089 -0.415708 1.714139 0.090221 -0.039219 -132193.000000 0 0 1
35.108306 -15.050310 -6.573521 38.759723 -0.404985 1.741217 0.101582 -0.038572 418220.000000 0 0 1
33.696306 -15.211610 -6.557321 37.547737 -0.424045 1.746336 0.102908 -0.045967 754952.000000 0 0 1
32.880446 -14.453710 -5.462521 36.330051 -0.414158 1.721727 0.129245 -0.045877 -336867.000000 0 0 1
33.138226 -15.059410 -4.210121 36.642229 -0.426542 1.685949 0.130502 -0.043464 222216.000000 0 0 1
32.460846 -14.378410 -3.206821 35.647284 -0.416973 1.660878 0.150769 -0.043415 -1021490.000000 0 0 1
32.563826 -15.049610 -1.834521 35.920175 -0.432918 1.621891 0.173204 -0.035724 1074010.000000 0 0 1
33.865486 -15.168010 -1.179221 37.125870 -0.421098 1.602564 0.193477 -0.029392 1759760.000000 0 0 1
34.882146 -15.957610 -1.834221 38.402784 -0.429050 1.618577 0.154392 -0.021301 -99643.800000 0 0 1
34.639666 -17.430010 -2.277321 38.844535 -0.466189 1.629457 0.142950 -0.026224 -897033.000000 0 0 1
34.637266 -18.330210 -1.158521 39.205599 -0.486738 1.600351 0.156644 -0.031797 200359.000000 0 0 1
34.483816 -19.670810 -1.644821 39.733862 -0.518398 1.612204 0.126118 -0.030776 -56243.600000 0 0 1
35.614716 -20.299110 -2.491021 41.069052 -0.518041 1.631488 0.104949 -0.030225 -84023.000000 0 0 1
35.570976 -19.865410 -3.844521 40.923211 -0.509325 1.664880 0.083427 -0.029425 -530182.000000 0 0 1
36.572916 -20.399710 -4.626021 42.132249 -0.508798 1.680816 0.088724 -0.031515 -589583.000000 0 0 1
36.629156 -19.815210 -6.049921 42.082528 -0.495883 1.715059 0.101330 -0.036115 -150668.000000 0 0 1
35.463876 -20.107910 -6.780721 41.327868 -0.515799 1.735613 0.084997 -0.039330 88510.200000 0 0 1
35.199726 -19.143310 -7.780721 40.816990 -0.498108 1.762595 0.085991 -0.048999 -224120.000000 0 0 1
34.117556 -19.482210 -8.798121 40.261285 -0.518847 1.791100 0.078141 -0.057130 -199411.000000 0 0 1
34.622426 -20.502910 -9.661121 41.381384 -0.534654 1.806436 0.077254 -0.054322 8103.280000 0 0 1
33.730866 -20.787010 -10.682821 41.036493 -0.552290 1.834155 0.071850 -0.060461 -674380.000000 0 0 1
33.601466 -22.295810 -10.964321 41.789687 -0.585833 1.836273 0.071063 -0.055429 31753.500000 0 0 1
32.904836 -22.932310 -9.887921 41.308474 -0.608661 1.812511 0.066911 -0.052434 218383.000000 0 0 1
32.723536 -24.314210 -10.249421 42.036427 -0.639018 1.817102 0.055327 -0.036310 275912.000000 0 0 1
31.749336 -25.139210 -9.298521 41.550724 -0.669723 1.796495 0.052696 -0.043609 438389.000000 0 0 1
30.422616 -24.679110 -9.304121 40.263640 -0.681539 1.803984 0.047627 -0.045413 -335370.000000 0 0 1
29.529346 -25.642510 -8.738021 40.073353 -0.715065 1.790613 0.029705 -0.037548 470349.000000 0 0 1
28.131176 -24.985910 -8.547021 38.583809 -0.726253 1.794168 0.039682 -0.049176 -64354.600000 0 0 1
27.661576 -24.661010 -9.821221 38.337769 -0.728113 1.829861 0.047551 -0.046497 -829924.000000 0 0 1
26.436576 -24.004610 -9.693021 37.000926 -0.737222 1.835856 0.071152 -0.054546 -444476.000000 0 0 1
25.796476 -23.651010 -11.080221 36.709668 -0.742037 1.877412 0.124707 -0.059809 -142702.000000 0 0 1
25.324976 -24.831210 -11.759821 37.366252 -0.775554 1.890956 0.107737 -0.052303 267295.000000 0 0 1
24.646076 -24.555910 -12.954821 37.124778 -0.783566 1.927250 0.111622 -0.029808 -278213.000000 0 0 1
23.781576 -25.705610 -13.472721 37.521406 -0.824258 1.938065 0.109301 -0.035756 -106430.000000 0 0 1
24.592776 -26.722510 -14.012021 38.926005 -0.826877 1.939027 0.096342 -0.029876 241548.000000 0 0 1
23.994676 -27.975110 -13.843921 39.370108 -0.861840 1.930114 0.113887 -0.029948 -52955.600000 0 0 1
24.722476 -29.198810 -14.551121 40.932950 -0.868224 1.934231 0.104482 -0.030941 125153.000000 0 0 1
24.548776 -29.209710 -15.950221 41.355279 -0.871883 1.966749 0.099056 -0.025950 330801.000000 0 0 1
24.960076 -30.432710 -16.468321 42.665687 -0.883875 1.967072 0.101209 -0.028265 -762127.000000 0 0 1
24.758876 -30.567710 -17.969921 43.247022 -0.890007 1.999309 0.097062 -0.017401 549561.000000 0 0 1
23.368976 -30.611310 -18.315421 42.645234 -0.918768 2.014717 0.099582 -0.018546 649294.000000 0 0 1
23.280976 -30.565210 -19.744921 43.198354 -0.919860 2.045501 0.085907 -0.020414 -711868.000000 0 0 1
21.885776 -30.192610 -20.184521 42.402780 -0.943572 2.066918 0.064657 -0.015479 -732603.000000 0 0 1
21.793876 -30.122810 -21.562421 42.980166 -0.944472 2.096340 0.059437 -0.015336 -752151.000000 0 0 1
20.446276 -30.062610 -21.924721 42.455908 -0.973535 2.113452 0.068091 -0.020128 -655203.000000 0 0 1
20.247176 -30.073610 -23.494421 43.201365 -0.978247 2.145797 0.063331 -0.012975 -334537.000000 0 0 1
20.720276 -28.930210 -24.136621 42.998411 -0.949270 2.166797 0.065561 -0.014807 202333.000000 0 0 1
20.617876 -29.135410 -25.568591 43.905828 -0.954950 2.192414 0.072685 -0.016830 -224051.000000 0 0 1
21.145476 -27.977410 -26.475111 43.940848 -0.923590 2.217448 0.070547 -0.022282 104030.000000 0 0 1
20.295376 -26.868010 -26.721211 42.986223 -0.923865 2.241609 0.088350 -0.026265 323026.000000 0 0 1
19.319976 -27.082410 -27.763311 43.330357 -0.951149 2.266253 0.107239 -0.032669 231022.000000 0 0 1
18.451276 -25.869010 -28.112591 42.426089 -0.951228 2.295115 0.091957 -0.031806 -246010.000000 0 0 1
17.663176 -25.496710 -27.001801 41.123804 -0.964944 2.287095 0.069525 -0.011322 -212668.000000 0 0 1
17.132576 -24.210310 -27.231401 40.264295 -0.954950 2.313547 0.052525 -0.006784 -33167.900000 0 0 1
16.060076 -23.816310 -26.188731 38.871484 -0.977506 2.310036 0.059132 -0.015758 571923.000000 0 0 1
14.790676 -24.456710 -26.432781 38.930536 -1.026877 2.317159 0.093363 -0.027078 780354.000000 0 0 1
13.674276 -24.024110 -25.661341 37.718007 -1.053340 2.319033 0.084934 -0.025223 632116.000000 0 0 1
13.691676 -24.357410 -24.163621 36.940844 -1.058699 2.283811 0.075717 -0.012745 -1128880.000000 0 0 1
14.629676 -23.724210 -23.383021 36.381743 -1.018220 2.268831 0.044303 -0.016679 -757954.000000 0 0 1
14.616376 -24.047310 -22.033021 35.740251 -1.024648 2.235056 0.052667 -0.024735 -200245.000000 0 0 1
15.784776 -23.395710 -21.295321 35.355467 -0.977262 2.217201 0.031958 -0.028469 -86833.800000 0 0 1
15.743976 -21.978110 -21.179921 34.343837 -0.949183 2.235343 0.034424 -0.033394 -945158.000000 0 0 1
16.916276 -21.573610 -20.597221 34.290327 -0.905814 2.215137 0.027582 -0.030800 -1438240.000000 0 0 1
16.985976 -20.146110 -19.986621 33.073466 -0.870299 2.219696 0.043086 -0.024637 39259.600000 0 0 1
16.202376 -19.927910 -18.835021 31.849593 -0.888149 2.203558 0.044096 -0.028714 98042.400000 0 0 1
14.808876 -19.835010 -19.071721 31.248375 -0.929473 2.227269 0.058447 -0.034592 -411431.000000 0 0 1
14.055676 -19.889310 -17.742221 30.131928 -0.955591 2.200392 0.073023 -0.032651 -430085.000000 0 0 1
14.142276 -18.694010 -16.968921 28.938111 -0.923139 2.197387 0.084938 -0.037132 131027.000000 0 0 1
13.502376 -18.841910 -15.729521 28.013382 -0.949007 2.166994 0.084950 -0.033934 -117726.000000 0 0 1
13.557876 -17.544610 -14.908221 26.718615 -0.912884 2.162736 0.091726 -0.033627 -203164.000000 0 0 1
12.690976 -16.613510 -15.508321 26.030321 -0.918462 2.209032 0.110401 -0.045425 37276.200000 0 0 1
12.760976 -15.374610 -14.752521 24.836626 -0.878027 2.206797 0.098805 -0.040662 -359430.000000 0 1 0
11.345876 -14.887910 -14.429521 23.634505 -0.919605 2.227523 0.094576 -0.030702 -593386.000000 0 1 0
10.677576 -14.388010 -15.541021 23.718111 -0.932360 2.285295 0.111501 -0.020768 22852.100000 0 1 0
9.490776 -13.751010 -15.067421 22.498717 -0.966686 2.304603 0.101600 -0.024047 486411.000000 0 1 0
8.589876 -13.064210 -16.145521 22.475262 -0.989158 2.372251 0.084815 -0.020544 75187.100000 0 1 0
9.083476 -11.909410 -16.733521 22.457834 -0.919208 2.411494 0.080602 -0.010975 -459719.000000 0 1 0
10.234776 -12.076010 -17.506421 23.602022 -0.867738 2.406448 0.099240 -0.014357 -254392.000000 0 1 0
10.446076 -10.781310 -18.315521 23.681542 -0.801189 2.454998 0.091995 -0.013503 -204962.000000 0 1 0
9.719776 -10.817110 -19.505121 24.329687 -0.838780 2.500931 0.094216 -0.012455 -112859.000000 0 1 0
10.009176 -9.642510 -20.313721 24.613185 -0.766742 2.541563 0.095545 -0.020717 220686.000000 0 1 0
9.569976 -9.648910 -21.845321 25.727494 -0.789505 2.585083 0.087009 -0.022348 391052.000000 0 0 1
10.418776 -10.516610 -22.589921 27.008415 -0.790071 2.561484 0.080218 -0.020187 19445.600000 0 0 1
10.077476 -10.564410 -23.972221 28.068303 -0.808983 2.594551 0.079867 -0.019795 38047.800000 0 0 1
11.160276 -11.340010 -24.717621 29.395720 -0.793386 2.569662 0.105193 -0.016189 -219089.000000 0 0 1
10.979576 -12.733510 -24.557821 29.762055 -0.859229 2.541244 0.091431 -0.018024 -208727.000000 0 0 1
12.120476 -13.494210 -24.886921 30.795429 -0.838978 2.511778 0.077889 -0.027431 -51754.300000 0 0 1
11.932276 -15.011910 -24.681521 31.255625 -0.899201 2.481062 0.071025 -0.029271 37164.800000 0 0 1
10.821476 -15.608710 -25.318721 31.650810 -0.964583 2.497990 0.077118 -0.025477 -199483.000000 0 0 1
10.581276 -16.900710 -24.800321 31.822214 -1.011417 2.464408 0.074906 -0.027176 335162.000000 0 0 1
9.423776 -17.640010 -25.519161 32.422293 -1.080143 2.476868 0.079128 -0.021354 355093.000000 0 0 1
9.809176 -18.234110 -26.803221 33.869091 -1.077246 2.483855 0.073912 -0.039314 -220265.000000 0 0 1
8.748176 -18.913710 -27.422411 34.441946 -1.137571 2.491772 0.080049 -0.032216 -284191.000000 0 0 1
9.153076 -19.969110 -28.467101 35.957196 -1.141011 2.484373 0.085145 -0.040409 -131740.000000 0 0 1
9.968576 -21.041210 -27.992511 36.409967 -1.128357 2.447782 0.080772 -0.036075 155503.000000 0 0 1
10.183476 -21.864910 -29.123181 37.814509 -1.134926 2.449887 0.088240 -0.033260 126777.000000 0 0 1
11.008376 -23.170110 -28.817531 38.580933 -1.127257 2.414240 0.077027 -0.031531 79712.300000 0 0 1
10.772576 -24.111510 -29.898581 39.891583 -1.150622 2.418097 0.083533 -0.032510 371164.000000 0 0 1
11.278576 -25.460010 -29.697751 40.710868 -1.153786 2.388357 0.101749 -0.029007 167189.000000 0 0 1
10.574376 -26.202310 -28.520961 40.147524 -1.187219 2.360868 0.095640 -0.030336 -101486.000000 0 0 1
11.063076 -25.976310 -27.251771 39.240532 -1.168171 2.338493 0.095236 -0.028525 -876274.000000 0 0 1
10.179276 -26.288510 -26.233241 38.508263 -1.201361 2.320247 0.078669 -0.022088 415079.000000 0 0 1
9.217176 -25.114610 -25.818661 37.179338 -1.219054 2.338432 0.076305 -0.021263 712991.000000 0 0 1
9.992076 -24.060110 -25.251241 36.281616 -1.177173 2.340579 0.081390 -0.015092 319922.000000 0 0 1
9.181876 -22.944610 -24.940021 35.110776 -1.190138 2.360754 0.078798 -0.010929 -230323.000000 0 0 1
10.085576 -21.723110 -24.827021 34.496280 -1.136132 2.374168 0.094017 -0.016472 299976.000000 0 0 1
10.912276 -21.892910 -23.658721 34.031050 -1.108398 2.339508 0.083666 -0.014592 435147.000000 0 0 1
12.005576 -20.980710 -23.678521 33.837795 -1.051054 2.345865 0.080868 -0.021355 -26133.100000 0 0 1
12.572276 -20.734010 -22.280121 32.929699 -1.025713 2.313927 0.078513 -0.024860 -535381.000000 0 0 1
11.727676 -20.061510 -21.396021 31.587850 -1.041788 2.314950 0.077678 -0.025031 -414260.000000 0 0 1
11.460776 -18.631310 -21.500821 30.671817 -1.019322 2.347589 0.075212 -0.028767 -112628.000000 0 0 1
12.575476 -17.610910 -21.168421 30.271914 -0.950688 2.345180 0.083754 -0.027654 3572.630000 0 0 1
13.642076 -17.726710 -22.085121 31.433979 -0.914883 2.349824 0.079021 -0.027016 -324102.000000 0 0 1
14.638176 -16.758910 -21.794321 31.146905 -0.852841 2.345811 0.083254 -0.026334 -652626.000000 0 0 1
15.872576 -16.942610 -22.629221 32.420246 -0.817994 2.343392 0.061430 -0.025957 -1487600.000000 0 0 1
16.884876 -17.744910 -22.120921 33.004788 -0.810228 2.305320 0.058397 -0.017659 -115310.000000 0 0 1
18.069776 -17.250110 -22.744621 33.784625 -0.762195 2.309357 0.047678 -0.012228 618273.000000 0 0 1
19.395376 -17.619310 -21.992921 34.209783 -0.737452 2.269054 0.027202 -0.009449 463751.000000 0 0 1
19.755476 -18.959410 -22.056521 35.160036 -0.764839 2.248901 0.024634 -0.013118 254076.000000 0 0 1
21.090576 -19.299010 -21.700021 35.890877 -0.741070 2.220074 0.022107 -0.014494 516866.000000 0 0 1
21.231276 -20.825810 -21.569221 36.738437 -0.775758 2.198271 0.040936 -0.019507 -209139.000000 0 0 1
20.593676 -21.272710 -20.378121 35.942948 -0.801616 2.173604 0.031607 -0.015986 269401.000000 0 0 1
20.583276 -22.684210 -20.261821 36.725822 -0.833917 2.155203 0.059488 -0.018109 -179409.000000 0 0 1
-16.436225 13.010197 28.971322 35.759645 -0.669571 0.626358 0.059246 -0.018206 -251017.000000 0 0 1
-17.467025 13.828497 28.479332 36.157941 -0.669654 0.663832 0.072792 -0.025082 -94284.400000 0 0 1
-17.397225 13.892597 27.078062 35.055515 -0.673858 0.688132 0.067655 -0.021463 -217447.000000 0 0 1
-18.702125 14.337397 26.400622 35.388180 -0.654052 0.728717 0.086751 -0.025325 -111104.000000 0 0 1
-19.016925 15.690397 26.688712 36.333447 -0.689845 0.745794 0.074512 -0.025496 510959.000000 0 0 1
-20.002825 16.272497 25.785972 36.466746 -0.682925 0.785395 0.106118 -0.021182 76314.600000 0 0 1
-20.200425 17.784597 26.024432 37.438218 -0.721884 0.802195 0.106986 -0.010669 305534.000000 0 0 1
-19.138225 18.689497 25.724062 37.111943 -0.773536 0.804949 0.051191 -0.019648 511424.000000 0 0 1
-17.969425 18.563597 26.540312 37.039108 -0.801661 0.771955 0.037988 -0.002417 376726.000000 0 0 1
-16.788825 19.416097 25.984762 36.524750 -0.857838 0.779267 0.039222 -0.006179 4194.660000 0 0 1
-17.005125 20.805697 25.990752 37.384094 -0.885577 0.802049 0.054513 -0.007820 -21297.800000 0 0 1
-16.001825 21.576397 25.358182 36.940990 -0.932670 0.814199 0.073221 -0.015520 18153.300000 0 0 1
-16.229525 23.116697 25.464882 38.029454 -0.958683 0.837113 0.071597 -0.015157 -42634.900000 0 0 1
-15.842825 23.849097 26.614772 39.091184 -0.984438 0.821890 0.076093 -0.012056 76302.300000 0 0 1
-16.203125 25.206597 26.401842 39.937089 -0.999490 0.848531 0.078479 -0.012863 1444.600000 0 0 1
-15.601725 26.149097 27.497802 41.028261 -1.032847 0.836296 0.072090 -0.006456 -396061.000000 0 0 1
-14.206725 26.147397 27.445782 40.481951 -1.073087 0.825791 0.074805 -0.014490 -906389.000000 0 0 1
-13.689425 26.876397 28.525502 41.514399 -1.099699 0.813274 0.098961 -0.012397 1148940.000000 0 0 1
-12.111025 26.881097 28.459642 40.978306 -1.147493 0.803065 0.111502 -0.019832 1114790.000000 0 0 1
-11.543925 27.596597 27.363062 40.540986 -1.174606 0.829902 0.100672 -0.021340 -1422640.000000 0 0 1
-10.186625 27.466997 27.389942 40.105015 -1.215653 0.818995 0.089738 -0.010670 -1027950.000000 0 0 1
-9.345625 28.146997 26.224132 39.589131 -1.250220 0.846769 0.087959 -0.019218 1465610.000000 0 0 1
-7.916325 27.957797 26.400332 39.259192 -1.294867 0.833266 0.077496 -0.015795 1166720.000000 0 0 1
-7.381625 28.497097 25.214792 38.760272 -1.317336 0.862512 0.084978 -0.025043 -405279.000000 0 0 1
-5.878125 28.290097 24.944992 38.172432 -1.365931 0.858621 0.089742 -0.020673 -407840.000000 0 0 1
-5.142225 29.093197 25.829112 39.242829 -1.395853 0.852389 0.085155 -0.023737 1570870.000000 0 0 1
-3.692725 28.866397 25.773212 38.873687 -1.443563 0.845979 0.060561 -0.020722 2045090.000000 0 0 1
-2.905425 29.687897 24.734022 38.750285 -1.473241 0.878518 0.054738 -0.020258 -448782.000000 0 0 1
-3.107125 29.338997 23.347012 37.623317 -1.465285 0.901357 0.055762 -0.014604 -100906.000000 0 0 1
-2.398825 30.282897 22.579062 37.849997 -1.491748 0.931612 0.054238 -0.010807 -101279.000000 0 0 1
-2.741425 29.999597 21.087662 36.772010 -1.479667 0.960060 0.053039 -0.010642 419510.000000 0 0 1
-4.125325 30.056397 20.790662 36.778485 -1.434396 0.970007 0.045438 -0.009581 74382.500000 0 0 1
-4.783325 28.809797 20.921462 35.924813 -1.406266 0.949158 0.052008 -0.009256 -1055610.000000 0 0 1
-6.297625 28.827997 20.850662 36.131200 -1.355720 0.955645 0.069427 -0.017102 -710955.000000 0 0 1
-6.749625 28.966397 19.501462 35.565666 -1.341866 0.990439 0.045603 -0.016527 446471.000000 0 0 1
-7.557525 27.877697 18.973462 34.558276 -1.306063 0.989595 0.029926 -0.011997 -193443.000000 0 0 1
-6.922825 26.445197 18.682362 33.110491 -1.314762 0.971280 0.017047 -0.004506 380947.000000 0 0 1
-5.937525 26.216597 17.681662 32.174607 -1.348074 0.988967 0.018668 0.001020 -309124.000000 0 0 1
-4.665925 26.693697 17.994862 32.529055 -1.397750 0.984603 0.047632 -0.000352 -789379.000000 0 0 1
-3.801525 26.787497 16.722562 31.806692 -1.429824 1.017193 0.047267 -0.004602 -74083.300000 0 0 1
-3.168525 25.611597 16.236862 30.489821 -1.447707 1.009205 0.053910 -0.008512 11415.700000 0 0 1
-2.642525 25.794597 14.950462 29.930929 -1.468708 1.047776 0.054779 -0.021873 82436.200000 0 0 1
-1.982625 24.456497 14.451862 28.476435 -1.489906 1.038513 0.053836 -0.016858 840236.000000 0 0 1
-0.828425 24.040297 15.203862 28.456627 -1.536350 1.007138 0.053453 -0.016198 631351.000000 0 0 1
-0.192925 22.936897 14.557462 27.167226 -1.562385 1.005286 0.047880 -0.029597 -568434.000000 0 0 1
1.084675 22.424197 15.232162 27.130055 1.522463 0.974660 0.041299 -0.024952 -180728.000000 0 0 1
2.012775 23.504197 15.211562 28.069381 1.485370 0.998068 0.045464 -0.031939 -500069.000000 0 0 1
3.220875 23.076497 15.772462 28.136619 1.432118 0.975726 0.050535 -0.032149 -731419.000000 0 0 1
4.345975 24.108497 15.664362 29.077128 1.392444 1.001882 0.062180 -0.039126 -278597.000000 0 0 1
5.623875 23.523797 15.655962 28.811563 1.336129 0.996324 0.060984 -0.032951 -850992.000000 0 0 1
6.588775 24.494797 15.515962 29.734696 1.308029 1.021821 0.069954 -0.034905 -282602.000000 0 0 1
8.050875 24.012097 15.798062 29.849224 1.247291 1.013066 0.085759 -0.035137 507708.000000 0 0 1
8.712175 23.292497 14.783262 28.930732 1.212873 1.034462 0.080157 -0.031767 425654.000000 0 0 1
9.264475 24.164597 13.734062 29.298169 1.204690 1.082900 0.077227 -0.035753 -576571.000000 0 0 1
9.815675 23.458897 12.499962 28.335779 1.174512 1.113931 0.074553 -0.031766 -233650.000000 0 0 1
11.059875 22.822497 12.696462 28.361724 1.119541 1.106647 0.077992 -0.032583 -130608.000000 0 0 1
11.338975 21.824497 11.776262 27.268322 1.091629 1.124236 0.076746 -0.031889 521129.000000 0 0 1
12.743975 21.246197 12.148862 27.593562 1.030506 1.114887 0.088870 -0.027532 698180.000000 0 0 1
12.642075 20.175097 13.037562 27.144698 1.011034 1.069801 0.090126 -0.027797 -541228.000000 0 0 1
13.909875 19.607297 13.144962 27.399284 0.953774 1.070420 0.084678 -0.020401 -536000.000000 0 0 1
14.243475 18.932297 14.448162 27.749916 0.925801 1.023177 0.101533 -0.025929 30918.400000 0 0 1
15.519075 18.310097 14.502362 28.043178 0.867715 1.027286 0.095498 -0.016480 410148.000000 0 0 1
15.949375 17.963697 15.812562 28.759592 0.844725 0.988649 0.092324 -0.027965 394408.000000 0 0 1
17.096875 16.911197 15.733562 28.737375 0.779938 0.991429 0.068271 -0.024495 -26120.500000 0 0 1
17.667175 16.542697 16.959262 29.553451 0.752540 0.959596 0.064648 -0.026932 70625.200000 0 0 1
18.908675 15.936597 16.616162 29.792784 0.700311 0.979155 0.054716 -0.027229 52621.100000 0 0 1
19.542475 15.425897 17.929162 30.680963 0.668215 0.946688 0.057506 -0.019278 -102338.000000 0 0 1
20.177675 16.392797 18.758962 32.058712 0.682270 0.945739 0.067381 -0.014001 87763.000000 0 0 1
19.247675 17.121997 19.488562 32.302319 0.727018 0.923142 0.055738 -0.018078 -92147.000000 0 0 1
19.951375 18.240397 20.331862 33.825347 0.740628 0.925940 0.044246 -0.013229 335233.000000 0 0 1
18.994175 19.149397 20.877562 34.107927 0.789468 0.912079 0.092078 -0.023762 686097.000000 0 0 1
19.660675 20.261497 21.524462 35.501731 0.800447 0.919405 0.074363 -0.019709 72083.100000 0 0 1
18.681475 21.378097 21.878862 35.842784 0.852612 0.914216 0.095237 -0.025380 173126.000000 0 0 1
17.944075 21.065897 23.068582 36.026675 0.865254 0.875882 0.095345 -0.026643 349140.000000 0 0 1
16.973975 22.051997 23.408802 36.364522 0.914790 0.871438 0.077556 -0.035338 302855.000000 0 0 1
16.352675 21.760397 24.796402 36.821005 0.926344 0.831956 0.089835 -0.030586 532560.000000 0 0 1
15.367575 20.709997 24.812262 35.787075 0.932411 0.804696 0.099389 -0.031469 623727.000000 0 0 1
14.536175 20.625997 25.983262 36.219636 0.956889 0.770761 0.097336 -0.028097 451987.000000 0 0 1
13.549875 19.457297 26.017892 35.201083 0.962497 0.739031 0.112830 -0.022789 -92616.800000 0 0 1
14.137075 18.159597 26.056842 34.764736 0.909309 0.723461 0.092965 -0.027836 -47004.500000 0 0 1
14.550375 17.508797 24.846692 33.699103 0.877418 0.741716 0.103692 -0.031820 -378100.000000 0 0 1
13.505175 17.207397 23.766342 32.300515 0.905364 0.743966 0.115200 -0.029751 -615885.000000 0 0 1
13.109275 18.358697 23.017112 32.228595 0.950694 0.775340 0.114863 -0.026706 120292.000000 0 0 1
14.019175 18.899697 22.041062 32.241964 0.932585 0.818093 0.110936 -0.033360 394284.000000 0 0 1
14.534275 17.942397 20.952162 31.179607 0.889956 0.833913 0.121997 -0.029841 59218.800000 0 0 1
13.539875 17.747097 19.974362 29.954346 0.919068 0.840854 0.111433 -0.032083 101873.000000 0 0 1
14.024675 16.820197 19.018162 29.005190 0.875783 0.855712 0.087419 -0.026840 -147198.000000 0 0 1
12.971375 16.216697 18.097462 27.545526 0.896130 0.853961 0.098442 -0.021528 -405162.000000 0 0 1
12.407575 17.121697 17.156562 27.229544 0.943705 0.889151 0.116546 -0.026974 164436.000000 0 0 1
11.396075 16.390097 16.467062 25.877982 0.963230 0.881059 0.098578 -0.025454 224634.000000 0 0 1
10.916875 17.203597 15.199762 25.419966 1.005345 0.929860 0.089491 -0.022327 -246051.000000 0 0 1
9.996275 18.202497 15.486762 25.905525 1.068590 0.930021 0.088104 -0.025437 -264726.000000 0 0 1
9.856475 19.065397 14.346862 25.816118 1.093655 0.981552 0.072420 -0.014268 183879.000000 0 0 1
8.750875 20.180197 14.445462 26.315196 1.161633 0.989701 0.074528 -0.016153 1749160.000000 0 0 1
7.400975 19.666697 14.588462 25.580787 1.210869 0.963938 0.046888 -0.018025 1115030.000000 0 0 1
6.401975 20.675397 14.572662 26.092524 1.270517 0.978221 0.054673 -0.025577 -40154.200000 0 0 1
5.158875 20.239197 15.330862 25.908964 1.321216 0.937605 0.044208 -0.025583 -530666.000000 0 0 1
4.247375 19.342297 14.727362 24.679138 1.354637 0.931347 0.039965 -0.031275 -525282.000000 0 1 0
3.140175 19.153497 15.551862 24.871220 1.408294 0.895286 0.030846 -0.024729 551863.000000 0 1 0
1.916075 18.481097 14.794062 23.750507 1.467488 0.898359 0.037696 -0.024657 702831.000000 0 1 0
1.298475 19.348197 13.889562 23.852855 1.503786 0.949239 0.037780 -0.031780 -203739.000000 0 1 0
0.169975 18.697697 13.322562 22.959169 1.561706 0.951734 0.035235 -0.036849 -388055.000000 0 1 0
-0.719225 19.549297 12.506862 23.218827 -1.534023 1.001960 0.033302 -0.046602 -327574.000000 0 1 0
-1.649625 20.419697 13.178162 24.358761 -1.490185 0.999167 0.036095 -0.033995 173122.000000 0 1 0
-2.572725 20.911997 12.246062 24.369993 -1.448385 1.044302 0.032568 -0.025360 -153936.000000 0 1 0
-3.827625 21.566597 12.811862 25.375434 -1.395146 1.041539 0.031272 -0.024375 594559.000000 0 0 1
-4.746825 20.747897 13.575062 25.244601 -1.345881 1.003041 0.038478 -0.028925 819215.000000 0 0 1
-5.897025 21.416797 14.066462 26.292955 -1.302109 1.006301 0.032361 -0.016495 332319.000000 0 0 1
-6.711025 20.591197 15.099862 26.401536 -1.255735 0.961938 0.031560 -0.019769 -568892.000000 0 0 1
-7.322125 19.373597 14.716262 25.407049 -1.209448 0.953025 0.035353 -0.023300 197033.000000 0 0 1
-7.956925 18.649697 15.781262 25.693814 -1.167528 0.909419 0.038215 -0.011096 247319.000000 0 0 1
-9.072725 19.322897 16.625362 27.057187 -1.131819 0.909104 0.026149 -0.000957 520926.000000 0 0 1
-10.277325 19.565997 15.870562 27.208940 -1.087142 0.948029 0.017787 -0.014214 1191260.000000 0 0 1
-11.459025 19.678597 16.676162 28.225004 -1.043486 0.938710 0.016414 -0.003443 592034.000000 0 0 1
-12.782525 19.698297 15.903162 28.360649 -0.995184 0.975508 0.033533 -0.019678 -402964.000000 0 0 1
-13.190925 20.921697 15.382662 29.126349 -1.008259 1.014393 0.025307 -0.014499 -260104.000000 0 0 1
-14.149625 20.542897 14.432262 28.818617 -0.967637 1.046278 0.031031 -0.022191 -244535.000000 0 0 1
-15.245025 21.597997 14.145862 29.983157 -0.956153 1.079472 0.025600 -0.021690 -221996.000000 0 0 1
-16.340625 21.529997 14.992962 30.908667 -0.921579 1.064350 0.014530 -0.021109 -390326.000000 0 0 1
-17.364725 22.474497 14.809962 32.030793 -0.912962 1.090134 0.034885 -0.028866 161282.000000 0 0 1
-18.587525 22.293297 15.731762 33.014777 -0.875799 1.074119 0.085354 -0.033226 -1317400.000000 0 0 1
-19.418025 21.219397 15.345562 32.600748 -0.829697 1.080699 0.082759 -0.030306 102345.000000 0 0 1
-20.517925 21.066897 16.239062 33.593252 -0.798599 1.066259 0.089964 -0.022895 337873.000000 0 0 1
-21.614225 22.147597 16.053962 34.862881 -0.797586 1.092251 0.094493 -0.031214 -1486630.000000 0 0 1
-22.443025 21.876597 14.928262 34.714952 -0.772618 1.126277 0.101147 -0.031761 149720.000000 0 0 1
-23.297325 22.987297 14.640562 35.854250 -0.778700 1.150166 0.139225 -0.050028 78125.200000 0 0 1
-22.670325 24.216297 13.922962 35.975291 -0.818359 1.173405 0.114123 -0.040956 -357112.000000 0 0 1
-21.545125 24.704497 14.626762 35.894941 -0.853604 1.151095 0.083142 -0.046617 12765.100000 0 0 1
-21.188625 25.979297 14.193162 36.405049 -0.886617 1.170308 0.062830 -0.027694 -706311.000000 0 0 1
-19.748425 26.345997 14.533662 35.990821 -0.927564 1.155112 0.044610 -0.021773 -345946.000000 0 0 1
-18.797625 25.729697 13.666062 34.671736 -0.939840 1.165647 0.047813 -0.015735 -290883.000000 0 0 1
-17.538225 26.323297 13.796662 34.508741 -0.983074 1.159496 0.009339 -0.009780 -183418.000000 0 0 1
-16.541525 25.631397 12.775262 33.072615 -0.997689 1.174202 0.026389 -0.016301 963632.000000 0 0 1
-15.277225 26.311697 12.727162 32.979989 -1.044745 1.174607 0.031040 -0.013708 926255.000000 0 0 1
-14.305425 25.659697 11.899162 31.696298 -1.062209 1.185955 0.039437 -0.017675 274653.000000 0 0 1
-12.927625 26.352297 11.978462 31.702533 -1.114722 1.183335 0.037725 -0.010509 -450680.000000 0 0 1
-11.927325 25.614597 11.318162 30.437961 -1.135008 1.189802 0.031346 -0.012492 180798.000000 0 0 1
-10.600925 26.059897 11.508262 30.396348 -1.184450 1.182506 0.048796 -0.017187 414461.000000 0 0 1
-10.088925 27.501497 10.993762 31.288681 -1.219190 1.211767 0.051010 -0.025520 -407240.000000 0 0 1
-8.875825 27.947397 11.559262 31.519102 -1.263281 1.195296 0.062763 -0.034007 100434.000000 0 0 1
-8.518125 29.117697 10.899862 32.236714 -1.286196 1.225878 0.064224 -0.034179 -608192.000000 0 0 1
-7.249725 29.755497 11.485662 32.708845 -1.331809 1.211999 0.056489 -0.029898 -596313.000000 0 0 1
-6.097025 29.078997 11.131162 31.727978 -1.364119 1.212338 0.064704 -0.034642 -889630.000000 0 0 1
-4.961625 29.584897 11.790562 32.231991 -1.404635 1.196301 0.083989 -0.042379 558035.000000 0 0 1
-3.602825 29.130497 11.156962 31.401338 -1.447742 1.207559 0.087786 -0.043686 451864.000000 0 0 1
-3.350225 29.872497 9.929462 31.657295 -1.459112 1.251757 0.094254 -0.050227 597664.000000 0 0 1
-2.149025 29.544297 9.221762 31.024582 -1.498185 1.268995 0.085691 -0.040627 559343.000000 0 0 1
-1.874825 30.442697 7.961362 31.522311 -1.509289 1.315468 0.082844 -0.043974 137255.000000 0 0 1
-2.784425 30.347097 6.878862 31.241288 -1.479300 1.348792 0.090666 -0.039594 207355.000000 0 0 1
-2.386225 31.218097 5.791362 31.840282 -1.494507 1.387890 0.095071 -0.028604 117331.000000 0 0 1
10.773075 -33.807510 -26.282661 44.156371 -1.262310 2.208333 0.111299 -0.032523 19755.100000 0 0 1
11.503475 -33.365710 -25.147831 43.336058 -1.238789 2.189891 0.085640 -0.027078 -287869.000000 0 0 1
12.787375 -32.855410 -25.332161 43.413285 -1.199634 2.193843 0.089811 -0.024004 -296295.000000 0 0 1
13.574175 -32.909510 -23.999121 42.933109 -1.179587 2.163962 0.082205 -0.021484 -497865.000000 0 0 1
13.146075 -31.983510 -23.023521 41.543311 -1.180821 2.158204 0.082810 -0.021020 128790.000000 0 0 1
13.651775 -32.142710 -21.709921 41.119891 -1.169160 2.127001 0.063076 -0.015937 484789.000000 0 0 1
15.148275 -31.755610 -21.445521 41.204361 -1.125696 2.118194 0.045065 -0.013784 718524.000000 0 0 1
16.065175 -32.726010 -21.947621 42.553256 -1.114456 2.112701 0.063387 -0.013417 410425.000000 0 0 1
17.377275 -32.443010 -21.475021 42.610974 -1.079057 2.098995 0.050138 -0.013573 348734.000000 0 0 1
18.414075 -33.565110 -21.789421 44.050807 -1.069023 2.088220 0.035670 -0.008475 801332.000000 0 0 1
19.763775 -33.167610 -21.488721 44.186675 -1.033415 2.078666 0.040339 -0.001899 741207.000000 0 0 1
20.549275 33.743897 -21.268621 44.869561 1.023802 2.064636 0.029680 0.000949 1425790.000000 0 0 1
22.102975 33.962997 -21.006721 45.643280 0.993862 2.049058 0.045052 -0.002253 1865160.000000 0 0 1
22.965875 -33.799210 -22.119321 46.465927 -0.973976 2.066935 0.039463 -0.008810 42590.400000 0 0 1
24.315575 33.975997 -21.831321 47.140451 0.949631 2.052300 0.028010 -0.005751 164679.000000 0 0 1
25.189875 -33.420010 -22.949421 47.729475 -0.924908 2.072389 0.050637 -0.015899 -10389.000000 0 0 1
25.347775 -32.005610 -23.048521 46.883932 -0.900965 2.084732 0.059968 -0.022418 10351.700000 0 0 1
24.192175 -31.336310 -23.534121 46.055189 -0.913352 2.107142 0.043359 -0.020599 127805.000000 0 0 1
24.119575 -29.828310 -23.327421 44.895997 -0.890825 2.117165 0.057495 -0.027820 -740300.000000 0 0 1
24.907375 -29.191010 -24.280821 45.409808 -0.864416 2.134954 0.061800 -0.031520 -238454.000000 0 0 1
25.050075 -27.815010 -23.951421 44.439302 -0.837652 2.140009 0.072918 -0.023328 129081.000000 0 0 1
25.629175 -26.798810 -24.929321 44.682232 -0.807704 2.162679 0.062813 -0.022929 -108993.000000 0 0 1
24.761275 -26.645310 -26.005341 44.714327 -0.822031 2.191476 0.056714 -0.021356 -303909.000000 0 0 1
25.361075 -25.939810 -27.096051 45.279729 -0.796679 2.212317 0.046633 -0.018465 -567944.000000 0 0 1
24.337075 -25.416710 -28.094781 45.029091 -0.807094 2.244552 0.039866 -0.011665 86382.000000 0 0 1
23.559775 -24.288710 -27.715961 43.739901 -0.800631 2.257064 0.058075 -0.008135 -455581.000000 0 0 1
22.343575 -24.630510 -27.094391 42.895260 -0.834045 2.254464 0.050167 -0.006668 -304395.000000 0 0 1
21.327275 -23.439310 -27.227491 41.780260 -0.832542 2.280598 0.051207 -0.012274 -68518.700000 0 0 1
21.075875 -23.012510 -28.541091 42.289029 -0.829296 2.311633 0.072498 -0.017982 -66301.100000 0 0 1
20.520375 -21.747510 -28.533841 41.330619 -0.814422 2.332811 0.054557 -0.006606 -172353.000000 0 0 1
19.652575 -21.413110 -29.780531 41.612798 -0.828243 2.368362 0.067455 -0.025411 -209906.000000 0 0 1
18.437175 -22.087110 -29.810171 41.429653 -0.875224 2.373932 0.061519 -0.025094 -873891.000000 0 0 1
17.407775 -21.451310 -30.485361 41.140571 -0.889081 2.405362 0.057650 -0.034252 -750233.000000 0 0 1
16.130875 -22.257410 -30.271191 40.889392 -0.943657 2.404341 0.080116 -0.039560 -1001780.000000 0 0 1
16.060175 -23.394110 -31.178171 42.157940 -0.969185 2.403207 0.080910 -0.022076 1080370.000000 0 0 1
15.067775 -24.373710 -30.697731 41.993645 -1.017103 2.390596 0.096017 -0.032282 673257.000000 0 0 1
15.422175 -25.784510 -31.170161 43.292763 -1.031762 2.374578 0.111126 -0.032790 33519.600000 0 0 1
14.526175 -26.741710 -30.669621 43.205954 -1.073187 2.360077 0.103201 -0.028370 66618.300000 0 0 1
14.966975 -28.018310 -30.990921 44.378747 -1.080176 2.343855 0.154823 -0.037390 537080.000000 0 0 1
14.095675 -29.095110 -30.190431 44.234326 -1.119651 2.321990 0.155220 -0.041540 384094.000000 0 0 1
14.287875 -29.338110 -28.783861 43.512972 -1.117597 2.293614 0.165776 -0.039469 -154478.000000 0 0 1
14.210375 -28.211410 -27.977321 42.196551 -1.104185 2.295647 0.128592 -0.029555 324631.000000 0 0 1
15.350075 -28.098710 -26.898711 41.817496 -1.070805 2.269520 0.102073 -0.015409 473076.000000 0 0 1
15.200575 -29.078910 -25.870201 41.784061 -1.089126 2.238444 0.094366 -0.019884 589439.000000 0 0 1
16.116275 -28.823810 -24.763121 41.276609 -1.060970 2.214211 0.102094 -0.021986 -122848.000000 0 0 1
15.668575 -27.773410 -23.711421 39.737866 -1.057149 2.210174 0.083955 -0.020403 705110.000000 0 0 1
14.558575 -28.216810 -22.924021 39.161859 -1.094467 2.196128 0.076575 -0.026181 821076.000000 0 0 1
13.272075 -28.134010 -23.531721 39.005286 -1.130007 2.218423 0.081854 -0.020322 -230360.000000 0 0 1
12.109075 -27.995710 -22.544721 37.929591 -1.162562 2.207295 0.060685 -0.018057 -238483.000000 0 0 1
12.009175 -26.633310 -22.226321 36.709165 -1.147187 2.221153 0.051006 -0.018442 84608.600000 0 0 1
10.757875 -26.257510 -21.691721 35.717215 -1.181950 2.223477 0.069258 -0.021878 -365805.000000 0 0 1
10.540075 -24.789310 -21.600121 34.527790 -1.168768 2.246679 0.071799 -0.024295 52577.100000 0 0 1
11.167775 -24.163910 -20.468321 33.579248 -1.137870 2.226293 0.060687 -0.021921 546243.000000 0 0 1
10.629475 -22.849110 -20.352721 32.392913 -1.135372 2.250173 0.068380 -0.023370 -326832.000000 0 0 1
11.138375 -22.107010 -19.126421 31.282635 -1.104082 2.228634 0.061241 -0.018381 62603.700000 0 0 1
10.429175 -22.537210 -17.970221 30.653260 -1.137387 2.197208 0.069315 -0.028441 339702.000000 0 0 1
10.960875 -21.886410 -16.841221 29.711655 -1.106503 2.173440 0.063596 -0.028069 33117.300000 0 0 1
10.205475 -22.257410 -15.495921 28.977018 -1.140880 2.135027 0.062360 -0.024221 375027.000000 0 0 1
10.513675 -23.587410 -15.042821 29.886280 -1.151497 2.098251 0.067128 -0.016348 91214.600000 0 0 1
9.906375 -23.825410 -13.793321 29.258197 -1.176752 2.061713 0.076376 -0.015747 222874.000000 0 0 1
9.838175 -25.332910 -13.531621 30.358702 -1.200368 2.032780 0.079778 -0.009816 -54592.200000 0 0 1
11.140375 -25.725610 -13.212021 30.991490 -1.162130 2.011207 0.050613 -0.000860 -415524.000000 0 0 1
11.250475 -27.123410 -13.209221 32.198386 -1.177607 1.993519 0.052207 -0.007054 -587919.000000 0 0 1
12.593575 -27.665410 -12.623421 32.913884 -1.143618 1.964411 0.037695 -0.001339 972775.000000 0 0 1
13.814575 -27.234110 -13.217021 33.275048 -1.101363 1.979266 0.038098 0.000344 435606.000000 0 0 1
13.955075 -27.759610 -14.524121 34.297086 -1.104982 2.008079 0.038690 -0.001502 -1138400.000000 0 0 1
15.217475 -27.322710 -15.279421 34.807509 -1.062630 2.025247 0.034491 -0.004233 112317.000000 0 0 1
16.389075 -27.987810 -14.837321 35.666025 -1.041048 1.999846 0.078989 -0.009970 311395.000000 0 0 1
17.540075 -27.513010 -15.544221 36.141980 -1.003245 2.015386 0.093004 -0.015876 498356.000000 0 0 1
18.808375 -28.310410 -15.209521 37.236592 -0.984391 1.991559 0.094367 -0.024792 -104428.000000 0 0 1
18.883175 -29.530010 -15.924821 38.499295 -1.001868 1.997244 0.088891 -0.022994 492901.000000 0 0 1
20.202275 -30.051410 -16.154721 39.650903 -0.978933 1.990428 0.099970 -0.026300 889660.000000 0 0 1
20.235575 -31.290110 -17.047721 40.977729 -0.996739 1.999865 0.083945 -0.025728 99145.600000 0 0 1
19.877775 -32.473810 -16.368121 41.443813 -1.021515 1.976807 0.065660 -0.015820 -118137.000000 0 0 1
20.324975 -33.525610 -17.183821 42.806014 -1.025792 1.983879 0.057379 -0.012502 -49508.300000 0 0 1
20.203775 33.069897 -16.664821 42.184439 1.022370 1.976915 0.038389 -0.006493 -453776.000000 0 0 1
21.003275 32.719797 -15.579621 41.886123 1.000127 1.951907 0.066476 -0.016922 -478675.000000 0 0 1
21.013875 31.281397 -15.342521 40.687857 0.979270 1.957436 0.053797 -0.007647 -884637.000000 0 0 1
22.073175 30.916697 -14.322121 40.597911 0.950765 1.931337 0.053872 -0.015745 109572.000000 0 0 1
23.397675 30.736297 -14.865621 41.390311 0.920141 1.938161 0.055946 -0.014069 1940900.000000 0 0 1
24.413275 30.327397 -13.866921 41.328568 0.893020 1.912963 0.062915 -0.015118 1234440.000000 0 0 1
24.195975 28.997197 -13.075521 39.965634 0.875414 1.904103 0.052738 -0.005682 -1201810.000000 0 0 1
23.991975 27.883897 -13.957521 39.343856 0.860282 1.933451 0.060205 -0.000336 317021.000000 0 0 1
23.540075 26.734197 -13.182821 37.982090 0.848847 1.925252 0.022714 -0.003958 722452.000000 0 0 1
22.002875 26.768297 -12.877721 36.966254 0.882799 1.926622 0.030704 -0.010599 -233288.000000 0 0 1
21.217975 26.527297 -13.996221 36.739545 0.896144 1.961628 0.038384 -0.018673 -582246.000000 0 0 1
19.837175 26.615197 -13.770821 35.937692 0.930289 1.964039 0.053848 -0.020720 -230490.000000 0 0 1
19.213775 28.016897 -14.045621 36.761327 0.969669 1.962838 0.063438 -0.018087 -414692.000000 0 0 1
19.154075 28.568897 -15.361121 37.669942 0.980178 1.990820 0.055391 -0.020592 290022.000000 0 0 1
18.447575 27.826097 -16.370921 37.183488 0.985365 2.026700 0.040315 -0.012760 -95381.200000 0 0 1
18.540175 28.767497 -17.626421 38.496723 0.998309 2.046392 0.041402 -0.003268 186376.000000 0 0 1
17.818475 30.007897 -17.601321 39.086806 1.034953 2.037913 0.033104 -0.002351 166927.000000 0 0 1
17.899475 30.737797 -18.832621 40.247621 1.043472 2.057731 0.029124 0.001573 -531013.000000 0 0 1
16.977775 31.934897 -18.915821 40.815325 1.082161 2.052680 0.019907 0.006213 -366101.000000 0 0 1
17.250975 33.059797 -18.135321 41.466085 1.089852 2.023450 0.037874 -0.011522 -304624.000000 0 0 1
16.379475 -33.968610 -18.509321 42.008911 -1.121494 2.027068 0.037979 -0.012312 -222023.000000 0 0 1
16.068275 -32.912010 -17.364121 40.532734 -1.116618 2.013515 0.040641 -0.005736 137672.000000 0 0 1
15.158575 -32.005310 -17.978521 39.715859 -1.128469 2.040563 0.031794 -0.006209 110141.000000 0 0 1
14.759975 -30.966410 -17.061721 38.312892 -1.126007 2.032334 0.032549 -0.001442 -29807.200000 0 0 1
13.549575 -30.189510 -17.599421 37.479822 -1.148926 2.059601 0.020793 -0.001611 -108211.000000 0 0 1
12.325675 -30.884110 -17.575121 37.611639 -1.191071 2.057007 0.022571 0.000193 281290.000000 0 0 1
11.206775 -30.037810 -17.913221 36.725268 -1.213702 2.080322 0.015235 0.004744 956767.000000 0 0 1
9.916275 -30.882710 -18.106021 37.147036 -1.260101 2.079923 0.042661 -0.012745 -1837350.000000 0 0 1
9.404275 -31.354610 -16.862421 36.822455 -1.279401 2.046471 0.052162 -0.009540 921613.000000 0 0 1
8.148375 -32.035510 -17.065021 37.200603 -1.321724 2.047361 0.080452 -0.012155 822749.000000 0 0 1
6.914075 -31.300510 -17.627621 36.582227 -1.353394 2.073576 0.089014 -0.013487 -1138680.000000 0 0 1
7.069275 -30.744710 -18.909221 36.780028 -1.344790 2.110774 0.079249 -0.013443 -410661.000000 0 0 1
6.920575 -31.740910 -19.857821 38.075094 -1.356123 2.119455 0.067540 -0.021030 -1196330.000000 0 0 1
6.923175 -31.141910 -21.291721 38.354742 -1.352043 2.159311 0.053643 -0.013250 962770.000000 0 0 1
8.171775 -30.674010 -21.889421 38.559299 -1.310436 2.174484 0.061832 -0.018955 1890510.000000 0 0 1
9.291375 -31.595410 -21.944121 39.574537 -1.284785 2.158560 0.057720 -0.027919 472170.000000 0 0 1
9.300575 -32.838010 -22.880221 41.089416 -1.294799 2.161373 0.064710 -0.030323 -517270.000000 0 0 1
8.142375 -33.609010 -22.685921 41.358370 -1.333108 2.151390 0.056011 -0.038553 -266874.000000 0 0 1
8.083475 33.323197 -23.570621 41.609521 1.332815 2.173015 0.067251 -0.042002 -217160.000000 0 0 1
6.945375 32.334297 -23.188121 40.391013 1.359212 2.182290 0.076907 -0.047050 1095090.000000 0 0 1
5.588475 32.792397 -23.300521 40.613872 1.401998 2.181823 0.073214 -0.047601 682620.000000 0 0 1
5.175975 33.581097 -22.235721 40.606749 1.417866 2.150274 0.060325 -0.040797 264971.000000 0 0 1
3.764675 -33.830810 -22.533421 40.822194 -1.459973 2.155545 0.069920 -0.036606 1838580.000000 0 0 1
2.552275 33.443097 -22.426021 40.347011 1.494627 2.160156 0.065149 -0.040985 779353.000000 0 0 1
1.436875 -33.801610 -22.700121 40.741980 -1.528313 2.161768 0.067591 -0.042714 -488486.000000 0 0 1
0.133675 33.584597 -22.238921 40.280425 1.566816 2.155680 0.069406 -0.047828 -286858.000000 0 0 1
-0.124925 33.833297 -20.859121 39.746830 -1.567104 2.123276 0.067662 -0.047326 177559.000000 0 0 1
-1.334025 33.208697 -20.439921 39.017785 -1.530647 2.122174 0.065608 -0.051893 361957.000000 0 0 1
-1.565225 33.335197 -18.919121 38.361679 -1.523877 2.086535 0.077686 -0.044802 525936.000000 0 0 1
-0.637725 32.606797 -18.073021 37.285976 -1.551241 2.076832 0.092366 -0.051584 370735.000000 0 0 1
-1.110725 32.491797 -16.724021 36.560135 -1.536625 2.045909 0.082208 -0.042992 36986.600000 0 0 1
-0.296225 31.574497 -15.797421 35.307154 -1.561415 2.034684 0.063387 -0.037859 868366.000000 0 0 1
0.962575 32.139597 -15.385821 35.645529 1.540855 2.017100 0.071012 -0.031435 458917.000000 0 0 1
1.602875 31.189597 -14.553521 34.455263 1.519450 2.006876 0.085079 -0.014238 73115.000000 0 0 1
2.678775 31.800797 -13.633021 34.703397 1.486759 1.974519 0.092861 -0.022170 1415330.000000 0 0 1
3.929875 32.161697 -14.328721 35.427827 1.449208 1.987172 0.080542 -0.018688 1483220.000000 0 0 1
4.829175 32.828497 -13.485521 35.817460 1.424741 1.956819 0.092550 -0.028670 -114714.000000 0 0 1
6.187975 33.209397 -14.093121 36.602884 1.386577 1.966034 0.082635 -0.036268 48488.600000 0 0 1
7.098875 32.136597 -14.173721 35.833633 1.353391 1.977455 0.070434 -0.016175 -215577.000000 0 0 1
8.097675 32.414697 -15.140421 36.681293 1.325992 1.996274 0.055824 0.002786 204487.000000 0 0 1
9.110375 31.252697 -15.433521 36.026706 1.287150 2.013508 0.039156 -0.004506 187413.000000 0 0 1
9.953575 31.091797 -14.322121 35.649637 1.260971 1.984220 0.038765 -0.008477 34304.200000 0 0 1
10.907475 30.017397 -14.457921 35.057790 1.222259 1.995886 0.051816 -0.019655 544384.000000 0 0 1
10.394375 28.592697 -14.030521 33.502849 1.222117 2.002904 0.054224 -0.017200 30855.800000 0 0 1
9.435475 28.111197 -14.957521 33.211369 1.246964 2.037980 0.059619 -0.020012 66844.500000 0 0 1
8.886875 26.857297 -14.550121 31.811900 1.251244 2.045843 0.052746 -0.016187 914621.000000 0 0 1
7.782275 26.304197 -15.569621 31.541840 1.283145 2.087041 0.053325 -0.010344 1076870.000000 0 0 1
8.439675 25.677297 -16.672121 31.757067 1.253237 2.123499 0.062499 -0.009025 343473.000000 0 0 1
7.565175 24.863197 -17.411721 31.282239 1.275425 2.161085 0.060259 -0.004881 -212476.000000 0 0 1
8.458075 24.007097 -18.267821 31.330385 1.232060 2.193299 0.064107 -0.008423 -95739.300000 0 0 1
7.874775 23.083997 -19.203321 31.042721 1.242040 2.237768 0.081368 -0.018338 134048.000000 0 0 1
8.880875 22.179697 -19.674921 30.950144 1.189940 2.259708 0.069809 -0.019424 97601.500000 0 0 1
8.426475 21.116897 -20.751921 30.782642 1.191118 2.310601 0.075110 -0.024673 -405314.000000 0 0 1
7.651175 20.079697 -20.198421 29.490862 1.206741 2.325269 0.095772 -0.030393 143428.000000 0 0 1
7.076275 19.151897 -21.123521 29.378087 1.216872 2.373192 0.083767 -0.030457 292165.000000 0 0 1
25.852075 -12.505603 -9.201221 30.155967 -0.450553 1.880862 0.091218 -0.020888 -138704.000000 0 0 1
26.107975 -11.572103 -8.133421 29.693307 -0.417218 1.848257 0.105803 -0.035189 526419.000000 0 0 1
25.082175 -11.631903 -7.170521 28.562791 -0.434231 1.824555 0.109096 -0.032329 -259370.000000 0 0 1
25.632175 -11.111203 -5.795621 28.531674 -0.409037 1.775349 0.094221 -0.035676 57758.900000 0 0 1
26.035875 -9.790203 -5.638521 28.381469 -0.359671 1.770796 0.120580 -0.041090 934235.000000 0 0 1
27.101275 -9.261903 -6.460721 29.359885 -0.329308 1.792665 0.115718 -0.045830 -282929.000000 0 0 1
27.456475 -7.798603 -6.023621 29.171223 -0.276747 1.778785 0.167466 -0.044635 -97786.700000 0 0 1
27.954075 -7.689003 -4.692921 29.369620 -0.268420 1.731272 0.141847 -0.052643 1125550.000000 0 0 1
29.377475 -7.940803 -4.741321 30.798904 -0.263994 1.725355 0.124678 -0.047932 489619.000000 0 0 1
29.996975 -7.943403 -3.350621 31.211261 -0.258865 1.678357 0.142062 -0.048014 -287101.000000 0 0 1
30.089575 -6.671103 -2.932621 30.959432 -0.218179 1.665663 0.134832 -0.035146 158933.000000 0 0 1
30.567375 -6.641803 -1.613821 31.322235 -0.213958 1.622342 0.146944 -0.028918 -306891.000000 0 0 1
31.018175 -5.230903 -1.232421 31.480286 -0.167068 1.609955 0.127841 -0.035191 77566.900000 0 0 1
29.893575 -4.457303 -0.817121 30.235097 -0.148015 1.597825 0.152583 -0.034124 258067.000000 0 0 1
30.254575 -3.140803 -0.444821 30.420418 -0.103442 1.585419 0.128176 -0.020725 19602.000000 0 0 1
30.981775 -2.928103 0.932379 31.133800 -0.094231 1.540844 0.126825 -0.027007 -248828.000000 0 0 1
30.327375 -3.420303 2.054479 30.588708 -0.112305 1.503581 0.161674 -0.034472 41479.000000 0 0 1
31.006175 -3.033703 3.238879 31.322142 -0.097531 1.467206 0.124383 -0.023690 -650651.000000 0 0 1
30.588475 -3.869903 4.393979 31.143828 -0.125846 1.429237 0.145198 -0.030856 -605437.000000 0 0 1
31.075075 -5.172003 4.267079 31.790216 -0.164924 1.436164 0.132265 -0.034009 3937.920000 0 0 1
30.871475 -5.960603 5.426279 31.906445 -0.190731 1.399897 0.135796 -0.039653 103886.000000 0 0 1
31.628275 -7.325103 5.438479 32.917806 -0.227587 1.404821 0.109300 -0.021954 947673.000000 0 0 1
33.058275 -7.252003 5.423879 34.276224 -0.215950 1.411888 0.105581 -0.025756 383612.000000 0 0 1
33.609775 -8.553203 5.394579 35.098087 -0.249196 1.416485 0.118194 -0.020470 113027.000000 0 0 1
35.148375 -8.477103 5.521679 36.575381 -0.236661 1.419250 0.139508 -0.025246 -10464.400000 0 0 1
35.823375 -8.041803 4.371979 36.974302 -0.220824 1.452275 0.142893 -0.020407 -245036.000000 0 0 1
37.145675 -7.664303 4.669079 38.214435 -0.203476 1.448309 0.146561 -0.021688 237821.000000 0 0 1
-36.322126 -7.387403 3.448279 37.225814 0.200649 1.478032 0.139691 -0.013883 126172.000000 0 0 1
-35.953826 -8.547903 2.738879 37.057330 0.233413 1.496820 0.159770 -0.016485 18721.200000 0 0 1
-34.907926 -8.260003 1.843079 35.919186 0.232349 1.519462 0.172940 -0.027293 -386010.000000 0 0 1
-34.481026 -9.470403 1.028079 35.772708 0.268046 1.542053 0.166910 -0.021396 -103021.000000 0 0 1
-33.736926 -10.402703 1.775179 35.348942 0.299098 1.520556 0.162606 -0.017675 103324.000000 0 0 1
-33.884326 -11.709903 1.281979 35.873568 0.332736 1.535053 0.166939 -0.025816 -509475.000000 0 0 1
-33.553126 -12.769403 2.388979 35.980233 0.363647 1.504350 0.125737 -0.030881 406985.000000 0 0 1
-32.243926 -12.915803 2.913979 34.856563 0.380994 1.487099 0.115683 -0.023671 262425.000000 0 0 1
-31.358526 -13.569003 2.029479 34.228552 0.408379 1.511470 0.120603 -0.010301 -271253.000000 0 0 1
-29.931726 -13.787503 2.579679 33.055381 0.431660 1.492676 0.113186 -0.010284 -48374.200000 0 0 1
-29.162826 -12.612403 2.659579 31.884424 0.408191 1.487286 0.109382 -0.012925 886660.000000 0 0 1
-27.887826 -12.928603 3.265279 30.911837 0.434100 1.464967 0.118264 -0.008394 682744.000000 0 0 1
-27.085026 -11.740003 3.820579 29.766141 0.409006 1.442088 0.132465 -0.010703 -584938.000000 0 0 1
-26.011626 -12.206103 4.573879 29.094914 0.438751 1.412936 0.124036 -0.003204 -108987.000000 0 0 1
-25.336326 -11.110003 5.224379 28.154142 0.413250 1.384151 0.123229 0.000502 360649.000000 0 0 1
-23.968826 -11.532403 5.847979 27.234166 0.448448 1.354381 0.120927 0.014385 256816.000000 0 0 1
-23.988526 -12.362503 6.985779 27.876190 0.475853 1.317496 0.114058 0.007548 193990.000000 0 0 1
-22.699526 -12.830703 7.376979 27.098252 0.514469 1.295086 0.125031 0.014608 511960.000000 0 0 1
-22.227326 -12.361103 8.797479 26.911829 0.507531 1.237775 0.131441 0.006397 -150768.000000 0 0 1
-21.780726 -10.992603 8.812179 25.940159 0.467396 1.224186 0.118572 -0.000605 781285.000000 0 0 1
-22.843226 -10.050903 8.977879 26.522367 0.414503 1.225472 0.119680 0.000502 -183068.000000 0 0 1
-23.426726 -9.867403 10.392579 27.462389 0.398650 1.182697 0.113636 -0.007103 -29491.800000 0 0 1
-24.211726 -10.970103 10.893379 28.726583 0.425421 1.181855 0.104570 -0.020548 -70090.000000 0 0 1
-25.549826 -10.920903 10.508879 29.706839 0.403932 1.209216 0.108434 -0.015523 -707603.000000 0 0 1
-26.539026 -10.601103 11.657379 30.864183 0.380035 1.183486 0.104801 -0.025907 -250868.000000 0 0 1
-26.718026 -11.582403 12.673479 31.758811 0.409053 1.160311 0.098325 -0.023407 572950.000000 0 0 1
-27.918426 -11.372103 13.410579 32.994043 0.386812 1.152226 0.092498 -0.021287 251518.000000 0 0 1
-27.966626 -12.218703 14.706879 33.878034 0.411909 1.121743 0.086297 -0.021862 -227441.000000 0 0 1
-27.972426 -13.631803 14.541979 34.347516 0.453460 1.133626 0.086055 -0.016394 406718.000000 0 0 1
-27.934026 -14.347003 15.760479 35.136007 0.474471 1.105647 0.062626 -0.011301 -420570.000000 0 0 1
-27.591426 -15.837403 15.530779 35.402192 0.521080 1.116650 0.058413 -0.011941 146985.000000 0 0 1
-28.727626 -16.659103 15.365579 36.591027 0.525508 1.137431 0.071801 -0.013313 420121.000000 0 0 1
-28.197726 -17.972003 15.175679 36.720647 0.567436 1.144750 0.066910 -0.005911 133863.000000 0 0 1
-29.061326 -19.009703 15.874779 38.182955 0.579269 1.142023 0.051331 0.000951 -179779.000000 0 0 1
-29.213126 -18.771903 17.236279 38.767001 0.571145 1.110055 0.048052 0.008402 -98085.000000 0 0 1
-29.643626 -19.909203 18.017979 39.997106 0.591423 1.103491 0.054038 0.008338 201996.000000 0 0 1
-28.602226 -21.052303 18.280379 39.943198 0.634505 1.095435 0.041222 0.015586 -194947.000000 0 0 1
-27.456426 -20.638003 18.964079 39.235428 0.644565 1.066330 0.042272 0.021221 -69267.400000 0 0 1
-26.687526 -21.821703 19.294179 39.505393 0.685425 1.060548 0.037143 0.027930 264019.000000 0 0 1
-25.304326 -21.511003 19.910179 38.722699 0.704547 1.030753 0.035262 0.024230 132422.000000 0 0 1
-24.303726 -21.163003 18.959579 37.389964 0.716430 1.039007 0.049219 0.018670 -45802.500000 0 0 1
-23.045926 -21.222003 19.562679 36.934896 0.744220 1.012605 0.055775 0.022139 -303658.000000 0 0 1
-21.817226 -20.941503 18.673779 35.542199 0.764920 1.017614 0.058662 0.012578 33685.000000 0 0 1
-21.668326 -21.896803 17.592579 35.475135 0.790643 1.051910 0.055810 0.001916 633550.000000 0 0 1
-20.397926 -21.774203 16.950979 34.315113 0.818021 1.054135 0.058954 0.009036 428821.000000 0 0 1
-20.223626 -22.905103 15.969079 34.476808 0.847492 1.089213 0.051017 0.011308 -953481.000000 0 0 1
-20.312826 -24.183503 16.494279 35.630239 0.872168 1.089499 0.049070 0.001918 591490.000000 0 0 1
-19.172126 -24.611403 17.252679 35.650337 0.908996 1.065643 0.061842 -0.009828 501349.000000 0 0 1
-17.855126 -24.799503 16.456479 34.707875 0.946787 1.076806 0.060762 -0.014423 -242237.000000 0 0 1
-17.207326 -23.581403 16.105279 33.339986 0.940415 1.066648 0.060863 -0.016271 -170865.000000 0 0 1
-15.903526 -23.794603 15.607779 32.599203 0.981618 1.071534 0.066433 -0.017096 123905.000000 0 0 1
-15.058326 -22.517003 15.332779 31.126560 0.981350 1.055728 0.066606 -0.009948 -310252.000000 0 0 1
-15.482626 -21.605903 14.359479 30.211279 0.949021 1.075489 0.064745 -0.012646 -761966.000000 0 0 1
-16.507226 -20.751303 14.732979 30.334234 0.898818 1.063646 0.059003 -0.005920 -586499.000000 0 0 1
-16.126626 -19.506103 15.621079 29.741793 0.879957 1.017819 0.073021 -0.007580 -328355.000000 0 0 1
-15.453326 -18.435203 14.957579 28.326510 0.873163 1.014503 0.078523 -0.012991 152081.000000 0 0 1
-15.427526 -17.312103 15.890179 28.110768 0.842897 0.970036 0.069472 -0.014211 -363041.000000 0 0 1
-14.729626 -16.043003 15.363979 26.653174 0.828052 0.956430 0.078663 -0.014527 11995.000000 0 0 1
-15.497226 -15.305103 14.442079 26.133960 0.779161 0.985295 0.092155 -0.025108 124842.000000 0 0 1
-15.592326 -15.881203 13.170379 25.861016 0.794576 1.036454 0.094787 -0.025234 100252.000000 0 0 1
-16.703826 -15.183903 12.320079 25.716786 0.737769 1.071204 0.092994 -0.022254 899053.000000 0 0 1
-18.047026 -15.581603 12.637079 26.984760 0.712216 1.083426 0.086800 -0.023881 99920.300000 0 0 1
-18.895426 -14.579203 12.254779 26.828528 0.657166 1.096422 0.112588 -0.027821 -157338.000000 0 0 1
-20.436026 -14.869303 12.412679 28.156739 0.629012 1.114260 0.098797 -0.025600 997869.000000 0 0 1
-21.048226 -15.842003 11.530379 28.756678 0.645197 1.158228 0.108229 -0.022353 313956.000000 0 0 1
-20.942126 -15.526903 10.159979 27.980038 0.637987 1.199187 0.121348 -0.018986 -728090.000000 0 0 1
-21.731326 -16.555103 9.375079 28.882764 0.651016 1.240217 0.117243 -0.009426 -98807.300000 0 0 1
-21.161926 -17.807903 9.483779 29.238512 0.699543 1.240462 0.117334 -0.004897 -50826.800000 0 0 1
-21.925826 -18.679903 8.699179 30.089140 0.705630 1.277496 0.100614 -0.018449 -9240.800000 0 0 1
-21.543226 -20.129503 8.873079 30.790242 0.751487 1.278472 0.113047 -0.019903 483697.000000 0 0 1
-20.248726 -20.464103 8.377179 29.982788 0.790688 1.287628 0.123280 -0.020030 295356.000000 0 0 1
-20.155326 -21.862603 8.171079 30.837917 0.826008 1.302625 0.093001 -0.024739 -189149.000000 0 0 1
-18.864226 -22.275203 7.462479 30.128596 0.868122 1.320504 0.087635 -0.028509 -218859.000000 0 0 1
-17.683526 -21.910703 8.147079 29.311446 0.891758 1.289138 0.069365 -0.026604 -1257290.000000 0 0 1
-16.598926 -22.391103 7.493779 28.862477 0.932875 1.308150 0.092313 -0.026938 -2115110.000000 0 0 1
-15.329326 -21.975603 8.168279 28.011357 0.961709 1.274891 0.084107 -0.015715 -971110.000000 0 0 1
-14.145326 -22.231203 7.441779 27.380590 1.004125 1.295543 0.093996 -0.017947 -98942.400000 0 0 1
-12.982426 -21.868503 8.146079 26.704558 1.035053 1.260811 0.081636 -0.013583 -197199.000000 0 0 1
-11.756026 -22.313903 7.342679 26.268410 1.085902 1.287497 0.086674 -0.008897 -265372.000000 0 0 1
-11.523426 -23.710803 7.374679 27.374759 1.118412 1.298029 0.083607 -0.011550 -755890.000000 0 0 1
-10.307626 -23.981503 6.756479 26.963116 1.164854 1.317515 0.100421 -0.022104 -248800.000000 0 0 1
-9.980026 -25.501963 6.719879 28.197656 1.197775 1.330167 0.094928 -0.019572 -304675.000000 0 0 1
-10.777226 -26.204353 5.827679 28.927125 1.180607 1.367947 0.102560 -0.020521 -535278.000000 0 0 1
-10.739526 -27.578993 5.933279 30.185130 1.199453 1.372945 0.104889 -0.017351 -122647.000000 0 0 1
-9.607726 -28.341093 5.192579 30.372501 1.243951 1.398989 0.113304 -0.025887 -561365.000000 0 0 1
-8.349526 -27.944643 5.687279 29.714690 1.280452 1.378212 0.117394 -0.028149 -199983.000000 0 0 1
-7.288526 -28.844903 5.382279 30.234417 1.323297 1.391824 0.115221 -0.023234 255130.000000 0 0 1
-7.346526 -30.234313 6.009879 31.689174 1.332430 1.379990 0.131850 -0.036059 -804574.000000 0 0 1
-7.390526 -30.135993 7.385479 31.895819 1.330303 1.337126 0.128001 -0.026613 143000.000000 0 0 1
-7.384526 -31.416043 8.032479 33.256874 1.339931 1.326856 0.145137 -0.033257 -61190.200000 0 0 1
-7.601526 -31.375943 9.577279 33.674282 1.333104 1.282406 0.123421 -0.037325 -352166.000000 0 0 1
-6.554526 -30.778093 10.263079 33.099601 1.360970 1.255533 0.112786 -0.030497 -53349.800000 0 0 1
-6.839526 -31.004593 11.606179 33.804841 1.353676 1.220337 0.091930 -0.017855 170642.000000 0 0 1
-5.911526 -30.212303 12.573179 33.253785 1.377571 1.183056 0.080289 -0.021356 211237.000000 0 0 1
-6.254526 -28.846673 12.617779 32.100747 1.357282 1.166830 0.079073 -0.012908 -406490.000000 0 0 1
-5.345526 -28.109873 13.352879 31.575924 1.382875 1.134173 0.062627 -0.017710 -566685.000000 0 0 1
-5.775526 -27.584273 14.760779 31.813981 1.364400 1.088323 0.060812 -0.018007 -193095.000000 0 0 1
-6.023526 -28.535233 15.753079 33.146672 1.362760 1.075544 0.065110 -0.016192 188762.000000 0 0 1
-4.916526 -29.344193 16.152979 33.855171 1.404791 1.073422 0.063491 -0.016788 215571.000000 0 0 1
-5.331526 -30.743723 16.658879 35.371174 1.399086 1.080403 0.056876 -0.016654 96011.400000 0 0 1
-5.821526 -31.672143 15.681379 35.817879 1.389019 1.117636 0.053703 -0.012463 366136.000000 0 0 1
-6.361526 -32.846533 16.282879 37.208815 1.379491 1.117860 0.052119 -0.019193 -45269.000000 0 0 1
-6.021526 33.899714 15.532979 37.771984 -1.395002 1.146993 0.038718 -0.019750 -254460.000000 0 0 1
-6.547526 33.805324 14.237679 37.260992 -1.379482 1.178721 0.057216 -0.020715 614238.000000 0 0 1
-5.802526 32.785079 13.490379 35.923822 -1.395624 1.185831 0.059994 -0.028681 613876.000000 0 0 1
-4.578526 33.298385 12.720479 35.938224 -1.434153 1.209001 0.087021 -0.037959 217638.000000 0 0 1
-5.052526 33.741826 11.461679 35.991789 -1.422160 1.246700 0.093139 -0.041512 -166481.000000 0 0 1
-3.978526 -33.788123 10.767679 35.684854 1.453587 1.264275 0.104369 -0.049286 -1050700.000000 0 0 1
-4.315526 -33.426813 9.319379 34.968935 1.442403 1.301032 0.111425 -0.050512 -1094570.000000 0 0 1
-4.421526 33.579412 8.372779 34.888826 -1.439876 1.328446 0.107758 -0.061057 477042.000000 0 0 1
-5.292526 32.484881 8.668579 34.035607 -1.409293 1.313268 0.125395 -0.061287 1181720.000000 0 0 1
-6.777526 32.738087 9.171379 34.667440 -1.366657 1.303056 0.134257 -0.054811 416231.000000 0 0 1
-7.674526 33.013394 8.112879 34.851131 -1.342386 1.335854 0.138464 -0.049064 -591242.000000 0 0 1
-8.940526 33.310830 8.639979 35.555501 -1.308579 1.325339 0.105398 -0.041649 -444388.000000 0 0 1
-10.083726 33.519160 7.660079 35.831444 -1.278574 1.355353 0.109946 -0.050261 -239933.000000 0 0 1
-9.988226 -33.293933 6.990879 35.455931 1.279338 1.372325 0.116088 -0.043352 -10634.000000 0 0 1
-10.947826 -33.374583 5.971079 35.628240 1.253827 1.402408 0.105510 -0.033792 -340222.000000 0 0 1
-11.280326 -32.069433 5.320279 34.409296 1.232566 1.415556 0.088742 -0.035189 383430.000000 0 0 1
-12.153426 -31.300393 6.168879 34.139060 1.200431 1.389100 0.091901 -0.036188 916868.000000 0 0 1
-13.083126 -30.478123 5.401579 33.604482 1.165321 1.409356 0.082727 -0.032513 1006420.000000 0 0 1
-14.101126 -29.652453 6.274679 33.428750 1.126902 1.381973 0.065357 -0.027511 296201.000000 0 0 1
-15.178626 -30.412293 6.784179 34.660112 1.107873 1.373790 0.087467 -0.028136 422455.000000 0 0 1
-16.031826 -29.553963 7.566379 34.463115 1.073761 1.349443 0.070178 -0.025784 214651.000000 0 0 1
33.682556 -12.539303 -12.455321 38.037925 -0.356383 1.904394 0.050608 -0.034962 -418624.000000 0 0 1
32.683156 -12.695503 -11.481621 36.894337 -0.370503 1.887255 0.071215 -0.039021 -41762.300000 0 0 1
32.608666 -14.004703 -10.962821 37.143509 -0.405657 1.870406 0.069298 -0.041997 -388436.000000 0 0 1
33.694906 -14.538403 -10.029421 38.043411 -0.407340 1.837581 0.062848 -0.036791 715150.000000 0 0 1
35.016176 -14.698503 -10.588921 39.424660 -0.397427 1.842721 0.064565 -0.041297 650105.000000 0 0 1
35.917466 -15.257103 -9.677421 40.205672 -0.401686 1.813881 0.063927 -0.036386 -982051.000000 0 0 1
-37.073245 -15.386503 -10.225021 41.421263 0.393396 1.820229 0.043552 -0.031093 -974102.000000 0 0 1
-36.378295 -14.182803 -10.145221 40.341762 0.371743 1.825007 0.046261 -0.019725 -154652.000000 0 0 1
-35.076966 -14.268703 -10.683321 39.346191 0.386340 1.845769 0.078442 -0.023259 149788.000000 0 0 1
-34.414881 -12.912403 -10.962221 38.357326 0.358944 1.860629 0.115141 -0.028307 -39025.900000 0 0 1
-34.201732 -12.069303 -9.848221 37.582097 0.339243 1.835938 0.128592 -0.031589 159562.000000 0 0 1
-33.589715 -10.866603 -10.245621 36.760369 0.312883 1.853251 0.139239 -0.022517 -94916.300000 0 0 1
-33.803125 -9.616703 -9.311521 36.357072 0.277169 1.829795 0.139103 -0.031578 -99475.700000 0 0 1
-33.198455 -9.621303 -8.057521 35.491274 0.282084 1.799821 0.146776 -0.029167 369216.000000 0 0 1
-33.842145 -8.636703 -7.216021 35.664469 0.249872 1.774534 0.157617 -0.040254 320967.000000 0 0 1
-33.255015 -8.661203 -5.786421 34.848173 0.254788 1.737616 0.143355 -0.025674 -889828.000000 0 0 1
-32.182895 -7.773003 -5.610921 33.580362 0.236987 1.738673 0.168803 -0.044314 -119231.000000 0 0 1
-31.551425 -7.947303 -4.350621 32.826513 0.246751 1.703721 0.168758 -0.040760 -138882.000000 0 0 1
-30.624695 -9.170103 -4.228621 32.246612 0.290938 1.702309 0.149550 -0.033250 -1015070.000000 0 0 1
-31.263935 -10.402503 -3.908621 33.180160 0.321209 1.688870 0.143902 -0.025205 310509.000000 0 0 1
-31.714105 -10.515503 -2.543521 33.508652 0.320164 1.646776 0.126556 -0.028475 -87913.900000 0 0 1
-32.342495 -11.894603 -2.327221 34.538884 0.352417 1.638227 0.131734 -0.023340 797980.000000 0 0 1
-33.677715 -12.098803 -2.839321 35.897511 0.344894 1.649974 0.131100 -0.025520 1099570.000000 0 0 1
-34.130117 -13.419803 -2.705921 36.773333 0.374627 1.644447 0.133434 -0.023536 -1785160.000000 0 0 1
-35.562853 -13.485603 -2.351721 38.106543 0.362452 1.632550 0.109116 -0.022214 -1849050.000000 0 0 1
-35.822778 -12.927303 -1.103921 38.099937 0.346324 1.599775 0.119914 -0.016555 1026390.000000 0 0 1
37.159316 -13.157803 -0.872221 39.429726 -0.340315 1.592919 0.182087 -0.025042 864354.000000 0 0 1
36.550916 -12.239503 0.177779 38.546161 -0.323125 1.566184 0.156865 -0.027784 5717.930000 0 0 1
37.022526 -12.581403 1.472379 39.129618 -0.327587 1.533159 0.166202 -0.019166 417307.000000 0 0 1
36.187366 -11.942203 2.392879 38.182032 -0.318757 1.508085 0.166621 -0.015573 -25976.500000 0 0 1
36.586036 -12.319703 3.836579 38.794748 -0.324807 1.471740 0.175839 -0.026790 -150243.000000 0 0 1
35.753296 -11.877503 4.883579 37.989770 -0.320737 1.441890 0.171289 -0.036719 29442.100000 0 0 1
36.111656 -12.422603 6.106079 38.673725 -0.331324 1.412246 0.156843 -0.036465 26581.100000 0 0 1
34.833206 -12.438503 6.998979 37.643782 -0.342975 1.383782 0.152358 -0.048902 425488.000000 0 0 1
34.503496 -11.160803 7.418379 37.014688 -0.312846 1.369013 0.150208 -0.039645 -211014.000000 0 0 1
33.638176 -11.239803 8.511579 36.473374 -0.322475 1.335260 0.105235 -0.019970 -519265.000000 0 0 1
32.824356 -9.990103 8.843679 35.432346 -0.295443 1.318536 0.111213 -0.033490 -490851.000000 0 0 1
31.648856 -9.879203 8.071379 34.123246 -0.302566 1.331997 0.136480 -0.028146 -6251.650000 0 0 1
30.848926 -8.852203 8.641979 33.237051 -0.279445 1.307763 0.137095 -0.015534 -672655.000000 0 0 1
29.351706 -8.984903 8.426979 31.831825 -0.297054 1.302868 0.132244 -0.017317 -632221.000000 0 0 1
28.807276 -8.739903 7.114379 30.933145 -0.294566 1.338727 0.147006 -0.019623 -651616.000000 0 0 1
27.637776 -9.461203 7.004979 30.040485 -0.329824 1.335445 0.167301 -0.026720 -714042.000000 0 0 1
26.729276 -8.901703 5.854379 28.774438 -0.321479 1.365908 0.188891 -0.030745 366202.000000 0 0 1
25.990076 -7.733203 6.275379 27.832838 -0.289202 1.343374 0.182538 -0.034487 200511.000000 0 0 1
25.169076 -7.136903 5.325679 26.697952 -0.276305 1.369970 0.216979 -0.043794 -406065.000000 0 0 1
25.762976 -6.000303 4.463079 26.826361 -0.228825 1.403650 0.215209 -0.042448 172444.000000 0 0 1
26.702076 -6.483203 3.491379 27.698782 -0.238189 1.444412 0.216311 -0.042392 522288.000000 0 0 1
27.444676 -5.460603 2.864879 28.128917 -0.196403 1.468771 0.205415 -0.041109 -79922.200000 0 0 1
27.797676 -5.803803 1.434979 28.433327 -0.205830 1.520307 0.187565 -0.046090 -30722.600000 0 0 1
26.659576 -5.792903 0.588479 27.288038 -0.213966 1.549229 0.217181 -0.058345 -14973.100000 0 0 1
26.994376 -5.749103 -0.791321 27.611134 -0.209839 1.599460 0.186915 -0.055877 -697758.000000 0 0 1
25.915176 -6.078603 -1.820621 26.680713 -0.230393 1.639087 0.196584 -0.055587 -269259.000000 0 0 1
24.876576 -5.138703 -1.899821 25.472723 -0.203703 1.645448 0.200008 -0.049236 -412836.000000 0 0 1
24.087576 -5.302103 -3.041421 24.851033 -0.216663 1.693490 0.172376 -0.043839 -477962.000000 0 1 0
22.843976 -4.429703 -3.110521 23.476474 -0.191534 1.703682 0.141255 -0.037689 -468051.000000 0 1 0
23.102776 -3.016303 -2.966521 23.486945 -0.129826 1.697440 0.136111 -0.037195 178098.000000 0 1 0
23.837276 -2.326703 -3.974921 24.278165 -0.097300 1.735261 0.145553 -0.032348 135188.000000 0 1 0
22.974976 -1.739503 -5.161621 23.611813 -0.075569 1.791179 0.144569 -0.016988 11695.500000 0 1 0
22.272776 -0.558503 -4.879921 22.807940 -0.025070 1.786420 0.103402 -0.001079 233031.000000 0 1 0
21.880076 0.023097 -6.116221 22.718856 0.001056 1.843373 0.140203 0.006038 -238576.000000 0 1 0
21.267376 1.402197 -5.837121 22.098403 0.065837 1.838111 0.101214 0.023404 -80519.900000 0 1 0
22.184776 2.405097 -5.334121 22.943444 0.107990 1.805433 0.106733 0.012130 619734.000000 0 1 0
22.315276 2.302097 -3.928021 22.774998 0.102799 1.744134 0.093078 0.014026 92383.200000 0 1 0
23.651676 2.921997 -3.449721 24.079876 0.122920 1.714553 0.129019 -0.004292 -27796.900000 0 1 0
23.588076 4.365097 -3.547621 24.249475 0.182985 1.717620 0.099469 0.008285 -287967.000000 0 1 0
24.622976 5.145097 -3.055421 25.339664 0.205991 1.691669 0.108785 -0.009671 -773570.000000 0 0 1
24.348776 6.677697 -2.944821 25.419019 0.267671 1.686908 0.099915 -0.006560 -211062.000000 0 0 1
23.487576 7.041297 -1.882921 24.592509 0.291262 1.647436 0.118112 -0.013244 487345.000000 0 1 0
23.061476 8.373397 -2.063621 24.621210 0.348289 1.654710 0.134908 -0.013603 -146402.000000 0 1 0
22.034476 8.783697 -0.966721 23.740388 0.379328 1.611528 0.119114 -0.005266 -217291.000000 0 1 0
22.595276 9.248397 0.202279 24.415574 0.388504 1.562511 0.107897 -0.018436 851966.000000 0 1 0
21.608476 9.872197 1.044279 23.779761 0.428550 1.526868 0.103435 -0.015549 689208.000000 0 1 0
22.335076 10.650397 2.209079 24.842838 0.444954 1.481757 0.134594 -0.013781 -147988.000000 0 1 0
22.893276 11.876897 1.757179 25.850541 0.478570 1.502769 0.123598 -0.026983 352225.000000 0 0 1
22.038776 12.908297 1.298879 25.573793 0.529845 1.519985 0.112470 -0.025996 -578369.000000 0 0 1
21.011576 13.510797 2.276879 25.084101 0.571450 1.479901 0.105070 -0.018456 -87934.300000 0 0 1
19.768676 12.792297 2.180879 23.647403 0.574333 1.478440 0.126046 -0.022935 1745910.000000 0 1 0
18.660376 13.533697 2.796979 23.220544 0.627481 1.450050 0.106321 -0.026081 815800.000000 0 1 0
18.661076 13.685797 4.353679 23.547639 0.632784 1.384838 0.098942 -0.019583 -501740.000000 0 1 0
18.254876 12.477897 4.991779 22.668398 0.599592 1.348768 0.080743 -0.014555 280774.000000 0 1 0
18.544676 12.522097 6.309279 23.248977 0.593914 1.295971 0.091054 -0.028795 -161132.000000 0 1 0
18.455276 11.127197 6.936179 22.638956 0.542569 1.259406 0.054007 -0.028531 -320303.000000 0 1 0
19.341576 10.252297 6.310279 22.782137 0.487410 1.290143 0.039309 -0.027933 151699.000000 0 1 0
19.565476 9.028697 7.067579 22.677652 0.432344 1.253863 0.060229 -0.023557 385316.000000 0 1 0
20.686276 8.120997 6.465279 23.144599 0.374093 1.287687 0.079994 -0.021038 226652.000000 0 1 0
20.285376 7.683597 5.204779 22.307485 0.362076 1.335306 0.069541 -0.021834 452348.000000 0 1 0
21.204576 6.772497 4.691779 22.748924 0.309148 1.363064 0.070709 -0.023970 -28131.600000 0 1 0
20.865476 6.624697 3.158279 22.118531 0.307430 1.427518 0.064067 -0.011763 237286.000000 0 1 0
21.839476 5.819697 2.523279 22.741999 0.260424 1.459615 0.063772 -0.011166 520918.000000 0 1 0
21.553876 5.718597 1.121979 22.327802 0.259341 1.520525 0.066684 0.009508 153492.000000 0 1 0
22.560676 4.783697 0.409979 23.065904 0.208942 1.553021 0.099369 0.000648 111989.000000 0 1 0
22.484976 3.439297 0.734579 22.758351 0.151783 1.538513 0.090583 -0.000420 415305.000000 0 1 0
23.613476 2.758297 0.228679 23.775129 0.116283 1.561178 0.107971 -0.004790 47727.300000 0 1 0
23.437076 1.181697 0.165879 23.467434 0.050377 1.563728 0.133690 -0.012778 -328033.000000 0 1 0
22.448576 0.716197 -0.715621 22.471396 0.031893 1.602648 0.101649 -0.015797 382515.000000 0 1 0
22.533376 -0.638703 -1.101721 22.569332 -0.028337 1.619631 0.124513 -0.024198 -846809.000000 0 1 0
22.079776 -1.794803 -0.148021 22.153098 -0.081109 1.577478 0.129217 -0.022805 186135.000000 0 1 0
22.895276 -2.180303 0.971579 23.019369 -0.094943 1.528577 0.125371 -0.021084 656555.000000 0 1 0
24.246376 -2.537703 0.709079 24.389126 -0.104284 1.541719 0.153193 -0.036015 349246.000000 0 1 0
25.193576 -2.434803 1.930279 25.384454 -0.096345 1.494681 0.150868 -0.030523 -121637.000000 0 0 1
25.232376 -1.087403 2.339679 25.363938 -0.043069 1.478421 0.131669 -0.026859 651478.000000 0 0 1
26.312576 -0.764503 3.218379 26.519692 -0.029046 1.449138 0.141284 -0.025881 245764.000000 0 0 1
26.103276 0.735197 3.787279 26.386834 0.028157 1.426770 0.117501 -0.015678 -111861.000000 0 0 1
26.481976 1.793397 2.936379 26.704562 0.067618 1.460616 0.141320 -0.020394 -1232590.000000 0 0 1
27.808976 1.950897 2.650379 28.003029 0.070039 1.476008 0.145279 -0.026016 -1281320.000000 0 0 1
27.946276 3.293197 1.858979 28.200980 0.117299 1.504830 0.152904 -0.037543 49505.800000 0 0 1
27.398276 3.224997 0.518779 27.592305 0.117169 1.551994 0.155819 -0.027391 322916.000000 0 0 1
27.545776 4.375297 -0.336921 27.893127 0.157521 1.582876 0.140958 -0.026933 -302162.000000 0 0 1
28.921276 4.351197 -1.008321 29.264139 0.149330 1.605259 0.164616 -0.033601 -136322.000000 0 0 1
30.063526 4.424897 -0.152821 30.387805 0.146136 1.575825 0.178684 -0.039450 125555.000000 0 0 1
31.185516 4.072797 -0.958721 31.464952 0.129864 1.601271 0.152142 -0.034414 1011980.000000 0 0 1
32.512996 4.289697 -0.091521 32.794890 0.131180 1.573587 0.110386 -0.035233 874615.000000 0 0 1
32.707696 3.399997 0.981979 32.898596 0.103579 1.540943 0.129317 -0.043336 -23444.700000 0 0 1
32.235836 3.942197 2.158479 32.547643 0.121688 1.504430 0.114271 -0.023098 -137092.000000 0 0 1
32.409616 2.861397 3.243879 32.696996 0.088060 1.471423 0.135482 -0.024895 134021.000000 0 0 1
31.645616 1.664097 3.057479 31.836495 0.052537 1.474611 0.134308 -0.029889 284837.000000 0 0 1
31.904146 0.722897 4.093079 32.173753 0.022655 1.443233 0.135873 -0.028533 795696.000000 0 0 1
33.245826 -0.111803 4.065779 33.493701 -0.003363 1.449107 0.150453 -0.025341 741315.000000 0 0 1
34.402766 0.573497 4.485079 34.698633 0.016669 1.441176 0.151619 -0.034902 -412528.000000 0 0 1
35.548956 -0.166603 4.229679 35.800087 -0.004687 1.452373 0.132264 -0.033403 -436873.000000 0 0 1
36.877526 0.536397 4.670079 37.175924 0.014544 1.444842 0.163581 -0.046592 489731.000000 0 0 1
-36.899925 1.334497 3.689079 37.107879 -0.036150 1.471217 0.158567 -0.047230 272365.000000 0 0 1
-35.990337 0.616497 2.855479 36.108700 -0.017128 1.491634 0.192331 -0.053153 -219908.000000 0 0 1
-35.322474 1.406297 1.745079 35.393504 -0.039792 1.521471 0.206252 -0.055286 -252847.000000 0 0 1
-34.366477 2.332497 2.223279 34.517217 -0.067767 1.506341 0.214334 -0.079840 441549.000000 0 0 1
-33.647325 2.991697 1.159179 33.799947 -0.088680 1.536494 0.232658 -0.052094 -93017.500000 0 0 1
-32.809915 4.207197 1.587079 33.116610 -0.127533 1.522854 0.256510 -0.045999 31303.200000 0 0 1
-31.716245 3.698097 2.348279 32.017347 -0.116075 1.497386 0.234014 -0.059134 130060.000000 0 0 1
-31.147465 4.648497 3.234079 31.658054 -0.148148 1.468461 0.243618 -0.049597 -234297.000000 0 0 1
-31.613355 4.618697 4.752279 32.300476 -0.145073 1.423133 0.235717 -0.037954 88494.100000 0 0 1
-32.934755 5.086097 4.944879 33.690033 -0.153219 1.423488 0.224154 -0.014729 1002040.000000 0 0 1
-33.997795 4.086797 4.982079 34.603079 -0.119634 1.426316 0.220561 -0.021576 660077.000000 0 0 1
-34.100996 3.024397 6.123379 34.778164 -0.088458 1.393804 0.182816 -0.016104 -519986.000000 0 0 1
-34.350692 3.656797 7.391979 35.326811 -0.106055 1.359993 0.169501 -0.013095 204201.000000 0 0 1
-34.114514 2.815597 8.542079 35.280232 -0.082347 1.326245 0.150938 -0.012096 269671.000000 0 0 1
-35.234280 1.798797 8.967979 36.402126 -0.051008 1.321875 0.145220 -0.009464 188460.000000 0 0 1
-35.140541 0.683697 8.088279 36.065847 -0.019454 1.344608 0.154862 -0.016171 -462792.000000 0 0 1
-36.000502 -0.350303 8.315079 36.949958 0.009730 1.343816 0.149849 -0.013565 -739303.000000 0 0 1
-35.874969 -1.132203 9.605079 37.155791 0.031549 1.309319 0.155772 -0.011676 703415.000000 0 0 1
-34.635463 -1.867803 9.630679 35.997972 0.053875 1.299964 0.141763 -0.022147 721010.000000 0 0 1
-34.680341 -2.848003 10.641879 36.388003 0.081938 1.274003 0.131778 -0.015748 601488.000000 0 0 1
-33.384395 -3.731403 10.802879 35.286589 0.111309 1.259653 0.125964 -0.011956 619138.000000 0 0 1
-33.185935 -4.577103 9.651779 34.862774 0.137058 1.290281 0.125010 -0.017964 848093.000000 0 0 1
-31.997795 -5.399603 9.763879 33.887283 0.167174 1.278525 0.109118 -0.028284 921592.000000 0 0 1
-32.057265 -6.612003 8.824679 33.900764 0.203404 1.307454 0.112228 -0.011988 524741.000000 0 0 1
-33.038285 -7.574903 9.242179 35.132966 0.225381 1.304601 0.111612 -0.020948 194385.000000 0 0 1
-33.364835 -8.485203 8.269179 35.406076 0.249036 1.335067 0.110237 -0.019943 464261.000000 0 0 1
-34.474365 -9.517503 8.685279 36.803516 0.269365 1.332559 0.109584 -0.019143 1421870.000000 0 0 1
-35.779321 -8.927103 8.819479 37.916173 0.244512 1.336041 0.118397 -0.030982 487048.000000 0 0 1
-36.777325 -9.873403 9.075279 39.146091 0.262280 1.336837 0.127123 -0.038376 -75229.200000 0 0 1
7.834975 -23.953803 10.582779 27.334351 -1.254678 1.173246 0.136739 -0.030312 255643.000000 0 0 1
7.209175 -24.819503 9.658579 27.591087 -1.288111 1.213160 0.122259 -0.025644 -494932.000000 0 0 1
5.931175 -25.234853 10.056179 27.804737 -1.339947 1.200736 0.129959 -0.024211 -6710.820000 0 0 1
5.297475 -26.221213 9.094679 28.254706 -1.371449 1.243080 0.119888 -0.022576 -275740.000000 0 0 1
4.842475 -25.637043 7.905179 27.261684 -1.384110 1.276597 0.116149 -0.011965 -277839.000000 0 0 1
4.448775 -26.635163 6.979079 27.891415 -1.405298 1.317886 0.111004 -0.008465 -791663.000000 0 0 1
3.878175 -26.126763 5.624279 27.005194 -1.423435 1.360994 0.083709 -0.002904 -485711.000000 0 0 1
2.505575 -25.890593 5.734679 26.636202 -1.474321 1.353801 0.056158 -0.007967 -807399.000000 0 0 1
1.724375 -27.011223 5.400179 27.599666 -1.507044 1.373865 0.053058 -0.011408 -815049.000000 0 0 1
0.223275 -26.728793 5.314379 27.252905 -1.562443 1.374537 0.061594 -0.016449 -573685.000000 0 0 1
-0.358025 -26.452023 6.608679 27.267423 1.557262 1.325993 0.061192 -0.021699 1176160.000000 0 0 1
-1.803525 -26.502863 6.737879 27.405355 1.502851 1.322390 0.057218 -0.021847 1596940.000000 0 0 1
-2.372525 -27.911803 6.642079 28.789144 1.485999 1.337984 0.083605 -0.023334 -779206.000000 0 0 1
-2.075725 -28.565973 7.840979 29.695191 1.498260 1.303579 0.078763 -0.027443 -12528.800000 0 0 1
-2.485625 -29.880953 7.778579 30.976700 1.487803 1.316969 0.105009 -0.026204 -293835.000000 0 0 1
-2.326925 -30.679733 9.082079 32.080286 1.495096 1.283767 0.095786 -0.029289 795618.000000 0 0 1
-0.952925 -30.971063 9.415579 32.384687 1.540038 1.275794 0.092120 -0.024942 840430.000000 0 0 1
-0.844825 -31.037983 10.816279 32.879507 1.543584 1.235587 0.086936 -0.022453 507928.000000 0 0 1
0.641475 -31.028123 11.293979 33.025897 -1.550125 1.221780 0.092531 -0.022724 437536.000000 0 0 1
1.303475 -32.258873 11.103779 34.141292 -1.530412 1.239541 0.097199 -0.022626 25353.000000 0 0 1
2.690675 -32.193493 11.382079 34.252189 -1.487412 1.232053 0.090793 -0.011683 314749.000000 0 0 1
3.170575 -32.623573 12.818579 35.194687 -1.473914 1.198002 0.092138 -0.010579 -264305.000000 0 0 1
2.613975 -31.921523 13.902979 34.915746 -1.489091 1.161257 0.102534 -0.022817 335635.000000 0 0 1
3.201775 -32.449113 15.105579 35.935704 -1.472444 1.136965 0.094402 -0.020305 -175429.000000 0 0 1
3.124875 -31.387333 16.213079 35.465384 -1.471565 1.096006 0.110956 -0.017194 258372.000000 0 0 1
3.810175 -30.108813 16.070679 34.341298 -1.444919 1.083805 0.111529 -0.023952 2060360.000000 0 0 1
5.268175 -30.152093 16.177279 34.620900 -1.397822 1.084597 0.095876 -0.017841 1858490.000000 0 0 1
6.126075 -29.052223 15.494479 33.490884 -1.362977 1.089817 0.101373 -0.025821 125437.000000 0 0 1
6.291975 -29.245203 14.106579 33.073651 -1.358881 1.130154 0.098559 -0.025133 -8112.350000 0 0 1
5.151675 -28.865803 13.330379 32.209833 -1.394186 1.144106 0.095628 -0.008897 141526.000000 0 0 1
5.318975 -28.872383 11.839679 31.655710 -1.388615 1.187463 0.096601 -0.014338 16066.300000 0 0 1
5.411575 -30.063183 11.140179 32.514361 -1.392697 1.221088 0.088691 -0.021060 400487.000000 0 0 1
6.688375 -30.686013 11.290579 33.374285 -1.356191 1.225685 0.093454 -0.014002 224236.000000 0 0 1
6.904175 -32.065643 10.581979 34.465220 -1.358720 1.258722 0.083089 -0.012613 -73180.200000 0 0 1
6.775975 -33.097533 11.527679 35.696609 -1.368859 1.241967 0.062455 -0.014089 194161.000000 0 0 1
6.941775 33.690848 10.879679 36.078094 1.367597 1.264469 0.063047 -0.009657 8571.700000 0 0 1
6.782575 32.530689 11.860679 35.283491 1.365243 1.227966 0.051035 -0.001295 -351579.000000 0 0 1
5.487375 32.317807 12.328079 35.021899 1.402606 1.211078 0.055831 -0.006104 -548851.000000 0 0 1
5.532375 31.075674 13.068179 34.162581 1.394613 1.178264 0.056549 0.001734 206239.000000 0 0 1
4.313675 30.934014 13.991979 34.224209 1.432242 1.149622 0.058281 -0.013134 52835.700000 0 0 1
4.433475 31.739904 15.163579 35.454355 1.432013 1.128857 0.074912 -0.023773 -353631.000000 0 0 1
3.501375 31.393634 16.118479 35.463012 1.459724 1.098968 0.094153 -0.022154 -339057.000000 0 0 1
3.998075 31.793744 17.529779 36.525606 1.445703 1.070220 0.107398 -0.024739 79102.800000 0 0 1
3.964975 33.174777 17.766879 37.841100 1.451843 1.082057 0.115476 -0.022229 -8518.160000 0 0 1
4.853475 33.491318 18.798979 38.712094 1.426881 1.063736 0.106415 -0.020668 -186960.000000 0 0 1
4.935675 -33.078083 19.134479 38.531140 -1.422676 1.051122 0.099647 -0.024435 159116.000000 0 0 1
3.700175 -32.575473 19.596279 38.195116 -1.457693 1.032054 0.100021 -0.024288 33165.500000 0 0 1
3.894775 -31.909023 20.791879 38.283903 -1.449338 0.996675 0.098027 -0.025085 -541564.000000 0 0 1
2.633975 -31.232913 21.277379 37.883499 -1.486662 0.974414 0.109356 -0.024208 -1170330.000000 0 0 1
1.675975 -32.109563 21.684079 38.781854 -1.518648 0.977461 0.114877 -0.020746 -648283.000000 0 0 1
0.521375 -31.512313 22.225079 38.564904 -1.554253 0.956598 0.120315 -0.017729 -249323.000000 0 0 1
-0.617525 -32.420523 22.642779 39.549552 1.551751 0.961224 0.108078 -0.020060 -777353.000000 0 0 1
-1.430325 -32.871893 21.555179 39.334882 1.527312 0.990835 0.095776 -0.019365 303136.000000 0 0 1
-2.231725 -33.986423 21.899479 40.492527 1.505225 0.999376 0.085146 -0.017320 137071.000000 0 0 1
-3.519825 -33.769133 22.739079 40.863299 1.466939 0.980669 0.097146 -0.022599 -630273.000000 0 0 1
-4.503525 -33.098963 22.031679 40.015222 1.435564 0.987735 0.077195 -0.025338 -1285160.000000 0 0 1
-5.598625 -32.898213 22.853979 40.446772 1.402231 0.970317 0.069720 -0.025759 -1277800.000000 0 0 1
-6.817425 -32.317663 22.188479 39.789914 1.362894 0.979255 0.066570 -0.019953 -1044320.000000 0 0 1
-7.666525 -33.260543 21.635279 40.411937 1.344254 1.005852 0.050366 -0.005696 -680801.000000 0 0 1
-8.729125 -32.618313 20.989079 39.757935 1.309309 1.014645 0.065793 -0.018317 225891.000000 0 0 1
-9.851825 -33.640103 20.568879 40.642266 1.285903 1.040144 0.080918 -0.025433 710342.000000 0 0 1
-10.499525 33.803133 21.703779 41.520427 -1.269636 1.020752 0.106305 -0.031014 -1096470.000000 0 0 1
-11.824625 33.525975 21.461679 41.526093 -1.231718 1.027660 0.111742 -0.031665 -616235.000000 0 0 1
-12.611125 33.245631 22.781179 42.229072 -1.208233 1.000993 0.121451 -0.034906 141812.000000 0 0 1
-12.985225 -33.728493 23.621079 43.176182 1.203294 0.991917 0.129039 -0.034696 261732.000000 0 0 1
-11.870325 -33.254683 24.364779 42.900128 1.227942 0.966793 0.108869 -0.032598 249194.000000 0 0 1
-12.088425 -31.903263 25.111979 42.362244 1.208603 0.936276 0.096511 -0.030718 -594574.000000 0 0 1
-12.944925 -31.999863 26.200679 43.336335 1.186390 0.921546 0.106633 -0.031867 -352115.000000 0 0 1
-13.618725 -30.783763 26.282779 42.707074 1.154281 0.907878 0.107905 -0.024376 90939.300000 0 0 1
-14.479725 -30.652423 27.599079 43.714330 1.129484 0.887502 0.111349 -0.022921 227735.000000 0 0 1
-13.619125 -30.410883 28.693979 43.973251 1.149742 0.859874 0.083320 -0.014474 404947.000000 0 0 1
-14.361525 -30.263143 29.864479 44.877593 1.127711 0.842679 0.100935 -0.017566 -17252.200000 0 0 1
-13.518225 -29.629283 31.005479 44.966393 1.142761 0.809963 0.079606 -0.017974 491991.000000 0 0 1
-14.365225 -29.194813 32.116479 45.718323 1.113531 0.791912 0.089230 -0.017047 1248370.000000 0 0 1
-13.648525 -28.671453 33.265279 45.988186 1.126506 0.762163 0.078472 -0.015342 418673.000000 0 0 1
-12.819225 -29.712813 -33.749204 46.756738 1.163486 2.377202 0.089103 -0.017868 1035970.000000 0 0 1
-11.513125 -30.025153 33.614479 46.518760 1.204639 0.763239 0.098660 -0.025710 627306.000000 0 0 1
-10.954025 -31.003473 -33.436804 46.895905 1.231170 2.364565 0.109159 -0.028150 8661.170000 0 0 1
-9.454425 -31.296473 -33.641204 46.910404 1.277421 2.370482 0.122516 -0.034873 73683.700000 0 0 1
-8.501525 -30.520103 -32.957404 45.715896 1.299128 2.375922 0.125536 -0.039172 -64483.600000 0 0 1
-7.242125 -31.139113 -32.820304 45.817738 1.342285 2.369315 0.116323 -0.044086 531522.000000 0 0 1
-6.236525 -30.348213 -31.901404 44.470303 1.368119 2.370808 0.095857 -0.035596 136722.000000 0 0 1
-6.600425 -30.333133 -30.563704 43.563799 1.356538 2.348416 0.118210 -0.047472 -364431.000000 0 0 1
-5.605425 -29.832033 -29.710204 42.474313 1.385062 2.345475 0.093079 -0.035760 -167337.000000 0 0 1
-6.012125 -29.784473 -28.238404 41.480935 1.371618 2.319591 0.083819 -0.033795 -262536.000000 0 0 1
-5.851225 -31.023043 -27.541404 41.895047 1.384377 2.288147 0.080014 -0.029927 426863.000000 0 0 1
-6.682825 -31.082213 -26.346504 41.290464 1.359016 2.262795 0.102098 -0.032674 382600.000000 0 0 1
-6.539325 -32.320193 -25.471504 41.667195 1.371162 2.228509 0.100495 -0.032678 161145.000000 0 0 1
-5.297825 -32.294893 -24.804904 41.064709 1.408199 2.219362 0.069172 -0.029528 -9559.580000 0 0 1
-5.118025 -33.492403 -24.054704 41.551944 1.419158 2.188184 0.095179 -0.037273 52048.000000 0 0 1
-4.324525 -33.344603 -22.746904 40.595390 1.441824 2.165583 0.089169 -0.043753 376700.000000 0 0 1
-5.053725 -32.696773 -21.665504 39.547606 1.417446 2.150569 0.106876 -0.040174 456529.000000 0 0 1
-4.911525 -31.293633 -21.733604 38.415675 1.415117 2.172137 0.080054 -0.025200 -250393.000000 0 0 1
-5.554325 -30.586853 -20.575404 37.279396 1.391162 2.155466 0.123237 -0.040502 -1282400.000000 0 0 1
-6.937325 -30.612453 -20.501704 37.490914 1.347943 2.149387 0.129457 -0.050801 -707325.000000 0 0 1
-7.472525 -29.367063 -20.085404 36.355006 1.321631 2.156133 0.144545 -0.054191 -101456.000000 0 0 1
-7.811825 -28.378893 -21.190604 36.268828 1.302180 2.194770 0.150000 -0.061983 -584279.000000 0 0 1
-6.673525 -28.055473 -21.950304 36.241707 1.337267 2.221397 0.149356 -0.041978 -398485.000000 0 0 1
-6.866225 -27.078773 -22.954704 36.156928 1.322465 2.258628 0.164695 -0.057683 -414153.000000 0 0 1
-5.616925 -26.988343 -23.896304 36.482240 1.365601 2.284995 0.137082 -0.051621 1026390.000000 0 0 1
-4.399825 -26.430653 -23.407804 35.578971 1.405842 2.288838 0.120316 -0.043613 302162.000000 0 0 1
-3.805425 -27.079733 -22.325004 35.301544 1.431184 2.255455 0.076348 -0.036506 -793467.000000 0 0 1
-2.243325 -27.138613 -22.481504 35.312248 1.488322 2.260941 0.056584 -0.030929 761184.000000 0 0 1
-1.481125 -25.954983 -22.624304 34.463227 1.513793 2.286935 0.057712 -0.031771 153677.000000 0 0 1
-1.604125 -24.975703 -21.606904 33.063836 1.506657 2.282983 0.072679 -0.038749 -1225220.000000 0 0 1
-1.318125 -23.622003 -22.203304 32.445696 1.515053 2.324470 0.080494 -0.035132 89630.800000 0 0 1
-2.278625 -23.161403 -23.162704 32.835249 1.472732 2.353815 0.110529 -0.040453 492102.000000 0 0 1
-3.513425 -22.785003 -22.548404 32.247962 1.417802 2.345102 0.113392 -0.042725 -1003900.000000 0 0 1
-4.633325 -22.628003 -23.534904 32.975536 1.368827 2.365574 0.112603 -0.041089 -787490.000000 0 0 1
-4.448125 -21.525603 -24.401804 32.841825 1.367021 2.408353 0.118166 -0.030797 404486.000000 0 0 1
-5.407825 -21.463203 -25.445904 33.725476 1.323976 2.425690 0.156393 -0.042076 141826.000000 0 0 1
-4.613625 -21.338903 -26.778904 34.550601 1.357867 2.457612 0.131694 -0.024614 83426.000000 0 0 1
-5.285325 -21.533903 -28.006104 35.720940 1.330112 2.471920 0.134353 -0.023948 -338692.000000 0 0 1
-4.431225 -21.652303 -29.132304 36.567050 1.368930 2.492581 0.135421 -0.027748 -72678.600000 0 0 1
-5.170025 -22.052303 -30.407604 37.916430 1.340512 2.501372 0.142625 -0.030969 11016.200000 0 0 1
-5.733425 -21.014503 -31.150004 38.010581 1.304447 2.531350 0.140801 -0.035964 -770087.000000 0 0 1
-6.657225 -21.447103 -32.057504 39.140522 1.269824 2.530525 0.127430 -0.034696 -604174.000000 0 0 1
-6.940025 -20.496003 -33.294904 39.708950 1.244310 2.565272 0.114655 -0.030905 310229.000000 0 0 1
-5.821225 -20.188103 33.758579 39.762895 1.290062 0.556712 0.114869 -0.037478 -92932.600000 0 0 1
-6.164125 -19.958903 32.435579 38.580060 1.271249 0.572158 0.108037 -0.028774 701256.000000 0 0 1
-4.968025 -20.318803 31.482279 37.797737 1.330997 0.586443 0.095354 -0.035913 -217743.000000 0 0 1
-4.966225 -21.763803 31.403279 38.529112 1.346450 0.617975 0.089760 -0.040671 284822.000000 0 0 1
-3.937125 -22.382603 30.638179 38.146820 1.396676 0.638208 0.086960 -0.030130 628455.000000 0 0 1
-2.468725 -22.197703 31.117779 38.303378 1.460036 0.622535 0.081514 -0.036359 -552904.000000 0 0 1
-1.902925 -20.972403 30.784679 37.298248 1.480309 0.599947 0.095586 -0.029260 -668321.000000 0 0 1
-0.778625 -20.600003 31.516679 37.659892 1.533017 0.579244 0.099335 -0.031799 -428529.000000 0 0 1
-1.017525 -20.216503 33.001179 38.714599 1.520507 0.550196 0.082004 -0.035511 -417127.000000 0 0 1
-1.820325 -19.053403 33.139079 38.269365 1.475547 0.523764 0.079215 -0.027223 -46213.100000 0 0 1
-2.012225 -18.626303 -33.422104 38.314818 1.463182 2.630688 0.084588 -0.034661 547797.000000 0 0 1
-3.201625 -17.616703 -33.235704 37.751962 1.391020 2.647439 0.103535 -0.046771 505705.000000 0 0 1
-2.935225 -16.347603 -33.697104 37.567999 1.393139 2.683648 0.091851 -0.036904 472846.000000 0 0 1
-3.989925 -15.425403 -33.346604 36.957524 1.317684 2.695861 0.104903 -0.046478 640448.000000 0 0 1
-3.550625 -13.983803 -33.592704 36.559861 1.322141 2.735930 0.107462 -0.052070 166727.000000 0 0 1
-2.524725 -13.508703 -32.720504 35.489304 1.386032 2.743965 0.105714 -0.045629 218160.000000 0 0 1
-2.314025 -12.092303 -32.749304 34.987075 1.381719 2.782000 0.099593 -0.045682 -298760.000000 0 0 1
-1.638525 -11.399203 -33.922504 35.824055 1.428034 2.814311 0.095370 -0.046981 -488814.000000 0 0 1
-2.443525 -11.235403 32.795579 34.752771 1.356647 0.337207 0.098603 -0.038932 273305.000000 0 0 1
-1.709325 -10.791403 31.625679 33.459823 1.413705 0.332640 0.095654 -0.038044 213147.000000 0 0 1
-0.762725 -11.754903 30.900379 33.069516 1.506001 0.364206 0.090363 -0.042970 302427.000000 0 0 1
-1.531925 -12.822203 30.367079 32.998715 1.451886 0.402077 0.086550 -0.035350 363171.000000 0 0 1
-0.736925 -13.985703 30.177279 33.268771 1.518154 0.434513 0.088307 -0.042693 232247.000000 0 0 1
-1.400225 -15.255503 30.826279 34.423110 1.479268 0.461218 0.084602 -0.026876 148604.000000 0 0 1
-2.295925 -15.807103 29.887479 33.888009 1.426559 0.490816 0.093104 -0.026427 15941.300000 0 0 1
-2.738525 -17.071403 30.361379 34.939171 1.411736 0.517663 0.090731 -0.025236 -257760.000000 0 0 1
-2.708725 -18.242203 29.436979 34.736881 1.423387 0.559676 0.086884 -0.011485 -112707.000000 0 0 1
-3.776325 -18.223403 28.504579 34.042093 1.366464 0.578409 0.065801 -0.009571 223581.000000 0 0 1
-3.904025 -19.430703 27.759479 34.108390 1.372516 0.620031 0.074564 -0.013660 160749.000000 0 0 1
-4.730025 -19.143403 26.509479 33.039302 1.328564 0.639554 0.066227 -0.015827 142643.000000 0 0 1
-5.406925 -20.212103 25.767679 33.192427 1.309407 0.682003 0.076190 -0.014374 172764.000000 0 0 1
-4.598625 -21.326303 25.360579 33.453214 1.358417 0.710416 0.098507 -0.024600 98299.600000 0 0 1
-30.103265 -33.623110 -0.916321 45.139337 0.840576 1.591098 0.070545 -0.008471 293612.000000 0 0 1
-29.241785 -32.769110 -0.180321 43.919575 0.842219 1.574902 0.077043 -0.000602 55104.900000 0 0 1
-29.878525 -32.435710 1.031679 44.111970 0.826412 1.547406 0.068313 0.003856 -22433.400000 0 0 1
-29.473455 -31.085710 1.624879 42.867775 0.812015 1.532883 0.078756 -0.005860 497437.000000 0 0 1
-28.106615 -31.131510 2.033679 41.991529 0.836417 1.522347 0.077524 -0.012568 31952.400000 0 0 1
-27.626375 -29.833310 2.033479 40.710908 0.823788 1.520826 0.092472 -0.019286 -167560.000000 0 0 1
-26.108255 -29.603810 2.006779 39.522825 0.848059 1.519999 0.095550 -0.020695 -90499.700000 0 0 1
-25.459105 -30.205010 3.101279 39.624823 0.870452 1.492450 0.077430 -0.011811 -361085.000000 0 0 1
-24.089725 -29.904310 3.162679 38.530314 0.892674 1.488621 0.069556 -0.009140 -368437.000000 0 0 1
-23.336225 -30.626110 4.260079 38.738692 0.919677 1.460604 0.062840 -0.015467 -409739.000000 0 0 1
-23.587125 -30.036910 5.474079 38.581523 0.905101 1.428432 0.054233 -0.013725 -196562.000000 0 0 1
-22.853425 -30.679310 6.483679 38.801252 0.930559 1.402909 0.042031 -0.005270 122832.000000 0 0 1
-23.296325 -30.245810 7.956279 38.997822 0.914471 1.365335 0.038207 0.003080 57663.500000 0 0 1
-22.723025 -29.019010 8.344379 37.789780 0.906483 1.348151 0.034511 -0.006705 510739.000000 0 0 1
-23.446125 -28.619310 9.537979 38.206789 0.884432 1.318487 0.016625 0.001044 619170.000000 0 0 1
-22.694525 -27.494810 10.290579 37.106631 0.880752 1.289788 0.018902 -0.003826 835757.000000 0 0 1
-21.499225 -27.897310 10.980779 36.892466 0.914206 1.268574 0.009453 -0.011051 324092.000000 0 0 1
-21.092325 -26.768210 11.743279 36.046190 0.903439 1.238955 0.027177 -0.011289 230117.000000 0 0 1
-19.786825 -26.939810 12.554079 35.705415 0.937300 1.211515 0.028555 -0.014606 112231.000000 0 0 1
-19.965025 -27.836110 13.635279 36.869663 0.948597 1.191977 0.028636 -0.015271 256151.000000 0 0 1
-18.703325 -28.013210 14.271579 36.581857 0.982106 1.170027 0.045440 -0.018867 459605.000000 0 0 1
-18.686225 -29.208210 15.319879 37.907693 1.001654 1.154762 0.073964 -0.029280 7111.580000 0 0 1
-18.529225 -30.423510 14.645679 38.515166 1.023754 1.180722 0.061035 -0.022955 -89221.600000 0 0 1
-18.377625 -31.449910 15.579779 39.617716 1.041967 1.166630 0.074581 -0.022796 126264.000000 0 0 1
-18.041925 -32.788510 14.918579 40.288477 1.067760 1.191471 0.060796 -0.027645 98632.600000 0 0 1
-18.201425 -33.778110 15.942479 41.550153 1.076552 1.177005 0.077734 -0.027692 133949.000000 0 0 1
-17.874625 33.032897 15.399179 40.593216 -1.074800 1.181699 0.062728 -0.029032 -219801.000000 0 0 1
-17.763025 31.865897 16.461779 40.024375 -1.062266 1.146923 0.076704 -0.036835 -926771.000000 0 0 1
-18.973425 31.613397 17.056579 40.624188 -1.030252 1.137502 0.081272 -0.044096 -659194.000000 0 0 1
-18.909625 30.442097 17.796779 40.012755 -1.014958 1.109870 0.059580 -0.031859 323839.000000 0 0 1
-19.798725 30.432197 19.089379 41.018441 -0.994010 1.086726 0.071395 -0.039665 104486.000000 0 0 1
-19.224025 31.257697 20.012879 41.798590 -1.019408 1.071517 0.081446 -0.042393 -78139.100000 0 0 1
-20.140525 31.577297 21.021779 42.949757 -1.003034 1.059337 0.085554 -0.033502 -114869.000000 0 0 1
-19.656425 32.736697 21.941879 44.039896 -1.030053 1.049243 0.075715 -0.027034 491778.000000 0 0 1
-18.764725 32.450097 23.032479 43.995668 -1.046512 1.019823 0.070092 -0.035572 278912.000000 0 0 1
-18.658025 33.430697 24.024279 45.198445 -1.061748 1.010392 0.065321 -0.028384 190559.000000 0 0 1
-19.498325 33.007497 25.308779 45.937064 -1.037225 0.987301 0.067509 -0.026736 895514.000000 0 0 1
-20.889625 33.002497 24.994279 46.370845 -1.006486 1.001537 0.074432 -0.026747 261420.000000 0 0 1
-21.600925 31.797297 25.293179 46.015356 -0.974077 0.988829 0.061692 -0.017301 932170.000000 0 0 1
-23.083625 32.002297 24.807979 46.609404 -0.945910 1.009537 0.069475 -0.042432 471092.000000 0 0 1
-23.316325 31.689697 23.466579 45.810133 -0.936465 1.032985 0.066212 -0.014512 417386.000000 0 0 1
-24.630625 32.067397 23.075079 46.555826 -0.915818 1.052221 0.056687 -0.026463 279317.000000 0 0 1
-24.917225 31.738897 21.610279 45.773681 -0.905226 1.079112 0.047859 -0.035373 -220890.000000 0 0 1
-24.200125 32.606797 20.797779 45.622329 -0.932319 1.097449 0.049189 -0.036930 -2239.670000 0 0 1
-23.841425 31.995797 19.570579 44.442684 -0.930411 1.114802 0.022496 -0.017865 -99016.100000 0 0 1
-23.101025 32.959797 18.610279 44.343523 -0.959477 1.137699 0.019978 -0.012707 561951.000000 0 0 1
-21.866825 33.487697 19.134479 44.336353 -0.992328 1.124558 0.045088 -0.021934 493579.000000 0 0 1
-21.200425 -33.856510 18.111179 43.860416 1.011346 1.145130 0.062373 -0.014540 232108.000000 0 0 1
-20.023025 -33.053910 18.716079 42.939190 1.026146 1.119787 0.079633 -0.030656 -98191.600000 0 0 1
-20.522325 -32.041610 19.520379 42.765357 1.001136 1.096792 0.085195 -0.031476 573670.000000 0 0 1
-19.494925 -31.327510 20.211179 42.070853 1.014145 1.069676 0.084281 -0.042243 289927.000000 0 0 1
-20.113925 -30.337010 21.238679 42.142444 0.985325 1.042603 0.077042 -0.027778 -4107.870000 0 0 1
-20.571725 -29.154710 20.624079 41.213415 0.956318 1.046711 0.081564 -0.025833 -25966.400000 0 0 1
-21.155125 -28.393610 21.607579 41.480403 0.930460 1.022879 0.099125 -0.025735 -534563.000000 0 0 1
-21.802725 -27.147110 20.992479 40.657208 0.894148 1.028238 0.085882 -0.033469 -623105.000000 0 0 1
-20.902625 -26.216910 20.433079 39.265211 0.897707 1.023493 0.075223 -0.018134 293159.000000 0 0 1
-21.467725 -24.921810 20.129079 38.563449 0.859719 1.021634 0.062243 0.005987 -112785.000000 0 0 1
-22.598425 -24.953410 19.030679 38.672060 0.834882 1.056291 0.040764 0.002413 -471967.000000 0 0 1
-23.835025 -25.285310 19.549279 39.870159 0.814915 1.058335 0.039227 0.005310 -596355.000000 0 0 1
-24.830125 -25.359610 18.540179 40.042267 0.795947 1.089402 0.030378 0.006518 -905196.000000 0 0 1
-26.206445 -25.701210 19.059179 41.359186 0.775665 1.091876 0.031733 0.005176 -823495.000000 0 0 1
-26.566275 -27.016510 19.342679 42.541721 0.793801 1.098788 0.023286 0.001731 -109205.000000 0 0 1
-26.569035 -27.886410 18.190179 42.596339 0.809585 1.129584 0.022045 -0.006167 -132527.000000 0 0 1
-27.505805 -29.140410 18.336079 44.067500 0.814247 1.141654 0.033817 -0.016320 1062800.000000 0 0 1
-28.867645 -28.893110 18.694379 44.918064 0.785839 1.141547 0.037254 -0.020354 543351.000000 0 0 1
-29.769535 -29.200010 17.631579 45.274036 0.775741 1.170771 0.036806 -0.017470 1298570.000000 0 0 1
-31.283275 -28.865310 17.945979 46.194237 0.745220 1.171804 0.045523 -0.020961 1312930.000000 0 0 1
-31.741515 -27.599110 17.512679 45.562359 0.715704 1.176274 0.071905 -0.013921 -938757.000000 0 0 1
-32.998765 -27.181710 17.880679 46.340938 0.689037 1.174667 0.094561 -0.002731 -876112.000000 0 0 1
-33.567885 -25.971510 17.138079 45.771563 0.658498 1.187018 0.103092 -0.014882 -277469.000000 0 0 1
-33.853755 -26.162010 15.771679 45.599050 0.657931 1.217623 0.130218 -0.035047 175934.000000 0 0 1
-34.393239 -25.016310 15.160679 45.150380 0.628854 1.228361 0.143208 -0.036326 -60474.300000 0 0 1
-33.340015 -23.965110 14.727479 43.620886 0.623238 1.226404 0.126995 -0.034630 288772.000000 0 0 1
-32.612775 -23.426610 15.845379 43.167988 0.622920 1.194946 0.103626 -0.024847 432750.000000 0 0 1
-32.040545 -22.084010 15.669579 41.950396 0.603476 1.187989 0.096451 -0.022442 613849.000000 0 0 1
-33.060795 -20.872110 15.725279 42.141969 0.563135 1.188394 0.104239 -0.027438 551488.000000 0 0 1
-33.452075 -20.484110 17.070979 42.779182 0.549445 1.160317 0.088938 -0.022379 584538.000000 0 0 1
-34.526483 -19.541010 17.067579 43.188324 0.515023 1.164522 0.095512 -0.028207 290100.000000 0 0 1
-34.864594 -19.169410 18.529979 43.890390 0.502708 1.134939 0.080291 -0.010370 518263.000000 0 0 1
-35.933634 -19.981010 19.098579 45.334562 0.507479 1.135939 0.088669 -0.012860 904702.000000 0 0 1
-36.038777 -19.662310 20.465079 45.871770 0.499449 1.108352 0.074364 -0.005151 -7308.780000 0 0 1
36.889736 -19.740510 21.013179 46.819804 -0.491349 1.105363 0.086845 -0.016798 530774.000000 0 0 1
36.350966 -21.062110 21.180579 47.049146 -0.525142 1.103830 0.097984 -0.021574 85430.700000 0 0 1
36.861796 -21.762610 22.285779 48.260327 -0.533319 1.090792 0.077531 -0.011695 -395875.000000 0 0 1
36.054696 -22.994810 22.702679 48.416051 -0.567734 1.082742 0.093531 -0.006662 536855.000000 0 0 1
34.829356 -22.876710 23.442279 47.811801 -0.581157 1.058359 0.105542 -0.019391 813629.000000 0 0 1
34.578056 -24.052710 24.141979 48.549047 -0.607771 1.050347 0.092109 -0.019685 -718480.000000 0 0 1
33.719096 -23.835110 25.387179 48.472660 -0.615324 1.019558 0.094992 -0.021612 687915.000000 0 0 1
32.332466 -23.550310 25.062679 47.203213 -0.629520 1.011072 0.097216 -0.020527 1128270.000000 0 0 1
31.616446 -23.789810 26.267779 47.492641 -0.645068 0.984726 0.061738 -0.017957 683696.000000 0 0 1
30.231826 -24.532110 26.092279 46.867843 -0.681694 0.980364 0.057021 -0.021786 1346150.000000 0 0 1
29.266276 -23.753510 25.339879 45.418648 -0.681795 0.978921 0.064745 -0.018976 -299849.000000 0 0 1
28.039076 -24.388610 25.261779 44.934970 -0.715882 0.973771 0.062898 -0.016894 138523.000000 0 0 1
26.896676 -23.402610 24.759479 43.406740 -0.716044 0.963796 0.080050 -0.019333 488856.000000 0 0 1
26.840476 -22.982410 23.379679 42.369939 -0.708117 0.986277 0.065658 -0.011020 70894.800000 0 0 1
27.810376 -21.986110 23.056379 42.289510 -0.668966 0.994165 0.073376 -0.009603 336782.000000 0 0 1
27.713076 -21.415210 21.627779 41.162928 -0.657901 1.017589 0.083447 -0.014326 82614.800000 0 0 1
26.816176 -20.338210 21.584279 39.982886 -0.648875 1.000552 0.072722 -0.010790 -171219.000000 0 0 1
26.969576 -19.689410 20.369779 39.114688 -0.630617 1.023043 0.068975 -0.012061 390981.000000 0 0 1
25.960376 -18.494210 20.154279 37.711694 -0.619001 1.006963 0.051632 -0.002093 422708.000000 0 0 1
26.221076 -17.240110 20.853979 37.678305 -0.581623 0.984266 0.048117 -0.018982 4280.190000 0 0 1
26.300576 -17.310210 22.257779 38.558688 -0.582096 0.955447 0.046020 -0.009177 -183460.000000 0 0 1
26.409476 -15.919210 23.000279 38.469397 -0.542464 0.929936 0.049367 -0.005236 -595409.000000 0 0 1
25.287576 -15.120810 22.860279 37.291993 -0.538914 0.910934 0.028567 -0.011407 -670327.000000 0 0 1
25.552276 -13.849710 23.428679 37.331438 -0.496692 0.892348 0.034218 -0.008631 -635882.000000 0 0 1
24.335076 -12.970510 23.443879 36.194551 -0.489695 0.866210 0.031075 -0.011493 -748430.000000 0 0 1
23.267976 -13.572810 24.140979 36.171905 -0.528069 0.840090 0.035528 -0.013419 -213832.000000 0 0 1
22.124376 -12.742310 23.997879 35.039302 -0.522540 0.816351 0.037565 -0.017648 -777453.000000 0 0 1
20.862376 -13.313710 24.588879 34.887054 -0.568013 0.788636 0.046479 -0.013670 -830103.000000 0 0 1
20.312576 -14.235210 23.621979 34.252589 -0.611268 0.809804 0.061292 -0.024589 -46462.100000 0 0 1
19.131576 -14.796110 24.146879 34.176217 -0.658301 0.786199 0.067940 -0.018964 -57700.900000 0 0 1
18.307976 -15.765510 23.306779 33.569916 -0.710919 0.803383 0.094309 -0.014639 102330.000000 0 0 1
19.035376 -16.972410 23.109479 34.415930 -0.728168 0.834597 0.084010 -0.009219 485511.000000 0 0 1
18.258376 -17.863410 22.299779 33.907961 -0.774464 0.853093 0.101651 -0.008266 185423.000000 0 0 1
18.536376 -19.353010 22.570379 35.036527 -0.806948 0.870825 0.081386 0.005068 -72095.500000 0 0 1
18.141976 -19.655610 23.893279 35.865904 -0.825423 0.841717 0.085979 0.008300 159796.000000 0 0 1
18.419976 -20.958910 24.370179 37.046957 -0.849784 0.852877 0.087629 0.010348 -139708.000000 0 0 1
17.737776 -22.175710 23.657079 36.960089 -0.896132 0.876206 0.077894 -0.000311 913.724000 0 0 1
18.387376 -22.639110 22.495879 36.833266 -0.888663 0.913790 0.072067 0.009505 -5109.810000 0 0 1
19.440576 -23.538610 22.779179 38.090591 -0.880460 0.929760 0.082997 0.002686 -154600.000000 0 0 1
20.420876 -23.809610 21.641679 38.108686 -0.861864 0.966852 0.076304 0.009753 -164417.000000 0 0 1
19.840976 -24.550010 20.542979 37.661403 -0.891084 0.993852 0.069152 0.000193 143181.000000 0 0 1
20.769776 -24.988110 19.578279 37.935448 -0.877326 1.028511 0.066240 -0.007668 -66110.100000 0 0 1
20.139476 -25.803610 18.411279 37.555292 -0.908065 1.058426 0.056009 -0.007451 30316.300000 0 0 1
19.431176 -26.916810 18.916579 38.208928 -0.945525 1.052866 0.063314 -0.013951 102484.000000 0 0 1
18.975076 -27.730310 17.831079 38.039071 -0.970704 1.082913 0.062660 -0.023996 -562421.000000 0 0 1
18.148276 -28.917510 18.303979 38.737810 -1.010338 1.078660 0.060729 -0.016541 -26045.500000 0 0 1
16.995276 -28.414510 18.976379 38.161849 -1.031761 1.050358 0.069499 -0.023956 -216971.000000 0 0 1
16.249476 -29.469910 19.463679 38.876160 -1.066885 1.046437 0.065551 -0.030658 -1543910.000000 0 0 1
14.933776 -29.036710 20.034479 38.308335 -1.095769 1.020453 0.051894 -0.018212 -1814770.000000 0 0 1
14.076076 -28.617110 19.064479 37.155474 -1.113669 1.032004 0.059656 -0.018256 -822004.000000 0 0 1
12.919076 -28.026210 19.637279 36.578596 -1.138862 1.004095 0.042070 -0.015425 400848.000000 0 0 1
11.957376 -27.588110 18.478079 35.291954 -1.161811 1.019752 0.039094 -0.022400 -102006.000000 0 0 1
11.517476 -28.613910 17.663979 35.544679 -1.188125 1.050714 0.047580 -0.030046 4651.820000 0 0 1
11.075076 -28.033910 16.431179 34.329885 -1.194556 1.071707 0.055884 -0.029185 -149873.000000 0 0 1
10.789676 -29.100810 15.359279 34.629203 -1.215740 1.111257 0.070509 -0.026811 -45882.700000 0 0 1
9.598376 -29.845910 15.492179 34.970198 -1.259645 1.111842 0.074387 -0.027533 -100523.000000 0 0 1
9.548176 -30.831110 14.469379 35.370721 -1.270471 1.149353 0.070182 -0.019464 -355244.000000 0 0 1
8.345376 -31.757010 14.536079 35.908920 -1.313818 1.154032 0.064346 -0.016200 -721596.000000 0 0 1
8.472576 -32.798310 15.449079 37.231542 -1.317999 1.142913 0.064009 -0.019755 -75736.700000 0 0 1
7.489876 -33.821310 15.326579 37.879853 -1.352859 1.154244 0.068505 -0.016448 188370.000000 0 0 1
7.677976 33.064497 16.269179 37.641712 1.342628 1.123853 0.075200 -0.015650 -82536.800000 0 0 1
8.885776 32.377297 16.049979 37.213549 1.302946 1.124870 0.071444 -0.020339 -285159.000000 0 0 1
9.125276 31.403797 17.057779 36.884102 1.288005 1.090018 0.089666 -0.022735 129428.000000 0 0 1
10.505376 30.732897 16.859779 36.594071 1.241420 1.091985 0.053649 -0.032272 -102224.000000 0 0 1
10.574776 29.753197 15.838979 35.326362 1.229304 1.105865 0.082837 -0.026677 -1248140.000000 0 0 1
11.752276 29.074497 15.957779 35.186547 1.186664 1.100086 0.077391 -0.032001 -1320490.000000 0 0 1
12.190476 28.187197 14.787879 34.085292 1.162605 1.122036 0.060056 -0.027911 -153839.000000 0 0 1
11.433876 27.024297 14.600279 32.775209 1.170539 1.109100 0.064802 -0.030266 139702.000000 0 0 1
11.993676 26.288497 13.473079 31.881926 1.142771 1.134492 0.064213 -0.025941 -112096.000000 0 0 1
-9.124025 -9.202503 19.106662 23.086759 0.789680 0.595973 0.074172 -0.027330 155390.000000 0 1 0
-9.605625 -9.391403 17.770262 22.276640 0.774122 0.647311 0.085355 -0.027022 244118.000000 0 1 0
-9.255925 -10.636903 17.242262 22.273560 0.854708 0.685483 0.086966 -0.035289 64750.400000 0 1 0
-9.841725 -10.653603 15.818262 21.461040 0.824990 0.742074 0.095935 -0.039278 111271.000000 0 1 0
-11.259225 -10.660403 15.775362 22.119593 0.758086 0.776765 0.102977 -0.035375 514635.000000 0 1 0
-11.832125 -11.148603 14.545662 21.814372 0.755664 0.840900 0.108111 -0.037471 117260.000000 0 1 0
-11.755625 -12.675903 14.256662 22.408161 0.823048 0.881199 0.095684 -0.036160 -534721.000000 0 1 0
-10.483525 -13.134903 13.850862 21.777887 0.897189 0.881485 0.092093 -0.036303 151930.000000 0 1 0
-10.266025 -14.553403 13.904462 22.594842 0.956453 0.907926 0.096315 -0.036468 -93203.100000 0 1 0
-10.152925 -15.229303 15.295162 23.852789 0.982791 0.874694 0.109889 -0.036664 276883.000000 0 1 0
-11.298325 -15.271203 16.148462 24.932602 0.933826 0.866255 0.125708 -0.027523 279463.000000 0 1 0
-10.889425 -15.510903 17.467062 25.773357 0.958696 0.826142 0.131842 -0.030885 -294930.000000 0 0 1
-11.952625 -15.072303 18.487762 26.680272 0.900327 0.805241 0.113708 -0.029463 -287136.000000 0 0 1
-12.112525 -13.707003 18.655762 26.127240 0.847075 0.775552 0.119847 -0.031837 77292.800000 0 0 1
-13.134125 -13.157803 17.867362 25.785183 0.786299 0.805249 0.109418 -0.031692 1164380.000000 0 0 1
-14.644725 -13.178503 18.361462 26.931101 0.732749 0.820584 0.073950 -0.022755 1247250.000000 0 0 1
-15.205625 -14.464903 18.652462 28.077728 0.760438 0.844219 0.082928 -0.009448 -373873.000000 0 0 1
-16.332425 -14.316303 19.464862 29.164799 0.719711 0.840072 0.087931 -0.015908 -483034.000000 0 0 1
-16.719425 -15.771703 19.783062 30.325820 0.756238 0.860115 0.076139 0.002719 80166.700000 0 0 1
-17.668025 -16.307903 18.846562 30.549955 0.745388 0.905986 0.080251 0.001101 448775.000000 0 0 1
-18.078125 -17.598403 19.313862 31.773380 0.771953 0.917430 0.061152 -0.000804 443741.000000 0 0 1
-19.263825 -18.254703 18.517562 32.360922 0.758508 0.961586 0.064479 0.000169 250348.000000 0 0 1
-19.059125 -18.556003 17.162462 31.656368 0.772023 0.997804 0.066931 0.002951 92302.700000 0 0 1
-19.483025 -17.465503 16.288462 30.821195 0.730849 1.013984 0.067228 0.005992 -108776.000000 0 0 1
-19.103925 -17.589503 14.807862 29.893534 0.744149 1.052555 0.068056 -0.008458 -213562.000000 0 0 1
-19.818725 -18.606503 14.115862 30.630726 0.753861 1.091855 0.072060 -0.012892 297980.000000 0 0 1
-19.454425 -18.584603 12.716962 29.758751 0.762536 1.129253 0.082602 -0.020737 108951.000000 0 0 1
-19.777125 -19.904503 12.065962 30.543598 0.788608 1.164684 0.094563 -0.022528 -94688.000000 0 0 1
-18.849925 -20.919103 12.435562 30.782653 0.837381 1.154933 0.080409 -0.016474 -15277.900000 0 0 1
-19.051725 -22.233603 11.949162 31.624102 0.862317 1.183323 0.059150 -0.009491 -405654.000000 0 0 1
-18.080325 -23.339003 12.439562 32.036697 0.911684 1.172020 0.048659 -0.005149 -73127.000000 0 0 1
-18.164125 -24.532103 11.730162 32.701013 0.933453 1.203911 0.052334 -0.023575 -152503.000000 0 0 1
-17.480325 -24.587703 10.497562 31.942381 0.952767 1.235932 0.051682 -0.023221 -467289.000000 0 0 1
-17.978125 -25.723153 9.522562 32.795926 0.960803 1.276195 0.057245 -0.022577 -331477.000000 0 0 1
-19.264625 -25.561603 9.003662 33.250372 0.924960 1.296589 0.042661 -0.022854 -511701.000000 0 0 1
-19.401425 -26.492463 7.918562 33.778240 0.938695 1.334166 0.053924 -0.026755 -643886.000000 0 0 1
-20.582025 -26.244963 7.029662 34.085686 0.905747 1.363071 0.056141 -0.029209 -641005.000000 0 0 1
-20.509925 -25.015903 6.265362 32.950071 0.884053 1.379484 0.073764 -0.033804 239737.000000 0 0 1
-21.662825 -24.938803 5.439762 33.478544 0.855580 1.407588 0.085720 -0.035075 174389.000000 0 0 1
-21.941225 -23.487403 5.010262 32.529651 0.819420 1.416159 0.086955 -0.036183 -197469.000000 0 0 1
-22.567125 -23.449703 3.741362 32.759144 0.804575 1.456338 0.097981 -0.035387 100491.000000 0 0 1
-22.461025 -22.187903 3.110662 31.725020 0.779281 1.472588 0.094164 -0.027828 119674.000000 0 0 1
-22.966925 -22.295203 1.655162 32.051447 0.770559 1.519133 0.080217 -0.030613 295814.000000 0 0 1
-22.088625 -23.024503 0.807862 31.916888 0.806140 1.545482 0.076067 -0.031837 398005.000000 0 0 1
-22.690825 -23.141403 -0.468338 32.413229 0.795229 1.585246 0.080681 -0.026351 233817.000000 0 0 1
-21.922325 -24.068903 -1.521538 32.591648 0.832038 1.617498 0.083482 -0.024353 -339607.000000 0 0 1
-20.645425 -23.531203 -1.800438 31.355903 0.850629 1.628247 0.099347 -0.019032 233421.000000 0 0 1
-19.808925 -24.268803 -2.684738 31.441630 0.886237 1.656288 0.095043 -0.013408 460575.000000 0 0 1
-19.477925 -25.755643 -2.336838 32.375971 0.923302 1.643037 0.098236 -0.018262 -852994.000000 0 0 1
-20.558525 -26.564813 -2.721638 33.700883 0.912173 1.651643 0.128197 -0.020814 -30032.700000 0 0 1
-20.069525 -27.713233 -3.415738 34.387154 0.944022 1.670292 0.128682 -0.012451 -389448.000000 0 0 1
-21.148825 -28.644213 -3.927638 35.821643 0.934807 1.680661 0.133810 -0.013674 -353056.000000 0 0 1
-21.749825 -28.203623 -5.131538 35.983773 0.913883 1.713891 0.120629 -0.003174 -50460.500000 0 0 1
-22.553525 -29.181413 -5.751938 37.326949 0.912817 1.725509 0.120901 -0.015369 -40107.000000 0 0 1
-23.102525 -28.704153 -7.102538 37.524673 0.893105 1.761222 0.106382 0.016161 -482498.000000 0 0 1
-22.093525 -28.542753 -8.046838 36.980592 0.912080 1.790147 0.126398 0.018447 -183974.000000 0 0 1
-22.488525 -28.396653 -9.406638 37.424437 0.900988 1.824871 0.123118 0.015918 138781.000000 0 0 1
-23.345925 -27.155213 -9.879138 37.148825 0.860685 1.839969 0.102389 0.014958 480645.000000 0 0 1
-22.631325 -25.936313 -10.201438 35.901790 0.853343 1.858914 0.094356 0.009979 311177.000000 0 0 1
-22.538225 -25.030363 -9.124938 34.896349 0.837741 1.835359 0.084434 0.011539 -284578.000000 0 0 1
-22.139825 -23.637503 -9.623138 33.786213 0.818103 1.859620 0.067946 -0.000433 434147.000000 0 0 1
-23.224325 -22.882103 -10.187538 34.157661 0.777976 1.873655 0.074458 -0.006138 407745.000000 0 0 1
-22.887025 -21.509303 -10.364738 33.074066 0.754376 1.889546 0.084546 -0.000869 -148887.000000 0 0 1
-24.054225 -20.532603 -10.549138 33.338834 0.706578 1.892752 0.097044 0.001838 -708247.000000 0 0 1
-24.791325 -20.618503 -11.724738 34.310376 0.693763 1.919549 0.082856 0.012042 6404.570000 0 0 1
-25.956665 -19.816803 -11.754938 34.707819 0.652058 1.916313 0.092995 0.005752 -89975.400000 0 0 1
-25.843405 -18.280603 -11.612338 33.718072 0.615649 1.922391 0.103009 -0.004165 -1003750.000000 0 0 1
-25.262075 -17.648303 -12.782438 33.362040 0.609792 1.963993 0.115668 0.003493 593797.000000 0 0 1
-24.881225 -16.294003 -12.581438 32.293381 0.579792 1.970991 0.122328 -0.011675 1402460.000000 0 0 1
-23.744025 -15.927403 -11.468138 30.805504 0.590856 1.952256 0.085170 -0.005099 935092.000000 0 0 1
-24.314625 -15.955003 -10.170238 30.809038 0.580714 1.907212 0.133926 -0.008421 391234.000000 0 0 1
-23.340425 -16.245103 -9.203438 29.889498 0.608041 1.883798 0.114398 -0.015651 68082.400000 0 0 1
-24.123425 -16.751003 -7.955738 30.427446 0.606949 1.835337 0.108362 -0.023502 396466.000000 0 0 1
-24.494125 -18.113703 -8.061238 31.512727 0.636755 1.829481 0.100321 -0.015676 487162.000000 0 0 1
-25.494615 -18.470303 -7.089138 32.270472 0.626966 1.792282 0.107945 -0.015544 619884.000000 0 0 1
-25.878425 -19.971103 -7.091538 33.448882 0.657263 1.784429 0.121585 -0.023205 164771.000000 0 0 1
-26.658885 -20.374103 -8.218938 34.544915 0.652560 1.811020 0.103210 -0.023003 24156.800000 0 0 1
-27.188415 -21.669503 -8.048438 35.686897 0.672917 1.798283 0.097952 -0.007127 229502.000000 0 0 1
-26.311485 -22.904103 -8.431038 35.888363 0.716275 1.807937 0.079744 0.009721 551830.000000 0 0 1
-27.114245 -24.096903 -8.335438 37.219921 0.726547 1.796663 0.082331 0.008189 81247.100000 0 0 1
-26.338075 -25.216653 -8.504738 37.442013 0.763650 1.799941 0.062534 0.020702 -455906.000000 0 0 1
-27.105195 -26.472403 -8.103138 38.744555 0.773588 1.781494 0.075124 0.009766 5147.330000 0 0 1
-27.191065 -26.633163 -6.723438 38.650796 0.775033 1.745639 0.098387 -0.007281 158639.000000 0 0 1
-27.965315 -27.767963 -6.417138 39.928665 0.781857 1.732211 0.094247 -0.009493 -104173.000000 0 0 1
-27.525045 -28.329493 -5.059138 39.821893 0.799800 1.698185 0.105959 -0.017414 255892.000000 0 0 1
-28.162505 -27.706953 -3.932538 39.702226 0.777244 1.670010 0.084033 -0.015100 412539.000000 0 0 1
-27.477435 -28.049103 -2.700938 39.358057 0.795693 1.639475 0.087589 -0.010511 224698.000000 0 0 1
-27.566625 -29.521263 -2.146238 40.447869 0.819624 1.623883 0.082778 0.003037 -173724.000000 0 0 1
-26.787845 -30.462763 -2.869438 40.666967 0.849500 1.641414 0.117540 -0.020410 -45444.600000 0 0 1
-26.729465 -31.735003 -2.223138 41.551378 0.870807 1.624325 0.102908 -0.021531 616853.000000 0 0 1
-25.582745 -31.773653 -1.148138 40.808824 0.892919 1.598935 0.123520 -0.029369 588633.000000 0 0 1
-24.251425 -31.552293 -1.593338 39.827347 0.915490 1.610813 0.128746 -0.044670 -10920.900000 0 0 1
-23.373725 -31.666763 -0.493638 39.361892 0.934945 1.583338 0.094043 -0.030225 392223.000000 0 0 1
-22.397625 -30.460563 -0.312438 37.810013 0.936770 1.579060 0.114049 -0.027852 160944.000000 0 0 1
-23.085825 -29.268843 0.014862 37.277617 0.902952 1.570398 0.116129 -0.033304 35311.000000 0 0 1
-23.418225 -28.417763 -1.060738 36.838942 0.881550 1.599594 0.129644 -0.039901 49499.900000 0 0 1
-24.035425 -27.083403 -0.535638 36.214628 0.844953 1.585588 0.095382 -0.018878 -141382.000000 0 0 1
-25.357175 -27.188213 -0.071338 37.177820 0.820231 1.572715 0.095146 -0.020765 -254026.000000 0 0 1
-25.927575 -25.900193 0.203462 36.648336 0.784870 1.565245 0.103074 -0.040386 99107.700000 0 0 1
-25.510695 -25.087643 1.457262 35.809342 0.777037 1.530090 0.100613 -0.025986 -399137.000000 0 0 1
-26.120435 -25.562343 2.649462 36.643283 0.774600 1.498429 0.083778 -0.029284 83881.300000 0 0 1
-25.703245 -24.836103 3.781562 35.941467 0.768242 1.465387 0.095764 -0.034690 129870.000000 0 0 1
-26.603155 -23.579003 3.992762 35.772048 0.725207 1.458946 0.109390 -0.030066 -8014.790000 0 0 1
-26.538505 -22.601603 2.949462 34.983196 0.705453 1.486385 0.098166 -0.031495 -383346.000000 0 0 1
-27.502795 -21.618003 3.083162 35.117626 0.666164 1.482888 0.075357 -0.033092 -575147.000000 0 0 1
-27.192505 -20.449203 2.167162 34.092504 0.644790 1.507186 0.076189 -0.028146 -161836.000000 0 0 1
-25.933755 -19.881503 2.407162 32.766267 0.654057 1.497265 0.067264 -0.024592 -353193.000000 0 0 1
-25.757265 -18.845803 1.471362 31.949427 0.631666 1.524727 0.060036 -0.025778 -221957.000000 0 0 1
-24.384625 -18.210103 1.668362 30.479521 0.641441 1.516032 0.091319 -0.023038 38389.100000 0 0 1
-23.248625 -19.056903 1.458662 30.096375 0.686638 1.522311 0.093594 -0.035751 900414.000000 0 0 1
-22.063425 -18.277903 1.720662 28.702563 0.691835 1.510812 0.109336 -0.028679 745674.000000 0 0 1
-20.724725 -19.041303 1.543962 28.186331 0.743090 1.515992 0.100331 -0.036652 26547.900000 0 0 1
-20.412425 -19.295303 0.172662 28.089244 0.757272 1.564649 0.074683 -0.026030 -594.541000 0 0 1
-19.430425 -20.292303 0.059862 28.094885 0.807092 1.568666 0.098327 -0.018829 -118188.000000 0 0 1
-19.166825 -20.806403 -1.411038 28.324276 0.826392 1.620634 0.104982 -0.016300 -169229.000000 0 0 1
-18.407925 -19.900203 -2.152838 27.193832 0.824333 1.650046 0.103074 -0.019739 -96913.500000 0 0 1
-18.316925 -20.418103 -3.469538 27.648623 0.839590 1.696615 0.102289 -0.015050 340739.000000 0 0 1
-17.587425 -19.476503 -4.516738 26.628042 0.836322 1.741244 0.106017 -0.009132 1865800.000000 0 0 1
-16.135925 -19.479803 -4.457238 25.684582 0.879011 1.745217 0.127604 -0.011840 1634850.000000 0 0 1
-15.513425 -18.753903 -5.546538 24.962758 0.879682 1.794859 0.123830 -0.003861 345638.000000 0 1 0
-14.028225 -18.392903 -5.363538 23.745684 0.919218 1.798637 0.137090 -0.020997 16928.800000 0 1 0
-13.101425 -19.455903 -5.314938 24.050531 0.978153 1.793626 0.114091 -0.024601 167643.000000 0 1 0
-11.812425 -19.000403 -5.705838 23.089073 1.014578 1.820506 0.099469 -0.037089 -103588.000000 0 1 0
-10.777225 -20.100803 -5.690938 23.506970 1.078642 1.815322 0.091465 -0.043136 -375272.000000 0 1 0
-10.972325 -21.193703 -6.625338 24.768126 1.093076 1.841588 0.098827 -0.037306 299301.000000 0 1 0
-9.786725 -21.967103 -6.873738 25.011635 1.151676 1.849200 0.082762 -0.031251 684620.000000 0 0 1
-10.096825 -23.143503 -7.841838 26.439781 1.159418 1.871919 0.098087 -0.019961 55558.900000 0 0 1
-10.617625 -22.822203 -9.146938 26.781586 1.135348 1.919349 0.089465 -0.022178 133579.000000 0 0 1
-10.574125 -24.054403 -9.825538 28.052943 1.156631 1.928634 0.105927 -0.021090 -118612.000000 0 0 1
-11.240125 -23.933903 -11.209338 28.719704 1.131737 1.971755 0.140481 -0.027610 -202209.000000 0 0 1
-10.673025 -23.045503 -12.170938 28.162748 1.137079 2.017688 0.109562 -0.018875 -298466.000000 0 0 1
-11.495425 -22.653703 -13.231338 28.642684 1.101213 2.050983 0.117239 -0.033615 -635768.000000 0 0 1
-10.989625 -21.417403 -14.017938 27.856410 1.096711 2.098119 0.103098 -0.014306 -121409.000000 0 0 1
-10.813225 -20.331303 -13.191138 26.538535 1.081994 2.090999 0.102596 -0.013761 -47120.900000 0 0 1
-10.628225 -19.124903 -13.898938 25.921064 1.063567 2.136728 0.086173 0.001137 -78376.300000 0 0 1
-10.333625 -17.794803 -13.123338 24.406163 1.044681 2.138510 0.094197 -0.002368 309535.000000 0 1 0
-11.418525 -17.444903 -12.252238 24.183149 0.991231 2.102084 0.099533 -0.013164 317274.000000 0 1 0
-11.234925 -16.212903 -11.504138 22.834775 0.964810 2.098787 0.102193 -0.019169 1841.070000 0 1 0
-11.118925 -14.836303 -12.226338 22.208776 0.927653 2.153781 0.114007 -0.011961 520647.000000 0 1 0
-12.347925 -14.312103 -12.732138 22.790675 0.858940 2.163560 0.109966 0.001909 543504.000000 0 1 0
-12.147425 -13.811403 -14.044038 23.141948 0.849411 2.222907 0.132279 -0.016670 248762.000000 0 1 0
-13.339925 -12.957203 -14.554638 23.615253 0.770845 2.234862 0.127806 -0.012811 58039.500000 0 1 0
-13.451825 -11.656203 -14.037038 22.668416 0.714004 2.238562 0.101049 -0.008213 -375064.000000 0 1 0
-14.435125 -10.973003 -14.754138 23.376574 0.649972 2.253832 0.079481 -0.014089 -340875.000000 0 1 0
-14.681925 -9.473403 -14.270638 22.560040 0.573024 2.255654 0.076468 -0.026747 610259.000000 0 1 0
-13.568325 -8.565503 -14.419838 21.573108 0.563107 2.302875 0.066699 -0.020606 618530.000000 0 1 0
-13.328625 -7.975003 -15.690638 22.078248 0.539195 2.361265 0.063344 -0.015815 -793226.000000 0 1 0
-12.077625 -7.131903 -15.612238 20.987497 0.533409 2.409658 0.040308 -0.006975 -892746.000000 0 1 0
-10.926525 -7.892103 -15.822938 20.785562 0.625529 2.436030 0.038515 -0.002133 -880663.000000 0 1 0
-9.767225 -7.149603 -15.623738 19.764025 0.631881 2.482444 0.017711 0.010910 -242409.000000 0 1 0
11.864375 21.871897 15.886962 29.521837 1.073769 1.002564 0.100907 -0.031967 -289848.000000 0 0 1
12.459275 21.907497 17.149762 30.484198 1.053693 0.973295 0.132758 -0.045176 -140133.000000 0 0 1
12.866875 20.597797 17.551262 29.964521 1.012433 0.945010 0.125095 -0.036795 -398183.000000 0 0 1
14.083875 20.630397 18.464362 31.062864 0.971792 0.934253 0.132095 -0.039618 152786.000000 0 0 1
15.332075 20.917797 17.829262 31.472359 0.938285 0.968537 0.118178 -0.035673 562052.000000 0 0 1
16.410375 20.721197 18.740962 32.402038 0.900977 0.954045 0.124162 -0.041044 -14011.600000 0 0 1
17.777975 21.169397 18.250262 33.125094 0.872256 0.987294 0.095128 -0.029633 -1049220.000000 0 0 1
18.057175 22.505997 18.459362 34.253898 0.894638 1.001668 0.099189 -0.032733 9264.600000 0 0 1
19.255975 23.030897 17.909462 34.956596 0.874432 1.032896 0.086243 -0.025831 413340.000000 0 0 1
20.533175 22.686597 18.714962 35.868409 0.835182 1.021875 0.077709 -0.028977 -679947.000000 0 0 1
21.043975 21.444897 18.346262 35.203946 0.794834 1.022608 0.081196 -0.021154 296115.000000 0 0 1
22.385575 21.368697 18.831762 36.226654 0.762162 1.024142 0.091932 -0.028389 573731.000000 0 0 1
23.038075 19.950897 18.600562 35.703951 0.713708 1.022813 0.069508 -0.023558 57625.600000 0 0 1
23.319275 19.543197 17.280062 34.990366 0.697527 1.054282 0.059225 -0.025538 324529.000000 0 0 1
22.647375 18.312097 16.947262 33.696383 0.679948 1.043799 0.036610 -0.012931 171170.000000 0 0 1
23.489175 17.022397 17.079762 33.663357 0.627106 1.038667 0.034354 -0.018329 464030.000000 0 0 1
24.560375 16.754197 16.179562 33.848093 0.598655 1.072414 0.053812 -0.028063 439642.000000 0 0 1
25.243575 15.545097 16.385062 33.872679 0.551959 1.065890 0.030179 -0.001179 -198133.000000 0 0 1
26.645975 15.351597 15.733462 34.543036 0.522685 1.097892 0.143175 -0.037383 828734.000000 0 0 1
27.710975 16.156897 16.276562 35.970404 0.527863 1.101231 0.116060 -0.038668 827979.000000 0 0 1
28.319475 15.494497 17.409562 36.676491 0.500639 1.076197 0.120232 -0.053520 -384678.000000 0 0 1
29.667775 14.770697 17.244262 37.359269 0.461942 1.091022 0.125435 -0.057941 4284.440000 0 0 1
30.668475 15.574997 16.623662 38.203168 0.469908 1.120604 0.178151 -0.051350 370626.000000 0 0 1
31.428275 14.912997 15.565462 38.110597 0.443048 1.150064 0.175704 -0.057207 232209.000000 0 0 1
30.760775 14.388697 14.229262 36.820263 0.437526 1.174015 0.141876 -0.053124 -327126.000000 0 0 1
30.254575 15.452297 13.459462 36.541345 0.472205 1.193579 0.150663 -0.031937 232773.000000 0 0 1
29.348575 15.121897 12.394762 35.265291 0.475774 1.211653 0.132126 -0.034110 767885.000000 0 0 1
28.191775 16.182797 12.208362 34.723237 0.521102 1.211527 0.114381 -0.046778 132903.000000 0 0 1
28.487175 17.514697 11.854262 35.479674 0.551251 1.230131 0.099235 -0.027841 297423.000000 0 0 1
29.136475 18.381397 12.861462 36.772641 0.562811 1.213485 0.115210 -0.038151 -72904.100000 0 0 1
28.524575 18.468797 14.289662 36.863835 0.574594 1.172733 0.110406 -0.036723 -864895.000000 0 0 1
27.298575 19.108697 14.249462 36.240884 0.610718 1.166701 0.106587 -0.025190 -251353.000000 0 0 1
26.613475 19.145797 15.549362 36.285276 0.623629 1.127930 0.087541 -0.031822 292734.000000 0 0 1
27.218875 20.170497 16.550462 37.704561 0.637747 1.116365 0.087634 -0.044600 -200204.000000 0 0 1
26.921775 21.567297 16.351062 38.174435 0.675417 1.128158 0.069537 -0.027893 -404939.000000 0 0 1
25.608475 21.942597 16.623362 37.597975 0.708457 1.112819 0.083446 -0.026087 -755837.000000 0 0 1
25.433775 23.467197 16.303362 38.254227 0.745204 1.130525 0.084873 -0.022352 -42483.800000 0 0 1
25.403375 23.792897 14.871662 37.849700 0.752674 1.166998 0.114628 -0.038480 50853.900000 0 0 1
25.486375 25.180997 14.668062 38.714209 0.779371 1.182210 0.117575 -0.040715 -213989.000000 0 0 1
25.149075 25.580997 13.191362 38.221400 0.793912 1.218419 0.113974 -0.034525 -30977.800000 0 0 1
23.769975 25.501597 12.897062 37.170921 0.820528 1.216462 0.111732 -0.030795 5319.140000 0 0 1
23.622975 25.686097 11.533062 36.753667 0.827214 1.251611 0.105589 -0.039550 2763.660000 0 0 1
23.099575 24.390197 10.849462 35.301316 0.812568 1.258401 0.116115 -0.039517 367977.000000 0 0 1
21.725875 24.119997 11.173762 34.331339 0.837572 1.239289 0.110492 -0.038300 921924.000000 0 0 1
21.173375 22.848897 10.693162 32.935203 0.823441 1.240131 0.114763 -0.026397 292852.000000 0 0 1
21.046575 22.586797 9.172062 32.206342 0.820683 1.282008 0.127898 -0.024101 844679.000000 0 0 1
19.855775 23.177297 8.563962 31.698270 0.862431 1.297225 0.129891 -0.026553 851773.000000 0 0 1
20.072675 23.521397 7.248062 31.760082 0.864344 1.340555 0.123104 -0.032986 -707570.000000 0 0 1
18.866675 23.854897 6.384062 31.076740 0.901633 1.363894 0.105913 -0.029044 -1256150.000000 0 0 1
18.157575 22.686397 6.025762 29.676252 0.895828 1.366325 0.110954 -0.020191 109234.000000 0 0 1
17.375775 22.811597 4.850362 29.082856 0.919844 1.403236 0.120343 -0.032021 852534.000000 0 0 1
15.992175 23.538997 5.066062 28.905000 0.974036 1.394620 0.097855 -0.030762 155810.000000 0 0 1
16.127475 24.941397 5.282762 30.167471 0.996805 1.394774 0.109272 -0.039730 428954.000000 0 0 1
14.902175 25.418297 5.834562 30.036757 1.040528 1.375306 0.096965 -0.042705 403127.000000 0 0 1
14.712975 26.869497 5.367162 31.100610 1.069819 1.397354 0.086563 -0.040561 -262864.000000 0 0 1
14.520575 26.963797 3.961062 30.880147 1.076809 1.442170 0.068052 -0.027787 321107.000000 0 0 1
14.397075 28.313797 3.573662 31.964323 1.100386 1.458760 0.067842 -0.030587 -34638.500000 0 0 1
13.841475 28.584197 2.148462 31.831724 1.119840 1.503251 0.069311 -0.026265 -37414.300000 0 0 1
14.767675 28.306797 1.115662 31.946889 1.089939 1.535867 0.082403 -0.028382 41088.600000 0 0 1
14.659875 26.981097 0.708362 30.714708 1.073082 1.547732 0.074982 -0.022373 -380596.000000 0 0 1
15.680375 26.534197 -0.328138 30.822807 1.037058 1.581442 0.077363 -0.024999 -215352.000000 0 0 1
15.386575 26.874197 -1.665038 31.011957 1.050812 1.624512 0.075542 -0.016166 -283780.000000 0 0 1
16.498475 26.657897 -2.504338 31.450196 1.016598 1.650509 0.068895 -0.012757 -98096.200000 0 0 1
16.288675 27.216697 -3.934938 31.961747 1.031495 1.694223 0.068438 -0.017777 -739971.000000 0 0 1
15.256475 26.618297 -4.657238 31.031978 1.050348 1.721444 0.089245 -0.025829 -599461.000000 0 0 1
15.079375 27.269197 -5.871738 31.709209 1.065667 1.757046 0.092584 -0.026039 94463.000000 0 0 1
13.775775 26.889197 -6.591738 30.923323 1.097344 1.785609 0.114575 -0.043895 57226.900000 0 0 1
13.810075 25.546397 -7.093538 29.894060 1.075208 1.810371 0.105186 -0.042611 -1161100.000000 0 0 1
12.635375 25.319497 -7.752638 29.339956 1.107919 1.838207 0.078860 -0.040075 -1053110.000000 0 0 1
12.421975 23.843197 -8.192238 28.105449 1.090501 1.866572 0.089543 -0.031997 -153791.000000 0 0 1
13.318375 23.341297 -9.145638 28.387285 1.052281 1.898821 0.087502 -0.032107 -146553.000000 0 0 1
12.838475 22.131697 -9.571338 27.317558 1.045142 1.928766 0.088342 -0.028467 -436343.000000 0 0 1
13.071075 21.842197 -11.014538 27.735440 1.031530 1.979182 0.097030 -0.024209 -154081.000000 0 0 1
12.657475 20.604197 -11.479238 26.767845 1.019917 2.014009 0.111126 -0.021922 -146281.000000 0 0 1
12.574075 20.456597 -12.889938 27.253077 1.019659 2.063457 0.102412 -0.024853 23936.000000 0 0 1
13.803475 19.751697 -13.511138 27.626370 0.960843 2.081816 0.100458 -0.024922 540767.000000 0 0 1
14.981975 20.555197 -13.377438 28.739025 0.940959 2.054973 0.089216 -0.030021 -480742.000000 0 0 1
16.101675 19.902297 -13.890238 29.125660 0.890570 2.067929 0.076316 -0.021595 -339882.000000 0 0 1
17.395175 20.671397 -13.568838 30.232633 0.871252 2.036234 0.068527 -0.015477 -310419.000000 0 0 1
17.611375 21.929097 -14.175638 31.495945 0.894165 2.037649 0.057008 -0.017714 261558.000000 0 0 1
16.565575 22.921997 -14.010338 31.561460 0.945002 2.030750 0.057254 -0.017531 329456.000000 0 0 1
16.946575 24.329197 -14.526738 33.017001 0.962388 2.026370 0.058681 -0.017575 16326.700000 0 0 1
17.170275 24.306697 -15.934838 33.757265 0.955787 2.062402 0.050297 -0.020454 459544.000000 0 0 1
15.954175 24.528897 -16.670938 33.676738 0.994123 2.088664 0.054445 -0.014075 562956.000000 0 0 1
16.139275 24.631197 -18.196638 34.616321 0.990748 2.124295 0.055580 -0.003677 104189.000000 0 0 1
16.308975 23.392197 -18.764738 34.136387 0.961954 2.152800 0.048412 -0.001049 -161831.000000 0 0 1
16.064675 23.469097 -20.146938 34.853571 0.970547 2.187127 0.054554 0.003042 -196863.000000 0 0 1
16.537175 22.180797 -20.811138 34.620361 0.930141 2.215703 0.059965 0.001521 104087.000000 0 0 1
15.704575 21.061497 -20.590138 33.379247 0.930083 2.235536 0.058952 -0.000275 272546.000000 0 0 1
16.448875 19.903897 -20.985738 33.273590 0.880155 2.253255 0.047044 0.002414 611510.000000 0 0 1
15.598375 18.607997 -21.321238 32.313496 0.873156 2.291382 0.045990 -0.000464 -117155.000000 0 0 1
15.116775 17.767097 -20.247138 30.889047 0.865821 2.285614 0.053248 -0.004899 536542.000000 0 0 1
14.226175 16.748697 -20.729138 30.209271 0.866657 2.327027 0.058875 -0.012356 440009.000000 0 0 1
12.754775 17.217297 -20.824638 29.879510 0.933202 2.341937 0.075860 -0.020282 -299092.000000 0 0 1
12.023975 17.304997 -19.576038 28.762130 0.963551 2.319403 0.069776 -0.029371 21238.500000 0 0 1
10.698075 17.639097 -19.877738 28.648054 1.025613 2.337632 0.086054 -0.030796 -405411.000000 0 0 1
9.512875 17.171897 -19.048738 27.353670 1.064903 2.341147 0.099875 -0.034497 -472533.000000 0 0 1
9.414075 15.725097 -19.089438 26.463373 1.031359 2.376550 0.117365 -0.046831 508965.000000 0 0 1
8.142375 15.173297 -18.738538 25.449165 1.078280 2.398401 0.123089 -0.038082 866123.000000 0 0 1
7.630975 15.314197 -17.206238 24.265429 1.108514 2.358995 0.119819 -0.040430 218257.000000 0 1 0
7.397475 16.582497 -16.862638 24.780040 1.151189 2.319231 0.124563 -0.042321 -489685.000000 0 1 0
6.529775 16.713997 -15.777238 23.893867 1.198353 2.292021 0.096540 -0.045117 -297754.000000 0 1 0
6.225975 18.191597 -15.540838 24.722755 1.241047 2.250554 0.086324 -0.034483 -577335.000000 0 1 0
7.339075 18.979997 -15.201838 25.400752 1.201830 2.212399 0.079274 -0.034205 -175659.000000 0 0 1
7.826775 19.664897 -16.373338 26.759162 1.192009 2.229229 0.092454 -0.033864 44634.100000 0 0 1
9.120875 20.503097 -16.185138 27.668141 1.152230 2.195644 0.085648 -0.022685 228339.000000 0 0 1
9.011575 21.743597 -15.498038 28.181229 1.177898 2.153091 0.074086 -0.031690 -57902.500000 0 0 1
8.876275 21.564797 -14.094938 27.248780 1.180322 2.114453 0.067616 -0.029414 -300940.000000 0 0 1
8.542375 22.764997 -13.255138 27.693247 1.211814 2.069903 0.067831 -0.029382 -66164.400000 0 0 1
7.304575 23.404697 -13.554638 28.015440 1.268277 2.075819 0.061074 -0.025103 255899.000000 0 0 1
6.818575 24.269897 -12.496338 28.136797 1.296909 2.030997 0.049278 -0.026268 342159.000000 0 0 1
6.193175 23.643597 -11.217338 26.892448 1.314613 2.001069 0.032266 -0.022973 -407127.000000 0 0 1
7.132875 23.251497 -10.255738 26.394889 1.273140 1.969854 0.027453 -0.020666 138006.000000 0 0 1
6.400175 22.783597 -9.126538 25.364310 1.296943 1.938869 0.033171 -0.029061 629303.000000 0 0 1
7.356475 22.531897 -7.930138 24.993823 1.255216 1.893660 0.018743 -0.034561 207714.000000 0 1 0
7.676575 23.718097 -7.238538 25.959090 1.257778 1.853387 0.033730 -0.031976 -586371.000000 0 0 1
8.784175 23.617397 -6.433638 26.006439 1.214714 1.820778 0.046335 -0.028680 -883610.000000 0 0 1
9.087475 25.016697 -5.743738 27.228806 1.222361 1.783336 0.036701 -0.026792 4656.090000 0 0 1
9.509475 26.039597 -6.586438 28.493366 1.220651 1.804063 0.056724 -0.037003 41754.400000 0 0 1
9.625675 27.223797 -5.826338 29.457341 1.230940 1.769898 0.044911 -0.025604 156073.000000 0 0 1
9.741775 28.549997 -6.645538 30.889605 1.241966 1.787630 0.046342 -0.016074 1128870.000000 0 0 1
11.062175 28.575197 -7.239938 31.485398 1.201438 1.802818 0.057248 -0.018857 710453.000000 0 0 1
11.227775 29.758197 -8.040838 32.806528 1.210011 1.818418 0.055269 -0.007972 1063080.000000 0 0 1
12.675475 30.043297 -8.643238 33.733854 1.171548 1.829904 0.062388 -0.014048 1248270.000000 0 0 1
13.672275 30.370297 -7.698338 34.184067 1.147788 1.797947 0.071306 -0.016818 -1545880.000000 0 0 1
14.814475 30.565397 -8.397538 34.989010 1.119479 1.813167 0.065304 -0.015990 -853499.000000 0 0 1
16.049875 31.101797 -7.607338 35.816084 1.094397 1.784827 0.071669 -0.020932 419147.000000 0 0 1
16.659575 30.105697 -6.827338 35.078583 1.065370 1.766676 0.077994 -0.029010 -4903.980000 0 0 1
17.819875 30.587397 -6.162438 35.932053 1.043278 1.743151 0.072466 -0.019997 138217.000000 0 0 1
18.935175 29.561697 -5.945738 35.605991 1.001107 1.738569 0.073940 -0.022757 -435719.000000 0 0 1
18.755175 28.647597 -4.857338 34.583741 0.991134 1.711714 0.070821 -0.027394 -443437.000000 0 0 1
19.914575 27.909497 -4.586638 34.591438 0.951040 1.703783 0.060842 -0.024123 -484400.000000 0 0 1
20.330475 26.771597 -5.533738 34.068591 0.921303 1.733948 0.049588 -0.006983 -468084.000000 0 0 1
20.791275 27.193897 -6.782038 34.896722 0.918044 1.766387 0.044323 -0.013822 149326.000000 0 0 1
20.598275 26.175997 -7.705538 34.188405 0.904085 1.798134 0.032057 -0.011977 -1072330.000000 0 0 1
21.084575 26.466697 -9.139138 35.050951 0.898104 1.834584 0.034611 -0.018560 1834800.000000 0 0 1
22.521775 26.557897 -9.441338 36.078956 0.867450 1.835564 0.024579 -0.011103 1759400.000000 0 0 1
23.136975 25.323297 -9.234538 35.522749 0.830483 1.833778 0.032025 -0.008483 -215332.000000 0 0 1
24.705675 25.399997 -9.278538 36.628152 0.799254 1.826904 0.012959 -0.005507 684117.000000 0 0 1
25.266875 25.558297 -10.533938 37.451373 0.791132 1.855913 0.021572 -0.005127 -609650.000000 0 0 1
26.656575 25.680597 -10.385938 38.443904 0.766752 1.844354 0.022587 0.006991 -105498.000000 0 0 1
27.416175 25.539797 -11.742238 39.265863 0.749980 1.874487 0.037498 -0.001513 -12165.900000 0 0 1
27.190375 26.671497 -12.599938 40.117872 0.775765 1.890276 0.030007 0.001009 -92461.100000 0 0 1
27.963275 26.587597 -13.775538 40.970849 0.760185 1.913705 0.042565 -0.006185 72808.900000 0 0 1
27.986675 27.779097 -14.749638 42.100879 0.781676 1.928731 0.049551 -0.015127 35437.400000 0 0 1
28.509775 29.042997 -14.346738 43.152426 0.794663 1.909714 0.051306 -0.012734 64468.900000 0 0 1
28.383275 29.943197 -15.419738 44.045132 0.812136 1.928463 0.055738 -0.013393 -109497.000000 0 0 1
28.953775 31.351497 -15.140938 45.282286 0.825137 1.911731 0.055548 -0.017578 60545.100000 0 0 1
30.291675 31.294997 -14.700438 45.968090 0.801688 1.896311 0.048272 -0.016268 -205161.000000 0 0 1
30.852175 32.573197 -14.610538 47.184083 0.812526 1.885621 0.057989 -0.018998 -190550.000000 0 0 1
15.821775 -32.100910 -28.260571 45.601062 -1.112864 2.239201 0.112488 -0.041430 -521923.000000 0 0 1
17.048075 -32.705410 -27.930901 46.264629 -1.090284 2.218956 0.091374 -0.030598 164619.000000 0 0 1
17.591775 -32.015610 -26.783031 45.296805 -1.068356 2.203440 0.088042 -0.032115 -845187.000000 0 0 1
18.764575 -32.689810 -26.076931 45.833822 -1.049700 2.176019 0.051810 -0.024939 46989.500000 0 0 1
20.048175 -32.231810 -26.483091 46.283615 -1.014357 2.179972 0.088928 -0.039404 338673.000000 0 0 1
20.482875 -32.814510 -27.739441 47.600597 -1.012771 2.192910 0.089429 -0.030748 105445.000000 0 0 1
22.013375 -32.537310 -27.976121 48.227881 -0.975977 2.189626 0.095935 -0.031378 704916.000000 0 0 1
22.314575 -31.169410 -28.249491 47.618338 -0.949470 2.205884 0.087005 -0.038127 440723.000000 0 0 1
23.616975 -30.803310 -27.800681 47.743934 -0.916691 2.192336 0.052369 -0.028662 216992.000000 0 0 1
24.177875 -29.521710 -28.491131 47.621902 -0.884585 2.212147 0.025255 -0.018395 54662.400000 0 0 1
24.452675 -29.617010 -29.884791 48.664169 -0.880622 2.232045 0.027124 -0.019765 -44465.100000 0 0 1
25.232475 -28.598110 -30.444411 48.799506 -0.847840 2.244478 0.017202 -0.023673 -2279.330000 0 0 1
25.463475 -28.774710 -31.936821 49.963317 -0.846372 2.264261 0.022244 -0.008707 -85759.800000 0 0 1
26.613875 -29.536410 -32.188661 51.154743 -0.837400 2.251373 0.035953 -0.016452 -341354.000000 0 0 1
26.581675 -30.057310 -33.502991 52.273107 -0.846686 2.266495 0.030117 -0.012904 -273524.000000 0 0 1
27.868175 -30.840110 -33.778161 53.560356 -0.835977 2.253195 0.024931 -0.012544 -683181.000000 0 0 1
28.990375 -30.051110 -33.844301 53.748932 -0.803362 2.251930 0.027693 -0.015394 -919882.000000 0 0 1
30.167375 -30.818210 33.888182 54.847438 -0.796070 0.904775 0.026343 -0.008023 547276.000000 0 0 1
31.493975 -30.034110 33.712852 55.049747 -0.761676 0.911695 0.043933 -0.013431 285209.000000 0 0 1
31.545275 -29.366910 32.437392 53.941674 -0.749651 0.925617 0.051560 -0.009598 205694.000000 0 0 1
32.626375 -28.436210 32.349622 54.033290 -0.716885 0.928922 0.064823 -0.013020 393130.000000 0 0 1
32.856975 -27.810110 30.935562 53.009358 -0.702400 0.947658 0.065124 -0.015741 -698120.000000 0 0 1
33.775975 -26.776710 30.941282 53.058191 -0.670319 0.948186 0.079073 -0.020214 -401945.000000 0 0 1
33.824875 -25.916110 29.772072 51.982143 -0.653779 0.960956 0.060396 -0.017046 -375404.000000 0 0 1
34.661375 -26.360210 28.562122 52.077504 -0.650192 0.990282 0.067846 -0.006737 -354202.000000 0 0 1
34.284475 -27.474510 27.738732 51.958745 -0.675575 1.007637 0.055286 -0.014286 151389.000000 0 0 1
33.068975 -27.201310 27.071312 50.658902 -0.688348 1.007017 0.057676 -0.016246 -138728.000000 0 0 1
32.597675 -28.115710 25.919312 50.248505 -0.711710 1.028829 0.052637 -0.014571 402345.000000 0 0 1
31.298575 -27.751010 25.463352 48.970416 -0.725393 1.023976 0.053533 -0.012315 295608.000000 0 0 1
30.729375 -28.659210 24.559132 48.670276 -0.750554 1.041875 0.063481 -0.010211 105925.000000 0 0 1
29.275775 -28.249410 24.253132 47.363642 -0.767558 1.033212 0.077015 -0.010109 -179523.000000 0 0 1
28.316575 -28.349010 25.281552 47.377755 -0.785971 1.007925 0.066395 -0.012938 823678.000000 0 0 1
27.073175 -27.920010 24.675342 46.058183 -0.800796 1.005409 0.062920 -0.008099 1522220.000000 0 0 1
25.788875 -27.771910 25.568382 45.717472 -0.822405 0.977292 0.074186 -0.019472 629481.000000 0 0 1
25.889675 -26.731410 26.491062 45.679535 -0.801393 0.952150 0.053475 -0.017974 137018.000000 0 0 1
24.735975 -26.691910 27.314322 45.501634 -0.823412 0.926929 0.045629 -0.022645 59668.900000 0 0 1
24.772575 -25.681610 28.499702 45.666821 -0.803413 0.896844 0.036834 -0.011877 -795610.000000 0 0 1
23.598375 -25.856110 29.235142 45.608281 -0.831019 0.874989 0.048467 -0.015404 -162168.000000 0 0 1
23.393175 -24.762910 30.100762 45.458753 -0.813834 0.847105 0.037172 -0.013370 -165497.000000 0 0 1
22.814675 -23.438010 29.610172 44.120426 -0.798874 0.835076 0.045125 -0.006902 -232834.000000 0 0 1
23.697375 -22.858410 28.632422 43.633566 -0.767379 0.855022 0.054013 -0.006474 549397.000000 0 0 1
23.425075 -21.485810 28.462832 42.667399 -0.742245 0.840506 0.070910 0.003617 -54515.900000 0 0 1
24.174575 -20.504910 29.399612 43.234229 -0.703449 0.823023 0.050991 -0.000639 -239265.000000 0 0 1
23.770675 -20.480410 30.772732 43.948302 -0.711180 0.795115 0.048893 -0.003736 95190.300000 0 0 1
24.518275 -19.571510 31.575092 44.510406 -0.673668 0.782169 0.048391 -0.008121 -102381.000000 0 0 1
23.827175 -19.124210 32.915570 44.909959 -0.676338 0.748187 0.054104 -0.002276 -131195.000000 0 0 1
23.653575 -20.190110 33.805943 45.934453 -0.706566 0.743712 0.032167 -0.002715 -51224.300000 0 0 1
23.136175 -19.727410 -32.870951 44.776698 -0.706039 2.395149 0.050637 -0.007876 -210995.000000 0 0 1
23.091675 -20.845210 -31.851341 44.522535 -0.734313 2.367990 0.037264 0.001232 1071210.000000 0 0 1
24.407675 -21.216410 -31.365961 45.052127 -0.715565 2.340907 0.038736 0.001091 989257.000000 0 0 1
24.246675 -22.020610 -30.246151 44.582936 -0.737322 2.316412 0.041066 -0.011694 -349176.000000 0 0 1
25.537875 -22.344910 -29.507651 44.968650 -0.718814 2.286545 0.035103 0.000757 -435654.000000 0 0 1
26.405775 -23.170810 -30.228841 46.345811 -0.720239 2.281339 0.034447 0.004859 -4934.070000 0 0 1
27.562575 -23.495110 -29.456801 46.684246 -0.705902 2.253611 0.048605 -0.005725 656790.000000 0 0 1
28.694775 -24.336210 -30.122141 48.197350 -0.703393 2.245896 0.047084 -0.005758 636923.000000 0 0 1
29.539575 -23.552110 -31.023511 48.885034 -0.673097 2.258315 0.046040 -0.003403 535029.000000 0 0 1
29.066675 -23.348810 -32.374031 49.377286 -0.676740 2.285834 0.039173 -0.002161 141053.000000 0 0 1
29.446575 -24.555410 -33.249611 50.750424 -0.695071 2.285190 0.034552 -0.003346 332262.000000 0 0 1
28.429075 -25.519610 -33.007521 50.487218 -0.731520 2.283365 0.032469 -0.013718 83355.800000 0 0 1
28.603475 -26.727910 -33.739411 51.680633 -0.751514 2.282130 0.032429 -0.015498 53248.300000 0 0 1
28.042975 -26.866610 32.689240 50.762285 -0.763978 0.871124 0.030691 -0.021790 -47503.300000 0 0 1
28.706675 -25.949710 31.839012 50.111708 -0.734999 0.882321 0.043344 -0.027621 -136265.000000 0 0 1
28.514775 -26.154110 30.470792 49.250371 -0.742244 0.903720 0.022289 -0.027013 -156154.000000 0 0 1
29.707975 -25.615710 29.628212 49.158512 -0.711563 0.923906 0.033118 -0.021479 139098.000000 0 0 1
29.960775 -24.182010 29.504632 48.507123 -0.679069 0.916938 0.013378 -0.020914 274618.000000 0 0 1
30.496075 -23.492410 30.686022 49.229421 -0.656393 0.897806 0.024418 -0.010412 -504268.000000 0 0 1
31.124175 -22.067810 30.463262 48.823282 -0.616757 0.897010 0.030634 -0.004300 1350370.000000 0 0 1
32.476075 -21.937910 29.982742 49.345032 -0.594100 0.917743 0.053027 -0.011552 698832.000000 0 0 1
33.507375 -22.351810 30.846682 50.733277 -0.588283 0.917236 0.053143 -0.011995 -661516.000000 0 0 1
34.818175 -21.729610 30.334462 51.035878 -0.557943 0.934308 0.053949 -0.012796 -371175.000000 0 0 1
35.330475 -22.340310 29.174322 50.975219 -0.563849 0.961460 0.075220 -0.023194 708372.000000 0 0 1
36.630575 -21.795010 28.882542 51.488083 -0.536731 0.975256 0.065318 -0.023649 895238.000000 0 0 1
37.078375 -22.176210 27.425852 51.173895 -0.539014 1.005182 0.075192 -0.024785 -168126.000000 0 0 1
-36.857826 -23.455410 27.230742 51.479791 0.566738 1.013422 0.068555 -0.015535 113246.000000 0 0 1
-36.628926 -23.628210 25.812462 50.658205 0.572901 1.036144 0.051097 -0.005828 -232807.000000 0 0 1
-36.385726 -25.126010 25.444352 51.016198 0.604353 1.048640 0.048516 -0.012208 234040.000000 0 0 1
36.810775 -25.911710 25.542612 51.757849 -0.613350 1.054684 0.056175 -0.009049 395898.000000 0 0 1
36.925875 -27.310710 25.234792 52.404101 -0.636818 1.068383 0.037376 -0.002383 405854.000000 0 0 1
-36.503126 -28.171510 26.172062 53.019704 0.657280 1.054539 0.027561 -0.004707 -341827.000000 0 0 1
-36.299126 -29.492610 25.677362 53.355108 0.682309 1.068712 0.029253 -0.004738 -134471.000000 0 0 1
-35.292926 -30.199710 26.324352 53.390866 0.707787 1.055205 0.028641 -0.017099 -473038.000000 0 0 1
-33.862426 -29.708710 26.089552 52.057046 0.720151 1.045843 0.020499 -0.017370 -1101010.000000 0 0 1
-33.215826 -30.042710 24.881982 51.234447 0.735279 1.063690 0.019756 -0.020751 258479.000000 0 0 1
-32.002426 -29.391510 24.572482 49.918163 0.742897 1.056117 -0.004876 -0.010660 -32700.800000 0 0 1
-31.617826 -29.402510 23.118122 48.975934 0.749110 1.079204 0.008904 -0.011416 -622715.000000 0 0 1
-31.336726 -30.665510 22.663962 49.356044 0.774573 1.093709 0.020982 -0.015958 326679.000000 0 0 1
-30.931426 -30.611410 21.322662 48.460989 0.780198 1.115202 0.021794 -0.015436 -519614.000000 0 0 1
-31.050326 -32.029910 20.610662 49.140994 0.800926 1.137991 0.038758 -0.024023 395319.000000 0 0 1
-30.087826 -33.046710 20.975162 49.369218 0.832230 1.131986 0.057862 -0.037779 853429.000000 0 0 1
-28.788726 -32.771110 20.456162 48.178740 0.849999 1.132288 0.061698 -0.035462 283157.000000 0 0 1
-27.800926 -33.965010 20.390662 48.397236 0.884866 1.135897 0.061169 -0.027340 158292.000000 0 0 1
-28.167726 33.027797 19.436062 47.560663 -0.864651 1.149813 0.058752 -0.021169 -273544.000000 0 0 1
-29.271726 32.209797 19.701162 47.774897 -0.833150 1.145737 0.073991 -0.021933 -446048.000000 0 0 1
-29.291226 31.314297 20.949062 47.722367 -0.818767 1.116336 0.079981 -0.016214 294530.000000 0 0 1
-28.440626 30.139497 20.886862 46.406029 -0.814391 1.103931 0.072456 -0.024917 304316.000000 0 0 1
-28.343726 29.446097 22.084262 46.455937 -0.804471 1.075399 0.072929 -0.021433 378524.000000 0 0 1
-27.369726 28.215397 21.894262 44.995214 -0.800611 1.062613 0.078504 -0.027054 277688.000000 0 0 1
-26.004626 28.517897 21.909262 44.379351 -0.831462 1.054478 0.067755 -0.025158 -373847.000000 0 0 1
-25.209526 27.608597 21.164162 42.961339 -0.830788 1.055684 0.059555 -0.030189 -45184.500000 0 0 1
-23.747626 28.060597 21.068462 42.370119 -0.868455 1.050372 0.044043 -0.025908 -505634.000000 0 0 1
-23.055426 27.903297 22.257662 42.491766 -0.880246 1.019477 0.059489 -0.026171 -792246.000000 0 0 1
-21.772926 28.417397 22.230162 42.140110 -0.917018 1.015106 0.077349 -0.031266 -695052.000000 0 0 1
-21.291826 28.644397 23.727382 42.858278 -0.931587 0.984086 0.067043 -0.026713 -308772.000000 0 0 1
-20.924226 27.430997 24.292062 42.194634 -0.919157 0.957319 0.078498 -0.034330 203391.000000 0 0 1
-20.579826 27.487097 25.676482 42.876001 -0.928122 0.928726 0.082021 -0.033053 11636.300000 0 0 1
-19.213426 27.976697 26.208732 42.880636 -0.969008 0.913218 0.102019 -0.025221 -532455.000000 0 0 1
-18.930526 29.352597 25.957812 43.517213 -0.997990 0.931669 0.086571 -0.024083 -244968.000000 0 0 1
-17.685126 29.735597 26.465472 43.559048 -1.034249 0.917790 0.101884 -0.023418 -607356.000000 0 0 1
-17.519226 29.830697 28.009352 44.511994 -1.039776 0.890203 0.086223 -0.012424 -444999.000000 0 0 1
-17.530426 28.596597 28.738342 44.169826 -1.020855 0.862379 0.092544 -0.013105 166562.000000 0 0 1
-17.790526 28.811697 30.135882 45.329771 -1.017626 0.843551 0.080829 -0.000949 -174902.000000 0 0 1
-17.356226 27.644797 30.995262 45.013106 -1.010165 0.811263 0.075206 0.002029 888717.000000 0 0 1
-15.927626 27.461197 31.158162 44.481881 -1.045209 0.794742 0.077626 0.007749 1269980.000000 0 0 1
-15.563626 26.466597 32.072412 44.399852 -1.039212 0.763596 0.079916 0.004687 -228679.000000 0 0 1
-15.985326 26.580097 33.573448 45.707862 -1.029347 0.745834 0.086020 0.018717 -765987.000000 0 0 1
-17.234526 26.082897 33.906122 46.119102 -0.986894 0.744855 0.091218 0.012159 -897897.000000 0 0 1
-17.854826 26.835797 -32.955021 46.097595 -0.983715 2.367273 0.089421 0.015180 584520.000000 0 0 1
-19.160926 26.111397 -32.455361 45.850808 -0.937735 2.357242 0.062568 0.011746 388797.000000 0 0 1
-20.151126 26.166997 -33.431661 46.994208 -0.914557 2.362284 0.053662 0.010810 -970098.000000 0 0 1
-21.393726 25.709997 -32.982041 46.973508 -0.876776 2.349197 0.055788 0.004487 123539.000000 0 0 1
-22.486826 25.925797 33.782321 48.156511 -0.856314 0.793281 0.062969 -0.016346 105300.000000 0 0 1
-22.393626 25.102097 32.681305 46.900506 -0.842362 0.799839 0.058987 -0.010866 -7347.340000 0 0 1
-22.427826 23.678197 32.789971 46.247666 -0.812511 0.782706 0.049078 -0.010248 -368279.000000 0 0 1
-22.887726 22.883997 31.550892 45.199382 -0.785317 0.798142 0.058961 -0.014022 455056.000000 0 0 1
-24.285526 22.745997 31.316342 45.693331 -0.752676 0.815700 0.068034 -0.018588 224266.000000 0 0 1
-24.604426 22.368597 30.006942 44.790049 -0.737836 0.836659 0.083071 -0.014771 -41669.100000 0 0 1
-26.093526 22.039197 29.830472 45.348158 -0.701364 0.852889 0.093953 -0.020786 -143238.000000 0 0 1
-26.474826 20.790097 30.401002 45.358191 -0.665699 0.836260 0.094692 -0.023781 -692639.000000 0 0 1
-27.678626 20.427497 29.808212 45.518332 -0.635792 0.856797 0.110561 -0.026632 -648733.000000 0 0 1
-28.228626 19.218597 30.601762 45.854963 -0.597737 0.840138 0.131304 -0.030676 -292661.000000 0 0 1
-28.970126 19.544897 31.778342 47.234884 -0.593514 0.832846 0.125965 -0.020859 86146.700000 0 0 1
-29.156726 18.526297 32.712348 47.575583 -0.566046 0.812636 0.106930 -0.014656 56689.500000 0 0 1
-29.887726 17.188897 32.277539 47.228952 -0.521921 0.818350 0.086482 -0.020567 -416664.000000 0 0 1
-31.224026 17.418797 31.932035 47.937555 -0.508862 0.841805 0.064241 -0.021759 -702652.000000 0 0 1
-31.842526 16.302297 31.391392 47.593391 -0.473175 0.850544 0.065253 -0.016430 211158.000000 0 0 1
-33.384426 16.413997 31.194842 48.549536 -0.456958 0.872993 0.056591 -0.009351 54123.900000 0 0 1
-33.993926 16.414997 32.427967 49.765573 -0.449858 0.861085 0.046897 -0.010245 -32746.200000 0 0 1
-35.376926 16.697797 32.302083 50.732316 -0.440995 0.880564 0.068261 -0.012084 104176.000000 0 0 1
-36.058726 16.801397 33.705786 52.140183 -0.436035 0.867880 0.067792 -0.013124 -474083.000000 0 0 1
36.991475 17.208697 33.716663 52.927515 0.435428 0.880151 0.062718 -0.015418 -436514.000000 0 0 1
36.658375 17.831197 -32.918411 52.396659 0.452721 2.250103 0.059598 -0.016883 1351840.000000 0 0 1
35.096875 17.990297 -32.698971 51.231476 0.473669 2.263031 0.051671 -0.017763 1451110.000000 0 0 1
34.429575 16.728297 -32.505821 50.218124 0.452280 2.274824 0.056327 -0.011360 283264.000000 0 0 1
33.141275 17.007297 -31.967131 49.086553 0.474133 2.280014 0.053425 -0.011011 450848.000000 0 0 1
32.119775 15.837797 -31.971791 48.007408 0.458101 2.299598 0.059711 -0.009378 39115.900000 0 0 1
31.393075 15.627297 -33.142581 48.251096 0.461882 2.327980 0.067201 -0.021304 65553.800000 0 0 1
30.633875 14.397997 -33.137031 47.368760 0.439363 2.345570 0.066630 -0.029904 288135.000000 0 0 1
31.375075 13.085797 -33.548831 47.761464 0.395140 2.349595 0.068937 -0.023916 -289091.000000 0 0 1
32.148675 12.584097 -32.528041 47.433851 0.373100 2.326438 0.068188 -0.018091 -217793.000000 0 0 1
32.990375 11.568997 -33.075241 48.126688 0.337279 2.328498 0.085433 -0.013705 -15466.800000 0 0 1
17.775375 -21.020703 9.845479 29.236405 -0.868855 1.227329 0.011205 -0.001322 -77572.300000 0 0 1
17.604475 -22.320603 10.334179 30.247679 -0.902978 1.222122 0.015129 -0.008623 34920.800000 0 0 1
18.855575 -22.963103 10.430479 31.490184 -0.883306 1.233190 0.008171 -0.010087 -289412.000000 0 0 1
18.777875 -24.385703 11.218579 32.758627 -0.914595 1.221260 0.018480 -0.003602 -246130.000000 0 0 1
17.997375 -25.396223 10.659479 32.901339 -0.954280 1.240860 0.019543 -0.007812 -309482.000000 0 0 1
16.622375 -25.267423 10.953579 32.167171 -0.988917 1.223326 0.028278 -0.012119 -178510.000000 0 0 1
15.742875 -26.174103 10.055179 32.156312 -1.029298 1.252765 0.057926 -0.023697 -117389.000000 0 0 1
15.592475 -25.657853 8.803279 31.288151 -1.024729 1.285584 0.061721 -0.023417 106454.000000 0 0 1
14.677175 -26.454933 8.066479 31.310558 -1.064276 1.310230 0.081166 -0.019860 -10803.600000 0 0 1
14.425675 -25.889703 6.669179 30.378525 -1.062444 1.349458 0.085670 -0.019598 -438889.000000 0 0 1
13.574275 -24.792503 6.728479 29.055147 -1.069863 1.337099 0.096442 -0.023282 -160725.000000 0 0 1
13.350375 -24.154803 5.470479 28.135621 -1.065882 1.375117 0.106777 -0.015204 148704.000000 0 0 1
12.664075 -22.777303 5.811979 26.701375 -1.063362 1.351374 0.113795 -0.017094 71604.600000 0 0 1
12.067275 -22.215903 4.655879 25.706861 -1.073203 1.388677 0.111348 -0.018228 183583.000000 0 0 1
11.349775 -20.990703 4.937579 24.368149 -1.075118 1.366759 0.109310 -0.017215 696811.000000 0 1 0
10.432475 -20.550503 3.753379 23.350537 -1.101047 1.409355 0.086577 -0.023380 365909.000000 0 1 0
11.157875 -19.765803 2.793479 22.868945 -1.056886 1.448339 0.073467 -0.024669 550112.000000 0 1 0
10.324275 -19.452503 1.668379 22.085606 -1.082858 1.495183 0.050572 -0.012387 386414.000000 0 1 0
11.169975 -19.004103 0.457079 22.048428 -1.039421 1.550064 0.049763 -0.014136 -105777.000000 0 1 0
11.684275 -17.732703 0.499079 21.241942 -0.988182 1.547299 0.039875 -0.020186 41179.200000 0 1 0
12.587875 -17.697003 -0.622721 21.726166 -0.952527 1.599463 0.052932 -0.017185 572409.000000 0 1 0
13.908875 -16.853203 -0.540021 21.858154 -0.880820 1.595505 0.056072 -0.010536 622975.000000 0 1 0
14.869575 -17.462103 0.304979 22.937356 -0.865412 1.557500 0.063040 -0.015600 -481340.000000 0 1 0
15.996175 -16.619903 0.397279 23.070687 -0.804519 1.553575 0.056466 -0.023859 -656218.000000 0 1 0
17.059275 -17.417503 1.126479 24.406090 -0.795788 1.524624 0.036240 -0.015741 -753659.000000 0 1 0
17.614075 -18.514603 0.415479 25.558145 -0.810319 1.554539 0.061618 -0.022161 580268.000000 0 0 1
18.868675 -18.820003 1.032279 26.669927 -0.784107 1.532081 0.053123 -0.012656 747027.000000 0 0 1
19.512875 -20.159503 0.584279 28.062417 -0.801696 1.549974 0.046647 -0.017982 -46244.800000 0 0 1
18.829075 -21.241903 1.107779 28.407388 -0.845539 1.531790 0.064115 -0.013277 -106281.000000 0 0 1
19.044075 -22.399603 0.317979 29.402723 -0.866188 1.559982 0.073258 -0.020085 301133.000000 0 0 1
17.795475 -23.333303 0.403579 29.347655 -0.919239 1.557044 0.076222 -0.019020 403531.000000 0 0 1
17.742875 -23.956703 1.661779 29.857909 -0.933324 1.515111 0.057296 -0.012764 -408501.000000 0 0 1
16.650975 -24.813603 1.606579 29.925757 -0.979771 1.517085 0.073739 -0.013880 -823786.000000 0 0 1
16.524575 -25.806803 2.745779 30.766735 -1.001257 1.481432 0.061022 -0.010432 908840.000000 0 0 1
17.560775 -26.830023 2.869579 32.194183 -0.991250 1.481544 0.048627 -0.012431 1393320.000000 0 0 1
18.777875 -26.328653 3.452779 32.522734 -0.951259 1.464431 0.038568 -0.010376 264584.000000 0 0 1
19.886675 -27.381803 3.624779 34.035011 -0.942654 1.464092 0.039404 -0.007618 -313001.000000 0 0 1
20.576175 -27.716403 2.461879 34.606919 -0.932188 1.499598 0.059746 -0.005311 -88130.000000 0 0 1
21.595375 -28.705433 2.580379 36.014170 -0.925819 1.499086 0.084826 -0.004138 -69689.500000 0 0 1
21.215175 -30.131073 2.821579 36.958443 -0.957326 1.494377 0.074884 -0.002256 -216321.000000 0 0 1
21.082675 -30.454893 4.210679 37.278808 -0.965285 1.457604 0.079548 -0.004519 -89984.500000 0 0 1
20.445075 -31.715923 4.280079 37.976571 -0.998205 1.457853 0.064862 -0.016301 7657.620000 0 0 1
20.149575 -32.286373 5.711479 38.484234 -1.012852 1.421835 0.080197 -0.025863 301534.000000 0 0 1
21.324175 -32.790523 6.313279 39.620655 -0.994200 1.410771 0.062931 -0.027238 274590.000000 0 0 1
20.921875 -33.335813 7.543279 40.073711 -1.010323 1.381432 0.061073 -0.027909 398361.000000 0 0 1
22.077075 -34.023480 8.304379 41.399965 -0.995211 1.368837 0.072664 -0.032847 -20276.400000 0 0 1
22.977575 -33.238333 9.006779 41.399007 -0.965935 1.351482 0.066614 -0.026325 -676187.000000 0 0 1
23.855875 34.019555 9.709479 42.669742 0.959239 1.341236 0.082169 -0.031091 -396836.000000 0 0 1
24.917675 -33.321373 10.580579 42.931959 -0.928706 1.321781 0.072679 -0.026903 -341308.000000 0 0 1
25.664175 -32.506533 9.758879 42.550679 -0.902486 1.339389 0.070481 -0.027086 -635496.000000 0 0 1
26.769075 -31.920423 10.387079 42.934697 -0.872947 1.326445 0.066871 -0.023476 -2699.630000 0 0 1
27.377375 -30.773933 9.569079 42.286202 -0.843741 1.342526 0.069848 -0.031033 -22160.800000 0 0 1
26.537675 -29.635223 9.574279 40.916518 -0.840485 1.334611 0.053752 -0.024317 201233.000000 0 0 1
26.785775 -28.897013 8.364979 40.280119 -0.823295 1.361604 0.054530 -0.018427 -24060.400000 0 0 1
26.264275 -27.434223 8.353979 38.887500 -0.807182 1.354284 0.047707 -0.007894 429217.000000 0 0 1
27.089175 -26.704493 9.282679 39.155095 -0.778247 1.331443 0.054204 -0.017642 293787.000000 0 0 1
26.639575 -25.401363 9.397179 37.989514 -0.761610 1.320839 0.040011 -0.011355 -532585.000000 0 0 1
27.428775 -24.581903 10.344979 38.257368 -0.730716 1.296983 0.044996 -0.018284 -235230.000000 0 0 1
28.709075 -24.249703 9.857179 38.851294 -0.701392 1.314277 0.059643 -0.019650 -370548.000000 0 0 1
29.447675 -23.410403 10.722279 39.117513 -0.671674 1.293138 0.052334 -0.024730 -457347.000000 0 0 1
30.820675 -23.095603 10.175179 39.835350 -0.643088 1.312503 0.083466 -0.028710 -370460.000000 0 0 1
30.653275 -22.284503 9.050579 38.963256 -0.628609 1.336370 0.091304 -0.025604 -626721.000000 0 0 1
31.887775 -22.159603 8.423679 39.734576 -0.607312 1.357177 0.106576 -0.030130 -333260.000000 0 0 1
31.933775 -21.317703 7.133279 39.052453 -0.588621 1.387106 0.102233 -0.008048 -52587.300000 0 0 1
31.766275 -19.938103 7.456779 38.239086 -0.560503 1.374535 0.098677 -0.013138 -146568.000000 0 0 1
31.676075 -19.175903 6.305879 37.561324 -0.544362 1.402115 0.083189 -0.009379 -200555.000000 0 0 1
31.381675 -17.742903 6.680079 36.663928 -0.514583 1.387575 0.099008 -0.014092 -137420.000000 0 0 1
32.296475 -17.065003 7.527779 37.295363 -0.486098 1.367558 0.114774 -0.018660 -34179.400000 0 0 1
32.021775 -15.736103 7.682879 36.497200 -0.456759 1.358704 0.119631 -0.017377 -127254.000000 0 0 1
32.709075 -15.189803 8.969979 37.162807 -0.434757 1.327019 0.119129 -0.030639 172110.000000 0 0 1
34.106675 -15.050803 8.784379 38.300878 -0.415584 1.339385 0.106091 -0.027874 -112164.000000 0 0 1
34.700875 -14.857803 10.031679 39.058157 -0.404551 1.311046 0.100328 -0.040075 -526599.000000 0 0 1
36.205275 -15.099103 10.144379 40.518061 -0.395110 1.317737 0.092695 -0.051148 -476552.000000 0 0 1
36.926175 -14.049303 9.593579 40.656636 -0.363558 1.332584 0.108515 -0.037898 -334488.000000 0 0 1
-36.088626 -14.303703 9.457579 39.955358 0.377355 1.331825 0.111968 -0.040157 93909.700000 0 0 1
-35.225426 -13.244403 8.744679 38.635661 0.359638 1.342481 0.116136 -0.032740 -85181.100000 0 0 1
-35.447326 -13.149803 7.345079 38.514678 0.355231 1.378912 0.145250 -0.039526 -755835.000000 0 0 1
-34.492726 -12.457103 6.662879 37.273604 0.346575 1.391074 0.112310 -0.027324 -943193.000000 0 0 1
-33.429726 -13.252703 5.926879 36.445968 0.377429 1.407450 0.083324 -0.022519 -68977.600000 0 0 1
-32.663726 -14.100403 6.823279 36.225647 0.407518 1.381310 0.093160 -0.015258 616214.000000 0 0 1
-31.782126 -14.929303 6.025879 35.627221 0.439147 1.400842 0.099173 -0.004042 341227.000000 0 0 1
-31.072826 -15.969303 6.913079 35.613618 0.474731 1.375443 0.083882 -0.021075 11776.900000 0 0 1
-31.953326 -16.884103 7.556279 36.921340 0.486108 1.364681 0.098385 -0.032649 -21190.300000 0 0 1
-32.247026 -16.534503 8.840979 37.301788 0.473792 1.331507 0.073931 -0.026764 -852.780000 0 0 1
-33.187426 -17.505603 9.588179 38.727052 0.485387 1.320611 0.055511 -0.025953 -946598.000000 0 0 1
-34.538626 -17.285103 9.357979 39.739945 0.464013 1.333083 0.074366 -0.031764 -694684.000000 0 0 1
-35.387826 -17.866103 10.327279 40.965212 0.467533 1.315948 0.097744 -0.038375 -127839.000000 0 0 1
-35.866626 -19.315503 10.112279 41.973345 0.494000 1.327481 0.107761 -0.034334 -489701.000000 0 0 1
-34.878726 -20.346003 10.191879 41.645645 0.528076 1.323557 0.108346 -0.032624 177054.000000 0 0 1
-34.309326 -20.565903 11.494479 41.619818 0.539997 1.290981 0.114063 -0.049341 143661.000000 0 0 1
-35.316526 -21.195003 12.538579 43.054630 0.540525 1.275289 0.148185 -0.063257 456796.000000 0 0 1
-35.793926 -22.526103 12.354179 44.059689 0.561705 1.286589 0.146807 -0.064235 683925.000000 0 0 1
-36.967526 -22.623303 11.533979 44.849130 0.549180 1.310701 0.140927 -0.049329 215482.000000 0 0 1
36.834775 -24.018003 11.475279 45.446090 -0.577813 1.315530 0.155263 -0.047483 -160346.000000 0 0 1
36.356675 -24.340503 12.763779 45.576112 -0.589956 1.286946 0.199517 -0.049458 -273111.000000 0 0 1
35.665375 -25.526873 12.806679 45.690822 -0.621207 1.286700 0.157269 -0.039717 -676239.000000 0 0 1
34.458475 -25.535683 13.738179 45.035488 -0.637753 1.260803 0.171065 -0.038970 -769120.000000 0 0 1
33.485575 -24.664703 13.289979 43.660678 -0.634855 1.261496 0.143556 -0.040085 -973069.000000 0 0 1
32.513675 -24.315703 14.216679 43.017513 -0.642131 1.233978 0.103625 -0.019765 -743240.000000 0 0 1
32.559375 -22.797903 14.664879 42.366448 -0.610857 1.217339 0.131768 -0.031950 193346.000000 0 0 1
33.705275 -22.384303 15.398279 43.292142 -0.586237 1.207152 0.153043 -0.036764 576760.000000 0 0 1
34.849775 -22.020603 14.615879 43.738286 -0.563526 1.230075 0.144556 -0.044684 758186.000000 0 0 1
36.162975 -21.878803 15.453079 45.002671 -0.544092 1.220282 0.123919 -0.037309 352326.000000 0 0 1
36.356475 -20.624203 16.111079 44.796405 -0.516011 1.202902 0.119048 -0.032832 502814.000000 0 0 1
35.485275 -20.380503 17.235079 44.402901 -0.521336 1.172171 0.116007 -0.035022 287427.000000 0 0 1
35.750075 -18.939103 17.746279 44.177912 -0.487174 1.157424 0.093174 -0.030850 -501831.000000 0 0 1
35.173075 -17.893203 16.971079 42.957298 -0.470598 1.164654 0.104107 -0.043025 68905.700000 0 0 1
35.145775 -16.594903 17.571779 42.654234 -0.441140 1.146194 0.100054 -0.042147 -591251.000000 0 0 1
36.381575 -15.824503 18.036079 43.581350 -0.410276 1.144119 0.078590 -0.034795 -307637.000000 0 0 1
37.016475 -16.390003 19.222979 44.814892 -0.416830 1.127475 0.079466 -0.020680 1419360.000000 0 0 1
-36.248526 -15.564303 19.636779 44.065931 0.405573 1.108927 0.061043 -0.016122 897996.000000 0 0 1
-35.741826 -15.656203 21.112879 44.366074 0.412860 1.074833 0.048672 -0.007340 82002.900000 0 0 1
-35.017426 -16.822503 21.460379 44.382030 0.447848 1.066105 0.055949 -0.006731 141216.000000 0 0 1
-34.706326 -16.831603 22.847879 44.831434 0.451553 1.036030 0.038541 0.001382 -37201.000000 0 0 1
-33.785426 -18.033703 23.191579 44.771853 0.490299 1.026291 0.046417 0.002572 -768648.000000 0 0 1
-34.360626 -19.322303 23.038179 45.659191 0.512267 1.041914 0.056167 -0.002461 139330.000000 0 0 1
-33.629826 -20.400403 23.579779 45.860087 0.545270 1.030759 0.042002 0.004982 483740.000000 0 0 1
-32.255626 -20.742403 22.880779 44.656497 0.571483 1.032851 0.036142 0.016534 737636.000000 0 0 1
-31.238326 -19.791103 23.146179 43.626441 0.564725 1.011542 0.034779 0.024553 288483.000000 0 0 1
-29.974126 -20.289603 22.754379 42.753690 0.595056 1.009575 0.029823 0.025444 573948.000000 0 0 1
-28.717526 -19.377303 22.819479 41.483790 0.593582 0.988334 0.032140 0.034400 442469.000000 0 0 1
-28.254226 -18.989103 24.095379 41.707009 0.591741 0.954852 0.034537 0.019193 -83409.000000 0 0 1
-27.193226 -18.089403 24.003479 40.532272 0.586998 0.937002 0.038482 0.013227 -446363.000000 0 0 1
-26.838726 -17.396303 25.362179 40.818975 0.575094 0.900353 0.039823 -0.009452 -899732.000000 0 0 1
-25.707626 -16.549903 25.269079 39.664943 0.571986 0.880114 0.054239 -0.020522 102473.000000 0 0 1
-25.379826 -16.028003 26.510879 40.048210 0.563278 0.847347 0.054038 -0.028317 -334423.000000 0 0 1
-24.368426 -16.895403 27.220279 40.251937 0.606237 0.828139 0.059185 -0.024096 -1389560.000000 0 0 1
-24.896326 -18.195703 27.409279 41.257475 0.631138 0.844177 0.061685 -0.023731 523371.000000 0 0 1
-23.915426 -19.044203 28.051379 41.491073 0.672490 0.828364 0.071333 -0.028080 570138.000000 0 0 1
-24.627726 -20.323003 28.652379 42.901144 0.689924 0.839453 0.067227 -0.014908 60998.100000 0 0 1
-25.586926 -20.109703 29.645879 44.022370 0.666107 0.831961 0.065674 -0.023183 694.138000 0 0 1
-26.131626 -21.263103 30.225179 45.260832 0.683034 0.839547 0.062653 -0.019239 229424.000000 0 0 1
-27.409326 -21.032003 31.116079 46.495448 0.654500 0.837626 0.069528 -0.022353 150490.000000 0 0 1
-27.215926 -20.248303 32.348079 46.873219 0.639642 0.809143 0.084352 -0.033134 -51118.700000 0 0 1
-28.271626 -20.285703 33.276379 48.146775 0.622394 0.807725 0.092872 -0.037825 39479.500000 0 0 1
-29.461626 -19.311603 32.982879 48.257598 0.580220 0.818283 0.071262 -0.040760 -276229.000000 0 0 1
-30.338726 -19.712903 32.002679 48.303295 0.576207 0.846597 0.071651 -0.036893 -388274.000000 0 0 1
-31.599426 -19.106203 32.188679 48.986547 0.543823 0.853842 0.073651 -0.045556 -901088.000000 0 0 1
-32.598726 -19.694503 31.262079 49.273400 0.543465 0.883485 0.063664 -0.008790 -1439940.000000 0 0 1
-32.663626 -19.095703 29.915479 48.233746 0.529031 0.901775 0.056259 -0.031225 620330.000000 0 0 1
-33.825026 -19.522903 29.197479 48.762372 0.523466 0.928831 0.054714 -0.023825 314175.000000 0 0 1
-34.140326 -18.765803 27.917479 47.928101 0.502587 0.949012 0.054105 -0.017675 443819.000000 0 0 1
-35.351826 -19.272503 27.335679 48.666419 0.499122 0.974363 0.045230 -0.014282 900030.000000 0 0 1
-35.927326 -18.329403 26.417979 48.214618 0.471758 0.990915 0.067033 -0.009894 -309669.000000 0 0 1
-37.021326 -18.902903 25.527479 48.780637 0.472088 1.020064 0.060151 -0.012825 -392671.000000 0 0 1
36.095675 -18.876703 26.152579 48.406457 -0.481849 1.000038 0.072433 -0.024534 207661.000000 0 0 1
35.222175 -19.626103 25.298779 47.600565 -0.508361 1.010449 0.109965 -0.022477 154728.000000 0 0 1
33.930875 -20.190203 25.904279 47.222667 -0.536764 0.990160 0.088232 -0.023227 -171966.000000 0 0 1
32.849775 -19.335303 26.187579 46.246632 -0.531993 0.968836 0.078041 -0.032028 54125.500000 0 0 1
31.949175 -20.026003 27.005879 46.380040 -0.559898 0.949274 0.063895 -0.017065 -204739.000000 0 0 1
-29.922825 -5.569903 33.704692 45.413716 0.184036 0.734494 0.071157 -0.019187 -469778.000000 0 0 1
-30.877955 -5.658003 32.708254 45.335317 0.181227 0.764868 0.075516 -0.013092 -109432.000000 0 0 1
-30.930655 -4.434803 32.030166 44.747117 0.142408 0.773021 0.074073 -0.011908 83529.700000 0 0 1
-31.735485 -4.588203 30.689662 44.385223 0.143582 0.807318 0.067275 -0.019807 -74371.500000 0 0 1
-31.275755 -5.455603 29.738252 43.500576 0.172698 0.818073 0.057333 -0.015548 196303.000000 0 0 1
-30.028385 -5.085603 29.130512 42.144442 0.167768 0.807639 0.057620 -0.021570 625160.000000 0 0 1
-29.660285 -6.094303 28.009912 41.248372 0.202650 0.824322 0.056966 -0.021889 -19164.500000 0 0 1
-30.368295 -5.847803 26.801862 40.923953 0.190234 0.856721 0.059991 -0.020360 41107.800000 0 0 1
-29.983165 -6.851603 25.885132 40.199188 0.224658 0.871183 0.082331 -0.022097 367793.000000 0 0 1
-30.637175 -6.516403 24.529382 39.784301 0.209573 0.906431 0.062420 -0.014239 -70947.100000 0 0 1
-30.016525 -5.483803 23.881182 38.747577 0.180700 0.906726 0.095732 -0.021819 -334844.000000 0 0 1
-30.754425 -5.025203 22.794562 38.609317 0.161966 0.939254 0.101529 -0.022815 -86344.500000 0 0 1
-30.206145 -3.651903 22.379262 37.770080 0.120315 0.936622 0.120348 -0.027002 77573.700000 0 0 1
-28.927845 -3.793103 21.813462 36.428491 0.130379 0.928792 0.133674 -0.021969 -199088.000000 0 0 1
-28.330025 -2.621603 21.312762 35.548516 0.092275 0.927870 0.142444 -0.020711 -476177.000000 0 0 1
-26.897905 -2.797303 20.852062 34.148656 0.103625 0.913945 0.131867 -0.013983 -684608.000000 0 0 1
-26.764685 -3.474203 19.584862 33.346443 0.129084 0.943059 0.131235 -0.011376 -1050480.000000 0 0 1
-25.498885 -3.368503 19.071862 32.019929 0.131343 0.932753 0.105899 -0.010053 -1362580.000000 0 0 1
-25.418645 -3.974603 17.631562 31.189373 0.155110 0.969991 0.104282 -0.017077 -184063.000000 0 0 1
-26.166395 -3.272403 16.653662 31.188673 0.124415 1.007513 0.122182 -0.013265 309285.000000 0 0 1
-26.149905 -3.917203 15.385562 30.592116 0.148692 1.043816 0.118017 -0.020101 -916788.000000 0 0 1
-27.520075 -3.959803 14.765662 31.481095 0.142907 1.082601 0.118854 -0.022504 -818555.000000 0 0 1
-27.888475 -2.733303 14.142962 31.388873 0.097696 1.103390 0.121677 -0.024227 -41928.300000 0 0 1
-29.172835 -2.862803 13.571762 32.302363 0.097819 1.137188 0.121488 -0.027810 71715.200000 0 0 1
-29.532825 -1.635903 12.691762 32.186096 0.055336 1.165464 0.125286 -0.014877 -147897.000000 0 0 1
-28.721655 -1.616603 11.505362 30.982580 0.056226 1.190334 0.134598 -0.019730 265979.000000 0 0 1
-29.009025 -0.561203 10.633162 30.901499 0.019343 1.219518 0.144554 -0.016870 409097.000000 0 0 1
-30.308815 -0.529303 9.743762 31.840938 0.017462 1.259793 0.147366 -0.011856 630671.000000 0 0 1
-30.386565 -1.367703 8.598662 31.609349 0.044980 1.295295 0.162246 -0.021643 1071900.000000 0 0 1
-31.755695 -1.497703 8.131262 32.814398 0.047128 1.320392 0.152154 -0.022250 1206040.000000 0 0 1
-31.859365 -2.425303 6.861362 32.679956 0.075979 1.359266 0.173988 -0.029334 -51302.400000 0 0 1
-31.403205 -1.926403 5.611962 31.958824 0.061267 1.394281 0.194617 -0.045165 542063.000000 0 0 1
-32.123185 -0.780403 5.134962 32.540373 0.024289 1.412331 0.207338 -0.045682 -97155.200000 0 0 1
-31.795385 -0.494903 3.614062 32.003951 0.015564 1.457629 0.202637 -0.046254 -278131.000000 0 0 1
-32.429875 -1.301903 2.662362 32.565011 0.040124 1.488950 0.203268 -0.064771 112844.000000 0 0 1
-32.085595 -0.923303 1.383162 32.128664 0.028768 1.527732 0.205539 -0.064241 -91981.600000 0 0 1
-32.991835 -1.531303 0.273062 33.028482 0.046381 1.562529 0.198043 -0.065205 1006260.000000 0 0 1
-34.362634 -1.077003 0.287962 34.380714 0.031332 1.562421 0.207387 -0.063640 917637.000000 0 0 1
-35.051596 -1.351203 -0.914038 35.089537 0.038530 1.596848 0.199262 -0.063734 766833.000000 0 0 1
-36.579965 -1.022203 -0.735638 36.601638 0.027937 1.590896 0.161181 -0.054477 722813.000000 0 0 1
37.112516 -1.913203 0.116362 37.161980 -0.051506 1.567665 0.160546 -0.053842 -554882.000000 0 0 1
35.732696 -1.816003 0.021862 35.778819 -0.050778 1.570185 0.135579 -0.045511 -533377.000000 0 0 1
34.926816 -2.943003 0.735162 35.058297 -0.084063 1.549825 0.128412 -0.044086 -4118.350000 0 0 1
35.081776 -2.910203 2.136862 35.267074 -0.082765 1.510168 0.135093 -0.040760 94881.600000 0 0 1
34.360866 -4.009703 2.643362 34.694873 -0.116168 1.494534 0.116047 -0.019921 -223851.000000 0 0 1
34.477506 -4.117703 4.159762 34.970810 -0.118869 1.451564 0.114155 -0.007357 210995.000000 0 0 1
33.765676 -3.072203 4.860462 34.251765 -0.090736 1.428412 0.118211 -0.015930 322424.000000 0 0 1
33.945496 -3.331203 6.227462 34.672394 -0.097821 1.390208 0.116800 -0.017431 43132.300000 0 0 1
33.250306 -2.175803 7.030062 34.054937 -0.065344 1.362868 0.130345 -0.017381 893801.000000 0 0 1
31.829846 -2.364903 7.100062 32.697748 -0.074162 1.351910 0.128875 -0.016682 594592.000000 0 0 1
31.173826 -1.266303 7.698762 32.135368 -0.040598 1.328870 0.156431 -0.015041 489466.000000 0 0 1
29.638016 -1.380303 7.882362 30.699330 -0.046538 1.311128 0.132634 -0.020621 -298214.000000 0 0 1
28.855076 -1.348003 6.738762 29.662155 -0.046682 1.341611 0.142161 -0.019954 10463.700000 0 0 1
27.490576 -1.664803 6.902262 28.392685 -0.060485 1.325236 0.150904 -0.015078 108949.000000 0 0 1
27.093176 -3.121803 7.236862 28.216272 -0.114719 1.311419 0.173630 -0.025757 -796204.000000 0 0 1
27.483876 -3.700903 8.455062 28.992209 -0.133852 1.274864 0.152433 -0.024867 259400.000000 0 0 1
27.322176 -5.115203 8.357862 29.026203 -0.185076 1.278719 0.181263 -0.023485 -242084.000000 0 0 1
27.343876 -5.919203 9.625862 29.586851 -0.213183 1.239422 0.152569 -0.029526 -858653.000000 0 0 1
26.186676 -5.718303 10.349362 28.732391 -0.214992 1.202316 0.154308 -0.016643 -329826.000000 0 0 1
26.335676 -6.360903 11.630062 29.483678 -0.236993 1.165319 0.131595 -0.014295 -1076860.000000 0 0 1
25.117876 -6.376303 12.490162 28.767501 -0.248604 1.121673 0.092763 -0.018423 -787439.000000 0 0 1
24.238976 -7.370803 12.014462 28.039330 -0.295204 1.127980 0.117570 -0.023880 -824941.000000 0 0 1
22.930576 -7.260703 12.455962 27.086530 -0.306651 1.092961 0.105193 -0.027891 -552359.000000 0 0 1
22.195276 -8.621103 12.567162 26.923731 -0.370484 1.085163 0.101375 -0.016920 -104586.000000 0 0 1
22.776076 -9.449103 13.533662 28.128192 -0.393259 1.068839 0.086863 -0.027414 -41275.900000 0 0 1
22.115076 -10.671603 13.614662 28.077014 -0.449589 1.064543 0.116906 -0.040474 -422954.000000 0 0 1
22.573876 -11.648003 14.681762 29.339564 -0.476361 1.046726 0.071484 -0.037879 -466731.000000 0 0 1
22.388476 -11.118103 15.926462 29.639640 -0.460923 1.003521 0.071674 -0.040041 143299.000000 0 0 1
22.791876 -11.991503 16.949662 30.831101 -0.484333 0.988721 0.066135 -0.050222 -208003.000000 0 0 1
22.383876 -11.539603 18.354062 31.162027 -0.475996 0.940990 0.073468 -0.050002 1037540.000000 0 0 1
20.955276 -11.359503 18.543662 30.199823 -0.496745 0.909637 0.071123 -0.053550 1122360.000000 0 0 1
20.485976 -11.637103 19.848462 30.806799 -0.516597 0.870704 0.068813 -0.054314 190253.000000 0 0 1
20.993776 -10.740403 21.031062 31.597476 -0.472884 0.842508 0.068781 -0.050258 44043.600000 0 0 1
20.332076 -9.425503 21.188962 30.841620 -0.434088 0.813410 0.059470 -0.040034 262415.000000 0 0 1
20.485576 -8.498603 20.170762 29.979072 -0.393249 0.832771 0.070088 -0.038700 -2083870.000000 0 0 1
21.418776 -7.292903 20.534762 30.555308 -0.328179 0.833820 0.064366 -0.023760 1767640.000000 0 0 1
22.810276 -7.689003 20.731662 31.768401 -0.325123 0.859802 0.077633 -0.027642 1442990.000000 0 0 1
23.380276 -8.124003 19.488462 31.502967 -0.334421 0.903807 0.086719 -0.037752 -1567380.000000 0 0 1
24.829776 -8.632403 19.616462 32.800027 -0.334592 0.929715 0.116172 -0.042955 -132898.000000 0 0 1
24.949576 -9.925203 20.175862 33.586551 -0.378617 0.926404 0.072327 -0.045409 36050.800000 0 0 1
26.161676 -10.539303 19.769262 34.443199 -0.382963 0.959454 0.077866 -0.048971 223168.000000 0 0 1
26.175076 -12.061403 20.066862 35.118243 -0.431797 0.962575 0.054519 -0.045024 -63253.200000 0 0 1
25.294176 -12.780903 19.239762 34.253690 -0.467871 0.974376 0.078835 -0.055056 270.252000 0 0 1
25.441576 -14.179103 19.454562 35.025716 -0.508446 0.981908 0.059025 -0.041779 -81354.400000 0 0 1
24.330976 -15.012403 18.763262 34.196910 -0.552831 0.990008 0.068404 -0.034687 -195750.000000 0 0 1
24.363676 -15.080503 17.374562 33.509487 -0.554255 1.025704 0.073054 -0.044047 314560.000000 0 0 1
23.323076 -15.868103 16.801562 32.833749 -0.597423 1.033615 0.078401 -0.048026 -72962.900000 0 0 1
23.407276 -17.393503 16.988662 33.749802 -0.639058 1.043301 0.056689 -0.036533 485384.000000 0 0 1
24.574376 -17.954103 16.331462 34.539346 -0.630971 1.078289 0.071347 -0.035487 904152.000000 0 0 1
24.468276 -19.347703 16.360662 35.223592 -0.669060 1.087749 0.060728 -0.021890 -648741.000000 0 0 1
25.750076 -20.128703 16.117362 36.441741 -0.663479 1.112660 0.071266 -0.015104 -541264.000000 0 0 1
26.014676 -20.142503 14.719162 36.043551 -0.658857 1.150127 0.070690 -0.025415 252219.000000 0 0 1
26.918076 -21.194903 14.388562 37.159621 -0.667002 1.173193 0.066830 -0.028631 126686.000000 0 0 1
27.178776 -21.255803 12.875262 36.827536 -0.663714 1.213642 0.047873 -0.042054 -410241.000000 0 0 1
25.994676 -21.603103 12.211862 35.938097 -0.693394 1.224089 0.058731 -0.028446 48565.300000 0 0 1
26.036676 -21.126803 10.908262 35.259616 -0.681669 1.256266 0.074859 -0.023019 490224.000000 0 0 1
24.637876 -21.280403 10.233262 34.126238 -0.712410 1.266245 0.033915 -0.015250 491958.000000 0 0 1
24.325276 -22.598203 9.868262 34.637847 -0.748609 1.281896 0.017126 -0.011901 559056.000000 0 0 1
22.956176 -22.687003 9.459062 33.632722 -0.779501 1.285704 0.005841 -0.008343 655966.000000 0 0 1
22.658176 -23.688303 8.310062 33.816945 -0.807621 1.322517 0.006894 -0.006700 -333415.000000 0 0 1
23.048276 -25.042763 8.593762 35.102931 -0.826848 1.323466 0.005072 -0.003796 119688.000000 0 0 1
22.746176 -25.924513 7.545862 35.304517 -0.850608 1.355398 0.015640 -0.002869 146268.000000 0 0 1
21.270576 -26.443153 7.574262 34.771356 -0.893385 1.351205 0.019235 -0.008227 1386740.000000 0 0 1
20.323776 -25.377623 7.271662 33.316013 -0.895535 1.350762 0.014693 -0.001095 -268018.000000 0 0 1
18.971576 -25.705323 7.345862 32.781794 -0.934993 1.344794 0.019107 -0.019594 213656.000000 0 0 1
18.029776 -24.441003 7.252462 31.225529 -0.935223 1.336395 0.024710 -0.017891 124513.000000 0 0 1
17.955376 -23.852203 5.947762 30.441731 -0.925521 1.374150 0.043256 -0.019894 -48053.600000 0 0 1
17.053576 -22.784503 5.979862 29.081210 -0.928273 1.363693 0.059028 -0.007638 -198493.000000 0 0 1
17.000176 -22.109003 4.612762 28.268208 -0.915293 1.406885 0.087721 -0.009765 -627377.000000 0 0 1
16.108576 -21.047403 4.726962 26.922548 -0.917545 1.394305 0.106976 -0.004428 -224897.000000 0 0 1
15.894576 -20.451303 3.452262 26.130661 -0.910119 1.438294 0.108819 -0.010547 135729.000000 0 0 1
14.745976 -19.422903 3.412062 24.623873 -0.921430 1.431782 0.102692 -0.005037 126089.000000 0 1 0
15.174576 -18.251703 4.064762 24.081418 -0.877197 1.401192 0.051038 0.001571 457027.000000 0 1 0
14.253076 -17.184803 3.924662 22.668714 -0.878384 1.396788 0.020048 0.006646 115918.000000 0 1 0
15.034676 -15.923703 4.201062 22.299209 -0.814107 1.381269 0.002200 -0.002400 -206259.000000 0 1 0
15.562376 -15.799803 5.508162 22.850846 -0.792969 1.327350 0.016645 -0.008506 1219650.000000 0 1 0
16.644176 -14.810103 5.542862 22.958464 -0.727155 1.326957 0.026308 -0.011904 2139780.000000 0 1 0
18.110176 -15.330203 5.249062 24.301158 -0.702457 1.353080 0.036410 -0.025864 1315110.000000 0 1 0
19.077376 -14.264003 5.250062 24.392032 -0.642022 1.353862 0.077209 -0.025062 1109400.000000 0 1 0
20.430576 -14.746303 5.236762 25.734910 -0.625192 1.365876 0.108616 -0.025339 1098630.000000 0 0 1
21.477076 -13.592803 5.059262 25.915733 -0.564259 1.374315 0.115106 -0.030352 251304.000000 0 0 1
21.720276 -12.891003 6.268062 26.023777 -0.535627 1.327545 0.131770 -0.030771 -143703.000000 0 0 1
22.669076 -11.893903 6.117162 26.320555 -0.483192 1.336241 0.154503 -0.032534 -550041.000000 0 0 1
22.923276 -11.126303 7.421462 26.539580 -0.451876 1.287380 0.155768 -0.029410 88379.600000 0 0 1
23.618376 -11.877503 8.428062 27.747703 -0.465959 1.262182 0.147313 -0.017405 506018.000000 0 0 1
23.819976 -11.234603 9.709062 28.069084 -0.440708 1.217600 0.157321 -0.033513 125226.000000 0 0 1
24.275576 -12.255503 10.800462 29.260057 -0.467519 1.192735 0.126932 -0.029705 -328147.000000 0 0 1
23.221076 -13.047203 11.242062 28.910757 -0.511910 1.171409 0.130998 -0.034981 -152027.000000 0 0 1
23.687276 -13.939703 12.227762 30.081897 -0.531913 1.152196 0.124985 -0.045104 -34693.100000 0 0 1
22.714976 -15.050803 12.739662 30.079824 -0.585178 1.133459 0.106742 -0.051733 907009.000000 0 0 1
21.655876 -14.444103 13.550662 29.346712 -0.588222 1.090836 0.088854 -0.052766 1541030.000000 0 0 1
20.527176 -15.375503 13.627362 29.042659 -0.642881 1.082390 0.056031 -0.044648 734227.000000 0 0 1
19.293676 -14.695003 14.228662 28.118390 -0.650915 1.040224 0.057492 -0.042047 -682155.000000 0 0 1
19.435676 -14.275303 15.556862 28.697487 -0.633500 0.997864 0.056072 -0.043270 -59545.800000 0 0 1
19.058376 -12.960703 15.709162 27.892280 -0.597213 0.972533 0.082110 -0.059717 1537640.000000 0 0 1
17.503276 -12.582003 15.766662 26.706911 -0.623257 0.939293 0.095113 -0.060441 884131.000000 0 0 1
16.781776 -12.663403 14.523462 25.552314 -0.646434 0.966259 0.100738 -0.064028 1110500.000000 0 0 1
15.382676 -12.444903 14.807962 24.713925 -0.680217 0.928326 0.133554 -0.058134 785382.000000 0 1 0
15.027176 -10.986403 14.751162 23.751081 -0.631296 0.900685 0.114548 -0.048340 -891794.000000 0 1 0
15.511576 -10.130703 15.781362 24.337040 -0.578556 0.865249 0.101005 -0.041890 67634.200000 0 1 0
15.235476 -8.784303 15.625962 23.525612 -0.523013 0.844359 0.101981 -0.036569 -642649.000000 0 1 0
16.079776 -7.967903 16.589762 24.439044 -0.460060 0.824639 0.118425 -0.030297 784760.000000 0 1 0
17.495176 -7.921603 16.338762 25.214840 -0.425170 0.865864 0.113213 -0.049915 768758.000000 0 0 1
18.282276 -8.877603 16.971962 26.478311 -0.452049 0.875027 0.108190 -0.047566 -316055.000000 0 0 1
19.759176 -8.839303 16.517762 27.228566 -0.420649 0.918977 0.071021 -0.039880 141986.000000 0 0 1
20.395476 -7.620903 16.920062 27.574302 -0.357592 0.910163 0.073872 -0.049459 -77646.900000 0 0 1
21.486276 -7.395303 16.071462 27.832400 -0.331487 0.955210 0.064294 -0.030290 -580140.000000 0 0 1
22.196576 -6.088203 16.230662 28.163604 -0.267702 0.956603 0.052555 -0.011996 -763783.000000 0 0 1
23.001676 -5.972803 17.327662 29.410871 -0.254057 0.940779 0.079230 -0.015983 -656919.000000 0 0 1
23.553376 -4.741903 17.472562 29.707534 -0.198670 0.942024 0.073168 -0.015952 -521366.000000 0 0 1
-5.884025 -33.171010 -6.501321 34.310418 1.395238 1.761434 0.054556 -0.020982 99881.900000 0 0 1
-6.678525 -31.993310 -6.447521 33.312837 1.365004 1.765570 0.041131 -0.019619 50111.800000 0 0 1
-6.217525 -31.121110 -5.466521 32.203477 1.373608 1.741372 0.043771 -0.019249 -386236.000000 0 0 1
-6.939825 -29.729710 -5.464121 31.014084 1.341472 1.747903 0.040193 -0.022118 94838.800000 0 0 1
-8.271425 -29.562710 -5.079221 31.115410 1.297980 1.734768 0.036307 -0.018665 344842.000000 0 0 1
-9.237325 -30.113410 -6.007421 32.066099 1.273157 1.759255 0.034476 -0.016803 -426261.000000 0 0 1
-10.693425 -29.733310 -5.784821 32.122939 1.225555 1.751868 0.040864 -0.003724 -502981.000000 0 0 1
-11.549425 -30.642610 -6.437121 33.373571 1.210355 1.764894 0.044772 -0.008438 23980.200000 0 0 1
-12.894025 -30.360610 -6.053421 33.536046 1.169183 1.752296 0.060330 -0.005429 155331.000000 0 0 1
-13.944425 -30.858810 -7.033921 34.585968 1.146382 1.775600 0.077214 -0.006314 -262573.000000 0 0 1
-13.988425 -30.103910 -8.247021 34.204309 1.135809 1.814306 0.104687 -0.019041 72088.900000 0 0 1
-15.068625 -30.501910 -9.062521 35.207375 1.111942 1.831131 0.102213 -0.012266 -44833.000000 0 0 1
-15.224325 -29.706910 -10.397021 34.962531 1.097211 1.872740 0.114808 -0.008989 -342159.000000 0 0 1
-15.627925 -28.360510 -10.269521 33.970776 1.067151 1.877906 0.120423 -0.019075 -110506.000000 0 0 1
-14.597925 -27.431810 -10.131321 32.684052 1.081758 1.885966 0.113714 -0.019438 -563897.000000 0 0 1
-15.106425 -26.039310 -9.819821 31.665101 1.045108 1.886110 0.108095 -0.005239 24984.000000 0 0 1
-15.702725 -25.304110 -10.906721 31.714825 1.015396 1.921863 0.118748 -0.024400 499825.000000 0 0 1
-16.031325 -23.975010 -10.407421 30.661358 0.981409 1.917108 0.098763 -0.004764 -291218.000000 0 0 1
-16.750925 -23.050010 -11.422221 30.697941 0.942361 1.952050 0.121974 -0.016754 175860.000000 0 0 1
-18.075425 -23.493010 -11.671321 31.856902 0.914997 1.945898 0.126598 -0.015816 -6421.550000 0 0 1
-18.532825 -23.088810 -12.924621 32.304869 0.894426 1.982403 0.137425 -0.028891 -138704.000000 0 0 1
-19.988325 -23.454110 -13.343921 33.581075 0.865008 1.979439 0.109698 -0.011625 285544.000000 0 0 1
-20.250125 -24.828310 -13.529321 34.778658 0.886612 1.970355 0.130708 -0.016206 -79473.900000 0 0 1
-20.277925 -25.564310 -12.363221 34.893802 0.900208 1.932972 0.137736 -0.018204 -1166560.000000 0 0 1
-20.129225 -27.124710 -12.580921 36.044627 0.932371 1.927340 0.133070 -0.022820 354947.000000 0 0 1
-19.142425 -27.761610 -13.398921 36.285954 0.967133 1.949008 0.135115 -0.033446 381945.000000 0 0 1
-17.787325 -27.413310 -13.136921 35.220124 0.995225 1.953031 0.147499 -0.032689 -110399.000000 0 0 1
-16.926425 -28.588710 -13.621021 35.907526 1.036231 1.959875 0.127376 -0.030430 -549500.000000 0 0 1
-16.926225 -28.813010 -15.020421 36.637408 1.039655 1.993223 0.141739 -0.050129 -323202.000000 0 0 1
-16.346925 -30.008810 -15.433821 37.496046 1.072002 1.995018 0.153940 -0.050591 -16702.600000 0 0 1
-17.176825 -31.343710 -15.210621 38.843718 1.069478 1.973150 0.135983 -0.049507 88446.500000 0 0 1
-17.184525 -31.690510 -13.848821 38.618469 1.073914 1.937571 0.144278 -0.043244 244611.000000 0 0 1
-17.498625 -33.057910 -13.620121 39.806218 1.083959 1.920012 0.131539 -0.039532 -1103960.000000 0 0 1
-17.714825 -33.365110 -12.093821 39.664922 1.082705 1.880629 0.150868 -0.038771 938146.000000 0 0 1
-19.066125 -33.098510 -11.639421 39.931248 1.048179 1.866577 0.167965 -0.034409 1370810.000000 0 0 1
-19.510425 -31.712410 -11.661621 39.017009 1.019254 1.874321 0.166718 -0.038987 -402135.000000 0 0 1
-18.905825 -30.735810 -10.613521 37.613389 1.019342 1.856856 0.167913 -0.027147 -378387.000000 0 0 1
-19.113925 -31.138910 -9.275821 37.696348 1.020271 1.819417 0.175013 -0.030525 109255.000000 0 0 1
-18.886125 -30.101210 -8.386721 36.511719 1.010458 1.802565 0.161431 -0.006760 -266177.000000 0 0 1
-19.112025 -30.492510 -6.941121 36.650263 1.010920 1.761335 0.186608 -0.009307 -583395.000000 0 0 1
-18.244325 -31.395010 -6.377821 36.867040 1.044374 1.744666 0.170351 -0.019192 -327163.000000 0 0 1
-18.580825 -31.629510 -5.008821 37.023793 1.039654 1.706499 0.161244 -0.034888 -545766.000000 0 0 1
-17.717625 -32.707010 -4.373521 37.453844 1.074342 1.687834 0.154136 -0.024702 1130350.000000 0 0 1
-16.327325 -32.381010 -4.129721 36.498848 1.103774 1.684186 0.139220 -0.017468 1245280.000000 0 0 1
-16.144425 -31.651010 -2.957921 35.653586 1.099120 1.653855 0.114147 -0.021522 -894038.000000 0 0 1
-14.813525 -30.927410 -2.849521 34.410245 1.124108 1.653702 0.098471 -0.026003 88335.400000 0 0 1
-13.664825 -31.768010 -2.748221 34.691304 1.164577 1.650099 0.053142 -0.014299 55062.600000 0 0 1
-12.473425 -31.053710 -2.476721 33.556718 1.188849 1.644671 0.039545 -0.009534 94854.100000 0 0 1
-11.271125 -31.989010 -2.661121 34.020825 1.232035 1.649097 0.036738 -0.015523 -776344.000000 0 0 1
-11.319525 -32.961510 -1.649821 34.890037 1.239999 1.618100 0.038537 -0.004929 -1131610.000000 0 0 1
-10.090025 -33.458510 -1.300021 34.970995 1.277901 1.607979 0.044353 -0.008532 -686010.000000 0 0 1
-9.216725 -32.488310 -0.432421 33.773144 1.294366 1.583600 0.062697 -0.019714 -557308.000000 0 0 1
-9.845525 -32.166510 0.804179 33.649152 1.273771 1.546895 0.077928 -0.018679 170032.000000 0 0 1
-9.005925 -31.499610 1.769379 32.809492 1.292320 1.516841 0.058883 -0.021424 1093680.000000 0 0 1
-8.013425 -32.418510 2.625379 33.497274 1.328467 1.492340 0.083632 -0.029999 512478.000000 0 0 1
-8.738125 -33.424610 3.333779 34.708406 1.315091 1.474597 0.091880 -0.037955 -15142.600000 0 0 1
-7.928825 33.638397 3.883179 34.777681 -1.339314 1.458906 0.122314 -0.027892 63626.400000 0 0 1
-6.885725 33.944997 5.030979 34.999811 -1.370662 1.426554 0.131304 -0.032463 437236.000000 0 0 1
-5.744725 -33.475210 4.558079 34.269047 1.400841 1.437392 0.134579 -0.041135 -887873.000000 0 0 1
-4.617125 -33.464810 5.381179 34.207724 1.433692 1.412831 0.126213 -0.047379 298081.000000 0 0 1
-3.433625 -32.671710 4.727079 33.189993 1.466086 1.427886 0.138569 -0.045747 78084.900000 0 0 1
-3.563125 -31.315810 4.424579 31.826918 1.457503 1.431325 0.135439 -0.032075 187275.000000 0 0 1
-4.420925 -31.041610 3.320579 31.530182 1.429328 1.465286 0.124034 -0.041422 -110893.000000 0 0 1
-4.316425 -29.579310 2.798079 30.023263 1.425892 1.477464 0.113678 -0.034808 81305.600000 0 0 1
-3.257025 -29.408910 1.834579 29.645537 1.460496 1.508873 0.117889 -0.026099 441195.000000 0 0 1
-3.075325 -28.085110 1.351679 28.285297 1.461731 1.522991 0.099390 -0.017446 20178.100000 0 0 1
-2.744925 -26.960010 2.337779 27.200036 1.469331 1.484743 0.081263 -0.012986 -336057.000000 0 0 1
-2.895325 -25.692110 1.712579 25.911394 1.458577 1.504654 0.072544 -0.018448 -252625.000000 0 0 1
-2.724225 -24.574610 2.551379 24.856435 1.460392 1.467971 0.049790 -0.018018 -663398.000000 0 1 0
-3.937425 -24.098410 3.311179 24.641440 1.408838 1.436014 0.048649 -0.023131 -583821.000000 0 1 0
-4.311125 -24.913710 4.442279 25.671240 1.399451 1.396876 0.081766 -0.019895 206889.000000 0 0 1
-5.405625 -24.317710 5.129879 25.433982 1.352061 1.367709 0.072681 -0.018580 431693.000000 0 0 1
-6.151325 -25.313110 6.129479 26.761219 1.332408 1.339702 0.097244 -0.018785 -38471.800000 0 0 1
-5.280125 -25.783510 7.106479 27.261165 1.368802 1.307068 0.084938 -0.020861 -137702.000000 0 0 1
-5.972025 -26.465910 8.105279 28.316161 1.348864 1.280494 0.095019 -0.019791 441698.000000 0 0 1
-4.987225 -26.770210 9.285279 28.770348 1.386610 1.242176 0.078004 -0.019676 388213.000000 0 0 1
-4.636325 -25.763910 10.193879 28.092521 1.392748 1.199452 0.060327 -0.029503 141933.000000 0 0 1
-5.679525 -25.331410 11.061679 28.218754 1.350235 1.167995 0.074751 -0.022571 -7397.480000 0 0 1
-5.138125 -24.435310 12.136179 27.762772 1.363541 1.118382 0.046042 -0.024745 110960.000000 0 0 1
-4.157625 -24.944110 13.000879 28.434439 1.405637 1.095926 0.026759 -0.026236 -161655.000000 0 0 1
-3.582825 -24.016110 13.888479 27.973201 1.422704 1.051243 0.035942 -0.032465 38894.700000 0 0 1
-2.662425 -24.727510 14.885079 28.984544 1.463539 1.031477 0.044552 -0.035569 147821.000000 0 0 1
-3.377625 -25.288210 15.956979 30.091977 1.438017 1.011873 0.056612 -0.038048 411512.000000 0 0 1
-2.422125 -25.954210 16.799579 31.011507 1.477743 0.998313 0.066461 -0.039281 694967.000000 0 0 1
-2.925525 -26.303810 18.228279 32.135949 1.460031 0.967665 0.102797 -0.037947 7684.980000 0 0 1
-3.041325 -25.320110 19.194179 31.918241 1.451254 0.925601 0.102664 -0.036132 222768.000000 0 0 1
-3.881225 -25.743710 20.278579 33.000352 1.421159 0.909050 0.180614 -0.037220 -41128.400000 0 0 1
-3.656225 -24.808810 21.458379 33.004652 1.424474 0.862998 0.144973 -0.041639 79392.600000 0 0 1
-2.448325 -25.128110 22.152479 33.587922 1.473669 0.850594 0.115657 -0.046656 480739.000000 0 0 1
-2.109425 -24.194810 23.186279 33.577403 1.483831 0.808572 0.091516 -0.040404 184461.000000 0 0 1
-1.315025 -22.960810 22.665779 32.290333 1.513586 0.792683 0.100469 -0.041107 -346741.000000 0 0 1
-2.130025 -21.963910 22.120479 31.245254 1.474120 0.784187 0.111706 -0.035382 -413034.000000 0 0 1
-1.424025 -20.815210 21.691979 30.097222 1.502490 0.765941 0.114506 -0.035281 -474644.000000 0 0 1
-2.292025 -19.664210 21.165979 28.981601 1.454762 0.751999 0.092646 -0.021370 -1290100.000000 0 0 1
-3.070325 -19.044210 22.135879 29.361641 1.410951 0.716811 0.098875 -0.032983 -228731.000000 0 0 1
-4.403925 -19.486310 22.234579 29.891258 1.348529 0.731985 0.088566 -0.029977 -269643.000000 0 0 1
-5.379625 -19.112610 21.069479 28.950909 1.296425 0.755738 0.063568 -0.034625 -823851.000000 0 0 1
-5.245125 -19.868410 19.893779 28.601180 1.312692 0.801600 0.081342 -0.040617 -162118.000000 0 0 1
-6.031825 -21.055810 19.955379 29.630173 1.291800 0.831888 0.076158 -0.030607 122123.000000 0 0 1
-5.966225 -21.837810 18.631479 29.319239 1.304099 0.882180 0.053587 -0.040171 142572.000000 0 0 1
-6.465125 -23.166610 18.861579 30.565484 1.298649 0.905760 0.054155 -0.036585 -129294.000000 0 0 1
-6.134525 -23.986510 17.759679 30.469513 1.320414 0.948544 0.057622 -0.034756 3118.740000 0 0 1
-6.733425 -25.415210 17.798679 31.750037 1.311810 0.975701 0.043235 -0.035280 -499945.000000 0 0 1
-8.117225 -25.355910 17.902279 32.082754 1.260974 0.978819 0.064525 -0.036465 -1208380.000000 0 0 1
-8.751125 -26.610710 17.911879 33.249774 1.253080 1.001895 0.067841 -0.028393 627268.000000 0 0 1
-10.293825 -26.506510 18.078779 33.695699 1.200372 1.004476 0.062829 -0.031315 -68159.400000 0 0 1
-10.983325 -25.868310 17.010679 32.850663 1.169276 1.026497 0.088314 -0.030907 187189.000000 0 0 1
-12.394625 -25.922210 17.191779 33.483503 1.124784 1.031607 0.091399 -0.033359 693213.000000 0 0 1
-13.009925 -24.911510 18.189679 33.476945 1.089511 0.996375 0.074535 -0.034024 -881344.000000 0 0 1
-13.053925 -23.604810 17.654879 32.237971 1.065638 0.991252 0.067623 -0.025845 -60284.600000 0 0 1
-13.147925 -22.642610 18.692679 32.170980 1.044710 0.950788 0.057215 -0.017185 709546.000000 0 0 1
-11.746625 -22.240310 19.283479 31.693329 1.084869 0.916703 0.058361 -0.021656 770331.000000 0 0 1
-11.202725 -23.179910 20.201179 32.724561 1.120602 0.905478 0.055682 -0.021213 -214696.000000 0 0 1
-9.796325 -23.213810 20.179879 32.281209 1.171466 0.895501 0.069223 -0.036923 -33627.300000 0 0 1
-9.194025 -24.171610 21.204679 33.443014 1.207331 0.884012 0.070455 -0.034981 -30729.600000 0 0 1
-9.166425 -23.694010 22.507979 33.941693 1.201663 0.845795 0.065498 -0.033491 106105.000000 0 0 1
-8.424125 -24.547610 23.349679 34.910722 1.240215 0.838149 0.067774 -0.031408 -305114.000000 0 0 1
-8.284725 -24.087910 24.770779 35.531050 1.239533 0.799370 0.075148 -0.028099 -459721.000000 0 0 1
-7.286425 -24.752510 25.463579 36.251518 1.284512 0.792013 0.107038 -0.026158 -323299.000000 0 0 1
-6.922625 -24.102910 26.683579 36.618115 1.291113 0.754376 0.101104 -0.030804 -269825.000000 0 0 1
-5.860925 -24.820310 27.537179 37.532578 1.338910 0.747063 0.113245 -0.032412 278007.000000 0 0 1
-4.584125 -24.494910 26.999479 36.742165 1.385790 0.745371 0.120541 -0.034518 -255305.000000 0 0 1
-3.512925 -24.801510 27.841379 37.451274 1.430091 0.732653 0.125490 -0.031242 226952.000000 0 0 1
-2.141525 -24.299010 27.303379 36.612873 1.482891 0.729164 0.112294 -0.030511 -163815.000000 0 0 1
-2.078625 -22.869110 27.064379 35.493626 1.480153 0.703607 0.107291 -0.029125 725225.000000 0 0 1
-0.836625 -22.400910 26.486179 34.698968 1.533466 0.702370 0.116274 -0.035727 1220390.000000 0 0 1
0.291475 -22.066010 27.517579 35.273374 -1.557588 0.675934 0.118288 -0.025391 209614.000000 0 0 1
0.762075 -23.267010 28.142679 36.523210 -1.538055 0.691105 0.121434 -0.013012 101719.000000 0 0 1
1.600375 -22.925210 29.260879 37.206525 -1.501101 0.665764 0.108220 -0.031768 181972.000000 0 0 1
2.375975 -24.181810 29.761379 38.420631 -1.472856 0.684683 0.125888 -0.039044 -748961.000000 0 0 1
3.450975 -24.443110 28.893179 38.002508 -1.430539 0.707027 0.109528 -0.036830 164795.000000 0 0 1
4.304175 -25.481410 29.374779 39.124235 -1.403462 0.721512 0.094065 -0.027956 -1220570.000000 0 0 1
5.443975 -25.197610 30.314279 39.793365 -1.358016 0.704721 0.076955 -0.026683 -610262.000000 0 0 1
6.602675 -24.617410 29.737679 39.165568 -1.308752 0.708588 0.070059 -0.023406 304426.000000 0 0 1
7.411875 -25.524410 28.997679 39.335693 -1.288185 0.741902 0.060196 -0.016568 -1071610.000000 0 0 1
8.611575 -24.830810 28.380879 38.680778 -1.236966 0.747015 0.059500 -0.010614 -484969.000000 0 0 1
8.222175 -24.026810 27.297479 37.283295 -1.241080 0.749303 0.073044 -0.020037 -789947.000000 0 0 1
9.306775 -23.402410 26.746479 36.737759 -1.192288 0.755341 0.053022 -0.005387 -787807.000000 0 0 1
8.910275 -22.240610 25.779579 35.194096 -1.189746 0.748813 0.068693 -0.009115 -167808.000000 0 0 1
8.405075 -22.634710 24.548979 34.432945 -1.215242 0.777100 0.067661 -0.007489 -42162.200000 0 0 1
7.987675 -21.431210 23.831879 33.031169 -1.214033 0.764835 0.070557 -0.008020 -304185.000000 0 0 1
7.274275 -21.891210 22.537179 32.250032 -1.249983 0.797041 0.065461 -0.010565 -82809.300000 0 0 1
8.114175 -22.579810 21.636679 32.308412 -1.225812 0.837003 0.059761 -0.009814 -306717.000000 0 0 1
7.510275 -22.690010 20.400879 31.423504 -1.251152 0.864233 0.074177 -0.013840 -399184.000000 0 0 1
8.200475 -23.650810 19.394279 31.666175 -1.237036 0.911627 0.094541 -0.032388 1139360.000000 0 0 1
9.513075 -23.135710 19.064479 31.451773 -1.180684 0.919586 0.099356 -0.019009 619664.000000 0 0 1
10.174175 -24.003610 18.156179 31.770016 -1.169891 0.962478 0.094803 -0.023019 691272.000000 0 0 1
11.601275 -23.536310 17.717779 31.661761 -1.112837 0.976899 0.088927 -0.018733 425761.000000 0 0 1
11.603875 -22.395710 16.872679 30.346417 -1.092751 0.981228 0.101434 -0.016229 -609358.000000 0 0 1
12.782975 -22.228310 16.154779 30.306420 -1.048905 1.008597 0.091792 -0.019333 -365657.000000 0 0 1
-12.660025 22.474397 11.384779 28.195531 -1.057793 1.155152 0.051154 -0.024612 284592.000000 0 0 1
-13.754825 21.673297 10.987279 27.922165 -1.005292 1.166364 0.043628 -0.029828 356719.000000 0 0 1
-13.138925 20.475297 10.692779 26.574512 -1.000281 1.156692 0.069983 -0.037401 204768.000000 0 0 1
-14.003425 19.657397 9.718579 26.018454 -0.951814 1.187989 0.087744 -0.038324 -402229.000000 0 0 1
-14.082525 20.371497 8.495279 26.181772 -0.965943 1.240342 0.092110 -0.044065 304614.000000 0 0 1
-14.789625 19.688097 7.426979 25.719918 -0.926530 1.277861 0.089899 -0.039662 295553.000000 0 0 1
-16.329725 19.681397 7.510779 26.653876 -0.878204 1.285138 0.089605 -0.038136 -224146.000000 0 0 1
-16.898125 18.845097 8.541879 26.714191 -0.839815 1.245330 0.085222 -0.043509 -575378.000000 0 0 1
-18.271925 18.829197 8.336279 27.529901 -0.800417 1.263159 0.076779 -0.036564 -644034.000000 0 0 1
-19.110325 17.908197 9.288179 27.788097 -0.752936 1.229987 0.077903 -0.034722 50946.900000 0 0 1
-19.197425 16.601497 8.834079 26.873626 -0.713011 1.235841 0.075847 -0.039139 388854.000000 0 0 1
-19.663725 15.676297 9.911179 27.030350 -0.673043 1.195371 0.081997 -0.039484 -200957.000000 0 0 1
-18.619425 15.277697 10.992579 26.475041 -0.687131 1.142628 0.079917 -0.025759 -165752.000000 0 0 1
-17.606625 14.549197 10.332579 25.068597 -0.690602 1.145959 0.058597 0.000090 -251107.000000 0 0 1
-16.889625 13.637297 11.164679 24.410763 -0.679259 1.095764 0.064332 -0.009511 74164.400000 0 1 0
-17.590925 12.398597 11.836879 24.561709 -0.613960 1.067947 0.049955 -0.006242 -260746.000000 0 1 0
-18.120325 11.404097 10.985079 24.063906 -0.561724 1.096743 0.023965 -0.010258 509324.000000 0 1 0
-18.984025 10.517397 11.720079 24.665139 -0.505919 1.075642 0.046473 -0.016100 424948.000000 0 1 0
-19.870425 9.670197 10.749879 24.574507 -0.452921 1.118046 0.049844 -0.023557 103412.000000 0 1 0
-19.076525 8.783297 9.939979 23.234959 -0.431489 1.128736 0.020013 -0.020348 702445.000000 0 1 0
-18.704225 9.258997 8.660279 22.595962 -0.459657 1.177466 0.041646 -0.016549 -272011.000000 0 1 0
-19.874025 9.216497 7.622979 23.195484 -0.434226 1.235932 0.061917 -0.026913 449685.000000 0 1 0
-20.431325 7.942697 7.316779 23.109754 -0.370771 1.248643 0.054008 -0.029074 153882.000000 0 1 0
-21.430625 8.027297 6.355179 23.750737 -0.358395 1.299918 0.074159 -0.031326 -361233.000000 0 1 0
-21.583225 6.738797 5.602079 23.294426 -0.302633 1.327926 0.082013 -0.031201 125137.000000 0 1 0
-22.242825 5.740497 6.424279 23.853049 -0.252572 1.298102 0.095125 -0.026745 646786.000000 0 1 0
-21.956225 4.494797 5.922479 23.180914 -0.201926 1.312442 0.100319 -0.040783 -146374.000000 0 1 0
-23.128225 3.467397 6.037779 24.153518 -0.148812 1.318142 0.134648 -0.039040 616188.000000 0 1 0
-24.277925 3.846197 5.282279 25.141864 -0.157118 1.359120 0.169972 -0.046085 -155538.000000 0 0 1
-25.168775 2.803897 5.217479 25.856356 -0.110946 1.367614 0.181773 -0.047602 206277.000000 0 0 1
-26.421015 3.053597 4.273079 26.937960 -0.115064 1.411497 0.193677 -0.048394 626764.000000 0 0 1
-26.156435 2.901197 2.893679 26.475449 -0.110466 1.461281 0.194901 -0.044620 645101.000000 0 0 1
-27.368945 2.890397 2.147579 27.604812 -0.105219 1.492920 0.197344 -0.035472 357250.000000 0 0 1
-27.158225 2.656097 0.600979 27.294417 -0.097491 1.548776 0.210885 -0.036804 -9419.640000 0 0 1
-26.316925 3.659297 0.005379 26.570115 -0.138161 1.570594 0.196375 -0.040517 515285.000000 0 0 1
-26.496785 3.936297 -1.373221 26.822748 -0.147479 1.622015 0.214663 -0.026765 -193400.000000 0 0 1
-27.823655 4.605397 -1.831521 28.261634 -0.164034 1.635648 0.206837 -0.031142 743725.000000 0 0 1
-28.927385 3.710697 -1.599021 29.208214 -0.127580 1.625569 0.194958 -0.033870 617256.000000 0 0 1
-30.182575 4.292297 -1.921921 30.546774 -0.141264 1.633755 0.182665 -0.021525 -108014.000000 0 0 1
-31.279065 3.234597 -2.002021 31.509532 -0.103045 1.634376 0.176125 -0.023335 -762446.000000 0 0 1
-31.348475 2.647697 -3.296521 31.632329 -0.084260 1.675200 0.157616 -0.029965 1242180.000000 0 0 1
-32.329845 1.560197 -3.272021 32.532433 -0.048221 1.671544 0.164261 -0.034697 748829.000000 0 0 1
-32.651055 0.948397 -4.696521 33.000730 -0.029038 1.713597 0.158895 -0.036069 -124051.000000 0 0 1
-31.476515 0.317397 -5.196221 31.904113 -0.010083 1.734395 0.180477 -0.038361 522902.000000 0 0 1
-31.490935 -0.409203 -6.422721 32.141838 0.012994 1.771975 0.186198 -0.034823 -414730.000000 0 0 1
-31.738185 0.409297 -7.719321 32.666004 -0.012895 1.809363 0.173811 -0.030749 -338342.000000 0 0 1
-33.075605 0.844097 -7.710521 33.972935 -0.025515 1.799752 0.170512 -0.028319 80869.600000 0 0 1
-33.402075 1.650997 -8.833021 34.589690 -0.049388 1.829022 0.188599 -0.033060 -1072010.000000 0 0 1
-34.860073 2.023397 -8.908321 36.037162 -0.057978 1.820584 0.211476 -0.034358 -950948.000000 0 0 1
-35.255089 2.876597 -7.881921 36.239768 -0.081413 1.790042 0.171935 -0.026350 -420716.000000 0 0 1
-36.626975 2.832297 -7.655121 37.525432 -0.077175 1.776237 0.172245 -0.025615 -731460.000000 0 0 1
-36.960645 3.701697 -6.410321 37.694616 -0.099820 1.741686 0.180769 -0.015227 614466.000000 0 0 1
36.027186 3.683497 -6.111721 36.727094 0.101888 1.737983 0.191160 -0.019668 829921.000000 0 0 1
35.637366 4.271897 -4.909021 36.226640 0.119302 1.706723 0.200930 -0.020228 1094390.000000 0 0 1
34.081756 4.202797 -4.635321 34.651346 0.122696 1.704969 0.191803 -0.027938 1045030.000000 0 0 1
33.645736 3.106897 -3.885121 34.011506 0.092080 1.685276 0.174659 -0.026825 1793810.000000 0 0 1
32.242866 2.779597 -4.218421 32.636232 0.085996 1.700415 0.163041 -0.030262 1890650.000000 0 0 1
31.991336 1.378497 -3.605421 32.223360 0.043063 1.682920 0.190138 -0.026186 -79362.500000 0 0 1
32.667996 0.265497 -4.183821 32.935889 0.008127 1.698170 0.129277 -0.031074 296253.000000 0 0 1
32.426586 -0.883103 -3.430621 32.619511 -0.027227 1.676162 0.134572 -0.026988 416586.000000 0 0 1
33.582446 -1.918503 -3.689221 33.838908 -0.057066 1.680037 0.115269 -0.032656 493818.000000 0 0 1
33.476336 -3.184703 -3.140921 33.773848 -0.094848 1.663930 0.084869 -0.023091 407314.000000 0 0 1
34.736876 -3.838703 -3.285921 35.102471 -0.110061 1.664543 0.112009 -0.026218 684517.000000 0 0 1
34.626006 -5.269503 -2.787521 35.135427 -0.151025 1.650216 0.123715 -0.024004 -60262.500000 0 0 1
34.539466 -5.512103 -1.379221 35.003718 -0.158254 1.610209 0.104463 -0.011577 40970.300000 0 0 1
34.441656 -6.941103 -1.105221 35.151502 -0.198868 1.602243 0.125348 -0.019775 -244232.000000 0 0 1
34.130456 -7.328803 0.322179 34.909930 -0.211517 1.561567 0.123607 -0.012457 154355.000000 0 0 1
32.742526 -7.253403 0.605779 33.541792 -0.218008 1.552735 0.115807 -0.014040 84257.300000 0 0 1
32.386706 -7.710003 1.895179 33.345683 -0.233711 1.513931 0.133732 -0.021042 -450152.000000 0 0 1
32.087746 -9.279403 2.035479 33.464518 -0.281509 1.509934 0.141834 -0.016936 -89036.700000 0 0 1
31.017476 -9.875103 1.358679 32.579863 -0.308226 1.529081 0.155458 -0.029311 1249100.000000 0 0 1
29.683256 -9.395703 1.716379 31.182060 -0.306554 1.515725 0.162965 -0.038284 692981.000000 0 0 1
28.573176 -10.481203 1.451879 30.469492 -0.351580 1.523128 0.189429 -0.038302 421293.000000 0 0 1
27.264176 -10.246703 1.976779 29.193113 -0.359498 1.503031 0.209922 -0.045468 834053.000000 0 0 1
26.514476 -9.151303 1.569379 28.093180 -0.332342 1.514904 0.208147 -0.053034 -1091000.000000 0 0 1
25.833876 -9.328303 0.222179 27.467358 -0.346518 1.562707 0.188332 -0.043772 -603578.000000 0 0 1
26.746476 -9.546603 -0.865721 28.412340 -0.342835 1.601271 0.172653 -0.052282 999294.000000 0 0 1
26.056276 -9.949003 -2.097021 27.969799 -0.364743 1.645841 0.164401 -0.052574 456940.000000 0 0 1
25.318676 -11.340403 -2.161321 27.826452 -0.421112 1.648546 0.151328 -0.039341 -95445.500000 0 0 1
24.079176 -11.265603 -1.515421 26.627374 -0.437604 1.627739 0.156068 -0.028347 -532566.000000 0 0 1
23.539376 -12.578203 -1.395021 26.725634 -0.490746 1.623018 0.131219 -0.018855 218555.000000 0 0 1
22.004576 -12.463403 -1.211721 25.318097 -0.515348 1.618674 0.120389 -0.021860 418575.000000 0 0 1
21.189576 -12.142903 -2.353621 24.535439 -0.520375 1.666871 0.110461 -0.017816 604269.000000 0 1 0
19.843376 -12.501703 -2.077621 23.545035 -0.562200 1.659152 0.106400 -0.015808 109653.000000 0 1 0
18.807176 -11.842303 -2.989221 22.425108 -0.561950 1.704492 0.098791 -0.015167 -213632.000000 0 1 0
18.727876 -12.473103 -4.239521 22.897274 -0.587553 1.757025 0.100659 -0.022043 147776.000000 0 1 0
18.038176 -11.696803 -5.173821 22.112427 -0.575283 1.806964 0.100998 -0.025503 -376230.000000 0 1 0
18.048276 -12.285603 -6.615321 22.813127 -0.597661 1.865001 0.109327 -0.035431 -252351.000000 0 1 0
17.171976 -13.354103 -6.852821 22.807235 -0.660975 1.875979 0.110403 -0.041463 254639.000000 0 1 0
17.333876 -13.810603 -8.206521 23.633514 -0.672750 1.925424 0.110697 -0.045673 -597672.000000 0 1 0
16.586976 -15.085303 -8.691221 24.046444 -0.738021 1.940603 0.106933 -0.041229 -52063.000000 0 1 0
15.191076 -14.983903 -8.887421 23.114333 -0.778533 1.965461 0.114955 -0.027435 203278.000000 0 1 0
14.685376 -16.082603 -9.628621 23.812197 -0.830779 1.987072 0.108976 -0.024619 -129316.000000 0 1 0
14.265176 -15.830403 -11.075021 24.015682 -0.837360 2.050096 0.112246 -0.037826 515161.000000 0 1 0
13.080976 -14.986803 -11.224321 22.840788 -0.853195 2.084511 0.083744 -0.032753 1066760.000000 0 1 0
13.188576 -13.613003 -10.860721 21.845083 -0.801233 2.091130 0.075693 -0.027759 -566798.000000 0 1 0
13.379976 -12.623303 -12.032821 21.980908 -0.756307 2.150076 0.092972 -0.017663 900381.000000 0 1 0
14.659076 -12.759103 -12.717721 23.225496 -0.716213 2.150261 0.107277 -0.023838 1264650.000000 0 1 0
14.635376 -12.248203 -14.037621 23.691085 -0.696834 2.204989 0.127234 -0.024858 381464.000000 0 1 0
16.036176 -11.807003 -14.584221 24.683269 -0.634658 2.202914 0.123117 -0.040618 952992.000000 0 1 0
16.962476 -12.858703 -14.906821 25.986249 -0.648644 2.181742 0.116632 -0.038538 353193.000000 0 0 1
18.047576 -12.326603 -15.649021 26.880327 -0.599229 2.192196 0.112532 -0.031880 -136523.000000 0 0 1
19.030476 -13.483203 -15.972021 28.267671 -0.616412 2.171263 0.094783 -0.030866 128932.000000 0 0 1
19.792376 -13.864203 -14.791321 28.332622 -0.611049 2.120060 0.087836 -0.040764 367805.000000 0 0 1
20.900776 -14.692003 -15.031621 29.641981 -0.612697 2.102620 0.056193 -0.030533 -454608.000000 0 0 1
21.920476 -14.724903 -13.908421 29.845841 -0.591508 2.055571 0.056784 -0.033474 -359388.000000 0 0 1
22.612776 -13.490503 -13.809421 29.732666 -0.537907 2.053813 0.058488 -0.021741 117781.000000 0 0 1
23.419176 -13.360603 -12.646021 29.780621 -0.518445 2.009360 0.057644 -0.017822 370637.000000 0 0 1
24.222376 -12.030303 -12.632421 29.850121 -0.460973 2.007765 0.066844 -0.019373 -320176.000000 0 0 1
23.404476 -10.927903 -12.306721 28.611955 -0.436831 2.015428 0.064033 -0.013123 -60909.600000 0 0 1
23.963576 -9.636403 -12.275021 28.597017 -0.382339 2.014449 0.074555 -0.023328 61223.300000 0 0 1
25.114476 -9.314603 -11.267521 29.059521 -0.355159 1.968974 0.086599 -0.024755 873750.000000 0 0 1
26.323676 -10.024103 -11.567421 30.450350 -0.363847 1.960461 0.079543 -0.020131 653332.000000 0 0 1
27.383976 -9.547603 -10.764321 30.933953 -0.335477 1.926209 0.092698 -0.022907 953771.000000 0 0 1
28.829476 -10.137703 -11.015721 32.484732 -0.338138 1.916761 0.095262 -0.025862 1103570.000000 0 0 1
29.433066 -9.705003 -12.238821 33.320882 -0.318505 1.946903 0.081909 -0.027676 604129.000000 0 0 1
30.736496 -10.279703 -12.362421 34.687663 -0.322752 1.935200 0.067892 -0.028820 179040.000000 0 0 1
31.340306 -10.012403 -13.763221 35.663556 -0.309225 1.966999 0.045849 -0.017675 -269129.000000 0 0 1
30.835186 -10.659703 -14.917221 35.874245 -0.332838 1.999640 0.046985 -0.013806 193521.000000 0 0 1
31.618786 -10.291103 -16.038621 36.917364 -0.314661 2.020220 0.028507 -0.012216 -332526.000000 0 0 1
31.209626 -11.104803 -17.324721 37.383196 -0.341844 2.052665 0.014752 -0.002641 -264370.000000 0 0 1
29.957546 -10.754703 -17.837921 36.487116 -0.344668 2.081605 0.031949 -0.006996 -305363.000000 0 0 1
29.890536 -9.435203 -18.423121 36.357648 -0.305760 2.102171 0.030944 -0.004111 -1482170.000000 0 0 1
28.528576 -8.990003 -18.856221 35.358972 -0.305272 2.133269 0.001994 -0.011478 -1288070.000000 0 0 1
28.082376 -9.568103 -20.051821 35.808434 -0.328380 2.165152 -0.008453 -0.001287 1332790.000000 0 0 1
26.702376 -9.281803 -20.390221 34.855844 -0.334537 2.195661 0.024862 -0.004507 1327070.000000 0 0 1
26.168676 -9.691203 -21.831221 35.430513 -0.354675 2.234667 0.044971 -0.010637 94083.800000 0 0 1
25.817576 -11.096403 -21.928221 35.644414 -0.405930 2.233428 0.036615 -0.009074 233823.000000 0 0 1
25.016376 -11.370703 -23.072921 35.881355 -0.426615 2.269249 0.049619 -0.021085 -890196.000000 0 0 1
25.187376 -12.842703 -23.472221 36.746212 -0.471525 2.263689 0.044814 -0.008043 913588.000000 0 0 1
26.405776 -13.366603 -24.021321 38.117646 -0.468595 2.252593 0.044166 -0.006677 100523.000000 0 0 1
27.569576 -13.130103 -23.284721 38.401294 -0.444470 2.222262 0.028400 0.000047 -881753.000000 0 0 1
28.832276 -13.754503 -23.919021 39.907469 -0.445121 2.213500 0.019956 0.003836 110042.000000 0 0 1
29.381666 -12.935703 -24.972721 40.672491 -0.414728 2.231909 0.039923 -0.010009 -98146.900000 0 0 1
30.692166 -13.420503 -25.176841 41.904562 -0.412210 2.215315 0.023975 -0.007396 4975.360000 0 0 1
31.415706 -12.864303 -26.404321 43.007267 -0.388657 2.231852 0.035288 -0.005113 -66036.600000 0 0 1
31.267956 -13.638303 -27.572261 43.862489 -0.411298 2.250557 0.044295 -0.009995 274426.000000 0 0 1
32.190346 -13.261003 -28.590951 45.050139 -0.390771 2.258348 0.046115 -0.008169 260746.000000 0 0 1
32.094736 -14.125303 -29.854761 46.053263 -0.414601 2.276101 0.048441 -0.015362 -35289.100000 0 0 1
32.625746 -15.395303 -29.730191 46.747609 -0.440896 2.260064 0.061562 -0.010266 -353757.000000 0 0 1
33.043066 -16.065803 -30.912751 48.016168 -0.452553 2.270249 0.041459 -0.013908 534286.000000 0 0 1
31.947956 -16.694203 -31.862611 48.110231 -0.481519 2.294659 0.027602 -0.008995 582235.000000 0 0 1
31.168166 -15.722303 -32.535411 47.720000 -0.467189 2.321014 0.024234 -0.010339 346232.000000 0 0 1
29.934576 -16.337703 -32.921631 47.400772 -0.499598 2.338574 0.031364 -0.005978 641915.000000 0 0 1
29.035176 -15.483103 -33.849811 47.207813 -0.489895 2.370340 0.041707 -0.008329 -195635.000000 0 0 1
28.359676 -14.370503 -33.325631 46.058444 -0.469012 2.379729 0.050412 -0.012849 -143604.000000 0 0 1
29.068676 -13.118103 -33.338741 46.136149 -0.423918 2.378376 0.068859 -0.017606 -146108.000000 0 0 1
28.259676 -11.850903 -32.930711 44.983163 -0.397082 2.392148 0.067848 -0.019220 156548.000000 0 0 1
27.188976 -11.570603 -33.807431 44.900575 -0.402347 2.423314 0.067432 -0.013313 -247091.000000 0 0 1
26.601076 -10.326803 -33.548191 44.042493 -0.370301 2.436765 0.049639 -0.024266 89858.200000 0 0 1
21.325375 -29.890610 9.018779 37.809503 -0.951102 1.329942 0.032492 -0.016206 -133355.000000 0 0 1
21.675375 -29.788210 7.745079 37.644994 -0.941754 1.363577 0.040232 -0.018393 1017850.000000 0 0 1
23.096775 -30.009310 7.561479 38.616002 -0.914835 1.373711 0.053342 -0.017032 1102660.000000 0 0 1
23.644775 -29.670510 6.197079 38.442402 -0.897941 1.408886 0.051195 -0.017272 -197214.000000 0 0 1
23.857075 -28.295610 5.910379 37.479783 -0.870300 1.412440 0.048251 -0.007907 160305.000000 0 0 1
24.500875 -28.075210 4.653179 37.552128 -0.853278 1.446564 0.052566 -0.003575 1518.060000 0 0 1
24.550475 -26.563010 4.231079 36.417322 -0.824752 1.454350 0.056329 -0.007571 -154943.000000 0 0 1
25.127375 -25.780310 5.228379 36.377813 -0.798223 1.426572 0.057459 -0.001074 1038.210000 0 0 1
24.851375 -24.407210 5.033479 35.194298 -0.776381 1.427284 0.050631 0.001312 -297489.000000 0 0 1
25.730675 -23.576110 5.959579 35.403632 -0.741729 1.401659 0.031209 0.006232 -319010.000000 0 0 1
26.955275 -23.126310 5.437379 35.930184 -0.709092 1.418881 0.042028 0.003228 -258263.000000 0 0 1
27.729775 -22.424010 6.359579 36.224589 -0.680000 1.394322 0.067407 -0.002924 -86981.900000 0 0 1
27.441475 -20.931710 6.489679 35.118185 -0.651628 1.384933 0.047519 0.002278 -448699.000000 0 0 1
27.848275 -20.161710 5.332879 34.791674 -0.626642 1.416909 0.053359 0.013570 428098.000000 0 0 1
27.452775 -18.783010 5.522179 33.718700 -0.600039 1.406283 0.064299 0.000040 -139356.000000 0 0 1
27.555175 -17.901310 4.280679 33.137121 -0.576131 1.441254 0.067792 0.008297 -78322.200000 0 0 1
28.887075 -17.730910 3.865179 34.114335 -0.550505 1.457252 0.097900 0.004379 86059.300000 0 0 1
28.874775 -17.077110 2.599679 33.647268 -0.534087 1.493457 0.105329 0.011315 196821.000000 0 0 1
30.020175 -16.039010 2.524979 34.129698 -0.490690 1.496747 0.140611 -0.014567 77874.200000 0 0 1
29.713875 -14.898810 3.272479 33.400569 -0.464774 1.472662 0.142567 -0.025758 -49330.900000 0 0 1
30.770775 -13.997510 3.372479 33.972702 -0.426918 1.471362 0.166497 -0.033940 -202020.000000 0 0 1
30.409575 -12.954910 4.434579 33.350224 -0.402729 1.437431 0.172728 -0.033932 181170.000000 0 0 1
30.326775 -13.500410 5.755379 33.691226 -0.418826 1.399127 0.153923 -0.028551 38767.500000 0 0 1
30.169275 -12.443110 6.692679 33.313782 -0.391187 1.368522 0.146134 -0.025443 -81055.200000 0 0 1
29.887375 -12.780110 8.202979 33.524249 -0.404078 1.323599 0.156268 -0.018179 1004080.000000 0 0 1
28.538575 -13.305410 8.367679 32.580703 -0.436265 1.311056 0.141426 -0.015086 1206710.000000 0 0 1
28.083075 -13.467910 9.702579 32.621829 -0.447174 1.268801 0.137458 -0.009917 -16198.300000 0 0 1
28.741775 -14.570510 10.544779 33.905482 -0.469188 1.254546 0.127410 -0.020523 -181931.000000 0 0 1
29.976075 -14.381110 11.197079 35.082132 -0.447319 1.245945 0.115305 -0.019404 -54929.500000 0 0 1
30.277975 -15.584710 11.886279 36.068304 -0.475355 1.234970 0.116155 -0.023643 289964.000000 0 0 1
31.193175 -15.651810 13.139579 37.291311 -0.465063 1.210716 0.108640 -0.023237 848073.000000 0 0 1
32.490975 -15.069410 12.974179 38.093042 -0.434273 1.223250 0.096475 -0.025977 435782.000000 0 0 1
33.157475 -15.141710 14.212779 39.124067 -0.428379 1.199016 0.096802 -0.030036 751018.000000 0 0 1
34.720275 -14.994110 14.173479 40.388220 -0.407662 1.212231 0.092944 -0.032469 561325.000000 0 0 1
35.151475 -13.740310 13.824979 40.193934 -0.372627 1.219669 0.089535 -0.031602 665310.000000 0 0 1
36.523475 -13.798810 13.413679 41.283146 -0.361229 1.239870 0.083017 -0.031267 703015.000000 0 0 1
-37.154726 -12.399610 13.454579 41.415573 0.322107 1.239925 0.079571 -0.036183 -133782.000000 0 0 1
-35.938126 -12.275510 12.765579 40.064910 0.329148 1.246521 0.091593 -0.038965 -194092.000000 0 0 1
-35.381426 -10.972610 12.874079 39.217157 0.300718 1.236318 0.092376 -0.045870 2513.050000 0 0 1
-34.075826 -10.664210 12.085279 37.695375 0.303300 1.244429 0.095475 -0.035722 1333370.000000 0 0 1
-32.904126 -11.466610 12.374679 36.976984 0.335325 1.229553 0.085412 -0.032535 1049540.000000 0 0 1
-33.073926 -12.817910 11.957179 37.432039 0.369731 1.245661 0.081017 -0.033975 -563104.000000 0 0 1
-31.847026 -13.742610 12.276779 36.794180 0.407380 1.230612 0.067107 -0.021730 1204710.000000 0 0 1
-30.721126 -13.601310 11.382279 35.473081 0.416796 1.244147 0.075888 -0.021688 789109.000000 0 0 1
-29.668826 -14.477010 11.789379 35.054422 0.453964 1.227794 0.083926 -0.018864 -455898.000000 0 0 1
-28.433826 -14.341110 10.929379 33.668995 0.467136 1.240194 0.093398 -0.020018 -916934.000000 0 0 1
-28.509626 -14.587210 9.546979 33.417514 0.472931 1.281072 0.084467 -0.011505 -249078.000000 0 0 1
-27.216726 -14.698210 9.020979 32.220577 0.495167 1.287028 0.085667 -0.009159 -167145.000000 0 0 1
-27.216326 -14.554010 7.496179 31.760672 0.491062 1.332527 0.113126 -0.001244 -7933.390000 0 0 1
-27.556026 -15.747710 6.809679 32.460694 0.519185 1.359444 0.111481 0.004974 261073.000000 0 0 1
-27.242626 -15.652910 5.415079 31.882555 0.521514 1.400124 0.115085 0.003879 -435545.000000 0 0 1
-27.720726 -16.856910 4.584379 32.765997 0.546352 1.430423 0.099527 -0.000383 50487.700000 0 0 1
-29.127926 -16.943310 4.468479 33.992339 0.526845 1.438959 0.070859 -0.011459 -32935.900000 0 0 1
-29.497726 -18.178710 3.926579 34.871182 0.552301 1.457955 0.072060 -0.008781 -779542.000000 0 0 1
-31.005026 -18.336910 4.008279 36.243899 0.534085 1.459978 0.101674 -0.019880 -758589.000000 0 0 1
-31.744026 -17.421610 3.232179 36.354404 0.501933 1.481771 0.123638 -0.022049 439764.000000 0 0 1
-33.131126 -17.530910 3.572779 37.653274 0.486685 1.475767 0.138087 -0.026310 514409.000000 0 0 1
-33.990626 -16.577710 2.698379 37.913907 0.453771 1.499565 0.115781 -0.026718 60651.700000 0 0 1
-34.071126 -16.995310 1.360879 38.099005 0.462702 1.535069 0.114602 -0.015141 66473.700000 0 0 1
-35.236126 -16.401310 0.841579 38.875388 0.435643 1.549147 0.148607 -0.017818 48122.500000 0 0 1
-35.790326 -17.049510 -0.454621 39.646436 0.444567 1.582263 0.142485 -0.017956 -409851.000000 0 0 1
-34.954426 -16.972810 -1.577421 38.889284 0.452037 1.611369 0.139785 -0.018623 -185306.000000 0 0 1
-35.301726 -17.776310 -2.675221 39.615223 0.466486 1.638378 0.123721 -0.016086 -578265.000000 0 0 1
-34.111226 -18.336610 -3.429521 38.878897 0.493237 1.659121 0.097680 -0.005318 -236655.000000 0 0 1
-34.541526 -19.402110 -4.281821 39.848374 0.511784 1.678457 0.098856 -0.021577 247137.000000 0 0 1
-33.432726 -20.192610 -4.626521 39.330565 0.543339 1.688701 0.083735 -0.014634 -380226.000000 0 0 1
-33.819326 -21.385910 -5.507121 40.390993 0.563873 1.707568 0.099993 -0.018683 73355.000000 0 0 1
-34.635026 -22.298610 -4.785221 41.469403 0.572016 1.686446 0.114118 -0.029592 118546.000000 0 0 1
-35.109026 -23.290310 -5.691221 42.514377 0.585718 1.705065 0.092958 -0.016996 48985.500000 0 0 1
-35.823526 -24.450010 -5.003921 43.659675 0.598893 1.685661 0.096773 -0.020795 -526669.000000 0 0 1
-34.933926 -25.474010 -4.642521 43.483990 0.630059 1.677764 0.102015 -0.020887 -263219.000000 0 0 1
-35.501226 -26.741810 -4.538321 44.677263 0.645587 1.672552 0.071658 -0.010318 341877.000000 0 0 1
-34.392526 -27.704910 -4.015221 44.345573 0.678116 1.661464 0.070050 -0.009498 406905.000000 0 0 1
-33.312826 -27.842910 -4.961921 43.698886 0.696193 1.684590 0.070108 -0.007534 1225730.000000 0 0 1
-32.342526 -28.883810 -4.651421 43.611342 0.728967 1.677656 0.076372 0.001141 1288910.000000 0 0 1
-31.379126 -28.621810 -3.419621 42.609287 0.739476 1.651138 0.086989 -0.006930 -134303.000000 0 0 1
-32.046526 -28.617910 -2.165421 43.019224 0.728940 1.621154 0.079335 -0.009374 24413.000000 0 0 1
-31.126026 -28.384710 -1.136621 42.140398 0.739366 1.597772 0.082227 -0.007477 155112.000000 0 0 1
-31.882626 -28.122310 0.230879 42.513756 0.722813 1.565366 0.072193 -0.007239 531035.000000 0 0 1
-32.291726 -29.328810 0.861179 43.631139 0.737352 1.551057 0.071679 -0.004974 407197.000000 0 0 1
-33.052126 -29.167310 2.076779 44.130352 0.723042 1.523719 0.070882 0.000785 210532.000000 0 0 1
-33.609326 -30.464310 2.654479 45.439049 0.736353 1.512345 0.052321 0.002679 -990288.000000 0 0 1
-34.472326 -30.281410 3.739379 46.035725 0.720767 1.489479 0.045167 0.000445 52331.200000 0 0 1
-35.064926 -31.519410 4.168179 47.332821 0.732200 1.482621 0.032603 0.000377 326444.000000 0 0 1
-36.305326 -32.050210 3.394079 48.547012 0.723229 1.500826 0.019878 0.001185 -139747.000000 0 0 1
-37.048926 -33.037010 4.083479 49.807045 0.728218 1.488718 0.039325 -0.010623 -28047.000000 0 0 1
36.598975 -33.769210 3.115879 49.895422 -0.745206 1.508307 0.040784 -0.010436 -816981.000000 0 0 1
35.441875 33.414297 3.645479 48.845995 0.755960 1.496095 0.045071 -0.009182 78000.000000 0 0 1
34.387175 -34.019010 4.363079 48.567554 -0.780016 1.480840 0.051807 -0.018101 690577.000000 0 0 1
33.766775 -32.780010 3.939179 47.225430 -0.770571 1.487287 0.056474 -0.022243 -116451.000000 0 0 1
32.766975 -32.826710 2.723279 46.461637 -0.786309 1.512149 0.053935 -0.018445 -72779.200000 0 0 1
33.278875 -33.337610 1.532479 47.129908 -0.786280 1.538275 0.052699 -0.010114 390512.000000 0 0 1
32.363675 -33.060610 0.419979 46.266486 -0.796050 1.561719 0.056456 -0.005544 -88500.700000 0 0 1
32.885475 -33.835610 -0.859521 47.191543 -0.799638 1.589011 0.055313 -0.008662 1003080.000000 0 0 1
34.093975 -33.362910 -1.458821 47.724323 -0.774561 1.601369 0.025160 0.004280 565779.000000 0 0 1
35.259175 -33.418310 -0.645121 48.584041 -0.758600 1.584075 0.024737 0.006511 -584683.000000 0 0 1
36.583575 -33.323010 -1.448921 49.506366 -0.738790 1.600068 0.024385 0.009466 -127789.000000 0 0 1
36.780375 33.571497 -2.217421 49.847351 0.739818 1.615295 0.028827 -0.005340 221123.000000 0 0 1
-36.952426 34.001297 -3.406821 50.330671 -0.743830 1.638537 0.037681 -0.000295 -429309.000000 0 0 1
-36.213026 32.857097 -4.130821 49.071741 -0.736849 1.655075 0.044657 -0.009153 -505090.000000 0 0 1
-35.012526 32.490897 -3.525421 47.895344 -0.748060 1.644470 0.054229 -0.001815 -429653.000000 0 0 1
-34.428426 31.440897 -4.274021 46.820015 -0.740074 1.662210 0.067763 -0.018270 -298800.000000 0 0 1
-33.159926 30.864097 -3.658021 45.448370 -0.749555 1.651371 0.076170 -0.023696 -2245.610000 0 0 1
-31.972026 31.669297 -3.802621 45.162094 -0.780641 1.655096 0.081942 -0.022558 1652290.000000 0 0 1
-30.696326 31.010397 -3.621021 43.783798 -0.790488 1.653593 0.101241 -0.031499 1407400.000000 0 0 1
-30.342826 30.815597 -2.132221 43.299359 -0.793128 1.620060 0.091938 -0.026654 -775566.000000 0 0 1
-31.197026 29.920997 -1.537021 43.253704 -0.764523 1.606339 0.080843 -0.018988 -523999.000000 0 0 1
-30.837426 29.930997 -0.180021 42.974921 -0.770483 1.574985 0.071943 -0.008957 111510.000000 0 0 1
-32.027726 29.666297 0.799579 43.663529 -0.747140 1.552483 0.067270 -0.011784 580902.000000 0 0 1
-32.580726 28.321997 0.730979 43.176076 -0.715585 1.553865 0.064537 -0.016318 -118819.000000 0 0 1
-33.612026 28.212897 -0.183921 43.883592 -0.698290 1.574987 0.074325 -0.015143 -954352.000000 0 0 1
-33.901526 26.817097 -0.693821 43.231372 -0.669247 1.586846 0.084760 -0.010177 -125425.000000 0 0 1
-34.460326 25.865397 0.192679 43.087933 -0.643875 1.566325 0.085945 -0.015456 -32925.900000 0 0 1
-34.610826 24.639297 -0.418721 42.487405 -0.618665 1.580652 0.103723 -0.007081 -318337.000000 0 0 1
-34.692826 23.427297 0.549379 41.865645 -0.593941 1.557674 0.110758 -0.013470 1472860.000000 0 0 1
-33.415926 23.055897 1.169879 40.614863 -0.603961 1.541988 0.116013 -0.022231 1496930.000000 0 0 1
-32.927826 23.928597 2.150179 40.760799 -0.628421 1.518021 0.095829 -0.020241 -1156600.000000 0 0 1
-31.455626 23.719197 2.504079 39.475652 -0.646090 1.507320 0.092571 -0.027372 561275.000000 0 0 1
-30.520226 24.417197 1.608479 39.118677 -0.674761 1.529667 0.084700 -0.025778 831625.000000 0 0 1
-30.108026 25.734497 2.070379 39.661619 -0.707239 1.518572 0.063291 -0.023878 -214944.000000 0 0 1
-29.444526 26.539497 0.996379 39.652463 -0.733554 1.545666 0.045679 -0.022861 -877629.000000 0 0 1
-28.297626 25.992497 0.482079 38.426527 -0.742964 1.558251 0.054672 -0.026138 -1009450.000000 0 0 1
-27.620626 26.865597 -0.419821 38.533564 -0.771542 1.581691 0.060351 -0.022148 365297.000000 0 0 1
-26.394626 26.168697 -1.074821 37.183763 -0.781100 1.599706 0.063506 -0.028118 -148702.000000 0 0 1
-26.777726 25.086697 -1.939721 36.744408 -0.752805 1.623610 0.068965 -0.034780 -647265.000000 0 0 1
-25.730726 24.594897 -2.700521 35.696947 -0.762832 1.646520 0.065460 -0.030502 -126376.000000 0 0 1
-24.777126 23.595797 -1.959221 34.271069 -0.760982 1.627996 0.066472 -0.032800 496921.000000 0 0 1
-25.435026 22.370697 -1.613721 33.911543 -0.721386 1.618400 0.049074 -0.025366 385702.000000 0 0 1
-24.442726 21.398397 -1.295821 32.511804 -0.719085 1.610664 0.058494 -0.033143 -131287.000000 0 0 1
-25.032226 20.084397 -0.800921 32.103533 -0.676167 1.595747 0.072193 -0.032771 -566807.000000 0 0 1
-25.802826 20.057297 0.379879 32.683716 -0.660764 1.559173 0.045764 -0.022449 1389910.000000 0 0 1
-27.132426 20.656397 0.374679 34.102722 -0.650705 1.559809 0.047277 -0.021398 1545100.000000 0 0 1
-28.170526 19.943997 -0.585621 34.520784 -0.616058 1.587761 0.063896 -0.028038 -563262.000000 0 0 1
-28.468826 18.641397 -0.220221 34.029755 -0.579742 1.577268 0.090471 -0.033892 237911.000000 0 0 1
-29.451026 18.119397 -1.094421 34.595856 -0.551549 1.602436 0.104981 -0.026182 -158107.000000 0 0 1
-29.554726 16.579697 -1.008221 33.902577 -0.511236 1.600539 0.125296 -0.027081 -182902.000000 0 0 1
-30.381526 16.108997 0.031979 34.388049 -0.487533 1.569866 0.133741 -0.038508 85828.800000 0 0 1
-30.385026 14.719697 0.203379 33.763303 -0.451122 1.564773 0.151204 -0.040272 -47266.000000 0 0 1
-29.142226 13.879397 0.633679 32.284804 -0.444479 1.551167 0.150845 -0.039961 -243335.000000 0 0 1
-28.919026 14.000997 2.034779 32.194383 -0.450883 1.507551 0.157427 -0.037740 713730.000000 0 0 1
-27.609726 13.690897 2.536279 30.922004 -0.460340 1.488682 0.150198 -0.035157 664870.000000 0 0 1
-27.153726 12.239797 2.522279 29.891460 -0.423485 1.486315 0.167934 -0.033279 -422235.000000 0 0 1
-26.937626 11.824797 1.166979 29.441864 -0.413643 1.531149 0.154247 -0.035031 557128.000000 0 0 1
-26.381426 10.478597 1.108579 28.407914 -0.378087 1.531763 0.163649 -0.032560 89094.200000 0 0 1
-26.283026 9.957397 -0.343621 28.108100 -0.362144 1.583022 0.152542 -0.028473 -530582.000000 0 0 1
-27.516326 9.545297 -0.873221 29.138006 -0.333907 1.600769 0.165208 -0.038563 149483.000000 0 0 1
-27.489226 9.164897 -2.229021 29.062371 -0.321810 1.647570 0.174344 -0.037665 -166728.000000 0 0 1
-28.893526 8.819297 -2.752321 30.334652 -0.296252 1.661653 0.172614 -0.038588 -127171.000000 0 0 1
-28.740826 8.518797 -4.140621 30.261357 -0.288151 1.708056 0.170847 -0.028960 585351.000000 0 0 1
-29.973026 8.132797 -4.742321 31.416784 -0.264958 1.722324 0.179747 -0.030129 221927.000000 0 0 1
-11.864825 18.029297 -19.582921 29.143102 -0.988758 2.307645 0.119646 -0.020997 125150.000000 0 0 1
-11.926625 17.067097 -20.610621 29.297233 -0.960871 2.351107 0.109624 -0.027006 -654378.000000 0 0 1
-10.857725 17.047097 -21.494921 29.504666 -1.003668 2.386964 0.096856 -0.021347 -560579.000000 0 0 1
-10.939125 15.830597 -22.525321 29.625367 -0.966128 2.434631 0.093216 -0.015409 -146967.000000 0 0 1
-10.495625 14.569497 -22.024721 28.416839 -0.946521 2.457604 0.109265 -0.032509 42395.100000 0 0 1
-10.264425 13.678597 -23.086221 28.730403 -0.927039 2.504026 0.098148 -0.031616 -349106.000000 0 0 1
-9.487125 12.416597 -22.752721 27.601879 -0.918352 2.539792 0.083108 -0.025651 -478058.000000 0 0 1
-8.092725 12.501797 -22.851321 27.275813 -0.996304 2.564014 0.074095 -0.026601 -201858.000000 0 0 1
-7.449925 11.306697 -22.392721 26.168239 -0.988193 2.597740 0.064998 -0.022044 454967.000000 0 0 1
-5.913625 11.201497 -22.301021 25.647223 -1.085054 2.625046 0.059367 -0.017151 472359.000000 0 0 1
-5.222225 11.111497 -23.572521 26.578201 -1.131449 2.661413 0.054854 -0.021528 957986.000000 0 0 1
-3.801425 11.267097 -23.356121 26.208905 -1.245398 2.670675 0.046468 -0.019784 830237.000000 0 0 1
-3.033625 10.951697 -24.653121 27.146251 -1.300571 2.709662 0.076712 -0.028511 -257388.000000 0 0 1
-3.006425 9.630597 -25.080391 27.033553 -1.268208 2.759136 0.087287 -0.036286 1180150.000000 0 0 1
-2.019325 9.595697 -26.184101 27.960011 -1.363382 2.783263 0.088207 -0.037249 579846.000000 0 0 1
-1.832125 8.213597 -26.782701 28.073705 -1.351329 2.837149 0.096715 -0.025221 414958.000000 0 0 1
-0.784925 7.388097 -26.230811 27.262713 -1.464952 2.865580 0.092244 -0.025738 330894.000000 0 0 1
-0.968025 6.914997 -24.885021 25.846054 -1.431711 2.868039 0.104453 -0.041227 -185158.000000 0 0 1
0.051975 5.850397 -24.429321 25.120143 1.561913 2.906528 0.051686 -0.025434 86899.900000 0 0 1
1.365075 6.321097 -24.190721 25.040181 1.358107 2.880375 0.076876 -0.010965 52423.900000 0 0 1
2.013775 5.598497 -23.158321 23.910380 1.225507 2.890119 0.063805 -0.010349 136319.000000 0 1 0
1.892675 6.221397 -21.769921 22.720419 1.275472 2.851319 0.049364 -0.014374 -24524.700000 0 1 0
2.675775 7.384897 -21.632921 23.014772 1.223179 2.793304 0.033173 -0.016939 141187.000000 0 1 0
2.222675 8.131297 -20.530921 22.194076 1.303966 2.751998 0.032789 -0.012337 122542.000000 0 1 0
2.942375 9.518397 -20.423421 22.723855 1.270989 2.687742 0.030375 -0.018874 218178.000000 0 1 0
2.394275 10.395997 -19.387721 22.129009 1.344436 2.638556 0.045131 -0.019302 482205.000000 0 1 0
3.088475 11.651897 -19.311521 22.764890 1.311693 2.583568 0.043741 -0.023725 714972.000000 0 1 0
4.402475 11.700697 -18.476121 22.308186 1.210924 2.546723 0.052477 -0.034638 1046480.000000 0 1 0
5.493775 10.908397 -18.961221 22.554436 1.104250 2.569347 0.057758 -0.031159 182627.000000 0 1 0
6.562975 10.802497 -18.050721 22.036223 1.024849 2.530704 0.066450 -0.025035 352316.000000 0 1 0
7.695775 9.854397 -18.610721 22.420817 0.907781 2.550019 0.097383 -0.035044 257287.000000 0 1 0
7.422575 8.504097 -18.852421 21.973349 0.853200 2.602096 0.079114 -0.024766 22701.600000 0 1 0
6.854475 8.292797 -20.143021 22.836278 0.880070 2.651018 0.058160 -0.009511 2416.390000 0 1 0
6.758775 6.819897 -20.523421 22.658395 0.789899 2.704003 0.064795 -0.009819 217549.000000 0 1 0
8.009175 6.137797 -20.576521 22.917518 0.653881 2.685661 0.066585 -0.009201 361639.000000 0 1 0
7.908275 4.749397 -20.948421 22.889603 0.540831 2.726785 0.061299 -0.000167 -519455.000000 0 1 0
7.971575 4.463297 -22.464321 24.251036 0.510413 2.755332 0.073568 -0.012828 -107441.000000 0 1 0
6.806575 4.866397 -23.159221 24.624394 0.620693 2.794893 0.079827 -0.019733 31639.700000 0 1 0
6.946575 4.649597 -24.498321 25.885158 0.589849 2.812771 0.071340 -0.027498 -250076.000000 0 0 1
5.960175 5.485197 -25.332351 26.595847 0.743922 2.832115 0.059321 -0.030092 -204972.000000 0 0 1
6.186975 6.876197 -25.192991 26.837428 0.838110 2.789711 0.042183 -0.035175 192264.000000 0 0 1
5.589075 7.417697 -24.024821 25.757562 0.925073 2.772705 0.068359 -0.039209 -1129840.000000 0 0 1
5.616775 8.950697 -23.961421 26.188028 1.010384 2.726245 0.073385 -0.039704 -36586.000000 0 0 1
4.692575 9.582897 -24.820421 27.016763 1.115437 2.735584 0.056310 -0.042253 1150580.000000 0 0 1
3.320075 9.419397 -24.402421 26.367140 1.231921 2.753113 0.063685 -0.029765 -528832.000000 0 0 1
2.230775 9.825297 -25.322981 27.253737 1.347537 2.762920 0.090168 -0.018711 -790743.000000 0 0 1
2.025375 11.206897 -25.545981 27.969516 1.392000 2.722235 0.094395 -0.035408 -243050.000000 0 0 1
0.940775 11.353597 -26.421521 28.773008 1.488124 2.734497 0.125640 -0.038896 -456093.000000 0 0 1
0.512775 12.815297 -26.680231 29.602863 1.530805 2.693493 0.116596 -0.044167 -84791.000000 0 0 1
-0.106725 13.484197 -25.621241 28.953116 -1.562882 2.657122 0.101785 -0.045084 13284.400000 0 0 1
-0.595425 14.746097 -26.077101 29.963596 -1.530440 2.626593 0.110881 -0.053569 44008.600000 0 0 1
-1.171025 15.721197 -25.029561 29.580505 -1.496447 2.579517 0.116440 -0.056295 -122372.000000 0 0 1
-2.358625 15.219597 -24.461021 28.905723 -1.417046 2.579674 0.101244 -0.041145 -294201.000000 0 0 1
-2.463325 15.511797 -23.080221 27.917386 -1.413308 2.544072 0.101677 -0.047151 -675931.000000 0 0 1
-3.631425 14.786197 -22.363721 27.054665 -1.329967 2.543858 0.088845 -0.040786 1037940.000000 0 0 1
-4.942825 15.251697 -22.727021 27.813005 -1.257393 2.527222 0.093254 -0.037650 677474.000000 0 0 1
-5.385325 14.773097 -23.998621 28.691112 -1.221231 2.561566 0.090621 -0.037403 -508479.000000 0 0 1
-6.904725 15.038797 -24.196721 29.314194 -1.140378 2.541754 0.061721 -0.029450 231245.000000 0 0 1
-7.323125 16.357097 -24.601921 30.437433 -1.149854 2.512019 0.056720 -0.026835 635916.000000 0 0 1
-8.659625 16.295097 -25.109651 31.161095 -1.082326 2.507824 0.058787 -0.020350 506466.000000 0 0 1
-9.431225 17.533697 -25.676831 32.491202 -1.077297 2.482046 0.061666 -0.020455 85335.800000 0 0 1
-9.874225 18.443497 -24.680421 32.354074 -1.079249 2.438464 0.063267 -0.020409 129957.000000 0 0 1
-10.854425 19.341297 -25.186191 33.559627 -1.059391 2.419601 0.048292 -0.007725 355422.000000 0 0 1
-11.463525 20.226197 -24.078721 33.470827 -1.055172 2.373726 0.050262 -0.015530 126514.000000 0 0 1
-10.722025 21.423897 -23.744221 33.730301 -1.106773 2.351731 0.065259 -0.014633 327018.000000 0 0 1
-11.246825 22.701897 -24.161721 35.009370 -1.110825 2.332493 0.052310 -0.020893 -204117.000000 0 0 1
-11.075425 23.199297 -25.612261 36.288570 -1.125389 2.354340 0.045372 -0.013977 -355993.000000 0 0 1
-11.659025 22.409497 -26.656051 36.724154 -1.091063 2.383059 0.048355 -0.008529 229799.000000 0 0 1
-11.681425 23.016297 -27.934841 38.033682 -1.101144 2.395691 0.060088 -0.003300 -228898.000000 0 0 1
-12.143825 22.146697 -29.110461 38.540467 -1.069232 2.426942 0.059530 -0.009244 -176040.000000 0 0 1
-11.321325 21.119997 -29.591521 38.077353 -1.078728 2.460908 0.058812 -0.014622 -357648.000000 0 0 1
-11.180725 19.972797 -28.808341 36.794589 -1.060462 2.470191 0.053035 -0.013492 -521731.000000 0 0 1
-10.170425 19.049597 -29.458611 36.525805 -1.080404 2.509030 0.048584 -0.014778 -819095.000000 0 0 1
-8.866625 19.491897 -29.122411 36.147834 -1.143885 2.507564 0.042606 -0.014944 -624900.000000 0 0 1
-7.810225 18.752497 -29.632611 35.926973 -1.176156 2.540647 0.046138 -0.013459 -117539.000000 0 0 1
-7.535025 17.428697 -28.907471 34.585806 -1.162730 2.560419 0.060846 -0.033535 -1059060.000000 0 0 1
-8.574325 16.503597 -29.095281 34.531480 -1.091637 2.572839 0.041436 -0.024485 -173603.000000 0 0 1
-8.285125 15.302997 -28.425101 33.328837 -1.074576 2.592250 0.047656 -0.023617 74873.200000 0 0 1
-9.497825 14.290197 -28.442561 33.217430 -0.984199 2.598770 0.047627 -0.014035 241412.000000 0 0 1
-10.426125 14.828897 -27.534771 32.966102 -0.957996 2.559374 0.055958 -0.013130 -1130020.000000 0 0 1
-11.482825 13.959297 -27.354431 32.786920 -0.882430 2.557675 0.104904 -0.017358 -286314.000000 0 0 1
-12.489425 14.438597 -26.250931 32.458746 -0.857657 2.512816 0.100706 -0.017159 -105694.000000 0 0 1
-13.221525 15.521697 -26.702201 33.596716 -0.865253 2.489451 0.093728 -0.013226 -503299.000000 0 0 1
-14.020925 15.936697 -25.585121 33.243993 -0.849261 2.449036 0.084241 -0.016472 123109.000000 0 0 1
-15.033825 17.006097 -26.009541 34.521290 -0.846877 2.424067 0.063340 -0.015601 -263489.000000 0 0 1
-14.476625 18.288097 -26.126251 35.022966 -0.901206 2.412794 0.065123 -0.012807 -31889.900000 0 0 1
-15.430225 19.264597 -26.479451 36.199142 -0.895469 2.391307 0.054205 -0.008504 -138486.000000 0 0 1
-14.998625 20.786197 -26.295891 36.721909 -0.945742 2.368969 0.045868 -0.004708 -374227.000000 0 0 1
-16.044625 21.673097 -26.549451 37.842126 -0.933531 2.348415 0.029682 -0.005576 -217865.000000 0 0 1
-15.710225 23.029397 -26.627331 38.550993 -0.972130 2.333259 0.031548 -0.004648 -141005.000000 0 0 1
-15.148125 23.691297 -25.367811 37.871745 -1.001912 2.304783 -0.000732 0.001448 65830.400000 0 0 1
-14.755925 25.033097 -25.693761 38.788692 -1.038165 2.294819 0.016016 -0.005417 12489.400000 0 0 1
-14.285125 25.776397 -24.601821 38.389283 -1.064739 2.266403 0.019356 -0.011371 -270718.000000 0 0 1
-13.996625 27.261097 -24.918921 39.497159 -1.096464 2.253514 0.056445 -0.014101 -817373.000000 0 0 1
-15.036925 28.061497 -25.358931 40.701746 -1.078877 2.243423 0.064016 -0.015720 -725908.000000 0 0 1
-15.705925 28.619697 -24.240021 40.661305 -1.068890 2.209487 0.060455 -0.019909 -301689.000000 0 0 1
-17.062725 29.314297 -24.460121 41.818203 -1.043671 2.195572 0.050227 -0.012304 -62216.000000 0 0 1
-18.034725 28.367497 -24.892221 41.828087 -1.004502 2.208196 0.024265 -0.005437 -678037.000000 0 0 1
-19.154925 29.146597 -25.263661 43.066087 -0.989381 2.197682 0.030973 -0.004771 -712674.000000 0 0 1
-20.384325 28.253997 -25.330631 43.074934 -0.945808 2.199454 0.029600 0.011525 -798018.000000 0 0 1
-20.785925 27.786297 -24.059721 42.225622 -0.928535 2.177046 0.033929 0.003779 -46305.900000 0 0 1
-21.766525 26.757297 -24.159021 42.111671 -0.887890 2.181800 0.041855 -0.007789 -11126.000000 0 0 1
-22.403225 26.461197 -22.789221 41.490337 -0.868254 2.152282 0.041140 -0.011555 -200922.000000 0 0 1
-23.070225 27.623897 -22.381721 42.382265 -0.874984 2.127148 0.043815 -0.007296 -339258.000000 0 0 1
-23.295525 27.689197 -21.026821 41.850930 -0.871362 2.097194 0.033360 -0.000865 142057.000000 0 0 1
-24.549425 28.524197 -20.615021 42.910176 -0.860150 2.071933 0.019293 -0.000411 760703.000000 0 0 1
-25.782175 27.850397 -20.866621 43.310288 -0.823942 2.073497 0.045537 -0.011745 417821.000000 0 0 1
-26.902205 28.638697 -20.462921 44.301634 -0.816653 2.050932 0.059630 -0.019601 241757.000000 0 0 1
-28.239545 27.968897 -20.796821 44.857986 -0.780583 2.052867 0.058607 -0.016635 -222980.000000 0 0 1
-28.513685 27.620097 -22.117621 45.443252 -0.769481 2.079114 0.053874 -0.015477 -293031.000000 0 0 1
-29.784375 27.021397 -22.232621 45.951652 -0.736797 2.075818 0.070847 -0.010367 17626.200000 0 0 1
-30.174405 26.663797 -23.643221 46.695339 -0.723712 2.101719 0.068029 -0.009642 60663.300000 0 0 1
-29.793055 25.358197 -23.957421 45.876163 -0.705158 2.120248 0.064067 -0.001358 -338861.000000 0 0 1
-30.106345 25.092597 -25.328221 46.664218 -0.694816 2.144535 0.071995 0.001363 98284.800000 0 0 1
-30.232665 23.620897 -25.832221 46.252183 -0.663236 2.163383 0.062915 -0.000418 -353962.000000 0 0 1
-28.995365 22.950697 -25.832171 45.108389 -0.669555 2.180554 0.081947 -0.009246 -269050.000000 0 0 1
-28.987665 21.848897 -26.708841 45.066853 -0.645885 2.205140 0.086580 -0.014927 10309.100000 0 0 1
-27.873855 20.783897 -26.542421 43.742683 -0.640706 2.222806 0.098302 -0.013079 86231.800000 0 0 1
-27.967095 20.070097 -25.326981 42.736672 -0.622462 2.205115 0.084563 -0.008519 96570.400000 0 0 1
-27.314015 18.809097 -25.319401 41.724209 -0.603050 2.222860 0.084870 -0.014470 174066.000000 0 0 1
-28.285325 17.584297 -25.181531 41.753762 -0.556205 2.218173 0.070014 -0.007902 335246.000000 0 0 1
-29.174915 17.482597 -26.275961 42.979565 -0.539856 2.228574 0.067408 -0.009948 46272.300000 0 0 1
-29.970105 16.329297 -26.197371 43.025055 -0.498883 2.225452 0.045085 -0.013011 81896.300000 0 0 1
-30.769115 15.992197 -27.509091 44.263291 -0.479321 2.241437 0.023367 -0.016226 389744.000000 0 0 1
-31.940005 16.744797 -27.753951 45.506417 -0.482865 2.226719 0.015473 -0.013928 -284630.000000 0 0 1
-32.587025 16.237897 -28.880221 46.472042 -0.462281 2.241393 0.022755 -0.016480 388676.000000 0 0 1
-33.954195 16.935197 -29.144371 47.844358 -0.462660 2.225784 0.032631 -0.015131 255513.000000 0 0 1
-35.002107 16.612797 -28.273021 47.963489 -0.443141 2.201198 0.016031 -0.005893 -233677.000000 0 0 1
-36.241875 17.082597 -28.751281 49.314549 -0.440466 2.193235 0.023329 -0.007021 347691.000000 0 0 1
36.922686 16.662497 -27.896451 49.184708 0.423918 2.173871 0.041417 -0.007317 227667.000000 0 0 1
36.762966 17.549697 -26.788911 48.756059 0.445384 2.152500 0.039991 -0.013238 -733993.000000 0 0 1
35.571766 17.240897 -26.170821 47.407921 0.451316 2.155599 0.055838 -0.014633 -744617.000000 0 0 1
34.994876 18.219897 -25.140251 46.782884 0.480027 2.138125 0.065928 -0.012332 -3655.040000 0 0 1
34.479266 19.408997 -25.721341 47.192333 0.512707 2.147224 0.076146 -0.024008 -21278.600000 0 0 1
34.102566 20.315397 -24.713421 46.759529 0.537263 2.127654 0.099155 -0.020564 -878287.000000 0 0 1
33.396886 21.501597 -25.305641 47.096137 0.572019 2.138051 0.111299 -0.035228 861746.000000 0 0 1
32.047676 21.163797 -25.676711 46.197980 0.583641 2.160118 0.105904 -0.031862 1169080.000000 0 0 1
30.980346 21.397997 -24.751221 45.058618 0.604454 2.152337 0.103351 -0.020864 567144.000000 0 0 1
29.533656 21.324897 -25.279311 44.339955 0.625375 2.177454 0.060001 -0.024099 328509.000000 0 0 1
29.148476 20.042297 -25.738651 43.747063 0.602351 2.199815 0.064972 -0.033747 32361.400000 0 0 1
27.948376 20.100097 -26.500991 43.444541 0.623487 2.226852 0.061656 -0.025552 262358.000000 0 0 1
27.350076 18.702497 -26.936211 42.700931 0.599783 2.253394 0.070647 -0.015340 -21773.300000 0 0 1
28.152976 17.971697 -27.820081 43.468711 0.568148 2.265298 0.077894 -0.029415 194899.000000 0 0 1
29.250976 17.334497 -27.174971 43.526813 0.534970 2.245066 0.087605 -0.026099 251297.000000 0 0 1
30.171686 16.367397 -27.977411 44.282704 0.497048 2.254658 0.064575 -0.015989 235054.000000 0 0 1
29.647546 15.070397 -28.408421 43.739367 0.470280 2.277714 0.069774 -0.018071 173324.000000 0 0 1
29.039476 14.191497 -27.417671 42.384177 0.454564 2.274288 0.083279 -0.019967 8722.640000 0 0 1
29.844726 13.450897 -26.298681 41.991129 0.423433 2.247583 0.079990 -0.013077 -105011.000000 0 0 1
30.423066 14.364197 -25.369651 42.136828 0.441119 2.216897 0.073043 -0.020307 549805.000000 0 0 1
31.395066 13.675997 -24.552321 42.136677 0.410823 2.192822 0.059565 -0.009239 488440.000000 0 0 1
-14.366725 -31.374710 -23.761021 41.897032 1.141386 2.173812 0.160341 -0.037924 -87083.600000 0 0 1
-14.069925 -30.061310 -24.110021 41.023630 1.133041 2.199023 0.157753 -0.049491 -235845.000000 0 0 1
-14.361025 -29.700210 -25.453791 41.668177 1.120409 2.227954 0.135613 -0.039620 -50793.900000 0 0 1
-13.733825 -28.371410 -25.987581 40.852285 1.119972 2.260275 0.130011 -0.034956 -32893.400000 0 0 1
-14.334625 -27.226510 -25.436051 39.921886 1.086178 2.261585 0.124956 -0.031441 124448.000000 0 0 1
-13.810825 -26.075310 -26.122251 39.408535 1.083710 2.295425 0.101139 -0.024073 93615.200000 0 0 1
-14.344325 -24.735110 -25.599171 38.378417 1.045274 2.300998 0.046109 -0.013565 -10175.200000 0 0 1
-13.658525 -24.331510 -24.432421 37.088015 1.059280 2.289977 0.079927 -0.026661 246838.000000 0 0 1
-14.221125 -23.131110 -24.003421 36.241590 1.019562 2.294703 0.063492 -0.019685 -104519.000000 0 0 1
-13.546525 -22.727010 -22.695021 34.858131 1.033283 2.279787 0.084567 -0.022996 -579881.000000 0 0 1
-12.214725 -22.363110 -22.850421 34.226451 1.070875 2.301810 0.104317 -0.037868 -1023190.000000 0 0 1
-11.695025 -21.943910 -21.601021 32.938016 1.081137 2.286049 0.090302 -0.031586 345615.000000 0 0 1
-10.158025 -21.804410 -21.788221 32.455266 1.134823 2.306799 0.092036 -0.035150 -36980.400000 0 0 1
-9.802425 -20.702610 -22.522421 32.123901 1.128583 2.347751 0.107966 -0.033133 1315780.000000 0 0 1
-8.341725 -20.753410 -22.533321 31.749629 1.188615 2.359896 0.124064 -0.035235 1247370.000000 0 0 1
-7.756925 -19.571010 -23.276521 31.384562 1.193442 2.406331 0.132317 -0.019728 -404168.000000 0 0 1
-7.787625 -18.267510 -22.658421 30.128940 1.167816 2.421961 0.105349 -0.019562 -22028.600000 0 0 1
-8.166325 -17.230910 -23.549921 30.301681 1.128218 2.460972 0.089196 -0.019213 125215.000000 0 0 1
-7.011125 -16.684710 -24.422721 30.397446 1.172988 2.503858 0.106957 -0.026217 196328.000000 0 0 1
-6.803425 -17.486410 -25.577551 31.721794 1.199748 2.508681 0.119423 -0.030186 290962.000000 0 0 1
-5.735825 -16.959010 -26.371401 31.874104 1.244657 2.545190 0.096529 -0.026742 402102.000000 0 0 1
-5.614925 -17.659610 -27.742791 33.362429 1.262951 2.552703 0.109951 -0.027032 457638.000000 0 0 1
-6.634225 -17.271810 -28.692111 34.140380 1.204065 2.568846 0.130144 -0.027378 446990.000000 0 0 1
-6.643625 -18.040110 -29.834231 35.491755 1.217939 2.569179 0.133605 -0.029470 879666.000000 0 0 1
-7.907425 -17.536510 -30.657191 36.192816 1.147184 2.581210 0.133612 -0.030423 940416.000000 0 0 1
-7.807925 -16.316710 -31.329771 36.176695 1.124477 2.617985 0.104697 -0.029302 -194560.000000 0 0 1
-7.454925 -15.111110 -30.650461 34.976739 1.112490 2.638944 0.085382 -0.026697 -95990.100000 0 0 1
-7.681325 -13.935910 -31.562161 35.346603 1.067040 2.674616 0.075291 -0.031069 75605.700000 0 0 1
-6.869225 -13.860610 -32.731431 36.202891 1.110680 2.700091 0.090691 -0.040980 130390.000000 0 0 1
-7.543325 -13.322410 -33.894691 37.191913 1.055591 2.717338 0.082573 -0.037756 -12334.200000 0 0 1
-8.014925 -11.852010 -33.816801 36.719003 0.976188 2.741338 0.056900 -0.028446 438300.000000 0 0 1
-6.951125 -10.887010 -33.658421 36.051830 1.002563 2.775162 0.043626 -0.029941 372055.000000 0 0 1
-6.405825 -10.488610 32.968593 35.184850 1.022516 0.356824 0.041903 -0.033227 424796.000000 0 0 1
-5.125525 -9.588210 33.051098 34.793388 1.079880 0.317802 0.054410 -0.030996 294754.000000 0 0 1
-4.894025 -9.059610 31.756292 33.383980 1.075506 0.313554 0.044490 -0.016883 -619021.000000 0 0 1
-3.882425 -8.110510 31.815632 33.061882 1.124341 0.275440 0.043438 -0.029727 -1517650.000000 0 0 1
-4.041425 -7.039610 30.746332 31.799783 1.049640 0.258117 0.041858 -0.024941 -96538.800000 0 0 1
-5.083325 -6.133210 31.011572 32.018340 0.878728 0.251434 0.032273 -0.019591 -132715.000000 0 0 1
-6.307225 -6.636810 30.478332 31.823844 0.810855 0.291826 0.028956 -0.014519 -887601.000000 0 0 1
-7.442325 -5.630510 30.647082 32.036456 0.647682 0.295586 0.016210 -0.008011 -869480.000000 0 0 1
-8.591325 -6.239410 30.095292 31.913441 0.628124 0.339177 0.029359 -0.000092 -718360.000000 0 0 1
-9.543225 -5.198010 29.953452 31.863800 0.498750 0.348030 0.031324 -0.005986 107402.000000 0 0 1
-10.748725 -5.675410 29.081572 31.519569 0.485802 0.395896 0.048744 -0.006436 42801.500000 0 0 1
-10.514925 -5.589410 27.700582 30.151740 0.488583 0.406005 0.042537 -0.007615 -466629.000000 0 0 1
-11.435025 -6.274910 26.955932 29.945894 0.501879 0.450672 0.056270 -0.012857 -754749.000000 0 0 1
-11.167225 -6.285910 25.445892 28.490578 0.512685 0.466532 0.047293 -0.013597 -391023.000000 0 0 1
-10.163425 -7.168910 25.050582 27.968199 0.614317 0.460836 0.051695 -0.010408 -422040.000000 0 0 1
-9.541325 -6.785610 23.828982 26.549986 0.618191 0.456697 0.056340 -0.013478 -177404.000000 0 0 1
-10.325525 -6.830710 22.514262 25.693717 0.584442 0.502761 0.073606 -0.018725 -380442.000000 0 0 1
-11.431425 -5.970210 22.402762 25.849655 0.481299 0.522336 0.053671 -0.013394 -226549.000000 0 0 1
-11.999625 -6.101910 21.115862 25.042044 0.470431 0.567558 0.052125 -0.023053 151793.000000 0 0 1
-13.262925 -5.206710 20.933362 25.322335 0.374090 0.597622 0.048921 -0.014534 101236.000000 0 0 1
-13.010125 -3.813610 20.728062 24.768115 0.285139 0.579229 0.028243 -0.005562 230329.000000 0 1 0
-14.227025 -3.065610 20.674562 25.283270 0.212233 0.613363 0.036232 -0.001242 530992.000000 0 0 1
-14.182825 -1.573610 20.183862 24.718760 0.110500 0.615404 0.030213 0.006802 73384.100000 0 1 0
-13.340925 -0.719610 20.959962 24.855948 0.053888 0.567481 0.027516 0.006355 166097.000000 0 1 0
-13.500425 0.618390 20.596962 24.634909 -0.045773 0.580682 0.036966 -0.006900 -411366.000000 0 1 0
-13.038025 1.200390 19.273262 23.299993 -0.091810 0.596728 0.055299 -0.015982 75079.400000 0 1 0
-13.770425 0.817390 18.086962 22.747108 -0.059289 0.651570 0.065510 -0.014229 -166132.000000 0 1 0
-15.061425 1.332390 17.979862 23.492493 -0.088234 0.699219 0.059189 -0.014740 -620605.000000 0 1 0
-15.997925 0.486390 17.099062 23.421104 -0.030394 0.752371 0.079356 -0.010388 -209122.000000 0 1 0
-16.293125 -0.760610 17.703162 24.071693 0.046649 0.744488 0.072043 -0.007521 461800.000000 0 1 0
-17.209925 -1.539610 16.942962 24.199502 0.089223 0.795207 0.064482 0.005601 155809.000000 0 1 0
-17.210125 -3.067610 17.242862 24.554326 0.176392 0.792267 0.073949 0.004592 -30427.600000 0 1 0
-17.588525 -3.373610 18.548262 25.783241 0.189506 0.767869 0.055446 0.004638 -18927.700000 0 0 1
-17.915125 -4.737410 18.671362 26.306169 0.258519 0.781623 0.062296 0.000598 -307501.000000 0 0 1
-18.546225 -5.007310 20.020062 27.745964 0.263703 0.764760 0.044793 0.004899 -769082.000000 0 0 1
-17.729225 -4.792110 21.143562 28.006070 0.263986 0.715198 0.046349 0.003214 -130819.000000 0 0 1
-18.418025 -4.857910 22.378762 29.387615 0.257885 0.705167 0.046613 -0.003806 -743111.000000 0 0 1
-18.436025 -6.339810 22.892642 30.069142 0.331214 0.705429 0.083410 -0.010071 1266210.000000 0 0 1
-17.192825 -6.881810 23.404392 29.844901 0.380741 0.669389 0.042540 -0.016313 1685220.000000 0 0 1
-16.007425 -6.875810 22.580062 28.519706 0.405709 0.657152 0.064378 -0.012436 267784.000000 0 0 1
-14.871925 -7.576610 23.392852 28.736818 0.471185 0.619726 0.083088 -0.017471 -145188.000000 0 0 1
-15.149425 -8.908210 23.766602 29.558631 0.531566 0.636721 0.079943 -0.027769 -68071.900000 0 0 1
-15.010025 -9.090810 25.180352 30.691918 0.544563 0.608646 0.079517 -0.021432 277301.000000 0 0 1
-16.088525 -9.952110 25.919912 32.089359 0.553972 0.630485 0.069520 -0.022437 39315.900000 0 0 1
-15.954625 -11.337810 25.768482 32.359089 0.617824 0.649595 0.069826 -0.033810 -105724.000000 0 0 1
-14.894725 -11.899110 26.523142 32.663722 0.674058 0.623215 0.077015 -0.024716 38516.500000 0 0 1
-14.775425 -13.437210 26.442022 33.136873 0.738000 0.646887 0.077420 -0.035003 253654.000000 0 0 1
-15.856025 -14.057210 27.141872 34.433993 0.725336 0.662871 0.063419 -0.041411 423778.000000 0 0 1
-16.060825 -15.419410 26.773602 34.821460 0.765026 0.693705 0.073640 -0.030539 198531.000000 0 0 1
-15.100325 -16.462810 27.434262 35.379128 0.828538 0.683390 0.089517 -0.028347 921730.000000 0 0 1
-13.724325 -16.320310 27.064172 34.455464 0.871588 0.667321 0.067706 -0.032041 827896.000000 0 0 1
-12.871425 -17.127010 27.877312 35.158962 0.926318 0.655253 0.083462 -0.027279 349659.000000 0 0 1
-11.513625 -17.441610 27.199682 34.301546 0.987337 0.655148 0.083481 -0.026793 -403106.000000 0 0 1
-10.609125 -18.069310 28.045902 35.008943 1.039890 0.641654 0.082439 -0.027271 -1166080.000000 0 0 1
-9.512925 -18.397610 27.265842 34.240239 1.093583 0.649626 0.073938 -0.019361 -685796.000000 0 0 1
-8.588025 -19.284610 28.166472 35.199439 1.151832 0.643173 0.076254 -0.022526 63373.400000 0 0 1
-9.157225 -20.490410 28.639622 36.385981 1.150521 0.664693 0.080538 -0.017916 170208.000000 0 0 1
-8.224725 -21.094710 29.503232 37.189697 1.199031 0.654558 0.093139 -0.022482 3243.280000 0 0 1
-8.804125 -22.344010 30.109782 38.514496 1.195450 0.673284 0.083349 -0.028978 -20527.700000 0 0 1
-8.884425 -23.421610 29.242192 38.504683 1.208238 0.708337 0.100016 -0.029056 221208.000000 0 0 1
-9.280325 -24.630510 29.919352 39.849142 1.210465 0.721500 0.080653 -0.028513 -276733.000000 0 0 1
-9.439625 -25.796710 28.933802 39.896637 1.220007 0.759444 0.082509 -0.023871 132870.000000 0 0 1
-10.623125 -25.795110 28.130642 39.617818 1.180136 0.781227 0.071890 -0.022167 444188.000000 0 0 1
-10.610125 -26.990410 27.393192 39.892906 1.196246 0.813900 0.077400 -0.022108 -58359.200000 0 0 1
-11.886125 -27.211210 26.545892 39.829817 1.158965 0.841315 0.071078 -0.018548 -44562.300000 0 0 1
-11.881825 -26.558110 25.264252 38.533017 1.150115 0.855750 0.069646 -0.016396 176724.000000 0 0 1
-11.893525 -25.160110 25.230192 37.563941 1.129215 0.834349 0.061831 -0.005180 -543018.000000 0 0 1
-12.149925 -24.723310 23.808422 36.410214 1.114023 0.858076 0.064959 -0.029078 -566501.000000 0 0 1
-13.358025 -25.244610 23.322732 36.873798 1.084107 0.886018 0.054017 -0.022932 -102219.000000 0 0 1
-13.648825 -24.668810 22.053262 35.793672 1.065436 0.906987 0.053230 -0.025908 -354505.000000 0 0 1
-15.068625 -24.814410 21.503262 36.127672 1.025061 0.933279 0.069434 -0.026330 -587910.000000 0 0 1
-15.322625 -26.140810 21.125162 36.937748 1.040618 0.961961 0.081711 -0.023676 -29204.800000 0 0 1
-16.634025 -26.141310 20.608062 37.212244 1.004104 0.983878 0.084840 -0.025291 -40196.100000 0 0 1
-16.901325 -27.501610 19.937962 37.940950 1.019741 1.017494 0.094353 -0.035807 44269.000000 0 0 1
-16.053025 -27.701710 18.821462 37.139356 1.045590 1.039351 0.084464 -0.035858 181670.000000 0 0 1
-15.817925 -29.063210 18.575662 37.946438 1.072371 1.059253 0.109799 -0.026581 -104234.000000 0 0 1
-14.913325 -29.377710 17.372962 37.246166 1.101055 1.085539 0.098949 -0.037188 -170895.000000 0 0 1
-15.391425 -28.912710 16.157062 36.522478 1.081612 1.112538 0.083203 -0.042093 -346164.000000 0 0 1
-14.454525 -29.186510 15.164562 35.927004 1.110959 1.135043 0.106721 -0.035320 -396032.000000 0 0 1
-14.723225 -28.488110 13.816662 34.917702 1.093783 1.163975 0.079126 -0.038243 -78130.500000 0 0 1
-14.564925 -27.070810 13.873362 33.725894 1.077189 1.146855 0.082516 -0.034389 -102185.000000 0 0 1
-15.010825 -26.478710 12.638962 32.957401 1.055069 1.177220 0.073300 -0.030932 454924.000000 0 0 1
-14.043825 -26.555810 11.389462 32.127245 1.084342 1.208405 0.079692 -0.026926 371314.000000 0 0 1
-14.515325 -25.823610 10.263662 31.351176 1.058714 1.237270 0.059602 -0.023840 -515830.000000 0 0 1
-13.756225 -26.019910 9.096662 30.806147 1.084468 1.271040 0.070106 -0.019839 -371082.000000 0 0 1
-14.237725 -25.546110 7.704562 30.243624 1.062340 1.313207 0.088816 -0.030740 -131106.000000 0 0 1
-15.442425 -26.164610 7.281562 31.242222 1.037612 1.335565 0.057923 -0.027831 216340.000000 0 0 1
-15.819625 -25.536710 6.062862 30.645430 1.016172 1.371643 0.071161 -0.029435 75063.900000 0 0 1
-16.592225 -26.470610 5.083362 31.651788 1.010892 1.409495 0.055596 -0.037699 244603.000000 0 0 1
-15.756025 -27.437610 4.481162 31.955525 1.049526 1.430101 0.072644 -0.031057 163931.000000 0 0 1
-16.397525 -27.962710 3.361562 32.589754 1.040432 1.467465 0.085820 -0.029544 -654985.000000 0 0 1
-15.520125 -29.012610 2.681062 33.012026 1.079586 1.489492 0.082534 -0.032611 27686.300000 0 0 1
-14.476625 -28.542510 1.843162 32.056899 1.101409 1.513268 0.065255 -0.022756 194846.000000 0 0 1
-13.769825 -29.605310 1.213962 32.673478 1.135445 1.533633 0.047528 -0.027065 493724.000000 0 0 1
-12.350725 -29.175910 0.739062 31.691013 1.170350 1.547473 0.051988 -0.026794 102288.000000 0 0 1
-12.369425 -28.493310 -0.497338 31.066360 1.161229 1.586806 0.052685 -0.024775 -991.845000 0 0 1
-12.583625 -27.065110 -0.376038 29.849777 1.135589 1.583394 0.056268 -0.028074 -371067.000000 0 0 1
-12.236325 -26.307510 -1.691738 29.063288 1.135434 1.629038 0.062432 -0.027869 -316763.000000 0 0 1
-10.958025 -26.591610 -2.161138 28.842027 1.179915 1.645797 0.048453 -0.030621 -889053.000000 0 0 1
-10.495525 -25.700810 -3.214038 27.946694 1.183092 1.686057 0.065937 -0.036368 226787.000000 0 0 1
-9.322225 -26.306710 -3.977338 28.191596 1.230237 1.712351 0.055528 -0.031544 -290143.000000 0 0 1
-8.683625 -25.472110 -4.843038 27.343897 1.242245 1.748852 0.056067 -0.036502 58280.900000 0 0 1
-7.422025 -25.967210 -5.305538 27.523284 1.292396 1.764776 0.060903 -0.021080 671906.000000 0 0 1
-6.673425 -24.972510 -6.203938 26.582883 1.309667 1.806349 0.044986 -0.018910 -112637.000000 0 0 1
-7.157725 -24.913910 -7.530238 26.993340 1.291033 1.853514 0.050801 -0.019066 3124.350000 0 0 1
-6.356025 -23.946710 -8.164938 26.086590 1.311355 1.889140 0.034133 -0.014391 -31740.900000 0 0 1
-6.606225 -23.883810 -9.680638 26.604385 1.300945 1.943220 0.044870 -0.022928 -107966.000000 0 0 1
-6.158125 -25.033510 -10.324438 27.770364 1.329590 1.951721 0.037765 -0.023353 -225858.000000 0 0 1
-6.325925 -24.983010 -11.685538 28.296994 1.322800 1.996498 0.032118 -0.016169 -111995.000000 0 0 1
-7.469925 -25.851710 -12.225138 29.556127 1.289505 1.997228 0.050006 -0.023745 -205372.000000 0 0 1
-7.718725 -25.484010 -13.502138 29.855003 1.276695 2.040091 0.060560 -0.024829 633503.000000 0 0 1
-8.741125 -26.370210 -14.045538 31.129927 1.250717 2.038896 0.088274 -0.026167 138865.000000 0 0 1
-8.887225 -26.198210 -15.583838 31.751928 1.243748 2.083804 0.101779 -0.033957 245631.000000 0 0 1
-7.879525 -26.723610 -16.448538 32.354175 1.284069 2.104110 0.084775 -0.042395 839871.000000 0 0 1
-6.595325 -26.083210 -16.323938 31.469081 1.323130 2.116160 0.090641 -0.034327 431417.000000 0 0 1
-5.474925 -27.056810 -16.805938 32.318498 1.371143 2.117659 0.090660 -0.033472 -53367.700000 0 0 1
-5.442225 -27.375710 -18.225538 33.334929 1.374557 2.149262 0.144639 -0.037913 -1096720.000000 0 0 1
-4.233725 -27.958310 -18.423538 33.749344 1.420508 2.148251 0.130616 -0.046981 -1249870.000000 0 0 1
-25.289655 14.764097 -5.550121 29.805185 -0.528422 1.758103 0.119112 -0.037388 18781.800000 0 0 1
-25.057525 13.649797 -4.708321 28.919972 -0.498795 1.734329 0.121097 -0.033529 -98094.200000 0 0 1
-23.799925 13.063497 -4.862721 27.581469 -0.501989 1.748027 0.120320 -0.034340 -901284.000000 0 0 1
-23.804325 11.530097 -4.478421 26.826205 -0.451065 1.738524 0.123642 -0.032003 43622.700000 0 0 1
-24.601625 10.647897 -5.259321 27.318091 -0.408469 1.764527 0.130131 -0.020440 1388570.000000 0 0 1
-26.034895 10.800797 -5.162821 28.655326 -0.393249 1.751955 0.144222 -0.022186 579828.000000 0 0 1
-26.743665 10.040897 -6.294221 29.251674 -0.359165 1.787667 0.160965 -0.017301 -373354.000000 0 0 1
-26.665005 10.617397 -7.545121 29.676261 -0.378934 1.827866 0.186241 -0.031674 127099.000000 0 0 1
-26.609595 9.691697 -8.611121 29.599847 -0.349285 1.865982 0.165527 -0.029570 -269480.000000 0 0 1
-26.970625 10.407597 -9.982721 30.584104 -0.368281 1.903291 0.161407 -0.030538 50764.500000 0 0 1
-26.010495 11.320397 -10.486221 30.243314 -0.410499 1.924877 0.143563 -0.032272 569451.000000 0 0 1
-26.533515 12.054697 -11.579621 31.359700 -0.426440 1.949000 0.144127 -0.030092 867895.000000 0 0 1
-25.405325 13.048297 -12.119121 31.025178 -0.474472 1.972104 0.112214 -0.022250 698458.000000 0 0 1
-25.227805 14.118197 -11.255821 31.023526 -0.510205 1.942084 0.110570 -0.025112 327946.000000 0 0 1
-24.231725 14.980597 -11.776521 30.826632 -0.553711 1.962782 0.089331 -0.024106 -73124.200000 0 0 1
-24.291225 16.439897 -11.258721 31.418030 -0.594974 1.937299 0.086871 -0.026255 -268072.000000 0 0 1
-23.808225 16.586697 -9.936821 30.670678 -0.608494 1.900734 0.104571 -0.021121 108302.000000 0 0 1
-23.788825 17.959697 -9.535521 31.295129 -0.646670 1.880416 0.077504 -0.011567 516230.000000 0 0 1
-22.597625 18.215997 -8.534821 30.254229 -0.678451 1.856782 0.073693 -0.006999 459133.000000 0 0 1
-22.784725 17.643597 -7.257821 29.717271 -0.658911 1.817521 0.090449 -0.013374 56028.300000 0 0 1
-23.729425 18.403397 -6.532021 30.731709 -0.659655 1.784980 0.082735 -0.015317 -271816.000000 0 0 1
-23.891325 17.947497 -5.055021 30.306126 -0.644278 1.738378 0.079253 -0.012297 34479.100000 0 0 1
-22.748225 17.935397 -4.218921 29.273871 -0.667647 1.715419 0.079469 -0.028051 154964.000000 0 0 1
-23.138625 17.434497 -2.974521 29.123967 -0.645725 1.673108 0.071823 -0.024233 203721.000000 0 0 1
-21.968525 17.103197 -1.982521 27.911751 -0.661513 1.641884 0.080578 -0.033984 235398.000000 0 0 1
-21.378325 18.321697 -1.448321 28.192463 -0.708557 1.622192 0.079826 -0.038622 535884.000000 0 0 1
-20.211125 17.951797 -0.716821 27.042012 -0.726265 1.597307 0.126428 -0.053552 306465.000000 0 0 1
-19.643225 19.201197 0.017779 27.468938 -0.774019 1.570149 0.118550 -0.055028 638205.000000 0 0 1
-20.682825 19.752297 0.872179 28.612815 -0.762389 1.540309 0.107482 -0.042111 874850.000000 0 0 1
-20.592025 21.177897 0.966179 29.554497 -0.799423 1.538099 0.118480 -0.041573 310855.000000 0 0 1
-21.671225 21.821397 1.891679 30.812235 -0.788851 1.509364 0.082999 -0.028615 164955.000000 0 0 1
-21.639025 21.372297 3.228179 30.585023 -0.779197 1.465052 0.112507 -0.030147 777968.000000 0 0 1
-22.918625 21.456097 3.872779 31.632671 -0.752452 1.448059 0.087532 -0.023183 609868.000000 0 0 1
-22.830425 21.158297 5.392279 31.590798 -0.747404 1.399265 0.106716 -0.021309 -310197.000000 0 0 1
-21.863425 21.937797 6.070679 31.561518 -0.787096 1.377246 0.096305 -0.009481 172292.000000 0 0 1
-21.219125 21.229497 7.093779 30.842576 -0.785643 1.338719 0.096713 -0.010640 -173680.000000 0 0 1
-21.932225 21.137597 8.487779 31.620609 -0.766950 1.299038 0.071371 -0.032125 -1471420.000000 0 0 1
-23.142725 20.494297 8.395479 32.032577 -0.724780 1.305607 0.083913 -0.027900 -526097.000000 0 0 1
-23.633025 20.175297 9.697779 32.551642 -0.706633 1.268284 0.099085 -0.033562 -137374.000000 0 0 1
-24.173725 21.271597 10.678479 33.924618 -0.721625 1.250581 0.101125 -0.030146 -79100.700000 0 0 1
-25.465735 21.693497 10.218279 34.978918 -0.705579 1.274346 0.126381 -0.027523 691721.000000 0 0 1
-26.068945 22.436997 11.251179 36.188365 -0.710661 1.254650 0.139174 -0.032944 590110.000000 0 0 1
-27.429035 23.113797 10.838279 37.470894 -0.700227 1.277358 0.146969 -0.035458 608885.000000 0 0 1
-28.131725 23.821697 11.858379 38.723228 -0.702628 1.259562 0.156405 -0.039250 231987.000000 0 0 1
-27.946795 25.195997 11.815679 39.439471 -0.733682 1.266533 0.133675 -0.033448 -24727.000000 0 0 1
-28.146865 25.948797 13.173179 40.486031 -0.744788 1.239387 0.137246 -0.035739 152130.000000 0 0 1
-27.110925 25.607697 14.068679 39.858301 -0.756892 1.210056 0.123518 -0.038085 117775.000000 0 0 1
-27.302885 26.231797 15.338779 40.851351 -0.765393 1.185884 0.135477 -0.036047 167714.000000 0 0 1
-26.091435 25.986997 16.277679 40.262263 -0.783393 1.154593 0.115370 -0.042194 125146.000000 0 0 1
-25.779535 24.740097 16.848679 39.503605 -0.764826 1.130166 0.135838 -0.048025 150333.000000 0 0 1
-24.741325 24.980897 17.785879 39.401978 -0.790216 1.102468 0.108412 -0.044650 -100471.000000 0 0 1
-24.301825 23.762097 18.618679 38.753983 -0.774169 1.069648 0.113251 -0.035889 391454.000000 0 0 1
-23.145425 24.041497 19.440879 38.621912 -0.804386 1.043309 0.113636 -0.042859 876383.000000 0 0 1
-22.765525 22.785297 19.960079 37.892528 -0.785832 1.016018 0.105526 -0.039560 569275.000000 0 0 1
-21.251425 22.610297 20.342479 37.103437 -0.816369 0.990509 0.077176 -0.038711 367894.000000 0 0 1
-20.351925 22.555397 19.235079 35.957406 -0.836707 1.006359 0.076025 -0.036557 649563.000000 0 0 1
-18.999525 22.333897 19.612579 35.276595 -0.865894 0.981272 0.065028 -0.032157 169392.000000 0 0 1
-18.653525 20.800697 19.822079 34.256938 -0.839766 0.953749 0.050567 -0.020939 -871720.000000 0 0 1
-19.338025 20.227797 20.917079 34.937762 -0.807883 0.928925 0.072114 -0.015661 211997.000000 0 0 1
-18.691225 20.464497 22.159979 35.485521 -0.830655 0.896331 0.074101 -0.017082 -776626.000000 0 0 1
-19.647225 20.354997 23.291679 36.644804 -0.803090 0.882002 0.068774 -0.012337 -596750.000000 0 0 1
-20.580825 21.433497 23.248579 37.728790 -0.805690 0.906884 0.058827 -0.020781 222288.000000 0 0 1
-21.477625 21.301097 24.346379 38.830031 -0.781272 0.893102 0.078122 -0.015710 -296584.000000 0 0 1
-22.612525 22.307097 24.379779 40.041310 -0.778599 0.916166 0.077286 -0.017625 -743982.000000 0 0 1
-22.164325 23.680897 24.552079 40.679808 -0.818466 0.922857 0.089926 -0.030170 633892.000000 0 0 1
-23.243025 24.610197 24.647779 41.873775 -0.813961 0.941444 0.094157 -0.030244 379566.000000 0 0 1
-24.100225 24.919997 23.386379 41.818056 -0.802120 0.977326 0.094340 -0.040064 256627.000000 0 0 1
-25.007725 23.836597 23.148079 41.586094 -0.761426 0.980472 0.070237 -0.033643 72162.100000 0 0 1
-25.798205 24.149297 21.999179 41.625711 -0.752397 1.013964 0.073592 -0.039865 170045.000000 0 0 1
-26.752695 22.974097 21.657379 41.383063 -0.709557 1.020031 0.084778 -0.032530 191487.000000 0 0 1
-27.992815 22.989097 22.338679 42.557172 -0.687565 1.018187 0.085223 -0.032472 152044.000000 0 0 1
-28.805005 21.905397 21.896979 42.297192 -0.650170 1.026644 0.102762 -0.030683 2098590.000000 0 0 1
-30.386135 22.132597 22.120879 43.617684 -0.629519 1.038917 0.118373 -0.026975 997956.000000 0 0 1
-30.783435 23.231397 21.350079 44.081102 -0.646485 1.065192 0.129083 -0.035517 -917665.000000 0 0 1
-32.129705 23.521897 21.428479 45.219214 -0.631941 1.077105 0.138237 -0.029210 -299244.000000 0 0 1
-33.127615 22.565697 20.649079 45.089179 -0.597980 1.095096 0.132677 -0.045019 -668199.000000 0 0 1
-33.329395 21.406397 21.370579 45.008711 -0.570920 1.076048 0.123001 -0.041542 318277.000000 0 0 1
-34.221141 20.522797 20.704879 44.955130 -0.540207 1.092162 0.118542 -0.034607 123490.000000 0 0 1
-35.730102 20.652897 21.020579 46.314653 -0.524105 1.099699 0.116942 -0.036405 -400079.000000 0 0 1
-36.368325 19.739197 20.203179 46.048446 -0.497266 1.116603 0.115916 -0.028998 -1498700.000000 0 0 1
36.656766 19.711097 20.395079 46.348733 0.493367 1.115158 0.118870 -0.039682 -979574.000000 0 0 1
35.938826 18.958297 19.260679 44.966543 0.485417 1.128149 0.137335 -0.052736 -153992.000000 0 0 1
36.395666 17.647597 19.195879 44.772357 0.451480 1.127694 0.142129 -0.052122 208595.000000 0 0 1
35.650286 16.923897 18.229379 43.470351 0.443220 1.138065 0.155417 -0.065977 77616.200000 0 0 1
36.077216 15.476897 18.060779 43.212170 0.405248 1.139602 0.172790 -0.075981 685088.000000 0 0 1
35.156376 14.701597 17.223079 41.817965 0.396078 1.146304 0.199115 -0.061620 664669.000000 0 0 1
35.564376 13.379197 17.147979 41.687899 0.359819 1.146871 0.181401 -0.048144 315019.000000 0 0 1
34.613816 12.574697 16.214079 40.238484 0.348461 1.156059 0.180068 -0.064037 95852.100000 0 0 1
34.642996 13.064997 14.851179 39.892215 0.360639 1.189329 0.177895 -0.053679 448974.000000 0 0 1
33.872426 12.238697 13.956479 38.625254 0.346721 1.201102 0.179999 -0.048352 -65877.700000 0 0 1
33.931976 12.668397 12.502479 38.316827 0.357321 1.238418 0.187555 -0.047600 -519751.000000 0 0 1
35.182546 12.548097 11.894979 39.201490 0.342593 1.262504 0.164442 -0.029065 -10256.600000 0 0 1
34.943316 12.755897 10.513779 38.656019 0.350015 1.295343 0.143810 -0.007431 568571.000000 0 0 1
36.284516 12.660597 9.716279 39.639159 0.335717 1.323155 0.104828 0.007181 170349.000000 0 0 1
37.008086 11.471197 9.935379 39.998732 0.300573 1.319776 0.119314 0.000156 303543.000000 0 0 1
-36.042790 11.549297 9.472379 39.015317 -0.310096 1.325559 0.148118 0.000687 312793.000000 0 0 1
-35.718903 11.265897 7.989779 38.296175 -0.305529 1.360621 0.138516 -0.017375 -471927.000000 0 0 1
-36.272935 12.214097 7.103479 38.927746 -0.324802 1.387290 0.124974 -0.025419 15410.500000 0 0 1
-35.912404 11.951197 5.746279 38.282523 -0.321259 1.420125 0.155339 -0.042355 116679.000000 0 0 1
-36.777345 12.718297 4.717079 39.199222 -0.332945 1.450168 0.150919 -0.041165 1617580.000000 0 0 1
36.208436 12.331497 4.601079 38.526440 0.328249 1.451084 0.125961 -0.042192 1020340.000000 0 0 1
35.281926 13.319497 4.407579 37.969067 0.360975 1.454451 0.124702 -0.031212 -252457.000000 0 0 1
34.820986 14.090797 5.671479 37.989700 0.384521 1.420946 0.112316 -0.015323 -1043340.000000 0 0 1
34.055546 15.240297 5.456479 37.707029 0.420784 1.425579 0.094096 -0.004377 -26766.200000 0 0 1
33.631246 15.858097 6.655279 37.773439 0.440612 1.393682 0.075821 0.002167 91689.600000 0 0 1
32.455526 15.249997 7.463679 36.628269 0.439257 1.365591 0.100828 -0.003377 -495331.000000 0 0 1
32.646906 13.987097 8.113079 36.431874 0.404777 1.346222 0.125241 -0.006404 420462.000000 0 0 1
31.513936 13.100897 8.221279 35.104859 0.393982 1.334409 0.146114 -0.016901 381974.000000 0 0 1
31.674216 11.835397 7.381279 34.609477 0.357596 1.355872 0.139719 -0.011422 -130404.000000 0 0 1
31.364596 12.080497 6.018379 34.145237 0.367651 1.393612 0.115025 -0.014357 288028.000000 0 0 1
31.573226 10.951497 5.141579 33.811828 0.333875 1.418140 0.126349 -0.026990 -335385.000000 0 0 1
31.030516 11.080197 3.723579 33.159143 0.342963 1.458265 0.109225 -0.034180 726720.000000 0 0 1
29.598396 10.939497 3.662379 31.767132 0.354026 1.455251 0.089921 -0.026686 1024540.000000 0 0 1
29.211076 11.111997 2.290079 31.337005 0.363500 1.497652 0.110577 -0.038411 -269739.000000 0 0 1
27.733176 10.812597 2.007079 29.834036 0.371751 1.503471 0.118591 -0.025984 -237799.000000 0 0 1
27.387876 9.490297 1.670179 29.033618 0.333566 1.513239 0.096002 -0.029984 -469317.000000 0 0 1
26.032476 9.256797 1.889879 27.693858 0.341643 1.502501 0.104872 -0.025516 -761695.000000 0 0 1
25.824676 7.690597 1.899479 27.012353 0.289438 1.500419 0.110558 -0.022514 245571.000000 0 0 1
26.377776 7.015697 3.049279 27.464617 0.259952 1.459541 0.119406 -0.014182 355925.000000 0 0 1
27.775976 6.807797 3.013979 28.756478 0.240358 1.465793 0.127556 -0.028379 -336515.000000 0 0 1
28.227676 6.194297 4.317179 29.220011 0.216017 1.422506 0.129603 -0.031121 -663385.000000 0 0 1
29.574376 5.821297 4.318579 30.449653 0.194351 1.428490 0.158022 -0.037909 -105203.000000 0 0 1
29.910206 5.211197 5.584179 30.870051 0.172497 1.388902 0.147223 -0.017104 212232.000000 0 0 1
31.428676 5.150397 5.908079 32.391259 0.162432 1.387372 0.143759 -0.030862 223973.000000 0 0 1
31.798586 6.405897 6.376479 33.058207 0.198792 1.376693 0.152773 -0.028674 444537.000000 0 0 1
33.213736 6.441497 6.621179 34.474413 0.191563 1.377535 0.132525 -0.018178 791505.000000 0 0 1
33.654756 7.764097 7.298879 35.301522 0.226732 1.362536 0.107588 -0.019236 -65455.700000 0 0 1
33.208946 7.879997 8.630279 35.205258 0.232977 1.323130 0.113220 -0.020600 131029.000000 0 0 1
33.767796 9.029197 9.229079 36.151990 0.261278 1.312653 0.118657 -0.019022 46841.800000 0 0 1
33.342986 9.050797 10.757779 36.185653 0.265058 1.268939 0.131574 -0.027550 820497.000000 0 0 1
31.983726 9.529097 10.912279 35.111825 0.289562 1.254776 0.137404 -0.032129 984938.000000 0 0 1
31.588186 8.983997 12.160479 35.020036 0.277093 1.216166 0.142299 -0.044168 -1171830.000000 0 0 1
30.088196 9.005797 12.395979 33.764837 0.290827 1.194878 0.131940 -0.050713 -683015.000000 0 0 1
29.562636 10.343697 12.677079 33.788309 0.336578 1.186193 0.155407 -0.056683 380069.000000 0 0 1
29.478006 11.314897 11.624879 33.646955 0.366500 1.218029 0.158118 -0.060124 -608372.000000 0 0 1
28.310576 11.261097 10.613679 32.263775 0.378582 1.235588 0.131055 -0.045619 -216107.000000 0 0 1
28.290276 12.416797 9.789079 32.408990 0.413591 1.263956 0.114126 -0.015303 752126.000000 0 0 1
27.223176 12.427897 8.823079 31.199370 0.428262 1.284088 0.107877 -0.018172 160236.000000 0 0 1
27.298376 13.755097 7.939079 31.582163 0.466747 1.316692 0.097359 -0.010628 129792.000000 0 0 1
26.894676 14.912697 8.667779 31.950626 0.506280 1.296067 0.092280 -0.000822 185249.000000 0 0 1
27.391776 16.035497 8.017479 32.737235 0.529625 1.323376 0.092801 -0.000172 -765925.000000 0 0 1
26.907376 17.412297 8.581479 33.178860 0.574348 1.309179 0.094527 -0.008963 498734.000000 0 0 1
25.575776 17.827797 8.323579 32.268137 0.608749 1.309896 0.109306 -0.010556 733595.000000 0 0 1
24.526676 17.057297 8.924779 31.179495 0.607672 1.280497 0.118199 -0.009045 -744927.000000 0 0 1
23.213076 17.800197 9.017179 30.610512 0.654178 1.271783 0.118034 -0.021487 -896424.000000 0 0 1
22.726076 18.159397 7.764179 30.108482 0.674165 1.309976 0.130969 -0.022954 269515.000000 0 0 1
21.691176 19.140197 7.945179 29.999669 0.723003 1.302756 0.178880 -0.033767 407487.000000 0 0 1
21.037076 19.623597 6.643679 29.525965 0.750649 1.343842 0.150177 -0.030966 140278.000000 0 0 1
21.827676 20.581297 5.938479 30.582720 0.756017 1.375377 0.098067 -0.013571 184050.000000 0 0 1
21.238576 20.960997 4.702579 30.208521 0.778820 1.414490 0.113077 -0.023110 10876.500000 0 0 1
19.338975 17.346297 32.636164 41.713418 0.731133 0.672302 0.074456 -0.015151 -242055.000000 0 0 1
18.293375 17.932497 31.921287 40.929092 0.775437 0.676263 0.081949 -0.014559 -134019.000000 0 0 1
17.546675 16.982497 31.214502 39.631252 0.769060 0.663854 0.095931 -0.026467 381610.000000 0 0 1
16.745875 17.485397 29.963112 38.522092 0.806999 0.679612 0.101531 -0.032566 516565.000000 0 0 1
17.688575 17.927297 29.002042 38.410833 0.792101 0.715068 0.098994 -0.020441 -206726.000000 0 0 1
17.150475 18.015497 27.722682 37.245725 0.809991 0.731283 0.096679 -0.023259 -731811.000000 0 0 1
18.080075 18.264297 26.564532 36.961440 0.790467 0.768852 0.090359 -0.020965 -885435.000000 0 0 1
18.846775 19.404097 26.757682 38.048567 0.799967 0.790837 0.082570 -0.021472 -480735.000000 0 0 1
19.353875 19.833397 25.574062 37.709001 0.797634 0.825492 0.086753 -0.020307 -695618.000000 0 0 1
20.317375 21.019597 25.711042 38.931695 0.802384 0.849426 0.090401 -0.016340 -191950.000000 0 0 1
19.697475 22.291197 25.871432 39.423584 0.847092 0.854968 0.079674 -0.021477 505918.000000 0 0 1
20.646075 23.304697 26.260002 40.730296 0.845815 0.870128 0.091420 -0.026099 445797.000000 0 0 1
20.053075 24.774597 26.206362 41.263542 0.890337 0.882662 0.108043 -0.027657 210895.000000 0 0 1
19.856775 25.178697 24.861212 40.575093 0.903024 0.911297 0.115837 -0.038049 376272.000000 0 0 1
18.862375 26.198497 24.901042 40.770239 0.946787 0.913770 0.108009 -0.032680 321177.000000 0 0 1
18.608975 26.902797 23.554852 40.309869 0.965655 0.946724 0.091882 -0.032078 107361.000000 0 0 1
19.625975 27.865897 23.344982 41.311927 0.957190 0.970253 0.117436 -0.036670 116417.000000 0 0 1
19.494175 28.547597 22.097062 41.027653 0.971663 1.002034 0.112775 -0.037736 -133170.000000 0 0 1
20.584475 29.594897 21.874262 42.167071 0.963069 1.025406 0.120708 -0.036268 621754.000000 0 0 1
21.929275 29.100497 21.719962 42.420382 0.925014 1.033265 0.122325 -0.035221 633478.000000 0 0 1
22.895675 30.115097 21.881262 43.702639 0.920753 1.046406 0.111344 -0.042442 28006.700000 0 0 1
23.592175 30.398697 20.517362 43.607725 0.910805 1.080941 0.109731 -0.039478 46809.400000 0 0 1
22.782475 31.128297 19.574062 43.256860 0.938987 1.101221 0.086933 -0.032852 224915.000000 0 0 1
23.131175 30.850697 18.263362 42.665761 0.927437 1.128455 0.074794 -0.008768 -285760.000000 0 0 1
22.549375 31.816597 17.165562 42.607824 0.954235 1.156142 0.064550 -0.025217 -270664.000000 0 0 1
23.023575 33.173697 17.353162 43.951239 0.964088 1.164916 0.074186 -0.026310 176473.000000 0 0 1
22.752075 34.024097 16.285762 44.051358 0.981384 1.192111 0.066369 -0.019309 -314368.000000 0 0 1
23.738275 33.952297 15.102662 44.094836 0.960631 1.221215 0.053615 -0.020800 -176932.000000 0 0 1
23.801575 32.835597 14.157562 42.954953 0.943573 1.234926 0.082775 -0.026803 -266473.000000 0 0 1
22.733275 32.849097 13.252562 42.089136 0.965425 1.250478 0.042515 -0.020988 -480986.000000 0 0 1
22.522775 31.564397 12.405962 40.712338 0.951034 1.261149 0.061851 -0.032690 51544.400000 0 0 1
23.557875 31.076397 11.541962 40.668573 0.922155 1.283036 0.095829 -0.048726 110163.000000 0 0 1
23.090675 29.910297 10.884662 39.322780 0.913365 1.290331 0.101069 -0.048345 -541626.000000 0 0 1
24.228375 29.149697 10.142262 39.237539 0.877336 1.309344 0.113076 -0.050336 686221.000000 0 0 1
25.196975 28.464597 10.956762 39.562248 0.846216 1.290178 0.113565 -0.045420 444622.000000 0 0 1
26.084275 29.394697 11.558762 40.963918 0.844997 1.284742 0.106092 -0.047568 -596582.000000 0 0 1
27.507775 28.864397 11.934162 41.620372 0.809459 1.279976 0.114971 -0.043731 637150.000000 0 0 1
27.566875 28.001297 13.037962 41.400407 0.793216 1.250420 0.112819 -0.038762 24549.400000 0 0 1
28.923975 27.709997 13.320862 42.212387 0.763966 1.249742 0.096739 -0.031796 216947.000000 0 0 1
29.159575 26.721897 14.440762 42.105537 0.741804 1.220724 0.077129 -0.029783 -48005.300000 0 0 1
30.471775 26.848197 14.940062 43.273089 0.722266 1.218290 0.060052 -0.031582 -36547.000000 0 0 1
30.772175 25.810997 15.837262 43.173524 0.697942 1.195199 0.051146 -0.023590 467069.000000 0 0 1
31.958075 26.101597 16.827662 44.562116 0.684868 1.183569 0.056314 -0.028230 455954.000000 0 0 1
33.207475 26.203697 16.175262 45.288070 0.668053 1.205567 0.067099 -0.015393 -1179250.000000 0 0 1
34.177275 26.173897 17.125662 46.329767 0.653554 1.192167 0.057311 -0.018252 -615849.000000 0 0 1
35.598475 26.364797 16.533762 47.283393 0.637468 1.213573 0.091502 -0.034501 239358.000000 0 0 1
35.710475 27.684297 15.982162 47.927944 0.659462 1.230823 0.110696 -0.026936 -482660.000000 0 0 1
37.062475 28.004997 15.781962 49.060954 0.647086 1.243292 0.142243 -0.031210 -100277.000000 0 0 1
-37.109426 29.030097 14.681062 49.349667 -0.663845 1.268733 0.121795 -0.035794 84801.000000 0 0 1
36.771275 30.296597 15.040362 49.962215 0.689157 1.265019 0.130454 -0.041142 -67997.700000 0 0 1
36.603675 31.095997 13.876462 49.993462 0.704222 1.289537 0.113528 -0.022983 1802.630000 0 0 1
35.975075 32.409697 14.274462 50.481232 0.733308 1.284118 0.107379 -0.032061 -693439.000000 0 0 1
35.900175 33.407797 13.346162 50.823454 0.749453 1.305082 0.082877 -0.034516 710622.000000 0 0 1
34.842175 -33.698310 13.584662 50.339808 -0.768711 1.297549 0.081148 -0.028215 993612.000000 0 0 1
33.384875 33.985897 13.189262 49.432254 0.794319 1.300710 0.097548 -0.029300 98796.800000 0 0 1
32.837775 32.925397 13.912762 48.538296 0.786731 1.280084 0.094699 -0.036247 211163.000000 0 0 1
31.636875 32.421697 13.310362 47.214659 0.797649 1.285010 0.099898 -0.028729 145316.000000 0 0 1
30.939175 31.248997 13.993562 46.147071 0.790380 1.262707 0.104219 -0.037128 -620445.000000 0 0 1
30.063875 31.575297 15.004062 46.108110 0.809914 1.239351 0.096620 -0.031362 -327774.000000 0 0 1
29.778475 30.508697 15.871362 45.491079 0.797510 1.214410 0.086709 -0.040957 -355682.000000 0 0 1
28.820775 30.874997 16.979862 45.521624 0.819796 1.188549 0.085051 -0.040298 -306252.000000 0 0 1
28.677875 29.837397 17.931362 45.102378 0.805211 1.161929 0.062397 -0.033744 -114712.000000 0 0 1
29.550975 30.049597 19.014562 46.236263 0.793764 1.146974 0.054694 -0.032665 -76527.500000 0 0 1
29.551775 28.853097 20.030862 45.902550 0.773436 1.119227 0.047124 -0.019836 422670.000000 0 0 1
28.352375 28.895097 20.805462 45.515394 0.794878 1.096055 0.072736 -0.030185 450461.000000 0 0 1
28.447775 27.939497 21.833162 45.459635 0.776384 1.069827 0.061478 -0.026703 -366676.000000 0 0 1
27.341175 27.963297 22.885362 45.312533 0.796647 1.041350 0.074458 -0.030463 -854774.000000 0 0 1
26.095275 27.546197 22.405562 44.065469 0.812440 1.037400 0.122159 -0.034078 -844463.000000 0 0 1
25.103075 27.691697 23.366062 44.079103 0.834391 1.012085 0.142859 -0.038504 -342652.000000 0 0 1
24.812975 26.570197 24.384912 43.775370 0.819583 0.979971 0.108362 -0.039759 -141670.000000 0 0 1
25.830175 26.462697 25.374742 44.848075 0.797493 0.969401 0.094543 -0.039144 77695.300000 0 0 1
25.445275 25.621797 26.394972 44.728437 0.788855 0.939594 0.113677 -0.035506 -1001890.000000 0 0 1
26.589775 25.270797 27.324972 45.741485 0.759970 0.930568 0.099189 -0.025840 -294591.000000 0 0 1
26.981075 26.314297 28.229872 47.088707 0.772888 0.927915 0.115783 -0.033745 478070.000000 0 0 1
27.716175 27.382997 27.592712 47.742776 0.779351 0.954588 0.084037 -0.033332 -704039.000000 0 0 1
28.245275 28.465697 28.504172 49.199383 0.789285 0.952853 0.048985 -0.018612 -671888.000000 0 0 1
29.385375 28.104897 29.213942 50.068353 0.763129 0.947788 0.032904 -0.006912 -538545.000000 0 0 1
29.909275 29.257497 29.847242 51.394783 0.774383 0.951153 0.035366 -0.011664 -761528.000000 0 0 1
31.419575 29.308597 29.922222 52.359554 0.750651 0.962493 0.019701 -0.005765 -845765.000000 0 0 1
31.953875 29.354697 28.620052 51.979378 0.743029 0.987709 0.013704 -0.002613 -103467.000000 0 0 1
33.335775 29.671197 28.595362 53.003288 0.727302 1.000951 -0.001334 -0.004036 55845.600000 0 0 1
33.696975 30.225797 27.229782 52.825619 0.731149 1.029246 -0.005423 0.003821 -393794.000000 0 0 1
33.286075 31.531297 26.949832 53.183446 0.758332 1.039405 -0.005472 0.003728 63263.700000 0 0 1
33.514875 31.873697 25.628582 52.877251 0.760305 1.064798 0.007972 -0.011463 -128536.000000 0 0 1
33.352475 33.407097 25.539162 53.671878 0.786216 1.074879 0.012205 -0.010553 -88452.500000 0 0 1
34.332275 -33.977010 26.302112 54.999485 -0.780197 1.072164 0.016535 -0.008000 214593.000000 0 0 1
34.139075 -32.565010 26.172942 53.953491 -0.761805 1.064317 0.018413 -0.008362 -553975.000000 0 0 1
35.149175 -31.718010 26.918242 54.461807 -0.734130 1.053814 0.022806 -0.006581 -525287.000000 0 0 1
34.836375 -31.512610 28.261382 54.820829 -0.735345 1.029179 0.027801 -0.009394 343596.000000 0 0 1
35.785775 -30.623210 28.784542 55.199208 -0.707815 1.022227 0.035556 -0.007619 -203087.000000 0 0 1
35.434075 -30.290810 30.248112 55.570272 -0.707303 0.995216 0.048273 -0.015523 -68409.400000 0 0 1
35.634375 -31.297210 31.234172 56.788181 -0.720689 0.988418 0.046604 -0.014679 496717.000000 0 0 1
34.409075 -32.005910 31.364562 56.498659 -0.749230 0.982267 0.050672 -0.015432 144192.000000 0 0 1
34.392875 -32.979810 32.599494 57.734433 -0.764427 0.970793 0.052044 -0.018043 -520677.000000 0 0 1
34.149175 -32.266010 33.802821 57.878254 -0.757051 0.947108 0.050296 -0.021102 266626.000000 0 0 1
34.379275 -32.918710 -32.839761 57.827553 -0.763699 2.174738 0.054643 -0.026039 -520453.000000 0 0 1
33.658575 33.820197 -32.577291 57.775300 0.787793 2.169851 0.050607 -0.023575 -104767.000000 0 0 1
34.138475 32.751397 -33.309611 57.858618 0.764664 2.184265 0.035630 -0.019606 473021.000000 0 0 1
33.021275 31.892897 -33.517621 56.841819 0.768017 2.201440 0.037580 -0.013358 489474.000000 0 0 1
33.300475 30.963397 33.206935 56.305898 0.749047 0.940035 0.027038 -0.012079 -202993.000000 0 0 1
34.465675 30.189697 33.301872 56.641992 0.719359 0.942291 0.012391 -0.010202 -239108.000000 0 0 1
34.720275 29.514997 32.115922 55.750023 0.704540 0.956884 0.004500 -0.010785 -1111410.000000 0 0 1
36.057975 28.828497 32.162008 56.264150 0.674438 0.962311 -0.004181 -0.007481 -934200.000000 0 0 1
36.123075 27.734297 33.055140 56.273529 0.654779 0.942952 -0.007728 -0.001446 -167589.000000 0 0 1
-37.014426 27.100797 33.073717 56.554325 -0.631991 0.946147 0.007985 -0.003872 -217529.000000 0 0 1
-36.942826 25.837897 33.875552 56.390800 -0.610325 0.926384 0.011324 -0.007232 68362.900000 0 0 1
36.805875 24.809897 33.168933 55.411024 0.593113 0.929046 -0.001954 -0.006696 -157998.000000 0 0 1
36.832175 23.560797 33.856352 55.298941 0.569086 0.911903 0.019325 -0.008171 -185033.000000 0 0 1
36.276275 22.440797 33.001759 53.932121 0.553990 0.912319 0.015342 -0.010909 -247076.000000 0 0 1
-37.193326 21.819697 32.117604 53.767864 -0.530550 0.930618 0.035120 -0.009586 291158.000000 0 0 1
36.631575 20.692097 31.388062 52.490434 0.514188 0.929822 0.042638 -0.011779 271616.000000 0 0 1
-36.654326 19.911697 30.635702 51.754822 -0.497630 0.937334 0.059296 -0.026923 166634.000000 0 0 1
-35.957226 20.734497 29.702862 51.040195 -0.523068 0.949671 0.055900 -0.015073 83634.900000 0 0 1
-34.754326 20.132997 29.246312 49.684480 -0.525056 0.941420 0.064725 -0.012644 145067.000000 0 0 1
-34.835526 19.121297 28.081402 48.659049 -0.502000 0.955616 0.075742 -0.014442 -372197.000000 0 0 1
-35.508926 17.930597 28.491382 48.930042 -0.467608 0.949256 0.057104 -0.016458 272579.000000 0 0 1
-35.638026 17.163397 27.312382 48.068881 -0.448822 0.966489 0.055467 -0.018565 63525.200000 0 0 1
-36.348726 15.827497 27.658682 48.339862 -0.410676 0.961645 0.074490 -0.031706 130927.000000 0 0 1
-35.525426 15.035597 28.460492 47.938760 -0.400375 0.935167 0.070412 -0.025933 264133.000000 0 0 1
-36.362226 14.206097 29.223052 48.764859 -0.372449 0.928214 0.066188 -0.029960 363286.000000 0 0 1
-35.550126 12.969897 29.720562 48.117996 -0.349828 0.905032 0.072837 -0.029013 215221.000000 0 0 1
-34.301226 13.256997 30.299522 47.648538 -0.368804 0.881627 0.076022 -0.020789 -91309.300000 0 0 1
-33.725526 12.080497 30.763872 47.220391 -0.343962 0.861242 0.077230 -0.013763 -88341.400000 0 0 1
-32.176926 12.032997 30.749972 46.105405 -0.357862 0.840689 0.078638 -0.016521 -400916.000000 0 0 1
-31.610826 12.103197 29.422622 44.848884 -0.365662 0.855238 0.078950 -0.021883 577973.000000 0 0 1
-30.267126 12.550097 29.314622 43.965338 -0.393067 0.840934 0.084585 -0.021295 542315.000000 0 0 1
-29.168926 11.558697 29.762042 43.245912 -0.377285 0.811785 0.085977 -0.021811 -423602.000000 0 0 1
-29.097226 10.345497 29.017732 42.375779 -0.341610 0.816506 0.088974 -0.028213 -908800.000000 0 0 1
-27.919426 9.712397 29.328852 41.641405 -0.334778 0.789332 0.080217 -0.026984 -972944.000000 0 0 1
-27.532126 8.559697 28.313752 40.409837 -0.301425 0.794467 0.089649 -0.025394 57094.900000 0 0 1
-28.361526 7.435197 28.283562 40.738412 -0.256388 0.803388 0.099806 -0.032594 181975.000000 0 0 1
-29.662726 7.631297 27.725222 41.313460 -0.251808 0.835113 0.100874 -0.028132 329537.000000 0 0 1
-30.527526 6.346697 27.769232 41.753331 -0.204981 0.843198 0.098668 -0.024833 4629.110000 0 0 1
-30.816026 5.942097 29.094862 42.795409 -0.190487 0.823225 0.095911 -0.024617 208399.000000 0 0 1
-31.590526 4.731397 29.208912 43.284039 -0.148668 0.830076 0.097956 -0.023269 288738.000000 0 0 1
-31.997126 4.471197 30.681582 44.555215 -0.138838 0.811213 0.089114 -0.014488 290663.000000 0 0 1
-33.202326 5.140197 31.026272 45.732326 -0.153595 0.825170 0.081923 -0.010064 -50083.000000 0 0 1
-33.797526 4.708597 32.210175 46.924823 -0.138427 0.814241 0.091820 -0.013379 41388.000000 0 0 1
-35.274026 5.123297 32.336175 48.126223 -0.144234 0.834021 0.098488 -0.003364 -99464.500000 0 0 1
-35.598526 6.506697 32.563744 48.682539 -0.180784 0.838068 0.095075 -0.006279 886349.000000 0 0 1
-37.028226 6.677597 32.449654 49.685611 -0.178420 0.859126 0.084814 0.003309 1284710.000000 0 0 1
36.907475 8.143397 32.851330 50.076806 0.217164 0.855265 0.082807 -0.003695 66789.700000 0 0 1
36.894175 8.455397 -33.612091 50.620614 0.225289 2.296952 0.085548 -0.002928 171879.000000 0 0 1
36.512975 9.810597 -33.481711 50.502179 0.262489 2.295583 0.083022 -0.007364 4615.600000 0 0 1
36.571575 10.270597 -32.014961 49.678194 0.273783 2.271096 0.075524 -0.013100 612658.000000 0 0 1
35.445275 9.786797 -31.248801 48.255948 0.269398 2.275179 0.073988 -0.002675 720167.000000 0 0 1
35.628875 9.797497 -29.892901 47.528867 0.268355 2.250988 0.071577 -0.001666 116051.000000 0 0 1
34.311575 9.357197 -29.210111 46.022515 0.266238 2.258406 0.072857 -0.002306 115387.000000 0 0 1
34.070475 7.997897 -29.324731 45.658553 0.230571 2.268241 0.085182 -0.005845 -1185200.000000 0 0 1
32.776175 7.661097 -29.094351 44.491025 0.229617 2.283574 0.092153 -0.015894 -1591150.000000 0 0 1
36.018956 5.909097 -20.488021 41.857396 0.162607 2.082280 0.067212 -0.010587 -185195.000000 0 0 1
35.172666 6.739097 -19.680421 40.863808 0.189306 2.073287 0.048219 -0.027503 252119.000000 0 0 1
35.607746 8.057797 -19.371121 41.328925 0.222545 2.058622 0.037631 -0.013011 -834588.000000 0 0 1
36.822686 8.113797 -18.383821 41.948883 0.216882 2.024440 0.049279 -0.022775 957127.000000 0 0 1
-36.325515 7.776397 -19.003521 41.727080 -0.210892 2.043645 0.055037 -0.026126 281057.000000 0 0 1
-35.725396 8.683997 -19.938521 41.824160 -0.238452 2.067719 0.051762 -0.017011 -448883.000000 0 0 1
-34.394234 8.179197 -20.538021 40.886097 -0.233471 2.097079 0.052710 -0.012210 -154438.000000 0 0 1
-34.471644 7.112897 -21.468921 41.228656 -0.203485 2.118500 0.049065 -0.001823 338768.000000 0 0 1
-35.132562 7.386897 -22.745421 42.499616 -0.207239 2.135530 0.045966 -0.003986 330517.000000 0 0 1
-35.262016 6.098897 -23.553921 42.841493 -0.171265 2.152912 0.082660 -0.016163 -99316.100000 0 0 1
-34.042345 5.859397 -24.191021 42.171309 -0.170451 2.181735 0.075865 -0.019951 -190993.000000 0 0 1
-34.052835 4.577697 -24.786621 42.366584 -0.133628 2.195740 0.077768 -0.007937 566823.000000 0 0 1
-32.753445 4.350797 -25.621231 41.811064 -0.132062 2.230377 0.086299 -0.010575 -44569.800000 0 0 1
-31.535285 4.373797 -24.981321 40.468144 -0.137816 2.236113 0.084873 -0.012280 -89349.600000 0 0 1
-30.426745 4.164997 -25.883631 40.163371 -0.136041 2.271111 0.079344 -0.010589 777033.000000 0 0 1
-29.057445 4.540797 -25.286891 38.786348 -0.155016 2.280954 0.056852 -0.009390 -51147.000000 0 0 1
-28.913815 5.975497 -25.086751 38.743520 -0.203797 2.275107 0.044842 -0.011927 388295.000000 0 0 1
-27.554045 6.284797 -24.791021 37.594132 -0.224253 2.290868 0.053785 -0.006131 442989.000000 0 0 1
-27.324065 7.797597 -25.066511 37.891121 -0.277986 2.293667 0.047187 -0.016339 35533.000000 0 0 1
-27.928905 8.671097 -24.118621 37.906722 -0.301035 2.260440 0.044666 -0.022621 -102166.000000 0 0 1
-27.607915 10.050097 -24.324821 38.143130 -0.349118 2.262337 0.037757 -0.023378 -31698.800000 0 0 1
-26.243755 10.491197 -23.765121 36.926696 -0.380299 2.269957 0.064028 -0.017755 -158855.000000 0 0 1
-26.149295 10.548797 -22.346621 35.978246 -0.383440 2.240961 0.047956 -0.012948 961639.000000 0 0 1
-24.796825 10.871897 -21.964021 34.864006 -0.413198 2.252338 0.081600 -0.019842 480235.000000 0 0 1
-24.708525 11.266997 -20.450521 33.995297 -0.427829 2.216260 0.099959 -0.027917 -1008960.000000 0 0 1
-25.196245 12.482397 -19.886221 34.440133 -0.459966 2.186354 0.092013 -0.026465 878780.000000 0 0 1
-26.577815 12.823597 -20.028221 35.664472 -0.449544 2.167083 0.072509 -0.013342 795008.000000 0 0 1
-27.613775 11.840397 -19.367821 35.746721 -0.405073 2.143382 0.061137 -0.007660 -485396.000000 0 0 1
-27.376595 11.549097 -18.007621 34.743834 -0.399208 2.115655 0.076087 -0.015681 403763.000000 0 0 1
-28.360445 10.662397 -17.484021 34.981317 -0.359612 2.094176 0.085397 -0.019497 -404014.000000 0 0 1
-28.055635 10.277897 -15.990621 33.888845 -0.351157 2.062190 0.121312 -0.023798 636971.000000 0 0 1
-26.938955 9.410997 -15.820721 32.627739 -0.336091 2.077029 0.133055 -0.026589 722916.000000 0 0 1
-25.643435 9.939097 -15.997521 31.816538 -0.369761 2.097637 0.111674 -0.020762 232589.000000 0 0 1
-24.501125 8.875897 -15.723721 30.435540 -0.347559 2.113699 0.084995 -0.019838 1164770.000000 0 0 1
-23.130125 9.285497 -15.750821 29.484089 -0.381752 2.134374 0.084251 -0.012571 757914.000000 0 0 1
-22.342225 8.185097 -15.390721 28.338051 -0.351167 2.144935 0.097826 -0.015323 -1211780.000000 0 0 1
-20.863725 8.426697 -15.306321 27.213741 -0.383857 2.168140 0.131417 -0.025536 -725349.000000 0 0 1
-20.138525 8.843297 -16.488721 27.488943 -0.413772 2.214086 0.148121 -0.034562 777158.000000 0 0 1
-18.734425 8.781197 -16.278421 26.326319 -0.438312 2.237416 0.152739 -0.034739 -99632.300000 0 0 1
-17.982825 9.160497 -17.585721 26.768532 -0.471141 2.287569 0.124431 -0.023532 -165573.000000 0 0 1
-17.891325 8.250297 -18.714721 27.173658 -0.432074 2.330502 0.164219 -0.031674 297882.000000 0 0 1
-17.163625 7.066297 -18.397921 26.134385 -0.390553 2.351773 0.177195 -0.036981 -635768.000000 0 0 1
-16.634325 6.425597 -19.657421 26.540597 -0.368628 2.404841 0.130202 -0.031833 -419596.000000 0 0 1
-17.501425 5.766497 -20.543021 27.596523 -0.318285 2.410441 0.128863 -0.020424 -182047.000000 0 0 1
-18.452025 6.526597 -21.261521 28.898546 -0.339973 2.397540 0.141326 -0.013838 272503.000000 0 0 1
-19.554125 5.610197 -21.902121 29.892157 -0.279401 2.393084 0.116071 -0.002174 -36184.200000 0 0 1
-20.333325 5.024797 -20.907021 29.593854 -0.242267 2.355287 0.117815 -0.007298 661391.000000 0 0 1
-21.160125 3.932697 -21.453121 30.388376 -0.183758 2.354581 0.083532 0.007411 702740.000000 0 0 1
-22.004625 3.074897 -20.468521 30.209582 -0.138840 2.315223 0.108552 -0.002176 45776.700000 0 0 1
-22.572725 1.925397 -21.032721 30.912949 -0.085092 2.319085 0.112884 0.001603 221230.000000 0 0 1
-23.451425 1.321097 -20.122621 30.929509 -0.056274 2.279166 0.123616 -0.004464 -718316.000000 0 0 1
-23.904125 -0.095803 -20.551121 31.524038 0.004008 2.280909 0.125618 0.001018 -362944.000000 0 0 1
-22.954025 -1.118503 -20.411421 30.737020 0.048689 2.297041 0.108394 -0.007003 33988.000000 0 0 1
-23.438925 -2.467803 -20.640221 31.328772 0.104900 2.290054 0.118663 -0.014540 -429453.000000 0 0 1
-23.975025 -2.770003 -22.103521 32.726753 0.115027 2.312298 0.108165 -0.022150 125601.000000 0 0 1
-23.112525 -2.720003 -23.220521 32.875216 0.117146 2.355087 0.083401 -0.022175 218813.000000 0 0 1
-22.071525 -3.710703 -23.318021 32.321071 0.166564 2.376690 0.067499 -0.032272 474547.000000 0 0 1
-21.197025 -3.370103 -24.533421 32.596936 0.157670 2.422843 0.064938 -0.032821 25519.300000 0 0 1
-21.947825 -3.552003 -25.723031 33.999972 0.160447 2.428833 0.066561 -0.040372 1203950.000000 0 0 1
-21.022925 -3.659703 -26.844641 34.292733 0.172354 2.469963 0.067635 -0.042831 684149.000000 0 0 1
-21.772625 -4.033203 -28.145121 35.811475 0.183166 2.474986 0.079833 -0.044418 20361.200000 0 0 1
-22.404425 -5.266903 -28.158821 36.367812 0.230891 2.456371 0.072891 -0.045311 414771.000000 0 0 1
-23.250925 -5.506603 -29.280611 37.792623 0.232549 2.457148 0.036950 -0.031414 -435719.000000 0 0 1
-22.766325 -6.671903 -30.173491 38.383061 0.285078 2.475294 0.055082 -0.032386 276544.000000 0 0 1
-21.578025 -6.381803 -30.920311 38.241394 0.287558 2.512490 0.041821 -0.031716 327851.000000 0 0 1
-20.897225 -7.564603 -31.278261 38.369869 0.347317 2.523832 0.052997 -0.034604 -375949.000000 0 0 1
-19.448125 -7.173303 -31.666481 37.847746 0.353362 2.561991 0.065624 -0.032720 -396711.000000 0 0 1
-19.289725 -6.544303 -32.993311 38.774734 0.327078 2.588487 0.063862 -0.037227 402697.000000 0 0 1
-19.497325 -7.567703 33.908842 39.839998 0.370241 0.552671 0.064019 -0.036483 -744679.000000 0 0 1
-19.455025 -7.164103 32.421904 38.483792 0.352830 0.568922 0.065678 -0.033967 1228260.000000 0 0 1
-18.142525 -6.846903 31.850452 37.289176 0.360869 0.546887 0.081813 -0.035242 1604290.000000 0 0 1
-17.564225 -5.589703 32.172629 37.078631 0.308109 0.520267 0.072680 -0.040185 47875.900000 0 0 1
-16.190825 -5.350603 31.493072 35.813201 0.319173 0.496258 0.070967 -0.031470 30222.500000 0 0 1
-16.239325 -5.407403 30.058912 34.590373 0.321434 0.517626 0.067011 -0.028350 -259909.000000 0 0 1
-15.081225 -4.808403 29.572412 33.542386 0.308645 0.491464 0.051226 -0.015154 -315724.000000 0 0 1
-15.133525 -4.765303 28.033862 32.212251 0.305055 0.515014 0.058316 -0.016199 159744.000000 0 0 1
-16.181125 -3.943803 27.567032 32.207509 0.239068 0.543470 0.052410 -0.020219 -131583.000000 0 0 1
-16.717625 -4.218703 26.304832 31.451878 0.247190 0.580202 0.060207 -0.015539 -318832.000000 0 0 1
-15.933225 -3.847803 25.069462 29.952482 0.236959 0.579065 0.064014 -0.009646 -474596.000000 0 0 1
-15.824325 -2.476703 24.908042 29.613407 0.155253 0.571470 0.063279 -0.001109 -190183.000000 0 0 1
-14.811625 -2.001703 24.073902 28.336263 0.134330 0.555609 0.059732 0.000838 -343232.000000 0 0 1
-14.614125 -0.464603 24.145682 28.227690 0.031781 0.544493 0.059534 0.005259 -257285.000000 0 0 1
-15.645225 0.331297 23.608532 28.323941 -0.021172 0.585350 0.045109 0.001654 -278193.000000 0 0 1
-15.653425 1.596097 24.223212 28.884966 -0.101614 0.576070 0.032183 0.007834 89490.800000 0 0 1
-16.394125 2.716297 23.400512 28.700690 -0.164196 0.617499 0.039150 0.007370 241826.000000 0 0 1
-15.619025 3.191297 22.292862 27.406387 -0.201547 0.620791 0.025954 0.005153 460887.000000 0 0 1
-16.279225 4.231297 21.611362 27.385544 -0.254293 0.661369 0.024038 0.002876 -101675.000000 0 0 1
-15.384025 4.992097 20.586262 26.179829 -0.313778 0.665933 0.032227 0.006625 -289286.000000 0 0 1
-14.417625 5.778697 21.249262 26.320950 -0.381203 0.631211 0.030385 -0.001327 544978.000000 0 0 1
-13.340625 5.830497 20.272262 24.958598 -0.412031 0.622822 0.028289 0.002750 759645.000000 0 1 0
-12.309125 6.989597 20.505962 24.917133 -0.516436 0.604183 0.023874 -0.005621 302110.000000 0 1 0
-12.748725 8.332097 20.216962 25.311646 -0.578876 0.645628 0.029779 -0.007748 23820.000000 0 0 1
-11.732325 9.281797 20.459962 25.345794 -0.669309 0.631347 0.035951 -0.009995 -11732.800000 0 0 1
-12.189525 10.757697 20.521562 26.181044 -0.723082 0.669982 0.025942 -0.004997 -231592.000000 0 0 1
-12.689825 11.178097 19.272762 25.640220 -0.722145 0.720219 0.034993 -0.008702 330229.000000 0 0 1
-13.332325 12.431997 19.435862 26.646917 -0.750468 0.753374 0.021193 -0.002474 -605183.000000 0 0 1
-13.868725 13.128597 18.162462 26.354822 -0.757990 0.810479 0.043397 -0.007955 38297.200000 0 0 1
-13.012625 13.903897 17.292962 25.723400 -0.818499 0.833531 0.036810 -0.010473 372878.000000 0 0 1
-12.525925 15.169997 17.739062 26.489657 -0.880578 0.837046 0.051006 -0.017433 201598.000000 0 0 1
-13.541825 16.367297 17.466862 27.502013 -0.879587 0.882643 0.051762 -0.013200 591522.000000 0 0 1
-13.863325 16.761197 16.150262 27.091705 -0.879743 0.932120 0.056632 -0.029048 200320.000000 0 0 1
-14.522225 15.799997 15.317562 26.365937 -0.827513 0.950888 0.092976 -0.019588 -347090.000000 0 0 1
-14.908225 16.330397 13.946662 26.142808 -0.830893 1.008087 0.078077 -0.027895 666248.000000 0 0 1
-15.974625 17.306897 14.011862 27.405284 -0.825407 1.034119 0.061865 -0.031957 474691.000000 0 0 1
-16.343425 17.661097 12.672462 27.195830 -0.824129 1.086065 0.073214 -0.031461 252255.000000 0 0 1
-17.619225 18.579597 12.754162 28.606069 -0.811922 1.108667 0.068572 -0.029663 -319242.000000 0 0 1
-18.739525 17.810297 12.943662 28.912193 -0.759980 1.106617 0.068225 -0.030219 -1291930.000000 0 0 1
-19.914825 18.559097 13.020762 30.175828 -0.750175 1.124645 0.066136 -0.034983 -591052.000000 0 0 1
-21.204625 17.784097 13.135162 30.634013 -0.697891 1.127658 0.076566 -0.021161 -310567.000000 0 0 1
-21.755925 17.263797 11.927362 30.226163 -0.670778 1.165160 0.080266 -0.032011 575660.000000 0 0 1
-23.041925 16.675197 12.130862 30.921681 -0.626449 1.167656 0.086830 -0.028454 589511.000000 0 0 1
-23.612425 15.859197 10.971862 30.486760 -0.591442 1.202647 0.098384 -0.029933 219958.000000 0 0 1
-22.757725 14.736597 10.708662 29.150588 -0.574646 1.194631 0.076322 -0.018116 634021.000000 0 0 1
-23.361025 13.896397 9.717462 28.866528 -0.536627 1.227456 0.080639 -0.024677 73006.700000 0 0 1
-22.506625 12.693097 9.233962 27.439551 -0.513507 1.227577 0.100125 -0.021031 -575438.000000 0 0 1
-22.619425 11.474897 10.013262 27.268610 -0.469473 1.194790 0.103968 -0.019557 1054280.000000 0 0 1
-23.929325 10.896997 10.195262 28.201073 -0.427321 1.200898 0.129164 -0.008919 993720.000000 0 0 1
-24.758425 10.451397 8.953662 28.326302 -0.399441 1.249191 0.156741 -0.017554 -101099.000000 0 0 1
-25.228845 11.569697 8.160462 28.930013 -0.429974 1.284839 0.151785 -0.021451 627537.000000 0 0 1
-26.482845 11.224597 7.567262 29.742161 -0.400891 1.313539 0.199658 -0.026954 49640.400000 0 0 1
-26.930025 12.283697 6.564962 30.318545 -0.427943 1.352535 0.175402 -0.020124 187721.000000 0 0 1
-26.013485 12.484097 5.477162 29.369259 -0.447446 1.383205 0.157631 -0.029116 453495.000000 0 0 1
-24.760225 13.092597 5.564562 28.556071 -0.486402 1.374677 0.144479 -0.028037 -668209.000000 0 0 1
-24.687725 14.573397 6.057962 29.301307 -0.533264 1.362547 0.126155 -0.031182 -305174.000000 0 0 1
-23.352725 15.042997 6.188162 28.459355 -0.572262 1.351607 0.106257 -0.038752 699858.000000 0 0 1
-23.432225 16.252397 6.863962 29.331273 -0.606412 1.334591 0.100315 -0.039679 -764523.000000 0 0 1
-22.107725 16.979997 6.881862 28.712921 -0.654958 1.328762 0.097081 -0.040917 -773879.000000 0 0 1
-21.711425 17.421397 5.625462 28.399593 -0.676207 1.371395 0.112975 -0.047909 1461350.000000 0 0 1
-20.278225 17.561997 5.480662 27.380062 -0.713740 1.369265 0.126998 -0.047487 936400.000000 0 0 1
-19.817625 18.608697 4.443862 27.545776 -0.753948 1.408762 0.119095 -0.027448 949638.000000 0 0 1
-18.371225 18.681297 4.352562 26.560075 -0.793766 1.406178 0.096890 -0.034032 1442300.000000 0 0 1
-17.898325 19.793997 3.606962 26.928842 -0.835649 1.436448 0.107807 -0.036463 82681.000000 0 0 1
-18.033725 21.272897 4.144162 28.194423 -0.867620 1.423277 0.114095 -0.039468 -193238.000000 0 0 1
-17.298225 21.572697 5.316262 28.157992 -0.894924 1.380855 0.113520 -0.040496 100647.000000 0 0 1
-17.530625 22.924197 5.671062 29.410926 -0.917940 1.376759 0.090506 -0.032151 -179976.000000 0 0 1
-16.792725 23.410697 6.922562 29.630697 -0.948547 1.334989 0.068219 -0.017567 -291217.000000 0 0 1
-17.338325 22.981997 8.091662 29.904259 -0.924466 1.296795 0.069562 -0.024047 1586.330000 0 0 1
-16.445525 23.243797 9.141762 29.904869 -0.955039 1.260128 0.068999 -0.024732 107253.000000 0 0 1
-16.888025 22.411797 10.345462 29.908571 -0.925038 1.217595 0.049312 -0.023611 -500283.000000 0 0 1
-17.954925 22.975197 11.008362 31.167660 -0.907443 1.209809 0.057019 -0.019256 -227655.000000 0 0 1
-18.928825 21.965597 11.443862 31.172903 -0.859521 1.194897 0.062176 -0.025949 277976.000000 0 0 1
-20.184225 22.649497 11.988762 32.621053 -0.842889 1.194460 0.067896 -0.025329 -585352.000000 0 0 1
-21.094325 23.188897 11.049662 33.238389 -0.832662 1.231910 0.074094 -0.016042 226129.000000 0 0 1
-20.610925 24.350997 10.398862 33.554696 -0.868390 1.255700 0.049328 -0.014918 -693223.000000 0 0 1
-21.752325 25.241697 9.888062 34.757455 -0.859514 1.282325 0.068831 -0.002547 388993.000000 0 0 1
-22.622025 25.680297 10.956162 35.934262 -0.848629 1.260969 0.075162 -0.016275 -17054.600000 0 0 1
-23.399325 26.747497 10.523662 37.063520 -0.852067 1.282900 0.080954 -0.004757 -319838.000000 0 0 1
-24.199025 27.424097 11.627062 38.377891 -0.847790 1.262997 0.085716 -0.027669 206785.000000 0 0 1
-23.357225 28.382097 12.303762 38.761914 -0.882214 1.247790 0.087690 -0.022289 880713.000000 0 0 1
-24.109125 29.281797 13.115962 40.133552 -0.881980 1.237872 0.074562 -0.023085 -251809.000000 0 0 1
9.409475 -32.420610 27.172672 43.335762 -1.288326 0.893066 0.086004 -0.022490 162029.000000 0 0 1
10.808775 -32.652010 27.117162 43.798674 -1.251121 0.903159 0.059011 -0.029443 428869.000000 0 0 1
11.287575 -32.547910 25.813712 43.047921 -1.236976 0.927732 0.067097 -0.019441 -773295.000000 0 0 1
12.793175 -32.597010 25.602002 43.378484 -1.196803 0.939489 0.019542 -0.013118 -586377.000000 0 0 1
13.254475 -33.923810 25.458032 44.436667 -1.198321 0.960749 0.030367 -0.034959 -555591.000000 0 0 1
14.615975 -33.881510 25.151362 44.656180 -1.163530 0.972516 0.039098 -0.023961 -608578.000000 0 0 1
15.215575 32.828497 24.695952 43.807693 1.136784 0.971895 0.062104 -0.013201 -138214.000000 0 0 1
15.073275 32.467897 23.323572 42.724197 1.136154 0.993321 0.043704 -0.031243 -11874.400000 0 0 1
16.008475 31.478297 23.013582 42.151862 1.100327 0.993252 0.041551 -0.019043 -352425.000000 0 0 1
15.886475 30.801997 21.628162 40.852424 1.094619 1.012877 0.052005 -0.034920 455652.000000 0 0 1
14.935475 29.699097 21.477262 39.577488 1.104837 0.997191 0.045836 -0.016405 456098.000000 0 0 1
15.219875 28.409897 22.048662 39.050101 1.078979 0.970818 0.054715 -0.014987 -343148.000000 0 0 1
14.717975 28.082297 23.440922 39.429824 1.088054 0.934156 0.063934 -0.028089 -651323.000000 0 0 1
15.486375 28.712697 24.395672 40.735680 1.076162 0.928698 0.068509 -0.026304 -237939.000000 0 0 1
15.154175 28.269697 25.722932 41.115618 1.078721 0.894865 0.055263 -0.030275 -418288.000000 0 0 1
16.172675 28.743897 26.786202 42.488442 1.058295 0.888683 0.058452 -0.029535 -31765.800000 0 0 1
15.948675 30.068197 27.164372 43.547214 1.083112 0.897212 0.050418 -0.032858 145376.000000 0 0 1
16.707675 30.389997 28.309022 44.767165 1.068126 0.886199 0.067146 -0.028107 5073.150000 0 0 1
16.474175 31.875597 28.771092 45.991607 1.093778 0.894931 0.075510 -0.026935 -218652.000000 0 0 1
17.058475 32.694497 27.843522 46.208045 1.089898 0.924080 0.078935 -0.028512 -199895.000000 0 0 1
16.932475 -34.007710 28.332702 47.391719 -1.108829 0.929992 0.065790 -0.016734 -249790.000000 0 0 1
17.766175 -32.962910 27.614772 46.527046 -1.076457 0.935370 0.053773 -0.022447 -1009320.000000 0 0 1
17.407075 -32.752710 26.274252 45.454181 -1.082291 0.954474 0.074481 -0.021880 -31282.200000 0 0 1
17.969675 -31.569010 25.678582 44.484842 -1.053318 0.955447 0.070948 -0.030703 192555.000000 0 0 1
19.514375 -31.533810 25.545562 45.030742 -1.016639 0.967583 0.094642 -0.030189 -211116.000000 0 0 1
20.239475 -31.303910 26.711692 45.859411 -0.996852 0.949033 0.097932 -0.033707 -13154.800000 0 0 1
21.305775 -30.385610 26.459882 45.577919 -0.959279 0.951403 0.105203 -0.036597 49326.300000 0 0 1
21.661975 -29.483610 27.653232 45.860938 -0.937151 0.923565 0.109415 -0.033339 -526674.000000 0 0 1
20.579375 -28.694310 28.026032 45.081399 -0.948624 0.899915 0.094002 -0.020474 -261886.000000 0 0 1
20.852675 -27.952210 29.161622 45.459436 -0.929853 0.874362 0.098589 -0.021917 514096.000000 0 0 1
19.538775 -27.342910 29.776672 44.900430 -0.950350 0.845749 0.100692 -0.028976 461554.000000 0 0 1
18.824875 -26.584110 28.820882 43.494069 -0.954638 0.846459 0.117414 -0.024647 -450536.000000 0 0 1
17.748975 -26.079310 29.556632 43.229053 -0.973225 0.817946 0.111417 -0.021802 356032.000000 0 0 1
16.655875 -25.298510 28.662552 41.701015 -0.988557 0.812983 0.106985 -0.004113 361466.000000 0 0 1
15.897875 -26.094910 27.777162 41.294763 -1.023616 0.833004 0.099868 -0.002991 6527.360000 0 0 1
15.214975 -25.375410 26.804172 39.923308 -1.030674 0.834711 0.090375 -0.015465 -777317.000000 0 0 1
13.811275 -24.862610 27.204402 39.357086 -1.063737 0.807620 0.074987 -0.009105 -503277.000000 0 0 1
12.820175 -25.832710 27.358092 39.751113 -1.110132 0.811743 0.068082 -0.002013 145754.000000 0 0 1
12.339775 -26.377210 26.101302 39.106332 -1.133223 0.840025 0.046209 -0.006623 -737985.000000 0 0 1
11.500075 -27.674810 26.186732 39.798138 -1.176963 0.852651 0.055405 -0.012962 679270.000000 0 0 1
10.100175 -27.381210 26.334002 39.309335 -1.217409 0.836699 0.051641 -0.016846 148925.000000 0 0 1
9.320375 -28.521510 26.232262 39.855708 -1.254952 0.852396 0.050244 -0.014512 -632856.000000 0 0 1
7.858175 -28.173010 26.564992 39.511621 -1.298784 0.833440 0.044058 -0.018412 -640557.000000 0 0 1
7.076875 -27.809910 25.481232 38.376639 -1.321612 0.844671 0.050072 -0.026208 -414308.000000 0 0 1
7.251175 -26.497610 24.951692 37.111855 -1.303682 0.833434 0.073618 -0.026195 -41437.300000 0 0 1
6.083275 -26.122710 23.951012 35.959049 -1.342001 0.841878 0.079722 -0.020608 -39401.000000 0 0 1
5.980075 -26.916110 22.770062 35.759111 -1.352173 0.880504 0.076220 -0.019578 -222283.000000 0 0 1
5.356475 -28.193410 22.955472 36.749338 -1.383044 0.896113 0.076762 -0.026245 -773863.000000 0 0 1
3.887475 -28.163510 23.356072 36.794046 -1.433631 0.883074 0.122891 -0.031403 -1571580.000000 0 0 1
2.997075 -27.956510 22.256662 35.859558 -1.463999 0.901210 0.127134 -0.035530 43231.400000 0 0 1
1.664875 -27.809710 22.682862 35.925812 -1.511001 0.887464 0.150314 -0.029873 9277.570000 0 0 1
1.229275 -26.405410 23.269662 35.216956 -1.524276 0.848977 0.139716 -0.036533 -361325.000000 0 0 1
1.933275 -26.120010 24.486362 35.854908 -1.496916 0.819031 0.118495 -0.031187 107532.000000 0 0 1
1.858275 -24.785910 24.971862 35.233342 -1.495963 0.783062 0.109684 -0.033625 -759799.000000 0 0 1
3.083975 -24.362310 25.775862 35.600957 -1.444878 0.761181 0.115029 -0.027149 -1379840.000000 0 0 1
4.001775 -23.794410 24.945212 34.705212 -1.404174 0.768759 0.118629 -0.028399 -755068.000000 0 0 1
4.959575 -22.993210 25.629182 34.787067 -1.358354 0.742553 0.107494 -0.031982 189383.000000 0 0 1
4.379975 -21.616710 26.084882 34.159734 -1.370883 0.701903 0.101197 -0.020612 -148122.000000 0 0 1
4.237575 -20.782910 24.937422 32.737767 -1.369656 0.704813 0.096711 -0.026361 156193.000000 0 0 1
3.610875 -19.527810 25.130262 32.029734 -1.387952 0.668759 0.116478 -0.025760 47130.600000 0 0 1
3.579375 -18.851510 23.766522 30.545686 -1.383158 0.679217 0.118693 -0.031895 86916.800000 0 0 1
4.818575 -18.242810 23.501002 30.138279 -1.312558 0.676494 0.110247 -0.026652 -268977.000000 0 0 1
4.926075 -17.983910 22.148462 28.952402 -1.303438 0.699762 0.112962 -0.032876 166375.000000 0 0 1
6.145675 -17.079410 21.845462 28.402461 -1.225392 0.693302 0.099099 -0.018152 805535.000000 0 0 1
7.335175 -17.681810 22.376862 29.447838 -1.177560 0.707666 0.082411 -0.023870 721456.000000 0 0 1
8.502875 -16.957810 21.926862 28.994025 -1.106019 0.713227 0.077272 -0.015071 2383970.000000 0 0 1
9.900275 -17.146210 22.689662 30.113597 -1.047158 0.717474 0.084842 -0.008650 1513330.000000 0 0 1
9.909675 -16.648910 23.981442 30.830138 -1.033903 0.679548 0.077779 -0.007278 -489045.000000 0 0 1
11.074975 -16.898510 24.703212 31.913373 -0.990647 0.685550 0.090146 -0.002099 -338990.000000 0 0 1
11.169475 -15.921810 25.870552 32.365826 -0.959051 0.644639 0.105055 -0.015215 -92587.400000 0 0 1
11.211675 -14.568810 25.443862 31.390158 -0.914890 0.625675 0.113443 -0.011078 136796.000000 0 0 1
11.292375 -13.826510 26.634692 32.063951 -0.885944 0.590479 0.106224 -0.012441 -181581.000000 0 0 1
11.528275 -12.297210 26.496152 31.403321 -0.817661 0.566588 0.107438 -0.018695 623016.000000 0 0 1
10.481475 -11.613010 25.783322 30.157968 -0.836567 0.545357 0.110736 -0.021391 423748.000000 0 0 1
10.850475 -10.272210 25.628152 29.665692 -0.758028 0.527837 0.105922 -0.018785 -387384.000000 0 0 1
9.870775 -9.370910 24.882882 28.362017 -0.759426 0.500524 0.097005 -0.020721 -340948.000000 0 0 1
8.660875 -9.226810 25.593102 28.550861 -0.817026 0.459208 0.096280 -0.029416 -533954.000000 0 0 1
7.669575 -8.834510 24.691632 27.323024 -0.855866 0.442478 0.090460 -0.026638 -473706.000000 0 0 1
6.220275 -9.181710 25.036032 27.382449 -0.975356 0.416997 0.092791 -0.031156 -1138440.000000 0 0 1
5.675075 -8.349310 25.978462 27.871095 -0.973821 0.370647 0.094611 -0.035687 410614.000000 0 0 1
4.381575 -8.744510 26.483402 28.231813 -1.106296 0.353781 0.089853 -0.035583 1931960.000000 0 0 1
3.176675 -8.528310 25.465892 27.043206 -1.214232 0.343225 0.073185 -0.031364 127760.000000 0 0 1
2.863775 -7.199810 25.178792 26.344071 -1.192225 0.298540 0.074416 -0.027778 197618.000000 0 0 1
1.835075 -7.101410 24.181052 25.268969 -1.317918 0.294503 0.058780 -0.023561 544190.000000 0 0 1
1.878375 -5.775910 23.406812 24.181983 -1.256376 0.253884 0.052798 -0.023780 -231819.000000 0 1 0
1.493975 -4.672310 24.206302 24.698330 -1.261319 0.199940 0.061483 -0.020196 54904.500000 0 1 0
1.981975 -3.426910 23.730952 24.058887 -1.046443 0.165297 0.059750 -0.017704 -807772.000000 0 1 0
1.314175 -2.859610 22.436862 22.656505 -1.140017 0.139357 0.055541 -0.025243 900064.000000 0 1 0
0.246475 -1.935610 22.757962 22.841458 -1.444141 0.085530 0.054324 -0.027331 588524.000000 0 1 0
-0.997925 -2.445610 23.183072 23.333060 1.183372 0.113446 0.054321 -0.024720 -90086.900000 0 1 0
-1.850425 -1.236610 23.720692 23.824872 0.589121 0.093551 0.060622 -0.026235 283445.000000 0 1 0
-1.229825 -0.656610 24.885872 24.924892 0.490402 0.055963 0.072123 -0.020184 725360.000000 0 1 0
-1.952325 0.519390 25.328812 25.409252 -0.260014 0.079592 0.074137 -0.018567 154287.000000 0 0 1
-1.432425 1.120390 26.668842 26.730774 -0.663770 0.068085 0.096173 -0.022077 -382177.000000 0 0 1
-1.780925 0.404390 27.841792 27.901624 -0.223282 0.065500 0.116350 -0.021892 -30878.400000 0 0 1
-1.085025 -0.797610 28.045272 28.077585 0.633901 0.047980 0.113309 -0.021592 -123914.000000 0 0 1
0.365575 -0.710610 28.628582 28.639734 -1.095654 0.027907 0.126075 -0.022399 -36646.400000 0 0 1
1.283675 -0.015610 27.815392 27.845002 -0.012159 0.046120 0.111985 -0.027441 -110020.000000 0 0 1
1.896775 -0.839610 26.820722 26.900815 -0.416726 0.077186 0.103391 -0.026445 267697.000000 0 0 1
3.110575 -1.681610 27.366642 27.594141 -0.495606 0.128497 0.102952 -0.028361 -314751.000000 0 0 1
2.695975 -2.878610 27.928832 28.205928 -0.818148 0.140286 0.110406 -0.029209 199273.000000 0 0 1
3.724975 -3.802910 28.322292 28.818220 -0.795751 0.185787 0.103894 -0.027040 254782.000000 0 0 1
4.425175 -4.597010 27.202102 27.940455 -0.804442 0.230405 0.104380 -0.031123 -205252.000000 0 0 1
5.391775 -3.789310 26.591072 27.395533 -0.612599 0.242938 0.096690 -0.028293 -580855.000000 0 0 1
5.858375 -4.517910 25.481132 26.533378 -0.656924 0.282568 0.098464 -0.031480 -739510.000000 0 0 1
7.034975 -3.801710 24.774172 26.032739 -0.495444 0.312218 0.097685 -0.031911 809449.000000 0 0 1
8.294675 -3.901810 25.488632 27.086826 -0.439688 0.345231 0.089525 -0.027185 1076330.000000 0 0 1
8.971875 -5.165210 25.517312 27.537378 -0.522369 0.385414 0.096997 -0.027198 -524775.000000 0 0 1
9.735275 -5.553010 24.272392 26.735006 -0.518371 0.432578 0.090054 -0.035193 -366999.000000 0 0 1
8.941075 -6.077710 23.206182 25.600943 -0.597007 0.435976 0.087903 -0.033511 -100393.000000 0 0 1
9.614175 -6.044610 21.987562 24.747173 -0.561269 0.476757 0.091101 -0.027972 -162387.000000 0 1 0
9.770075 -4.659810 21.306862 23.898757 -0.445036 0.470047 0.101501 -0.030395 1120720.000000 0 1 0
8.523075 -3.948410 21.084462 23.082186 -0.433827 0.419109 0.085808 -0.026212 666451.000000 0 1 0
8.750175 -2.716610 20.458862 22.416748 -0.301028 0.421051 0.081510 -0.019636 700560.000000 0 1 0
7.437275 -1.884610 20.190062 21.598691 -0.248177 0.363152 0.071396 -0.015722 1062930.000000 0 1 0
6.748175 -1.352610 21.324262 22.407400 -0.197819 0.312195 0.069702 -0.016545 -311327.000000 0 1 0
5.522775 -0.791610 20.964362 21.694059 -0.142366 0.260100 0.048882 -0.018225 -756642.000000 0 1 0
4.693575 -0.491610 22.174662 22.671281 -0.104360 0.209693 0.040332 -0.020690 -681791.000000 0 1 0
3.507875 0.212390 21.916962 22.196926 0.060473 0.158993 0.045169 -0.026574 -292511.000000 0 1 0
2.939675 0.645390 23.128812 23.323811 0.216116 0.129400 0.061951 -0.028356 -209108.000000 0 1 0
1.457975 1.047390 23.073282 23.143014 0.622960 0.077648 0.064361 -0.034186 -260984.000000 0 1 0
1.216075 2.398390 22.686762 22.845575 1.101534 0.117980 0.060395 -0.030314 -300365.000000 0 1 0
-0.135525 2.630390 22.937172 23.087902 -1.519319 0.114329 0.054183 -0.016340 -441582.000000 0 1 0
-0.782425 3.987390 22.577062 22.939817 -1.377033 0.178074 0.059944 -0.013336 -158719.000000 0 1 0
-0.553825 5.035390 23.422502 23.964046 -1.461250 0.212997 0.065224 -0.015025 -228821.000000 0 1 0
-1.372225 6.113390 23.071672 23.907292 -1.349994 0.265172 0.062233 -0.018481 -303348.000000 0 1 0
-1.169825 7.407390 23.856652 25.007555 -1.414163 0.304564 0.068703 -0.017376 651189.000000 0 0 1
-0.103325 8.234390 23.354632 24.763980 -1.558249 0.338997 0.056117 -0.017980 529682.000000 0 1 0
-0.128325 9.444390 24.124062 25.907207 -1.557210 0.373182 0.070430 -0.011557 -119102.000000 0 0 1
0.576075 10.685390 23.401082 25.731694 1.516936 0.428894 0.071256 -0.015004 277490.000000 0 0 1
1.975875 10.726390 23.293762 25.720787 1.388632 0.437911 0.063173 -0.014420 86792.800000 0 0 1
2.673275 10.957390 24.551862 27.018600 1.331501 0.430632 0.093198 -0.024887 -140821.000000 0 0 1
3.999375 11.772390 24.454452 27.433637 1.243304 0.470363 0.083855 -0.033488 1202240.000000 0 0 1
5.191275 11.075390 24.053572 26.984958 1.132483 0.470438 0.068950 -0.030078 737225.000000 0 0 1
5.127075 10.694390 22.694562 25.606641 1.123750 0.481554 0.070540 -0.029803 -1127190.000000 0 0 1
6.500175 10.280390 22.129762 25.252031 1.006973 0.502553 0.067665 -0.029590 -196475.000000 0 0 1
7.325575 11.428390 22.055062 25.897836 1.000775 0.551732 0.062658 -0.032684 -908363.000000 0 0 1
8.523375 10.961390 21.547762 25.634080 0.909875 0.572424 0.070033 -0.032114 -45401.700000 0 0 1
9.530575 12.016390 20.904162 25.927003 0.900258 0.632977 0.064693 -0.037288 502664.000000 0 0 1
9.066775 12.389390 19.619162 24.912144 0.939034 0.663999 0.060373 -0.035676 134119.000000 0 1 0
9.799175 13.390390 18.948862 25.187016 0.939041 0.719210 0.084023 -0.035538 727860.000000 0 0 1
11.222275 13.033390 18.377562 25.170290 0.859928 0.752285 0.089565 -0.034371 928074.000000 0 0 1
12.272575 12.998390 19.348962 26.343056 0.814112 0.745867 0.099115 -0.038052 -337804.000000 0 0 1
13.426475 12.583390 18.681862 26.222584 0.752995 0.777836 0.097226 -0.035632 102347.000000 0 0 1
14.606875 12.262390 19.679362 27.404458 0.698363 0.769716 0.094674 -0.022859 618250.000000 0 0 1
15.190575 13.436390 20.246362 28.656681 0.724197 0.786235 0.093700 -0.023411 -575843.000000 0 0 1
16.400675 13.059390 20.817162 29.544612 0.672463 0.788936 0.086534 -0.020460 -183788.000000 0 0 1
17.263775 14.239390 21.326662 30.913180 0.689689 0.809461 0.090449 -0.015201 157245.000000 0 0 1
16.673975 14.827390 22.502162 31.689435 0.726846 0.781179 0.092914 -0.017223 558228.000000 0 0 1
17.443975 15.970390 22.837662 32.877111 0.741326 0.802881 0.085412 -0.009176 54324.300000 0 0 1
-22.098225 13.136797 -24.366421 35.420749 -0.536346 2.329407 0.081065 -0.007209 57592.900000 0 0 1
-21.811325 12.737897 -25.714781 36.044943 -0.528575 2.365147 0.070602 -0.019952 -499681.000000 0 0 1
-22.571725 13.404497 -26.628661 37.393166 -0.535894 2.363319 0.067037 -0.025548 -696837.000000 0 0 1
-22.198425 13.265997 -28.122631 38.205224 -0.538660 2.398078 0.066867 -0.022377 -599358.000000 0 0 1
-20.937325 13.802397 -28.340141 37.842322 -0.582833 2.417198 0.086330 -0.017558 -836912.000000 0 0 1
-20.687725 13.893197 -29.682151 38.756070 -0.591388 2.443191 0.079079 -0.027168 -406433.000000 0 0 1
-19.404925 14.643297 -30.052071 38.653645 -0.646450 2.461430 0.078196 -0.029656 -445131.000000 0 0 1
-18.311625 13.776897 -30.010501 37.759087 -0.645009 2.489456 0.079670 -0.027604 -1367800.000000 0 0 1
-17.082425 14.399097 -29.961271 37.374069 -0.700369 2.500862 0.070606 -0.017283 -582906.000000 0 0 1
-16.169625 13.756297 -28.898551 35.858315 -0.704929 2.508006 0.098953 -0.010240 -90602.400000 0 0 1
-16.578625 14.093497 -27.590641 35.138596 -0.704552 2.473807 0.092816 -0.013418 -211455.000000 0 0 1
-17.458625 13.248997 -26.911471 34.706869 -0.649160 2.458134 0.112714 -0.008181 -192865.000000 0 0 1
-18.005825 13.880997 -25.580901 34.223885 -0.656754 2.415023 0.109070 -0.009898 -206535.000000 0 0 1
-17.061625 14.267197 -24.629321 33.185169 -0.696437 2.407111 0.145287 -0.027387 -251365.000000 0 0 1
-17.731925 14.715597 -23.486221 32.902470 -0.692704 2.365725 0.121800 -0.030911 390415.000000 0 0 1
-16.733825 15.247797 -22.406421 31.852220 -0.738967 2.351035 0.121067 -0.021057 419874.000000 0 0 1
-16.231125 16.512797 -22.768221 32.473278 -0.794000 2.347787 0.099477 -0.024792 42297.600000 0 0 1
-15.353225 17.091497 -21.815521 31.682136 -0.838923 2.330318 0.089883 -0.021693 -218088.000000 0 0 1
-15.063225 18.595097 -22.220521 32.656239 -0.889949 2.319155 0.075096 -0.012411 -244934.000000 0 0 1
-16.100425 19.541397 -22.061021 33.582414 -0.881643 2.287525 0.035199 -0.009318 -169458.000000 0 0 1
-16.967725 19.427697 -23.160721 34.666383 -0.852886 2.302453 0.021291 -0.006786 -684883.000000 0 0 1
-18.394025 19.945597 -22.979021 35.555624 -0.825845 2.273501 0.021397 -0.007975 -191376.000000 0 0 1
-18.378025 21.325597 -23.170521 36.461019 -0.859502 2.259436 0.009898 -0.003324 187732.000000 0 0 1
-19.688625 21.863397 -23.065821 37.385588 -0.837689 2.235684 0.043401 -0.017919 140295.000000 0 0 1
-19.804625 23.340097 -23.507621 38.595227 -0.867160 2.225698 0.026391 -0.010739 7615.750000 0 0 1
-19.243625 24.290797 -22.579121 38.342882 -0.900818 2.200461 0.014417 -0.004432 -30404.500000 0 0 1
-18.400425 25.259897 -23.185521 38.912805 -0.941234 2.209098 0.010132 0.001720 -524849.000000 0 0 1
-17.348025 25.765397 -22.168921 38.161115 -0.978211 2.190667 0.007082 -0.008243 1137420.000000 0 0 1
-16.187125 24.907897 -21.886021 36.897483 -0.994506 2.205772 0.023954 -0.024262 1367600.000000 0 0 1
-16.523225 23.609397 -21.489621 35.947523 -0.960166 2.211557 0.027201 -0.002077 -1471230.000000 0 0 1
-15.262525 22.753697 -21.504321 34.829746 -0.979957 2.236245 0.058367 -0.007212 -3957.360000 0 0 1
-14.383025 22.941897 -20.410921 33.908815 -1.010808 2.216719 0.079074 -0.021732 -277815.000000 0 0 1
-13.493025 21.886397 -20.248421 32.727277 -1.018331 2.237885 0.074128 -0.020906 -165450.000000 0 0 1
-12.542225 22.113297 -19.037621 31.760610 -1.054859 2.213560 0.068793 -0.024027 140955.000000 0 0 1
-13.079025 21.873597 -17.726721 31.044352 -1.031895 2.178535 0.079607 -0.019376 -144229.000000 0 0 1
-13.964525 22.912897 -17.364121 31.961250 -1.023449 2.145143 0.085234 -0.026653 39165.000000 0 0 1
-14.443925 22.710597 -15.906421 31.263596 -1.004326 2.104568 0.098448 -0.028709 388031.000000 0 0 1
-13.380225 22.920897 -14.988421 30.480333 -1.042406 2.084884 0.109109 -0.033402 37672.000000 0 0 1
-13.931125 23.129497 -13.690821 30.273560 -1.028680 2.040068 0.136251 -0.035486 -266897.000000 0 0 1
-12.992425 23.514797 -12.546621 29.650742 -1.066019 2.007712 0.185641 -0.042754 -658956.000000 0 0 1
-12.657725 24.894397 -12.459321 30.580773 -1.100406 1.990427 0.157487 -0.049063 400149.000000 0 0 1
-11.761925 25.211097 -11.397521 30.064028 -1.134275 1.959629 0.098895 -0.045042 22313.200000 0 0 1
-11.250625 26.665497 -11.437621 31.119840 -1.171540 1.947153 0.126571 -0.043601 -147559.000000 0 0 1
-10.518525 26.933497 -12.577821 31.531797 -1.198474 1.981106 0.110939 -0.040041 -246873.000000 0 0 1
-10.680625 28.288297 -12.950521 32.894065 -1.209780 1.975454 0.093929 -0.030825 -646235.000000 0 0 1
-10.198425 28.591497 -14.396521 33.596747 -1.228170 2.013639 0.123584 -0.047767 154695.000000 0 0 1
-8.805525 28.671397 -14.609721 33.362108 -1.272821 2.024073 0.096066 -0.052252 -42898.900000 0 0 1
-8.197925 27.377197 -14.644621 32.112020 -1.279850 2.044346 0.110281 -0.047260 -122805.000000 0 0 1
-6.695325 27.461497 -15.053721 32.024611 -1.331654 2.060163 0.124838 -0.052561 306824.000000 0 0 1
-5.891025 28.045297 -14.086921 31.932495 -1.363752 2.027673 0.110020 -0.046534 491803.000000 0 0 1
-4.508325 27.966197 -14.534021 31.838199 -1.410965 2.044850 0.123713 -0.049151 1222680.000000 0 0 1
-3.591125 29.007097 -13.866821 32.351145 -1.447621 2.013777 0.103757 -0.039645 -260919.000000 0 0 1
-3.810525 30.378697 -14.151521 33.729081 -1.446014 2.003762 0.104341 -0.037376 -411687.000000 0 0 1
-4.995225 30.969297 -13.708921 34.234254 -1.410878 1.982798 0.096815 -0.036120 -257149.000000 0 0 1
-4.997425 32.482197 -14.100021 35.761403 -1.418142 1.976081 0.087326 -0.037419 143918.000000 0 0 1
-4.117525 33.185697 -13.251021 35.969905 -1.447352 1.948075 0.072935 -0.037171 -118489.000000 0 0 1
-3.812225 -33.527610 -13.613421 36.386246 1.457579 1.954262 0.075454 -0.035912 573775.000000 0 0 1
-2.695925 -32.889910 -12.702521 35.360546 1.489011 1.938238 0.072352 -0.036320 200195.000000 0 0 1
-3.145825 -32.596610 -11.407921 34.678175 1.474587 1.906004 0.063796 -0.032355 -321051.000000 0 0 1
-2.150225 -32.073910 -10.597021 33.847540 1.503857 1.889232 0.050194 -0.033997 -494042.000000 0 0 1
-2.609725 -31.984410 -9.151421 33.370071 1.489383 1.848596 0.043726 -0.028183 619827.000000 0 0 1
-1.630025 -31.228410 -8.387521 32.376242 1.518647 1.832849 0.058101 -0.034575 733015.000000 0 0 1
-1.965425 -31.320910 -7.047721 32.164151 1.508127 1.791706 0.054400 -0.036248 826417.000000 0 0 1
-0.799625 -30.684410 -6.185921 31.311947 1.544743 1.769662 0.074736 -0.034953 691132.000000 0 0 1
-1.044525 -30.789910 -4.783321 31.176750 1.536885 1.724831 0.090843 -0.031555 268157.000000 0 0 1
-0.091725 -30.006010 -4.052921 30.278626 1.567739 1.705053 0.094156 -0.027033 213848.000000 0 0 1
-0.172925 -30.429910 -2.562121 30.538071 1.565114 1.654794 0.101747 -0.017492 -531938.000000 0 0 1
0.014175 -31.798610 -2.287021 31.880750 -1.570351 1.642595 0.108018 -0.025619 456140.000000 0 0 1
1.255875 -32.498310 -2.482421 32.617170 -1.532171 1.646978 0.101355 -0.027990 1014810.000000 0 0 1
2.544275 -31.942110 -1.807621 32.094224 -1.491311 1.627148 0.102685 -0.022367 -563093.000000 0 0 1
2.553475 -32.054310 -0.438021 32.158838 -1.491303 1.584417 0.088185 -0.020272 1674410.000000 0 0 1
3.895475 -32.019310 0.179879 32.255903 -1.449731 1.565220 0.075969 -0.015022 1827570.000000 0 0 1
4.406375 -30.564310 0.322179 30.881984 -1.427616 1.560364 0.055384 -0.011154 -383454.000000 0 0 1
4.866275 -30.026110 -0.911821 30.431551 -1.410125 1.600764 0.060073 -0.017848 53758.600000 0 0 1
4.818875 -28.580210 -0.901621 28.997635 -1.403759 1.601894 0.080053 -0.009035 69694.700000 0 0 1
4.162975 -27.959310 -2.219521 28.354534 -1.422988 1.649154 0.074786 -0.002373 -46494.900000 0 0 1
2.767475 -28.110410 -2.328921 28.342158 -1.472662 1.653061 0.084992 -0.014490 50102.000000 0 0 1
2.174875 -27.149810 -3.221721 27.426661 -1.490861 1.688535 0.083799 -0.015645 76282.500000 0 0 1
2.541775 -27.176310 -4.756821 27.706313 -1.477539 1.743338 0.101885 -0.024280 -213124.000000 0 0 1
2.032775 -28.219010 -5.592721 28.839612 -1.498885 1.765958 0.100833 -0.028832 11092.300000 0 0 1
2.660575 -28.160410 -6.854621 29.104521 -1.476597 1.808547 0.117198 -0.044435 -28556.200000 0 0 1
1.894275 -28.964510 -7.931321 30.090479 -1.505489 1.837530 0.094450 -0.043765 303987.000000 0 0 1
0.675475 -28.288810 -8.260921 29.478057 -1.546923 1.854840 0.081026 -0.039689 -4751.450000 0 0 1
0.436075 -28.444010 -9.652821 30.040453 -1.555467 1.897927 0.087506 -0.045709 -510828.000000 0 0 1
-0.989125 -28.031410 -9.988721 29.774365 1.535525 1.912912 0.065577 -0.036465 -1141150.000000 0 0 1
-1.193125 -26.626610 -9.841121 28.412102 1.526017 1.924496 0.068780 -0.031201 -172339.000000 0 0 1
-2.505725 -26.118310 -9.917621 28.050026 1.475152 1.932180 0.069518 -0.028786 573215.000000 0 0 1
-3.605525 -26.546410 -8.904221 28.231132 1.435803 1.891679 0.059293 -0.028797 -387952.000000 0 0 1
-3.307625 -26.342510 -7.516521 27.592866 1.445888 1.846691 0.065737 -0.029577 -544698.000000 0 0 1
-2.583125 -27.402610 -6.964221 28.391476 1.476808 1.818618 0.087765 -0.022544 -10146.100000 0 0 1
-2.284325 -27.139010 -5.478921 27.780615 1.486823 1.769319 0.084679 -0.014830 -262781.000000 0 0 1
-3.419125 -27.161910 -4.688021 27.774760 1.445576 1.740395 0.083467 -0.019739 -589567.000000 0 0 1
-3.004425 -27.060610 -3.313521 27.427770 1.460223 1.691901 0.073794 -0.006684 203122.000000 0 0 1
-4.066925 -27.288910 -2.189921 27.677070 1.422853 1.650003 0.101276 -0.013950 -43530.800000 0 0 1
-5.063725 -26.296610 -2.245321 26.873676 1.380563 1.654445 0.081350 -0.012155 -281000.000000 0 0 1
-5.515225 -26.005310 -0.957421 26.600949 1.361812 1.606796 0.085685 -0.026408 -304823.000000 0 0 1
-6.463525 -24.810210 -0.853421 25.652524 1.315942 1.604071 0.061940 -0.031027 -50485.900000 0 0 1
-5.799225 -23.560610 -0.607921 24.271442 1.329453 1.595846 0.046869 -0.026311 118730.000000 0 1 0
-6.616625 -22.710610 0.155079 23.655350 1.287299 1.564241 0.073422 -0.034370 -14333.400000 0 1 0
-5.897225 -21.347710 0.511779 22.153191 1.301272 1.547692 0.040727 -0.030012 787768.000000 0 1 0
-4.855825 -21.579510 1.492479 22.169388 1.349463 1.503424 0.035544 -0.026679 555283.000000 0 1 0
-4.088425 -20.412210 1.682579 20.885511 1.373119 1.490147 0.010750 -0.016315 22298.500000 0 1 0
-3.041525 -20.539410 2.804579 20.951942 1.423782 1.436536 0.017649 -0.002691 -213294.000000 0 1 0
-3.643825 -20.288010 4.053579 21.007434 1.393086 1.376619 0.010163 -0.000824 289674.000000 0 1 0
-2.755425 -20.143210 5.168479 20.977474 1.434848 1.321851 0.017048 -0.002551 105220.000000 0 1 0
-1.866125 -21.313910 5.620079 22.121267 1.483465 1.313923 0.026006 -0.016199 -80916.500000 0 1 0
-0.856025 -21.588010 4.696279 22.109500 1.531164 1.356756 0.041356 -0.013304 -629206.000000 0 1 0
-0.203125 -22.818710 4.939279 23.348046 1.561895 1.357636 0.042796 -0.012753 -953612.000000 0 1 0
0.724775 -23.206210 3.802979 23.526923 -1.539575 1.408440 0.042899 -0.011748 206847.000000 0 1 0
1.877375 -22.358510 3.645079 22.731346 -1.487026 1.409746 0.009778 -0.017140 -97091.000000 0 1 0
2.902975 -22.969210 4.366979 23.560186 -1.445077 1.384364 0.037604 -0.012689 -1331380.000000 0 1 0
4.057175 -21.980510 4.573779 22.814971 -1.388270 1.368956 0.047341 -0.014139 -87074.600000 0 1 0
4.965575 -21.783210 3.525179 22.618400 -1.346672 1.414304 0.031781 -0.006708 -228981.000000 0 1 0
6.085175 -20.992210 3.876479 22.197507 -1.288652 1.395260 0.053625 -0.005796 479423.000000 0 1 0
6.754175 -20.462510 2.589779 21.703459 -1.251981 1.451186 0.056525 -0.006876 75802.900000 0 1 0
7.485075 -21.342710 1.739879 22.684020 -1.233490 1.494020 0.064750 -0.015348 301131.000000 0 1 0
6.957375 -21.306310 0.427379 22.417550 -1.255172 1.551731 0.054272 -0.020179 140273.000000 0 1 0
7.854575 -22.242510 -0.412121 23.592232 -1.231333 1.588266 0.062121 -0.015058 755775.000000 0 1 0
9.157075 -21.698610 -0.639821 23.560370 -1.171459 1.597956 0.066324 -0.015999 353867.000000 0 1 0
9.939975 -22.635310 -1.399121 24.761217 -1.157014 1.627331 0.073066 -0.016343 340637.000000 0 1 0
11.314875 -22.106710 -1.848621 24.902819 -1.097730 1.645098 0.080673 -0.020192 2100.940000 0 1 0
11.222775 -21.112610 -2.918021 24.087503 -1.082215 1.692237 0.072804 -0.014921 -514514.000000 0 1 0
12.470975 -20.851110 -3.495821 24.546176 -1.031778 1.713700 0.075550 -0.020330 -511843.000000 0 1 0
12.516475 -19.573910 -4.353821 23.638017 -1.001876 1.756041 0.071529 -0.026314 -244159.000000 0 1 0
12.938775 -18.401210 -3.693921 22.796084 -0.957961 1.733556 0.090062 -0.024902 152917.000000 0 1 0
12.956575 -17.356510 -4.656821 22.154170 -0.929541 1.782577 0.090203 -0.025628 -432219.000000 0 1 0
13.457575 -15.997410 -4.126121 21.308409 -0.871413 1.765665 0.093270 -0.023646 2178530.000000 0 1 0
14.870075 -15.851510 -3.748621 22.055422 -0.817333 1.741589 0.090573 -0.023628 1911720.000000 0 1 0
15.863875 -15.864210 -4.761221 22.934797 -0.785409 1.779915 0.102119 -0.021711 -460738.000000 0 1 0
17.217475 -15.564810 -4.126721 23.574023 -0.735027 1.746757 0.097061 -0.023301 -673301.000000 0 1 0
17.771375 -16.529810 -3.285921 24.491910 -0.749218 1.705366 0.099570 -0.029743 1506190.000000 0 1 0
19.178575 -16.159910 -3.127821 25.273379 -0.700184 1.694874 0.080793 -0.014737 1405180.000000 0 0 1
20.013775 -17.200810 -2.362521 26.495293 -0.709954 1.660082 0.072660 -0.018931 1062310.000000 0 0 1
21.441975 -17.023410 -2.557021 27.497147 -0.671028 1.663923 0.068490 -0.012972 1201050.000000 0 0 1
22.041375 -17.728110 -1.492321 28.325520 -0.677364 1.623505 0.062331 -0.013627 40670.700000 0 0 1
23.583175 -17.899810 -1.530521 29.646447 -0.649241 1.622445 0.072820 -0.018855 249968.000000 0 0 1
24.243375 -16.700010 -1.209121 29.463427 -0.603202 1.611846 0.092969 -0.018519 325712.000000 0 0 1
25.472475 -16.887510 -0.516921 30.566357 -0.585440 1.587709 0.121250 -0.023063 255554.000000 0 0 1
26.148975 -15.594210 -0.124821 30.446081 -0.537739 1.574896 0.111410 -0.023555 147525.000000 0 0 1
25.375575 -14.871410 0.843079 29.424300 -0.530101 1.542140 0.109625 -0.025346 762118.000000 0 0 1
26.175575 -13.819710 1.383779 29.632076 -0.485766 1.524081 0.098100 -0.025477 308221.000000 0 0 1
25.365775 -12.957510 2.365579 28.581735 -0.472271 1.487936 0.129843 -0.028528 -69461.600000 0 0 1
24.992175 -13.724710 3.537879 28.731395 -0.502198 1.447347 0.130145 -0.023542 178020.000000 0 0 1
26.040875 -14.005610 4.442879 29.900225 -0.493453 1.421654 0.147166 -0.017591 260847.000000 0 0 1
25.481075 -14.679410 5.742079 29.962338 -0.522654 1.377960 0.117980 -0.011204 623061.000000 0 0 1
24.819375 -15.962110 5.586879 30.033374 -0.571531 1.383684 0.113991 -0.018191 53057.900000 0 0 1
24.240275 -16.275510 6.799079 29.978503 -0.591289 1.342007 0.087405 -0.014525 -244121.000000 0 0 1
23.593375 -17.674110 6.779179 30.248616 -0.642933 1.344761 0.067979 -0.010834 415396.000000 0 0 1
24.578175 -18.718510 6.886979 31.652800 -0.650878 1.351463 0.067846 -0.006869 208974.000000 0 0 1
24.004975 -20.005110 6.713679 31.961175 -0.694762 1.359163 0.032446 0.003352 -206336.000000 0 0 1
2.184175 23.355697 -3.095421 23.660956 1.477550 1.701996 0.044294 -0.018643 493326.000000 0 1 0
3.304075 24.177697 -2.781021 24.560375 1.434980 1.684272 0.053160 -0.019611 147473.000000 0 1 0
3.743375 24.952297 -3.873321 25.527095 1.421886 1.723118 0.068175 -0.023409 538669.000000 0 0 1
4.888275 25.931597 -3.451821 26.613118 1.384476 1.700867 0.055931 -0.012778 788416.000000 0 0 1
6.137175 25.431697 -2.976421 26.330500 1.334004 1.684079 0.034832 -0.016681 165059.000000 0 0 1
6.694075 26.368397 -2.139821 27.288859 1.322181 1.649291 0.032226 -0.015589 -282430.000000 0 0 1
7.779875 25.715997 -1.259021 26.896544 1.277020 1.617623 0.013643 -0.027352 -209133.000000 0 0 1
8.947675 25.389897 -1.961821 26.991786 1.231975 1.643543 0.014831 -0.028889 -488934.000000 0 0 1
9.639475 24.326697 -1.358021 26.202135 1.193526 1.622648 0.017204 -0.021056 16650.300000 0 0 1
10.847975 23.879897 -2.234821 26.323421 1.144395 1.655797 0.044507 -0.020652 -70559.600000 0 0 1
11.997375 24.718997 -2.072621 27.554702 1.118937 1.646086 0.047618 -0.014345 417393.000000 0 0 1
12.976675 24.724497 -3.092721 28.093767 1.087466 1.681106 0.052947 -0.022508 678962.000000 0 0 1
13.781075 23.387597 -3.310021 27.346919 1.038321 1.692132 0.064606 -0.020907 -471631.000000 0 0 1
12.943875 22.306997 -3.660021 26.048834 1.045017 1.711769 0.060496 -0.021869 -159465.000000 0 0 1
12.676575 22.097597 -5.022221 25.965786 1.049967 1.765440 0.086678 -0.033689 -525684.000000 0 0 1
11.723875 20.979397 -5.328821 24.616675 1.061201 1.788996 0.083790 -0.032229 375480.000000 0 1 0
10.347975 21.353997 -5.186721 24.289419 1.119551 1.785992 0.063331 -0.028150 379055.000000 0 1 0
9.450375 20.274297 -5.027921 22.926768 1.134613 1.791897 0.035064 -0.017735 -781618.000000 0 1 0
8.045975 20.752497 -4.772321 22.763543 1.200928 1.782011 0.029427 -0.012373 -936854.000000 0 1 0
7.868875 21.384297 -3.473021 23.049278 1.218199 1.722050 0.031578 -0.002608 169622.000000 0 1 0
6.579275 21.976697 -3.448221 23.198110 1.279913 1.719992 0.031049 0.011419 265816.000000 0 1 0
6.095575 22.403797 -2.071821 23.310483 1.305149 1.659793 0.031756 -0.002583 -33551.300000 0 1 0
5.483475 21.464597 -1.205221 22.186707 1.320680 1.625145 0.020236 -0.011320 144793.000000 0 1 0
5.078775 22.069997 0.023579 22.646838 1.344613 1.569755 0.035070 -0.008697 250056.000000 0 1 0
4.526275 21.045697 1.100479 21.555036 1.358954 1.519720 0.015949 -0.011066 142003.000000 0 1 0
4.079875 21.690597 2.281779 22.188598 1.384874 1.467779 0.033308 -0.011459 188093.000000 0 1 0
3.483975 20.810497 3.214779 21.343610 1.404920 1.419601 0.025489 -0.007080 162469.000000 0 1 0
2.463375 21.475797 4.181279 22.017293 1.456591 1.379727 0.014028 -0.006408 282204.000000 0 1 0
1.139375 21.548397 3.704379 21.894155 1.517970 1.400784 0.011585 -0.008206 -115822.000000 0 1 0
0.187375 21.989697 4.625579 22.471713 1.562275 1.363474 0.018178 -0.015722 178600.000000 0 1 0
-1.208825 22.291497 4.070179 22.692255 -1.516621 1.390456 0.026171 -0.008978 8999.580000 0 1 0
-2.228025 22.647297 4.982079 23.295606 -1.472733 1.355268 0.044744 -0.017716 -588160.000000 0 1 0
-3.396525 22.808897 4.231879 23.445489 -1.422970 1.389303 0.071646 -0.019809 -179411.000000 0 1 0
-4.696725 22.936997 5.063379 23.954183 -1.368822 1.357812 0.082281 -0.035983 16869.900000 0 1 0
-4.833725 24.199597 5.570879 25.298618 -1.373647 1.348772 0.100173 -0.029582 270630.000000 0 0 1
-6.088525 24.284497 6.240479 25.802142 -1.325143 1.326515 0.102827 -0.034896 340861.000000 0 0 1
-6.495225 25.658297 6.635979 27.286853 -1.322861 1.325140 0.113368 -0.035330 -507190.000000 0 0 1
-5.643725 26.199497 7.607579 27.859299 -1.358625 1.294212 0.089547 -0.042536 -130989.000000 0 0 1
-6.145325 27.284897 8.436179 29.213006 -1.349265 1.277842 0.102201 -0.034303 -207193.000000 0 0 1
-6.192425 28.655297 7.764579 30.327559 -1.357968 1.311890 0.120440 -0.034652 99778.600000 0 0 1
-7.283725 28.800097 6.881879 30.493581 -1.323084 1.343152 0.121142 -0.043336 -662157.000000 0 0 1
-7.231625 30.028797 6.142679 31.492183 -1.334473 1.374484 0.129425 -0.043729 66890.600000 0 0 1
-8.613725 30.303797 5.477679 31.976888 -1.293855 1.398646 0.103685 -0.045547 1160990.000000 0 0 1
-9.731325 30.589097 6.313579 32.714719 -1.262790 1.376589 0.096862 -0.040207 322000.000000 0 0 1
-10.349825 29.471097 6.942979 31.997959 -1.233066 1.352075 0.090461 -0.039955 -160160.000000 0 0 1
-11.450225 29.868597 7.967379 32.965435 -1.204722 1.326690 0.061881 -0.025970 115877.000000 0 0 1
-10.934025 30.360597 9.206179 33.557004 -1.225118 1.292888 0.067663 -0.020940 -447280.000000 0 0 1
-11.936525 30.824997 10.056679 34.551380 -1.201342 1.275457 0.071628 -0.018078 -474972.000000 0 0 1
-11.401025 31.328897 11.401979 35.234760 -1.221780 1.241264 0.070929 -0.025497 -284956.000000 0 0 1
-10.701125 32.526197 11.284579 36.052868 -1.252951 1.252445 0.072415 -0.029252 -220764.000000 0 0 1
-10.021425 32.833497 12.445979 36.515338 -1.274558 1.222983 0.077547 -0.034806 -209025.000000 0 0 1
-9.732125 -33.739510 12.718079 37.347266 1.289970 1.223310 0.078347 -0.036888 85648.700000 0 0 1
-10.835025 -32.943710 13.116879 37.077463 1.253045 1.209198 0.068506 -0.019056 -15850.000000 0 0 1
-10.576925 -31.572010 13.119479 35.788041 1.247538 1.195457 0.066432 -0.011274 -142232.000000 0 0 1
-11.472425 -30.701410 14.020779 35.647936 1.213186 1.166565 0.065729 -0.020292 -461533.000000 0 0 1
-11.172325 -30.693110 15.424979 36.122262 1.221703 1.129600 0.071482 -0.023382 -445033.000000 0 0 1
-10.039925 -29.983910 15.814579 35.354432 1.247687 1.107035 0.079021 -0.023039 -435840.000000 0 0 1
-9.606525 -30.450010 17.175079 36.255644 1.265194 1.077285 0.055655 -0.032180 78784.800000 0 0 1
-10.222525 -29.759510 18.269979 36.385719 1.239920 1.044748 0.102365 -0.035008 609372.000000 0 0 1
-11.356925 -30.426010 18.846779 37.548940 1.213549 1.044972 0.082950 -0.036827 519240.000000 0 0 1
-11.932525 -29.682910 20.060279 37.760761 1.188567 1.010725 0.111699 -0.041849 31536.000000 0 0 1
-10.971425 -29.673910 21.098879 38.027303 1.216651 0.982632 0.088461 -0.036647 278061.000000 0 0 1
-11.413025 -28.920610 22.230479 38.221107 1.194925 0.950067 0.071198 -0.032519 625737.000000 0 0 1
-10.305825 -28.704110 23.342779 38.406006 1.226094 0.917522 0.076689 -0.032417 615890.000000 0 0 1
-10.002825 -29.754210 24.219479 39.647858 1.246484 0.913644 0.082033 -0.032068 -165206.000000 0 0 1
-8.808925 -29.465310 24.904479 39.573156 1.280295 0.890109 0.090588 -0.030315 -12049.300000 0 0 1
-8.396425 -30.589310 25.884879 40.941822 1.302905 0.886361 0.102831 -0.031413 -122899.000000 0 0 1
-8.106125 -31.857110 25.284479 41.471551 1.321631 0.915136 0.114678 -0.023074 355560.000000 0 0 1
-8.176525 -32.852610 26.251879 42.840526 1.326867 0.911221 0.119868 -0.022274 -332616.000000 0 0 1
-7.986425 33.750697 25.769679 43.208435 -1.338440 0.931783 0.112728 -0.023671 -752054.000000 0 0 1
-6.673025 33.547397 25.354479 42.577068 -1.374446 0.932913 0.103726 -0.018605 -433771.000000 0 0 1
-6.394725 32.277097 24.731879 41.162718 -1.375210 0.926255 0.097445 -0.017672 71169.800000 0 0 1
-7.227725 31.838997 23.481379 40.216127 -1.347571 0.947297 0.095155 -0.022677 167575.000000 0 0 1
-8.463825 31.182897 23.666079 40.051126 -1.305757 0.938626 0.096837 -0.026704 306404.000000 0 0 1
-9.053725 30.904297 22.375679 39.213729 -1.285811 0.963550 0.090298 -0.022419 23110.300000 0 0 1
-10.002225 29.688097 22.442079 38.536665 -1.245830 0.949172 0.085604 -0.027565 -124969.000000 0 0 1
-9.348725 28.437297 22.434679 37.408466 -1.253178 0.927643 0.074127 -0.018944 120070.000000 0 0 1
-10.214525 27.352297 22.671179 36.965755 -1.213391 0.910562 0.058978 -0.019690 -412738.000000 0 0 1
-9.529225 26.001797 22.413679 35.626852 -1.219513 0.890372 0.047179 -0.016699 -16370.600000 0 0 1
-8.425025 25.758197 23.250779 35.708045 -1.254683 0.861717 0.049800 -0.020948 -54627.700000 0 0 1
-7.726925 24.573997 22.834779 34.424030 -1.266150 0.845525 0.056407 -0.019201 1309860.000000 0 0 1
-6.313025 24.505097 23.541679 34.562476 -1.318658 0.821486 0.060392 -0.017373 1368790.000000 0 0 1
-5.269625 25.354397 23.065779 34.679166 -1.365875 0.843143 0.063041 -0.018030 197196.000000 0 0 1
-4.061725 25.156497 23.786179 34.858704 -1.410719 0.819810 0.086321 -0.020970 218820.000000 0 0 1
-2.892725 25.662097 22.918079 34.527517 -1.458547 0.844958 0.084429 -0.010145 -262290.000000 0 0 1
-2.625525 24.950697 21.688779 33.163742 -1.465954 0.857949 0.082523 -0.011809 306077.000000 0 0 1
-1.554625 25.563797 20.965779 33.098164 -1.510058 0.884802 0.076180 -0.006166 351135.000000 0 0 1
-1.101325 24.748097 19.733479 31.671619 -1.526324 0.898141 0.062046 -0.004722 -216297.000000 0 0 1
-0.244025 23.704897 20.164279 31.122015 -1.560502 0.865958 0.071099 -0.008234 -79265.500000 0 0 1
-0.131925 22.691097 19.171979 29.706364 -1.564982 0.869272 0.065351 -0.011670 -601588.000000 0 0 1
0.964575 21.660097 19.363179 29.069278 1.526293 0.841823 0.057550 -0.004675 497642.000000 0 0 1
2.283875 22.237197 19.227679 29.485804 1.468450 0.860446 0.046056 -0.010673 185867.000000 0 0 1
3.234175 21.335997 19.701479 29.220420 1.420359 0.830866 0.047109 -0.008473 -267137.000000 0 0 1
4.665675 21.830097 19.429979 29.594691 1.360238 0.854579 0.029812 -0.012916 149069.000000 0 0 1
5.597075 20.810097 19.082079 28.783904 1.308054 0.846054 0.046070 -0.013317 623563.000000 0 0 1
6.826775 21.343297 18.556779 29.094591 1.261224 0.879147 0.078119 -0.020973 511796.000000 0 0 1
7.698875 20.149997 18.081379 28.146604 1.205835 0.873170 0.079842 -0.021761 -45631.400000 0 0 1
8.237375 19.308397 19.119379 28.393999 1.167553 0.832052 0.079361 -0.016347 71082.600000 0 0 1
9.334175 18.557997 18.653179 27.918939 1.104773 0.839118 0.087473 -0.023546 275105.000000 0 0 1
10.117075 17.889597 19.868779 28.586033 1.056109 0.802304 0.112195 -0.021507 259612.000000 0 0 1
9.330375 16.923097 20.554979 28.212662 1.066925 0.754560 0.101195 -0.023312 314695.000000 0 0 1
10.064875 16.390497 21.665579 28.971493 1.020097 0.726018 0.096812 -0.034468 107026.000000 0 0 1
9.322175 15.281697 22.420779 28.690147 1.023040 0.673762 0.080070 -0.028283 95398.900000 0 0 1
8.209475 15.742197 23.157479 29.180149 1.090101 0.654087 0.074858 -0.017063 257640.000000 0 0 1
7.202075 14.817697 23.578179 28.763945 1.118375 0.609887 0.072855 -0.023253 496917.000000 0 0 1
7.609475 13.694297 24.567579 29.137670 1.063612 0.567671 0.084976 -0.027014 -429397.000000 0 0 1
7.747075 14.146797 25.893879 30.506426 1.069782 0.557083 0.090255 -0.030459 1057.860000 0 0 1
8.113575 13.128297 26.814179 30.938366 1.017231 0.522255 0.104578 -0.037526 -619851.000000 0 0 1
8.918575 13.734697 27.989579 32.428374 0.994881 0.529381 0.062246 -0.027122 65472.200000 0 0 1
10.281075 14.086597 27.834379 32.846391 0.940318 0.559707 0.083268 -0.030486 180561.000000 0 0 1
10.511975 15.129797 26.900179 32.604172 0.963578 0.600500 0.076215 -0.024566 -1100970.000000 0 0 1
11.780575 14.939597 26.052079 32.259639 0.903078 0.630768 0.093576 -0.029925 -77652.700000 0 0 1
11.646075 13.953697 25.015479 30.921043 0.875297 0.628328 0.083002 -0.033378 -85785.900000 0 0 1
12.906875 13.531497 24.556579 30.866072 0.809019 0.650824 0.107030 -0.039052 -599144.000000 0 0 1
12.831775 12.527897 23.396279 29.478611 0.773416 0.653979 0.079797 -0.032036 107015.000000 0 0 1
12.438275 11.167597 23.649979 28.961136 0.731621 0.615282 0.078574 -0.033286 545946.000000 0 0 1
11.163075 11.043097 24.271979 28.908359 0.779995 0.574217 0.088780 -0.039682 -131158.000000 0 0 1
10.838875 9.573597 24.689279 28.612855 0.723492 0.529868 0.069093 -0.034108 -92455.600000 0 0 1
10.848175 8.675297 23.585179 27.371597 0.674559 0.532253 0.076084 -0.030292 215672.000000 0 0 1
10.711175 7.360797 24.097679 27.378983 0.602089 0.494613 0.069636 -0.034382 -44920.000000 0 0 1
10.990375 6.294997 23.018479 26.272908 0.520160 0.503022 0.078232 -0.050922 -305255.000000 0 0 1
12.364275 6.071297 22.808679 26.645296 0.456450 0.543292 0.091893 -0.047708 57759.000000 0 0 1
12.698075 5.039497 21.895979 25.808362 0.377806 0.557829 0.100324 -0.052113 -44988.900000 0 0 1
12.499675 3.618997 22.518479 26.008093 0.281821 0.523998 0.082822 -0.053142 -535752.000000 0 0 1
13.512875 3.493897 23.472179 27.308392 0.253019 0.536462 0.084123 -0.045899 -206422.000000 0 0 1
13.471275 2.168897 24.016179 27.621662 0.159632 0.516670 0.083279 -0.033241 -452321.000000 0 0 1
14.763575 1.647697 24.644279 28.775311 0.111146 0.542466 0.074781 -0.025288 -743611.000000 0 0 1
15.595875 0.963097 23.783079 28.456875 0.061675 0.581283 0.069519 -0.031173 899782.000000 0 0 1
16.985075 1.220297 24.120779 29.526156 0.071722 0.614730 0.068430 -0.026859 659360.000000 0 0 1
17.942975 0.358897 23.348579 29.448859 0.019999 0.655322 0.069017 -0.025020 -512836.000000 0 0 1
17.857775 -1.014303 23.604079 29.615562 -0.056738 0.648458 0.065913 -0.013739 428138.000000 0 0 1
19.087075 -1.688803 23.345779 30.202548 -0.088249 0.687281 0.056200 -0.002406 123076.000000 0 0 1
19.033975 -3.173403 23.759279 30.608267 -0.165204 0.682121 0.054399 -0.000852 -146663.000000 0 0 1
18.307075 -4.038703 22.925079 29.614513 -0.217131 0.685478 0.042885 0.005760 24571.200000 0 0 1
18.398175 -5.400603 23.409579 30.260002 -0.285520 0.686271 0.047867 0.001003 500038.000000 0 0 1
17.319175 -6.333503 22.728979 29.268986 -0.350586 0.681617 0.054365 -0.006928 350456.000000 0 0 1
17.426575 -6.415003 21.341679 28.289663 -0.352722 0.716059 0.061735 -0.012706 376867.000000 0 0 1
16.568075 -7.395503 20.727879 27.547042 -0.419832 0.719016 0.082493 -0.028916 249401.000000 0 0 1
17.060275 -8.870503 20.913179 28.409503 -0.479481 0.743457 0.085532 -0.038540 -383192.000000 0 0 1
16.828275 -9.285203 22.233879 29.389645 -0.504195 0.712820 0.068850 -0.026974 -609999.000000 0 0 1
17.527075 -10.381803 22.619779 30.440673 -0.534760 0.733139 0.055650 -0.028609 -739524.000000 0 0 1
16.899475 -11.262703 23.731979 31.235358 -0.587855 0.707823 0.075159 -0.035229 138508.000000 0 0 1
16.009275 -12.257303 23.227179 30.757767 -0.653434 0.714891 0.082911 -0.029174 88820.900000 0 0 1
15.533075 -13.116803 24.236379 31.634301 -0.701259 0.697979 0.105546 -0.020465 -307663.000000 0 0 1
14.352975 -13.968803 23.774079 31.086045 -0.771834 0.700092 0.115200 -0.026209 -301526.000000 0 0 1
14.718675 -14.713803 22.586679 30.713083 -0.785233 0.744526 0.130263 -0.025011 630752.000000 0 0 1
13.644675 -15.501903 22.058279 30.216780 -0.849032 0.752473 0.130662 -0.008004 342543.000000 0 0 1
14.098775 -16.440103 20.908279 30.103298 -0.861916 0.803001 0.118281 -0.022715 184721.000000 0 0 1
14.870275 -17.581303 21.318179 31.379803 -0.868745 0.823906 0.132989 -0.024865 180584.000000 0 0 1
15.413975 -18.142103 20.152579 31.190591 -0.866520 0.868319 0.110305 -0.021726 -265011.000000 0 0 1
-25.229725 -32.390310 26.318872 48.768373 0.909037 1.000750 0.054872 -0.030337 -825486.000000 0 0 1
-25.336965 -33.745210 25.899152 49.512292 0.926763 1.020329 0.056638 -0.020993 1159370.000000 0 0 1
-26.652245 33.704197 25.933712 50.188370 -0.901709 1.027772 0.033808 -0.031017 943615.000000 0 0 1
-27.336985 33.464497 27.341272 51.134416 -0.885838 1.006651 0.028365 -0.024970 -236350.000000 0 0 1
-27.838705 -33.422110 27.977902 51.718410 0.876289 0.999211 0.038749 -0.023215 307486.000000 0 0 1
-27.577465 -33.566910 29.351542 52.428685 0.883042 0.976607 0.023810 -0.018179 -581950.000000 0 0 1
-28.788755 -33.122810 30.147982 53.242969 0.855288 0.968867 0.004459 -0.026786 -717608.000000 0 0 1
-28.905885 -31.735210 30.235822 52.505987 0.832021 0.957147 -0.016728 -0.012283 8661.130000 0 0 1
-29.818845 -31.249610 31.185152 53.274904 0.808823 0.945469 -0.007762 0.001155 -365252.000000 0 0 1
-30.136555 -29.736710 30.958782 52.449309 0.778720 0.939414 -0.015582 -0.005114 -241344.000000 0 0 1
-30.755855 -29.341410 29.751382 51.884349 0.761867 0.960125 -0.029700 0.011854 248797.000000 0 0 1
-30.842865 -27.904210 29.698572 51.107068 0.735418 0.950711 -0.013246 0.012002 -322191.000000 0 0 1
-31.384525 -27.416910 28.347192 50.400780 0.718025 0.973468 -0.026029 0.003631 -538594.000000 0 0 1
-30.556585 -27.474710 27.223372 49.291749 0.732341 0.985687 -0.012818 0.004375 -110394.000000 0 0 1
-29.789195 -26.279010 27.109592 48.092749 0.722874 0.971945 -0.005939 0.004509 472357.000000 0 0 1
-28.604235 -26.394710 26.096742 46.860676 0.745246 0.980147 -0.001069 0.021386 191550.000000 0 0 1
-29.164985 -26.375810 24.807772 46.494142 0.735222 1.007983 0.005730 0.011007 763946.000000 0 0 1
-28.200065 -26.493010 23.748962 45.399740 0.754197 1.020303 0.010310 0.027394 -106484.000000 0 0 1
-28.896935 -26.784810 22.360162 45.303816 0.747484 1.054618 0.005773 0.032034 111100.000000 0 0 1
-29.529095 -25.624710 21.833362 44.780452 0.714725 1.061498 0.005476 0.019162 338401.000000 0 0 1
-29.969705 -25.769810 20.482362 44.517339 0.710192 1.092690 0.007724 0.024657 420484.000000 0 0 1
-30.606215 -24.474110 19.732162 43.875741 0.674524 1.104335 0.020817 0.011423 -285147.000000 0 0 1
-31.892775 -24.161410 20.142662 44.795643 0.648336 1.104415 0.056282 0.003894 -495867.000000 0 0 1
-32.391585 -23.004910 19.455262 44.237404 0.617547 1.115429 0.077540 -0.001605 107735.000000 0 0 1
-33.913465 -22.770810 19.601462 45.308390 0.591299 1.123396 0.095543 -0.000905 -99339.900000 0 0 1
-34.687564 -23.719310 18.891162 46.072864 0.599770 1.148312 0.086514 -0.013869 416667.000000 0 0 1
-36.054101 -23.324010 19.019762 46.964444 0.574205 1.153837 0.088045 -0.018097 474210.000000 0 0 1
-37.057825 -24.097610 18.139662 47.781006 0.576565 1.181387 0.108374 -0.023411 65927.900000 0 0 1
37.016856 -25.437310 18.493162 48.572641 -0.602071 1.180208 0.099745 -0.014497 -324531.000000 0 0 1
36.165706 -26.075310 17.598762 47.933250 -0.624678 1.194852 0.108077 -0.009444 -107213.000000 0 0 1
35.646576 -27.459310 18.142262 48.516325 -0.656380 1.187541 0.101104 -0.000642 920879.000000 0 0 1
34.551886 -27.397810 19.106862 48.057726 -0.670425 1.161917 0.097063 -0.006180 922428.000000 0 0 1
34.856676 -26.766110 20.369862 48.439073 -0.654853 1.136772 0.089312 -0.003431 -866331.000000 0 0 1
33.619276 -26.661010 21.231962 47.873389 -0.670475 1.111294 0.082424 -0.010647 -43760.500000 0 0 1
32.647976 -25.745310 20.686362 46.439605 -0.667734 1.109123 0.087581 -0.014691 319973.000000 0 0 1
31.798456 -25.261510 21.707962 46.049118 -0.671333 1.079909 0.087868 -0.013187 -209706.000000 0 0 1
30.783436 -24.189910 21.268962 44.554915 -0.666028 1.073143 0.107489 -0.012190 -44175.900000 0 0 1
31.312596 -22.972110 20.729662 44.021760 -0.632947 1.080490 0.099356 -0.008344 129996.000000 0 0 1
32.087196 -22.168110 21.601962 44.583158 -0.604573 1.064968 0.111498 -0.020513 156297.000000 0 0 1
32.681776 -20.870910 20.991462 44.094612 -0.568326 1.074633 0.116439 -0.024346 -81.333200 0 0 1
31.784416 -19.768210 21.041262 42.939096 -0.556401 1.058677 0.108232 -0.025189 -59133.200000 0 0 1
32.189506 -18.551110 20.412262 42.390664 -0.522818 1.068400 0.119835 -0.030714 -760466.000000 0 0 1
31.161586 -17.426710 20.614862 41.227505 -0.509907 1.047166 0.093945 -0.023289 -263008.000000 0 0 1
30.951886 -17.072610 21.980262 41.624815 -0.504060 1.014486 0.112537 -0.026102 160058.000000 0 0 1
30.075796 -18.000810 22.602862 41.706978 -0.539327 0.998047 0.102170 -0.020433 -713684.000000 0 0 1
29.955456 -17.727210 24.139962 42.359427 -0.534358 0.964432 0.084426 -0.010302 -177344.000000 0 0 1
29.393906 -16.507810 24.392422 41.611294 -0.511710 0.944439 0.081706 -0.015281 -214049.000000 0 0 1
29.509746 -16.206510 25.765862 42.395232 -0.502222 0.917567 0.072714 -0.010610 -14040.500000 0 0 1
29.396986 -14.663810 26.053722 41.928589 -0.462703 0.900289 0.051519 -0.012769 850242.000000 0 0 1
28.078176 -14.092310 25.913372 40.724440 -0.465163 0.881091 0.065823 -0.010907 854812.000000 0 0 1
28.059876 -12.684210 26.217362 40.442501 -0.424550 0.865496 0.054109 -0.011126 -186393.000000 0 0 1
28.782376 -11.754510 25.265402 40.061630 -0.387720 0.888389 0.074907 -0.031004 -374655.000000 0 0 1
28.117176 -11.592010 23.995482 38.739301 -0.391043 0.902806 0.070626 -0.025195 -234.152000 0 0 1
28.683676 -10.702110 23.081332 38.341053 -0.357111 0.924792 0.080698 -0.022746 546452.000000 0 0 1
29.956636 -11.213910 22.279462 38.981101 -0.358190 0.962409 0.082089 -0.039262 639599.000000 0 0 1
29.781566 -12.235810 21.283662 38.595997 -0.389826 0.986698 0.078313 -0.043438 -17048.000000 0 0 1
29.863776 -13.617210 21.726662 39.361420 -0.427814 0.986061 0.081548 -0.037628 -58420.600000 0 0 1
29.075476 -14.490610 20.679762 38.509916 -0.462350 1.003921 0.088884 -0.043395 26232.300000 0 0 1
29.609746 -14.366510 19.371062 38.188633 -0.451734 1.038809 0.090815 -0.047458 -393860.000000 0 0 1
29.065076 -15.335010 18.548962 37.735993 -0.485490 1.056933 0.088804 -0.045652 -811297.000000 0 0 1
29.587576 -15.453610 17.125462 37.516932 -0.481329 1.096769 0.098805 -0.046736 -711395.000000 0 0 1
29.153876 -16.500510 16.286062 37.248505 -0.515029 1.118283 0.093495 -0.044015 315889.000000 0 0 1
27.757576 -16.778010 16.186262 36.248858 -0.543684 1.107911 0.094935 -0.045785 -29054.500000 0 0 1
26.953776 -15.764710 15.366862 34.801905 -0.529227 1.113468 0.102907 -0.046955 -811474.000000 0 0 1
27.022476 -15.905310 14.012762 34.344586 -0.531992 1.150529 0.106140 -0.048905 303368.000000 0 0 1
26.092076 -16.867510 13.514062 33.881251 -0.573883 1.160517 0.096049 -0.051404 -249198.000000 0 0 1
26.322276 -17.401010 12.095062 33.792719 -0.584122 1.204758 0.102609 -0.036024 -203901.000000 0 0 1
26.132076 -16.461410 11.045062 32.800256 -0.562137 1.227347 0.104482 -0.033829 -85926.500000 0 0 1
25.866176 -17.053310 9.782662 32.489612 -0.582878 1.264949 0.100285 -0.034121 664986.000000 0 0 1
27.127276 -17.596010 8.995262 33.562232 -0.575423 1.299462 0.104156 -0.025891 1001860.000000 0 0 1
27.843576 -18.651610 9.609762 34.863947 -0.590218 1.291545 0.099177 -0.018728 860312.000000 0 0 1
29.278176 -18.598010 9.486762 35.959647 -0.565913 1.303819 0.100535 -0.007523 1209620.000000 0 0 1
30.056196 -19.538910 10.467262 37.345783 -0.576431 1.286711 0.099692 -0.029312 7561.580000 0 0 1
30.108456 -18.985210 11.786562 37.495071 -0.562588 1.251025 0.107348 -0.051565 -154135.000000 0 0 1
30.674046 -19.792910 12.734362 38.662907 -0.573040 1.235161 0.091112 -0.044481 -410902.000000 0 0 1
30.520986 -19.186710 14.113462 38.714987 -0.561212 1.197649 0.098007 -0.039281 66842.400000 0 0 1
30.802636 -20.113310 15.119962 39.773872 -0.578463 1.180840 0.089129 -0.034623 -172129.000000 0 0 1
30.578536 -19.569810 16.390162 39.832923 -0.569303 1.146727 0.111870 -0.044858 76548.500000 0 0 1
30.353986 -20.818010 17.342662 40.688106 -0.601160 1.130471 0.098514 -0.036893 871696.000000 0 0 1
28.999976 -21.282410 17.254262 39.895478 -0.633102 1.123547 0.068941 -0.020404 472765.000000 0 0 1
28.716876 -22.244210 18.263162 40.657188 -0.659063 1.104928 0.088556 -0.017090 868887.000000 0 0 1
27.318376 -22.956310 18.205562 40.059060 -0.698850 1.099021 0.064340 -0.000032 654453.000000 0 0 1
26.227276 -22.259810 18.743562 39.175123 -0.703755 1.071901 0.071774 -0.006337 -1045900.000000 0 0 1
25.065176 -22.981910 18.583462 38.752759 -0.742066 1.070667 0.083675 -0.010588 -847486.000000 0 0 1
23.895276 -22.329510 19.346262 37.998277 -0.751538 1.036617 0.072569 -0.008525 -334800.000000 0 0 1
23.359076 -21.169210 18.717162 36.662161 -0.736259 1.034994 0.067951 -0.009065 606335.000000 0 0 1
22.086176 -20.767010 19.239662 35.905883 -0.754624 1.005299 0.054011 -0.006186 740887.000000 0 0 1
22.053876 -20.099610 20.672962 36.300677 -0.739071 0.964908 0.053391 -0.000201 -258032.000000 0 0 1
22.422176 -21.030410 21.678962 37.616612 -0.753380 0.956586 0.061306 -0.000073 -122399.000000 0 0 1
22.745376 -20.486510 22.928862 38.246332 -0.733196 0.927914 0.055654 0.001802 132892.000000 0 0 1
23.271376 -21.598010 23.884762 39.730503 -0.748121 0.925833 0.061748 0.002118 -74318.500000 0 0 1
22.266176 -22.329210 24.538482 39.956393 -0.786812 0.909511 0.065208 0.002884 -242397.000000 0 0 1
22.794276 -23.433510 25.254412 41.309729 -0.799225 0.913040 0.069343 0.003488 -570189.000000 0 0 1
21.837376 -24.363410 25.957102 41.763835 -0.840019 0.900114 0.071610 0.001649 -433542.000000 0 0 1
21.079176 -25.236010 25.132642 41.386442 -0.874909 0.918180 0.089656 -0.005314 -68017.000000 0 0 1
20.106576 -25.893810 25.890612 41.774245 -0.910549 0.902341 0.093853 -0.011924 -216532.000000 0 0 1
19.230976 -26.855210 25.044852 41.452109 -0.949347 0.922050 0.091339 -0.015962 -21064.500000 0 0 1
18.339376 -26.155610 24.200422 40.076291 -0.959289 0.922463 0.094194 -0.013734 86922.100000 0 0 1
17.385276 -27.020310 23.644862 39.892662 -0.999064 0.936374 0.081377 -0.016714 -91460.500000 0 0 1
16.472276 -26.343010 22.598962 38.418786 -1.011982 0.941932 0.079739 -0.015157 -33582.100000 0 0 1
15.335676 -25.669310 23.073502 37.768809 -1.032267 0.913581 0.064688 -0.008963 -397161.000000 0 0 1
14.841076 -24.803010 22.102862 36.386582 -1.031585 0.917956 0.047920 -0.006860 -129146.000000 0 0 1
13.384176 -24.385810 22.398562 35.714135 -1.068836 0.892892 0.034206 -0.007201 -427496.000000 0 0 1
12.516476 -25.442610 22.161062 35.987515 -1.113610 0.907397 0.020124 -0.006036 -309055.000000 0 0 1
11.189376 -24.923010 22.048662 35.107009 -1.148810 0.891762 0.027111 -0.006168 878334.000000 0 0 1
10.118376 -26.050310 22.250262 35.722183 -1.200315 0.898391 0.030014 -0.014615 255152.000000 0 0 1
9.973376 -26.924410 21.166362 35.670814 -1.216046 0.935544 0.022275 -0.019891 -198153.000000 0 0 1
8.725976 -27.559810 21.259362 35.883788 -1.264163 0.936699 0.046861 -0.024597 -458760.000000 0 0 1
8.280376 -28.346110 20.054062 35.696386 -1.286587 0.974242 0.057930 -0.028374 -241683.000000 0 0 1
8.932876 -29.569710 19.962462 36.778579 -1.277418 0.997060 0.050928 -0.029815 -56194.100000 0 0 1
8.669176 -30.203910 18.710262 36.571911 -1.291288 1.033748 0.049746 -0.029543 54506.900000 0 0 1
9.148776 -31.699110 18.648862 37.898730 -1.289819 1.056329 0.045978 -0.024701 -285725.000000 0 0 1
8.379276 -32.602710 19.383162 38.843995 -1.319229 1.048352 0.060394 -0.025136 2828.600000 0 0 1
9.166376 -33.719110 19.793962 40.159703 -1.305366 1.055398 0.065080 -0.030435 199103.000000 0 0 1
8.520476 33.263697 20.776062 40.133737 1.320038 1.026670 0.093557 -0.039706 662693.000000 0 0 1
7.644676 32.296797 20.117362 38.810211 1.338373 1.025873 0.084773 -0.037309 429489.000000 0 0 1
7.387376 31.191297 20.975362 38.307129 1.338240 0.991354 0.094175 -0.043164 -73837.000000 0 0 1
6.367476 30.145297 20.506862 37.011013 1.362630 0.983545 0.076382 -0.038172 -246149.000000 0 0 1
5.028876 30.351297 20.883162 37.183293 1.406599 0.974445 0.097454 -0.041080 -473250.000000 0 0 1
4.324276 29.177897 20.510962 35.926990 1.423663 0.963186 0.103558 -0.037216 -371993.000000 0 0 1
2.874476 29.215797 20.986062 36.086566 1.472724 0.950166 0.088737 -0.029172 -397100.000000 0 0 1
2.888276 28.980697 22.414162 36.750750 1.471462 0.914866 0.070459 -0.033580 779573.000000 0 0 1
1.554476 28.610997 22.811562 36.624758 1.516518 0.898422 0.068837 -0.024036 532613.000000 0 0 1
1.352476 28.019497 24.155782 37.019228 1.522565 0.859891 0.076074 -0.022590 -199534.000000 0 0 1
1.551576 28.859597 25.287842 38.402587 1.517085 0.851981 0.081511 -0.030065 123072.000000 0 0 1
1.403276 28.288797 26.589162 38.848536 1.521232 0.816973 0.075992 -0.030242 -148049.000000 0 0 1
2.625876 27.630597 27.275752 38.914159 1.476046 0.794108 0.063440 -0.026762 -245147.000000 0 0 1
3.109876 26.512297 26.580012 37.670549 1.454031 0.787539 0.074770 -0.023463 430585.000000 0 0 1
3.925676 25.677697 27.405752 37.760168 1.419088 0.758622 0.048934 -0.011232 85642.500000 0 0 1
4.451576 24.373397 26.827452 36.518368 1.390147 0.745677 0.044132 -0.006028 69352.600000 0 0 1
3.439476 23.419497 26.512392 35.541663 1.424975 0.728832 0.063987 -0.006379 165888.000000 0 0 1
4.041676 22.142197 26.365842 34.666550 1.390251 0.706628 0.070012 -0.001342 -438868.000000 0 0 1
3.018176 21.051197 26.407002 33.905635 1.428394 0.677985 0.072756 -0.001450 -698340.000000 0 0 1
3.386776 19.690097 26.616762 33.280959 1.400459 0.643902 0.087206 -0.002029 -270581.000000 0 0 1
3.777376 19.017697 25.422922 31.972900 1.374724 0.651558 0.074265 0.001088 -453179.000000 0 0 1
4.409676 17.679797 25.821232 31.603109 1.326365 0.614525 0.078948 -0.005761 381829.000000 0 0 1
5.608776 17.815197 26.613502 32.513353 1.265789 0.611930 0.066559 -0.004609 677899.000000 0 0 1
6.795176 17.708397 25.849682 32.061937 1.204397 0.633024 0.069974 -0.002680 -604487.000000 0 0 1
8.062776 17.564197 26.736172 32.989882 1.140445 0.625901 0.062988 -0.013434 -182883.000000 0 0 1
8.607376 18.701597 27.365812 34.245063 1.139453 0.644971 0.058384 -0.013001 178552.000000 0 0 1
9.102176 19.669797 26.435862 34.184870 1.137391 0.686734 0.050464 -0.017927 -504433.000000 0 0 1
9.574176 21.025997 27.024652 35.554033 1.143503 0.707328 0.050336 -0.016997 566156.000000 0 0 1
10.851976 20.927397 27.649212 36.334560 1.092416 0.706002 0.073599 -0.036049 211534.000000 0 0 1
11.070076 21.996397 28.502812 37.666940 1.104538 0.712536 0.091183 -0.042049 445094.000000 0 0 1
12.278476 21.796897 29.477262 38.662316 1.057789 0.703738 0.107654 -0.038656 605252.000000 0 0 1
13.555776 21.644497 28.884322 38.555770 1.011268 0.724008 0.093627 -0.040011 -260880.000000 0 0 1
14.450676 21.341097 29.938522 39.504172 0.975585 0.710774 0.092808 -0.028466 1960070.000000 0 0 1
15.978776 21.122397 29.441562 39.601547 0.923158 0.732590 0.073508 -0.025854 2029550.000000 0 0 1
16.480076 22.379497 29.075222 40.221926 0.936062 0.762850 0.067599 -0.036417 552812.000000 0 0 1
17.746676 22.238197 28.394492 40.196133 0.897260 0.786399 0.090555 -0.021351 677555.000000 0 0 1
-9.066925 17.000197 4.725979 19.838112 -1.080832 1.330256 0.040095 -0.009110 -193290.000000 0 1 0
-8.668925 18.320397 5.091379 20.897592 -1.128830 1.324685 0.048699 -0.014541 -636281.000000 0 1 0
-7.296125 18.427097 5.291279 20.513142 -1.193790 1.309901 0.045663 -0.011384 -749633.000000 0 1 0
-7.017125 19.801897 5.830879 21.802622 -1.230237 1.300062 0.055042 -0.016411 -288523.000000 0 1 0
-7.172125 20.951997 4.989079 22.700583 -1.240987 1.349210 0.062262 -0.022903 891422.000000 0 1 0
-8.495725 21.250597 4.472079 23.318763 -1.190473 1.377821 0.060589 -0.026049 910019.000000 0 1 0
-8.560725 22.425197 3.465779 24.252569 -1.206125 1.427402 0.094328 -0.038101 166368.000000 0 1 0
-7.900625 22.201497 2.211279 23.668885 -1.228911 1.477234 0.069459 -0.036169 8644.010000 0 1 0
-8.499925 21.248497 1.368379 22.926400 -1.190269 1.511075 0.083259 -0.032734 -844950.000000 0 1 0
-7.935025 21.225397 -0.084521 22.660301 -1.213038 1.574526 0.060374 -0.016066 1323750.000000 0 1 0
-6.624825 20.655197 -0.309421 21.693806 -1.260428 1.585060 0.046318 -0.012909 927731.000000 0 1 0
-5.548325 21.426997 0.191579 22.134516 -1.317421 1.562141 0.048857 -0.019594 -300921.000000 0 1 0
-4.198525 21.131397 -0.499421 21.550243 -1.374664 1.593973 0.040265 -0.016564 -14066.100000 0 1 0
-4.116425 21.570697 -1.849821 22.037735 -1.382229 1.654834 0.031429 -0.015062 366450.000000 0 1 0
-2.755625 21.629697 -2.262321 21.921573 -1.444079 1.674181 0.031728 -0.005119 454708.000000 0 1 0
-2.684425 21.895697 -3.801421 22.384783 -1.448805 1.741445 0.032611 -0.007116 860278.000000 0 1 0
-1.337525 22.169097 -4.225921 22.607880 -1.510537 1.758825 0.045803 -0.011267 716914.000000 0 1 0
-1.317425 22.577197 -5.600821 23.298812 -1.512510 1.813565 0.054676 -0.015817 171415.000000 0 1 0
0.027875 23.147297 -6.115521 23.941548 1.569592 1.829094 0.063636 -0.021072 1283060.000000 0 1 0
1.116375 22.167297 -6.103421 23.019277 1.520477 1.839149 0.050980 -0.014090 779915.000000 0 1 0
2.309375 22.701197 -6.645421 23.766346 1.469416 1.854189 0.048578 -0.012083 564726.000000 0 1 0
3.459275 21.664297 -6.826721 22.976346 1.412457 1.872471 0.049525 -0.006390 304344.000000 0 1 0
3.138575 20.750497 -7.909121 22.427393 1.420681 1.931203 0.041663 -0.012673 -91587.600000 0 1 0
3.854075 19.550597 -7.810621 21.402933 1.376159 1.944356 0.020404 -0.015006 97737.200000 0 1 0
3.650475 18.634897 -9.048621 21.034802 1.377351 2.015482 0.024121 -0.015325 -167876.000000 0 1 0
4.161375 19.163297 -10.219921 22.113249 1.356963 2.051229 0.017841 -0.013316 220131.000000 0 1 0
3.231275 18.852897 -11.256721 22.194293 1.401052 2.102717 0.026780 -0.018995 393785.000000 0 1 0
3.752875 19.293597 -12.660621 23.379869 1.378681 2.143038 0.031756 -0.022331 68797.000000 0 1 0
3.818475 20.667297 -12.962421 24.692960 1.388097 2.123446 0.062114 -0.029213 111623.000000 0 1 0
4.249175 20.803297 -14.355521 25.630327 1.369313 2.165302 0.081817 -0.037674 247845.000000 0 0 1
4.666575 22.183697 -14.808421 27.077346 1.363459 2.149445 0.080013 -0.033738 367039.000000 0 0 1
3.512175 23.009097 -14.863121 27.616413 1.419323 2.139095 0.099390 -0.036345 185793.000000 0 0 1
3.904075 24.355897 -15.174321 28.960517 1.411856 2.122297 0.080308 -0.028526 -50851.000000 0 0 1
2.728375 25.308497 -15.440621 29.772081 1.463406 2.116041 0.092425 -0.025617 -70253.000000 0 0 1
1.940475 25.600397 -14.287321 29.381513 1.495142 2.078611 0.120645 -0.040287 -84572.300000 0 0 1
1.403575 26.881797 -14.406221 30.530972 1.518631 2.062191 0.092799 -0.036184 4695.940000 0 0 1
0.282475 27.341497 -13.403221 30.451331 1.560465 2.026565 0.113524 -0.030115 1114620.000000 0 0 1
-1.032425 26.822397 -13.597721 30.089947 -1.532324 2.039693 0.102970 -0.044411 287373.000000 0 0 1
-1.292925 25.422697 -13.490021 28.809128 -1.519983 2.058111 0.095841 -0.042074 -382300.000000 0 0 1
-1.037025 24.691797 -12.155321 27.541098 -1.528822 2.027901 0.106826 -0.041829 -307439.000000 0 0 1
-1.971325 24.987797 -11.131021 27.425823 -1.492068 1.988715 0.104635 -0.030765 -163043.000000 0 0 1
-2.400425 23.763197 -10.531421 26.102919 -1.470123 1.986089 0.119120 -0.028479 204515.000000 0 0 1
-3.470825 24.095297 -9.445821 26.112325 -1.427735 1.940928 0.087824 -0.021237 174835.000000 0 0 1
-2.979525 24.572097 -8.188921 26.071516 -1.450129 1.890299 0.089467 -0.019287 -79740.200000 0 0 1
-2.761625 25.945697 -8.054921 27.307280 -1.464757 1.870224 0.103347 -0.023233 5084.130000 0 0 1
-2.553225 26.454897 -6.618321 27.389463 -1.474582 1.814849 0.094259 -0.023722 437667.000000 0 0 1
-1.319325 26.085197 -6.007621 26.800553 -1.520262 1.796878 0.098271 -0.027558 226802.000000 0 0 1
-1.218025 26.641097 -4.701521 27.080176 -1.525108 1.745295 0.103055 -0.040793 65228.900000 0 0 1
-1.955625 25.943997 -3.470621 26.248060 -1.495560 1.703409 0.095398 -0.025689 1911280.000000 0 0 1
-3.409425 25.929497 -3.512221 26.387472 -1.440058 1.704294 0.077222 -0.025016 1403160.000000 0 0 1
-4.019925 25.220797 -2.460121 25.657369 -1.412737 1.666827 0.068909 -0.018768 -173379.000000 0 0 1
-5.313625 24.512097 -2.864521 25.244465 -1.357324 1.684513 0.061230 -0.016807 -325998.000000 0 0 1
-6.373925 25.378797 -3.209921 26.363115 -1.324734 1.692857 0.050515 -0.014902 -26257.200000 0 0 1
-7.401725 24.641797 -3.850621 26.015975 -1.278998 1.719352 0.034103 -0.013105 833257.000000 0 0 1
-8.819025 25.313097 -3.937421 27.093013 -1.235550 1.716643 0.035483 -0.013992 573242.000000 0 0 1
-9.420725 25.348997 -2.674121 27.174853 -1.214974 1.669360 0.057723 -0.019123 -953282.000000 0 0 1
-10.628025 26.041397 -2.766121 28.262355 -1.183309 1.668826 0.079579 -0.020319 -547695.000000 0 0 1
-11.378025 26.211297 -1.470821 28.612145 -1.161253 1.622224 0.096564 -0.025072 -159656.000000 0 0 1
-11.982525 25.026397 -0.927421 27.762593 -1.124256 1.604208 0.107069 -0.026765 535217.000000 0 0 1
-11.080025 24.073497 -0.304021 26.502691 -1.139444 1.582268 0.111291 -0.028067 115673.000000 0 0 1
-11.735425 22.760097 -0.009521 25.607466 -1.094736 1.571168 0.103745 -0.027441 -186801.000000 0 0 1
-12.658125 22.902397 1.061379 26.189205 -1.065884 1.530258 0.120493 -0.029588 13415.700000 0 0 1
-13.325025 21.682397 1.291079 25.482337 -1.019743 1.520109 0.116525 -0.034026 -346138.000000 0 0 1
-14.346625 21.750797 2.413479 26.167684 -0.987708 1.478434 0.132499 -0.038515 -303775.000000 0 0 1
-13.800525 21.704897 3.721079 25.988526 -1.004450 1.427121 0.109813 -0.039386 -4167.910000 0 0 1
-13.388025 22.975997 4.131879 26.911114 -1.043197 1.416649 0.117918 -0.043757 -132610.000000 0 0 1
-13.069825 23.045697 5.633479 27.086169 -1.054899 1.361283 0.113907 -0.040946 343065.000000 0 0 1
-11.808225 22.483797 6.013079 26.098131 -1.087202 1.338305 0.104553 -0.039586 692180.000000 0 0 1
-11.841925 22.115097 7.382579 26.149784 -1.079179 1.284586 0.084830 -0.038236 -927591.000000 0 0 1
-10.473625 21.777997 7.944479 25.438017 -1.122523 1.253175 0.075004 -0.036408 -746067.000000 0 0 1
-9.709725 22.977497 8.155579 26.244192 -1.170981 1.254806 0.088370 -0.037710 476829.000000 0 0 1
-8.451625 22.670497 8.754379 25.729760 -1.213953 1.223621 0.081685 -0.039793 335862.000000 0 0 1
-8.482425 22.582597 10.287379 26.225091 -1.211484 1.167696 0.057810 -0.035074 165109.000000 0 0 1
-9.273825 21.448397 10.771679 25.730656 -1.162693 1.138858 0.063219 -0.034459 502183.000000 0 0 1
-8.830625 21.014797 11.987279 25.754543 -1.172990 1.086661 0.039236 -0.025892 -283501.000000 0 0 1
-9.869525 20.037597 12.576579 25.633633 -1.113126 1.057986 0.040781 -0.020656 -126745.000000 0 0 1
-9.901325 18.855397 11.900379 24.396337 -1.087256 1.061236 0.061536 -0.035066 38004.300000 0 1 0
-10.562925 17.817897 12.630579 24.260758 -1.035668 1.023222 0.068520 -0.034601 2927.030000 0 1 0
-10.808125 16.609397 11.752079 23.039075 -0.993913 1.035503 0.062281 -0.036922 -203582.000000 0 1 0
-11.451325 15.607897 12.515979 23.051877 -0.937817 0.996852 0.065957 -0.027021 169025.000000 0 1 0
-11.708825 14.501197 11.649779 21.979505 -0.891536 1.012161 0.053402 -0.016050 66340.200000 0 1 0
-12.099125 13.107097 12.256779 21.642861 -0.825366 0.968763 0.046676 -0.016190 1034610.000000 0 1 0
-13.361925 13.142197 12.971679 22.793044 -0.777108 0.965377 0.072429 -0.010326 1277580.000000 0 1 0
-13.747625 11.848697 13.529279 22.636921 -0.711346 0.930212 0.050579 0.006233 480991.000000 0 1 0
-14.697525 12.139397 14.739079 24.096113 -0.690364 0.912616 0.063517 0.002165 261577.000000 0 1 0
-16.036625 12.494797 14.493779 24.967237 -0.661892 0.951439 0.089408 -0.013903 -375551.000000 0 1 0
-16.766825 12.533597 15.676379 26.152750 -0.641914 0.928025 0.077167 -0.008520 -331058.000000 0 0 1
-17.926825 13.551597 15.528079 27.315528 -0.647292 0.966150 0.070963 -0.005923 466751.000000 0 0 1
-19.046525 12.929997 14.846579 27.392989 -0.596399 0.997999 0.080681 -0.007536 650438.000000 0 0 1
-19.959325 13.948197 14.523679 28.352497 -0.609941 1.032989 0.085102 -0.011132 793736.000000 0 0 1
-21.251425 13.599897 13.666179 28.693984 -0.569279 1.074385 0.069694 -0.013146 929553.000000 0 0 1
-22.161525 12.759397 14.333579 29.315301 -0.522394 1.059916 0.064061 -0.002375 -129837.000000 0 0 1
-23.242525 12.441997 13.500479 29.618933 -0.491496 1.097519 0.062895 -0.005254 -528308.000000 0 0 1
-24.230225 11.477697 14.144979 30.313722 -0.442382 1.085331 0.088658 -0.013844 -862571.000000 0 0 1
-24.867525 12.103097 15.175579 31.546425 -0.452953 1.068938 0.071339 -0.013573 -336447.000000 0 0 1
-25.792175 11.155997 15.681279 32.180663 -0.408235 1.061814 0.072357 -0.018673 -414557.000000 0 0 1
-26.571995 11.815497 16.825179 33.597076 -0.418404 1.046282 0.069979 -0.017207 372235.000000 0 0 1
-27.591505 12.776097 16.401479 34.547479 -0.433649 1.076114 0.072100 -0.012149 918375.000000 0 0 1
-28.173925 13.242597 17.585879 35.754714 -0.439386 1.056586 0.068868 0.004144 -683486.000000 0 0 1
-29.249225 14.295697 17.535879 36.978253 -0.454611 1.076717 0.073136 -0.009192 -453393.000000 0 0 1
-28.805705 15.560497 17.079879 36.927225 -0.495279 1.089952 0.074381 -0.008460 -507413.000000 0 0 1
-29.873535 16.448597 16.922579 38.070436 -0.503310 1.110172 0.084753 -0.011766 -710618.000000 0 0 1
-29.589145 17.929697 16.632879 38.388074 -0.544787 1.122665 0.107829 -0.023226 -405643.000000 0 0 1
-29.044245 18.708597 17.691679 38.814627 -0.572246 1.097526 0.108460 -0.029381 -52809.500000 0 0 1
-29.750275 18.812197 18.895279 39.950084 -0.563858 1.078135 0.109431 -0.030885 -1122120.000000 0 0 1
-28.744605 18.961697 20.025879 39.835086 -0.583137 1.044054 0.088009 -0.025806 82270.800000 0 0 1
-28.157075 17.795197 20.537579 39.131599 -0.563615 1.018277 0.086021 -0.013751 84723.800000 0 0 1
-27.306125 17.046597 19.684479 37.731812 -0.558080 1.021960 0.093570 -0.013927 -622429.000000 0 0 1
-26.706085 15.813397 20.350479 37.113616 -0.534611 0.990431 0.077314 -0.003787 -293857.000000 0 0 1
-27.699705 14.942597 20.792279 37.720999 -0.494707 0.986980 0.076151 -0.010378 -306936.000000 0 0 1
-27.227395 13.672097 21.141379 37.083894 -0.465362 0.964174 0.076929 -0.004595 -816004.000000 0 0 1
-28.339465 12.753097 21.589079 37.839861 -0.422864 0.963636 0.084731 -0.014830 -464410.000000 0 0 1
-29.187405 12.506197 20.465579 37.777632 -0.404814 0.998293 0.079287 -0.017484 70252.600000 0 0 1
-30.279335 11.673897 20.815379 38.553833 -0.367979 1.000473 0.102067 -0.017499 -105205.000000 0 0 1
-31.244055 11.502697 19.629579 38.650011 -0.352757 1.038074 0.101853 -0.016927 -558761.000000 0 0 1
-30.690795 10.850497 18.502379 37.443240 -0.339827 1.053946 0.121009 -0.020263 259095.000000 0 0 1
-30.404895 9.429697 18.607879 36.873161 -0.300731 1.041825 0.133769 -0.018425 126992.000000 0 0 1
-29.697555 8.811497 17.306179 35.483674 -0.288434 1.061318 0.132667 -0.026379 676836.000000 0 0 1
-30.509135 8.583797 16.087879 35.543055 -0.274262 1.101083 0.139936 -0.014806 916119.000000 0 0 1
-31.029585 9.789797 15.523479 36.050710 -0.305615 1.125638 0.133776 -0.014260 154029.000000 0 0 1
-29.975305 10.707297 14.808879 35.106524 -0.343078 1.135337 0.119866 -0.012544 304441.000000 0 0 1
-29.385975 10.215297 13.601079 33.954045 -0.334557 1.158654 0.131302 -0.018718 389700.000000 0 0 1
-28.451935 11.158197 13.120479 33.259058 -0.373744 1.165280 0.102899 -0.014183 -251449.000000 0 0 1
-27.973415 10.887697 11.694579 32.215168 -0.371175 1.199295 0.140936 -0.004652 -136829.000000 0 0 1
-27.131545 9.774597 11.383679 31.004058 -0.345792 1.194834 0.155306 -0.011353 738750.000000 0 0 1
-27.782045 8.505397 11.347979 31.192314 -0.297087 1.198445 0.176964 -0.011173 130833.000000 0 0 1
-26.904785 7.335397 10.746179 29.885713 -0.266173 1.202983 0.199498 -0.025628 96295.300000 0 0 1
-26.718345 7.423097 9.331979 29.258472 -0.270993 1.246175 0.201167 -0.021251 261443.000000 0 0 1
-26.070275 6.311397 8.761879 28.218141 -0.237522 1.255072 0.228793 -0.050929 -256576.000000 0 0 1
-25.410515 6.720297 7.427479 27.313442 -0.258550 1.295393 0.200236 -0.035077 -277800.000000 0 0 1
-26.309665 6.876197 6.360679 27.927384 -0.255638 1.341022 0.204123 -0.042703 70496.000000 0 0 1
-25.682865 7.565697 5.273579 27.288458 -0.286478 1.376320 0.187792 -0.039137 287078.000000 0 0 1
-26.659015 8.234497 4.236579 28.221599 -0.299586 1.420108 0.177858 -0.037020 439798.000000 0 0 1
-27.580335 7.516097 3.424179 28.790478 -0.266056 1.451580 0.211420 -0.045648 399300.000000 0 0 1
-27.067825 6.428297 2.694979 27.950905 -0.233169 1.474228 0.220286 -0.041702 -140904.000000 0 0 1
-26.113725 6.676497 1.481279 26.994378 -0.250308 1.515895 0.208823 -0.037394 1542870.000000 0 0 1
-24.740225 6.989197 1.810679 25.772198 -0.275329 1.500481 0.167065 -0.030788 1348600.000000 0 0 1
-23.911525 7.440097 0.755779 25.053688 -0.301655 1.540625 0.169551 -0.016886 119556.000000 0 0 1
-22.592225 7.989297 1.360479 24.001842 -0.339905 1.514084 0.136382 -0.018606 281519.000000 0 1 0
-22.959325 9.104797 2.225779 24.798831 -0.377539 1.480922 0.128419 -0.022750 805134.000000 0 1 0
-21.774825 9.764797 2.557479 24.000728 -0.421559 1.464035 0.125303 -0.021763 -83899.300000 0 1 0
-22.212125 11.189397 2.994079 25.050861 -0.466645 1.450990 0.132495 -0.035628 -101144.000000 0 0 1
-21.113325 11.987797 3.354779 24.509882 -0.516394 1.433491 0.126228 -0.031469 444653.000000 0 1 0
-21.413025 13.363897 3.698479 25.510589 -0.557953 1.425305 0.114307 -0.041587 -207577.000000 0 0 1
-20.148025 14.072697 4.226979 24.936942 -0.609695 1.400467 0.079670 -0.033754 463577.000000 0 1 0
-19.528925 13.427897 5.378379 24.302557 -0.602349 1.347640 0.069410 -0.038670 243272.000000 0 1 0
-18.779925 14.241897 6.249679 24.383923 -0.648828 1.311601 0.085046 -0.037564 -307851.000000 0 1 0
-18.311525 13.281197 7.342679 23.782705 -0.627499 1.256928 0.067697 -0.037942 795837.000000 0 1 0
-17.239525 12.368997 6.926279 22.319647 -0.622361 1.255265 0.058144 -0.021730 1190120.000000 0 1 0
-16.551925 11.823097 7.997679 21.856686 -0.620261 1.196181 0.044764 -0.020958 -706417.000000 0 1 0
10.636275 -33.269210 -14.339221 37.756905 -1.261363 1.960352 0.029938 0.010819 79284.300000 0 0 1
11.688375 -32.826710 -13.475821 37.360524 -1.228730 1.939811 0.023681 0.008688 667477.000000 0 0 1
12.414575 -31.690710 -13.991621 36.799296 -1.197429 1.960824 0.025086 -0.002622 343587.000000 0 0 1
13.653975 -31.310610 -13.139921 36.598399 -1.159577 1.938025 0.032978 -0.002227 36618.000000 0 0 1
14.814475 -31.996310 -13.546421 37.772186 -1.137180 1.937601 0.043870 -0.007148 -1017010.000000 0 0 1
15.936875 -31.387010 -13.036321 37.537635 -1.100965 1.925472 0.056910 -0.004409 625332.000000 0 0 1
17.318475 -32.069810 -13.469421 38.856500 -1.075644 1.924789 0.086640 -0.017054 1356810.000000 0 0 1
17.531575 -33.384110 -12.946521 39.868124 -1.087234 1.901526 0.084170 -0.022378 16044.400000 0 0 1
18.503375 34.018197 -13.797121 41.109283 1.072629 1.913060 0.081058 -0.008122 496296.000000 0 0 1
18.677975 32.520597 -13.333521 39.802497 1.049456 1.912393 0.070337 -0.016342 -273555.000000 0 0 1
19.191775 32.443097 -11.961021 39.546742 1.036612 1.878061 0.071175 -0.021873 72106.200000 0 0 1
19.098675 31.078297 -11.501421 38.247910 1.019758 1.876230 0.061300 -0.023209 -136263.000000 0 0 1
19.903975 30.914397 -10.224521 38.162927 0.998763 1.842027 0.061056 -0.022735 -162232.000000 0 0 1
21.286775 30.774897 -10.427521 38.845261 0.965667 1.842567 0.057104 -0.025863 -97739.800000 0 0 1
21.945675 30.511397 -9.190821 38.691461 0.947260 1.810630 0.052448 -0.024108 552476.000000 0 0 1
23.273375 29.715997 -9.309821 38.876255 0.906388 1.812620 0.030389 -0.006228 432498.000000 0 0 1
24.373475 30.237497 -10.024321 40.110591 0.892366 1.823391 0.042596 -0.021135 -496423.000000 0 0 1
25.513375 29.521997 -9.750721 40.218866 0.858107 1.815678 0.032154 -0.007920 -960424.000000 0 0 1
26.725975 29.797797 -10.633021 41.415548 0.839690 1.830444 0.030358 -0.011302 -562597.000000 0 0 1
27.126175 31.104697 -10.507821 42.588095 0.853615 1.820102 0.034324 -0.022701 -386647.000000 0 0 1
28.205475 31.313697 -11.373821 43.651578 0.837573 1.834398 0.036597 -0.013348 -304471.000000 0 0 1
28.862075 32.667597 -11.452021 45.070390 0.847168 1.827705 0.032826 -0.018431 110228.000000 0 0 1
27.975275 33.711397 -11.885521 45.390967 0.878120 1.835733 0.045200 -0.017740 54065.000000 0 0 1
28.568675 -33.102910 -11.681821 45.259659 -0.858788 1.831858 0.047682 -0.024519 -298564.000000 0 0 1
27.615675 -31.940210 -11.942821 43.879761 -0.857884 1.846445 0.047518 -0.025176 -521631.000000 0 0 1
26.530075 -31.899910 -11.069121 42.941525 -0.877043 1.831512 0.071555 -0.035224 -803338.000000 0 0 1
25.479975 -31.056910 -11.433621 41.767074 -0.883722 1.848083 0.076103 -0.033913 40425.900000 0 0 1
25.714475 -29.618810 -10.944021 40.721981 -0.855842 1.842891 0.060729 -0.038265 -569637.000000 0 0 1
26.663175 -28.958610 -11.761621 41.083594 -0.826643 1.861144 0.049164 -0.025437 -332845.000000 0 0 1
27.093875 -27.801110 -11.086121 40.371795 -0.798281 1.848971 0.045351 -0.033655 -316036.000000 0 0 1
28.199675 -27.058410 -11.869921 40.844513 -0.764748 1.865663 0.053633 -0.012007 114196.000000 0 0 1
29.403175 -27.745710 -12.115221 42.203669 -0.756404 1.861958 0.041652 -0.006686 -275925.000000 0 0 1
29.333275 -28.627210 -13.198021 43.059795 -0.773217 1.882315 0.048476 -0.014478 -676501.000000 0 0 1
30.640575 -29.304810 -13.655021 44.542971 -0.763119 1.882372 0.035581 -0.010551 -81845.100000 0 0 1
31.024575 -30.333510 -12.780521 45.232596 -0.774136 1.857249 0.044011 -0.010573 182960.000000 0 0 1
31.961975 -31.215510 -13.405421 46.644198 -0.773583 1.862305 0.036220 -0.016417 78650.500000 0 0 1
32.886075 -31.968110 -12.432021 47.518513 -0.771245 1.835502 0.037348 -0.010983 -140330.000000 0 0 1
33.585275 -32.969610 -13.118121 48.857455 -0.776148 1.842630 0.033072 -0.015431 -45820.000000 0 0 1
34.542175 -33.650910 -12.316721 49.771952 -0.772329 1.820857 0.034648 -0.009076 7828.950000 0 0 1
34.009575 33.141797 -11.496021 48.858862 0.772476 1.808314 0.021610 -0.012128 78176.500000 0 0 1
33.236175 33.574297 -10.372321 48.367983 0.790459 1.786921 0.028369 -0.024334 98366.000000 0 0 1
32.590575 32.491297 -9.744721 47.040297 0.783873 1.779464 0.036011 -0.019017 -355604.000000 0 0 1
31.728875 32.860397 -8.536421 46.469320 0.802915 1.755546 0.015320 -0.017055 32889.100000 0 0 1
30.666275 33.743397 -8.798321 46.437568 0.833136 1.761414 0.018630 -0.022399 -236531.000000 0 0 1
29.917875 -33.929910 -7.667521 45.881466 -0.848153 1.738700 0.030273 -0.022469 229779.000000 0 0 1
28.985375 -32.732010 -7.783121 44.408483 -0.846030 1.746968 0.040247 -0.035378 -213357.000000 0 0 1
29.681775 -31.449110 -7.981421 43.974508 -0.814301 1.753309 0.015047 -0.031067 973620.000000 0 0 1
28.791875 -30.312910 -8.257421 42.614898 -0.811127 1.765798 0.017422 -0.028190 1160520.000000 0 0 1
27.558275 -30.092010 -7.309821 41.453842 -0.829320 1.748060 0.030159 -0.034195 307994.000000 0 0 1
26.828675 -28.980310 -7.734621 40.242521 -0.823933 1.764200 0.046011 -0.047338 -627149.000000 0 0 1
25.735375 -28.618810 -6.935621 39.108166 -0.838397 1.749084 0.058789 -0.051336 -82274.600000 0 0 1
24.793975 -27.694610 -7.764421 37.973923 -0.840604 1.776716 0.091716 -0.057219 -142158.000000 0 0 1
24.088575 -28.354110 -8.815521 38.235172 -0.866557 1.803450 0.111198 -0.051210 194366.000000 0 0 1
23.219275 -27.390610 -9.415121 37.121755 -0.867634 1.827226 0.124948 -0.046946 -446808.000000 0 0 1
21.997775 -27.999610 -10.077721 37.005955 -0.904869 1.846607 0.122572 -0.039679 -931507.000000 0 0 1
22.247475 -28.720610 -11.255921 38.033134 -0.911726 1.871247 0.128924 -0.037677 730183.000000 0 0 1
21.119675 -29.533510 -11.692221 38.144159 -0.950002 1.882339 0.113063 -0.040050 1135590.000000 0 0 1
20.662975 -30.728010 -10.876021 38.593483 -0.978802 1.856476 0.113050 -0.045964 -413327.000000 0 0 1
21.726475 -31.600310 -10.849321 39.853821 -0.968482 1.846504 0.102480 -0.041990 -668798.000000 0 0 1
21.347075 -32.848910 -10.324021 40.513379 -0.994522 1.828468 0.081420 -0.045964 56868.700000 0 0 1
22.456475 -33.900910 -10.427321 41.979685 -0.985743 1.821814 0.085117 -0.040176 476264.000000 0 0 1
23.554175 -33.688810 -9.534221 42.197588 -0.960628 1.798707 0.084996 -0.035192 327801.000000 0 0 1
24.633775 33.492897 -9.820221 42.720414 0.936645 1.802742 0.070132 -0.031496 291079.000000 0 0 1
25.937775 33.824797 -9.042021 43.573423 0.916612 1.779828 0.055614 -0.026064 -280184.000000 0 0 1
26.076475 33.539597 -7.655321 43.168172 0.909937 1.749076 0.043130 -0.032359 51304.800000 0 0 1
26.321875 32.142097 -7.368621 42.193034 0.884624 1.746337 0.041212 -0.015089 -237061.000000 0 0 1
26.126875 31.804797 -5.859921 41.575202 0.883097 1.712215 0.044557 -0.017910 -446178.000000 0 0 1
27.082275 32.406197 -4.999621 42.527726 0.874655 1.688630 0.039709 -0.016248 -458410.000000 0 0 1
28.137775 31.587697 -4.601821 42.552247 0.843097 1.679153 0.044809 -0.011600 -705883.000000 0 0 1
27.920475 30.325897 -3.740421 41.390865 0.826672 1.661288 0.057828 0.004529 -771015.000000 0 0 1
27.566075 30.556197 -2.371721 41.221290 0.836798 1.628364 0.061018 0.005051 35757.600000 0 0 1
27.431675 29.423997 -1.489521 40.255274 0.820426 1.607807 0.057101 0.010143 212396.000000 0 0 1
26.135875 28.626897 -1.786721 38.804324 0.830854 1.616857 0.057482 0.011378 412957.000000 0 0 1
24.957275 29.146797 -1.190321 38.390340 0.862678 1.601807 0.067049 0.002900 902785.000000 0 0 1
23.736975 28.465097 -1.567621 37.096673 0.875725 1.613067 0.061071 0.001440 1139990.000000 0 0 1
22.441575 29.171897 -1.122921 36.822341 0.915065 1.601297 0.066241 -0.008051 80023.800000 0 0 1
22.148575 28.855897 0.236279 36.376888 0.916152 1.564301 0.071796 -0.004406 441626.000000 0 0 1
21.018075 29.580097 0.746479 36.294612 0.953026 1.550228 0.067873 -0.006726 460332.000000 0 0 1
20.437575 28.942097 2.024579 35.488567 0.955952 1.513717 0.075727 -0.027658 -275619.000000 0 0 1
19.975975 27.675497 1.805279 34.179405 0.945594 1.517954 0.083491 -0.022638 58667.500000 0 0 1
19.208975 27.190697 2.913979 33.418707 0.955752 1.483489 0.110252 -0.031710 4789.050000 0 0 1
18.563675 25.836797 2.495779 31.912051 0.947763 1.492508 0.094432 -0.019757 608531.000000 0 0 1
19.472675 24.820297 1.969079 31.608693 0.905550 1.508460 0.092830 -0.021702 880669.000000 0 0 1
20.470775 24.249697 2.796079 31.857785 0.869699 1.482916 0.093316 -0.015440 -412799.000000 0 0 1
21.560375 23.488297 2.082579 31.951322 0.828168 1.505570 0.083542 -0.008751 -366774.000000 0 0 1
21.139675 22.273197 1.458679 30.742624 0.811503 1.523330 0.084965 -0.007346 171597.000000 0 0 1
22.319275 21.734897 0.949579 31.168213 0.772134 1.540325 0.066624 -0.012077 -206287.000000 0 0 1
22.038075 20.778697 -0.216321 30.289896 0.755993 1.577938 0.095600 -0.014008 -139007.000000 0 0 1
21.607675 21.519297 -1.338021 30.524778 0.783349 1.614644 0.055577 -0.004421 376868.000000 0 0 1
21.693275 20.668897 -2.445421 30.062960 0.761221 1.652230 0.106981 -0.013338 -7316.570000 0 0 1
21.413875 21.393097 -3.740821 30.499383 0.784913 1.693758 0.074768 -0.011759 -377479.000000 0 0 1
22.493075 22.221997 -4.079521 31.880999 0.779336 1.699109 0.070784 -0.007957 99894.100000 0 0 1
22.324375 22.871197 -5.328121 32.401516 0.797497 1.735987 0.048450 -0.009040 -260343.000000 0 0 1
23.356875 23.995297 -5.568921 33.945998 0.798880 1.735594 0.044797 0.001190 -100661.000000 0 0 1
23.254275 25.228997 -4.889421 34.657900 0.826106 1.712345 0.038211 0.002052 -12229.800000 0 0 1
23.727675 25.243697 -3.526721 34.823621 0.816346 1.672244 0.045358 0.000608 -172224.000000 0 0 1
22.707975 24.841697 -2.440021 33.744862 0.830242 1.643167 0.037223 0.002331 -359587.000000 0 0 1
21.802575 25.945497 -2.137821 33.957199 0.871948 1.633794 0.057151 -0.004795 1663540.000000 0 0 1
20.696175 25.644397 -1.249221 32.977679 0.891775 1.608686 0.072687 -0.003473 1110170.000000 0 0 1
19.737375 24.441797 -1.568221 31.455123 0.891483 1.620673 0.089540 -0.017235 -676416.000000 0 0 1
19.066975 24.688397 -2.793921 31.318884 0.913172 1.660124 0.071928 -0.018494 155609.000000 0 0 1
18.451875 23.510797 -3.308021 30.069457 0.905377 1.681032 0.072916 -0.022449 -69281.100000 0 0 1
18.156775 23.894997 -4.770721 30.387483 0.921017 1.728445 0.070463 -0.022702 -455365.000000 0 0 1
17.333075 22.977197 -5.399921 29.283890 0.924511 1.756257 0.068414 -0.021605 -292024.000000 0 0 1
16.949975 23.510197 -6.636721 29.733434 0.946140 1.795900 0.073476 -0.023635 19815.900000 0 0 1
15.963175 22.582697 -7.352921 28.615845 0.955470 1.830664 0.098365 -0.028268 -372285.000000 0 0 1
16.580375 21.334997 -7.613821 28.072428 0.910148 1.845457 0.086892 -0.019803 457916.000000 0 0 1
15.838675 20.523697 -8.530921 27.292167 0.913535 1.888702 0.118578 -0.017790 -88983.700000 0 0 1
16.526075 19.121197 -8.690021 26.725415 0.858070 1.901977 0.117857 -0.019366 92427.100000 0 0 1
17.780975 19.209197 -9.318721 27.784796 0.823990 1.912815 0.110972 -0.023861 48815.200000 0 0 1
18.154575 17.928897 -9.912421 27.373163 0.779144 1.941340 0.108222 -0.024150 -55259.300000 0 0 1
19.627675 18.027797 -10.350721 28.589937 0.742936 1.941253 0.089152 -0.021034 -265853.000000 0 0 1
19.829875 18.602997 -11.643921 29.578309 0.753486 1.975411 0.088148 -0.024512 644221.000000 0 0 1
21.231675 18.702697 -11.913021 30.700081 0.722154 1.969306 0.090405 -0.017324 604770.000000 0 0 1
21.496075 19.244997 -13.337221 31.785730 0.730201 2.003798 0.079925 -0.022402 -44572.400000 0 0 1
21.365075 18.165697 -14.229221 31.447253 0.704640 2.040340 0.078137 -0.016654 179207.000000 0 0 1
21.450275 18.625297 -15.540921 32.381109 0.715023 2.071380 0.071405 -0.023701 -2461.560000 0 0 1
21.740175 17.466197 -16.535821 32.421237 0.676815 2.106017 0.064060 -0.015221 590359.000000 0 0 1
23.003875 16.785597 -16.457021 32.890243 0.630373 2.094813 0.085512 -0.019318 570298.000000 0 0 1
23.047375 15.705097 -17.357321 32.849782 0.598152 2.127493 0.089667 -0.019433 -428043.000000 0 0 1
23.824675 15.998597 -18.638321 34.219253 0.591351 2.146796 0.086583 -0.018421 -599460.000000 0 0 1
25.205175 16.044397 -18.343621 35.060119 0.566863 2.121403 0.102309 -0.017921 -40430.800000 0 0 1
25.904175 16.255897 -19.561521 36.303355 0.560424 2.139850 0.117226 -0.018040 773014.000000 0 0 1
27.427575 16.574297 -19.335521 37.427818 0.543570 2.113681 0.107819 -0.021448 838047.000000 0 0 1
27.626575 17.861997 -18.785921 37.883894 0.573947 2.089646 0.098024 -0.024420 -461598.000000 0 0 1
28.974575 17.987797 -18.432621 38.766588 0.555583 2.066302 0.092909 -0.030184 -454249.000000 0 0 1
29.215475 19.093397 -17.357721 38.979383 0.578858 2.032311 0.091163 -0.029502 -31120.100000 0 0 1
28.676575 18.865897 -16.089721 37.909724 0.581899 2.009120 0.086734 -0.033450 1236090.000000 0 0 1
27.258975 19.227797 -16.037321 37.012911 0.614324 2.018936 0.082187 -0.023640 1350620.000000 0 0 1
26.622575 18.776897 -14.701021 35.741480 0.614274 1.994693 0.084263 -0.012701 -246208.000000 0 0 1
27.021275 19.391397 -13.515021 35.900298 0.622463 1.956768 0.077116 -0.022777 135181.000000 0 0 1
26.178475 19.018497 -12.429521 34.662787 0.628287 1.937547 0.072632 -0.024777 88170.700000 0 0 1
26.519575 19.764897 -11.108421 34.890343 0.640483 1.894817 0.070174 -0.020041 -475158.000000 0 0 1
26.046975 21.073697 -11.144421 35.309258 0.680244 1.891910 0.068854 -0.017696 15414.500000 0 0 1
26.331975 21.815897 -9.991021 35.624806 0.691876 1.855061 0.060308 -0.012618 452436.000000 0 0 1
25.339675 21.536897 -8.791221 34.398003 0.704452 1.829237 0.071497 -0.011848 -315836.000000 0 0 1
25.572675 20.259497 -8.183621 33.636001 0.669987 1.816562 0.095495 -0.022986 205184.000000 0 0 1
24.761175 19.949197 -7.075021 32.575177 0.678185 1.789732 0.090535 -0.020912 -394557.000000 0 0 1
23.283275 19.622297 -7.297021 31.311211 0.700278 1.806007 0.075098 -0.023953 -638029.000000 0 0 1
22.541375 20.725897 -7.730821 31.582305 0.743463 1.818093 0.060870 -0.013512 311210.000000 0 0 1
21.236475 20.308997 -8.178021 30.501201 0.763077 1.842239 0.067211 -0.014438 828008.000000 0 0 1
20.245875 21.515597 -8.239621 30.670959 0.815793 1.842783 0.049862 -0.018670 -127762.000000 0 0 1
20.699975 22.668197 -8.968021 31.980643 0.830751 1.855028 0.050501 -0.016902 60630.800000 0 0 1
20.536175 22.618297 -10.372621 32.263185 0.833609 1.898110 0.067154 -0.008954 30559.100000 0 0 1
19.096275 22.898697 -10.874121 31.737431 0.875697 1.920509 0.067101 -0.023251 25735.400000 0 0 1
18.672175 24.164297 -10.431421 32.270388 0.912914 1.899959 0.056087 -0.030546 317840.000000 0 0 1
17.316375 24.403297 -10.801321 31.812675 0.953662 1.917212 0.074270 -0.030430 494836.000000 0 0 1
16.765175 25.602597 -10.032621 32.205862 0.991038 1.887584 0.070579 -0.027102 -66130.500000 0 0 1
17.411675 26.736597 -10.556621 33.607355 0.993557 1.890322 0.093580 -0.017215 201694.000000 0 0 1
17.243375 27.776997 -9.690221 34.099794 1.015238 1.858939 0.096335 -0.034256 -56851.900000 0 0 1
21.256075 29.033697 33.910552 49.443926 0.938839 0.815041 0.052205 -0.012978 412468.000000 0 0 1
19.905275 29.102997 33.466170 48.612642 0.970917 0.811481 0.077819 -0.016842 96550.200000 0 0 1
19.325775 27.814697 33.322377 47.513406 0.963566 0.793541 0.063939 -0.012967 453278.000000 0 0 1
17.770275 27.916697 33.368690 46.995682 1.003937 0.781245 0.094169 -0.023693 627463.000000 0 0 1
17.156675 28.626397 32.292527 46.439524 1.030869 0.801865 0.082685 -0.026068 -158180.000000 0 0 1
15.781875 28.819897 32.492970 46.210899 1.069795 0.790985 0.133639 -0.040038 218976.000000 0 0 1
14.831775 28.997397 31.271742 45.152547 1.098002 0.805737 0.120499 -0.036128 238155.000000 0 0 1
14.457475 27.846497 30.590182 43.820147 1.091919 0.798077 0.113907 -0.038167 -709796.000000 0 0 1
13.112975 27.901397 30.234482 43.180574 1.131455 0.795137 0.125854 -0.026589 -763003.000000 0 0 1
12.620475 26.453897 30.199462 42.084351 1.125657 0.770455 0.118704 -0.034156 -335288.000000 0 0 1
12.751275 25.733397 28.985172 40.803713 1.110743 0.780792 0.107716 -0.032133 47667.000000 0 0 1
14.007875 25.163297 28.705012 40.661896 1.062840 0.787042 0.083446 -0.027336 -200641.000000 0 0 1
14.063875 24.371397 27.317612 39.217464 1.047412 0.800194 0.076190 -0.024779 -379306.000000 0 0 1
13.649975 25.266997 26.299652 38.941169 1.075485 0.829332 0.070798 -0.024093 370735.000000 0 0 1
13.303875 24.676597 25.068722 37.608089 1.076337 0.841188 0.077623 -0.027694 525812.000000 0 0 1
12.008375 23.796497 24.947952 36.508556 1.103453 0.818461 0.086897 -0.021853 181180.000000 0 0 1
12.035975 23.198297 23.659352 35.253236 1.092198 0.835070 0.104731 -0.027971 -29248.400000 0 0 1
10.910075 22.381497 23.447792 34.201756 1.117231 0.815406 0.104985 -0.027221 -81245.900000 0 0 1
10.816575 21.789697 22.027962 32.817988 1.110027 0.834948 0.108111 -0.030527 -180169.000000 0 0 1
10.541575 22.860097 21.206662 32.915519 1.138722 0.870721 0.112201 -0.032404 -4033.070000 0 0 1
10.394675 22.369997 19.872162 31.675998 1.135810 0.892642 0.120721 -0.033234 -256748.000000 0 0 1
10.133875 23.468397 18.797162 31.730024 1.163172 0.936750 0.088687 -0.038126 -221132.000000 0 0 1
8.824375 23.985697 18.776962 31.713681 1.218263 0.937162 0.086831 -0.036359 -249500.000000 0 0 1
8.574775 25.110397 19.616462 32.997945 1.241729 0.934183 0.087258 -0.039641 389973.000000 0 0 1
7.133275 25.705997 19.516162 33.053933 1.300112 0.939200 0.090921 -0.035443 308674.000000 0 0 1
7.021575 26.583597 18.376362 33.070846 1.312562 0.981632 0.085663 -0.040673 80188.600000 0 0 1
5.699675 27.003297 18.091462 32.999475 1.362776 0.990544 0.074408 -0.042826 -219146.000000 0 0 1
5.618575 28.105397 17.002362 33.325096 1.373486 1.035383 0.084965 -0.042603 373574.000000 0 0 1
6.257475 27.695597 15.750362 32.469617 1.348590 1.064342 0.077448 -0.038467 672869.000000 0 0 1
7.489475 28.407397 15.558762 33.243759 1.313017 1.083747 0.070972 -0.031844 713337.000000 0 0 1
8.251875 27.962597 14.252362 32.451966 1.283837 1.116107 0.059605 -0.030986 -342413.000000 0 0 1
7.476475 28.069697 13.123162 31.875115 1.310486 1.146472 0.055935 -0.030503 -738552.000000 0 0 1
6.881875 26.868397 12.751062 30.526391 1.320054 1.139877 0.043144 -0.040015 -159008.000000 0 0 1
5.873775 27.065397 11.581362 30.019409 1.357089 1.174726 0.039209 -0.036585 -669599.000000 0 0 1
6.364375 27.357097 10.285762 29.911752 1.342221 1.219761 0.033138 -0.027866 -85558.500000 0 0 1
6.570975 28.787897 10.234362 31.251606 1.346386 1.237158 0.034966 -0.022658 -66532.900000 0 0 1
6.928975 29.361497 8.828162 31.433178 1.339048 1.286112 0.021970 -0.004550 542372.000000 0 0 1
5.822775 29.410797 7.901862 31.005469 1.375343 1.313100 0.016805 -0.011602 387806.000000 0 0 1
5.638175 28.282197 7.151962 29.712325 1.374022 1.327702 0.008395 -0.003961 79237.000000 0 0 1
4.150575 28.066297 6.797862 29.174565 1.423976 1.335628 0.023647 -0.005405 180767.000000 0 0 1
3.558875 29.039697 5.973662 29.860580 1.448852 1.369386 0.039887 -0.008037 -108224.000000 0 0 1
2.156675 28.974697 5.831262 29.634236 1.496500 1.372729 0.033015 -0.009800 330735.000000 0 0 1
1.529175 30.141097 5.013462 30.593446 1.520106 1.406180 0.054547 -0.021286 -52067.900000 0 0 1
2.054875 30.168897 3.676162 30.461435 1.502789 1.449819 0.052566 -0.017684 434131.000000 0 0 1
1.052975 30.570397 2.748462 30.711756 1.536366 1.481184 0.069384 -0.026707 248606.000000 0 0 1
0.109475 29.489697 2.253062 29.575843 1.567084 1.494543 0.092200 -0.027669 -268103.000000 0 0 1
0.687975 28.573397 1.334062 28.612795 1.546724 1.524155 0.094577 -0.029675 -151173.000000 0 0 1
-0.216725 27.631797 0.762862 27.643175 -1.562953 1.543196 0.095956 -0.032418 113074.000000 0 0 1
-0.794925 28.070597 -0.605938 28.088387 -1.542485 1.592371 0.106520 -0.034205 168155.000000 0 0 1
-1.713825 29.147297 -0.530838 29.202464 -1.512065 1.588975 0.113058 -0.037330 -152845.000000 0 0 1
-1.502425 30.042797 -1.536938 30.119580 -1.520828 1.621846 0.109136 -0.034798 -480301.000000 0 0 1
-2.759525 30.851197 -1.919938 31.033812 -1.481587 1.632702 0.138639 -0.027050 44274.800000 0 0 1
-3.893425 30.196897 -2.445238 30.544894 -1.442569 1.650936 0.090788 -0.027838 267039.000000 0 0 1
-3.620325 29.448797 -3.628838 29.891585 -1.448474 1.692496 0.085934 -0.029727 -1054300.000000 0 0 1
-4.871225 28.887497 -4.332738 29.613999 -1.403740 1.717630 0.070443 -0.018751 216217.000000 0 0 1
-5.639325 29.892297 -5.030538 30.832738 -1.384333 1.734685 0.063984 -0.021991 -125686.000000 0 0 1
-6.729925 29.359897 -5.691038 30.654255 -1.345467 1.757532 0.045417 -0.028894 -474269.000000 0 0 1
-7.371625 30.378797 -6.678738 31.965883 -1.332741 1.781280 0.044920 -0.019687 360246.000000 0 0 1
-8.236825 31.429297 -6.177238 33.072712 -1.314486 1.758677 0.033899 -0.005887 379477.000000 0 0 1
-8.610525 32.262197 -7.229738 34.165181 -1.309983 1.784020 0.036265 -0.015628 -426907.000000 0 0 1
-9.549525 33.332397 -6.689738 35.312812 -1.291776 1.761390 0.039117 -0.008120 488069.000000 0 0 1
-10.868025 32.825797 -6.430038 35.170901 -1.251073 1.754653 0.047854 -0.006997 511172.000000 0 0 1
-11.682625 33.795697 -5.773338 36.221048 -1.237972 1.730871 0.050617 -0.007960 -668880.000000 0 0 1
-13.166125 33.581297 -5.867338 36.544165 -1.197147 1.732049 0.087883 -0.013599 -847265.000000 0 0 1
-13.710725 33.633797 -7.170838 37.022118 -1.183715 1.765719 0.095509 -0.015721 -70896.900000 0 0 1
-15.088825 33.320597 -7.132338 37.266675 -1.145585 1.763371 0.129598 -0.024010 -570192.000000 0 0 1
-15.656625 33.212497 -8.554238 37.701125 -1.130283 1.799686 0.166803 -0.029964 573325.000000 0 0 1
-17.027625 32.840797 -8.649938 37.990517 -1.092466 1.800498 0.200408 -0.028204 1189450.000000 0 0 1
-18.018725 33.847497 -8.338738 39.241076 -1.081605 1.784929 0.191848 -0.023539 -73889.100000 0 0 1
-19.477425 33.383197 -8.522038 39.578189 -1.042635 1.787817 0.185704 -0.024705 49545.400000 0 0 1
-20.146025 32.649897 -7.523738 39.095840 -1.017947 1.764448 0.169680 -0.030422 232842.000000 0 0 1
-20.484525 33.370597 -6.313638 39.662004 -1.020256 1.730662 0.153714 -0.036844 -517999.000000 0 0 1
-21.262125 32.585197 -5.296438 39.267356 -0.992660 1.706090 0.153076 -0.031473 -802884.000000 0 0 1
-21.330825 33.184097 -4.044338 39.655328 -0.999497 1.672961 0.153039 -0.038427 253873.000000 0 0 1
-22.458025 32.851897 -3.241038 39.926362 -0.971152 1.652061 0.141359 -0.031178 -29705.500000 0 0 1
-23.682625 33.713697 -3.548238 41.352994 -0.958419 1.656706 0.146482 -0.034822 -660056.000000 0 0 1
-24.272525 33.646397 -4.819238 41.766740 -0.945852 1.686438 0.148982 -0.042983 -132558.000000 0 0 1
-25.231865 -33.436710 -5.098038 42.197755 0.924348 1.691905 0.147222 -0.047848 -102396.000000 0 0 1
-25.710905 -33.307110 -6.545938 42.582432 0.913404 1.725132 0.184684 -0.027679 -299688.000000 0 0 1
-24.831225 -32.507110 -7.263638 41.545906 0.918477 1.746534 0.205958 -0.015642 -203652.000000 0 0 1
-25.022125 -32.608610 -8.672538 42.007631 0.916285 1.778743 0.157463 -0.010501 270119.000000 0 0 1
-26.236655 -31.810210 -9.249938 42.258879 0.881123 1.791470 0.122890 0.001888 -1137170.000000 0 0 1
-27.463305 -32.438710 -8.956738 43.436461 0.868267 1.778490 0.134425 -0.001133 162332.000000 0 0 1
-28.561435 -31.974710 -9.757838 43.969910 0.841723 1.794580 0.058555 0.004346 782901.000000 0 0 1
-28.921075 -30.437910 -9.732738 43.100129 0.810946 1.798578 0.033373 0.013150 -1044040.000000 0 0 1
-27.823915 -29.695810 -10.211938 41.955870 0.817930 1.816663 0.056132 0.025184 -351876.000000 0 0 1
-28.104855 -29.236810 -11.527638 42.161124 0.805136 1.847742 0.051417 0.014227 -139546.000000 0 0 1
-26.987945 -28.428810 -12.197638 41.052756 0.811393 1.872472 0.092309 0.012108 79140.200000 0 0 1
-25.726425 -29.077810 -12.233938 40.706722 0.846474 1.876054 0.102444 0.003573 520508.000000 0 0 1
-24.847025 -28.364210 -13.149938 39.935246 0.851401 1.906339 0.092032 -0.001517 1315790.000000 0 0 1
-23.484225 -29.139610 -13.390238 39.748259 0.892455 1.914393 0.114797 -0.016063 733243.000000 0 0 1
-23.570125 -30.392410 -14.112738 40.968509 0.911157 1.922479 0.126529 -0.021679 359673.000000 0 0 1
-24.360425 -31.478710 -13.527838 42.039765 0.912193 1.898412 0.117043 -0.019191 381980.000000 0 0 1
-24.291125 -32.779310 -14.303038 43.233306 0.933048 1.907983 0.124982 -0.022335 -140726.000000 0 0 1
-24.986725 -33.782610 -13.620838 44.171579 0.933963 1.884267 0.113252 -0.026400 -182525.000000 0 0 1
-24.831725 33.011697 -14.256138 43.699247 -0.925882 1.903112 0.110229 -0.027529 44564.300000 0 0 1
-25.331895 31.772097 -13.437038 42.798657 -0.897704 1.890157 0.101586 -0.033832 -250632.000000 0 0 1
-24.526325 31.353097 -12.385238 41.688745 -0.906965 1.872438 0.107564 -0.031275 -39970.800000 0 0 1
-24.693125 32.231897 -11.350638 42.160201 -0.917065 1.843386 0.158478 -0.029742 69616.600000 0 0 1
-23.901725 31.935197 -10.060938 41.138446 -0.928291 1.817865 0.169265 -0.032269 143434.000000 0 0 1
-24.515625 30.913697 -9.311938 40.538682 -0.900317 1.802571 0.152886 -0.039076 73499.100000 0 0 1
-23.711325 30.595097 -8.212638 39.569361 -0.911484 1.779867 0.142765 -0.037936 31101.900000 0 0 1
-24.265025 29.464597 -7.268638 38.855978 -0.881871 1.758971 0.125768 -0.035329 58366.300000 0 0 1
-24.364525 28.296797 -8.058238 38.200445 -0.859931 1.783339 0.116291 -0.019219 -159663.000000 0 0 1
-24.688625 27.109997 -7.360338 37.398592 -0.832110 1.768897 0.094641 -0.021678 155583.000000 0 0 1
-23.628025 26.398797 -6.423138 36.006065 -0.840727 1.750147 0.108156 -0.021180 135826.000000 0 0 1
-23.466525 27.074897 -5.180138 36.201681 -0.856672 1.714380 0.110953 -0.026781 154424.000000 0 0 1
-22.591825 26.325597 -4.347638 34.961830 -0.861579 1.695473 0.102252 -0.028736 306282.000000 0 0 1
-21.139425 26.887997 -4.314638 34.473987 -0.904525 1.696282 0.098180 -0.037697 377253.000000 0 0 1
-20.433125 26.646097 -5.558938 34.035700 -0.916608 1.734858 0.108760 -0.037759 -663751.000000 0 0 1
-19.195525 27.252997 -5.502838 33.785726 -0.957160 1.734400 0.118301 -0.032846 -985215.000000 0 0 1
-18.366525 27.156297 -6.780038 33.477793 -0.976136 1.774730 0.140823 -0.038768 -510797.000000 0 0 1
-18.733725 27.815197 -7.964138 34.468321 -0.978073 1.803960 0.150611 -0.040210 24307.400000 0 0 1
-18.556325 29.232597 -7.963438 35.528837 -1.005194 1.796857 0.152268 -0.037749 -84719.800000 0 0 1
-18.655825 29.837897 -9.329038 36.405643 -1.012025 1.829940 0.144825 -0.031226 108449.000000 0 0 1
-17.381625 29.967197 -9.939338 36.040869 -1.045196 1.850197 0.142813 -0.039195 316224.000000 0 0 1
-17.382125 30.794497 -11.093338 37.060781 -1.056923 1.874785 0.139137 -0.035137 -1131470.000000 0 0 1
-16.008625 30.932197 -11.691338 36.739138 -1.093216 1.894654 0.128692 -0.038459 -768577.000000 0 0 1
-15.827325 31.749597 -12.828438 37.724129 -1.108346 1.917776 0.126121 -0.040925 -196638.000000 0 0 1
-16.169425 31.092997 -14.015838 37.744781 -1.091250 1.951239 0.116114 -0.047631 -207985.000000 0 0 1
-15.773325 31.716197 -15.333438 38.598306 -1.109289 1.979322 0.144461 -0.056149 -593420.000000 0 0 1
-14.388125 31.760997 -15.492838 38.155040 -1.145440 1.988923 0.141065 -0.054140 -690592.000000 0 0 1
-13.997225 32.208497 -16.747438 38.907406 -1.160838 2.015780 0.127329 -0.063036 -1002430.000000 0 0 1
-12.531225 31.994997 -17.029038 38.349701 -1.197498 2.030906 0.151603 -0.066758 -1249120.000000 0 0 1
-12.184625 30.646097 -17.234338 37.211164 -1.192368 2.052342 0.154933 -0.077026 1211970.000000 0 0 1
-10.804525 30.442797 -17.652238 36.811726 -1.229752 2.070913 0.144640 -0.072257 1478820.000000 0 0 1
-10.572225 30.797597 -19.151238 37.776101 -1.240120 2.102459 0.163011 -0.076021 -278067.000000 0 0 1
-11.278725 29.835797 -19.942338 37.617566 -1.209375 2.129555 0.141333 -0.079756 265944.000000 0 0 1
-10.962925 29.870797 -21.313938 38.297966 -1.219048 2.160999 0.136947 -0.082709 -454256.000000 0 0 1
-12.154825 29.482897 -22.233938 38.875815 -1.179760 2.179643 0.122974 -0.066346 236328.000000 0 0 1
-13.139325 30.467897 -22.423438 40.046787 -1.163643 2.165099 0.116787 -0.060249 -254676.000000 0 0 1
-14.161525 30.414997 -21.467338 39.830484 -1.135037 2.140007 0.111207 -0.060273 -1006720.000000 0 0 1
-15.022125 31.652597 -21.462138 41.087401 -1.127679 2.120405 0.130090 -0.054578 -102826.000000 0 0 1
-15.665525 31.841697 -22.752938 42.154460 -1.113584 2.140938 0.108597 -0.041513 229301.000000 0 0 1
-16.471125 33.018997 -22.763938 43.356072 -1.108079 2.123566 0.110727 -0.045845 279259.000000 0 0 1
-16.899125 33.358797 -24.181238 44.532258 -1.101893 2.144808 0.106455 -0.032982 406572.000000 0 0 1
-15.779625 33.625697 -25.025338 44.787851 -1.132031 2.163678 0.120851 -0.025735 478282.000000 0 0 1
-16.190125 33.624197 -26.415938 45.722079 -1.122056 2.186766 0.125053 -0.027735 492199.000000 0 0 1
-16.842325 -33.163110 -27.083438 46.010524 1.100878 2.200166 0.113187 -0.025411 709472.000000 0 0 1
-18.115125 -32.807010 -26.546338 45.925654 1.066287 2.187107 0.123807 -0.020673 341106.000000 0 0 1
-18.767925 -31.773610 -27.266038 45.882830 1.037261 2.207134 0.107553 -0.017106 -251140.000000 0 0 1
-20.148025 -31.469710 -26.687238 45.918343 1.001316 2.190985 0.088407 -0.026552 -602102.000000 0 0 1
-21.087525 -32.424610 -27.031438 47.188321 0.994171 2.180765 0.080708 -0.016159 -387976.000000 0 0 1
-22.435125 -32.005410 -26.795238 47.388457 0.959414 2.171761 0.066685 -0.023155 882734.000000 0 0 1
-23.439025 -33.135510 -27.076738 48.790364 0.955142 2.159112 0.050311 0.000869 -244631.000000 0 0 1
-23.357125 -33.997810 -25.940738 48.727079 0.968836 2.132192 0.057498 0.000606 -705678.000000 0 0 1
-24.326725 33.026497 -25.872938 48.496886 -0.935938 2.133526 0.034253 0.010859 41317.700000 0 0 1
-24.089225 31.705797 -26.636538 47.906716 -0.921069 2.160372 0.031962 0.006389 409898.000000 0 0 1
-23.095325 30.846897 -26.072838 46.526530 -0.928122 2.165649 0.030370 -0.011671 301033.000000 0 0 1
-23.688825 29.838697 -25.222338 45.691078 -0.899788 2.155580 0.031506 -0.006433 177162.000000 0 0 1
32.297386 10.104097 -25.939501 42.638851 0.303200 2.224781 0.051624 -0.000926 9560.780000 0 0 1
32.023286 8.749897 -25.990671 42.161197 0.266725 2.235035 0.049191 -0.001725 -790840.000000 0 0 1
30.645226 8.588397 -25.951491 41.065440 0.273243 2.254869 0.060121 -0.007440 -641832.000000 0 0 1
30.311776 7.102697 -25.801391 40.434686 0.230169 2.262825 0.060435 -0.007836 -189142.000000 0 0 1
30.548256 6.579097 -24.505421 39.711411 0.212127 2.235833 0.046526 -0.000255 297039.000000 0 0 1
29.790176 5.404497 -24.189121 38.752764 0.179467 2.244892 0.050791 -0.007992 342717.000000 0 0 1
29.551016 5.135897 -22.654621 37.588188 0.172079 2.217684 0.050550 -0.012401 -212221.000000 0 0 1
30.699716 4.610297 -22.053521 38.079984 0.149060 2.188466 0.073514 -0.014508 -132676.000000 0 0 1
30.746546 4.606697 -20.648921 37.322241 0.148722 2.157070 0.048861 -0.012567 -977595.000000 0 0 1
32.146136 4.362297 -20.144321 38.186351 0.134878 2.126483 0.053871 -0.007282 -763525.000000 0 0 1
32.634536 3.013897 -20.214221 38.505990 0.092092 2.123468 0.069356 -0.009482 579827.000000 0 0 1
33.657866 2.723597 -19.259521 38.874144 0.080744 2.089129 0.095117 -0.019518 184928.000000 0 0 1
33.984756 1.214997 -19.179421 39.042157 0.035736 2.084319 0.100526 -0.014541 686793.000000 0 0 1
32.918886 0.409097 -18.596221 37.810579 0.012427 2.084982 0.085926 -0.019099 786714.000000 0 0 1
33.200416 -0.997803 -18.679121 38.107385 -0.030045 2.083082 0.089832 -0.012962 -645405.000000 0 0 1
32.141996 -1.868203 -18.094021 36.932258 -0.058058 2.082800 0.092728 -0.015990 -585543.000000 0 0 1
32.158096 -1.781803 -16.669521 36.265561 -0.055351 2.048399 0.094050 -0.017613 -532457.000000 0 0 1
30.870436 -1.608103 -16.175721 34.888734 -0.052045 2.052892 0.083502 -0.022198 -680885.000000 0 0 1
30.697606 -1.940703 -14.648321 34.068793 -0.063136 2.015248 0.099194 -0.027104 -226223.000000 0 0 1
30.477366 -3.316403 -14.499521 33.913190 -0.108389 2.012575 0.085606 -0.022338 776034.000000 0 0 1
29.527926 -3.560503 -13.440221 32.637634 -0.120002 1.995226 0.086069 -0.026660 294776.000000 0 0 1
29.301076 -5.047603 -13.071521 32.479163 -0.170592 1.984997 0.091145 -0.024634 153215.000000 0 0 1
28.625876 -5.783503 -14.116121 32.436932 -0.199354 2.021042 0.076328 -0.025124 695662.000000 0 0 1
28.324476 -7.120903 -13.698421 32.258796 -0.246300 2.009362 0.075814 -0.025734 -204030.000000 0 0 1
27.872176 -8.093403 -14.832621 32.593987 -0.282604 2.043250 0.056442 -0.014888 -141202.000000 0 0 1
26.649576 -7.776803 -15.451721 31.771595 -0.283933 2.078690 0.065465 -0.021545 -176555.000000 0 0 1
26.165176 -8.767203 -16.289021 32.043915 -0.323314 2.104046 0.049021 -0.015731 -172312.000000 0 0 1
24.729476 -8.388303 -16.727721 31.011728 -0.327024 2.140521 0.035639 -0.015639 -115846.000000 0 0 1
24.663276 -7.205303 -17.508721 31.092586 -0.284237 2.168948 0.029585 -0.015104 -343889.000000 0 0 1
23.387876 -6.928403 -18.016421 30.324692 -0.288003 2.206964 0.072957 -0.025677 -267396.000000 0 0 1
23.202976 -7.440703 -19.486221 31.200240 -0.310319 2.245356 0.036949 -0.021261 -316323.000000 0 0 1
23.779376 -6.707103 -20.529721 32.123409 -0.274914 2.264110 0.035304 -0.024927 165575.000000 0 0 1
23.419076 -7.162303 -21.791321 32.781296 -0.296799 2.297954 0.057797 -0.031164 -523119.000000 0 0 1
24.045676 -6.275203 -22.841521 33.753634 -0.255277 2.314085 0.057330 -0.031141 -383167.000000 0 0 1
24.035676 -6.714603 -24.138221 34.719639 -0.272415 2.339540 0.068907 -0.035761 47841.200000 0 0 1
24.210876 -5.581203 -24.966221 35.222557 -0.226567 2.358611 0.058296 -0.028931 -345800.000000 0 0 1
24.111276 -5.832903 -26.474221 36.280308 -0.237356 2.388699 0.070758 -0.034328 -182002.000000 0 0 1
22.951676 -6.530703 -26.884531 35.947288 -0.277215 2.415671 0.086455 -0.031663 -143134.000000 0 0 1
22.673976 -6.471003 -28.248641 36.796315 -0.278003 2.446045 0.076150 -0.032684 -136435.000000 0 0 1
21.406776 -7.240403 -28.610411 36.458595 -0.326151 2.473068 0.084518 -0.033633 -289362.000000 0 0 1
21.538076 -8.626403 -28.420981 36.688632 -0.380953 2.456963 0.072546 -0.024978 -993660.000000 0 0 1
20.345776 -9.255703 -28.194191 35.979592 -0.426938 2.471262 0.089344 -0.040003 -1054160.000000 0 0 1
20.500476 -10.723803 -27.715961 36.103240 -0.481957 2.446019 0.102312 -0.045813 -473232.000000 0 0 1
19.325176 -11.171903 -27.085581 35.098469 -0.524162 2.452310 0.108246 -0.041366 72590.500000 0 0 1
19.245576 -12.532003 -26.764591 35.267359 -0.577192 2.432427 0.113788 -0.038601 -354318.000000 0 0 1
19.196576 -13.562203 -27.926341 36.500992 -0.615069 2.441969 0.102048 -0.034564 1195970.000000 0 0 1
17.907376 -13.626403 -28.611891 36.400457 -0.650465 2.475159 0.110932 -0.035426 1522290.000000 0 0 1
18.017076 -14.631003 -29.608441 37.621019 -0.682053 2.476758 0.087848 -0.033703 756115.000000 0 0 1
16.704076 -14.920103 -30.448031 37.798389 -0.729046 2.507379 0.088448 -0.035216 558714.000000 0 0 1
15.641376 -15.516303 -29.766911 37.033462 -0.781384 2.504425 0.090935 -0.038694 -881045.000000 0 0 1
14.535576 -15.592803 -30.573741 37.271599 -0.820475 2.532725 0.087077 -0.045725 -831939.000000 0 0 1
13.331476 -16.251903 -29.864041 36.520043 -0.883798 2.528277 0.097661 -0.048308 -84978.700000 0 0 1
13.410876 -17.692403 -29.693701 37.075445 -0.922194 2.499592 0.092380 -0.042407 -26753.800000 0 0 1
12.594576 -18.195003 -28.633391 36.187740 -0.965325 2.483640 0.096899 -0.041963 -47690.200000 0 0 1
13.045176 -19.543703 -28.017961 36.566912 -0.982226 2.443720 0.088455 -0.041594 -475893.000000 0 0 1
14.230276 -19.378003 -27.306191 36.381806 -0.937385 2.419683 0.080783 -0.032007 -524196.000000 0 0 1
14.469876 -20.437603 -26.420571 36.402191 -0.954720 2.382987 0.061957 -0.026750 109741.000000 0 0 1
15.521476 -20.203903 -25.295961 35.902640 -0.915723 2.352615 0.053966 -0.019777 1030850.000000 0 0 1
16.898576 -20.384903 -25.683551 36.888358 -0.878636 2.340957 0.056916 -0.021104 704091.000000 0 0 1
17.712676 -20.210803 -24.567021 36.410905 -0.851176 2.311376 0.062260 -0.023612 664350.000000 0 0 1
19.242176 -20.574403 -24.766421 37.509239 -0.818845 2.291981 0.024041 -0.013793 1023740.000000 0 0 1
19.617776 -21.949303 -24.886221 38.548061 -0.841430 2.272591 0.035446 -0.015866 241048.000000 0 0 1
19.106276 -22.795803 -23.862421 38.132841 -0.873223 2.246916 0.035990 -0.016291 -647231.000000 0 0 1
19.636476 -24.230503 -23.866321 39.272252 -0.889744 2.223976 0.039230 -0.020165 -23872.600000 0 0 1
21.021676 -24.333903 -23.563321 39.865772 -0.858297 2.203177 0.058161 -0.019796 285207.000000 0 0 1
21.326776 -25.692433 -23.358621 40.749941 -0.877981 2.181225 0.062017 -0.032024 22304.400000 0 0 1
21.306876 -26.125303 -21.866021 40.182550 -0.886636 2.146192 0.077662 -0.036315 210157.000000 0 0 1
19.964476 -26.183013 -21.402221 39.270670 -0.919345 2.147177 0.055010 -0.028503 419857.000000 0 0 1
20.063576 -26.340483 -20.018421 38.692445 -0.919848 2.114574 0.066948 -0.022971 130120.000000 0 0 1
18.767176 -26.891773 -19.366321 38.084495 -0.961496 2.104249 0.060913 -0.021236 -382890.000000 0 0 1
18.582376 -28.290323 -19.627821 39.126697 -0.989624 2.096299 0.068014 -0.023617 -190040.000000 0 0 1
17.492076 -28.863353 -18.969021 38.715496 -1.025954 2.082840 0.055756 -0.013439 -307999.000000 0 0 1
16.106576 -28.586153 -19.579921 38.209465 -1.057693 2.108816 0.053354 -0.015108 -874460.000000 0 0 1
15.517276 -27.391993 -19.139321 36.843191 -1.055381 2.117039 0.048938 -0.006174 -1648850.000000 0 0 1
14.333876 -27.263183 -19.802221 36.617880 -1.086754 2.142161 0.042649 0.001294 -1525040.000000 0 0 1
13.431676 -26.301783 -19.040721 35.138907 -1.098645 2.143457 0.038444 -0.009653 -865119.000000 0 0 1
12.881376 -26.799913 -17.864821 34.688860 -1.122748 2.111806 0.036550 -0.008644 -448202.000000 0 0 1
11.962176 -25.916403 -17.304921 33.379843 -1.138364 2.115804 0.043958 -0.013167 1055110.000000 0 0 1
10.439076 -26.087423 -17.704421 33.211059 -1.190154 2.133043 0.054976 -0.019183 544998.000000 0 0 1
9.828876 -27.235773 -17.099621 33.627239 -1.224461 2.104244 0.073039 -0.002181 210378.000000 0 0 1
8.415176 -27.071583 -17.033321 33.072947 -1.269416 2.111831 0.082100 -0.000253 706503.000000 0 0 1
7.634276 -27.684463 -18.211321 34.005351 -1.301723 2.135947 0.083423 -0.006978 -297308.000000 0 0 1
7.865176 -26.996873 -19.427621 34.177838 -1.287306 2.175390 0.084449 -0.017752 -93956.400000 0 0 1
7.408276 -27.733143 -20.553421 35.305140 -1.309764 2.192185 0.072838 -0.014592 -257493.000000 0 0 1
7.027276 -26.868373 -21.748121 35.274252 -1.314982 2.235142 0.076072 -0.008995 -832003.000000 0 0 1
5.768776 -26.319933 -21.559921 34.508663 -1.355029 2.245631 0.083870 -0.019292 -603475.000000 0 0 1
5.512676 -25.347563 -22.582221 34.392517 -1.356648 2.287102 0.067197 -0.014445 594061.000000 0 0 1
4.028376 -24.834503 -22.730621 33.906658 -1.409988 2.305528 0.037208 -0.006651 974682.000000 0 0 1
3.228676 -25.886853 -23.259021 34.950473 -1.446714 2.298940 0.035656 -0.004793 307895.000000 0 0 1
1.945076 -25.511153 -23.750921 34.910006 -1.494699 2.319032 0.029728 -0.008761 807215.000000 0 0 1
1.202076 -26.636343 -24.541521 36.238460 -1.525698 2.314778 0.019359 -0.005562 183103.000000 0 0 1
1.864876 -27.038203 -25.708491 37.355973 -1.501933 2.329806 0.019427 -0.004189 278348.000000 0 0 1
0.990776 -27.931973 -26.414611 38.456578 -1.535340 2.327968 0.018706 -0.010862 -156805.000000 0 0 1
1.639976 -28.700733 -27.539621 39.810204 -1.513718 2.334738 0.026738 -0.017840 -1053810.000000 0 0 1
1.806376 -28.024383 -28.777721 40.209281 -1.506428 2.368420 0.035809 -0.016996 155802.000000 0 0 1
2.705876 -28.692453 -29.658581 41.354686 -1.476768 2.370538 0.036949 -0.019027 758410.000000 0 0 1
4.231876 -28.569033 -29.342221 41.171159 -1.423738 2.364120 0.036839 -0.025193 -61228.400000 0 0 1
4.641176 -29.546383 -28.405161 41.247817 -1.414988 2.330417 0.025345 -0.025524 798096.000000 0 0 1
5.770976 -30.367873 -28.844741 42.279202 -1.383000 2.321624 0.027430 -0.021294 970426.000000 0 0 1
6.160476 -31.383153 -27.819631 42.388508 -1.376962 2.286702 0.043595 -0.030523 -268527.000000 0 0 1
5.190476 -32.361993 -27.624211 42.864165 -1.411763 2.271112 0.033994 -0.037590 -263813.000000 0 0 1
5.796476 -33.483943 -26.986881 43.394300 -1.399383 2.241962 0.064352 -0.049154 -381900.000000 0 0 1
4.860876 33.547128 -26.387821 42.957595 1.426901 2.232264 0.071396 -0.048955 -443068.000000 0 0 1
4.189776 32.790340 -27.392901 42.931709 1.443710 2.262769 0.068492 -0.044093 476067.000000 0 0 1
3.036976 32.123473 -26.864721 41.986354 1.476536 2.265092 0.054712 -0.039138 552535.000000 0 0 1
1.761576 32.321806 -27.721281 42.617739 1.516349 2.278991 0.052062 -0.021592 -129996.000000 0 0 1
1.696276 31.454014 -28.817211 42.692669 1.516920 2.311750 0.063243 -0.022732 -423177.000000 0 0 1
0.869576 32.039919 -29.748101 43.729419 1.543663 2.318936 0.065777 -0.030900 -382719.000000 0 0 1
0.424176 31.083384 -30.896721 43.828804 1.557151 2.353136 0.063078 -0.035094 -307758.000000 0 0 1
1.379376 30.739314 -31.860921 44.293638 1.525953 2.373607 0.065697 -0.033288 -447764.000000 0 0 1
0.854976 29.956924 -32.927311 44.523657 1.542264 2.403193 0.083093 -0.034061 -102231.000000 0 0 1
1.912976 29.462484 33.927902 44.975549 1.505958 0.716113 0.070038 -0.020725 284347.000000 0 0 1
2.495176 30.403774 33.071541 44.992691 1.488912 0.745067 0.071667 -0.021756 -261098.000000 0 0 1
3.394276 29.869064 32.106516 43.983070 1.457643 0.752512 0.067940 -0.026096 -82170.100000 0 0 1
2.909576 28.973194 30.927372 42.478394 1.470709 0.755290 0.063445 -0.019977 -82162.500000 0 0 1
2.468976 27.648284 31.226912 41.780899 1.481733 0.726661 0.070413 -0.024305 31007.300000 0 0 1
3.585876 26.827114 31.549542 41.568331 1.437918 0.709051 0.065363 -0.017532 113977.000000 0 0 1
3.339176 25.346944 31.736172 40.752942 1.439812 0.678133 0.077248 -0.022140 -250090.000000 0 0 1
2.781576 24.738384 30.586432 39.436717 1.458827 0.683159 0.077953 -0.007512 98443.100000 0 0 1
2.886876 23.312204 30.735092 38.683831 1.447588 0.652579 0.084831 -0.008719 42872.000000 0 0 1
2.054076 22.508804 29.697422 37.320268 1.479792 0.650559 0.074093 0.000910 -2560.790000 0 0 1
0.687376 22.489204 30.016842 37.513299 1.540241 0.643225 0.068687 -0.002328 -618290.000000 0 0 1
-0.035824 21.782004 29.046272 36.306238 -1.569152 0.643442 0.086696 -0.001197 520235.000000 0 0 1
-1.484224 21.378004 29.484332 36.449250 -1.501480 0.628493 0.095465 -0.005173 754470.000000 0 0 1
-2.338324 22.536704 29.670102 37.332101 -1.467410 0.652182 0.100449 -0.007420 178678.000000 0 0 1
-3.551424 22.057704 30.213922 37.577068 -1.411160 0.636717 0.082129 -0.010789 -393263.000000 0 0 1
-4.508024 23.189494 30.531202 38.603487 -1.378792 0.658531 0.060614 -0.020652 -353429.000000 0 0 1
-4.388024 23.720974 31.834042 39.941778 -1.387879 0.648466 0.073480 -0.012794 -6807.300000 0 0 1
-5.229924 24.832104 31.978329 40.824001 -1.363219 0.670805 0.061518 -0.018784 130827.000000 0 0 1
-5.229524 25.307414 33.434061 42.256947 -1.367024 0.658013 0.077586 -0.014416 155583.000000 0 0 1
-6.451724 25.952444 33.730093 43.045015 -1.327138 0.670356 0.070123 -0.011398 34758.000000 0 0 1
-6.667624 26.103154 -32.762281 42.416965 -1.320710 2.453386 0.072590 -0.008146 -456539.000000 0 0 1
-8.061824 26.627514 -32.456411 42.748522 -1.276807 2.432942 0.083384 -0.002327 -794670.000000 0 0 1
-8.363824 27.899104 -32.982321 44.001671 -1.279534 2.418208 0.097389 -0.003442 -35864.600000 0 0 1
-9.586324 28.467944 -32.531161 44.278639 -1.245982 2.396009 0.092541 -0.009070 328811.000000 0 0 1
-9.844024 28.796314 -31.045361 43.473520 -1.241400 2.366164 0.085910 -0.003912 -108510.000000 0 0 1
-9.064424 29.893304 -30.559161 43.699379 -1.276383 2.345220 0.098782 -0.005005 324370.000000 0 0 1
-9.355924 30.216484 -29.190301 43.042338 -1.270528 2.316075 0.107733 -0.011794 517808.000000 0 0 1
-8.571524 31.559194 -28.830401 43.596396 -1.305592 2.293350 0.107008 -0.023441 146293.000000 0 0 1
-7.176824 31.466524 -28.749461 43.222453 -1.346554 2.298492 0.092361 -0.028543 -510488.000000 0 0 1
-6.674224 32.757232 -28.361201 43.839927 -1.369799 2.274343 0.104701 -0.024921 1043990.000000 0 0 1
-5.103624 32.544677 -28.221621 43.378138 -1.415244 2.279165 0.107501 -0.032536 1269340.000000 0 0 1
-4.245124 33.662332 -27.941601 43.953461 -1.445350 2.259723 0.099436 -0.037447 288022.000000 0 0 1
-4.092524 -33.469513 -28.968901 44.453957 1.449124 2.280568 0.101476 -0.042702 -794883.000000 0 0 1
-3.120024 -33.816813 -30.093181 45.375224 1.478794 2.295892 0.091936 -0.042222 -668278.000000 0 0 1
-3.509324 33.353082 -31.171141 45.786280 -1.465965 2.319646 0.087997 -0.036902 360728.000000 0 0 1
-4.434324 33.973790 -32.086061 46.940355 -1.441008 2.323411 0.097485 -0.036449 447851.000000 0 0 1
-3.784824 -33.003763 -33.052611 46.862014 1.456617 2.353668 0.078120 -0.041781 -71509.500000 0 0 1
-3.417424 -31.784983 -32.508081 45.593193 1.463691 2.364568 0.085855 -0.044697 172712.000000 0 0 1
-2.415724 -31.157183 -33.283241 45.655010 1.493418 2.387680 0.074943 -0.041747 57177.600000 0 0 1
32.651026 17.532797 12.602962 39.144899 0.492789 1.243001 0.110398 -0.032124 665677.000000 0 0 1
33.976226 17.640597 13.161762 40.482176 0.478893 1.239653 0.104701 -0.048471 836151.000000 0 0 1
34.277286 16.530497 14.008162 40.551428 0.449354 1.218087 0.114869 -0.023310 -1145500.000000 0 0 1
35.694096 16.523197 14.551162 41.938298 0.433539 1.216462 0.120990 -0.046549 193163.000000 0 0 1
36.798906 16.264797 13.656862 42.487798 0.416174 1.243557 0.120426 -0.006039 577287.000000 0 0 1
36.821616 14.953297 13.083862 41.840411 0.385755 1.252753 0.143831 -0.024643 -1716940.000000 0 0 1
-36.203545 14.437297 12.639062 40.974115 -0.379455 1.257218 0.144576 -0.016684 -271964.000000 0 0 1
-35.487251 13.825597 13.711662 40.478412 -0.371503 1.225219 0.121103 -0.017928 -90843.400000 0 0 1
-35.910777 12.477397 13.917462 40.484134 -0.334406 1.219862 0.114331 -0.014996 -388303.000000 0 0 1
-35.030498 11.655097 14.846162 39.791778 -0.321192 1.188452 0.123603 -0.026084 -183740.000000 0 0 1
-35.223446 12.128597 16.197462 40.622061 -0.331617 1.160659 0.127133 -0.025549 245807.000000 0 0 1
-34.563744 11.375497 17.197562 40.246869 -0.317951 1.129290 0.116400 -0.017755 -147721.000000 0 0 1
-34.673015 12.170597 18.535162 41.156939 -0.337575 1.103635 0.121202 -0.022218 -130927.000000 0 0 1
-35.963993 12.210797 19.111462 42.517765 -0.327316 1.104598 0.131440 -0.041364 17186.500000 0 0 1
-36.056954 12.902897 20.341462 43.363162 -0.343649 1.082530 0.141071 -0.043510 119736.000000 0 0 1
36.957656 12.786597 21.051162 44.413026 0.333089 1.076984 0.152084 -0.066870 214461.000000 0 0 1
36.802906 11.522797 21.677362 44.239539 0.303427 1.058707 0.124084 -0.050450 -469956.000000 0 0 1
35.585176 11.384097 22.324262 43.523271 0.309622 1.032205 0.144256 -0.056754 -563623.000000 0 0 1
35.639936 10.221597 23.367302 43.825984 0.279305 1.008437 0.111399 -0.050036 -63481.400000 0 0 1
36.632426 10.222397 24.375702 45.173077 0.272131 1.000826 0.095589 -0.035067 17359.500000 0 0 1
36.210826 11.177997 25.377012 45.608818 0.299412 0.980742 0.095824 -0.029018 -666923.000000 0 0 1
-36.987305 11.659597 26.230382 46.819226 -0.305372 0.976111 0.083760 -0.033500 686754.000000 0 0 1
-35.996757 12.448197 25.571942 45.876447 -0.332941 0.979535 0.105296 -0.043560 306157.000000 0 0 1
-35.149762 11.783797 24.633822 44.510548 -0.323470 0.984310 0.092640 -0.045053 -459458.000000 0 0 1
-33.961895 12.674297 24.138512 43.551302 -0.357184 0.983329 0.098500 -0.046884 821561.000000 0 0 1
-32.941205 13.100497 25.017232 43.389030 -0.378516 0.956260 0.082037 -0.038072 135613.000000 0 0 1
-33.470455 14.021397 25.946292 44.610324 -0.396708 0.950077 0.074527 -0.028195 -1140530.000000 0 0 1
-32.589495 14.350397 27.118052 44.759333 -0.414790 0.919945 0.078803 -0.019557 -511920.000000 0 0 1
-31.725945 15.451797 26.831832 44.331037 -0.453226 0.920703 0.087480 -0.016492 -195634.000000 0 0 1
-31.733225 16.286197 27.969822 45.327130 -0.474169 0.905788 0.101074 -0.022371 -98269.300000 0 0 1
-30.924755 17.552797 27.712592 45.082468 -0.516253 0.908780 0.096273 -0.019239 -150854.000000 0 0 1
-31.588845 18.455597 26.841562 45.375474 -0.528754 0.937825 0.087633 -0.020697 305351.000000 0 0 1
-30.886945 19.700797 26.635412 45.294260 -0.567776 0.942147 0.089872 -0.024459 16038.200000 0 0 1
-31.496065 20.720697 25.650202 45.599148 -0.581896 0.973372 0.097852 -0.017693 -330303.000000 0 0 1
-32.459215 21.624997 26.126582 46.945068 -0.587694 0.980587 0.104922 -0.026402 523843.000000 0 0 1
-33.010945 22.482097 25.132182 47.188916 -0.597894 1.009143 0.113035 -0.024905 -72118.400000 0 0 1
-33.785495 23.706097 25.626682 48.581535 -0.611842 1.015143 0.114165 -0.022189 -353261.000000 0 0 1
-34.667625 24.148297 24.645182 48.911854 -0.608418 1.042724 0.127693 -0.027501 -391014.000000 0 0 1
-35.003048 25.473397 25.002642 49.992394 -0.629107 1.047049 0.114997 -0.022773 -110304.000000 0 0 1
-36.166025 26.019397 24.163622 50.684031 -0.623656 1.073842 0.114798 -0.012813 -99228.800000 0 0 1
-35.858272 26.136097 22.789062 49.882388 -0.629842 1.096339 0.126485 -0.021966 -1199100.000000 0 0 1
-37.011385 26.323097 22.097162 50.507748 -0.618214 1.117979 0.129469 -0.030698 -1030000.000000 0 0 1
-36.945545 26.099497 20.583862 49.697610 -0.615029 1.143752 0.168224 -0.037440 44123.300000 0 0 1
-36.788185 24.743597 20.187562 48.715027 -0.592097 1.143512 0.132335 -0.032348 133247.000000 0 0 1
-36.117505 24.668497 18.941062 47.663117 -0.599230 1.162121 0.138728 -0.034436 72151.700000 0 0 1
-36.270105 23.301497 18.298462 46.832830 -0.571045 1.169384 0.135412 -0.036529 307343.000000 0 0 1
36.965146 23.329197 17.474162 47.074620 0.562983 1.190494 0.109680 -0.033835 -97965.000000 0 0 1
37.061426 22.315297 16.484662 46.295420 0.541974 1.206732 0.109277 -0.037475 -727759.000000 0 0 1
35.834266 22.254797 15.617662 44.980907 0.555752 1.216206 0.079860 -0.026033 -429240.000000 0 0 1
34.795846 21.434597 16.154262 43.944887 0.552109 1.194366 0.083337 -0.038627 -163536.000000 0 0 1
33.848866 21.223797 15.121862 42.718451 0.560048 1.208963 0.069620 -0.030976 -1473520.000000 0 0 1
32.768316 20.305397 15.641262 41.601932 0.554754 1.185348 0.087146 -0.041324 -735232.000000 0 0 1
32.007096 20.799097 16.697262 41.663596 0.576254 1.158446 0.074587 -0.039568 -285975.000000 0 0 1
31.013846 21.715297 16.314062 41.225737 0.610847 1.163939 0.065036 -0.027270 -789447.000000 0 0 1
30.235566 22.254497 17.511462 41.425879 0.634505 1.134354 0.057917 -0.024926 -284903.000000 0 0 1
31.015966 23.093997 18.271662 42.768873 0.640026 1.129382 0.011060 -0.008689 -544205.000000 0 0 1
30.158926 23.752397 19.209162 42.927021 0.667118 1.106846 0.022540 -0.002893 586920.000000 0 0 1
30.807296 24.584297 20.380162 44.371479 0.673522 1.093581 0.002879 -0.013142 -38065.000000 0 0 1
31.486746 25.733397 19.966462 45.302125 0.685187 1.114373 0.018593 -0.011868 -83764.300000 0 0 1
32.302376 26.147897 21.046862 46.584616 0.680490 1.102016 0.023900 -0.014416 200363.000000 0 0 1
33.303036 27.272697 20.581762 47.712694 0.686175 1.124787 0.059177 -0.018262 223138.000000 0 0 1
34.330446 27.633897 21.447762 49.012430 0.677745 1.117870 0.061512 -0.015415 415590.000000 0 0 1
33.778066 28.599097 22.392562 49.601340 0.702561 1.102406 0.025290 -0.001938 -69250.000000 0 0 1
34.779286 28.853797 23.510402 50.939958 0.692546 1.091075 0.016305 -0.009747 324972.000000 0 0 1
35.870516 29.704797 23.114232 51.993621 0.691649 1.110114 0.061874 -0.010268 195266.000000 0 0 1
36.637976 29.901297 24.281392 53.160275 0.684498 1.096449 0.061433 -0.005947 479640.000000 0 0 1
-36.429025 30.722797 24.147122 53.423287 -0.700627 1.101794 0.059275 -0.011606 769047.000000 0 0 1
-35.281448 30.115297 23.592562 52.041529 -0.706565 1.100286 0.072111 -0.014561 -487422.000000 0 0 1
-34.179135 30.940097 23.693962 51.835381 -0.735699 1.096064 0.065596 -0.014509 -655690.000000 0 0 1
-32.824015 30.245997 23.535362 50.459385 -0.744545 1.085555 0.098478 -0.020836 -556729.000000 0 0 1
-32.432555 29.758997 22.291662 49.339505 -0.742436 1.102013 0.092052 -0.015974 201170.000000 0 0 1
-32.915845 28.437597 21.868562 48.686587 -0.712536 1.104960 0.099672 -0.013485 158591.000000 0 0 1
-32.386435 27.318797 22.787562 48.108948 -0.700723 1.077348 0.105951 -0.016853 1267260.000000 0 0 1
-30.962845 27.092597 22.620362 46.950904 -0.718832 1.068103 0.096424 -0.015936 1607230.000000 0 0 1
-30.263285 26.080397 23.390312 46.294279 -0.711295 1.041121 0.093008 -0.014613 428586.000000 0 0 1
-30.061185 26.408397 24.912622 47.135093 -0.720802 1.013921 0.085308 -0.016630 77114.500000 0 0 1
-31.226935 26.204497 25.705872 48.193247 -0.698169 1.008191 0.088310 -0.016567 417598.000000 0 0 1
-30.954175 26.801897 27.011422 49.052213 -0.713628 0.987634 0.094336 -0.022501 166697.000000 0 0 1
-32.258515 27.120397 27.790412 50.482024 -0.699082 0.987832 0.084744 -0.024184 -33459.800000 0 0 1
-32.859605 25.957397 28.221592 50.497509 -0.668582 0.977773 0.080051 -0.025425 -341167.000000 0 0 1
-34.054095 26.260897 28.898812 51.811750 -0.656902 0.979105 0.072701 -0.025849 -354360.000000 0 0 1
-34.691815 25.090297 29.628782 52.066398 -0.626150 0.965437 0.077313 -0.014479 -375871.000000 0 0 1
-34.034305 24.680697 30.767912 52.097362 -0.627420 0.939013 0.087562 -0.020151 -341937.000000 0 0 1
-34.518664 23.403997 31.117072 52.034195 -0.595815 0.929778 0.066965 -0.022814 -235516.000000 0 0 1
-33.518955 22.689197 32.013882 51.606285 -0.595058 0.901609 0.099932 -0.038854 -1156890.000000 0 0 1
-32.313235 22.476597 31.356212 50.324493 -0.607757 0.898121 0.101655 -0.026593 -511637.000000 0 0 1
-31.477355 21.504897 32.014911 49.781915 -0.599352 0.872253 0.096685 -0.030972 696332.000000 0 0 1
-30.610865 22.085397 33.239742 50.295828 -0.625003 0.848799 0.102617 -0.035409 -548271.000000 0 0 1
-31.341125 22.631997 -33.571681 51.200890 -0.625417 2.285886 0.125858 -0.037708 -140514.000000 0 0 1
-30.903825 22.225897 -32.291121 49.917466 -0.623493 2.274296 0.111890 -0.025926 -6869.660000 0 0 1
-29.498745 22.723597 -31.861841 49.007293 -0.656382 2.278571 0.113492 -0.031610 75388.400000 0 0 1
-29.443985 24.120997 -31.593171 49.466142 -0.686349 2.263581 0.099107 -0.027967 -368389.000000 0 0 1
-28.747385 24.356997 -30.420891 48.426295 -0.702911 2.250020 0.105981 -0.013507 -329718.000000 0 0 1
-29.155625 25.577597 -29.548481 48.758350 -0.720119 2.221842 0.076809 -0.003527 -311695.000000 0 0 1
-28.879725 26.884897 -30.033991 49.587063 -0.749641 2.221419 0.073683 -0.004016 178277.000000 0 0 1
-29.823455 27.404797 -30.962801 50.981922 -0.743160 2.223491 0.077019 -0.006260 37762.600000 0 0 1
-29.482215 28.836097 -31.407101 51.837510 -0.774319 2.221663 0.066128 -0.006326 27107.100000 0 0 1
-29.554575 29.874497 -30.453791 51.897898 -0.790781 2.197900 0.054893 -0.005441 108788.000000 0 0 1
-29.161935 31.097797 -31.050761 52.741267 -0.817512 2.200292 0.033875 -0.013243 -168270.000000 0 0 1
-29.444125 32.382497 -30.253831 53.205986 -0.832888 2.175620 0.028009 0.001688 314196.000000 0 0 1
-28.631455 32.507197 -29.069481 52.168121 -0.848706 2.161839 0.016428 0.005542 409423.000000 0 0 1
-29.115105 33.578797 -28.298921 52.688271 -0.856476 2.137793 0.000120 0.005296 -245914.000000 0 0 1
-28.456445 33.681397 -26.896221 51.648935 -0.869287 2.118526 0.009025 0.005769 -318026.000000 0 0 1
-27.191915 -33.782510 -26.898721 51.031357 0.893068 2.125983 0.002740 0.002405 -594234.000000 0 0 1
-27.014405 -32.350010 -26.974901 50.039449 0.875036 2.140132 0.019692 0.004688 -658209.000000 0 0 1
-27.626295 -31.526210 -25.833181 49.238880 0.851233 2.123100 0.024697 -0.001270 -405200.000000 0 0 1
-28.987335 -31.251910 -25.971651 49.914668 0.822973 2.118023 0.011949 -0.003939 -624061.000000 0 0 1
-29.515085 -30.356010 -25.000821 49.169794 0.799443 2.104190 0.019392 -0.005919 -165786.000000 0 0 1
-31.041115 -30.222010 -25.030761 50.034585 0.772029 2.094706 0.016852 -0.006580 -185646.000000 0 0 1
-31.438205 -29.273710 -26.045991 50.236485 0.749761 2.115854 0.017109 -0.013233 -1179370.000000 0 0 1
-32.808315 -29.244610 -26.061101 51.096122 0.728031 2.106028 0.028770 -0.018892 -1605800.000000 0 0 1
-33.462185 -28.434910 -27.154981 51.629981 0.704356 2.124632 0.040735 -0.022525 -924308.000000 0 0 1
-34.845639 -28.506410 -27.136711 52.566482 0.685667 2.113247 0.048352 -0.023674 -789782.000000 0 0 1
-35.414078 -27.783410 -28.221331 53.127378 0.665237 2.130814 0.056787 -0.031503 640935.000000 0 0 1
-36.962425 -27.923810 -28.376511 54.324823 0.646989 2.120400 0.055388 -0.034791 962959.000000 0 0 1
36.666026 -27.386610 -27.294401 53.286097 -0.641527 2.108568 0.054599 -0.027848 -361950.000000 0 0 1
35.300096 -27.472510 -27.570881 52.545114 -0.661341 2.123169 0.050929 -0.031337 -157901.000000 0 0 1
34.264496 -26.997510 -26.516451 51.049421 -0.667328 2.116977 0.059953 -0.027126 177113.000000 0 0 1
34.117696 -27.856010 -25.417161 50.852793 -0.684702 2.094185 0.066127 -0.023166 185506.000000 0 0 1
33.008496 -27.393410 -24.673121 49.484569 -0.692702 2.092782 0.067285 -0.013104 137991.000000 0 0 1
32.737446 -28.060110 -23.337821 49.028196 -0.708616 2.066906 0.057134 -0.012593 -239260.000000 0 0 1
32.286616 -29.369410 -23.423821 49.534465 -0.738119 2.063352 0.075930 -0.024916 -102472.000000 0 0 1
32.001586 -29.988310 -22.157121 49.135916 -0.752932 2.038609 0.081362 -0.029247 59743.300000 0 0 1
33.118716 -30.110210 -21.088021 49.479073 -0.737853 2.011085 0.067083 -0.018073 -494806.000000 0 0 1
34.300426 -30.842510 -21.321121 50.817023 -0.732366 2.003764 0.057448 -0.021594 429459.000000 0 0 1
35.445526 -30.493810 -20.569421 51.081883 -0.710444 1.985234 0.048356 -0.018243 774981.000000 0 0 1
36.080446 -29.088510 -20.866421 50.826642 -0.678518 1.993844 0.034003 -0.015113 18367.100000 0 0 1
35.278366 -28.052410 -20.217721 49.398958 -0.671791 1.992455 0.038096 -0.008180 255029.000000 0 0 1
35.790176 -26.833910 -20.554821 49.229017 -0.643345 2.001527 0.022494 -0.003732 -262345.000000 0 0 1
34.843786 -25.649210 -20.307421 47.795007 -0.634559 2.009632 0.037280 0.004736 334496.000000 0 0 1
33.750556 -25.667410 -21.215921 47.413408 -0.650189 2.034727 0.051564 -0.005294 22308.600000 0 0 1
32.768236 -24.701510 -20.968821 46.082679 -0.645945 2.043198 0.054703 -0.018938 92084.300000 0 0 1
31.495406 -24.760710 -21.863721 45.640723 -0.666250 2.070357 0.060234 -0.021052 257402.000000 0 0 1
30.795046 -25.943110 -21.542921 45.667026 -0.700091 2.062058 0.082367 -0.021458 -561339.000000 0 0 1
29.615036 -26.053910 -22.281421 45.302520 -0.721515 2.084994 0.083962 -0.019454 -274272.000000 0 0 1
29.004576 -27.420710 -22.414421 45.777364 -0.757335 2.082473 0.083974 -0.023320 -631518.000000 0 0 1
28.312476 -28.052710 -21.436121 45.255476 -0.780790 2.064249 0.086690 -0.027924 -353029.000000 0 0 1
28.013276 -29.346610 -21.861621 46.085764 -0.808639 2.065043 0.076862 -0.033842 -204999.000000 0 0 1
27.277076 -30.161210 -20.762621 45.659872 -0.835569 2.042858 0.080838 -0.025245 -85359.400000 0 0 1
28.044776 -30.606610 -19.658721 45.931899 -0.829049 2.013072 0.090092 -0.026578 297092.000000 0 0 1
28.986876 -31.650710 -19.965221 47.335150 -0.829300 2.006209 0.090001 -0.020302 52675.100000 0 0 1
29.767946 -32.133010 -18.738421 47.642306 -0.823587 1.975030 0.069544 -0.016435 -684526.000000 0 0 1
29.108876 -32.712910 -17.628321 47.204013 -0.843629 1.953521 0.074940 -0.020593 -167613.000000 0 0 1
28.326976 -31.774610 -16.881021 45.793146 -0.842699 1.948338 0.054634 -0.018494 -94666.100000 0 0 1
27.798376 -32.429110 -15.576821 45.464648 -0.862135 1.920494 0.065614 -0.015631 -512396.000000 0 0 1
26.663076 -33.225110 -15.724221 45.410116 -0.894534 1.924390 0.065173 -0.015857 -494250.000000 0 0 1
26.234576 -33.752810 -14.497621 45.140737 -0.910078 1.897756 0.072214 -0.017457 -490735.000000 0 0 1
24.724176 -34.008510 -14.434321 44.454620 -0.942179 1.901489 0.082544 -0.022403 15168.500000 0 0 1
23.962776 -32.844310 -14.685421 43.227594 -0.940488 1.917419 0.084378 -0.022862 249738.000000 0 0 1
22.567076 -32.970610 -14.462621 42.491192 -0.970576 1.918104 0.091226 -0.033122 148973.000000 0 0 1
-1.172925 -6.953303 -28.706881 29.560264 1.403684 2.900722 0.052401 -0.021859 200064.000000 0 0 1
-0.806725 -8.357203 -28.625581 29.831486 1.474564 2.856289 0.058570 -0.018618 48176.100000 0 0 1
-0.717925 -8.907303 -29.912381 31.218680 1.490371 2.851287 0.066359 -0.028458 -125977.000000 0 0 1
-0.411225 -10.421103 -29.993391 31.754874 1.531356 2.806953 0.084705 -0.024413 -11231.900000 0 0 1
0.922375 -10.674203 -29.617741 31.496031 -1.484599 2.794496 0.057655 -0.026444 -187352.000000 0 0 1
1.091275 -12.067503 -29.412431 31.810479 -1.480611 2.750819 0.070873 -0.027662 -183144.000000 0 0 1
2.496575 -12.487303 -28.986291 31.660238 -1.373469 2.727651 0.056369 -0.018550 -551516.000000 0 0 1
3.494275 -12.400803 -30.000381 32.649850 -1.296140 2.735958 0.073168 -0.025769 1085660.000000 0 0 1
4.882875 -12.486603 -29.651131 32.541470 -1.198030 2.716935 0.070055 -0.024804 1190190.000000 0 0 1
5.336575 -13.814303 -29.005111 32.567015 -1.202149 2.669522 0.057165 -0.028301 -1245960.000000 0 0 1
4.858275 -14.148003 -27.729451 31.507004 -1.240023 2.646878 0.053832 -0.020439 -337904.000000 0 0 1
5.549275 -15.191503 -27.075881 31.538541 -1.220567 2.603136 0.060840 -0.023485 -183081.000000 0 0 1
5.316875 -16.634903 -27.513581 32.588131 -1.261437 2.576021 0.023730 -0.017292 -163983.000000 0 0 1
5.697175 -16.980503 -28.862261 33.968005 -1.247086 2.586193 0.040470 -0.033143 -9757.940000 0 0 1
5.239575 -18.278603 -29.100821 34.762311 -1.291631 2.562825 0.022491 -0.026808 -498677.000000 0 0 1
5.488975 -18.944903 -30.424191 36.258373 -1.288785 2.566412 0.051712 -0.042890 599425.000000 0 0 1
6.896475 -19.054103 -30.660161 36.751404 -1.223523 2.557582 0.062144 -0.044326 478880.000000 0 0 1
6.993375 -19.741203 -31.897201 38.158273 -1.230338 2.560600 0.075934 -0.048382 246581.000000 0 0 1
8.462775 -19.969703 -32.346741 38.945080 -1.169959 2.550933 0.099545 -0.045608 190470.000000 0 0 1
9.003675 -18.727403 -32.675041 38.722604 -1.122646 2.575165 0.103971 -0.048514 -1101950.000000 0 0 1
10.311375 -18.888503 -33.112651 39.491109 -1.071101 2.565291 0.105628 -0.051793 -714736.000000 0 0 1
10.862275 -17.548703 -33.622721 39.451659 -1.016539 2.591070 0.107326 -0.038894 -123651.000000 0 0 1
10.120575 -17.006103 33.164974 38.620579 -1.033977 0.537994 0.123679 -0.042300 -45750.100000 0 0 1
10.402275 -15.669903 32.928331 37.921342 -0.984755 0.518966 0.111398 -0.040260 -160093.000000 0 0 1
9.345575 -14.969603 32.058347 36.594623 -1.012698 0.503208 0.137113 -0.049890 17198.400000 0 0 1
9.487275 -15.422903 30.714542 35.654697 -1.019317 0.532689 0.134069 -0.046930 6030.040000 0 0 1
8.650875 -14.725503 29.802112 34.348857 -1.039637 0.520380 0.127181 -0.039083 108269.000000 0 0 1
8.558875 -15.571903 28.511822 33.595573 -1.068233 0.557316 0.106187 -0.018708 -358548.000000 0 0 1
8.010475 -16.865703 28.655472 34.201692 -1.127383 0.577486 0.107636 -0.023276 219761.000000 0 0 1
8.044375 -17.539503 27.384712 33.500278 -1.140778 0.613831 0.091887 -0.020329 -100832.000000 0 0 1
7.564475 -19.004103 27.404252 34.196056 -1.191977 0.641187 0.086394 -0.027410 -91551.200000 0 0 1
8.340575 -19.741803 28.300342 35.499484 -1.171060 0.648146 0.103210 -0.026933 173892.000000 0 0 1
7.565075 -20.737403 28.924192 36.385150 -1.220995 0.651879 0.088707 -0.028958 -88852.800000 0 0 1
7.948475 -21.022303 30.424852 37.825747 -1.209313 0.636228 0.097225 -0.025699 -384716.000000 0 0 1
7.402475 -20.160603 31.384142 38.029080 -1.218903 0.600122 0.120868 -0.036808 -151349.000000 0 0 1
7.671175 -18.758503 31.397202 37.369943 -1.182604 0.573195 0.115375 -0.034717 -349095.000000 0 0 1
6.954875 -17.990403 32.516589 37.806791 -1.201905 0.535384 0.117522 -0.034925 -906503.000000 0 0 1
5.582175 -18.130303 32.477426 37.611857 -1.272115 0.528649 0.128080 -0.038812 -1123170.000000 0 0 1
4.940275 -17.286603 33.442932 37.969233 -1.292430 0.493268 0.117071 -0.039445 -21331.800000 0 0 1
3.476675 -17.653103 33.686243 38.190081 -1.376341 0.490563 0.113502 -0.045816 -265264.000000 0 0 1
3.334675 -18.729403 -33.263121 38.319001 -1.394598 2.622074 0.098890 -0.044006 -466732.000000 0 0 1
1.993075 -19.057603 -33.061361 38.212801 -1.466594 2.616327 0.080739 -0.050156 -518742.000000 0 0 1
1.961375 -20.204503 -32.017111 37.909950 -1.474023 2.576533 0.038911 -0.015169 -194695.000000 0 0 1
0.771275 -20.962803 -32.227131 38.452854 -1.534020 2.564577 0.055329 -0.023901 402957.000000 0 0 1
0.219275 -21.640403 -31.113031 37.899549 -1.560664 2.533841 0.057301 -0.019959 245657.000000 0 0 1
-0.242025 -20.683303 -29.948611 36.397485 1.559095 2.537153 0.060467 -0.020959 210949.000000 0 0 1
-1.470025 -19.950703 -30.169781 36.199547 1.497246 2.556082 0.079595 -0.029770 781352.000000 0 0 1
-1.855825 -18.938103 -29.225841 34.874713 1.473114 2.564448 0.084516 -0.023173 281594.000000 0 0 1
-1.740125 -17.547703 -29.862841 34.680530 1.471954 2.608194 0.080993 -0.019758 -239787.000000 0 0 1
-2.624525 -16.660203 -29.237151 33.752948 1.414548 2.618364 0.087430 -0.019420 -336399.000000 0 0 1
-2.529425 -15.350403 -29.735921 33.559765 1.407485 2.659569 0.093769 -0.022264 194658.000000 0 0 1
-3.612225 -14.369403 -29.239431 32.779143 1.324516 2.672576 0.095254 -0.012003 119715.000000 0 0 1
-3.322625 -14.002503 -27.936861 31.425756 1.337817 2.665909 0.077665 -0.022299 -506687.000000 0 0 1
-4.212125 -13.075403 -27.445051 30.691024 1.259152 2.677520 0.059107 -0.019489 -480931.000000 0 0 1
-4.015625 -12.753003 -25.965271 29.205473 1.265748 2.666073 0.047061 -0.017084 -312048.000000 0 0 1
-4.388925 -13.947903 -25.280331 29.204482 1.265940 2.617207 0.056407 -0.017325 235464.000000 0 0 1
-4.584625 -13.716503 -23.861921 27.902554 1.248229 2.596709 0.053058 -0.013185 348084.000000 0 0 1
-5.690025 -12.724403 -23.331721 27.178227 1.150295 2.603077 0.051430 -0.015396 132917.000000 0 0 1
-7.031525 -13.111903 -23.469021 27.787754 1.078555 2.576579 0.061860 -0.022500 -248038.000000 0 0 1
-7.895925 -12.105303 -22.966621 27.135764 0.992827 2.579910 0.045779 -0.028161 719154.000000 0 0 1
-9.399825 -12.317303 -23.353221 28.025802 0.918939 2.555803 0.079723 -0.034633 597802.000000 0 0 1
-9.977325 -13.331403 -22.550721 28.032273 0.928315 2.505555 0.074042 -0.030921 -270818.000000 0 0 1
-10.983025 -14.036903 -23.234721 29.283336 0.906855 2.487245 0.075290 -0.024740 276935.000000 0 0 1
-11.778325 -15.072403 -22.344721 29.414160 0.907469 2.433584 0.079819 -0.027694 401702.000000 0 0 1
-11.022625 -16.239203 -22.076621 29.539586 0.974464 2.414872 0.080193 -0.025965 -331842.000000 0 0 1
-11.792025 -17.219503 -21.457221 29.932849 0.970340 2.370063 0.083707 -0.019558 229368.000000 0 0 1
-12.536525 -18.074903 -22.548521 31.500831 0.964387 2.368576 0.069331 -0.014199 1488220.000000 0 0 1
-13.716325 -17.486303 -23.186021 32.116973 0.905638 2.377375 0.064943 -0.014794 930490.000000 0 0 1
-14.133725 -18.236503 -24.287621 33.499564 0.911471 2.381850 0.043630 -0.015431 -1225740.000000 0 0 1
-15.329225 -17.650003 -24.933521 34.178768 0.855653 2.388392 0.052288 -0.023187 -1864340.000000 0 0 1
-16.516325 -18.083703 -24.339921 34.528844 0.830667 2.353100 0.059163 -0.016700 -674823.000000 0 0 1
-17.684425 -17.585503 -24.922721 35.258060 0.782593 2.355854 0.045590 -0.019389 -36119.800000 0 0 1
-18.203225 -16.197703 -24.487221 34.544855 0.727166 2.358667 0.051239 -0.016677 -60193.400000 0 0 1
-19.123325 -16.105003 -23.374321 34.226182 0.699928 2.322572 0.051886 -0.010497 675987.000000 0 0 1
-19.677825 -14.809203 -23.331821 33.924964 0.645152 2.329178 0.064614 -0.016079 140570.000000 0 0 1
-20.487225 -14.609703 -22.002421 33.425684 0.619472 2.289287 0.055654 -0.020923 385980.000000 0 0 1
-19.634125 -14.642403 -20.838221 32.157896 0.640784 2.275748 0.068476 -0.010325 467362.000000 0 0 1
-20.331725 -14.822603 -19.624221 31.909225 0.629950 2.233184 0.057913 -0.016907 -97741.200000 0 0 1
-21.021125 -13.612603 -18.927021 31.391444 0.574663 2.217972 0.059793 -0.020532 -372921.000000 0 0 1
-22.314625 -13.355403 -19.378021 32.431728 0.539319 2.211179 0.074570 -0.030486 -358015.000000 0 0 1
-22.875725 -12.333203 -18.596821 31.956978 0.494467 2.191900 0.088693 -0.031168 557955.000000 0 0 1
-24.325425 -11.884203 -18.999721 33.074915 0.454446 2.182722 0.114249 -0.032795 522765.000000 0 0 1
-24.435025 -10.877703 -20.036321 33.419291 0.418829 2.213727 0.102466 -0.038094 58438.300000 0 0 1
-25.799345 -10.522303 -20.071621 34.339409 0.387257 2.195069 0.103630 -0.034761 -199702.000000 0 0 1
-26.216415 -9.502703 -21.103921 34.971092 0.347742 2.218639 0.105661 -0.029933 -312119.000000 0 0 1
-26.198695 -9.908003 -22.462521 35.904108 0.361562 2.246729 0.081070 -0.025736 113759.000000 0 0 1
-26.959955 -9.084903 -23.284921 36.763599 0.325027 2.256695 0.071821 -0.032081 -608340.000000 0 0 1
-27.064655 -9.449103 -24.816021 37.915907 0.335900 2.284320 0.067816 -0.018869 -288257.000000 0 0 1
-25.897795 -9.496803 -25.598811 37.632223 0.351477 2.318882 0.054597 -0.030448 -316402.000000 0 0 1
-25.245785 -10.720903 -25.597361 37.516827 0.401584 2.321687 0.056677 -0.014937 -295884.000000 0 0 1
-24.245125 -10.797603 -26.789771 37.710823 0.418982 2.360863 0.055489 -0.022154 132147.000000 0 0 1
-24.714025 -11.037603 -28.093451 39.010943 0.420034 2.374804 0.056473 -0.012755 396730.000000 0 0 1
-23.559525 -10.969903 -28.921981 38.882785 0.435771 2.409571 0.059583 -0.015437 670319.000000 0 0 1
-23.908525 -11.338803 -30.407831 40.309083 0.442843 2.425485 0.066585 -0.016150 186456.000000 0 0 1
-24.962825 -10.653203 -31.038011 41.230953 0.403363 2.423078 0.056151 -0.019112 37205.800000 0 0 1
-24.546825 -9.395803 -31.490451 41.017999 0.365566 2.446076 0.054944 -0.032237 -159846.000000 0 0 1
-25.763665 -8.492103 -31.877151 41.857317 0.318401 2.436524 0.054241 -0.023502 -1055520.000000 0 0 1
-26.422935 -9.009003 -33.000971 43.224966 0.328593 2.439466 0.058717 -0.022648 1303620.000000 0 0 1
-27.701345 -9.609403 -32.628421 43.867061 0.333904 2.409538 0.061905 -0.025684 1285610.000000 0 0 1
-28.821495 -8.614703 -32.125721 44.010835 0.290446 2.389046 0.041720 -0.012130 -465068.000000 0 0 1
-30.135845 -9.137303 -32.256301 45.079135 0.294393 2.368205 0.059548 -0.014559 461792.000000 0 0 1
-31.031865 -8.424003 -31.393821 44.938986 0.265075 2.344218 0.067012 -0.009588 -165789.000000 0 0 1
-32.484035 -8.871303 -31.467601 46.088203 0.266596 2.322342 0.079652 -0.012264 -554927.000000 0 0 1
-32.656965 -10.275003 -31.244041 46.349144 0.304828 2.310544 0.077468 -0.016452 24018.600000 0 0 1
-33.996535 -10.711203 -31.191581 47.364639 0.305222 2.289675 0.073355 -0.015351 -51792.300000 0 0 1
-34.003475 -12.232803 -31.012621 47.619958 0.345336 2.280030 0.068504 -0.014785 -302050.000000 0 0 1
-35.316295 -12.703603 -30.863661 48.592055 0.345298 2.259010 0.069523 -0.011780 -433759.000000 0 0 1
-35.454853 -14.160103 -30.852051 49.085682 0.379975 2.250464 0.058281 -0.009862 -135473.000000 0 0 1
-36.873615 -14.653603 -30.547241 50.075198 0.378264 2.226891 0.063634 -0.018675 -30635.400000 0 0 1
-37.155565 -14.511603 -29.170811 49.417192 0.372345 2.202223 0.078997 -0.019222 -60045.700000 0 0 1
37.127806 -15.806203 -28.655561 49.491931 -0.402484 2.188291 0.072826 -0.024683 -133451.000000 0 0 1
-37.027545 -15.692503 -27.125931 48.508864 0.400859 2.164211 0.098856 -0.027785 -270097.000000 0 0 1
-35.716032 -15.523203 -26.668581 47.199767 0.409998 2.171248 0.092870 -0.033367 -570850.000000 0 0 1
-35.618336 -15.558203 -25.279601 46.365739 0.411825 2.147450 0.119623 -0.038867 -399969.000000 0 0 1
-34.253125 -15.080103 -24.793621 44.893315 0.414720 2.155891 0.122842 -0.031784 50894.500000 0 0 1
-33.216645 -16.050103 -24.975121 44.550061 0.450113 2.165916 0.118399 -0.029921 217896.000000 0 0 1
-32.026625 -15.660603 -24.293321 43.140754 0.454798 2.168950 0.115750 -0.017031 327684.000000 0 0 1
-30.876115 -16.637903 -24.650721 42.869714 0.494250 2.183419 0.100221 -0.015278 -95856.400000 0 0 1
-30.809985 -17.883003 -23.947321 42.924715 0.525905 2.162639 0.103222 -0.020981 324453.000000 0 0 1
-31.664715 -18.931603 -24.461121 44.265181 0.538857 2.156282 0.097881 -0.030067 423968.000000 0 0 1
-31.512885 -20.250703 -23.698921 44.325971 0.571167 2.134891 0.099455 -0.033204 127956.000000 0 0 1
-30.263945 -20.863403 -23.930521 43.861803 0.603564 2.147888 0.096763 -0.027364 -79495.000000 0 0 1
-30.222425 -22.068503 -23.189621 44.024679 0.630710 2.125559 0.093064 -0.022964 -97329.200000 0 0 1
-28.921985 -22.927803 -23.337121 43.666767 0.670302 2.134637 0.093219 -0.027272 1272050.000000 0 0 1
-27.693065 -22.375903 -22.810721 42.283754 0.679598 2.140601 0.096281 -0.021292 797400.000000 0 0 1
-27.604685 -22.199303 -21.396921 41.384247 0.677288 2.114175 0.093537 -0.027555 -468750.000000 0 0 1
-27.637075 -23.434803 -20.438821 41.602203 0.703302 2.084369 0.086219 -0.023607 -150848.000000 0 0 1
-27.330865 -22.927803 -19.148721 40.488688 0.698013 2.063421 0.080578 -0.025062 170872.000000 0 0 1
-27.436925 -23.916103 -18.174321 40.682561 0.716944 2.033909 0.067661 0.002787 16816.800000 0 0 1
-27.455765 -23.203303 -16.811821 39.684375 0.701652 2.008254 0.067915 0.003109 -2694.470000 0 0 1
-28.675425 -22.535203 -16.577921 40.061738 0.666067 1.997431 0.073446 -0.004061 -226616.000000 0 0 1
-28.573995 -21.582403 -15.518821 39.027005 0.646895 1.979743 0.078345 -0.007856 -397767.000000 0 0 1
-29.869825 -21.145803 -14.839221 39.491188 0.616030 1.956013 0.076468 -0.000192 -484067.000000 0 0 1
-30.613725 -20.258803 -15.618721 39.894407 0.584595 1.973059 0.071611 -0.002564 -301312.000000 0 0 1
-31.786525 -19.852503 -14.951621 40.349176 0.558281 1.950404 0.073722 -0.000494 -671638.000000 0 0 1
-32.865225 -19.326603 -15.857521 41.292876 0.531591 1.964949 0.078262 -0.012251 -328862.000000 0 0 1
-33.685385 -20.312203 -16.526221 42.666225 0.542621 1.968538 0.044951 -0.008336 116893.000000 0 0 1
-34.434035 -19.712103 -17.557221 43.388083 0.519923 1.987398 0.048626 -0.013848 233548.000000 0 0 1
-35.145569 -20.740403 -18.555721 44.829568 0.533129 1.997549 0.051398 -0.012484 1597240.000000 0 0 1
-36.381165 -21.379703 -18.137721 45.931011 0.531295 1.976745 0.048234 -0.005068 851862.000000 0 0 1
-36.211105 -22.283903 -17.055321 45.811575 0.551658 1.952275 0.046409 -0.007604 117587.000000 0 0 1
37.130956 -23.443603 -17.117121 47.130736 -0.563171 1.942479 0.033327 0.004407 -123227.000000 0 0 1
35.792386 -23.050003 -17.039421 45.855637 -0.572140 1.951516 0.032986 -0.011647 -722805.000000 0 0 1
35.013806 -24.214703 -16.983821 45.834143 -0.605050 1.950397 0.023260 -0.005580 -228573.000000 0 0 1
33.601196 -24.088003 -16.388621 44.473129 -0.621965 1.948198 0.020930 -0.009502 332846.000000 0 0 1
32.659346 -23.508603 -17.304721 43.803432 -0.623900 1.976923 0.033060 -0.018244 1298120.000000 0 0 1
31.337006 -24.059303 -17.073321 43.039009 -0.654771 1.978709 0.048331 -0.019778 1080590.000000 0 0 1
30.284606 -23.874003 -18.163021 42.626526 -0.667579 2.010970 0.065542 -0.016209 -96140.000000 0 0 1
29.951166 -22.516103 -18.248021 41.677782 -0.644627 2.023986 0.067485 -0.016623 595380.000000 0 0 1
28.670376 -22.377503 -18.878221 40.977193 -0.662743 2.049581 0.082986 -0.026699 425248.000000 0 0 1
34.804476 29.670797 -18.299221 49.260220 0.705943 1.951400 0.073827 -0.017358 -231386.000000 0 0 1
34.033196 30.099397 -19.396921 49.401141 0.724136 1.974298 0.064008 -0.024003 -163860.000000 0 0 1
34.594136 29.731097 -20.626721 50.061502 0.709941 1.995475 0.081986 -0.009817 -655906.000000 0 0 1
33.595986 29.782097 -21.771021 49.896302 0.725294 2.022307 0.091830 -0.006706 -749525.000000 0 0 1
32.558936 28.844597 -21.776321 48.644663 0.724981 2.034944 0.082731 -0.016695 -104521.000000 0 0 1
31.618666 28.942597 -22.815221 48.558710 0.741239 2.059915 0.097248 -0.008737 785523.000000 0 0 1
30.457706 29.982597 -22.609121 48.350805 0.777538 2.057377 0.080250 -0.008787 80572.600000 0 0 1
30.883086 31.341297 -22.693821 49.508094 0.792762 2.046975 0.105013 -0.027368 -270506.000000 0 0 1
29.763396 32.182797 -22.757021 49.391033 0.824435 2.049639 0.096499 -0.023690 -484311.000000 0 0 1
30.152736 33.679997 -22.683521 50.577384 0.840600 2.035873 0.100686 -0.022435 444177.000000 0 0 1
30.746206 -34.009610 -21.433721 50.610148 -0.835751 2.008109 0.089732 -0.027954 89222.900000 0 0 1
32.111536 33.705197 -21.272121 51.182948 0.809607 1.999409 0.074092 -0.027391 -271897.000000 0 0 1
32.514306 33.409797 -19.833621 50.663272 0.798981 1.973035 0.069562 -0.027524 -151976.000000 0 0 1
32.534436 -33.570010 -18.984121 50.456238 -0.801063 1.956541 0.063629 -0.021068 -105035.000000 0 0 1
33.052486 -33.859710 -17.712021 50.523880 -0.797461 1.928973 0.048929 -0.029724 -443036.000000 0 0 1
32.983176 -32.584910 -16.866421 49.337029 -0.779324 1.919693 0.047990 -0.017069 492399.000000 0 0 1
34.151296 -31.777210 -17.048021 49.666257 -0.749404 1.921173 0.051561 -0.011332 493072.000000 0 0 1
35.221246 -32.148710 -16.202621 50.364676 -0.739823 1.898327 0.041920 -0.013887 58899.100000 0 0 1
36.529426 -31.331910 -16.350921 50.827553 -0.708957 1.898314 0.037587 -0.003246 -133737.000000 0 0 1
-37.128235 -31.638510 -17.489421 51.820662 0.705736 1.915055 0.036569 -0.009722 121086.000000 0 0 1
-35.983913 -30.759910 -17.671021 50.529981 0.707288 1.928062 0.022112 -0.001593 524706.000000 0 0 1
-34.959336 -31.412510 -18.575421 50.536593 0.732010 1.947184 0.039574 -0.012080 -1354290.000000 0 0 1
-34.258739 -32.424710 -17.901621 50.452859 0.757902 1.933517 0.042359 -0.014571 57101.000000 0 0 1
-33.323405 -33.086910 -18.743421 50.561930 0.781837 1.950561 0.055635 -0.013701 68950.200000 0 0 1
-31.942395 -32.434010 -18.826521 49.261744 0.793035 1.962943 0.046571 -0.015465 -1543530.000000 0 0 1
-32.048215 -31.386410 -19.829221 49.044804 0.774966 1.987019 0.040009 -0.011771 72068.300000 0 0 1
-30.809245 -30.922610 -20.331621 48.153839 0.787235 2.006692 0.050964 -0.014046 23953.800000 0 0 1
-29.955665 -31.988210 -21.036921 48.612133 0.818199 2.018338 0.046301 -0.005134 -601469.000000 0 0 1
-30.615885 -32.553910 -22.161421 49.882041 0.816068 2.031163 0.042748 -0.003189 -183253.000000 0 0 1
-29.819865 -33.581910 -22.703221 50.323009 0.844665 2.038850 0.040425 -0.006805 -365969.000000 0 0 1
-30.439235 33.561897 -23.709321 51.137852 -0.834150 2.052890 0.040123 -0.012655 -879708.000000 0 0 1
-31.509745 32.789997 -23.185221 51.045102 -0.805306 2.042282 0.050014 -0.027137 -72497.500000 0 0 1
-31.942745 31.869197 -24.143721 51.175228 -0.784246 2.062111 0.043348 -0.016698 124227.000000 0 0 1
-32.875065 32.423197 -25.238581 52.621475 -0.778478 2.071024 0.049131 -0.030369 -540165.000000 0 0 1
-32.211965 33.213097 -26.247701 53.194570 -0.800699 2.086823 0.033844 -0.023056 -354233.000000 0 0 1
-33.040285 -33.839810 -26.806281 54.363313 0.797352 2.086440 0.037523 -0.025104 2948.020000 0 0 1
-32.401155 -32.857010 -27.851381 53.899140 0.792383 2.113825 0.022142 -0.018196 -52836.000000 0 0 1
-32.143455 -33.394810 -29.105921 54.731797 0.804489 2.131511 0.023728 -0.018169 516897.000000 0 0 1
-33.341395 -33.595210 -29.872851 55.970295 0.789190 2.133798 0.036337 -0.022016 595889.000000 0 0 1
-33.039755 33.629297 -31.140381 56.500251 -0.794241 2.154544 0.048632 -0.019378 -121641.000000 0 0 1
-32.424275 -33.766710 -32.199241 56.818266 0.805677 2.173298 0.032332 -0.021547 -259226.000000 0 0 1
-32.653555 33.473997 -33.349181 57.436321 -0.797804 2.190297 0.030661 -0.029774 415111.000000 0 0 1
-31.765285 33.890597 33.288520 57.146579 -0.817757 0.948982 0.032030 -0.033352 645110.000000 0 0 1
-30.455975 33.356897 33.169540 56.039873 -0.830827 0.937392 0.041834 -0.025444 31778.400000 0 0 1
-30.279535 32.055897 32.688396 54.890455 -0.813887 0.932883 0.041960 -0.029300 109121.000000 0 0 1
-28.785765 31.637897 32.684796 53.831893 -0.832565 0.918310 0.044908 -0.026486 -114555.000000 0 0 1
-28.403215 31.075497 33.913092 54.060401 -0.830296 0.892691 0.047394 -0.014656 -64276.100000 0 0 1
-26.995665 30.961397 -33.867021 53.238606 -0.853717 2.260277 0.053641 -0.010329 -54602.500000 0 0 1
-26.529745 29.600197 33.486283 51.974323 -0.840046 0.870708 0.064379 -0.029469 -702750.000000 0 0 1
-26.680325 28.501197 -33.498651 51.442372 -0.818384 2.279945 0.062673 -0.017253 124568.000000 0 0 1
-26.354955 27.204097 33.900152 50.831751 -0.801251 0.840743 0.058529 -0.013700 -185276.000000 0 0 1
-26.182775 26.202197 -32.761821 49.451287 -0.785769 2.294957 0.072122 -0.018448 803719.000000 0 0 1
-25.037525 26.324797 -31.878051 48.333040 -0.810455 2.291016 0.063880 -0.004306 809572.000000 0 0 1
-25.141385 27.505597 -31.040251 48.498910 -0.830275 2.265320 0.052477 0.002871 184792.000000 0 0 1
-23.981925 27.609597 -30.007741 47.306311 -0.855598 2.257936 0.070933 0.002315 725227.000000 0 0 1
-22.710525 27.845997 -30.625311 47.213104 -0.886630 2.276620 0.065279 0.001301 1371270.000000 0 0 1
-21.594125 27.950097 -29.679601 46.134509 -0.912990 2.269633 0.060453 -0.000243 1250480.000000 0 0 1
-21.441625 29.274697 -28.840771 46.352360 -0.938636 2.242355 0.047062 0.014091 -344760.000000 0 0 1
-20.662725 30.239197 -29.523781 47.042650 -0.971360 2.249258 0.048067 0.026668 235920.000000 0 0 1
-20.356825 31.258497 -28.568701 46.985792 -0.993549 2.224371 0.055168 0.008029 62337.200000 0 0 1
-19.868125 32.599497 -29.142811 48.028877 -1.023449 2.222796 0.076937 0.002131 -1065680.000000 0 0 1
-18.697025 32.568397 -29.826481 47.957254 -1.049650 2.242013 0.089711 -0.004203 -1260370.000000 0 0 1
-18.592825 33.671597 -30.757431 49.249255 -1.066280 2.245321 0.094221 0.001312 -878554.000000 0 0 1
-17.167525 34.025397 -31.104821 49.193104 -1.103515 2.255315 0.104319 -0.000057 -1820820.000000 0 0 1
-16.596125 -33.279310 -30.113691 47.851627 1.108196 2.251466 0.121889 -0.022452 -661411.000000 0 0 1
-15.304525 -32.781010 -30.275611 47.174524 1.134001 2.267612 0.130502 -0.019308 188456.000000 0 0 1
-14.137325 -33.817510 -30.383541 47.609321 1.174829 2.262934 0.139018 -0.019598 -485142.000000 0 0 1
-14.059925 33.529097 -29.165241 46.610011 -1.173734 2.246862 0.153018 -0.021939 -62202.800000 0 0 1
-13.499125 32.234697 -29.412851 45.677323 -1.174209 2.270416 0.122737 -0.012759 95048.600000 0 0 1
-13.390825 31.336497 -28.110391 44.175608 -1.166959 2.260531 0.102029 -0.018936 643041.000000 0 0 1
-12.234425 31.662197 -27.321731 43.573534 -1.202065 2.248526 0.118007 -0.024859 471860.000000 0 0 1
-12.218325 30.777197 -26.220331 42.237768 -1.192885 2.240533 0.093158 -0.031842 489723.000000 0 0 1
-10.978025 30.976397 -25.299011 41.474018 -1.230207 2.226853 0.117397 -0.038251 418425.000000 0 0 1
-9.836125 30.227197 -25.634191 40.835579 -1.256197 2.249445 0.115254 -0.024750 -548888.000000 0 0 1
-8.697725 30.777997 -25.002321 40.596202 -1.295382 2.234297 0.121018 -0.034230 447682.000000 0 0 1
-7.400425 30.083697 -25.522381 40.139595 -1.329591 2.259893 0.087493 -0.033073 197192.000000 0 0 1
-7.260225 28.789897 -25.015421 38.824481 -1.323767 2.270931 0.087274 -0.049771 -426437.000000 0 0 1
-5.989125 28.302997 -25.388141 38.490089 -1.362265 2.291085 0.077381 -0.055744 241419.000000 0 0 1
-5.456725 27.182797 -24.461621 36.973656 -1.372688 2.293741 0.102427 -0.047335 26564.700000 0 0 1
-6.364225 26.119097 -24.558221 36.411767 -1.331792 2.311027 0.111855 -0.050461 215202.000000 0 0 1
-5.779625 24.958297 -23.968821 35.083116 -1.343236 2.322934 0.116531 -0.059453 122656.000000 0 0 1
-6.657725 23.697797 -24.170021 34.497838 -1.296914 2.347068 0.103852 -0.050689 53825.500000 0 0 1
-6.779525 23.317697 -25.542701 35.243532 -1.287851 2.381466 0.099967 -0.040159 -620344.000000 0 0 1
-7.642625 22.285497 -25.675851 34.846842 -1.240423 2.399151 0.089387 -0.049093 -1288300.000000 0 0 1
-7.346325 21.320097 -26.837721 35.053934 -1.238965 2.442789 0.072824 -0.034164 306456.000000 0 0 1
-6.213325 20.461597 -26.647811 34.167063 -1.275987 2.465345 0.093745 -0.045317 10447.700000 0 0 1
-6.332325 19.401797 -25.739151 32.848622 -1.255318 2.471185 0.090430 -0.041553 -461335.000000 0 0 1
-5.145625 18.437397 -25.845481 32.162151 -1.298635 2.504115 0.104844 -0.054912 -151123.000000 0 0 1
-4.992825 17.873697 -27.145801 32.883003 -1.298400 2.541931 0.089885 -0.048356 -1223530.000000 0 0 1
-3.838725 17.144597 -27.145811 32.335245 -1.350526 2.567180 0.089757 -0.048371 -1054060.000000 0 0 1
-3.343825 16.743997 -28.569681 33.283168 -1.373686 2.602904 0.083120 -0.039272 -120210.000000 0 0 1
-2.770325 17.743797 -29.362121 34.418762 -1.415917 2.592665 0.095464 -0.042700 27144.400000 0 0 1
-2.467325 17.259897 -30.641521 35.254710 -1.428807 2.624271 0.093020 -0.050582 -463750.000000 0 0 1
-1.540225 18.135097 -31.442341 36.330082 -1.486069 2.616870 0.109968 -0.025006 -921775.000000 0 0 1
-0.280525 18.297697 -30.882881 35.897587 -1.555466 2.606664 0.147246 -0.039886 -536859.000000 0 0 1
0.532875 19.317597 -31.496711 36.952623 1.543218 2.591266 0.158628 -0.015063 635840.000000 0 0 1
0.395575 20.748397 -30.988671 37.295445 1.551733 2.551514 0.149251 -0.019211 -38583.800000 0 0 1
0.813675 20.859197 -29.636841 36.250662 1.531808 2.527945 0.172335 -0.048576 -372258.000000 0 0 1
0.772475 22.236297 -29.176351 36.692085 1.536071 2.490080 0.162401 -0.047938 628310.000000 0 0 1
1.877575 22.524697 -28.084031 36.049966 1.487632 2.463915 0.169288 -0.053628 560676.000000 0 0 1
3.164175 22.490897 -28.654801 36.564328 1.431027 2.471368 0.134815 -0.047178 -200069.000000 0 0 1
4.252575 22.603597 -27.742671 36.036964 1.384833 2.449386 0.130136 -0.048596 644094.000000 0 0 1
4.797575 24.020797 -27.411641 36.761576 1.373664 2.412321 0.123315 -0.042430 -401034.000000 0 0 1
5.598675 24.676397 -28.341561 37.993602 1.347690 2.412766 0.112357 -0.039930 -143363.000000 0 0 1
5.915175 25.984597 -27.952731 38.620509 1.346969 2.380060 0.103124 -0.035451 -71536.800000 0 0 1
6.767775 26.738497 -29.049681 40.057883 1.322893 2.382110 0.121794 -0.027543 -655781.000000 0 0 1
8.094075 26.319297 -28.963651 39.963890 1.272442 2.381461 0.115613 -0.021745 -928071.000000 0 0 1
8.808175 27.005997 -29.966971 41.290764 1.255519 2.382927 0.116353 -0.020881 -341184.000000 0 0 1
10.278875 27.107097 -29.535361 41.385837 1.208353 2.365504 0.107552 -0.017888 21404.200000 0 0 1
11.076375 28.021997 -30.292681 42.726630 1.194370 2.358859 0.134225 -0.022338 524139.000000 0 0 1
12.371975 28.237397 -29.738591 42.834567 1.157848 2.338196 0.114120 -0.023304 877800.000000 0 0 1
13.395075 29.079997 -30.571161 44.268162 1.139139 2.333101 0.122026 -0.027426 2430.850000 0 0 1
13.052475 30.401097 -30.770851 45.182287 1.165254 2.319975 0.125476 -0.029472 -266855.000000 0 0 1
13.917675 30.974897 -31.683561 46.443449 1.148507 2.321559 0.152532 -0.041916 -290400.000000 0 0 1
13.492475 32.414297 -32.009221 47.511301 1.176360 2.310025 0.150618 -0.046280 -15307.600000 0 0 1
12.291875 32.509297 -32.712761 47.729124 1.209308 2.325927 0.128954 -0.041268 190131.000000 0 0 1
11.422375 33.610297 -32.406781 48.065811 1.243195 2.310700 0.106141 -0.032144 605735.000000 0 0 1
10.180375 33.736397 -33.319721 48.497302 1.277723 2.328208 0.094078 -0.026277 79133.100000 0 0 1
10.446275 -33.721610 33.327553 48.548918 -1.270392 0.814168 0.085865 -0.015260 -50380.000000 0 0 1
9.274175 -33.500810 32.584357 47.645093 -1.300726 0.817705 0.100781 -0.020286 -139877.000000 0 0 1
9.548175 -32.637910 31.310102 46.224704 -1.286190 0.826648 0.088179 -0.014316 101875.000000 0 0 1
9.621775 -31.281910 31.554352 45.462221 -1.272398 0.803657 0.066333 -0.022280 42245.900000 0 0 1
9.918075 -30.540610 30.368302 44.196502 -1.256790 0.813279 0.098337 -0.019149 -561856.000000 0 0 1
9.491275 -29.085810 30.379432 43.115873 -1.255371 0.788937 0.083240 -0.035649 -308401.000000 0 0 1
8.114975 -28.817810 30.380682 42.653310 -1.296308 0.778069 0.060033 -0.015914 -359395.000000 0 0 1
7.569875 -28.858910 31.683032 43.519584 -1.314269 0.755370 0.054134 -0.008808 -1086330.000000 0 0 1
6.073475 -28.540010 31.648082 43.046723 -1.361119 0.744830 0.048155 -0.013279 -395878.000000 0 0 1
5.171875 -29.607610 31.432652 43.489889 -1.397861 0.763012 0.074196 -0.020093 -5574.640000 0 0 1
5.090575 -30.198010 30.124052 42.956865 -1.403793 0.793629 0.090583 -0.023392 -423128.000000 0 0 1
4.556475 -29.196110 28.980032 41.388604 -1.415981 0.795128 0.065351 -0.023741 1047630.000000 0 0 1
3.116075 -29.254610 28.906682 41.244859 -1.464681 0.794200 0.095545 -0.031299 1262700.000000 0 0 1
2.594575 -28.389010 27.868282 39.866137 -1.479656 0.796733 0.112833 -0.038200 194984.000000 0 0 1
1.181675 -28.799410 27.388202 39.760734 -1.529788 0.810929 0.116294 -0.039129 109159.000000 0 0 1
1.203075 -30.039910 26.650922 40.176053 -1.530768 0.845505 0.122496 -0.037505 53425.200000 0 0 1
0.746075 -31.163410 27.353952 41.472321 -1.546860 0.850548 0.140648 -0.036379 -479192.000000 0 0 1
1.295375 -32.446010 26.662792 42.015783 -1.530894 0.883319 0.131647 -0.035916 768378.000000 0 0 1
2.713175 -32.651010 26.709682 42.271230 -1.487891 0.886840 0.120150 -0.028038 860098.000000 0 0 1
3.354475 -32.054510 25.575922 41.144524 -1.466527 0.899998 0.117680 -0.034622 -775691.000000 0 0 1
4.860575 -32.238810 25.487972 41.383605 -1.421156 0.907274 0.128974 -0.032358 -368974.000000 0 0 1
5.488075 -31.648910 24.342192 40.302789 -1.399099 0.922307 0.111671 -0.037120 -2980.750000 0 0 1
6.878975 -31.676910 24.562702 40.670299 -1.356956 0.922352 0.091701 -0.036711 -422672.000000 0 0 1
7.730475 -31.441010 23.305982 39.893184 -1.329706 0.946890 0.071363 -0.024074 -306470.000000 0 0 1
9.093975 -31.311810 23.632492 40.269399 -1.288140 0.943621 0.056712 -0.007061 -10002.900000 0 0 1
9.839575 -31.133310 22.440562 39.619175 -1.264684 0.968657 0.031749 -0.017760 136633.000000 0 0 1
10.951275 -30.050410 22.453562 39.078383 -1.221324 0.958708 0.023748 -0.011284 -434432.000000 0 0 1
11.952375 -30.297610 23.392642 40.100126 -1.195041 0.947942 0.032993 -0.006735 -173093.000000 0 0 1
13.040175 -29.426110 23.166832 39.656578 -1.153654 0.946919 0.034659 -0.008836 -110020.000000 0 0 1
14.299975 -29.634110 23.999012 40.726187 -1.121205 0.940632 0.065804 -0.016363 -297900.000000 0 0 1
14.048975 -29.241410 25.358142 41.176075 -1.122912 0.907336 0.057684 -0.012129 -126197.000000 0 0 1
15.211675 -29.117210 26.132912 41.977804 -1.089367 0.898811 0.068813 -0.018247 -360815.000000 0 0 1
-10.930125 -13.940103 25.066502 30.694033 0.905840 0.615201 0.073603 -0.033313 716998.000000 0 0 1
-9.501025 -13.878003 25.027042 30.153297 0.970474 0.591700 0.080753 -0.029775 129929.000000 0 0 1
-8.982625 -14.308203 26.297062 31.256163 1.010189 0.571039 0.073704 -0.026271 105478.000000 0 0 1
-7.437525 -14.337103 26.256592 30.826579 1.092253 0.551477 0.081246 -0.022331 135474.000000 0 0 1
-6.810325 -15.239403 25.349922 30.351911 1.150532 0.582300 0.085901 -0.027469 67859.900000 0 0 1
-6.888925 -14.953403 23.948922 29.062217 1.139086 0.602261 0.094323 -0.033214 -640427.000000 0 0 1
-6.405025 -16.120903 23.071402 28.865160 1.192610 0.644697 0.084381 -0.033365 298548.000000 0 0 1
-7.251625 -17.266503 22.916582 29.595404 1.173183 0.685142 0.090507 -0.032795 -134702.000000 0 0 1
-7.303125 -18.145203 24.019922 30.976454 1.188152 0.683408 0.092267 -0.026534 -639139.000000 0 0 1
-8.022525 -19.463403 23.997852 31.923062 1.179830 0.720099 0.084732 -0.021765 -1181080.000000 0 0 1
-9.390225 -19.365503 23.834972 32.113937 1.119306 0.734449 0.069373 -0.022815 -1180350.000000 0 0 1
-9.999825 -20.640903 23.791062 33.046301 1.119653 0.767093 0.058909 -0.024624 17224.100000 0 0 1
-11.529425 -20.599903 23.565772 33.356098 1.060549 0.786269 0.048005 -0.025731 63202.200000 0 0 1
-12.055025 -20.264803 24.829172 34.241403 1.034154 0.759586 0.054667 -0.026107 -565442.000000 0 0 1
-13.456725 -20.265903 24.903502 34.813427 0.984636 0.773683 0.056406 -0.020689 -36862.900000 0 0 1
-13.943425 -20.141003 26.443542 36.046360 0.965263 0.747195 0.064381 -0.018642 -248582.000000 0 0 1
-13.876825 -21.355903 27.127242 37.209248 0.994570 0.753870 0.058532 -0.017152 71521.000000 0 0 1
-12.749125 -21.491303 27.963912 37.501956 1.035375 0.729263 0.059629 -0.014580 -83567.200000 0 0 1
-12.539325 -22.903203 28.506752 38.657810 1.069881 0.741565 0.049128 -0.007447 40806.300000 0 0 1
-13.409325 -23.413903 29.530302 40.000745 1.050686 0.740333 0.051753 -0.007466 331527.000000 0 0 1
-12.997325 -24.742903 29.859902 40.899333 1.087118 0.752353 0.061238 -0.007835 -664995.000000 0 0 1
-13.939625 -25.473683 30.795142 42.326853 1.070093 0.756044 0.064258 -0.013410 -335426.000000 0 0 1
-13.999925 -24.913403 32.088582 42.969206 1.058830 0.727588 0.070457 -0.007638 97462.200000 0 0 1
-15.073925 -25.335883 32.905098 44.180037 1.034088 0.730568 0.070743 -0.009655 -132888.000000 0 0 1
-14.927825 -24.770903 -33.554691 44.298475 1.028441 2.430223 0.065180 -0.013245 88492.800000 0 0 1
-14.933625 -23.382903 -33.343021 43.376611 1.002437 2.447582 0.058820 -0.015385 383068.000000 0 0 1
-16.043525 -22.674803 -33.908711 43.833116 0.955022 2.455278 0.066629 -0.022144 -22326.700000 0 0 1
-15.895725 -21.193603 -33.598581 42.786768 0.927279 2.473906 0.041223 -0.018847 32321.200000 0 0 1
-16.248225 -20.867103 -32.264181 41.718319 0.909208 2.454955 0.042885 -0.016256 118578.000000 0 0 1
-16.120625 -19.470803 -32.128201 40.880411 0.879250 2.474958 0.040775 -0.018724 -390965.000000 0 0 1
-16.140025 -19.016603 -30.629531 39.500630 0.867038 2.458174 0.057602 -0.011833 634714.000000 0 0 1
-17.426225 -19.217903 -30.013081 39.670974 0.834253 2.428818 0.049649 -0.014093 645756.000000 0 0 1
-17.473525 -18.945003 -28.617091 38.512013 0.825781 2.408441 0.029101 -0.014947 -70375.900000 0 0 1
-16.779525 -19.945703 -27.670011 38.013327 0.871398 2.386055 0.032519 -0.010756 1022870.000000 0 0 1
-15.339725 -19.933003 -27.781211 37.475692 0.914891 2.405821 0.040351 -0.009256 870654.000000 0 0 1
-14.781825 -20.889303 -26.914021 37.137984 0.954970 2.381400 0.041249 -0.015086 -58385.800000 0 0 1
-13.262125 -21.076603 -27.002571 36.732084 1.009158 2.396643 0.095805 -0.020385 -110134.000000 0 0 1
-12.478125 -20.061103 -26.376771 35.410246 1.014353 2.411168 0.096285 -0.024870 1036620.000000 0 0 1
-11.067425 -20.283403 -26.251371 34.971972 1.071307 2.419827 0.087219 -0.027030 1128920.000000 0 0 1
-10.446325 -21.442203 -25.403621 34.845914 1.117453 2.387696 0.112752 -0.037939 -486843.000000 0 0 1
-10.236225 -22.666003 -26.139511 36.080494 1.146603 2.381073 0.110765 -0.041124 105008.000000 0 0 1
-9.983725 -23.698003 -25.222081 36.019765 1.172073 2.346514 0.143349 -0.043283 54720.700000 0 0 1
-9.909925 -25.104973 -25.825141 37.355109 1.194833 2.334141 0.131513 -0.037771 71528.100000 0 0 1
-8.613225 -25.422593 -26.296911 37.576900 1.244132 2.345936 0.127451 -0.043150 203744.000000 0 0 1
-8.593625 -26.735903 -26.920501 38.902086 1.259800 2.335061 0.117383 -0.033120 23600.100000 0 0 1
-8.621625 -28.049743 -26.036451 39.230311 1.272593 2.296527 0.121279 -0.032083 259042.000000 0 0 1
-9.855725 -28.166613 -25.308781 39.128350 1.234203 2.274196 0.119130 -0.038145 712312.000000 0 0 1
-9.875225 -29.339533 -24.509721 39.484867 1.246123 2.240479 0.157125 -0.037878 523852.000000 0 0 1
-11.124425 -29.302213 -23.569021 39.215702 1.207960 2.215560 0.164592 -0.041058 165303.000000 0 0 1
-10.878825 -28.205773 -22.670721 37.787247 1.202682 2.214244 0.140371 -0.047052 133818.000000 0 0 1
-11.804125 -27.157323 -22.888221 37.426304 1.160774 2.228820 0.131163 -0.046619 -105428.000000 0 0 1
-11.818825 -26.058353 -21.871421 36.015017 1.144992 2.223437 0.134789 -0.051317 -120099.000000 0 0 1
-12.388725 -26.524453 -20.657021 35.829312 1.133840 2.185284 0.107063 -0.046348 193778.000000 0 0 1
-12.330525 -25.618693 -19.566721 34.513995 1.122212 2.173560 0.106279 -0.045077 -58157.100000 0 0 1
-13.163125 -25.946543 -18.304821 34.373790 1.101312 2.132374 0.120912 -0.044721 1216830.000000 0 0 1
-14.597325 -25.739443 -18.314821 34.799906 1.054905 2.125027 0.140247 -0.044756 1331720.000000 0 0 1
-15.092625 -26.220503 -17.056521 34.730779 1.048508 2.084156 0.129161 -0.042846 -255373.000000 0 0 1
-16.610125 -26.208033 -16.852921 35.309746 1.005908 2.068362 0.139434 -0.045515 -1525440.000000 0 0 1
-17.269925 -24.987503 -16.740421 34.682377 0.966040 2.074506 0.118397 -0.031702 387256.000000 0 0 1
-18.658625 -25.194713 -16.480421 35.419234 0.933353 2.054765 0.122974 -0.029866 930711.000000 0 0 1
-19.660125 -25.882013 -17.458321 36.894337 0.921176 2.063714 0.110864 -0.029801 -806057.000000 0 0 1
-19.430025 -27.324833 -17.652321 37.891646 0.952676 2.055406 0.120157 -0.038277 4874.750000 0 0 1
-19.696425 -28.179963 -16.510321 38.139876 0.960774 2.018491 0.120514 -0.039747 -418160.000000 0 0 1
-21.186525 -28.536753 -16.312021 39.106229 0.932158 2.001071 0.110164 -0.030198 207251.000000 0 0 1
-21.697325 -29.363693 -17.397321 40.443382 0.934426 2.015472 0.099690 -0.028561 -8717.840000 0 0 1
-23.030225 -29.738433 -17.113621 41.323621 0.911845 1.997790 0.090559 -0.019434 236839.000000 0 0 1
-23.629425 -30.580543 -18.279321 42.751057 0.912928 2.012606 0.073823 -0.027044 66472.000000 0 0 1
-23.166125 -31.950733 -18.150821 43.439279 0.943450 2.001867 0.072696 -0.028325 251423.000000 0 0 1
-23.424025 -32.698603 -19.301421 44.614218 0.949174 2.018203 0.056112 -0.018078 -50160.600000 0 0 1
-22.825925 33.912832 -19.255121 45.186975 -0.978369 2.010997 0.039138 -0.012989 37260.000000 0 0 1
-23.523725 32.952065 -18.535521 44.528303 -0.950817 2.000129 0.043766 -0.012955 490806.000000 0 0 1
-22.617325 31.830784 -18.396021 43.164288 -0.953026 2.011069 0.034091 -0.018017 640347.000000 0 0 1
-23.341325 30.560884 -17.938121 42.433021 -0.918544 2.007263 0.051638 -0.028710 110938.000000 0 0 1
-24.004225 30.599464 -16.676821 42.316030 -0.905600 1.975887 0.044116 -0.034331 261184.000000 0 0 1
-24.719125 29.417824 -16.278021 41.730294 -0.871974 1.971511 0.048103 -0.025199 -118636.000000 0 0 1
-23.926925 28.154444 -15.977721 40.254913 -0.866392 1.978948 0.053101 -0.024322 -670815.000000 0 0 1
-23.365525 27.586264 -17.090121 39.987772 -0.868047 2.012393 0.029135 -0.010529 -178073.000000 0 0 1
-22.767125 26.328414 -16.761221 38.632446 -0.857809 2.019573 0.030621 -0.008587 -344065.000000 0 0 1
-21.941225 25.807454 -17.934821 38.328838 -0.866192 2.057732 0.026799 0.003559 -1291850.000000 0 0 1
-21.585125 24.454474 -17.693821 37.108088 -0.847641 2.067828 0.048638 -0.008337 143521.000000 0 0 1
-20.802425 23.928954 -18.756021 36.839164 -0.855180 2.104973 0.039238 0.002587 15995.200000 0 0 1
-19.390325 24.505734 -18.955121 36.548766 -0.901409 2.116039 0.032790 -0.003986 -1493960.000000 0 0 1
-18.488125 24.190804 -17.913921 35.325831 -0.918230 2.102619 0.054960 -0.012420 72448.700000 0 0 1
-17.393125 25.085764 -17.972421 35.423499 -0.964550 2.102913 0.074431 -0.018957 -141717.000000 0 0 1
-17.532425 26.340414 -17.087921 35.961095 -0.983526 2.065963 0.084284 -0.035426 -803007.000000 0 0 1
-18.542325 27.182074 -17.555721 37.294588 -0.972149 2.060916 0.053236 -0.019617 -287785.000000 0 0 1
-18.569925 28.332844 -16.712221 37.774204 -0.990620 2.029096 0.062540 -0.028187 932158.000000 0 0 1
-19.763025 29.332524 -17.125921 39.297217 -0.977900 2.021729 0.038297 -0.023505 834671.000000 0 0 1
-19.678525 29.931914 -18.391721 40.266850 -0.989207 2.045130 0.033518 -0.020904 123517.000000 0 0 1
-19.900225 29.021064 -19.507721 40.234218 -0.969721 2.076993 0.015312 -0.008817 -387134.000000 0 0 1
-19.725725 29.775384 -20.820521 41.342131 -0.985695 2.098575 0.023392 -0.015250 141576.000000 0 0 1
-20.751625 30.743374 -20.969721 42.608851 -0.977050 2.085348 0.032801 -0.015255 416704.000000 0 0 1
-21.152325 30.772274 -22.352521 43.519982 -0.968589 2.110189 0.040708 -0.013868 125995.000000 0 0 1
-21.770525 32.124521 -22.800221 45.008784 -0.975200 2.102001 0.043653 -0.018588 204820.000000 0 0 1
-20.801725 33.143774 -23.019421 45.399507 -1.010315 2.102545 0.041976 -0.018274 180038.000000 0 0 1
-21.313025 -33.837973 -23.731721 46.502129 1.008713 2.106372 0.065546 -0.020178 -348114.000000 0 0 1
-20.453325 -32.567893 -23.501921 45.070461 1.010027 2.119344 0.079116 -0.024414 137405.000000 0 0 1
-20.262725 -31.933503 -22.240521 43.874451 1.005374 2.102396 0.077441 -0.031667 755458.000000 0 0 1
-19.451225 -32.693253 -21.280021 43.589428 1.034090 2.080814 0.087196 -0.042058 252741.000000 0 0 1
-19.177125 -31.730143 -20.046421 42.147634 1.027161 2.066469 0.103602 -0.046433 -61559.000000 0 0 1
-18.117925 -30.828683 -20.307521 41.122528 1.039472 2.087285 0.114321 -0.051687 227468.000000 0 0 1
-17.898325 -29.933403 -19.252121 39.837204 1.031894 2.075182 0.105023 -0.047583 -233952.000000 0 0 1
-16.688925 -29.014713 -19.543221 38.759660 1.048821 2.099270 0.127413 -0.046574 -318623.000000 0 0 1
-15.511725 -29.757703 -19.466821 38.795510 1.090280 2.096452 0.134641 -0.052478 -1149900.000000 0 0 1
-14.433925 -29.035033 -19.932821 38.061643 1.109455 2.121983 0.126401 -0.054798 -1063320.000000 0 0 1
-13.261325 -29.865213 -20.518421 38.584962 1.152910 2.131488 0.156718 -0.051840 632313.000000 0 0 1
-12.394325 -30.521543 -19.565721 38.314505 1.185056 2.106750 0.146443 -0.048924 1003250.000000 0 0 1
-11.486425 -29.621723 -18.870921 36.952620 1.200877 2.106770 0.131264 -0.044675 -357881.000000 0 0 1
-10.755325 -30.311733 -17.720621 36.721909 1.229831 2.074375 0.129880 -0.027051 -62411.000000 0 0 1
-11.516125 -30.792943 -16.598521 36.828486 1.212915 2.038343 0.143474 -0.047272 82585.000000 0 0 1
-12.372325 -31.890183 -16.859321 38.135219 1.200706 2.028727 0.149011 -0.049579 -530088.000000 0 0 1
-13.248925 -32.383313 -15.742021 38.366968 1.182446 1.993581 0.128949 -0.049602 -864280.000000 0 0 1
-12.668525 -32.942463 -14.616021 38.201119 1.203666 1.963413 0.117115 -0.038839 355941.000000 0 0 1
-13.626725 -33.553663 -13.723321 38.728097 1.185028 1.933016 0.114853 -0.031614 639134.000000 0 0 1
-12.826625 33.967405 -12.496821 38.398925 -1.209734 1.902281 0.103577 -0.027276 221069.000000 0 0 1
-12.155425 -33.103373 -11.749021 37.170246 1.218885 1.892398 0.091837 -0.003740 77501.900000 0 0 1
-11.979125 -33.391063 -10.363421 36.957584 1.226346 1.855022 0.088316 -0.009740 7740.320000 0 0 1
-10.761025 -32.680663 -9.700621 35.748111 1.252700 1.845602 0.074386 -0.014020 187220.000000 0 0 1
-9.574925 -33.410503 -9.923321 36.144338 1.291693 1.848915 0.054099 -0.015503 -798831.000000 0 0 1
-8.463925 -32.643433 -9.563721 35.052767 1.317099 1.847138 0.041267 -0.016595 -478427.000000 0 0 1
-7.189825 -33.178683 -10.226121 35.455495 1.357396 1.863374 0.058352 -0.030379 -238029.000000 0 0 1
-6.706825 33.647027 -9.670721 35.645852 -1.374046 1.845540 0.050724 -0.016649 -1440020.000000 0 0 1
-5.497725 33.355816 -10.212121 35.314626 -1.407444 1.864162 0.060132 -0.016598 -1570610.000000 0 0 1
-4.801825 32.272566 -9.438521 33.965596 -1.423090 1.852388 0.067744 -0.023353 -258439.000000 0 0 1
-4.239225 32.715422 -8.215221 33.996466 -1.441936 1.814861 0.080404 -0.028901 193167.000000 0 0 1
-3.632225 31.600964 -7.507221 32.682906 -1.456358 1.802564 0.084111 -0.037428 302982.000000 0 0 1
-3.140925 32.038664 -6.101521 32.765377 -1.473073 1.758108 0.093520 -0.042653 410435.000000 0 0 1
-2.064725 33.005428 -6.113321 33.630256 -1.508321 1.753593 0.078067 -0.037880 566100.000000 0 0 1
-1.678225 33.512642 -4.838021 33.901623 -1.520761 1.713993 0.082541 -0.036639 389263.000000 0 0 1
-0.564925 32.775434 -4.029321 33.027013 -1.553562 1.693102 0.085826 -0.046487 -1161990.000000 0 0 1
0.686375 32.893024 -4.543121 33.212378 1.549932 1.708017 0.092084 -0.040694 -966927.000000 0 0 1
1.690275 32.321800 -3.691921 32.575851 1.518549 1.684373 0.083129 -0.040108 703281.000000 0 0 1
3.166975 32.457920 -4.108121 32.869788 1.473532 1.696106 0.071988 -0.029460 368942.000000 0 0 1
3.785675 33.737879 -3.802521 34.161893 1.459055 1.682336 0.075449 -0.023116 672795.000000 0 0 1
5.204975 33.660103 -4.040521 34.298981 1.417378 1.688873 0.079778 -0.016419 1144680.000000 0 0 1
5.884475 -33.025883 -3.653621 33.744406 -1.394469 1.679282 0.075248 -0.016066 130723.000000 0 0 1
5.732275 -32.001073 -4.605021 32.834949 -1.393549 1.711508 0.079993 -0.026169 -46272.900000 0 0 1
6.373675 -30.834893 -4.119221 31.755036 -1.366964 1.700882 0.081944 -0.024530 121079.000000 0 0 1
6.110375 -29.555713 -4.995021 30.591291 -1.366928 1.734813 0.096252 -0.033678 -174943.000000 0 0 1
6.936575 -29.485653 -6.140121 30.906648 -1.339745 1.770794 0.102469 -0.034408 -69870.200000 0 0 1
6.810475 -28.323963 -6.925721 29.943197 -1.334827 1.804205 0.110393 -0.032722 24066.500000 0 0 1
7.283675 -26.993763 -6.355521 28.672422 -1.307245 1.794313 0.100865 -0.026975 279685.000000 0 0 1
6.532275 -26.566683 -5.207121 27.849118 -1.329697 1.758879 0.092846 -0.028893 17508.200000 0 0 1
7.033875 -25.388823 -4.621121 26.747383 -1.300529 1.744437 0.078473 -0.029159 60116.500000 0 0 1
5.997975 -24.883203 -3.587121 25.846023 -1.334263 1.710034 0.080457 -0.026613 834906.000000 0 0 1
4.756675 -24.413003 -4.097121 25.207282 -1.378365 1.734058 0.084063 -0.025888 297081.000000 0 0 1
3.980975 -23.712103 -3.128221 24.246603 -1.404460 1.700174 0.066725 -0.021398 1026840.000000 0 1 0
2.625375 -23.123303 -3.662221 23.558260 -1.457742 1.726883 0.066964 -0.017435 1075920.000000 0 1 0
1.722775 -24.086403 -4.184321 24.507780 -1.499393 1.742371 0.080218 -0.018536 -235402.000000 0 1 0
0.498875 -23.494203 -4.546321 23.935235 -1.549566 1.761900 0.057767 -0.017824 160323.000000 0 1 0
-15.487725 23.092197 18.106762 33.180929 -0.980013 0.993575 0.006698 -0.014455 -232272.000000 0 0 1
-15.606725 22.609297 19.442162 33.656320 -0.966624 0.954928 0.012788 -0.012015 251530.000000 0 0 1
-15.644625 23.614497 20.371562 34.891250 -0.985683 0.947323 0.025459 -0.008669 -996222.000000 0 0 1
-15.543325 22.890397 21.720362 35.175835 -0.974282 0.905262 0.035469 -0.014031 1054000.000000 0 0 1
-14.336925 22.091997 22.053762 34.350723 -0.995149 0.873670 0.027550 -0.009976 1520230.000000 0 0 1
-13.112725 22.785997 22.104662 34.347654 -1.048607 0.871660 0.008194 -0.012122 -455013.000000 0 0 1
-12.915625 23.837697 23.167692 35.662181 -1.074259 0.863681 0.041002 -0.011334 -911549.000000 0 0 1
-12.380825 23.312697 24.363162 35.921169 -1.082598 0.825432 0.035020 -0.008054 142560.000000 0 0 1
-12.481125 24.245197 25.426962 37.284561 -1.095389 0.820343 0.069114 -0.018513 -237990.000000 0 0 1
-11.904025 23.714897 26.725352 37.660943 -1.105579 0.781823 0.066100 -0.017133 -530178.000000 0 0 1
-10.520525 23.565597 26.715792 37.145018 -1.150910 0.768104 0.040726 -0.017648 -754084.000000 0 0 1
-10.080925 22.843797 27.841962 37.398382 -1.155202 0.731056 0.028484 -0.017200 -971470.000000 0 0 1
-8.605825 22.479697 27.853572 36.813292 -1.205182 0.712672 0.038070 -0.026609 43440.600000 0 0 1
-7.671825 23.531997 28.149782 37.483624 -1.255645 0.721238 0.056580 -0.026569 379776.000000 0 0 1
-7.439325 24.533597 27.108312 37.310877 -1.276379 0.757505 0.058004 -0.017310 -927789.000000 0 0 1
-6.364325 25.485197 27.572132 38.081786 -1.326075 0.761178 0.056024 -0.025216 -825599.000000 0 0 1
-5.075025 24.963297 27.539282 37.514453 -1.370230 0.746459 0.064177 -0.022563 -1113040.000000 0 0 1
-4.137425 25.917297 27.918242 38.317787 -1.412493 0.754524 0.073608 -0.019056 599800.000000 0 0 1
-2.663325 25.400897 28.045752 37.932349 -1.466326 0.738673 0.066344 -0.021608 423721.000000 0 0 1
-2.059625 25.123397 26.805692 36.796362 -1.488999 0.754685 0.072143 -0.024050 493175.000000 0 0 1
-0.663825 24.830897 26.977322 36.671379 -1.544069 0.744170 0.081684 -0.014681 1050580.000000 0 0 1
0.150075 24.720497 25.669982 35.638090 1.564726 0.766567 0.074244 -0.021330 52668.400000 0 0 1
-0.091625 23.511797 24.908362 34.252584 -1.566899 0.756567 0.085802 -0.016708 -164850.000000 0 0 1
0.483575 23.419297 23.609892 33.258448 1.550151 0.781452 0.093906 -0.013987 -91701.800000 0 0 1
0.092075 22.125097 22.942092 31.872684 1.566635 0.767276 0.070093 -0.017217 -192568.000000 0 0 1
0.641575 20.930497 23.345602 31.361034 1.540153 0.731139 0.092235 -0.015650 -512190.000000 0 0 1
0.215575 19.853597 22.564762 30.056285 1.559939 0.721599 0.087693 -0.011468 35241.600000 0 0 1
1.122975 18.589197 22.679862 29.346132 1.510460 0.687492 0.092931 -0.004506 -613894.000000 0 0 1
2.324475 18.748597 22.029462 29.020860 1.447445 0.708881 0.070386 -0.006036 -1126700.000000 0 0 1
3.045575 17.547197 21.948562 28.265156 1.398944 0.681667 0.057906 -0.006386 -497493.000000 0 0 1
4.506975 17.671397 21.534562 28.219293 1.321077 0.702677 0.055567 -0.006146 -674584.000000 0 0 1
5.373975 18.311997 22.441562 29.458998 1.285343 0.704725 0.049551 -0.003621 -1178790.000000 0 0 1
6.549175 18.501797 21.730762 29.281978 1.230585 0.734567 0.059902 -0.011624 -216736.000000 0 0 1
7.724575 19.012897 22.671362 30.580222 1.184887 0.735682 0.073884 -0.021702 322205.000000 0 0 1
7.487575 20.322197 23.263652 31.784477 1.217786 0.749663 0.056893 -0.011229 82785.800000 0 0 1
7.129475 21.358897 22.434962 31.786152 1.248631 0.787231 0.063621 -0.017113 -119900.000000 0 0 1
6.062575 22.323597 23.044462 32.651877 1.305615 0.787298 0.039557 -0.009704 177037.000000 0 0 1
6.046875 23.602097 22.480062 33.150820 1.319990 0.825602 0.030084 -0.011974 1074320.000000 0 0 1
4.849975 24.320497 22.888882 33.747737 1.373959 0.825439 0.009932 -0.007400 708585.000000 0 0 1
4.704675 25.728997 22.220162 34.319832 1.389939 0.866571 0.028093 -0.009368 -11309.200000 0 0 1
4.298275 25.775797 20.846662 33.428285 1.405560 0.897427 0.037056 -0.014818 841443.000000 0 0 1
3.039575 25.179797 20.437062 32.571993 1.450663 0.892532 0.056934 -0.017366 796004.000000 0 0 1
2.519275 25.452097 18.984462 31.852250 1.472137 0.932266 0.055322 -0.026633 -243816.000000 0 0 1
1.820575 26.708497 18.975062 32.813279 1.502737 0.954185 0.069376 -0.030146 220088.000000 0 0 1
1.257575 26.947197 17.722962 32.277489 1.524162 0.989532 0.081300 -0.029309 -324664.000000 0 0 1
0.239975 28.104697 17.770262 33.252275 1.562258 1.006990 0.069155 -0.012495 -274510.000000 0 0 1
0.718375 29.364297 18.193862 34.551333 1.546337 1.016230 0.080111 -0.015579 754484.000000 0 0 1
-0.353925 30.313397 18.309762 35.415741 -1.559121 1.027460 0.059662 -0.012548 629710.000000 0 0 1
0.297675 31.582697 18.863562 36.788440 1.561371 1.032402 0.067051 -0.009569 132040.000000 0 0 1
0.599275 31.488297 20.191362 37.410735 1.551767 1.000691 0.073362 -0.015010 -87828.000000 0 0 1
1.110175 32.722797 20.758162 38.767451 1.536883 1.005752 0.081490 -0.014820 -78683.900000 0 0 1
1.506975 32.512297 22.220362 39.408945 1.524479 0.971768 0.085292 -0.025567 -542946.000000 0 0 1
0.466375 32.188697 23.077042 39.609085 1.556309 0.948848 0.085104 -0.018921 -367536.000000 0 0 1
0.913175 32.336497 24.383532 40.509747 1.542564 0.924896 0.096715 -0.026779 -560474.000000 0 0 1
-0.174425 32.112797 25.401892 40.945309 -1.565365 0.901562 0.087358 -0.022222 -950289.000000 0 0 1
-1.129325 33.141697 25.466212 41.811188 -1.536734 0.915901 0.091955 -0.018029 145179.000000 0 0 1
-2.175025 32.874497 26.394432 42.215274 -1.504731 0.895365 0.089146 -0.021239 214005.000000 0 0 1
-1.840925 33.133697 27.878802 43.341187 -1.515293 0.872073 0.101192 -0.029717 292794.000000 0 0 1
-0.813925 32.328497 28.525432 43.121856 -1.545625 0.847969 0.101386 -0.027359 844514.000000 0 0 1
-0.331725 32.930897 29.737212 44.371791 -1.560723 0.836341 0.095542 -0.031249 53634.100000 0 0 1
0.879475 32.148597 30.341032 44.214070 1.543447 0.814503 0.086126 -0.027759 617997.000000 0 0 1
2.154875 32.165297 29.720532 43.847005 1.503902 0.825998 0.084860 -0.026735 329575.000000 0 0 1
2.265075 31.650097 28.386852 42.575493 1.499352 0.840968 0.085997 -0.031239 -40206.600000 0 0 1
3.736875 31.483097 27.871392 42.213317 1.452654 0.849643 0.078385 -0.025166 877079.000000 0 0 1
4.465775 30.402297 28.452942 41.878548 1.424950 0.823830 0.077007 -0.029448 475991.000000 0 0 1
5.829375 30.383897 28.029152 41.746811 1.381242 0.834689 0.109190 -0.042843 351456.000000 0 0 1
6.536375 29.151397 28.628762 41.377943 1.350223 0.806700 0.123267 -0.029544 -70665.600000 0 0 1
6.832675 29.371897 30.031012 42.558847 1.342235 0.787477 0.122856 -0.042544 123141.000000 0 0 1
7.468775 28.187197 30.487262 42.187366 1.311778 0.763149 0.113058 -0.042638 25533.900000 0 0 1
7.542975 28.192497 32.040336 43.339318 1.309367 0.738781 0.130821 -0.036354 1508360.000000 0 0 1
6.262175 28.132097 32.781161 43.648989 1.351768 0.721194 0.106399 -0.034314 1423410.000000 0 0 1
6.385975 28.032497 -33.653841 44.262654 1.346813 2.434604 0.113811 -0.027458 -31945.300000 0 0 1
6.432575 26.588697 -33.156991 42.985147 1.333428 2.451771 0.114385 -0.021511 -81544.500000 0 0 1
7.731875 26.101997 -33.383201 43.075913 1.282813 2.457488 0.119642 -0.026279 -139337.000000 0 0 1
7.939275 24.758097 -32.958931 41.979597 1.260482 2.473683 0.128977 -0.026830 -744297.000000 0 0 1
9.314475 24.192297 -33.214711 42.133641 1.203272 2.478867 0.125895 -0.026131 -937632.000000 0 0 1
9.535675 24.083597 33.262571 42.158598 1.193794 0.661638 0.114547 -0.022245 366228.000000 0 0 1
10.821175 23.535397 32.983320 41.939387 1.139837 0.665753 0.115843 -0.036827 115965.000000 0 0 1
11.049975 21.989797 33.096276 41.243383 1.105147 0.639385 0.108583 -0.035624 -769328.000000 0 0 1
10.319075 21.286797 32.110205 39.883284 1.119412 0.634945 0.102541 -0.038732 36868.000000 0 0 1
10.237575 19.926997 32.522746 39.492052 1.096206 0.603197 0.090282 -0.045006 855333.000000 0 0 1
9.036775 19.637397 33.536943 39.900091 1.139507 0.572549 0.119899 -0.041389 648019.000000 0 0 1
9.161475 20.280397 -33.084181 39.872173 1.146496 2.549467 0.141305 -0.042022 -769878.000000 0 0 1
7.894375 20.243797 -32.536301 39.124715 1.198971 2.552787 0.139806 -0.039513 -661702.000000 0 0 1
7.908675 20.742097 -31.045261 38.165298 1.206526 2.520842 0.140343 -0.039274 -297625.000000 0 0 1
8.135875 22.154897 -30.947561 38.920219 1.218858 2.490058 0.150852 -0.032983 191899.000000 0 0 1
8.030575 22.543497 -29.589151 38.055450 1.228586 2.461520 0.115032 -0.027793 151156.000000 0 0 1
9.455675 22.819397 -29.044231 38.127445 1.177964 2.436833 0.103999 -0.025244 536074.000000 0 0 1
10.151975 21.561497 -28.894991 37.455056 1.130749 2.451925 0.093629 -0.021134 -41264.600000 0 0 1
11.546375 21.768397 -28.923411 37.996652 1.083111 2.435972 0.094657 -0.014016 534897.000000 0 0 1
12.505475 20.523897 -28.914671 37.598876 1.023557 2.448119 0.095185 -0.021411 263418.000000 0 0 1
12.451775 19.776897 -30.103161 38.110007 1.008887 2.481445 0.097321 -0.023693 747917.000000 0 0 1
11.233575 19.072797 -30.434791 37.632982 1.038516 2.512780 0.110501 -0.028740 249453.000000 0 0 1
11.415775 18.031997 -31.543841 38.085256 1.006405 2.546761 0.115106 -0.040755 -434447.000000 0 0 1
11.972275 16.778697 -31.116121 37.323894 0.951041 2.556532 0.122862 -0.033103 171896.000000 0 0 1
12.113475 15.875497 -32.210461 37.898304 0.919008 2.586626 0.114360 -0.029245 101320.000000 0 0 1
13.351675 16.046497 -33.136051 39.163186 0.876809 2.579426 0.094330 -0.013774 -110454.000000 0 0 1
13.350375 17.295197 -33.769981 40.221486 0.913418 2.567344 0.099069 -0.026034 -324796.000000 0 0 1
13.966375 17.375497 32.864934 39.712359 0.893744 0.596023 0.096109 -0.028084 -360316.000000 0 0 1
13.103575 16.935097 31.684342 38.241322 0.912266 0.594307 0.097332 -0.037169 -861280.000000 0 0 1
13.431275 17.636697 30.525432 37.726042 0.919942 0.628119 0.091135 -0.034239 -14082.200000 0 0 1
12.624675 17.395497 29.380002 36.402888 0.943001 0.631608 0.086131 -0.035833 659503.000000 0 0 1
11.146775 17.902897 29.370052 36.157493 1.013907 0.622744 0.065630 -0.028965 559035.000000 0 0 1
10.412675 17.256597 30.391102 36.466876 1.027879 0.585584 0.072378 -0.030359 202886.000000 0 0 1
8.985175 17.356597 30.388702 36.131123 1.093104 0.571543 0.075864 -0.031749 1176500.000000 0 0 1
8.266275 16.224997 31.209092 36.132939 1.099595 0.528172 0.099461 -0.032678 309847.000000 0 0 1
8.509775 16.463697 32.600818 37.500439 1.093735 0.516921 0.113077 -0.027273 399251.000000 0 0 1
7.876875 15.422897 33.373369 37.599105 1.098605 0.478665 0.132914 -0.035400 132893.000000 0 0 1
7.919575 15.639897 -32.986461 37.355490 1.102066 2.653101 0.123484 -0.032380 57768.900000 0 0 1
6.964975 16.586897 -32.521621 37.165735 1.173246 2.636321 0.123880 -0.037454 262556.000000 0 0 1
6.972475 16.801597 -31.097901 36.027608 1.177436 2.612308 0.126464 -0.045334 331744.000000 0 0 1
5.827075 17.754297 -30.601651 35.855696 1.253667 2.593398 0.132401 -0.047435 -179108.000000 0 0 1
5.877075 17.923597 -29.189991 34.754150 1.253947 2.567894 0.123622 -0.054969 528053.000000 0 0 1
5.011575 18.955897 -28.674771 34.737363 1.312329 2.541837 0.131625 -0.056562 1116910.000000 0 0 1
3.464775 18.733897 -28.711281 34.457238 1.387916 2.555745 0.163370 -0.065045 -384365.000000 0 0 1
2.987875 17.705597 -27.845851 33.133170 1.403618 2.568858 0.170916 -0.062166 631719.000000 0 0 1
1.602175 17.373997 -28.030401 33.017058 1.478840 2.584824 0.161852 -0.061174 1403690.000000 0 0 1
0.530375 18.453497 -27.640691 33.238842 1.542063 2.552739 0.155301 -0.067190 -298185.000000 0 0 1
0.340675 18.679697 -26.238561 32.210390 1.552561 2.522834 0.169359 -0.071045 58175.900000 0 0 1
-0.485825 19.831997 -26.071291 32.760591 -1.546304 2.491145 0.175572 -0.063025 141005.000000 0 0 1
-1.058825 20.202697 -24.692521 31.921633 -1.518434 2.455198 0.153505 -0.063410 621810.000000 0 0 1
-2.235625 19.429897 -24.396221 31.268107 -1.456239 2.465825 0.140720 -0.060027 592297.000000 0 0 1
-2.657925 19.655297 -23.023721 30.388929 -1.436385 2.430478 0.138807 -0.058387 -387007.000000 0 0 1
-3.732625 18.725397 -22.553121 29.550233 -1.374040 2.439067 0.106372 -0.043834 1324600.000000 0 0 1
-5.133625 19.136097 -22.510021 29.987420 -1.308698 2.419840 0.105934 -0.029820 1762670.000000 0 0 1
-6.073725 18.223497 -21.957621 29.174014 -1.249084 2.422864 0.096165 -0.031419 183668.000000 0 0 1
-7.508725 18.745297 -22.057421 29.904798 -1.189802 2.400288 0.101029 -0.019610 -392463.000000 0 0 1
-8.080725 19.746497 -21.255021 30.116410 -1.182364 2.354295 0.074087 -0.017956 10156.500000 0 0 1
-7.733325 21.103197 -21.569021 31.150793 -1.219540 2.335616 0.086435 -0.027223 -99443.700000 0 0 1
-8.265925 22.188797 -20.658821 31.423799 -1.214196 2.288194 0.096852 -0.031981 260317.000000 0 0 1
-7.495925 22.150197 -19.442921 30.411302 -1.244481 2.264426 0.112952 -0.036091 439263.000000 0 0 1
-7.856225 23.187297 -18.612721 30.753933 -1.244120 2.220831 0.114595 -0.038369 -191134.000000 0 0 1
-6.992225 23.292297 -17.327421 29.860707 -1.279161 2.189863 0.135802 -0.044947 -131374.000000 0 0 1
-5.690425 23.728697 -17.605121 30.089405 -1.335429 2.195792 0.141207 -0.052409 -860008.000000 0 0 1
-4.873025 23.623597 -16.475621 29.210731 -1.367372 2.170050 0.123822 -0.044737 524532.000000 0 0 1
-3.361525 23.909897 -16.729121 29.374249 -1.431120 2.176714 0.117368 -0.041067 596207.000000 0 0 1
-2.975225 25.255197 -16.862721 30.512756 -1.453530 2.156331 0.100765 -0.040512 -98766.600000 0 0 1
-1.655125 25.387197 -17.350921 30.794540 -1.505693 2.169342 0.103843 -0.044547 147014.000000 0 0 1
-1.308025 26.868797 -17.345421 32.007918 -1.522153 2.143505 0.104638 -0.060395 -284025.000000 0 0 1
-2.130925 27.576697 -18.193921 33.106402 -1.493677 2.152633 0.117988 -0.067265 -272285.000000 0 0 1
-1.659525 28.915297 -18.221521 34.218011 -1.513467 2.132363 0.119521 -0.064954 -911864.000000 0 0 1
-2.589225 29.864797 -18.967621 35.473664 -1.484314 2.134944 0.153324 -0.068174 -262909.000000 0 0 1
-3.799525 30.194597 -18.333921 35.528619 -1.445620 2.113009 0.129625 -0.060488 -267538.000000 0 0 1
-4.781625 29.197797 -18.628321 34.962689 -1.408471 2.132709 0.100737 -0.063338 -1261470.000000 0 0 1
-6.117125 29.535797 -17.992521 35.121409 -1.366575 2.108651 0.127579 -0.053704 -429398.000000 0 0 1
-6.745925 30.759797 -18.382021 36.463287 -1.354904 2.099164 0.160584 -0.047706 204470.000000 0 0 1
-6.476625 31.805997 -17.433221 36.844068 -1.369914 2.063673 0.153993 -0.079826 -87830.600000 0 0 1
-7.177425 33.132597 -17.750821 38.267167 -1.357465 2.053150 0.148702 -0.046402 246987.000000 0 0 1
-8.592025 33.149297 -17.698121 38.547662 -1.317185 2.047804 0.155116 -0.069667 146242.000000 0 0 1
-9.077825 -33.613910 -17.891621 39.146033 1.307027 2.045470 0.184609 -0.054630 -70422.600000 0 0 1
29.968875 -20.181803 -26.230711 44.648503 -0.592667 2.198754 0.088886 -0.012474 146695.000000 0 0 1
29.614775 -21.499903 -25.823661 44.789979 -0.627954 2.185296 0.087282 -0.024478 -642662.000000 0 0 1
28.231475 -21.612703 -25.631121 43.830121 -0.653381 2.195409 0.076486 -0.017685 -94195.100000 0 0 1
27.898275 -23.016303 -25.011421 43.973118 -0.689805 2.175829 0.057341 -0.017008 -20990.300000 0 0 1
28.156875 -24.184303 -25.728271 45.162308 -0.709646 2.176918 0.061551 -0.005394 239852.000000 0 0 1
29.507975 -24.656903 -25.757731 46.283303 -0.696075 2.160991 0.074893 -0.005917 508108.000000 0 0 1
29.731175 -26.000163 -26.501081 47.563206 -0.718552 2.161778 0.073957 -0.008333 -14405.100000 0 0 1
29.350075 -27.117753 -25.650871 47.484383 -0.745886 2.141466 0.087876 -0.019156 -101282.000000 0 0 1
29.259875 -28.359633 -26.332561 48.516109 -0.769776 2.144515 0.073810 -0.015014 797277.000000 0 0 1
28.080275 -28.668933 -27.354831 48.566412 -0.795771 2.169105 0.087756 -0.020786 263371.000000 0 0 1
28.204375 -28.034623 -28.607191 48.987735 -0.782380 2.194403 0.053279 -0.018091 -88386.100000 0 0 1
29.274975 -28.342323 -29.476841 50.291108 -0.769213 2.197063 0.036367 -0.015037 -483072.000000 0 0 1
29.520875 -29.783353 -30.000101 51.560995 -0.789824 2.191782 0.041831 -0.013571 -1281110.000000 0 0 1
30.073675 -30.713283 -29.073671 51.894220 -0.795920 2.165482 0.054664 -0.013118 1439280.000000 0 0 1
31.442175 -30.438753 -28.634001 52.297553 -0.769184 2.150195 0.057764 -0.012379 1415850.000000 0 0 1
32.520275 -30.347263 -29.755391 53.515493 -0.750847 2.160379 0.048489 -0.015460 -1108560.000000 0 0 1
32.518275 -29.208743 -30.579481 53.345042 -0.731834 2.181250 0.060001 -0.020372 1125830.000000 0 0 1
33.870675 -28.992253 -31.087661 54.352700 -0.707949 2.179692 0.061402 -0.022570 1190130.000000 0 0 1
33.970775 -27.619293 -31.853801 54.143361 -0.682636 2.199780 0.059766 -0.010860 -3573.660000 0 0 1
33.845875 -26.361703 -31.194801 53.043362 -0.661726 2.199504 0.048091 -0.007387 216164.000000 0 0 1
32.564475 -26.100653 -30.626051 51.765279 -0.675659 2.203879 0.063170 -0.006685 312028.000000 0 0 1
32.451775 -24.753703 -29.869501 50.577175 -0.651633 2.202565 0.055682 -0.010644 -250056.000000 0 0 1
33.168475 -24.646403 -28.660091 50.289101 -0.639049 2.177189 0.062991 -0.011504 -54719.500000 0 0 1
32.984375 -23.346203 -28.016811 49.172715 -0.615939 2.177014 0.058651 -0.012712 225804.000000 0 0 1
33.991175 -22.892703 -26.900211 49.021395 -0.592711 2.151658 0.062115 -0.014416 81970.800000 0 0 1
33.892875 -23.611403 -25.667061 48.631506 -0.608473 2.126789 0.069237 -0.020855 220300.000000 0 0 1
32.877375 -23.125603 -24.790621 47.225948 -0.612997 2.123437 0.081921 -0.016969 28285.300000 0 0 1
33.204275 -21.934503 -23.842021 46.390605 -0.583786 2.110569 0.092182 -0.014836 -261356.000000 0 0 1
33.349675 -20.818603 -24.687421 46.422880 -0.558061 2.131514 0.094669 -0.024584 -8213.250000 0 0 1
33.380175 -19.734603 -23.735621 45.465045 -0.533929 2.120064 0.078091 -0.029891 -4063.700000 0 0 1
33.474875 -18.360803 -24.484821 45.356287 -0.501687 2.141035 0.073799 -0.040662 142997.000000 0 0 1
32.256875 -18.152803 -25.159111 44.755012 -0.512585 2.167782 0.093905 -0.033619 6854.800000 0 0 1
32.252875 -16.901503 -25.896141 44.682422 -0.482687 2.188985 0.094876 -0.025726 -337814.000000 0 0 1
31.216575 -16.984503 -27.008731 44.636526 -0.498291 2.220664 0.059862 -0.004970 271255.000000 0 0 1
29.874075 -16.962703 -26.518871 43.398665 -0.516412 2.228186 0.058680 -0.008357 -31175.400000 0 0 1
29.024975 -16.514103 -27.522041 43.273866 -0.517285 2.260096 0.030238 -0.007659 53098.400000 0 0 1
27.591175 -16.136403 -27.032921 41.862098 -0.529197 2.272816 0.018675 -0.003724 379448.000000 0 0 1
26.939275 -17.244903 -26.469171 41.517806 -0.569412 2.262094 0.048743 0.002135 -105567.000000 0 0 1
26.745275 -17.040603 -25.048971 40.412162 -0.567285 2.239332 0.051261 0.000973 -38938.700000 0 0 1
26.071775 -18.167503 -24.263321 39.981300 -0.608593 2.222909 0.056162 0.001880 -116082.000000 0 0 1
26.059875 -17.857503 -22.877421 39.004921 -0.600757 2.197560 0.053341 0.010031 -36836.300000 0 0 1
25.469575 -18.839603 -22.057521 38.602644 -0.636870 2.179006 0.070542 0.004236 -97321.800000 0 0 1
25.525475 -18.359303 -20.598621 37.588789 -0.623532 2.150767 0.070477 -0.007537 -67056.200000 0 0 1
24.754075 -17.226003 -20.192721 36.293875 -0.607959 2.160804 0.065881 -0.013025 11225.300000 0 0 1
25.011475 -15.943903 -20.762821 36.206031 -0.567512 2.181523 0.060428 -0.002650 -434261.000000 0 0 1
26.356675 -15.364903 -20.305221 36.647736 -0.527796 2.158035 0.046488 -0.003040 -231585.000000 0 0 1
26.364275 -14.796703 -19.016921 35.716393 -0.511432 2.132280 0.046889 -0.013721 239606.000000 0 0 1
27.630475 -14.184503 -18.838621 36.325431 -0.474282 2.116017 0.037148 -0.009848 -38250.700000 0 0 1
27.685775 -13.013603 -17.773821 35.380287 -0.439399 2.097128 0.046874 -0.006473 -231051.000000 0 0 1
27.992175 -13.519803 -16.489421 35.188747 -0.449943 2.058501 0.033939 -0.007988 209314.000000 0 0 1
27.877575 -12.525803 -15.505121 34.270449 -0.422284 2.040289 0.023872 -0.002897 -20579.600000 0 0 1
28.302075 -12.954003 -14.044521 34.147653 -0.429243 1.994663 0.039896 -0.018382 -85169.700000 0 0 1
27.621875 -14.031703 -13.462321 33.780035 -0.470021 1.980709 0.067074 -0.031735 269199.000000 0 0 1
28.214675 -14.238603 -12.192021 33.874047 -0.467363 1.938981 0.077442 -0.030654 -19454.400000 0 0 1
27.598575 -15.414403 -11.474321 33.629529 -0.509362 1.918987 0.083435 -0.050213 -1042650.000000 0 0 1
26.302475 -15.189703 -11.061421 32.324949 -0.523712 1.920048 0.074012 -0.048293 -340448.000000 0 0 1
25.524675 -16.397703 -10.966921 32.259372 -0.571032 1.917672 0.063866 -0.052328 -531607.000000 0 0 1
24.139075 -16.229503 -10.393221 30.888683 -0.591915 1.913966 0.095822 -0.054724 -879044.000000 0 0 1
24.043275 -15.766403 -9.043921 30.140522 -0.580408 1.875550 0.091366 -0.044130 393382.000000 0 0 1
22.672375 -15.772203 -8.666121 28.946513 -0.607805 1.874843 0.107600 -0.047353 176554.000000 0 0 1
22.480975 -15.595303 -7.187421 28.288986 -0.606493 1.827684 0.094653 -0.036408 -535655.000000 0 0 1
22.461575 -14.237003 -6.872021 27.467058 -0.564930 1.823674 0.106281 -0.026770 242018.000000 0 0 1
22.295175 -13.928103 -5.487321 26.854749 -0.558393 1.776579 0.106655 -0.028496 -9505.210000 0 0 1
23.360375 -14.452503 -4.488321 27.833918 -0.554039 1.732757 0.106053 -0.022609 559957.000000 0 0 1
24.698675 -13.992403 -4.654221 28.765842 -0.515441 1.733307 0.108804 -0.025917 847954.000000 0 0 1
25.660275 -14.808703 -4.005621 29.896361 -0.523416 1.705184 0.112788 -0.034053 620270.000000 0 0 1
27.161075 -14.531303 -4.298221 31.102371 -0.491258 1.709436 0.122430 -0.037009 190518.000000 0 0 1
27.620175 -13.338403 -3.777721 30.904016 -0.449892 1.693343 0.139053 -0.033666 -152070.000000 0 0 1
28.868375 -13.035103 -4.373021 31.975308 -0.424130 1.707989 0.147356 -0.034567 149300.000000 0 0 1
29.528275 -11.822803 -3.594021 32.009603 -0.380842 1.683313 0.155958 -0.041748 -597561.000000 0 0 1
30.038775 -12.286403 -2.338621 32.538483 -0.388256 1.642731 0.155712 -0.044619 469011.000000 0 0 1
30.762575 -11.327703 -1.533921 32.817766 -0.352822 1.617554 0.167848 -0.045197 365383.000000 0 0 1
32.231375 -11.151903 -1.977921 34.163411 -0.333103 1.628725 0.163396 -0.037154 -412725.000000 0 0 1
32.267675 -10.475503 -3.210621 34.077076 -0.313910 1.665153 0.157148 -0.038038 -290823.000000 0 0 1
33.428675 -10.809003 -3.921721 35.350965 -0.312734 1.681962 0.150443 -0.037610 -219955.000000 0 0 1
33.262375 -10.387903 -5.389221 35.260996 -0.302704 1.724236 0.136975 -0.041284 -729823.000000 0 0 1
32.158575 -10.927303 -6.000421 34.490360 -0.327554 1.745660 0.109222 -0.050138 -575489.000000 0 0 1
32.267075 -10.956503 -7.429321 34.876982 -0.327341 1.785456 0.095121 -0.045617 711442.000000 0 0 1
30.996075 -11.717703 -7.996921 34.088297 -0.361432 1.807598 0.109984 -0.047339 907302.000000 0 0 1
30.870375 -13.101203 -7.740821 34.417174 -0.401357 1.797649 0.083158 -0.042721 838268.000000 0 0 1
29.616375 -13.612103 -8.235121 33.618986 -0.430820 1.818269 0.076868 -0.043053 765081.000000 0 0 1
29.517575 -15.186803 -8.034521 34.153766 -0.475180 1.808268 0.081066 -0.046675 389573.000000 0 0 1
30.323575 -15.805103 -9.065421 35.376579 -0.480475 1.829942 0.088865 -0.053889 669078.000000 0 0 1
30.227175 -17.198803 -9.051021 35.936081 -0.517302 1.825403 0.081590 -0.054246 -4426.790000 0 0 1
30.516075 -17.703003 -10.514421 36.812772 -0.525674 1.860448 0.071266 -0.061338 -389824.000000 0 0 1
31.851375 -17.543403 -10.918021 37.966884 -0.503449 1.862482 0.072941 -0.049142 -19285.000000 0 0 1
32.047775 -18.213003 -12.115021 38.801380 -0.516790 1.888338 0.055970 -0.028609 -109070.000000 0 0 1
31.466175 -17.470903 -13.389721 38.401006 -0.506848 1.926960 0.052427 -0.037984 55233.000000 0 0 1
32.038575 -16.196003 -13.659321 38.410387 -0.468050 1.934369 0.046815 -0.029908 273851.000000 0 0 1
31.202975 -15.496603 -14.552021 37.756214 -0.460955 1.966460 0.042580 -0.031408 -684791.000000 0 0 1
31.865875 -14.287703 -15.174621 38.076785 -0.421498 1.980706 0.039689 -0.018535 437294.000000 0 0 1
32.949775 -14.432203 -16.089521 39.406203 -0.412835 1.991386 0.015532 -0.016236 1219200.000000 0 0 1
34.216475 -14.940903 -15.665921 40.489737 -0.411704 1.968076 0.024275 -0.016915 179850.000000 0 0 1
35.239475 -15.046603 -16.836421 41.853147 -0.403548 1.984795 0.039505 -0.019567 836118.000000 0 0 1
36.549875 -15.236203 -16.274821 42.812440 -0.394956 1.960747 0.052774 -0.016610 975831.000000 0 0 1
-36.817826 -15.588503 -17.202621 43.525670 0.400511 1.977114 0.059112 -0.020164 -440358.000000 0 0 1
-35.418226 -15.678203 -16.660521 42.164318 0.416733 1.977009 0.068904 -0.019593 -864461.000000 0 0 1
-35.010126 -16.766903 -15.832621 41.922665 0.446638 1.958067 0.059729 -0.014649 73047.500000 0 0 1
-35.392526 -16.545603 -14.484221 41.667500 0.437302 1.925822 0.058324 -0.021308 -609627.000000 0 0 1
-34.675826 -17.362403 -13.418421 41.035594 0.464212 1.903918 0.057334 -0.022744 129411.000000 0 0 1
-33.288626 -17.025903 -13.283821 39.679641 0.472776 1.912165 0.111043 -0.017144 698931.000000 0 0 1
-32.784026 -17.568503 -12.059321 39.100791 0.491943 1.884324 0.117101 -0.012908 91750.800000 0 0 1
-31.359526 -17.139203 -11.663421 37.592653 0.500182 1.886261 0.145815 -0.013079 -50016.800000 0 0 1
-31.387326 -15.732403 -11.429721 36.923045 0.464635 1.885522 0.140388 -0.026916 688878.000000 0 0 1
-30.286126 -15.224003 -10.648821 35.530509 0.465783 1.875184 0.163200 -0.027553 410701.000000 0 0 1
-30.366026 -15.403703 -9.063521 35.235167 0.469445 1.830950 0.150384 -0.018674 -150700.000000 0 0 1
-30.334626 -16.754403 -8.781921 35.749429 0.504622 1.818989 0.122087 -0.017907 13877.700000 0 0 1
-30.407526 -16.994403 -7.365621 35.604491 0.509641 1.779174 0.152391 -0.022636 -133726.000000 0 0 1
-30.398226 -18.464803 -6.844621 36.219469 0.545865 1.760916 0.130158 -0.025179 626698.000000 0 0 1
-31.575626 -19.193103 -7.212521 37.648583 0.546168 1.763563 0.106921 -0.024702 215257.000000 0 0 1
-31.637126 -19.614903 -8.573121 38.198829 0.554993 1.797159 0.105028 -0.020326 -338120.000000 0 0 1
-32.875826 -20.389603 -9.054621 39.730870 0.555141 1.800716 0.082107 -0.023930 339671.000000 0 0 1
-34.035626 -19.555503 -9.271121 40.333550 0.521503 1.802731 0.069359 -0.023230 548797.000000 0 0 1
-35.023526 -20.437603 -9.783021 41.713913 0.528228 1.807528 0.045973 -0.028297 1284940.000000 0 0 1
-36.453526 -19.786803 -10.086321 42.686192 0.497295 1.809342 0.049502 -0.033725 1211020.000000 0 0 1
-36.593226 -19.164703 -11.360421 42.841676 0.482445 1.839179 0.043945 -0.034611 -1550360.000000 0 0 1
36.573075 -18.627003 -11.551621 42.637953 -0.471067 1.845149 0.066692 -0.042780 -1685190.000000 0 0 1
36.144375 -18.463503 -13.062321 42.637319 -0.472271 1.882162 0.054287 -0.034032 -179038.000000 0 0 1
35.700875 -19.721603 -13.625421 43.001700 -0.504693 1.893211 0.044916 -0.026506 65982.500000 0 0 1
35.382475 -19.626703 -14.972221 43.142721 -0.506445 1.925209 0.045186 -0.027566 341032.000000 0 0 1
34.160975 -20.535003 -15.326921 42.703314 -0.541246 1.937903 0.051500 -0.032742 1029670.000000 0 0 1
32.975375 -20.215303 -14.556621 41.327098 -0.549954 1.930748 0.057336 -0.033156 912763.000000 0 0 1
31.908175 -21.144003 -14.681921 40.997064 -0.585218 1.937051 0.063075 -0.030315 79529.800000 0 0 1
30.819275 -20.737403 -15.666421 40.315063 -0.592286 1.969908 0.078866 -0.036718 -783783.000000 0 0 1
30.213275 -19.484203 -15.444221 39.127997 -0.572774 1.976549 0.063614 -0.033634 -123165.000000 0 0 1
29.398775 -19.221403 -16.563221 38.834142 -0.579053 2.011429 0.059608 -0.034721 -234413.000000 0 0 1
28.559175 -17.964103 -16.314821 37.476778 -0.561480 2.021203 0.062638 -0.037256 -471519.000000 0 0 1
27.496675 -18.073703 -15.408721 36.333931 -0.581493 2.008749 0.074613 -0.037633 -140549.000000 0 0 1
27.003075 -16.741903 -15.287121 35.258381 -0.554996 2.019252 0.050478 -0.028307 547602.000000 0 0 1
25.546375 -16.691203 -14.620021 33.837236 -0.578740 2.017582 0.055893 -0.039544 2309620.000000 0 0 1
24.401575 -17.138203 -15.384121 33.553331 -0.612295 2.047100 0.066536 -0.036744 1128400.000000 0 0 1
24.175075 -16.349803 -16.568521 33.559890 -0.594648 2.087136 0.059255 -0.021356 -826884.000000 0 0 1
23.199075 -17.074203 -17.502921 33.705752 -0.634472 2.116811 0.052079 -0.018994 -137515.000000 0 0 1
21.848575 -17.167203 -17.125021 32.639538 -0.665982 2.123125 0.054070 -0.017892 -309177.000000 0 0 1
21.117275 -17.756703 -18.192321 33.048454 -0.699165 2.153728 0.059221 -0.023704 -156685.000000 0 0 1
19.664075 -18.068603 -17.809121 32.098521 -0.743140 2.158951 0.046364 -0.022954 -724994.000000 0 0 1
18.931575 -16.892303 -17.747221 30.963176 -0.728535 2.181168 0.060137 -0.024665 -225888.000000 0 0 1
17.613175 -17.368403 -17.436621 30.264188 -0.778401 2.184803 0.077619 -0.034601 693977.000000 0 0 1
16.618775 -16.155003 -17.285721 28.913041 -0.771248 2.211615 0.089832 -0.028702 -40780.500000 0 0 1
16.043375 -15.742903 -18.484521 29.101656 -0.775946 2.259026 0.097464 -0.019170 325404.000000 0 0 1
14.913275 -14.946503 -18.152621 27.844593 -0.786511 2.280918 0.103084 -0.020426 -85392.800000 0 0 1
13.869475 -14.554803 -19.169221 27.778835 -0.809504 2.332376 0.091790 -0.023035 -401106.000000 0 0 1
14.209775 -13.506603 -20.030821 28.028197 -0.760033 2.366944 0.106701 -0.033242 159215.000000 0 0 1
13.108275 -13.088403 -20.843721 27.885370 -0.784640 2.415055 0.099807 -0.027962 487517.000000 0 0 1
13.191075 -11.613603 -21.293021 27.609291 -0.721888 2.451562 0.103802 -0.024703 621264.000000 0 0 1
14.400175 -11.362403 -22.040621 28.675045 -0.668026 2.447500 0.099791 -0.021724 477822.000000 0 0 1
14.284675 -10.185903 -22.873221 28.826876 -0.619441 2.487284 0.072067 -0.031029 46804.600000 0 0 1
15.670475 -9.534603 -23.082821 29.483708 -0.546605 2.470111 0.081431 -0.022043 365773.000000 0 0 1
16.303975 -10.212603 -24.161721 30.885363 -0.559596 2.469151 0.123150 -0.021270 219427.000000 0 0 1
17.664175 -9.846903 -24.346621 31.650316 -0.508545 2.448444 0.101953 -0.030198 12497.900000 0 0 1
22.600275 5.083997 -7.264021 24.277262 0.221270 1.874662 0.165216 0.027419 -43848.000000 0 1 0
22.344275 6.468297 -7.351621 24.395734 0.281781 1.876903 0.139944 0.018590 1304210.000000 0 1 0
21.469075 6.967797 -6.286921 23.430680 0.313825 1.842445 0.123389 0.012885 346300.000000 0 1 0
21.408475 8.513297 -6.262421 23.875028 0.378488 1.836201 0.103610 0.015816 -362682.000000 0 1 0
20.450275 9.088097 -7.137621 23.489421 0.418187 1.879544 0.072403 0.005917 497757.000000 0 1 0
20.370475 10.498997 -7.200821 24.021595 0.475894 1.875242 0.093209 0.006141 -251900.000000 0 1 0
19.731575 11.288797 -6.031821 23.519244 0.519666 1.830158 0.101499 -0.003000 206026.000000 0 1 0
20.572675 11.420397 -4.844121 24.023445 0.506769 1.773830 0.105367 -0.001216 626239.000000 0 1 0
20.234675 12.528797 -3.981021 24.130092 0.554399 1.736536 0.128382 -0.015256 91751.100000 0 1 0
21.404275 12.814697 -3.017221 25.128929 0.539462 1.691156 0.127101 -0.023042 -159071.000000 0 0 1
22.607875 13.316097 -3.641221 26.489487 0.532294 1.708692 0.111207 -0.026743 1136890.000000 0 0 1
23.619075 13.540897 -2.668421 27.355750 0.520558 1.668497 0.123454 -0.031378 111091.000000 0 0 1
24.187475 12.386997 -1.788221 27.233607 0.473300 1.636506 0.112369 -0.030606 -994180.000000 0 0 1
25.245375 11.683297 -2.429721 27.923680 0.433439 1.657919 0.101901 -0.027799 674752.000000 0 0 1
25.922875 10.798597 -1.530421 28.123786 0.394706 1.625241 0.101132 -0.031224 541286.000000 0 0 1
27.338375 10.317397 -2.014321 29.289809 0.360870 1.639623 0.124983 -0.026232 266270.000000 0 0 1
28.263175 11.354697 -1.890721 30.517389 0.382013 1.632792 0.103584 -0.035274 -344989.000000 0 0 1
29.553575 10.864997 -2.170121 31.562183 0.352300 1.639608 0.088813 -0.032615 -739066.000000 0 0 1
30.693975 11.814497 -1.893721 32.943719 0.367433 1.628312 0.071651 -0.029294 -682511.000000 0 0 1
30.843575 12.060797 -0.466321 33.121087 0.372751 1.584876 0.105385 -0.042128 643826.000000 0 0 1
31.754575 13.126797 -0.127721 34.361056 0.391990 1.574513 0.092966 -0.045723 270902.000000 0 0 1
33.180075 12.649697 0.268479 35.510622 0.364233 1.563236 0.099458 -0.037679 311359.000000 0 0 1
34.117575 13.633697 0.694879 36.747374 0.380169 1.551886 0.106441 -0.048885 691878.000000 0 0 1
35.022075 14.126997 -0.306021 37.765215 0.383412 1.578900 0.121771 -0.033328 -101596.000000 0 0 1
34.563275 15.324497 -1.114521 37.824626 0.417331 1.600266 0.075004 -0.017730 -77989.200000 0 0 1
33.361075 15.121497 -1.842121 36.674438 0.425568 1.621046 0.075868 -0.009141 54909.300000 0 0 1
32.980075 16.251097 -2.527121 36.853356 0.457835 1.639423 0.061894 0.007886 693769.000000 0 0 1
31.655575 15.993497 -3.343721 35.623698 0.467827 1.664797 0.071604 -0.012809 82156.200000 0 0 1
31.856875 15.226997 -4.503621 35.595007 0.445878 1.697660 0.054891 -0.008672 309022.000000 0 0 1
30.697475 15.129397 -5.300721 34.631363 0.457915 1.724462 0.056574 -0.014938 928078.000000 0 0 1
29.511075 14.225497 -4.736821 33.101447 0.449176 1.714389 0.062495 -0.023473 397578.000000 0 0 1
28.380575 14.131097 -5.569421 32.189492 0.461978 1.744691 0.090614 -0.027336 -52777.400000 0 0 1
27.283375 13.548697 -4.920521 30.857111 0.460917 1.730941 0.089377 -0.008994 729882.000000 0 0 1
26.151375 13.207197 -6.011021 29.907471 0.467663 1.773162 0.086863 -0.013813 467956.000000 0 0 1
26.462775 12.123997 -6.830921 29.898683 0.429613 1.801301 0.081298 -0.000726 541294.000000 0 0 1
25.312175 11.625897 -7.510921 28.849291 0.430561 1.834181 0.097261 -0.003751 425994.000000 0 0 1
24.837575 12.457197 -8.749621 29.131474 0.464884 1.875855 0.114118 -0.006861 -309021.000000 0 0 1
24.266475 13.665097 -8.391821 29.086412 0.512865 1.863470 0.102535 -0.018675 -118453.000000 0 0 1
24.406475 14.641397 -9.390321 29.970396 0.540345 1.889483 0.112587 -0.025381 -648731.000000 0 0 1
23.602675 15.969397 -9.191121 29.943023 0.594843 1.882787 0.102157 -0.023219 -237266.000000 0 0 1
22.218975 15.814997 -9.121321 28.757529 0.618588 1.893551 0.131955 -0.023388 -246842.000000 0 0 1
21.655975 15.358097 -7.887021 27.695803 0.616864 1.859566 0.147813 -0.030657 -336542.000000 0 0 1
20.158775 15.083097 -8.156121 26.465040 0.642358 1.884081 0.175715 -0.016822 -233497.000000 0 0 1
19.293475 14.791097 -7.098721 25.326006 0.654064 1.854896 0.197562 -0.051063 1495950.000000 0 0 1
17.931175 14.650397 -7.628121 24.379282 0.685042 1.889034 0.180723 -0.054406 1526950.000000 0 1 0
16.847575 15.043697 -6.596121 23.530032 0.728895 1.854932 0.164351 -0.034217 -70500.400000 0 1 0
16.579975 14.044097 -5.575221 22.432461 0.702780 1.821962 0.125760 -0.037678 275709.000000 0 1 0
15.961975 14.697597 -4.464921 22.152641 0.744182 1.773739 0.100032 -0.028526 -73188.300000 0 1 0
15.761775 13.698197 -3.324021 21.145290 0.715466 1.728650 0.084955 -0.017396 -175186.000000 0 1 0
16.971975 13.367797 -2.686521 21.770699 0.667158 1.694512 0.080843 -0.010688 454897.000000 0 1 0
16.658375 12.478197 -1.686121 20.881807 0.642902 1.651630 0.062511 -0.013115 9147.920000 0 1 0
16.620975 13.077097 -0.299921 21.150821 0.666630 1.584977 0.060221 -0.020508 285450.000000 0 1 0
15.548975 14.006597 -0.040921 20.927424 0.733260 1.572752 0.062458 -0.026611 822061.000000 0 1 0
15.766075 14.810497 1.087579 21.658780 0.754156 1.520561 0.064399 -0.023660 -960381.000000 0 1 0
14.567875 15.693097 1.332879 21.453970 0.822565 1.508629 0.064102 -0.017068 -910847.000000 0 1 0
14.566075 16.855697 0.479779 22.282622 0.858137 1.549263 0.066632 -0.015709 448746.000000 0 1 0
13.708775 17.859097 1.041679 22.538034 0.916121 1.524561 0.054892 -0.017792 226321.000000 0 1 0
13.745875 19.154197 0.295279 23.577946 0.948327 1.558272 0.054091 -0.014709 -131514.000000 0 1 0
12.978675 19.143297 -0.887821 23.145195 0.975006 1.609165 0.049671 -0.014342 -119504.000000 0 1 0
12.508075 20.420497 -1.229121 23.978311 1.021218 1.622079 0.054166 -0.021046 848972.000000 0 1 0
10.942275 20.540797 -1.133121 23.301109 1.081325 1.619445 0.045300 -0.021102 870345.000000 0 1 0
10.452575 20.281597 0.178179 22.817345 1.094927 1.562987 0.027614 -0.029930 -57366.700000 0 1 0
9.041675 20.354697 0.146579 22.273012 1.152771 1.564215 0.028157 -0.021498 269812.000000 0 1 0
8.348075 20.276797 1.520479 21.980690 1.180240 1.501568 0.022571 -0.017347 -45681.200000 0 1 0
8.534075 21.445797 2.321579 23.197896 1.192070 1.470551 0.026616 -0.011437 309041.000000 0 1 0
7.688175 21.357897 3.461979 22.961993 1.225268 1.419449 0.022405 -0.015376 176315.000000 0 1 0
7.116775 22.693997 3.976979 24.113945 1.266912 1.405115 0.017184 -0.010413 32890.700000 0 1 0
7.825175 23.232597 5.061579 25.032110 1.245912 1.367189 0.023945 -0.014520 321629.000000 0 0 1
7.280875 24.527797 5.314079 26.131655 1.282239 1.366010 0.019776 -0.011047 309037.000000 0 0 1
7.841175 25.068397 6.636779 27.091611 1.267646 1.323302 0.015916 -0.017747 462019.000000 0 0 1
7.108275 24.401097 7.679879 26.550361 1.287331 1.277346 0.019900 -0.022690 420629.000000 0 0 1
7.802375 24.493597 8.913079 27.207652 1.262411 1.237040 0.030286 -0.033020 809.628000 0 0 1
7.442275 23.440397 9.934279 26.524132 1.263365 1.186899 0.038436 -0.036042 126529.000000 0 0 1
6.241975 23.798097 10.616279 26.795840 1.314286 1.163431 0.035893 -0.032144 385488.000000 0 0 1
5.666275 22.708297 11.318879 25.997893 1.326265 1.120340 0.034064 -0.034353 -402002.000000 0 0 1
4.380875 23.065597 12.063879 26.396042 1.383101 1.096139 0.026790 -0.034969 -55548.200000 0 0 1
3.298775 23.204997 11.153879 25.956942 1.429585 1.126628 0.018292 -0.029918 464036.000000 0 0 1
2.073575 23.531697 11.818979 26.414556 1.482905 1.106893 0.026179 -0.028407 1320760.000000 0 0 1
0.862575 23.813097 10.836179 26.176906 1.534589 1.143997 0.039807 -0.015329 590702.000000 0 0 1
1.051475 25.105597 10.196579 27.117648 1.528939 1.185307 0.039824 -0.017847 -94316.100000 0 0 1
0.189475 25.340897 9.117779 26.931967 1.563319 1.225422 0.032466 -0.016670 1296750.000000 0 0 1
-1.258325 25.914597 9.459379 27.615749 -1.522278 1.221182 0.053615 -0.029164 1597820.000000 0 0 1
-2.148925 24.992197 10.104379 27.043045 -1.485023 1.187866 0.059379 -0.028254 81116.900000 0 0 1
-3.478625 25.313897 9.762679 27.353320 -1.434232 1.205838 0.075386 -0.030214 -209129.000000 0 0 1
-4.557525 24.491597 10.531879 27.046808 -1.386815 1.170822 0.070877 -0.036145 154423.000000 0 0 1
-4.810625 24.751197 11.909579 27.885515 -1.378830 1.129526 0.052659 -0.022366 14200.500000 0 0 1
-5.728725 25.790397 12.160979 29.083540 -1.352219 1.139400 0.057913 -0.018533 -182740.000000 0 0 1
-6.210025 25.806497 13.611579 29.829763 -1.334648 1.096954 0.045623 -0.009524 -455567.000000 0 0 1
-7.098725 24.802897 13.948779 29.328212 -1.292043 1.075139 0.044681 -0.017085 -338426.000000 0 0 1
-7.537625 24.859797 15.293979 30.145167 -1.276401 1.038696 0.022976 0.008065 -468116.000000 0 0 1
-8.720225 23.946197 15.593279 29.876630 -1.221564 1.021693 0.025041 -0.001401 -447249.000000 0 0 1
-9.931125 24.563897 15.220479 30.556100 -1.186591 1.049372 0.021106 0.001010 -856073.000000 0 0 1
-10.988025 23.706297 15.457679 30.358937 -1.136767 1.036583 0.026382 -0.006777 -226882.000000 0 0 1
-12.387725 24.341697 15.227579 31.270643 -1.100046 1.062190 0.024382 -0.005857 171557.000000 0 0 1
-12.822125 25.357697 16.039879 32.629701 -1.102639 1.056901 0.025290 -0.003135 619547.000000 0 0 1
-13.985825 26.055097 15.553279 33.412211 -1.078160 1.086600 0.018056 -0.005239 294209.000000 0 0 1
-14.638725 27.152097 16.431179 34.950140 -1.076331 1.081356 0.028740 -0.009802 -373222.000000 0 0 1
-15.601825 26.615697 17.283879 35.363042 -1.040594 1.060134 0.027466 -0.016104 -126338.000000 0 0 1
-16.243425 27.652297 18.047379 36.799542 -1.039681 1.058220 0.053319 -0.026849 359744.000000 0 0 1
-17.446225 27.151197 18.901079 37.400656 -0.999670 1.040988 0.042385 -0.026074 135607.000000 0 0 1
-18.668725 27.116897 18.203179 37.619186 -0.967862 1.065713 0.035059 -0.029856 4025.220000 0 0 1
-19.697125 26.570797 19.033379 38.160890 -0.932882 1.048621 0.050411 -0.033542 170857.000000 0 0 1
-21.008925 26.502297 18.227179 38.418443 -0.900510 1.076471 0.067849 -0.043591 -163418.000000 0 0 1
-21.688625 27.764597 18.089579 39.604320 -0.907649 1.096449 0.050145 -0.041454 101656.000000 0 0 1
-22.650525 27.722197 17.096479 39.671855 -0.885743 1.125254 0.065003 -0.047329 -1127010.000000 0 0 1
-23.470325 28.989497 16.962379 40.975229 -0.890220 1.143989 0.057621 -0.045097 -1151600.000000 0 0 1
-24.650825 28.885297 17.658379 41.878896 -0.864329 1.135528 0.059574 -0.046400 -893646.000000 0 0 1
-25.582835 29.850897 17.270279 42.939726 -0.862241 1.156880 0.062216 -0.045954 -175738.000000 0 0 1
-27.016035 29.717097 17.813279 43.935008 -0.832972 1.153330 0.079755 -0.040306 -285510.000000 0 0 1
-27.833555 28.781797 17.164179 43.562687 -0.802145 1.165805 0.106524 -0.033584 -375509.000000 0 0 1
-29.115625 28.748797 17.734379 44.595080 -0.779059 1.161814 0.139931 -0.040096 -167031.000000 0 0 1
-29.325625 27.493797 18.600979 44.293313 -0.753170 1.137406 0.128462 -0.037503 -400579.000000 0 0 1
-29.572565 26.291397 17.896479 43.428771 -0.726731 1.146052 0.139137 -0.039910 181351.000000 0 0 1
-29.859335 25.251897 18.792879 43.386755 -0.701990 1.122814 0.132578 -0.031369 -203615.000000 0 0 1
-30.234845 23.950097 18.096779 42.605709 -0.669927 1.132110 0.144011 -0.036694 -451732.000000 0 0 1
-31.474625 23.981397 17.441779 43.243208 -0.651091 1.155631 0.159004 -0.035067 -289991.000000 0 0 1
-31.536145 23.094097 16.309879 42.354196 -0.632080 1.175499 0.158347 -0.042031 -199202.000000 0 0 1
-31.828145 21.590397 16.490479 41.846290 -0.596043 1.165738 0.147222 -0.043762 1849880.000000 0 0 1
-33.194465 21.327497 16.999679 42.961887 -0.571086 1.163975 0.145965 -0.035683 1899090.000000 0 0 1
-33.449165 19.954797 16.956779 42.480265 -0.537894 1.160187 0.125486 -0.032253 -188613.000000 0 0 1
-34.854360 19.534597 16.519579 43.235673 -0.510841 1.178748 0.118411 -0.038877 -281597.000000 0 0 1
-34.995459 19.771697 15.134279 42.949372 -0.514271 1.210689 0.095239 -0.032969 -356039.000000 0 0 1
-36.256205 19.416897 14.652579 43.660352 -0.491679 1.228550 0.103198 -0.032755 -428877.000000 0 0 1
-36.420115 19.742897 13.110879 43.452295 -0.496748 1.264289 0.098420 -0.020379 -51793.100000 0 0 1
-36.660215 21.093497 12.837079 44.200651 -0.522119 1.276123 0.087011 -0.030337 -84731.200000 0 0 1
-36.592065 21.594997 11.509979 44.020481 -0.533149 1.306253 0.068774 -0.025506 -285107.000000 0 0 1
-35.400965 21.260497 10.597879 42.632759 -0.540833 1.319577 0.094490 -0.025689 -331449.000000 0 0 1
-35.471777 19.967197 10.054879 41.928946 -0.512696 1.328629 0.119932 -0.022078 -336122.000000 0 0 1
-34.283254 19.586797 9.418279 40.591725 -0.519066 1.336638 0.152452 -0.021488 -124976.000000 0 0 1
-33.557685 18.471197 10.240979 39.650738 -0.503174 1.309555 0.121946 -0.025988 77807.400000 0 0 1
-33.094255 18.943697 11.539379 39.840314 -0.519891 1.276945 0.120392 -0.028141 198327.000000 0 0 1
-32.539545 17.963497 12.360379 39.169991 -0.504417 1.249752 0.125899 -0.039143 -60312.300000 0 0 1
-31.741135 18.435997 13.583279 39.139381 -0.526200 1.216374 0.102231 -0.016876 -9970.280000 0 0 1
-30.514165 19.094497 13.396979 38.408243 -0.559145 1.214501 0.115540 -0.023388 -221875.000000 0 0 1
-30.639845 20.489097 13.225579 39.160173 -0.589414 1.226292 0.126131 -0.024646 -255483.000000 0 0 1
-29.347935 21.268897 13.499679 38.676978 -0.627122 1.214254 0.148519 -0.040026 -300039.000000 0 0 1
-28.950535 21.230397 14.871479 38.859029 -0.632749 1.178076 0.142109 -0.036539 -244583.000000 0 0 1
-27.969225 22.200197 15.109779 38.774111 -0.670910 1.170504 0.157704 -0.042267 -423103.000000 0 0 1
-27.329705 21.976197 16.512879 38.762626 -0.677244 1.130729 0.132913 -0.043891 -140836.000000 0 0 1
-26.331205 20.974997 16.497679 37.489415 -0.672654 1.115128 0.135005 -0.037986 -44721.800000 0 0 1
-25.899575 20.630097 17.790479 37.588430 -0.672629 1.077767 0.111559 -0.024069 372477.000000 0 0 1
-24.717025 19.595297 17.783179 36.209784 -0.670326 1.057427 0.113997 -0.020911 263376.000000 0 0 1
-24.173625 19.505797 19.061179 36.444050 -0.678937 1.020399 0.100251 -0.022957 174621.000000 0 0 1
-23.275025 18.392897 19.155379 35.312236 -0.668762 0.997437 0.084694 -0.018658 -27254.400000 0 0 1
-22.706225 18.201697 20.541779 35.620768 -0.675726 0.956137 0.087570 -0.019233 -27427.800000 0 0 1
-23.368025 17.351797 21.502079 36.186860 -0.638712 0.934531 0.109965 -0.010925 244899.000000 0 0 1
-23.841425 18.000397 22.691479 37.514411 -0.646697 0.921189 0.113186 -0.013719 137596.000000 0 0 1
-24.634225 17.096697 23.649279 38.189403 -0.606703 0.902993 0.100385 -0.007497 -322493.000000 0 0 1
-23.847525 16.159297 24.311779 37.694694 -0.595540 0.869818 0.120165 -0.019950 -375358.000000 0 0 1
-24.568125 15.307297 25.138279 38.338482 -0.557200 0.855696 0.120493 -0.022595 -33461.800000 0 0 1
21.861675 24.795197 33.362316 46.965719 0.848190 0.780794 0.042379 0.002290 189179.000000 0 0 1
22.793375 23.850597 32.871346 46.571604 0.808060 0.787211 0.057866 -0.011495 -123361.000000 0 0 1
22.591075 22.535597 33.258325 46.090411 0.784169 0.764702 0.063263 -0.009653 164044.000000 0 0 1
21.445875 21.725097 32.532003 44.612068 0.791866 0.753615 0.053758 -0.014226 548543.000000 0 0 1
21.692475 21.280397 31.228962 43.573695 0.775809 0.771748 0.054808 -0.010011 -1152230.000000 0 0 1
20.687675 20.463797 30.812252 42.380913 0.779958 0.756808 0.079610 -0.011419 -849760.000000 0 0 1
20.944775 19.817097 29.453192 41.217611 0.757740 0.774776 0.080197 -0.006498 -279648.000000 0 0 1
22.176875 19.176697 29.321082 41.464266 0.712976 0.785350 0.074278 -0.007299 -738322.000000 0 0 1
22.271575 18.469897 28.085652 40.323244 0.692355 0.800270 0.069570 -0.010690 221693.000000 0 0 1
23.390975 17.389897 28.102582 40.488287 0.639293 0.803639 0.077505 -0.007850 1119890.000000 0 0 1
24.709175 17.964897 27.964212 41.415915 0.628653 0.829554 0.086073 -0.007324 1056460.000000 0 0 1
25.667275 16.968097 28.394962 41.868833 0.584124 0.825501 0.078747 -0.006203 1479760.000000 0 0 1
27.116075 17.436797 28.798992 43.228525 0.571469 0.841690 0.077410 -0.010124 1313680.000000 0 0 1
28.050475 17.583497 27.727162 43.183377 0.559930 0.873589 0.087391 -0.007759 168222.000000 0 0 1
29.349775 17.829897 28.205172 44.439242 0.545914 0.883188 0.086774 -0.011683 346517.000000 0 0 1
30.490675 17.719197 27.149002 44.505275 0.526433 0.914713 0.090159 -0.003560 140992.000000 0 0 1
30.467475 18.746997 26.230812 44.359581 0.551602 0.938099 0.078907 -0.010649 78119.900000 0 0 1
31.509475 18.656097 25.282692 44.498444 0.534575 0.966516 0.092664 -0.013925 -459966.000000 0 0 1
31.738575 19.891397 24.380052 44.692189 0.559840 0.993798 0.084262 -0.023216 200721.000000 0 0 1
30.652175 20.236797 23.501152 43.604907 0.583518 1.001598 0.073524 -0.019474 505927.000000 0 0 1
30.970875 20.919597 22.274562 43.508399 0.594066 1.033331 0.048010 -0.017145 -177846.000000 0 0 1
31.456375 20.020597 21.126062 42.856019 0.566795 1.055314 0.066699 -0.019466 -700440.000000 0 0 1
30.406975 19.307997 20.546262 41.467237 0.565748 1.052407 0.077826 -0.029672 -409942.000000 0 0 1
30.763875 18.783797 19.303862 40.888704 0.548162 1.079116 0.083239 -0.031960 -253504.000000 0 0 1
31.757975 17.593797 19.285162 41.109952 0.505906 1.082512 0.101672 -0.045923 -127751.000000 0 0 1
31.317275 16.390097 19.865362 40.546758 0.482158 1.058779 0.123517 -0.043643 1092780.000000 0 0 1
32.415575 15.454197 20.144062 41.175053 0.444877 1.059590 0.120873 -0.045303 500348.000000 0 0 1
31.976075 14.105697 20.906162 40.724780 0.415456 1.031710 0.138295 -0.041251 85949.000000 0 0 1
31.544875 14.209297 22.246662 41.132679 0.423226 0.999347 0.122179 -0.032749 780693.000000 0 0 1
30.272975 14.883897 22.321662 40.450464 0.456950 0.986243 0.118631 -0.018996 -27585.700000 0 0 1
29.433375 14.271297 23.469322 40.259192 0.451469 0.948435 0.086206 -0.003239 -102217.000000 0 0 1
29.057775 12.976297 23.107962 39.328317 0.419997 0.942749 0.095541 -0.003543 218578.000000 0 0 1
28.050775 12.416997 23.947892 38.916954 0.416734 0.907955 0.079934 0.002893 410924.000000 0 0 1
27.557675 10.966197 23.660662 37.940873 0.378726 0.897432 0.097741 0.000121 609378.000000 0 0 1
26.605875 10.909697 22.569162 36.554906 0.389139 0.905357 0.078334 0.011209 460963.000000 0 0 1
26.235775 9.557897 22.417562 35.808049 0.349364 0.894321 0.088617 0.010531 -89949.100000 0 0 1
25.022975 9.244597 21.512562 34.269552 0.353891 0.892143 0.070522 0.002789 -133738.000000 0 0 1
23.777475 9.637197 22.023462 33.812376 0.385074 0.861443 0.057502 0.001664 -107.722000 0 0 1
22.742175 8.922697 21.399262 32.476907 0.373887 0.851431 0.045543 0.000848 907993.000000 0 0 1
21.258675 9.032797 21.923562 31.845962 0.401785 0.811481 0.036668 -0.008471 994263.000000 0 0 1
20.999875 8.281297 23.108862 32.304708 0.375626 0.773685 0.057767 -0.012635 603113.000000 0 0 1
19.591675 8.285297 23.338492 31.577921 0.400090 0.739098 0.058155 -0.018675 343862.000000 0 0 1
19.203375 7.386997 24.551942 32.033345 0.367223 0.697501 0.057968 -0.014910 -166590.000000 0 0 1
19.213375 5.987297 24.423022 31.646256 0.302084 0.689207 0.056056 -0.020767 98734.000000 0 0 1
19.051875 5.352997 25.646192 32.393760 0.273908 0.657207 0.058397 -0.026990 -207006.000000 0 0 1
19.384175 3.892897 25.783822 32.491636 0.198192 0.654171 0.061127 -0.031725 -193402.000000 0 0 1
20.752575 3.695197 25.530812 33.108099 0.176213 0.690174 0.069491 -0.020480 -262639.000000 0 0 1
21.165575 2.345497 25.440452 33.176792 0.110366 0.696933 0.060722 -0.017706 -1111710.000000 0 0 1
22.644175 2.304597 25.194292 33.953235 0.101425 0.734704 0.080508 -0.020769 -1222300.000000 0 0 1
23.474175 2.780097 26.227162 35.307646 0.117883 0.733526 0.090519 -0.028301 -2006150.000000 0 0 1
24.762475 2.629797 25.865132 35.904054 0.105804 0.766423 0.102288 -0.026174 -1653500.000000 0 0 1
25.696175 3.367197 26.863712 37.326806 0.130296 0.767441 0.098301 -0.029980 -442057.000000 0 0 1
25.675775 2.708297 28.140052 38.189565 0.105092 0.742394 0.108987 -0.026801 147600.000000 0 0 1
26.495675 3.190497 29.217982 39.571335 0.119839 0.740158 0.112873 -0.020147 725978.000000 0 0 1
28.032375 2.998797 29.019712 40.459245 0.106571 0.770937 0.093527 -0.013322 11686.600000 0 0 1
28.650575 4.092697 28.226182 40.426761 0.141889 0.797909 0.102129 -0.004243 723463.000000 0 0 1
30.055675 3.942497 28.088492 41.326145 0.130428 0.823472 0.094917 -0.001534 241405.000000 0 0 1
30.537375 2.827897 27.139602 40.952244 0.092341 0.846360 0.101694 -0.012178 -781521.000000 0 0 1
30.337375 3.058897 25.749292 39.909137 0.100490 0.869514 0.102892 -0.002465 -68585.800000 0 0 1
30.948175 2.095397 24.935072 39.798719 0.067603 0.893704 0.098396 0.000617 -329053.000000 0 0 1
30.578875 2.096397 23.456372 38.596164 0.068450 0.917587 0.122541 -0.015537 194954.000000 0 0 1
31.100875 3.124397 22.577462 38.558632 0.100124 0.945255 0.111133 -0.012247 766449.000000 0 0 1
32.491375 2.983397 22.219762 39.475409 0.091564 0.972935 0.111144 -0.016003 946449.000000 0 0 1
33.066775 4.268097 21.613162 39.733576 0.128365 0.995657 0.094883 -0.024691 -563684.000000 0 0 1
32.646375 4.458797 20.268962 38.684590 0.135739 1.019309 0.103826 -0.031569 52631.300000 0 0 1
33.142575 5.640297 19.642062 38.936536 0.168568 1.042036 0.092180 -0.022692 677968.000000 0 0 1
34.679775 5.823397 19.335162 40.130378 0.166367 1.068079 0.063813 -0.024878 661980.000000 0 0 1
35.498575 5.878997 20.513462 41.418759 0.164123 1.052651 0.060343 -0.013781 220421.000000 0 0 1
35.376375 6.957197 21.446662 41.950564 0.194184 1.034173 0.064460 -0.018584 -1073950.000000 0 0 1
36.128675 6.669997 22.680862 43.176284 0.182562 1.017719 0.059768 -0.020516 -248598.000000 0 0 1
35.347975 5.869897 23.537852 42.871500 0.164559 0.989590 0.061853 -0.006847 315247.000000 0 0 1
36.219575 5.364997 24.522562 44.068094 0.147055 0.980665 0.066518 -0.003077 131559.000000 0 0 1
35.674975 4.186697 25.357932 43.968819 0.116822 0.956082 0.064974 0.004120 30656.800000 0 0 1
35.376675 3.009797 24.622272 43.206762 0.084874 0.964448 0.076419 -0.007650 76518.700000 0 0 1
35.081775 1.934897 25.472882 43.397494 0.055098 0.943489 0.085797 -0.015535 -26310.400000 0 0 1
34.849075 0.549497 24.776642 42.762624 0.015767 0.952805 0.078210 -0.021839 -1000440.000000 0 0 1
33.688675 0.429697 24.065092 41.403383 0.012754 0.950551 0.101952 -0.017439 -1062290.000000 0 0 1
33.652775 -0.882403 23.561792 41.090704 -0.026215 0.960135 0.094830 -0.021106 1507410.000000 0 0 1
32.269275 -1.349403 22.888112 39.585258 -0.041793 0.954278 0.105004 -0.025461 2048190.000000 0 0 1
31.112175 -1.409203 23.749162 39.166006 -0.045263 0.919306 0.110491 -0.017394 541884.000000 0 0 1
30.065175 -2.052503 23.043082 37.935619 -0.068163 0.917980 0.121788 -0.023831 -251834.000000 0 0 1
28.649075 -1.719003 23.483922 37.083946 -0.059930 0.885033 0.081595 -0.012664 -488395.000000 0 0 1
28.206575 -0.403603 23.179622 36.511213 -0.014308 0.882965 0.092639 -0.008738 102386.000000 0 0 1
26.801375 -0.404803 23.029732 35.339017 -0.015103 0.860999 0.093159 -0.005557 146568.000000 0 0 1
26.140475 0.949497 22.588662 34.561158 0.036307 0.858484 0.083688 0.004356 187115.000000 0 0 1
26.462775 1.467097 21.305462 34.005199 0.055383 0.893696 0.077827 -0.003078 29256.900000 0 0 1
25.652275 2.599597 21.237662 33.404123 0.100995 0.881778 0.090826 -0.008659 -86870.400000 0 0 1
25.624675 3.435897 19.953662 32.658506 0.133290 0.913500 0.094812 -0.020004 -71590.900000 0 0 1
24.955075 2.803297 18.901262 31.430431 0.111865 0.925584 0.089518 -0.016440 56916.300000 0 0 1
24.338075 3.733397 18.053162 30.531898 0.152211 0.938141 0.091251 -0.025986 -143280.000000 0 0 1
23.950275 3.351597 16.615562 29.341537 0.139037 0.968809 0.095171 -0.023683 -159482.000000 0 0 1
25.055475 3.263097 15.737662 29.767409 0.129506 1.013743 0.093651 -0.024131 36216.700000 0 0 1
24.739375 3.121897 14.383662 28.786675 0.125528 1.047586 0.081379 -0.040432 -513874.000000 0 0 1
23.950975 1.878297 13.883862 27.747772 0.078262 1.046782 0.102183 -0.025208 173110.000000 0 0 1
22.555775 1.958997 14.139462 26.693165 0.086634 1.012545 0.092260 -0.020651 519354.000000 0 0 1
22.016975 0.636297 13.827662 26.006851 0.028892 1.010198 0.093838 -0.021685 7372.310000 0 0 1
20.475175 0.536597 14.031762 24.827627 0.026201 0.970160 0.085763 -0.034417 286799.000000 0 1 0
19.627675 1.266697 13.136162 23.651827 0.064447 0.981956 0.102315 -0.033829 569965.000000 0 1 0
19.730175 1.115497 11.728362 22.979961 0.056477 1.035177 0.114266 -0.025736 -1187490.000000 0 1 0
19.526175 -0.293403 11.097562 22.461378 -0.015025 1.054028 0.110782 -0.022084 274017.000000 0 1 0
20.601575 -1.235603 11.268262 23.514365 -0.059904 1.071045 0.106251 -0.031544 786468.000000 0 1 0
21.679375 -0.932503 10.398462 24.062271 -0.042987 1.123923 0.109414 -0.030458 -225458.000000 0 1 0
22.889675 -1.905803 10.531562 25.268223 -0.083069 1.140884 0.128231 -0.039590 275682.000000 0 0 1
23.626475 -1.676903 11.704762 26.420140 -0.070857 1.111827 0.111783 -0.042403 447616.000000 0 0 1
24.820975 -2.428003 11.876162 27.622803 -0.097510 1.126369 0.091084 -0.038808 375602.000000 0 0 1
25.275075 -2.665403 13.321862 28.695048 -0.105067 1.088001 0.106318 -0.027129 163416.000000 0 0 1
26.030175 -1.565403 13.829662 29.517453 -0.060066 1.083176 0.103900 -0.024556 155834.000000 0 0 1
25.999375 -1.508603 15.251262 30.180199 -0.057960 1.041020 0.093165 -0.029688 110070.000000 0 0 1
27.078275 -0.502203 15.770262 31.339853 -0.018544 1.043497 0.134577 -0.031010 678033.000000 0 0 1
28.366175 -1.087003 15.552362 32.368155 -0.038302 1.069590 0.146459 -0.029913 200665.000000 0 0 1
29.375375 -0.199903 15.943662 33.423839 -0.006805 1.073541 0.123982 -0.032688 -635526.000000 0 0 1
30.785775 -0.752103 16.062862 34.732480 -0.024425 1.090013 0.118961 -0.025322 -743596.000000 0 0 1
31.392675 -1.091203 14.887162 34.760874 -0.034746 1.128215 0.145761 -0.026285 -405993.000000 0 0 1
32.728375 -1.465403 15.106962 36.076505 -0.044745 1.138730 0.146726 -0.028647 -91793.000000 0 0 1
33.290075 -2.261003 13.884762 36.140391 -0.067814 1.176466 0.137657 -0.034077 -184190.000000 0 0 1
33.545175 -1.534403 12.730262 35.912292 -0.045710 1.208436 0.149242 -0.033239 535507.000000 0 0 1
34.355375 -2.378003 11.880562 36.429308 -0.069108 1.238593 0.140596 -0.030183 427102.000000 0 0 1
34.463375 -1.983203 10.369462 36.044182 -0.057482 1.278985 0.167139 -0.024211 -114114.000000 0 0 1
34.992775 -0.713403 10.021962 36.406634 -0.020384 1.291917 0.147923 -0.017944 286067.000000 0 0 1
34.104275 0.362697 10.264462 35.617304 0.010635 1.278463 0.130833 -0.018968 -212766.000000 0 0 1
34.605875 1.786597 9.909162 36.040949 0.051581 1.292267 0.134892 -0.022787 -128573.000000 0 0 1
34.913675 1.904397 8.521462 35.988981 0.054492 1.331746 0.137564 -0.019343 207680.000000 0 0 1
35.068775 3.234097 8.026362 36.120643 0.091961 1.346716 0.128620 -0.012951 -27298.500000 0 0 1
35.352275 3.212297 6.476162 36.083831 0.090617 1.390343 0.124313 -0.020644 -23015.800000 0 0 1
35.834375 4.435697 5.978162 36.599403 0.123157 1.406721 0.111474 -0.004426 114522.000000 0 0 1
36.065675 4.305697 4.562062 36.607163 0.118823 1.445849 0.148689 -0.018071 25163.100000 0 0 1
36.430275 5.572897 3.724762 37.041814 0.151798 1.470070 0.166619 -0.034194 606866.000000 0 0 1
35.359575 6.526897 3.679562 36.144697 0.182532 1.468819 0.142441 -0.041705 481993.000000 0 0 1
35.801175 7.673797 3.011362 36.737986 0.211150 1.488736 0.144093 -0.046559 -961505.000000 0 0 1
34.867575 8.866697 3.335662 36.131603 0.249018 1.478345 0.149586 -0.034281 950155.000000 0 0 1
33.657775 8.865497 2.559662 34.899781 0.257551 1.497387 0.157091 -0.051339 1150030.000000 0 0 1
32.704975 7.819097 2.857762 33.747896 0.234675 1.486015 0.164950 -0.050146 73204.000000 0 0 1
31.506275 7.814897 1.818262 32.511906 0.243136 1.514841 0.177366 -0.054848 734460.000000 0 0 1
31.954375 7.586197 0.514862 32.846576 0.233092 1.555121 0.191441 -0.054023 443602.000000 0 0 1
30.845575 7.765497 -0.346438 31.809943 0.246629 1.581687 0.169220 -0.049508 289432.000000 0 0 1
31.295775 7.560297 -1.826738 32.247800 0.237034 1.627474 0.150751 -0.042817 -797598.000000 0 0 1
30.231575 7.227297 -2.632938 31.194780 0.234660 1.655300 0.171996 -0.036888 32715.100000 0 0 1
30.676175 6.799497 -3.922138 31.664555 0.218127 1.694981 0.166641 -0.034132 16624.800000 0 0 1
29.548175 6.151997 -4.779438 30.557892 0.205270 1.727847 0.177323 -0.022937 -118486.000000 0 0 1
29.313375 4.786297 -4.450638 30.033161 0.161852 1.719535 0.170078 -0.022431 1045070.000000 0 0 1
28.156375 4.229797 -5.081738 28.922253 0.149110 1.747417 0.151405 -0.013545 248406.000000 0 0 1
28.156875 2.699397 -4.809438 28.691933 0.095578 1.739215 0.180025 -0.012656 -198346.000000 0 0 1
27.783075 2.258197 -3.507038 28.094448 0.081101 1.695953 0.179368 -0.023821 480504.000000 0 0 1
27.613375 0.883497 -3.453538 27.842521 0.031984 1.695155 0.172675 -0.029240 -6637.680000 0 0 1
27.595875 0.271697 -2.034038 27.672070 0.009845 1.644368 0.153748 -0.031466 425537.000000 0 0 1
28.934675 0.534197 -1.633038 28.985645 0.018460 1.627166 0.153231 -0.028544 440900.000000 0 0 1
29.106475 0.321597 -0.246638 29.109296 0.011049 1.579269 0.151217 -0.021309 -373735.000000 0 0 1
30.512375 0.693997 0.228762 30.521124 0.022741 1.563301 0.173624 -0.027961 -836534.000000 0 0 1
31.522375 -0.053203 -0.346138 31.524320 -0.001688 1.581777 0.161818 -0.031096 -791948.000000 0 0 1
32.771175 0.404197 0.079762 32.773765 0.012333 1.568363 0.123365 -0.034559 -561609.000000 0 0 1
-2.298225 -21.222603 -8.271621 22.893240 1.462925 1.940472 0.035166 -0.012867 141366.000000 0 1 0
-3.046825 -21.689303 -7.176421 23.047994 1.431234 1.887429 0.030397 -0.016509 -372482.000000 0 1 0
-2.792925 -23.086503 -6.824521 24.235535 1.450405 1.856249 0.034678 -0.011543 -61916.600000 0 1 0
-3.464525 -23.505203 -5.505621 24.388714 1.424456 1.798504 0.029664 -0.008003 -759610.000000 0 1 0
-3.069825 -22.742703 -4.390021 23.365073 1.436627 1.759808 0.034011 -0.007007 -122350.000000 0 1 0
-3.452125 -23.353003 -3.128321 23.813154 1.424036 1.702547 0.032577 -0.018299 -313680.000000 0 1 0
-2.942125 -22.657503 -1.864121 22.923645 1.441667 1.652205 0.031443 -0.024434 -91004.700000 0 1 0
-1.553325 -22.848703 -1.681621 22.963099 1.502918 1.644093 0.044462 -0.012319 -402960.000000 0 1 0
-1.193225 -22.689303 -0.359221 22.723497 1.518255 1.586605 0.038685 -0.014349 489815.000000 0 1 0
0.354775 -22.611903 -0.177521 22.615383 -1.555108 1.578646 0.049638 -0.011767 293176.000000 0 1 0
0.889275 -21.421403 -0.735021 21.452449 -1.529307 1.605066 0.029345 -0.012817 -828720.000000 0 1 0
2.108875 -21.211703 -0.111121 21.316567 -1.471702 1.576009 0.019557 -0.010391 -445670.000000 0 1 0
3.037075 -20.127903 -0.727821 20.368751 -1.421037 1.606536 0.022635 -0.011605 600729.000000 0 1 0
3.761675 -20.542403 -1.884221 20.968806 -1.389685 1.660776 0.024746 -0.008005 -122174.000000 0 1 0
4.741875 -19.634903 -2.311321 20.331183 -1.333831 1.684726 0.035184 -0.003443 -66118.000000 0 1 0
5.628175 -20.185403 -3.477921 21.242005 -1.298878 1.735265 0.034586 -0.004194 125794.000000 0 1 0
6.655075 -21.106003 -3.033721 22.337342 -1.265347 1.707031 0.046824 -0.008374 367044.000000 0 1 0
7.532375 -21.615203 -4.002321 23.237303 -1.235480 1.743896 0.053129 -0.011836 194377.000000 0 1 0
8.608775 -20.636303 -4.569421 22.822086 -1.175579 1.772378 0.065569 -0.020092 -831742.000000 0 1 0
8.262075 -19.538003 -5.300621 21.865316 -1.170729 1.815657 0.046373 -0.017051 -1299960.000000 0 1 0
9.304975 -19.165003 -6.094121 22.158931 -1.118800 1.849406 0.062131 -0.013947 -1044040.000000 0 1 0
8.994975 -17.922703 -7.003321 21.240983 -1.105649 1.906791 0.040519 -0.008816 330756.000000 0 1 0
10.014775 -17.733503 -7.982521 21.874494 -1.056709 1.944347 0.051613 -0.000228 288815.000000 0 1 0
9.793375 -16.468403 -8.607421 21.004909 -1.034300 1.993011 0.045978 -0.000017 203678.000000 0 1 0
10.165175 -16.396003 -10.103821 21.777210 -1.015816 2.053260 0.045285 -0.005855 -126.449000 0 1 0
9.452075 -17.275703 -10.941721 22.528047 -1.070158 2.077952 0.045082 -0.003065 -353826.000000 0 1 0
8.847075 -16.514603 -11.947621 22.220452 -1.078989 2.138486 0.034271 -0.013721 -325081.000000 0 1 0
8.244775 -17.216703 -13.138321 23.173404 -1.124185 2.173603 0.046632 -0.018112 -51198.900000 0 1 0
7.127575 -17.993503 -12.738721 23.169883 -1.193640 2.152917 0.035718 -0.012384 -67458.700000 0 1 0
6.526775 -18.537203 -13.863721 24.050560 -1.232260 2.185162 0.039167 -0.011861 -92535.300000 0 1 0
5.433975 -19.526703 -13.451321 24.326082 -1.299379 2.156707 0.049114 -0.008638 188849.000000 0 1 0
6.068275 -20.684803 -12.953221 25.148975 -1.285434 2.111873 0.066244 -0.014348 358217.000000 0 0 1
5.006175 -21.590103 -12.700721 25.544131 -1.342949 2.091173 0.108532 -0.023922 378806.000000 0 0 1
5.384775 -22.997703 -12.250721 26.607711 -1.340796 2.049265 0.081021 -0.021165 -314162.000000 0 0 1
5.907475 -23.718003 -13.360821 27.855941 -1.326692 2.071041 0.096001 -0.028847 32211.300000 0 0 1
5.279075 -24.985003 -13.603321 28.933879 -1.362569 2.060259 0.090106 -0.029691 1093730.000000 0 0 1
3.770575 -25.059973 -14.043321 28.972993 -1.421455 2.076821 0.105505 -0.040750 1054110.000000 0 0 1
2.836675 -24.986503 -12.964821 28.292378 -1.457752 2.046815 0.122116 -0.044887 761587.000000 0 0 1
1.467675 -24.978703 -13.411621 28.389457 -1.512107 2.062826 0.104616 -0.054645 1336360.000000 0 0 1
0.622075 -26.246923 -13.016421 29.303842 -1.547100 2.031064 0.090936 -0.048662 -306982.000000 0 0 1
0.845675 -27.329353 -13.859021 30.654219 -1.539862 2.039924 0.094815 -0.042235 -58594.000000 0 0 1
0.384275 -28.584743 -13.330221 31.542511 -1.557354 2.007121 0.079752 -0.030827 214865.000000 0 0 1
-1.019925 -29.019733 -13.842521 32.168316 1.535665 2.015638 0.061824 -0.037003 -561636.000000 0 0 1
-2.022025 -28.322733 -13.229721 31.325569 1.499525 2.006810 0.067553 -0.043584 -33127.200000 0 0 1
-3.282625 -28.998293 -13.498321 32.154024 1.458076 2.004023 0.068598 -0.037696 280313.000000 0 0 1
-4.520325 -28.299393 -12.976321 31.459083 1.412402 1.995974 0.044209 -0.044796 -583206.000000 0 0 1
-4.798525 -28.237343 -11.579221 30.894202 1.402469 1.954980 0.035197 -0.034941 14292.000000 0 0 1
-5.165725 -29.495513 -11.042621 31.915662 1.397419 1.924094 0.034893 -0.035042 -630751.000000 0 0 1
-5.641025 -29.516613 -9.558021 31.534225 1.381960 1.878740 0.034097 -0.025903 -104571.000000 0 0 1
-6.976525 -29.135773 -9.331921 31.379132 1.335773 1.872757 0.043275 -0.021304 -172142.000000 0 0 1
-7.173925 -27.709163 -9.326421 30.103904 1.317458 1.885787 0.049996 -0.020927 -1727870.000000 0 0 1
-8.604225 -27.360633 -8.857121 30.018086 1.266114 1.870314 0.045762 -0.012587 609199.000000 0 0 1
-9.571325 -27.420833 -9.942721 30.698046 1.234965 1.900632 0.072556 -0.015951 211304.000000 0 0 1
-9.800925 -28.683253 -10.485521 32.073872 1.241539 1.903837 0.078945 -0.027007 -1858710.000000 0 0 1
-11.138525 -28.943653 -11.159821 32.959724 1.203431 1.916214 0.095911 -0.027895 -551859.000000 0 0 1
-11.452925 -28.245923 -12.388621 32.901057 1.185582 1.956857 0.111441 -0.032958 140353.000000 0 0 1
-12.274025 -29.078693 -13.199121 34.211677 1.171387 1.966879 0.119629 -0.034791 -38796.100000 0 0 1
-12.772025 -28.328563 -14.458121 34.273450 1.147233 2.006277 0.123613 -0.040493 -42705.900000 0 0 1
-13.775425 -27.346853 -14.347621 33.815188 1.104169 2.008980 0.128638 -0.047634 -41875.800000 0 0 1
-13.374225 -26.209433 -13.627021 32.426840 1.098956 2.004505 0.125107 -0.040194 -343772.000000 0 0 1
-14.248225 -24.963903 -13.845321 31.904565 1.052160 2.019680 0.149924 -0.032911 -364139.000000 0 0 1
-13.998925 -24.239503 -14.989921 31.752498 1.047066 2.062452 0.145419 -0.037180 101193.000000 0 0 1
-14.775025 -23.038303 -15.089021 31.252893 1.000544 2.074650 0.154520 -0.036821 -71427.100000 0 0 1
-14.468425 -22.192303 -16.391821 31.153257 0.993047 2.124883 0.143337 -0.027414 65443.300000 0 0 1
-13.086325 -21.942903 -16.578421 30.456312 1.033042 2.146392 0.128581 -0.019344 237092.000000 0 0 1
-12.804825 -21.148203 -17.708821 30.410728 1.026357 2.192378 0.079969 -0.011728 -544290.000000 0 0 1
-13.078025 -19.609003 -17.702821 29.477748 0.982605 2.214983 0.090541 -0.005498 -354866.000000 0 0 1
-12.182725 -18.825203 -16.949221 28.108418 0.996427 2.218046 0.088038 0.004448 100340.000000 0 0 1
-12.500725 -17.427903 -16.936421 27.328415 0.948565 2.239203 0.099355 0.007714 107631.000000 0 0 1
-11.264625 -16.563703 -17.283321 26.456780 0.973566 2.282687 0.110678 -0.008315 -43336.700000 0 0 1
-10.489425 -16.190503 -16.182121 25.179783 0.995916 2.268766 0.109249 -0.007427 328479.000000 0 0 1
-9.286925 -15.575403 -16.671421 24.632832 1.033134 2.314199 0.083938 -0.002012 248488.000000 0 1 0
-8.406525 -14.907603 -15.533821 23.112894 1.057338 2.307817 0.068804 -0.002961 409104.000000 0 1 0
-7.929725 -15.824403 -14.577121 22.929996 1.106263 2.259741 0.061011 -0.000058 -367089.000000 0 1 0
-6.904125 -16.664403 -14.959121 23.433834 1.178020 2.263157 0.058068 0.007538 -1158360.000000 0 1 0
-6.419225 -17.539403 -13.733921 23.183134 1.219949 2.204843 0.047733 0.000270 -421602.000000 0 1 0
-5.815925 -16.749303 -12.679721 21.797694 1.236588 2.191614 0.045132 -0.009111 364663.000000 0 1 0
-5.705525 -17.448603 -11.428121 21.624262 1.254765 2.127613 0.040989 -0.016026 -535734.000000 0 1 0
-4.634025 -18.516703 -11.308321 22.186045 1.325571 2.105637 0.050965 -0.017971 -1246110.000000 0 1 0
-3.345625 -18.033803 -11.480221 21.638085 1.387362 2.130053 0.039591 -0.010867 -1338320.000000 0 1 0
-2.402025 -19.045503 -11.330721 22.290943 1.445338 2.104018 0.036101 -0.005393 -194163.000000 0 1 0
-0.999025 -18.621903 -11.768721 22.051669 1.517200 2.133752 0.027285 -0.000829 -453837.000000 0 1 0
-0.717125 -18.693203 -13.187521 22.888006 1.532452 2.184839 0.038333 0.006370 -320850.000000 0 1 0
0.425975 -17.983103 -13.596121 22.548347 -1.547113 2.218023 0.038160 0.003690 1194750.000000 0 1 0
1.834375 -18.729803 -13.559921 23.195730 -1.473169 2.195167 0.059957 -0.015646 880045.000000 0 1 0
2.040175 -19.749703 -14.519121 24.597113 -1.467860 2.202199 0.082795 -0.009620 35120.700000 0 1 0
1.430775 -20.998303 -14.214321 25.397298 -1.502764 2.164794 0.079915 -0.025122 -511902.000000 0 0 1
1.329575 -21.904103 -15.486021 26.858413 -1.510171 2.185333 0.094617 -0.035540 613620.000000 0 0 1
2.516275 -22.577003 -15.928421 27.744681 -1.459801 2.182310 0.110405 -0.035806 421335.000000 0 0 1
3.487575 -21.717503 -16.530721 27.515048 -1.411568 2.215283 0.104769 -0.031324 635505.000000 0 0 1
4.907475 -22.377803 -16.559321 28.267658 -1.354913 2.196669 0.100992 -0.030260 484307.000000 0 0 1
4.988675 -23.379903 -17.531621 29.645648 -1.360574 2.203556 0.092284 -0.027086 500456.000000 0 0 1
6.354875 -23.762603 -17.706421 30.307806 -1.309480 2.194715 0.101153 -0.024254 701037.000000 0 0 1
6.728375 -23.738003 -19.197621 31.261997 -1.294598 2.232026 0.092194 -0.019931 -53764.800000 0 0 1
6.761075 -22.454003 -19.742021 30.653577 -1.278324 2.270559 0.105147 -0.024792 17862.900000 0 0 1
7.080875 -22.495103 -21.102621 31.646312 -1.265841 2.300739 0.102060 -0.015815 -405069.000000 0 0 1
7.330975 -21.035403 -21.623621 31.045327 -1.235453 2.341329 0.085614 -0.017753 912261.000000 0 0 1
6.186775 -20.156703 -21.804621 30.331672 -1.272990 2.372976 0.087309 -0.014490 646900.000000 0 0 1
6.581275 -18.928603 -22.395221 30.052473 -1.236181 2.411637 0.096236 -0.019189 -208772.000000 0 0 1
5.459275 -17.906403 -22.599921 29.346199 -1.274870 2.449816 0.087068 -0.012747 -986972.000000 0 0 1
4.647575 -18.347503 -23.659521 30.298577 -1.322706 2.466868 0.074763 -0.009960 -209012.000000 0 0 1
3.629475 -17.479103 -24.116721 30.005139 -1.366059 2.504373 0.074640 -0.004317 16167.500000 0 0 1
2.432375 -17.276503 -23.210321 29.036408 -1.430925 2.497013 0.074855 0.003174 -1115310.000000 0 0 1
2.667575 -16.438303 -22.095121 27.668179 -1.409921 2.495721 0.080997 -0.001488 -853624.000000 0 0 1
1.458875 -16.100703 -21.502521 26.902033 -1.480434 2.496909 0.069948 0.002449 -255788.000000 0 0 1
1.649175 -15.150603 -20.374121 25.443375 -1.462371 2.499365 0.067188 -0.002890 80047.600000 0 0 1
2.098675 -13.870403 -20.791121 25.081133 -1.420629 2.548032 0.073476 0.001567 -29838.900000 0 0 1
2.329675 -13.013103 -19.663321 23.694185 -1.393648 2.549688 0.078879 -0.004638 -306502.000000 0 1 0
3.607575 -12.211403 -19.763421 23.510121 -1.283540 2.569250 0.074999 -0.005829 -382801.000000 0 1 0
4.864875 -12.859103 -19.514121 23.870996 -1.209117 2.527823 0.082085 -0.008666 868381.000000 0 1 0
6.008175 -12.036203 -19.711721 23.864624 -1.107809 2.542736 0.081444 -0.005038 484019.000000 0 1 0
6.204875 -11.063203 -18.494221 22.426126 -1.059656 2.540420 0.077524 -0.007392 -300334.000000 0 1 0
5.374875 -9.869103 -18.263921 21.444330 -1.072096 2.589998 0.053975 -0.005629 331137.000000 0 1 0
5.569575 -8.784503 -19.175921 21.815215 -1.005735 2.644591 0.066899 -0.013750 -42569.400000 0 1 0
4.784075 -8.823503 -20.509421 22.833702 -1.073964 2.686473 0.079448 -0.024622 336378.000000 0 1 0
3.379575 -8.601503 -20.467121 22.456857 -1.196421 2.717463 0.075298 -0.027257 179430.000000 0 1 0
2.794175 -8.888503 -21.749721 23.661430 -1.266219 2.736855 0.074063 -0.029368 864619.000000 0 1 0
1.241475 -8.724603 -21.747821 23.465457 -1.429449 2.756601 0.056363 -0.028044 643848.000000 0 1 0
0.890375 -7.341803 -21.717221 22.941938 -1.450111 2.813370 0.051573 -0.028159 240915.000000 0 1 0
-0.525325 -7.209503 -21.857821 23.022103 1.498059 2.822204 0.040161 -0.020491 789106.000000 0 1 0
-1.149025 -6.232103 -22.865921 23.727826 1.388472 2.871235 0.046822 -0.018181 168625.000000 0 1 0
-0.882625 -6.771003 -24.143821 25.090827 1.441174 2.865973 0.047929 -0.014022 -303323.000000 0 0 1
-1.405125 -6.033703 -25.253951 26.002730 1.341995 2.901029 0.054999 -0.016671 141334.000000 0 0 1
-0.895425 -4.593203 -25.583211 26.007691 1.378265 2.960673 0.062232 -0.014811 119711.000000 0 0 1
-1.453025 -4.083203 -26.804231 27.152360 1.228916 2.981288 0.052691 -0.015025 -51680.400000 0 0 1
-0.983425 -2.814503 -27.222731 27.385500 1.234644 3.032510 0.041613 -0.009685 -962640.000000 0 0 1
-1.404825 -1.591603 -26.379601 26.464884 0.847651 3.061290 0.050512 -0.015727 789105.000000 0 0 1
-2.799525 -1.513103 -26.049151 26.242810 0.495509 3.020031 0.039033 -0.024081 497356.000000 0 0 1
-3.606625 -1.098303 -27.093341 27.354399 0.295602 3.003327 0.052057 -0.021012 -1963190.000000 0 0 1
-5.083925 -1.144903 -26.863041 27.363846 0.221505 2.949979 0.062347 -0.033966 -1134250.000000 0 0 1
-5.575525 -0.051703 -26.115781 26.704366 0.009273 2.931249 0.076768 -0.028585 34203.000000 0 0 1
-6.979625 -0.172103 -25.988021 26.909515 0.024653 2.879137 0.080168 -0.037051 -327524.000000 0 0 1
-7.678225 1.097597 -25.485421 26.639567 -0.141987 2.846157 0.074986 -0.034132 -986957.000000 0 0 1
-7.957125 2.220497 -26.308081 27.574655 -0.272135 2.837328 0.094432 -0.032996 1059660.000000 0 0 1
-9.055725 2.044597 -27.245091 28.783355 -0.222056 2.813185 0.101803 -0.040137 1584850.000000 0 0 1
-10.496225 1.700097 -26.680811 28.721538 -0.160578 2.762357 0.087799 -0.035764 -418179.000000 0 0 1
-11.466425 2.126097 -27.568341 29.933470 -0.183337 2.741403 0.094827 -0.045507 -692055.000000 0 0 1
-12.732625 1.676897 -27.148091 30.032492 -0.130947 2.699731 0.057888 -0.031157 -828699.000000 0 0 1
-13.861325 2.263097 -27.938741 31.270292 -0.161839 2.675786 0.048315 -0.028750 -1755330.000000 0 0 1
-15.095225 1.746097 -27.580711 31.489844 -0.115160 2.638012 0.049727 -0.026975 -535201.000000 0 0 1
-16.153325 2.084497 -28.450901 32.783057 -0.128335 2.621662 0.051887 -0.029823 134986.000000 0 0 1
-16.987825 3.324297 -28.087011 32.992686 -0.193245 2.589274 0.039876 -0.009012 -848935.000000 0 0 1
-16.266225 4.554897 -28.132291 32.814067 -0.273029 2.600845 0.052701 -0.014201 138001.000000 0 0 1
-16.030125 5.133897 -29.361241 33.843822 -0.309944 2.621053 0.058301 -0.023638 -229839.000000 0 0 1
-17.250725 5.453197 -30.265901 35.261163 -0.306174 2.602813 0.043212 -0.015261 -82390.000000 0 0 1
-18.079625 6.418297 -29.704721 35.361530 -0.341124 2.568134 0.037308 0.000659 -141465.000000 0 0 1
-18.865225 7.219097 -30.521711 36.600368 -0.365475 2.556966 0.037229 0.001160 -382755.000000 0 0 1
-19.597125 8.327697 -29.739751 36.576641 -0.401824 2.520221 0.042864 -0.004051 -98859.100000 0 0 1
-18.700525 9.246897 -29.118291 35.820240 -0.459216 2.519911 0.052772 -0.001598 869189.000000 0 0 1
-19.452525 10.381297 -28.665881 36.164966 -0.490222 2.485927 0.069950 -0.005147 276728.000000 0 0 1
-9.363925 25.204797 30.909942 40.968151 -1.215086 0.715924 0.063855 -0.013148 -167022.000000 0 0 1
-9.803225 26.516797 30.541572 41.617681 -1.216681 0.746809 0.072321 -0.008651 72870.100000 0 0 1
-9.403425 27.458497 31.519272 42.846913 -1.240855 0.744207 0.085464 -0.014013 1207700.000000 0 0 1
-7.927825 28.021697 31.300282 42.752469 -1.295084 0.749355 0.086111 -0.012230 1149710.000000 0 0 1
-7.797025 28.976797 30.277482 42.628328 -1.307944 0.780919 0.099069 -0.014423 761852.000000 0 0 1
-6.402825 29.164197 29.998642 42.325703 -1.354681 0.783062 0.088433 -0.011504 740921.000000 0 0 1
-6.158125 30.305197 29.013022 42.403808 -1.370322 0.817279 0.098104 -0.014014 -137230.000000 0 0 1
-6.392725 31.543697 29.643032 43.755927 -1.370842 0.826488 0.104533 -0.017128 246484.000000 0 0 1
-6.204925 32.681197 28.831152 44.020417 -1.383167 0.856680 0.111295 -0.016697 -146501.000000 0 0 1
-6.634625 33.989497 29.584802 45.547390 -1.378024 0.863818 0.112952 -0.028226 -70510.500000 0 0 1
-5.780125 -33.620910 30.647222 45.858779 1.400540 0.838881 0.116981 -0.032610 -22835.400000 0 0 1
-6.457725 -33.087510 31.730372 46.295810 1.378048 0.815666 0.114258 -0.038581 173202.000000 0 0 1
-7.448125 -33.928710 32.587734 47.629742 1.354701 0.817306 0.099332 -0.038835 293712.000000 0 0 1
-6.782425 33.356997 33.532503 47.781998 -1.370202 0.792902 0.126268 -0.033353 113128.000000 0 0 1
-7.143125 32.028797 33.287965 46.743521 -1.351365 0.778253 0.114641 -0.026565 -14555.300000 0 0 1
-6.882525 31.026897 -33.426241 46.123216 -1.352506 2.381419 0.106755 -0.021283 -623258.000000 0 0 1
-5.537025 30.789997 -33.156481 45.585467 -1.392866 2.385245 0.093786 -0.022435 -766309.000000 0 0 1
-5.328625 30.458197 -31.824511 44.372238 -1.397600 2.370596 0.119263 -0.018998 89509.800000 0 0 1
-3.903325 30.082897 -31.299701 43.587704 -1.441765 2.371844 0.102562 -0.024835 757910.000000 0 0 1
-3.311125 28.843997 -31.701021 42.987143 -1.456502 2.400089 0.093965 -0.013436 90312.500000 0 0 1
-2.969625 28.829897 -33.085401 43.984377 -1.468153 2.422203 0.086556 -0.018856 -706455.000000 0 0 1
-2.226825 27.552997 -33.472191 43.410989 -1.490152 2.451290 0.088001 -0.022723 259111.000000 0 0 1
-0.982125 27.348197 -32.746731 42.675952 -1.534900 2.445470 0.098447 -0.010633 1137290.000000 0 0 1
-0.317925 26.106697 -33.007741 42.085290 -1.558619 2.472373 0.106717 -0.005360 358634.000000 0 0 1
0.090775 25.742797 33.449160 42.208366 1.567270 0.655937 0.092432 -0.010374 -1337880.000000 0 0 1
-0.972325 25.336297 32.656606 41.344012 -1.532438 0.660191 0.098410 -0.004828 -614863.000000 0 0 1
-0.669225 25.192197 31.277672 40.166994 -1.544238 0.678220 0.107153 -0.007101 -17748.200000 0 0 1
-0.381925 26.477697 30.510142 40.399048 -1.556373 0.714808 0.076846 -0.008435 -17241.600000 0 0 1
-1.501425 27.350197 30.544932 41.027801 -1.515955 0.731020 0.075114 -0.010208 51609.900000 0 0 1
-1.171825 28.588897 30.086632 41.519919 -1.529830 0.760297 0.068443 -0.014841 -128978.000000 0 0 1
-2.260225 29.621697 30.399382 42.505012 -1.494641 0.773893 0.080430 -0.019534 -128954.000000 0 0 1
-2.300125 30.121197 31.721392 43.804381 -1.494582 0.760980 0.089927 -0.015909 -154564.000000 0 0 1
-3.109325 31.263297 31.826942 44.721537 -1.471666 0.778925 0.097078 -0.017448 51371.600000 0 0 1
-2.574725 32.105097 33.008505 46.118629 -1.490771 0.773127 0.111665 -0.018326 348685.000000 0 0 1
-1.292825 32.635997 32.740709 46.246446 -1.531204 0.784188 0.091550 -0.030148 -450797.000000 0 0 1
-0.649825 33.075797 33.917192 47.379390 -1.551152 0.772936 0.072194 -0.026933 -601757.000000 0 0 1
0.710375 33.684697 33.647558 47.616401 1.549710 0.786061 0.084713 -0.032551 -619446.000000 0 0 1
0.641975 -33.221310 32.777134 46.673419 -1.551475 0.792221 0.101278 -0.041087 -152350.000000 0 0 1
1.912075 -32.787010 32.359508 46.106201 -1.512544 0.792809 0.086345 -0.037246 -181183.000000 0 0 1
2.131675 -31.316010 32.040854 44.853683 -1.502831 0.775113 0.095379 -0.031808 -394100.000000 0 0 1
2.070675 -30.566210 33.188697 45.167140 -1.503156 0.745428 0.092184 -0.028051 26625.900000 0 0 1
2.091875 -29.157610 33.010735 44.093659 -1.499175 0.724772 0.075585 -0.030578 -45158.000000 0 0 1
1.471175 -28.341010 -33.684151 44.045422 -1.518933 2.441464 0.068469 -0.025923 -125670.000000 0 0 1
0.072675 -28.458110 -33.678881 44.092361 -1.568243 2.440016 0.057678 -0.030556 -363735.000000 0 0 1
-0.440325 -27.817410 -32.536671 42.809311 1.554969 2.434167 0.063076 -0.028528 671483.000000 0 0 1
-1.977325 -27.526610 -32.455321 42.602487 1.499086 2.436911 0.078834 -0.029958 741574.000000 0 0 1
-2.319925 -26.978210 -31.210491 41.319494 1.485015 2.426977 0.056337 -0.021938 1385400.000000 0 0 1
-3.644125 -26.353810 -31.183941 40.990744 1.433391 2.435273 0.081437 -0.026144 1348880.000000 0 0 1
-3.999425 -25.761510 -29.800831 39.594700 1.416778 2.422869 0.082350 -0.028462 -135711.000000 0 0 1
-4.205725 -26.766510 -28.831981 39.565355 1.414944 2.387244 0.082113 -0.032426 -115740.000000 0 0 1
-4.478925 -26.213910 -27.540041 38.284248 1.401570 2.373673 0.102909 -0.026955 -188333.000000 0 0 1
-3.309925 -25.851610 -26.587841 37.231366 1.443454 2.366169 0.089047 -0.027114 -334961.000000 0 0 1
-2.557025 -24.842510 -27.176511 36.908690 1.468228 2.398408 0.084659 -0.027180 -370161.000000 0 0 1
-1.544825 -24.392110 -26.314731 35.914155 1.507548 2.393095 0.060786 -0.022398 -628905.000000 0 0 1
-0.667925 -23.221310 -26.886841 35.532767 1.542041 2.429012 0.045223 -0.012997 900827.000000 0 0 1
0.140575 -23.502110 -28.057021 36.600073 -1.564815 2.444300 0.015574 -0.011806 751429.000000 0 0 1
1.178275 -24.467810 -27.843891 37.085635 -1.522677 2.420069 0.009759 -0.006435 -250631.000000 0 0 1
2.020975 -24.792210 -29.083861 38.270210 -1.489460 2.434049 0.005445 -0.014609 -169215.000000 0 0 1
2.762475 -23.687810 -29.541941 37.966694 -1.454701 2.462434 0.031781 -0.015374 -17438.700000 0 0 1
3.535275 -24.035210 -30.680231 39.133950 -1.424756 2.471848 0.046443 -0.016278 -328927.000000 0 0 1
4.571975 -23.006010 -31.106781 38.959097 -1.374623 2.495508 0.061433 -0.028809 -990754.000000 0 0 1
5.673575 -22.714910 -30.279161 38.275111 -1.326031 2.483390 0.047723 -0.032116 936810.000000 0 0 1
6.846675 -23.542210 -30.381161 39.040076 -1.287778 2.462598 0.055802 -0.025775 985224.000000 0 0 1
7.615975 -23.479810 -31.745351 40.212832 -1.257141 2.480682 0.062225 -0.025467 -602018.000000 0 0 1
6.963975 -24.403710 -32.583221 41.300173 -1.292819 2.479873 0.047538 -0.021359 -2808.950000 0 0 1
7.231975 -24.199710 33.932372 42.300512 -1.280399 0.639869 0.070166 -0.027884 80278.500000 0 0 1
6.653975 -22.896910 33.304603 40.960230 -1.287980 0.621345 0.084279 -0.033519 909652.000000 0 0 1
5.222175 -22.755910 33.256692 40.633854 -1.345216 0.612092 0.089556 -0.031141 714864.000000 0 0 1
4.810775 -21.807710 32.336520 39.298477 -1.353674 0.604398 0.107004 -0.049451 -816790.000000 0 0 1
3.358975 -21.336310 32.492753 39.016661 -1.414648 0.586665 0.097057 -0.052938 124848.000000 0 0 1
2.370575 -22.326810 32.208291 39.261687 -1.465016 0.608775 0.092956 -0.041144 196471.000000 0 0 1
2.085475 -23.185310 33.364065 40.682535 -1.481090 0.609197 0.082915 -0.041602 -380796.000000 0 0 1
0.695875 -23.844510 33.179416 40.864637 -1.541621 0.623338 0.088582 -0.040527 142213.000000 0 0 1
0.624175 -24.883210 32.301392 40.779206 -1.545717 0.656547 0.095108 -0.038145 513520.000000 0 0 1
-0.733425 -25.223710 31.982352 40.738732 1.541728 0.668003 0.115234 -0.052558 551705.000000 0 0 1
-0.863125 -26.242710 30.859372 40.518214 1.537918 0.704991 0.115362 -0.048436 921589.000000 0 0 1
-2.223625 -26.502110 30.448762 40.428127 1.487089 0.717947 0.114593 -0.053252 1076570.000000 0 0 1
-2.300725 -27.880710 29.952332 40.984991 1.488463 0.751285 0.126748 -0.049687 -378903.000000 0 0 1
-3.530225 -28.050510 29.070562 40.551093 1.445602 0.771469 0.136525 -0.045615 -503578.000000 0 0 1
-4.734425 -28.153910 29.799522 41.268256 1.404193 0.763973 0.122436 -0.047063 56999.400000 0 0 1
-5.745625 -28.651910 28.912452 41.108077 1.372889 0.790728 0.126529 -0.037883 -281638.000000 0 0 1
-6.916025 -29.063010 29.807222 42.201427 1.337175 0.786527 0.120859 -0.029493 -400765.000000 0 0 1
-8.065125 -29.496310 29.093932 42.208239 1.303892 0.810281 0.119899 -0.029271 644584.000000 0 0 1
-9.299925 -29.621810 29.771342 43.014800 1.266586 0.806376 0.102270 -0.024672 93396.100000 0 0 1
-9.496325 -30.773910 30.809552 44.569521 1.271483 0.807552 0.100765 -0.024520 -559985.000000 0 0 1
-9.581625 -32.079510 30.320242 45.168790 1.280548 0.834882 0.110831 -0.026499 -132370.000000 0 0 1
-10.659725 -32.300810 29.464452 45.001400 1.252036 0.856951 0.105891 -0.025348 -560564.000000 0 0 1
-10.650725 -33.745810 28.872912 45.671246 1.265075 0.886420 0.121749 -0.022763 -220770.000000 0 0 1
-10.667925 33.293797 29.814212 45.947457 -1.260714 0.864690 0.126960 -0.022158 307895.000000 0 0 1
-10.501725 32.065897 29.150052 44.589612 -1.254301 0.858279 0.114452 -0.027818 -200975.000000 0 0 1
-10.828525 30.897397 30.090332 44.467226 -1.233705 0.827545 0.111646 -0.000752 433988.000000 0 0 1
-12.233825 30.841797 30.306672 44.937482 -1.193169 0.830619 0.106495 0.008064 190974.000000 0 0 1
-12.666625 29.627797 30.913042 44.652726 -1.166789 0.806126 0.100142 0.006362 19903.900000 0 0 1
-12.650325 29.438297 32.447602 45.601436 -1.164932 0.779098 0.106585 -0.002059 -419849.000000 0 0 1
-13.619625 30.211097 33.093750 46.833758 -1.147265 0.786084 0.105266 0.000123 -62353.900000 0 0 1
-13.926825 29.676497 -33.513911 46.881053 -1.132019 2.367236 0.104910 0.000962 -122713.000000 0 0 1
-15.171625 30.286097 -32.841121 47.180135 -1.106394 2.340719 0.100839 -0.000574 -56018.100000 0 0 1
-15.555025 29.524297 -31.699081 46.026891 -1.085896 2.330502 0.079054 0.008945 -737518.000000 0 0 1
-16.721925 30.006397 -31.147451 46.369929 -1.062382 2.307320 0.090864 0.002496 -614365.000000 0 0 1
-16.838925 29.535797 -29.673021 45.126499 -1.052638 2.288361 0.095602 0.001456 -23672.600000 0 0 1
-17.073625 28.195097 -29.524361 44.251102 -1.026304 2.301241 0.081303 0.000350 87865.100000 0 0 1
-17.086425 27.908197 -28.140211 43.158833 -1.021428 2.281035 0.060101 -0.002284 -129179.000000 0 0 1
-17.547225 26.522097 -27.700981 42.174294 -0.986304 2.287392 0.045414 -0.006793 -408546.000000 0 0 1
-18.911125 26.292997 -27.901841 42.748861 -0.947270 2.281929 0.057317 -0.007829 -301317.000000 0 0 1
-19.358425 24.926397 -27.613501 41.935419 -0.910473 2.289589 0.034591 -0.008266 554906.000000 0 0 1
-20.843425 24.644297 -27.963971 42.705660 -0.868763 2.284724 0.031896 -0.004755 699295.000000 0 0 1
-21.814425 24.922697 -26.926591 42.685493 -0.851806 2.253398 0.029923 -0.001888 628284.000000 0 0 1
-23.060325 24.331997 -27.282601 43.222274 -0.812225 2.253917 0.055033 -0.005854 390268.000000 0 0 1
-24.126125 24.624797 -26.188501 43.293049 -0.795627 2.220452 0.070053 -0.006570 -142800.000000 0 0 1
-24.692625 25.934397 -26.235971 44.391946 -0.809921 2.203104 0.043248 0.004917 602140.000000 0 0 1
-25.964845 26.095897 -25.591811 44.834248 -0.787915 2.178288 0.053709 -0.002177 909996.000000 0 0 1
-26.018015 25.858897 -24.033821 43.854808 -0.782331 2.150805 0.063210 0.006935 -672750.000000 0 0 1
-25.793015 24.524297 -23.512621 42.656349 -0.760189 2.154610 0.066864 -0.000328 -439126.000000 0 0 1
-26.852305 23.590497 -23.496721 42.774452 -0.720825 2.152343 0.072408 0.002046 -22551.500000 0 0 1
-27.762025 23.755897 -22.235721 42.772654 -0.707793 2.117481 0.063693 -0.001268 26936.500000 0 0 1
-27.125635 23.362897 -21.013121 41.511159 -0.711009 2.101574 0.061465 -0.004828 600535.000000 0 0 1
-26.365255 24.438797 -20.395221 41.332149 -0.747497 2.086845 0.057886 0.001242 460214.000000 0 0 1
-25.495965 24.004797 -19.157221 39.915832 -0.755283 2.071383 0.049404 -0.000898 342583.000000 0 0 1
-26.165155 23.858897 -17.887821 39.671608 -0.739328 2.038567 0.048358 0.000521 541410.000000 0 0 1
-25.177125 23.725697 -16.850721 38.480425 -0.755727 2.024062 0.058438 -0.009558 280273.000000 0 0 1
-25.679915 23.990297 -15.379721 38.360503 -0.751395 1.983324 0.071365 -0.014080 -145297.000000 0 0 1
-25.974445 25.324897 -15.145621 39.311729 -0.772737 1.966296 0.073958 -0.017341 -108999.000000 0 0 1
-26.359865 25.464597 -13.836421 39.175691 -0.768125 1.931774 0.048155 -0.017331 47971.500000 0 0 1
-26.376405 26.878797 -13.173021 39.896277 -0.794832 1.907292 0.052817 -0.011140 1142230.000000 0 0 1
-25.026025 27.296997 -12.876521 39.207560 -0.828774 1.905426 0.069081 -0.025840 934422.000000 0 0 1
-24.953425 27.878897 -11.555121 39.158998 -0.840714 1.870338 0.076576 -0.022849 793735.000000 0 0 1
-23.453025 28.077797 -11.131121 38.240148 -0.874906 1.866157 0.097108 -0.030396 834323.000000 0 0 1
-22.759525 26.873897 -10.832521 36.844889 -0.868104 1.869209 0.104175 -0.032415 250771.000000 0 0 1
-21.613125 27.196097 -10.045721 36.161739 -0.899287 1.852299 0.114318 -0.030099 671852.000000 0 0 1
-20.729825 25.948697 -9.555021 34.559499 -0.896740 1.850926 0.148191 -0.038662 315131.000000 0 0 1
-19.831625 25.612897 -10.600021 34.083343 -0.911935 1.887044 0.130494 -0.035841 182696.000000 0 0 1
-19.125225 24.481297 -10.141721 32.679698 -0.907613 1.886344 0.135127 -0.032810 -59226.800000 0 0 1
-18.332525 23.630597 -11.177321 31.928343 -0.910989 1.928448 0.139523 -0.034005 -296174.000000 0 0 1
-17.633925 22.590097 -10.642821 30.570205 -0.907994 1.926386 0.124652 -0.027321 -226127.000000 0 0 1
-17.059325 21.892897 -11.725121 30.129686 -0.908857 1.970511 0.114867 -0.017426 -35758.300000 0 0 1
-16.790725 20.420897 -11.394721 28.788559 -0.882645 1.977743 0.112626 -0.011191 56698.000000 0 0 1
-17.998525 19.687597 -11.256121 28.952524 -0.830188 1.970102 0.114581 -0.003247 164164.000000 0 0 1
-17.727925 18.412997 -10.719321 27.716811 -0.804351 1.967895 0.132028 -0.019875 1627.560000 0 0 1
-19.006825 17.553797 -10.367721 27.872654 -0.745676 1.951924 0.100836 -0.009679 1004460.000000 0 0 1
-19.814925 16.942897 -11.385321 28.448525 -0.707423 1.982540 0.094269 -0.007999 411493.000000 0 0 1
-20.516125 17.941197 -12.105021 29.821628 -0.718542 1.988775 0.094435 -0.007287 -587671.000000 0 0 1
-21.276625 17.212497 -13.268521 30.414116 -0.680196 2.022237 0.092213 -0.013067 633543.000000 0 0 1
-20.354325 16.932197 -14.339521 30.110126 -0.693875 2.067165 0.088051 -0.022088 913795.000000 0 0 1
-21.104925 16.387797 -15.406121 30.843578 -0.660241 2.093809 0.088865 -0.014839 54555.600000 0 0 1
-20.260225 16.066997 -16.623621 30.740363 -0.670477 2.142155 0.100783 -0.025782 -554358.000000 0 0 1
-19.792025 17.182297 -17.332421 31.422419 -0.714933 2.155070 0.083384 -0.021048 272486.000000 0 0 1
-18.797925 16.726697 -18.253821 31.086112 -0.727160 2.198394 0.072922 -0.016555 -296436.000000 0 0 1
-18.089825 17.885497 -18.980821 31.739634 -0.779719 2.211820 0.060491 -0.016969 -235813.000000 0 0 1
-17.067625 18.502997 -18.212121 31.070019 -0.825729 2.197112 0.068011 -0.022267 430206.000000 0 0 1
-16.683025 19.709697 -18.875621 31.985693 -0.868374 2.202012 0.066182 -0.018002 -2225.950000 0 0 1
33.930326 30.368197 2.692379 45.615166 0.730055 1.511738 0.088522 -0.013121 -135781.000000 0 0 1
35.206796 30.289797 2.113179 46.491460 0.710466 1.525328 0.093898 -0.018965 -281.603000 0 0 1
35.167846 31.172397 0.944879 47.004133 0.725244 1.550693 0.074085 -0.008864 325624.000000 0 0 1
36.453256 31.254197 0.057079 48.017372 0.708761 1.569608 0.049111 -0.010081 -612822.000000 0 0 1
-36.890605 31.845597 0.711079 48.739762 -0.712133 1.556207 0.043678 -0.011039 -516797.000000 0 0 1
-35.770478 31.790797 -0.184321 47.856200 -0.726561 1.574648 0.041700 -0.005820 152235.000000 0 0 1
-34.611412 32.740097 0.172579 47.643400 -0.757621 1.567174 0.043094 -0.007308 -224733.000000 0 0 1
-33.927625 32.405597 1.344579 46.936280 -0.762457 1.542146 0.033897 -0.004360 -68708.100000 0 0 1
-33.351395 33.572697 1.863979 47.359434 -0.788705 1.531428 0.023957 -0.001727 -112410.000000 0 0 1
-32.618265 33.434997 3.213579 46.820693 -0.797762 1.502106 0.044780 0.002864 6079.820000 0 0 1
-32.209505 -33.353910 3.712379 46.515774 0.802851 1.490902 0.049580 0.000332 214933.000000 0 0 1
-31.562915 -33.513510 4.983379 46.305583 0.815363 1.462968 0.061997 -0.011403 -355740.000000 0 0 1
-31.458305 -32.191510 5.766079 45.378033 0.796917 1.443384 0.072475 -0.015757 1032590.000000 0 0 1
-32.664875 -31.609210 6.355079 45.896876 0.768975 1.431886 0.066939 -0.016546 1041450.000000 0 0 1
-33.175275 -32.355210 7.440979 46.934280 0.772885 1.411584 0.067227 -0.036381 -1227430.000000 0 0 1
-34.271514 -31.518210 8.213079 47.279899 0.743573 1.396199 0.089396 -0.033738 1160140.000000 0 0 1
-35.615423 -31.527910 7.731479 48.189659 0.724596 1.409661 0.068437 -0.030624 392869.000000 0 0 1
-36.190335 -32.771210 7.489979 49.394254 0.735859 1.418572 0.054794 -0.032572 -2299690.000000 0 0 1
36.712276 -32.753610 7.212679 49.725375 -0.728473 1.425233 0.057607 -0.028915 -580343.000000 0 0 1
35.887886 -32.655510 8.370979 49.238156 -0.738275 1.399957 0.054073 -0.026329 -97551.500000 0 0 1
34.545656 -32.519710 8.001479 48.114006 -0.755199 1.403718 0.040958 -0.015812 -483280.000000 0 0 1
33.632396 -32.303610 9.213979 47.534815 -0.765248 1.375725 0.065872 -0.030526 563380.000000 0 0 1
32.214346 -32.426710 8.976879 46.581541 -0.788683 1.376870 0.064503 -0.028457 1206800.000000 0 0 1
31.360196 -32.483510 10.090879 46.265172 -0.802991 1.350919 0.072646 -0.029808 85896.300000 0 0 1
31.286076 -31.245610 10.987279 45.561244 -0.784751 1.327241 0.074142 -0.024630 -606504.000000 0 0 1
30.567046 -30.094810 10.498779 44.161819 -0.777614 1.330764 0.055250 -0.018347 175678.000000 0 0 1
31.166656 -29.324610 9.471179 43.829173 -0.754956 1.352985 0.062362 -0.020532 -739962.000000 0 0 1
30.342056 -28.175910 8.950679 42.363155 -0.748398 1.357907 0.057510 -0.016572 -656159.000000 0 0 1
30.804646 -27.524410 7.790079 42.038134 -0.729221 1.384409 0.068187 -0.019225 -214752.000000 0 0 1
29.927106 -26.486610 7.393879 40.642854 -0.724487 1.387854 0.062756 -0.023900 58010.000000 0 0 1
30.308016 -26.037310 5.961579 40.398735 -0.709748 1.422687 0.065801 -0.013996 -966646.000000 0 0 1
31.567906 -25.523510 5.900479 41.021920 -0.679919 1.426458 0.080037 -0.014225 -1613360.000000 0 0 1
31.723126 -24.976910 4.633779 40.640800 -0.666974 1.456530 0.066541 -0.006122 462662.000000 0 0 1
33.178886 -24.536710 4.324079 41.492002 -0.636765 1.466392 0.084118 -0.006469 976958.000000 0 0 1
34.181336 -25.541710 4.157779 42.872250 -0.641733 1.473663 0.068340 -0.010207 270436.000000 0 0 1
35.499666 -25.065710 3.970479 43.638066 -0.614797 1.479684 0.072484 -0.012188 271009.000000 0 0 1
36.440336 -26.280610 3.897979 45.097259 -0.624810 1.484253 0.062829 -0.015561 -336025.000000 0 0 1
36.503286 -26.958410 5.131079 45.668082 -0.636113 1.458203 0.048148 -0.013393 -185309.000000 0 0 1
37.131166 -28.212110 5.005579 46.900985 -0.649741 1.463866 0.044080 -0.015436 -1162940.000000 0 0 1
36.631946 -29.245410 6.046979 47.262664 -0.673739 1.442501 0.053407 -0.016447 -1028250.000000 0 0 1
35.411786 -29.809010 5.788779 46.648490 -0.699704 1.446382 0.022721 -0.014282 -1123050.000000 0 0 1
34.369386 -28.911510 6.186279 45.336521 -0.699363 1.433917 0.044061 -0.006790 -1398420.000000 0 0 1
33.060566 -29.697210 6.376779 44.895307 -0.731857 1.428278 0.070334 -0.012172 -637965.000000 0 0 1
32.511876 -30.121810 5.167579 44.621176 -0.747257 1.454726 0.045480 -0.016751 -378510.000000 0 0 1
31.637966 -29.238310 4.495379 43.313371 -0.746000 1.466822 0.049787 -0.015637 -129931.000000 0 0 1
30.189646 -29.790310 4.669479 42.669442 -0.778740 1.461143 0.053377 -0.025302 156977.000000 0 0 1
30.009026 -30.871610 3.767379 43.217948 -0.799566 1.483514 0.059436 -0.017369 -638541.000000 0 0 1
28.673176 -31.255710 3.609779 42.568779 -0.828465 1.485896 0.074293 -0.017393 -268128.000000 0 0 1
28.630476 -32.574910 2.883079 43.464250 -0.849755 1.504415 0.085788 -0.013851 -307267.000000 0 0 1
28.660376 -32.455810 1.460979 43.323564 -0.847420 1.537067 0.076592 -0.002746 150148.000000 0 0 1
28.612976 -33.802410 0.957479 44.296976 -0.868351 1.549180 0.071948 -0.003514 21971.500000 0 0 1
28.292876 -34.022610 -0.586821 44.253465 -0.877088 1.584057 0.057930 -0.003418 418472.000000 0 0 1
29.367446 -33.466410 -1.332321 44.544613 -0.850541 1.600711 0.056445 -0.006608 556878.000000 0 0 1
29.000076 -33.619310 -2.674821 44.479400 -0.859032 1.630969 0.053667 -0.003570 -38663.400000 0 0 1
30.080586 -33.165410 -3.673621 44.925288 -0.834135 1.652660 0.045360 -0.006402 -41229.400000 0 0 1
30.197176 -31.762110 -3.723721 43.983715 -0.810650 1.655559 0.035702 -0.007253 -264264.000000 0 0 1
31.041516 -31.487810 -4.775721 44.473198 -0.792535 1.678388 0.029766 -0.008512 -687557.000000 0 0 1
31.482346 -30.017110 -4.871121 43.770913 -0.761577 1.682314 0.016949 0.000268 -299356.000000 0 0 1
30.511316 -29.062410 -5.278321 42.466749 -0.761082 1.695412 0.021745 -0.011209 -22680.400000 0 0 1
30.897286 -27.697710 -5.206121 41.819961 -0.730847 1.695609 0.019183 -0.014371 72187.400000 0 0 1
32.057826 -27.176810 -6.068921 42.463102 -0.703183 1.714210 0.028796 -0.020519 599655.000000 0 0 1
33.408666 -27.552210 -5.784421 43.688932 -0.689623 1.703586 0.024299 -0.001143 1069710.000000 0 0 1
34.371806 -27.101310 -6.762821 44.290380 -0.667674 1.724089 0.041936 -0.005675 597327.000000 0 0 1
34.513826 -27.916110 -8.137721 45.130210 -0.680107 1.752105 0.040304 -0.021967 -535539.000000 0 0 1
33.221176 -27.916410 -8.697921 44.256370 -0.698847 1.768619 0.032581 -0.015340 -216508.000000 0 0 1
32.941496 -28.963010 -9.648721 44.912091 -0.721218 1.787320 0.032283 -0.003826 265353.000000 0 0 1
32.758486 -30.407610 -9.043021 45.601725 -0.748198 1.770424 0.027194 -0.002229 -557168.000000 0 0 1
33.931206 -30.942010 -8.529821 46.706451 -0.739353 1.754453 0.034897 -0.003480 -1012820.000000 0 0 1
33.647176 -32.047410 -7.767121 47.111539 -0.761051 1.736419 0.039400 -0.009371 -13290.700000 0 0 1
34.913726 -32.811210 -7.362721 48.474255 -0.754363 1.723276 0.030818 -0.006322 -74907.100000 0 0 1
34.695676 34.015697 -6.586421 49.033035 0.775502 1.705530 0.027901 -0.008224 -157466.000000 0 0 1
34.270006 -33.893710 -5.259921 48.485912 -0.779878 1.679494 0.025975 -0.009244 -425281.000000 0 0 1
33.877776 32.798797 -4.705421 47.387823 0.769217 1.670256 0.020828 -0.007770 530221.000000 0 0 1
32.654966 32.237297 -5.211121 46.181662 0.778962 1.683877 0.037467 -0.016196 707924.000000 0 0 1
32.566866 30.876097 -4.879121 45.141333 0.758754 1.679093 0.042554 -0.010304 220210.000000 0 0 1
31.337306 30.118997 -5.449421 43.804987 0.765577 1.695521 0.053512 -0.018166 -246963.000000 0 0 1
31.354026 29.789597 -6.810021 43.782090 0.759818 1.726974 0.031211 -0.014947 -451607.000000 0 0 1
30.163656 29.231797 -7.280121 42.630321 0.769710 1.742411 0.021561 -0.011659 -412993.000000 0 0 1
30.215986 28.887197 -8.797921 42.718607 0.762919 1.778231 0.030253 -0.009785 -820117.000000 0 0 1
30.943556 27.787197 -9.174521 42.588776 0.731707 1.787919 0.044184 -0.010490 -307442.000000 0 0 1
31.254806 27.719097 -10.579221 43.094445 0.725516 1.818821 0.035865 -0.008931 233880.000000 0 0 1
32.528656 28.527497 -10.918021 44.622133 0.719959 1.817983 0.053603 -0.010117 -271348.000000 0 0 1
33.749926 27.937597 -10.438421 45.039177 0.691453 1.804686 0.053797 -0.016695 1497480.000000 0 0 1
34.987976 28.508697 -10.893621 46.428173 0.683709 1.807638 0.063590 -0.014522 918981.000000 0 0 1
35.313326 29.927697 -10.347721 47.431776 0.703035 1.790725 0.046841 -0.020292 -991618.000000 0 0 1
35.729066 29.900697 -8.997821 47.450802 0.696824 1.761576 0.049471 -0.016831 -9374.800000 0 0 1
35.763206 31.238997 -8.497421 48.239901 0.717977 1.747869 0.036243 -0.014754 -701158.000000 0 0 1
36.702616 31.343797 -7.212621 48.800999 0.706808 1.719136 0.050606 -0.005999 -158954.000000 0 0 1
-36.328495 31.358497 -7.446221 48.565019 -0.712104 1.724728 0.056218 -0.011254 -1288510.000000 0 0 1
-35.748211 30.212797 -7.934821 47.473246 -0.701675 1.738728 0.057260 -0.013419 -1261500.000000 0 0 1
-34.293578 30.442997 -8.400621 46.619695 -0.725987 1.751981 0.098144 -0.017832 -356642.000000 0 0 1
-33.531335 31.035297 -7.361421 46.278835 -0.746759 1.730542 0.071622 -0.018891 83368.900000 0 0 1
-32.170405 31.200697 -7.713121 45.474286 -0.770097 1.741235 0.088261 -0.033061 36220.400000 0 0 1
-31.784265 32.404197 -8.671821 46.211167 -0.795056 1.759572 0.057212 -0.023812 -647106.000000 0 0 1
-31.782685 33.691997 -8.020521 47.006579 -0.814551 1.742261 0.042478 -0.009736 327364.000000 0 0 1
-30.719465 34.000697 -7.110221 46.371200 -0.836054 1.724736 0.069387 -0.015351 151530.000000 0 0 1
-30.799645 -32.620310 -6.481521 45.328940 0.814098 1.714277 0.060698 -0.015675 358050.000000 0 0 1
-31.840305 -32.399410 -5.526921 45.761049 0.794101 1.691870 0.051957 -0.018407 270792.000000 0 0 1
-31.691675 -33.124510 -4.341421 46.048272 0.807501 1.665216 0.055329 -0.016138 -415196.000000 0 0 1
-32.896405 -33.008410 -3.409721 46.726382 0.787098 1.643833 0.050850 -0.012956 -518345.000000 0 0 1
-33.074485 -31.781710 -2.772121 45.953055 0.765468 1.631158 0.058970 -0.008821 229603.000000 0 0 1
-34.118293 -31.823910 -1.800921 46.691139 0.750618 1.609377 0.055782 -0.009196 -68148.400000 0 0 1
-34.809122 -30.507110 -1.650721 46.315047 0.719629 1.606445 0.066311 -0.001357 245829.000000 0 0 1
-35.722670 -30.426910 -0.535721 46.927529 0.705511 1.582212 0.046700 0.003044 258906.000000 0 0 1
-36.279245 -29.098810 -0.399421 46.508966 0.676007 1.579384 0.056531 0.002253 280384.000000 0 0 1
-37.173615 -29.017510 0.890379 47.166580 0.662796 1.551918 0.044031 0.004248 -163444.000000 0 0 1
36.051266 -29.807910 0.777579 46.784719 -0.690882 1.554175 0.018596 0.007135 443578.000000 0 0 1
35.139946 -29.732710 1.893579 46.069898 -0.702239 1.529682 0.016297 -0.000447 170280.000000 0 0 1
34.219776 -28.517710 1.952779 44.587736 -0.694759 1.526986 0.014403 0.015924 -1456300.000000 0 0 1
33.233786 -28.580410 0.979379 43.843854 -0.710260 1.548457 0.004984 0.007129 -639407.000000 0 0 1
32.641286 -27.323310 0.857379 42.576424 -0.696944 1.550658 0.001998 0.008174 -396704.000000 0 0 1
31.360256 -27.337610 -0.003021 41.603012 -0.716974 1.570869 0.005858 -0.012949 51495.100000 0 0 1
30.241456 -27.965510 0.604879 41.194432 -0.746317 1.556112 0.019314 0.000361 297869.000000 0 0 1
29.955986 -29.364210 0.448879 41.950201 -0.775423 1.560096 0.025445 0.001775 -185972.000000 0 0 1
29.533236 -29.809910 -0.975021 41.973723 -0.790060 1.594028 0.032746 -0.000952 331640.000000 0 0 1
28.322376 -29.162910 -1.395721 40.676533 -0.800019 1.605116 0.048205 -0.002037 670785.000000 0 0 1
27.974976 -29.469310 -2.742021 40.725400 -0.811406 1.638177 0.043926 -0.006460 113807.000000 0 0 1
26.490676 -29.751510 -3.041221 39.951937 -0.843312 1.646992 0.062518 -0.013373 456614.000000 0 0 1
25.559776 -28.656710 -3.147421 38.528112 -0.842458 1.652579 0.065892 -0.017274 736994.000000 0 0 1
24.284376 -29.242310 -3.398521 38.162724 -0.877760 1.659968 0.065638 -0.018589 971520.000000 0 0 1
23.034976 -28.290810 -3.541421 36.654081 -0.887444 1.667565 0.073938 -0.021261 612518.000000 0 0 1
23.014976 -27.413810 -4.645721 36.094166 -0.872407 1.699866 0.071111 -0.023971 -6901.540000 0 0 1
22.174376 -26.308210 -4.356421 34.681454 -0.870457 1.696741 0.067316 -0.030770 126277.000000 0 0 1
21.754776 -25.649410 -5.708221 34.113726 -0.867372 1.738916 0.074626 -0.044992 -69643.100000 0 0 1
20.734276 -26.324410 -6.399921 34.115154 -0.903635 1.759512 0.079893 -0.043038 -451529.000000 0 0 1
20.198176 -25.556910 -7.443221 33.414420 -0.901985 1.795436 0.089707 -0.043396 268697.000000 0 0 1
18.685676 -25.825510 -7.674721 32.787387 -0.944449 1.807064 0.077351 -0.035139 357919.000000 0 0 1
17.909676 -25.152910 -6.691521 31.594332 -0.952041 1.784208 0.075476 -0.037322 -973388.000000 0 0 1
16.567676 -25.480710 -6.799221 31.144564 -0.994277 1.790880 0.064489 -0.039375 -1178470.000000 0 0 1
15.804476 -24.650210 -5.794621 29.849488 -1.000668 1.766165 0.061528 -0.032055 -527704.000000 0 0 1
15.798376 -25.094310 -4.491521 29.991446 -1.008925 1.721122 0.052066 -0.031514 166352.000000 0 0 1
15.103476 -24.102610 -3.733921 28.687854 -1.011024 1.701324 0.067760 -0.030494 162406.000000 0 0 1
14.771876 -24.577210 -2.290821 28.766220 -1.029613 1.650517 0.072492 -0.030516 350580.000000 0 0 1
13.819076 -25.627410 -2.228021 29.200943 -1.076259 1.647170 0.064299 -0.023140 207259.000000 0 0 1
14.552376 -26.770710 -1.882521 30.528453 -1.072885 1.632500 0.078183 -0.025894 -154449.000000 0 0 1
13.917476 -28.146910 -2.098021 31.469769 -1.111592 1.637514 0.071141 -0.020224 -549963.000000 0 0 1
12.922176 -28.524710 -1.184521 31.337594 -1.145436 1.608604 0.091417 -0.029299 -227607.000000 0 0 1
12.428076 -29.857410 -1.368621 32.369663 -1.176362 1.613090 0.092918 -0.029970 -141128.000000 0 0 1
13.284576 -31.015010 -0.784821 33.749470 -1.166111 1.594053 0.082286 -0.027339 612455.000000 0 0 1
14.574976 -31.165910 -1.373221 34.432972 -1.133356 1.610688 0.066794 -0.026834 323497.000000 0 0 1
15.248676 -32.387810 -1.088321 35.814477 -1.130768 1.601189 0.072850 -0.021593 126100.000000 0 0 1
16.687576 -32.442510 -1.638821 36.519548 -1.095716 1.615687 0.058221 -0.012522 416670.000000 0 0 1
17.486676 -31.309410 -1.187421 35.881373 -1.061442 1.603895 0.067569 -0.013171 400825.000000 0 0 1
18.781876 -31.361610 -1.745721 36.597226 -1.031200 1.618515 0.068478 -0.014647 290833.000000 0 0 1
19.789076 -30.288710 -1.209121 36.200489 -0.992071 1.604203 0.083902 -0.016109 309275.000000 0 0 1
19.402676 -28.964910 -1.576121 34.898624 -0.980580 1.615975 0.065415 -0.020902 571858.000000 0 0 1
20.119176 -28.021010 -0.726921 34.503429 -0.948090 1.591866 0.067894 -0.014865 12933.800000 0 0 1
19.548576 -26.580310 -0.699421 33.002256 -0.936670 1.591991 0.068688 -0.015925 -190181.000000 0 0 1
19.648376 -25.854310 -1.890321 32.528100 -0.920948 1.628943 0.072477 -0.018423 -60306.300000 0 0 1
18.488476 -25.961510 -2.665321 31.983240 -0.951963 1.654228 0.078845 -0.026411 -629964.000000 0 0 1
32.731816 -28.887710 13.480779 45.690294 -0.723094 1.271292 0.082192 -0.029576 -501996.000000 0 0 1
33.648846 -29.286710 14.431779 46.885312 -0.716198 1.257906 0.115741 -0.019394 -443244.000000 0 0 1
33.063116 -29.937910 15.566779 47.241641 -0.735833 1.235008 0.102910 -0.013504 474337.000000 0 0 1
34.118166 -30.414210 16.636579 48.639995 -0.728064 1.221715 0.106528 -0.015334 156986.000000 0 0 1
33.553366 -31.037610 17.763979 49.037950 -0.746469 1.200116 0.101135 -0.019452 -155707.000000 0 0 1
34.454006 -31.389710 18.780479 50.250361 -0.738893 1.187760 0.082478 -0.018089 -599738.000000 0 0 1
35.203206 -32.691810 18.619679 51.523903 -0.748426 1.201049 0.072480 -0.015842 -268646.000000 0 0 1
36.390766 -32.560210 17.861379 51.995038 -0.729900 1.220133 0.086642 -0.020398 10871.200000 0 0 1
36.914016 -33.875910 17.612779 53.107738 -0.742507 1.232752 0.074067 -0.015161 461229.000000 0 0 1
-36.208615 -33.804010 16.679379 52.268313 0.751066 1.246005 0.086057 -0.022551 904564.000000 0 0 1
-35.104123 -33.163210 17.350879 51.314237 0.756975 1.225867 0.071189 -0.024675 439018.000000 0 0 1
-34.065423 -33.005410 16.410679 50.190841 0.769595 1.237705 0.100939 -0.023364 -21447.900000 0 0 1
-32.865385 -32.178710 16.982379 49.030644 0.774841 1.217105 0.079055 -0.019314 883970.000000 0 0 1
-31.685845 -32.089110 16.163679 47.905827 0.791721 1.226637 0.090173 -0.022800 589931.000000 0 0 1
-31.744675 -31.149010 15.044079 46.950075 0.775927 1.244616 0.105800 -0.027907 612110.000000 0 0 1
-30.441325 -31.226610 14.133479 45.842455 0.798132 1.257385 0.077092 -0.034066 1204690.000000 0 0 1
-29.289485 -30.780710 14.833379 45.003946 0.810218 1.234915 0.073655 -0.035262 82935.800000 0 0 1
-28.193105 -30.726910 13.916479 43.962058 0.828376 1.248699 0.066152 -0.024398 600942.000000 0 0 1
-26.868155 -30.183610 14.515279 42.937645 0.843446 1.225947 0.058517 -0.022966 122754.000000 0 0 1
-25.848655 -30.202310 13.530579 41.992964 0.862916 1.242733 0.045510 -0.012738 -366466.000000 0 0 1
-24.692825 -29.814510 14.280779 41.262346 0.879086 1.217388 0.030160 -0.008979 -318612.000000 0 0 1
-23.382225 -30.061410 13.529979 40.416298 0.909730 1.229440 0.025492 -0.002094 -317839.000000 0 0 1
-23.051425 -31.426010 13.488979 41.242149 0.937930 1.237597 0.022750 -0.011326 -306724.000000 0 0 1
-21.856225 -31.627410 12.790379 40.516434 0.966100 1.249619 0.012603 -0.016662 -217201.000000 0 0 1
-21.571325 -33.033110 12.300879 41.325779 0.992300 1.268560 0.004789 -0.003113 -147808.000000 0 0 1
-22.458625 -33.397010 11.283179 41.797849 0.978784 1.297459 0.010763 -0.007463 -24186.800000 0 0 1
-22.215225 33.287197 10.935379 41.486579 -0.982300 1.304056 0.027169 0.003129 -79508.800000 0 0 1
-23.136525 32.739397 9.843579 41.280297 -0.955596 1.330020 0.026884 0.006863 -207198.000000 0 0 1
-22.891225 33.224697 8.588979 41.251173 -0.967503 1.361050 0.026387 0.003480 480328.000000 0 0 1
-24.089925 33.167297 7.800679 41.728224 -0.942626 1.382750 0.041075 0.004726 160900.000000 0 0 1
-23.902825 33.424197 6.253879 41.564805 -0.949984 1.419762 0.047353 -0.002142 -491943.000000 0 0 1
-23.145025 32.499697 5.512779 40.277950 -0.951955 1.433497 0.037634 -0.005370 799906.000000 0 0 1
-21.726025 32.415697 5.686479 39.435183 -0.980330 1.426094 0.039765 -0.001076 947259.000000 0 0 1
-20.790125 33.666797 5.408179 39.936586 -1.017590 1.434960 0.038739 -0.003834 -254250.000000 0 0 1
-20.856025 -33.288710 6.296479 39.783886 1.011105 1.411861 0.032529 -0.005970 31613.500000 0 0 1
-20.181025 -33.604810 7.492979 39.908667 1.029980 1.381922 0.026361 -0.006066 -455659.000000 0 0 1
-20.248225 -32.533810 8.604779 39.274440 1.014087 1.349911 0.015507 -0.004716 -247522.000000 0 0 1
-19.544125 -31.363010 8.195379 37.852020 1.013522 1.352557 0.018923 -0.016458 29602.700000 0 0 1
-19.668425 -30.176310 8.966879 37.119557 0.993168 1.326815 0.025521 -0.020805 -444522.000000 0 0 1
-19.042825 -30.278410 10.365779 37.240578 1.009380 1.288724 0.003730 -0.010689 180058.000000 0 0 1
-17.658425 -30.557010 10.239679 36.747814 1.046797 1.288411 0.009302 -0.021939 73106.900000 0 0 1
-16.971525 -30.563510 11.492979 36.800127 1.063903 1.253175 0.038593 -0.025475 -568983.000000 0 0 1
-15.588425 -31.188410 11.467379 36.704450 1.107297 1.253052 0.058201 -0.027448 -720475.000000 0 0 1
-14.658225 -30.272810 10.921979 35.363769 1.119865 1.256816 0.067127 -0.024231 -196404.000000 0 0 1
-13.615525 -31.047410 10.334979 35.442008 1.157513 1.274895 0.081160 -0.013207 -760436.000000 0 0 1
-12.582625 -30.263310 9.619779 34.157437 1.176768 1.285303 0.098262 -0.014599 -949636.000000 0 0 1
-11.727325 -29.629210 10.539379 33.563354 1.193913 1.251378 0.121035 -0.023168 -726995.000000 0 0 1
-10.742725 -28.902310 9.858979 32.372042 1.214930 1.261328 0.114032 -0.023405 -331715.000000 0 0 1
-9.731925 -28.413610 10.906779 31.953113 1.240810 1.222457 0.130244 -0.014203 -49547.000000 0 0 1
-10.172725 -27.363610 11.777679 31.479599 1.214868 1.187330 0.125651 -0.024696 -780402.000000 0 0 1
-9.293525 -27.264710 12.834279 31.534944 1.242285 1.151644 0.108681 -0.005213 -120404.000000 0 0 1
-9.296525 -25.862410 13.552279 30.642354 1.225718 1.112665 0.096071 -0.013381 254897.000000 0 0 1
-8.794225 -24.754610 12.797579 29.221689 1.229447 1.117482 0.087225 -0.018549 109768.000000 0 0 1
-9.612025 -24.368710 11.680179 28.681904 1.195091 1.151375 0.082106 -0.017531 398328.000000 0 0 1
-9.047625 -23.126110 10.962779 27.145147 1.197873 1.155066 0.085909 -0.021937 870373.000000 0 0 1
-7.873425 -23.281410 10.136479 26.585016 1.244686 1.179610 0.071616 -0.023806 294995.000000 0 0 1
-7.501225 -22.123910 9.517079 25.225197 1.243905 1.183934 0.072906 -0.021671 250837.000000 0 0 1
-6.125725 -22.129610 8.821379 24.597985 1.300747 1.204005 0.066117 -0.020203 140589.000000 0 1 0
-4.908225 -22.157210 9.513879 24.607854 1.352798 1.173833 0.040199 -0.028402 259623.000000 0 1 0
-3.853925 -22.563110 8.619679 24.459058 1.401622 1.210649 0.042023 -0.024001 497627.000000 0 1 0
-2.670025 -23.187810 9.369479 25.151355 1.456153 1.189069 0.041979 -0.025000 145122.000000 0 0 1
-1.959325 -22.363710 10.290979 24.695722 1.483408 1.140972 0.034323 -0.026346 240883.000000 0 1 0
-0.928025 -23.101910 10.961779 25.587498 1.530647 1.128071 0.046979 -0.028499 768582.000000 0 0 1
-0.107025 -22.211510 11.977779 25.235487 1.565978 1.076241 0.051921 -0.031435 -96233.900000 0 0 1
-0.786325 -21.984810 13.223379 25.667254 1.535045 1.029573 0.050265 -0.032923 -517790.000000 0 0 1
-0.091425 -21.908310 14.446079 26.242553 1.566623 0.987854 0.079321 -0.038420 -133646.000000 0 0 1
0.847475 -20.636110 14.542879 25.259900 -1.529752 0.957300 0.056381 -0.034689 -504575.000000 0 0 1
1.993175 -20.756610 13.780579 24.994278 -1.475064 0.986816 0.066545 -0.027482 -1003520.000000 0 1 0
2.382875 -19.393910 13.505979 23.753174 -1.448542 0.965997 0.055155 -0.025814 -864494.000000 0 1 0
3.846375 -19.326810 13.136879 23.683280 -1.374346 0.982806 0.075349 -0.018388 -732512.000000 0 1 0
4.143875 -19.883610 11.881879 23.531015 -1.365331 1.041478 0.071709 -0.011621 -386247.000000 0 1 0
5.539675 -19.979710 11.686879 23.800419 -1.300326 1.057517 0.100052 -0.015427 268311.000000 0 1 0
5.983975 -20.728210 10.374479 23.939433 -1.289750 1.122575 0.104054 -0.019006 41584.000000 0 1 0
5.982475 -19.966610 9.152279 22.764440 -1.279685 1.157050 0.089319 -0.023428 -363066.000000 0 1 0
6.027475 -20.752610 7.962179 23.030362 -1.288129 1.217785 0.089429 -0.029705 1925.730000 0 1 0
7.411375 -21.303910 7.540279 23.783205 -1.236004 1.248187 0.096010 -0.020453 426867.000000 0 1 0
8.414875 -20.471210 6.957979 23.201164 -1.180793 1.266211 0.094122 -0.022691 630459.000000 0 1 0
9.103675 -19.531610 7.805379 22.919088 -1.134635 1.223281 0.101053 -0.014128 519049.000000 0 1 0
10.051775 -20.005010 8.963579 24.116060 -1.105180 1.189973 0.085098 -0.005118 103220.000000 0 1 0
9.419975 -20.375010 10.143179 24.632520 -1.137736 1.146390 0.108081 -0.010241 -576527.000000 0 1 0
10.150775 -19.882910 11.208079 24.979779 -1.098762 1.105502 0.094047 -0.003786 183471.000000 0 1 0
9.262875 -19.993510 12.472179 25.319884 -1.136942 1.055739 0.103937 -0.011983 201029.000000 0 0 1
9.070775 -21.322310 12.868979 26.505291 -1.168576 1.063833 0.103701 -0.018746 -460558.000000 0 0 1
8.340775 -21.442410 14.027579 26.946585 -1.199822 1.023278 0.121328 -0.021514 -202463.000000 0 0 1
8.495275 -22.718510 14.862179 28.446173 -1.212959 1.021055 0.117921 -0.027357 206028.000000 0 0 1
8.076775 -23.839810 14.101679 28.851831 -1.244140 1.060126 0.119823 -0.027812 -174745.000000 0 0 1
8.372875 -25.034010 14.745379 30.236284 -1.248032 1.061376 0.119505 -0.034307 120418.000000 0 0 1
8.374475 -26.284710 13.827279 30.857923 -1.262358 1.106163 0.129848 -0.038180 129076.000000 0 0 1
9.483675 -26.438910 12.967979 30.937429 -1.226391 1.138268 0.120441 -0.034095 -17278.200000 0 0 1
9.257075 -27.608610 12.178279 31.563258 -1.247280 1.174681 0.115113 -0.034286 -233367.000000 0 0 1
10.532575 -28.108210 11.506479 32.146627 -1.212275 1.204738 0.110279 -0.030013 -231172.000000 0 0 1
11.436775 -28.810010 12.333079 33.360475 -1.192903 1.192120 0.085654 -0.030367 -113536.000000 0 0 1
12.667675 -28.949710 11.665079 33.684265 -1.158323 1.217165 0.101495 -0.027558 -59948.500000 0 0 1
13.753875 -29.756110 12.413979 35.052846 -1.137827 1.208791 0.077943 -0.024808 -472113.000000 0 0 1
14.453475 -29.031010 13.394779 35.087356 -1.108860 1.179102 0.063578 -0.021567 139346.000000 0 0 1
15.482275 -29.664510 14.131779 36.323424 -1.089773 1.171192 0.054718 -0.020878 267033.000000 0 0 1
16.832075 -29.806910 13.399079 36.760113 -1.056734 1.197700 0.071563 -0.017119 -475133.000000 0 0 1
17.567475 -28.575410 13.507179 36.160947 -1.019583 1.187985 0.062374 -0.022898 -728393.000000 0 0 1
18.764775 -28.717110 12.858779 36.635193 -0.992010 1.212163 0.049595 -0.014921 -758017.000000 0 0 1
19.703675 -27.463410 12.887779 36.174142 -0.948453 1.206523 0.032167 -0.014503 978824.000000 0 0 1
20.989175 -27.593610 12.261279 36.773519 -0.920512 1.230860 0.019359 -0.013747 183668.000000 0 0 1
21.704075 -26.405210 12.271379 36.316507 -0.882807 1.226111 0.017388 -0.009650 -216056.000000 0 0 1
23.111775 -26.740510 11.728179 37.239216 -0.858060 1.250401 0.017798 -0.004548 249164.000000 0 0 1
23.981075 -27.464110 12.590479 38.573170 -0.852999 1.238298 0.030068 -0.006416 325003.000000 0 0 1
25.102475 -28.032710 11.953779 39.482400 -0.840489 1.263207 0.023917 -0.013817 -272535.000000 0 0 1
26.175575 -28.790910 12.788979 40.958945 -0.832943 1.253247 0.043242 -0.009426 239059.000000 0 0 1
27.128475 -27.988710 13.462779 41.237949 -0.801004 1.238234 0.028305 -0.006673 164422.000000 0 0 1
28.226675 -27.717410 12.610979 41.521522 -0.776295 1.262200 0.017007 -0.007804 -359877.000000 0 0 1
29.373975 -26.896310 13.281979 41.983959 -0.741395 1.248908 0.053269 -0.017904 64400.400000 0 0 1
29.171075 -25.546210 13.506079 41.060621 -0.719248 1.235626 0.059286 -0.020008 -404701.000000 0 0 1
28.535475 -25.291110 14.711279 40.869736 -0.725197 1.202576 0.061764 -0.018511 -900802.000000 0 0 1
29.379775 -25.151210 15.977879 41.845515 -0.708009 1.179021 0.069851 -0.010999 -514976.000000 0 0 1
29.969075 -26.360910 16.388779 43.146669 -0.721431 1.181174 0.084773 -0.006493 -154821.000000 0 0 1
30.654875 -26.172710 17.599779 43.982773 -0.706688 1.159114 0.103573 0.000227 -185746.000000 0 0 1
30.962275 -27.509110 18.270979 45.268557 -0.726409 1.155334 0.105627 0.003690 466040.000000 0 0 1
29.865175 -28.350310 18.707979 45.228942 -0.759382 1.144360 0.077541 0.000632 267784.000000 0 0 1
30.111675 -29.187010 19.793879 46.372321 -0.769806 1.129793 0.105219 -0.006659 258683.000000 0 0 1
28.859175 -29.993110 20.270379 46.296078 -0.804663 1.117599 0.097533 -0.014314 -299725.000000 0 0 1
27.870175 -29.181010 20.826979 45.409702 -0.808371 1.094325 0.102117 -0.011133 183529.000000 0 0 1
26.690175 -29.732510 21.400079 45.324948 -0.839266 1.079071 0.110605 -0.016429 1112800.000000 0 0 1
25.727475 -30.516710 20.399679 44.825433 -0.870344 1.098321 0.113367 -0.023598 -628268.000000 0 0 1
26.144375 -31.776010 19.910479 45.712912 -0.882324 1.120142 0.103315 -0.027560 -241313.000000 0 0 1
25.449975 -32.209110 18.778679 45.141630 -0.902091 1.141760 0.089390 -0.015822 -937618.000000 0 0 1
25.752675 -31.410210 17.433179 44.200874 -0.884049 1.165373 0.081185 -0.004257 31195.000000 0 0 1
27.076675 -31.564610 16.981479 44.920391 -0.861781 1.183123 0.088763 -0.020185 23197.400000 0 0 1
27.454675 -30.526210 16.041179 44.078658 -0.838324 1.198321 0.075940 -0.027674 683250.000000 0 0 1
28.776875 -30.824310 15.243279 44.839761 -0.819737 1.223933 0.095302 -0.029934 496679.000000 0 0 1
28.655675 -31.781110 14.155679 45.072940 -0.837066 1.251328 0.105725 -0.025024 183341.000000 0 0 1
28.562075 -33.103610 14.611279 46.099138 -0.858913 1.248281 0.071178 -0.028334 -227137.000000 0 0 1
27.821975 -34.002310 13.571679 45.982712 -0.885033 1.271187 0.096396 -0.030120 -315318.000000 0 0 1
28.476675 33.873497 12.391879 45.955342 0.871740 1.297766 0.108810 -0.029570 -200191.000000 0 0 1
28.028875 32.732897 11.707879 44.655737 0.862662 1.305515 0.103273 -0.031468 -188970.000000 0 0 1
28.897675 32.523397 10.448379 44.743889 0.844360 1.335105 0.107588 -0.035163 196470.000000 0 0 1
30.234675 32.132597 10.710079 45.402039 0.815820 1.332658 0.104034 -0.038498 44211.300000 0 0 1
30.678375 31.457097 9.575679 44.971160 0.797930 1.356224 0.109155 -0.044551 507800.000000 0 0 1
32.165875 30.964097 9.668579 45.682603 0.766364 1.357537 0.089842 -0.042038 584132.000000 0 0 1
32.302575 30.029197 10.739279 45.393184 0.748942 1.331948 0.074442 -0.030627 -1075910.000000 0 0 1
33.580875 29.602497 10.974879 46.091550 0.722516 1.330376 0.092945 -0.032242 -1174160.000000 0 0 1
33.731675 28.587597 12.110379 45.844715 0.703041 1.303463 0.075895 -0.021017 -210344.000000 0 0 1
33.412175 27.258097 11.871179 44.724738 0.684309 1.302149 0.073779 -0.022850 224863.000000 0 0 1
33.436775 26.560797 13.080279 44.660806 0.671292 1.273558 0.073255 -0.026943 80589.800000 0 0 1
33.187775 25.042897 12.878079 43.524936 0.646427 1.270422 0.053721 -0.028960 -414849.000000 0 0 1
34.288275 24.607997 12.161279 43.921931 0.622493 1.290247 0.055754 -0.016454 -449629.000000 0 0 1
34.579875 23.223097 12.086979 43.372515 0.591395 1.288379 0.056976 -0.021446 46473.500000 0 0 1
33.465775 22.273897 11.543979 41.825208 0.587245 1.291161 0.051674 -0.018595 130239.000000 0 0 1
32.257575 22.233797 12.241879 41.045785 0.603480 1.267938 0.071893 -0.035708 -1027850.000000 0 0 1
31.262575 21.664297 11.489579 39.732868 0.605998 1.277436 0.076054 -0.026521 -277798.000000 0 0 1
29.870075 21.604097 12.174779 38.822463 0.626173 1.251813 0.071568 -0.021507 395333.000000 0 0 1
29.337875 22.886497 12.493079 39.250219 0.662489 1.246868 0.078616 -0.019182 1319150.000000 0 0 1
28.052775 22.765197 13.187179 38.459252 0.681722 1.220808 0.106258 -0.019233 1407070.000000 0 0 1
24.407475 9.160397 25.448602 36.431704 0.359043 0.797457 0.062163 -0.008143 -167983.000000 0 0 1
24.092575 7.939197 26.094982 36.392735 0.318323 0.771252 0.080510 -0.018769 -125822.000000 0 0 1
22.708175 7.742697 26.245512 35.558930 0.328603 0.740569 0.065903 -0.022432 -373300.000000 0 0 1
22.385575 6.557997 27.187062 35.822586 0.284982 0.709118 0.086390 -0.026041 -186425.000000 0 0 1
22.565675 6.928597 28.536292 37.034243 0.297904 0.691111 0.085074 -0.029995 1123750.000000 0 0 1
23.913375 6.603597 28.947162 38.123421 0.269432 0.708558 0.080869 -0.027558 722331.000000 0 0 1
24.080875 6.614197 30.491022 39.412417 0.268056 0.686230 0.084395 -0.035179 -75238.000000 0 0 1
24.072575 7.868597 31.147992 40.144752 0.315922 0.682669 0.099813 -0.037593 181112.000000 0 0 1
24.184475 7.580797 32.550057 41.253649 0.303757 0.661580 0.102144 -0.036825 50989.600000 0 0 1
24.386575 8.914597 33.372076 42.283218 0.350463 0.661208 0.111843 -0.039862 -407642.000000 0 0 1
25.612175 9.512297 33.121783 42.936230 0.355609 0.689730 0.087576 -0.037574 -775154.000000 0 0 1
26.186475 10.090297 -33.605631 43.782234 0.367792 2.445827 0.099995 -0.035366 -593308.000000 0 0 1
27.427775 10.910497 -33.863131 44.922527 0.378600 2.424640 0.075189 -0.034813 -899988.000000 0 0 1
27.251375 12.171997 33.407079 44.797633 0.420070 0.729162 0.069491 -0.033729 232483.000000 0 0 1
26.801275 13.134497 -33.488641 44.858805 0.455672 2.413634 0.064533 -0.029981 -229570.000000 0 0 1
26.332375 14.479897 33.754371 45.193130 0.502758 0.727421 0.052166 -0.021995 -41500.100000 0 0 1
27.343275 15.247497 33.054304 45.527221 0.508684 0.758260 0.048811 -0.022385 366924.000000 0 0 1
27.150075 16.675697 32.982286 45.858878 0.550799 0.768128 0.051633 -0.016051 -324179.000000 0 0 1
27.580475 17.504597 -33.672031 46.913742 0.565525 2.371352 0.042679 -0.021202 -275208.000000 0 0 1
26.882675 17.143097 -32.528451 45.548481 0.567680 2.366205 0.041651 -0.018786 56263.800000 0 0 1
27.768275 16.636397 -31.557971 45.207879 0.539769 2.343486 0.055035 -0.024271 -54399.100000 0 0 1
26.975575 16.205297 -30.303081 43.687184 0.540963 2.337323 0.046917 -0.013869 242118.000000 0 0 1
26.260475 15.014797 -30.660391 43.071061 0.519399 2.362934 0.056024 -0.012714 220453.000000 0 0 1
25.557375 14.418897 -29.562921 41.653935 0.513663 2.359907 0.076175 -0.017804 328409.000000 0 0 1
24.790975 13.119897 -29.978461 41.054016 0.486750 2.389440 0.077536 -0.016208 -651354.000000 0 0 1
23.791675 13.329497 -30.979011 41.272490 0.510685 2.419762 0.077220 -0.020173 433181.000000 0 0 1
23.166075 12.174197 -31.523651 40.970949 0.483853 2.448721 0.075201 -0.017157 226880.000000 0 0 1
22.337975 11.468097 -30.426111 39.449342 0.474302 2.451631 0.079804 -0.016627 -702942.000000 0 0 1
21.148175 12.125697 -29.966611 38.629983 0.520607 2.458675 0.096852 -0.010572 1246970.000000 0 0 1
20.245575 11.149097 -29.371811 37.374978 0.503375 2.474895 0.096789 -0.017411 126535.000000 0 0 1
18.901875 11.688197 -28.894851 36.452808 0.553812 2.485964 0.090408 -0.010518 -525129.000000 0 0 1
18.086075 12.145297 -29.955091 37.039463 0.591360 2.512794 0.075270 -0.003591 616994.000000 0 0 1
16.899175 12.662897 -29.308571 36.123724 0.643066 2.517235 0.065608 -0.005784 226282.000000 0 0 1
15.883775 13.359097 -30.255001 36.689574 0.699277 2.540329 0.077635 -0.009484 -39123.300000 0 0 1
14.944875 12.549097 -30.908701 36.553754 0.698479 2.578425 0.069870 -0.012351 -356632.000000 0 0 1
13.745775 12.497297 -30.164411 35.426268 0.737860 2.589579 0.069251 -0.013911 -743127.000000 0 0 1
12.689775 11.728497 -30.989341 35.481365 0.746051 2.632932 0.071438 -0.017835 -167074.000000 0 0 1
12.140375 12.460297 -32.046551 36.464080 0.798402 2.644248 0.073230 -0.010975 95792.400000 0 0 1
11.134275 11.734497 -32.733611 36.512461 0.811639 2.682613 0.077635 -0.004971 429884.000000 0 0 1
10.574275 12.493297 33.871762 37.619065 0.868398 0.450135 0.092252 -0.013274 307589.000000 0 0 1
11.536775 12.533597 32.829194 36.985730 0.826787 0.478649 0.069981 -0.010377 161714.000000 0 0 1
10.964275 13.021897 31.648182 35.935951 0.870972 0.493494 0.076906 -0.026600 -436161.000000 0 0 1
11.916575 13.169997 30.443742 35.245922 0.835321 0.528127 0.071455 -0.022304 -355190.000000 0 0 1
12.294775 11.912897 29.992722 34.534649 0.769624 0.518664 0.058575 -0.018051 -272398.000000 0 0 1
12.435275 12.035097 28.602342 33.430130 0.769046 0.544115 0.059388 -0.016226 -444122.000000 0 0 1
12.849075 10.663697 28.025552 32.622764 0.692720 0.537328 0.061345 -0.012950 -144815.000000 0 0 1
11.992375 9.532097 28.184212 32.078463 0.671591 0.497869 0.065643 -0.023003 41747.200000 0 0 1
12.560075 8.304297 27.762912 31.583162 0.584185 0.496948 0.045462 -0.028783 106898.000000 0 0 1
11.603775 7.080297 28.003032 31.127930 0.547865 0.451918 0.036500 -0.021832 126234.000000 0 0 1
10.389975 7.090197 27.298142 30.056797 0.598821 0.431789 0.049883 -0.031844 -296797.000000 0 0 1
9.617675 5.904997 27.517122 29.741565 0.550631 0.389214 0.050009 -0.038219 8720.040000 0 0 1
10.128375 4.559697 26.905862 29.108422 0.423012 0.391514 0.043223 -0.027754 -683954.000000 0 0 1
11.149375 3.961497 27.625832 30.053097 0.341398 0.404666 0.032133 -0.021404 -412766.000000 0 0 1
11.482675 2.718397 27.022732 29.486769 0.232459 0.411715 0.024207 -0.020692 -301612.000000 0 0 1
12.082175 1.725497 27.987512 30.532886 0.141854 0.411217 0.013970 -0.017931 124527.000000 0 0 1
11.099875 1.466997 28.984272 31.071649 0.131402 0.368634 0.008619 -0.010471 318536.000000 0 0 1
11.396575 0.326697 29.773502 31.881815 0.028658 0.365707 0.004697 -0.006257 237392.000000 0 0 1
10.273975 -0.011603 30.774632 32.444301 -0.001129 0.322212 0.027985 -0.001930 146164.000000 0 0 1
10.401975 0.855297 31.867325 33.532955 0.082040 0.316506 0.005505 -0.002777 518224.000000 0 0 1
9.151775 1.073197 32.543165 33.822542 0.116733 0.275924 0.030832 -0.006939 372957.000000 0 0 1
9.156975 2.381497 33.454537 34.766763 0.254438 0.275621 0.029895 -0.011121 -121640.000000 0 0 1
9.200275 3.657497 32.856137 34.315420 0.378386 0.292679 0.019202 -0.013886 -156695.000000 0 0 1
10.456775 3.883997 32.289302 34.161801 0.355640 0.332628 0.004826 -0.005860 -933671.000000 0 0 1
10.553375 5.187797 31.408582 33.537830 0.456887 0.358249 0.011398 -0.012366 -16850.900000 0 0 1
10.712375 6.275797 32.285990 34.590834 0.529947 0.367110 0.020493 -0.013725 -80442.600000 0 0 1
10.789675 7.467997 31.574892 34.193009 0.605433 0.393869 0.032511 -0.017611 -372568.000000 0 0 1
10.795775 8.803097 32.349339 35.221060 0.684073 0.406613 0.063677 -0.025798 -568255.000000 0 0 1
9.573775 9.111897 32.967967 35.518597 0.760685 0.381281 0.082115 -0.030598 -139390.000000 0 0 1
9.129075 8.285297 -33.864791 36.039010 0.736983 2.792462 0.067438 -0.026472 -241087.000000 0 0 1
7.735275 8.701797 -33.336801 35.311444 0.844132 2.805587 0.068788 -0.024069 -20342.800000 0 0 1
7.125375 7.854897 -32.398721 34.090285 0.834059 2.825251 0.076207 -0.015477 587513.000000 0 0 1
5.801875 8.306797 -32.088011 33.649741 0.961112 2.835734 0.077359 -0.023031 555204.000000 0 0 1
5.285375 7.775597 -30.717061 32.123713 0.973798 2.844568 0.060210 -0.022721 -346598.000000 0 0 1
5.993275 8.129997 -29.544751 31.223525 0.935550 2.812184 0.059829 -0.028477 -140189.000000 0 0 1
5.659575 7.433897 -28.374531 29.873192 0.920090 2.823496 0.056164 -0.027539 120428.000000 0 0 1
4.275475 7.652497 -27.690651 29.045009 1.061296 2.835010 0.052662 -0.017439 717636.000000 0 0 1
3.251875 6.851497 -28.278271 29.277608 1.127656 2.879566 0.054972 -0.011264 491934.000000 0 0 1
1.911675 7.117897 -27.855661 28.814177 1.308415 2.882936 0.092865 -0.010780 810181.000000 0 0 1
0.930375 6.368597 -28.826461 29.536240 1.425735 2.921922 0.111022 -0.025867 -64143.800000 0 0 1
0.724775 7.096997 -29.970721 30.808064 1.469025 2.907912 0.079177 -0.026899 20400.300000 0 0 1
0.064875 6.296497 -30.959371 31.593239 1.560493 2.940939 0.115793 -0.022747 -353799.000000 0 0 1
-0.296025 6.983597 -32.294151 33.041950 -1.528433 2.928437 0.126676 -0.030119 355700.000000 0 0 1
0.783975 7.672297 -32.945421 33.836068 1.468967 2.911642 0.102928 -0.027098 767679.000000 0 0 1
1.781675 6.841997 -33.589571 34.325596 1.316051 2.934134 0.100622 -0.035083 443178.000000 0 0 1
1.499475 6.480597 32.789364 33.457271 1.343418 0.200149 0.131495 -0.040954 -839667.000000 0 0 1
0.422675 5.668297 32.481557 32.975139 1.496366 0.173239 0.130889 -0.035977 -915088.000000 0 0 1
0.303375 5.614297 31.064332 31.569053 1.516813 0.179057 0.145981 -0.036146 574197.000000 0 0 1
1.352475 4.820497 30.176032 30.588549 1.297261 0.164417 0.152761 -0.033594 603302.000000 0 0 1
0.913475 4.705697 28.854452 29.249914 1.379060 0.164625 0.128880 -0.033052 128441.000000 0 0 1
1.817075 3.907897 28.128862 28.457096 1.135559 0.152030 0.118330 -0.028617 46530.500000 0 0 1
1.710975 4.265697 26.591742 26.986003 1.189341 0.171146 0.107303 -0.023019 204278.000000 0 0 1
2.279575 5.551497 26.307142 26.982982 1.181165 0.224286 0.102822 -0.021739 227869.000000 0 0 1
2.374175 5.756897 24.905412 25.672128 1.179642 0.245012 0.079038 -0.017396 -291210.000000 0 0 1
3.018875 7.099597 24.500332 25.686264 1.168741 0.305056 0.077283 -0.022228 -251753.000000 0 0 1
4.387175 7.266097 24.745822 26.161024 1.027597 0.330426 0.070018 -0.020705 -468790.000000 0 0 1
5.139175 7.066097 23.546952 25.115728 0.941982 0.355312 0.059038 -0.020774 -136145.000000 0 0 1
6.652775 6.977297 23.886572 25.758696 0.809203 0.383607 0.068576 -0.022203 229239.000000 0 0 1
7.197575 5.936397 24.715802 26.418115 0.689668 0.360947 0.070569 -0.029415 64857.400000 0 0 1
7.004175 4.571897 24.406802 25.800246 0.578298 0.330158 0.078706 -0.026549 -873871.000000 0 0 1
7.384075 4.051897 22.998522 24.492335 0.501871 0.351059 0.077622 -0.028808 548838.000000 0 1 0
6.358475 4.225297 22.005162 23.291855 0.586511 0.333941 0.065273 -0.027317 66167.000000 0 1 0
5.193375 3.456197 22.224662 23.083589 0.587195 0.273651 0.059994 -0.016050 -549455.000000 0 1 0
4.141075 3.804697 21.173462 21.907527 0.743089 0.259601 0.044788 -0.011723 -421879.000000 0 1 0
3.582175 5.068997 21.318462 22.203683 0.955599 0.283323 0.035380 -0.016148 -535280.000000 0 1 0
2.472375 5.242997 20.493962 21.297985 1.130160 0.275648 0.032976 -0.013896 -147045.000000 0 1 0
1.698875 6.575797 20.694762 21.780736 1.317972 0.317110 0.029732 -0.012853 -263440.000000 0 1 0
2.528675 7.639597 20.402462 21.932125 1.251151 0.375690 0.029116 0.001654 -575918.000000 0 1 0
1.858475 8.860097 20.282562 22.211204 1.364036 0.419806 0.037577 -0.009882 71427.500000 0 1 0
2.771775 10.014297 19.809562 22.369346 1.300774 0.483082 0.042620 -0.018784 -298462.000000 0 1 0
2.830175 10.226797 18.434162 21.270064 1.300812 0.522305 0.029561 -0.016239 -67404.300000 0 1 0
3.640675 11.297397 17.978662 21.543398 1.259047 0.583513 0.030154 -0.020853 -769886.000000 0 1 0
5.120375 11.023197 17.917062 21.650641 1.135942 0.596061 0.038240 -0.026215 -1216390.000000 0 1 0
5.551175 10.037397 17.011062 20.516850 1.065615 0.593253 0.032061 -0.021597 112472.000000 0 1 0
6.919775 9.690097 17.172362 20.896681 0.950665 0.606278 0.028258 -0.021922 70127.100000 0 1 0
7.199375 8.382297 17.872162 21.012094 0.861170 0.553737 0.038349 -0.016457 -406358.000000 0 1 0
6.884575 8.351697 19.248162 22.082572 0.881394 0.512248 0.046563 -0.018447 -95280.700000 0 1 0
6.950775 7.030597 19.822762 22.151399 0.791107 0.462642 0.043952 -0.023240 -107756.000000 0 1 0
8.339275 6.419397 20.079062 22.669824 0.656040 0.482759 0.063073 -0.029153 -333306.000000 0 1 0
8.971975 6.107597 18.863162 21.762766 0.597684 0.522121 0.056105 -0.027077 697722.000000 0 1 0
10.355875 5.725997 19.079362 22.451130 0.505084 0.555157 0.068300 -0.029236 1110930.000000 0 1 0
10.615175 4.202197 19.059562 22.217275 0.376938 0.539684 0.077176 -0.023353 -671741.000000 0 1 0
9.876375 3.502697 20.003262 22.581899 0.340815 0.482561 0.081198 -0.034834 -121692.000000 0 1 0
10.165875 2.095497 19.943362 22.482745 0.203283 0.479877 0.087509 -0.040450 201382.000000 0 1 0
9.351975 1.247797 20.954962 22.981011 0.132643 0.423057 0.094933 -0.034590 -60631.100000 0 1 0
9.813275 1.451097 22.234862 24.347385 0.146807 0.419644 0.084181 -0.026700 173156.000000 0 1 0
9.224275 0.532897 23.201552 24.973651 0.057707 0.378983 0.096645 -0.032506 -160341.000000 0 1 0
9.676175 0.610397 24.713612 26.547384 0.062999 0.373860 0.074373 -0.025431 -1200430.000000 0 0 1
10.952075 0.148297 24.941652 27.240704 0.013540 0.413793 0.071114 -0.023669 -674714.000000 0 0 1
10.982075 -1.281403 25.043612 27.375728 -0.116156 0.415757 0.077595 -0.021574 272259.000000 0 0 1
12.482075 -1.704403 25.128172 28.109291 -0.135709 0.464724 0.064561 -0.011955 480565.000000 0 0 1
12.627275 -3.072303 25.028732 28.201499 -0.238669 0.478913 0.074587 -0.013768 642128.000000 0 0 1
13.965775 -3.553303 25.220112 29.046909 -0.249143 0.519123 0.058810 -0.001344 430996.000000 0 0 1
13.964075 -5.068403 25.252322 29.297848 -0.348174 0.531757 0.062748 -0.007253 -21348.400000 0 0 1
13.812975 -5.727803 24.015442 28.290413 -0.393087 0.556915 0.083309 -0.020296 260270.000000 0 0 1
13.669675 -7.120603 24.253902 28.736993 -0.480231 0.566106 0.096469 -0.029190 8743.830000 0 0 1
13.607675 -8.050203 22.982022 27.895303 -0.534215 0.602596 0.124346 -0.033707 -9963.010000 0 0 1
12.991375 -9.268803 23.308952 28.248784 -0.619701 0.600362 0.123881 -0.026763 -218494.000000 0 0 1
12.999975 -10.116303 22.197562 27.641829 -0.661293 0.638413 0.104238 -0.036313 52625.900000 0 0 1
12.165875 -11.401003 22.335262 27.872125 -0.752954 0.641252 0.116321 -0.028510 877381.000000 0 0 1
10.739575 -11.214603 22.383962 27.242385 -0.807032 0.606480 0.107484 -0.021870 318290.000000 0 0 1
10.181275 -12.480703 22.386262 27.578453 -0.886518 0.623688 0.102671 -0.020332 579480.000000 0 0 1
8.643675 -12.419103 22.676262 27.260963 -0.962761 0.588414 0.080655 -0.020273 958722.000000 0 0 1
7.788575 -11.801203 21.740662 25.934276 -0.987436 0.576642 0.076813 -0.020126 1189760.000000 0 0 1
6.379275 -11.812303 22.089662 25.849155 -1.075622 0.546093 0.067188 -0.021471 1942110.000000 0 0 1
5.548575 -10.721703 21.295962 24.479780 -1.093240 0.515714 0.055393 -0.019686 457202.000000 0 1 0
5.512975 -9.543503 21.997562 24.604148 -1.046959 0.464470 0.062407 -0.014072 -61283.500000 0 1 0
5.024975 -8.453003 21.201662 23.371224 -1.034460 0.434289 0.053929 -0.012435 191857.000000 0 1 0
5.273275 -7.055703 21.878362 23.585019 -0.928976 0.382758 0.060845 -0.014115 638283.000000 0 1 0
4.462875 -6.005903 21.295662 22.571960 -0.931738 0.337889 0.036185 -0.015743 309950.000000 0 1 0
4.960075 -4.769903 21.715962 22.780196 -0.765856 0.306874 0.065207 -0.033175 38873.800000 0 1 0
-8.280725 -14.499003 -19.886021 25.966234 1.051880 2.443145 0.061948 -0.005810 -303293.000000 0 0 1
-7.566025 -14.091403 -18.776521 24.665160 1.078047 2.436045 0.051623 -0.011848 -375261.000000 0 1 0
-6.390325 -13.453703 -19.250521 24.339699 1.127359 2.483092 0.042952 -0.018979 -47666.800000 0 1 0
-5.437725 -13.096903 -18.087321 22.983666 1.177263 2.476669 0.024160 -0.017374 -66128.200000 0 1 0
-4.766025 -14.281303 -17.716221 23.249411 1.248693 2.437204 0.032537 -0.006999 257348.000000 0 1 0
-3.914625 -14.178503 -16.553021 22.144000 1.301412 2.415113 0.023627 -0.007871 355443.000000 0 1 0
-3.193425 -15.492403 -16.257121 22.682736 1.367515 2.369881 0.034911 0.019001 1230340.000000 0 1 0
-2.041025 -15.712103 -17.160121 23.356064 1.441618 2.396047 0.034351 0.018470 1104080.000000 0 1 0
-1.122525 -16.609903 -16.569521 23.488252 1.503317 2.353838 0.047897 0.026790 -232281.000000 0 1 0
0.175775 -16.703803 -17.379121 24.105638 -1.560274 2.375978 0.048396 0.027521 -143784.000000 0 1 0
-0.057625 -17.438603 -18.541721 25.453951 1.567492 2.386841 0.071627 0.006929 -66996.100000 0 0 1
-0.358825 -18.861903 -18.500121 26.422616 1.551775 2.346421 0.066457 0.010888 -267421.000000 0 0 1
-1.003825 -19.230403 -19.825521 27.638150 1.518644 2.370751 0.066981 0.003946 -688890.000000 0 0 1
-2.158825 -18.488803 -19.973121 27.302416 1.454559 2.391391 0.077611 -0.015272 -590991.000000 0 0 1
-2.863825 -18.712203 -21.198621 28.420583 1.418929 2.412666 0.056443 -0.019392 210705.000000 0 0 1
-3.856025 -17.660003 -21.708221 28.248743 1.355822 2.447238 0.069033 -0.019069 -94128.800000 0 0 1
-3.350125 -16.367603 -21.882621 27.531271 1.368905 2.489520 0.063103 -0.012253 -367255.000000 0 0 1
-3.513025 -15.619103 -20.691421 26.161663 1.349559 2.483085 0.049146 -0.006212 -421202.000000 0 0 1
-2.520825 -14.490903 -20.635721 25.341149 1.398561 2.522347 0.052879 -0.002233 -515995.000000 0 0 1
-2.973725 -13.317303 -21.197221 25.209438 1.351103 2.569638 0.038794 -0.016599 317014.000000 0 0 1
-2.030225 -12.269803 -20.897121 24.317885 1.406817 2.604757 0.039418 -0.007258 575994.000000 0 1 0
-1.593325 -11.460203 -22.112821 24.956999 1.432651 2.659522 0.038692 -0.009847 354208.000000 0 1 0
-2.624025 -10.550803 -22.490521 24.980562 1.327038 2.691302 0.027802 -0.007140 528048.000000 0 1 0
-2.464625 -10.207403 -23.854821 26.063728 1.333876 2.726924 0.031847 -0.005486 96057.800000 0 0 1
-3.438025 -9.014203 -24.137521 25.994149 1.206426 2.761351 0.012919 -0.000924 -1121670.000000 0 0 1
-4.744425 -9.410203 -24.135321 26.335816 1.103811 2.729900 0.038751 -0.016375 -1406890.000000 0 0 1
-5.557625 -8.273403 -24.084321 26.065128 0.979286 2.749223 0.015356 -0.017285 -15268.000000 0 0 1
-7.009125 -8.537503 -23.552121 26.013827 0.883393 2.703045 0.022455 -0.032171 864159.000000 0 0 1
-8.021725 -8.876403 -24.477821 27.245226 0.835933 2.686968 0.043342 -0.033207 286196.000000 0 0 1
-8.584725 -7.791703 -25.187591 27.727655 0.737011 2.710219 0.045396 -0.036950 -190904.000000 0 0 1
-9.472625 -8.258803 -26.389571 29.229230 0.717049 2.697146 0.052729 -0.038050 215192.000000 0 0 1
-10.172725 -7.203403 -26.985261 29.725034 0.616148 2.708875 0.062621 -0.045671 -267815.000000 0 0 1
-10.752125 -7.663603 -28.174321 31.114809 0.619233 2.703342 0.058900 -0.039066 -36695.900000 0 0 1
-11.610825 -6.565603 -28.896321 31.826338 0.514645 2.709132 0.062014 -0.039792 244093.000000 0 0 1
-10.937125 -5.577403 -29.648401 32.089808 0.471577 2.748998 0.040886 -0.026242 -131469.000000 0 0 1
-11.820125 -5.030103 -30.618461 33.204028 0.402340 2.744349 0.079906 -0.028169 89420.300000 0 0 1
-11.217825 -3.910603 -31.466511 33.634413 0.335433 2.780596 0.065955 -0.025789 118793.000000 0 0 1
-10.156625 -4.263403 -32.349021 34.172983 0.397429 2.813397 0.052530 -0.018897 350196.000000 0 0 1
-9.740625 -3.207103 -33.181821 34.730369 0.318071 2.841849 0.043783 -0.015286 -363810.000000 0 0 1
-8.597125 -3.615703 33.770864 35.035056 0.398113 0.269454 0.026664 -0.013658 37558.700000 0 0 1
-7.341925 -3.795503 -33.475321 34.480528 0.477126 2.899536 0.025286 -0.018145 484656.000000 0 0 1
-6.308625 -4.058103 33.438852 34.269867 0.571624 0.220671 0.024634 -0.015849 73694.400000 0 0 1
-4.870425 -3.908603 33.912282 34.482475 0.676274 0.182107 0.051181 -0.022394 -500046.000000 0 0 1
-4.507325 -2.584303 -33.923701 34.319267 0.520598 2.989617 0.076579 -0.028273 -427774.000000 0 0 1
-3.144125 -2.265403 -33.834761 34.055963 0.624365 3.027555 0.081374 -0.030048 -221658.000000 0 0 1
-2.980925 -0.783703 -33.515291 33.656721 0.257088 3.049886 0.093357 -0.031909 -40354.300000 0 0 1
-3.235325 -0.527003 -32.123501 32.290314 0.161472 3.039902 0.087713 -0.035579 -8451.570000 0 0 1
-3.590725 0.803097 -31.874421 32.086087 -0.220037 3.026666 0.112532 -0.044015 -457409.000000 0 0 1
-4.237825 0.888197 -30.478281 30.784309 -0.206598 3.000472 0.128308 -0.052274 512823.000000 0 0 1
-5.312725 0.022197 -30.108741 30.573875 -0.004178 2.966938 0.097150 -0.046494 662290.000000 0 0 1
-6.567525 0.527197 -30.581891 31.283580 -0.080102 2.929393 0.103211 -0.053204 420602.000000 0 0 1
-7.699525 -0.549903 -30.524441 31.485339 0.071299 2.893902 0.085410 -0.050056 237916.000000 0 0 1
-7.980025 -0.951003 -29.210821 30.296159 0.118614 2.873115 0.067985 -0.039744 -539900.000000 0 0 1
-8.996225 -1.885003 -29.237851 30.648609 0.206545 2.837002 0.057206 -0.036831 -467656.000000 0 0 1
-9.382225 -2.561603 -27.899721 29.546275 0.266531 2.806172 0.061482 -0.038178 271537.000000 0 0 1
-10.063425 -1.753703 -26.903431 28.777467 0.172532 2.778713 0.060911 -0.034930 463433.000000 0 0 1
-10.029025 -2.326103 -25.604841 27.597101 0.227907 2.759293 0.045946 -0.031415 655435.000000 0 0 1
-11.198325 -1.701803 -24.734021 27.204235 0.150815 2.712149 0.054099 -0.026835 865848.000000 0 0 1
-10.890325 -0.424003 -24.292621 26.625371 0.038914 2.719873 0.050820 -0.027917 -296519.000000 0 0 1
-11.942025 0.015497 -23.508621 26.367925 -0.001298 2.671577 0.058015 -0.027489 -318952.000000 0 0 1
-11.651025 1.344597 -22.843121 25.678055 -0.114898 2.667258 0.071836 -0.033265 121048.000000 0 0 1
-11.489625 2.465597 -23.728921 26.479281 -0.211387 2.681771 0.045995 -0.029367 306516.000000 0 0 1
-10.561925 3.396797 -23.159821 25.680144 -0.311161 2.694845 0.069480 -0.027097 5726.830000 0 0 1
-10.260325 4.626897 -24.109421 26.607266 -0.423644 2.704820 0.085402 -0.033992 -748432.000000 0 0 1
-11.287325 5.460297 -24.486221 27.509881 -0.450567 2.668335 0.083921 -0.026180 -1141230.000000 0 0 1
-11.946025 5.071897 -25.639041 28.736598 -0.401504 2.673009 0.068687 -0.027972 -810374.000000 0 0 1
-13.316425 5.636197 -25.922041 29.682421 -0.400389 2.632758 0.063975 -0.017637 -514701.000000 0 0 1
-13.209925 6.981497 -26.317311 30.262919 -0.486190 2.625233 0.059784 -0.015479 818691.000000 0 0 1
-14.530325 7.528697 -26.507971 31.152595 -0.478052 2.588506 0.065893 -0.005586 802273.000000 0 0 1
-14.745025 9.054097 -26.429381 31.589628 -0.550682 2.561930 0.096075 -0.005948 -171901.000000 0 0 1
-14.622125 9.595697 -25.113351 30.603339 -0.580753 2.533271 0.127045 -0.010599 273193.000000 0 0 1
-14.895525 10.983697 -25.088601 31.176212 -0.635377 2.506026 0.130260 -0.011941 -38837.200000 0 0 1
-14.594125 11.537397 -23.684321 30.117222 -0.668953 2.475763 0.131516 -0.019542 -35627.900000 0 0 1
-15.592725 11.182297 -22.772421 29.778516 -0.622142 2.441413 0.153244 -0.020798 -84473.900000 0 0 1
-15.304925 11.734197 -21.516121 28.894213 -0.654100 2.410809 0.145220 -0.021366 438725.000000 0 0 1
-16.490125 11.655297 -20.486721 28.765881 -0.615278 2.363407 0.147148 -0.028088 287913.000000 0 0 1
-17.661925 12.349097 -20.769121 29.929921 -0.610184 2.337722 0.130302 -0.025774 291061.000000 0 0 1
-18.460225 12.587197 -19.562921 29.697227 -0.598444 2.289947 0.115598 -0.016405 1495270.000000 0 0 1
-19.956025 13.050197 -19.754521 30.964361 -0.579145 2.262663 0.100991 -0.018792 900128.000000 0 0 1
-20.039025 14.289197 -20.377221 31.952696 -0.619443 2.262345 0.078099 -0.023687 440421.000000 0 0 1
-21.376925 14.773497 -20.421421 33.049411 -0.604725 2.236873 0.069921 -0.026483 243100.000000 0 0 1
-21.580925 16.085097 -21.128921 34.218387 -0.640511 2.236322 0.069082 -0.022198 -149227.000000 0 0 1
-21.544625 16.042197 -22.542421 35.066846 -0.640038 2.268998 0.080925 -0.023116 226695.000000 0 0 1
-21.470225 17.287297 -23.154521 35.999348 -0.677889 2.269457 0.072460 -0.009561 -109196.000000 0 0 1
-21.611525 17.144797 -24.643021 36.990277 -0.670653 2.299902 0.067855 -0.009101 -50593.500000 0 0 1
-20.538925 16.401097 -25.220311 36.426742 -0.673848 2.335547 0.067899 -0.025563 404332.000000 0 0 1
-20.314425 16.506997 -26.611101 37.327035 -0.682362 2.364446 0.065365 -0.020663 -178684.000000 0 0 1
-19.449025 17.723297 -27.049551 37.736694 -0.739006 2.369994 0.034084 -0.012225 -305729.000000 0 0 1
-20.173325 18.869397 -27.322651 38.852856 -0.752013 2.350732 0.032114 -0.016443 132538.000000 0 0 1
-19.368225 19.968297 -26.989081 38.759148 -0.800652 2.341065 0.005616 -0.017218 -770116.000000 0 0 1
-20.157625 21.297397 -27.032281 39.882994 -0.812885 2.315549 0.040869 -0.008467 275667.000000 0 0 1
-21.140325 21.584297 -26.058971 39.898185 -0.795789 2.282516 0.059697 -0.006874 1465710.000000 0 0 1
-22.288325 20.675197 -26.040611 40.029322 -0.747869 2.279089 0.102387 -0.014469 726555.000000 0 0 1
-23.350925 20.906197 -24.903521 40.031489 -0.730215 2.242216 0.105902 -0.009195 418662.000000 0 0 1
-22.809625 20.624597 -23.645121 38.791039 -0.735134 2.226291 0.075211 -0.005756 415635.000000 0 0 1
-23.756125 20.755697 -22.590921 38.800801 -0.718093 2.192263 0.070096 -0.000147 204943.000000 0 0 1
-23.144525 20.161897 -21.314921 37.369734 -0.716634 2.177764 0.051092 0.007023 234446.000000 0 0 1
-21.975325 20.815397 -20.857321 36.758992 -0.758298 2.174150 0.055986 0.007881 524994.000000 0 0 1
-21.139825 20.135597 -19.882321 35.321964 -0.761073 2.168672 0.059229 0.000436 263326.000000 0 0 1
-21.743425 19.604597 -18.542221 34.654447 -0.733717 2.135376 0.067117 -0.007652 -728820.000000 0 0 1
-22.611225 18.484097 -18.847221 34.758410 -0.685306 2.143891 0.081348 -0.014100 561235.000000 0 0 1
-23.566925 18.127697 -17.873221 34.690999 -0.655677 2.112051 0.081992 -0.011839 237770.000000 0 0 1
-24.691825 19.144097 -17.587221 35.853773 -0.659511 2.083490 0.066105 -0.008648 -1117940.000000 0 0 1
-25.641775 19.259397 -18.621121 37.083300 -0.644201 2.096871 0.059448 -0.000732 307494.000000 0 0 1
-26.602235 20.237297 -18.227321 38.071805 -0.650337 2.070040 0.059177 -0.001311 579807.000000 0 0 1
-28.084975 20.100197 -18.758721 39.302333 -0.621180 2.068368 0.038790 0.010504 1162100.000000 0 0 1
-28.834985 18.970297 -18.305321 39.069340 -0.581903 2.058427 0.025480 0.009720 266263.000000 0 0 1
-29.047535 18.850097 -16.889721 38.527239 -0.575629 2.024596 0.029285 0.006167 -707302.000000 0 0 1
-29.948355 17.675997 -16.408721 38.452451 -0.533194 2.011668 0.010838 0.005127 -200272.000000 0 0 1
-29.486445 16.391997 -16.655521 37.623854 -0.507374 2.029387 0.034511 -0.005970 -428829.000000 0 0 1
-30.366325 15.468797 -16.079221 37.682074 -0.471144 2.011645 0.029912 -0.001974 -311127.000000 0 0 1
-29.790815 14.308797 -15.292621 36.415637 -0.447771 2.004183 0.068640 -0.006439 -368181.000000 0 0 1
-29.320955 14.557097 -13.933821 35.577786 -0.460823 1.973214 0.085641 -0.006506 -258356.000000 0 0 1
-30.248395 15.017897 -13.016321 36.192917 -0.460832 1.938675 0.058420 -0.001418 -352464.000000 0 0 1
-29.529885 15.564797 -11.753421 35.389545 -0.485081 1.909342 0.083675 -0.014220 357987.000000 0 0 1
-29.061715 16.917397 -11.843421 35.651763 -0.527168 1.909429 0.078228 -0.003784 382948.000000 0 0 1
-30.107565 17.876897 -11.702821 36.918897 -0.535824 1.893348 0.038055 0.001384 138077.000000 0 0 1
-29.629075 19.274597 -12.094221 37.358565 -0.576748 1.900469 0.077342 0.000282 44660.100000 0 0 1
-28.698635 19.796797 -11.159521 36.606826 -0.603859 1.880575 0.040555 -0.005990 -57822.400000 0 0 1
-28.112625 20.946897 -11.655221 36.945045 -0.640362 1.891753 0.027833 -0.009090 -222134.000000 0 0 1
-27.131195 21.710497 -10.748721 36.372825 -0.674865 1.870791 0.062816 -0.008070 49968.700000 0 0 1
-27.675065 22.642097 -9.819121 37.080843 -0.685705 1.838796 0.053114 -0.007389 -102614.000000 0 0 1
-27.046295 23.933597 -9.870121 37.439797 -0.724417 1.837576 0.068560 -0.013807 -376944.000000 0 0 1
-27.566705 24.940197 -8.905321 38.226187 -0.735418 1.805921 0.078893 0.005127 -286430.000000 0 0 1
-27.237225 24.816897 -7.554421 37.614014 -0.738935 1.773012 0.068887 0.002599 -169953.000000 0 0 1
-28.346275 25.051197 -6.716421 38.421141 -0.723768 1.746510 0.094063 -0.010040 97754.800000 0 0 1
-28.225405 24.279197 -5.342621 37.612451 -0.710380 1.713322 0.084666 -0.009436 -47514.600000 0 0 1
-28.209485 22.882897 -5.572121 36.748477 -0.681519 1.723012 0.084817 -0.007026 105053.000000 0 0 1
-28.256315 22.139197 -4.366721 36.161190 -0.664607 1.691849 0.080509 -0.007346 -110170.000000 0 0 1
-28.210045 20.631297 -4.659021 35.258524 -0.631455 1.703323 0.098460 -0.009166 -338809.000000 0 0 1
-27.049325 20.151297 -5.271521 34.139855 -0.640283 1.725826 0.082600 -0.018269 -233188.000000 0 0 1
-26.908535 20.277397 -6.652921 34.343900 -0.645780 1.765744 0.074537 -0.008756 -890955.000000 0 0 1
-27.741145 19.322797 -7.541721 34.638406 -0.608400 1.790281 0.084633 -0.008101 -96649.800000 0 0 1
-27.428775 17.952297 -7.356221 33.596676 -0.579536 1.791542 0.081712 -0.006327 381309.000000 0 0 1
-27.972255 17.225797 -8.461921 33.923137 -0.551969 1.822902 0.062461 -0.009490 8762.630000 0 0 1
-27.652555 15.679297 -8.609121 32.933587 -0.515809 1.835278 0.107655 -0.024238 18839.100000 0 0 1
-28.367165 14.849097 -7.708321 32.933417 -0.482240 1.807046 0.105889 -0.014325 59543.400000 0 0 1
-28.351075 13.545897 -8.212121 32.476356 -0.445723 1.826436 0.109319 -0.029584 -114642.000000 0 0 1
-29.268235 12.602197 -7.423221 32.719248 -0.406584 1.799665 0.099811 -0.033594 -377043.000000 0 0 1
-30.636925 12.754897 -7.774521 34.084480 -0.394499 1.800918 0.131532 -0.027128 -86239.500000 0 0 1
-31.385055 11.908997 -6.929621 34.276312 -0.362665 1.774369 0.157656 -0.026606 -216391.000000 0 0 1
-31.707105 10.506397 -7.565621 34.248555 -0.319972 1.793537 0.143024 -0.027430 -291846.000000 0 0 1
-30.585765 9.675297 -7.842421 33.024294 -0.306373 1.810561 0.147715 -0.026520 70210.600000 0 0 1
-30.945235 8.366097 -8.264921 33.104502 -0.264040 1.823127 0.126966 -0.019858 -742528.000000 0 0 1
-29.782795 7.432697 -8.564321 31.868597 -0.244568 1.842880 0.164923 -0.020662 -405244.000000 0 0 1
-29.168835 7.695797 -9.835121 31.729731 -0.257958 1.885953 0.156830 -0.036590 370302.000000 0 0 1
-28.475565 6.544697 -10.317021 30.985993 -0.225912 1.910235 0.166694 -0.036951 -520292.000000 0 0 1
-27.671115 6.894697 -11.551321 30.767848 -0.244193 1.955662 0.126705 -0.035192 336767.000000 0 0 1
-26.416705 7.571897 -11.322321 29.721556 -0.279149 1.961616 0.155077 -0.039358 1590090.000000 0 0 1
-25.592635 7.493897 -12.516821 29.458654 -0.284852 2.009642 0.131637 -0.027278 263231.000000 0 0 1
-32.175315 25.945797 33.903632 53.459252 -0.678624 0.883828 0.065118 -0.009307 38917.700000 0 0 1
-32.656375 27.261297 33.898422 54.394119 -0.695599 0.897968 0.056533 -0.017809 117123.000000 0 0 1
-33.059675 27.642097 32.611679 54.042107 -0.696385 0.922976 0.061238 -0.024091 -95864.000000 0 0 1
-33.663095 29.046697 32.422352 55.028388 -0.711915 0.940736 0.064562 -0.024627 -557.758000 0 0 1
-33.854735 29.419797 31.109612 54.584572 -0.715422 0.964371 0.093356 -0.022763 3751.900000 0 0 1
-34.145171 30.783897 30.993032 55.444649 -0.733676 0.977628 0.095099 -0.022498 -199828.000000 0 0 1
-33.688145 31.280597 29.594152 54.673401 -0.748358 0.998826 0.080192 -0.027335 378024.000000 0 0 1
-32.289055 31.139097 29.355942 53.609680 -0.767270 0.991319 0.072118 -0.027820 323709.000000 0 0 1
-31.913765 31.848197 28.236322 53.198552 -0.784370 1.011285 0.070509 -0.021635 54136.500000 0 0 1
-30.448865 31.520797 27.873852 51.938865 -0.802694 1.004315 0.071199 -0.023908 -315127.000000 0 0 1
-30.397295 30.231097 27.209342 50.776600 -0.782657 1.005266 0.086382 -0.026546 296360.000000 0 0 1
-29.348765 30.121197 26.242742 49.571343 -0.798386 1.012911 0.067741 -0.020025 192459.000000 0 0 1
-29.418065 30.883397 24.887132 49.381941 -0.809693 1.042605 0.073114 -0.018596 -424649.000000 0 0 1
-29.350565 32.267997 25.081882 50.316798 -0.832709 1.048953 0.059297 -0.025701 220989.000000 0 0 1
-30.121275 33.038097 24.140762 50.809285 -0.831547 1.075690 0.065677 -0.021754 129043.000000 0 0 1
-30.301775 -33.602710 24.707902 51.554050 0.837006 1.070983 0.059557 -0.016995 102832.000000 0 0 1
-31.067295 -33.682910 25.918042 52.644659 0.825772 1.056043 0.039250 -0.023878 380961.000000 0 0 1
-31.158985 -32.424910 26.470952 52.182070 0.805305 1.038770 0.018445 -0.031085 -104183.000000 0 0 1
-31.486215 -32.273410 28.003672 53.076929 0.797744 1.015017 0.023593 -0.031868 643886.000000 0 0 1
-32.845885 -32.679810 28.260122 54.272061 0.782864 1.023111 0.017728 -0.029742 857299.000000 0 0 1
-33.050205 -32.920610 29.645722 55.271615 0.783434 1.004673 0.016205 -0.026373 -863882.000000 0 0 1
-34.504984 -33.149710 29.973112 56.461355 0.765369 1.011181 0.033718 -0.030359 -927080.000000 0 0 1
-34.759223 -33.453110 31.310962 57.512525 0.766253 0.995099 0.029283 -0.035700 -1488790.000000 0 0 1
-36.076215 -33.378810 31.639542 58.452535 0.746581 0.998830 0.027455 -0.031925 -1463940.000000 0 0 1
-36.491515 -33.853810 33.087174 59.770161 0.747919 0.984147 0.033236 -0.025406 -61088.900000 0 0 1
-36.282975 32.804297 33.159739 59.094369 -0.735089 0.975044 0.038407 -0.024927 234327.000000 0 0 1
-36.891465 32.337297 -33.483521 59.395515 -0.719708 2.169701 0.043367 -0.024982 292555.000000 0 0 1
-36.620175 30.905697 -33.043011 58.206872 -0.700973 2.174484 0.039096 -0.017433 214176.000000 0 0 1
-35.385526 30.887497 -32.349101 57.031897 -0.717631 2.173911 0.049813 -0.018909 -166840.000000 0 0 1
-35.068734 29.551497 -31.938401 55.885316 -0.700225 2.179128 0.046458 -0.016932 115442.000000 0 0 1
-34.112039 29.558897 -30.732871 54.606492 -0.714009 2.168573 0.049931 -0.011605 -153542.000000 0 0 1
-34.681139 29.827997 -29.494771 54.428231 -0.710308 2.143495 0.061391 -0.018600 -502471.000000 0 0 1
-34.948501 31.205997 -29.302801 55.261796 -0.728886 2.129697 0.050095 -0.016834 -679763.000000 0 0 1
-36.110275 31.442597 -28.392411 55.666129 -0.716411 2.106037 0.052872 -0.015162 -452672.000000 0 0 1
-35.748414 31.088797 -27.066201 54.562273 -0.715795 2.089852 0.060636 -0.031022 -220959.000000 0 0 1
-36.849305 31.300297 -26.229731 55.005260 -0.704153 2.067874 0.083572 -0.031609 -264398.000000 0 0 1
-36.639915 30.892097 -24.727721 53.928334 -0.700490 2.047136 0.079262 -0.036093 -195646.000000 0 0 1
-36.023397 31.956097 -24.022521 53.814113 -0.725638 2.033532 0.092563 -0.039247 -20733.800000 0 0 1
-35.843240 31.750397 -22.646821 52.968897 -0.724921 2.012577 0.080388 -0.041434 -526472.000000 0 0 1
-37.090065 31.430197 -21.807721 53.283270 -0.702984 1.992460 0.071825 -0.038340 -145155.000000 0 0 1
36.343576 32.534997 -21.698721 53.387415 0.730160 1.989349 0.080309 -0.043986 287403.000000 0 0 1
36.602946 33.731497 -21.032621 54.036661 0.744595 1.970590 0.077434 -0.045436 -525002.000000 0 0 1
36.995666 33.763297 -19.546621 53.765323 0.739748 1.942877 0.072978 -0.036521 -366632.000000 0 0 1
-36.220755 33.075897 -19.280221 52.703747 -0.740047 1.945313 0.080473 -0.043589 -680655.000000 0 0 1
-36.221255 32.549997 -17.953821 51.902036 -0.732065 1.924013 0.078174 -0.023643 80523.700000 0 0 1
-35.030917 31.598797 -17.720221 50.394993 -0.733933 1.930104 0.099717 -0.030373 63918.000000 0 0 1
-35.053721 30.960897 -16.431621 49.571551 -0.723479 1.908661 0.071625 -0.017460 1368260.000000 0 0 1
-33.740855 30.371997 -16.169421 48.190805 -0.732901 1.912963 0.083354 -0.015325 1309170.000000 0 0 1
-33.463805 30.202697 -14.654521 47.400255 -0.734221 1.885112 0.084433 -0.013728 14476.400000 0 0 1
-34.328737 29.305597 -13.993821 47.255764 -0.706624 1.871434 0.062871 -0.005502 29058.900000 0 0 1
-33.841035 29.028197 -12.725921 46.365946 -0.708994 1.848832 0.085248 -0.000623 587646.000000 0 0 1
-34.858416 28.171897 -11.864221 46.362967 -0.679709 1.829574 0.081691 -0.004619 471280.000000 0 0 1
-34.209738 27.765297 -10.695821 45.338929 -0.681786 1.808949 0.092286 -0.002170 615639.000000 0 0 1
-34.925349 26.679597 -10.049421 45.084052 -0.652340 1.795589 0.098992 -0.011760 230788.000000 0 0 1
-34.135751 26.071797 -8.890421 43.863740 -0.652255 1.774893 0.107279 0.001294 63925.400000 0 0 1
-33.820705 27.060697 -7.895521 44.027953 -0.674815 1.751101 0.102417 -0.006139 -83380.400000 0 0 1
-32.798385 26.575497 -7.091921 42.805215 -0.680971 1.737243 0.107154 -0.016095 -461488.000000 0 0 1
-32.466165 27.363197 -5.801421 42.853855 -0.700312 1.706590 0.108283 -0.021984 313777.000000 0 0 1
-31.486735 26.733697 -4.965521 41.602421 -0.703940 1.690438 0.121251 -0.019030 585568.000000 0 0 1
-31.206675 27.225397 -3.642021 41.573346 -0.717368 1.658513 0.114710 -0.018343 -149933.000000 0 0 1
-30.366445 26.258797 -2.782721 40.241632 -0.712984 1.640002 0.107110 -0.021260 -31308.900000 0 0 1
-31.014985 25.021597 -2.518421 39.929338 -0.678848 1.633910 0.095700 -0.011858 520.390000 0 0 1
-30.248445 24.248597 -1.612421 38.801582 -0.675745 1.612364 0.087967 -0.013336 229127.000000 0 0 1
-30.866385 22.878397 -1.222521 38.440205 -0.637850 1.602605 0.095619 -0.013886 121995.000000 0 0 1
-31.116205 21.950697 -2.311821 38.149650 -0.614369 1.631432 0.090012 -0.008353 -218677.000000 0 0 1
-31.998975 20.995997 -1.797021 38.314430 -0.580684 1.617715 0.101285 -0.008691 -66920.500000 0 0 1
-32.422985 19.996797 -2.952821 38.207866 -0.552643 1.648157 0.134501 -0.000825 -288008.000000 0 0 1
-31.357735 19.202697 -3.373921 36.924713 -0.549469 1.662297 0.114823 -0.005388 -323438.000000 0 0 1
-31.726595 18.376197 -4.457621 36.934155 -0.524989 1.691782 0.126293 0.004159 -145661.000000 0 0 1
-30.628825 17.412997 -4.921721 35.574720 -0.516948 1.709590 0.133687 0.000639 -62830.900000 0 0 1
-30.290795 16.270697 -4.109221 34.628796 -0.492924 1.689741 0.159906 -0.019591 454422.000000 0 0 1
-29.431265 15.319997 -4.748121 33.517851 -0.479940 1.712934 0.159140 -0.027124 118210.000000 0 0 1
-29.288785 14.064897 -3.848121 32.717920 -0.447694 1.688684 0.157901 -0.032824 -827279.000000 0 0 1
-30.543275 13.558597 -3.544921 33.604965 -0.417782 1.676481 0.178343 -0.035121 -444964.000000 0 0 1
-30.485875 12.217097 -3.119721 32.990585 -0.381149 1.665502 0.161706 -0.043609 -179747.000000 0 0 1
-31.775465 11.526397 -2.621221 33.902932 -0.347984 1.648189 0.179399 -0.043513 -687029.000000 0 0 1
-32.744345 11.288597 -3.584821 34.820619 -0.331990 1.673930 0.182092 -0.027327 -188186.000000 0 0 1
-33.732015 10.479897 -2.933721 35.444094 -0.301227 1.653662 0.175777 -0.026621 326189.000000 0 0 1
-34.653176 9.796197 -4.019121 36.234809 -0.275504 1.681944 0.132526 -0.017976 459461.000000 0 0 1
-33.945615 8.835797 -4.821121 35.406487 -0.254642 1.707386 0.121132 -0.014217 839844.000000 0 0 1
-34.819565 8.336197 -5.835421 36.275976 -0.234988 1.732360 0.107516 -0.005435 238564.000000 0 0 1
-34.184219 7.297997 -6.824321 35.614505 -0.210333 1.763605 0.118766 -0.009246 -307026.000000 0 0 1
-33.733615 6.130597 -6.184821 34.839532 -0.179774 1.749265 0.118363 -0.009534 342125.000000 0 0 1
-33.173785 5.220597 -7.082721 34.320833 -0.156091 1.778658 0.133471 -0.019135 -827799.000000 0 0 1
-32.113325 4.317897 -6.497721 33.047394 -0.133657 1.768704 0.144361 -0.020933 280429.000000 0 0 1
-30.799335 4.913697 -6.417621 31.842257 -0.158206 1.773731 0.149217 -0.024662 617134.000000 0 0 1
-29.936385 3.951897 -5.897521 30.766628 -0.131251 1.763676 0.156824 -0.023891 -150698.000000 0 0 1
-28.469475 4.452397 -5.765321 29.386626 -0.155135 1.768266 0.172647 -0.022974 393726.000000 0 0 1
-27.827385 4.604597 -7.031921 29.069117 -0.163984 1.815123 0.177648 -0.018769 -1030440.000000 0 0 1
-26.488245 4.841597 -6.867821 27.789119 -0.180787 1.820525 0.191121 -0.031130 -1058440.000000 0 0 1
-25.751505 5.168297 -8.198821 27.514941 -0.198067 1.873369 0.171787 -0.026169 -212512.000000 0 0 1
-25.735725 4.110797 -9.115421 27.610090 -0.158393 1.907257 0.171900 -0.039918 532760.000000 0 0 1
-24.797425 4.284297 -10.159721 27.138302 -0.171083 1.954512 0.174433 -0.042659 -126688.000000 0 0 1
-25.124805 3.499597 -11.510821 27.856813 -0.138398 1.996777 0.158055 -0.048674 560365.000000 0 0 1
-26.244505 4.113597 -12.191221 29.228780 -0.155476 2.001045 0.158204 -0.032700 925000.000000 0 0 1
-26.605965 3.314997 -13.243521 29.904137 -0.123957 2.029589 0.151785 -0.035933 152614.000000 0 0 1
-27.624155 4.069997 -14.146721 31.301574 -0.146282 2.039746 0.132008 -0.030953 8366.190000 0 0 1
-26.917655 5.001797 -14.937921 31.188453 -0.183723 2.070262 0.113333 -0.021172 513851.000000 0 0 1
-27.713605 5.880197 -15.718521 32.398959 -0.209077 2.077337 0.140165 -0.031105 -229114.000000 0 0 1
-28.574475 5.331397 -16.864121 33.605401 -0.184458 2.096507 0.103060 -0.013323 73981.300000 0 0 1
-29.799695 4.771397 -16.427321 34.360514 -0.158768 2.069272 0.119161 -0.029440 -86994.700000 0 0 1
-30.515615 4.192297 -17.480021 35.416511 -0.136527 2.086970 0.115574 -0.018252 1067950.000000 0 0 1
-32.008445 3.818597 -17.082121 36.481791 -0.118738 2.058091 0.113884 -0.018941 1018410.000000 0 0 1
-32.231635 2.693197 -16.296321 36.217422 -0.083364 2.037515 0.117371 -0.025968 150719.000000 0 0 1
-31.899745 1.403597 -16.798621 36.079876 -0.043972 2.055103 0.141734 -0.025689 -223156.000000 0 0 1
-32.267065 0.295897 -15.815721 35.935888 -0.009170 2.026517 0.157532 -0.029965 -337437.000000 0 0 1
-31.796655 -1.002103 -16.237321 35.716692 0.031506 2.042736 0.160955 -0.011749 195645.000000 0 0 1
-32.342725 -2.026403 -15.505721 35.924721 0.062572 2.017081 0.168601 -0.023762 -392447.000000 0 0 1
-32.020585 -3.377503 -16.205021 36.046194 0.105091 2.037072 0.148513 -0.020879 -227498.000000 0 0 1
-32.658945 -3.481903 -17.418121 37.176892 0.106213 2.058411 0.161605 -0.023568 -2283.290000 0 0 1
-32.586285 -4.765403 -17.986621 37.524573 0.145210 2.070686 0.151109 -0.020695 103654.000000 0 0 1
-33.193055 -4.801103 -19.423821 38.757120 0.143646 2.095744 0.158900 -0.013986 89235.700000 0 0 1
-32.959495 -6.018003 -20.144021 39.093813 0.180598 2.112124 0.163167 -0.014348 27872.700000 0 0 1
-33.719685 -6.117903 -21.296621 40.348382 0.179482 2.126826 0.150787 -0.011771 -514305.000000 0 0 1
-33.368125 -7.282403 -22.183621 40.725645 0.214875 2.146838 0.147904 -0.008906 -734733.000000 0 0 1
-32.083995 -7.138703 -22.686221 39.937557 0.218934 2.174921 0.143962 -0.019552 -657368.000000 0 0 1
-31.886295 -7.996703 -23.755321 40.558579 0.245720 2.196545 0.135398 -0.010445 490652.000000 0 0 1
-30.501155 -7.848803 -24.474921 39.886663 0.251864 2.231423 0.125451 -0.007812 177666.000000 0 0 1
-30.413525 -6.655803 -25.255481 40.088920 0.215447 2.252332 0.107419 -0.015956 165334.000000 0 0 1
-30.634735 -6.838503 -26.681461 41.196510 0.219626 2.275310 0.084430 -0.012285 -213267.000000 0 0 1
-32.106565 -6.854203 -27.125611 42.586505 0.210326 2.261336 0.108942 -0.011469 -257875.000000 0 0 1
-32.828115 -8.009303 -26.775681 43.113468 0.239302 2.240880 0.108298 -0.006484 -173379.000000 0 0 1
-34.108151 -8.028403 -27.390911 44.475648 0.231173 2.234277 0.108769 -0.011275 764173.000000 0 0 1
-35.088154 -9.048803 -26.726031 45.025994 0.252388 2.206283 0.102517 -0.011809 -171046.000000 0 0 1
-34.779320 -10.333703 -27.130001 45.303681 0.288814 2.212858 0.103371 -0.007230 -7393.980000 0 0 1
-35.680732 -11.401603 -26.843321 46.083349 0.309290 2.192591 0.092734 -0.004871 529607.000000 0 0 1
-36.963525 -11.483003 -27.735961 47.617697 0.301206 2.192562 0.082473 0.004099 691556.000000 0 0 1
36.508206 -10.393403 -27.503081 46.875275 -0.277349 2.197810 0.073673 0.000013 161645.000000 0 0 1
35.490526 -10.422403 -28.477011 46.681303 -0.285637 2.226895 0.067963 0.000134 -784461.000000 0 0 1
34.439246 -9.360403 -28.336701 45.570247 -0.265384 2.241867 0.067188 0.006179 -1200310.000000 0 0 1
33.464636 -9.804103 -27.459321 44.384869 -0.284994 2.237837 0.052613 0.004896 -995177.000000 0 0 1
32.623636 -8.733703 -27.175321 43.348325 -0.261577 2.248372 0.026967 0.010651 -491107.000000 0 0 1
31.522566 -8.991703 -26.151491 41.933559 -0.277867 2.244188 0.019103 0.011643 -189947.000000 0 0 1
31.927516 -9.224403 -24.852521 41.498237 -0.281258 2.212900 0.010146 0.014868 104929.000000 0 0 1
30.769966 -9.619803 -24.126721 40.266985 -0.303009 2.213259 -0.001865 0.012487 371160.000000 0 0 1
31.021166 -9.953803 -22.652921 39.680546 -0.310493 2.178376 -0.011879 0.010840 386407.000000 0 0 1
31.779466 -11.179303 -22.445221 40.480850 -0.338258 2.158516 -0.007835 0.006807 439579.000000 0 0 1
32.081176 -11.236603 -21.079521 39.997616 -0.336902 2.125886 0.000166 0.003269 -204047.000000 0 0 1
32.906276 -12.455703 -20.630321 40.786979 -0.361854 2.101113 0.017397 0.000599 -716929.000000 0 0 1
34.251186 -12.325603 -20.962321 42.005751 -0.345431 2.093281 0.031291 -0.001542 -873739.000000 0 0 1
35.051236 -13.033403 -20.065321 42.439084 -0.355996 2.063265 0.056535 -0.003785 208335.000000 0 0 1
36.565066 -13.101703 -20.447321 43.894779 -0.344060 2.055364 0.078773 -0.012936 572093.000000 0 0 1
-37.014065 -11.927503 -20.472921 43.948229 0.311736 2.055382 0.100973 -0.014782 524150.000000 0 0 1
37.060786 -11.058803 -21.510221 44.254814 -0.289985 2.078365 0.113123 -0.001318 -776655.000000 0 0 1
-36.771145 -11.465303 -22.930721 44.826200 0.302249 2.107781 0.098013 -0.000911 88473.500000 0 0 1
37.003966 -12.504303 -23.694321 45.684483 -0.325871 2.116069 0.095089 0.000287 -71423.800000 0 0 1
35.675026 -12.234103 -24.066821 44.739162 -0.330364 2.138783 0.104564 -0.002129 -473172.000000 0 0 1
35.122426 -13.327503 -24.969221 45.107307 -0.362674 2.157419 0.088159 -0.018303 -253261.000000 0 0 1
35.151896 -14.685303 -24.460421 45.272797 -0.395728 2.141578 0.092033 -0.038032 382515.000000 0 0 1
34.248376 -14.933703 -23.397521 44.084132 -0.411185 2.130278 0.078789 -0.031342 -131625.000000 0 0 1
-30.468235 8.291097 -19.370821 37.044356 -0.265689 2.121056 0.073946 -0.019096 -652172.000000 0 0 1
-29.202155 7.755897 -19.433121 35.924448 -0.259600 2.142356 0.069069 -0.012969 -1142310.000000 0 0 1
-28.435135 8.234197 -20.498721 36.007728 -0.281868 2.176434 0.084933 -0.025054 -203167.000000 0 0 1
-27.231515 7.305697 -20.800121 35.036747 -0.262109 2.206403 0.082948 -0.024833 -30891.300000 0 0 1
-26.186045 7.672297 -19.931821 33.791280 -0.285015 2.201671 0.088201 -0.014887 789640.000000 0 0 1
-25.005225 6.833897 -20.003821 32.743187 -0.266784 2.228032 0.101392 -0.020156 1237090.000000 0 0 1
-23.669025 7.452697 -19.543321 31.586498 -0.305044 2.237914 0.083718 -0.021738 318302.000000 0 0 1
-23.064825 8.326297 -20.491621 31.956532 -0.346437 2.266902 0.081697 -0.020787 -1219870.000000 0 0 1
-21.896225 8.842097 -20.022421 30.960050 -0.383794 2.274070 0.074681 -0.018208 -1111010.000000 0 0 1
-21.175325 9.751797 -21.029721 31.396514 -0.431573 2.304750 0.083667 -0.017197 -287999.000000 0 0 1
-20.556225 9.106097 -22.133321 31.549379 -0.417005 2.348360 0.112944 -0.016182 -70685.800000 0 0 1
-19.883125 10.060497 -22.905221 31.956242 -0.468421 2.369953 0.103088 -0.015912 39540.100000 0 0 1
-18.856825 9.366897 -23.860321 31.821903 -0.461034 2.418568 0.119590 -0.012066 231689.000000 0 0 1
-19.495525 8.468697 -24.732621 32.611300 -0.409799 2.431661 0.107706 -0.010889 372190.000000 0 0 1
-18.523425 7.839497 -25.571171 32.533979 -0.400363 2.475082 0.094586 -0.004875 268049.000000 0 0 1
-19.151625 6.699497 -26.384751 33.283976 -0.336509 2.486048 0.072507 -0.002565 58491.600000 0 0 1
-19.461025 5.493997 -25.644991 32.658553 -0.275147 2.473889 0.090180 -0.003652 188501.000000 0 0 1
-19.907925 4.468597 -26.483491 33.431559 -0.220803 2.485153 0.084554 -0.007905 -875947.000000 0 0 1
-20.018225 3.087297 -25.740981 32.754524 -0.153019 2.474907 0.087334 -0.013421 1160660.000000 0 0 1
-18.781925 2.389397 -25.390071 31.672159 -0.126538 2.500851 0.079574 -0.001746 1371540.000000 0 0 1
-17.912525 3.056197 -24.473721 30.482157 -0.168991 2.502918 0.067839 -0.002410 -73684.900000 0 0 1
-17.048225 2.024897 -23.673821 29.243666 -0.118221 2.514159 0.069606 -0.004888 150918.000000 0 0 1
-17.625725 1.328497 -22.543721 28.646997 -0.075230 2.476645 0.065059 0.001069 855456.000000 0 0 1
-18.757525 0.481197 -22.880121 29.590137 -0.025648 2.454723 0.063455 0.002284 644731.000000 0 0 1
-19.318925 -0.367003 -21.751221 29.094178 0.018995 2.415259 0.100235 -0.001741 -15748.600000 0 0 1
-18.754725 -1.646603 -21.512621 28.587478 0.087572 2.422675 0.097007 -0.006157 608156.000000 0 0 1
-19.610725 -2.351403 -20.603921 28.541745 0.119334 2.377322 0.095416 -0.008091 51336.500000 0 0 1
-19.151625 -3.794403 -20.397421 28.235386 0.195591 2.378072 0.079135 -0.021340 -28669.800000 0 0 1
-19.224625 -4.569803 -21.581021 29.261062 0.233375 2.400207 0.075414 -0.030067 308036.000000 0 0 1
-19.106725 -5.957403 -21.342421 29.258444 0.302243 2.388306 0.086872 -0.027860 -184952.000000 0 0 1
-18.913525 -6.884003 -22.541021 30.219341 0.349068 2.412702 0.059938 -0.032606 -228724.000000 0 0 1
-17.874225 -6.519903 -23.417621 30.172538 0.349768 2.459291 0.067295 -0.019964 -113466.000000 0 0 1
-17.764925 -7.633403 -24.287821 31.044479 0.405836 2.469235 0.099162 -0.035850 171728.000000 0 0 1
-16.526025 -7.608103 -25.220381 31.097594 0.431445 2.516668 0.084421 -0.042521 -516711.000000 0 0 1
-16.456725 -8.646603 -26.161241 32.093583 0.483772 2.523793 0.096865 -0.072548 881762.000000 0 0 1
-15.147925 -8.867303 -26.734321 31.981442 0.529601 2.560626 0.109843 -0.071167 1274180.000000 0 0 1
-14.170725 -9.665003 -25.787771 30.971452 0.598570 2.554637 0.097942 -0.064438 -323971.000000 0 0 1
-13.623025 -8.989603 -24.660021 29.572224 0.583292 2.556917 0.091251 -0.055500 265974.000000 0 0 1
-12.698925 -9.849403 -24.035221 28.913064 0.659691 2.552226 0.074681 -0.049371 301837.000000 0 0 1
-11.790425 -9.137003 -22.956721 27.377180 0.659280 2.565385 0.079465 -0.040364 512986.000000 0 0 1
-12.479025 -8.803103 -21.755021 26.580098 0.614362 2.529540 0.077575 -0.037679 570977.000000 0 0 1
-11.614425 -7.981403 -20.988321 25.280571 0.602082 2.550290 0.073379 -0.027766 -840580.000000 0 0 1
-12.177225 -7.828303 -19.581321 24.351494 0.571343 2.504976 0.061505 -0.022521 695299.000000 0 1 0
-13.208125 -6.797603 -19.479121 24.496900 0.475301 2.490079 0.054695 -0.011557 652415.000000 0 1 0
-14.456925 -7.286603 -19.902821 25.655790 0.466860 2.458720 0.069033 -0.022597 -983387.000000 0 0 1
-15.616725 -6.345203 -19.465421 25.749686 0.385933 2.427897 0.065240 -0.015353 -106840.000000 0 0 1
-15.799925 -6.012903 -18.105221 24.770782 0.363641 2.390451 0.051198 -0.013445 374374.000000 0 1 0
-15.169225 -4.817703 -17.685221 23.792492 0.307522 2.408803 0.055547 -0.015858 -505005.000000 0 1 0
-15.123325 -4.562403 -16.158321 22.596943 0.292997 2.367516 0.067407 -0.009807 -75574.900000 0 1 0
-16.324425 -4.208503 -15.479821 22.887184 0.252310 2.313597 0.101462 -0.022067 77597.300000 0 1 0
-16.690925 -2.827303 -15.604121 23.023232 0.167799 2.315502 0.063611 -0.023885 -439492.000000 0 1 0
-17.920625 -2.495803 -14.769821 23.356486 0.138380 2.255398 0.065039 -0.025973 -655725.000000 0 1 0
-17.688025 -2.316203 -13.370921 22.293778 0.130207 2.213998 0.089528 -0.035821 538663.000000 0 1 0
-18.759525 -1.712103 -12.682621 22.709028 0.091014 2.163353 0.097562 -0.033832 -72946.800000 0 1 0
-18.324425 -0.321603 -12.111221 21.967468 0.017549 2.154748 0.088647 -0.027333 92119.900000 0 1 0
-17.887025 0.626997 -13.060921 22.156860 -0.035039 2.201205 0.102686 -0.027916 462725.000000 0 1 0
-16.985325 1.534897 -12.529121 21.162137 -0.090121 2.204401 0.096717 -0.023063 -1056440.000000 0 1 0
-16.344325 2.556697 -13.497021 21.350486 -0.155170 2.255140 0.096584 -0.020248 247478.000000 0 1 0
-15.586025 2.033197 -14.573521 21.434682 -0.129718 2.318428 0.094001 -0.030541 160286.000000 0 1 0
-14.372425 1.411697 -14.218321 20.266232 -0.097909 2.348404 0.088532 -0.024056 -822982.000000 0 1 0
-13.895525 0.470797 -15.363421 20.720569 -0.033868 2.406036 0.079629 -0.021110 -49829.800000 0 1 0
-13.420925 1.083597 -16.532721 21.321967 -0.080565 2.458120 0.083503 -0.027016 322521.000000 0 1 0
-13.088425 0.122097 -17.538321 21.884115 -0.009328 2.500458 0.044250 -0.011383 -56182.800000 0 1 0
-12.235125 0.689697 -18.702221 22.359495 -0.056311 2.561539 0.044804 -0.018186 -951481.000000 0 1 0
-11.052525 1.263097 -18.262421 21.383866 -0.113788 2.594476 0.023400 -0.017692 -1106140.000000 0 1 0
-10.538325 1.944997 -19.323121 22.095753 -0.182510 2.635236 0.022611 -0.015065 -56434.700000 0 1 0
-9.176625 2.654297 -19.150321 21.400713 -0.281561 2.678880 0.014106 -0.015945 -278825.000000 0 1 0
-8.063625 1.823597 -19.423121 21.109362 -0.222410 2.739180 0.012300 -0.011563 338579.000000 0 1 0
-6.785425 2.442897 -19.265721 20.571284 -0.345574 2.783408 0.020167 -0.006679 669166.000000 0 1 0
-6.435825 3.501097 -20.349221 21.627952 -0.498226 2.796003 0.026136 -0.003276 -955474.000000 0 1 0
-6.322625 2.966997 -21.682121 22.779224 -0.438760 2.829971 0.025290 -0.002003 219554.000000 0 1 0
-6.262425 4.035397 -22.595921 23.792395 -0.572416 2.823111 0.044843 -0.003824 -265285.000000 0 1 0
-5.614025 3.575497 -23.914621 24.823589 -0.567101 2.870142 0.064128 -0.019021 -246843.000000 0 1 0
-4.369825 2.947997 -23.715621 24.294377 -0.593493 2.922879 0.083045 -0.023881 -343200.000000 0 1 0
-3.983525 2.292397 -24.890521 25.311294 -0.522187 2.958999 0.098199 -0.029670 209910.000000 0 0 1
-2.520725 1.781697 -24.732621 24.924507 -0.615288 3.017427 0.091128 -0.033029 -472743.000000 0 1 0
-1.500525 2.744997 -24.792721 24.989310 -1.070536 3.016076 0.093484 -0.033504 73937.200000 0 1 0
-0.202325 2.246497 -25.046371 25.147731 -1.480976 3.051778 0.084318 -0.026260 438472.000000 0 0 1
0.509075 1.486397 -23.908721 23.960290 1.240828 3.075972 0.077847 -0.020138 -936806.000000 0 1 0
-0.036825 0.196597 -23.721021 23.721864 -1.385630 3.133161 0.060661 -0.022073 287757.000000 0 1 0
0.781575 -0.578003 -22.830721 22.851406 -0.636771 3.099040 0.063393 -0.019366 126732.000000 0 1 0
0.230075 -2.035403 -22.721421 22.813566 -1.458238 3.051684 0.066877 -0.026391 392037.000000 0 1 0
-0.922425 -2.185703 -21.917421 22.045442 1.171447 3.033771 0.057341 -0.028355 701103.000000 0 1 0
-2.179525 -2.264803 -22.629121 22.846373 0.804584 3.003575 0.060580 -0.025609 1062760.000000 0 1 0
-3.084925 -0.998003 -22.608821 22.840130 0.312883 2.999153 0.068833 -0.027494 -946846.000000 0 1 0
-3.652525 -0.838203 -21.299321 21.626479 0.225580 2.967432 0.046800 -0.031737 507766.000000 0 1 0
-4.706625 0.113597 -21.156321 21.673835 -0.024131 2.922627 0.034111 -0.040462 1085520.000000 0 1 0
-6.011825 -0.213303 -21.966421 22.775232 0.035466 2.874292 0.039476 -0.030069 -247731.000000 0 1 0
-6.654025 -1.425803 -21.539721 22.589124 0.211085 2.835585 0.040476 -0.013740 971999.000000 0 1 0
-8.057525 -1.317603 -21.854021 23.329338 0.162090 2.784055 0.034296 -0.006663 826234.000000 0 1 0
-8.867025 -2.541003 -21.501321 23.396317 0.279088 2.736344 0.027625 -0.007742 -530938.000000 0 1 0
-8.747525 -3.524503 -22.474021 24.372586 0.383016 2.744276 0.044508 -0.008557 -111915.000000 0 1 0
-9.336525 -4.766903 -22.182921 24.535200 0.472064 2.700127 0.038183 -0.001365 -322684.000000 0 1 0
-10.231725 -5.402703 -23.245821 25.966239 0.485823 2.679749 0.043681 -0.012393 1193410.000000 0 0 1
-11.569525 -4.847503 -23.337121 26.494781 0.396768 2.648387 0.049047 -0.016100 1090570.000000 0 0 1
-12.454525 -5.568603 -24.154721 27.741216 0.420452 2.627453 0.058829 -0.038087 1538260.000000 0 0 1
-14.000525 -5.422303 -23.791521 28.132766 0.369504 2.578648 0.070516 -0.041325 1442400.000000 0 0 1
-14.477525 -4.094903 -24.131921 28.437942 0.275645 2.584095 0.067059 -0.036619 500998.000000 0 0 1
-15.893725 -4.008303 -23.968921 29.037668 0.247043 2.541782 0.079091 -0.041817 856114.000000 0 0 1
-16.497425 -2.560803 -24.335421 29.511616 0.153995 2.540300 0.073646 -0.032763 60644.200000 0 0 1
-16.376325 -2.276003 -25.742861 30.595083 0.138097 2.570675 0.066666 -0.035875 -26031.300000 0 0 1
-16.810025 -1.018603 -26.243001 31.181879 0.060521 2.571055 0.061240 -0.035136 657358.000000 0 0 1
-18.319925 -1.057203 -26.701331 32.399049 0.057644 2.539477 0.070567 -0.024858 506608.000000 0 0 1
-18.601725 -1.573603 -27.944971 33.606871 0.084394 2.552645 0.081899 -0.035636 118663.000000 0 0 1
-18.023225 -0.943203 -29.107341 34.248556 0.052285 2.586564 0.074520 -0.033306 -206369.000000 0 0 1
-18.367425 -1.724103 -30.393311 35.554018 0.093593 2.596056 0.064353 -0.037385 422841.000000 0 0 1
-19.755025 -1.989503 -30.558491 36.442290 0.100370 2.565403 0.054835 -0.036335 404053.000000 0 0 1
-19.963525 -2.801203 -31.707151 37.573029 0.139406 2.575272 0.056658 -0.039126 -766061.000000 0 0 1
-21.390725 -3.351103 -31.846381 38.509544 0.155398 2.544500 0.039442 -0.037228 -232720.000000 0 0 1
-22.422325 -2.466403 -32.190571 39.307463 0.109557 2.530363 0.025100 -0.036690 111638.000000 0 0 1
-22.900825 -1.738003 -31.100011 38.661080 0.075747 2.505506 0.018119 -0.021119 -843448.000000 0 0 1
-24.033425 -0.779503 -31.502861 39.631344 0.032423 2.489635 0.018778 -0.016759 -398802.000000 0 0 1
-23.584125 0.399497 -32.140651 39.867179 -0.016938 2.508486 0.026899 -0.023520 463177.000000 0 0 1
-24.639125 1.271397 -32.502441 40.805779 -0.051555 2.492307 0.022707 -0.019818 -82940.800000 0 0 1
-24.033125 2.544997 -33.168871 41.039519 -0.105502 2.511916 0.029917 -0.024009 -192750.000000 0 0 1
-23.461325 3.501897 -32.225931 40.015093 -0.148169 2.507053 0.031942 -0.029634 897623.000000 0 0 1
-24.310825 4.058097 -31.184461 39.748647 -0.165401 2.472753 0.029067 -0.027360 -196926.000000 0 0 1
-25.339065 5.093897 -31.740991 40.932951 -0.198385 2.458206 0.021250 -0.028590 -454327.000000 0 0 1
-26.360085 4.412597 -32.402491 42.002935 -0.165859 2.451888 0.029087 -0.031453 -441051.000000 0 0 1
-27.189235 5.229497 -33.198351 43.228840 -0.190017 2.446458 0.059892 -0.035706 341528.000000 0 0 1
-28.583725 4.615297 -33.511831 44.287392 -0.160084 2.429032 0.081910 -0.024528 145379.000000 0 0 1
-28.462615 3.476097 33.567054 44.146923 -0.121527 0.706947 0.078010 -0.021736 -94399.700000 0 0 1
-29.743145 3.040697 33.214022 44.688609 -0.101878 0.732907 0.090138 -0.022858 -413806.000000 0 0 1
-29.845465 1.589797 32.712688 44.310261 -0.053217 0.740303 0.092398 -0.000784 -265503.000000 0 0 1
-29.771935 0.684897 33.821763 45.063831 -0.023001 0.721932 0.083602 -0.001765 136907.000000 0 0 1
-29.833855 -0.665903 33.464577 44.837264 0.022317 0.728226 0.073553 0.000322 -493309.000000 0 0 1
-29.557245 -1.603103 -33.176041 44.461785 0.054184 2.413087 0.027594 0.007097 186010.000000 0 0 1
-28.276255 -1.674003 -32.567231 43.162176 0.059133 2.425737 0.038684 -0.001949 524495.000000 0 0 1
-27.765195 -0.442403 -32.026141 42.388389 0.015932 2.427275 0.038636 0.001422 -754695.000000 0 0 1
-28.004185 -0.199803 -30.528131 41.427540 0.007135 2.399276 0.047712 0.000377 -222709.000000 0 0 1
-27.116615 -1.009203 -29.784001 40.291637 0.037200 2.402694 0.031187 -0.009400 431405.000000 0 0 1
-27.145075 -0.608503 -28.368701 39.268417 0.022413 2.378107 0.041376 -0.013453 -117267.000000 0 0 1
-26.002935 -1.308203 -27.599321 37.941884 0.050267 2.385337 0.049036 -0.015598 -6953.560000 0 0 1
-26.252155 -2.679503 -27.288541 37.960767 0.101716 2.372960 0.027904 -0.014941 663872.000000 0 0 1
-25.208705 -3.147403 -26.417701 36.650783 0.124211 2.375745 0.063335 -0.029444 194892.000000 0 0 1
-25.540125 -4.453303 -25.698411 36.503948 0.172629 2.351796 0.063582 -0.036965 -504497.000000 0 0 1
-26.416975 -4.246303 -24.664421 36.389852 0.159378 2.315539 0.067060 -0.029922 -588229.000000 0 0 1
-26.614255 -5.403703 -23.866121 36.153981 0.200315 2.291781 0.078306 -0.031051 492626.000000 0 0 1
-27.787745 -5.284903 -22.829921 36.349612 0.187944 2.249860 0.086781 -0.029074 525619.000000 0 0 1
-27.994425 -6.410203 -21.935721 36.137991 0.225101 2.223075 0.118019 -0.039250 -174760.000000 0 0 1
-29.182945 -6.257303 -21.202621 36.610781 0.211218 2.188465 0.154668 -0.029174 -37912.200000 0 0 1
-29.537975 -7.473103 -20.386821 36.660083 0.247800 2.160487 0.168191 -0.030508 339761.000000 0 0 1
-28.548025 -7.674303 -19.368521 35.341537 0.262612 2.150814 0.169866 -0.040181 741699.000000 0 0 1
-28.997135 -8.618203 -18.374621 35.393982 0.288894 2.116647 0.189517 -0.036408 116194.000000 0 0 1
-29.721335 -8.101003 -17.122321 35.244260 0.266101 2.078096 0.194584 -0.037211 206325.000000 0 0 1
-28.843585 -7.424903 -16.211721 33.910197 0.251949 2.069262 0.185846 -0.044455 659251.000000 0 0 1
-29.405745 -6.217503 -15.647121 33.884917 0.208369 2.050789 0.181877 -0.034443 280051.000000 0 0 1
-28.386245 -5.496403 -14.698521 32.435102 0.191262 2.041111 0.187281 -0.034960 -85520.200000 0 0 1
-27.377475 -4.797203 -15.329621 31.741717 0.173463 2.074815 0.196498 -0.028115 -242143.000000 0 0 1
-26.498795 -4.221203 -14.383021 30.444638 0.157971 2.062844 0.160094 -0.032897 -327176.000000 0 0 1
-14.148525 21.235397 -4.692021 25.944901 -0.983068 1.752642 0.103083 -0.035311 -78117.600000 0 0 1
-14.260625 20.635997 -5.944421 25.778789 -0.966098 1.803484 0.127518 -0.039546 387155.000000 0 0 1
-15.007825 19.428297 -5.745521 25.213182 -0.913067 1.800694 0.123201 -0.051051 171611.000000 0 0 1
-15.384125 18.661897 -7.035121 25.187906 -0.881377 1.853867 0.155879 -0.055022 850147.000000 0 0 1
-14.210725 18.075097 -7.681521 24.241691 -0.904524 1.893226 0.132290 -0.048038 1002380.000000 0 1 0
-14.456125 17.218697 -8.781421 24.136620 -0.872395 1.943164 0.116204 -0.048270 -443676.000000 0 1 0
-15.013125 15.840297 -8.416321 23.391096 -0.812201 1.938859 0.107753 -0.045291 196245.000000 0 1 0
-16.429525 15.855497 -8.333721 24.305904 -0.767620 1.920765 0.119395 -0.041085 191954.000000 0 1 0
-16.823725 15.138497 -7.189921 23.746721 -0.732721 1.878400 0.118611 -0.020853 348103.000000 0 1 0
-18.327125 15.382897 -6.829121 24.882804 -0.698279 1.848816 0.131176 -0.019320 502675.000000 0 1 0
-19.228525 14.845697 -7.762021 25.502546 -0.657475 1.880066 0.125099 -0.027690 429395.000000 0 0 1
-20.574425 15.220697 -7.487421 26.665297 -0.636933 1.855416 0.108166 -0.030449 1475990.000000 0 0 1
-21.766825 14.506497 -8.274221 27.435303 -0.587852 1.877156 0.110251 -0.023345 882163.000000 0 0 1
-22.081925 13.257097 -7.772221 26.902964 -0.540684 1.863872 0.153024 -0.031854 310759.000000 0 0 1
-22.935925 12.524897 -8.663421 27.531520 -0.499830 1.890908 0.154341 -0.030981 323239.000000 0 0 1
-23.218925 11.100897 -8.217621 27.016249 -0.445972 1.879867 0.140082 -0.033307 10996.000000 0 0 1
-22.116025 10.204497 -8.328221 25.741204 -0.432300 1.900261 0.142761 -0.031540 407540.000000 0 0 1
-22.244425 9.120297 -7.324621 25.132535 -0.389100 1.866528 0.142077 -0.036083 543577.000000 0 0 1
-20.929025 8.264897 -7.249821 23.640908 -0.376103 1.882483 0.101932 -0.016358 186058.000000 0 1 0
-20.840525 7.234297 -8.206321 23.537337 -0.334113 1.926928 0.103847 -0.015732 203919.000000 0 1 0
-19.813625 6.342797 -7.872021 22.243640 -0.309815 1.932534 0.086789 -0.006172 -340212.000000 0 1 0
-19.501725 5.200797 -8.846921 22.037096 -0.260619 1.983902 0.066139 -0.012249 23236.100000 0 1 0
-20.371725 4.064097 -8.644321 22.499963 -0.196912 1.965130 0.088017 -0.014866 804241.000000 0 1 0
-20.333425 3.157997 -9.728921 22.761218 -0.154080 2.012449 0.091454 -0.019879 -160213.000000 0 1 0
-21.251125 1.942997 -9.583121 23.392772 -0.091177 1.992879 0.098585 -0.024225 -266761.000000 0 1 0
-20.800425 1.127797 -8.523421 22.507295 -0.054167 1.959183 0.086713 -0.027049 184256.000000 0 1 0
-21.703225 0.194797 -7.966621 23.120012 -0.008975 1.922584 0.093170 -0.024073 -385772.000000 0 1 0
-21.895925 -1.114903 -8.654821 23.570754 0.050874 1.946777 0.109179 -0.036001 152208.000000 0 1 0
-20.677825 -1.864003 -8.682821 22.504185 0.089902 1.966905 0.080432 -0.024320 818648.000000 0 1 0
-20.693625 -3.228703 -9.020321 22.803878 0.154776 1.977475 0.069804 -0.023544 -4539.400000 0 1 0
-21.793425 -4.104103 -8.330221 23.689441 0.186138 1.930122 0.087282 -0.025359 228352.000000 0 1 0
-21.498325 -4.385803 -6.967121 23.020730 0.201245 1.878263 0.078349 -0.026323 3612.740000 0 1 0
-22.443425 -5.162903 -6.285221 23.871885 0.226107 1.837227 0.098249 -0.024754 -439769.000000 0 1 0
-22.426725 -6.680003 -6.550521 24.299995 0.289491 1.843742 0.102200 -0.031932 -722049.000000 0 1 0
-21.303125 -7.296103 -6.023921 23.309738 0.329969 1.832192 0.083757 -0.034718 -253428.000000 0 1 0
-21.435025 -8.717003 -5.844221 23.866323 0.386244 1.818185 0.092562 -0.037420 -1156710.000000 0 1 0
-20.326925 -9.554903 -5.291321 23.075488 0.439411 1.802160 0.092244 -0.037690 -554521.000000 0 1 0
-19.386425 -10.001403 -6.290021 22.702993 0.476284 1.851526 0.086031 -0.014595 322294.000000 0 1 0
-18.736325 -11.138903 -5.756921 22.544782 0.536372 1.829011 0.097477 -0.007788 -206754.000000 0 1 0
-17.677925 -11.790303 -6.673821 22.272408 0.588199 1.875117 0.057941 -0.004724 341272.000000 0 1 0
-16.580725 -10.941203 -7.056721 21.081453 0.583286 1.912121 0.056168 -0.033646 801616.000000 0 1 0
-16.843925 -10.108203 -8.162821 21.272640 0.540500 1.964622 0.056686 -0.042512 -779128.000000 0 1 0
-16.018725 -10.512903 -9.374521 21.330783 0.580783 2.025820 0.071201 -0.038369 -63589.800000 0 1 0
-16.273225 -11.848403 -9.932921 22.446947 0.629332 2.029188 0.095268 -0.037440 201724.000000 0 1 0
-15.284425 -12.160903 -10.886721 22.361170 0.672077 2.079286 0.083561 -0.021248 163225.000000 0 1 0
-15.548525 -13.535603 -11.522521 23.616470 0.716298 2.080481 0.107099 -0.025229 21116.900000 0 1 0
-16.471525 -13.512203 -12.582221 24.742737 0.687019 2.104263 0.098583 -0.017316 14162.000000 0 1 0
-16.570025 -14.799303 -13.213721 25.849323 0.729010 2.107356 0.091467 -0.006567 -82472.700000 0 0 1
-17.244525 -14.857803 -14.609521 27.047478 0.711187 2.141404 0.111025 -0.003618 -185164.000000 0 0 1
-17.242825 -16.096703 -15.213021 28.068753 0.751034 2.143601 0.093537 0.003667 321255.000000 0 0 1
-17.438025 -16.032403 -16.619021 28.936387 0.743427 2.182581 0.083619 0.002219 -521317.000000 0 0 1
-17.634425 -17.423503 -17.268521 30.211806 0.779382 2.179229 0.088955 -0.007976 688700.000000 0 0 1
-18.890225 -18.090603 -17.018421 31.204762 0.763779 2.147638 0.060821 -0.001230 606952.000000 0 0 1
-19.831225 -17.868103 -18.039321 32.217444 0.733372 2.165090 0.061974 -0.000740 -727207.000000 0 0 1
-21.263725 -17.705503 -17.559221 32.771284 0.694342 2.136265 0.052738 -0.007067 -635873.000000 0 0 1
-21.604025 -16.425403 -17.052221 32.051615 0.650057 2.131785 0.037813 -0.001561 334228.000000 0 0 1
-21.177925 -16.201303 -15.726621 30.956636 0.653038 2.103682 0.029652 -0.003911 -473024.000000 0 0 1
-21.106525 -14.700903 -15.340421 29.948797 0.608380 2.108566 0.053804 -0.014933 1343400.000000 0 0 1
-22.426425 -14.038503 -15.330021 30.578320 0.559304 2.095939 0.083668 -0.007536 2053970.000000 0 0 1
-22.451825 -12.765503 -14.774321 29.754379 0.516991 2.090408 0.088373 -0.013589 -935178.000000 0 0 1
-23.848625 -12.314603 -14.393121 30.456006 0.476654 2.063021 0.109326 -0.026336 -765595.000000 0 0 1
-24.313125 -12.782103 -13.133521 30.446668 0.484018 2.016798 0.136893 -0.016430 -484383.000000 0 0 1
-25.537675 -12.212303 -12.862621 31.092768 0.446062 1.997295 0.173498 -0.022573 -1079570.000000 0 0 1
-26.158525 -12.640703 -11.517921 31.252493 0.450146 1.948239 0.179874 -0.024375 -474528.000000 0 0 1
-27.217765 -11.817503 -11.143321 31.695957 0.409623 1.930043 0.157208 -0.026171 -36739.700000 0 0 1
-27.743825 -12.183603 -9.868921 31.867783 0.413792 1.885656 0.151902 -0.021193 104660.000000 0 0 1
-28.788665 -11.303603 -9.152421 32.254077 0.374146 1.858509 0.169807 -0.034597 96417.800000 0 0 1
-28.231545 -10.107103 -8.616721 31.199704 0.343791 1.850613 0.171525 -0.035958 -251940.000000 0 0 1
-29.185595 -9.279303 -8.064421 31.669217 0.307834 1.828277 0.189359 -0.039392 -537231.000000 0 0 1
-28.586095 -8.058403 -7.368221 30.600545 0.274769 1.813973 0.166299 -0.037382 317657.000000 0 0 1
-27.836705 -8.360303 -6.174721 29.713700 0.291763 1.780129 0.157876 -0.044164 551501.000000 0 0 1
-26.940765 -7.409403 -5.623221 28.501310 0.268390 1.769396 0.145575 -0.038545 215889.000000 0 0 1
-27.593395 -6.227703 -4.844421 28.699271 0.221976 1.740408 0.165154 -0.044676 309739.000000 0 0 1
-28.480165 -6.681203 -3.767621 29.494970 0.230425 1.698884 0.172412 -0.047582 834430.000000 0 0 1
-27.866475 -7.183103 -2.576921 28.892524 0.252277 1.660105 0.178132 -0.046250 18568.300000 0 0 1
-27.009645 -6.152903 -1.754621 27.757122 0.223982 1.634052 0.185510 -0.047948 225965.000000 0 0 1
-27.787485 -5.104803 -1.209221 28.278358 0.181683 1.613571 0.197199 -0.052904 75745.200000 0 0 1
-27.084015 -4.185103 -0.429221 27.408816 0.153310 1.586457 0.184732 -0.055771 79998.800000 0 0 1
-28.054765 -3.057403 0.061879 28.220939 0.108551 1.568604 0.197472 -0.052837 550748.000000 0 0 1
-29.087545 -3.332003 1.003479 29.294957 0.114054 1.536535 0.186360 -0.048849 217734.000000 0 0 1
-28.719625 -3.580303 2.378179 29.039476 0.124024 1.488810 0.189046 -0.042089 -290538.000000 0 0 1
-29.928225 -3.839503 3.291379 30.352489 0.127593 1.462144 0.174231 -0.038829 379536.000000 0 0 1
-30.557245 -5.170103 3.176779 31.153926 0.167607 1.468648 0.173570 -0.037750 93224.000000 0 0 1
-31.696945 -5.291103 3.966979 32.379454 0.165403 1.447972 0.173157 -0.034582 -326875.000000 0 0 1
-32.361695 -6.678803 3.943879 33.278220 0.203522 1.452005 0.162159 -0.027463 -135432.000000 0 0 1
-31.509485 -7.746003 4.342179 32.736871 0.241051 1.437766 0.137565 -0.017613 369671.000000 0 0 1
-32.101315 -9.008303 4.075479 33.589485 0.273584 1.449165 0.134522 -0.018085 358552.000000 0 0 1
-31.187725 -10.207003 4.584279 33.134162 0.316289 1.431996 0.107479 -0.008040 487406.000000 0 0 1
-31.242765 -10.355003 6.018179 33.459751 0.320043 1.389949 0.090609 -0.014610 939912.000000 0 0 1
-30.194305 -11.215703 6.524979 32.864318 0.355656 1.370925 0.080439 -0.010034 556764.000000 0 0 1
-30.401255 -11.519103 8.076979 33.498711 0.362187 1.327284 0.080506 -0.017895 -32628.200000 0 0 1
-30.196895 -10.368503 8.919079 33.149786 0.330750 1.298386 0.095802 -0.015149 318357.000000 0 0 1
-30.411915 -10.629603 10.237079 33.803414 0.336248 1.263123 0.096736 -0.019321 -414276.000000 0 0 1
-30.359205 -9.357303 11.097179 33.650971 0.298981 1.234733 0.092210 -0.018390 -622250.000000 0 0 1
-29.236215 -8.558803 10.918879 32.360953 0.284789 1.226633 0.101832 -0.026735 -364734.000000 0 0 1
-29.326155 -7.452603 11.755979 32.461788 0.248860 1.200225 0.100672 -0.031551 -118738.000000 0 0 1
-28.195455 -6.441003 11.537279 31.138064 0.224587 1.191227 0.116157 -0.025411 -199972.000000 0 0 1
-28.327675 -5.734603 10.336379 30.695009 0.199739 1.227339 0.120973 -0.026646 -179960.000000 0 0 1
-27.590255 -4.557603 10.386679 29.830807 0.163710 1.215161 0.114731 -0.025919 -379956.000000 0 0 1
-27.667515 -3.675203 9.128579 29.365447 0.132061 1.254697 0.142137 -0.024427 -370878.000000 0 0 1
-26.979695 -4.217503 8.059479 28.471854 0.155066 1.283805 0.128594 -0.021578 -190856.000000 0 0 1
-27.225155 -3.618603 6.803579 28.294735 0.132139 1.327963 0.154373 -0.036769 -284096.000000 0 0 1
-26.268855 -4.045003 5.701379 27.183092 0.152785 1.359487 0.135052 -0.031332 -1640380.000000 0 0 1
-24.974725 -3.627803 5.736579 25.880614 0.144250 1.347285 0.154446 -0.041968 -907687.000000 0 0 1
-24.241925 -4.036403 4.602379 25.002907 0.164991 1.385667 0.159291 -0.029889 395321.000000 0 0 1
-22.720725 -3.696103 4.726679 23.499660 0.161263 1.368277 0.149888 -0.025721 425357.000000 0 1 0
-22.402825 -2.324603 4.753579 23.019272 0.103394 1.362795 0.126057 -0.026427 -121758.000000 0 1 0
-21.015725 -2.282703 4.527779 21.618793 0.108195 1.359797 0.091930 -0.019412 -575516.000000 0 1 0
-20.458625 -0.863403 4.667079 21.001962 0.042177 1.346704 0.068233 -0.030708 -582372.000000 0 1 0
-20.726525 0.048697 3.618579 21.040089 -0.002350 1.397952 0.078514 -0.024792 261598.000000 0 1 0
-22.026225 0.581197 3.713579 22.344642 -0.026380 1.403826 0.085020 -0.046870 -248312.000000 0 1 0
-22.203525 1.842497 2.813979 22.456843 -0.082792 1.445160 0.113507 -0.032279 4662.130000 0 1 0
-21.391925 2.985697 3.112579 21.822397 -0.138675 1.427676 0.078891 -0.040095 579186.000000 0 1 0
-21.838625 4.031797 2.311279 22.327627 -0.182562 1.467094 0.108511 -0.024454 251516.000000 0 1 0
-20.771525 4.331797 1.223479 21.253650 -0.205598 1.513199 0.081880 -0.014613 -157015.000000 0 1 0
-21.106625 5.157297 0.099479 21.727799 -0.239649 1.566218 0.100785 -0.009699 618979.000000 0 1 0
-22.086625 4.577497 -0.780921 22.569500 -0.204359 1.605404 0.127383 -0.013437 60266.000000 0 1 0
-21.618925 3.453897 -1.737221 21.961905 -0.158424 1.649981 0.121351 -0.013230 -136877.000000 0 1 0
-21.165525 2.275497 -0.993521 21.310664 -0.107098 1.617434 0.070742 -0.011888 717730.000000 0 1 0
-20.774125 1.209397 -1.824721 20.889148 -0.058151 1.658260 0.069570 -0.009891 439454.000000 0 1 0
-19.890825 0.134797 -1.048921 19.918919 -0.006777 1.623480 0.059202 -0.008886 262384.000000 0 1 0
-20.762925 -0.649803 -0.282821 20.775016 0.031286 1.584410 0.078332 -0.014132 743860.000000 0 1 0
-20.148125 -1.398703 0.752279 20.210622 0.069310 1.533566 0.074987 -0.012433 -324812.000000 0 1 0
-19.307325 -2.612003 0.325079 19.485919 0.134469 1.554113 0.048722 -0.008893 39038.500000 0 1 0
-18.421825 -3.134003 1.297379 18.731492 0.168511 1.501479 0.038484 -0.006344 532449.000000 0 1 0
-17.623925 -4.224603 0.957179 18.148449 0.235269 1.518030 0.018754 -0.006833 -363812.000000 0 1 0
-18.381625 -5.531703 0.745479 19.210404 0.292316 1.531981 0.014106 -0.009372 -425907.000000 0 1 0
-19.050425 -5.989903 1.913679 20.061401 0.304636 1.475260 0.032758 -0.008918 637640.000000 0 1 0
-19.787825 -7.157103 1.591679 21.102502 0.347053 1.495299 0.045685 -0.014596 32023.800000 0 1 0
-20.793425 -7.626603 2.663979 22.307586 0.351544 1.451090 0.081934 -0.009761 278969.000000 0 1 0
-20.055525 -8.243103 3.704479 21.997636 0.389965 1.401587 0.071605 -0.004201 1142160.000000 0 1 0
-20.965425 -8.664003 4.695679 23.165997 0.391878 1.366685 0.082171 -0.008528 230751.000000 0 1 0
-20.219325 -9.560703 5.685779 23.077180 0.441692 1.321852 0.084188 0.002676 168155.000000 0 1 0
-19.781625 -10.796503 5.082279 23.102093 0.499601 1.348990 0.096114 0.001948 34968.300000 0 1 0
-18.926025 -11.514103 5.883479 22.921263 0.546554 1.311209 0.112559 -0.000353 -316772.000000 0 1 0
-18.438225 -12.861503 5.321479 23.102046 0.609077 1.338362 0.099440 -0.004222 216736.000000 0 1 0
-19.507725 -13.764003 5.110979 24.415594 0.614452 1.359904 0.131401 -0.005461 100618.000000 0 1 0
-18.945125 -14.993603 4.834879 24.639439 0.669489 1.373290 0.115955 -0.007778 -154583.000000 0 1 0
-19.852825 -16.116403 4.352979 25.938804 0.681891 1.402181 0.128423 -0.005426 -673000.000000 0 0 1
-19.132725 -17.296903 4.251979 26.140454 0.735047 1.407411 0.123796 -0.020881 30398.600000 0 0 1
-19.435525 -18.236503 5.275479 27.168738 0.753581 1.375380 0.104551 -0.026105 -147421.000000 0 0 1
-18.502725 -19.450203 5.178979 27.340136 0.810358 1.380217 0.107468 -0.033142 -768463.000000 0 0 1
-18.549225 -20.106503 3.952779 27.640001 0.825662 1.427295 0.112005 -0.033915 27044.400000 0 0 1
-17.722925 -21.204403 3.723079 27.885302 0.874596 1.436882 0.101806 -0.031796 900270.000000 0 0 1
-16.156625 -21.077503 3.889079 26.840689 0.916797 1.425390 0.119511 -0.033440 598246.000000 0 0 1
-15.556825 -22.337803 3.976179 27.510039 0.962467 1.425753 0.105265 -0.032306 192726.000000 0 0 1
-14.141325 -22.191003 3.865079 26.596175 1.003433 1.424955 0.107408 -0.029457 202133.000000 0 0 1
-13.442925 -23.505103 4.105679 27.387200 1.051283 1.420317 0.122316 -0.031903 -737150.000000 0 0 1
-13.739025 -24.486503 3.120279 28.250412 1.059482 1.460120 0.112441 -0.038575 158173.000000 0 0 1
-12.973825 -25.650533 3.298079 28.933498 1.102526 1.456560 0.087689 -0.036145 -67531.400000 0 0 1
18.825375 19.051897 -23.767321 35.808589 0.791379 2.296594 0.076937 0.002367 356047.000000 0 0 1
17.936175 19.441397 -24.842521 36.288085 0.825647 2.324840 0.075478 -0.002431 535558.000000 0 0 1
18.507775 19.125597 -26.122011 37.291898 0.801814 2.346858 0.074912 -0.002171 887704.000000 0 0 1
17.457775 19.503597 -27.237271 37.776092 0.840692 2.376068 0.069904 0.000133 643002.000000 0 0 1
17.300775 20.832397 -27.556031 38.634705 0.877748 2.364914 0.070518 0.005003 -196665.000000 0 0 1
16.483675 21.045497 -28.657191 39.190038 0.906359 2.390929 0.068158 0.003417 -358144.000000 0 0 1
16.304275 22.480297 -29.130421 40.246423 0.943311 2.380092 0.085077 -0.002528 -111729.000000 0 0 1
15.520975 23.171297 -28.182281 39.649094 0.980603 2.361421 0.080175 -0.000103 153018.000000 0 0 1
15.270675 24.495097 -28.515141 40.574827 1.013336 2.350093 0.077814 0.003309 170647.000000 0 0 1
14.501775 25.200297 -27.320441 39.896904 1.048616 2.325093 0.081248 -0.000381 368751.000000 0 0 1
13.173075 24.712597 -27.246171 39.071680 1.081059 2.342473 0.086356 -0.010980 -239043.000000 0 0 1
12.463475 25.553797 -26.386201 38.788740 1.117009 2.318906 0.069992 -0.007221 966051.000000 0 0 1
10.964975 25.097297 -26.028181 37.783213 1.158891 2.330742 0.087582 -0.006202 1592500.000000 0 0 1
10.193575 25.976797 -25.307501 37.671907 1.196849 2.307415 0.081018 -0.021540 -369731.000000 0 0 1
9.672275 27.077097 -26.033831 38.787658 1.227711 2.306607 0.078236 -0.025795 -451403.000000 0 0 1
9.084675 28.073497 -25.005321 38.677107 1.257828 2.273803 0.080177 -0.031647 329834.000000 0 0 1
10.082475 28.716597 -24.180221 38.871356 1.233139 2.242164 0.079308 -0.027876 824743.000000 0 0 1
9.453975 29.487397 -23.169721 38.674542 1.260540 2.213167 0.089117 -0.039482 215299.000000 0 0 1
10.500675 29.856997 -22.084921 38.593370 1.232609 2.180039 0.073164 -0.032267 251820.000000 0 0 1
11.504275 30.764997 -22.500521 39.813400 1.212955 2.171411 0.063630 -0.037817 501168.000000 0 0 1
12.407375 30.998397 -21.404321 39.660919 1.190067 2.140857 0.048145 -0.028096 -263002.000000 0 0 1
13.648375 31.802897 -21.715421 40.856602 1.165412 2.131171 0.049856 -0.016504 -187368.000000 0 0 1
14.711775 31.065497 -22.309421 40.978186 1.128513 2.146496 0.050688 -0.017503 -481521.000000 0 0 1
15.701975 31.909597 -22.746821 42.216019 1.113507 2.139832 0.052131 -0.011029 -241939.000000 0 0 1
17.029675 31.229197 -23.195921 42.465555 1.071559 2.148652 0.030806 -0.002067 406171.000000 0 0 1
17.894375 30.886197 -22.136721 42.002384 1.045688 2.125904 0.031046 0.002348 462911.000000 0 0 1
19.076675 30.291597 -22.686421 42.381294 1.008776 2.135651 0.034936 0.000338 777081.000000 0 0 1
20.090975 29.546897 -21.759921 41.834920 0.973641 2.117809 0.030753 0.006949 250411.000000 0 0 1
20.752975 30.311797 -20.763121 42.197135 0.970447 2.085240 0.029780 0.007983 604301.000000 0 0 1
21.791675 29.444397 -20.247521 41.854650 0.933664 2.075740 0.042367 0.002408 585375.000000 0 0 1
22.524375 30.065297 -19.044921 42.118625 0.927819 2.039997 0.048294 -0.011213 -180544.000000 0 0 1
23.377175 31.135997 -19.382221 43.492679 0.926778 2.032689 0.051481 -0.014607 -296686.000000 0 0 1
23.892675 31.614697 -18.175621 43.597043 0.923628 2.000829 0.058643 -0.016008 -1064070.000000 0 0 1
25.050475 32.548597 -18.431721 45.018505 0.914848 1.992621 0.060294 -0.019473 340385.000000 0 0 1
26.212775 31.706197 -18.692721 45.186395 0.879962 1.997289 0.064789 -0.015721 529306.000000 0 0 1
27.416375 32.448597 -18.712421 46.419002 0.869261 1.985720 0.063451 -0.018222 969079.000000 0 0 1
28.632775 31.661897 -19.333121 46.862363 0.835595 1.996049 0.077925 -0.021240 733599.000000 0 0 1
29.239375 30.695597 -18.520621 46.262016 0.809690 1.982686 0.060768 -0.009838 190974.000000 0 0 1
30.544775 30.342197 -18.963121 47.045001 0.782071 1.985681 0.062607 -0.009008 654004.000000 0 0 1
31.170875 29.104797 -18.208421 46.370888 0.751134 1.974328 0.056154 -0.012788 -220606.000000 0 0 1
31.588875 29.305797 -16.886721 46.280105 0.747923 1.944301 0.054916 -0.006780 123360.000000 0 0 1
31.873175 28.096297 -16.190721 45.469117 0.722501 1.934868 0.057900 -0.009134 -242844.000000 0 0 1
32.225475 28.301997 -14.666921 45.327727 0.720667 1.900302 0.057263 -0.008392 57273.100000 0 0 1
33.478675 28.847897 -14.325521 46.456898 0.711236 1.884266 0.044988 -0.003775 -265588.000000 0 0 1
33.569375 30.266697 -14.530921 47.477611 0.733707 1.881846 0.044641 -0.009402 -613317.000000 0 0 1
34.972075 30.804797 -14.860621 48.916455 0.722128 1.879471 0.045612 -0.011068 -53787.700000 0 0 1
35.663975 30.992597 -13.643621 49.179351 0.715431 1.851910 0.041098 -0.010169 -1012840.000000 0 0 1
36.929375 31.502097 -13.902421 50.491961 0.706254 1.849739 0.053667 -0.019808 -278978.000000 0 0 1
-36.649626 31.843297 -12.593621 50.157651 -0.715340 1.824593 0.048784 -0.013497 11770.400000 0 0 1
-37.032626 33.074797 -11.968221 51.074415 -0.729004 1.807325 0.048585 -0.016883 161608.000000 0 0 1
-36.161526 33.458597 -10.893621 50.455968 -0.746594 1.788413 0.046646 -0.005556 119423.000000 0 0 1
-36.666026 -33.377510 -10.141121 50.609267 0.738483 1.772543 0.037914 0.002559 -221713.000000 0 0 1
-35.741226 -32.860010 -9.220121 49.418884 0.743423 1.758467 0.036106 -0.001050 -135803.000000 0 0 1
-35.538326 -33.591610 -8.007521 49.552893 0.757245 1.733103 0.031513 -0.003475 -30665.200000 0 0 1
-35.245426 -32.759210 -6.780621 48.594060 0.748855 1.710789 0.026999 -0.004389 -347392.000000 0 0 1
-36.227926 -31.821510 -6.460821 48.649906 0.720735 1.703992 0.028692 -0.002280 -634661.000000 0 0 1
-35.957526 -31.007110 -5.330721 47.778668 0.711607 1.682600 0.053517 -0.002091 181044.000000 0 0 1
37.185375 -30.269610 -4.737721 48.181401 -0.683231 1.669286 0.045999 -0.002745 297520.000000 0 0 1
36.313875 -31.223910 -4.093921 48.066519 -0.710176 1.656072 0.025767 -0.005971 334645.000000 0 0 1
35.072275 -30.673010 -3.702921 46.739808 -0.718584 1.650104 0.021583 -0.007657 -123102.000000 0 0 1
35.021275 -29.735710 -2.453921 46.007867 -0.703957 1.624159 0.017732 -0.006686 -636306.000000 0 0 1
35.655975 -28.520210 -2.657721 45.736357 -0.674663 1.628939 0.044803 -0.008727 291568.000000 0 0 1
34.940375 -27.562210 -1.877421 44.542451 -0.667896 1.612958 0.038966 -0.004846 -188961.000000 0 0 1
35.233075 -26.088210 -2.078921 43.889477 -0.637359 1.618181 0.062837 -0.014710 -357036.000000 0 0 1
34.899975 -25.762510 -3.411621 43.512691 -0.635894 1.649282 0.060482 -0.013734 448170.000000 0 0 1
35.117175 -24.360510 -3.530321 42.884887 -0.606480 1.653210 0.064319 -0.024395 -198655.000000 0 0 1
34.607675 -23.896510 -4.917521 42.342843 -0.604320 1.687195 0.069893 -0.030841 -190826.000000 0 0 1
35.593175 -23.998610 -5.918521 43.334008 -0.593233 1.707804 0.081831 -0.033080 144339.000000 0 0 1
35.087475 -23.518210 -7.148621 42.840867 -0.590496 1.738445 0.064892 -0.036975 -211966.000000 0 0 1
36.206775 -23.278810 -8.160921 43.811347 -0.571397 1.758165 0.059721 -0.035005 -272909.000000 0 0 1
36.976275 -24.410210 -8.463821 45.108087 -0.583484 1.759549 0.055966 -0.021795 -167698.000000 0 0 1
-36.383926 -24.043210 -9.360121 44.603563 0.583944 1.782219 0.065612 -0.019198 152866.000000 0 0 1
-35.924726 -25.226110 -10.240421 45.075590 0.612197 1.799981 0.060378 -0.023611 480149.000000 0 0 1
-35.088626 -26.227510 -9.576921 44.842071 0.641877 1.786024 0.062050 -0.009049 637978.000000 0 0 1
-35.788626 -27.104310 -8.722321 45.733448 0.648185 1.762693 0.050067 -0.006660 373946.000000 0 0 1
-34.840926 -28.281010 -8.268321 45.629714 0.681845 1.753008 0.040671 0.001041 396126.000000 0 0 1
-34.437226 -29.145210 -9.315321 46.066702 0.702359 1.774414 0.041001 -0.000833 -62993.800000 0 0 1
-33.534026 -30.118010 -8.868021 45.937645 0.731783 1.765061 0.046856 -0.008228 -216198.000000 0 0 1
-33.035826 -31.058410 -9.974821 46.427230 0.754556 1.787333 0.048555 -0.004519 72784.300000 0 0 1
-32.233926 -30.379010 -10.941421 45.624828 0.755782 1.812969 0.039362 0.008927 298234.000000 0 0 1
-31.870326 -31.163310 -12.059221 46.176773 0.774182 1.835013 0.028130 0.010337 5116.800000 0 0 1
-32.129126 -30.339210 -13.302021 46.148588 0.756753 1.863188 0.008195 0.015398 535921.000000 0 0 1
-31.196326 -29.212610 -13.302021 44.760821 0.752572 1.872534 0.023343 0.016579 512427.000000 0 0 1
-31.404826 -28.458610 -14.477521 44.785647 0.736222 1.899971 0.009184 0.016564 -182757.000000 0 0 1
-30.347926 -27.407010 -14.866921 43.510529 0.734521 1.919506 0.026883 0.007971 -446179.000000 0 0 1
-29.141526 -28.032410 -15.170321 43.187766 0.766002 1.929717 0.044267 0.002947 -679817.000000 0 0 1
-28.242026 -27.176810 -15.858721 42.281084 0.766179 1.955278 0.068159 0.008967 70749.100000 0 0 1
-26.935126 -27.867810 -16.275421 42.035760 0.802415 1.968368 0.087702 -0.004514 -355458.000000 0 0 1
-27.029026 -28.758210 -17.380121 43.123908 0.816384 1.985619 0.080676 -0.009135 -46531.900000 0 0 1
-27.104026 -28.180810 -18.684221 43.334586 0.804873 2.016576 0.059769 -0.007234 1004880.000000 0 0 1
-25.700826 -27.761110 -19.318021 42.478201 0.823916 2.042916 0.072425 -0.007955 1224910.000000 0 0 1
-25.225126 -26.627910 -18.569921 41.111975 0.812445 2.039456 0.086339 -0.011089 247509.000000 0 0 1
-23.845626 -26.283110 -18.677921 40.103372 0.833984 2.055272 0.090737 -0.024887 618496.000000 0 0 1
-23.550126 -25.129410 -17.679521 38.712545 0.817829 2.045064 0.090678 -0.018711 -84906.300000 0 0 1
-23.709126 -25.379410 -16.290421 38.361633 0.819411 2.009376 0.095731 -0.020649 214125.000000 0 0 1
-23.376726 -24.167810 -15.652521 37.088485 0.802035 2.006482 0.100163 -0.017886 -6899.340000 0 0 1
-23.686326 -24.126210 -14.115321 36.638208 0.794598 1.966288 0.083654 -0.009143 618424.000000 0 0 1
-25.093226 -24.134710 -13.851321 37.470165 0.765930 1.949442 0.061424 0.004663 565426.000000 0 0 1
-25.356326 -23.838310 -12.500821 36.979438 0.754551 1.915638 0.057926 0.009246 318616.000000 0 0 1
-26.878826 -23.788210 -12.154021 37.895520 0.724475 1.897291 0.053667 0.018745 -146057.000000 0 0 1
-27.423626 -25.057610 -12.479521 39.187721 0.740346 1.894895 0.064894 0.014169 393455.000000 0 0 1
-28.755426 -25.232910 -12.001521 40.095022 0.720245 1.874784 0.046983 0.014774 1449680.000000 0 0 1
-29.973526 -24.398710 -12.636021 40.661755 0.683225 1.886788 0.052804 0.004997 -446309.000000 0 0 1
-30.116426 -23.052610 -12.195321 39.839023 0.653316 1.881906 0.057762 0.009410 174624.000000 0 0 1
-30.819126 -22.923110 -10.963621 39.943566 0.639518 1.848843 0.069217 0.003369 -445932.000000 0 0 1
-32.259526 -23.455210 -10.915921 41.351919 0.628669 1.837939 0.049746 -0.001388 -714944.000000 0 0 1
-33.322526 -22.642710 -11.406821 41.871215 0.596836 1.846710 0.068358 -0.016279 357911.000000 0 0 1
-33.409126 -22.343610 -12.804421 42.182458 0.589470 1.879211 0.063183 -0.007217 -884876.000000 0 0 1
-34.841226 -21.973610 -13.209021 43.257702 0.562672 1.881109 0.034241 -0.017737 -383604.000000 0 0 1
-35.709726 -23.056910 -13.065421 44.469212 0.573329 1.869005 0.042530 -0.017543 68010.400000 0 0 1
-37.046726 -22.656710 -13.384021 45.441373 0.548884 1.869764 0.057670 -0.030014 829969.000000 0 0 1
36.288775 -23.779110 -13.073121 45.312556 -0.580074 1.863467 0.055170 -0.018590 37558.600000 0 0 1
36.373075 -24.911910 -13.912221 46.229360 -0.600520 1.876474 0.040270 -0.003741 -92470.700000 0 0 1
35.526375 -26.004510 -13.613621 46.083495 -0.631867 1.870683 0.032972 -0.013717 97960.200000 0 0 1
35.547075 -27.218010 -14.563721 47.079895 -0.653467 1.885296 0.032291 -0.009424 79003.900000 0 0 1
34.458475 -27.138110 -15.442421 46.500880 -0.667109 1.909314 0.035827 -0.015291 -277745.000000 0 0 1
34.499375 -28.222110 -16.356621 47.478768 -0.685649 1.922507 0.034216 -0.003386 -21159.800000 0 0 1
33.498275 -28.007510 -17.483621 47.034371 -0.696362 1.951658 0.026847 -0.005416 69106.900000 0 0 1
32.139475 -27.883310 -17.137621 45.870719 -0.714607 1.953691 0.072492 -0.003207 -22125.500000 0 0 1
31.225675 -27.835110 -18.203721 45.620298 -0.728053 1.981252 0.062126 -0.007584 1248140.000000 0 0 1
29.722475 -27.963510 -17.738121 44.497464 -0.754916 1.980821 0.062624 -0.011885 929117.000000 0 0 1
29.224075 -26.843810 -17.094221 43.207049 -0.742970 1.977555 0.052890 -0.013352 -230108.000000 0 0 1
27.867275 -27.084310 -16.759521 42.320520 -0.771151 1.977968 0.090585 -0.017768 333521.000000 0 0 1
27.313675 -26.019810 -15.801821 40.899448 -0.761143 1.967476 0.081903 -0.022793 -64055.500000 0 0 1
27.115975 -24.709510 -16.304221 40.145530 -0.738997 1.989009 0.083796 -0.028938 -14979.000000 0 0 1
27.344375 -23.770210 -15.258221 39.313497 -0.715587 1.969383 0.083753 -0.029181 -141302.000000 0 0 1
26.824675 -22.293410 -15.398521 38.127074 -0.693406 1.986544 0.093238 -0.039388 238314.000000 0 0 1
25.426475 -22.084510 -15.438221 37.048210 -0.715173 2.000615 0.100586 -0.032600 84403.300000 0 0 1
25.083975 -20.706810 -15.633021 36.088351 -0.690097 2.018823 0.098717 -0.040417 603422.000000 0 0 1
23.571375 -20.382910 -15.872021 34.971328 -0.712985 2.041887 0.086067 -0.040869 440718.000000 0 0 1
22.792375 -20.665710 -14.734621 34.112651 -0.736501 2.017439 0.085014 -0.044396 -49157.600000 0 0 1
21.450275 -20.225610 -14.829221 33.001445 -0.756021 2.036835 0.075731 -0.040040 305095.000000 0 0 1
21.195775 -18.832110 -14.193921 31.707674 -0.726416 2.034931 0.060163 -0.035225 -311437.000000 0 0 1
21.006375 -18.928110 -12.821021 31.047056 -0.733403 1.996492 0.070189 -0.047437 29690.400000 0 0 1
20.921875 -17.666910 -12.182321 29.970877 -0.701247 1.989386 0.085174 -0.055603 10328.700000 0 0 1
19.979275 -17.682810 -10.949321 28.839917 -0.724498 1.960224 0.093998 -0.051326 -283314.000000 0 0 1
20.571675 -18.271110 -9.861121 29.227880 -0.726240 1.914937 0.108054 -0.058031 -345690.000000 0 0 1
19.672575 -18.437410 -8.804821 28.363236 -0.752999 1.886442 0.091411 -0.051767 -156910.000000 0 0 1
20.274275 -19.201010 -7.608921 28.941677 -0.758217 1.836829 0.085401 -0.044847 506306.000000 0 0 1
21.221875 -18.401310 -6.865121 28.915499 -0.714333 1.810505 0.089713 -0.045408 437932.000000 0 0 1
22.000775 -19.200810 -6.003721 29.811908 -0.717545 1.773570 0.098853 -0.035194 -402204.000000 0 0 1
23.337375 -18.636410 -5.528821 30.372960 -0.673865 1.753848 0.093131 -0.029246 -602058.000000 0 0 1
24.292975 -18.618710 -6.559421 31.302252 -0.653930 1.781912 0.082110 -0.044555 -1020060.000000 0 0 1
25.253375 -17.710610 -6.214221 31.464507 -0.611609 1.769603 0.092351 -0.038374 -1820230.000000 0 0 1
26.274975 -17.569610 -7.344821 32.450145 -0.589397 1.799117 0.087614 -0.052638 -547531.000000 0 0 1
27.318775 -18.509210 -7.275421 33.791094 -0.595484 1.787801 0.092628 -0.061402 26162.500000 0 0 1
27.000275 -19.737310 -7.847321 34.353409 -0.631232 1.801260 0.091690 -0.071271 322685.000000 0 0 1
28.235475 -20.731110 -7.736421 35.873014 -0.633327 1.788165 0.079006 -0.072617 349290.000000 0 0 1
29.244875 -20.400310 -8.607721 36.681442 -0.609092 1.807667 0.078453 -0.064009 -971503.000000 0 0 1
30.401375 -21.154310 -8.381221 37.973587 -0.607924 1.793341 0.074571 -0.061328 -101644.000000 0 0 1
-30.495155 29.921497 4.802979 42.992082 -0.775903 1.458845 0.067605 -0.006643 180607.000000 0 0 1
-29.953485 30.687997 3.756279 43.047347 -0.797510 1.483426 0.060511 -0.003226 -302750.000000 0 0 1
-28.734805 31.216397 4.226879 42.638234 -0.826768 1.471500 0.055203 0.002800 -123665.000000 0 0 1
-28.111565 32.346097 3.442079 42.992767 -0.855325 1.490649 0.061948 -0.007330 -242465.000000 0 0 1
-27.375235 31.944297 2.278979 42.131168 -0.862271 1.516677 0.053640 -0.002708 181879.000000 0 0 1
-27.051525 33.052897 1.461979 42.736593 -0.884917 1.536581 0.068267 -0.015462 2671.490000 0 0 1
-25.758125 33.812397 1.844179 42.545977 -0.919789 1.527437 0.070109 -0.011212 54111.100000 0 0 1
-24.548425 33.166097 1.467279 41.288837 -0.933619 1.535252 0.063377 -0.012264 463548.000000 0 0 1
-23.459825 33.807097 2.171779 41.206793 -0.964154 1.518068 0.057166 -0.011795 227121.000000 0 0 1
-22.093125 33.216597 1.841879 39.935461 -0.983863 1.524659 0.061165 -0.016524 -346868.000000 0 0 1
-21.675025 33.786897 0.612879 40.146441 -1.000404 1.555530 0.084874 -0.030449 460068.000000 0 0 1
-20.278425 33.572797 0.399779 39.223807 -1.027431 1.560604 0.093910 -0.031412 252054.000000 0 0 1
-19.674725 -33.708910 -0.827621 39.039344 1.042474 1.591998 0.104351 -0.029796 85563.900000 0 0 1
-19.549725 -32.299510 -0.737521 37.762336 1.026515 1.590328 0.105020 -0.038300 446822.000000 0 0 1
-18.654125 -31.916510 0.316579 36.969449 1.041877 1.562233 0.103156 -0.031945 -184595.000000 0 0 1
-18.473725 -30.377510 0.381479 35.555831 1.024414 1.560067 0.101352 -0.040375 187686.000000 0 0 1
-17.416525 -29.898710 -0.455821 34.604565 1.043331 1.583969 0.092363 -0.029784 432758.000000 0 0 1
-17.534425 -28.498310 -0.551921 33.465121 1.019218 1.587289 0.079833 -0.027255 210856.000000 0 0 1
-16.480725 -27.829910 -1.484421 32.377796 1.036136 1.616659 0.072800 -0.023620 -61066.700000 0 0 1
-16.723425 -28.170610 -2.775821 32.877977 1.035061 1.655325 0.072751 -0.018535 -147615.000000 0 0 1
-15.913925 -27.494410 -3.714921 31.984312 1.046107 1.687207 0.071407 -0.010184 -199867.000000 0 0 1
-16.336125 -27.470710 -5.231321 32.386349 1.034302 1.733036 0.101316 -0.015352 616154.000000 0 0 1
-17.510825 -26.675710 -5.488221 32.378126 0.989912 1.741123 0.096899 -0.007057 564128.000000 0 0 1
-17.803625 -26.600310 -6.884521 32.740528 0.980972 1.782653 0.108798 -0.009231 245688.000000 0 0 1
-18.511125 -25.264510 -7.209821 32.139364 0.938464 1.797052 0.085778 0.000464 1968.880000 0 0 1
-17.618825 -24.178810 -7.096121 30.747240 0.941075 1.803685 0.079540 0.001166 272512.000000 0 0 1
-18.164825 -22.982510 -7.653121 30.277498 0.901951 1.826334 0.070991 0.001756 -349624.000000 0 0 1
-17.184825 -21.845110 -7.544921 28.800223 0.904238 1.835864 0.087234 0.002487 299551.000000 0 0 1
-15.949325 -22.099810 -8.191621 28.458482 0.945658 1.862772 0.116714 -0.013759 42104.100000 0 0 1
-14.815625 -21.456310 -7.641221 27.171018 0.966473 1.855869 0.136378 -0.031501 765079.000000 0 0 1
-13.639125 -21.365910 -8.639321 26.779949 1.002648 1.899276 0.109648 -0.023313 55544.300000 0 0 1
-14.031925 -20.430110 -9.606121 26.581231 0.968967 1.940552 0.132766 -0.016264 -278086.000000 0 0 1
-13.289925 -20.398610 -10.808121 26.637208 0.993359 1.988599 0.117543 -0.012080 -71816.900000 0 0 1
-13.826325 -19.416510 -11.860821 26.624184 0.952001 2.032518 0.130467 -0.015822 -518219.000000 0 0 1
-15.045825 -19.767410 -12.436821 27.781322 0.920202 2.034953 0.122495 -0.005338 -588952.000000 0 0 1
-15.417525 -18.942110 -13.553521 27.932088 0.887620 2.077424 0.117094 -0.015592 -280276.000000 0 0 1
-16.606925 -19.553010 -14.251621 29.346530 0.866692 2.077883 0.119122 -0.015350 -1497440.000000 0 0 1
-17.812225 -19.510410 -13.604521 29.715559 0.830867 2.046343 0.117332 -0.016430 -1452950.000000 0 0 1
-18.826225 -19.916310 -14.483421 30.997671 0.813527 2.056965 0.090321 -0.009759 44982.400000 0 0 1
-20.160425 -19.338310 -13.871921 31.190434 0.764587 2.031691 0.060998 0.007893 952794.000000 0 0 1
-21.308625 -19.911010 -14.515221 32.576026 0.751505 2.032618 0.070738 -0.002449 724881.000000 0 0 1
-22.575425 -19.506110 -13.993221 32.953731 0.712590 2.009352 0.056457 0.003216 916024.000000 0 0 1
-23.707125 -20.264910 -14.786821 34.515857 0.707276 2.013525 0.071494 -0.004393 16171.500000 0 0 1
-23.871625 -19.702410 -16.044421 34.863489 0.690007 2.049025 0.067220 -0.016366 682493.000000 0 0 1
-24.662425 -20.553210 -16.915021 36.287568 0.694767 2.055717 0.093525 -0.025939 84780.900000 0 0 1
-24.783125 -19.994910 -18.354521 36.754430 0.678871 2.093682 0.093615 -0.018996 188608.000000 0 0 1
-23.687425 -20.156210 -19.249521 36.577465 0.705031 2.125001 0.067268 -0.020197 430147.000000 0 0 1
-24.049125 -19.652610 -20.526421 37.227939 0.685133 2.154804 0.081481 -0.023030 577399.000000 0 0 1
-22.829125 -18.891810 -21.173121 36.419369 0.691304 2.191208 0.055348 -0.018986 1118840.000000 0 0 1
-21.776625 -19.769910 -21.624221 36.505858 0.737135 2.204768 0.041545 -0.011876 -235242.000000 0 0 1
-20.764225 -18.986110 -22.151221 35.809244 0.740696 2.237743 0.036544 -0.009144 -887710.000000 0 0 1
-19.461125 -19.762910 -22.290521 35.583357 0.793092 2.247762 0.046418 -0.006885 -754383.000000 0 0 1
-19.495425 -20.842110 -23.265421 36.820442 0.818771 2.254749 0.029758 -0.001266 -1089020.000000 0 0 1
-18.272925 -21.477110 -23.282621 36.568381 0.865833 2.260991 0.033071 -0.004172 -864303.000000 0 0 1
-18.205025 -22.810310 -24.017221 37.796297 0.897212 2.259373 0.043909 -0.006111 -227072.000000 0 0 1
-18.021225 -22.752510 -25.395381 38.566392 0.900919 2.289600 0.038610 -0.005980 251185.000000 0 0 1
-18.175125 -23.988910 -25.969311 39.751831 0.922419 2.282713 0.057530 -0.018815 -215316.000000 0 0 1
-18.090025 -23.899210 -27.516841 40.689037 0.922875 2.313486 0.070631 -0.005396 -1165820.000000 0 0 1
-16.813125 -23.900110 -28.014951 40.481278 0.957742 2.335117 0.049845 -0.002296 -1061020.000000 0 0 1
-16.723525 -23.596610 -29.416761 41.253147 0.954238 2.364677 0.062775 -0.006929 -63426.800000 0 0 1
-15.234125 -23.482510 -29.779391 40.869536 0.995305 2.387138 0.038005 -0.011596 258211.000000 0 0 1
-14.496925 -24.705910 -29.580541 41.177071 1.040154 2.372259 0.059257 -0.011149 -384227.000000 0 0 1
-13.144025 -24.532010 -29.854321 40.815014 1.078928 2.391249 0.084221 -0.013115 -495552.000000 0 0 1
-12.282925 -25.779110 -29.644841 41.161260 1.126151 2.374904 0.102295 -0.018438 -861172.000000 0 0 1
-12.613525 -26.888610 -30.413201 42.509542 1.132170 2.368056 0.108000 -0.017027 -90086.700000 0 0 1
-11.783725 -28.030310 -30.327911 42.945740 1.172835 2.354901 0.118329 -0.031313 -174972.000000 0 0 1
-10.424125 -27.889510 -31.017371 42.994935 1.213109 2.376646 0.115314 -0.033506 -404088.000000 0 0 1
-9.506225 -27.038910 -30.385681 41.770331 1.232718 2.385389 0.119450 -0.029118 207787.000000 0 0 1
-8.455625 -26.559010 -31.231671 41.860433 1.262572 2.412967 0.103091 -0.025220 269703.000000 0 0 1
-7.689625 -25.308910 -30.691581 40.517211 1.275829 2.430264 0.116635 -0.026099 -80507.800000 0 0 1
-8.294225 -24.010910 -30.713351 39.857595 1.238193 2.450542 0.126070 -0.019185 427957.000000 0 0 1
-9.018225 -23.747410 -29.461721 38.900654 1.207862 2.430054 0.115985 -0.013009 438378.000000 0 0 1
-9.556025 -22.290010 -29.462661 38.160327 1.165785 2.452897 0.112323 -0.027570 420641.000000 0 0 1
-10.415625 -21.879510 -30.533981 38.981049 1.126496 2.470758 0.096427 -0.024187 323028.000000 0 0 1
-10.923225 -20.551110 -30.294661 38.202506 1.082256 2.486517 0.092527 -0.024119 258529.000000 0 0 1
-11.627025 -19.998210 -31.565431 39.134288 1.044163 2.509161 0.074678 -0.019355 150476.000000 0 0 1
-12.189825 -18.707610 -31.444421 38.565763 0.993299 2.524122 0.066061 -0.020874 266713.000000 0 0 1
-12.702325 -18.202710 -32.718491 39.537164 0.961531 2.545504 0.055460 -0.018080 -297150.000000 0 0 1
-13.599025 -16.913910 -32.599221 39.162776 0.893612 2.554227 0.062954 -0.021118 -221272.000000 0 0 1
-13.106425 -15.605410 -32.709321 38.538382 0.872216 2.584407 0.073323 -0.023731 -48888.700000 0 0 1
-12.242825 -15.046110 -31.693311 37.158285 0.887765 2.592363 0.066056 -0.017971 382217.000000 0 0 1
-11.755625 -13.612410 -31.950511 36.665073 0.858462 2.628877 0.053646 -0.036659 -672606.000000 0 0 1
-10.900125 -13.494410 -33.039441 37.316437 0.891347 2.658119 0.064608 -0.029515 -482748.000000 0 0 1
-11.381925 -13.293810 33.502068 37.797648 0.862724 0.481388 0.063359 -0.020388 -800487.000000 0 0 1
-12.114025 -11.979610 33.265084 37.374142 0.779819 0.473328 0.057458 -0.014142 -393171.000000 0 0 1
-13.448825 -12.013510 33.711799 38.231933 0.729088 0.491193 0.049035 -0.015590 -466125.000000 0 0 1
-14.104325 -10.972910 32.946709 37.480960 0.661170 0.496983 0.052375 -0.023394 695272.000000 0 0 1
-15.329125 -10.433610 33.756135 38.513880 0.597614 0.502322 0.069376 -0.022434 486949.000000 0 0 1
-14.911325 -9.709410 -33.011471 37.501699 0.577179 2.647219 0.072702 -0.019494 177200.000000 0 0 1
-16.013425 -9.245510 -32.258811 37.182524 0.523606 2.621111 0.082093 -0.032844 376183.000000 0 0 1
-15.454225 -8.373110 -31.107391 35.729705 0.496526 2.627280 0.077195 -0.030287 203143.000000 0 0 1
-14.840625 -7.162010 -31.556811 35.600152 0.449627 2.660357 0.079129 -0.033827 519446.000000 0 0 1
-15.742425 -6.122210 -31.974541 36.161812 0.370900 2.655591 0.086471 -0.039531 243619.000000 0 0 1
-16.248725 -5.147910 -30.877741 35.269774 0.306815 2.637210 0.092921 -0.049929 305431.000000 0 0 1
-17.049825 -5.774610 -29.854651 34.861768 0.326564 2.598999 0.109735 -0.051381 -41560.300000 0 0 1
-17.378925 -4.849510 -28.818591 34.000823 0.272123 2.582214 0.113973 -0.055068 256352.000000 0 0 1
-16.216525 -4.386310 -27.868481 32.540246 0.264163 2.599113 0.100480 -0.052546 469091.000000 0 0 1
-15.361125 -3.518010 -28.561841 32.620842 0.225138 2.637411 0.095935 -0.051069 1212710.000000 0 0 1
-14.153325 -3.038610 -27.859581 31.395955 0.211482 2.662388 0.081585 -0.045550 1667530.000000 0 0 1
-13.642025 -1.725610 -28.588181 31.723283 0.125824 2.693266 0.064296 -0.034943 140756.000000 0 0 1
-13.233925 -1.895610 -29.931771 32.781718 0.142271 2.721529 0.072852 -0.039252 171893.000000 0 0 1
-13.326025 -0.705610 -30.702961 33.477644 0.052900 2.731586 0.068134 -0.046476 -94605.800000 0 0 1
-13.584425 -0.912610 -32.239051 34.996084 0.067080 2.741998 0.063313 -0.043869 160458.000000 0 0 1
-14.873425 -1.430610 -32.568381 35.832455 0.095891 2.711453 0.071951 -0.044867 620883.000000 0 0 1
-15.081125 -1.613610 33.904582 37.142493 0.106590 0.420648 0.052966 -0.035455 -397799.000000 0 0 1
-16.566825 -1.916610 33.661542 37.566375 0.115178 0.459994 0.052093 -0.040258 -186399.000000 0 0 1
-16.822725 -2.260610 32.300650 36.488991 0.133578 0.483837 0.061834 -0.042156 38842.900000 0 0 1
-18.117025 -1.992610 31.813932 36.665016 0.109545 0.520256 0.059825 -0.030354 -178065.000000 0 0 1
-18.140625 -1.899610 30.217162 35.295434 0.104336 0.543080 0.066291 -0.025867 -101303.000000 0 0 1
-17.456325 -0.771610 29.722202 34.477935 0.044174 0.531467 0.064703 -0.010948 -28612.000000 0 0 1
-17.488525 -0.699610 28.272392 33.251558 0.039983 0.554322 0.067092 -0.014944 -176354.000000 0 0 1
-16.822625 0.604390 27.793132 32.493449 -0.035912 0.544579 0.052134 -0.012462 -71791.500000 0 0 1
-17.431625 1.780390 28.265072 33.255761 -0.101783 0.554944 0.059052 -0.011676 382031.000000 0 0 1
-18.699425 2.114390 27.686022 33.476185 -0.112594 0.596981 0.068123 -0.014391 397115.000000 0 0 1
-18.711925 2.964390 26.410012 32.502500 -0.157117 0.622277 0.062513 -0.013351 -517274.000000 0 0 1
-18.418925 4.338390 26.615272 32.656564 -0.231323 0.618058 0.057231 -0.010679 135514.000000 0 0 1
-18.913425 5.143390 25.537542 32.192207 -0.265523 0.654613 0.054985 -0.001976 -485602.000000 0 0 1
-18.741925 6.674390 25.587792 32.412071 -0.342117 0.660880 0.056351 0.002025 1037280.000000 0 0 1
-17.434425 7.238390 25.345292 31.602806 -0.393522 0.640169 0.035011 0.001176 830859.000000 0 0 1
-16.882225 7.026390 24.071572 30.229461 -0.394394 0.649651 0.032874 -0.004740 -945341.000000 0 0 1
-15.757925 7.896390 23.598002 29.453878 -0.464532 0.641524 0.023783 -0.009140 -654810.000000 0 0 1
-14.644225 7.747390 24.440172 29.526216 -0.486609 0.595720 0.021058 -0.008413 -516365.000000 0 0 1
-13.493025 8.237390 23.807532 28.578225 -0.548099 0.586170 0.039762 -0.021307 -264041.000000 0 0 1
-12.204025 8.196390 24.652722 28.703236 -0.591420 0.537712 0.035777 -0.010243 176555.000000 0 0 1
-11.101325 8.766390 23.930222 27.798283 -0.668411 0.533854 0.033779 -0.021861 189143.000000 0 0 1
-9.939825 8.851390 24.718842 28.074337 -0.727540 0.493926 0.033401 -0.021322 -159124.000000 0 0 1
-9.727725 10.112390 25.635202 29.224180 -0.804784 0.500815 0.037641 -0.027474 -34001.900000 0 0 1
-10.736425 10.254390 26.680622 30.533243 -0.762438 0.507788 0.014441 -0.021055 926364.000000 0 0 1
-10.753725 11.574390 27.245612 31.494960 -0.822136 0.525490 0.032836 -0.026530 -439845.000000 0 0 1
-11.497125 12.618390 26.390142 31.430038 -0.831860 0.574163 0.018288 -0.024740 413866.000000 0 0 1
-12.875025 12.334390 26.112822 31.619345 -0.763956 0.599089 0.012706 -0.026317 785127.000000 0 0 1
-13.037225 11.883390 24.787532 30.423773 -0.739131 0.618512 0.014052 -0.021324 151773.000000 0 0 1
-14.527225 11.756390 24.339202 30.686312 -0.680366 0.654813 -0.002368 -0.016711 111678.000000 0 0 1
-15.152225 12.971390 23.963302 31.178306 -0.708008 0.694164 0.001631 -0.014040 1022650.000000 0 0 1
-16.499325 12.769390 23.468052 31.401187 -0.658644 0.726714 0.020745 -0.007554 1082770.000000 0 0 1
-16.568725 12.211390 22.047262 30.161606 -0.635138 0.751052 0.015572 -0.002091 -508142.000000 0 0 1
-16.213825 10.860390 21.861862 29.304901 -0.590184 0.728740 0.021329 -0.003445 -7448.980000 0 0 1
-16.164325 10.542390 20.460562 28.125825 -0.577921 0.756176 0.033891 -0.014443 -491604.000000 0 0 1
-16.421825 9.035390 20.189262 27.548520 -0.503002 0.748277 0.025189 -0.009540 335968.000000 0 0 1
-17.802125 8.863390 20.443262 28.520209 -0.461953 0.771595 0.046211 -0.009104 -338592.000000 0 0 1
-18.178325 7.481390 20.280562 28.244007 -0.390428 0.769802 0.038916 -0.001647 -188526.000000 0 0 1
-19.678425 7.198390 20.439362 29.271569 -0.350682 0.797823 0.074594 -0.003873 -258478.000000 0 0 1
-20.107525 7.675390 21.648062 30.526428 -0.364647 0.782493 0.065244 -0.012672 -445721.000000 0 0 1
-21.449825 7.391390 21.947462 31.566101 -0.331847 0.801979 0.058610 -0.018429 -331090.000000 0 0 1
-21.794625 8.110390 23.273142 32.900202 -0.356250 0.785003 0.082786 -0.015006 -580435.000000 0 0 1
-21.908325 9.579390 23.209342 33.322860 -0.412200 0.800289 0.079399 -0.010062 482724.000000 0 0 1
-20.772125 10.448390 23.164342 32.821286 -0.466045 0.787284 0.066375 -0.003968 647478.000000 0 0 1
-19.572325 10.364390 24.155842 32.771958 -0.487002 0.742044 0.068585 -0.010918 305102.000000 0 0 1
-19.978825 10.651390 25.482432 34.087533 -0.489802 0.726417 0.074854 -0.010941 -20283.200000 0 0 1
-18.976225 10.318390 26.395802 34.107253 -0.498035 0.685811 0.075596 -0.006652 -13398.200000 0 0 1
-31.911185 -14.152403 20.884062 40.678720 0.417430 1.031665 0.071689 -0.017264 -64873.800000 0 0 1
-31.185295 -15.340803 21.081862 40.648589 0.457166 1.025540 0.064370 -0.012213 114652.000000 0 0 1
-31.812045 -16.404003 20.404762 41.200144 0.476092 1.052663 0.060172 -0.007888 -79014.900000 0 0 1
-31.500985 -16.509703 18.863562 40.258121 0.482742 1.083130 0.063074 -0.010047 250256.000000 0 0 1
-32.097715 -15.515503 18.058062 39.963580 0.450266 1.101944 0.069520 -0.020319 -131028.000000 0 0 1
-31.494245 -15.557703 16.828562 38.950354 0.458825 1.124030 0.070796 -0.015913 -573369.000000 0 0 1
-32.000035 -14.244303 16.002362 38.509454 0.418800 1.142256 0.071024 -0.023468 -274891.000000 0 0 1
-33.263925 -14.363603 15.424062 39.378973 0.407622 1.168337 0.087061 -0.022737 638768.000000 0 0 1
-34.415548 -14.377203 16.314162 40.709775 0.395717 1.158469 0.087200 -0.025655 136785.000000 0 0 1
-34.868433 -12.997103 16.661762 40.771885 0.356794 1.149813 0.077102 -0.027703 -584712.000000 0 0 1
-36.164505 -13.130903 17.234862 42.158422 0.348287 1.149645 0.060681 -0.028064 246624.000000 0 0 1
-36.595115 -11.831103 17.615762 42.302394 0.312691 1.141287 0.054324 -0.024544 92770.300000 0 0 1
36.535306 -11.810303 18.504062 42.622907 -0.312655 1.121719 0.052025 -0.006665 -122125.000000 0 0 1
36.831986 -12.224903 19.855862 43.592416 -0.320469 1.097875 0.052097 -0.009002 312581.000000 0 0 1
36.019236 -11.663703 20.898362 43.245449 -0.313163 1.066433 0.050186 -0.011477 -709798.000000 0 0 1
36.531636 -12.093803 22.326262 44.489128 -0.319694 1.045076 0.040733 -0.011987 324552.000000 0 0 1
-36.605135 -11.486803 22.640662 44.547527 0.304072 1.037661 0.040437 -0.009096 636961.000000 0 0 1
-35.455797 -12.246103 22.265462 43.621456 0.332563 1.035118 0.039171 -0.015050 620917.000000 0 0 1
-34.154065 -11.375703 22.403862 42.400941 0.321514 1.014104 0.050846 -0.020545 527409.000000 0 0 1
-34.088895 -10.279503 21.493762 41.589695 0.292878 1.027682 0.074259 -0.026667 -594748.000000 0 0 1
-32.798005 -9.761303 21.437362 40.380102 0.289271 1.011147 0.089432 -0.028246 -651900.000000 0 0 1
-32.597565 -8.508703 20.536062 39.455407 0.255326 1.023374 0.108739 -0.025358 27498.600000 0 0 1
-32.917035 -8.620803 19.168662 39.054924 0.256142 1.057774 0.105434 -0.022654 93522.900000 0 0 1
-34.314648 -8.620003 18.980462 40.150436 0.246112 1.078406 0.075868 -0.023271 -443037.000000 0 0 1
-34.656828 -8.557003 17.467562 39.742091 0.242065 1.115729 0.079379 -0.026012 117004.000000 0 0 1
-36.054664 -8.611503 17.226962 40.876216 0.234453 1.135761 0.022535 -0.029726 266203.000000 0 0 1
-36.291455 -8.510303 15.841862 40.502587 0.230337 1.168935 0.058371 -0.030497 325938.000000 0 0 1
36.585636 -8.523103 15.485962 40.632094 -0.228881 1.179782 0.066149 -0.034739 130858.000000 0 0 1
35.958096 -9.748503 15.702962 40.430199 -0.264744 1.171905 0.062750 -0.020058 -679483.000000 0 0 1
34.582426 -9.495203 15.643562 39.125747 -0.267964 1.159467 0.068210 -0.021674 -788279.000000 0 0 1
33.742226 -10.767703 15.763162 38.768009 -0.308901 1.152064 0.070251 -0.024376 -342007.000000 0 0 1
33.613996 -11.241003 17.088062 39.347970 -0.322723 1.121557 0.058587 -0.032538 -444092.000000 0 0 1
32.595246 -12.181503 17.098962 38.771299 -0.357648 1.114060 0.080952 -0.039037 -194948.000000 0 0 1
32.202116 -12.799603 18.490262 39.277168 -0.378330 1.080640 0.074297 -0.036021 10316.900000 0 0 1
33.249466 -13.627503 18.929862 40.614967 -0.388974 1.085940 0.080879 -0.029946 -101639.000000 0 0 1
33.163436 -13.760203 20.327462 41.259695 -0.393303 1.055640 0.080681 -0.027782 -348229.000000 0 0 1
34.092056 -14.869203 20.827362 42.627931 -0.411276 1.060329 0.073599 -0.018086 -141793.000000 0 0 1
33.952356 -15.017103 22.218662 43.265978 -0.416432 1.031495 0.072122 -0.015620 -295921.000000 0 0 1
34.489946 -16.257703 22.588962 44.318512 -0.440487 1.035965 0.072580 -0.005608 -240416.000000 0 0 1
35.029226 -16.204803 23.986802 45.442370 -0.433289 1.014728 0.076967 -0.010016 -1194430.000000 0 0 1
36.061386 -15.333303 24.018732 45.961215 -0.402040 1.020914 0.074521 -0.003512 -1179440.000000 0 0 1
36.323666 -15.119103 25.395272 46.828579 -0.394421 0.997621 0.068510 -0.000157 -124316.000000 0 0 1
-36.853265 -14.217503 25.710022 47.130731 0.368194 0.993805 0.057463 -0.000213 -714551.000000 0 0 1
-35.623516 -14.788903 25.432332 46.201191 0.393493 0.987870 0.021618 0.004640 -649027.000000 0 0 1
-34.609685 -13.877703 25.806832 45.347696 0.381349 0.965400 0.024489 -0.000798 -345900.000000 0 0 1
-33.156755 -14.315803 25.772562 44.368205 0.407584 0.950988 0.037330 -0.013548 -856870.000000 0 0 1
-32.677035 -14.481003 24.428842 43.292683 0.417147 0.971245 0.035831 -0.009425 -238000.000000 0 0 1
-31.295065 -14.712003 24.396132 42.320154 0.439448 0.956399 0.048386 -0.022787 -134423.000000 0 0 1
-30.814855 -16.186803 24.785402 42.730365 0.483676 0.952016 0.047692 -0.015284 -566766.000000 0 0 1
-31.004835 -16.510103 26.123702 43.775919 0.489309 0.931340 0.052825 -0.023019 195352.000000 0 0 1
-30.587445 -17.842303 26.400862 44.169504 0.528065 0.930146 0.046210 -0.028006 -216992.000000 0 0 1
-30.188235 -18.169203 27.812482 44.888569 0.541789 0.902577 0.054336 -0.032254 -125313.000000 0 0 1
-29.055355 -17.451303 28.275162 44.138945 0.540877 0.875524 0.050214 -0.033080 -22876.700000 0 0 1
-28.669325 -17.919803 29.545292 44.899597 0.558636 0.852596 0.068698 -0.042590 -138114.000000 0 0 1
-27.548055 -17.014403 30.080232 44.195086 0.553279 0.822182 0.075321 -0.045157 -137820.000000 0 0 1
-27.794955 -15.691703 30.540482 44.175900 0.513947 0.807457 0.082313 -0.048815 392150.000000 0 0 1
-26.616325 -14.928503 30.194722 42.930295 0.511156 0.790707 0.072357 -0.044206 677003.000000 0 0 1
-26.416595 -13.562203 30.924542 42.873035 0.474308 0.765111 0.080871 -0.039641 -208651.000000 0 0 1
-25.919645 -13.627503 32.239296 43.553520 0.484042 0.737395 0.086405 -0.040497 -16111.700000 0 0 1
-25.658545 -12.308603 32.628610 43.295368 0.447282 0.717232 0.083762 -0.030351 166590.000000 0 0 1
-24.732625 -12.201703 33.893192 43.695913 0.458309 0.683035 0.094100 -0.030348 760792.000000 0 0 1
-23.396625 -12.696903 33.835061 43.051420 0.497207 0.666610 0.061018 -0.026451 419682.000000 0 0 1
-23.270125 -14.098303 -33.797261 43.387967 0.544713 2.463793 0.067608 -0.033327 -204117.000000 0 0 1
-23.283325 -14.528603 -32.331331 42.408826 0.557874 2.437768 0.070654 -0.034246 280959.000000 0 0 1
-22.071825 -14.212003 -31.631061 41.105602 0.572074 2.448866 0.055365 -0.024319 645937.000000 0 0 1
-22.124725 -14.871603 -30.332081 40.381966 0.591804 2.420568 0.068844 -0.022824 549162.000000 0 0 1
-20.746425 -14.781803 -29.594801 39.048279 0.619065 2.430889 0.067518 -0.021377 507892.000000 0 0 1
-20.497125 -13.655603 -28.770471 37.872782 0.587694 2.433588 0.066113 -0.027171 82760.200000 0 0 1
-21.060425 -13.695303 -27.477301 37.230430 0.576576 2.400948 0.074054 -0.014479 -195150.000000 0 0 1
-20.620025 -12.454503 -26.666711 35.936243 0.543356 2.406929 0.071369 -0.016319 992853.000000 0 0 1
-19.302625 -12.727103 -26.121041 34.883797 0.582917 2.417048 0.070363 -0.027833 1075160.000000 0 0 1
-18.744325 -11.575603 -25.499661 33.698324 0.553226 2.429053 0.076363 -0.033071 2191.520000 0 0 1
-17.340225 -11.748903 -24.919421 32.552998 0.595501 2.442619 0.086932 -0.038751 -1310110.000000 0 0 1
-17.391025 -12.367403 -23.652321 31.856439 0.618161 2.407540 0.091597 -0.031199 144638.000000 0 0 1
-16.130125 -12.677203 -23.078521 30.878966 0.666105 2.414916 0.095745 -0.037020 216380.000000 0 0 1
-15.225225 -13.603703 -23.941421 31.465217 0.729211 2.435473 0.079384 -0.029388 -680527.000000 0 0 1
-14.321025 -12.859203 -24.765421 31.365219 0.731667 2.480924 0.085315 -0.042820 408999.000000 0 0 1
-13.627625 -13.657403 -25.710911 32.144794 0.786490 2.497836 0.076854 -0.037304 242898.000000 0 0 1
-12.549725 -12.894203 -26.516451 32.044941 0.798936 2.545396 0.073025 -0.034175 463740.000000 0 0 1
-13.222625 -12.069503 -27.466941 32.786332 0.739838 2.563957 0.088103 -0.040865 78325.600000 0 0 1
-12.286325 -11.531503 -28.327141 32.959919 0.753717 2.604974 0.088121 -0.044637 -198102.000000 0 0 1
-13.026725 -10.749603 -29.442511 33.942760 0.689917 2.620783 0.059402 -0.037691 22055.900000 0 0 1
-12.235025 -9.732303 -29.995691 33.825361 0.671958 2.661130 0.059925 -0.030958 -127807.000000 0 0 1
-11.839525 -10.097303 -31.329001 34.980511 0.706145 2.680604 0.067195 -0.020598 202766.000000 0 0 1
-11.024625 -8.950203 -31.989521 34.999685 0.681917 2.723819 0.056581 -0.017279 636463.000000 0 0 1
-9.728325 -8.677503 -31.466351 34.059809 0.728368 2.748831 0.044875 -0.015699 198430.000000 0 0 1
-9.255425 -7.445803 -31.972231 34.107571 0.677467 2.785867 0.041160 -0.015898 156206.000000 0 0 1
-7.729325 -7.193003 -31.739191 33.449335 0.749473 2.820444 0.046249 -0.013419 337310.000000 0 0 1
-7.364725 -6.910103 -30.367721 32.002924 0.753561 2.820543 0.033879 -0.012457 -60960.100000 0 0 1
-7.604425 -5.585303 -29.902971 31.356189 0.633495 2.835952 0.038887 -0.016018 -550057.000000 0 0 1
-6.728325 -4.502903 -30.538041 31.593013 0.589786 2.882440 0.026346 -0.014556 9392.610000 0 0 1
-5.352225 -4.582903 -30.196901 31.008098 0.708118 2.912352 0.045133 -0.017572 53959.700000 0 0 1
-4.748825 -3.328403 -30.515271 31.061413 0.611323 2.953793 0.050122 -0.022501 482457.000000 0 0 1
-3.245825 -3.303503 -30.066871 30.421460 0.794205 2.988762 0.048198 -0.012508 -575506.000000 0 0 1
-2.476525 -4.151903 -30.918521 31.294191 1.032969 2.986489 0.062733 -0.020697 161927.000000 0 0 1
-1.080825 -3.944403 -30.787821 31.058275 1.303346 3.009527 0.080100 -0.019075 491195.000000 0 0 1
-0.534525 -2.480203 -31.132291 31.235503 1.358526 3.060277 0.086054 -0.016825 -445503.000000 0 0 1
0.899775 -2.334303 -31.118691 31.219089 -1.202889 3.061373 0.093836 -0.009957 951631.000000 0 0 1
1.258475 -0.975003 -31.517361 31.557542 -0.659154 3.091124 0.043112 -0.012365 111595.000000 0 0 1
1.328175 0.082497 -30.350551 30.379710 0.062033 3.097775 0.047679 -0.024070 454289.000000 0 0 1
0.072475 0.615997 -29.922691 29.929119 1.453680 3.120867 0.079381 -0.025107 122856.000000 0 0 1
0.368375 1.761197 -29.144091 29.199581 1.364607 3.079933 0.107749 -0.038017 -500588.000000 0 0 1
-0.783125 2.392197 -28.401671 28.512994 -1.254426 3.053198 0.096685 -0.036355 -1073450.000000 0 0 1
-1.738525 2.959897 -29.201211 29.402282 -1.039723 3.024576 0.078099 -0.046710 -682684.000000 0 0 1
-2.405325 4.045897 -28.581391 28.966373 -1.034424 2.978374 0.127547 -0.044452 -434476.000000 0 0 1
-3.647225 4.507197 -29.322011 29.889754 -0.890471 2.946375 0.141654 -0.043839 -637332.000000 0 0 1
-3.397725 5.126797 -30.525481 31.138940 -0.985518 2.942767 0.130307 -0.043213 -452841.000000 0 0 1
-4.566225 5.469297 -31.217751 32.020487 -0.875144 2.917205 0.141860 -0.035147 -552843.000000 0 0 1
-4.355325 6.023097 -32.631141 33.466968 -0.944732 2.917631 0.135049 -0.033252 -228732.000000 0 0 1
-4.102125 5.051497 -33.666561 34.289683 -0.888744 2.950660 0.158617 -0.034037 908886.000000 0 0 1
-2.820825 4.392197 -33.718031 34.119702 -0.999899 2.987999 0.148189 -0.031539 591485.000000 0 0 1
-2.372925 3.591997 32.924846 33.205100 -0.986995 0.130015 0.134881 -0.031443 111575.000000 0 0 1
-3.306925 2.546697 32.608546 32.874591 -0.656248 0.127308 0.123638 -0.033897 340897.000000 0 0 1
-3.116225 1.884197 31.346142 31.556960 -0.543825 0.115654 0.128675 -0.026693 -12522.500000 0 0 1
-3.039725 2.800697 30.095412 30.377914 -0.744495 0.136485 0.128303 -0.023090 -211299.000000 0 0 1
-4.215425 3.539597 29.951552 30.453145 -0.698471 0.181749 0.098581 -0.021894 -194414.000000 0 0 1
-4.018425 4.444397 28.921632 29.535762 -0.835690 0.204280 0.099114 -0.028668 -232008.000000 0 0 1
-5.178625 5.430597 28.828812 29.789427 -0.809144 0.254643 0.100513 -0.021002 -226557.000000 0 0 1
-5.118425 6.233797 27.646082 28.798687 -0.883335 0.283876 0.094055 -0.017375 -72336.400000 0 0 1
-6.310925 6.968997 27.468812 29.033263 -0.834912 0.329775 0.080135 -0.012646 -77553.300000 0 0 1
-6.285125 7.795697 26.155062 28.006481 -0.892268 0.365645 0.077900 -0.016840 -227072.000000 0 0 1
-5.379725 8.837097 26.328162 28.287946 -1.023956 0.374419 0.090316 -0.026245 -310490.000000 0 0 1
-5.290925 9.445897 25.016112 27.258480 -1.060209 0.408452 0.084256 -0.025339 273171.000000 0 0 1
-4.726925 10.912397 25.035172 27.716134 -1.162026 0.443464 0.094633 -0.026290 -487952.000000 0 0 1
-4.652025 11.608197 23.809282 26.893745 -1.189641 0.483638 0.097039 -0.024953 609220.000000 0 0 1
-3.939325 12.883297 23.802122 27.350295 -1.274054 0.515048 0.092946 -0.022666 888000.000000 0 0 1
-2.371425 12.813997 23.917442 27.237221 -1.387802 0.498886 0.083528 -0.013800 517501.000000 0 0 1
-1.817325 12.240597 25.150202 28.029762 -1.423406 0.457255 0.089727 -0.016062 46140.600000 0 0 1
-2.100225 13.031597 26.304572 29.430664 -1.411006 0.465090 0.105677 -0.018791 -693875.000000 0 0 1
-1.299425 12.631597 27.549842 30.335451 -1.468286 0.431897 0.103092 -0.021217 611190.000000 0 0 1
0.096775 12.896997 27.384072 30.269280 1.563293 0.440164 0.104447 -0.020190 381542.000000 0 0 1
0.817275 12.395697 28.518102 31.106324 1.504959 0.410818 0.095860 -0.027649 -569758.000000 0 0 1
2.320475 12.367897 28.392012 31.055689 1.385332 0.417195 0.106705 -0.026685 -609130.000000 0 0 1
2.958275 13.626197 28.470872 31.701975 1.357012 0.455414 0.109697 -0.026636 -152789.000000 0 0 1
4.360775 13.506497 28.438892 31.783839 1.258497 0.462904 0.103332 -0.021597 -283644.000000 0 0 1
5.153775 14.770797 28.523892 32.532296 1.235087 0.501657 0.104321 -0.022999 -615396.000000 0 0 1
5.191175 15.485297 29.757872 33.945157 1.247337 0.501951 0.119754 -0.017783 878488.000000 0 0 1
4.102875 16.435397 29.963942 34.420832 1.326160 0.514543 0.096630 -0.015489 765132.000000 0 0 1
4.211175 17.828997 29.372742 34.617411 1.338849 0.557659 0.100882 -0.010463 -234742.000000 0 0 1
5.047575 18.668597 30.129392 35.801883 1.306732 0.570634 0.126999 -0.006498 -113916.000000 0 0 1
5.394675 19.743397 29.296412 35.737712 1.304068 0.609801 0.103081 -0.007774 -178718.000000 0 0 1
6.511375 20.650397 29.796752 36.833183 1.265349 0.628407 0.103303 -0.010193 -151532.000000 0 0 1
6.056275 21.411797 30.893992 38.073380 1.295149 0.624197 0.098962 -0.022006 1286570.000000 0 0 1
7.154975 22.218897 31.454452 39.169575 1.259260 0.638429 0.094311 -0.023378 1088100.000000 0 0 1
7.409775 23.599197 30.863702 39.552433 1.266560 0.675613 0.091850 -0.015771 -47018.600000 0 0 1
7.829675 23.441397 29.513272 38.494625 1.248436 0.697134 0.065767 -0.015221 199166.000000 0 0 1
7.884975 24.693097 28.884002 38.809889 1.261711 0.731395 0.072296 -0.023716 -131254.000000 0 0 1
8.501475 24.591997 27.477042 37.842162 1.237957 0.758169 0.079089 -0.023882 -313743.000000 0 0 1
7.604875 24.244497 26.447162 36.675362 1.266842 0.765386 0.063926 -0.017043 160037.000000 0 0 1
8.116675 24.585897 25.165012 36.105742 1.251927 0.799618 0.072331 -0.018320 -256396.000000 0 0 1
28.437376 2.419497 7.492779 29.507288 0.084877 1.314055 0.138626 0.003277 67327.700000 0 0 1
29.136576 3.446697 8.184679 30.459953 0.117747 1.298750 0.133109 -0.008656 258332.000000 0 0 1
28.782176 3.534297 9.576679 30.538790 0.122183 1.251824 0.134005 -0.003893 -125087.000000 0 0 1
29.464996 4.656697 10.405479 31.593430 0.156745 1.235175 0.127860 -0.012667 141480.000000 0 0 1
29.011776 6.035197 10.211979 31.343122 0.205101 1.238925 0.122030 -0.012034 490196.000000 0 0 1
29.830016 6.599497 9.180879 31.900968 0.217730 1.278875 0.128500 -0.023428 236194.000000 0 0 1
29.470166 8.037997 8.793479 31.787189 0.266273 1.290505 0.146017 -0.031833 263809.000000 0 0 1
28.524176 8.093397 7.726479 30.640336 0.276472 1.315877 0.125608 -0.028348 137845.000000 0 0 1
28.641976 9.283997 6.995679 30.911081 0.313453 1.342502 0.136827 -0.050337 -536906.000000 0 0 1
27.566076 9.440797 5.932579 29.735714 0.329959 1.369938 0.124322 -0.033580 -74637.600000 0 0 1
26.296576 9.859797 6.410879 28.806681 0.358723 1.346369 0.114468 -0.031202 316854.000000 0 0 1
25.413476 10.019197 5.311079 27.828702 0.375537 1.378769 0.134290 -0.028136 211649.000000 0 0 1
23.955276 10.393197 5.677879 26.722876 0.409350 1.356692 0.087548 -0.024180 129463.000000 0 0 1
23.742076 11.756197 5.596979 27.078045 0.459771 1.362597 0.089052 -0.021610 631608.000000 0 0 1
22.506576 12.096897 6.235079 26.301276 0.493182 1.331454 0.096027 -0.018629 420581.000000 0 0 1
22.479076 13.584997 6.487379 27.054521 0.543604 1.328648 0.089527 -0.015509 -60872.400000 0 0 1
22.305776 14.328497 5.299079 27.035786 0.570991 1.373517 0.090132 -0.015764 255096.000000 0 0 1
22.379276 15.692997 5.578979 27.896723 0.611550 1.369452 0.111442 -0.023242 -76414.200000 0 0 1
21.973776 16.674597 4.425479 27.936963 0.649135 1.411717 0.109685 -0.028285 334665.000000 0 0 1
20.586176 16.547697 4.131179 26.733566 0.677069 1.415643 0.119393 -0.023722 351718.000000 0 0 1
20.189976 17.382597 3.124379 26.824458 0.710818 1.454056 0.124036 -0.023703 -428457.000000 0 0 1
18.679976 17.454597 2.838679 25.722802 0.751500 1.460215 0.100931 -0.023802 -495802.000000 0 0 1
18.069276 18.140397 3.850879 25.892123 0.787362 1.421515 0.105453 -0.027727 -508365.000000 0 0 1
16.694376 18.190197 3.605379 24.951638 0.828251 1.425794 0.079565 -0.033946 -578213.000000 0 1 0
15.756376 19.157497 4.334479 25.180564 0.882506 1.397799 0.100030 -0.041135 -770136.000000 0 0 1
14.419876 18.899897 4.070579 24.118635 0.919052 1.401211 0.098955 -0.043015 -972876.000000 0 1 0
13.636576 19.957397 4.497579 24.586218 0.971377 1.386829 0.077299 -0.045997 -495781.000000 0 1 0
12.118076 19.764297 4.374979 23.592703 1.020779 1.384279 0.060167 -0.037270 -383829.000000 0 1 0
11.551676 19.238397 5.516979 23.108315 1.030047 1.329724 0.048506 -0.037424 237484.000000 0 1 0
10.142376 19.337497 5.325879 22.476022 1.087747 1.331563 0.039299 -0.018958 500343.000000 0 1 0
9.220676 18.913697 6.513379 22.026641 1.117188 1.270603 0.029416 -0.012628 -276489.000000 0 1 0
9.172676 19.806497 7.601779 23.113251 1.137090 1.235666 0.038735 -0.013945 -137681.000000 0 1 0
8.594176 19.230597 8.761379 22.813099 1.150522 1.176617 0.041210 -0.008405 -347389.000000 0 1 0
7.337576 19.918597 9.315279 23.181134 1.217844 1.157263 0.043246 -0.015666 -281548.000000 0 1 0
6.249076 20.044197 8.465079 22.637985 1.268581 1.187551 0.033376 -0.028296 -456632.000000 0 1 0
6.357276 21.147997 7.551379 23.338296 1.278781 1.241305 0.032706 -0.023730 -895923.000000 0 1 0
5.030476 21.349797 6.795079 22.962853 1.339395 1.270382 0.010384 -0.005107 625279.000000 0 1 0
3.847076 21.729297 7.521079 23.313708 1.395567 1.242318 0.004460 0.005752 638906.000000 0 1 0
3.802676 22.988397 8.152879 24.685951 1.406864 1.234213 0.017429 -0.010217 -635806.000000 0 1 0
3.844876 24.204197 7.195879 25.542257 1.413261 1.285205 0.025387 -0.005912 -1050440.000000 0 0 1
2.794976 24.163397 6.325279 25.133460 1.455638 1.316393 0.015226 -0.005721 -793181.000000 0 0 1
2.912576 25.163897 5.288579 25.878058 1.455565 1.364981 0.029025 -0.000984 144476.000000 0 0 1
1.605976 25.384997 4.481879 25.827591 1.507616 1.396383 0.035417 -0.005007 331573.000000 0 0 1
0.497076 25.861997 5.220479 26.388319 1.551578 1.371650 0.045321 -0.013179 177785.000000 0 0 1
-0.620624 26.080897 4.350179 26.448486 -1.547005 1.405568 0.059217 -0.014093 981828.000000 0 0 1
-1.860724 26.620497 5.183879 27.184293 -1.501012 1.378927 0.073973 -0.016062 1093750.000000 0 0 1
-2.884424 27.038397 4.263079 27.523965 -1.464519 1.415284 0.105412 -0.020396 41222.700000 0 0 1
-3.933724 27.689297 4.935779 28.399529 -1.429674 1.396111 0.105093 -0.025812 -546403.000000 0 0 1
-4.991924 28.249997 4.000979 28.965315 -1.395897 1.432223 0.112063 -0.031024 -586684.000000 0 0 1
-4.537424 29.363297 3.260479 29.890168 -1.417482 1.461497 0.119460 -0.031201 -14817.400000 0 0 1
-5.505124 29.957397 2.421979 30.555163 -1.389059 1.491447 0.132642 -0.041083 -553660.000000 0 0 1
-4.938224 30.667397 1.180579 31.084869 -1.411142 1.532808 0.131631 -0.031196 -83061.100000 0 0 1
-4.392024 31.975297 1.301879 32.301771 -1.434294 1.530482 0.128813 -0.026737 809192.000000 0 0 1
-3.193224 32.116897 2.074979 32.341881 -1.471697 1.506595 0.131285 -0.033747 199618.000000 0 0 1
-2.298124 33.338597 1.791579 33.465702 -1.501972 1.517236 0.129656 -0.038611 -1688320.000000 0 0 1
-1.703824 33.283797 0.526279 33.331534 -1.519650 1.555006 0.123031 -0.033050 289178.000000 0 0 1
-0.620224 -33.849510 0.531279 33.859360 1.552475 1.555105 0.114441 -0.032543 1486890.000000 0 0 1
0.683976 33.992197 1.414579 34.028493 1.550677 1.529214 0.085674 -0.026966 -17795.000000 0 0 1
0.360976 -33.849110 2.783779 33.965305 -1.560132 1.488745 0.093238 -0.031553 -117138.000000 0 0 1
1.452276 33.845497 3.608779 34.068315 1.527914 1.464669 0.065095 -0.025457 66825.500000 0 0 1
1.206976 -33.961410 5.123279 34.366875 -1.535272 1.421162 0.064112 -0.027444 196030.000000 0 0 1
0.186776 33.290597 5.708979 33.777081 1.565186 1.400962 0.077282 -0.038027 51779.800000 0 0 1
-0.154524 33.753597 7.009579 34.474097 -1.566218 1.366040 0.087830 -0.034825 749848.000000 0 0 1
0.974376 33.588497 8.123579 34.570639 1.541795 1.333593 0.069817 -0.025774 609579.000000 0 0 1
1.460076 32.309197 8.422879 33.420965 1.525636 1.316025 0.059626 -0.031856 -34996.400000 0 0 1
2.461776 32.317297 9.405579 33.748081 1.494768 1.288356 0.068999 -0.028105 -682533.000000 0 0 1
3.097976 30.966097 9.685379 32.592993 1.471084 1.269078 0.057584 -0.026759 -144753.000000 0 0 1
2.302476 29.986497 10.357379 31.808280 1.494163 1.239130 0.081843 -0.028143 103987.000000 0 0 1
2.726476 28.676197 10.128479 30.534309 1.476003 1.232683 0.058930 -0.027949 -294077.000000 0 0 1
2.357076 27.784597 11.308679 30.090295 1.486165 1.185510 0.057137 -0.033986 -760637.000000 0 0 1
2.995276 28.150997 12.536479 30.961486 1.464795 1.153921 0.062527 -0.030114 -74199.800000 0 0 1
2.773776 27.340797 13.690979 30.702702 1.469690 1.108593 0.070548 -0.034684 122405.000000 0 0 1
1.264376 27.075097 14.026079 30.518690 1.524131 1.093263 0.059949 -0.034408 639352.000000 0 0 1
0.511076 28.165897 14.543979 31.703411 1.552653 1.094207 0.068110 -0.032421 176381.000000 0 0 1
-0.004824 29.020897 13.533479 32.021361 -1.570630 1.134441 0.079533 -0.033092 -806904.000000 0 0 1
-0.872824 30.097797 14.158979 33.273351 -1.541805 1.131243 0.077630 -0.027108 628315.000000 0 0 1
-2.175724 29.706897 14.638879 33.189310 -1.497687 1.114003 0.053748 -0.024049 645524.000000 0 0 1
-2.806024 30.830997 15.160079 34.471033 -1.480033 1.115429 0.052894 -0.018716 -184416.000000 0 0 1
-4.103024 30.435597 15.907679 34.586336 -1.436794 1.092867 0.042389 -0.007620 -318440.000000 0 0 1
-5.112924 29.934297 15.094779 33.912483 -1.401624 1.109499 0.047174 -0.018479 -176926.000000 0 0 1
-6.185024 29.463597 15.915379 34.053742 -1.363880 1.084493 0.045612 -0.007628 178816.000000 0 0 1
-7.482624 29.244697 15.074379 33.741353 -1.320308 1.107653 0.041229 -0.020020 339729.000000 0 0 1
-8.552624 28.730297 15.858779 33.912803 -1.281463 1.084184 0.044250 -0.018233 504228.000000 0 0 1
-9.672824 28.293997 15.082579 33.490267 -1.241384 1.103631 0.044541 -0.019608 221991.000000 0 0 1
-10.842024 27.845997 15.968479 33.881283 -1.199499 1.080024 0.041929 -0.014052 -867080.000000 0 0 1
-11.578724 28.883197 16.521879 35.231781 -1.189531 1.082697 0.046188 -0.021610 207119.000000 0 0 1
-11.102424 29.313397 17.790279 36.042102 -1.208743 1.054575 0.059393 -0.024379 -414496.000000 0 0 1
-12.011524 30.415997 18.374379 37.510364 -1.194687 1.058881 0.073990 -0.021881 -16580.900000 0 0 1
-13.232924 29.968097 18.969079 37.855291 -1.154977 1.045933 0.080696 -0.023793 516847.000000 0 0 1
-13.959124 31.140697 19.204679 39.158905 -1.149390 1.058214 0.088558 -0.029393 -249094.000000 0 0 1
-15.222524 31.044297 20.093779 39.990418 -1.114900 1.044349 0.095970 -0.030287 189440.000000 0 0 1
-15.009824 31.408097 21.444479 40.885560 -1.124987 1.018669 0.097654 -0.031646 -165669.000000 0 0 1
-15.946424 30.801697 22.300479 41.235232 -1.093079 0.999395 0.091878 -0.028828 -97172.600000 0 0 1
-15.471524 30.750297 23.778979 41.837646 -1.104645 0.966281 0.102376 -0.017045 -229670.000000 0 0 1
-14.573424 29.667797 24.033479 40.867725 -1.114197 0.942114 0.087055 -0.023157 258233.000000 0 0 1
-14.217124 29.313197 25.340479 41.273842 -1.119214 0.909729 0.104570 -0.025589 -175668.000000 0 0 1
-13.396324 30.345797 26.120379 42.220885 -1.155071 0.903760 0.101746 -0.026226 -543056.000000 0 0 1
-14.234024 31.422097 26.514579 43.508373 -1.145455 0.915476 0.110369 -0.020395 292062.000000 0 0 1
-13.605024 32.528697 27.147679 44.499543 -1.174660 0.914652 0.113933 -0.023713 -214775.000000 0 0 1
-14.603824 33.553097 27.796279 45.953402 -1.160280 0.921182 0.118051 -0.026636 311065.000000 0 0 1
-15.414124 33.068097 28.868579 46.524070 -1.134608 0.901405 0.103645 -0.022559 459899.000000 0 0 1
-14.772424 32.875097 30.144879 46.986277 -1.148483 0.874256 0.115066 -0.024298 -26298.900000 0 0 1
-15.762024 32.267497 31.167279 47.550311 -1.116407 0.856006 0.104001 -0.018411 796660.000000 0 0 1
-16.914424 33.064297 31.519879 48.711890 -1.097942 0.867064 0.100982 -0.015820 659483.000000 0 0 1
-17.616524 32.394397 32.586979 49.210264 -1.072715 0.847047 0.085548 -0.004498 320051.000000 0 0 1
-19.073824 32.909697 32.661279 50.135996 -1.045526 0.861297 0.086706 -0.003929 108597.000000 0 0 1
-19.274324 -33.855710 33.188779 51.178156 1.053250 0.865191 0.101950 -0.007959 1074510.000000 0 0 1
-20.687024 -33.533910 33.111279 51.466813 1.018044 0.871928 0.093851 -0.001474 1138930.000000 0 0 1
-20.977224 -32.069210 33.300079 50.767838 0.991528 0.855384 0.105692 -0.003624 -337475.000000 0 0 1
-20.659924 -31.566410 -33.296904 50.318530 0.991271 2.293910 0.106023 -0.006392 523219.000000 0 0 1
-21.553124 -31.891310 -32.186504 50.175331 0.976476 2.267223 0.085714 -0.001199 591986.000000 0 0 1
-21.070924 -31.286810 -30.822504 48.712165 0.978094 2.255893 0.097270 -0.009369 219366.000000 0 0 1
-21.194324 -29.907010 -30.898204 47.940876 0.954272 2.271174 0.119566 -0.006736 26578.800000 0 0 1
-20.554524 -29.227610 -29.850504 46.559577 0.957888 2.266759 0.122491 -0.013957 -23520.000000 0 0 1
-20.744324 -27.712710 -29.985404 45.797879 0.928224 2.284626 0.111511 -0.019682 1555300.000000 0 0 1
-22.131024 -27.343310 -29.718904 46.050538 0.890364 2.272283 0.115735 -0.021513 1354310.000000 0 0 1
-22.264624 -25.956210 -29.719904 45.306854 0.861805 2.286262 0.105789 -0.021557 338953.000000 0 0 1
-23.508824 -25.520110 -28.893204 45.152608 0.826398 2.265166 0.101744 -0.025542 221546.000000 0 0 1
-23.433024 -25.806410 -27.494204 44.396043 0.833562 2.238640 0.098959 -0.029178 112283.000000 0 0 1
-22.483824 -25.052610 -26.761104 43.003631 0.839384 2.242472 0.094765 -0.040236 59875.800000 0 0 1
-22.407424 -25.507810 -25.289104 42.335326 0.850014 2.210992 0.094744 -0.035801 357726.000000 0 0 1
-23.489524 -24.996310 -24.497604 42.150989 0.816465 2.190983 0.085377 -0.035030 509756.000000 0 0 1
-23.530324 -25.603410 -23.216604 41.811738 0.827566 2.159478 0.083978 -0.027675 123483.000000 0 0 1
-24.830924 -25.404710 -22.348004 41.969124 0.796820 2.132332 0.074606 -0.027382 1299460.000000 0 0 1
-26.060024 -25.950910 -22.835304 43.290018 0.783300 2.126447 0.086753 -0.024827 464543.000000 0 0 1
-26.170224 -27.388910 -22.925004 44.278537 0.808148 2.115010 0.074979 -0.021332 -2064610.000000 0 0 1
-27.591924 -27.808310 -23.143804 45.500022 0.789304 2.104418 0.047662 -0.015785 -1098530.000000 0 0 1
-28.342124 -27.600610 -21.990404 45.261988 0.772144 2.078128 0.052087 -0.012100 -256820.000000 0 0 1
-29.649924 -27.142410 -22.288104 45.962898 0.741274 2.077062 0.048048 -0.011235 187956.000000 0 0 1
-30.407124 -26.569910 -21.082404 45.552399 0.718153 2.051966 0.056616 -0.010325 -246400.000000 0 0 1
-31.044424 -27.531910 -20.270704 46.180773 0.725505 2.025218 0.053914 -0.005086 10140.200000 0 0 1
-31.527124 -27.023410 -19.076004 45.695931 0.708629 2.001439 0.055991 0.003542 -656180.000000 0 0 1
-32.417524 -27.995010 -18.227104 46.549369 0.712323 1.973128 0.038900 -0.000186 1389240.000000 0 0 1
-33.726324 -28.237210 -18.871204 47.863632 0.697043 1.976070 0.028886 -0.003373 2303640.000000 0 0 1
-34.718124 -27.202010 -18.706104 47.908410 0.664605 1.971923 0.022649 0.005330 28973.300000 0 0 1
-35.178624 -26.754810 -17.295604 47.460440 0.650214 1.943808 0.028535 0.010179 -886602.000000 0 0 1
-34.254624 -25.922510 -16.604504 46.055025 0.647813 1.939639 0.025163 0.010198 94822.700000 0 0 1
-34.626924 -25.346310 -15.379404 45.584925 0.631870 1.914928 0.024172 0.010017 -388569.000000 0 0 1
-34.515924 -26.095110 -14.040404 45.491062 0.647350 1.884560 0.037432 0.007007 -49197.800000 0 0 1
-35.267024 -27.302910 -14.034404 46.756565 0.658796 1.875656 0.037535 0.008000 320778.000000 0 0 1
-35.128624 -27.906310 -12.824504 46.661014 0.671319 1.849224 0.029844 0.004549 -18464.200000 0 0 1
-35.869524 -29.279410 -12.731204 48.020726 0.684586 1.839124 0.037904 0.000403 122221.000000 0 0 1
-35.354024 -30.246010 -13.626404 48.480996 0.707689 1.855702 0.027599 0.002558 295126.000000 0 0 1
-35.954924 -31.495210 -13.327804 49.621922 0.719376 1.842722 0.020549 0.000866 -110534.000000 0 0 1
-35.340824 -32.586110 -14.230604 50.133207 0.744866 1.858609 0.022328 0.010377 -717053.000000 0 0 1
-34.004624 -32.881910 -13.937004 49.313026 0.768614 1.857324 0.022674 0.000768 -422335.000000 0 0 1
-33.584224 -33.699410 -15.001204 49.885734 0.787110 1.876235 0.060385 -0.019071 -940749.000000 0 0 1
-32.124724 33.975497 -14.879004 49.068494 -0.813390 1.878876 0.058509 -0.017547 -656307.000000 0 0 1
-31.741424 33.099897 -15.925504 48.546296 -0.806346 1.905033 0.081149 -0.021134 269475.000000 0 0 1
-30.336724 32.878497 -16.022004 47.518596 -0.825585 1.914709 0.074467 -0.019313 382496.000000 0 0 1
9.536875 19.992597 -9.845921 24.240422 1.125701 1.989064 0.042346 -0.019540 -326476.000000 0 1 0
8.153775 19.733897 -9.741521 23.469298 1.178974 1.998822 0.039291 -0.021047 -51333.500000 0 1 0
7.512675 19.873997 -11.030121 23.939081 1.209385 2.049645 0.044597 -0.018988 203149.000000 0 1 0
7.581575 18.607897 -11.924521 23.365109 1.183894 2.106395 0.039383 -0.011100 -277383.000000 0 1 0
8.874275 18.185197 -12.320421 23.690651 1.116799 2.117711 0.076577 -0.020971 -47651.200000 0 1 0
8.840275 16.934097 -13.056021 23.138146 1.089673 2.170338 0.076670 -0.031665 109678.000000 0 1 0
10.134575 16.604397 -13.867021 23.889535 1.022798 2.190095 0.096873 -0.022902 555862.000000 0 1 0
10.196975 15.243597 -14.278721 23.242793 0.981225 2.232332 0.113992 -0.039569 11892.200000 0 1 0
11.414875 15.017997 -14.956521 24.073577 0.920875 2.241176 0.143373 -0.044988 -88881.100000 0 1 0
11.387475 13.617797 -15.660721 23.672287 0.874357 2.293698 0.130859 -0.046027 -445988.000000 0 1 0
11.451275 12.448497 -14.870321 22.521617 0.827099 2.291973 0.130274 -0.038841 15161.000000 0 1 0
12.687675 12.244997 -14.220021 22.652286 0.767645 2.249458 0.155283 -0.038021 345350.000000 0 1 0
13.887475 11.678697 -15.038721 23.567288 0.699218 2.262848 0.187999 -0.042037 -89311.900000 0 1 0
14.262775 12.536197 -16.112621 24.903806 0.721060 2.274432 0.149766 -0.036546 -292846.000000 0 1 0
15.137275 11.737897 -16.865521 25.521777 0.659579 2.292719 0.150925 -0.039473 -338673.000000 0 0 1
15.893375 12.508097 -17.941421 27.036021 0.666764 2.296433 0.114198 -0.040445 687084.000000 0 0 1
16.863775 13.456397 -17.393621 27.712805 0.673488 2.249312 0.079185 -0.032922 617250.000000 0 0 1
17.655275 14.073797 -18.378621 29.112784 0.672997 2.254012 0.053512 -0.024424 -177960.000000 0 0 1
18.769275 14.983097 -17.834721 29.914146 0.673690 2.209552 0.040657 -0.014543 -375965.000000 0 0 1
18.400675 16.215197 -17.291721 30.008683 0.722347 2.184897 0.042397 -0.018088 -15633.400000 0 0 1
18.011975 17.191997 -18.239321 30.865334 0.762110 2.203010 0.039256 -0.007623 -80495.000000 0 0 1
17.656375 18.504397 -17.574721 31.032742 0.808845 2.172840 0.039370 -0.002209 -1139.700000 0 0 1
18.739275 19.412097 -17.532921 32.177527 0.803032 2.147043 0.044704 -0.008002 305788.000000 0 0 1
18.285375 20.713997 -17.128021 32.508364 0.847591 2.125722 0.031387 -0.005098 345463.000000 0 0 1
19.433975 21.770197 -17.147721 33.847676 0.842036 2.102050 0.047644 -0.009729 372937.000000 0 0 1
20.469575 21.650697 -16.213921 33.921194 0.813432 2.069159 0.055810 -0.012527 -419543.000000 0 0 1
20.536075 22.875597 -15.429721 34.396215 0.839238 2.035981 0.051473 -0.010139 -328469.000000 0 0 1
21.922575 23.125297 -14.848421 35.154719 0.812091 2.006859 0.053109 -0.014735 -890535.000000 0 0 1
22.226375 22.387597 -13.648121 34.372772 0.789012 1.979110 0.061894 -0.016504 1217250.000000 0 0 1
23.544275 22.634197 -13.071521 35.178181 0.765693 1.951507 0.058526 -0.014807 1629430.000000 0 0 1
24.783275 22.061097 -13.822221 35.943797 0.727352 1.965518 0.061854 -0.014274 -173840.000000 0 0 1
25.045975 22.789397 -15.019021 37.043602 0.738259 1.988258 0.063014 -0.014534 72725.300000 0 0 1
26.215375 23.592397 -14.949821 38.305929 0.732785 1.971726 0.066504 -0.011113 -164362.000000 0 0 1
26.658475 24.048597 -16.338021 39.445408 0.733974 1.997853 0.060545 -0.011202 -430783.000000 0 0 1
27.186175 23.016197 -17.121721 39.521978 0.702525 2.018859 0.069310 -0.017773 77120.500000 0 0 1
27.361475 23.549497 -18.392621 40.515647 0.710662 2.042005 0.059709 -0.011930 -837454.000000 0 0 1
27.865075 22.532597 -19.360121 40.730758 0.679982 2.066123 0.060353 -0.014087 -104770.000000 0 0 1
29.273375 22.625197 -19.456021 41.801516 0.657993 2.054926 0.059297 -0.016382 -166414.000000 0 0 1
29.743375 21.815597 -20.573121 42.235553 0.632832 2.079567 0.072278 -0.016038 -1658250.000000 0 0 1
31.213775 21.833397 -20.631221 43.320252 0.610377 2.067180 0.114157 -0.022697 -1910880.000000 0 0 1
31.639175 22.984297 -21.358621 44.559017 0.628258 2.070691 0.093604 -0.011348 -323113.000000 0 0 1
33.040475 23.129097 -21.311521 45.615886 0.610741 2.056912 0.122806 -0.012118 44859.400000 0 0 1
33.587075 24.477197 -21.822821 46.941030 0.629774 2.054316 0.106512 -0.010911 -86332.900000 0 0 1
33.606575 24.699297 -23.248821 47.748977 0.633802 2.079330 0.106166 -0.011017 856887.000000 0 0 1
32.290675 24.697397 -23.840021 47.127441 0.652935 2.101178 0.094880 -0.012690 745555.000000 0 0 1
32.389775 25.023797 -25.372151 48.156349 0.657798 2.125710 0.091230 -0.014657 -186715.000000 0 0 1
32.360975 26.402497 -25.790911 49.086614 0.684346 2.124001 0.100681 -0.016374 -1010590.000000 0 0 1
31.116675 26.937897 -26.070591 48.719334 0.713542 2.135444 0.090770 -0.005256 -582679.000000 0 0 1
30.632875 26.608097 -27.503691 49.018536 0.715201 2.166495 0.089201 -0.001425 -66957.300000 0 0 1
30.084175 25.294397 -27.741671 48.108881 0.699121 2.185411 0.079928 -0.012866 30086.200000 0 0 1
29.763975 25.034897 -29.072781 48.557871 0.699313 2.212704 0.068571 -0.014733 -292681.000000 0 0 1
28.956675 23.757297 -29.209101 47.498103 0.687082 2.233123 0.078256 -0.015290 -827592.000000 0 0 1
27.730975 23.831097 -28.572991 46.404137 0.709907 2.234124 0.071816 -0.011696 -1104500.000000 0 0 1
26.917975 22.775697 -28.957041 45.626965 0.702234 2.258349 0.074108 -0.018341 -584690.000000 0 0 1
25.545875 22.824797 -28.284931 44.425223 0.729203 2.260990 0.055980 -0.020664 -511375.000000 0 0 1
25.573575 22.524597 -26.905141 43.419487 0.722092 2.239101 0.050743 -0.006932 246500.000000 0 0 1
24.371575 22.886397 -26.249241 42.506276 0.753981 2.236405 0.053326 -0.011752 89306.300000 0 0 1
24.507275 22.902697 -24.684921 41.647153 0.751566 2.205223 0.055801 -0.007405 -119269.000000 0 0 1
24.918575 21.684297 -24.143121 40.914966 0.716108 2.201955 0.055767 -0.004643 242836.000000 0 0 1
25.289375 21.897797 -22.777921 40.470973 0.713647 2.168591 0.059118 -0.009388 -117744.000000 0 0 1
25.658275 20.602597 -22.061121 39.617006 0.676544 2.161397 0.071376 -0.004757 136771.000000 0 0 1
26.968775 20.217697 -22.430021 40.486738 0.643290 2.157969 0.056507 -0.005522 -6823.930000 0 0 1
26.961075 18.839597 -22.663621 39.943331 0.609900 2.174134 0.083441 -0.011176 354768.000000 0 0 1
28.282375 18.153697 -23.149621 40.808754 0.570641 2.173985 0.099457 -0.020311 1384690.000000 0 0 1
29.397675 18.259597 -22.214721 41.123351 0.555807 2.141468 0.130166 -0.034456 1303110.000000 0 0 1
30.589075 17.833297 -22.888221 42.161459 0.527822 2.144648 0.125421 -0.025782 1014570.000000 0 0 1
31.889575 17.526097 -22.102321 42.574895 0.502526 2.116640 0.114211 -0.023055 575154.000000 0 0 1
32.447775 18.677797 -21.421221 43.134521 0.522305 2.090490 0.113973 -0.020785 -720291.000000 0 0 1
33.725275 18.431097 -20.949921 43.772122 0.500157 2.069871 0.116778 -0.025655 -440056.000000 0 0 1
34.142275 19.635097 -20.000021 44.172761 0.521907 2.040664 0.091970 -0.030852 63589.100000 0 0 1
33.697975 19.469597 -18.662721 43.161509 0.523912 2.017941 0.115274 -0.031524 29146.800000 0 0 1
33.896275 20.615797 -17.895521 43.522617 0.546429 1.994542 0.092753 -0.017541 235665.000000 0 0 1
33.456175 20.599397 -16.418921 42.582059 0.551893 1.966636 0.101786 -0.026150 -73648.100000 0 0 1
34.409075 19.803297 -15.808621 42.732511 0.522229 1.949745 0.102023 -0.031957 -104985.000000 0 0 1
34.091275 19.612897 -14.450721 41.901123 0.522064 1.922904 0.093386 -0.027975 -323679.000000 0 0 1
34.546675 18.296697 -13.890321 41.487141 0.487064 1.912200 0.080349 -0.017947 -893800.000000 0 0 1
35.913075 18.009697 -13.868221 42.502067 0.464831 1.903178 0.065297 -0.015922 -439669.000000 0 0 1
36.263475 16.962097 -12.982421 42.086763 0.437513 1.884378 0.045416 -0.006793 -116691.000000 0 0 1
36.126275 17.291397 -11.471221 41.661602 0.446412 1.849743 0.060260 -0.015917 -401742.000000 0 0 1
36.982675 18.316397 -10.987721 42.707595 0.459856 1.831001 0.053361 -0.016825 176130.000000 0 0 1
36.640575 18.858097 -9.716421 42.338734 0.475321 1.802353 0.070600 -0.013482 -785236.000000 0 0 1
35.545675 19.877697 -9.677321 41.860105 0.509891 1.804089 0.072273 -0.018384 -438860.000000 0 0 1
34.268575 19.482097 -10.156121 40.706684 0.516945 1.822955 0.088371 -0.030119 -352807.000000 0 0 1
33.422875 20.599997 -10.090521 40.537231 0.552351 1.822361 0.078952 -0.012688 -648848.000000 0 0 1
31.989675 20.088097 -10.263821 39.143543 0.560722 1.836108 0.061325 -0.021339 -559606.000000 0 0 1
31.780875 19.598597 -11.567721 39.088888 0.552593 1.871229 0.085277 -0.025067 -635554.000000 0 0 1
30.548775 18.950797 -11.592421 37.772273 0.555245 1.882734 0.070418 -0.026255 -455538.000000 0 0 1
30.234175 18.381197 -12.985921 37.690952 0.546253 1.922542 0.103252 -0.024570 535188.000000 0 0 1
31.247275 17.418897 -13.361321 38.188153 0.508548 1.928241 0.090878 -0.015924 673662.000000 0 0 1
30.754675 16.468497 -14.326021 37.713344 0.491627 1.960448 0.080421 -0.017150 -113907.000000 0 0 1
31.888975 15.732497 -15.031521 38.605243 0.458315 1.970738 0.090957 -0.028269 -203588.000000 0 0 1
32.609275 14.860497 -14.196721 38.545377 0.427595 1.947989 0.076633 -0.022693 214599.000000 0 0 1
33.846375 14.500797 -14.779221 39.677142 0.404772 1.952484 0.086547 -0.024820 193044.000000 0 0 1
34.644175 13.456297 -13.941321 39.694473 0.370479 1.929665 0.072738 -0.031635 31537.100000 0 0 1
35.376375 13.915697 -12.818021 40.117779 0.374770 1.896008 0.071635 -0.017073 239925.000000 0 0 1
36.104475 12.852697 -12.212921 40.222884 0.341998 1.879298 0.056979 -0.007794 609874.000000 0 0 1
37.192975 13.431797 -11.217621 41.104326 0.346563 1.847209 0.078249 -0.004603 -40367.600000 0 0 1
-35.991626 13.840797 -11.770321 40.317555 -0.367122 1.867051 0.053620 -0.004986 -975311.000000 0 0 1
-35.077026 13.942797 -10.716721 39.238342 -0.378341 1.847430 0.043691 -0.009553 172194.000000 0 0 1
-33.607526 14.329097 -11.184721 38.208465 -0.403027 1.867876 0.086281 -0.014899 1432330.000000 0 0 1
-32.832026 13.292497 -11.844321 37.348633 -0.384692 1.893497 0.085313 -0.023265 422027.000000 0 0 1
-32.512226 12.202197 -10.981221 36.421500 -0.359043 1.877066 0.113202 -0.019984 -458455.000000 0 0 1
-31.262026 11.405197 -11.456521 35.194384 -0.349821 1.902359 0.141187 -0.022982 323794.000000 0 0 1
-31.550926 10.629597 -12.615521 35.603380 -0.324960 1.932999 0.124568 -0.017686 496930.000000 0 0 1
-30.816126 9.396097 -12.535921 34.569778 -0.295954 1.941881 0.142831 -0.028051 103070.000000 0 0 1
-30.989726 8.595797 -13.802921 34.996735 -0.270574 1.976218 0.141940 -0.040021 -394858.000000 0 0 1
-32.289326 8.115797 -13.980721 36.109934 -0.246245 1.968358 0.112756 -0.034147 -191877.000000 0 0 1
-32.297326 7.300297 -15.129921 36.405029 -0.222298 1.999398 0.131259 -0.046355 -397352.000000 0 0 1
-33.679326 7.064397 -15.738521 37.840504 -0.206757 1.999748 0.126966 -0.045554 -242680.000000 0 0 1
-34.580726 6.356597 -14.930021 38.198671 -0.181790 1.972353 0.146179 -0.052373 141416.000000 0 0 1
-35.666026 5.773697 -15.601121 39.354745 -0.160490 1.978414 0.098869 -0.048461 169013.000000 0 0 1
-36.504026 4.778997 -14.694121 39.639626 -0.130177 1.950551 0.096234 -0.041734 35163.500000 0 0 1
36.639875 4.396497 -15.211321 39.914833 0.119421 1.961776 0.099364 -0.033113 -523923.000000 0 0 1
35.845175 4.024397 -14.133821 38.740641 0.111803 1.944249 0.113459 -0.032896 -243578.000000 0 0 1
34.697875 3.057497 -14.386921 37.686527 0.087891 1.962488 0.113372 -0.030048 -457061.000000 0 0 1
35.256475 1.841197 -14.867321 38.307261 0.052176 1.969373 0.121437 -0.036755 401069.000000 0 0 1
34.373175 0.702797 -15.019821 37.518050 0.020443 1.982680 0.103972 -0.024093 437539.000000 0 0 1
33.835275 0.108197 -13.647221 36.484026 0.003198 1.954179 0.130791 -0.027295 288606.000000 0 0 1
34.922775 -0.279003 -12.819321 37.202326 -0.007989 1.922592 0.149037 -0.029200 616480.000000 0 0 1
34.570475 -0.034603 -11.448721 36.416921 -0.001001 1.890599 0.164138 -0.026416 -52995.200000 0 0 1
34.736275 1.429097 -10.862121 36.423026 0.041118 1.873625 0.160664 -0.035014 -199573.000000 0 0 1
33.818375 2.364397 -11.389721 35.763090 0.069801 1.894919 0.149195 -0.029478 307426.000000 0 0 1
33.929275 3.593497 -10.721721 35.764007 0.105518 1.875270 0.154827 -0.032834 -920725.000000 0 0 1
32.859575 4.553997 -11.087021 34.977315 0.137712 1.893337 0.141295 -0.027320 -905121.000000 0 0 1
32.904675 4.932397 -12.464321 35.530346 0.148792 1.929230 0.120912 -0.021564 767637.000000 0 0 1
31.675975 5.502797 -12.928321 34.652412 0.172005 1.953129 0.118848 -0.018701 369012.000000 0 0 1
31.849175 6.197397 -14.273521 35.447300 0.192184 1.985227 0.063756 -0.014612 -233504.000000 0 0 1
32.115675 5.250397 -15.306121 35.961932 0.162050 2.010443 0.055805 -0.012096 -94980.600000 0 0 1
32.589475 5.812697 -16.486321 36.981889 0.176505 2.032858 0.047783 -0.011356 -1345250.000000 0 0 1
31.719075 6.785297 -17.293221 36.758611 0.210742 2.060601 0.051289 -0.010513 1259970.000000 0 0 1
30.477575 6.363397 -17.956721 35.941887 0.205833 2.093938 0.040131 -0.011301 1842420.000000 0 0 1
29.521075 5.836297 -17.043221 34.583632 0.195182 2.086115 0.030109 -0.001673 -240212.000000 0 0 1
28.058175 5.633097 -17.585721 33.589441 0.198131 2.121808 0.029666 -0.003675 697689.000000 0 0 1
27.855775 4.542797 -18.481321 33.736337 0.161660 2.150548 0.034955 -0.007291 470251.000000 0 0 1
26.737175 4.687197 -19.355621 33.338962 0.173543 2.190226 0.029088 -0.010366 165779.000000 0 0 1
26.340875 3.445797 -20.147121 33.340991 0.130077 2.219652 0.030864 -0.001455 -391812.000000 0 0 1
25.666475 2.461097 -19.411721 32.274446 0.095595 2.216121 0.028971 -0.011064 112358.000000 0 0 1
25.310675 1.383797 -20.278421 32.461662 0.054618 2.245529 0.029224 -0.008795 -883631.000000 0 0 1
24.317375 0.467597 -19.581021 31.224506 0.019227 2.248626 0.038502 -0.015117 -473401.000000 0 0 1
23.041375 1.050797 -19.496521 30.201382 0.045573 2.272540 0.048951 -0.018932 -201924.000000 0 0 1
22.213675 0.331397 -18.609721 28.980664 0.014917 2.268086 0.066711 -0.023659 8670.580000 0 0 1
20.949575 1.117697 -18.184321 27.763348 0.053301 2.284947 0.079232 -0.025607 -191158.000000 0 0 1
20.087975 1.354097 -19.282021 27.877530 0.067307 2.334594 0.079680 -0.027317 -40035.600000 0 0 1
19.121275 2.343497 -19.226821 27.217380 0.121951 2.355220 0.062182 -0.020141 -24872.700000 0 0 1
17.853575 2.174297 -18.367421 25.706806 0.121188 2.366700 0.117556 -0.032727 -898241.000000 0 0 1
17.935575 2.470097 -16.978021 24.820142 0.136860 2.324086 0.131586 -0.030617 20907.500000 0 1 0
16.721775 2.241797 -16.287521 23.450517 0.133270 2.338588 0.101504 -0.011406 327484.000000 0 1 0
15.695075 3.409497 -16.438721 22.982419 0.213910 2.367812 0.110934 -0.008756 -101473.000000 0 1 0
15.224875 3.633197 -17.769421 23.680145 0.234254 2.419453 0.100027 -0.004433 -201445.000000 0 1 0
14.261375 4.621797 -17.814321 23.282995 0.313398 2.442026 0.116959 -0.005792 -585965.000000 0 1 0
-20.820925 -21.606503 -17.476121 34.724151 0.803912 2.098192 0.089876 -0.019271 95735.600000 0 0 1
-20.442425 -22.580603 -18.471321 35.622550 0.835056 2.115926 0.096593 -0.026354 292139.000000 0 0 1
-21.307825 -22.503903 -19.583221 36.659945 0.812692 2.134341 0.099968 -0.019341 -95650.500000 0 0 1
-20.878325 -23.409403 -20.764121 37.617195 0.842487 2.155539 0.074705 -0.017375 -189076.000000 0 0 1
-21.127825 -24.783603 -20.477521 38.469999 0.864857 2.132110 0.068293 -0.025107 608489.000000 0 0 1
-20.194625 -25.722663 -21.061921 38.898365 0.905213 2.142969 0.064116 -0.037316 260429.000000 0 0 1
-20.389025 -27.194693 -20.729521 39.811766 0.927460 2.118453 0.072556 -0.008522 10966.700000 0 0 1
-21.616525 -27.588563 -21.324921 41.026275 0.906178 2.117398 0.073946 0.007079 215821.000000 0 0 1
-21.717525 -28.990443 -21.349221 42.046235 0.927854 2.103374 0.115363 -0.028836 -426971.000000 0 0 1
-23.117825 -29.535053 -21.673021 43.318276 0.906678 2.094765 0.106443 -0.028985 -444360.000000 0 0 1
-23.622225 -29.113553 -22.908021 43.936157 0.889153 2.119279 0.082444 -0.030354 -346295.000000 0 0 1
-23.030125 -29.600363 -24.093321 44.576409 0.909593 2.141822 0.088550 -0.033769 -481789.000000 0 0 1
-23.495125 -28.809353 -25.324461 44.981419 0.886652 2.168806 0.071169 -0.019990 208075.000000 0 0 1
-24.837625 -29.144633 -25.671551 46.101473 0.865015 2.161383 0.056558 -0.012527 619034.000000 0 0 1
-25.369095 -28.377853 -26.730171 46.512316 0.841320 2.183022 0.063367 -0.006335 -61933.300000 0 0 1
-24.864625 -28.728273 -28.147261 47.284580 0.857366 2.208402 0.068617 -0.026633 -503394.000000 0 0 1
-25.336985 -29.977273 -28.515571 48.515333 0.869092 2.199089 0.042346 -0.007241 40319.400000 0 0 1
-25.010925 -30.193323 -29.880011 49.295012 0.879001 2.222003 0.079719 -0.005879 19125.100000 0 0 1
-25.703645 -31.363253 -30.553841 50.772711 0.884250 2.216520 0.048404 -0.004067 -10397.800000 0 0 1
-25.143795 -32.616043 -30.136461 51.031588 0.914051 2.202531 0.045122 0.000814 -342758.000000 0 0 1
-25.844215 -33.691063 -30.621441 52.351541 0.916444 2.195577 0.036307 0.004606 -665925.000000 0 0 1
-25.175435 32.995084 -30.561161 51.540884 -0.919023 2.205514 0.031805 0.009819 -9651.800000 0 0 1
-24.204925 32.742240 -31.571421 51.523657 -0.934206 2.230339 0.054780 0.000590 65266.300000 0 0 1
-23.713625 31.403264 -31.376821 50.328977 -0.924019 2.243924 0.062693 0.009344 996593.000000 0 0 1
-22.463925 31.070094 -32.315441 50.142461 -0.944795 2.271130 0.062583 0.011656 985855.000000 0 0 1
-22.787025 30.972144 -33.686951 51.120767 -0.936493 2.290242 0.061108 0.008203 115207.000000 0 0 1
-22.005825 29.934204 33.651810 50.127410 -0.936874 0.834801 0.072491 0.002937 43028.900000 0 0 1
-22.229525 29.686384 32.160797 49.089205 -0.928056 0.856415 0.065711 0.000571 67548.200000 0 0 1
-21.610325 30.768294 31.482772 49.039362 -0.958490 0.873706 0.074624 -0.004546 267028.000000 0 0 1
-21.604825 30.573324 30.079042 48.023384 -0.955617 0.893945 0.073661 -0.007322 -36882.900000 0 0 1
-21.081225 31.780294 29.235182 48.053106 -0.985098 0.916762 0.082389 -0.017684 21781.300000 0 0 1
-21.972425 32.867606 29.304442 49.211963 -0.981517 0.932941 0.061481 -0.007319 123349.000000 0 0 1
-21.520125 33.994965 28.614002 49.371394 -1.006437 0.952600 0.084581 -0.028349 -164327.000000 0 0 1
-22.364525 -32.822683 28.926432 49.134906 0.972681 0.941329 0.099270 -0.036012 -200569.000000 0 0 1
-22.375525 -32.427643 30.315152 49.711413 0.966804 0.914959 0.086634 -0.019846 237649.000000 0 0 1
-23.523525 -31.643303 30.610512 49.916513 0.931535 0.910648 0.097553 -0.022790 124213.000000 0 0 1
-23.628725 -30.163453 30.142572 48.751669 0.906287 0.904234 0.119936 -0.015814 -202108.000000 0 0 1
-23.700625 -30.111333 28.745792 47.903367 0.903971 0.927197 0.084020 -0.016084 -30103.500000 0 0 1
-23.936625 -28.802033 28.189882 46.874178 0.877393 0.925551 0.083893 -0.024207 -770631.000000 0 0 1
-25.268435 -28.592993 27.495462 47.032473 0.847044 0.946402 0.080770 -0.012805 -1630280.000000 0 0 1
-26.362945 -28.566933 28.356362 48.116087 0.825500 0.940564 0.104529 -0.007330 181724.000000 0 0 1
-27.237715 -29.710513 28.266952 49.230359 0.828793 0.959197 0.069813 -0.019819 34229.500000 0 0 1
-28.063775 -29.966623 26.997592 49.136992 0.818177 0.989108 0.044505 0.009140 -1086430.000000 0 0 1
-27.322425 -30.215403 25.854532 48.248755 0.835635 1.005271 0.032758 -0.000505 -124699.000000 0 0 1
-28.212925 -30.248463 24.747022 48.201180 0.820203 1.031641 0.024065 0.004048 -223428.000000 0 0 1
-27.514465 -30.424893 23.405072 47.228353 0.835588 1.052302 0.028575 -0.000672 -841418.000000 0 0 1
-26.856575 -29.196663 23.058342 45.884724 0.827122 1.044276 0.013952 -0.009490 268165.000000 0 0 1
-26.174695 -29.252133 21.812062 44.906213 0.840864 1.063604 0.045241 -0.013949 638976.000000 0 0 1
-24.839825 -30.084113 21.853662 44.717483 0.880592 1.060191 0.046266 -0.023396 -464011.000000 0 0 1
-25.015225 -31.456063 21.501162 45.580098 0.898963 1.079553 0.046111 -0.027853 619591.000000 0 0 1
-23.763825 -32.124003 21.435562 45.344837 0.933886 1.078418 0.054335 -0.016912 432350.000000 0 0 1
-23.039625 -32.584343 22.739962 45.931140 0.955337 1.052860 0.076944 -0.023720 -169560.000000 0 0 1
-22.629025 -31.533943 23.574712 45.411776 0.948350 1.024961 0.097224 -0.034293 33126.100000 0 0 1
-21.969625 -32.177713 24.646342 46.103273 0.971735 1.006774 0.107506 -0.049138 42081.200000 0 0 1
-20.952225 -31.300983 25.459422 45.463496 0.980918 0.976414 0.106963 -0.033844 -1287280.000000 0 0 1
-19.852625 -30.878233 24.731292 44.263177 0.999405 0.977939 0.122388 -0.038638 -250273.000000 0 0 1
-18.881425 -30.218463 25.536992 43.838359 1.012319 0.948963 0.140667 -0.037490 72678.200000 0 0 1
-18.038125 -31.155683 26.483832 44.692772 1.045986 0.936544 0.123465 -0.043001 -1585240.000000 0 0 1
-18.692225 -31.946763 27.421672 46.064553 1.041401 0.933172 0.119343 -0.036514 -525305.000000 0 0 1
-17.893325 -32.384863 28.477832 46.689799 1.066019 0.914815 0.125028 -0.028445 -482097.000000 0 0 1
-18.307025 -31.722983 29.796902 47.215995 1.047393 0.887856 0.142913 -0.031502 -115169.000000 0 0 1
-17.922625 -30.423193 29.808782 46.209898 1.038422 0.869677 0.139772 -0.022865 128512.000000 0 0 1
-18.074125 -29.783833 31.063652 46.676559 1.025360 0.842621 0.135503 -0.015180 -222958.000000 0 0 1
-17.827725 -28.271523 31.042072 45.614877 1.008188 0.822317 0.127302 -0.013278 -475640.000000 0 0 1
-18.659625 -27.461993 30.274322 44.931918 0.973982 0.831481 0.139789 -0.017190 -144447.000000 0 0 1
-18.570325 -27.551413 28.855182 44.006350 0.977717 0.855680 0.139508 -0.009892 971554.000000 0 0 1
-17.195225 -27.148973 28.143082 42.717392 1.006204 0.851547 0.119670 -0.012519 991352.000000 0 0 1
-16.980725 -25.747023 28.144562 41.753690 0.987756 0.831103 0.101041 -0.008787 -228855.000000 0 0 1
-15.793625 -25.511443 27.453922 40.669278 1.016465 0.829760 0.083458 -0.006904 -597695.000000 0 0 1
-15.820025 -24.135003 26.684262 39.304216 0.990578 0.824511 0.078359 -0.004152 -74942.500000 0 0 1
-16.653725 -24.136703 25.499182 38.860459 0.966830 0.855060 0.115883 -0.015915 562189.000000 0 0 1
-16.692025 -22.934603 24.820032 37.691560 0.941649 0.851968 0.092495 -0.024993 83216.400000 0 0 1
-17.353025 -21.690203 25.536042 37.731709 0.896031 0.827417 0.090426 -0.015044 -393792.000000 0 0 1
-17.201225 -20.605703 24.684532 36.466468 0.875205 0.827239 0.086175 -0.013852 88813.800000 0 0 1
-17.586825 -19.383603 25.307832 36.407511 0.833960 0.802200 0.089260 -0.008241 -62894.900000 0 0 1
-17.274225 -18.122303 24.474682 35.011809 0.809353 0.796741 0.076318 -0.020733 -126172.000000 0 0 1
-15.902125 -17.830503 24.326532 34.096695 0.842503 0.776376 0.083190 -0.024605 -286519.000000 0 0 1
-15.674125 -16.908803 23.265512 32.754692 0.823273 0.780878 0.080636 -0.020733 -260919.000000 0 0 1
-14.221325 -16.416603 23.258492 31.823080 0.856928 0.751202 0.081871 -0.029241 -1115140.000000 0 0 1
-13.316525 -17.435703 23.015452 31.796928 0.918553 0.761465 0.055779 -0.022800 -607243.000000 0 0 1
-12.002225 -16.980103 23.235402 31.181104 0.955494 0.729998 0.048733 -0.027204 -36461.900000 0 0 1
-11.258025 -16.204003 22.070062 29.604062 0.963590 0.729500 0.070783 -0.026172 -228137.000000 0 0 1
-11.085825 -17.018703 20.932462 29.166758 0.993444 0.770328 0.086285 -0.025059 594553.000000 0 0 1
-9.804325 -17.684203 21.040362 29.181375 1.064572 0.765523 0.069635 -0.026712 528725.000000 0 0 1
-9.512125 -18.674603 19.896962 28.898277 1.099688 0.811354 0.069274 -0.020314 -151046.000000 0 0 1
-9.265825 -18.085503 18.632962 27.570423 1.097330 0.828704 0.068952 -0.022693 -131268.000000 0 0 1
-8.697025 -19.050803 17.773262 27.467439 1.142536 0.867066 0.069782 -0.026119 113488.000000 0 0 1
-8.231425 -18.637603 16.354762 26.126516 1.154902 0.894405 0.068733 -0.029342 1053310.000000 0 0 1
-6.984225 -17.909403 16.301262 25.204311 1.198962 0.867461 0.075443 -0.035942 726998.000000 0 0 1
-6.470525 -17.628303 14.997962 24.032554 1.219011 0.896857 0.076722 -0.040894 416038.000000 0 1 0
-5.344925 -16.586103 14.920062 22.940691 1.259051 0.862718 0.065788 -0.039043 328752.000000 0 1 0
-5.920225 -15.312203 15.253262 22.409253 1.201865 0.822122 0.077862 -0.042004 926642.000000 0 1 0
-4.862325 -14.388803 15.582262 21.759751 1.244920 0.772591 0.047739 -0.025756 -638116.000000 0 1 0
-5.077825 -13.561703 16.849562 22.217377 1.212531 0.709948 0.025597 -0.005894 -545467.000000 0 1 0
-5.066625 -14.239803 18.091962 23.574600 1.228957 0.695966 0.041358 0.000621 1039150.000000 0 1 0
-6.284525 -14.973703 18.484462 24.604520 1.173420 0.720823 0.087321 -0.025236 1460260.000000 0 1 0
-7.449925 -14.055503 18.930662 24.727081 1.083410 0.698847 0.109843 -0.035024 -393115.000000 0 1 0
-7.131825 -13.313903 20.066362 25.115371 1.079024 0.645220 0.097037 -0.034208 -567206.000000 0 0 1
-8.193525 -12.911403 20.884462 25.884338 1.005326 0.632017 0.107989 -0.025120 -334666.000000 0 0 1
-7.751425 -11.990403 22.032662 26.254382 0.996907 0.574987 0.094787 -0.015307 -391878.000000 0 0 1
-7.320925 -10.695603 21.618962 25.206575 0.970563 0.540072 0.068459 -0.012326 116250.000000 0 0 1
-6.867125 -9.856803 22.686162 25.670527 0.962296 0.486994 0.064033 -0.013800 347673.000000 0 0 1
-5.480525 -10.177103 23.301572 26.011014 1.076813 0.460490 0.063276 -0.010901 5070.570000 0 0 1
-5.467625 -11.373803 23.976572 27.094914 1.122691 0.484495 0.088912 -0.009738 -561106.000000 0 0 1
-4.172125 -11.479003 24.490352 27.366978 1.222184 0.462618 0.070057 -0.009753 -545397.000000 0 0 1
-4.065725 -12.660803 25.415742 28.684247 1.260071 0.482037 0.072042 -0.010853 -920443.000000 0 0 1
-2.792025 -13.018303 25.839142 29.067729 1.359528 0.475795 0.058539 -0.015712 -684413.000000 0 0 1
-2.679725 -14.170503 26.702632 30.348223 1.383898 0.495198 0.069160 -0.019052 -162313.000000 0 0 1
-2.796725 -15.567103 26.031482 30.459718 1.393037 0.545978 0.063855 -0.025804 383847.000000 0 0 1
-1.737725 -15.983003 25.138852 29.840207 1.462498 0.568984 0.077467 -0.028921 415596.000000 0 0 1
-1.906225 -17.326903 24.665202 30.203104 1.461222 0.615223 0.076954 -0.024183 -694705.000000 0 0 1
-0.627525 -18.211203 24.605532 30.618196 1.536352 0.637436 0.097479 -0.031426 222709.000000 0 0 1
-0.116425 -18.592103 25.839382 31.833214 1.564534 0.623720 0.107433 -0.031894 118271.000000 0 0 1
0.606075 -17.547203 26.506312 31.793966 -1.536270 0.585040 0.130275 -0.035740 -578856.000000 0 0 1
1.046875 -17.980603 27.953022 33.253112 -1.512640 0.572381 0.127295 -0.033583 -491218.000000 0 0 1
2.151375 -18.852903 27.952832 33.784926 -1.457174 0.596377 0.119100 -0.037865 -244202.000000 0 0 1
2.858175 -18.861603 29.154502 34.841272 -1.420406 0.579419 0.112189 -0.044014 112376.000000 0 0 1
4.016375 -17.849403 29.171712 34.434303 -1.349468 0.560160 0.144283 -0.039658 -752042.000000 0 0 1
3.563875 -16.557403 29.458472 33.980147 -1.358787 0.521783 0.129117 -0.044503 -326813.000000 0 0 1
4.522275 -15.697503 30.016922 34.174233 -1.290303 0.498398 0.146182 -0.062296 3469.510000 0 0 1
3.839775 -14.485003 30.733882 34.192553 -1.311670 0.453664 0.147824 -0.060903 502873.000000 0 0 1
3.051575 -14.869003 31.854626 35.286209 -1.368376 0.444676 0.125500 -0.058206 -19099.600000 0 0 1
2.521975 -13.771203 32.568404 35.450068 -1.389669 0.405990 0.119671 -0.052705 -213689.000000 0 0 1
1.511275 -14.211703 33.627728 36.538754 -1.464854 0.401872 0.080766 -0.035324 11479.900000 0 0 1
2.151075 -14.658803 -33.062201 36.230053 -1.425093 2.720304 0.089703 -0.035135 70423.200000 0 0 1
1.240375 -15.173403 -32.116621 35.542201 -1.489231 2.698942 0.090976 -0.040384 -5630.680000 0 0 1
2.001975 -15.766103 -30.938021 34.781303 -1.444493 2.667049 0.061441 -0.022448 -64011.600000 0 0 1
1.255575 -16.473803 -29.966751 34.219422 -1.494727 2.637729 0.058818 -0.015309 -487443.000000 0 0 1
1.791575 -16.195003 -28.714161 33.015010 -1.460619 2.625452 0.051080 -0.020273 -7402.700000 0 0 1
1.552575 -17.301703 -27.632831 32.639436 -1.481301 2.580377 0.058635 -0.017543 -234094.000000 0 0 1
2.314175 -18.444103 -27.949961 33.566958 -1.445979 2.554695 0.040203 -0.011593 -63940.200000 0 0 1
1.988575 -19.574903 -27.166261 33.543062 -1.469556 2.514764 0.049990 -0.012882 -249938.000000 0 0 1
2.902275 -20.793003 -27.578501 34.660437 -1.432113 2.490920 0.027865 -0.006502 1105000.000000 0 0 1
4.301175 -20.789203 -27.282131 34.568855 -1.366780 2.480320 0.044263 -0.008184 661410.000000 0 0 1
4.698975 -20.677603 -25.905391 33.477349 -1.347342 2.455644 0.065998 -0.013486 -719624.000000 0 0 1
5.974875 -21.493503 -25.642301 33.988195 -1.299657 2.425608 0.055244 -0.010163 -547457.000000 0 0 1
5.836275 -22.893903 -25.576381 34.818733 -1.321186 2.395811 0.072713 -0.019401 22509.700000 0 0 1
5.577875 -23.493403 -26.848511 36.109489 -1.337689 2.409131 0.050104 -0.017557 -161286.000000 0 0 1
5.001275 -24.924803 -26.767591 36.915613 -1.372771 2.381979 0.054930 -0.010555 345536.000000 0 0 1
5.933675 -25.788423 -26.115251 37.178725 -1.344642 2.349595 0.062122 -0.011905 92548.900000 0 0 1
5.396675 -27.046803 -26.120771 37.986160 -1.373852 2.329029 0.051305 -0.013906 17282.300000 0 0 1
6.075575 -28.071313 -25.143031 38.171760 -1.357650 2.289861 0.059512 -0.012480 -425627.000000 0 0 1
7.362675 -28.355103 -25.584111 38.894313 -1.316747 2.288671 0.069117 -0.020264 -976434.000000 0 0 1
7.872375 -29.504333 -24.976921 39.450305 -1.310050 2.256378 0.066891 -0.018981 -18952.200000 0 0 1
9.294575 -29.745913 -25.531751 40.287452 -1.267943 2.257174 0.085058 -0.026483 42354.800000 0 0 1
9.278875 -30.187783 -26.926941 41.502529 -1.272590 2.276806 0.076438 -0.018321 597616.000000 0 0 1
10.600175 -30.106593 -27.489831 42.124357 -1.232262 2.281791 0.086854 -0.030552 935689.000000 0 0 1
10.596075 -30.060503 -29.044901 43.122116 -1.231904 2.309798 0.090970 -0.020342 -95122.200000 0 0 1
10.223675 -31.224283 -29.666101 44.266883 -1.254371 2.305227 0.079948 -0.034834 -84773.000000 0 0 1
10.261375 -31.110313 -31.071811 45.150912 -1.252195 2.329770 0.081873 -0.035764 -46311.800000 0 0 1
-35.560309 -4.605903 -5.208521 36.233667 0.128807 1.715044 0.188004 -0.051312 -40397.800000 0 0 1
-35.205896 -3.815103 -4.084121 35.646741 0.107944 1.685621 0.189124 -0.056604 186553.000000 0 0 1
-34.535227 -2.641303 -4.498321 34.926971 0.076333 1.699947 0.199053 -0.057266 163161.000000 0 0 1
-35.440343 -1.442003 -5.024821 35.823820 0.040666 1.711525 0.182317 -0.046437 251333.000000 0 0 1
-36.376245 -0.890003 -4.120821 36.619728 0.024462 1.683565 0.171952 -0.046798 590433.000000 0 0 1
-37.146745 0.156697 -4.756221 37.450325 -0.004218 1.698141 0.174934 -0.039905 377348.000000 0 0 1
36.293076 0.816897 -3.739221 36.494335 0.022505 1.673437 0.173042 -0.036447 -564582.000000 0 0 1
36.974566 1.559197 -2.814721 37.114314 0.042144 1.646708 0.189362 -0.035405 -365403.000000 0 0 1
36.143446 2.205697 -1.886521 36.259795 0.060951 1.622848 0.168832 -0.033937 -1057260.000000 0 0 1
36.901766 3.090797 -0.926621 37.042570 0.083562 1.595814 0.164886 -0.035595 -64570.000000 0 0 1
-36.790865 4.202097 -1.458221 37.058761 -0.113723 1.610155 0.188240 -0.047758 272737.000000 0 0 1
-35.527076 3.852097 -1.985621 35.790424 -0.108005 1.626304 0.164318 -0.006478 -706034.000000 0 0 1
-34.660829 5.048397 -2.462221 35.112988 -0.144634 1.640977 0.154879 -0.013788 -152928.000000 0 0 1
-34.086296 5.695797 -1.344821 34.585058 -0.165570 1.609691 0.158154 -0.026891 166710.000000 0 0 1
-33.487885 6.915197 -1.762921 34.239835 -0.203636 1.622307 0.166207 -0.040415 -355879.000000 0 0 1
-32.766945 7.584097 -0.601321 33.638561 -0.227451 1.588673 0.181944 -0.045040 -331743.000000 0 0 1
-31.410645 7.178397 -0.458021 32.223715 -0.224675 1.585011 0.195881 -0.041967 695928.000000 0 0 1
-30.836725 7.494597 0.831279 31.745293 -0.238419 1.544607 0.197392 -0.053030 212358.000000 0 0 1
-30.663315 8.946097 1.333479 31.969512 -0.283873 1.529073 0.196444 -0.054443 -44269.100000 0 0 1
-31.908965 9.571497 1.626579 33.353281 -0.291423 1.522009 0.206611 -0.058478 290845.000000 0 0 1
-31.799065 10.872997 1.947179 33.662949 -0.329466 1.512921 0.206499 -0.046484 -256490.000000 0 0 1
-33.178855 11.549097 1.974879 35.186904 -0.334969 1.514641 0.213945 -0.050311 -821507.000000 0 0 1
-33.722405 11.694897 0.680979 35.699229 -0.333820 1.551720 0.201619 -0.047549 67615.100000 0 0 1
-34.797318 12.594597 0.592779 37.011196 -0.347273 1.554779 0.191607 -0.040449 654072.000000 0 0 1
-36.202875 11.980897 0.963079 38.146003 -0.319593 1.545546 0.191401 -0.051677 24056.300000 0 0 1
-36.719265 11.218197 -0.054221 38.394730 -0.296506 1.572209 0.180762 -0.045360 153126.000000 0 0 1
36.370706 10.791297 0.357079 37.939529 0.288429 1.561384 0.178564 -0.056245 355496.000000 0 0 1
35.730606 9.679897 -0.487921 37.021814 0.264563 1.583976 0.177604 -0.045812 46162.500000 0 0 1
35.386876 10.053997 -1.795921 36.831226 0.276822 1.619576 0.162689 -0.040070 66920.800000 0 0 1
34.851556 8.926397 -2.458621 36.060454 0.250736 1.639030 0.158394 -0.051940 -86702.000000 0 0 1
34.305196 9.259297 -3.885121 35.744583 0.263627 1.679703 0.128782 -0.031564 -120830.000000 0 0 1
32.982766 9.738597 -3.919821 34.613121 0.287105 1.684286 0.149443 -0.036923 44947.300000 0 0 1
32.677596 10.064297 -5.279321 34.597494 0.298769 1.723987 0.124813 -0.018758 -135473.000000 0 0 1
31.204536 10.479397 -5.425021 33.361230 0.323995 1.734136 0.141478 -0.030155 -103047.000000 0 0 1
30.215726 9.473597 -5.409021 32.124705 0.303825 1.739978 0.145111 -0.023952 1341940.000000 0 0 1
28.903676 10.027697 -5.662521 31.113363 0.333942 1.753813 0.142603 -0.009381 1156540.000000 0 0 1
27.702576 9.045197 -5.663821 29.687155 0.315598 1.762757 0.161388 0.004446 -14949.800000 0 0 1
27.727076 8.283197 -6.858321 29.739514 0.290301 1.803504 0.148360 -0.001254 200815.000000 0 0 1
26.570576 7.513897 -7.041821 28.496340 0.275594 1.820496 0.167412 -0.008022 -275512.000000 0 0 1
26.657076 6.708897 -8.384921 28.738753 0.246554 1.866866 0.153024 -0.014531 257829.000000 0 0 1
27.503676 5.570097 -8.136621 29.217850 0.199819 1.853009 0.162229 -0.013757 737220.000000 0 0 1
27.481576 4.630897 -9.178521 29.341566 0.166941 1.888953 0.135930 -0.009745 -107749.000000 0 0 1
28.476876 3.490797 -8.871921 30.030470 0.121975 1.870703 0.137421 -0.004478 856643.000000 0 0 1
29.877336 3.832997 -8.992121 31.435733 0.127594 1.860896 0.154364 -0.007336 1560160.000000 0 0 1
30.793406 3.239297 -8.094621 32.003903 0.104809 1.826500 0.120985 -0.005243 235327.000000 0 0 1
31.043066 1.672097 -8.093621 32.124361 0.053812 1.825487 0.112026 -0.006116 -830831.000000 0 0 1
29.916286 1.102097 -7.497821 30.861240 0.036823 1.816205 0.140807 -0.018089 163666.000000 0 0 1
30.141556 -0.204903 -6.926721 30.927898 -0.006798 1.796676 0.133508 -0.019309 -140915.000000 0 0 1
30.100116 -1.389103 -7.909621 31.152989 -0.046117 1.827503 0.117318 -0.016686 -843041.000000 0 0 1
31.151246 -1.471003 -8.800821 32.403988 -0.047186 1.845848 0.136338 -0.021995 -379728.000000 0 0 1
31.065696 -2.536003 -9.694221 32.641794 -0.081453 1.872333 0.113914 -0.029469 -258994.000000 0 0 1
32.137116 -2.684703 -10.799021 34.009127 -0.083345 1.893923 0.123062 -0.029816 545692.000000 0 0 1
33.407746 -3.189103 -10.343521 35.117464 -0.095172 1.869771 0.150165 -0.031338 1074460.000000 0 0 1
34.197036 -3.725403 -11.414021 36.243562 -0.108511 1.891174 0.145768 -0.042835 48353.300000 0 0 1
35.664356 -4.049403 -11.122821 37.577402 -0.113058 1.871296 0.159759 -0.037116 -327736.000000 0 0 1
35.823826 -5.211203 -10.266321 37.628453 -0.144454 1.847134 0.140826 -0.038474 237656.000000 0 0 1
37.171106 -5.343503 -9.867021 38.827854 -0.142776 1.827736 0.147875 -0.037284 -96958.400000 0 0 1
-36.987205 -6.623103 -9.061321 38.652637 0.177187 1.807428 0.137970 -0.044712 -106193.000000 0 0 1
36.926616 -6.504403 -7.727821 38.283175 -0.174355 1.774052 0.136964 -0.043610 229433.000000 0 0 1
36.465486 -7.703303 -7.187121 37.956913 -0.208188 1.761296 0.136516 -0.033247 -251257.000000 0 0 1
36.158166 -7.631503 -5.682721 37.389118 -0.208006 1.723376 0.132384 -0.032263 -377831.000000 0 0 1
-37.137735 -7.394203 -4.834421 38.174039 0.196532 1.697779 0.146639 -0.030763 -22259.700000 0 0 1
37.115666 -8.129903 -3.631321 38.168763 -0.215637 1.666079 0.147870 -0.022798 -122986.000000 0 0 1
-36.691865 -9.571203 -3.490421 38.079967 0.255167 1.662585 0.142702 -0.030410 532834.000000 0 0 1
36.927656 -10.470503 -4.325021 38.626274 -0.276289 1.683003 0.123633 -0.027186 1229480.000000 0 0 1
-36.542235 -11.216003 -5.133121 38.567896 0.297805 1.704286 0.118541 -0.028335 836731.000000 0 0 1
37.026566 -11.914003 -6.284421 39.400558 -0.311307 1.730981 0.102395 -0.028968 532522.000000 0 0 1
36.396886 -10.970103 -7.152321 38.681160 -0.292743 1.756771 0.131114 -0.029243 318498.000000 0 0 1
35.887626 -11.772503 -8.250821 38.659922 -0.316977 1.785871 0.108601 -0.029877 -150779.000000 0 0 1
36.221486 -11.244203 -9.639821 39.132522 -0.300997 1.819696 0.078811 -0.030777 70094.500000 0 0 1
35.567206 -10.011303 -9.947321 38.264886 -0.274377 1.833777 0.087085 -0.031798 622441.000000 0 0 1
36.079946 -9.540903 -11.175621 38.957488 -0.258520 1.861751 0.083011 -0.030022 53063.700000 0 0 1
35.096106 -8.506103 -11.777221 37.984120 -0.237781 1.886049 0.089138 -0.033562 -240670.000000 0 0 1
35.523706 -7.933303 -12.972821 38.641494 -0.219719 1.913169 0.097737 -0.029806 486117.000000 0 0 1
34.575246 -7.094603 -13.651021 37.843512 -0.202384 1.939839 0.082939 -0.028345 66473.800000 0 0 1
35.114956 -6.468403 -14.947021 38.708059 -0.182164 1.967248 0.078183 -0.024599 -127033.000000 0 0 1
35.922346 -5.345803 -14.674521 39.170577 -0.147731 1.954795 0.079944 -0.016755 53237.500000 0 0 1
35.317116 -4.228903 -15.192921 38.678252 -0.119173 1.974474 0.112229 -0.023647 -556484.000000 0 0 1
36.195726 -2.989903 -15.250321 39.390892 -0.082417 1.968339 0.113858 -0.028806 -1315440.000000 0 0 1
37.102026 -3.117203 -16.291221 40.640881 -0.083820 1.983249 0.111282 -0.024338 1513890.000000 0 0 1
-36.022713 -2.349803 -16.149521 39.546990 0.065139 1.991456 0.141384 -0.022862 1652750.000000 0 0 1
-36.170555 -0.834503 -15.779321 39.471413 0.023067 1.982058 0.126938 -0.022557 -999837.000000 0 0 1
-36.204235 0.020797 -16.942421 39.972399 -0.000574 2.008491 0.107511 -0.014455 94634.500000 0 0 1
-36.282765 1.359297 -16.492221 39.878316 -0.037446 1.997161 0.116984 -0.025474 -82502.300000 0 0 1
-36.477445 2.363797 -17.689121 40.609070 -0.064711 2.021496 0.101082 -0.025993 707167.000000 0 0 1
-35.430352 2.385797 -18.691821 40.129616 -0.067236 2.055319 0.103727 -0.015121 662600.000000 0 0 1
-35.473355 3.619497 -19.480521 40.631889 -0.101682 2.070812 0.096189 -0.014584 -138328.000000 0 0 1
-34.515934 3.772797 -20.697021 40.422152 -0.108874 2.108333 0.091989 -0.002107 -694171.000000 0 0 1
-33.200855 4.001297 -20.310521 39.125751 -0.119939 2.116604 0.083472 -0.003870 -488716.000000 0 0 1
-32.498245 4.459397 -21.468821 39.203730 -0.136368 2.150316 0.072452 -0.005897 73401.400000 0 0 1
-31.029865 4.913497 -21.271121 37.940158 -0.157043 2.165966 0.092932 -0.005976 806744.000000 0 0 1
-30.125665 3.861997 -20.885421 36.860162 -0.127501 2.173185 0.091292 0.004896 1535810.000000 0 0 1
-28.776845 4.054197 -21.403321 36.092180 -0.139963 2.205598 0.071319 -0.002910 1443550.000000 0 0 1
-27.849105 2.938097 -20.811121 34.889939 -0.105112 2.209904 0.110679 -0.001208 -37779.400000 0 0 1
-27.404945 3.285297 -19.557521 33.827811 -0.119310 2.187255 0.111895 0.006722 -48799.100000 0 0 1
-26.605805 2.298097 -18.943421 32.741462 -0.086162 2.187778 0.118972 0.001587 -427035.000000 0 0 1
-25.883525 2.705897 -17.639321 31.439217 -0.104163 2.166463 0.119051 -0.006385 -231220.000000 0 0 1
-24.796125 3.576797 -17.864121 30.769597 -0.143260 2.190234 0.112055 -0.003119 -272054.000000 0 0 1
-24.290325 3.852597 -16.595821 29.669575 -0.157296 2.164404 0.118274 -0.015479 1208910.000000 0 0 1
-22.895925 4.646097 -16.622521 28.672597 -0.200204 2.189200 0.118268 -0.023521 1238460.000000 0 0 1
-21.791525 4.036697 -17.210421 28.060008 -0.183165 2.231083 0.140862 -0.029341 57440.900000 0 0 1
-20.609525 4.825497 -17.169821 27.255104 -0.229996 2.252307 0.130457 -0.028969 248381.000000 0 0 1
-19.445125 4.083197 -17.878121 26.728498 -0.206978 2.303496 0.166334 -0.032268 -378169.000000 0 0 1
-19.007425 3.129597 -17.001021 25.692631 -0.163187 2.293891 0.197463 -0.036282 465278.000000 0 0 1
-17.848525 2.371097 -17.389621 25.031797 -0.132072 2.338801 0.154389 -0.036102 10399.800000 0 0 1
-17.649025 1.027897 -16.609421 24.257319 -0.058175 2.325013 0.151956 -0.032004 -1717.790000 0 1 0
-18.411925 -0.116503 -17.069321 25.107255 0.006327 2.318363 0.120271 -0.025725 104502.000000 0 0 1
-19.766225 0.088797 -16.768021 25.920611 -0.004492 2.274307 0.123352 -0.026588 -1150180.000000 0 0 1
-20.705425 -0.985303 -17.308421 27.004942 0.047551 2.266512 0.098693 -0.030316 -338377.000000 0 0 1
-20.681325 -2.193103 -16.600321 26.610103 0.105648 2.244437 0.084642 -0.021299 519179.000000 0 0 1
-21.732625 -3.081903 -16.968721 27.744236 0.140871 2.228893 0.100261 -0.012059 119511.000000 0 0 1
-21.905025 -4.323103 -16.073521 27.511405 0.194853 2.194751 0.108324 -0.017049 -236781.000000 0 0 1
-22.442125 -3.849903 -14.842021 27.180072 0.169894 2.148453 0.102371 -0.020955 319668.000000 0 0 1
-22.921425 -4.852203 -14.007521 27.297367 0.208609 2.109642 0.107967 -0.034022 -373749.000000 0 0 1
-23.124625 -4.323103 -12.518621 26.648703 0.184815 2.059821 0.118454 -0.045543 -145124.000000 0 0 1
-23.989125 -3.203003 -12.495621 27.237435 0.132734 2.047403 0.108052 -0.037141 389866.000000 0 0 1
-24.197525 -2.843203 -11.133821 26.787422 0.116963 1.999438 0.117995 -0.045269 -685108.000000 0 0 1
-25.091925 -1.627303 -11.074721 27.475485 0.064763 1.985672 0.162931 -0.043116 -491460.000000 0 0 1
-25.530765 -1.284603 -9.778521 27.369502 0.050273 1.936148 0.156575 -0.047166 668735.000000 0 0 1
-26.255365 -0.043303 -9.741421 28.004310 0.001649 1.926078 0.158769 -0.042058 13951.800000 0 0 1
-26.544985 0.278097 -8.260421 27.801945 -0.010476 1.872468 0.174657 -0.035871 -490520.000000 0 0 1
-25.358185 0.469697 -7.547821 26.461817 -0.018520 1.860047 0.168063 -0.033285 205373.000000 0 0 1
-25.574625 0.611597 -6.164921 26.314288 -0.023910 1.807275 0.168316 -0.038727 272374.000000 0 0 1
-24.297025 1.174697 -5.464521 24.931633 -0.048310 1.791771 0.118502 -0.025872 259895.000000 0 1 0
-24.066225 2.521897 -5.711121 24.862825 -0.104409 1.802571 0.149116 -0.025167 1104020.000000 0 1 0
-22.691525 2.848197 -5.446921 23.509285 -0.124865 1.804613 0.123202 -0.008431 715367.000000 0 1 0
-22.288325 4.354597 -5.452821 23.355197 -0.192945 1.806445 0.123397 -0.014869 -252049.000000 0 1 0
-22.823725 5.086497 -4.413321 23.796476 -0.219277 1.757337 0.125106 -0.012873 636363.000000 0 1 0
-22.405525 6.476297 -4.608221 23.773634 -0.281380 1.765869 0.111943 -0.017219 -244612.000000 0 1 0
-22.923525 7.494997 -3.538621 24.375907 -0.316001 1.716480 0.121606 -0.017413 -515321.000000 0 1 0
-22.392725 7.376297 -2.204221 23.679157 -0.318212 1.664018 0.111477 -0.019279 1464900.000000 0 1 0
-20.993325 7.678797 -2.060421 22.448362 -0.350657 1.662711 0.116604 -0.019752 301451.000000 0 1 0
-20.491725 9.121597 -2.281921 22.545986 -0.418801 1.672182 0.095681 -0.021890 -815248.000000 0 1 0
-20.545325 9.544297 -3.654821 22.946932 -0.434886 1.730750 0.095522 -0.020553 528941.000000 0 1 0
-19.979725 10.819397 -3.689221 23.018669 -0.496308 1.731761 0.096207 -0.016644 -362130.000000 0 1 0
-19.803825 11.339897 -5.135821 23.391482 -0.520037 1.792159 0.096284 -0.023922 -33970.900000 0 1 0
-18.755525 10.798797 -5.922921 22.438020 -0.522410 1.837930 0.077723 -0.024390 298661.000000 0 1 0
-18.673425 11.555397 -7.122721 23.085865 -0.554139 1.884445 0.086272 -0.016178 230146.000000 0 1 0
-17.313825 11.323397 -7.834921 22.121796 -0.579188 1.932825 0.064278 -0.008325 54751.500000 0 1 0
-17.008525 9.989297 -8.243021 21.378105 -0.531037 1.966635 0.047361 -0.007832 779888.000000 0 1 0
-17.991325 9.418797 -9.129821 22.265560 -0.482285 1.993297 0.072013 -0.012258 123708.000000 0 1 0
-18.076125 9.964097 -10.562821 23.186261 -0.503787 2.043802 0.075429 -0.011329 354663.000000 0 1 0
-16.909925 9.727497 -11.342121 22.565759 -0.522025 2.097429 0.077562 -0.016910 394351.000000 0 1 0
-17.141425 10.321397 -12.624121 23.658574 -0.541986 2.133643 0.099446 -0.022947 -119150.000000 0 1 0
-16.144025 9.934197 -13.703521 23.390261 -0.551629 2.196743 0.081009 -0.008987 -293669.000000 0 1 0
-16.259325 8.620097 -14.289221 23.299218 -0.487486 2.231018 0.106679 -0.025060 -86010.000000 0 1 0
-15.784425 7.579097 -13.503221 22.111711 -0.447652 2.227718 0.082404 -0.022076 -344769.000000 0 1 0
-15.758225 6.281297 -14.341421 22.213795 -0.379303 2.272617 0.092287 -0.028776 262919.000000 0 1 0
-14.677325 6.347897 -15.274621 22.114107 -0.408203 2.333278 0.104474 -0.029558 645153.000000 0 1 0
-14.536525 5.147597 -15.953221 22.188140 -0.340336 2.373155 0.090826 -0.037499 34029.100000 0 1 0
33.072276 -15.559203 27.989902 46.035843 -0.439738 0.917254 0.055109 0.001582 -41673.700000 0 0 1
32.205936 -14.508303 28.338702 45.285707 -0.423257 0.894670 0.064711 0.001202 346070.000000 0 0 1
31.147446 -14.808503 29.257962 45.227022 -0.443801 0.867267 0.071235 0.002717 767059.000000 0 0 1
31.640986 -14.818703 30.758922 46.549514 -0.437999 0.848941 0.063054 -0.007072 78047.500000 0 0 1
32.211186 -13.579203 31.121762 46.802984 -0.398960 0.843366 0.054070 -0.006807 14373.300000 0 0 1
32.523086 -13.549503 32.502178 47.934661 -0.394744 0.825688 0.034333 -0.010752 -73411.200000 0 0 1
32.778956 -12.089103 32.956384 48.028425 -0.353330 0.814565 0.044610 -0.006803 28621.300000 0 0 1
32.377926 -11.931003 -33.607411 48.167800 -0.353053 2.343000 0.035913 -0.013319 43050.500000 0 0 1
32.416796 -10.570903 -33.259391 47.631709 -0.315221 2.343762 0.048733 -0.005501 -6426.590000 0 0 1
32.165226 -10.303703 -31.777921 46.374609 -0.310008 2.325735 0.057954 -0.005002 1886800.000000 0 0 1
30.728586 -10.395203 -31.481911 45.204170 -0.326206 2.341218 0.072528 -0.010542 1731170.000000 0 0 1
30.517996 -10.340103 -30.086261 44.084565 -0.326680 2.321929 0.068609 -0.006968 -585121.000000 0 0 1
29.191176 -9.684103 -29.703701 42.757648 -0.320323 2.338798 0.067924 0.001062 -219640.000000 0 0 1
28.978976 -9.765803 -28.332961 41.688231 -0.325043 2.318067 0.062025 -0.008741 258554.000000 0 0 1
28.006576 -10.750103 -27.995621 41.032765 -0.366500 2.321666 0.087970 -0.013259 -876423.000000 0 0 1
27.564476 -10.790403 -26.494291 39.726321 -0.373123 2.300864 0.075582 -0.009339 -465667.000000 0 0 1
26.811476 -9.627703 -26.081621 38.623812 -0.344749 2.312131 0.057905 -0.017670 495206.000000 0 0 1
25.620876 -9.278103 -26.752371 38.186409 -0.347440 2.346997 0.051322 -0.020796 397476.000000 0 0 1
24.416176 -10.327903 -26.760281 37.668659 -0.400171 2.360880 0.058578 -0.013332 84645.800000 0 0 1
24.749976 -11.536903 -27.393961 38.679330 -0.436193 2.357788 0.060746 -0.020128 -11090.300000 0 0 1
23.753376 -12.505603 -27.180601 38.202069 -0.484604 2.362421 0.071819 -0.032701 187281.000000 0 0 1
24.298976 -13.758303 -27.895951 39.470435 -0.515203 2.355698 0.076871 -0.013850 321322.000000 0 0 1
24.592776 -13.645703 -29.282141 40.601153 -0.506572 2.376350 0.068547 -0.020265 594348.000000 0 0 1
25.608676 -14.538803 -29.757511 41.865147 -0.516353 2.361423 0.070073 -0.011357 417287.000000 0 0 1
25.931676 -14.629703 -31.249271 43.162449 -0.513652 2.380368 0.072783 -0.017463 611157.000000 0 0 1
24.870576 -15.409603 -31.871221 43.264028 -0.554701 2.398926 0.084881 -0.014982 793981.000000 0 0 1
25.056576 -15.807903 -33.239181 44.526003 -0.562822 2.413600 0.084251 -0.009525 -91108.700000 0 0 1
24.945176 -14.663203 33.621133 44.358223 -0.531413 0.710638 0.054480 -0.009642 626434.000000 0 0 1
23.710476 -13.942903 33.605610 43.427276 -0.531585 0.685920 0.059539 -0.016031 509172.000000 0 0 1
23.896276 -12.951703 32.586042 42.433816 -0.496678 0.695199 0.045771 -0.016351 -474303.000000 0 0 1
22.955476 -11.756603 32.785849 41.714308 -0.473319 0.666546 0.050582 -0.021835 1925570.000000 0 0 1
21.538376 -12.016703 32.468801 40.774083 -0.508904 0.649626 0.048392 -0.018140 1997670.000000 0 0 1
21.244776 -12.156003 31.068692 39.552150 -0.519718 0.667273 0.042263 -0.014267 -1963900.000000 0 0 1
19.771876 -12.409903 30.877892 38.708875 -0.560506 0.647332 0.052874 -0.017627 -721226.000000 0 0 1
18.991176 -11.225903 31.111582 38.139431 -0.533858 0.616802 0.056180 -0.017611 -208931.000000 0 0 1
18.139276 -11.554003 32.192130 38.715134 -0.567154 0.588971 0.047224 -0.017275 7947.810000 0 0 1
17.245176 -10.307203 32.607573 38.299979 -0.538716 0.552199 0.066123 -0.022542 335119.000000 0 0 1
16.331776 -9.916403 31.548562 36.883245 -0.545686 0.544545 0.096688 -0.022873 1017660.000000 0 0 1
15.615176 -8.613903 31.736612 36.403923 -0.504099 0.511950 0.100357 -0.028730 856900.000000 0 0 1
14.654876 -8.495903 32.922543 37.024851 -0.525383 0.475200 0.098789 -0.027781 137210.000000 0 0 1
13.643176 -9.505703 32.904766 36.867577 -0.608533 0.467911 0.102845 -0.020716 1754510.000000 0 0 1
12.419876 -9.485703 33.700520 37.147772 -0.652244 0.434212 0.100944 -0.025226 1607060.000000 0 0 1
11.159176 -8.953903 32.989479 35.958383 -0.676191 0.409211 0.129665 -0.035041 -157981.000000 0 0 1
11.253876 -7.572603 32.608925 35.317645 -0.592298 0.394200 0.110099 -0.037021 -333948.000000 0 0 1
10.016076 -7.176903 32.118848 34.401310 -0.621740 0.366320 0.114677 -0.029384 -354008.000000 0 0 1
10.015676 -5.703003 31.920805 33.937823 -0.517621 0.346500 0.095436 -0.023805 -109077.000000 0 0 1
10.098576 -5.005403 33.124038 34.989101 -0.460165 0.327977 0.077115 -0.023615 -47926.300000 0 0 1
10.587476 -3.770603 32.814912 34.686173 -0.342133 0.329971 0.037109 -0.014271 -371616.000000 0 0 1
10.860676 -2.815903 -33.903091 35.711387 -0.253689 2.822000 0.057407 -0.022029 392035.000000 0 0 1
9.578176 -2.564803 -33.329631 34.773323 -0.261638 2.852429 0.057018 -0.004319 522179.000000 0 0 1
9.609476 -1.630003 -32.289101 33.728104 -0.168025 2.848432 0.063762 -0.009346 -180844.000000 0 0 1
8.183676 -1.318803 -31.811551 32.873798 -0.159777 2.886687 0.064453 -0.003973 -202588.000000 0 0 1
7.474376 -0.576503 -32.758731 33.605552 -0.076978 2.916624 0.047959 -0.003604 -568313.000000 0 0 1
6.117076 -0.492503 -32.417791 32.993550 -0.080340 2.954501 0.055180 -0.001772 -448781.000000 0 0 1
5.391076 0.513297 -33.287381 33.725019 0.094926 2.980318 0.083970 -0.009123 -161972.000000 0 0 1
5.771576 1.903197 -33.001141 33.556051 0.318525 2.959480 0.056556 -0.011555 186733.000000 0 0 1
5.291176 2.695797 33.796887 34.314625 0.471210 0.173931 0.086020 -0.019182 55626.400000 0 0 1
5.649276 4.178497 33.930842 34.650775 0.636845 0.204202 0.057948 -0.025091 226607.000000 0 0 1
5.238576 4.917497 32.796761 33.574574 0.753794 0.215670 0.091345 -0.032526 308754.000000 0 0 1
6.053976 6.078297 32.836934 33.939071 0.787403 0.255544 0.075271 -0.039348 359897.000000 0 0 1
5.521976 7.170797 31.824372 33.086300 0.914577 0.277076 0.109335 -0.044995 -337714.000000 0 0 1
4.360476 7.817197 32.266270 33.484840 1.061980 0.270609 0.122933 -0.047817 -253562.000000 0 0 1
3.893076 8.990297 31.606082 33.089665 1.162143 0.300581 0.145744 -0.050409 -35969.500000 0 0 1
3.571176 8.917897 30.146112 31.639695 1.189902 0.308487 0.143428 -0.048393 -459788.000000 0 0 1
2.367776 8.274397 29.812302 31.029750 1.292087 0.281049 0.140942 -0.048255 -379026.000000 0 0 1
2.122976 8.457297 28.457692 29.763621 1.324855 0.297326 0.112713 -0.032246 -199687.000000 0 0 1
0.733076 7.989497 28.011612 29.137946 1.479298 0.278951 0.116429 -0.030836 104213.000000 0 0 1
-0.334224 8.882997 28.337752 29.699285 -1.533189 0.303969 0.116584 -0.030042 113504.000000 0 0 1
-1.500924 8.520797 27.624612 28.947815 -1.396437 0.303521 0.106630 -0.020372 265437.000000 0 0 1
-2.826224 8.788397 28.352152 29.817244 -1.259656 0.314781 0.091647 -0.023090 -152620.000000 0 0 1
-3.067524 10.134497 28.645692 30.540030 -1.276881 0.354062 0.103807 -0.021230 -176085.000000 0 0 1
-4.409824 10.212697 29.086502 31.141136 -1.163182 0.365285 0.085890 -0.015191 -138350.000000 0 0 1
-4.812824 11.571897 29.701352 32.237283 -1.176653 0.399295 0.067804 -0.018536 -50014.500000 0 0 1
-5.091824 12.749797 28.877092 31.974528 -1.190837 0.443797 0.067616 -0.023027 661441.000000 0 0 1
-6.220724 12.689697 27.999002 31.363513 -1.115005 0.467439 0.067725 -0.028073 92411.000000 0 0 1
-6.373924 14.114497 27.462612 31.528416 -1.146623 0.513474 0.056854 -0.024926 421703.000000 0 0 1
-5.436624 14.536697 26.443222 30.661318 -1.212909 0.530747 0.066482 -0.022008 520223.000000 0 0 1
-5.499224 15.909097 26.310952 31.234709 -1.237988 0.569144 0.050694 -0.014474 -66895.100000 0 0 1
-4.210424 16.496597 25.707002 30.833672 -1.320902 0.584965 0.095475 -0.021910 -11067.200000 0 0 1
-3.985124 16.158297 24.349472 29.493535 -1.328992 0.599555 0.075935 -0.007868 -441868.000000 0 0 1
-2.899924 16.897197 23.889422 29.404580 -1.400831 0.622473 0.078261 -0.008356 -232382.000000 0 0 1
-2.669324 16.845897 22.354262 28.118012 -1.413647 0.651763 0.082105 -0.007189 102828.000000 0 0 1
-2.231924 15.547597 21.908662 26.957351 -1.428216 0.621998 0.075015 -0.007829 17583.300000 0 0 1
-2.492424 15.505297 20.495862 25.820666 -1.411413 0.653801 0.069640 -0.007160 -70403.600000 0 0 1
-1.613024 14.482497 19.755462 24.548378 -1.459876 0.635531 0.060545 -0.009625 -316484.000000 0 1 0
-1.968624 13.140597 19.942662 23.963734 -1.422090 0.587729 0.061952 -0.007967 -451977.000000 0 1 0
-1.369624 12.245497 19.054062 22.691086 -1.459412 0.574037 0.050722 -0.006183 -89566.000000 0 1 0
-2.117524 10.879297 18.803062 21.826547 -1.378562 0.532626 0.037966 -0.011415 -339151.000000 0 1 0
-2.077924 9.974397 19.902662 22.358943 -1.365408 0.473137 0.052898 -0.017534 -69501.300000 0 1 0
-2.760624 10.217597 21.150062 23.650486 -1.306914 0.463986 0.068727 -0.012836 -754054.000000 0 1 0
-4.265224 10.296397 21.070362 23.836277 -1.178071 0.486527 0.057220 -0.011957 -1289440.000000 0 1 0
-4.936324 9.097897 20.817062 23.248422 -1.073669 0.461426 0.059601 -0.020753 230406.000000 0 1 0
-6.334224 9.300497 21.055962 23.874153 -0.972893 0.490799 0.058925 -0.013278 423595.000000 0 1 0
-7.165624 8.044397 20.913062 23.524767 -0.843110 0.475682 0.052557 -0.018416 -233514.000000 0 1 0
-7.094224 7.248197 22.099962 24.316100 -0.796133 0.430250 0.062033 -0.027946 161835.000000 0 1 0
-7.817724 6.042597 21.928762 24.052035 -0.658019 0.423341 0.062319 -0.026003 74021.200000 0 1 0
-7.914624 5.247197 23.192552 25.061302 -0.585442 0.388620 0.062021 -0.027534 -350024.000000 0 0 1
-8.745024 5.806797 24.160562 26.342496 -0.586162 0.409875 0.039826 -0.022745 -195739.000000 0 0 1
-8.784924 5.041097 25.333162 27.282901 -0.520958 0.380346 0.044156 -0.001384 46827.600000 0 0 1
-9.900124 5.496697 26.314012 28.647048 -0.506838 0.406376 0.032365 -0.001641 -122283.000000 0 0 1
-9.599724 6.699197 26.989082 29.418438 -0.609284 0.409247 0.023842 -0.004085 -223713.000000 0 0 1
-10.363224 6.887897 28.148352 30.776115 -0.586604 0.416237 0.020806 0.002024 -177384.000000 0 0 1
-10.054324 8.161997 28.975612 31.737891 -0.681889 0.420302 0.036574 -0.004559 250534.000000 0 0 1
-8.862324 8.158197 29.755552 32.101244 -0.744052 0.384654 0.039257 -0.007601 315222.000000 0 0 1
-8.559024 9.349397 30.461572 32.993568 -0.829504 0.394320 0.046438 -0.019523 -117303.000000 0 0 1
-7.724224 9.124497 31.731442 33.908768 -0.868316 0.360307 0.076637 -0.020292 -54387.800000 0 0 1
-6.456724 8.638297 31.345802 33.149190 -0.928927 0.331369 0.080070 -0.021226 -524923.000000 0 0 1
-5.884324 7.672897 32.208545 33.628693 -0.916568 0.291653 0.116542 -0.018651 -831094.000000 0 0 1
-4.431224 7.476197 31.841032 33.005766 -1.035754 0.266452 0.084295 -0.024341 -646845.000000 0 0 1
-3.711824 8.681497 32.089554 33.449746 -1.166763 0.286155 0.068896 -0.031272 1786.720000 0 0 1
-2.308024 8.527697 31.929536 33.129200 -1.306478 0.269935 0.090590 -0.039939 605831.000000 0 0 1
-1.553324 9.795097 31.447322 32.974093 -1.413524 0.305496 0.107161 -0.039873 -147595.000000 0 0 1
-1.592824 10.865897 32.349190 34.162478 -1.425244 0.327276 0.105479 -0.048692 -73351.200000 0 0 1
-1.295724 12.069097 31.678712 33.924664 -1.463847 0.365917 0.090168 -0.038241 -396403.000000 0 0 1
-1.565424 13.373297 32.422977 35.107622 -1.454271 0.393609 0.081120 -0.045885 -478910.000000 0 0 1
-0.618224 13.579297 33.431354 36.089264 -1.525301 0.386188 0.139582 -0.047253 -633267.000000 0 0 1
-0.879624 14.726097 -33.654181 36.745552 -1.511135 2.728468 0.129342 -0.042457 -463765.000000 0 0 1
0.366876 15.059097 -32.850371 36.139423 1.546439 2.711651 0.115378 -0.040887 -735023.000000 0 0 1
1.343676 15.587797 -33.694251 37.149528 1.484808 2.706877 0.141586 -0.040212 -393721.000000 0 0 1
2.522476 15.928097 -32.980311 36.711961 1.413734 2.686803 0.151975 -0.042238 -345148.000000 0 0 1
3.482476 16.593597 -33.927041 37.927816 1.363930 2.678144 0.155215 -0.030420 -532360.000000 0 0 1
3.320276 18.019197 33.899872 38.534621 1.388577 0.495513 0.135297 -0.020547 -175859.000000 0 0 1
4.415576 18.652797 33.299153 38.422100 1.338351 0.522315 0.113417 0.001905 13841.100000 0 0 1
4.256676 20.220397 33.310875 39.199466 1.363312 0.555231 0.111308 -0.013855 53061.400000 0 0 1
4.306976 20.833897 -33.295241 39.511699 1.366939 2.573015 0.123920 -0.029888 142157.000000 0 0 1
3.849476 22.170697 -33.372071 40.249887 1.398881 2.548332 0.103597 -0.018875 179939.000000 0 0 1
3.999376 22.914797 -32.016671 39.574615 1.398004 2.513280 0.122667 -0.023448 213877.000000 0 0 1
3.486176 24.242897 -32.074961 40.356841 1.427973 2.489447 0.113813 -0.022676 116004.000000 0 0 1
3.542176 24.777997 -30.740001 39.641441 1.428802 2.458226 0.121189 -0.022060 -168990.000000 0 0 1
3.019976 26.198597 -30.517911 40.333976 1.456030 2.428940 0.107500 -0.030084 -100566.000000 0 0 1
3.914476 27.210997 -30.876591 41.341569 1.427920 2.414132 0.097051 -0.025223 266574.000000 0 0 1
3.286276 28.486297 -30.513721 41.873093 1.455941 2.387246 0.085727 -0.030707 216898.000000 0 0 1
4.302376 29.638097 -30.399861 42.674100 1.426640 2.363670 0.090376 -0.037619 -408899.000000 0 0 1
5.239076 29.409497 -29.413351 41.922687 1.394503 2.348450 0.088753 -0.042647 -536231.000000 0 0 1
5.814576 30.632297 -28.920591 42.527021 1.383210 2.318630 0.089001 -0.047836 152203.000000 0 0 1
6.878676 30.425697 -27.787331 41.775292 1.348453 2.298507 0.095153 -0.045378 -352612.000000 0 0 1
8.063476 29.770597 -28.103021 41.726345 1.306289 2.309741 0.094598 -0.033320 229562.000000 0 0 1
9.245776 30.589397 -28.222561 42.634593 1.277273 2.294232 0.099778 -0.038824 599852.000000 0 0 1
9.335476 31.870597 -29.063051 44.131021 1.285849 2.289704 0.104185 -0.041306 -1223980.000000 0 0 1
8.819676 33.036697 -28.399931 44.449591 1.309914 2.263896 0.083356 -0.037149 178549.000000 0 0 1
8.704276 -33.892010 -29.335071 45.661572 -1.319406 2.268482 0.063158 -0.031279 -226602.000000 0 0 1
7.434176 -33.878510 -30.215881 46.000216 -1.354784 2.287448 0.050985 -0.018630 -181460.000000 0 0 1
7.459476 33.211497 -31.245051 46.204984 1.349858 2.313425 0.051879 -0.015757 145102.000000 0 0 1
6.219876 33.122497 -31.928291 46.424158 1.385174 2.329184 0.059766 -0.013883 62071.600000 0 0 1
6.146876 32.142497 -33.114801 46.556570 1.381840 2.362115 0.079740 -0.036712 63043.300000 0 0 1
6.645176 32.815097 33.614415 47.443839 1.370995 0.783412 0.099230 -0.029849 144090.000000 0 0 1
6.526676 32.045297 32.465572 46.081579 1.369874 0.789044 0.121366 -0.031686 -361551.000000 0 0 1
5.713776 32.645997 31.352782 45.622421 1.397529 0.813137 0.107103 -0.030297 -321130.000000 0 0 1
6.487276 33.485497 30.526182 45.773476 1.379433 0.840760 0.103698 -0.030554 -312181.000000 0 0 1
5.779576 -33.987110 29.497312 45.372002 -1.402356 0.863052 0.091760 -0.041361 -262571.000000 0 0 1
18.925075 -21.945103 29.268352 41.187164 -0.859157 0.780420 0.096122 0.002441 -168132.000000 0 0 1
18.020875 -20.870903 29.474092 40.361723 -0.858548 0.752111 0.095892 0.008634 6169.620000 0 0 1
16.680475 -21.193403 29.701552 40.119581 -0.903996 0.737242 0.094026 0.005554 -36458.100000 0 0 1
16.227975 -21.724903 31.104872 41.265381 -0.929234 0.717006 0.085198 -0.016462 -421282.000000 0 0 1
16.952675 -22.856503 31.536062 42.477478 -0.932628 0.734123 0.093748 -0.019342 160487.000000 0 0 1
16.631975 -23.239303 32.874583 43.559454 -0.949622 0.715590 0.107010 -0.028043 76702.700000 0 0 1
17.375075 -24.504603 33.342583 44.878688 -0.954020 0.733331 0.098595 -0.034093 65047.900000 0 0 1
16.850875 -25.714333 32.819602 44.970048 -0.990697 0.752752 0.132060 -0.031744 113136.000000 0 0 1
17.426975 -26.765203 33.621741 46.373452 -0.993644 0.759731 0.125600 -0.038505 304586.000000 0 0 1
17.009175 -28.207653 33.298259 46.837568 -1.028175 0.779976 0.133339 -0.037691 -21287.200000 0 0 1
17.585375 -28.684413 32.117731 46.514402 -1.020826 0.808630 0.130419 -0.046529 -71267.000000 0 0 1
17.263775 -30.082823 31.882370 47.111567 -1.049808 0.827468 0.133617 -0.052736 -138311.000000 0 0 1
18.025875 -30.772423 30.751682 47.090765 -1.040898 0.859218 0.119908 -0.044752 -30815.900000 0 0 1
19.362075 -31.052033 31.108542 48.029784 -1.013250 0.866244 0.121403 -0.057128 97553.200000 0 0 1
20.041375 -31.845623 30.135572 48.207397 -1.009090 0.895507 0.102019 -0.043859 292887.000000 0 0 1
21.529375 -32.181733 30.467292 49.268995 -0.981184 0.904108 0.100636 -0.042738 720195.000000 0 0 1
22.370075 -31.048283 30.275982 48.796017 -0.946449 0.901467 0.081313 -0.041024 940561.000000 0 0 1
23.771175 -31.290443 30.471312 49.725863 -0.921120 0.911215 0.071843 -0.035350 848139.000000 0 0 1
24.677675 -30.035963 30.333092 49.307638 -0.883020 0.908182 0.047107 -0.025543 101961.000000 0 0 1
25.845875 -30.329673 29.605142 49.642349 -0.865047 0.931827 0.044153 -0.026591 -503335.000000 0 0 1
26.675975 -29.184653 29.511872 49.338648 -0.830278 0.929607 0.029822 -0.021969 -402709.000000 0 0 1
27.818975 -29.308323 28.531812 49.466529 -0.811463 0.956002 0.044447 -0.026713 -820137.000000 0 0 1
28.863075 -30.100393 29.009072 50.799971 -0.806380 0.963018 0.039441 -0.014264 -114843.000000 0 0 1
29.885975 -30.203553 28.007112 50.890318 -0.790683 0.988022 0.048330 -0.022886 -15958.500000 0 0 1
31.022075 -31.091993 28.461002 52.336506 -0.786524 0.995828 0.038528 -0.007812 -471834.000000 0 0 1
30.533175 -32.383623 28.639562 52.926348 -0.814801 0.999027 0.031627 -0.007761 870856.000000 0 0 1
31.606075 -33.355003 28.667182 54.160018 -0.812314 1.013015 0.033912 -0.007672 535361.000000 0 0 1
30.973375 33.315412 29.099302 54.000333 0.821812 1.001698 0.024977 -0.003344 -348164.000000 0 0 1
30.483575 33.134093 30.414482 54.333757 0.827037 0.976686 0.038520 -0.010700 1377550.000000 0 0 1
29.327375 33.915134 30.855072 54.427628 0.857814 0.968057 0.041019 -0.012596 988793.000000 0 0 1
28.024075 33.893515 30.039852 53.258913 0.879910 0.971533 0.041250 -0.011070 -265235.000000 0 0 1
27.298875 32.630894 30.093692 52.111746 0.874136 0.955153 0.045101 -0.008590 43192.000000 0 0 1
25.915675 32.860580 29.923162 51.447406 0.903011 0.950070 0.072081 -0.015454 373204.000000 0 0 1
25.083175 31.533404 29.879022 50.162508 0.898837 0.932729 0.085310 -0.025631 78384.200000 0 0 1
25.165775 30.801544 28.660892 49.025484 0.885757 0.946394 0.097671 -0.033026 -498485.000000 0 0 1
24.550975 29.610524 28.748202 48.020752 0.878544 0.928967 0.109371 -0.044106 -726371.000000 0 0 1
23.908575 29.131924 27.462382 46.631228 0.883560 0.941066 0.119402 -0.043673 165658.000000 0 0 1
22.599575 29.624714 27.222332 46.145637 0.919114 0.939834 0.140424 -0.039162 485524.000000 0 0 1
21.833775 28.900224 26.239852 44.726575 0.923792 0.943853 0.152342 -0.038470 -7855.510000 0 0 1
20.503975 29.573474 25.941102 44.361516 0.964566 0.946205 0.121781 -0.031988 -515761.000000 0 0 1
20.612575 30.841954 25.213302 44.853260 0.981644 0.973839 0.144420 -0.047831 281432.000000 0 0 1
19.316175 31.377334 24.957122 44.502917 1.018978 0.975448 0.109233 -0.043251 221085.000000 0 0 1
19.273375 32.902763 24.655452 45.408657 1.040908 0.996829 0.116873 -0.039859 -127781.000000 0 0 1
19.738275 33.340245 23.380862 45.253024 1.036261 1.027840 0.110644 -0.042793 921438.000000 0 0 1
21.138875 33.675081 23.438082 46.154163 1.010236 1.038142 0.120180 -0.042196 1028500.000000 0 0 1
21.888375 33.687333 22.058962 45.831596 0.994596 1.068654 0.118240 -0.041677 265354.000000 0 0 1
21.373875 -33.315783 21.279462 44.939954 -1.000381 1.077526 0.093037 -0.031445 359692.000000 0 0 1
22.158575 -33.163023 20.110162 44.667742 -0.981753 1.103788 0.105133 -0.033205 -61953.200000 0 0 1
21.907975 -31.908043 19.328662 43.262914 -0.969122 1.107642 0.086623 -0.027812 -543783.000000 0 0 1
22.421975 -30.806643 20.023462 43.043388 -0.941636 1.086944 0.083316 -0.024903 131037.000000 0 0 1
21.972575 -29.494843 19.585262 41.669201 -0.930527 1.081485 0.082086 -0.020922 -274912.000000 0 0 1
22.494975 -28.937423 18.217262 40.930026 -0.910010 1.109529 0.061074 -0.016039 -245253.000000 0 0 1
22.100475 -29.547053 17.025562 40.636549 -0.928592 1.138484 0.047255 -0.013704 190175.000000 0 0 1
22.681075 -28.820793 15.957262 39.996293 -0.904052 1.160405 0.042336 -0.004821 -85495.800000 0 0 1
22.421075 -29.521293 14.636962 39.855389 -0.921250 1.194744 0.026961 -0.009718 -88205.500000 0 0 1
23.087675 -30.773523 14.538762 41.126951 -0.927139 1.209476 0.047633 -0.007235 -1076.450000 0 0 1
23.263475 -31.179833 13.175862 41.072796 -0.929792 1.244230 0.038935 -0.006984 485407.000000 0 0 1
22.015275 -31.468743 12.247262 40.310663 -0.960344 1.262095 0.025254 -0.009442 571603.000000 0 0 1
21.173975 -32.561233 12.584962 40.828328 -0.994223 1.257453 0.033511 -0.013484 -464583.000000 0 0 1
20.062775 -32.679373 11.733562 40.101532 -1.020199 1.273855 0.056067 -0.003309 -457059.000000 0 0 1
19.006975 -33.484303 12.480562 40.475030 -1.054512 1.257336 0.073253 -0.009152 -836446.000000 0 0 1
18.510575 -32.850893 13.625162 40.093236 -1.057668 1.224053 0.062601 -0.007524 538862.000000 0 0 1
19.255875 -33.180073 14.837362 41.132144 -1.044955 1.201752 0.062004 -0.013103 -511963.000000 0 0 1
18.993675 -32.109823 15.882562 40.546963 -1.036634 1.168309 0.047705 -0.012993 -280471.000000 0 0 1
17.719375 -31.740073 16.346362 39.857396 -1.061630 1.148209 0.059310 -0.022627 -304917.000000 0 0 1
16.852275 -32.718773 16.873862 40.487585 -1.095170 1.140911 0.060624 -0.015889 -595125.000000 0 0 1
17.169475 -33.447483 18.220062 41.779129 -1.096545 1.119531 0.044590 -0.020741 -39916.600000 0 0 1
18.060575 33.523606 17.917762 42.083996 1.076638 1.130993 0.046963 -0.018783 299882.000000 0 0 1
18.597175 32.937138 19.079762 42.364458 1.056793 1.103614 0.043259 -0.022877 669876.000000 0 0 1
19.416875 31.584384 18.831362 41.583753 1.019593 1.100833 0.065288 -0.022874 143929.000000 0 0 1
18.586675 30.472774 18.627062 40.261916 1.023097 1.089817 0.049126 -0.020198 -222104.000000 0 0 1
19.364275 29.332394 18.372962 39.660184 0.987307 1.089127 0.055476 -0.025887 87954.800000 0 0 1
18.556075 28.009704 18.228562 38.225017 0.985693 1.073700 0.059706 -0.021901 166543.000000 0 0 1
18.180775 27.374354 19.426562 38.174431 0.984536 1.036902 0.068026 -0.032718 -134007.000000 0 0 1
17.618275 26.107824 19.108662 36.839694 0.977165 1.025469 0.079878 -0.033531 -444357.000000 0 0 1
17.322775 25.235284 20.367862 36.766124 0.969222 0.983654 0.091218 -0.032250 282518.000000 0 0 1
16.102775 25.397194 21.106262 36.739504 1.005724 0.958823 0.096491 -0.029187 -227708.000000 0 0 1
15.258875 24.394134 20.635362 35.407982 1.011827 0.948640 0.086907 -0.033892 -1827100.000000 0 0 1
13.946275 24.527564 21.341162 35.377184 1.053788 0.923231 0.098709 -0.038161 -1159710.000000 0 0 1
13.325575 25.791254 21.021462 35.842176 1.093902 0.944065 0.088388 -0.039223 -786858.000000 0 0 1
12.178775 25.922334 21.788962 35.986787 1.131585 0.920439 0.082571 -0.037864 -1042320.000000 0 0 1
11.285975 26.995964 21.177962 36.120097 1.174817 0.944287 0.065687 -0.033757 -642734.000000 0 0 1
11.760775 28.295944 21.371362 37.359221 1.176885 0.961793 0.056781 -0.033800 -164626.000000 0 0 1
11.205475 29.191494 20.409862 37.339904 1.204280 0.992502 0.059663 -0.036974 -134687.000000 0 0 1
11.860475 30.570224 20.301762 38.566449 1.200699 1.016424 0.062447 -0.033107 -300140.000000 0 0 1
11.564575 31.517994 21.306462 39.762906 1.219128 1.005297 0.059709 -0.034192 -175537.000000 0 0 1
11.873175 31.178504 22.629762 40.313491 1.206939 0.974787 0.043741 -0.028029 -293862.000000 0 0 1
11.324275 32.106514 23.728032 41.498035 1.231710 0.962114 0.039848 -0.025009 51530.500000 0 0 1
9.982875 31.791354 24.044372 41.091116 1.266534 0.945734 0.055412 -0.030273 -211679.000000 0 0 1
9.694375 32.356455 25.305762 42.205482 1.279696 0.927814 0.054917 -0.024372 74652.200000 0 0 1
8.274275 32.256651 25.974872 42.233270 1.319697 0.908368 0.131537 -0.040221 722109.000000 0 0 1
7.248675 33.128901 25.459432 42.405779 1.355389 0.926825 0.119133 -0.032874 715816.000000 0 0 1
6.694475 32.694281 24.199922 41.223394 1.368828 0.943394 0.110965 -0.046382 242220.000000 0 0 1
5.576275 31.577544 24.258062 40.208080 1.396008 0.923147 0.097912 -0.049321 -15043.700000 0 0 1
6.119575 30.374654 24.683232 39.614779 1.371988 0.898120 0.086805 -0.038825 -39421.900000 0 0 1
5.292575 29.193044 24.516742 38.487866 1.391449 0.880197 0.067395 -0.030166 -107494.000000 0 0 1
6.199975 27.918684 24.780772 37.841502 1.352270 0.856803 0.075307 -0.031560 414202.000000 0 0 1
7.168475 27.578704 23.791842 37.121742 1.316496 0.875108 0.077267 -0.032383 -195810.000000 0 0 1
8.260175 28.430444 23.835362 38.008487 1.288041 0.892964 0.092400 -0.037706 -945574.000000 0 0 1
9.496875 28.006604 24.692322 38.526241 1.243870 0.875097 0.070161 -0.041785 -639461.000000 0 0 1
9.307275 28.062144 26.099872 39.437452 1.250547 0.847573 0.080122 -0.037508 -474633.000000 0 0 1
10.424875 27.670564 26.810502 39.914172 1.210493 0.834290 0.090562 -0.031122 -74212.300000 0 0 1
11.687775 28.582534 26.792982 40.883117 1.182630 0.856143 0.073425 -0.018504 -364568.000000 0 0 1
11.469175 29.809184 27.419592 42.094696 1.203503 0.861396 0.090430 -0.028870 466060.000000 0 0 1
12.692475 30.536704 27.538042 43.034091 1.176875 0.876412 0.086442 -0.017959 52467.400000 0 0 1
12.500175 31.846414 28.396242 44.461163 1.196760 0.878021 0.076332 -0.028953 31462.900000 0 0 1
12.222975 31.719364 29.785152 45.195956 1.202985 0.851278 0.080894 -0.043459 1588290.000000 0 0 1
10.814375 31.441484 30.062342 44.824793 1.239519 0.835694 0.116879 -0.039944 1437470.000000 0 0 1
10.610575 31.165174 31.598082 45.632129 1.242643 0.805913 0.144925 -0.033454 26522.500000 0 0 1
10.994875 29.847924 31.982156 45.107030 1.217857 0.782677 0.133424 -0.031147 255855.000000 0 0 1
11.345575 29.773514 33.336564 46.114105 1.206721 0.762785 0.147143 -0.035172 -202653.000000 0 0 1
11.585575 28.352884 33.880352 45.672638 1.182880 0.735033 0.148860 -0.035289 298299.000000 0 0 1
12.884075 27.819434 33.660759 45.529847 1.137076 0.738748 0.137094 -0.029349 66671.100000 0 0 1
12.850975 26.447404 -33.731851 44.748748 1.118487 2.424631 0.142519 -0.027793 -46966.000000 0 0 1
14.034875 25.565404 33.726969 44.587846 1.068737 0.712980 0.148695 -0.029346 -283398.000000 0 0 1
13.916275 24.200654 -33.860371 43.884611 1.048934 2.452113 0.118603 -0.020712 -64698.500000 0 0 1
14.168875 23.773254 -32.509531 42.694194 1.033323 2.436345 0.110721 -0.021097 -191931.000000 0 0 1
14.159175 22.240004 -32.468531 41.824700 1.003861 2.459572 0.083806 -0.034710 -449118.000000 0 0 1
15.328375 21.737204 -33.022281 42.402077 0.956610 2.463530 0.091118 -0.020808 -497360.000000 0 0 1
15.419875 20.303604 -32.803381 41.546007 0.921265 2.480900 0.084914 -0.011156 386865.000000 0 0 1
16.851075 19.798404 -33.145161 42.125256 0.865645 2.476442 0.101679 -0.022834 162045.000000 0 0 1
17.782775 20.218104 -32.201901 41.975722 0.849397 2.445191 0.079691 -0.022904 -554664.000000 0 0 1
19.088875 19.793204 -32.455791 42.538623 0.803511 2.438695 0.091301 -0.020947 -724457.000000 0 0 1
20.207375 20.216604 -31.556021 42.577359 0.785626 2.405571 0.072090 -0.012663 -278996.000000 0 0 1
20.737475 21.545004 -31.879301 43.709494 0.804494 2.388160 0.050035 -0.011927 120893.000000 0 0 1
21.586875 22.098404 -30.867161 43.670519 0.797107 2.355788 0.033111 0.002327 -7829.350000 0 0 1
21.020575 22.354804 -29.495751 42.562908 0.816149 2.336427 0.047449 -0.002161 221574.000000 0 0 1
20.186675 23.551514 -29.469411 42.785767 0.862178 2.330583 0.033597 0.005524 389057.000000 0 0 1
19.751475 23.842114 -28.142971 41.840100 0.878960 2.308556 0.043670 0.012668 -345961.000000 0 0 1
20.785675 24.487054 -27.229861 42.108496 0.866974 2.273993 0.045248 0.006768 14452.000000 0 0 1
21.602975 25.503974 -27.805731 43.477579 0.868021 2.264698 0.037804 0.007246 -278910.000000 0 0 1
20.931375 26.715014 -28.022521 44.012227 0.906194 2.261006 0.044512 0.002990 -446737.000000 0 0 1
21.777075 27.778314 -28.755601 45.527577 0.905913 2.254422 0.036892 -0.002760 -304249.000000 0 0 1
21.932675 27.808044 -30.184901 46.534479 0.902973 2.276614 0.042731 -0.005275 -235246.000000 0 0 1
22.465375 26.636894 -30.765201 46.483489 0.870150 2.294083 0.035869 -0.000509 -225673.000000 0 0 1
23.914175 26.214924 -30.455731 46.761753 0.831262 2.280087 0.050467 -0.005265 46865.600000 0 0 1
24.905775 27.027874 -31.117131 48.156821 0.826237 2.273342 0.051458 0.002948 -253387.000000 0 0 1
26.155375 26.438494 -30.929521 48.370785 0.790781 2.264547 0.063364 -0.004579 -925958.000000 0 0 1
27.346975 27.314044 -31.247221 49.702141 0.784796 2.250663 0.054190 0.004226 -545362.000000 0 0 1
27.393675 28.374734 -30.294341 49.732143 0.802988 2.225785 0.046050 0.000692 -420611.000000 0 0 1
28.511175 29.161984 -30.568781 50.968213 0.796682 2.214000 0.053128 -0.011561 -265718.000000 0 0 1
28.608675 30.443564 -29.707901 51.262328 0.816460 2.188944 0.042207 -0.009645 117573.000000 0 0 1
28.961375 30.075144 -28.349051 50.467259 0.804262 2.167274 0.066634 -0.010489 284125.000000 0 0 1
28.604375 31.168984 -27.511801 50.463997 0.828277 2.147396 0.058678 -0.012430 -570013.000000 0 0 1
29.081275 31.083204 -26.010471 49.884173 0.818660 2.119307 0.078667 -0.010987 -13071.900000 0 0 1
28.453275 30.174304 -25.120611 48.488375 0.814745 2.115395 0.062341 -0.001553 542932.000000 0 0 1
27.024075 30.148014 -25.092241 47.632173 0.839985 2.125618 0.047075 0.000142 386111.000000 0 0 1
26.428075 29.590504 -23.765621 46.247657 0.841792 2.110495 0.049119 0.006418 49880.100000 0 0 1
26.524075 30.514764 -22.701821 46.368632 0.855249 2.082421 0.079039 -0.005112 -129432.000000 0 0 1
25.747075 30.063054 -21.662621 45.121704 0.862578 2.071557 0.051905 -0.000911 -229847.000000 0 0 1
3.484575 -26.232123 -19.046421 32.604182 -1.438733 2.194655 0.068270 -0.023001 -31402.000000 0 0 1
3.415175 -27.337823 -18.158821 32.996405 -1.446515 2.153552 0.084588 -0.024031 217653.000000 0 0 1
2.979075 -26.947773 -16.872121 31.933146 -1.460693 2.127461 0.097017 -0.026679 -148460.000000 0 0 1
3.100175 -28.102453 -15.915321 32.444667 -1.460924 2.083503 0.096390 -0.029383 -29700.500000 0 0 1
4.443875 -28.417333 -15.620621 32.730668 -1.415674 2.068316 0.088246 -0.026388 -272569.000000 0 0 1
4.551975 -29.389433 -14.619821 33.139077 -1.417133 2.027693 0.092135 -0.031659 -60206.100000 0 0 1
5.936475 -29.847783 -14.131521 33.553417 -1.374467 2.005526 0.107652 -0.013361 -52586.000000 0 0 1
6.738475 -28.768653 -13.573321 32.515804 -1.340714 2.001420 0.095897 -0.008345 66925.600000 0 0 1
8.130075 -28.941103 -13.530221 32.965928 -1.296937 1.993722 0.090269 -0.001534 -93192.800000 0 0 1
8.641775 -30.025213 -12.550521 33.670599 -1.290553 1.952761 0.079199 -0.003109 -1045870.000000 0 0 1
8.871675 -29.539343 -11.252921 32.831504 -1.279033 1.920636 0.087617 -0.018302 -35352.700000 0 0 1
9.036575 -30.505243 -10.229421 33.419614 -1.282802 1.881880 0.092076 -0.016604 499002.000000 0 0 1
10.402875 -31.277423 -10.167921 34.494690 -1.249706 1.870009 0.063798 -0.011212 421436.000000 0 0 1
11.490375 -30.473863 -9.770421 34.002149 -1.210224 1.862252 0.055654 -0.005883 -140296.000000 0 0 1
12.461275 -31.323343 -9.195221 34.942628 -1.192165 1.837084 0.051191 -0.007316 -181450.000000 0 0 1
13.631275 -30.671993 -8.442821 34.610172 -1.152592 1.817223 0.061567 -0.017586 -308341.000000 0 0 1
14.679875 -30.247243 -9.263621 34.874190 -1.118954 1.839653 0.050182 -0.018461 44931.900000 0 0 1
15.775575 -29.821993 -8.465521 34.783402 -1.084226 1.816644 0.054668 -0.023318 481198.000000 0 0 1
16.982075 -29.266463 -9.293321 35.089636 -1.045020 1.838840 0.062705 -0.029820 314810.000000 0 0 1
16.961975 -27.896553 -9.639621 34.041865 -1.024492 1.857894 0.063705 -0.025445 105027.000000 0 0 1
16.140875 -27.549313 -10.744521 33.688829 -1.040816 1.895401 0.053293 -0.017716 13078.100000 0 0 1
15.946775 -26.025093 -10.795621 32.375153 -1.021057 1.910761 0.055969 -0.019300 -667172.000000 0 0 1
15.029775 -25.467773 -9.866821 31.174601 -1.037652 1.892836 0.040079 -0.021447 350722.000000 0 0 1
14.393675 -24.249703 -10.220921 29.994886 -1.035125 1.918517 0.020721 -0.009577 396223.000000 0 0 1
13.766175 -24.034803 -11.651121 30.048759 -1.050647 1.968975 0.014467 -0.001559 -36519.600000 0 0 1
14.702275 -23.521703 -12.583221 30.459233 -1.012160 1.996670 0.011237 0.001322 6836.010000 0 0 1
14.108775 -23.543703 -13.848321 30.743121 -1.030922 2.038069 0.027080 -0.007995 125204.000000 0 0 1
14.838775 -22.693603 -14.921121 30.948808 -0.991702 2.073872 0.025794 -0.016580 -305032.000000 0 0 1
15.634375 -23.515003 -15.682121 32.300433 -0.984040 2.077741 0.029652 -0.021455 -414238.000000 0 0 1
16.314075 -22.888903 -16.733621 32.711848 -0.951564 2.107780 0.037894 -0.023863 -871501.000000 0 0 1
17.061575 -23.945603 -17.593321 34.263890 -0.951721 2.110015 0.043810 -0.025152 895435.000000 0 0 1
18.289775 -24.498703 -17.086821 35.023731 -0.929500 2.080438 0.074486 -0.023969 596421.000000 0 0 1
19.373475 -23.591303 -17.101921 34.990810 -0.883254 2.081458 0.079282 -0.031811 446199.000000 0 0 1
20.741975 -24.128003 -16.492521 35.838433 -0.860719 2.049007 0.081972 -0.029139 1187770.000000 0 0 1
21.313775 -25.000503 -17.438221 37.194001 -0.864833 2.058779 0.101129 -0.024332 -843095.000000 0 0 1
22.455775 -25.600213 -16.917421 38.024096 -0.850738 2.031874 0.122114 -0.023210 -30031.700000 0 0 1
23.159875 -26.660873 -17.880721 39.584115 -0.855555 2.039483 0.114568 -0.026106 45900.900000 0 0 1
24.046675 -26.017933 -18.755321 40.086625 -0.824752 2.057675 0.117693 -0.027668 -456769.000000 0 0 1
24.450775 -26.829483 -19.784021 41.340888 -0.831751 2.069808 0.102477 -0.029878 376951.000000 0 0 1
25.715575 -26.207533 -20.485221 42.044855 -0.794873 2.079703 0.088434 -0.029368 482656.000000 0 0 1
25.437375 -24.966103 -21.167121 41.453750 -0.776048 2.106702 0.097547 -0.029795 -58276.700000 0 0 1
25.629675 -23.806103 -20.354021 40.470940 -0.748527 2.097781 0.104280 -0.020124 446730.000000 0 0 1
24.507275 -22.758003 -20.767321 39.367688 -0.748405 2.126477 0.133170 -0.026645 560767.000000 0 0 1
24.712975 -22.025703 -22.016921 39.756855 -0.727966 2.157705 0.117125 -0.021788 104634.000000 0 0 1
24.435075 -22.762103 -23.210021 40.668062 -0.749967 2.178177 0.080042 -0.024023 -230407.000000 0 0 1
23.504575 -22.021903 -24.187121 40.279599 -0.752842 2.214898 0.063107 -0.021719 -96210.000000 0 0 1
24.076675 -21.001603 -25.027921 40.585101 -0.717287 2.235312 0.051862 -0.010812 25359.800000 0 0 1
23.153275 -20.447503 -25.919141 40.323398 -0.723420 2.268920 0.044491 -0.003780 -335925.000000 0 0 1
23.953175 -19.713703 -26.992711 41.121662 -0.688615 2.286848 0.044570 -0.000593 -288950.000000 0 0 1
23.179175 -18.892403 -27.817571 40.841331 -0.683856 2.320078 0.041933 -0.002487 52770.000000 0 0 1
23.865775 -18.210203 -28.906161 41.674367 -0.651786 2.337298 0.053726 -0.009901 -186198.000000 0 0 1
22.924075 -17.230503 -29.579621 41.198998 -0.644546 2.371677 0.075792 -0.015232 -200709.000000 0 0 1
21.857475 -17.880403 -30.264901 41.393505 -0.685648 2.390804 0.065644 -0.015130 88218.500000 0 0 1
21.086475 -16.913103 -30.920891 41.070597 -0.676010 2.423211 0.080390 -0.024273 -51630.100000 0 0 1
19.785575 -17.428503 -31.576491 41.137531 -0.722144 2.445859 0.068378 -0.025074 -149384.000000 0 0 1
20.039575 -18.256903 -32.653901 42.440268 -0.738882 2.448711 0.068944 -0.021670 -384166.000000 0 0 1
18.962075 -18.996303 -33.133931 42.641262 -0.786300 2.460745 0.085093 -0.025399 -605648.000000 0 0 1
19.331875 -19.841103 33.548869 43.507671 -0.798397 0.690226 0.090942 -0.017486 54435.700000 0 0 1
20.067475 -21.004103 33.930312 44.667012 -0.808199 0.708055 0.076571 -0.009733 -83559.100000 0 0 1
20.510675 -21.668303 32.765338 44.314451 -0.812837 0.738643 0.071077 -0.012171 -35592.200000 0 0 1
21.434175 -22.841403 33.145313 45.604444 -0.817171 0.757145 0.049426 -0.009715 -921.391000 0 0 1
20.797175 -23.912303 33.860852 46.377560 -0.854961 0.752309 0.065434 -0.012468 61315.200000 0 0 1
21.010675 -23.833603 -32.606061 45.526303 -0.848265 2.369142 0.068019 -0.017337 -156404.000000 0 0 1
20.021675 -24.692603 -31.821241 44.979812 -0.889482 2.356689 0.080174 -0.019402 -159524.000000 0 0 1
20.209675 -26.127653 -31.977441 45.974362 -0.912426 2.339981 0.101079 -0.032771 -114581.000000 0 0 1
21.057175 -26.697073 -31.017421 46.024110 -0.902956 2.310323 0.082208 -0.029246 -154088.000000 0 0 1
20.948575 -28.216103 -30.965181 46.838378 -0.932156 2.293090 0.090952 -0.043492 392246.000000 0 0 1
19.707275 -28.721503 -30.487851 46.290501 -0.969426 2.289780 0.107560 -0.040914 121198.000000 0 0 1
19.710775 -30.135303 -30.672641 47.301819 -0.991561 2.276337 0.103772 -0.037281 888347.000000 0 0 1
18.401575 -30.879303 -30.157891 46.921719 -1.033383 2.268850 0.149329 -0.045144 1617360.000000 0 0 1
17.156975 -30.793373 -30.884151 46.866026 -1.062469 2.290269 0.172607 -0.055175 810545.000000 0 0 1
17.182075 -31.410213 -32.145371 48.116006 -1.070242 2.302423 0.166699 -0.059211 -1156060.000000 0 0 1
15.803375 -31.817793 -32.610311 48.223967 -1.109805 2.313424 0.169108 -0.064478 -442960.000000 0 0 1
14.970375 -30.772643 -33.138851 47.636657 -1.118020 2.340133 0.170065 -0.060355 656314.000000 0 0 1
13.768375 -31.389243 -33.626511 48.016611 -1.157435 2.346628 0.112267 -0.044238 204787.000000 0 0 1
12.782575 -30.465223 33.553640 47.088967 -1.173526 0.777658 0.106975 -0.030132 -217022.000000 0 0 1
12.007575 -29.736503 -33.395001 46.299758 -1.187019 2.376442 0.112803 -0.038537 -164366.000000 0 0 1
11.232175 -28.812413 33.746095 45.772435 -1.199081 0.741794 0.087107 -0.030258 -92085.100000 0 0 1
10.454775 -27.892303 -33.180481 44.589541 -1.212178 2.410030 0.087364 -0.035491 -897121.000000 0 0 1
9.399275 -28.457673 -32.542121 44.239972 -1.251788 2.397322 0.084647 -0.025535 -1181120.000000 0 0 1
8.605875 -27.457293 -31.904981 42.963843 -1.267067 2.407742 0.048124 -0.021530 2145.160000 0 0 1
7.382775 -28.059743 -31.188241 42.597663 -1.313518 2.392282 0.040312 -0.017595 213441.000000 0 0 1
6.350775 -28.622163 -32.012771 43.409424 -1.352451 2.400100 0.038845 -0.014180 377799.000000 0 0 1
6.641075 -29.917873 -32.476661 44.653292 -1.352361 2.385186 0.040780 -0.016186 -247051.000000 0 0 1
5.377875 -30.777203 -32.761991 45.271468 -1.397807 2.379914 0.040715 -0.018072 260018.000000 0 0 1
4.921975 -31.407643 -31.568231 44.801999 -1.415348 2.352679 0.040672 -0.034911 -10018.300000 0 0 1
3.718575 -32.064833 -31.902301 45.384338 -1.455342 2.350314 0.068408 -0.049124 -330974.000000 0 0 1
2.928075 -32.679193 -30.713271 44.942277 -1.481434 2.323198 0.052236 -0.057766 478912.000000 0 0 1
1.883775 -31.964573 -30.065771 43.923036 -1.511931 2.324728 0.059600 -0.057475 1234190.000000 0 0 1
0.571275 -32.063903 -30.669601 44.373919 -1.552981 2.333893 0.051476 -0.030794 954551.000000 0 0 1
-0.318125 -30.847223 -30.333831 43.264231 1.560484 2.347777 0.040080 -0.023325 -272610.000000 0 0 1
-1.071225 -30.921433 -29.159551 42.515432 1.536167 2.326578 0.037212 -0.029075 -12031.900000 0 0 1
-1.606725 -29.642683 -28.778811 41.345981 1.516646 2.340676 0.054402 -0.021199 -92666.800000 0 0 1
-2.360525 -29.617403 -27.457801 40.456068 1.491264 2.316796 0.052645 -0.022040 -175689.000000 0 0 1
-1.441625 -29.633893 -26.365121 39.690874 1.522187 2.297302 0.033005 -0.020262 -189138.000000 0 0 1
-2.053825 -29.948943 -25.119261 39.142492 1.502326 2.267560 0.043209 -0.017533 82598.600000 0 0 1
-1.068625 -30.275733 -23.963421 38.626513 1.535515 2.240034 0.030132 -0.017240 174957.000000 0 0 1
-1.668525 -30.549903 -22.719521 38.108492 1.516234 2.209531 0.055647 -0.027532 -37032.700000 0 0 1
-0.659625 -30.839793 -21.767521 37.753846 1.549411 2.185314 0.052420 -0.018440 502418.000000 0 0 1
-1.295625 -30.854063 -20.334721 36.975028 1.528829 2.153111 0.038380 -0.013616 232279.000000 0 0 1
-1.392925 -29.642763 -19.643821 35.588107 1.523840 2.155530 0.029483 -0.020329 627736.000000 0 0 1
-0.145725 -29.077593 -19.190721 34.839796 1.565785 2.154152 0.044217 -0.035039 -133242.000000 0 0 1
-0.332825 -27.658743 -18.636921 33.353435 1.558764 2.163699 0.050825 -0.035210 -200167.000000 0 0 1
-0.956525 -27.598393 -17.377521 32.627664 1.536151 2.132467 0.045168 -0.038960 45395.000000 0 0 1
-0.952425 -26.289903 -16.869521 31.251350 1.534584 2.140997 0.059980 -0.044213 -173894.000000 0 0 1
-1.801425 -26.158273 -15.592721 30.506283 1.502039 2.107297 0.062188 -0.043174 -369715.000000 0 0 1
-1.871225 -24.866603 -15.067821 29.135694 1.495687 2.114326 0.058467 -0.037171 203160.000000 0 0 1
-2.830525 -24.882703 -14.031221 28.706026 1.457528 2.081499 0.055313 -0.034217 -61782.100000 0 0 1
-2.668425 -23.661903 -13.127721 27.190866 1.458498 2.074644 0.053288 -0.028479 -298480.000000 0 0 1
-1.476925 -23.751803 -12.392821 26.831166 1.508695 2.050912 0.068412 -0.035639 -384088.000000 0 0 1
-1.328725 -22.622503 -11.604821 25.460067 1.512129 2.044073 0.070342 -0.028959 81695.300000 0 0 1
0.046375 -22.738603 -10.910121 25.220566 -1.568757 2.018158 0.080928 -0.030476 179590.000000 0 0 1
0.356675 -21.445703 -10.361321 23.820209 -1.554166 2.020813 0.061843 -0.022058 228546.000000 0 1 0
1.600975 -21.467503 -9.649421 23.590848 -1.496357 1.992190 0.059122 -0.023206 765893.000000 0 1 0
2.131875 -20.063803 -9.299421 22.216667 -1.464939 2.002676 0.047735 -0.013234 -861545.000000 0 1 0
2.615875 -19.317003 -10.400721 22.094443 -1.436197 2.060925 0.038650 -0.006105 -253480.000000 0 1 0
3.404075 -18.194503 -10.139521 21.105391 -1.385841 2.071934 0.020235 -0.006110 59672.700000 0 1 0
4.893675 -18.496103 -9.870721 21.528702 -1.312144 2.047093 0.043845 -0.017923 -221612.000000 0 1 0
4.906375 -19.204003 -8.676721 21.636814 -1.320660 1.983423 0.042896 -0.008666 -1078100.000000 0 1 0
6.038475 -19.969103 -8.485321 22.521743 -1.277147 1.957094 0.050129 -0.003662 -974074.000000 0 1 0
5.709575 -21.132003 -7.534921 23.150288 -1.306911 1.902314 0.046744 -0.005533 -169877.000000 0 1 0
4.798175 -22.069703 -8.015421 23.965418 -1.356718 1.911826 0.066374 -0.023606 -63755.600000 0 1 0
4.612975 -23.166003 -7.112521 24.668425 -1.374240 1.863273 0.086683 -0.023432 5127.160000 0 1 0
3.646975 -24.203603 -7.707721 25.661718 -1.421242 1.875865 0.098394 -0.022850 -138326.000000 0 0 1
4.207675 -24.936603 -8.759321 26.763116 -1.403636 1.904231 0.107749 -0.026562 -636380.000000 0 0 1
3.295175 -25.661863 -9.485821 27.556672 -1.443088 1.922214 0.109681 -0.037870 -576519.000000 0 0 1
3.931275 -26.755093 -10.340221 28.951858 -1.424905 1.936014 0.099218 -0.042522 -135512.000000 0 0 1
4.641975 -27.691893 -9.565321 29.662843 -1.404711 1.899132 0.123234 -0.049932 34523.200000 0 0 1
5.566075 -28.411223 -10.365621 30.751014 -1.377335 1.914612 0.140518 -0.036823 87574.400000 0 0 1
5.167275 -29.887413 -10.562221 32.117265 -1.399597 1.905897 0.117188 -0.036966 -280455.000000 0 0 1
3.898975 -30.091803 -11.132521 32.321071 -1.441945 1.922434 0.110609 -0.032572 -193081.000000 0 0 1
3.576175 -31.510343 -11.102021 33.599786 -1.457788 1.907544 0.100999 -0.030457 390076.000000 0 0 1
2.048875 -31.815613 -11.163621 33.779543 -1.506487 1.907613 0.086876 -0.038599 456155.000000 0 0 1
1.415675 -31.540573 -12.392021 33.917165 -1.525942 1.944817 0.093109 -0.044894 326285.000000 0 0 1
1.160975 -32.747253 -13.093921 35.287125 -1.535359 1.950955 0.095122 -0.043507 -308960.000000 0 0 1
0.807775 -32.614413 -14.618421 35.749834 -1.546034 1.992054 0.100904 -0.039658 528002.000000 0 0 1
-0.402625 -31.904733 -14.904421 35.216699 1.558177 2.007793 0.101729 -0.034701 513890.000000 0 0 1
-0.760825 -32.065143 -16.306921 35.981494 1.547073 2.041152 0.067971 -0.032874 112812.000000 0 0 1
-2.025825 -31.287183 -16.725121 35.534792 1.506137 2.060845 0.065581 -0.026694 161408.000000 0 0 1
-3.205925 -31.729343 -16.078921 35.714995 1.470098 2.037787 0.074492 -0.029091 -172856.000000 0 0 1
-4.322525 -31.224683 -16.788521 35.714416 1.433238 2.060174 0.074094 -0.022714 504356.000000 0 0 1
-5.664925 -31.336273 -16.004021 35.639614 1.391949 2.036500 0.091936 -0.030474 -358720.000000 0 0 1
-5.992125 -30.074993 -15.408321 34.319486 1.374132 2.036405 0.065639 -0.024666 254331.000000 0 0 1
-7.378225 -29.792843 -15.346621 34.315747 1.328030 2.034449 0.084168 -0.029289 51420.100000 0 0 1
-8.220925 -30.566843 -14.327921 34.744853 1.308064 1.995856 0.080958 -0.033064 -600260.000000 0 0 1
-8.403525 -31.888313 -14.736921 36.120085 1.313125 1.991056 0.089301 -0.035285 -490764.000000 0 0 1
-8.854825 -32.531063 -13.606521 36.356779 1.305039 1.954384 0.090387 -0.025801 -311996.000000 0 0 1
-9.366625 -33.997603 -13.806521 37.870710 1.301958 1.943967 0.120835 -0.041383 2344.590000 0 0 1
-8.475025 33.003124 -14.166821 36.901641 -1.319433 1.964821 0.114891 -0.039547 23605.300000 0 0 1
-9.224125 31.833234 -14.365221 36.121999 -1.288757 1.979790 0.143439 -0.051695 85413.400000 0 0 1
-7.934725 -22.184603 -3.348521 23.797669 1.227307 1.711973 0.066816 -0.019232 67312.000000 0 1 0
-7.502025 -21.235203 -4.301921 22.928601 1.231200 1.759537 0.042628 -0.013313 74328.700000 0 1 0
-6.167425 -21.516003 -4.685821 22.867716 1.291638 1.777168 0.025945 -0.004737 -287114.000000 0 1 0
-5.934725 -20.502003 -5.766121 22.108850 1.289027 1.834653 0.024712 -0.010899 -35006.900000 0 1 0
-6.749625 -20.647303 -6.903121 22.793017 1.254846 1.878490 0.032050 -0.016446 -416204.000000 0 1 0
-6.756825 -19.371403 -7.519021 21.850437 1.235187 1.922090 0.024103 -0.018720 -153841.000000 0 1 0
-7.706225 -19.254103 -8.712521 22.494764 1.190085 1.968512 0.034084 -0.039236 10879.100000 0 1 0
-7.225725 -20.051103 -9.750421 23.437759 1.224917 1.999853 0.034238 -0.024930 -357681.000000 0 1 0
-8.182925 -20.203103 -10.772221 24.313913 1.185959 2.029792 0.062893 -0.018635 -53262.000000 0 1 0
-7.826725 -21.223803 -11.853721 25.538562 1.217498 2.053471 0.050669 -0.016464 237867.000000 0 0 1
-6.761125 -20.801403 -12.700521 25.292576 1.256535 2.096873 0.052682 -0.011361 -156634.000000 0 0 1
-6.526225 -21.781803 -13.649621 26.520760 1.279690 2.111427 0.038050 -0.010507 -100784.000000 0 0 1
-5.416125 -21.376003 -14.645721 26.471967 1.322645 2.157062 0.032157 0.005633 -344415.000000 0 0 1
-4.185725 -21.149303 -13.986421 25.698896 1.375408 2.146282 0.034515 -0.006181 -788263.000000 0 0 1
-3.248025 -20.560103 -14.815721 25.549424 1.414114 2.189384 0.044950 -0.002468 -364895.000000 0 0 1
-3.402025 -19.008203 -14.994921 24.448583 1.393695 2.231060 0.047915 0.004143 -1291090.000000 0 1 0
-4.470225 -18.600703 -15.792321 24.806581 1.334944 2.260901 0.045929 0.003874 -683580.000000 0 1 0
-4.355225 -18.651003 -17.201721 25.743487 1.341395 2.302579 0.059822 -0.005356 -841386.000000 0 0 1
-5.603325 -18.133303 -17.934021 26.112124 1.271096 2.327885 0.048468 0.004902 142361.000000 0 0 1
-6.668125 -19.010503 -17.566821 26.729316 1.233445 2.287910 0.037421 0.002760 -658953.000000 0 0 1
-7.844125 -18.796203 -18.278521 27.366620 1.175444 2.302197 0.033246 -0.002273 -174773.000000 0 0 1
-8.899125 -19.814803 -17.723721 28.034820 1.148679 2.255191 0.073684 -0.003592 -72246.900000 0 0 1
-8.601625 -21.145503 -18.151521 29.165013 1.184456 2.242567 0.068972 0.000819 188402.000000 0 0 1
-9.452825 -22.120503 -17.617521 29.816935 1.166951 2.202916 0.105990 -0.007554 -575829.000000 0 0 1
-9.062525 -23.555503 -18.078421 31.045457 1.203522 2.192377 0.110232 -0.023795 -1008540.000000 0 0 1
-9.059925 -23.671503 -19.454621 31.951597 1.205261 2.225442 0.104342 -0.031805 157285.000000 0 0 1
-8.332225 -24.795703 -19.875921 32.852779 1.246616 2.220562 0.109795 -0.049103 1422500.000000 0 0 1
-6.742525 -24.698303 -19.727721 32.321058 1.304295 2.227321 0.091653 -0.042402 703621.000000 0 0 1
-6.160925 -23.650003 -20.498221 31.897597 1.315956 2.268717 0.112180 -0.037339 93657.800000 0 0 1
-6.105025 -22.312103 -19.923421 30.529395 1.303714 2.281804 0.089879 -0.033084 -193834.000000 0 0 1
-5.039125 -22.104803 -18.783721 29.442202 1.346661 2.262677 0.105242 -0.032182 1532810.000000 0 0 1
-3.678325 -22.415603 -19.157621 29.715379 1.408149 2.271432 0.087202 -0.035924 921524.000000 0 0 1
-2.824025 -22.556603 -18.063521 29.035603 1.446247 2.242239 0.048935 -0.036330 -271252.000000 0 0 1
-1.490825 -23.265203 -18.307721 29.642282 1.506804 2.236512 0.073190 -0.036185 -660175.000000 0 0 1
-0.538725 -22.455103 -18.887121 29.346980 1.546810 2.269963 0.087278 -0.032039 -390031.000000 0 0 1
0.665175 -23.200103 -19.126521 30.075090 -1.542133 2.260047 0.070056 -0.029447 659423.000000 0 0 1
1.686475 -22.353503 -19.951921 30.010039 -1.495493 2.298078 0.064524 -0.021314 5904.990000 0 0 1
1.232975 -21.996603 -21.212121 30.583081 -1.514802 2.337257 0.061304 -0.026105 -821914.000000 0 0 1
2.196475 -21.377803 -21.986521 30.744789 -1.468410 2.367606 0.052396 -0.020679 -859932.000000 0 0 1
1.863575 -21.370203 -23.461321 31.789811 -1.483812 2.400919 0.063242 -0.026414 464455.000000 0 0 1
1.069775 -20.314103 -24.029521 31.483727 -1.518183 2.439103 0.046044 -0.016381 403341.000000 0 0 1
-0.291225 -20.253603 -23.608521 31.107162 1.556418 2.432483 0.072014 -0.023799 75710.600000 0 0 1
-1.082725 -19.320503 -24.558821 31.266433 1.514815 2.474250 0.090719 -0.018607 -191.962000 0 0 1
-0.634325 -17.969803 -24.482521 30.376142 1.535511 2.508123 0.051355 -0.013162 53434.300000 0 0 1
-1.402725 -17.142803 -25.317631 30.607610 1.489152 2.544845 0.075764 -0.024119 85635.700000 0 0 1
-1.100625 -15.659203 -24.886721 29.423985 1.500626 2.578854 0.065193 -0.013008 683956.000000 0 0 1
0.227275 -15.336903 -25.296941 29.583906 -1.555979 2.596523 0.067284 -0.021331 14006.100000 0 0 1
0.690275 -14.039503 -24.910921 28.603114 -1.521669 2.627860 0.062652 -0.017543 220487.000000 0 0 1
0.161975 -12.769403 -25.611651 28.618885 -1.558112 2.679051 0.067446 -0.013220 -101577.000000 0 0 1
0.816575 -11.574403 -25.217281 27.758690 -1.500363 2.710348 0.056708 -0.009564 -142220.000000 0 0 1
0.585475 -10.481203 -26.066331 28.100747 -1.514995 2.758740 0.043911 -0.009767 -203678.000000 0 0 1
1.502575 -9.215303 -25.823041 27.459224 -1.409167 2.794642 0.050854 -0.013565 524340.000000 0 0 1
2.862375 -9.215403 -26.171891 27.894170 -1.269636 2.788352 0.075622 -0.016240 -418533.000000 0 0 1
3.166975 -9.384503 -27.540001 29.266880 -1.245329 2.796356 0.084075 -0.016498 231110.000000 0 0 1
4.604275 -8.833303 -27.838731 29.567237 -1.090301 2.797968 0.104868 -0.027346 6737.570000 0 0 1
4.655975 -7.443103 -27.772331 29.126968 -1.011807 2.835413 0.100689 -0.033261 988743.000000 0 0 1
5.846375 -6.803803 -28.337911 29.723880 -0.860939 2.835015 0.106491 -0.030133 413233.000000 0 0 1
7.129275 -6.857103 -27.523871 29.247391 -0.765941 2.796579 0.105117 -0.031189 -533162.000000 0 0 1
7.699575 -8.073103 -27.059861 29.269344 -0.809076 2.750550 0.080950 -0.030121 397548.000000 0 0 1
8.431675 -8.748003 -28.082721 30.598365 -0.803809 2.733262 0.091242 -0.041639 -504273.000000 0 0 1
8.766675 -10.163303 -27.594991 30.686004 -0.859043 2.688893 0.084170 -0.031124 -548923.000000 0 0 1
7.686575 -11.031103 -27.440221 30.557068 -0.962215 2.685997 0.087168 -0.035018 -384807.000000 0 0 1
7.907275 -12.182703 -26.593601 30.301202 -0.995084 2.641716 0.088642 -0.031974 -350914.000000 0 0 1
8.912175 -13.224003 -27.110191 31.452561 -0.977776 2.609878 0.085210 -0.039217 -267102.000000 0 0 1
8.474075 -13.903203 -28.251271 32.607412 -1.023417 2.618756 0.088002 -0.048171 27232.700000 0 0 1
9.438075 -14.817103 -28.778511 33.716858 -1.003634 2.593529 0.096820 -0.055184 185540.000000 0 0 1
8.822175 -15.647303 -29.882101 34.865582 -1.057409 2.600344 0.082357 -0.048808 -101297.000000 0 0 1
8.541575 -14.882903 -31.002341 35.434509 -1.049775 2.636066 0.083390 -0.046893 36552.900000 0 0 1
7.599875 -15.564303 -31.797521 36.208949 -1.116561 2.642814 0.092271 -0.044905 -251764.000000 0 0 1
6.517675 -14.666703 -32.426931 36.181461 -1.152621 2.681994 0.109336 -0.046250 -321810.000000 0 0 1
6.929475 -13.634503 -33.326781 36.668674 -1.100586 2.711345 0.140721 -0.051379 174034.000000 0 0 1
5.860275 -12.871803 -33.871741 36.705871 -1.143560 2.746051 0.109804 -0.051495 386581.000000 0 0 1
6.481475 -11.600503 33.207455 35.767531 -1.061280 0.380647 0.149956 -0.051725 212330.000000 0 0 1
7.054875 -12.028203 32.010021 34.915475 -1.040342 0.410839 0.144932 -0.046225 4410.770000 0 0 1
7.442375 -10.917503 31.293992 33.969027 -0.972464 0.399512 0.138064 -0.048274 -197211.000000 0 0 1
7.887575 -11.218603 29.844312 32.844389 -0.958006 0.430738 0.131198 -0.042550 -109941.000000 0 0 1
6.867675 -11.781003 29.048272 32.089860 -1.043012 0.438907 0.137694 -0.038647 -161462.000000 0 0 1
7.193075 -11.856003 27.730642 31.004736 -1.025463 0.463708 0.123065 -0.035923 -243438.000000 0 0 1
6.319575 -12.614703 26.696102 30.195192 -1.106374 0.486194 0.114731 -0.043816 -212452.000000 0 0 1
6.393575 -14.023703 26.826432 30.938641 -1.143037 0.521476 0.118684 -0.032410 -90598.900000 0 0 1
6.060275 -14.764503 25.675142 30.231282 -1.181303 0.556156 0.096096 -0.034173 663562.000000 0 0 1
4.537975 -15.141003 25.522002 30.020256 -1.279602 0.554508 0.101040 -0.039394 258107.000000 0 0 1
3.775375 -14.020203 25.309632 29.178709 -1.307755 0.520842 0.082802 -0.044351 -958655.000000 0 0 1
2.542275 -14.458203 24.818452 28.835020 -1.396739 0.534143 0.077738 -0.036143 -314580.000000 0 0 1
1.430175 -13.415803 24.586802 28.045321 -1.464594 0.501877 0.069007 -0.031813 -501979.000000 0 0 1
1.540175 -12.599803 23.404942 26.625523 -1.449162 0.496948 0.033904 -0.021387 -135992.000000 0 0 1
0.542975 -11.600403 23.349792 26.078286 -1.524024 0.461528 0.040305 -0.001496 -209256.000000 0 0 1
-0.842325 -12.079103 22.932872 25.933200 1.501175 0.485792 0.037858 -0.000665 -1087630.000000 0 0 1
-0.919425 -12.503703 21.549562 24.931337 1.497396 0.526927 0.028625 -0.013615 191325.000000 0 1 0
-2.137725 -13.239703 21.463462 25.308888 1.410715 0.558482 0.037183 -0.016311 499244.000000 0 0 1
-2.422825 -13.790103 20.062962 24.465475 1.396878 0.609294 0.047798 -0.021954 195522.000000 0 1 0
-1.418525 -14.701703 19.630562 24.566466 1.474607 0.645034 0.066030 -0.036264 -262822.000000 0 1 0
-1.624625 -15.333703 18.348362 23.967149 1.465239 0.698880 0.065657 -0.038917 565952.000000 0 1 0
-2.684325 -16.506003 18.437162 24.891418 1.409580 0.736679 0.053259 -0.041997 613220.000000 0 1 0
-2.334925 -17.575703 17.579962 24.968226 1.438720 0.789651 0.041414 -0.042253 -496240.000000 0 1 0
-3.373325 -18.520003 17.523762 25.718711 1.390627 0.821174 0.056160 -0.042117 -43096.100000 0 0 1
-2.949225 -19.942403 16.989262 26.363467 1.423973 0.870526 0.043402 -0.034780 214591.000000 0 0 1
-2.005625 -20.604803 17.816062 27.312864 1.473764 0.860187 0.062630 -0.043294 -106652.000000 0 0 1
-2.199925 -21.976803 17.800562 28.366874 1.471027 0.892442 0.073041 -0.049234 -493440.000000 0 0 1
-1.069825 -22.747903 18.506462 29.344518 1.523801 0.888391 0.088576 -0.042521 378696.000000 0 0 1
0.063075 -22.601503 17.643262 28.672576 -1.568006 0.907984 0.090924 -0.053122 -221294.000000 0 0 1
1.135975 -23.452603 18.007362 29.590203 -1.522397 0.916554 0.125906 -0.051527 554037.000000 0 0 1
2.375875 -23.283803 17.071462 28.969209 -1.469108 0.940608 0.119472 -0.055781 278466.000000 0 0 1
3.104175 -22.117103 17.372962 28.295264 -1.431355 0.909693 0.110764 -0.046524 -650197.000000 0 0 1
4.252775 -22.000703 16.593962 27.883268 -1.379850 0.933378 0.095242 -0.034778 -320826.000000 0 0 1
5.025075 -20.725303 16.953862 27.243770 -1.332926 0.899116 0.089949 -0.030967 -134941.000000 0 0 1
5.853375 -20.817503 18.136462 28.223425 -1.296698 0.872905 0.098392 -0.026575 85975.000000 0 0 1
6.532675 -19.691903 18.543362 27.826304 -1.250477 0.841431 0.095253 -0.020279 255207.000000 0 0 1
7.491975 -18.878603 17.653062 26.910257 -1.193008 0.855293 0.097797 -0.023385 -79719.700000 0 0 1
6.813275 -17.984103 16.775462 25.519891 -1.208655 0.853501 0.084167 -0.022391 112313.000000 0 0 1
7.781175 -17.397503 15.932162 24.840563 -1.150225 0.874505 0.090382 -0.019537 225390.000000 0 1 0
7.172075 -16.544503 14.795062 23.324946 -1.161747 0.883691 0.056123 -0.016597 81611.300000 0 1 0
6.575375 -17.254503 13.699462 22.991927 -1.206704 0.932488 0.065156 -0.018216 228904.000000 0 1 0
5.958875 -16.315103 12.814362 21.584686 -1.220613 0.935174 0.047517 -0.019552 107340.000000 0 1 0
6.510675 -16.448503 11.365862 21.026768 -1.193897 0.999714 0.055514 -0.017491 511823.000000 0 1 0
7.887075 -16.101103 11.326262 21.206973 -1.115304 1.007375 0.062316 -0.013126 80611.800000 0 1 0
8.514475 -16.545803 10.134362 21.188798 -1.095537 1.072091 0.070009 -0.009166 -478679.000000 0 1 0
9.828375 -15.824803 9.916062 21.103309 -1.015025 1.081639 0.055453 -0.006634 -547982.000000 0 1 0
10.563675 -16.534103 8.956362 21.568130 -1.002262 1.142569 0.059537 -0.001203 -1310540.000000 0 1 0
11.883675 -16.126703 8.988162 21.956305 -0.935736 1.149037 0.062214 0.007063 -720067.000000 0 1 0
12.837375 -16.836103 8.012762 22.637511 -0.919349 1.208995 0.061328 -0.008102 -48128.900000 0 1 0
13.144275 -18.152003 8.384862 23.928500 -0.944064 1.212784 0.066880 -0.012348 -118135.000000 0 1 0
13.864975 -18.821703 7.387362 24.516671 -0.935895 1.264720 0.054756 -0.010877 -178582.000000 0 1 0
14.442275 -20.181003 7.925762 26.051294 -0.949653 1.261659 0.058185 -0.010399 -552316.000000 0 0 1
13.576675 -21.133003 8.431262 26.495586 -0.999754 1.246952 0.075618 -0.012386 -749166.000000 0 0 1
14.290975 -22.149103 9.059662 27.872786 -0.997791 1.239746 0.077912 -0.005704 -522844.000000 0 0 1
13.464675 -23.175203 9.821462 28.545554 -1.044468 1.219556 0.103494 -0.010663 -162985.000000 0 0 1
12.981975 -22.617203 11.040862 28.319078 -1.049724 1.170302 0.096183 -0.019802 -8134.410000 0 0 1
11.878075 -23.252403 11.683562 28.605394 -1.098521 1.150053 0.108529 -0.021853 341390.000000 0 0 1
12.061775 -24.596503 12.388462 30.065734 -1.114870 1.146098 0.093195 -0.029076 343398.000000 0 0 1
13.041875 -24.630203 13.461362 30.950698 -1.083822 1.120837 0.068371 -0.021344 575588.000000 0 0 1
13.103275 -25.919693 14.063262 32.269206 -1.102732 1.119858 0.063838 -0.029658 -35943.300000 0 0 1
14.299275 -26.117103 15.013162 33.346175 -1.069870 1.103783 0.045858 -0.022391 -133466.000000 0 0 1
14.158275 -25.380803 16.200062 33.272871 -1.061958 1.062276 0.041846 -0.011849 547339.000000 0 0 1
15.280275 -25.635873 17.031262 34.362024 -1.033286 1.052222 0.043260 -0.011624 -89288.900000 0 0 1
15.153775 -24.896703 18.380762 34.457730 -1.024029 1.008147 0.053750 -0.004831 -4603.420000 0 0 1
15.645875 -23.541003 18.446262 33.752582 -0.984210 0.992600 0.039735 -0.014124 370486.000000 0 0 1
16.938275 -23.512303 19.034662 34.670620 -0.946510 0.989612 0.048550 -0.008612 201188.000000 0 0 1
17.511775 -22.081703 19.320562 34.169401 -0.900311 0.969836 0.060914 -0.019289 40409.900000 0 0 1
17.634575 -21.273303 18.228762 33.103163 -0.878649 0.987635 0.053165 -0.018814 515856.000000 0 0 1
16.402575 -20.716503 17.777262 31.847276 -0.901098 0.978577 0.054494 -0.010591 -266697.000000 0 0 1
16.620175 -19.824503 16.539662 30.705074 -0.873096 1.001948 0.042639 -0.008855 88754.700000 0 0 1
17.314175 -18.597603 16.699962 30.406253 -0.821121 0.989356 0.048424 -0.010943 -288714.000000 0 0 1
18.704975 -18.767603 16.790462 31.369071 -0.787069 1.005986 0.056674 -0.016257 -790258.000000 0 0 1
19.453775 -17.491703 17.151062 31.282071 -0.732341 0.990501 0.065031 -0.023027 -463790.000000 0 0 1
19.471975 -17.054503 18.547262 31.843599 -0.719310 0.949058 0.068078 -0.021390 282637.000000 0 0 1
20.129275 -15.808503 18.759062 31.733246 -0.665743 0.938314 0.075729 -0.031665 -286420.000000 0 0 1
20.722375 -15.753503 20.211562 32.955985 -0.650008 0.910578 0.064436 -0.022908 413598.000000 0 0 1
21.883475 -16.568103 20.419862 34.210514 -0.648033 0.931179 0.060871 -0.023387 362224.000000 0 0 1
22.314275 -16.379303 21.774062 35.218152 -0.633200 0.904266 0.054378 -0.014270 249431.000000 0 0 1
34.897516 -1.475203 -7.823021 35.794029 -0.042247 1.791131 0.158067 -0.018541 -121600.000000 0 0 1
36.206316 -1.287303 -8.296421 37.166989 -0.035540 1.795913 0.176561 -0.022277 -172468.000000 0 0 1
37.018116 -2.400903 -7.975721 37.943608 -0.064767 1.782575 0.173989 -0.037036 2424.860000 0 0 1
-35.949004 -2.150003 -8.539821 37.011916 0.059736 1.803626 0.169717 -0.039770 219077.000000 0 0 1
-34.998617 -3.177903 -8.336121 36.117768 0.090552 1.803700 0.173478 -0.039873 1328320.000000 0 0 1
-33.660525 -2.799503 -8.743021 34.889950 0.082978 1.824084 0.205674 -0.041841 729903.000000 0 0 1
-32.516215 -3.657303 -8.238021 33.742334 0.112006 1.817434 0.202392 -0.040021 -457371.000000 0 0 1
-32.437445 -3.633903 -6.826821 33.346643 0.111563 1.776977 0.216622 -0.049902 114655.000000 0 0 1
-31.338515 -4.388603 -6.382221 32.281498 0.139134 1.769813 0.208155 -0.049782 -192577.000000 0 0 1
-31.073265 -4.180803 -4.878821 31.730582 0.133743 1.725166 0.212496 -0.062848 -137525.000000 0 0 1
-30.405945 -2.962703 -4.608021 30.895517 0.097132 1.720503 0.213471 -0.059541 432147.000000 0 0 1
-30.395325 -2.604303 -3.189421 30.672962 0.085472 1.674966 0.219482 -0.063215 -226540.000000 0 0 1
-29.754905 -1.223903 -2.948721 29.925696 0.041110 1.669491 0.227402 -0.058601 763593.000000 0 0 1
-28.313685 -1.237503 -3.078221 28.507396 0.043679 1.678987 0.206359 -0.046185 1436600.000000 0 0 1
-27.840225 -0.011303 -2.565721 27.958204 0.000406 1.662696 0.215582 -0.050561 -3672.630000 0 0 1
-26.331375 -0.005703 -2.218321 26.424653 0.000217 1.654844 0.190065 -0.035866 78371.300000 0 0 1
-25.956715 -0.597403 -0.927221 25.980140 0.023011 1.606494 0.184904 -0.040290 -95239.700000 0 0 1
-24.584925 -0.467103 -0.708421 24.599565 0.018997 1.599598 0.147437 -0.032648 -445466.000000 0 1 0
-24.165625 -1.377703 0.500679 24.210043 0.056949 1.550114 0.130633 -0.034681 -172064.000000 0 1 0
-24.048825 -2.775303 0.182079 24.209119 0.114895 1.563275 0.137235 -0.030956 729743.000000 0 1 0
-23.245125 -3.489903 1.138079 23.533178 0.149022 1.522417 0.119697 -0.028210 35003.300000 0 1 0
-23.252125 -5.047003 1.026379 23.815688 0.213740 1.527686 0.110112 -0.025772 -755665.000000 0 1 0
-24.475325 -5.476103 1.514679 25.126152 0.220115 1.510477 0.140269 -0.031150 -329198.000000 0 0 1
-24.645925 -6.854703 1.473679 25.623823 0.271271 1.513253 0.114704 -0.024389 812963.000000 0 0 1
-26.094925 -7.265503 1.956979 27.158100 0.271548 1.498675 0.136951 -0.020719 915307.000000 0 0 1
-26.347535 -7.119203 3.352579 27.497553 0.263902 1.448569 0.133722 -0.018674 1648120.000000 0 0 1
-27.676625 -7.658903 3.672679 28.950698 0.269972 1.443594 0.136252 -0.011858 1550080.000000 0 0 1
-27.929785 -7.732903 5.195579 29.442566 0.270103 1.393403 0.128909 -0.022667 121326.000000 0 0 1
-27.018285 -8.533103 5.958179 28.953436 0.305913 1.363531 0.130974 0.000029 282175.000000 0 0 1
-27.246345 -8.512203 7.408779 29.490862 0.302809 1.316853 0.101701 -0.009708 -66106.800000 0 0 1
-26.524695 -7.351603 8.075179 28.684735 0.270374 1.285424 0.116977 -0.006907 830113.000000 0 0 1
-25.084795 -7.415703 8.131879 27.392828 0.287439 1.269392 0.137802 -0.012654 983627.000000 0 0 1
-24.559625 -6.198103 8.553479 26.734877 0.247208 1.245133 0.124748 -0.024548 -1003460.000000 0 0 1
-23.244525 -5.821403 7.915779 25.236011 0.245395 1.251741 0.157220 -0.028395 -546260.000000 0 0 1
-22.125125 -6.420803 8.530479 24.566582 0.282446 1.216171 0.147973 -0.035338 -227589.000000 0 1 0
-20.920125 -6.173603 7.852479 23.182460 0.286959 1.225235 0.127354 -0.023033 -208737.000000 0 1 0
-19.694025 -6.399503 8.738179 22.475854 0.314183 1.171488 0.149534 -0.025188 -321798.000000 0 1 0
-19.527425 -5.424603 9.755179 22.492447 0.270962 1.122191 0.132584 -0.025286 -361758.000000 0 1 0
-18.479925 -5.734403 10.598479 22.061704 0.300883 1.069684 0.130498 -0.033190 -695714.000000 0 1 0
-18.215925 -4.626603 11.696279 22.136583 0.248727 1.014118 0.126969 -0.023588 -133311.000000 0 1 0
-19.281425 -4.495303 12.591279 23.463193 0.229050 1.004347 0.129090 -0.025278 -208250.000000 0 1 0
-19.311825 -3.216603 13.293779 23.664693 0.165046 0.974290 0.120379 -0.019560 576932.000000 0 1 0
-20.536625 -3.249903 14.265379 25.215390 0.156948 0.969465 0.117637 -0.019719 351918.000000 0 0 1
-20.480125 -4.315903 15.204479 25.869649 0.207697 0.942541 0.108835 -0.018792 480145.000000 0 0 1
-21.710125 -4.401303 15.916279 27.276894 0.200020 0.947755 0.083792 -0.002304 268602.000000 0 0 1
-21.495925 -5.405903 17.071379 27.977322 0.246376 0.914501 0.083126 -0.000171 132573.000000 0 0 1
-22.312925 -5.128303 18.222179 29.261133 0.225912 0.898552 0.074454 0.001190 824495.000000 0 0 1
-21.921225 -5.869303 19.370779 29.836486 0.261609 0.864223 0.081600 0.002286 -563716.000000 0 0 1
-22.719625 -5.307803 20.554279 31.093931 0.229506 0.848595 0.085110 -0.000111 -267794.000000 0 0 1
-22.456925 -3.993303 20.920279 30.950251 0.175981 0.828567 0.058203 0.001451 6961.740000 0 0 1
-23.164625 -3.673303 22.048079 32.190228 0.157264 0.816288 0.063965 -0.006888 -307063.000000 0 0 1
-22.861025 -2.221603 22.476479 32.136492 0.096874 0.796229 0.072149 -0.001111 -23286.900000 0 0 1
-23.856325 -1.452603 21.855779 32.386870 0.060815 0.830056 0.088797 -0.008613 161334.000000 0 0 1
-23.708625 -0.099903 22.183979 32.469028 0.004214 0.818612 0.099515 -0.015335 -162566.000000 0 0 1
-24.930825 0.754297 21.776079 33.110612 -0.030246 0.853066 0.113035 -0.023142 16576.100000 0 0 1
-26.091555 0.478397 22.522079 34.470888 -0.018333 0.858775 0.114440 -0.027733 -297600.000000 0 0 1
-27.210775 1.106997 21.956679 34.982102 -0.040660 0.892259 0.116055 -0.022691 20397.100000 0 0 1
-28.495825 0.926797 22.791279 36.500868 -0.032512 0.896428 0.111058 -0.022582 -134171.000000 0 0 1
-28.470305 1.849697 23.874579 37.201817 -0.064878 0.874007 0.113160 -0.023060 -33497.300000 0 0 1
-29.460745 1.552197 24.831979 38.561276 -0.052638 0.871131 0.095269 -0.018625 -299440.000000 0 0 1
-29.496815 2.550897 26.015979 39.413200 -0.086266 0.849867 0.120217 -0.022699 566208.000000 0 0 1
-28.311395 2.343897 26.800779 39.055226 -0.082602 0.814506 0.097683 -0.024281 699856.000000 0 0 1
-28.141295 3.120397 27.933979 39.774069 -0.110432 0.792150 0.090751 -0.031127 634784.000000 0 0 1
-26.940715 2.704597 28.893879 39.597642 -0.100055 0.752932 0.084221 -0.029024 636583.000000 0 0 1
-27.240165 1.794897 29.937079 40.515145 -0.065796 0.739344 0.075849 -0.022276 454831.000000 0 0 1
-26.196355 1.730697 30.922279 40.563921 -0.065970 0.703922 0.068949 -0.026425 428369.000000 0 0 1
-26.335455 0.482697 31.824279 41.310700 -0.018327 0.691384 0.036953 -0.025734 -159582.000000 0 0 1
-25.747765 -0.683803 31.284079 40.522939 0.026552 0.688800 0.051796 -0.028371 -61063.300000 0 0 1
-26.176265 -1.813003 31.940979 41.336545 0.069151 0.687704 0.059086 -0.022281 -373465.000000 0 0 1
-27.059165 -2.760003 31.088379 41.307425 0.101647 0.718779 0.048153 -0.019900 -194221.000000 0 0 1
-28.326875 -2.305003 30.721879 41.851628 0.081193 0.746505 0.058685 -0.014278 -330026.000000 0 0 1
-28.436085 -1.441003 29.605379 41.075125 0.050632 0.765896 0.061541 -0.013731 -385293.000000 0 0 1
-29.903785 -1.379003 29.114079 41.758444 0.046082 0.799309 0.088251 -0.021433 -104103.000000 0 0 1
-30.766235 -0.951503 30.082179 43.039564 0.030917 0.796879 0.104916 -0.012062 -745432.000000 0 0 1
-32.087765 -0.861103 29.568579 43.642491 0.026829 0.826413 0.090344 -0.013032 373525.000000 0 0 1
-33.156795 -0.381703 30.560779 45.094123 0.011512 0.826151 0.085472 -0.017169 -22165.500000 0 0 1
-33.504015 -1.458603 31.397679 45.939752 0.043508 0.818313 0.103845 -0.022799 -153323.000000 0 0 1
-34.273967 -1.136703 32.534079 47.270109 0.033153 0.811710 0.132614 -0.021487 66573.300000 0 0 1
-34.545359 -2.333603 33.464379 48.152800 0.067449 0.802429 0.140325 -0.019916 -108604.000000 0 0 1
-35.497152 -3.270203 33.041279 48.605228 0.091866 0.823322 0.106861 -0.024747 -192983.000000 0 0 1
-35.607271 -4.400403 33.904979 49.363842 0.122958 0.813666 0.094793 -0.015724 875884.000000 0 0 1
-36.849095 -5.320203 33.559779 50.124037 0.143387 0.837214 0.091439 -0.012301 1548880.000000 0 0 1
36.252436 -4.792303 33.861579 49.837855 -0.131431 0.823804 0.101218 -0.019130 466736.000000 0 0 1
35.145276 -5.353503 33.185079 48.632293 -0.151163 0.819800 0.088791 -0.021412 54705.300000 0 0 1
33.791106 -4.800403 33.694179 47.960196 -0.141117 0.791829 0.103578 -0.022477 187439.000000 0 0 1
33.209426 -5.371303 -32.975904 47.107612 -0.160352 2.346211 0.101760 -0.023090 363892.000000 0 0 1
32.742246 -6.690503 -33.091704 47.030611 -0.201564 2.351276 0.094164 -0.020864 -845960.000000 0 0 1
31.334446 -6.929903 -33.630204 46.485070 -0.217656 2.379601 0.074624 -0.022445 -648881.000000 0 0 1
30.345946 -6.454703 -32.754104 45.115086 -0.209581 2.383302 0.076903 -0.021887 645131.000000 0 0 1
29.059276 -7.013803 -33.092304 44.595242 -0.236832 2.406933 0.079491 -0.017102 1522860.000000 0 0 1
27.795376 -6.489703 -32.311804 43.113245 -0.229372 2.418048 0.075171 -0.026687 1291060.000000 0 0 1
26.601576 -7.239903 -32.573504 42.674269 -0.265725 2.439211 0.054314 -0.022186 683897.000000 0 0 1
25.508076 -6.770903 -31.775104 41.305742 -0.259458 2.448488 0.049565 -0.022730 234039.000000 0 0 1
24.165376 -7.329603 -32.307104 41.005335 -0.294491 2.478148 0.060804 -0.032303 -102936.000000 0 0 1
23.857476 -8.739403 -32.254304 41.059670 -0.351137 2.474376 0.074790 -0.036315 147964.000000 0 0 1
23.687276 -9.254903 -30.945704 40.054674 -0.372474 2.453701 0.074044 -0.036138 -351599.000000 0 0 1
23.481476 -10.785003 -30.799404 40.203225 -0.430559 2.443536 0.068288 -0.031893 -768294.000000 0 0 1
22.374676 -11.236803 -31.468904 40.214224 -0.465415 2.469518 0.078232 -0.039868 -1091670.000000 0 0 1
22.356176 -12.677803 -31.548604 40.692011 -0.515864 2.457990 0.079410 -0.037128 -854593.000000 0 0 1
21.113676 -13.228503 -32.280604 40.777666 -0.559704 2.484260 0.074555 -0.031466 -283052.000000 0 0 1
19.896476 -12.970603 -31.643904 39.565679 -0.577713 2.497728 0.075549 -0.032885 -468427.000000 0 0 1
19.410676 -11.650903 -31.894204 39.112123 -0.540590 2.524312 0.073868 -0.033684 -1301060.000000 0 0 1
18.002976 -11.386503 -31.357604 37.908560 -0.563959 2.544886 0.075018 -0.036080 -339913.000000 0 0 1
16.961376 -11.887903 -32.133104 38.230183 -0.611317 2.569032 0.056807 -0.027628 -960121.000000 0 0 1
15.714576 -11.496803 -31.666004 37.173380 -0.631622 2.590296 0.093275 -0.033791 -260816.000000 0 0 1
14.510876 -11.924803 -32.528804 37.561810 -0.687883 2.617958 0.096137 -0.034442 -662440.000000 0 0 1
14.063976 -13.267603 -32.509504 37.824497 -0.756269 2.605053 0.103071 -0.030644 543399.000000 0 0 1
12.904276 -13.335703 -33.350004 38.165221 -0.801838 2.633825 0.107958 -0.034280 564330.000000 0 0 1
11.542776 -13.259503 -32.632204 37.066304 -0.854504 2.647446 0.112964 -0.040883 -382176.000000 0 0 1
11.282276 -12.030603 -31.993904 35.994931 -0.817486 2.665614 0.150528 -0.038231 337475.000000 0 0 1
10.050976 -12.037303 -31.250204 34.964182 -0.875084 2.676495 0.134626 -0.042832 721863.000000 0 0 1
9.013276 -11.048203 -31.797104 34.847637 -0.886487 2.720055 0.114313 -0.037588 -328316.000000 0 0 1
9.471976 -9.732403 -31.753104 34.535455 -0.798958 2.737438 0.128867 -0.040035 -69317.200000 0 0 1
8.426876 -8.877503 -32.118904 34.372174 -0.811433 2.777494 0.116032 -0.034976 -197701.000000 0 0 1
8.750376 -7.374003 -32.193304 34.166560 -0.700245 2.800071 0.116035 -0.027988 -318801.000000 0 0 1
9.200476 -6.815303 -30.996904 33.043989 -0.637558 2.787755 0.121065 -0.033377 302758.000000 0 0 1
9.599576 -5.453003 -31.274204 33.165690 -0.516593 2.802235 0.104779 -0.031240 42602.800000 0 0 1
9.680876 -4.577603 -30.037804 31.889552 -0.441693 2.799136 0.105413 -0.021266 1022940.000000 0 0 1
8.298376 -4.394503 -29.614404 31.067469 -0.487016 2.834541 0.097512 -0.021728 1389630.000000 0 0 1
8.237476 -3.262503 -28.702204 30.038583 -0.377102 2.842185 0.103036 -0.023462 727564.000000 0 0 1
6.796176 -2.817903 -28.255804 29.197929 -0.393055 2.886870 0.086110 -0.023939 131734.000000 0 0 1
6.182376 -2.093203 -29.300904 30.019098 -0.326461 2.922410 0.063454 -0.007696 697346.000000 0 0 1
4.860176 -1.656003 -28.987704 29.438931 -0.328392 2.966282 0.080795 -0.013250 1226220.000000 0 0 1
3.585776 -2.554403 -28.967104 29.299759 -0.618980 2.990761 0.070866 -0.016329 120726.000000 0 0 1
3.710676 -3.595703 -27.982604 28.455656 -0.769663 2.958998 0.083444 -0.021825 -77401.500000 0 0 1
2.585976 -4.445503 -27.928604 28.398181 -1.043937 2.959487 0.083029 -0.019829 87079.300000 0 0 1
2.689576 -5.475503 -26.780304 27.466337 -1.114212 2.917620 0.078205 -0.026921 -269088.000000 0 0 1
2.716876 -4.905903 -25.460704 26.070995 -1.065042 2.924795 0.071186 -0.028079 91530.700000 0 0 1
3.090476 -5.936403 -24.537004 25.433374 -1.090807 2.875312 0.082058 -0.034023 71374.300000 0 0 1
3.056376 -5.421003 -23.073404 23.897922 -1.057418 2.878147 0.088233 -0.037687 -129919.000000 0 1 0
4.027576 -4.444603 -22.812304 23.587647 -0.834582 2.884484 0.088830 -0.038545 -206343.000000 0 1 0
3.807876 -3.839903 -21.517504 22.186657 -0.789586 2.895369 0.081482 -0.038526 58041.100000 0 1 0
4.767276 -2.663103 -21.225304 21.916491 -0.509438 2.889781 0.095982 -0.038915 21491.200000 0 1 0
6.098476 -3.100103 -21.046104 22.130083 -0.470298 2.827308 0.083076 -0.034989 -292979.000000 0 1 0
6.864576 -1.967603 -20.644804 21.844949 -0.279147 2.808577 0.082873 -0.024303 -953523.000000 0 1 0
8.324576 -2.233603 -20.446004 22.188435 -0.262140 2.742647 0.087780 -0.021142 -1703420.000000 0 1 0
9.063276 -2.444803 -21.646804 23.594579 -0.263477 2.732415 0.091995 -0.036622 868137.000000 0 1 0
10.284776 -3.190703 -21.530504 24.073218 -0.300821 2.677830 0.080642 -0.036370 904729.000000 0 1 0
11.451176 -2.738103 -20.630104 23.753481 -0.234704 2.622982 0.081146 -0.028784 -743208.000000 0 1 0
11.172976 -2.756103 -19.227204 22.407965 -0.241848 2.602261 0.070093 -0.006611 609187.000000 0 1 0
12.205376 -2.143703 -18.404104 22.187333 -0.173863 2.548985 0.068410 -0.020990 441571.000000 0 1 0
12.381976 -0.610503 -18.381504 22.171282 -0.049266 2.548235 0.053274 -0.022448 8735.500000 0 1 0
13.011276 -0.099603 -19.550004 23.484163 -0.007655 2.554358 0.065706 -0.028055 202535.000000 0 1 0
13.186776 1.301097 -19.368604 23.467568 0.098348 2.541591 0.091420 -0.040447 7818.300000 0 1 0
13.546476 2.110797 -20.606104 24.750233 0.154576 2.554513 0.090617 -0.041563 143444.000000 0 1 0
14.910876 2.127697 -21.000404 25.843342 0.141737 2.519403 0.091960 -0.035108 341966.000000 0 0 1
15.208176 3.229897 -21.798804 26.775151 0.209270 2.522048 0.090923 -0.038963 -56893.500000 0 0 1
16.708076 3.295697 -22.172904 27.958167 0.194752 2.486636 0.063738 -0.031686 265542.000000 0 0 1
17.080976 2.375297 -23.170204 28.883562 0.138175 2.501756 0.048180 -0.030357 -149304.000000 0 0 1
18.026876 1.392097 -22.819604 29.114267 0.077070 2.471549 0.050139 -0.020967 -164353.000000 0 0 1
9.571875 26.256997 2.997479 28.107571 1.221222 1.463950 0.024648 -0.006765 53007.100000 0 0 1
9.482875 26.837097 4.268379 28.781483 1.231141 1.421944 0.030145 -0.009817 -806342.000000 0 0 1
10.720375 27.325997 4.594679 29.711069 1.196933 1.415528 0.037351 -0.018523 -1019410.000000 0 0 1
10.693775 28.055997 5.982179 30.615066 1.206638 1.374131 0.033071 -0.020145 -80143.200000 0 0 1
10.538575 27.296497 7.122679 30.114662 1.202349 1.332015 0.025731 -0.021419 45401.900000 0 0 1
10.529775 28.145097 8.253679 31.163213 1.212793 1.302745 0.031537 -0.019690 -432521.000000 0 0 1
10.496775 27.391397 9.574879 30.856915 1.204844 1.255288 0.035119 -0.029021 -230789.000000 0 0 1
11.608175 26.669797 10.036979 30.769608 1.160271 1.238518 0.045686 -0.025919 -301342.000000 0 0 1
12.046875 25.567797 9.256579 29.740943 1.130474 1.254298 0.052379 -0.028199 -391876.000000 0 0 1
13.310275 24.906197 9.809479 29.894949 1.079996 1.236471 0.059723 -0.030373 -879254.000000 0 0 1
14.431075 25.700797 9.784979 31.056927 1.059165 1.250270 0.072931 -0.030811 -543156.000000 0 0 1
15.349175 25.380297 10.845779 31.581444 1.026879 1.220238 0.078881 -0.034740 82742.500000 0 0 1
16.445775 26.448797 10.940779 33.010650 1.014504 1.232976 0.073185 -0.034882 -1164750.000000 0 0 1
17.280275 26.517097 9.778979 33.126919 0.993251 1.271134 0.077763 -0.040633 1289010.000000 0 0 1
18.635575 26.077997 10.027679 33.584236 0.950333 1.267589 0.107728 -0.047941 1802950.000000 0 0 1
19.560475 26.845397 11.081979 35.015679 0.941110 1.248773 0.090478 -0.044155 -320920.000000 0 0 1
19.804575 28.199297 10.910879 36.145108 0.958523 1.264150 0.085243 -0.047725 688472.000000 0 0 1
18.719975 29.082297 11.296879 36.384570 0.998870 1.255093 0.075927 -0.037227 498835.000000 0 0 1
19.087775 30.606497 11.382379 37.824058 1.013168 1.265129 0.068029 -0.018526 -774574.000000 0 0 1
19.533175 31.222397 10.184279 38.211288 1.011755 1.301010 0.088489 -0.034879 -210519.000000 0 0 1
18.761175 31.252997 8.983879 37.542530 1.030156 1.329153 0.099525 -0.032354 450202.000000 0 0 1
17.412375 32.042197 9.107379 37.587731 1.073019 1.326064 0.091314 -0.030759 444362.000000 0 0 1
17.580875 33.372797 9.602779 38.923568 1.085937 1.321514 0.072941 -0.026502 163846.000000 0 0 1
16.295075 33.960897 9.728379 38.903899 1.123424 1.318052 0.100154 -0.024878 279582.000000 0 0 1
16.280875 -32.578310 10.094279 37.792957 -1.107352 1.300420 0.121910 -0.029142 -336201.000000 0 0 1
16.926475 -31.801310 9.167479 37.173532 -1.081677 1.321613 0.112856 -0.031132 -249096.000000 0 0 1
16.880075 -30.403010 9.322879 36.002722 -1.063961 1.308862 0.067780 -0.020196 34715.500000 0 0 1
17.547875 -29.636810 8.158479 35.395327 -1.036208 1.338209 0.062506 -0.021564 8505.300000 0 0 1
16.860975 -29.913810 6.980879 35.040850 -1.057532 1.370233 0.064617 -0.026125 201624.000000 0 0 1
17.471475 -29.184710 5.866879 34.516952 -1.031369 1.399996 0.053754 -0.018255 369665.000000 0 0 1
16.840875 -29.487010 4.508179 34.255255 -1.051876 1.438808 0.065637 -0.019867 45278.700000 0 0 1
17.158175 -30.858110 4.077179 35.542218 -1.063332 1.455830 0.069432 -0.022668 204737.000000 0 0 1
16.772575 -30.966010 2.709879 35.320765 -1.074391 1.493999 0.082020 -0.019117 -48838.800000 0 0 1
17.094175 -32.368410 2.130279 36.666918 -1.084912 1.512665 0.077210 -0.018876 -215703.000000 0 0 1
18.467875 -32.652710 1.997279 37.566620 -1.056067 1.517605 0.086255 -0.011312 42812.600000 0 0 1
18.622575 -33.889310 1.373079 38.693293 -1.068328 1.535303 0.103598 -0.014361 160122.000000 0 0 1
20.035675 33.571197 1.631379 39.129464 1.032725 1.529092 0.091893 -0.010660 337467.000000 0 0 1
20.352975 33.131897 2.949779 38.995736 1.019927 1.495080 0.087103 -0.023770 589827.000000 0 0 1
21.714875 32.721897 3.114179 39.394879 0.984907 1.491663 0.073991 -0.006033 549845.000000 0 0 1
22.044175 32.397197 4.574679 39.451891 0.973323 1.454579 0.077675 -0.001092 208439.000000 0 0 1
21.212875 31.384297 5.154579 38.229960 0.976424 1.435554 0.073330 -0.020008 162222.000000 0 0 1
22.015075 30.265897 5.395779 37.812729 0.941924 1.427610 0.063222 -0.023884 518955.000000 0 0 1
21.336775 29.220497 6.411079 36.745032 0.940089 1.395424 0.082181 -0.039264 532190.000000 0 0 1
20.164875 28.609697 5.913079 35.497908 0.956838 1.403441 0.088479 -0.038646 -324294.000000 0 0 1
19.241075 28.257397 6.918579 34.879309 0.972990 1.371114 0.093426 -0.045800 585345.000000 0 0 1
17.766375 28.600597 6.535279 34.297931 1.014942 1.379080 0.101347 -0.042356 75526.100000 0 0 1
17.457475 29.955497 6.266179 35.232942 1.043135 1.391995 0.098289 -0.050977 -12249.600000 0 0 1
17.958275 30.539897 5.077679 35.790610 1.039227 1.428444 0.102868 -0.041097 -503811.000000 0 0 1
17.920075 32.072997 5.116779 37.094308 1.061277 1.432415 0.106763 -0.037017 -226896.000000 0 0 1
16.646075 32.640797 5.223479 37.010785 1.099199 1.429190 0.104160 -0.035572 -336432.000000 0 0 1
16.796875 33.960897 5.607979 38.300483 1.111482 1.423847 0.103879 -0.038910 123456.000000 0 0 1
15.388775 -33.485510 5.830379 37.310683 -1.140017 1.413888 0.091700 -0.039811 1226.430000 0 0 1
14.644975 -33.481910 4.653279 36.839742 -1.158470 1.444147 0.091755 -0.031864 2615.520000 0 0 1
13.594175 -32.502610 4.815179 35.558503 -1.174658 1.434963 0.094222 -0.029061 837930.000000 0 0 1
12.680375 -32.349210 3.555279 34.927114 -1.197219 1.468828 0.090011 -0.029786 159607.000000 0 0 1
11.583875 -31.480110 3.600279 33.736412 -1.218199 1.463875 0.096646 -0.033323 -185740.000000 0 0 1
10.883475 -31.355410 2.409179 33.277859 -1.236707 1.498337 0.086560 -0.024309 -602701.000000 0 0 1
9.781475 -30.285310 2.397879 31.915937 -1.258395 1.495594 0.096773 -0.024430 119828.000000 0 0 1
9.305575 -29.841310 1.106079 31.278122 -1.268517 1.535426 0.098874 -0.015532 707230.000000 0 0 1
8.337175 -30.751510 0.505079 31.865639 -1.306046 1.554945 0.081011 -0.017749 419418.000000 0 0 1
8.777175 -31.052710 -0.941721 32.283067 -1.295328 1.599971 0.090352 -0.020797 159429.000000 0 0 1
9.939975 -31.849010 -1.074521 33.381389 -1.268279 1.602991 0.084544 -0.021692 -104865.000000 0 0 1
9.871075 -32.778210 -2.080421 34.295441 -1.278287 1.631495 0.080574 -0.012059 462883.000000 0 0 1
11.104975 -33.755710 -2.052221 35.594663 -1.252968 1.628484 0.062351 -0.012085 537747.000000 0 0 1
11.184575 33.449197 -0.908621 35.281285 1.248109 1.596553 0.062859 -0.007617 -371887.000000 0 0 1
12.364675 32.709197 -0.939121 34.980833 1.209382 1.597646 0.069131 -0.011971 -466021.000000 0 0 1
12.550475 31.893097 0.352379 34.275476 1.195891 1.560515 0.066058 -0.019067 -1047570.000000 0 0 1
12.911075 32.515797 1.576879 35.020843 1.192818 1.525754 0.069851 -0.024186 1042930.000000 0 0 1
14.216575 33.130797 1.751579 36.094719 1.165454 1.522250 0.080199 -0.021507 1126910.000000 0 0 1
15.366475 32.074897 1.656279 35.604365 1.124024 1.524261 0.082505 -0.022987 -862894.000000 0 0 1
15.691275 31.765597 0.317379 35.431201 1.111984 1.561839 0.085195 -0.029783 -121335.000000 0 0 1
16.570375 30.665297 0.282179 34.857100 1.075382 1.562701 0.093249 -0.024226 -97043.900000 0 0 1
17.270975 30.319697 -1.086521 34.910616 1.053008 1.601924 0.085878 -0.022967 213031.000000 0 0 1
18.385675 31.091897 -1.448121 36.150189 1.036774 1.610866 0.065680 -0.016922 -17452.200000 0 0 1
18.080275 32.183597 -2.282621 36.985005 1.058950 1.632553 0.070398 -0.017756 545166.000000 0 0 1
19.413875 32.815797 -2.803521 38.231333 1.036575 1.644193 0.081981 -0.011178 605961.000000 0 0 1
20.320775 33.302297 -1.832221 39.055524 1.022917 1.617727 0.075694 -0.006660 -23072.400000 0 0 1
21.365375 33.954697 -2.534021 40.197288 1.009160 1.633878 0.080031 -0.005777 -1102030.000000 0 0 1
22.370975 -33.461410 -1.532421 40.279955 -0.981484 1.608850 0.075038 -0.001070 266880.000000 0 0 1
23.452875 33.740497 -1.068521 41.104747 0.963369 1.596794 0.069513 0.003837 1285740.000000 0 0 1
24.340975 33.138797 -2.010321 41.166787 0.937279 1.619649 0.079257 0.001478 50090.100000 0 0 1
25.111075 -34.003310 -3.033621 42.379169 -0.934703 1.642440 0.071879 -0.002543 -171858.000000 0 0 1
24.199075 -33.505410 -4.020121 41.525523 -0.945297 1.667759 0.066446 -0.019833 608641.000000 0 0 1
24.949275 -32.734810 -4.932121 41.453105 -0.919556 1.690060 0.061976 -0.017983 80122.700000 0 0 1
24.098575 -32.311010 -6.147421 40.774176 -0.929968 1.722141 0.068201 -0.028640 163418.000000 0 0 1
23.073575 -31.410910 -5.737421 39.394836 -0.937242 1.716955 0.074940 -0.026836 51517.400000 0 0 1
22.441975 -30.884010 -6.866421 38.789329 -0.942405 1.748752 0.073362 -0.033220 -95458.200000 0 0 1
21.433175 -29.747310 -6.530121 37.241454 -0.946439 1.747053 0.088196 -0.036198 973922.000000 0 0 1
20.167475 -30.207210 -6.006521 36.814139 -0.982122 1.734687 0.077243 -0.029222 355687.000000 0 0 1
19.416575 -29.107610 -5.668221 35.445522 -0.982520 1.731399 0.083935 -0.041150 -35493.600000 0 0 1
18.162075 -29.299010 -4.785621 34.802228 -1.015882 1.708742 0.073310 -0.027926 -417639.000000 0 0 1
17.080875 -29.932710 -5.328821 34.872908 -1.052243 1.724204 0.066256 -0.032343 -756925.000000 0 0 1
16.032975 -30.004210 -4.381021 34.300178 -1.080042 1.698872 0.054709 -0.025359 89381.800000 0 0 1
14.802675 -30.830910 -4.797121 34.535149 -1.123175 1.710152 0.051835 -0.022182 -118535.000000 0 0 1
14.923675 -32.250410 -4.618721 35.834865 -1.137395 1.700045 0.048672 -0.016873 -938549.000000 0 0 1
13.711875 -32.843510 -4.880421 35.923949 -1.175303 1.707072 0.054522 -0.008335 -962114.000000 0 0 1
13.797975 33.683197 -5.082621 36.752890 1.182008 1.709533 0.053347 -0.009294 -151891.000000 0 0 1
14.079975 32.969397 -3.901821 36.061767 1.167180 1.679207 0.056356 -0.014585 49563.000000 0 0 1
14.506275 31.587597 -4.060521 34.995659 1.140285 1.687088 0.063953 -0.017445 351846.000000 0 0 1
13.487475 30.484597 -4.600421 33.650951 1.154251 1.707936 0.058960 -0.017615 1041300.000000 0 0 1
12.544475 29.945797 -3.642021 32.670766 1.174099 1.682505 0.052890 -0.014282 799719.000000 0 0 1
13.202175 29.167797 -2.629621 32.124332 1.145759 1.652746 0.074964 -0.019516 -233295.000000 0 0 1
12.239175 28.307597 -1.794321 30.892346 1.162705 1.628912 0.054729 -0.010585 -274345.000000 0 0 1
11.374575 29.096697 -1.038221 31.258225 1.198139 1.604017 0.044668 -0.011386 -625970.000000 0 0 1
10.399575 28.288997 -0.440921 30.143207 1.218512 1.585424 0.021906 0.000609 -238330.000000 0 0 1
9.154175 29.104797 -0.007321 30.510460 1.266068 1.571036 0.019563 0.008499 192407.000000 0 0 1
8.198275 28.257097 0.617179 29.428832 1.288418 1.549823 0.020237 0.000013 549965.000000 0 0 1
6.959075 28.977297 0.746979 29.810576 1.335104 1.545736 0.026669 -0.000034 786376.000000 0 0 1
5.818775 28.256997 1.526079 28.890222 1.367712 1.517948 0.016284 -0.007678 175811.000000 0 0 1
5.191775 27.300997 0.734179 27.799964 1.382872 1.544384 0.030029 -0.014647 -194322.000000 0 0 1
4.027775 26.790697 1.360179 27.125901 1.421572 1.520632 0.031647 -0.018951 60347.700000 0 0 1
3.425275 25.713597 0.470379 25.944996 1.438367 1.552665 0.038777 -0.016444 -373569.000000 0 0 1
2.367775 25.071197 1.128479 25.208029 1.476634 1.526015 0.061166 -0.015808 -462381.000000 0 0 1
1.822775 24.050897 0.386879 24.122973 1.495153 1.554758 0.051885 -0.020534 -241946.000000 0 1 0
0.404875 23.641197 0.821279 23.658923 1.553672 1.536076 0.055185 -0.013386 -504007.000000 0 1 0
-0.590625 24.569097 0.628179 24.584222 -1.546762 1.545241 0.067386 -0.020280 5018.510000 0 1 0
-1.883925 23.929397 0.580879 24.010469 -1.492230 1.546601 0.050707 -0.017185 734021.000000 0 1 0
-2.997225 24.839897 1.120779 25.045159 -1.450715 1.526031 0.084388 -0.027932 408058.000000 0 0 1
-4.330325 24.357397 0.904379 24.755856 -1.394852 1.534256 0.085465 -0.022079 1077140.000000 0 1 0
-5.234725 24.967997 1.860979 25.578633 -1.364132 1.497977 0.089810 -0.029656 20104.500000 0 0 1
-6.600025 25.315697 1.291279 26.193744 -1.315764 1.521479 0.095813 -0.027409 -428927.000000 0 0 1
-6.442625 26.323697 0.339979 27.102768 -1.330768 1.558252 0.100904 -0.026019 -427828.000000 0 0 1
-7.613425 26.516897 -0.374221 27.590761 -1.291201 1.584360 0.091122 -0.018228 -679826.000000 0 0 1
-7.451525 27.678797 -1.346521 28.695891 -1.307817 1.617737 0.081024 -0.009424 -36925.700000 0 0 1
-7.559525 28.976997 -0.757621 29.956414 -1.315604 1.596090 0.109277 -0.018858 -70380.700000 0 0 1
-7.660725 29.945197 -1.794921 30.961642 -1.320343 1.628801 0.094764 -0.023167 33979.800000 0 0 1
-7.617125 31.350997 -1.125021 32.282678 -1.332452 1.605652 0.081719 -0.024041 -349129.000000 0 0 1
-8.083225 32.436697 -1.984321 33.487541 -1.326571 1.630087 0.066625 -0.012426 -124164.000000 0 0 1
-7.559225 32.577597 -3.342221 33.609703 -1.342794 1.670403 0.056797 -0.017718 1882470.000000 0 0 1
-5.971925 32.841797 -3.459621 33.559149 -1.390923 1.674070 0.092021 -0.014634 1884190.000000 0 0 1
-5.462525 -34.010810 -2.878121 34.566717 1.411545 1.654156 0.089493 -0.024387 56990.200000 0 0 1
-5.349425 -33.985510 -1.434021 34.433815 1.414674 1.612454 0.127713 -0.032823 -393562.000000 0 0 1
-5.085625 -32.604910 -0.863221 33.010436 1.416066 1.596949 0.134991 -0.030971 124646.000000 0 0 1
-6.188025 -31.722810 -0.951121 32.334702 1.378150 1.600215 0.099657 -0.022202 -259517.000000 0 0 1
-5.898525 -30.531910 -1.659621 31.140720 1.379955 1.624116 0.101293 -0.014594 110355.000000 0 0 1
-7.125525 -29.601610 -1.834021 30.502328 1.334576 1.630960 0.109285 -0.020913 157744.000000 0 0 1
-7.502325 -28.943910 -0.642421 29.907315 1.317176 1.592278 0.096087 -0.016316 296227.000000 0 0 1
-8.711425 -28.182110 -0.708421 29.506306 1.271001 1.594808 0.055995 -0.022144 290166.000000 0 0 1
-9.056725 -27.548410 0.625679 29.005700 1.253170 1.549224 0.064918 -0.017041 13161.700000 0 0 1
-8.065825 -26.575610 1.000679 27.790680 1.276127 1.534781 0.077324 -0.030772 191755.000000 0 0 1
-8.027825 -26.363710 2.392379 27.662513 1.275214 1.484204 0.103412 -0.019810 466812.000000 0 0 1
-8.918725 -25.216510 2.963679 26.910953 1.230842 1.460443 0.102844 -0.024385 583579.000000 0 0 1
-8.131125 -24.061310 2.999079 25.574524 1.244911 1.453258 0.100172 -0.027811 -149012.000000 0 0 1
-8.926325 -23.032610 3.526479 24.952283 1.201067 1.428993 0.116727 -0.031200 -129881.000000 0 1 0
-8.204825 -21.754810 3.885279 23.572999 1.210142 1.405222 0.069612 -0.010857 66021.700000 0 1 0
-7.218125 -21.830410 4.907779 23.510730 1.251467 1.360503 0.075979 -0.013090 -87665.900000 0 1 0
-6.647925 -20.566710 5.155079 22.220695 1.258160 1.336669 0.041270 -0.011855 240640.000000 0 1 0
-7.625025 -19.497110 5.811379 21.726721 1.197999 1.300024 0.049462 -0.014047 481357.000000 0 1 0
-7.988625 -19.915310 7.098079 22.601336 1.189316 1.251334 0.054667 -0.017856 -125575.000000 0 1 0
-8.980925 -19.103410 7.662679 22.456935 1.131336 1.222585 0.045607 -0.013330 -474749.000000 0 1 0
-28.192835 28.597097 -5.196521 40.492391 -0.792517 1.699484 0.119566 -0.019003 136467.000000 0 0 1
-27.271445 29.503997 -4.593621 40.439077 -0.824700 1.684636 0.110028 -0.035546 221949.000000 0 0 1
-26.296555 28.777097 -3.868621 39.173924 -0.830408 1.669713 0.097601 -0.033984 222264.000000 0 0 1
-25.389505 29.659897 -2.979121 39.156246 -0.862817 1.646953 0.086962 -0.034878 -414711.000000 0 0 1
-26.009445 30.130097 -1.782121 39.843317 -0.858667 1.615539 0.070075 -0.031648 292257.000000 0 0 1
-25.191165 30.986097 -1.006121 39.946781 -0.888189 1.595986 0.060167 -0.030748 -43614.700000 0 0 1
-23.887825 30.451597 -0.423821 38.705395 -0.905608 1.581746 0.046658 -0.022884 93024.100000 0 0 1
-22.828325 30.023797 -1.281621 37.738619 -0.920710 1.604763 0.075966 -0.026480 1285100.000000 0 0 1
-21.559325 30.076097 -0.568621 37.009451 -0.948867 1.586161 0.069523 -0.024026 1271040.000000 0 0 1
-20.436625 29.427097 -1.478021 35.857973 -0.963783 1.612027 0.082348 -0.025694 630822.000000 0 0 1
-19.183925 29.572397 -0.796421 35.258814 -0.995328 1.593386 0.091440 -0.021351 -308321.000000 0 0 1
-18.210425 28.787897 -1.416721 34.093543 -1.006770 1.612362 0.095114 -0.021088 -320916.000000 0 0 1
-16.826225 29.336197 -0.988721 33.833591 -1.050041 1.600024 0.096929 -0.019100 -305507.000000 0 0 1
-16.445025 28.733997 0.237379 33.107972 -1.050979 1.563626 0.090774 -0.025122 -46123.700000 0 0 1
-15.345925 29.430897 0.788279 33.200851 -1.090158 1.547051 0.093544 -0.027154 251802.000000 0 0 1
-14.675925 28.675097 2.004379 32.274781 -1.097753 1.508653 0.098455 -0.031307 170188.000000 0 0 1
-15.443325 28.751897 3.205179 32.793918 -1.077893 1.472903 0.099575 -0.031608 137267.000000 0 0 1
-14.827225 28.097597 4.311179 32.061002 -1.085232 1.435920 0.106552 -0.044889 176661.000000 0 0 1
-13.665325 28.782697 5.067679 32.262457 -1.127531 1.413066 0.093205 -0.035269 -66976.400000 0 0 1
-13.883225 30.003097 5.799279 33.564288 -1.137410 1.397144 0.078048 -0.041717 -326148.000000 0 0 1
-14.095125 31.127497 5.004579 34.534612 -1.145601 1.425369 0.069397 -0.028499 -103879.000000 0 0 1
-13.974725 32.480997 5.750479 35.824239 -1.164493 1.409580 0.075928 -0.029234 -28072.700000 0 0 1
-15.109625 32.878497 6.514879 36.766017 -1.140021 1.392657 0.086510 -0.032019 315652.000000 0 0 1
-15.014325 -33.906410 7.082279 37.752261 1.153932 1.382079 0.076449 -0.031654 -205179.000000 0 0 1
-16.120125 -33.623310 8.093879 38.156209 1.123737 1.357048 0.064285 -0.022210 -115367.000000 0 0 1
-15.956125 33.646397 9.223579 38.363425 -1.127977 1.327991 0.045549 -0.021342 518979.000000 0 0 1
-17.146525 33.771697 10.000579 39.173236 -1.100993 1.312648 0.044113 -0.017805 -92547.700000 0 0 1
-17.078325 33.066797 11.409679 38.926380 -1.094052 1.273319 0.041895 -0.008438 57382.100000 0 0 1
-16.302225 33.762297 12.381879 39.483746 -1.120960 1.251820 0.056920 -0.020705 718552.000000 0 0 1
-14.936825 33.316797 12.298979 38.527686 -1.149334 1.245885 0.078947 -0.021044 562595.000000 0 0 1
-14.209025 33.345397 13.706579 38.751545 -1.167980 1.209268 0.086597 -0.024809 86991.800000 0 0 1
-14.733625 32.471297 14.719879 38.576413 -1.144834 1.179294 0.064623 -0.017068 49612.200000 0 0 1
-14.237525 31.141397 14.616679 37.230915 -1.141980 1.167345 0.053451 -0.019020 -240199.000000 0 0 1
-14.958625 30.078897 13.740079 36.294494 -1.109301 1.182543 0.061042 -0.022343 -57314.900000 0 0 1
-14.817125 30.177397 12.358879 35.818492 -1.114374 1.218513 0.058610 -0.013582 -8952.960000 0 0 1
-15.885725 29.486697 11.783479 35.505942 -1.076637 1.232507 0.044555 -0.011624 -283273.000000 0 0 1
-15.830425 29.237697 10.242979 34.790285 -1.074550 1.271947 0.047438 -0.009259 -603530.000000 0 0 1
-14.824225 28.376097 9.893679 33.508886 -1.089374 1.271074 0.032839 -0.009383 -679220.000000 0 0 1
-14.884725 28.045297 8.531879 32.876841 -1.082861 1.308281 0.049185 -0.013913 114860.000000 0 0 1
-14.003625 26.793697 8.217979 31.329521 -1.089196 1.305383 0.064313 -0.019217 871216.000000 0 0 1
-12.597725 26.963697 8.023679 30.824066 -1.133723 1.307458 0.076964 -0.023274 426015.000000 0 0 1
-11.992025 25.750497 7.845379 29.469420 -1.134963 1.301326 0.089616 -0.031398 -5314.190000 0 0 1
-10.815425 25.900697 6.830879 28.887375 -1.175233 1.332069 0.112529 -0.040043 -111238.000000 0 0 1
-11.294425 26.091397 5.578379 28.973149 -1.162271 1.377050 0.111065 -0.041862 406588.000000 0 0 1
-10.260325 25.989397 4.612079 28.319504 -1.194790 1.407209 0.127624 -0.031344 64887.000000 0 0 1
-10.664625 26.519497 3.240879 28.766669 -1.188444 1.457896 0.118907 -0.032056 -16051.000000 0 0 1
-10.474025 27.928597 3.164279 29.995406 -1.212001 1.465108 0.114512 -0.026233 119862.000000 0 0 1
-10.694525 28.430597 1.889079 30.434197 -1.211007 1.508685 0.114717 -0.022584 -21266.600000 0 0 1
-10.278825 29.880497 1.703779 31.644924 -1.239479 1.516930 0.120904 -0.031469 177542.000000 0 0 1
-11.259325 30.798097 2.157679 32.862604 -1.220305 1.505091 0.106363 -0.032420 157615.000000 0 0 1
-10.862625 32.143997 1.941979 33.985356 -1.244909 1.513624 0.098412 -0.029007 -99276.100000 0 0 1
-11.652625 33.204797 2.859979 35.306114 -1.233291 1.489702 0.081689 -0.027952 776881.000000 0 0 1
-13.008425 33.346497 2.424479 35.875982 -1.198855 1.503165 0.087521 -0.030037 366715.000000 0 0 1
-13.179125 -33.886210 1.308679 36.382374 1.199875 1.534818 0.063680 -0.015276 385605.000000 0 0 1
-14.701525 -33.822910 0.916379 36.891243 1.160771 1.545954 0.069360 -0.018394 791372.000000 0 0 1
-15.272425 33.135897 0.256079 36.486987 -1.138913 1.563778 0.073291 -0.012717 -211279.000000 0 0 1
-15.258725 33.175797 -1.181521 36.535711 -1.139711 1.603141 0.089926 -0.016492 856806.000000 0 0 1
-13.911525 32.906197 -1.985021 35.781121 -1.170822 1.626302 0.075938 -0.010137 1023210.000000 0 0 1
-13.476025 31.533897 -1.980021 34.349824 -1.166937 1.628471 0.077545 -0.007049 1002630.000000 0 0 1
-12.080025 31.450197 -2.320821 33.770225 -1.204071 1.639574 0.061590 -0.004902 936555.000000 0 0 1
-11.551625 29.998397 -2.563721 32.247737 -1.203222 1.650381 0.037408 -0.003154 149463.000000 0 0 1
-11.845125 29.452597 -3.838421 31.976490 -1.188416 1.691125 0.058852 -0.012103 38563.700000 0 0 1
-10.690425 29.557597 -4.638621 31.771899 -1.223753 1.717318 0.043279 -0.012606 16149.600000 0 0 1
-10.913225 28.909797 -6.007021 31.479504 -1.209842 1.762797 0.045970 -0.012569 -127715.000000 0 0 1
-11.101825 27.535897 -6.006521 30.291161 -1.187555 1.770412 0.059810 -0.010881 104174.000000 0 0 1
-10.804625 26.998397 -7.262821 29.973354 -1.190122 1.815542 0.056716 -0.009680 -59982.800000 0 0 1
-11.097425 25.536297 -7.421421 28.815496 -1.160844 1.831282 0.072451 -0.024338 156305.000000 0 0 1
-10.205825 24.668897 -6.775121 27.542978 -1.178525 1.819331 0.039721 -0.016842 125667.000000 0 0 1
-10.823625 23.382197 -6.819921 26.653130 -1.137266 1.829551 0.099650 -0.032011 369242.000000 0 0 1
-10.208425 22.350897 -5.827921 25.253499 -1.142356 1.803672 0.074198 -0.033109 651542.000000 0 0 1
-8.834825 22.008797 -6.064821 24.479039 -1.189064 1.821159 0.048951 -0.030124 898271.000000 0 1 0
-8.308525 20.791597 -5.428221 23.038830 -1.190626 1.808644 0.049289 -0.024766 -101090.000000 0 1 0
-8.228625 20.736597 -3.858221 22.640729 -1.193037 1.742043 0.052809 -0.034148 901259.000000 0 1 0
-9.525625 20.793897 -3.218121 23.097186 -1.141229 1.710581 0.066078 -0.035440 882132.000000 0 1 0
-10.230425 19.557497 -3.248121 22.309361 -1.088844 1.716910 0.064507 -0.029294 706622.000000 0 1 0
-11.540925 19.539797 -2.348121 22.814695 -1.037290 1.673900 0.071075 -0.029888 751450.000000 0 1 0
-11.443325 19.539297 -0.909821 22.661897 -1.040990 1.610955 0.068675 -0.026642 72247.200000 0 1 0
-11.029725 18.267497 -0.361521 21.342141 -1.027595 1.587736 0.061370 -0.026136 -443563.000000 0 1 0
-10.976025 18.346697 1.172279 21.411414 -1.031660 1.516019 0.068896 -0.020484 -623510.000000 0 1 0
-12.162825 18.303997 1.892079 22.057892 -0.984302 1.484913 0.086127 -0.026658 -560923.000000 0 1 0
-11.964325 18.404497 3.307379 22.199309 -0.994368 1.421254 0.088215 -0.020582 -1014020.000000 0 1 0
-13.204525 18.386297 4.166279 23.016804 -0.947978 1.388783 0.090047 -0.026479 -579668.000000 0 1 0
-13.698625 17.062797 4.310179 22.301772 -0.894329 1.376306 0.060807 -0.024487 746391.000000 0 1 0
-15.011325 16.981197 4.877179 23.183783 -0.846893 1.358843 0.079022 -0.035829 632065.000000 0 1 0
-15.348625 15.576697 5.474079 22.542833 -0.792773 1.325514 0.052808 -0.034242 -372393.000000 0 1 0
-14.690825 15.208597 6.675879 22.174064 -0.802714 1.264985 0.058631 -0.022538 58017.800000 0 1 0
-15.247425 15.808297 7.832579 23.318137 -0.803456 1.228235 0.057869 -0.021062 -1063070.000000 0 1 0
-14.346625 15.742197 9.098979 23.161041 -0.831747 1.167060 0.060007 -0.015064 815539.000000 0 1 0
-13.149925 16.520297 9.150879 23.012591 -0.898508 1.161846 0.060455 -0.019970 894796.000000 0 1 0
-12.190325 16.151497 8.139179 21.811032 -0.924263 1.188375 0.054542 -0.024871 -356053.000000 0 1 0
-11.131425 17.295497 7.870779 22.022534 -0.998932 1.205317 0.072037 -0.024667 559683.000000 0 1 0
-9.946925 17.163097 8.636979 21.635864 -1.045547 1.160155 0.063789 -0.031111 16693.000000 0 1 0
-9.218225 18.367997 8.518479 22.246876 -1.105659 1.177856 0.059888 -0.033348 -163460.000000 0 1 0
-8.034525 18.432897 9.503079 22.240364 -1.159747 1.129303 0.058067 -0.029428 53974.600000 0 1 0
-6.907125 17.631897 9.118279 21.017497 -1.197431 1.122043 0.044825 -0.025269 666479.000000 0 1 0
-5.701025 18.035597 9.769779 21.289270 -1.264636 1.094033 0.042525 -0.021237 1084640.000000 0 1 0
-4.805825 19.106397 9.032879 21.673561 -1.324379 1.140908 0.035061 -0.022377 -521240.000000 0 1 0
-5.177425 20.444897 9.129979 22.981646 -1.322772 1.162253 0.047180 -0.024330 -189248.000000 0 1 0
-4.454025 21.260997 8.263479 23.241201 -1.364290 1.207291 0.047864 -0.033409 237320.000000 0 1 0
-3.018425 21.722197 8.635779 23.569926 -1.432725 1.195670 0.050833 -0.027010 838149.000000 0 1 0
-1.948625 20.752097 8.565679 22.534807 -1.477171 1.180882 0.036434 -0.008431 -360649.000000 0 1 0
-0.775225 21.456097 8.351779 23.037302 -1.534681 1.199812 0.029274 -0.012662 -392295.000000 0 1 0
0.478075 20.559097 8.225679 22.148743 1.547547 1.190298 0.015330 -0.002532 333535.000000 0 1 0
0.821775 19.812397 9.355979 21.925801 1.529342 1.129943 0.018260 -0.016846 -1770880.000000 0 1 0
2.117275 19.381697 9.310279 21.605886 1.461987 1.125291 0.007662 -0.018456 -1060280.000000 0 1 0
2.594275 18.702697 10.597879 21.652625 1.432965 1.059337 -0.002125 -0.035181 -109138.000000 0 1 0
3.958675 18.344897 10.611679 21.559547 1.358264 1.056177 0.023681 -0.022560 -299197.000000 0 1 0
4.303675 17.835597 11.859679 21.846788 1.334025 0.996961 0.018077 -0.025523 -56877.800000 0 1 0
5.793075 17.996597 12.192879 22.496745 1.259372 0.998000 0.035933 -0.019894 -294367.000000 0 1 0
6.717775 17.319497 11.406379 21.799059 1.200787 1.020135 0.029773 -0.015675 -841664.000000 0 1 0
7.792875 16.906997 12.168479 22.240668 1.138894 0.991868 0.037720 -0.009972 -265478.000000 0 1 0
8.974675 16.191997 11.425179 21.754546 1.064684 1.017863 0.047703 -0.012340 397298.000000 0 1 0
9.836975 17.178397 10.907379 22.601644 1.050740 1.067184 0.059316 -0.025381 -664842.000000 0 1 0
11.008875 16.628397 10.395479 22.489217 0.985995 1.090274 0.062115 -0.024662 -574921.000000 0 1 0
11.853375 17.631097 9.634879 23.327858 0.978904 1.145028 0.059424 -0.020114 60975.600000 0 1 0
12.891175 16.992197 8.886779 23.106103 0.921780 1.176014 0.070497 -0.021769 530761.000000 0 1 0
13.870875 17.943997 8.479379 24.213386 0.912731 1.213018 0.080712 -0.019730 446952.000000 0 1 0
14.914375 17.641397 7.400779 24.257556 0.868968 1.260762 0.084675 -0.024198 398417.000000 0 1 0
15.904875 16.684697 7.788679 24.331208 0.809322 1.244950 0.098766 -0.031575 97422.400000 0 1 0
16.932675 16.641397 6.845579 24.708572 0.776723 1.290071 0.106052 -0.022173 -133948.000000 0 1 0
18.385175 16.556197 7.363979 25.813766 0.733102 1.281505 0.099238 -0.022030 93963.600000 0 0 1
18.722475 15.297497 7.980879 25.460536 0.685061 1.251961 0.106756 -0.023912 822560.000000 0 0 1
19.893575 15.528297 8.786779 26.722459 0.662780 1.235746 0.108822 -0.022487 511683.000000 0 0 1
20.212975 14.478797 9.872079 26.751782 0.621590 1.192836 0.090631 -0.026538 38435.200000 0 0 1
20.965475 13.374997 9.423479 26.594053 0.567860 1.208582 0.103009 -0.033869 150656.000000 0 0 1
21.091175 12.363097 10.431679 26.580138 0.530191 1.167490 0.105463 -0.036942 -652084.000000 0 0 1
21.966575 11.189497 10.091679 26.637891 0.471129 1.182246 0.097169 -0.026841 -409777.000000 0 0 1
23.356875 11.552697 10.219179 27.989999 0.459332 1.197055 0.087721 -0.041517 1483770.000000 0 0 1
24.237475 10.632097 9.532779 28.131309 0.413387 1.225084 0.108775 -0.030259 -61784.900000 0 0 1
24.172175 9.102197 9.873479 27.651937 0.360135 1.205675 0.112875 -0.035257 -1627850.000000 0 0 1
23.118075 8.377897 9.355079 26.308783 0.347675 1.207254 0.118639 -0.037600 -321128.000000 0 0 1
22.991675 6.993797 9.737579 25.929727 0.295295 1.185820 0.120424 -0.039998 -645895.000000 0 0 1
24.019975 5.969997 9.266779 26.428645 0.243607 1.212548 0.132726 -0.038948 -300025.000000 0 0 1
23.855175 5.853197 7.901479 25.802377 0.240610 1.259565 0.121875 -0.024753 -17165.300000 0 0 1
24.910675 5.183697 7.278579 26.464885 0.205164 1.292178 0.120358 -0.021052 -520071.000000 0 0 1
24.725575 4.755297 5.808779 25.840062 0.190003 1.344061 0.123512 -0.023956 -80320.200000 0 0 1
23.809875 3.705697 5.499779 24.716187 0.154398 1.346401 0.127696 -0.022413 557209.000000 0 1 0
23.626775 3.499997 4.114579 24.236424 0.147067 1.400202 0.128583 -0.018107 -141094.000000 0 1 0
22.530275 2.471397 3.780979 22.978618 0.109255 1.405501 0.114015 -0.015866 -211133.000000 0 1 0
22.923475 1.167497 4.185079 23.331602 0.050886 1.390446 0.127307 -0.017621 42401.300000 0 1 0
22.011575 0.159797 3.832879 22.343364 0.007260 1.398399 0.111046 -0.018001 -532902.000000 0 1 0
22.409175 -1.275503 4.033679 22.805013 -0.056857 1.392984 0.125722 -0.025927 -1023100.000000 0 1 0
22.488875 -1.653503 5.366779 23.179428 -0.073393 1.337144 0.123926 -0.031453 633208.000000 0 1 0
22.769775 -3.022803 5.347379 23.583775 -0.131983 1.342067 0.125646 -0.032924 -397693.000000 0 1 0
22.829275 -3.585003 6.758479 24.077065 -0.155763 1.286271 0.163356 -0.039514 -207299.000000 0 1 0
23.183275 -4.954703 6.894679 24.689065 -0.210551 1.287773 0.167402 -0.036770 439246.000000 0 1 0
23.477075 -5.258703 8.216779 25.423266 -0.220356 1.241688 0.206619 -0.035101 -263260.000000 0 0 1
22.891575 -6.617603 8.628879 25.343134 -0.281413 1.223367 0.195226 -0.038454 -173944.000000 0 0 1
21.495775 -6.715503 8.708179 24.145366 -0.302803 1.201825 0.180909 -0.034473 -232923.000000 0 1 0
21.105875 -7.980503 9.148279 24.348252 -0.361501 1.185616 0.153647 -0.035612 -8618.050000 0 1 0
-27.447635 -32.635510 5.475179 42.993334 0.871529 1.443100 0.059595 -0.019250 60422.800000 0 0 1
-28.188115 -33.768210 5.860779 44.375788 0.875221 1.438338 0.066279 -0.020547 35715.000000 0 0 1
-28.178755 -33.895710 7.274479 44.675266 0.877237 1.407238 0.055168 -0.007473 12860.400000 0 0 1
-29.029935 32.946597 7.752679 44.590575 -0.848510 1.396045 0.061771 -0.009420 -555343.000000 0 0 1
-30.380545 33.000097 7.440279 45.468029 -0.826705 1.406419 0.069640 -0.021189 -872113.000000 0 0 1
-30.988435 31.757297 7.801579 45.051900 -0.797651 1.396750 0.089729 -0.023002 1065850.000000 0 0 1
-32.552375 31.864897 7.957279 46.242265 -0.774726 1.397858 0.094721 -0.026024 669503.000000 0 0 1
-33.188305 32.148797 6.727279 46.693308 -0.769490 1.426219 0.074540 -0.025759 -857292.000000 0 0 1
-34.565029 32.151397 6.895779 47.707498 -0.749236 1.425745 0.064775 -0.026464 -772268.000000 0 0 1
-35.294178 32.084897 5.518779 48.016420 -0.737804 1.455607 0.050424 -0.020737 -213500.000000 0 0 1
-35.160477 30.782097 4.915579 46.988930 -0.719099 1.465993 0.059989 -0.018461 101332.000000 0 0 1
-35.881204 30.694397 3.728279 47.365672 -0.707647 1.492002 0.064872 -0.008784 -46892.500000 0 0 1
-35.460151 29.326197 3.101079 46.120113 -0.691000 1.503506 0.066666 -0.015026 163882.000000 0 0 1
-35.898344 28.209697 3.790279 45.813146 -0.666036 1.487968 0.083810 -0.022548 247341.000000 0 0 1
-35.290791 27.037897 3.192879 44.572214 -0.653755 1.499101 0.082402 -0.017790 -33790.600000 0 0 1
-35.815682 25.707297 3.805779 44.250561 -0.622551 1.484685 0.103591 -0.017448 201510.000000 0 0 1
37.166676 25.622597 3.640779 45.289453 0.603574 1.490320 0.104347 -0.013488 -278356.000000 0 0 1
36.634036 24.748997 4.601679 44.449307 0.594144 1.467084 0.113330 -0.013020 638037.000000 0 0 1
35.149556 24.380697 4.243379 42.987393 0.606436 1.471923 0.128640 -0.018291 477674.000000 0 0 1
34.946296 23.532797 3.106479 42.245548 0.592649 1.497196 0.106661 -0.020157 339602.000000 0 0 1
35.441406 22.177997 3.273279 41.936514 0.559149 1.492664 0.103874 -0.018590 -524741.000000 0 0 1
34.722896 21.260297 2.269179 40.777799 0.549403 1.515120 0.117618 -0.019371 677467.000000 0 0 1
33.380506 20.956497 2.685079 39.504969 0.560615 1.502776 0.109096 -0.030937 762010.000000 0 0 1
33.123316 20.067097 3.785179 38.912338 0.544695 1.473368 0.082174 -0.016645 -530309.000000 0 0 1
33.190656 18.617897 3.469779 38.213677 0.511202 1.479872 0.090810 -0.021636 -238746.000000 0 0 1
32.365606 18.161097 2.390779 37.189699 0.511343 1.506466 0.073431 -0.027189 457933.000000 0 0 1
32.471936 16.791697 2.033379 36.613145 0.477245 1.515231 0.081445 -0.026198 -508575.000000 0 0 1
31.966416 15.761297 3.043879 35.770595 0.458079 1.485599 0.085387 -0.024537 14008.600000 0 0 1
30.552556 15.781597 3.147179 34.531467 0.476791 1.479530 0.068099 -0.022192 402645.000000 0 0 1
29.962516 14.685497 3.886579 33.593477 0.455720 1.454842 0.078493 -0.019673 176900.000000 0 0 1
28.423376 14.782397 3.900579 32.274171 0.479581 1.449643 0.075551 -0.017077 -13161.800000 0 0 1
27.915376 14.418997 2.617879 31.528225 0.476780 1.487668 0.075041 -0.031781 -60400.800000 0 0 1
26.509476 14.528397 2.577079 30.339215 0.501341 1.485752 0.060092 -0.019410 -133461.000000 0 0 1
25.996476 14.072497 1.194079 29.585094 0.496157 1.530425 0.082272 -0.024140 -362417.000000 0 0 1
26.252076 14.859197 0.069979 30.165744 0.515059 1.568477 0.093904 -0.026776 48519.100000 0 0 1
27.498376 14.408997 -0.400921 31.047393 0.482658 1.583710 0.105059 -0.027338 -864029.000000 0 0 1
28.085476 15.271597 -1.509221 32.004584 0.498035 1.617970 0.120136 -0.031205 -174242.000000 0 0 1
28.424076 16.652897 -1.209421 32.965281 0.529967 1.607492 0.097264 -0.034931 1043400.000000 0 0 1
29.225576 16.880997 -0.007021 33.750591 0.523794 1.571004 0.087271 -0.031730 -104630.000000 0 0 1
29.689356 18.351997 0.224379 34.904212 0.553647 1.564368 0.094176 -0.021408 -588866.000000 0 0 1
30.633866 18.610697 -0.765021 35.852156 0.545931 1.592136 0.088011 -0.015829 -294920.000000 0 0 1
31.101826 19.946397 -0.806121 36.957167 0.570253 1.592610 0.085215 -0.006873 828816.000000 0 0 1
32.316506 20.115097 -1.811421 38.108463 0.556757 1.618348 0.089041 -0.009496 893393.000000 0 0 1
33.002126 21.352597 -2.010821 39.358825 0.574268 1.621908 0.029901 -0.006182 610064.000000 0 0 1
32.306056 22.248397 -2.872621 39.330960 0.603085 1.643899 0.083704 -0.007482 43365.900000 0 0 1
33.099496 23.599497 -3.110621 40.769951 0.619389 1.647167 0.080229 -0.008750 167025.000000 0 0 1
33.200366 24.434897 -1.971021 41.270006 0.634470 1.618574 0.087347 -0.006169 115108.000000 0 0 1
34.082746 24.035997 -0.948021 41.716441 0.614224 1.593524 0.097615 0.001452 -617945.000000 0 0 1
34.067446 25.040197 0.228679 42.280665 0.633844 1.565388 0.092909 -0.015166 -321515.000000 0 0 1
34.727866 26.286697 0.013279 43.554739 0.647924 1.570491 0.105575 -0.007864 -84446.400000 0 0 1
35.981696 26.242997 0.669779 44.540161 0.630149 1.555758 0.102488 -0.008613 85629.900000 0 0 1
36.883366 27.433197 0.209279 45.967454 0.639510 1.566244 0.074186 -0.017804 -375218.000000 0 0 1
-37.101025 27.460397 -1.137921 46.172008 -0.637169 1.595444 0.076072 -0.021069 29360.900000 0 0 1
36.356286 28.031997 -2.037921 45.953515 0.656829 1.615158 0.058890 -0.017288 -183626.000000 0 0 1
36.283866 27.562997 -3.533621 45.702563 0.649648 1.648191 0.074772 -0.013428 -368852.000000 0 0 1
-36.969895 27.884497 -4.288521 46.504943 -0.646215 1.663144 0.064008 -0.008063 -168907.000000 0 0 1
-36.982405 27.347197 -5.622121 46.337627 -0.636725 1.692425 0.059967 -0.005845 273900.000000 0 0 1
36.250806 27.685797 -6.636421 46.094104 0.652230 1.715274 0.048545 0.006807 1603180.000000 0 0 1
34.989396 27.116997 -6.208121 44.700449 0.659314 1.710129 0.064423 0.002418 1148890.000000 0 0 1
33.870746 27.261597 -7.093521 44.053832 0.677704 1.732520 0.054161 -0.003406 918423.000000 0 0 1
32.837356 26.108397 -6.853921 42.507841 0.671735 1.732742 0.072007 -0.001012 -57156.300000 0 0 1
33.244456 24.744097 -7.250221 42.071723 0.639848 1.743991 0.068979 -0.001770 -34778.400000 0 0 1
34.296216 24.177297 -6.508821 42.463359 0.614044 1.724684 0.072581 -0.004430 -59152.700000 0 0 1
34.477926 22.621497 -6.621121 41.764803 0.580662 1.730002 0.078940 0.000006 1199280.000000 0 0 1
33.388516 21.937097 -5.931621 40.388282 0.581298 1.718194 0.072381 0.002996 921039.000000 0 0 1
33.642186 20.597797 -6.090321 39.914383 0.549386 1.723979 0.072732 0.003744 -134037.000000 0 0 1
32.568366 19.675197 -5.521621 38.448669 0.543443 1.714905 0.092821 -0.007295 -139955.000000 0 0 1
31.334206 19.769597 -6.186121 37.562448 0.562850 1.736239 0.083499 -0.012819 -483070.000000 0 0 1
30.290126 19.078497 -5.551821 36.225730 0.562086 1.724659 0.114490 -0.021577 231716.000000 0 0 1
29.043876 18.787197 -6.417821 35.180875 0.574162 1.754247 0.077548 -0.019024 28857.000000 0 0 1
29.303876 17.792697 -7.358121 35.063359 0.545681 1.782220 0.063948 -0.015020 475665.000000 0 0 1
28.315376 17.775397 -8.406121 34.473006 0.560585 1.817126 0.086737 -0.023073 328610.000000 0 0 1
28.600176 16.716897 -9.513921 34.466497 0.528947 1.850462 0.081694 -0.023953 -410359.000000 0 0 1
27.722876 16.758597 -10.636721 34.096162 0.543725 1.888054 0.099955 -0.026258 230197.000000 0 0 1
27.783676 15.479897 -11.315021 33.757808 0.508322 1.912595 0.090669 -0.016517 -36822.400000 0 0 1
26.899376 15.523797 -12.592121 33.513075 0.523416 1.955989 0.094006 -0.014619 574734.000000 0 0 1
25.498376 15.794497 -12.357721 32.439892 0.554585 1.961611 0.075539 -0.015732 1562400.000000 0 0 1
24.715476 15.628997 -13.593021 32.247334 0.563872 2.005921 0.075406 -0.018405 344752.000000 0 0 1
24.579576 14.187397 -14.178521 31.724884 0.523488 2.034117 0.071633 -0.020528 -559725.000000 0 0 1
25.739576 13.578497 -14.745521 32.624098 0.485431 2.039783 0.083914 -0.019914 458528.000000 0 0 1
26.094376 13.989597 -16.080321 33.692759 0.492121 2.068334 0.094142 -0.019870 -534637.000000 0 0 1
27.515976 13.620897 -16.506221 34.858473 0.459654 2.064080 0.107150 -0.018232 -236962.000000 0 0 1
27.580476 12.240997 -16.873321 34.572151 0.417710 2.080663 0.104166 -0.019229 435998.000000 0 0 1
28.923076 11.874597 -17.179821 35.674874 0.389575 2.073237 0.096886 -0.009060 541335.000000 0 0 1
29.051176 10.437697 -17.721921 35.594702 0.344924 2.091950 0.077631 -0.004167 -75860.500000 0 0 1
28.462176 10.304997 -19.016821 35.748118 0.347377 2.131718 0.074077 -0.010783 84296.000000 0 0 1
28.539476 9.020497 -19.700521 35.832689 0.306135 2.152911 0.058951 -0.005048 637466.000000 0 0 1
29.966766 8.633997 -20.251621 37.184421 0.280522 2.146740 0.063357 -0.007610 511036.000000 0 0 1
30.304006 9.504797 -21.391521 38.291920 0.303931 2.163545 0.075466 -0.009933 377086.000000 0 0 1
31.054686 8.909297 -22.436421 39.333981 0.279387 2.177799 0.051837 -0.008285 148467.000000 0 0 1
32.573726 8.680797 -22.296421 40.417005 0.260444 2.155149 0.049278 -0.003715 107593.000000 0 0 1
33.497146 9.728497 -22.412721 41.461217 0.282652 2.141912 0.053172 -0.004424 975053.000000 0 0 1
34.863396 9.292297 -22.540821 42.542823 0.260479 2.129206 0.032117 -0.004499 1088940.000000 0 0 1
35.887686 10.436897 -22.346221 43.545475 0.283015 2.109670 0.052552 -0.007795 -114995.000000 0 0 1
35.906826 10.796097 -20.958321 42.954710 0.292071 2.080498 0.047880 -0.007501 170791.000000 0 0 1
36.808886 11.858397 -20.724921 43.875255 0.311662 2.062763 0.027903 -0.004368 -97653.900000 0 0 1
36.799086 12.459497 -19.302521 43.382014 0.326467 2.031907 0.025190 -0.003789 -93966.100000 0 0 1
37.170776 11.535497 -18.288121 43.002205 0.300914 2.010071 0.029013 -0.003435 271025.000000 0 0 1
37.078336 12.120197 -17.023921 42.561909 0.315932 1.982292 0.039747 -0.010178 -271480.000000 0 0 1
-36.888795 11.137397 -15.969421 41.711476 -0.293216 1.963680 0.035378 -0.013868 120240.000000 0 0 1
36.689136 9.913597 -15.901921 41.197612 0.263903 1.967079 0.037451 -0.010794 625018.000000 0 0 1
37.077516 9.055197 -14.882521 40.966184 0.239535 1.942591 0.042375 -0.020044 332773.000000 0 0 1
35.982206 7.969497 -14.585821 39.635568 0.217966 1.947652 0.088460 -0.019336 373843.000000 0 0 1
34.893216 8.282697 -13.727921 38.400461 0.233059 1.936379 0.106443 -0.017333 645111.000000 0 0 1
35.076556 7.964897 -12.371821 38.037696 0.223286 1.902074 0.102916 -0.016400 -608016.000000 0 0 1
34.069056 8.673897 -11.483721 36.983955 0.249301 1.886521 0.109240 -0.013288 -301917.000000 0 0 1
34.249776 10.076597 -11.446521 37.491437 0.286136 1.881061 0.113753 -0.019636 143301.000000 0 0 1
33.352346 10.693797 -10.541021 36.576624 0.310275 1.863133 0.081959 -0.004668 -137203.000000 0 0 1
33.765236 10.746297 -9.068121 36.576015 0.308128 1.821334 0.105530 -0.009815 189199.000000 0 0 1
34.956276 11.479497 -8.784921 37.827172 0.317300 1.805175 0.095134 -0.010726 198376.000000 0 0 1
34.899826 12.756897 -8.233921 38.059608 0.350442 1.788863 0.094457 -0.012973 -629499.000000 0 0 1
34.399296 12.867197 -6.752221 37.342587 0.357941 1.752615 0.087312 -0.018911 -460879.000000 0 0 1
35.294676 12.397097 -5.795921 37.854919 0.337784 1.724510 0.115670 -0.017797 48502.100000 0 0 1
35.005426 12.994597 -4.571521 37.618323 0.355450 1.692621 0.111777 -0.017418 -22563.200000 0 0 1
36.209166 12.719397 -3.654221 38.551785 0.337811 1.665726 0.146485 -0.017988 13919.100000 0 0 1
-37.134445 13.644697 -3.787421 39.742790 -0.352127 1.666239 0.147248 -0.008776 -65910.300000 0 0 1
-36.119515 13.444497 -2.826521 38.644056 -0.356333 1.644004 0.149277 -0.026560 543489.000000 0 0 1
-35.106520 14.657797 -2.706821 38.139817 -0.395521 1.641827 0.145037 -0.023056 708005.000000 0 0 1
-35.634190 15.773297 -2.007221 39.020781 -0.416721 1.622259 0.155828 -0.021232 108299.000000 0 0 1
-34.633681 16.739097 -1.910221 38.514130 -0.450214 1.620415 0.175215 -0.021528 -68933.200000 0 0 1
-35.085424 18.017197 -1.135821 39.457528 -0.474408 1.599586 0.157754 -0.016806 596209.000000 0 0 1
-36.133265 18.787197 -1.755921 40.763401 -0.479474 1.613886 0.126727 -0.008408 867102.000000 0 0 1
-37.020705 19.438097 -0.879821 41.822796 -0.483494 1.591835 0.119402 -0.010723 3380.160000 0 0 1
36.654076 20.599197 -1.536821 42.073864 0.512001 1.607331 0.109737 -0.009106 -77487.400000 0 0 1
-36.880645 21.690297 -1.782521 42.823222 -0.531639 1.612433 0.108151 -0.001155 226638.000000 0 0 1
37.017666 22.434097 -2.898421 43.381991 0.544847 1.637658 0.078768 0.002815 -315826.000000 0 0 1
-36.362255 23.475597 -3.336821 43.410271 -0.573278 1.647739 0.075370 -0.006018 -245603.000000 0 0 1
-35.183103 22.898797 -3.874321 42.157040 -0.576970 1.662828 0.091497 0.001850 -267797.000000 0 0 1
-34.399927 23.916897 -4.450721 42.132907 -0.607538 1.676629 0.104634 -0.004273 -202534.000000 0 0 1
-32.993475 23.372897 -4.749321 40.711396 -0.616348 1.687721 0.116259 -0.008661 -191935.000000 0 0 1
-32.987055 22.527097 -5.890921 40.377207 -0.599162 1.717216 0.113079 -0.001816 663907.000000 0 0 1
-31.637875 22.462897 -6.415921 39.328119 -0.617406 1.734667 0.092504 0.008137 1114630.000000 0 0 1
-31.492485 21.604997 -7.707221 38.960926 -0.601293 1.769929 0.083431 -0.000227 134154.000000 0 0 1
-32.383995 22.040497 -8.710721 40.129581 -0.597586 1.789603 0.086020 -0.007855 -25050.400000 0 0 1
-31.972645 21.567997 -10.014421 39.846169 -0.593459 1.824847 0.046242 -0.006153 97048.600000 0 0 1
-32.968355 21.832397 -11.171721 41.089820 -0.584920 1.846148 0.042165 0.000283 -161168.000000 0 0 1
-33.201595 23.224397 -11.386821 42.087744 -0.610388 1.844760 0.058748 -0.000527 144377.000000 0 0 1
-33.736425 23.369397 -12.693021 42.957978 -0.605813 1.870749 0.036117 0.001957 -578794.000000 0 0 1
-34.036275 24.851597 -13.093921 44.130722 -0.630676 1.872039 0.063732 -0.005217 653217.000000 0 0 1
-32.923185 25.765997 -13.237921 43.852768 -0.664047 1.877452 0.060876 -0.006436 330411.000000 0 0 1
-31.999855 25.474097 -14.273821 43.320461 -0.672339 1.906564 0.055314 -0.010453 543123.000000 0 0 1
-30.583775 26.142597 -14.031121 42.610738 -0.707266 1.906344 0.075334 -0.013895 1142430.000000 0 0 1
-29.748535 25.645997 -12.966821 41.362192 -0.711473 1.889667 0.066888 -0.015045 557814.000000 0 0 1
-30.376765 25.543197 -11.686221 41.373549 -0.699175 1.857150 0.071574 -0.011067 -762156.000000 0 0 1
-30.741795 26.953397 -11.034921 42.347527 -0.719830 1.834419 0.087330 0.000294 366203.000000 0 0 1
-29.656225 27.593597 -10.353421 41.810185 -0.749385 1.821029 0.088704 0.000104 24386.700000 0 0 1
-29.958385 28.829197 -9.823921 42.721621 -0.766193 1.802825 0.080284 -0.001680 -119576.000000 0 0 1
-28.760355 29.495997 -9.114721 42.193009 -0.798025 1.788537 0.092143 -0.014212 83151.300000 0 0 1
-29.022245 30.786997 -8.590721 43.173260 -0.814896 1.771116 0.076561 -0.027932 33270.300000 0 0 1
-27.843985 31.465997 -8.144621 42.798730 -0.846392 1.762265 0.116171 -0.019369 423431.000000 0 0 1
35.329656 -24.523803 33.469753 54.496109 -0.606784 0.909465 0.062867 -0.008283 -161497.000000 0 0 1
34.894756 -23.273503 33.812995 53.875956 -0.588208 0.892319 0.065606 -0.012809 51245.500000 0 0 1
33.885656 -23.363803 -33.069001 52.798331 -0.603637 2.247628 0.049818 -0.005529 227141.000000 0 0 1
33.362086 -21.944303 -32.734041 51.634278 -0.581812 2.257459 0.040218 -0.004010 117130.000000 0 0 1
32.914416 -21.286903 -33.914181 51.833027 -0.574076 2.284049 0.032400 -0.004255 47930.700000 0 0 1
32.479466 -19.968003 -33.670031 50.865586 -0.551223 2.294202 0.025446 0.000010 132228.000000 0 0 1
32.231836 -19.169703 32.912274 49.895757 -0.536546 0.850482 0.026725 -0.001695 253922.000000 0 0 1
33.449386 -18.811503 32.269793 50.140539 -0.512304 0.871621 0.045458 -0.012850 338987.000000 0 0 1
33.161266 -18.221203 31.054572 48.949650 -0.502438 0.883540 0.055257 -0.009090 96070.900000 0 0 1
34.365336 -18.098103 30.069812 49.119357 -0.484730 0.911984 0.045016 -0.010576 4726.510000 0 0 1
35.201656 -17.021503 30.350612 49.497958 -0.450395 0.910730 0.044002 -0.015679 232562.000000 0 0 1
36.470226 -17.183903 29.725162 50.089412 -0.440324 0.935468 0.061040 -0.018119 446071.000000 0 0 1
-36.946615 -15.985603 30.003142 50.207374 0.408347 0.930311 0.051177 -0.018192 -267395.000000 0 0 1
-35.660478 -16.293303 29.539732 49.089074 0.428578 0.925096 0.054571 -0.016212 -435669.000000 0 0 1
-34.772793 -15.356003 30.123072 48.501066 0.415855 0.900676 0.056427 -0.021839 332280.000000 0 0 1
-33.301065 -15.854103 30.260792 47.707746 0.444332 0.883700 0.061805 -0.032017 16969.600000 0 0 1
-32.547625 -14.865603 30.877972 47.262916 0.428440 0.858830 0.066074 -0.033088 24710.200000 0 0 1
-31.281875 -15.429103 31.260642 46.838453 0.458216 0.840065 0.076029 -0.040460 547976.000000 0 0 1
-30.355825 -14.310603 31.797942 46.231792 0.440530 0.812351 0.071249 -0.045779 -153366.000000 0 0 1
-30.755465 -13.776703 33.033258 47.189960 0.421142 0.795390 0.080677 -0.043022 -284473.000000 0 0 1
-29.760305 -12.889503 33.381071 46.541497 0.408720 0.770974 0.069883 -0.038474 -199292.000000 0 0 1
-30.045155 -12.387603 -33.074071 46.368720 0.391064 2.364969 0.072310 -0.020935 -28484.700000 0 0 1
-30.035855 -13.331103 -32.037381 45.894059 0.417719 2.343498 0.086829 -0.024079 94824.100000 0 0 1
-30.273075 -12.716403 -30.806381 45.024428 0.397676 2.324323 0.091415 -0.015529 -394974.000000 0 0 1
-30.446395 -13.747703 -29.734971 44.723046 0.424132 2.298115 0.094214 -0.017967 196192.000000 0 0 1
-31.658535 -14.487403 -29.667671 45.741867 0.429168 2.276525 0.097394 -0.014342 102813.000000 0 0 1
-31.914335 -15.162703 -28.419791 45.344425 0.443535 2.248177 0.104930 -0.014457 177808.000000 0 0 1
-33.134155 -16.089703 -28.363511 46.489133 0.452055 2.226996 0.099885 -0.020984 -241662.000000 0 0 1
-32.907645 -17.258503 -29.157631 47.232790 0.483018 2.236125 0.093760 -0.017761 -478968.000000 0 0 1
-34.050245 -18.030303 -29.237601 48.366810 0.486984 2.219931 0.086705 -0.020155 -834205.000000 0 0 1
-33.886885 -19.386303 -29.967511 49.215866 0.519644 2.225469 0.079145 -0.021976 614692.000000 0 0 1
-35.103785 -20.143003 -30.072231 50.421775 0.520942 2.209822 0.058908 -0.025112 642236.000000 0 0 1
-34.787944 -21.283803 -30.782631 51.095711 0.549062 2.217364 0.054632 -0.030842 612925.000000 0 0 1
-36.054696 -22.134803 -31.189691 52.561273 0.550594 2.206069 0.049861 -0.030515 458177.000000 0 0 1
-36.733735 -22.600603 -30.052791 52.567336 0.551561 2.179374 0.054323 -0.020938 -278462.000000 0 0 1
36.621026 -23.536703 -30.272071 53.023337 -0.571233 2.178422 0.056186 -0.025284 -116833.000000 0 0 1
36.961346 -24.977703 -30.595341 54.093453 -0.594285 2.171959 0.057403 -0.020958 -222882.000000 0 0 1
-36.899175 -25.124623 -31.891691 54.862335 0.597791 2.191127 0.063301 -0.020652 -453819.000000 0 0 1
-36.275035 -26.365753 -31.955121 55.065060 0.628506 2.189913 0.053452 -0.021944 -417687.000000 0 0 1
-36.350655 -27.140393 -33.238181 56.238312 0.641339 2.203124 0.048355 -0.022794 379284.000000 0 0 1
36.791746 -27.706143 -33.662811 57.047768 -0.645452 2.201956 0.061693 -0.014422 -28324.900000 0 0 1
36.706486 -29.025103 33.679578 57.655327 -0.669066 0.946959 0.053410 -0.007237 -72243.500000 0 0 1
-37.151975 -30.182233 -33.303111 58.312380 0.682256 2.178661 0.048110 -0.013947 215036.000000 0 0 1
36.642886 -30.294203 -32.000551 57.310340 -0.690836 2.163220 0.062394 -0.026217 -184011.000000 0 0 1
-37.039665 -31.234713 -31.281781 57.672298 0.700578 2.144094 0.040762 -0.028700 -382910.000000 0 0 1
36.647916 -31.508123 -29.929261 56.847095 -0.710128 2.125260 0.029774 -0.028141 -51231.600000 0 0 1
35.646656 -32.484253 -29.977191 56.785058 -0.739015 2.126930 0.061537 -0.030060 -55139.400000 0 0 1
35.304336 -33.050173 -28.755081 56.263352 -0.752433 2.107237 0.065596 -0.034237 212922.000000 0 0 1
34.212386 33.878386 -28.803051 56.105687 0.780493 2.109905 0.079708 -0.037073 812498.000000 0 0 1
32.931046 -33.712413 -29.185831 55.432782 -0.797122 2.125285 0.085784 -0.032748 583054.000000 0 0 1
31.814286 33.494829 -28.875931 54.478177 0.811125 2.129451 0.075180 -0.035668 868485.000000 0 0 1
30.506246 33.970884 -29.548721 54.385466 0.839081 2.145183 0.042022 -0.023811 62317.600000 0 0 1
30.517656 33.660479 -30.968471 54.985465 0.834329 2.169064 0.037425 -0.014779 307205.000000 0 0 1
29.388056 -33.894383 -31.686811 54.923046 -0.856488 2.185763 0.040070 -0.000932 333199.000000 0 0 1
29.139676 33.490007 -32.998671 55.313774 0.854748 2.210020 0.033690 -0.005310 10541.300000 0 0 1
28.936676 32.100754 -32.976601 54.362173 0.837190 2.222585 0.027590 -0.000462 -56162.200000 0 0 1
28.998776 31.568814 33.614815 54.474534 0.827805 0.905778 0.044868 -0.001265 -89289.900000 0 0 1
29.071076 30.047374 33.603700 53.639359 0.801911 0.893774 0.040995 -0.013060 68743.200000 0 0 1
30.366586 29.600404 -33.897441 54.289501 0.772622 2.245138 0.044802 -0.010945 -79013.900000 0 0 1
30.463146 28.185504 33.883382 53.577136 0.746582 0.886120 0.040299 -0.008582 -1336060.000000 0 0 1
31.845476 27.704134 -33.815221 54.084402 0.715966 2.246223 0.057762 -0.006287 -1282350.000000 0 0 1
32.293476 27.715444 -32.429281 53.503950 0.709256 2.221957 0.058181 -0.012266 828779.000000 0 0 1
33.659606 27.252624 -32.355621 54.060714 0.680600 2.212430 0.072275 -0.013652 1176010.000000 0 0 1
34.326026 27.502044 -30.967181 53.792237 0.675473 2.184233 0.076884 -0.019379 36117.500000 0 0 1
35.079506 28.688114 -30.623831 54.693680 0.685502 2.165080 0.070908 -0.019871 735877.000000 0 0 1
34.295266 29.888224 -30.634991 54.844999 0.716843 2.163462 0.061159 -0.008610 1367910.000000 0 0 1
33.094346 30.020654 -29.592571 53.592869 0.736737 2.155765 0.062484 -0.010169 1045120.000000 0 0 1
33.621226 30.137224 -28.268941 53.270744 0.730809 2.130182 0.066931 -0.012167 -28234.900000 0 0 1
32.622866 30.324874 -27.305921 52.244260 0.748908 2.120763 0.075705 -0.014501 -489797.000000 0 0 1
33.172246 30.654654 -25.912641 52.072744 0.745975 2.091654 0.099037 -0.020146 -88360.100000 0 0 1
33.756076 31.951254 -25.940451 53.228397 0.757937 2.079840 0.094786 -0.030122 204514.000000 0 0 1
34.257986 32.363101 -24.672521 53.195049 0.756963 2.053090 0.088972 -0.039085 -2579.960000 0 0 1
34.848946 33.770118 -24.734821 54.467249 0.769677 2.042184 0.097714 -0.042808 177910.000000 0 0 1
33.779256 -33.347763 -24.706321 53.511809 -0.778970 2.050705 0.100377 -0.034704 338087.000000 0 0 1
34.123856 -31.978503 -24.384121 52.741327 -0.752955 2.051422 0.079665 -0.039765 -668064.000000 0 0 1
34.480916 -31.214613 -25.638881 53.109678 -0.735720 2.074592 0.067515 -0.038318 -105126.000000 0 0 1
35.756066 -31.434723 -26.169421 54.327495 -0.721172 2.073387 0.089292 -0.042191 -223877.000000 0 0 1
36.810826 -30.632133 -25.636911 54.319570 -0.694040 2.062314 0.096258 -0.040352 -107380.000000 0 0 1
-36.186555 -31.097993 -26.107981 54.389140 0.709914 2.071476 0.067963 -0.029932 -325917.000000 0 0 1
-35.769733 -32.424423 -25.705411 54.695385 0.736382 2.060058 0.061197 -0.028948 -142784.000000 0 0 1
-35.590355 -32.692503 -24.336021 54.108364 0.742985 2.037298 0.067519 -0.027286 552251.000000 0 0 1
-34.326375 -32.125073 -23.543721 52.579722 0.752284 2.035068 0.052908 -0.031064 908800.000000 0 0 1
-34.252156 -30.735963 -23.617321 51.727048 0.731346 2.044939 0.035429 -0.027655 -241791.000000 0 0 1
-34.019705 -30.280813 -22.305621 50.713003 0.727316 2.026217 0.044672 -0.029676 -277378.000000 0 0 1
-34.059615 -28.724843 -22.156221 49.760146 0.700632 2.032261 0.041184 -0.011440 -15167.400000 0 0 1
-35.304481 -28.142493 -22.455621 50.424807 0.672993 2.032338 0.031976 -0.009882 -317786.000000 0 0 1
-35.450859 -27.817303 -23.820521 50.970413 0.665325 2.057076 0.035538 -0.005460 -1113350.000000 0 0 1
-36.645675 -26.972363 -24.103521 51.491685 0.634501 2.057942 0.046766 -0.013546 -863815.000000 0 0 1
-36.618025 -25.636573 -23.582321 50.539484 0.610798 2.056252 0.047340 -0.011636 -166987.000000 0 0 1
36.961016 -24.702503 -24.286421 50.657286 -0.589160 2.070797 0.054600 -0.010744 15820.600000 0 0 1
-36.925505 -24.255403 -25.680171 51.100770 0.581192 2.097330 0.064924 -0.016807 -118426.000000 0 0 1
-35.761278 -23.469503 -25.642051 49.871849 0.580779 2.110823 0.059518 -0.020837 -236491.000000 0 0 1
-35.485622 -22.805103 -26.888401 50.022877 0.571196 2.138292 0.066424 -0.027431 500431.000000 0 0 1
-34.240312 -21.851903 -26.880331 48.707872 0.568030 2.155399 0.079364 -0.034703 285158.000000 0 0 1
-34.425143 -20.571703 -26.248381 47.929771 0.538637 2.150340 0.085689 -0.019131 -103726.000000 0 0 1
-35.588563 -19.833703 -26.559771 48.634792 0.508435 2.148506 0.083438 -0.020966 -202721.000000 0 0 1
-36.678575 -19.887103 -25.486831 48.891648 0.496835 2.119161 0.089167 -0.026661 -290639.000000 0 0 1
-36.436275 -19.213803 -24.269121 47.809650 0.485269 2.103216 0.083576 -0.031367 -275442.000000 0 0 1
-35.658999 -19.841503 -23.255121 46.968608 0.507761 2.088770 0.069632 -0.025020 160609.000000 0 0 1
-36.330265 -20.989903 -22.439721 47.581564 0.523900 2.061907 0.082351 -0.012520 -124832.000000 0 0 1
36.974356 -20.639003 -21.639021 47.553325 -0.509115 2.043222 0.071229 -0.009509 -362906.000000 0 0 1
36.474856 -21.852303 -21.090521 47.463126 -0.539762 2.031251 0.061074 0.000163 511956.000000 0 0 1
35.264916 -21.702603 -20.092921 46.025458 -0.551678 2.022569 0.047312 -0.002941 1045860.000000 0 0 1
34.117696 -21.112103 -20.695821 45.144823 -0.554130 2.047026 0.076356 -0.001375 -448400.000000 0 0 1
32.985226 -21.216503 -19.911621 43.984518 -0.571589 2.040583 0.062338 -0.007312 230550.000000 0 0 1
31.638586 -20.649203 -20.477421 42.973416 -0.578242 2.067481 0.060770 -0.007541 -392872.000000 0 0 1
31.083876 -21.533303 -21.414521 43.456555 -0.605842 2.086078 0.061300 -0.003747 736243.000000 0 0 1
29.852406 -21.054203 -22.008321 42.647530 -0.614259 2.113031 0.087384 -0.007395 714044.000000 0 0 1
29.750376 -19.651203 -22.654421 42.243076 -0.583746 2.136828 0.091532 -0.021383 -809844.000000 0 0 1
29.909826 -18.590303 -21.705721 41.368290 -0.556111 2.123153 0.089907 -0.015196 -15258.100000 0 0 1
29.737476 -17.362003 -22.362321 41.058861 -0.528454 2.146757 0.084263 -0.014745 95973.900000 0 0 1
30.684246 -16.367003 -21.669821 40.975394 -0.490010 2.128041 0.072522 -0.019146 -331143.000000 0 0 1
30.191626 -15.903603 -20.445321 39.780272 -0.484822 2.110587 0.045807 -0.016675 176329.000000 0 0 1
31.182246 -15.370503 -19.591221 39.904897 -0.457971 2.083974 0.031017 -0.015104 386526.000000 0 0 1
32.240246 -16.360503 -18.928821 40.809310 -0.469595 2.053116 0.042560 -0.021818 292568.000000 0 0 1
33.238706 -16.702203 -19.863721 42.170399 -0.465640 2.061260 0.054823 -0.023918 -286199.000000 0 0 1
34.108796 -17.666103 -19.300221 42.988367 -0.477892 2.036402 0.052778 -0.015504 100264.000000 0 0 1
35.366926 -17.997803 -20.132321 44.497761 -0.470733 2.040290 0.060794 -0.021590 -100298.000000 0 0 1
36.337776 -16.989103 -20.112621 44.872944 -0.437338 2.035561 0.064358 -0.021836 17515.600000 0 0 1
-36.958585 -17.386803 -20.924921 45.892159 0.439721 2.044245 0.070352 -0.021409 321060.000000 0 0 1
-36.067635 -16.229903 -21.474021 45.004640 0.422842 2.068207 0.074801 -0.025878 447816.000000 0 0 1
-35.162497 -15.710403 -20.488321 43.623265 0.420185 2.059708 0.090338 -0.028026 472982.000000 0 0 1
-34.324292 -14.707903 -21.068721 42.876222 0.404830 2.084475 0.109944 -0.031664 -102071.000000 0 0 1
-32.983695 -14.358803 -20.373721 41.342325 0.410588 2.086107 0.122456 -0.030083 769121.000000 0 0 1
-31.913455 -15.300403 -20.522121 40.911226 0.447060 2.096273 0.133338 -0.040191 519002.000000 0 0 1
-32.153165 -16.487403 -19.800021 41.203171 0.473817 2.072074 0.105530 -0.034472 -902607.000000 0 0 1
-31.163935 -17.648803 -19.974721 41.008055 0.515288 2.079554 0.095072 -0.037242 -285133.000000 0 0 1
-31.399615 -18.843703 -19.310821 41.399623 0.540512 2.056069 0.085294 -0.030937 -625403.000000 0 0 1
-30.464655 -19.803203 -19.617221 41.292825 0.576402 2.065846 0.091619 -0.031761 -540246.000000 0 0 1
-30.894745 -21.230503 -19.162221 42.100003 0.602076 2.043348 0.077056 -0.013073 -337156.000000 0 0 1
-31.884255 -21.755403 -19.977421 43.462635 0.598764 2.048393 0.065414 -0.014308 -344625.000000 0 0 1
-32.174935 -23.106303 -19.585721 44.189684 0.622801 2.029983 0.063905 -0.004231 337253.000000 0 0 1
-33.056085 -23.881403 -20.650121 45.710542 0.625635 2.039532 0.049093 -0.001700 -5429.570000 0 0 1
-32.488315 -23.989303 -21.926121 45.953586 0.636034 2.068190 0.060399 -0.015111 -236045.000000 0 0 1
-33.104485 -24.879603 -22.868121 47.305946 0.644491 2.075341 0.058247 -0.016540 -101692.000000 0 0 1
-32.538615 -24.704603 -24.313521 47.541836 0.649388 2.107625 0.061274 -0.015865 684441.000000 0 0 1
-31.195225 -25.166603 -24.460821 46.955636 0.678840 2.118742 0.047678 -0.020912 93541.200000 0 0 1
-30.944655 -25.436633 -25.827021 47.661609 0.688015 2.143472 0.054900 -0.016052 289746.000000 0 0 1
-29.430765 -25.704303 -26.050791 46.963016 0.717913 2.158809 0.064871 -0.019221 177282.000000 0 0 1
-28.678315 -24.510403 -26.048921 45.844868 0.707197 2.175110 0.089006 -0.032441 -436422.000000 0 0 1
-27.314085 -24.868303 -25.904541 45.116926 0.738563 2.182380 0.080413 -0.027380 386977.000000 0 0 1
-26.440525 -23.589803 -26.160861 44.045100 0.728480 2.206764 0.090757 -0.019797 33531.600000 0 0 1
-26.638675 -23.198603 -27.462231 44.743361 0.716481 2.231626 0.101435 -0.028191 -9083.160000 0 0 1
-25.910135 -22.034903 -27.727431 43.882599 0.704747 2.254740 0.110082 -0.029497 86151.300000 0 0 1
-26.098665 -21.662303 -29.208711 44.760971 0.692777 2.281739 0.097669 -0.026396 35114.400000 0 0 1
-25.305415 -22.520303 -29.985501 45.240008 0.727229 2.295361 0.108642 -0.021928 149008.000000 0 0 1
-25.264375 -22.103503 -31.289221 45.889747 0.718767 2.321064 0.107523 -0.023750 -149168.000000 0 0 1
-24.681525 -23.240703 -32.203731 46.758831 0.755341 2.330518 0.098565 -0.031838 -330441.000000 0 0 1
-25.465605 -24.385203 -32.254461 47.785829 0.763729 2.311733 0.095952 -0.027477 -369995.000000 0 0 1
-24.769825 -25.459083 -32.856041 48.386244 0.799120 2.317246 0.103483 -0.008905 147951.000000 0 0 1
-20.100725 -14.167603 -11.923221 27.329898 0.613961 2.022246 0.048666 0.012704 -277875.000000 0 0 1
-20.642025 -14.276303 -10.646621 27.262732 0.605075 1.971992 0.060497 -0.003874 -525966.000000 0 0 1
-19.693225 -14.544503 -9.676221 26.324797 0.636135 1.947192 0.049106 -0.010526 -604366.000000 0 0 1
-19.958525 -13.992203 -8.277021 25.741669 0.611440 1.898154 0.074412 -0.027352 510535.000000 0 0 1
-21.168925 -14.517803 -7.687321 26.795240 0.601137 1.861776 0.126388 -0.034177 935507.000000 0 0 1
-21.305225 -14.031803 -6.377921 26.296045 0.582403 1.815783 0.108828 -0.045511 427926.000000 0 0 1
-22.415425 -14.794703 -5.557121 27.426558 0.583389 1.774827 0.134058 -0.049274 264838.000000 0 0 1
-22.056925 -16.096003 -5.087121 27.775314 0.630414 1.754989 0.104794 -0.049074 448150.000000 0 0 1
-21.508225 -16.116303 -3.747221 27.136334 0.643059 1.709328 0.123096 -0.051012 -59163.400000 0 0 1
-21.556225 -17.564703 -3.112221 27.979913 0.683720 1.682258 0.092821 -0.032092 349169.000000 0 0 1
-22.858725 -18.061103 -2.826521 29.269677 0.668687 1.667515 0.095675 -0.038929 432410.000000 0 0 1
-22.755325 -19.268303 -2.081721 29.889896 0.702610 1.640499 0.087599 -0.027703 -3955.340000 0 0 1
-24.111025 -20.005803 -2.018221 31.395014 0.692612 1.635125 0.073399 -0.039033 174648.000000 0 0 1
-24.530025 -20.623703 -3.240321 32.211162 0.699101 1.671563 0.041032 -0.030272 -690435.000000 0 0 1
-25.582395 -21.487703 -3.081021 33.551051 0.698625 1.662757 0.061658 -0.025095 -722931.000000 0 0 1
-25.509595 -22.623903 -4.166721 34.350284 0.725518 1.692397 0.077283 -0.020370 69870.400000 0 0 1
-24.390225 -23.476203 -3.965821 34.084350 0.766305 1.687414 0.078645 -0.018100 -104079.000000 0 0 1
-24.218725 -24.291503 -5.095721 34.678381 0.786898 1.718273 0.080697 -0.009741 833362.000000 0 0 1
-22.690025 -24.234503 -5.459821 33.644584 0.818300 1.733797 0.076903 -0.008737 947172.000000 0 0 1
-22.229525 -23.029503 -6.119521 32.587702 0.803072 1.759704 0.056237 -0.004165 417514.000000 0 0 1
-21.866925 -21.940703 -5.190821 31.408621 0.787082 1.736825 0.044034 0.000786 -287090.000000 0 0 1
-21.823025 -20.579303 -5.860121 30.562937 0.756075 1.763731 0.064233 0.003703 733508.000000 0 0 1
-20.592925 -20.324403 -6.569921 29.670082 0.778836 1.794080 0.042551 0.006619 751018.000000 0 0 1
-20.649025 -19.028703 -7.163121 28.979028 0.744584 1.820568 0.039407 0.001708 417792.000000 0 0 1
-19.513125 -18.586103 -8.141421 28.151163 0.761071 1.864191 0.049674 -0.001918 -12017.100000 0 0 1
-19.591325 -19.282303 -9.390621 29.048425 0.777449 1.899984 0.026736 -0.002623 -88868.000000 0 0 1
-18.469225 -19.271203 -10.250721 28.593160 0.806645 1.937460 0.080113 -0.002346 -71245.900000 0 0 1
-18.046425 -17.828603 -10.792421 27.568259 0.779327 1.973036 0.072053 0.002350 -67868.300000 0 0 1
-17.459325 -17.013203 -9.807921 26.276842 0.772458 1.953310 0.073460 -0.010178 -92206.700000 0 0 1
-16.050025 -17.136703 -9.756321 25.425493 0.818131 1.964620 0.099143 -0.005405 89780.900000 0 0 1
-15.309925 -16.094803 -8.873221 23.920086 0.810385 1.950831 0.057068 -0.006601 -44096.900000 0 1 0
-15.681325 -16.281303 -7.578921 23.841661 0.804167 1.894295 0.018954 -0.007910 -76201.600000 0 1 0
-16.176525 -15.120903 -7.019821 23.229282 0.751682 1.877793 0.051743 -0.007319 -15680.300000 0 1 0
-16.644825 -15.330803 -5.547621 23.299352 0.744327 1.811207 0.039386 -0.025358 262403.000000 0 1 0
-17.317225 -14.239003 -4.905721 22.949980 0.688159 1.786216 0.057123 -0.019772 352708.000000 0 1 0
-17.519025 -14.513703 -3.535521 23.023113 0.691852 1.724970 0.038291 -0.024292 -41859.800000 0 1 0
-18.299225 -13.393103 -2.760321 22.844172 0.631813 1.691925 0.049462 -0.025990 -153208.000000 0 1 0
-19.633525 -13.317403 -3.188521 23.937318 0.596013 1.704396 0.086767 -0.043168 -189953.000000 0 1 0
-20.334925 -12.431403 -2.365721 23.950900 0.548711 1.669731 0.100151 -0.032551 -1043490.000000 0 1 0
-21.833025 -12.527303 -2.548521 25.300381 0.520915 1.671698 0.123844 -0.033287 -1153000.000000 0 0 1
-22.476025 -11.735203 -3.473021 25.591963 0.481187 1.706924 0.143494 -0.044211 888884.000000 0 0 1
-23.851125 -12.145103 -3.622621 27.009315 0.470984 1.705327 0.136099 -0.042065 1042330.000000 0 0 1
-24.704725 -11.213903 -4.543821 27.508569 0.426107 1.736735 0.151863 -0.052696 94996.400000 0 0 1
-24.431825 -11.490403 -5.924021 27.641228 0.439610 1.786790 0.161086 -0.057079 33498.400000 0 0 1
-25.014025 -10.653703 -6.852321 28.038494 0.402640 1.817687 0.167910 -0.051945 -333424.000000 0 0 1
-24.567725 -10.873503 -8.314621 28.123640 0.416677 1.870927 0.177468 -0.050786 -153516.000000 0 0 1
-23.227125 -10.474703 -8.475521 26.852434 0.423659 1.891920 0.155398 -0.052308 121992.000000 0 0 1
-22.584325 -11.048203 -9.626521 26.921821 0.454969 1.936464 0.108473 -0.036343 6057.500000 0 0 1
-21.113825 -10.583603 -9.636721 25.508286 0.464658 1.958202 0.098617 -0.035925 -307068.000000 0 0 1
-20.962325 -9.345003 -10.210321 25.119690 0.419356 1.989380 0.084441 -0.033743 675629.000000 0 0 1
-19.715325 -8.678603 -10.005021 23.751055 0.414671 2.005614 0.090390 -0.029450 180471.000000 0 1 0
-19.530925 -7.215803 -10.547521 23.340417 0.353901 2.039690 0.071102 -0.034048 -81058.100000 0 1 0
-19.336025 -7.163703 -11.940221 23.827912 0.354806 2.095668 0.089443 -0.034290 349339.000000 0 1 0
-19.107525 -5.875603 -12.454021 23.552555 0.298325 2.127954 0.091847 -0.043869 -377764.000000 0 1 0
-18.514125 -5.784703 -13.867221 23.843981 0.302838 2.191468 0.104329 -0.039842 -624478.000000 0 1 0
-19.293225 -6.246403 -14.913221 25.172410 0.313111 2.204884 0.103633 -0.044030 -86599.300000 0 0 1
-18.671225 -6.072903 -16.164221 25.431808 0.314462 2.259570 0.110690 -0.048190 -486215.000000 0 0 1
-19.304125 -7.074203 -17.173021 26.788174 0.351263 2.266684 0.094734 -0.040696 -43188.300000 0 0 1
-20.662425 -6.876903 -17.480921 27.925082 0.321290 2.247201 0.084193 -0.045261 129288.000000 0 0 1
-21.028325 -7.730403 -18.549921 29.086924 0.352284 2.262358 0.101429 -0.048863 1665630.000000 0 0 1
-22.561425 -7.590203 -19.040321 30.482174 0.324529 2.245464 0.088845 -0.045766 1157980.000000 0 0 1
-22.743025 -6.427603 -19.822221 30.846065 0.275435 2.268706 0.094233 -0.045769 661916.000000 0 0 1
-23.982625 -6.433003 -20.524821 32.215184 0.262067 2.261548 0.077865 -0.043271 262395.000000 0 0 1
-25.255985 -6.125703 -19.735621 32.632557 0.237950 2.220290 0.125723 -0.044319 -769726.000000 0 0 1
-25.343035 -4.751203 -19.482421 32.317303 0.185324 2.217862 0.127962 -0.034257 122501.000000 0 0 1
-26.314885 -4.532803 -18.477421 32.472058 0.170579 2.176116 0.140978 -0.025459 -285092.000000 0 0 1
-26.457385 -2.951603 -18.235521 32.268241 0.111101 2.171378 0.126240 -0.024521 29037.700000 0 0 1
-26.927125 -2.129403 -19.300221 33.197936 0.078916 2.191205 0.129500 -0.021498 911629.000000 0 0 1
-28.296725 -2.306803 -19.699021 34.555425 0.081342 2.177388 0.152437 -0.016762 734435.000000 0 0 1
-28.845595 -1.008103 -20.366521 35.325342 0.034934 2.185286 0.138129 -0.015662 34507.400000 0 0 1
-28.350835 -0.831203 -21.707521 35.716624 0.029310 2.224047 0.123956 -0.009179 -106265.000000 0 0 1
-28.920555 -1.662503 -22.646821 36.770109 0.057422 2.234328 0.110087 -0.006217 -477136.000000 0 0 1
-28.175945 -1.555203 -23.981921 37.032892 0.055140 2.275206 0.090198 -0.007709 -595844.000000 0 0 1
-28.303685 -0.436003 -24.820021 37.647339 0.015403 2.290653 0.087356 -0.000795 189516.000000 0 0 1
-27.775035 0.813097 -24.372621 36.961309 -0.029266 2.290829 0.100488 0.005608 -279775.000000 0 0 1
-26.401215 0.928497 -23.700321 35.490724 -0.035154 2.302031 0.106062 -0.007173 -686531.000000 0 0 1
-25.352605 0.800997 -24.610021 35.341892 -0.031584 2.341083 0.086297 -0.006958 -597353.000000 0 0 1
-24.070925 0.620397 -24.074221 34.049412 -0.025768 2.356097 0.077722 -0.004893 -132595.000000 0 0 1
-23.154325 -0.008103 -25.134911 34.174356 0.000350 2.397187 0.074404 -0.009046 -348660.000000 0 0 1
-22.955925 0.718597 -26.293441 34.911831 -0.031293 2.423616 0.049708 -0.007664 311450.000000 0 0 1
-22.144725 0.067697 -27.256311 35.118370 -0.003057 2.459297 0.032303 -0.019743 -39893.000000 0 0 1
-22.029825 0.813797 -28.614701 36.121691 -0.036924 2.485161 0.036624 -0.006419 160267.000000 0 0 1
-21.041025 1.859097 -28.580881 35.539383 -0.088127 2.505130 0.040985 -0.011565 600429.000000 0 0 1
-20.979025 2.793697 -29.653431 36.431445 -0.132387 2.521718 0.027459 -0.011163 -296356.000000 0 0 1
-20.364225 2.361197 -30.996161 37.162332 -0.115433 2.557250 0.026077 -0.016144 -914536.000000 0 0 1
-18.997725 2.177297 -30.864111 36.307679 -0.114110 2.586917 0.019646 -0.013481 -765033.000000 0 0 1
-18.424325 1.831597 -32.108961 37.064752 -0.099086 2.618531 0.032525 -0.021434 -833489.000000 0 0 1
-16.960525 1.437497 -31.986761 36.233668 -0.084553 2.652567 0.046170 -0.032378 -736966.000000 0 0 1
-16.203525 2.626697 -32.051301 36.010272 -0.160709 2.668273 0.054300 -0.027248 -3135.840000 0 0 1
-14.892025 2.407197 -32.544581 35.870834 -0.160257 2.707546 0.057608 -0.026677 119004.000000 0 0 1
-14.141525 3.700997 -32.872691 35.976297 -0.255970 2.723172 0.064430 -0.008787 -176533.000000 0 0 1
-13.777525 4.535797 -31.768791 34.923484 -0.318041 2.713281 0.073947 -0.033649 201317.000000 0 0 1
-13.351625 5.749797 -32.310071 35.429744 -0.406641 2.718802 0.082508 -0.018329 -436105.000000 0 0 1
-12.868525 6.791997 -31.283541 34.502030 -0.485639 2.706227 0.085533 -0.025063 395283.000000 0 0 1
-11.605325 6.490597 -30.673661 33.431795 -0.509938 2.732544 0.105916 -0.035973 741805.000000 0 0 1
-11.733925 5.593797 -29.597101 32.325902 -0.444851 2.727756 0.108498 -0.042608 157861.000000 0 0 1
-10.382725 4.914097 -29.184441 31.363688 -0.442057 2.766618 0.125090 -0.054480 374935.000000 0 0 1
-9.739325 3.939097 -30.074501 31.856656 -0.384339 2.805520 0.109911 -0.055284 539101.000000 0 0 1
-10.597825 2.887497 -30.416331 32.338904 -0.266004 2.795040 0.104333 -0.045841 -450944.000000 0 0 1
-10.019225 2.214397 -31.669821 33.290629 -0.217518 2.828266 0.097855 -0.044972 -170338.000000 0 0 1
-10.766725 1.113097 -32.122201 33.896860 -0.103017 2.816576 0.104644 -0.046413 7545.680000 0 0 1
-10.344025 0.570697 -33.345791 34.917994 -0.055116 2.840370 0.085985 -0.029269 -868809.000000 0 0 1
-10.802325 1.268797 33.220516 34.955726 -0.116920 0.316406 0.087789 -0.024954 81317.200000 0 0 1
-12.180225 1.103997 32.914100 35.112885 -0.090391 0.355767 0.071700 -0.027493 195847.000000 0 0 1
-12.458425 1.655497 31.673762 34.076095 -0.132108 0.377739 0.055363 -0.012897 -480414.000000 0 0 1
-13.871225 1.366597 31.178542 34.152306 -0.098203 0.420398 0.051693 -0.014027 -103466.000000 0 0 1
-14.904325 2.136197 31.761182 35.149324 -0.142358 0.442679 0.052948 -0.002386 698970.000000 0 0 1
-16.197125 1.538697 31.650132 35.587151 -0.094714 0.474832 0.052855 0.004801 563601.000000 0 0 1
-17.414725 2.446697 31.462902 36.044045 -0.139582 0.509678 0.063931 0.010523 -454898.000000 0 0 1
-17.840125 3.291897 32.490836 37.212378 -0.182470 0.509232 0.057783 -0.007967 278107.000000 0 0 1
-17.141425 4.518897 32.580517 37.090956 -0.257760 0.498302 0.063696 -0.004592 -317734.000000 0 0 1
-17.727325 5.372797 33.708803 38.463079 -0.294280 0.502474 0.052286 -0.006272 810319.000000 0 0 1
-19.114325 5.705897 33.575301 39.054008 -0.290093 0.536086 0.034100 -0.002765 450593.000000 0 0 1
-19.909325 5.175297 -33.277621 39.122436 -0.254315 2.587925 0.016831 0.001322 -105957.000000 0 0 1
-21.352225 5.737597 -33.279421 39.954441 -0.262511 2.555185 0.007505 -0.005052 -187101.000000 0 0 1
-21.563525 7.130197 -32.975841 40.040372 -0.319343 2.538464 0.008015 -0.012867 309383.000000 0 0 1
-21.175725 7.945697 33.789636 40.660607 -0.358969 0.589864 0.012190 -0.010944 -542778.000000 0 0 1
-21.137125 9.468297 -33.769391 40.948730 -0.421145 2.540424 0.021017 -0.003789 -203721.000000 0 0 1
-20.194125 9.831797 -32.745511 39.708128 -0.453084 2.540389 0.028342 -0.002642 528979.000000 0 0 1
-20.130125 11.201497 -32.375801 39.735223 -0.507785 2.523161 0.047874 -0.010933 292110.000000 0 0 1
-19.397625 12.125797 -33.447621 40.522169 -0.558684 2.541734 0.040400 -0.019204 -84419.700000 0 0 1
-20.077425 12.173297 33.202442 40.665641 -0.545052 0.615519 0.053718 -0.019284 -37238.200000 0 0 1
-19.244725 12.583797 32.131015 39.510929 -0.579100 0.621135 0.035873 -0.014147 -35829.700000 0 0 1
-19.847425 12.005797 30.872862 38.615969 -0.544018 0.644360 0.054374 -0.016069 -281950.000000 0 0 1
-19.894325 10.606897 30.819382 38.185400 -0.489824 0.631575 0.045634 -0.009470 1516080.000000 0 0 1
-18.618625 9.999397 30.418272 37.039336 -0.492857 0.607211 0.040211 -0.013071 1442030.000000 0 0 1
-18.636325 8.439697 30.572832 36.786399 -0.425232 0.589730 0.056972 0.001460 400715.000000 0 0 1
-19.405925 7.783797 29.537032 36.188585 -0.381458 0.615998 0.055292 -0.000506 418843.000000 0 0 1
-19.723525 6.464297 29.905932 36.402876 -0.316713 0.606713 0.053803 -0.004869 -317210.000000 0 0 1
-20.311825 5.573897 28.818212 35.694929 -0.267824 0.631153 0.065027 -0.009280 97972.600000 0 0 1
-21.721325 5.723697 28.705152 36.449451 -0.257649 0.664000 0.091292 -0.018066 39509.900000 0 0 1
-22.260025 4.706497 27.911822 36.010133 -0.208364 0.683907 0.083262 -0.020410 -158722.000000 0 0 1
-23.770725 4.844197 27.660332 36.791407 -0.201036 0.719986 0.075403 -0.010969 -219631.000000 0 0 1
-24.037125 5.665297 26.543612 36.255239 -0.231465 0.749350 0.085138 -0.025461 678553.000000 0 0 1
-25.436395 5.953497 26.519922 37.225806 -0.229916 0.777874 0.098868 -0.025617 249044.000000 0 0 1
-25.775445 6.804097 25.246612 36.715947 -0.258089 0.812591 0.100273 -0.027210 -97861.100000 0 0 1
-25.789215 6.136397 23.971282 35.740193 -0.233600 0.835632 0.106306 -0.021048 308926.000000 0 0 1
-26.841335 5.201297 23.861122 36.288620 -0.191407 0.853251 0.111219 -0.016480 -258268.000000 0 0 1
-27.035015 4.522897 22.507262 35.467245 -0.165763 0.883315 0.120270 -0.016903 -194897.000000 0 0 1
-27.855715 5.273997 21.669462 35.683631 -0.187118 0.918181 0.113827 -0.015788 -219740.000000 0 0 1
-27.865875 4.716897 20.319062 34.808338 -0.167682 0.947467 0.137544 -0.012299 -359484.000000 0 0 1
-28.792535 5.448897 19.396662 35.141586 -0.187035 0.986086 0.132205 -0.013432 -255607.000000 0 0 1
-30.168055 5.303497 19.658862 36.396559 -0.174020 1.000205 0.138577 -0.014848 -165317.000000 0 0 1
-30.971245 5.460297 18.517862 36.495809 -0.174509 1.038635 0.139610 -0.017164 504671.000000 0 0 1
-32.497815 5.435597 18.853762 37.962061 -0.165726 1.051064 0.133147 -0.020904 506200.000000 0 0 1
-32.878675 6.578997 19.586362 38.831895 -0.197491 1.042123 0.119880 -0.025817 -388800.000000 0 0 1
-34.221794 6.437997 19.957962 40.136009 -0.185952 1.050361 0.107031 -0.019935 -255600.000000 0 0 1
-34.805480 7.557397 20.909062 41.300419 -0.213813 1.039945 0.092952 -0.024570 357434.000000 0 0 1
-34.271061 7.512997 22.254262 41.547599 -0.215809 1.005539 0.094425 -0.023357 287884.000000 0 0 1
-34.795666 8.604997 22.994252 42.585443 -0.242437 1.000412 0.093144 -0.021180 185037.000000 0 0 1
-0.608025 32.683997 11.409679 34.623607 -1.552195 1.234986 0.104252 -0.023476 -123918.000000 0 0 1
-0.885925 32.860997 12.767479 35.265259 -1.543843 1.200340 0.090774 -0.019324 -320489.000000 0 0 1
-0.179125 33.924097 13.309479 36.441991 -1.565516 1.196923 0.092436 -0.026814 -405456.000000 0 0 1
-0.125825 33.880597 14.866579 36.998998 -1.567083 1.157303 0.090910 -0.020613 60387.700000 0 0 1
-1.420525 33.988097 15.419579 37.349325 -1.529026 1.145218 0.067064 -0.006027 13414.200000 0 0 1
-1.260625 -33.697410 16.783179 37.666692 1.533404 1.108985 0.056359 -0.015995 843755.000000 0 0 1
-2.611325 -33.403710 17.545879 37.821749 1.492780 1.088393 0.051837 -0.003775 565838.000000 0 0 1
-3.412125 33.480197 17.711679 38.029854 -1.469232 1.086336 0.042570 -0.003008 417069.000000 0 0 1
-4.227925 33.727197 18.902379 38.893433 -1.446090 1.063284 0.030044 -0.004988 -12791.400000 0 0 1
-5.264925 32.618297 19.094179 38.160980 -1.410766 1.046783 0.027220 -0.012535 -491664.000000 0 0 1
-6.346225 32.720297 18.213979 37.982120 -1.379221 1.070665 0.042551 -0.016785 -43585.100000 0 0 1
-7.381425 31.819097 18.618879 37.597913 -1.342847 1.052719 0.061851 -0.028879 183647.000000 0 0 1
-8.525125 31.776797 17.581179 37.303357 -1.308687 1.080029 0.049136 -0.032384 -625361.000000 0 0 1
-9.409425 32.863997 17.695479 38.492981 -1.291942 1.093131 0.065908 -0.032264 -168860.000000 0 0 1
-10.151225 33.000997 16.520779 38.275963 -1.272378 1.124505 0.070316 -0.026558 322109.000000 0 0 1
-11.262225 -33.950110 16.444979 39.368579 1.250491 1.139864 0.109059 -0.032260 179308.000000 0 0 1
-12.379425 33.895997 17.269379 40.005253 -1.220629 1.124444 0.109971 -0.030025 -264139.000000 0 0 1
-13.352025 -33.223510 16.847379 39.571610 1.188666 1.131012 0.084359 -0.031240 77052.200000 0 0 1
-14.717125 -33.345610 17.568579 40.462061 1.155158 1.121648 0.104817 -0.033563 231683.000000 0 0 1
-14.719225 -32.822810 18.838479 40.606412 1.149236 1.088371 0.112793 -0.024958 310523.000000 0 0 1
-15.965725 -33.169710 19.429979 41.625210 1.122192 1.085146 0.109981 -0.035086 381830.000000 0 0 1
-16.002525 -32.967410 20.924779 42.199257 1.118893 1.051975 0.112843 -0.043326 -3333.680000 0 0 1
-15.845425 -31.594610 21.291779 41.263019 1.105931 1.028620 0.110178 -0.035882 119360.000000 0 0 1
-15.682825 -31.417110 22.719979 41.823238 1.107804 0.996507 0.103911 -0.032169 90208.300000 0 0 1
-15.433825 -29.929010 23.052579 40.808945 1.094683 0.970496 0.112254 -0.039148 -232589.000000 0 0 1
-15.704125 -29.542810 24.404579 41.412324 1.082211 0.940595 0.109120 -0.049732 -125150.000000 0 0 1
-15.551825 -28.140810 24.478679 40.410025 1.065926 0.920079 0.078907 -0.022931 909785.000000 0 0 1
-16.803525 -27.252910 24.009479 40.019178 1.018277 0.927359 0.108115 -0.020422 851097.000000 0 0 1
-17.842125 -27.205710 24.952779 41.001625 0.990339 0.916526 0.124351 -0.025527 504103.000000 0 0 1
-18.844425 -26.231510 24.578679 40.587140 0.947835 0.920304 0.131780 -0.027442 455755.000000 0 0 1
-19.957025 -26.010510 25.675079 41.641796 0.916335 0.906418 0.132351 -0.020619 986892.000000 0 0 1
-20.838325 -27.096710 26.026179 42.963117 0.915224 0.920051 0.136164 -0.024041 1239510.000000 0 0 1
-21.597025 -27.752110 24.949579 43.117196 0.909483 0.953729 0.114926 -0.027588 18108.800000 0 0 1
-23.068525 -27.289210 24.843779 43.520928 0.869017 0.963260 0.074508 -0.007938 -152923.000000 0 0 1
-23.225225 -26.059810 24.180479 42.464342 0.842849 0.964984 0.088693 -0.008987 1275320.000000 0 0 1
-24.597825 -25.954510 23.732179 42.917431 0.812229 0.984868 0.058642 -0.004187 803380.000000 0 0 1
-24.960725 -24.503010 23.296279 42.025610 0.776145 0.983232 0.054751 0.015834 -59880.100000 0 0 1
-25.120345 -23.559510 24.381879 42.196662 0.753346 0.954747 0.046500 0.013033 16693.500000 0 0 1
-25.831345 -22.414210 24.010579 41.787116 0.714688 0.958690 0.034669 0.015731 10025.100000 0 0 1
-26.314385 -21.620910 25.260379 42.402799 0.687797 0.932629 0.041469 0.014046 121103.000000 0 0 1
-27.493405 -22.147510 25.837979 43.749293 0.678120 0.939004 0.029967 0.022914 125552.000000 0 0 1
-27.885715 -21.366110 26.912079 44.253630 0.653790 0.917090 0.021872 0.008864 -788834.000000 0 0 1
-28.977015 -21.936410 27.850479 45.787800 0.647984 0.916941 0.022434 0.001666 -355506.000000 0 0 1
-30.296975 -21.932010 27.402679 46.366222 0.626587 0.938492 0.030018 0.000288 -313172.000000 0 0 1
-30.674445 -22.615110 26.247279 46.274014 0.635299 0.967677 0.020925 0.020479 -506149.000000 0 0 1
-32.219915 -22.834810 26.165879 47.373037 0.616553 0.985631 0.024183 0.002821 803406.000000 0 0 1
-32.855155 -23.472410 25.039079 47.511795 0.620339 1.015721 0.021979 0.013246 653919.000000 0 0 1
-32.292245 -24.756710 24.682279 47.590951 0.654069 1.025544 0.004511 0.012583 -229877.000000 0 0 1
-32.731495 -25.137910 23.229079 47.358794 0.654924 1.058143 0.027663 0.009143 1226430.000000 0 0 1
-34.158813 -25.328310 23.079779 48.384129 0.638030 1.073545 0.040894 -0.004766 1033270.000000 0 0 1
-34.391306 -25.796010 21.777679 48.191943 0.643548 1.101908 0.044421 -0.002057 94066.900000 0 0 1
-35.759482 -26.501810 21.603779 49.475345 0.637789 1.118916 0.055292 -0.008534 -197499.000000 0 0 1
-35.977410 -27.619110 22.361579 50.569056 0.654720 1.112748 0.048697 -0.006305 211832.000000 0 0 1
-35.084078 -28.734810 22.309279 50.539942 0.686236 1.113617 0.024705 -0.003616 -606850.000000 0 0 1
-35.489135 -29.796710 21.254579 50.981170 0.698426 1.140753 0.042405 -0.011999 -296421.000000 0 0 1
-35.346872 -29.383310 19.884279 50.081581 0.693528 1.162509 0.051067 -0.018957 396075.000000 0 0 1
-35.679287 -30.465510 19.056479 50.638999 0.706737 1.184975 0.069080 -0.018304 -227706.000000 0 0 1
-36.097165 -30.062710 17.618979 50.171708 0.694440 1.211972 0.080796 -0.012499 -34276.400000 0 0 1
-35.002026 -29.668610 16.780179 48.856347 0.703114 1.220198 0.099231 -0.017640 564996.000000 0 0 1
-35.384136 -29.217410 15.512979 48.439102 0.690229 1.244795 0.127505 -0.012540 391977.000000 0 0 1
-36.240795 -30.092710 14.500579 49.287252 0.692978 1.272172 0.134148 -0.022933 391740.000000 0 0 1
-35.423211 -31.027110 13.816579 49.075282 0.719338 1.285399 0.127668 -0.031930 102230.000000 0 0 1
-35.963921 -31.788810 12.741279 49.661577 0.723853 1.311333 0.127034 -0.028047 -180156.000000 0 0 1
-36.158875 -31.043010 11.424579 49.006670 0.709418 1.335508 0.125883 -0.032434 -371130.000000 0 0 1
-37.115445 -30.046310 11.464779 49.109858 0.680529 1.335170 0.123125 -0.038351 -303532.000000 0 0 1
36.923856 -29.494710 10.194379 48.344952 -0.674008 1.358334 0.103422 -0.036667 352861.000000 0 0 1
35.636156 -28.618410 10.335079 46.858968 -0.676611 1.348411 0.135615 -0.022202 333847.000000 0 0 1
35.414336 -27.727310 9.199879 45.908786 -0.664252 1.369036 0.145138 -0.050811 211071.000000 0 0 1
34.384606 -26.769410 9.360479 44.570405 -0.661511 1.359205 0.107950 -0.040023 71146.300000 0 0 1
34.440696 -25.628810 8.366679 43.737841 -0.639742 1.378319 0.104652 -0.037313 -5950.400000 0 0 1
35.476876 -24.732510 8.662579 44.106077 -0.608807 1.373108 0.126455 -0.044363 -151791.000000 0 0 1
35.621076 -24.070910 7.453579 43.632850 -0.594264 1.399129 0.118527 -0.041312 81429.300000 0 0 1
36.256046 -22.658910 7.578379 43.420720 -0.558577 1.395364 0.134707 -0.050840 -427532.000000 0 0 1
35.428606 -21.709110 8.148379 42.342268 -0.549747 1.377148 0.128710 -0.047550 -424498.000000 0 0 1
35.764686 -20.361410 7.882779 41.902720 -0.517552 1.381548 0.138633 -0.046317 368548.000000 0 0 1
34.822776 -19.358810 8.653479 40.770969 -0.507380 1.356923 0.134014 -0.037346 395167.000000 0 0 1
35.129046 -19.408710 10.049079 41.373082 -0.504759 1.325453 0.120610 -0.052764 485737.000000 0 0 1
34.193696 -18.657410 10.840179 40.432874 -0.499489 1.299373 0.104518 -0.042893 442382.000000 0 0 1
34.571626 -18.746310 12.384979 41.231167 -0.496870 1.265706 0.097986 -0.053351 766470.000000 0 0 1
35.760156 -17.985010 12.685679 41.990187 -0.465992 1.263890 0.095048 -0.044374 943959.000000 0 0 1
36.393846 -18.594410 13.791579 43.133186 -0.472347 1.245337 0.099158 -0.041145 -324231.000000 0 0 1
-36.735945 -17.940210 14.387079 43.340152 0.454289 1.232419 0.106491 -0.040607 766292.000000 0 0 1
-35.561861 -18.151010 13.545579 42.161449 0.471938 1.243717 0.097281 -0.036477 1154260.000000 0 0 1
-34.458492 -17.458910 14.117079 41.127766 0.468965 1.220422 0.081400 -0.028450 -34000.800000 0 0 1
-33.155235 -17.488810 13.329579 39.784491 0.485391 1.229144 0.087397 -0.029653 -339482.000000 0 0 1
-32.411545 -18.684410 13.308579 39.708106 0.522941 1.229021 0.088378 -0.031310 -175247.000000 0 0 1
-31.195115 -18.491910 12.639579 38.403709 0.535095 1.235421 0.076488 -0.025937 -388854.000000 0 0 1
-30.335775 -19.739610 12.510179 38.293812 0.576870 1.237998 0.069069 -0.032377 -234245.000000 0 0 1
-30.847055 -20.637210 11.598079 38.883810 0.589628 1.267911 0.082814 -0.032574 -31804.500000 0 0 1
-29.834595 -21.566510 11.193479 38.477414 0.625910 1.275618 0.073270 -0.034107 -21132.800000 0 0 1
-30.197735 -22.571510 10.065979 39.021791 0.641872 1.309888 0.093203 -0.036828 280154.000000 0 0 1
-31.043375 -23.685610 10.319679 40.388055 0.651759 1.312418 0.103871 -0.035434 -6084.940000 0 0 1
-32.424095 -23.377810 10.319279 41.283549 0.624682 1.318156 0.128559 -0.045616 -282948.000000 0 0 1
-33.261075 -24.628910 10.625779 42.729258 0.637376 1.319482 0.146696 -0.047690 -198292.000000 0 0 1
-33.690805 -25.227410 9.430979 43.132771 0.642728 1.350366 0.129453 -0.039606 -126009.000000 0 0 1
-34.330388 -26.447710 9.709179 44.410866 0.656422 1.350395 0.138562 -0.030657 -7885.590000 0 0 1
-34.683147 -27.124910 8.384079 44.821582 0.663717 1.382633 0.121427 -0.033237 -126327.000000 0 0 1
-33.540575 -27.669510 7.794379 44.173796 0.689774 1.393420 0.110091 -0.033122 -177102.000000 0 0 1
-33.859575 -28.242010 6.539079 44.574000 0.695186 1.423563 0.085108 -0.029141 -194893.000000 0 0 1
-32.613155 -28.551110 5.690679 43.716902 0.719083 1.440255 0.065246 -0.019936 48010.300000 0 0 1
-32.019295 -27.409110 5.064279 42.451637 0.707978 1.451216 0.077122 -0.010228 445186.000000 0 0 1
-30.667485 -27.730110 4.724679 41.614615 0.735141 1.457017 0.080978 -0.014874 312332.000000 0 0 1
-29.960535 -26.542610 4.121379 40.238409 0.724981 1.468192 0.064582 -0.008189 -142093.000000 0 0 1
-30.441215 -26.010110 2.896479 40.144526 0.707065 1.498582 0.082318 -0.006620 108238.000000 0 0 1
-29.479975 -25.082810 2.384479 38.780175 0.704983 1.509270 0.084211 -0.016177 98024.500000 0 0 1
-29.706075 -24.505510 0.963679 38.521417 0.689760 1.545777 0.088002 -0.012672 -324959.000000 0 0 1
-29.368615 -25.320010 -0.107721 38.776669 0.711503 1.573574 0.088842 -0.017375 -168028.000000 0 0 1
-29.562665 -24.716210 -1.414921 38.559618 0.696346 1.607499 0.093147 -0.021976 205509.000000 0 0 1
-31.016565 -24.509910 -1.913321 39.578072 0.668749 1.619158 0.104117 -0.020647 238072.000000 0 0 1
-31.745645 -23.415010 -1.392721 39.471361 0.635506 1.606088 0.098394 -0.017654 -495753.000000 0 0 1
-33.044405 -23.482010 -1.917621 40.583429 0.617818 1.618065 0.117709 -0.022106 -172023.000000 0 0 1
-33.891125 -22.210810 -1.664921 40.554906 0.580132 1.611861 0.114148 -0.016972 -95057.200000 0 0 1
-34.000575 -21.873610 -0.323021 40.430165 0.571672 1.578786 0.120349 -0.022963 -55876.400000 0 0 1
-34.701738 -20.682610 -0.117321 40.397954 0.537481 1.573700 0.134113 -0.021051 -556531.000000 0 0 1
-34.992004 -20.342010 1.364379 40.498138 0.526581 1.537100 0.126199 -0.027792 -317622.000000 0 0 1
-36.007193 -21.169410 1.889179 41.811851 0.531491 1.525598 0.129822 -0.035034 86641.500000 0 0 1
-36.273595 -20.758610 3.224979 41.917706 0.519787 1.493784 0.135686 -0.038972 -344662.000000 0 0 1
36.997046 -21.508810 4.018679 42.983254 -0.526605 1.477166 0.154467 -0.032288 1361870.000000 0 0 1
35.682876 -21.426110 3.440879 41.763447 -0.540757 1.488313 0.119584 -0.024017 547803.000000 0 0 1
34.984366 -20.269010 3.759279 40.606290 -0.525115 1.478085 0.119946 -0.026920 -494153.000000 0 0 1
33.689886 -20.012410 2.966179 39.297623 -0.536010 1.495245 0.099668 -0.011123 415055.000000 0 0 1
32.572556 -20.828910 3.252479 38.799401 -0.568931 1.486870 0.088847 -0.001300 -1317320.000000 0 0 1
31.391556 -20.284510 2.837879 37.482592 -0.573683 1.495012 0.083727 -0.009920 -431370.000000 0 0 1
30.246446 -21.353510 3.001679 37.146062 -0.614731 1.489901 0.072774 0.007670 309133.000000 0 0 1
30.168736 -22.417010 2.115879 37.645078 -0.639041 1.514561 0.046367 0.009922 158751.000000 0 0 1
29.037076 -23.252010 2.347979 37.273593 -0.675210 1.507761 0.043779 0.010321 368395.000000 0 0 1
28.828376 -24.379910 1.296179 37.777445 -0.701987 1.536479 0.034179 0.013356 143979.000000 0 0 1
28.464676 -23.897310 -0.049321 37.166135 -0.698392 1.572123 0.035886 0.005056 337984.000000 0 0 1
27.832976 -24.913010 -0.815921 37.363061 -0.730096 1.592636 0.036054 -0.001558 198505.000000 0 0 1
27.070376 -24.351010 -2.088021 36.471040 -0.732563 1.628079 0.054060 -0.010373 89039.900000 0 0 1
27.874476 -24.024710 -3.220821 36.939772 -0.711356 1.658098 0.035965 -0.032513 215599.000000 0 0 1
28.249476 -25.096310 -4.111421 38.010018 -0.726359 1.679175 0.037347 -0.033887 -93572.900000 0 0 1
27.087776 -25.657610 -5.022321 37.646836 -0.758290 1.704601 0.051596 -0.041397 712996.000000 0 0 1
26.509176 -24.785810 -6.010421 36.785839 -0.751814 1.734922 0.052923 -0.057194 540384.000000 0 0 1
25.730076 -23.724210 -5.459021 35.421404 -0.744860 1.725529 0.062931 -0.052259 -385923.000000 0 0 1
24.892276 -22.858610 -6.424321 34.400775 -0.742835 1.758649 0.071952 -0.062149 274822.000000 0 0 1
24.084576 -23.629010 -7.349421 34.531303 -0.775851 1.785270 0.080157 -0.066667 1137160.000000 0 0 1
22.973476 -22.923010 -7.938421 33.410530 -0.784299 1.810693 0.081159 -0.064765 443189.000000 0 0 1
23.147776 -21.522310 -8.705721 32.784431 -0.749026 1.839565 0.081249 -0.064877 -504197.000000 0 0 1
23.941576 -21.549810 -9.884421 33.694141 -0.732870 1.868533 0.091435 -0.064154 -17330.700000 0 0 1
23.903176 -20.236310 -10.471821 33.023160 -0.702514 1.893472 0.091319 -0.064400 -145906.000000 0 0 1
24.852976 -19.987710 -11.650021 33.954410 -0.677320 1.921020 0.074591 -0.066679 1408460.000000 0 0 1
26.263776 -20.003010 -11.253621 34.879081 -0.650896 1.899321 0.080703 -0.065483 1163280.000000 0 0 1
26.949476 -19.659810 -12.432921 35.599999 -0.630256 1.927556 0.078701 -0.067200 -328830.000000 0 0 1
28.409776 -20.152910 -12.385621 36.968348 -0.616984 1.912437 0.057715 -0.058028 -200673.000000 0 0 1
28.471076 -21.499410 -12.729321 37.879578 -0.646777 1.913513 0.055428 -0.058640 385752.000000 0 0 1
29.305976 -22.132910 -11.737221 38.554744 -0.646843 1.880136 0.063493 -0.060903 195533.000000 0 0 1
29.808046 -23.526710 -12.205321 39.887285 -0.668166 1.881780 0.051173 -0.051086 -534131.000000 0 0 1
30.724376 -23.634910 -13.248721 40.964922 -0.655711 1.900134 0.031656 -0.045321 -109614.000000 0 0 1
30.872406 -24.971810 -13.601521 41.972588 -0.680127 1.900811 0.043074 -0.029310 -41196.900000 0 0 1
-4.279625 -8.778403 -27.539851 29.220180 1.117184 2.800813 0.044040 -0.011395 80256.700000 0 0 1
-4.089725 -7.481603 -26.982191 28.297330 1.070538 2.835520 0.033984 -0.008548 278242.000000 0 0 1
-5.030625 -6.546903 -27.512101 28.724290 0.915624 2.850042 0.028625 -0.011888 197828.000000 0 0 1
-4.792525 -5.193003 -26.840711 27.755348 0.825483 2.884159 0.028954 -0.018984 -205274.000000 0 0 1
-5.179625 -5.192403 -25.534581 26.566979 0.786630 2.861898 0.017498 -0.015490 6980.650000 0 0 1
-5.037525 -3.960003 -24.823221 25.636899 0.666208 2.888975 0.028178 -0.024106 -132224.000000 0 0 1
-5.628325 -4.070003 -23.429821 24.437665 0.626080 2.853398 0.020722 -0.024736 -401204.000000 0 1 0
-5.003625 -5.034303 -22.650321 23.736417 0.788454 2.837916 0.015088 -0.024514 195049.000000 0 1 0
-5.606225 -5.101403 -21.365921 22.670612 0.738287 2.800681 0.020301 -0.018421 20497.700000 0 1 0
-4.976225 -6.192703 -20.448821 21.937791 0.893887 2.771041 0.018236 -0.022613 -265471.000000 0 1 0
-5.358325 -7.546003 -20.793221 22.759874 0.953332 2.722826 0.015940 -0.012310 352224.000000 0 1 0
-4.459625 -8.455503 -20.205721 22.352963 1.085452 2.699689 0.015162 -0.014614 -609698.000000 0 1 0
-5.132225 -9.849903 -20.080521 22.947498 1.090456 2.636364 0.025843 -0.013084 751227.000000 0 1 0
-6.310225 -9.916303 -19.263021 22.565814 1.004078 2.593725 0.037368 -0.014601 38704.500000 0 1 0
-7.489225 -9.502603 -19.877021 23.269807 0.903339 2.594803 0.040839 -0.013672 -904653.000000 0 1 0
-8.645725 -9.478603 -18.832121 22.786866 0.831319 2.543563 0.050043 -0.011700 -151381.000000 0 1 0
-9.215625 -10.752703 -18.639821 23.409214 0.862222 2.491884 0.069111 -0.013341 -185758.000000 0 1 0
-10.033525 -10.691703 -17.492221 22.824590 0.817145 2.443977 0.080300 -0.011362 -298105.000000 0 1 0
-10.897425 -11.979703 -17.385421 23.759630 0.832671 2.391640 0.096049 -0.007630 138582.000000 0 1 0
-12.039225 -12.059003 -18.218321 24.945334 0.786219 2.389601 0.114264 -0.023079 -18047.200000 0 1 0
-11.762425 -12.253103 -19.577921 25.918877 0.805827 2.426990 0.112089 -0.026694 -14426.200000 0 0 1
-12.971025 -11.809503 -20.594021 27.052274 0.738560 2.436062 0.099992 -0.021956 1889340.000000 0 0 1
-14.133725 -12.622603 -20.576021 27.972575 0.728981 2.397316 0.094155 -0.011783 311643.000000 0 0 1
-14.786325 -12.858003 -19.341321 27.532714 0.715756 2.349680 0.081214 -0.010508 -1200600.000000 0 0 1
-15.971925 -13.838903 -19.458121 28.726923 0.713968 2.314948 0.078595 0.000162 201095.000000 0 0 1
-15.649125 -15.195503 -19.680421 29.378860 0.770693 2.304849 0.086011 0.000443 378212.000000 0 0 1
-16.635525 -15.607903 -20.634321 30.759105 0.753538 2.306132 0.082805 -0.003766 387905.000000 0 0 1
-16.421125 -17.050503 -21.123821 31.726784 0.804199 2.299367 0.071991 -0.007088 110728.000000 0 0 1
-16.836225 -18.048103 -20.189521 31.887447 0.820124 2.256412 0.075877 0.000925 220871.000000 0 0 1
-16.203325 -19.275003 -20.490921 32.464616 0.871762 2.253866 0.068922 -0.001228 196954.000000 0 0 1
-16.942025 -20.472703 -19.799421 33.138812 0.879486 2.211138 0.070112 -0.012503 364031.000000 0 0 1
-16.329425 -21.674303 -20.289621 33.883540 0.925123 2.212804 0.070334 -0.015406 477469.000000 0 0 1
-17.087525 -22.785603 -19.879921 34.732959 0.927342 2.180183 0.081301 -0.014056 -99107.200000 0 0 1
-16.469725 -24.141803 -20.222621 35.539174 0.972112 2.176114 0.092715 -0.014888 -177107.000000 0 0 1
-16.549925 -24.481503 -21.581021 36.592137 0.976348 2.201573 0.071206 -0.016030 508170.000000 0 0 1
-15.826625 -25.735133 -21.713621 37.205651 1.019434 2.193965 0.088639 -0.018792 47629.100000 0 0 1
-16.015125 -26.495043 -23.058621 38.602740 1.027106 2.210966 0.092642 -0.023536 7348.110000 0 0 1
-17.322225 -27.012933 -23.289121 39.650236 1.000592 2.198594 0.099847 -0.026889 228138.000000 0 0 1
-17.407525 -28.417473 -23.154021 40.579347 1.021190 2.178016 0.098493 -0.026882 -622944.000000 0 0 1
-18.573725 -29.124743 -23.820021 41.959830 1.003095 2.174489 0.104156 -0.038387 -511227.000000 0 0 1
-18.594725 -29.147673 -25.251401 42.813361 1.002940 2.201610 0.108251 -0.031100 214352.000000 0 0 1
-18.817725 -27.887763 -25.949421 42.487722 0.977207 2.227805 0.126845 -0.042201 -416723.000000 0 0 1
-17.606725 -27.539483 -26.806331 42.272914 1.001961 2.257673 0.134513 -0.043833 -390959.000000 0 0 1
-17.698325 -27.971433 -28.131811 43.439965 1.006659 2.275230 0.129946 -0.022807 191186.000000 0 0 1
-16.508725 -27.719313 -28.854091 43.283448 1.033642 2.300476 0.109719 -0.010323 -220074.000000 0 0 1
-16.603025 -27.985283 -30.365951 44.507611 1.035335 2.321651 0.108549 -0.014769 -65212.800000 0 0 1
-16.861825 -29.338473 -30.721261 45.704081 1.049162 2.307942 0.109977 -0.013261 208647.000000 0 0 1
-17.250425 -29.243423 -32.043461 46.685526 1.037843 2.327280 0.100200 -0.010178 -64824.100000 0 0 1
-17.386525 -30.570403 -32.801671 48.091480 1.053681 2.321383 0.103925 -0.017046 60704.500000 0 0 1
-16.131025 -31.042493 -33.235271 48.253804 1.091558 2.330573 0.119704 -0.017419 8410.920000 0 0 1
-16.285325 -32.095173 33.709873 49.311941 1.101240 0.818106 0.111167 -0.015103 507455.000000 0 0 1
-14.915225 -32.617893 33.168503 48.852231 1.141912 0.824457 0.101242 -0.025964 339048.000000 0 0 1
-14.215325 -33.473813 -33.852971 49.684960 1.169205 2.320405 0.113897 -0.027203 23456.600000 0 0 1
-13.094225 34.009113 33.353752 49.401936 -1.203269 0.829627 0.117319 -0.029394 -41855.700000 0 0 1
-12.233825 33.228812 -33.546311 48.776791 -1.218028 2.329183 0.125453 -0.033711 -550737.000000 0 0 1
-11.319525 33.984350 -32.797591 48.566960 -1.249273 2.312177 0.134597 -0.034970 -186472.000000 0 0 1
-10.596425 33.161228 -31.910711 47.225467 -1.261508 2.312723 0.127783 -0.035746 -925824.000000 0 0 1
-9.550325 33.963651 -31.247901 47.129286 -1.296682 2.295649 0.123408 -0.036360 -1206300.000000 0 0 1
-10.092825 -33.214453 -30.319801 46.090729 1.275794 2.288728 0.135957 -0.034780 -782704.000000 0 0 1
-9.179325 -32.304573 -29.823561 44.914254 1.293944 2.296967 0.135525 -0.043918 -661180.000000 0 0 1
-9.732625 -31.339503 -28.735421 43.618951 1.269685 2.289996 0.159740 -0.040048 -23707.200000 0 0 1
-9.801225 -31.806283 -27.396541 43.107704 1.271876 2.259500 0.173797 -0.039763 -171804.000000 0 0 1
-10.562825 -32.966143 -27.111571 43.970185 1.260718 2.235200 0.173411 -0.042994 15132.300000 0 0 1
-11.023525 -33.040423 -25.640441 43.250663 1.248772 2.205369 0.159196 -0.041865 418911.000000 0 0 1
-9.935225 -33.383153 -24.775021 42.742780 1.281532 2.189072 0.170466 -0.048309 261540.000000 0 0 1
-10.261425 -33.390273 -23.372721 42.029647 1.272640 2.160483 0.156717 -0.049531 -62207.200000 0 0 1
-9.067025 -33.764193 -22.487321 41.568152 1.308446 2.142392 0.156425 -0.051605 82108.300000 0 0 1
-8.714725 32.886240 -22.474321 40.774334 -1.311754 2.154584 0.144096 -0.058122 143582.000000 0 0 1
-7.730825 32.625184 -21.471121 39.814285 -1.338129 2.140380 0.158177 -0.057178 1209.370000 0 0 1
-6.983725 31.329334 -21.609521 38.694586 -1.351469 2.163329 0.152413 -0.071118 -100721.000000 0 0 1
-5.862625 31.344374 -22.487121 39.019364 -1.385894 2.184999 0.120686 -0.067826 196992.000000 0 0 1
-5.150925 30.121334 -22.349221 37.859140 -1.401429 2.202259 0.109826 -0.055717 709939.000000 0 0 1
-3.630825 30.331284 -22.664921 38.037722 -1.451658 2.209125 0.106415 -0.062608 371816.000000 0 0 1
-3.519925 30.612564 -24.069621 39.100711 -1.456316 2.233918 0.112530 -0.049035 712624.000000 0 0 1
-2.413025 31.510844 -24.335121 39.886766 -1.494368 2.226990 0.091447 -0.051474 667983.000000 0 0 1
-2.332825 31.762884 -25.864381 41.027906 -1.497483 2.252877 0.094532 -0.035072 -523728.000000 0 0 1
-1.282025 32.579591 -26.257841 41.863439 -1.531466 2.248783 0.090893 -0.043336 -668648.000000 0 0 1
-1.560725 33.961024 -26.065171 42.839002 -1.524872 2.224896 0.074570 -0.036610 -543170.000000 0 0 1
-0.523525 -33.109803 -26.535431 42.434211 1.554986 2.246352 0.034362 -0.020743 -219034.000000 0 0 1
0.721975 -33.129793 -25.857721 42.032442 -1.549007 2.233417 0.040783 -0.025630 -169017.000000 0 0 1
1.536575 -32.106823 -26.349021 41.562965 -1.522975 2.257452 0.037394 -0.019203 -67925.600000 0 0 1
2.708775 -31.671433 -25.452661 40.721678 -1.485477 2.245979 0.026310 -0.025122 -154935.000000 0 0 1
2.324375 -31.073503 -24.232321 39.473671 -1.496133 2.231770 0.031228 -0.019968 776340.000000 0 0 1
3.516375 -30.551633 -23.636521 38.787270 -1.456204 2.226086 0.022493 -0.018647 474718.000000 0 0 1
3.218775 -29.654513 -22.383321 37.292944 -1.462677 2.214551 0.034766 -0.015803 -69932.400000 0 0 1
2.897675 -30.487513 -21.281521 37.293272 -1.476036 2.178097 0.054912 -0.016005 424176.000000 0 0 1
3.068175 -29.790193 -20.050221 36.039987 -1.468165 2.160762 0.062266 -0.023532 -1001970.000000 0 0 1
3.228275 -30.771133 -18.825421 36.217135 -1.466266 2.117405 0.064826 -0.019158 -793492.000000 0 0 1
2.169075 -31.537233 -18.346721 36.550022 -1.502126 2.096662 0.061978 -0.026075 -387512.000000 0 0 1
1.942875 -32.749503 -19.020421 37.922040 -1.511540 2.096205 0.067271 -0.019592 -348059.000000 0 0 1
2.692075 34.024242 -18.509321 38.826425 1.491839 2.067716 0.056493 -0.029326 679901.000000 0 0 1
4.088075 -33.990293 -18.801921 39.058477 -1.451099 2.073023 0.059804 -0.024354 502399.000000 0 0 1
4.803675 33.165801 -17.955621 38.019074 1.426958 2.062671 0.058331 -0.039305 4550.130000 0 0 1
6.001975 32.460612 -18.578121 37.879567 1.387961 2.083405 0.069008 -0.024606 -672345.000000 0 0 1
7.159975 33.200755 -18.728021 38.785231 1.358392 2.074720 0.113918 -0.026315 -417807.000000 0 0 1
8.117275 32.449246 -19.485921 38.711043 1.325674 2.098289 0.068206 -0.028277 974765.000000 0 0 1
9.518075 33.131273 -19.759921 39.733229 1.291046 2.091297 0.047835 -0.033605 500858.000000 0 0 1
10.253575 33.139194 -18.604121 39.363121 1.270730 2.063067 0.037819 -0.022623 -538446.000000 0 0 1
11.500075 33.782208 -18.712821 40.294652 1.242683 2.053753 0.043213 -0.014160 -12022.700000 0 0 1
12.345275 33.761637 -17.441621 39.955776 1.220239 2.022527 0.016686 -0.005955 -177083.000000 0 0 1
13.221275 32.654956 -17.237421 39.220874 1.186092 2.025834 0.018444 -0.011112 -11628.800000 0 0 1
13.667075 32.744676 -15.917021 38.888999 1.175395 1.992476 0.013941 -0.009862 -73831.400000 0 0 1
14.682375 31.651164 -15.490821 38.175042 1.136459 1.988633 0.028659 -0.010400 469914.000000 0 0 1
14.159275 30.430944 -14.971521 36.751515 1.135299 1.990370 0.041488 -0.011428 31446.800000 0 0 1
15.269075 29.542304 -14.853321 36.421333 1.093756 1.990861 0.046758 -0.009243 476511.000000 0 0 1
15.104075 28.274974 -13.967421 34.967071 1.080176 1.981708 0.051822 -0.014313 -444002.000000 0 0 1
15.256175 28.549044 -12.548821 34.717023 1.080021 1.940630 0.056164 -0.021735 -106419.000000 0 0 1
14.105275 28.485004 -11.716421 33.876670 1.111010 1.923946 0.062313 -0.017995 148697.000000 0 0 1
13.504475 27.078884 -11.562321 32.393272 1.108182 1.935782 0.061358 -0.025970 -239121.000000 0 0 1
12.657075 26.642254 -12.644921 32.092137 1.127287 1.975797 0.053094 -0.026434 637000.000000 0 0 1
11.987175 25.360084 -12.484921 30.703411 1.129244 1.989558 0.080291 -0.034396 491318.000000 0 0 1
11.065575 25.122514 -11.275821 29.677126 1.155900 1.960538 0.090998 -0.041509 -445098.000000 0 0 1
9.869475 25.882364 -11.283621 29.910256 1.206496 1.957621 0.059643 -0.027805 185137.000000 0 0 1
9.474275 26.038954 -9.904821 29.426085 1.221837 1.914100 0.044450 -0.014884 -268406.000000 0 0 1
8.348775 27.058714 -9.799321 29.965025 1.271521 1.903950 0.044633 -0.008593 -44709.400000 0 0 1
8.804275 28.320694 -10.210421 31.366059 1.269390 1.902363 0.045505 -0.022002 69394.900000 0 0 1
7.709475 29.196594 -10.207621 31.875894 1.312635 1.896769 0.042159 -0.024674 157295.000000 0 0 1
8.227575 30.605754 -10.566521 33.407432 1.308180 1.892615 0.066472 -0.022611 -74799.000000 0 0 1
9.081075 31.239924 -9.636821 33.930327 1.287904 1.858778 0.055307 -0.016159 -266586.000000 0 0 1
9.629075 32.476314 -10.004321 35.320199 1.282558 1.857974 0.064264 -0.018471 29838.800000 0 0 1
10.613075 32.515561 -11.192821 35.988586 1.255299 1.887052 0.044315 -0.011526 213604.000000 0 0 1
11.973675 32.194906 -10.876921 36.030380 1.214736 1.877462 0.036248 -0.001797 492594.000000 0 0 1
12.838875 32.706451 -11.869321 37.086782 1.196730 1.896570 0.035895 0.003611 980484.000000 0 0 1
14.366775 32.683925 -11.486521 37.504444 1.156652 1.882070 0.049300 -0.004856 1015570.000000 0 0 1
14.703275 33.592635 -10.514221 38.147087 1.158224 1.850034 0.044913 0.000096 -318510.000000 0 0 1
16.103775 33.700909 -10.413021 38.775170 1.125030 1.842682 0.059566 -0.012901 19978.500000 0 0 1
16.635875 -33.373623 -9.362921 38.447566 -1.108370 1.816794 0.069911 -0.017533 16449.400000 0 0 1
16.496675 -33.832303 -8.017921 38.484439 -1.117117 1.780676 0.062075 -0.023064 205245.000000 0 0 1
17.086175 -32.911853 -7.127621 37.761494 -1.091947 1.760689 0.062396 -0.030638 -1091820.000000 0 0 1
17.630075 -33.423693 -5.789621 38.229341 -1.085413 1.722826 0.076366 -0.023506 556444.000000 0 0 1
18.725275 33.695359 -5.834621 38.987895 1.063570 1.721013 0.074451 -0.034243 525063.000000 0 0 1
19.937875 -33.778063 -6.260121 39.719838 -1.037569 1.729063 0.081317 -0.033005 -892586.000000 0 0 1
20.883175 33.410007 -7.122121 40.038234 1.012156 1.749631 0.072621 -0.024543 321325.000000 0 0 1
21.235175 32.130359 -6.578421 39.071322 0.986792 1.739972 0.074605 -0.017895 242492.000000 0 0 1
22.263275 32.121495 -5.597921 39.481395 0.964719 1.713062 0.075500 -0.019079 -228495.000000 0 0 1
22.675975 30.730444 -5.100421 38.530174 0.935085 1.703561 0.056164 -0.016914 -483471.000000 0 0 1
23.405275 29.993754 -6.024521 38.519177 0.908160 1.727844 0.043035 -0.015621 -119774.000000 0 0 1
23.555075 28.654754 -5.530721 37.503671 0.882766 1.718808 0.030296 -0.003009 -764985.000000 0 0 1
24.574875 27.796394 -6.253621 37.625414 0.846834 1.737779 0.026377 0.004659 -473031.000000 0 0 1
25.901075 28.160514 -5.937521 38.718657 0.827168 1.724754 0.043393 0.002690 -634956.000000 0 0 1
26.780675 27.329244 -6.605621 38.829452 0.795536 1.741747 0.025717 0.003625 448425.000000 0 0 1
27.716075 26.436764 -5.621621 38.712865 0.761778 1.716525 0.030767 0.008126 -64954.400000 0 0 1
28.712275 27.113324 -4.958621 39.800942 0.756764 1.695706 0.043802 0.006726 -522624.000000 0 0 1
29.526575 26.136744 -4.327521 39.669578 0.724574 1.680103 0.056279 0.000494 -174579.000000 0 0 1
30.872075 26.655624 -3.799821 40.963959 0.712235 1.663690 0.061068 0.003552 -352891.000000 0 0 1
30.872375 27.505784 -2.722221 41.437690 0.727793 1.636538 0.072641 0.001110 -848237.000000 0 0 1
32.152875 27.926984 -2.403721 42.655617 0.715176 1.627178 0.096884 -0.024102 -587808.000000 0 0 1
32.209875 28.938724 -1.242921 43.318248 0.731954 1.599493 0.087937 -0.011642 87276.800000 0 0 1
31.787875 30.208474 -1.644421 43.883083 0.759928 1.608278 0.058842 -0.004722 -174989.000000 0 0 1
31.152975 30.884624 -0.613621 43.871909 0.781073 1.584783 0.081838 -0.011358 -35394.500000 0 0 1
33.891206 21.859597 19.162062 44.650201 0.572847 1.127234 0.085839 -0.026016 -369292.000000 0 0 1
33.789786 21.808597 20.561962 45.168118 0.573149 1.098164 0.075521 -0.032029 162081.000000 0 0 1
34.647966 22.849097 21.049562 46.536511 0.583000 1.101427 0.097486 -0.025107 247851.000000 0 0 1
34.624596 23.081597 22.582462 47.345437 0.587973 1.073590 0.059750 -0.017893 506866.000000 0 0 1
33.409936 23.668697 23.070122 46.996400 0.616363 1.057684 0.037840 -0.013646 556456.000000 0 0 1
33.509986 23.969997 24.428002 47.897883 0.620927 1.035610 0.042277 -0.010704 695136.000000 0 0 1
32.241736 24.695897 25.021082 47.701902 0.653638 1.018633 0.021320 -0.010860 672730.000000 0 0 1
32.216226 26.110397 24.868582 48.353743 0.681095 1.030599 0.002482 -0.014032 474442.000000 0 0 1
30.981536 26.654597 25.342392 48.089084 0.710465 1.015743 0.005251 -0.012398 434829.000000 0 0 1
30.829806 28.189097 25.364092 48.871662 0.740685 1.025123 -0.003981 -0.009381 -174263.000000 0 0 1
30.567686 28.826497 24.116592 48.445437 0.756091 1.049725 0.002739 -0.012598 228729.000000 0 0 1
30.231336 30.229497 24.287192 49.169339 0.785368 1.054170 0.015939 -0.015525 -29355.900000 0 0 1
30.680396 31.080997 23.021482 49.369056 0.791884 1.085677 0.026233 -0.022238 229680.000000 0 0 1
32.052286 31.161497 22.672462 50.124131 0.771307 1.101424 0.011531 -0.014191 -85544.300000 0 0 1
32.125686 31.855997 21.414962 50.054619 0.781183 1.128704 0.027170 -0.012479 488601.000000 0 0 1
33.576276 32.297897 21.065462 51.129973 0.765994 1.146150 0.012634 -0.019553 385666.000000 0 0 1
34.118166 33.261097 21.928462 52.451952 0.772679 1.139479 0.025445 -0.005595 -382223.000000 0 0 1
35.472906 33.479597 21.641962 53.362768 0.756498 1.153202 0.023667 0.002242 -427608.000000 0 0 1
36.130686 -33.511410 22.498862 54.172316 -0.747805 1.142501 0.022064 -0.000236 -347356.000000 0 0 1
35.944596 -32.147210 22.120062 53.054257 -0.729687 1.140728 0.029257 -0.006456 101339.000000 0 0 1
36.291446 -31.285910 23.225112 53.247376 -0.711462 1.119454 0.029669 -0.006429 -845121.000000 0 0 1
35.461346 -29.975310 23.231562 51.920437 -0.701756 1.106889 0.039154 -0.001234 1287620.000000 0 0 1
34.018066 -29.992010 23.364962 51.016379 -0.722584 1.095064 0.039885 -0.000885 1527650.000000 0 0 1
33.386816 -30.447010 22.167562 50.329919 -0.739377 1.114702 0.056916 -0.002858 -1035230.000000 0 0 1
32.632956 -31.753710 22.226762 50.667908 -0.771743 1.116672 0.040533 -0.011124 -896575.000000 0 0 1
31.545216 -31.663910 23.101742 50.312964 -0.787276 1.093746 0.065510 -0.010196 -229435.000000 0 0 1
30.962546 -32.961410 23.288312 50.867271 -0.816657 1.095249 0.055895 -0.017629 205544.000000 0 0 1
29.912426 -32.902610 24.426462 50.734476 -0.832965 1.068480 0.053834 -0.017193 77346.800000 0 0 1
29.581796 33.891497 24.959842 51.446185 0.853192 1.064245 0.055725 -0.032008 -183601.000000 0 0 1
28.568376 33.871397 25.917242 51.333489 0.870125 1.041554 0.067821 -0.031113 -1072870.000000 0 0 1
28.308376 32.505897 26.559652 50.630155 0.854311 1.018573 0.065546 -0.013660 421392.000000 0 0 1
27.546476 31.680497 25.655022 49.200025 0.855085 1.022255 0.075210 -0.027947 417094.000000 0 0 1
26.168076 31.981497 25.520442 48.568275 0.885041 1.017547 0.079334 -0.038600 -299078.000000 0 0 1
25.471776 31.428397 24.265292 47.173721 0.889704 1.030510 0.111542 -0.041886 -36618.900000 0 0 1
25.707376 32.101297 23.045842 47.143115 0.895555 1.060027 0.113260 -0.049868 799177.000000 0 0 1
27.023976 31.999497 22.470962 47.531119 0.869497 1.078372 0.088675 -0.048149 562940.000000 0 0 1
27.090576 32.859097 21.190062 47.567198 0.881326 1.109090 0.088192 -0.042017 -372071.000000 0 0 1
28.408376 33.063997 20.779362 48.291258 0.860989 1.125980 0.091024 -0.043725 -376200.000000 0 0 1
28.505176 33.887997 19.611662 48.430969 0.871458 1.153883 0.087296 -0.037935 660357.000000 0 0 1
29.989076 -33.772310 19.256562 49.099173 -0.844663 1.167777 0.091601 -0.041819 901634.000000 0 0 1
30.763426 33.210797 18.780962 49.010917 0.823635 1.177539 0.103738 -0.046644 -250307.000000 0 0 1
31.727056 33.675797 17.866962 49.597316 0.815185 1.202271 0.106366 -0.037671 -190865.000000 0 0 1
32.676296 32.656597 17.231662 49.306428 0.785097 1.213779 0.086397 -0.036984 45103.200000 0 0 1
33.676626 32.144397 18.082062 49.943352 0.762124 1.200329 0.060771 -0.032341 270420.000000 0 0 1
34.462326 31.075297 17.552962 49.612826 0.733763 1.209167 0.078179 -0.035660 529195.000000 0 0 1
35.456156 30.451297 18.578062 50.294780 0.709606 1.192451 0.064630 -0.034287 14841.100000 0 0 1
36.463286 31.335397 18.996762 51.694829 0.709908 1.194499 0.078392 -0.034457 -45305.300000 0 0 1
-36.964765 30.596897 19.737462 51.885753 -0.691423 1.180565 0.098126 -0.028995 -16143.900000 0 0 1
-35.895846 31.459797 20.413862 51.912969 -0.719633 1.166652 0.096327 -0.032330 -566847.000000 0 0 1
-35.002980 32.005297 19.494062 51.279295 -0.740692 1.180833 0.101974 -0.037208 -771541.000000 0 0 1
-33.980145 32.802997 19.985962 51.284750 -0.767774 1.170484 0.087014 -0.017034 -312508.000000 0 0 1
-34.309785 -33.953610 20.798262 52.560219 0.780181 1.163963 0.059738 -0.024002 -559064.000000 0 0 1
-34.536249 33.908797 22.181862 53.240906 -0.776231 1.141059 0.049401 -0.013128 -22230.700000 0 0 1
-34.154131 -33.117710 22.991782 52.838522 0.769993 1.120610 0.029268 -0.004686 -242200.000000 0 0 1
-34.383966 -33.462410 24.464272 53.856203 0.771816 1.099264 0.018208 -0.004960 -160709.000000 0 0 1
-35.696472 -33.580810 24.942282 54.991148 0.754869 1.100030 0.019569 0.009545 -434037.000000 0 0 1
-35.559033 33.876397 26.215232 55.671299 -0.761170 1.080493 0.020407 0.003054 -87412.200000 0 0 1
-36.813625 33.572697 27.037652 56.686891 -0.739386 1.073598 0.008495 -0.003538 -442543.000000 0 0 1
-36.612375 32.712397 28.106912 56.573540 -0.729201 1.050865 0.027097 -0.013316 -623254.000000 0 0 1
36.669696 32.670197 28.950322 57.009908 0.727782 1.038153 0.024020 -0.016314 -382262.000000 0 0 1
36.711606 31.424297 29.829962 56.789569 0.707954 1.017762 0.022408 -0.008316 -385048.000000 0 0 1
36.486656 30.119097 29.216362 55.606042 0.690087 1.017591 0.019104 -0.010053 1368110.000000 0 0 1
-36.734515 29.517397 28.553872 55.100136 -0.676892 1.026031 0.037051 -0.012963 1030630.000000 0 0 1
-37.150545 28.117297 28.010802 54.363135 -0.647869 1.029493 0.049717 -0.017834 693031.000000 0 0 1
36.057956 28.113397 27.141312 53.171328 0.662223 1.035088 0.031441 -0.009856 1264880.000000 0 0 1
35.603206 26.828797 26.735902 51.982508 0.645769 1.030576 0.049463 -0.013692 6157.850000 0 0 1
35.073846 25.874197 27.833032 51.713890 0.635587 1.002482 0.033408 -0.020135 -105490.000000 0 0 1
36.114376 25.412697 28.743762 52.690200 0.613187 0.993782 0.033790 -0.016561 564479.000000 0 0 1
36.105596 24.015997 29.125512 52.236746 0.586959 0.979344 0.041980 -0.018454 -133905.000000 0 0 1
36.764146 23.059197 28.064072 51.680956 0.560194 0.996760 0.048985 -0.014164 212840.000000 0 0 1
36.086086 22.933997 26.780002 50.451386 0.566140 1.011243 0.045193 -0.004630 676998.000000 0 0 1
36.812936 22.043697 25.874512 50.105960 0.539539 1.028159 0.054911 -0.027678 472966.000000 0 0 1
36.571266 20.541597 26.220892 49.466655 0.511771 1.012111 0.055178 -0.025564 -659290.000000 0 0 1
35.303196 20.093597 25.799512 48.121545 0.517443 1.004948 0.080713 -0.016402 96210.400000 0 0 1
34.868656 18.845297 26.354162 47.597377 0.495493 0.984008 0.094220 -0.017381 -628503.000000 0 0 1
34.836616 18.745697 27.911492 48.415311 0.493664 0.956356 0.073532 -0.007978 -487420.000000 0 0 1
33.826386 19.462997 28.625812 48.399068 0.522119 0.937936 0.064527 -0.012002 407809.000000 0 0 1
33.624486 20.861697 28.370632 48.689930 0.555307 0.948774 0.058369 -0.019155 -1389520.000000 0 0 1
32.579296 21.517397 29.312902 48.822691 0.583695 0.926801 0.057166 -0.016065 -966017.000000 0 0 1
31.276266 21.119397 29.025752 47.610168 0.593924 0.915172 0.061451 -0.017038 -668229.000000 0 0 1
30.670726 21.798897 27.966612 46.883011 0.617897 0.931639 0.050850 -0.012168 -735952.000000 0 0 1
30.298816 23.306897 28.166042 47.482161 0.655698 0.935778 0.053976 -0.008984 -999885.000000 0 0 1
31.450676 24.099597 28.169502 48.615393 0.653831 0.952760 0.040342 -0.018848 -451591.000000 0 0 1
31.394336 25.398597 28.695832 49.539316 0.680216 0.952983 0.033173 -0.012389 -269348.000000 0 0 1
31.673376 25.333097 30.165502 50.546277 0.674633 0.931302 0.029839 -0.018669 22166.800000 0 0 1
32.986756 24.886797 30.458352 51.334101 0.646342 0.935600 0.015201 -0.001770 -112574.000000 0 0 1
33.370316 24.824897 31.849682 52.385645 0.639600 0.917276 0.028007 -0.008575 2135.740000 0 0 1
32.532986 24.006997 32.835670 52.085625 0.635730 0.888706 0.035497 -0.001309 -110745.000000 0 0 1
33.215306 23.917597 -33.793051 53.078040 0.624074 2.260965 0.036558 -0.009036 406350.000000 0 0 1
32.692276 22.859597 -32.998391 51.771033 0.610213 2.261904 0.044037 -0.010286 76392.600000 0 0 1
33.376186 22.755797 -31.587191 51.279106 0.598405 2.234433 0.039295 -0.014655 47817.800000 0 0 1
33.049026 23.880897 -30.819261 51.111273 0.625727 2.218032 0.037064 -0.020020 315418.000000 0 0 1
33.381886 23.563697 -29.453061 50.369445 0.614663 2.195357 0.070004 -0.030086 103920.000000 0 0 1
34.703996 24.007897 -28.780581 51.079040 0.605195 2.169354 0.078411 -0.013767 141784.000000 0 0 1
35.241226 23.182197 -27.745041 50.489064 0.581849 2.152593 0.082508 -0.016411 -571260.000000 0 0 1
36.235616 23.902997 -27.104501 51.176431 0.583132 2.128959 0.099383 -0.012590 -384659.000000 0 0 1
37.028826 23.189797 -26.003831 50.843877 0.559507 2.107661 0.082481 -0.013159 -130062.000000 0 0 1
-36.523395 22.118197 -26.443891 50.224022 -0.544520 2.125297 0.061815 -0.013951 282115.000000 0 0 1
-36.635285 20.908197 -25.689941 49.388965 -0.518606 2.117829 0.041927 -0.006133 1817.300000 0 0 1
-35.523370 19.897997 -26.120981 48.375053 -0.510594 2.141195 0.044184 0.001827 -214962.000000 0 0 1
-34.256646 20.249597 -25.659791 47.349645 -0.533860 2.143518 0.051776 0.001390 -595249.000000 0 0 1
-33.383215 19.101797 -25.825931 46.328138 -0.519726 2.162116 0.014314 -0.003304 -99255.000000 0 0 1
-32.085295 19.424597 -25.107731 45.135123 -0.544384 2.160698 0.023558 -0.004735 -668266.000000 0 0 1
-32.217865 19.563797 -23.712221 44.530915 -0.545722 2.132335 0.029903 -0.002313 -355793.000000 0 0 1
-30.962935 19.647197 -23.078121 43.327997 -0.565430 2.132510 0.032985 0.000085 -76892.000000 0 0 1
-31.014605 20.015997 -21.593021 42.764523 -0.573116 2.100095 0.019862 -0.004163 207328.000000 0 0 1
-31.692945 19.011997 -20.817621 42.417828 -0.540332 2.083776 0.007866 0.004070 104523.000000 0 0 1
-31.969295 19.470897 -19.535421 42.223031 -0.547047 2.051803 0.018749 0.010708 -1022560.000000 0 0 1
-32.802325 18.358897 -18.909321 42.078546 -0.510247 2.036869 0.026145 0.009783 -239951.000000 0 0 1
-33.648325 18.683697 -17.853321 42.426777 -0.506876 2.005127 0.020533 0.002138 1140050.000000 0 0 1
-34.830590 19.440797 -18.268521 43.873152 -0.509081 2.000272 0.020134 -0.001008 1012900.000000 0 0 1
-35.982089 19.643597 -17.187821 44.452253 -0.499711 1.967801 0.042910 -0.005430 927387.000000 0 0 1
-35.624392 20.457197 -16.034321 44.098681 -0.521268 1.942927 0.041288 -0.010221 865558.000000 0 0 1
-36.688025 20.246497 -15.072321 44.532086 -0.504267 1.916076 0.049431 -0.005778 168527.000000 0 0 1
-36.611885 21.064997 -13.746221 44.419847 -0.522104 1.885423 0.052805 -0.007087 -143846.000000 0 0 1
-36.912855 22.467097 -13.794421 45.360945 -0.546757 1.879794 0.066744 -0.014383 211508.000000 0 0 1
36.115326 22.778097 -13.986321 44.930787 0.562691 1.887342 0.068758 -0.016536 -257750.000000 0 0 1
35.745166 24.203297 -14.269921 45.465890 0.595196 1.890052 0.069799 -0.019908 -50809.300000 0 0 1
36.096026 25.151697 -13.303021 45.961955 0.608575 1.864433 0.070760 -0.015185 45729.300000 0 0 1
35.594346 26.420997 -13.686321 46.393339 0.638542 1.870258 0.063427 -0.005900 693485.000000 0 0 1
36.604776 27.349497 -14.514021 47.943315 0.641679 1.878355 0.090264 0.000716 785893.000000 0 0 1
36.847926 27.046097 -15.910521 48.398406 0.633177 1.905766 0.093187 0.000491 -296188.000000 0 0 1
-36.553915 27.853497 -16.455221 48.813731 -0.651127 1.914634 0.101053 -0.006618 -746329.000000 0 0 1
-36.222665 27.476497 -17.933621 48.873859 -0.648947 1.946510 0.098177 -0.009804 71741.800000 0 0 1
-35.465053 26.321597 -18.265321 47.793498 -0.638480 1.962942 0.093257 -0.011103 656395.000000 0 0 1
-34.052455 26.455097 -18.106821 46.768567 -0.660491 1.968343 0.090629 -0.000734 507348.000000 0 0 1
-33.295175 25.189097 -18.604421 45.707590 -0.647673 1.989998 0.070875 -0.003654 -141842.000000 0 0 1
-33.217355 25.148197 -20.032221 46.228934 -0.648017 2.018977 0.062458 -0.001783 -68548.700000 0 0 1
-32.573685 23.969197 -20.357921 45.277062 -0.634380 2.037147 0.046926 0.003338 -380659.000000 0 0 1
-32.301685 23.789697 -21.859821 45.685887 -0.634795 2.069720 0.045091 0.002529 -796262.000000 0 0 1
-33.477165 23.881297 -22.565721 46.906809 -0.619637 2.072678 0.068142 -0.004407 -665005.000000 0 0 1
-33.262895 23.317497 -23.849921 47.105675 -0.611401 2.101693 0.062301 -0.005997 -143980.000000 0 0 1
-34.024265 24.068997 -24.984921 48.592319 -0.615680 2.110841 0.056452 0.000164 -502932.000000 0 0 1
-33.736605 25.399897 -25.150451 49.151383 -0.645347 2.107951 0.058337 -0.002318 130651.000000 0 0 1
-34.611513 26.157597 -26.012901 50.585054 -0.647170 2.110919 0.065249 -0.005481 446612.000000 0 0 1
-34.083806 27.637197 -26.147111 51.080250 -0.681328 2.108172 0.062799 -0.008111 -480955.000000 0 0 1
-32.829735 27.609497 -26.712361 50.533415 -0.699240 2.127756 0.061491 -0.008377 -1320430.000000 0 0 1
-32.294915 28.908797 -26.865111 50.994257 -0.730129 2.125659 0.065498 -0.010394 392389.000000 0 0 1
-30.864855 29.003697 -27.411571 50.450450 -0.754321 2.145203 0.053010 0.000817 102277.000000 0 0 1
-29.742855 28.623697 -26.635141 49.126207 -0.766226 2.143823 0.040303 0.001022 -401806.000000 0 0 1
-28.564115 28.724497 -27.374831 48.891582 -0.788198 2.165072 0.038877 0.008606 -164312.000000 0 0 1
-27.660095 29.928297 -27.082401 48.930975 -0.824764 2.157335 0.031458 0.003884 -427179.000000 0 0 1
-27.080805 30.081797 -25.794751 47.996393 -0.837849 2.138184 0.018838 -0.002645 -329204.000000 0 0 1
-27.996985 30.167397 -24.743021 48.022079 -0.822696 2.112087 0.032880 -0.008850 -335568.000000 0 0 1
-27.438095 30.706297 -23.364721 47.345918 -0.841547 2.086894 0.015563 -0.013501 324128.000000 0 0 1
-26.904905 32.035297 -23.363521 47.916472 -0.872223 2.080122 0.014076 -0.008828 357847.000000 0 0 1
-26.187565 32.457897 -22.203621 47.247269 -0.891913 2.060025 0.019988 0.014248 201046.000000 0 0 1
-25.643475 33.924997 -22.336721 48.035636 -0.923538 2.054434 0.015740 0.019293 -330840.000000 0 0 1
-26.619975 -33.143210 -22.395721 48.048556 0.894119 2.055681 0.010408 -0.006066 -439518.000000 0 0 1
-26.054495 -31.880510 -22.607721 46.971402 0.885622 2.072943 0.029231 -0.009129 -82861.300000 0 0 1
17.314975 8.718797 -25.062301 31.685087 0.466476 2.483207 0.051322 -0.028298 -865443.000000 0 0 1
16.081175 8.127497 -24.829121 30.678097 0.467962 2.513830 0.041710 -0.025796 -685003.000000 0 0 1
16.110475 6.766797 -25.029751 30.525815 0.397649 2.532126 0.028125 -0.028913 -393554.000000 0 0 1
14.801875 5.987797 -25.069611 29.722628 0.384405 2.574473 0.066507 -0.037394 -272125.000000 0 0 1
14.057775 6.058697 -23.844721 28.335482 0.406929 2.570877 0.078633 -0.053013 748876.000000 0 0 1
12.835375 5.318997 -24.005821 27.736583 0.392859 2.616930 0.090456 -0.055273 489977.000000 0 0 1
11.806375 5.435197 -22.864621 26.300623 0.431437 2.624695 0.086402 -0.056493 24761.800000 0 0 1
12.305375 4.913597 -21.625721 25.362127 0.379907 2.591886 0.090905 -0.040937 322389.000000 0 0 1
11.374075 5.092097 -20.564221 24.045503 0.420934 2.596774 0.097483 -0.031433 -411105.000000 0 1 0
11.577275 6.414697 -19.831021 23.842211 0.505968 2.553069 0.098772 -0.041781 -227158.000000 0 1 0
11.196475 6.424397 -18.473121 22.536418 0.520923 2.531685 0.092080 -0.031124 -223446.000000 0 1 0
11.180175 7.699297 -17.871321 22.442362 0.603072 2.491984 0.087938 -0.036245 711990.000000 0 1 0
12.592775 8.258597 -17.474221 23.067961 0.580456 2.430287 0.079305 -0.034184 519841.000000 0 1 0
13.233075 7.619697 -16.392821 22.403094 0.522441 2.391640 0.103436 -0.028188 115774.000000 0 1 0
14.529975 8.136697 -16.242321 23.262395 0.510484 2.343707 0.095347 -0.018927 -533194.000000 0 1 0
15.142275 7.908397 -14.861821 22.642989 0.481307 2.286772 0.098064 -0.023386 33241.400000 0 1 0
16.432675 8.530597 -14.910221 23.772223 0.478830 2.248765 0.078344 -0.019050 259614.000000 0 1 0
16.954475 8.215597 -13.676721 23.280957 0.451226 2.198718 0.069089 -0.015038 55547.600000 0 1 0
17.844575 9.477897 -13.257821 24.166696 0.488245 2.151484 0.113274 -0.024916 249753.000000 0 1 0
17.073775 10.644597 -13.016521 23.963536 0.557482 2.145017 0.154683 -0.027916 418667.000000 0 1 0
17.809475 11.680997 -12.403021 24.646663 0.580502 2.098133 0.182822 -0.050418 -842061.000000 0 1 0
16.928975 12.862297 -12.044721 24.435715 0.649731 2.086233 0.201970 -0.048950 -986405.000000 0 1 0
15.970075 12.500497 -11.090121 23.114855 0.664131 2.071204 0.209191 -0.036547 -26194.300000 0 1 0
15.385575 13.600597 -10.401221 23.019069 0.723896 2.039637 0.123086 -0.025888 627408.000000 0 1 0
14.355175 14.485797 -11.224321 23.278633 0.789927 2.073929 0.087397 -0.026207 -651024.000000 0 1 0
13.384475 15.028897 -10.430821 22.667464 0.843209 2.048980 0.121389 -0.034876 -568083.000000 0 1 0
12.938675 16.324897 -10.847621 23.485793 0.900600 2.050910 0.126117 -0.028865 104752.000000 0 1 0
11.911275 16.883097 -9.844821 22.887506 0.956379 2.015444 0.118563 -0.026783 -190943.000000 0 1 0
12.406475 16.857597 -8.496421 22.589563 0.936343 1.956403 0.091499 -0.020621 185121.000000 0 1 0
11.500475 17.261197 -7.470621 22.045862 0.983074 1.916509 0.080145 -0.013080 -33579.900000 0 1 0
11.982075 16.992797 -6.035121 21.650588 0.956638 1.853290 0.071015 -0.012561 72153.300000 0 1 0
12.938675 17.936897 -5.624121 22.820437 0.945889 1.819813 0.076068 -0.017022 1427.940000 0 1 0
13.542175 17.627197 -4.392121 22.658316 0.915714 1.765873 0.085792 -0.013121 -94732.200000 0 1 0
14.592175 18.686797 -3.971921 24.039636 0.907822 1.736781 0.076645 -0.016855 421487.000000 0 1 0
15.811275 18.579097 -4.722721 24.849212 0.865708 1.762015 0.094618 -0.027761 881623.000000 0 1 0
16.581675 19.787397 -4.471421 26.200890 0.873315 1.742295 0.082097 -0.022984 639248.000000 0 0 1
17.979975 19.850797 -5.187821 27.280893 0.834810 1.762125 0.070439 -0.014821 668717.000000 0 0 1
18.936875 19.061497 -4.496721 27.242731 0.788678 1.736617 0.072547 -0.031276 -71125.800000 0 0 1
19.185275 17.875697 -5.212421 26.735457 0.750077 1.767016 0.089478 -0.032107 -454766.000000 0 0 1
20.216575 16.961897 -4.534121 26.776372 0.698079 1.740949 0.112486 -0.042601 -662828.000000 0 0 1
21.485075 17.531997 -4.540121 28.099681 0.684426 1.733080 0.111000 -0.044343 183239.000000 0 0 1
22.479275 16.665097 -3.946721 28.259863 0.637945 1.710913 0.117758 -0.049258 998119.000000 0 0 1
23.961075 16.857697 -4.380221 29.622650 0.613101 1.719208 0.109057 -0.038929 376943.000000 0 0 1
24.589675 18.060197 -4.033121 30.774809 0.633483 1.702227 0.121995 -0.039840 -611469.000000 0 0 1
25.959775 17.823397 -3.962021 31.737691 0.601661 1.695959 0.098476 -0.025502 -384632.000000 0 0 1
26.807775 19.026197 -3.412021 33.049884 0.617224 1.674219 0.125326 -0.028357 44518.000000 0 0 1
26.950475 20.211697 -4.222321 33.950976 0.643474 1.695484 0.131767 -0.030290 168440.000000 0 0 1
27.415075 21.243497 -3.349121 34.843782 0.659237 1.667063 0.145479 -0.006637 -39536.200000 0 0 1
27.264775 22.662797 -3.984621 35.676989 0.693485 1.682716 0.089869 -0.006001 53878.200000 0 0 1
28.062375 23.106297 -5.089821 36.705642 0.688842 1.709911 0.081792 0.001467 211176.000000 0 0 1
27.849375 22.378797 -6.289721 36.276147 0.676911 1.745061 0.079667 -0.001079 -153593.000000 0 0 1
28.995875 22.754197 -7.230821 37.560605 0.665366 1.764516 0.063041 0.004600 -228405.000000 0 0 1
28.726875 24.046097 -7.842721 38.274749 0.696933 1.777164 0.050912 0.005260 864048.000000 0 0 1
29.895575 24.684297 -8.390421 39.666851 0.690207 1.783928 0.041529 0.002108 587988.000000 0 0 1
30.734875 24.000197 -9.499721 40.135853 0.662972 1.809753 0.047060 -0.007170 -28675.700000 0 0 1
30.093075 23.981197 -10.762721 39.956566 0.672848 1.843525 0.048868 0.000360 -104206.000000 0 0 1
30.938975 23.365597 -11.705621 40.499295 0.646831 1.864013 0.038387 -0.004340 -105218.000000 0 0 1
30.325775 22.768897 -13.023021 40.095815 0.644019 1.901594 0.063261 -0.006998 -2555.860000 0 0 1
30.422775 23.686997 -14.086221 41.049247 0.661552 1.921069 0.056532 -0.017989 127334.000000 0 0 1
30.184675 23.038897 -15.309421 40.942444 0.651937 1.954034 0.073520 -0.023636 -265749.000000 0 0 1
30.551675 23.898297 -16.498121 42.151174 0.663808 1.972953 0.074675 -0.011973 -71749.000000 0 0 1
31.942475 23.934097 -16.755921 43.288839 0.643045 1.968251 0.067667 -0.008011 -35988.300000 0 0 1
32.099075 24.897297 -17.778121 44.342842 0.659709 1.983322 0.090402 -0.014044 1004590.000000 0 0 1
33.589475 25.336697 -18.052321 45.783046 0.646250 1.976104 0.092578 -0.014877 1119080.000000 0 0 1
34.432675 24.317097 -18.571421 46.063304 0.614889 1.985776 0.095607 -0.011243 -553564.000000 0 0 1
35.743675 24.532997 -18.152221 46.999802 0.601512 1.967325 0.103970 -0.008993 -415005.000000 0 0 1
36.702675 23.313897 -18.120521 47.106023 0.565907 1.965652 0.084678 -0.013361 204806.000000 0 0 1
36.894375 22.695097 -19.392521 47.458742 0.551475 1.991736 0.075682 -0.000981 -139582.000000 0 0 1
-36.417626 23.173397 -20.143221 47.634013 -0.566701 2.007412 0.083082 0.000904 -455897.000000 0 0 1
-36.077826 22.245997 -21.347121 47.457281 -0.552544 2.037357 0.087934 -0.007528 -61215.600000 0 0 1
-35.613526 20.933997 -21.073021 46.374861 -0.531408 2.042502 0.074421 -0.007862 182367.000000 0 0 1
-35.186126 20.284197 -22.256621 46.312734 -0.522948 2.072104 0.053642 -0.002623 -36388.600000 0 0 1
-35.033526 18.751997 -22.059221 45.448813 -0.491455 2.077576 0.028603 0.002745 233185.000000 0 0 1
-36.269826 18.091897 -21.839721 46.041182 -0.462698 2.065024 0.047321 -0.007440 273548.000000 0 0 1
-36.076026 16.693497 -22.063221 45.463592 -0.433390 2.077496 0.025378 -0.006664 63079.200000 0 0 1
37.014175 15.873197 -21.945521 45.865166 0.405120 2.069718 0.034851 -0.007890 -111634.000000 0 0 1
35.935075 16.211697 -22.799021 45.540576 0.423800 2.095124 0.078802 -0.011539 397915.000000 0 0 1
34.818175 15.346197 -22.790121 44.353136 0.415137 2.110444 0.091467 -0.005836 -72090.500000 0 0 1
35.079475 13.934997 -23.353121 44.386056 0.378125 2.124847 0.053395 -0.010627 -817711.000000 0 0 1
35.056575 13.977897 -24.765821 45.140790 0.379406 2.151527 0.056866 -0.007567 571416.000000 0 0 1
35.619075 12.760997 -25.345921 45.540940 0.344017 2.161027 0.039862 -0.006376 49181.700000 0 0 1
35.517575 12.760497 -26.895811 46.343425 0.344912 2.189965 0.046633 -0.002295 1327750.000000 0 0 1
34.127575 12.509097 -27.283621 45.448486 0.351333 2.214697 0.039117 -0.000184 1547080.000000 0 0 1
33.623075 13.475397 -28.149791 45.874919 0.381177 2.231434 0.051944 -0.000864 -242178.000000 0 0 1
34.122275 13.377297 -29.586091 47.102213 0.373626 2.249938 0.052351 -0.010224 -855921.000000 0 0 1
35.398875 13.915697 -29.731041 48.276928 0.374554 2.234253 0.053280 -0.004275 -943296.000000 0 0 1
35.724875 13.915097 -31.108281 49.372277 0.371428 2.252447 0.057921 -0.011842 -47509.500000 0 0 1
-37.183126 14.371697 -31.316191 50.693534 -0.368824 2.236681 0.065536 -0.013693 397451.000000 0 0 1
-36.208926 13.463897 -30.887851 49.461320 -0.355997 2.245268 0.065004 -0.013875 -310647.000000 0 0 1
-36.100026 13.157797 -29.460321 48.417456 -0.349517 2.224921 0.043056 -0.015039 -861189.000000 0 0 1
-34.833926 12.303997 -29.173101 47.072928 -0.339539 2.239211 0.050624 -0.021236 203843.000000 0 0 1
-34.999326 10.970097 -29.613231 47.140633 -0.303739 2.250020 0.056915 -0.023684 655240.000000 0 0 1
-34.016326 10.043497 -29.108231 45.883236 -0.287098 2.258026 0.064538 -0.029771 397317.000000 0 0 1
-34.428626 8.582597 -29.480211 46.131054 -0.244307 2.264063 0.089394 -0.031815 -678108.000000 0 0 1
-34.465926 8.463497 -30.900591 47.057171 -0.240797 2.287179 0.091559 -0.031994 456229.000000 0 0 1
-35.060426 7.238397 -31.354671 47.589319 -0.203594 2.290098 0.101256 -0.028107 -82613.100000 0 0 1
-36.382926 6.682197 -30.832281 48.155982 -0.181639 2.265631 0.115377 -0.010697 -719927.000000 0 0 1
-36.190926 6.019497 -29.595321 47.137040 -0.164817 2.249593 0.120802 -0.023854 621835.000000 0 0 1
37.055975 5.202797 -29.304131 47.528375 0.139492 2.235163 0.111496 -0.011782 427688.000000 0 0 1
37.152775 4.477597 -27.960061 46.713409 0.119940 2.212479 0.111610 -0.010158 -177157.000000 0 0 1
-36.491126 3.309997 -28.118021 46.186378 -0.090459 2.225337 0.142966 -0.003124 108294.000000 0 0 1
-36.831826 2.412797 -27.050851 45.761922 -0.065415 2.203245 0.148067 -0.004661 91492.600000 0 0 1
-35.833626 1.228597 -26.923251 44.837704 -0.034273 2.214873 0.158944 -0.008764 678169.000000 0 0 1
-34.530326 1.648397 -26.477981 43.544737 -0.047701 2.224416 0.140475 -0.009467 236741.000000 0 0 1
-33.795626 0.497097 -26.301141 42.826878 -0.014708 2.232076 0.129314 -0.007246 522099.000000 0 0 1
-32.538126 0.599897 -25.349291 41.251377 -0.018435 2.232558 0.113791 -0.002000 861388.000000 0 0 1
-32.989826 0.399197 -24.035021 40.818748 -0.012100 2.200398 0.107506 -0.002741 175055.000000 0 0 1
-32.018326 0.670697 -23.060021 39.463751 -0.020944 2.194856 0.110901 -0.002011 -531158.000000 0 0 1
-32.484726 0.489397 -21.621321 39.025357 -0.015064 2.157997 0.112915 0.001388 -435945.000000 0 0 1
-32.723326 -0.853903 -21.287021 39.047183 0.026089 2.147378 0.134184 -0.006120 273533.000000 0 0 1
-33.175826 -1.146103 -19.992921 38.751334 0.034533 2.112888 0.140004 -0.015334 -1008980.000000 0 0 1
-34.647626 -0.982803 -19.720421 39.878803 0.028358 2.088066 0.127893 -0.007587 -1163710.000000 0 0 1
-35.481226 -2.051003 -20.191321 40.875585 0.057741 2.087446 0.126038 -0.009252 294508.000000 0 0 1
-36.805926 -1.724003 -19.804521 41.831417 0.046806 2.063985 0.114124 -0.008760 453547.000000 0 0 1
36.637475 -2.954703 -19.586421 41.649282 -0.080473 2.060393 0.099982 -0.013737 98213.200000 0 0 1
36.123975 -3.758403 -20.653821 41.780946 -0.103669 2.087867 0.101438 -0.004876 430834.000000 0 0 1
37.054875 -4.296103 -21.585621 43.098252 -0.115424 2.095373 0.106595 -0.004672 -174489.000000 0 0 1
36.346275 -5.125303 -22.642621 43.127818 -0.140089 2.123526 0.101273 0.001240 -680202.000000 0 0 1
36.077775 -6.470003 -22.243521 42.874713 -0.177449 2.116246 0.092934 0.003868 442689.000000 0 0 1
35.482475 -7.277303 -23.292821 43.064146 -0.202290 2.142287 0.097508 0.006141 -399603.000000 0 0 1
34.055975 -6.966103 -23.701921 42.072759 -0.201765 2.169238 0.066379 0.010861 -1145820.000000 0 0 1
33.929475 -5.809103 -24.534521 42.271712 -0.169567 2.190017 0.082291 0.006621 256175.000000 0 0 1
32.544875 -5.519603 -24.680321 41.215933 -0.168001 2.212805 0.048005 0.003537 384569.000000 0 0 1
32.257675 -4.398103 -25.658651 41.451988 -0.135507 2.238261 0.078994 -0.022211 -112772.000000 0 0 1
32.444675 -4.716203 -27.026771 42.489362 -0.144350 2.260208 0.080999 -0.021303 195533.000000 0 0 1
32.262775 -3.577003 -27.813131 42.746367 -0.110420 2.279243 0.090249 -0.031433 142316.000000 0 0 1
31.600575 -3.893203 -29.213841 43.211131 -0.122583 2.313215 0.090263 -0.028386 225379.000000 0 0 1
31.308475 -2.813803 -30.068991 43.500371 -0.089633 2.333993 0.075007 -0.028479 -168106.000000 0 0 1
30.704075 -3.221003 -31.230901 43.914511 -0.104522 2.361964 0.079151 -0.032294 -922096.000000 0 0 1
30.160575 -2.070903 -32.117431 44.107576 -0.068555 2.386432 0.073045 -0.036294 166521.000000 0 0 1
28.978275 -1.381603 -31.694361 42.967217 -0.047641 2.400365 0.051857 -0.023423 1464400.000000 0 0 1
27.746575 -2.141803 -31.673091 42.162121 -0.077039 2.420707 0.063096 -0.023245 612232.000000 0 0 1
27.044375 -2.479303 -33.023041 42.755893 -0.091420 2.453348 0.062366 -0.030372 -471837.000000 0 0 1
27.756875 -3.547503 -33.669241 43.779523 -0.127117 2.448171 0.069965 -0.033799 243217.000000 0 0 1
27.191675 -3.739403 32.916115 42.858382 -0.136663 0.695052 0.067239 -0.031206 -129330.000000 0 0 1
27.859875 -4.798803 32.021353 42.714965 -0.170574 0.723260 0.046621 -0.035823 -421179.000000 0 0 1
29.228975 -4.691203 31.747712 43.408036 -0.159141 0.750455 0.058833 -0.028407 -362870.000000 0 0 1
29.581775 -3.974103 30.583212 42.734152 -0.133543 0.773225 0.089819 -0.030933 -439833.000000 0 0 1
30.031075 -2.530603 30.849422 43.127210 -0.084068 0.773725 0.065181 -0.035404 -274330.000000 0 0 1
31.358075 -2.587003 31.335422 44.406420 -0.082312 0.787455 0.069381 -0.029327 -189590.000000 0 0 1
31.769675 -1.314903 31.718262 44.912018 -0.041365 0.786636 0.063300 -0.024591 -80503.200000 0 0 1
33.243575 -1.301803 32.160199 46.272112 -0.039140 0.802344 0.061277 -0.026412 234486.000000 0 0 1
34.213975 -1.647703 31.177882 46.318154 -0.048122 0.832371 0.079812 -0.025335 -284822.000000 0 0 1
35.475675 -1.823503 31.760892 47.650844 -0.051356 0.841247 0.087516 -0.019342 152810.000000 0 0 1
36.504375 -2.443003 30.755982 47.796110 -0.066824 0.871757 0.092881 -0.017356 250061.000000 0 0 1
36.796175 -1.676503 29.602382 47.255372 -0.045530 0.893826 0.081402 -0.008422 -456256.000000 0 0 1
-36.483426 -2.230903 28.978332 46.645054 0.061072 0.900457 0.085174 -0.010448 -295793.000000 0 0 1
-36.102726 -1.488703 27.645422 45.496071 0.041212 0.917705 0.092555 -0.010025 -458930.000000 0 0 1
-37.012326 -1.599603 26.619972 45.619009 0.043191 0.947730 0.088257 -0.030890 -693498.000000 0 0 1
-36.374526 -1.413703 25.389112 44.381435 0.038846 0.961774 0.090686 -0.032605 -554675.000000 0 0 1
-27.657615 14.840897 11.720879 33.504849 -0.492492 1.213411 0.090496 -0.019197 -443917.000000 0 0 1
-28.792345 14.269797 12.295079 34.406325 -0.460130 1.205368 0.063360 0.000161 -168513.000000 0 0 1
-29.493005 15.173097 13.101979 35.661212 -0.475152 1.194583 0.083388 -0.010303 -842.795000 0 0 1
-30.802115 14.568297 13.662579 36.710647 -0.441786 1.189451 0.091416 -0.012397 337018.000000 0 0 1
-31.560485 15.450197 14.503079 38.014630 -0.455247 1.179364 0.105470 -0.019525 -454403.000000 0 0 1
-32.687585 14.777597 14.996079 38.881075 -0.424587 1.174840 0.122436 -0.018854 -384996.000000 0 0 1
-33.594025 15.612697 15.917179 40.319616 -0.435049 1.164973 0.111651 -0.022992 27250.200000 0 0 1
-33.102275 15.961697 17.191579 40.571995 -0.449301 1.133237 0.098746 -0.020765 322254.000000 0 0 1
-34.223893 15.967097 18.061079 41.861983 -0.436530 1.124704 0.122124 -0.046292 645223.000000 0 0 1
-33.684585 16.112997 19.508879 42.129281 -0.446178 1.089339 0.119857 -0.033517 81562.400000 0 0 1
-32.802945 15.096997 19.903679 41.232378 -0.431331 1.067039 0.101232 -0.032175 208873.000000 0 0 1
-31.620465 15.455497 20.615279 40.788674 -0.454633 1.040931 0.099693 -0.018004 681377.000000 0 0 1
-31.781845 16.085597 22.057879 41.897281 -0.468536 1.016347 0.104589 -0.032542 -844764.000000 0 0 1
-32.446625 17.353097 21.927779 42.833876 -0.491114 1.033371 0.087548 -0.027170 215071.000000 0 0 1
-33.037675 17.828797 23.078079 44.067581 -0.494863 1.019611 0.091484 -0.033190 98529.000000 0 0 1
-34.063263 16.908597 23.907879 44.919853 -0.460754 1.009559 0.085844 -0.033481 -80024.400000 0 0 1
-35.194164 16.341597 23.329179 45.276126 -0.434704 1.029480 0.118354 -0.038997 -202437.000000 0 0 1
-36.192775 17.312197 23.049779 46.270092 -0.446164 1.049324 0.098582 -0.043927 -197929.000000 0 0 1
36.788396 16.678697 22.863579 46.414526 0.425652 1.055727 0.084261 -0.046006 385812.000000 0 0 1
36.285566 15.994297 23.990879 46.346760 0.415168 1.026707 0.088519 -0.045351 263577.000000 0 0 1
35.103506 15.213397 23.773179 45.042953 0.408953 1.014801 0.101584 -0.046667 625159.000000 0 0 1
34.761366 14.664497 25.179579 45.358695 0.399210 0.982288 0.110133 -0.031540 -288503.000000 0 0 1
34.143436 15.657897 26.003979 45.685347 0.429976 0.965267 0.090057 -0.031801 239725.000000 0 0 1
33.684426 15.186597 27.305179 45.943945 0.423560 0.934383 0.091132 -0.029248 -405296.000000 0 0 1
32.707166 14.080297 27.522579 45.005620 0.406516 0.912795 0.093719 -0.023599 -1042530.000000 0 0 1
33.171306 12.838197 27.065879 44.695824 0.369273 0.920330 0.085705 -0.030531 -19953.800000 0 0 1
32.219876 11.786197 27.113079 43.728182 0.350685 0.902007 0.088697 -0.018295 105633.000000 0 0 1
32.830606 10.458397 26.569679 43.510626 0.308393 0.913918 0.091742 -0.014546 -321092.000000 0 0 1
33.790556 9.972597 27.457479 44.667298 0.286983 0.908777 0.082547 -0.009060 -357494.000000 0 0 1
34.102616 8.562597 27.185279 44.444863 0.245998 0.912635 0.075874 -0.002722 -218591.000000 0 0 1
35.273586 8.113197 28.065879 45.801129 0.226076 0.911226 0.071305 -0.002143 -821874.000000 0 0 1
36.484036 8.754197 27.840879 46.720824 0.235494 0.932412 0.076437 -0.011368 -83567.300000 0 0 1
-36.938475 8.148797 28.737879 47.504942 -0.217127 0.921099 0.072822 -0.009015 1096320.000000 0 0 1
-35.600777 8.904597 29.046179 46.801578 -0.245095 0.901258 0.076678 -0.015881 1082980.000000 0 0 1
-34.653656 8.704797 27.992979 45.390046 -0.246102 0.906226 0.077309 -0.019615 -46877.700000 0 0 1
-33.388885 9.269797 28.218579 44.688197 -0.270811 0.887368 0.094934 -0.025390 22094.600000 0 0 1
-32.814845 9.898397 26.942679 43.597021 -0.292964 0.904608 0.093646 -0.027507 -15083.000000 0 0 1
-32.166785 8.977297 26.061579 42.361537 -0.272161 0.908134 0.093879 -0.026563 311009.000000 0 0 1
-31.244715 9.709997 25.260079 41.335068 -0.301310 0.913340 0.095221 -0.025717 628559.000000 0 0 1
-30.436625 8.785797 24.230079 39.883268 -0.281020 0.917856 0.104819 -0.024642 562781.000000 0 0 1
-29.399215 9.460197 23.552879 38.840022 -0.311320 0.919262 0.103682 -0.028549 198031.000000 0 0 1
-28.646965 8.538497 22.759979 37.570882 -0.289675 0.920041 0.100220 -0.011412 8856.350000 0 0 1
-27.616005 9.137497 21.798579 36.349906 -0.319538 0.927686 0.096605 -0.009509 -495509.000000 0 0 1
-26.456695 9.543597 22.533179 36.038606 -0.346197 0.895343 0.095215 -0.016681 1119080.000000 0 0 1
-25.387335 10.155697 21.772979 34.953077 -0.380532 0.898326 0.082554 -0.005798 776636.000000 0 0 1
-24.669625 9.331497 20.710979 33.535234 -0.361624 0.905123 0.072502 -0.005771 -1079960.000000 0 0 1
-25.336935 9.232997 19.447679 33.247868 -0.349453 0.946002 0.077247 -0.009775 331234.000000 0 0 1
-24.676225 8.537597 18.374779 31.928657 -0.333093 0.957587 0.089676 -0.021085 -141725.000000 0 0 1
-24.613825 6.988397 18.570379 31.615456 -0.276642 0.942975 0.092800 -0.011463 -532087.000000 0 0 1
-23.547425 6.567297 19.374979 31.192955 -0.271985 0.900609 0.080422 -0.007110 175853.000000 0 0 1
-23.507625 5.214497 19.829779 31.193261 -0.218287 0.881872 0.082159 -0.008453 -244610.000000 0 0 1
-23.312525 4.061397 18.787179 30.214680 -0.172484 0.899770 0.079112 -0.016777 -77299.800000 0 0 1
-24.500325 3.856697 18.022879 30.658836 -0.156133 0.942394 0.113152 -0.014539 707397.000000 0 0 1
-24.454325 2.882597 17.013979 29.929899 -0.117335 0.966162 0.099014 -0.018853 -276322.000000 0 0 1
-24.512025 1.414597 17.512179 30.158197 -0.057646 0.951236 0.085675 -0.012179 -82363.200000 0 0 1
-23.255425 0.831897 17.828079 29.314625 -0.035757 0.917052 0.057431 -0.005815 490714.000000 0 0 1
-23.338125 -0.419403 18.511879 29.791503 0.017969 0.900292 0.074432 -0.010939 -312872.000000 0 0 1
-21.981925 -1.144403 18.527479 28.771204 0.052014 0.871134 0.074713 0.003169 587597.000000 0 0 1
-20.944125 -0.560903 19.343179 28.515427 0.026775 0.825294 0.047698 0.007670 1107880.000000 0 0 1
-19.979325 -1.526103 19.789479 28.162491 0.076236 0.791626 0.030924 0.006585 599686.000000 0 0 1
-18.986025 -1.051103 20.873979 28.236447 0.055305 0.738831 0.034796 0.008614 721829.000000 0 0 1
-19.601425 -0.930303 22.156179 29.596919 0.047425 0.724852 0.028843 0.006992 406814.000000 0 0 1
-18.518825 -0.666003 23.030179 29.559763 0.035948 0.677558 0.035337 0.003832 -506127.000000 0 0 1
-18.833725 -0.759703 24.538279 30.942099 0.040316 0.655015 0.042620 0.002464 98738.000000 0 0 1
-19.684125 0.266297 25.048679 31.858625 -0.013528 0.666088 0.041842 -0.010262 437185.000000 0 0 1
-21.068925 -0.007503 24.815279 32.552999 0.000356 0.703931 0.083867 -0.020445 -311299.000000 0 0 1
-21.900725 1.053697 25.563679 33.678683 -0.048075 0.708949 0.071075 -0.027344 -535688.000000 0 0 1
-21.735825 2.413397 25.188979 33.357986 -0.110580 0.714973 0.069671 -0.017748 1380440.000000 0 0 1
-22.925825 2.949297 24.501579 33.684109 -0.127942 0.756281 0.076762 -0.017813 642586.000000 0 0 1
-22.602925 3.984797 23.378879 32.761911 -0.174503 0.776174 0.086730 -0.015733 -9907.960000 0 0 1
-21.998325 3.497597 22.209379 31.454984 -0.157674 0.786865 0.087267 -0.011139 750367.000000 0 0 1
-20.652725 3.054097 22.371879 30.600058 -0.146815 0.750855 0.050184 -0.002416 -98771.000000 0 0 1
-19.965525 2.453897 21.103879 29.155060 -0.122293 0.761431 0.036169 -0.000340 34023.800000 0 0 1
-19.492425 3.398797 20.155779 28.244679 -0.172629 0.776154 0.035467 -0.000367 231085.000000 0 0 1
-19.034725 2.762397 19.024379 27.053255 -0.144118 0.790880 0.032983 -0.000846 -125365.000000 0 0 1
-18.614525 3.609597 17.810279 26.014146 -0.191536 0.816689 0.034744 -0.009202 1362340.000000 0 0 1
-17.233325 4.082497 17.887779 25.171947 -0.232607 0.780412 0.054801 -0.020692 1516000.000000 0 0 1
-16.841625 4.647897 16.633779 24.123140 -0.269274 0.809948 0.057518 -0.014293 370511.000000 0 1 0
-15.427725 5.289797 16.507279 23.205321 -0.330314 0.779369 0.061606 -0.014135 139464.000000 0 1 0
-15.124125 6.500597 17.189279 23.800593 -0.405943 0.763789 0.058574 -0.017884 -278239.000000 0 1 0
-15.760025 7.674697 16.789879 24.273018 -0.453171 0.806943 0.065125 -0.026185 -680978.000000 0 1 0
-15.390025 8.246397 15.405579 23.284926 -0.491897 0.847830 0.042006 -0.031264 203386.000000 0 1 0
-15.951525 7.547497 14.236879 22.673875 -0.441940 0.891947 0.083490 -0.030520 -1197580.000000 0 1 0
-17.301825 7.644597 14.112479 23.599896 -0.416045 0.929807 0.055048 -0.033660 -1744370.000000 0 1 0
-17.805325 6.660997 13.033779 23.049466 -0.357983 0.969793 0.068059 -0.034275 -273058.000000 0 1 0
-17.421225 5.321997 13.401879 22.614887 -0.296485 0.936497 0.055324 -0.022725 443317.000000 0 1 0
-17.768625 4.409297 12.376479 22.098488 -0.243237 0.976338 0.038854 -0.028682 -158191.000000 0 1 0
-17.690225 3.006697 12.962479 22.136173 -0.168355 0.945202 0.058439 -0.005025 192766.000000 0 1 0
-18.640925 2.672797 14.004679 23.468254 -0.142413 0.931352 0.070241 -0.017365 468771.000000 0 1 0
-18.645225 1.298797 14.344879 23.560705 -0.069546 0.916189 0.078014 -0.006604 261399.000000 0 1 0
-19.971925 0.856797 15.043079 25.018116 -0.042874 0.925685 0.121248 -0.008471 680074.000000 0 0 1
-21.049225 0.630397 14.129979 25.359881 -0.029940 0.979812 0.117159 -0.020963 370990.000000 0 0 1
-22.151525 0.089397 14.821179 26.652681 -0.004036 0.981127 0.091922 -0.021345 138609.000000 0 0 1
-23.359925 -0.273003 13.895779 27.181856 0.011686 1.034198 0.108347 -0.016948 179888.000000 0 0 1
-23.061925 -1.396603 13.202479 26.610305 0.060485 1.051647 0.122291 -0.037186 -355584.000000 0 0 1
-24.137425 -1.901403 12.510979 27.253536 0.078612 1.093861 0.106506 -0.025202 -767334.000000 0 0 1
-23.913225 -3.252203 11.779479 26.854707 0.135171 1.116714 0.112280 -0.034801 -89310.500000 0 0 1
-23.573025 -4.272003 12.707179 27.118442 0.179278 1.083113 0.112263 -0.025920 217297.000000 0 0 1
-23.383625 -5.522903 12.051179 26.879868 0.231936 1.105895 0.135014 -0.039044 120288.000000 0 0 1
-23.778125 -6.749103 12.995179 27.925334 0.276563 1.086761 0.139194 -0.030831 181597.000000 0 0 1
-25.124335 -6.826103 13.412479 29.286900 0.265289 1.095088 0.114892 -0.026944 160287.000000 0 0 1
-25.369755 -8.058003 13.989679 30.071033 0.307545 1.086912 0.122285 -0.035868 187295.000000 0 0 1
-26.406125 -7.984503 15.150379 31.473317 0.293633 1.068577 0.116563 -0.026872 -551984.000000 0 0 1
-27.723735 -7.776603 14.781479 32.366235 0.273475 1.096520 0.120566 -0.034691 -759404.000000 0 0 1
-28.524405 -8.157903 15.878079 33.649762 0.278561 1.079394 0.116568 -0.026146 230509.000000 0 0 1
-30.025415 -7.675903 15.976179 34.866651 0.250286 1.094818 0.112354 -0.028945 1493440.000000 0 0 1
-30.975145 -8.420603 15.175079 35.505622 0.265436 1.129182 0.112387 -0.036099 759279.000000 0 0 1
-31.152295 -9.820603 15.239379 36.043701 0.305384 1.134260 0.109886 -0.039110 -772441.000000 0 0 1
-31.218835 -10.581303 16.548379 36.883987 0.326788 1.105531 0.095437 -0.037737 469512.000000 0 0 1
-29.924095 -10.781903 17.140279 36.131566 0.345829 1.076531 0.101855 -0.027393 824666.000000 0 0 1
-30.132065 -11.504603 18.370679 37.118447 0.364724 1.053053 0.087653 -0.028409 -796451.000000 0 0 1
-28.959755 -11.450203 19.298979 36.636391 0.376520 1.015999 0.097315 -0.018068 -595524.000000 0 0 1
-27.965315 -12.356103 18.818479 35.900798 0.416045 1.019044 0.073143 -0.019966 512274.000000 0 0 1
-26.753125 -12.196703 19.584779 35.327791 0.427748 0.983187 0.085393 -0.018482 -235194.000000 0 0 1
-25.618105 -12.943203 18.942879 34.389627 0.467828 0.987437 0.078309 -0.011687 -967545.000000 0 0 1
-25.267495 -12.288403 17.693779 33.204231 0.452654 1.008799 0.083616 -0.008464 563548.000000 0 0 1
-24.554425 -13.258103 16.863879 32.605023 0.495093 1.027200 0.081662 -0.017485 10647.900000 0 0 1
-24.179825 -12.929603 15.444179 31.470005 0.491042 1.057836 0.079487 -0.021974 227844.000000 0 0 1
-23.157825 -11.933803 15.284879 30.204768 0.475832 1.040207 0.091919 -0.029685 278412.000000 0 0 1
-23.058625 -11.544203 13.898779 29.294110 0.464164 1.076450 0.091974 -0.026519 -26679.600000 0 0 1
-21.737625 -10.870903 13.485079 27.794752 0.463725 1.064243 0.092378 -0.035251 -744628.000000 0 0 1
-21.570925 -9.516803 13.995979 27.418274 0.415501 1.035075 0.103627 -0.035426 1056400.000000 0 0 1
-20.219125 -9.015103 13.942479 26.162527 0.419414 1.008751 0.126118 -0.031977 661098.000000 0 0 1
-19.633525 -8.806003 12.526279 24.898367 0.421621 1.043618 0.125531 -0.017556 -803145.000000 0 1 0
-19.233325 -9.992103 11.941779 24.746091 0.479142 1.067207 0.116884 -0.027770 104024.000000 0 1 0
-18.785825 -9.909003 10.590179 23.732835 0.485383 1.108254 0.123252 -0.014323 -719616.000000 0 1 0
-18.316325 -11.217903 10.005379 23.694656 0.549526 1.134856 0.111569 -0.007462 742264.000000 0 1 0
-16.909225 -11.460803 9.924279 22.710421 0.595660 1.118544 0.116343 -0.019691 1009940.000000 0 1 0
-16.202125 -11.613603 11.164779 22.848127 0.621909 1.060252 0.113576 -0.019814 464399.000000 0 1 0
-14.692625 -11.991303 10.921479 21.884773 0.684508 1.048300 0.110931 -0.026405 813422.000000 0 1 0
-14.337725 -13.342103 10.648779 22.293016 0.749444 1.072792 0.099234 -0.030784 506469.000000 0 1 0
-12.947525 -13.604103 10.779279 21.654165 0.810121 1.049745 0.101200 -0.030247 326794.000000 0 1 0
-12.630025 -15.089603 10.701379 22.399401 0.873897 1.072701 0.110185 -0.031329 -167005.000000 0 1 0
-12.709025 -15.744003 9.411379 22.315174 0.891663 1.135424 0.088102 -0.030105 240438.000000 0 1 0
-12.665025 -17.091703 9.599679 23.338445 0.933077 1.146889 0.082075 -0.024254 -181011.000000 0 1 0
-13.092225 -17.795703 8.322879 23.608552 0.936513 1.210516 0.085287 -0.020568 -127886.000000 0 1 0
-12.175825 -17.652903 7.252979 22.638052 0.966993 1.244656 0.084171 -0.023463 29810.500000 0 1 0
-12.426525 -18.676303 6.325479 23.307392 0.983697 1.295956 0.061280 -0.010564 -416165.000000 0 1 0
-11.580725 -18.579303 5.073879 22.473272 1.013411 1.343059 0.066505 -0.009397 -349045.000000 0 1 0
-11.974325 -19.291703 3.917579 23.041304 1.015296 1.399942 0.088320 -0.019620 214019.000000 0 1 0
-10.964525 -19.173603 2.940479 22.282151 1.051329 1.438445 0.093036 -0.024477 173439.000000 0 1 0
-11.325025 -19.993603 1.718179 23.042406 1.055425 1.496161 0.104222 -0.024487 16307.200000 0 1 0
-11.243025 -21.406303 1.931979 24.256297 1.087177 1.491063 0.101945 -0.036051 -128474.000000 0 1 0
-11.637425 -22.290103 0.885979 25.160749 1.089634 1.535576 0.103682 -0.036917 398282.000000 0 0 1
-10.628625 -22.394003 -0.331521 24.790501 1.127659 1.584170 0.103131 -0.033705 468028.000000 0 1 0
-10.601925 -21.314003 -1.257221 23.838375 1.109218 1.623560 0.099747 -0.039581 527073.000000 0 1 0
-11.713525 -21.416203 -2.176521 24.507094 1.070300 1.659725 0.116772 -0.034027 247055.000000 0 1 0
-12.537825 -20.169103 -2.185121 23.848785 1.014620 1.662549 0.101379 -0.029711 -390006.000000 0 1 0
-13.416425 -20.010903 -1.087521 24.116787 0.980175 1.615906 0.111098 -0.032146 652077.000000 0 1 0
-14.436425 -19.049603 -1.415021 23.943684 0.922301 1.629929 0.110060 -0.021064 619155.000000 0 1 0
26.846775 -20.147903 -4.073521 33.812437 -0.643807 1.691564 0.088847 -0.033927 -157668.000000 0 0 1
25.545375 -20.268003 -3.560421 32.802968 -0.670711 1.679550 0.076368 -0.029815 -230458.000000 0 0 1
25.536875 -21.333003 -2.612521 33.377451 -0.695945 1.649149 0.058764 -0.025003 239335.000000 0 0 1
24.187275 -21.640803 -1.862721 32.508743 -0.729889 1.628127 0.057818 -0.026128 439784.000000 0 0 1
23.216075 -22.038303 -2.800121 32.132750 -0.759378 1.658049 0.071608 -0.034685 -565546.000000 0 0 1
22.082775 -22.573403 -2.179821 31.653737 -0.796385 1.639715 0.065424 -0.028678 -725253.000000 0 0 1
21.090375 -23.076003 -3.187621 31.423984 -0.830326 1.672410 0.090043 -0.038305 -735416.000000 0 0 1
20.476575 -22.073403 -3.946721 30.366130 -0.822909 1.701136 0.092575 -0.042198 -492563.000000 0 0 1
19.568175 -22.749303 -4.793821 30.387908 -0.860430 1.729212 0.087002 -0.040577 224166.000000 0 0 1
18.589375 -21.797503 -5.569221 29.184109 -0.864667 1.762805 0.076773 -0.026079 552431.000000 0 0 1
17.598975 -21.020403 -4.863021 27.842957 -0.873761 1.746356 0.083047 -0.021968 806605.000000 0 0 1
18.081275 -20.178803 -3.808221 27.360905 -0.840166 1.710434 0.075672 -0.023638 44554.200000 0 0 1
16.869675 -19.729603 -2.922521 26.122486 -0.863381 1.682909 0.097705 -0.019109 478843.000000 0 0 1
16.295275 -20.770503 -2.139421 26.486353 -0.905554 1.651659 0.089712 -0.026093 -634147.000000 0 0 1
15.291375 -20.128303 -1.467621 25.320518 -0.921119 1.628791 0.089079 -0.019363 -1184400.000000 0 0 1
14.875575 -20.812803 -0.136021 25.582689 -0.950251 1.576113 0.088643 -0.022530 -98500.800000 0 0 1
14.032875 -21.929703 -0.093121 26.035401 -1.001552 1.574373 0.095098 -0.031571 -65830.900000 0 0 1
13.637175 -22.251503 1.248679 26.127785 -1.020971 1.522987 0.092651 -0.022948 103809.000000 0 0 1
12.585275 -23.368603 1.447479 26.581496 -1.076783 1.516315 0.094528 -0.028782 133281.000000 0 0 1
13.150475 -24.681403 1.530979 28.008044 -1.081247 1.516107 0.094383 -0.023118 392926.000000 0 0 1
12.327975 -25.694713 0.967779 28.515502 -1.123450 1.536851 0.090404 -0.025895 135479.000000 0 0 1
12.771675 -27.025533 1.610179 29.934725 -1.129326 1.516981 0.093416 -0.018865 102979.000000 0 0 1
12.432375 -27.117723 2.963579 29.978620 -1.140930 1.471778 0.112123 -0.026744 59834.600000 0 0 1
12.938875 -28.268563 3.603079 31.297098 -1.141547 1.455415 0.107670 -0.030019 -108654.000000 0 0 1
12.358475 -28.468263 5.008079 31.436519 -1.161231 1.410807 0.120217 -0.028635 -135222.000000 0 0 1
13.049775 -29.425603 5.790879 32.706223 -1.153375 1.392801 0.116591 -0.027746 -181365.000000 0 0 1
12.574575 -29.551373 7.092779 32.889377 -1.168489 1.353433 0.120278 -0.030380 -76189.700000 0 0 1
13.317975 -30.675343 7.917179 34.366071 -1.161194 1.338330 0.107554 -0.017759 382212.000000 0 0 1
12.803075 -30.982823 9.216679 34.767819 -1.178936 1.302497 0.090500 -0.015507 878595.000000 0 0 1
11.607575 -31.821233 9.223379 35.105518 -1.221020 1.304943 0.079117 -0.015773 1140280.000000 0 0 1
11.133475 -32.043573 10.650479 35.555274 -1.236397 1.266578 0.066859 -0.005080 -67412.900000 0 0 1
12.111875 -32.819133 11.338979 36.774522 -1.217253 1.257351 0.066988 -0.014950 242502.000000 0 0 1
11.917675 -33.078073 12.704179 37.384302 -1.224985 1.224064 0.067178 -0.008083 597498.000000 0 0 1
10.814175 33.905563 13.118379 37.929216 1.262046 1.217636 0.064713 -0.016273 872644.000000 0 0 1
11.304075 32.606890 12.738179 36.786581 1.237084 1.217202 0.084587 -0.022114 170686.000000 0 0 1
10.353575 31.609134 12.983179 35.705697 1.254260 1.198649 0.059279 -0.008422 -199344.000000 0 0 1
10.510975 30.393314 11.951079 34.308343 1.237840 1.214993 0.059848 -0.012916 22898.800000 0 0 1
10.027475 30.560594 10.622579 33.872398 1.253747 1.251808 0.061587 -0.012581 172780.000000 0 0 1
10.626075 31.688624 9.939279 34.869351 1.247252 1.281745 0.050877 -0.012187 2322.360000 0 0 1
10.182775 31.894214 8.503279 34.543241 1.261758 1.322077 0.053458 -0.010873 -469607.000000 0 0 1
8.888775 32.428828 8.472479 34.675958 1.303266 1.323965 0.051531 -0.005992 -475104.000000 0 0 1
8.341075 32.570401 7.186379 34.380933 1.320091 1.360221 0.039338 -0.015054 -122584.000000 0 0 1
9.017775 33.657960 6.303479 35.410625 1.309020 1.391832 0.069253 -0.015003 -298288.000000 0 0 1
8.659675 -33.060593 6.657379 34.818292 -1.314618 1.378408 0.070010 -0.009058 97747.500000 0 0 1
9.458375 -32.033463 6.092879 33.951830 -1.283689 1.390362 0.096885 -0.022731 -108419.000000 0 0 1
8.859475 -30.625123 6.381379 32.513235 -1.289196 1.373244 0.099066 -0.023972 87787.400000 0 0 1
8.900575 -30.184723 7.729679 32.405025 -1.284052 1.329941 0.101735 -0.022284 25106.500000 0 0 1
8.251075 -28.939373 7.969279 31.130001 -1.293050 1.311914 0.119100 -0.021583 -288500.000000 0 0 1
8.887675 -27.677193 7.469279 30.013462 -1.260079 1.319289 0.130198 -0.024514 -234249.000000 0 0 1
9.825975 -27.115143 8.384979 30.034790 -1.223136 1.287861 0.132689 -0.022574 450044.000000 0 0 1
10.591075 -25.986873 7.834279 29.135277 -1.183794 1.298553 0.115016 -0.028529 211980.000000 0 0 1
9.931375 -24.810703 7.101379 27.651994 -1.190043 1.311074 0.112658 -0.024542 -454337.000000 0 0 1
9.337775 -25.179163 5.868879 27.488689 -1.215666 1.355639 0.117386 -0.026865 -652865.000000 0 0 1
8.379375 -24.244303 5.521479 26.239034 -1.238027 1.358782 0.114491 -0.022939 15527.200000 0 0 1
7.778475 -24.486003 4.082879 26.014206 -1.263208 1.413197 0.106033 -0.013317 645173.000000 0 0 1
6.857275 -25.575483 3.865279 26.759446 -1.308838 1.425844 0.060419 -0.009257 163239.000000 0 0 1
7.368675 -26.909183 4.040279 28.190874 -1.303514 1.426982 0.074010 -0.014825 89264.400000 0 0 1
6.407075 -28.033503 3.508279 28.969569 -1.346105 1.449396 0.094792 -0.017290 -319756.000000 0 0 1
5.427975 -28.349063 4.416379 29.199943 -1.381617 1.418968 0.082681 -0.012877 -608634.000000 0 0 1
4.518775 -29.366963 3.975879 29.977416 -1.418121 1.437775 0.084476 -0.009131 327946.000000 0 0 1
4.883875 -30.782543 4.410579 31.478094 -1.413451 1.430218 0.077270 -0.010852 -189315.000000 0 0 1
5.850675 -31.330843 3.549179 32.069437 -1.386184 1.459897 0.077957 -0.010170 -86260.800000 0 0 1
6.304175 -32.590853 4.020479 33.437562 -1.379722 1.450266 0.065909 -0.012415 28619.400000 0 0 1
7.473475 -33.213413 3.206979 34.194566 -1.349469 1.476872 0.073938 -0.012881 133797.000000 0 0 1
7.140275 -33.434833 1.844079 34.238461 -1.360399 1.516910 0.073128 -0.014870 549063.000000 0 0 1
8.156475 33.731581 1.337379 34.729472 1.333545 1.532278 0.061271 -0.017094 294999.000000 0 0 1
7.768075 33.072950 0.014679 33.972978 1.340101 1.570364 0.063342 -0.011225 638708.000000 0 0 1
6.775075 32.015094 0.062179 32.724177 1.362252 1.568896 0.052526 -0.012008 447729.000000 0 0 1
5.486475 32.566414 -0.141021 33.025635 1.403893 1.575066 0.066064 -0.018472 -251284.000000 0 0 1
4.310175 31.597674 0.044779 31.890321 1.435225 1.569392 0.053016 -0.018881 -81767.800000 0 0 1
4.161775 30.692824 -1.005321 30.990006 1.436024 1.603242 0.065571 -0.017997 -11939.000000 0 0 1
3.045875 29.847144 -0.817421 30.013289 1.469099 1.598035 0.077523 -0.028104 89026.100000 0 0 1
2.826275 28.729594 -1.906021 28.931130 1.472737 1.636725 0.075322 -0.021978 -260757.000000 0 0 1
2.429375 29.289794 -3.104721 29.553903 1.488043 1.676043 0.092634 -0.036830 -100502.000000 0 0 1
2.103675 28.316464 -4.085321 28.686886 1.496641 1.713693 0.083564 -0.039912 -178425.000000 0 0 1
1.734375 28.964584 -5.430721 29.520296 1.510989 1.755816 0.087980 -0.044654 1323590.000000 0 0 1
0.333175 29.382634 -5.478621 29.890893 1.559458 1.755126 0.113657 -0.046341 1513120.000000 0 0 1
0.103575 30.236404 -6.589321 30.946243 1.567371 1.785367 0.093838 -0.037008 -91485.600000 0 0 1
0.186275 29.640874 -8.023121 30.708086 1.564512 1.835135 0.095728 -0.033238 625752.000000 0 0 1
-1.117825 29.133594 -8.410921 30.344018 -1.532446 1.851660 0.111817 -0.036877 1170990.000000 0 0 1
-1.144025 28.693194 -9.787221 30.338059 -1.530946 1.899277 0.104645 -0.031016 540.088000 0 0 1
-1.277825 29.851064 -10.814621 31.775381 -1.528016 1.918081 0.100095 -0.032857 -841015.000000 0 0 1
-0.076325 30.486204 -11.094221 32.442198 -1.568293 1.919808 0.084800 -0.030974 -766685.000000 0 0 1
-0.145625 31.883594 -11.403921 33.861987 -1.566229 1.914288 0.080845 -0.036493 -223722.000000 0 0 1
-0.414625 32.740333 -10.096921 34.264400 -1.558133 1.869914 0.072584 -0.037576 414385.000000 0 0 1
0.724075 32.963006 -9.280321 34.252130 1.548834 1.845167 0.077076 -0.046217 72764.100000 0 0 1
0.272875 33.845950 -8.313021 34.852964 1.562734 1.811635 0.080666 -0.039451 -664776.000000 0 0 1
1.276975 -33.909753 -7.245821 34.698760 -1.533156 1.781165 0.080320 -0.039165 -1146830.000000 0 0 1
2.279075 -33.103533 -7.733421 34.071159 -1.502058 1.799770 0.084220 -0.040914 -1030310.000000 0 0 1
3.291975 -32.888043 -6.779121 33.740435 -1.471032 1.773093 0.086518 -0.047064 -896236.000000 0 0 1
4.396875 -31.998463 -7.448221 33.146797 -1.434243 1.797436 0.077587 -0.038871 -25397.100000 0 0 1
5.346375 -32.520773 -8.330921 33.993950 -1.407855 1.818389 0.069550 -0.032026 230590.000000 0 0 1
6.214175 -33.393113 -7.581421 34.802211 -1.386809 1.790400 0.081059 -0.015953 -1239320.000000 0 0 1
6.455175 33.244480 -8.261621 34.858558 1.379010 1.810077 0.071436 -0.013079 184753.000000 0 0 1
5.344175 32.337352 -8.222521 33.791632 1.407013 1.816594 0.065029 -0.024811 -84369.300000 0 0 1
4.480075 32.632569 -9.286921 34.222836 1.434361 1.845609 0.070667 -0.034396 -82557.300000 0 0 1
3.504875 31.473544 -9.579721 33.085331 1.459894 1.864549 0.073865 -0.042472 324467.000000 0 0 1
4.193675 30.508884 -10.393221 32.502276 1.434195 1.896282 0.059663 -0.025141 634333.000000 0 0 1
3.361675 29.354274 -10.544321 31.371276 1.456772 1.913584 0.064327 -0.033263 333254.000000 0 0 1
3.900675 28.299544 -11.542221 30.810750 1.433824 1.954780 0.056125 -0.026338 31682.000000 0 0 1
4.005375 28.778594 -12.869021 31.778329 1.432506 1.987734 0.058926 -0.016239 -348445.000000 0 0 1
5.320075 28.628384 -13.307321 32.015189 1.387060 1.999461 0.038788 -0.013534 -349199.000000 0 0 1
5.433275 29.117414 -14.744721 33.087022 1.386319 2.032679 0.045374 -0.012523 42341.700000 0 0 1
4.401975 28.535694 -15.509321 32.775025 1.417741 2.063722 0.061157 -0.015501 164263.000000 0 0 1
4.292575 29.108694 -16.785021 33.874462 1.424384 2.089214 0.081957 -0.012526 5028.410000 0 0 1
3.315875 28.427744 -17.768721 33.687670 1.454679 2.126398 0.078604 -0.025802 109280.000000 0 0 1
3.736275 27.140434 -18.325221 32.960228 1.433992 2.160338 0.087358 -0.016380 251491.000000 0 0 1
2.766375 26.619004 -19.221121 32.949593 1.467243 2.193643 0.098180 -0.028083 254518.000000 0 0 1
3.284875 25.354854 -19.931321 32.417843 1.441958 2.232961 0.101301 -0.033071 205553.000000 0 0 1
3.688675 24.364874 -19.034621 31.137922 1.420544 2.228499 0.107555 -0.042389 -425793.000000 0 0 1
4.330875 23.347694 -19.696621 30.851712 1.387386 2.263251 0.099162 -0.034612 -125399.000000 0 0 1
4.645175 22.154804 -18.782721 29.414343 1.364121 2.263417 0.107630 -0.031210 587504.000000 0 0 1
3.664275 21.107104 -18.788221 28.494455 1.398906 2.290769 0.120753 -0.036411 210653.000000 0 0 1
4.198975 20.023404 -18.046721 27.280986 1.364088 2.293631 0.101082 -0.030000 93513.600000 0 0 1
3.212575 18.849004 -17.775221 26.106782 1.401981 2.319741 0.090022 -0.038723 -289635.000000 0 0 1
2.275475 19.220704 -16.798521 25.628179 1.452958 2.285602 0.090122 -0.034856 -495369.000000 0 0 1
1.432275 18.210804 -16.317121 24.493534 1.492308 2.299872 0.055090 -0.021035 -69852.200000 0 1 0
2.058575 17.140804 -15.378821 23.120403 1.451271 2.298508 0.046104 -0.016642 137042.000000 0 1 0
3.045275 16.183504 -15.777321 22.805774 1.384800 2.334793 0.062054 -0.033980 131328.000000 0 1 0
2.685675 15.132704 -16.716421 22.707935 1.395150 2.398159 0.062704 -0.034366 -287557.000000 0 1 0
2.787575 15.574704 -18.283721 24.179256 1.393691 2.428242 0.058864 -0.028738 -1054990.000000 0 1 0
4.091275 15.523704 -18.755121 24.687618 1.313106 2.433644 0.091966 -0.035026 -828323.000000 0 1 0
4.183375 16.062504 -20.048121 26.027520 1.316013 2.450055 0.099758 -0.033289 -461627.000000 0 0 1
4.356375 15.139404 -21.256821 26.458118 1.290615 2.503803 0.093506 -0.040213 206379.000000 0 0 1
3.336975 14.257504 -21.721921 26.196444 1.340884 2.548460 0.077770 -0.029595 169440.000000 0 0 1
2.149975 14.920204 -22.162421 26.803130 1.427683 2.544297 0.084616 -0.039595 100190.000000 0 0 1
1.185475 13.895904 -22.803621 26.730257 1.485691 2.592697 0.070080 -0.023250 -183390.000000 0 0 1
0.738875 12.876304 -21.883021 25.401018 1.513477 2.609016 0.063099 -0.010360 206140.000000 0 0 1
0.080475 11.815004 -22.597921 25.500330 1.563985 2.659834 0.045081 -0.003418 -104971.000000 0 0 1
-0.520925 10.848704 -21.606221 24.182525 -1.522816 2.675796 0.029397 0.001342 -620207.000000 0 1 0
-1.561125 11.385604 -20.819021 23.780259 -1.434532 2.637214 0.024589 -0.000468 -227758.000000 0 1 0
-1.841825 10.551404 -19.649721 22.379365 -1.397980 2.642524 0.011094 0.003074 263438.000000 0 1 0
-2.887125 9.416004 -19.842921 22.152610 -1.273278 2.680883 0.016745 -0.007566 -282440.000000 0 1 0
-2.500125 8.271504 -20.613721 22.351597 -1.277270 2.744652 0.027349 -0.007574 -333760.000000 0 1 0
-3.475225 7.246504 -20.704421 22.209504 -1.123624 2.771330 0.031092 -0.008800 -95582.100000 0 1 0
-3.046425 6.078304 -21.647821 22.690408 -1.106192 2.837275 0.046936 -0.021455 301943.000000 0 1 0
-2.057125 5.253304 -21.037221 21.780579 -1.197564 2.879580 0.045335 -0.012007 210269.000000 0 1 0
-1.894125 4.116104 -21.780821 22.247116 -1.139514 2.936491 0.066535 -0.017309 73688.400000 0 1 0
-1.055825 3.030004 -21.026521 21.269938 -1.235497 2.990159 0.056092 -0.017400 -826669.000000 0 1 0
0.271975 3.363404 -20.885221 21.156061 1.490109 2.981409 0.056091 -0.019208 -926639.000000 0 1 0
1.032475 2.274304 -20.359921 20.512553 1.144642 3.019526 0.051941 -0.006211 -317023.000000 0 1 0
2.546175 2.324404 -20.346421 20.636441 0.739897 2.973743 0.040762 -0.015456 -445602.000000 0 1 0
3.184075 1.788004 -21.511921 21.819671 0.511664 2.973441 0.060938 -0.014321 -467897.000000 0 1 0
4.570075 1.824604 -21.301821 21.862807 0.379860 2.914569 0.080842 -0.019465 -552557.000000 0 1 0
5.344775 1.220004 -22.438721 23.098728 0.224416 2.901966 0.081299 -0.015902 -132763.000000 0 1 0
6.753075 1.318204 -22.295321 23.332874 0.192776 2.842257 0.076409 -0.027009 102768.000000 0 1 0
7.384775 0.796504 -23.432421 24.581450 0.107442 2.834632 0.082459 -0.026794 45493.400000 0 1 0
8.908075 0.644404 -23.212721 24.871660 0.072213 2.774292 0.090319 -0.040839 133799.000000 0 1 0
9.627375 1.852404 -23.170521 25.159308 0.190087 2.741313 0.077733 -0.049408 -44828.200000 0 0 1
10.993975 1.612504 -23.448821 25.948311 0.145633 2.699070 0.082606 -0.048710 -98687.600000 0 0 1
13.829275 -20.359603 22.517562 33.358700 -0.974132 0.829814 0.090804 0.005534 -981480.000000 0 0 1
12.893675 -21.184903 23.218322 33.972599 -1.024059 0.818328 0.078516 0.007322 807881.000000 0 0 1
11.505775 -20.906403 23.071282 33.192539 -1.067687 0.802273 0.072175 -0.007529 400604.000000 0 0 1
10.955275 -20.827303 21.647062 31.974832 -1.086561 0.827113 0.099318 -0.018341 -1644300.000000 0 0 1
11.330675 -19.655203 20.883362 30.835467 -1.047856 0.826776 0.118008 -0.021296 -191322.000000 0 0 1
11.061575 -19.810103 19.489162 29.910300 -1.061542 0.861122 0.120140 -0.023127 15971.000000 0 0 1
11.397275 -18.545603 18.707762 28.702224 -1.019744 0.860857 0.124741 -0.025581 396242.000000 0 0 1
10.514475 -17.457903 19.016762 27.874178 -1.028705 0.819980 0.147734 -0.028261 272057.000000 0 0 1
10.937875 -16.262003 18.344662 26.844301 -0.978695 0.818424 0.140597 -0.031456 642354.000000 0 0 1
9.972875 -15.039003 18.653662 25.953593 -0.985243 0.768820 0.123240 -0.025536 1700870.000000 0 0 1
8.606675 -15.299703 18.259062 25.328820 -1.058377 0.765724 0.104921 -0.021406 641328.000000 0 0 1
7.723075 -14.353003 18.860262 24.927175 -1.077150 0.712677 0.084824 -0.015894 441603.000000 0 1 0
6.251975 -14.713803 18.534362 24.476637 -1.169006 0.711740 0.046644 -0.007893 91748.100000 0 1 0
5.891275 -14.695703 17.152962 23.342984 -1.189528 0.745391 0.034197 -0.007278 765343.000000 0 1 0
4.481875 -14.809903 16.858562 22.882997 -1.276931 0.742577 0.012774 -0.008317 1023790.000000 0 1 0
3.868175 -16.253803 16.914762 23.775157 -1.337157 0.779241 0.008622 -0.008170 630923.000000 0 1 0
2.520475 -16.280803 16.414362 23.256153 -1.417203 0.787234 0.004082 -0.006813 462404.000000 0 1 0
1.906875 -17.531103 16.602562 24.220256 -1.462451 0.815530 0.012901 -0.021676 12085.200000 0 1 0
0.412975 -17.423103 16.247162 23.826568 -1.547098 0.820449 0.014124 -0.014270 -492827.000000 0 1 0
0.227475 -17.398703 14.861662 22.883086 -1.557723 0.863921 0.011747 -0.012736 249969.000000 0 1 0
-1.163725 -17.418403 14.564762 22.735156 1.504085 0.875481 0.012388 -0.017041 99816.500000 0 1 0
-1.515725 -18.152503 13.263462 22.532870 1.487490 0.941437 0.012196 -0.015558 922881.000000 0 1 0
-2.908025 -18.523003 13.135162 22.893028 1.415072 0.959704 0.022865 -0.018163 1118160.000000 0 1 0
-2.957325 -19.741803 12.376262 23.487367 1.422102 1.015809 0.030935 -0.025859 -284001.000000 0 1 0
-4.397625 -20.236303 12.237162 24.054006 1.356810 1.037079 0.029404 -0.022419 113962.000000 0 1 0
-4.906525 -20.763003 13.500162 25.247389 1.338742 1.006626 0.030293 -0.027553 -156148.000000 0 0 1
-6.252025 -21.148903 13.352562 25.780901 1.283363 1.026373 0.041534 -0.025500 -241845.000000 0 0 1
-6.897325 -21.666103 14.636762 27.041226 1.262594 0.998843 0.046595 -0.031234 247997.000000 0 0 1
-8.298625 -21.727703 14.416962 27.364376 1.205957 1.015904 0.064658 -0.030074 184273.000000 0 0 1
-8.975925 -22.479203 15.439162 28.709746 1.190894 1.003010 0.054969 -0.026407 25751.700000 0 0 1
-10.468025 -22.204703 15.606362 29.089292 1.130263 1.004514 0.078337 -0.023139 -209198.000000 0 0 1
-10.710025 -20.825003 15.965062 28.341994 1.095785 0.972421 0.062669 -0.022962 -460278.000000 0 0 1
-12.044325 -20.435703 15.749462 28.473308 1.038225 0.984679 0.058379 -0.012986 -296530.000000 0 0 1
-12.464625 -19.221103 16.561762 28.268528 0.995486 0.944840 0.066365 -0.016104 -484141.000000 0 0 1
-12.749325 -19.636403 17.914862 29.480093 0.994935 0.917643 0.057435 -0.013931 -16712.100000 0 0 1
-13.080925 -18.594603 18.775962 29.485702 0.957739 0.880479 0.069315 -0.018330 -314344.000000 0 0 1
-13.544425 -19.013203 20.171062 30.851663 0.951817 0.858190 0.059195 -0.016469 -370971.000000 0 0 1
-14.748125 -19.734003 20.099962 31.795386 0.928996 0.886451 0.068985 -0.009420 -216774.000000 0 0 1
-15.178925 -20.121603 21.377462 33.049577 0.924511 0.867376 0.056116 -0.004770 -485953.000000 0 0 1
-16.540325 -20.799903 21.345262 34.085753 0.898982 0.894098 0.074151 -0.011864 -855646.000000 0 0 1
-16.531725 -22.024903 20.611662 34.398182 0.926916 0.928285 0.063490 -0.009172 243088.000000 0 0 1
-17.831925 -22.363103 20.174762 35.001528 0.897654 0.956484 0.069780 0.002579 158314.000000 0 0 1
-18.737225 -23.050903 21.224662 36.509095 0.888261 0.950406 0.077419 -0.010072 -104437.000000 0 0 1
-19.606825 -22.139503 21.955562 36.832484 0.845992 0.932171 0.087208 -0.007563 738586.000000 0 0 1
-20.301325 -22.719003 23.039982 38.198661 0.841538 0.923337 0.071818 -0.005930 38238.300000 0 0 1
-20.819725 -21.744203 24.113482 38.571121 0.807114 0.895448 0.059827 -0.000625 164788.000000 0 0 1
-21.897325 -20.964403 23.586722 38.410057 0.763636 0.909581 0.060864 0.010101 535432.000000 0 0 1
-22.213825 -19.862203 24.481592 38.565652 0.729566 0.883043 0.070001 0.002387 162949.000000 0 0 1
-23.258925 -18.883403 23.909632 38.330549 0.681942 0.897233 0.063283 -0.000531 144199.000000 0 0 1
-22.772725 -18.170203 22.775862 36.979632 0.673455 0.907265 0.068932 0.003841 375134.000000 0 0 1
-23.850925 -17.432603 22.220562 36.966413 0.631164 0.925918 0.063102 0.003968 206146.000000 0 0 1
-23.474825 -16.814703 20.820562 35.599122 0.621573 0.946087 0.064554 0.006673 -272020.000000 0 0 1
-22.647925 -15.689603 20.737762 34.484010 0.605851 0.925578 0.079711 -0.000781 -288473.000000 0 0 1
-22.539925 -15.355803 19.373662 33.454263 0.598045 0.953161 0.075652 0.002505 -217977.000000 0 0 1
-21.405325 -14.389903 19.036162 32.056711 0.591864 0.934988 0.084095 -0.015625 -211624.000000 0 0 1
-21.311025 -14.077003 17.672862 31.058845 0.583756 0.965492 0.065669 -0.014921 -198758.000000 0 0 1
-20.345225 -13.069703 17.528862 29.866475 0.571012 0.943562 0.086058 -0.029314 -627094.000000 0 0 1
-19.962325 -12.925403 16.030962 28.680171 0.574609 0.977670 0.093281 -0.032131 444726.000000 0 0 1
-19.033825 -11.924203 15.602462 27.347942 0.559659 0.963661 0.095279 -0.035966 371006.000000 0 0 1
-17.712825 -11.939203 16.114962 26.757817 0.593092 0.924477 0.117744 -0.042239 -494932.000000 0 0 1
-16.948125 -10.920003 15.287862 25.302256 0.572371 0.922023 0.115109 -0.034086 -580915.000000 0 0 1
-17.101725 -9.603703 15.715962 25.133475 0.511678 0.895280 0.104988 -0.029469 377416.000000 0 0 1
-16.483525 -8.687703 14.825262 23.811157 0.485056 0.898712 0.077611 -0.014944 -314316.000000 0 1 0
-16.971025 -7.251203 15.288962 23.965559 0.403791 0.878956 0.096907 -0.012398 230943.000000 0 1 0
-16.310625 -6.718003 16.402562 24.087592 0.390705 0.821731 0.090731 -0.017252 -213669.000000 0 1 0
-14.940225 -6.464003 16.278462 23.021338 0.408339 0.785403 0.089479 -0.020263 -638925.000000 0 1 0
-14.130125 -6.287703 17.601862 23.431201 0.418676 0.720896 0.084071 -0.016952 155167.000000 0 1 0
-14.124225 -7.413503 18.492262 24.421661 0.483352 0.711769 0.081715 -0.026377 86930.000000 0 1 0
-13.652825 -8.639603 17.894962 24.109584 0.564194 0.734398 0.098716 -0.026829 -560265.000000 0 1 0
-13.596325 -9.823703 18.901162 25.270915 0.625685 0.725841 0.096160 -0.030191 53178.300000 0 0 1
-14.808625 -10.321003 19.409062 26.505286 0.608682 0.749145 0.091343 -0.036137 263084.000000 0 0 1
-15.584625 -9.403003 20.237662 27.218743 0.542880 0.732478 0.086245 -0.033150 -285759.000000 0 0 1
-17.005525 -9.909903 20.622762 28.507760 0.527636 0.762070 0.085569 -0.033029 817381.000000 0 0 1
-17.945825 -10.168503 19.566762 28.430780 0.515515 0.811757 0.096777 -0.030078 642034.000000 0 0 1
-18.390225 -8.958303 18.913462 27.859839 0.453293 0.824561 0.091500 -0.028651 -646803.000000 0 0 1
-19.619925 -9.041903 17.995362 28.116375 0.431843 0.876257 0.114431 -0.030568 723379.000000 0 0 1
-20.883925 -9.182303 18.654862 29.469593 0.414241 0.885347 0.096572 -0.031097 695755.000000 0 0 1
-21.956625 -9.281503 17.749362 29.720019 0.399938 0.930767 0.110696 -0.029978 504317.000000 0 0 1
-23.384925 -9.587203 18.264762 31.182859 0.389075 0.945015 0.097928 -0.022208 269645.000000 0 0 1
-24.062125 -8.558003 18.969362 31.812922 0.341711 0.931939 0.095786 -0.015142 790039.000000 0 0 1
-25.428165 -8.965403 19.098762 33.041379 0.338969 0.954489 0.085677 -0.006817 284377.000000 0 0 1
-26.265455 -7.850203 19.788262 33.809394 0.290428 0.945560 0.116861 -0.013243 -137964.000000 0 0 1
-26.135925 -7.794303 21.235062 34.565382 0.289825 0.909241 0.125892 -0.016345 154026.000000 0 0 1
-26.805275 -6.682303 21.763362 35.168450 0.244311 0.903541 0.111519 -0.020124 -698999.000000 0 0 1
-26.619355 -6.588803 23.282902 35.973545 0.242642 0.866861 0.107298 -0.011949 1746550.000000 0 0 1
-25.375655 -6.095703 23.937802 35.413272 0.235752 0.828536 0.093735 -0.014582 1479000.000000 0 0 1
-24.275825 -6.934403 23.690522 34.621416 0.278241 0.817189 0.105165 -0.014291 -1506860.000000 0 0 1
-23.174925 -6.770403 24.671812 34.519760 0.284233 0.774579 0.103761 -0.013688 -807300.000000 0 0 1
-22.507825 -5.515503 24.581892 33.783019 0.240313 0.755920 0.082829 -0.008720 279563.000000 0 0 1
-21.662125 -5.333703 25.714462 34.043055 0.241420 0.714606 0.095125 -0.018586 258984.000000 0 0 1
-21.128525 -3.843003 25.766892 33.542749 0.179920 0.694802 0.067188 -0.016129 -142694.000000 0 0 1
-20.334125 -3.574603 26.881292 33.894812 0.174015 0.654948 0.057428 -0.019502 -503067.000000 0 0 1
-20.958625 -3.459303 28.119872 35.241424 0.163579 0.646958 0.062007 -0.023918 -256204.000000 0 0 1
-21.610125 -2.128803 28.555222 35.873807 0.098193 0.650154 0.070085 -0.031975 -137896.000000 0 0 1
-22.859725 -1.922103 27.956852 36.164169 0.083885 0.687155 0.078074 -0.035357 -727744.000000 0 0 1
-23.628525 -1.008903 28.715342 37.200752 0.042673 0.688968 0.065121 -0.035463 -208552.000000 0 0 1
-24.942925 -0.808803 27.962982 37.479755 0.032415 0.728638 0.076837 -0.034265 -744248.000000 0 0 1
-24.713925 -0.194703 26.703122 36.385062 0.007878 0.746745 0.063498 -0.035375 552438.000000 0 0 1
-25.890025 0.180197 25.970492 36.671410 -0.006960 0.783859 0.100076 -0.031497 923406.000000 0 0 1
-26.790775 -0.939903 25.277832 36.845595 0.035069 0.814754 0.100886 -0.026623 337277.000000 0 0 1
-27.654735 -1.677203 26.135192 38.087343 0.060574 0.814557 0.083853 -0.027800 282952.000000 0 0 1
-27.948195 -2.929403 25.550572 37.980452 0.104434 0.832905 0.061663 -0.029101 202555.000000 0 0 1
-26.837885 -3.979103 25.830962 37.461233 0.147192 0.809945 0.074411 -0.032634 391144.000000 0 0 1
-26.795865 -4.436303 27.187682 38.430056 0.164071 0.784900 0.064993 -0.034670 -470465.000000 0 0 1
-25.784485 -5.389403 27.269482 37.914509 0.206051 0.768094 0.086535 -0.032657 -296349.000000 0 0 1
-25.558985 -5.922403 28.732922 38.909091 0.227697 0.740008 0.063279 -0.022980 106260.000000 0 0 1
-26.711345 -6.578603 29.229432 40.138930 0.241479 0.755095 0.070411 -0.021858 -19418.100000 0 0 1
-26.593925 -6.975503 30.581202 41.123040 0.256518 0.732281 0.073902 -0.020911 -97302.800000 0 0 1
-27.887365 -7.486303 31.294102 42.580168 0.262265 0.745210 0.050446 -0.021824 118449.000000 0 0 1
-28.480625 -8.567803 30.659222 42.714648 0.292217 0.770204 0.045106 -0.023569 -757074.000000 0 0 1
-29.773655 -8.733103 31.151172 43.967410 0.285314 0.783417 0.053845 -0.021187 -364117.000000 0 0 1
-30.684425 -9.495303 30.154642 44.056749 0.300104 0.816947 0.037645 -0.023412 -4600.150000 0 0 1
-30.479195 -10.900503 30.146262 44.233465 0.343463 0.820950 0.046583 -0.023953 134988.000000 0 0 1
-31.452925 -11.471603 29.298892 44.489429 0.349730 0.851895 0.035243 -0.016305 75416.500000 0 0 1
-30.928755 -12.827003 28.665452 44.077523 0.393138 0.862762 0.051860 -0.024933 51334.400000 0 0 1
-30.014825 -12.661403 27.614872 42.705761 0.399190 0.867637 0.062813 -0.021525 -491186.000000 0 0 1
-29.019245 -13.643603 27.620852 42.322287 0.439490 0.859744 0.055466 -0.028829 -131202.000000 0 0 1
-27.683895 -13.049803 27.073462 40.861568 0.440496 0.846558 0.082607 -0.035926 108789.000000 0 0 1
-26.930625 -12.268103 28.021422 40.754939 0.427455 0.812674 0.071627 -0.037348 113274.000000 0 0 1
-27.419195 -11.025403 28.426862 41.005588 0.382320 0.804816 0.073900 -0.036535 -1019140.000000 0 0 1
-27.520465 -9.862103 27.371632 40.048013 0.344099 0.818290 0.084428 -0.033851 -554733.000000 0 0 1
-26.320715 -9.367503 26.869592 38.762161 0.341920 0.804889 0.084206 -0.031320 -634403.000000 0 0 1
-25.632275 -10.100903 25.923192 37.829270 0.375384 0.815825 0.075145 -0.034881 -348658.000000 0 0 1
-26.219565 -10.155703 24.471902 37.275701 0.369539 0.854613 0.086415 -0.023432 -107387.000000 0 0 1
-27.390535 -10.930103 24.300552 38.212896 0.379684 0.881589 0.084699 -0.027867 -157552.000000 0 0 1
-27.898925 -10.932503 22.997532 37.772426 0.373470 0.916193 0.103829 -0.017973 -967333.000000 0 0 1
-29.179655 -11.734703 22.892162 38.899957 0.382362 0.941609 0.105531 -0.030120 981769.000000 0 0 1
-30.399955 -11.072503 23.388072 39.921918 0.349293 0.944873 0.099175 -0.027351 1410650.000000 0 0 1
-30.480755 -11.120703 24.830002 40.856768 0.349837 0.917594 0.104194 -0.028125 297024.000000 0 0 1
-31.917415 -10.723803 25.362212 42.154041 0.324136 0.925224 0.047010 -0.015881 551496.000000 0 0 1
-32.226215 -9.325403 25.185832 41.950187 0.281679 0.926827 0.061318 -0.022618 496610.000000 0 0 1
-33.604385 -9.055203 25.470812 43.127876 0.263213 0.939009 0.040964 -0.005728 850249.000000 0 0 1
-34.099255 -9.148803 26.919022 44.396999 0.262126 0.919365 0.027689 -0.001746 -382944.000000 0 0 1
-34.289886 -10.470103 27.484052 45.175131 0.296349 0.916767 0.026208 -0.010708 217118.000000 0 0 1
-34.985166 -10.413403 28.741162 46.459178 0.289301 0.903795 0.041830 -0.011255 -462528.000000 0 0 1
-35.654888 -11.782903 29.162852 47.545555 0.319172 0.910480 0.047967 -0.007005 1086670.000000 0 0 1
-36.871715 -12.294203 28.588112 48.248844 0.321839 0.936620 0.034337 -0.008900 789232.000000 0 0 1
36.403136 -11.427803 28.698562 47.742963 -0.304181 0.925912 0.042591 -0.005271 696717.000000 0 0 1
35.087826 -11.999003 28.009442 46.472147 -0.329504 0.923898 0.052978 -0.003999 1095760.000000 0 0 1
35.196416 -11.756603 26.603782 45.659245 -0.322376 0.948799 0.055432 -0.002133 895962.000000 0 0 1
33.950226 -12.090003 25.941212 44.404195 -0.342107 0.946894 0.073134 -0.009617 920608.000000 0 0 1
33.811896 -11.570603 24.490522 43.323306 -0.329714 0.970003 0.070223 -0.014390 -255969.000000 0 0 1
33.640436 -10.197003 24.545592 42.873581 -0.294314 0.961231 0.073498 -0.022732 -36185.100000 0 0 1
33.627716 -9.678603 23.198182 41.983977 -0.280242 0.985378 0.067913 -0.016506 -708192.000000 0 0 1
33.043196 -8.302903 23.150832 41.191650 -0.246178 0.973962 0.092395 -0.025272 689334.000000 0 0 1
31.605826 -8.287603 23.174522 40.058346 -0.256444 0.953884 0.110158 -0.030268 375559.000000 0 0 1
31.102706 -7.015103 23.067622 39.353592 -0.221834 0.944481 0.118439 -0.026855 -508053.000000 0 0 1
29.608686 -6.933203 22.789562 38.001418 -0.230017 0.927666 0.116795 -0.014031 -470930.000000 0 0 1
29.511446 -7.456003 21.500362 37.266379 -0.247469 0.955822 0.102506 -0.009688 154916.000000 0 0 1
28.145676 -7.635503 21.158562 36.030053 -0.264909 0.943142 0.108071 -0.034648 203303.000000 0 0 1
15.196775 -16.917103 26.516752 34.932342 -0.838917 0.708884 0.097201 -0.012451 47416.800000 0 0 1
14.367975 -18.047203 26.482992 35.121064 -0.898418 0.716592 0.081763 -0.003051 402931.000000 0 0 1
15.166575 -19.242603 26.456022 36.058617 -0.903306 0.747052 0.089747 0.003823 -382690.000000 0 0 1
14.403075 -20.536503 26.246502 36.305308 -0.959171 0.762750 0.060661 0.002218 2824.920000 0 0 1
13.774175 -21.070903 27.445062 37.241674 -0.991820 0.742257 0.069252 0.000915 784242.000000 0 0 1
12.456875 -20.577503 27.650142 36.648844 -1.026442 0.715963 0.076096 0.003909 8468.910000 0 0 1
11.891975 -20.916703 29.092882 37.753455 -1.053831 0.691011 0.085979 -0.008793 -24029.500000 0 0 1
12.326675 -20.134103 30.187112 38.322197 -1.021434 0.663699 0.086934 -0.008904 199036.000000 0 0 1
11.474375 -19.035703 30.575122 37.800230 -1.028334 0.628584 0.102898 -0.015677 273922.000000 0 0 1
11.753975 -17.656203 29.853962 36.621804 -0.983454 0.617728 0.105379 -0.018588 -553130.000000 0 0 1
12.903575 -17.002003 30.245312 37.018229 -0.921595 0.614541 0.096043 -0.013264 -817572.000000 0 0 1
12.966175 -15.742203 29.613382 35.956794 -0.881796 0.603098 0.093916 -0.012075 432018.000000 0 0 1
13.892175 -14.744403 30.369202 36.505868 -0.815150 0.588275 0.093078 -0.013140 275787.000000 0 0 1
13.646975 -13.448803 29.848332 35.468763 -0.778085 0.570671 0.103343 -0.010035 23782.400000 0 0 1
14.407975 -12.403803 30.380282 35.838605 -0.710787 0.559167 0.104131 -0.011528 -462653.000000 0 0 1
13.860175 -11.103003 29.752272 34.649370 -0.675394 0.538133 0.098356 -0.013732 52731.800000 0 0 1
14.009375 -10.774103 28.364442 33.419837 -0.655591 0.557216 0.115541 -0.017210 -423809.000000 0 0 1
15.314375 -10.612703 27.894052 33.544563 -0.606006 0.588900 0.098859 -0.013326 -695035.000000 0 0 1
15.315075 -9.416803 26.954232 32.399974 -0.551283 0.588235 0.093305 -0.016241 164327.000000 0 0 1
15.499575 -8.037603 27.327502 32.428880 -0.478392 0.568536 0.086064 -0.012373 155823.000000 0 0 1
16.799775 -7.749103 27.807562 33.399724 -0.432180 0.587068 0.082114 -0.015086 -25645.600000 0 0 1
17.189275 -6.235703 27.923162 33.377510 -0.348003 0.579775 0.076357 -0.013983 274459.000000 0 0 1
18.580475 -5.986003 28.044142 34.169287 -0.311667 0.608089 0.068828 -0.015300 418626.000000 0 0 1
18.962975 -4.591703 27.678192 33.863852 -0.237568 0.614022 0.073258 -0.017039 -205256.000000 0 0 1
20.468875 -4.470803 27.429362 34.515690 -0.215042 0.652295 0.072779 -0.023453 -629381.000000 0 0 1
20.830675 -5.305903 26.273842 33.946788 -0.249412 0.685707 0.070123 -0.021801 873526.000000 0 0 1
22.189875 -5.345303 25.835172 34.473453 -0.236386 0.723607 0.073848 -0.014285 1053320.000000 0 0 1
23.387975 -5.717803 26.756942 35.994786 -0.239773 0.732723 0.084233 -0.022531 -77797.100000 0 0 1
23.875575 -4.606903 27.449232 36.670519 -0.190612 0.724944 0.081922 -0.020470 490061.000000 0 0 1
24.886475 -5.004003 28.409322 38.098114 -0.198427 0.729229 0.097055 -0.033860 520282.000000 0 0 1
25.645575 -3.779803 28.997472 38.895190 -0.146333 0.729469 0.103364 -0.032211 -86217.300000 0 0 1
26.577275 -3.125503 28.154982 38.843575 -0.117063 0.760009 0.089192 -0.022797 194555.000000 0 0 1
26.762475 -1.767703 28.523752 39.153024 -0.065956 0.754638 0.078363 -0.031298 -147376.000000 0 0 1
27.758675 -1.044703 27.588752 39.150667 -0.037617 0.788822 0.086119 -0.035650 1633870.000000 0 0 1
29.167375 -1.300003 27.863762 40.358581 -0.044541 0.808748 0.108372 -0.032731 1067830.000000 0 0 1
29.969075 -0.849803 26.809502 40.219610 -0.028348 0.841188 0.107301 -0.027528 -695983.000000 0 0 1
31.461375 -0.993903 27.052612 41.504817 -0.031581 0.860848 0.097556 -0.022848 -733726.000000 0 0 1
31.911775 -0.113503 28.045422 42.484350 -0.003557 0.849797 0.081183 -0.013404 -355111.000000 0 0 1
33.319875 -0.138803 28.043762 43.550958 -0.004166 0.871173 0.085069 -0.025025 -217456.000000 0 0 1
33.839175 0.844297 29.133402 44.660472 0.024945 0.860141 0.076686 -0.016482 -220338.000000 0 0 1
33.839275 2.181997 28.649902 44.392280 0.064392 0.869275 0.070209 -0.007521 256491.000000 0 0 1
33.985275 3.129697 29.670982 45.223458 0.091831 0.855161 0.062375 0.000210 -278677.000000 0 0 1
33.986875 4.547997 29.070572 44.954312 0.133026 0.867587 0.063004 -0.003056 -87959.000000 0 0 1
33.979975 5.703297 29.904782 45.623046 0.166293 0.855984 0.067051 0.007539 -34739.300000 0 0 1
32.718175 5.979997 30.452402 45.095323 0.180778 0.829439 0.074604 0.000814 -383114.000000 0 0 1
32.716375 7.096997 31.524812 45.984153 0.213615 0.815426 0.074474 -0.004439 74509.500000 0 0 1
33.127775 6.491997 32.769785 47.047362 0.193516 0.800250 0.070938 0.000288 266121.000000 0 0 1
33.062275 7.476797 33.822417 47.884992 0.222402 0.786502 0.077937 -0.002411 -177610.000000 0 0 1
33.296375 6.880097 -32.676561 47.156569 0.203764 2.336352 0.090107 -0.003622 931784.000000 0 0 1
32.218175 5.994697 -32.220591 45.957738 0.183962 2.347724 0.079149 -0.003523 1125620.000000 0 0 1
32.387775 4.699097 -32.773091 46.315494 0.144083 2.356900 0.092718 -0.010763 8721.310000 0 0 1
32.592175 3.614297 -31.694431 45.605372 0.110443 2.339177 0.106953 -0.020542 -15803.600000 0 0 1
32.828675 2.290597 -32.244251 46.072339 0.069661 2.346000 0.104344 -0.025694 106164.000000 0 0 1
33.165875 1.466697 -31.133351 45.512768 0.044194 2.324107 0.099514 -0.023044 -51828.200000 0 0 1
33.241175 -0.049503 -31.394131 45.722747 -0.001489 2.327625 0.093091 -0.026362 -294272.000000 0 0 1
34.338575 -0.377203 -32.237661 47.101452 -0.010984 2.324618 0.096874 -0.021508 342789.000000 0 0 1
34.925275 -1.676003 -31.986971 47.389346 -0.047951 2.311737 0.094509 -0.020694 869948.000000 0 0 1
35.971275 -1.678203 -30.820511 47.398870 -0.046620 2.278693 0.115571 -0.022629 146587.000000 0 0 1
35.312175 -1.610603 -29.572651 46.087801 -0.045579 2.267456 0.118561 -0.025558 567670.000000 0 0 1
36.266275 -1.307903 -28.549331 46.173776 -0.036048 2.237377 0.139644 -0.027877 512876.000000 0 0 1
35.525675 -1.037403 -27.210891 44.761394 -0.029193 2.224222 0.141193 -0.030747 163564.000000 0 0 1
34.860275 0.229297 -27.234831 44.238302 0.006578 2.233993 0.135232 -0.029889 515678.000000 0 0 1
33.941075 0.357197 -26.169721 42.859987 0.010524 2.227597 0.123988 -0.031291 171132.000000 0 0 1
33.152175 1.672297 -26.073381 42.210004 0.050400 2.236619 0.107854 -0.026283 -232814.000000 0 0 1
32.275975 1.977197 -27.104521 42.193636 0.061183 2.268401 0.105618 -0.037572 78325.700000 0 0 1
31.502975 3.110497 -26.733271 41.434049 0.098418 2.272082 0.097294 -0.024451 95423.500000 0 0 1
30.807375 3.720097 -27.989271 41.789147 0.120172 2.304700 0.095566 -0.024697 157354.000000 0 0 1
29.581775 4.331097 -27.637321 40.714387 0.145378 2.316937 0.082600 -0.022702 260902.000000 0 0 1
28.978975 4.980697 -28.726481 41.107165 0.170210 2.344542 0.063691 -0.024859 -10184.100000 0 0 1
27.670975 5.734197 -28.380121 40.049908 0.204336 2.358335 0.057820 -0.019578 -749502.000000 0 0 1
26.609075 4.896897 -28.085671 38.997787 0.181995 2.374867 0.071767 -0.020030 -341127.000000 0 0 1
25.579875 5.675497 -27.504941 37.987670 0.218337 2.380451 0.082164 -0.027299 -194004.000000 0 0 1
24.233975 4.950097 -27.338931 36.867413 0.201491 2.406170 0.105865 -0.022079 -37597.800000 0 0 1
23.518375 4.741997 -28.548211 37.290761 0.198962 2.442703 0.109517 -0.020776 206707.000000 0 0 1
22.148575 4.519897 -28.287241 36.209900 0.201308 2.467385 0.090138 -0.013100 300611.000000 0 0 1
21.307275 4.066897 -29.534311 36.644442 0.188600 2.508108 0.080969 -0.008708 40765.900000 0 0 1
21.489375 2.764097 -30.083381 37.073485 0.127924 2.517430 0.093182 -0.021274 -61842.600000 0 0 1
20.783375 2.344797 -31.253021 37.605825 0.112346 2.551823 0.075076 -0.023343 -38654.200000 0 0 1
21.056275 3.130197 -32.556301 38.898298 0.147578 2.562500 0.082821 -0.025792 61473.800000 0 0 1
22.438075 3.086897 -32.867571 39.915829 0.136716 2.538212 0.082698 -0.027184 6860.730000 0 0 1
22.809875 3.959097 -33.883721 41.037439 0.171857 2.542200 0.078137 -0.037566 184066.000000 0 0 1
24.266975 3.765597 33.506848 41.542444 0.153946 0.632471 0.096011 -0.031616 185399.000000 0 0 1
24.436075 2.517997 32.834552 41.006949 0.102682 0.642322 0.109807 -0.033068 114383.000000 0 0 1
25.787575 2.080897 32.719274 41.711870 0.080519 0.669049 0.103895 -0.033791 131782.000000 0 0 1
26.104775 0.545797 32.606692 41.772641 0.020905 0.675211 0.088891 -0.031180 -535764.000000 0 0 1
25.755475 -0.050803 31.355582 40.577329 -0.001973 0.687655 0.094538 -0.032642 1063550.000000 0 0 1
24.357775 -0.178903 31.016252 39.437813 -0.007345 0.665740 0.110973 -0.046257 868962.000000 0 0 1
23.567575 -1.236203 31.865463 39.653077 -0.052406 0.637466 0.101058 -0.052752 -221211.000000 0 0 1
24.014075 -2.576303 31.661902 39.821969 -0.106874 0.651646 0.088792 -0.053978 292546.000000 0 0 1
23.099775 -3.460803 32.280129 39.844492 -0.148714 0.626383 0.102738 -0.052460 35930.600000 0 0 1
23.210175 -4.901903 31.763182 39.643923 -0.208138 0.641479 0.097854 -0.054304 -726146.000000 0 0 1
24.429175 -5.499503 32.030538 40.656912 -0.221429 0.663527 0.078097 -0.034106 -697081.000000 0 0 1
24.330075 -6.891503 31.945709 40.742775 -0.276020 0.669579 0.091171 -0.030196 -967689.000000 0 0 1
25.619775 -7.568503 31.609562 41.386224 -0.287246 0.701662 0.073125 -0.029253 -1089280.000000 0 0 1
25.942575 -7.459403 30.257272 40.548273 -0.279982 0.728455 0.095143 -0.031725 -204125.000000 0 0 1
27.131075 -8.139603 29.916392 41.198773 -0.291466 0.758094 0.079533 -0.022407 180616.000000 0 0 1
27.568775 -7.902303 28.472142 40.412209 -0.279155 0.789017 0.081406 -0.025662 -604766.000000 0 0 1
26.589575 -8.351203 27.638312 39.250789 -0.304322 0.789576 0.068911 -0.022588 -1000090.000000 0 0 1
26.990975 -8.293003 26.313902 38.596737 -0.298096 0.820624 0.094143 -0.026579 -408422.000000 0 0 1
26.252075 -9.076403 25.271122 37.552392 -0.332875 0.832598 0.071169 -0.027407 -746593.000000 0 0 1
24.995375 -8.549803 24.953292 36.339162 -0.329580 0.813887 0.073070 -0.022193 -463219.000000 0 0 1
24.318875 -9.341903 24.019262 35.434500 -0.366761 0.825963 0.077592 -0.027479 568211.000000 0 0 1
22.901375 -8.797103 23.599372 34.041040 -0.366751 0.804790 0.045805 -0.024793 330010.000000 0 0 1
21.972975 -9.086503 24.597692 34.211440 -0.392116 0.768448 0.036412 -0.019650 -1201360.000000 0 0 1
20.758475 -8.502403 24.278152 33.055012 -0.388744 0.745900 0.042195 -0.013755 -512461.000000 0 0 1
19.698775 -8.503303 25.394612 33.245063 -0.407504 0.701521 0.037853 -0.010663 66762.300000 0 0 1
19.106175 -9.661703 25.932352 33.628579 -0.468185 0.690166 0.060028 -0.017234 380253.000000 0 0 1
20.036675 -10.376103 26.695682 34.954132 -0.477830 0.701717 0.042647 -0.015452 185923.000000 0 0 1
19.232775 -11.423903 27.556372 35.493082 -0.535982 0.681883 0.049393 -0.011155 898638.000000 0 0 1
18.506975 -12.361603 26.716262 34.771771 -0.588886 0.694565 0.076707 -0.014446 682672.000000 0 0 1
17.656075 -13.307603 27.344672 35.164761 -0.645873 0.679932 0.082282 -0.014124 -34574.100000 0 0 1
18.441775 -14.452403 28.047292 36.546157 -0.664709 0.695945 0.091569 -0.007433 -578885.000000 0 0 1
17.740775 -15.211303 28.963952 37.215983 -0.708786 0.678896 0.083418 -0.005176 -726172.000000 0 0 1
18.424775 -16.186903 29.655282 38.482775 -0.720831 0.690996 0.082636 -0.007529 -827148.000000 0 0 1
18.652875 -17.540103 28.906542 38.615711 -0.754662 0.724894 0.085950 -0.000203 -145566.000000 0 0 1
19.527375 -17.375203 27.821772 38.174168 -0.727144 0.754212 0.078688 0.003816 169751.000000 0 0 1
19.868875 -18.581803 27.183982 38.458087 -0.751937 0.785766 0.072498 0.014420 370241.000000 0 0 1
20.983075 -18.384703 26.093772 38.199106 -0.719491 0.818799 0.078328 0.006445 10032.700000 0 0 1
22.271075 -18.170803 26.571172 39.143404 -0.684357 0.824647 0.064182 0.005274 -430966.000000 0 0 1
23.135875 -17.584103 25.607412 38.732531 -0.649893 0.848466 0.043827 0.002967 -39706.300000 0 0 1
24.571275 -17.443803 26.123642 39.880804 -0.617357 0.856557 0.033711 0.004697 -292825.000000 0 0 1
25.180375 -18.680103 26.470172 41.032518 -0.638266 0.869639 0.039909 0.007223 -146235.000000 0 0 1
26.534475 -18.671203 26.091962 41.635114 -0.613177 0.893509 0.035799 -0.000773 -170654.000000 0 0 1
27.288875 -19.997503 26.396882 42.911283 -0.632407 0.908220 0.039279 -0.006654 47356.800000 0 0 1
27.687475 -20.093603 27.744932 44.046912 -0.627786 0.889378 0.031635 -0.002510 -33905.500000 0 0 1
28.244575 -21.403703 27.985872 45.156213 -0.648474 0.902363 0.037710 -0.009024 -245296.000000 0 0 1
27.458475 -22.448903 28.771142 45.669462 -0.685356 0.889261 0.042217 -0.010715 -654434.000000 0 0 1
27.260175 -22.017603 30.112602 46.202390 -0.679409 0.860901 0.039359 -0.005734 -35662.800000 0 0 1
26.616475 -23.090103 30.810392 46.806729 -0.714573 0.852308 0.036413 -0.010396 -314978.000000 0 0 1
26.266775 -22.859603 32.285383 47.485270 -0.716154 0.823166 0.026962 -0.006374 37591.700000 0 0 1
25.695475 -24.056703 32.787172 48.103857 -0.752471 0.820861 0.024234 -0.010464 -20221.200000 0 0 1
25.381675 -23.973103 -33.707271 48.529570 -0.756866 2.338621 0.035947 -0.009826 -164613.000000 0 0 1
25.112575 -25.339713 -32.921331 48.544377 -0.789900 2.316066 0.030918 -0.017260 -35200.300000 0 0 1
23.997075 -26.142733 -33.209061 48.601891 -0.828166 2.323052 0.056176 -0.024034 -482943.000000 0 0 1
23.743475 -26.531863 33.316162 48.761245 -0.840804 0.818591 0.039164 -0.017414 -97821.400000 0 0 1
22.560975 -27.521223 33.093278 48.596094 -0.884118 0.821688 0.071066 -0.021354 275855.000000 0 0 1
22.681475 -28.888583 33.397605 49.642719 -0.905185 0.832864 0.081159 -0.030741 120332.000000 0 0 1
21.389475 -29.466073 33.342574 49.370906 -0.942897 0.829359 0.118946 -0.045301 129010.000000 0 0 1
21.430675 -30.974533 33.585642 50.464749 -0.965541 0.842597 0.094941 -0.048123 103692.000000 0 0 1
21.932575 -31.437203 -33.020081 50.593096 -0.961641 2.281886 0.089326 -0.042121 -261721.000000 0 0 1
23.292475 -31.727083 -32.979851 51.349954 -0.937516 2.268235 0.063427 -0.029029 -1073160.000000 0 0 1
23.765975 -32.292973 -31.629421 51.069344 -0.936349 2.238701 0.044578 -0.025141 -211195.000000 0 0 1
25.024875 -32.946383 -31.793071 52.177657 -0.921203 2.226003 0.038028 -0.012988 441057.000000 0 0 1
25.560375 -33.582853 -30.679231 52.176201 -0.920220 2.199371 0.030136 -0.013301 95342.800000 0 0 1
26.225775 -32.652433 -29.632861 51.303792 -0.894119 2.186577 0.024619 -0.014685 -540789.000000 0 0 1
26.487875 -33.191883 -28.365661 51.067792 -0.897262 2.159702 0.038097 -0.021671 7022.850000 0 0 1
27.052575 -32.240273 -27.497141 50.272953 -0.872669 2.149521 0.040566 -0.016593 -655350.000000 0 0 1
27.486875 -32.861863 -26.127261 50.180316 -0.874229 2.118429 0.046515 -0.017965 471083.000000 0 0 1
28.636475 -33.684843 -25.980411 51.280582 -0.866227 2.102071 0.049835 0.000639 1059340.000000 0 0 1
29.891575 -32.962713 -26.049931 51.562056 -0.834221 2.100428 0.058298 -0.020956 870399.000000 0 0 1
-27.177575 -30.757910 9.101679 42.041767 0.847118 1.352577 0.065933 -0.017195 -129887.000000 0 0 1
-27.137175 -31.875210 9.941179 43.026530 0.865515 1.337642 0.067861 -0.016687 321234.000000 0 0 1
-25.848755 -31.916110 10.548379 42.403590 0.890050 1.319395 0.047548 -0.008154 405466.000000 0 0 1
-25.730805 -32.925110 11.721079 43.399549 0.907441 1.297327 0.043023 -0.004746 -115818.000000 0 0 1
-25.931025 33.709797 11.518179 44.061740 -0.915093 1.306314 0.049499 0.007135 -1237580.000000 0 0 1
-27.232605 33.300097 11.403279 44.503326 -0.885299 1.311672 0.032445 -0.007841 -1342810.000000 0 0 1
-27.521585 31.811597 11.126579 43.511103 -0.857576 1.312206 0.039568 -0.009153 62955.000000 0 0 1
-27.083495 31.457897 9.821279 42.656447 -0.859983 1.338471 0.070546 -0.020125 67755.600000 0 0 1
-27.264675 30.073197 9.575079 41.706616 -0.834341 1.339148 0.090177 -0.022461 -116995.000000 0 0 1
-26.595315 29.566497 8.295779 40.623989 -0.838253 1.365141 0.070625 -0.009696 126327.000000 0 0 1
-25.179505 29.510797 8.343379 39.680053 -0.864430 1.358949 0.056908 0.003342 274204.000000 0 0 1
-24.624525 29.438397 7.074879 39.026150 -0.874206 1.388503 0.052105 0.010255 -943590.000000 0 0 1
-23.276925 28.784297 7.006879 37.675554 -0.890793 1.383728 0.071182 0.011413 -810924.000000 0 0 1
-23.449325 27.381997 7.190179 36.760621 -0.862611 1.373933 0.074055 0.004826 223766.000000 0 0 1
-23.769025 26.689597 6.006179 36.240521 -0.843214 1.404297 0.053153 -0.000944 -323252.000000 0 0 1
-23.981325 25.182497 6.369679 35.353004 -0.809825 1.389633 0.068864 -0.004802 669403.000000 0 0 1
-25.149265 24.949397 7.209079 36.151470 -0.781409 1.370037 0.093794 -0.007276 1242060.000000 0 0 1
-25.388525 23.563697 7.563379 35.454615 -0.748138 1.355819 0.097001 -0.017993 -497.418000 0 0 1
-25.932745 22.621897 6.449079 35.012114 -0.717315 1.385543 0.081070 -0.026190 169491.000000 0 0 1
-27.276755 22.886397 6.013779 36.110581 -0.698099 1.403479 0.078820 -0.026859 803720.000000 0 0 1
-27.679415 22.015297 4.960779 35.713200 -0.671910 1.431440 0.068355 -0.022624 58265.700000 0 0 1
-27.552975 22.811497 3.602579 35.951487 -0.691532 1.470421 0.058335 -0.022490 -473969.000000 0 0 1
-26.232695 23.191897 3.338879 35.173378 -0.723952 1.475727 0.058762 -0.019062 -180833.000000 0 0 1
-26.122095 23.919997 2.178179 35.486259 -0.741422 1.509377 0.048882 -0.018623 429133.000000 0 0 1
-24.637725 24.373097 2.036879 34.716196 -0.779999 1.512090 0.067067 -0.013009 410315.000000 0 0 1
-24.239325 25.016197 0.840679 34.843389 -0.801169 1.546667 0.051169 -0.022560 -272471.000000 0 0 1
-23.075425 25.779597 1.079179 34.615423 -0.840693 1.539615 0.070528 -0.021935 -656992.000000 0 0 1
-22.487225 26.521497 -0.153421 34.771952 -0.867530 1.575209 0.084186 -0.024515 211026.000000 0 0 1
-21.941525 25.693297 -1.179521 33.807799 -0.863997 1.605692 0.079814 -0.031477 311234.000000 0 0 1
-20.842025 24.858697 -0.851721 32.451044 -0.873064 1.597046 0.082777 -0.041778 -95827.300000 0 0 1
-20.358925 24.010397 -2.042321 31.546094 -0.867510 1.635582 0.093856 -0.052971 -44499.900000 0 0 1
-21.333025 23.041297 -2.309021 31.485408 -0.823876 1.644198 0.084564 -0.049753 78446.800000 0 0 1
-20.843325 22.073897 -3.222721 30.530101 -0.814063 1.676552 0.094188 -0.050000 6405.320000 0 0 1
-21.970125 21.492697 -4.107621 31.007982 -0.774414 1.703657 0.085740 -0.040811 -77472.400000 0 0 1
-22.572125 22.453897 -4.985121 32.226228 -0.782772 1.726111 0.077736 -0.035343 -112471.000000 0 0 1
-23.764325 21.893597 -5.471321 32.772063 -0.744448 1.738533 0.075723 -0.019524 -31121.800000 0 0 1
-24.364025 22.644697 -6.707821 33.932033 -0.748840 1.769791 0.081210 -0.010915 38365.200000 0 0 1
-23.765625 22.187997 -7.915021 33.462811 -0.751081 1.809591 0.084817 -0.016624 86818.700000 0 0 1
-23.654825 23.134897 -8.935221 34.272619 -0.774287 1.834554 0.085631 -0.017700 -411899.000000 0 0 1
-22.900625 22.648897 -10.182821 33.780187 -0.779872 1.877003 0.082879 -0.014916 73935.100000 0 0 1
-23.520325 21.609897 -10.970121 33.771836 -0.743092 1.901629 0.054397 -0.006374 519539.000000 0 0 1
-22.625725 21.184197 -11.996321 33.235604 -0.752506 1.940080 0.063038 -0.004796 194543.000000 0 0 1
-23.393225 20.890497 -13.290821 34.063203 -0.728942 1.971625 0.058750 -0.012542 -165332.000000 0 0 1
-24.146325 19.727997 -13.136421 33.834959 -0.685032 1.969528 0.063349 -0.001693 -637782.000000 0 0 1
-25.280415 19.791197 -13.926921 34.996428 -0.664206 1.980080 0.071130 -0.009705 -718187.000000 0 0 1
-26.039185 18.465097 -14.061221 34.881469 -0.616825 1.985714 0.094280 -0.013191 -143122.000000 0 0 1
-25.545055 17.546797 -14.991621 34.426569 -0.601877 2.021353 0.084420 -0.011944 171171.000000 0 0 1
-26.336445 16.373897 -14.861121 34.388454 -0.556237 2.017677 0.095224 -0.016112 79813.500000 0 0 1
-26.180295 15.355597 -15.954921 34.289382 -0.530458 2.054772 0.104559 -0.011470 -638819.000000 0 0 1
-24.936925 14.742697 -15.889521 33.040494 -0.533923 2.072489 0.111875 -0.015676 -498624.000000 0 0 1
-24.666425 14.121397 -17.124221 33.182606 -0.519949 2.113041 0.107806 -0.028972 -270917.000000 0 0 1
-23.722625 12.945997 -16.979221 31.916386 -0.499554 2.131746 0.104149 -0.017407 666894.000000 0 0 1
-22.364325 13.262897 -16.612221 30.855038 -0.535285 2.139329 0.103516 -0.023394 1171080.000000 0 0 1
-21.606125 12.037597 -16.470921 29.715646 -0.508307 2.158299 0.103737 -0.024800 619209.000000 0 0 1
-20.280125 12.229597 -15.672321 28.398383 -0.542647 2.155406 0.104782 -0.027630 1004750.000000 0 0 1
-19.286125 13.077897 -16.326321 28.452324 -0.595875 2.181951 0.089659 -0.020373 1014930.000000 0 0 1
-18.127925 13.119897 -15.502621 27.222869 -0.626482 2.176658 0.090455 -0.016356 753696.000000 0 0 1
-17.226025 14.440097 -15.691221 27.412894 -0.697646 2.180230 0.074831 -0.014558 471195.000000 0 0 1
-16.572225 14.437497 -16.961921 27.763046 -0.716666 2.228060 0.096012 -0.015109 176007.000000 0 0 1
-15.594625 15.437397 -17.111121 27.826175 -0.780332 2.233092 0.082014 -0.014706 -595978.000000 0 0 1
-15.006025 15.402197 -18.511721 28.374148 -0.798426 2.281563 0.095459 -0.017359 -112788.000000 0 0 1
-14.210225 14.239697 -18.586921 27.389288 -0.786434 2.316679 0.099343 -0.015839 549204.000000 0 0 1
-13.133725 14.327997 -19.571921 27.583443 -0.828859 2.359660 0.117535 -0.022616 1493440.000000 0 0 1
-12.071525 13.197097 -19.374921 26.368023 -0.829913 2.396151 0.111261 -0.027640 561540.000000 0 0 1
-12.510025 12.018397 -20.058021 26.519178 -0.765358 2.428526 0.125913 -0.019649 262179.000000 0 0 1
-11.492125 11.033597 -19.912021 25.500937 -0.765045 2.466797 0.102043 -0.007941 278972.000000 0 0 1
-11.736525 9.723697 -20.707021 25.711418 -0.691878 2.507084 0.109342 -0.016069 17721.200000 0 0 1
-11.228725 9.811597 -22.025921 26.598739 -0.718147 2.546473 0.115024 -0.016706 30431.700000 0 0 1
-11.550325 8.659997 -22.778721 26.968049 -0.643349 2.576718 0.106375 -0.005350 55516.200000 0 0 1
-11.287625 8.924897 -24.299521 28.240591 -0.669032 2.606942 0.094669 -0.012353 53276.400000 0 0 1
-9.972125 8.568697 -24.683921 27.967156 -0.709848 2.652169 0.091776 -0.008637 -194913.000000 0 0 1
-9.802725 8.201397 -26.041581 29.008969 -0.696689 2.685336 0.065167 -0.023201 -242371.000000 0 0 1
-9.640825 9.385097 -27.025651 30.189590 -0.771958 2.679671 0.106527 -0.028380 263037.000000 0 0 1
-8.346725 9.978197 -27.150511 30.106187 -0.874194 2.694771 0.094764 -0.033526 385440.000000 0 0 1
-8.203425 11.118197 -26.322671 29.728665 -0.935125 2.658216 0.068471 -0.023166 718092.000000 0 0 1
-6.719425 11.647897 -26.271031 29.512561 -1.047551 2.668502 0.067476 -0.024624 765739.000000 0 0 1
-6.346025 12.189797 -27.547111 30.784842 -1.090804 2.678840 0.076757 -0.035491 328442.000000 0 0 1
-5.020425 12.679597 -27.474871 30.673203 -1.193790 2.680864 0.092656 -0.034185 -38396.000000 0 0 1
-4.386225 12.814097 -28.873521 31.892323 -1.241000 2.702985 0.095703 -0.033591 643287.000000 0 0 1
-2.971125 13.042297 -28.874161 31.822103 -1.346812 2.707761 0.103812 -0.040849 788025.000000 0 0 1
-2.429225 12.993797 -30.156671 32.926656 -1.385977 2.728476 0.102464 -0.036351 227218.000000 0 0 1
-0.915925 12.682497 -30.262251 32.825120 -1.498702 2.743813 0.116810 -0.047841 -108675.000000 0 0 1
-0.720425 11.324497 -29.833651 31.918803 -1.507265 2.778135 0.094284 -0.029147 234229.000000 0 0 1
0.547275 10.727397 -30.072541 31.933279 1.519824 2.798535 0.099626 -0.037015 402399.000000 0 0 1
0.999575 10.522697 -31.552861 33.276258 1.476088 2.818347 0.110721 -0.037888 -270360.000000 0 0 1
1.474475 11.635497 -32.277331 34.342175 1.444746 2.793059 0.122118 -0.040122 35424.300000 0 0 1
1.351875 11.368297 -33.706151 35.597336 1.452436 2.814165 0.146665 -0.038087 -278656.000000 0 0 1
2.133275 12.263397 33.180308 35.438322 1.398565 0.358901 0.144887 -0.046074 -722190.000000 0 0 1
3.507575 11.997397 33.099408 35.380948 1.286362 0.361082 0.139882 -0.053175 -488495.000000 0 0 1
4.135575 12.887797 32.219366 34.946901 1.260286 0.397706 0.126738 -0.046374 244260.000000 0 0 1
5.659775 12.654997 32.055753 34.924967 1.150243 0.408176 0.127351 -0.043216 173907.000000 0 0 1
5.946375 11.570797 31.190132 33.794483 1.096081 0.395158 0.141814 -0.048901 567976.000000 0 0 1
7.362875 11.375197 31.179192 33.996310 0.996339 0.409965 0.124253 -0.030484 507853.000000 0 0 1
7.823975 10.288697 30.222992 32.870977 0.920645 0.404134 0.079715 -0.018930 -116975.000000 0 0 1
7.738375 10.664097 28.863242 31.728413 0.943064 0.428242 0.078242 -0.035156 -96427.500000 0 0 1
8.238075 9.701897 27.921982 30.685987 0.866813 0.427690 0.062195 -0.041645 600639.000000 0 0 1
7.202175 8.682197 27.278372 29.518832 0.878305 0.392121 0.057875 -0.029426 487666.000000 0 0 1
6.612575 7.801397 28.177502 29.975983 0.867689 0.348158 0.076485 -0.033548 -161551.000000 0 0 1
5.831375 6.809897 27.536022 28.958801 0.862651 0.314766 0.100289 -0.030667 -132643.000000 0 0 1
5.407075 5.627397 28.443632 29.494818 0.805362 0.267781 0.113131 -0.036799 -322551.000000 0 0 1
6.371675 4.694897 28.789262 29.857360 0.635025 0.268286 0.081075 -0.039241 -244208.000000 0 0 1
5.866775 3.932497 29.875912 30.699409 0.590514 0.232144 0.088058 -0.039220 137394.000000 0 0 1
6.767375 2.727997 30.187862 31.057147 0.383185 0.237156 0.110498 -0.025905 58108.500000 0 0 1
6.506775 1.613897 29.369032 30.124456 0.243127 0.224420 0.103805 -0.017799 67914.900000 0 0 1
7.294075 1.653397 28.165052 29.141164 0.222910 0.259556 0.081864 -0.014612 253969.000000 0 0 1
7.350075 0.211697 27.589172 28.552248 0.028794 0.260467 0.079002 -0.014335 -84088.500000 0 0 1
7.956975 -0.690603 28.458062 29.557600 -0.086575 0.273616 0.058560 -0.018850 -30959.100000 0 0 1
8.097475 -2.006603 27.951632 29.170007 -0.242913 0.290042 0.076980 -0.022464 -203682.000000 0 0 1
8.643175 -3.050603 28.946102 30.362600 -0.339300 0.306660 0.056621 -0.015706 1754640.000000 0 0 1
10.050275 -2.893703 29.326042 31.135162 -0.280340 0.342570 0.037526 -0.016480 1581070.000000 0 0 1
10.882575 -3.836203 28.684332 30.918244 -0.338908 0.382464 0.062572 -0.014488 -384952.000000 0 0 1
12.400375 -3.541603 28.734632 31.495894 -0.278198 0.421859 0.055850 -0.008826 564482.000000 0 0 1
13.295675 -4.570703 28.303232 31.602836 -0.331117 0.461037 0.070050 -0.012417 431929.000000 0 0 1
13.364875 -5.744103 29.164482 32.591128 -0.405922 0.462680 0.081111 -0.017149 -478553.000000 0 0 1
12.575175 -6.999703 28.654132 32.065405 -0.507918 0.465460 0.091829 -0.019192 -215868.000000 0 0 1
11.190075 -6.852303 28.720932 31.576317 -0.549455 0.428544 0.085667 -0.021285 -527183.000000 0 0 1
10.467175 -8.059903 28.474302 31.389643 -0.656189 0.434397 0.102528 -0.033911 1339750.000000 0 0 1
8.917875 -7.882303 28.273822 30.676835 -0.723836 0.398441 0.127273 -0.038209 1009430.000000 0 0 1
8.175275 -7.413703 29.380422 31.384826 -0.736584 0.359324 0.148457 -0.042300 -366991.000000 0 0 1
6.810575 -7.327903 29.039672 30.714568 -0.821972 0.331765 0.140031 -0.045587 -88209.700000 0 0 1
6.003175 -6.908103 30.297252 31.649384 -0.855372 0.293360 0.126018 -0.047055 -71083.400000 0 0 1
5.775175 -7.874403 31.319922 32.806957 -0.937997 0.302236 0.125740 -0.046365 -121761.000000 0 0 1
5.252075 -7.331303 32.505210 33.733085 -0.949155 0.270639 0.127168 -0.039814 -546838.000000 0 0 1
6.097575 -6.388403 33.328701 34.478899 -0.808686 0.259024 0.123974 -0.022576 -370869.000000 0 0 1
6.067375 -5.179903 32.568004 33.530872 -0.706656 0.240226 0.125161 -0.021421 -405618.000000 0 0 1
6.855375 -4.200403 33.162151 34.122835 -0.549718 0.237852 0.090999 -0.009528 -500532.000000 0 0 1
6.953475 -2.978903 32.230247 33.106095 -0.404751 0.230535 0.088435 -0.019181 -928866.000000 0 0 1
5.743275 -2.395703 31.911458 32.512548 -0.395187 0.192589 0.114374 -0.026122 -888599.000000 0 0 1
5.916775 -1.132603 31.285032 31.859759 -0.189134 0.190230 0.096124 -0.017788 274168.000000 0 0 1
4.595775 -0.499903 30.723822 31.069669 -0.108348 0.149345 0.117876 -0.022760 -77534.800000 0 0 1
3.870975 -0.065503 31.789302 32.024186 -0.016920 0.121190 0.110014 -0.022600 -1276140.000000 0 0 1
2.711375 0.561997 31.338082 31.460178 0.204380 0.088130 0.117774 -0.028081 -26912.900000 0 0 1
1.631875 0.794997 32.438962 32.489711 0.453329 0.055900 0.105175 -0.027241 332347.000000 0 0 1
1.888175 2.035297 33.147801 33.263860 0.822879 0.083559 0.093388 -0.021999 893479.000000 0 0 1
0.933175 2.276297 -33.640021 33.729859 1.181739 3.068591 0.074084 -0.025467 704714.000000 0 0 1
1.373875 3.393097 -32.727731 32.931824 1.186070 3.030203 0.073467 -0.024501 142988.000000 0 0 1
2.374475 2.987997 -31.812951 32.041069 0.899313 3.022194 0.041856 -0.004997 -43565.500000 0 0 1
3.005075 3.982897 -31.046811 31.445165 0.924425 2.982250 0.041989 -0.014531 525886.000000 0 0 1
4.047175 3.363797 -30.022431 30.480176 0.693447 2.968067 0.037798 -0.013222 97073.800000 0 0 1
3.408475 2.826497 -28.906991 29.244160 0.692327 2.989595 0.041751 -0.021668 104359.000000 0 0 1
4.194875 3.037597 -27.743861 28.223143 0.626732 2.957038 0.051605 -0.025901 -10890.800000 0 0 1
3.699875 2.321697 -26.499281 26.856866 0.560400 2.978227 0.037877 -0.026397 -149828.000000 0 0 1
4.057275 0.932197 -26.565441 26.889647 0.225840 2.986150 0.064715 -0.028135 23043.100000 0 0 1
3.459075 0.108297 -25.592181 25.825117 0.031298 3.007180 0.069589 -0.025942 -475940.000000 0 0 1
3.985875 -1.315103 -25.313101 25.658717 -0.318694 2.977275 0.077267 -0.030113 248695.000000 0 0 1
5.301175 -1.395403 -24.768121 25.367488 -0.257387 2.923781 0.084780 -0.039668 360972.000000 0 0 1
5.701675 -2.758403 -24.801021 25.597041 -0.450594 2.891550 0.091490 -0.038003 -605856.000000 0 0 1
7.176875 -2.982903 -24.497421 25.700756 -0.393905 2.834376 0.103557 -0.043591 -424280.000000 0 0 1
8.043275 -2.652403 -25.565331 26.931685 -0.318537 2.821690 0.100674 -0.046874 -1223670.000000 0 0 1
9.278975 -3.191703 -25.241871 27.082068 -0.331294 2.770829 0.086843 -0.040513 -878073.000000 0 0 1
-30.109455 -4.538503 17.687162 35.213818 0.149607 1.044564 0.132742 -0.016290 1002210.000000 0 0 1
-31.537465 -4.545303 17.469362 36.337998 0.143138 1.069291 0.116042 -0.018333 751090.000000 0 0 1
-32.063135 -5.149303 18.600462 37.423751 0.159239 1.050632 0.108577 -0.022822 -198014.000000 0 0 1
-33.531545 -4.857303 18.960362 38.825935 0.143857 1.060607 0.103377 -0.020423 -270173.000000 0 0 1
-34.458554 -5.323703 18.028562 39.252552 0.153284 1.093593 0.094797 -0.017976 -44563.800000 0 0 1
-35.745617 -4.857403 18.388762 40.490617 0.135061 1.099380 0.095904 -0.020799 446959.000000 0 0 1
-36.903665 -5.126903 17.377662 41.111419 0.138043 1.134377 0.069941 -0.025998 494802.000000 0 0 1
36.216426 -4.641103 17.757062 40.601510 -0.127454 1.118147 0.083575 -0.029203 -540901.000000 0 0 1
35.308776 -4.658103 16.733362 39.349879 -0.131167 1.131563 0.070994 -0.030570 -609386.000000 0 0 1
33.952056 -5.276603 17.059762 38.361702 -0.154180 1.109948 0.064725 -0.027371 -72629.300000 0 0 1
33.026516 -4.458303 17.773762 37.769483 -0.134180 1.080842 0.085729 -0.029079 112825.000000 0 0 1
31.965376 -5.238203 18.246962 37.177623 -0.162427 1.057783 0.111144 -0.032254 -134240.000000 0 0 1
31.341186 -4.738103 19.608662 37.272231 -0.150042 1.016796 0.101820 -0.022405 518905.000000 0 0 1
30.392576 -3.670303 19.481462 36.286460 -0.120181 1.004062 0.103451 -0.019312 432300.000000 0 0 1
30.999126 -2.384103 19.455962 36.676481 -0.076758 1.011635 0.100571 -0.021579 -435180.000000 0 0 1
30.003146 -1.224203 19.646562 35.884187 -0.040780 0.991424 0.114704 -0.015122 -154562.000000 0 0 1
30.474276 0.064897 19.402462 36.126739 0.002130 1.003841 0.114413 -0.022365 318785.000000 0 0 1
29.564616 0.985197 20.040762 35.730509 0.033311 0.975340 0.109957 -0.016636 693739.000000 0 0 1
29.827466 2.448297 19.487862 35.713424 0.081898 0.993604 0.098996 -0.026619 238375.000000 0 0 1
29.340296 2.449997 18.141162 34.582615 0.083310 1.018581 0.102043 -0.027731 148080.000000 0 0 1
29.280176 3.722397 17.579362 34.354315 0.126452 1.033625 0.096332 -0.032819 81564.000000 0 0 1
28.833376 3.635597 16.114562 33.230412 0.125428 1.064508 0.100223 -0.033939 89591.700000 0 0 1
28.711876 4.823097 15.390462 32.931754 0.166429 1.084512 0.104649 -0.028841 190872.000000 0 0 1
28.095776 4.505197 14.149262 31.778469 0.158998 1.109346 0.104135 -0.029828 -218595.000000 0 0 1
27.676876 5.782497 13.376062 31.278839 0.205966 1.128917 0.109278 -0.021254 -603071.000000 0 0 1
26.629976 6.474197 13.971362 30.761499 0.238490 1.099341 0.100854 -0.022750 -365399.000000 0 0 1
26.189076 7.507697 13.089962 30.225492 0.279186 1.122893 0.107095 -0.041729 -485991.000000 0 0 1
24.887876 8.245097 13.540462 29.508170 0.319910 1.094072 0.107669 -0.042682 1198940.000000 0 0 1
23.651576 7.504197 13.395262 28.198282 0.307235 1.075789 0.110036 -0.031101 1278870.000000 0 0 1
23.546676 6.332997 14.138562 28.186021 0.262738 1.045330 0.127192 -0.035290 -590288.000000 0 0 1
22.134476 5.691997 13.857162 26.727417 0.251702 1.025744 0.134401 -0.028985 434543.000000 0 0 1
21.930176 5.336997 12.543862 25.821786 0.238723 1.063534 0.155435 -0.033798 -231410.000000 0 0 1
20.765376 4.624997 12.335362 24.591718 0.219149 1.045342 0.147856 -0.029541 -847823.000000 0 1 0
20.358776 4.613097 10.827962 23.516063 0.222827 1.092295 0.146563 -0.030130 -308562.000000 0 1 0
21.271676 3.961997 9.979562 23.827994 0.184147 1.138654 0.158843 -0.037402 444105.000000 0 1 0
20.681876 3.672197 8.736462 22.749743 0.175725 1.176645 0.153530 -0.032894 -19883.400000 0 1 0
21.681076 2.886697 7.884762 23.250195 0.132365 1.224808 0.135257 -0.025400 -1044940.000000 0 1 0
21.851676 1.589997 8.387462 23.460038 0.072635 1.205184 0.126975 -0.029792 329305.000000 0 1 0
22.854776 0.940197 7.699762 24.135267 0.041115 1.246095 0.121230 -0.012877 139451.000000 0 1 0
24.374376 1.322197 7.692062 25.593480 0.054192 1.265529 0.128759 -0.015770 595408.000000 0 0 1
25.277576 0.885997 8.738462 26.760074 0.035036 1.238147 0.123807 -0.009412 800213.000000 0 0 1
25.059676 1.411397 10.071762 27.044774 0.056262 1.189191 0.114629 -0.013886 -536062.000000 0 0 1
25.978476 0.920397 11.196262 28.303439 0.035414 1.164098 0.097836 -0.010136 84415.300000 0 0 1
27.376576 1.184897 11.099562 29.564864 0.043254 1.185935 0.107295 -0.014013 374522.000000 0 0 1
27.924476 0.461897 12.164562 30.462539 0.016539 1.160012 0.115860 -0.016889 769.017000 0 0 1
29.467846 0.499397 12.337062 31.950062 0.016946 1.174358 0.147408 -0.022078 217432.000000 0 0 1
29.989226 1.716297 12.793462 32.649227 0.057168 1.168159 0.134130 -0.019698 -84451.400000 0 0 1
31.369416 1.521897 12.976362 33.981501 0.048477 1.178982 0.128802 -0.021317 -494239.000000 0 0 1
32.191506 2.715597 13.389062 34.970481 0.084158 1.177898 0.122516 -0.026915 -407967.000000 0 0 1
32.336596 3.662697 12.326462 34.799604 0.112787 1.208724 0.122089 -0.027059 -177907.000000 0 0 1
33.102516 4.724097 12.735262 35.781009 0.141754 1.206895 0.108055 -0.028851 216288.000000 0 0 1
34.543336 4.764697 12.121162 36.917028 0.137069 1.236256 0.117635 -0.021203 911162.000000 0 0 1
35.488326 3.913597 12.827062 37.937726 0.109835 1.225890 0.119675 -0.027457 836455.000000 0 0 1
36.790216 4.253297 12.358262 39.042761 0.115098 1.248726 0.120765 -0.017889 720764.000000 0 0 1
-36.428035 3.406597 12.968062 38.817229 -0.093245 1.230167 0.158980 -0.015929 -8324.770000 0 0 1
-36.287105 2.030797 12.498162 38.432827 -0.055906 1.239578 0.151719 -0.015943 1202860.000000 0 0 1
36.965516 1.140897 12.709162 39.105931 0.030854 1.239792 0.144105 -0.011936 852174.000000 0 0 1
36.565566 0.806397 14.214462 39.239544 0.022050 1.200117 0.129957 -0.009824 -247772.000000 0 0 1
-36.845825 0.007697 14.788462 39.702815 -0.000209 1.189118 0.123156 -0.016648 -159141.000000 0 0 1
-37.158505 -0.231803 16.134862 40.511011 0.006238 1.161152 0.118933 -0.023886 -253016.000000 0 0 1
-36.196755 -1.167003 16.908062 39.968107 0.032229 1.134000 0.111230 -0.021169 225084.000000 0 0 1
-35.048329 -0.387003 17.262362 39.070760 0.011042 1.113167 0.130642 -0.016701 400982.000000 0 0 1
-34.096432 -1.057803 18.071962 38.604164 0.031014 1.083617 0.133076 -0.017370 155065.000000 0 0 1
-34.363265 -0.951703 19.588662 39.565836 0.027688 1.052858 0.120277 -0.023656 -231733.000000 0 0 1
-35.329396 -1.834603 20.117162 40.696833 0.051882 1.053747 0.110699 -0.030467 39534.200000 0 0 1
-35.316511 -1.773403 21.527962 41.398721 0.050172 1.023928 0.105504 -0.031178 -29805.800000 0 0 1
-35.561340 -3.160303 22.166462 42.023190 0.088636 1.015163 0.089610 -0.029627 -451610.000000 0 0 1
-34.571769 -4.151803 22.026462 41.202060 0.119520 1.006767 0.103504 -0.026452 -123007.000000 0 0 1
-34.851316 -5.373803 22.666662 41.919799 0.152987 0.999510 0.098536 -0.033282 -54556.500000 0 0 1
-35.171733 -5.403103 24.202222 43.034775 0.152429 0.973526 0.100673 -0.039167 751589.000000 0 0 1
-33.980415 -5.051003 24.926202 42.444043 0.147564 0.943112 0.104673 -0.034964 278723.000000 0 0 1
-34.161250 -4.916003 26.348562 43.421249 0.142925 0.918752 0.100331 -0.039651 367412.000000 0 0 1
-33.105945 -3.992903 27.044692 42.934395 0.120030 0.889362 0.102224 -0.035288 259260.000000 0 0 1
-33.205855 -2.587103 26.777822 42.736093 0.077754 0.893632 0.102398 -0.025645 -395287.000000 0 0 1
-32.532315 -2.211403 25.594712 41.452758 0.067871 0.905309 0.095496 -0.028752 -162428.000000 0 0 1
-32.472945 -0.676403 25.293122 41.166634 0.020827 0.909160 0.095964 -0.023078 -655349.000000 0 0 1
-33.743135 -0.159603 25.079302 42.042788 0.004730 0.931640 0.100479 -0.030869 -1066290.000000 0 0 1
-33.666655 1.244597 24.813012 41.841107 -0.036951 0.935980 0.094396 -0.016274 631278.000000 0 0 1
-34.974576 1.904297 24.225952 42.588074 -0.054394 0.965697 0.083131 -0.015468 642412.000000 0 0 1
-35.390056 1.459197 22.931242 42.195109 -0.041208 0.996246 0.085219 -0.020521 175620.000000 0 0 1
-36.478165 2.283697 22.476962 42.907874 -0.062523 1.019441 0.073305 -0.007944 459617.000000 0 0 1
-36.143475 3.610997 21.683362 42.303171 -0.099577 1.032620 0.071547 -0.009355 -484466.000000 0 0 1
-35.644394 3.373997 20.377062 41.196254 -0.094376 1.053383 0.075345 -0.011789 -319606.000000 0 0 1
-36.588765 3.357797 19.351862 41.527185 -0.091515 1.086027 0.088850 -0.028427 -179054.000000 0 0 1
-35.969088 2.571597 18.139862 40.366360 -0.071373 1.104724 0.113172 -0.022861 372585.000000 0 0 1
-34.847558 3.265697 17.601462 39.176888 -0.093441 1.104835 0.120024 -0.025407 344167.000000 0 0 1
-34.443839 2.684197 16.387562 38.237876 -0.077772 1.127888 0.145932 -0.017008 419032.000000 0 0 1
-33.400485 3.624897 15.683662 37.077076 -0.108105 1.134041 0.148190 -0.021745 459805.000000 0 0 1
-34.105865 4.715897 15.174262 37.625895 -0.137401 1.155684 0.148692 -0.023413 68648.000000 0 0 1
-33.209615 5.637797 14.640662 36.728903 -0.168161 1.160791 0.163519 -0.020531 -347764.000000 0 0 1
-33.833365 6.922297 13.982462 37.257537 -0.201814 1.186084 0.173654 -0.024280 57552.200000 0 0 1
-33.086885 7.297197 12.843562 36.234626 -0.217072 1.208465 0.196201 -0.013571 134450.000000 0 0 1
-33.421505 8.600497 12.457262 36.689902 -0.251869 1.224381 0.164559 -0.012458 -99474.400000 0 0 1
-32.357665 9.311697 11.594262 35.611137 -0.280203 1.239172 0.191583 -0.016146 128463.000000 0 0 1
-32.679245 10.685297 11.446562 36.237169 -0.316017 1.249413 0.159873 -0.003028 497398.000000 0 0 1
-31.710865 11.284797 10.582762 35.283430 -0.341890 1.266171 0.158093 -0.009285 216651.000000 0 0 1
-31.926995 12.787297 10.499162 35.959427 -0.380952 1.274508 0.144466 -0.003838 -160148.000000 0 0 1
-31.215515 13.401097 9.477462 35.267833 -0.405515 1.298724 0.145902 -0.002388 -136979.000000 0 0 1
-31.270365 14.799797 9.568262 35.894587 -0.442048 1.300968 0.125817 -0.006809 -206882.000000 0 0 1
-30.353225 15.505397 8.548862 35.139987 -0.472276 1.325050 0.131185 -0.012022 1197080.000000 0 0 1
-28.957335 15.415197 8.955262 34.005180 -0.489185 1.304303 0.152051 -0.008761 1275750.000000 0 0 1
-28.194195 16.322597 8.189862 33.591869 -0.524786 1.324509 0.113626 -0.029885 -802361.000000 0 0 1
-26.729665 16.517197 8.535162 32.559819 -0.553503 1.305559 0.108607 -0.023843 -974565.000000 0 0 1
-26.502415 17.066297 9.850962 33.025414 -0.572112 1.267902 0.096582 -0.023275 415259.000000 0 0 1
-27.119045 18.355897 10.182962 34.293939 -0.595029 1.269318 0.094758 -0.032615 -66716.900000 0 0 1
-27.092705 18.820097 11.661962 34.988742 -0.607130 1.230988 0.115904 -0.024500 -703279.000000 0 0 1
-25.792165 18.902697 12.154962 34.209514 -0.632457 1.207551 0.103926 -0.019259 -542966.000000 0 0 1
-25.684725 19.316497 13.500262 34.858130 -0.644819 1.173104 0.102786 -0.032491 -137898.000000 0 0 1
-26.137815 18.258697 14.545062 35.044603 -0.609755 1.142805 0.095870 -0.028303 267105.000000 0 0 1
-25.281905 17.110497 14.599062 33.838978 -0.594977 1.124722 0.084017 -0.023156 384115.000000 0 0 1
-25.814545 16.169597 15.516062 34.184716 -0.559588 1.099671 0.081086 -0.016081 -599281.000000 0 0 1
-24.840125 15.143197 16.014062 33.208409 -0.547468 1.067599 0.077965 -0.007766 -1142770.000000 0 0 1
-23.890725 15.745197 16.817462 33.188929 -0.582711 1.039422 0.073425 -0.006586 -545666.000000 0 0 1
-22.813025 14.910197 17.188562 32.221030 -0.578890 1.008113 0.056046 -0.010062 -103617.000000 0 0 1
-23.130725 13.702197 18.161762 32.444264 -0.534798 0.976672 0.073051 -0.010564 -487031.000000 0 0 1
-23.240725 14.134997 19.501662 33.470050 -0.546427 0.948798 0.078233 -0.012310 174383.000000 0 0 1
-23.201525 13.007697 20.340862 33.485245 -0.510975 0.917940 0.090993 -0.017861 -443555.000000 0 0 1
-22.759725 13.248597 21.787362 34.179227 -0.527159 0.879619 0.094191 -0.015046 344672.000000 0 0 1
-21.423025 13.648997 22.082262 33.658096 -0.567266 0.855189 0.093332 -0.012396 434809.000000 0 0 1
-21.141725 14.996797 21.802262 33.870564 -0.616971 0.871481 0.083245 0.000315 -1076020.000000 0 0 1
-19.762225 15.486197 22.218362 33.526459 -0.664677 0.846363 0.084080 -0.010763 -223394.000000 0 0 1
-18.730125 14.880797 21.469362 32.143261 -0.671369 0.839376 0.057112 -0.010034 -100443.000000 0 0 1
-18.228225 15.764697 20.439962 31.600410 -0.713053 0.867381 0.058777 -0.018011 -594658.000000 0 0 1
-16.948225 15.238997 19.713362 30.134466 -0.732345 0.857698 0.053779 -0.011938 828641.000000 0 0 1
-15.856325 14.877697 20.547962 29.916345 -0.753567 0.813654 0.045236 -0.007330 120976.000000 0 0 1
-15.202325 15.924997 21.202162 30.565469 -0.808611 0.804233 0.030540 -0.008919 -1701690.000000 0 0 1
-14.154725 15.485997 22.166862 30.521175 -0.830282 0.757904 -0.005425 -0.007066 -402356.000000 0 0 1
-13.040725 14.891297 21.487262 29.214956 -0.851554 0.744409 0.026214 -0.007543 175945.000000 0 0 1
-12.192925 14.285397 22.451962 29.271669 -0.864260 0.696612 0.043802 -0.010057 532503.000000 0 0 1
-10.874025 13.636297 21.911662 28.005606 -0.897623 0.672282 0.048502 -0.016167 -247123.000000 0 0 1
-10.484525 12.676997 22.916492 28.209877 -0.879777 0.622614 0.057948 -0.011100 276639.000000 0 0 1
-9.186025 12.120297 22.815462 27.419518 -0.922256 0.587934 0.062584 0.001277 663365.000000 0 0 1
-7.948825 13.039197 23.078072 27.673126 -1.023341 0.584564 0.060583 0.006137 -16586.500000 0 0 1
-7.589725 13.778697 21.863462 26.934502 -1.067316 0.623693 0.053198 0.000727 -105646.000000 0 0 1
-6.866125 14.927497 22.242762 27.653469 -1.139687 0.636234 0.049272 0.010049 222820.000000 0 0 1
-7.767725 16.114497 22.793362 28.975023 -1.121625 0.665423 0.062412 -0.020080 655008.000000 0 0 1
-8.674925 16.568097 21.800662 28.723249 -1.088454 0.709036 0.021370 -0.016018 -200012.000000 0 0 1
-8.166625 17.576997 20.939762 28.532757 -1.135851 0.746773 0.031684 -0.004830 -149199.000000 0 0 1
-9.176325 17.743697 19.728262 28.075756 -1.093515 0.791640 0.028861 0.000960 1594920.000000 0 0 1
-10.334425 18.568597 19.868262 29.091940 -1.062935 0.819006 0.010360 0.004839 495464.000000 0 0 1
-11.314325 18.098097 20.772762 29.783598 -1.012077 0.798954 0.017932 -0.002181 442598.000000 0 0 1
-12.660525 18.946297 20.855462 30.890150 -0.981711 0.829629 0.005277 -0.004388 1145980.000000 0 0 1
-13.511325 18.647097 19.744062 30.333119 -0.943763 0.862017 0.016015 -0.000988 -693695.000000 0 0 1
-14.636725 19.422597 19.883762 31.413930 -0.925000 0.885426 -0.004961 -0.006954 -275164.000000 0 0 1
-15.606825 19.485197 18.624662 31.146813 -0.895471 0.929838 0.031266 -0.004160 352755.000000 0 0 1
-16.407625 18.341997 18.367462 30.708349 -0.841007 0.929636 0.046021 -0.007766 287812.000000 0 0 1
-17.055925 18.423697 17.103362 30.378647 -0.823930 0.972778 0.055182 -0.017048 87569.600000 0 0 1
-17.904325 17.189497 16.624762 29.873506 -0.765032 0.980623 0.055575 -0.024114 209604.000000 0 0 1
-19.023825 16.837497 17.372362 30.776715 -0.724507 0.971012 0.049958 -0.016411 -1100480.000000 0 0 1
-20.211725 17.379797 16.937262 31.582306 -0.710206 1.004761 0.066805 -0.019559 -1000440.000000 0 0 1
34.859436 -9.754503 12.088979 38.163779 -0.272845 1.248479 0.074379 -0.035386 -207952.000000 0 0 1
33.513116 -10.047503 11.803179 36.924197 -0.291281 1.245426 0.081086 -0.028235 29080.300000 0 0 1
33.055096 -11.256403 12.428879 37.065119 -0.328218 1.228846 0.100056 -0.029681 742517.000000 0 0 1
31.521156 -11.522903 12.276679 35.736220 -0.350470 1.220117 0.106297 -0.028032 278086.000000 0 0 1
30.630716 -10.517003 12.785079 34.818190 -0.330737 1.194804 0.120301 -0.024330 951014.000000 0 0 1
29.337676 -11.083303 13.045079 33.966350 -0.361209 1.176608 0.113247 -0.023521 550733.000000 0 0 1
29.232276 -12.084803 14.263179 34.698800 -0.392010 1.147183 0.101168 -0.024016 -1681570.000000 0 0 1
29.333436 -11.557803 15.543179 35.151439 -0.375336 1.112771 0.109816 -0.023944 751083.000000 0 0 1
28.289976 -12.044203 16.414679 34.854372 -0.402498 1.080429 0.109199 -0.031360 713681.000000 0 0 1
26.830676 -11.670103 16.084879 33.388618 -0.410271 1.068149 0.098261 -0.044175 -692411.000000 0 0 1
26.418976 -10.380603 16.473279 32.819021 -0.374390 1.044952 0.091974 -0.046734 93048.600000 0 0 1
25.724376 -9.661003 15.415479 31.507388 -0.359260 1.059549 0.102239 -0.039066 390985.000000 0 0 1
25.520976 -8.172303 15.834379 31.126103 -0.309902 1.037102 0.116677 -0.038184 76751.600000 0 0 1
26.733576 -7.458103 15.975179 32.023643 -0.272062 1.048518 0.110605 -0.032230 -191504.000000 0 0 1
26.597976 -6.057003 16.239179 31.746662 -0.223906 1.033839 0.099758 -0.033019 -848350.000000 0 0 1
27.934976 -5.346103 16.185679 32.724913 -0.189090 1.053424 0.107509 -0.028176 -479443.000000 0 0 1
28.331676 -5.068603 14.864979 32.393552 -0.177030 1.094054 0.120449 -0.030835 63848.200000 0 0 1
29.526136 -4.318503 14.857679 33.334559 -0.145231 1.108825 0.123249 -0.029644 -41986.900000 0 0 1
29.725476 -3.696703 13.424779 32.825207 -0.123726 1.149463 0.136112 -0.027842 -162584.000000 0 0 1
30.363306 -4.516503 12.463979 33.131253 -0.147666 1.185105 0.117893 -0.029835 386201.000000 0 0 1
30.395206 -3.781903 11.261379 32.634185 -0.123788 1.218473 0.132939 -0.028376 -161769.000000 0 0 1
30.988256 -4.632603 10.140679 32.932756 -0.148396 1.257789 0.135779 -0.023139 191130.000000 0 0 1
32.372076 -4.899103 10.343979 34.335847 -0.150198 1.264784 0.134802 -0.031105 481947.000000 0 0 1
32.801406 -5.891503 9.434079 34.635876 -0.177716 1.294932 0.127883 -0.024161 123960.000000 0 0 1
34.260856 -6.418603 9.429279 36.109777 -0.185198 1.306606 0.123352 -0.028953 281883.000000 0 0 1
35.237196 -5.499603 9.000679 36.782032 -0.154825 1.323583 0.123188 -0.028089 402578.000000 0 0 1
36.472246 -6.144403 8.680079 37.991080 -0.166901 1.340284 0.118561 -0.037803 1232570.000000 0 0 1
-36.725425 -5.189003 8.302179 38.008009 0.140363 1.350589 0.123753 -0.033055 658120.000000 0 0 1
-36.923885 -4.569803 7.009979 37.860219 0.123137 1.384568 0.122046 -0.028398 -444655.000000 0 0 1
-36.015307 -3.570703 6.714779 36.809517 0.098821 1.387349 0.143528 -0.029125 -331269.000000 0 0 1
-36.156155 -3.048503 5.245479 36.661642 0.084116 1.427225 0.129437 -0.031314 181011.000000 0 0 1
-35.610496 -3.892403 4.197379 36.067662 0.108873 1.454157 0.144847 -0.036390 211405.000000 0 0 1
-35.703713 -3.169403 2.987979 35.968434 0.088537 1.487628 0.160357 -0.031132 321110.000000 0 0 1
-34.995006 -3.940903 1.789879 35.261662 0.112141 1.520015 0.208407 -0.042518 319005.000000 0 0 1
-35.563012 -5.211703 1.370979 35.969004 0.145513 1.532672 0.173814 -0.024741 638369.000000 0 0 1
-36.532535 -5.184503 0.291479 36.899731 0.140973 1.562897 0.144793 -0.027691 387134.000000 0 0 1
-35.938316 -5.145403 -1.146321 36.322882 0.142207 1.602361 0.194649 -0.036839 -737164.000000 0 0 1
-35.309069 -6.392903 -1.509521 35.914875 0.179115 1.612839 0.169702 -0.035720 534471.000000 0 0 1
-34.194270 -6.284703 -2.375321 34.848067 0.181765 1.639011 0.163768 -0.035965 -333823.000000 0 0 1
-32.921055 -5.696603 -1.756921 33.456448 0.171342 1.623334 0.186423 -0.054445 -927379.000000 0 0 1
-32.337015 -6.751603 -0.953921 33.048096 0.205832 1.599665 0.169310 -0.044919 30228.500000 0 0 1
-31.156205 -6.332303 -0.293821 31.794551 0.200513 1.580038 0.196355 -0.060523 180730.000000 0 0 1
-30.573815 -7.351003 0.680579 31.452482 0.235956 1.549156 0.160794 -0.047736 -82386.800000 0 0 1
-30.071795 -8.492203 -0.038221 31.247909 0.275231 1.572019 0.170513 -0.038616 318894.000000 0 0 1
-29.778135 -9.532803 0.838379 31.278020 0.309819 1.543989 0.147350 -0.026922 -115534.000000 0 0 1
-29.131235 -10.715503 0.057879 31.039559 0.352475 1.568932 0.133872 -0.020307 1828250.000000 0 0 1
-27.857445 -10.514203 -0.703021 29.783887 0.360898 1.594403 0.142151 -0.034545 2310320.000000 0 0 1
-27.234645 -11.724803 -1.116121 29.672253 0.406529 1.608420 0.134396 -0.022272 134655.000000 0 0 1
-27.994085 -12.724203 -2.073821 30.820040 0.426616 1.638135 0.129239 -0.022013 -378800.000000 0 0 1
-29.048595 -13.456403 -1.513121 32.049730 0.433808 1.618026 0.136504 -0.023938 185901.000000 0 0 1
-29.486705 -14.496503 -2.356021 32.941846 0.456928 1.642378 0.119927 -0.023167 -81489.500000 0 0 1
-30.309585 -15.553103 -1.570521 34.103321 0.474105 1.616864 0.116918 -0.020721 541246.000000 0 0 1
-29.436795 -16.324303 -0.703621 33.667534 0.506333 1.591697 0.100225 -0.013871 1329840.000000 0 0 1
-30.132015 -16.955703 0.441579 34.577871 0.512552 1.558025 0.090422 -0.010355 683788.000000 0 0 1
-30.836005 -18.353203 0.180479 35.884981 0.536873 1.565767 0.109500 -0.022184 -184154.000000 0 0 1
-29.976065 -19.437303 0.080879 35.726457 0.575269 1.568532 0.106607 -0.028440 -210660.000000 0 0 1
-30.623845 -20.692203 0.049979 36.959297 0.594223 1.569444 0.107836 -0.029135 24426.500000 0 0 1
-31.463215 -21.165803 1.281679 37.941637 0.592179 1.537010 0.110010 -0.021570 -505924.000000 0 0 1
-30.709895 -21.439903 2.446679 37.533363 0.609479 1.505563 0.107567 -0.027843 199113.000000 0 0 1
-31.603575 -21.932603 3.442179 38.622191 0.606682 1.481554 0.098746 -0.031878 401645.000000 0 0 1
-30.905675 -22.256803 4.793679 38.386266 0.624124 1.445589 0.091780 -0.029584 28706.500000 0 0 1
-30.688575 -21.032703 5.519679 37.611569 0.600832 1.423510 0.074223 -0.034090 162484.000000 0 0 1
-29.972515 -21.239103 6.736579 37.347458 0.616487 1.389428 0.069400 -0.031241 276454.000000 0 0 1
-29.595735 -19.903303 7.459579 36.437540 0.592034 1.364616 0.075200 -0.021832 -8020.260000 0 0 1
-28.600195 -20.075703 8.431279 35.945674 0.612029 1.334034 0.069439 -0.029607 -315574.000000 0 0 1
-28.288685 -18.763603 8.953079 35.106696 0.585661 1.312923 0.090882 -0.034388 -93170.700000 0 0 1
-26.982455 -18.853203 9.753679 34.331187 0.609867 1.282723 0.100956 -0.025543 -381486.000000 0 0 1
-26.969205 -19.703603 10.908579 35.136407 0.630967 1.255116 0.100811 -0.027590 -506365.000000 0 0 1
-25.665295 -19.780603 11.402079 34.350939 0.656627 1.232448 0.098118 -0.018283 -271702.000000 0 0 1
-25.256005 -18.666603 12.450079 33.783314 0.636486 1.193372 0.095657 -0.019590 -252161.000000 0 0 1
-24.916425 -17.387003 11.769679 32.583147 0.609257 1.201221 0.100720 -0.019974 147878.000000 0 0 1
-24.764525 -16.188403 12.471779 32.107497 0.578967 1.171860 0.087376 -0.015154 643894.000000 0 0 1
-23.778925 -16.162603 13.707579 31.852233 0.596973 1.125917 0.077490 -0.008294 420416.000000 0 0 1
-24.382525 -16.830203 14.812279 33.123509 0.604157 1.107183 0.070089 -0.022334 690207.000000 0 0 1
-23.421525 -17.164903 15.823779 33.069528 0.632447 1.071850 0.069754 -0.011828 527621.000000 0 0 1
-24.139625 -17.912703 16.971779 34.519961 0.638391 1.056811 0.054117 0.020377 174655.000000 0 0 1
-25.098185 -17.170803 17.681479 35.176556 0.600006 1.044135 0.057682 0.005217 625749.000000 0 0 1
-26.036535 -18.000203 18.417179 36.621045 0.604893 1.043831 0.045279 0.015507 395848.000000 0 0 1
-27.100165 -17.195903 19.214179 37.407255 0.565424 1.031365 0.044379 0.004742 -124990.000000 0 0 1
-26.701485 -16.603203 20.435879 37.500144 0.556301 0.994461 0.055592 -0.004921 128484.000000 0 0 1
-27.735915 -15.805703 20.991079 38.206369 0.517966 0.989135 0.062252 -0.013284 194084.000000 0 0 1
-27.270745 -15.098103 22.300979 38.327274 0.505632 0.949787 0.069530 -0.016724 -484423.000000 0 0 1
-26.193905 -14.271703 22.068879 37.105762 0.498879 0.933834 0.071316 -0.018760 -832988.000000 0 0 1
-25.518515 -13.970303 23.227679 37.227531 0.500889 0.897024 0.063020 -0.021024 532982.000000 0 0 1
-24.083925 -13.348803 23.009779 35.884201 0.506109 0.874705 0.070830 -0.008155 821778.000000 0 0 1
-24.146625 -12.052403 22.479179 35.123118 0.462955 0.876284 0.092632 -0.017925 93326.100000 0 0 1
-22.926025 -11.704903 21.869679 33.777067 0.472053 0.866535 0.099548 -0.015609 -467445.000000 0 0 1
-22.573525 -10.217803 22.097579 33.200460 0.425052 0.842525 0.108652 -0.015482 146077.000000 0 0 1
-21.828225 -9.843303 23.258179 33.381206 0.423639 0.799947 0.111949 -0.021102 226979.000000 0 0 1
-20.431925 -9.965403 23.058279 32.379886 0.453789 0.778287 0.096446 -0.020351 -142558.000000 0 0 1
-19.767625 -10.246603 24.424779 33.050290 0.478222 0.739184 0.097406 -0.023613 -204388.000000 0 0 1
-20.014125 -11.508703 25.035379 34.055626 0.521856 0.744935 0.107868 -0.025785 -277251.000000 0 0 1
-19.382325 -11.687803 26.268779 34.674602 0.542632 0.711199 0.116079 -0.022765 -876338.000000 0 0 1
-19.758225 -12.937503 27.042379 35.903436 0.579736 0.717887 0.103920 -0.048926 634272.000000 0 0 1
-20.961825 -12.892903 27.810279 37.135383 0.551424 0.724412 0.114179 -0.041363 174477.000000 0 0 1
-22.200425 -12.989303 27.122079 37.378978 0.529386 0.758895 0.101631 -0.034367 288283.000000 0 0 1
-23.366325 -12.914603 28.150179 38.796968 0.504915 0.758924 0.090115 -0.033761 204754.000000 0 0 1
-23.539025 -14.136503 28.882079 39.850984 0.540828 0.760122 0.083706 -0.032065 -25308.800000 0 0 1
-22.541525 -14.269103 29.879479 40.056347 0.564342 0.728857 0.081677 -0.027772 79338.300000 0 0 1
-22.906425 -15.371403 30.934579 41.447949 0.591032 0.728239 0.067058 -0.034841 -231739.000000 0 0 1
-23.001825 -16.677903 30.441179 41.640146 0.627353 0.750932 0.061706 -0.034319 -102575.000000 0 0 1
-22.982425 -17.726903 31.437879 42.787559 0.657010 0.745508 0.070300 -0.034223 3722.050000 0 0 1
-24.323425 -18.009203 32.142879 44.148897 0.637332 0.755314 0.069235 -0.028552 -81979.500000 0 0 1
-24.814125 -17.073203 33.102379 44.754917 0.602656 0.738266 0.083052 -0.029563 297703.000000 0 0 1
-26.092605 -17.463303 33.603679 45.989110 0.589811 0.751468 0.093141 -0.042427 147420.000000 0 0 1
-26.883175 -16.330003 -33.603004 46.027557 0.545875 2.389210 0.095385 -0.042787 125733.000000 0 0 1
-26.342075 -15.969903 -32.362604 44.679759 0.545003 2.380849 0.100363 -0.044674 211478.000000 0 0 1
-27.171725 -14.897103 -31.931304 44.495331 0.501504 2.371193 0.092556 -0.033635 275227.000000 0 0 1
-26.648785 -14.218203 -30.627304 43.015658 0.490119 2.363144 0.090977 -0.027270 -96088.700000 0 0 1
-26.914105 -15.011503 -29.452204 42.628003 0.508778 2.333546 0.096724 -0.016734 251194.000000 0 0 1
-26.127905 -14.639403 -28.334104 41.228643 0.510715 2.328484 0.106692 -0.004263 85746.600000 0 0 1
-26.427475 -15.620803 -27.121104 40.963096 0.533836 2.294396 0.095286 -0.002628 548504.000000 0 0 1
-27.648095 -15.439803 -26.392904 41.223659 0.509300 2.265603 0.096220 -0.004899 488350.000000 0 0 1
-27.849045 -14.358203 -25.459904 40.372441 0.476028 2.253156 0.097703 -0.004784 -405849.000000 0 0 1
-26.889345 -14.359103 -24.261204 38.959296 0.490482 2.243026 0.082828 -0.018246 562279.000000 0 0 1
-25.581655 -13.843903 -24.597904 38.093722 0.496035 2.272763 0.075961 -0.017150 1666280.000000 0 0 1
-24.494525 -14.111203 -23.703804 36.891437 0.522658 2.268590 0.071670 -0.011707 624116.000000 0 0 1
-23.853025 -15.510803 -23.907004 37.163109 0.576562 2.269596 0.069269 -0.004834 -822386.000000 0 0 1
-23.190825 -15.634003 -25.126604 37.597642 0.593163 2.302721 0.063364 -0.001313 141174.000000 0 0 1
-22.573225 -16.941203 -25.133404 37.792101 0.643821 2.298349 0.070709 -0.005628 -296223.000000 0 0 1
-21.844625 -17.093303 -26.485204 38.351463 0.663975 2.333103 0.065301 -0.008742 -272374.000000 0 0 1
-22.600825 -17.207203 -27.660304 39.648172 0.650727 2.342900 0.080017 -0.011562 429332.000000 0 0 1
-23.526125 -18.310203 -27.796704 40.760261 0.661364 2.321230 0.092009 -0.016722 254238.000000 0 0 1
-24.163125 -18.288903 -29.190604 42.076501 0.647898 2.337480 0.096187 -0.024201 -581246.000000 0 0 1
-23.259825 -18.557203 -30.207004 42.401089 0.673412 2.363724 0.099806 -0.021797 -155097.000000 0 0 1
-23.809725 -18.416703 -31.511804 43.578341 0.658369 2.379086 0.093545 -0.026137 463754.000000 0 0 1
-22.692625 -18.675203 -32.601204 43.892562 0.688587 2.407965 0.095168 -0.029662 213412.000000 0 0 1
-21.533225 -17.857403 -32.564904 42.930637 0.692350 2.431877 0.088506 -0.025729 -246185.000000 0 0 1
-20.329725 -18.462303 -32.243404 42.353176 0.737296 2.436110 0.073824 -0.025804 -338151.000000 0 0 1
-19.824825 -19.753303 -32.950604 43.231458 0.783591 2.437486 0.070648 -0.023259 -1392180.000000 0 0 1
-19.428625 -19.425303 33.640679 43.433963 0.785313 0.684833 0.073176 -0.028964 -143554.000000 0 0 1
-19.430125 -20.496703 32.696079 43.205071 0.812105 0.712447 0.074381 -0.021904 -370608.000000 0 0 1
-20.773925 -20.963803 32.098179 43.604244 0.789947 0.743469 0.081244 -0.019946 -541678.000000 0 0 1
-21.641825 -21.500303 33.090979 45.007161 0.782118 0.744778 0.084508 -0.025335 162060.000000 0 0 1
-22.890925 -21.865203 32.504179 45.371833 0.762484 0.772174 0.096444 -0.016065 170576.000000 0 0 1
-22.973125 -23.041703 31.498979 45.286535 0.786889 0.801613 0.098858 -0.002292 -860843.000000 0 0 1
-22.752625 -24.303803 32.147479 46.279771 0.818350 0.802886 0.106278 -0.003614 189304.000000 0 0 1
-22.913425 -25.383363 31.234679 46.313555 0.836494 0.830621 0.111248 0.004420 -136033.000000 0 0 1
-22.556025 -26.771273 31.757679 47.265479 0.870646 0.834025 0.145254 0.000702 29335.700000 0 0 1
-23.422725 -27.258883 32.753979 48.626062 0.860945 0.831742 0.104964 -0.001966 98099.400000 0 0 1
-22.851725 -28.442553 33.279779 49.383437 0.893965 0.831314 0.113957 -0.010796 -398764.000000 0 0 1
-23.835725 -29.178793 -33.675204 50.532793 0.885844 2.300170 0.103554 -0.005130 310055.000000 0 0 1
-24.867425 -30.018983 33.628579 51.482128 0.878983 0.858982 0.088061 -0.006274 720251.000000 0 0 1
-25.960225 -29.353143 33.048879 51.261766 0.846661 0.870155 0.073311 -0.002730 -1048860.000000 0 0 1
-27.041085 -28.921643 -33.890204 52.117441 0.818989 2.278731 0.041954 -0.006228 -1167430.000000 0 0 1
-28.201485 -28.293623 33.492379 52.130531 0.787029 0.873077 0.019023 0.002302 100798.000000 0 0 1
-28.993475 -27.933313 -33.293104 52.242917 0.766777 2.261753 0.022336 0.005819 -135508.000000 0 0 1
-30.234555 -27.061103 -33.612004 52.689643 0.730067 2.262596 0.012761 -0.000744 -17241.500000 0 0 1
-31.123225 -27.750973 33.418279 53.437375 0.728182 0.895187 -0.003633 -0.007694 -311691.000000 0 0 1
-32.153755 -26.924613 32.916779 53.313348 0.697116 0.905336 0.011890 -0.009330 -164889.000000 0 0 1
