# x y z rho theta phi s1 s2 stress_xx np intf bulk
-0.813867 -10.921955 -14.421520 18.108885 1.496417 2.492079 -0.010829 0.011374 -591097.000000 1 0 0
2.101533 -13.707655 -13.082420 19.064783 -1.418670 2.327060 -0.015056 0.020912 224053.000000 1 0 0
2.010233 -11.347455 -14.841820 18.790566 -1.395463 2.481369 -0.008835 0.018449 624350.000000 1 0 0
-5.686367 -6.271455 -16.575820 18.612461 0.834288 2.669407 0.008006 0.000350 69658.000000 1 0 0
4.480533 -14.162555 -11.631120 18.866268 -1.264394 2.235090 -0.012214 0.014824 -1702030.000000 1 0 0
13.789633 -10.820955 -7.964020 19.252861 -0.665352 1.997260 0.001523 -0.003877 555973.000000 1 0 0
7.133533 10.827745 -10.903820 16.941684 0.988246 2.270001 0.005939 0.001922 130330.000000 1 0 0
5.541533 -4.154655 -12.705220 14.470396 -0.643328 2.642495 -0.003802 0.001164 1184260.000000 1 0 0
13.616833 0.410445 -10.066220 16.938577 0.030133 2.207164 -0.002833 0.003029 -278570.000000 1 0 0
14.170633 5.087645 -10.444020 18.323988 0.344694 2.177259 0.009340 0.006345 -512509.000000 1 0 0
4.172333 4.332445 -13.460320 14.743088 0.804222 2.721355 0.001413 -0.002284 1663050.000000 1 0 0
10.270833 -5.123655 -13.797920 17.947825 -0.462731 2.447727 0.014446 0.000231 401156.000000 1 0 0
2.355633 -7.578155 -12.082720 14.455779 -1.269420 2.560458 -0.012006 0.006744 1866660.000000 1 0 0
-5.651367 -1.979055 -15.133520 16.275074 0.336845 2.764825 0.010905 -0.003832 1551880.000000 1 0 0
10.652933 -0.013255 -9.746920 14.439100 -0.001244 2.311811 0.001686 0.000006 1136170.000000 1 0 0
-1.728567 -9.511055 -16.960720 19.522144 1.391016 2.623558 -0.005498 -0.000508 1517030.000000 1 0 0
8.578733 1.638645 -18.044920 20.047417 0.188739 2.690823 0.009516 0.008474 -115358.000000 1 0 0
16.194833 -6.262755 -8.935520 19.527883 -0.369000 2.046065 0.008354 -0.003775 -638877.000000 1 0 0
10.113833 7.617745 -9.993220 16.130223 0.645546 2.238945 0.006307 0.002272 3196.960000 1 0 0
13.700433 -2.371755 -10.635720 17.505588 -0.171416 2.223783 0.005715 -0.004923 -2168400.000000 1 0 0
7.185833 -1.890155 -13.756920 15.635272 -0.257213 2.646373 0.004371 -0.001673 353386.000000 1 0 0
-2.805767 6.629645 -13.716820 15.491148 -1.170438 2.658283 0.006754 -0.003423 938751.000000 1 0 0
11.234933 1.887245 -13.906220 17.976884 0.166426 2.455238 -0.001067 -0.000225 1070360.000000 1 0 0
-2.274467 10.814745 -12.925920 17.006214 -1.363506 2.434218 0.005554 0.001976 -173203.000000 1 0 0
2.847433 -1.023355 -15.278520 15.575246 -0.345020 2.946083 0.003709 -0.004346 -474560.000000 1 0 0
-9.134967 0.483845 -15.174920 17.718914 -0.052917 2.599101 0.011972 0.000842 -918082.000000 1 0 0
2.280433 -1.724855 -18.039620 18.264813 -0.647567 2.984400 0.011445 -0.009813 1230410.000000 1 0 0
1.058133 7.842645 -13.161820 15.357741 1.436686 2.600246 0.008527 -0.004660 300168.000000 1 0 0
9.143433 -9.164755 -9.989120 16.351685 -0.786563 2.227984 0.005564 0.003351 -295823.000000 1 0 0
3.983533 7.297745 -13.622220 15.959025 1.071139 2.593605 -0.002582 0.000893 1630320.000000 1 0 0
-2.705167 9.107745 -15.431420 18.121746 -1.282077 2.589715 0.002724 -0.001554 -453592.000000 1 0 0
5.313633 -7.686455 -15.328520 17.952153 -0.965934 2.594142 -0.001559 0.007884 1130580.000000 1 0 0
4.311933 7.153945 -16.423720 18.425804 1.028368 2.671096 0.003046 -0.005506 579136.000000 1 0 0
-0.206867 5.106145 -13.397520 14.339074 -1.530305 2.777189 0.010890 -0.009065 2465290.000000 1 0 0
8.728633 4.205145 -16.626120 19.243184 0.448953 2.613958 0.002379 0.004039 -759359.000000 1 0 0
5.340233 0.299445 -14.362020 15.325644 0.056015 2.785091 0.001641 -0.001789 -56057.900000 1 0 0
6.267133 7.880745 -11.635820 15.387508 0.898961 2.428261 -0.001232 0.004271 1536140.000000 1 0 0
2.633433 -8.470055 -15.030920 17.452947 -1.269360 2.608472 -0.008061 0.005290 -689621.000000 1 0 0
4.091133 11.429845 -13.907420 18.460635 1.227071 2.423946 -0.001266 -0.007842 -1072230.000000 1 0 0
0.496733 -4.505755 -13.779620 14.506085 -1.460996 2.823776 -0.000836 0.001331 378595.000000 1 0 0
8.397833 -0.127955 -11.686220 14.391237 -0.015235 2.518431 -0.000673 -0.002013 -188751.000000 1 0 0
-1.100467 -5.046455 -16.317620 17.115562 1.356090 2.835039 -0.007573 -0.002877 1918050.000000 1 0 0
4.537833 0.883945 -11.712520 12.591918 0.192385 2.765649 -0.002168 -0.002840 577124.000000 1 0 0
-3.022867 -7.212255 -15.683320 17.524864 1.173909 2.679044 -0.004220 0.001647 2069060.000000 1 0 0
11.283633 -3.896455 -11.421120 16.521038 -0.332499 2.334094 0.009665 -0.006130 1451630.000000 1 0 0
6.323833 -7.016355 -12.624220 15.766770 -0.837264 2.499234 -0.003820 0.006385 -981414.000000 1 0 0
3.300233 -4.045655 -14.801820 15.695628 -0.886527 2.802490 0.005174 0.001385 2186520.000000 1 0 0
-0.637567 -1.435255 -18.266020 18.333410 1.152761 3.055825 0.012124 -0.015013 207252.000000 1 0 0
14.815033 2.897945 -8.551920 17.349888 0.193169 2.086227 -0.003881 0.008969 -682101.000000 1 0 0
6.917033 4.264545 -14.368320 16.506977 0.552484 2.626890 0.000667 0.004846 1232610.000000 1 0 0
9.870633 -9.637455 -14.135820 19.751743 -0.773446 2.368386 0.016932 0.004313 -1128810.000000 1 0 0
9.027433 -3.217655 -15.573820 18.286380 -0.342392 2.589945 0.009956 -0.006628 -1441030.000000 1 0 0
-5.273567 -2.061055 -18.086320 18.951871 0.372574 2.838202 -0.000814 0.002419 903310.000000 1 0 0
4.879233 -9.051555 -11.229420 15.226209 -1.076400 2.400166 -0.013417 0.010698 1615280.000000 1 0 0
-2.482867 3.980845 -17.079520 17.712192 -1.013130 2.873509 0.005399 -0.003729 -48593.800000 1 0 0
9.456033 9.347245 -14.638220 19.775364 0.779613 2.404201 0.017286 -0.000085 -261914.000000 1 0 0
9.821033 10.005745 -11.707220 18.265449 0.794714 2.266530 0.013333 0.001199 -320599.000000 1 0 0
11.827833 -6.031955 -9.695920 16.440589 -0.471599 2.201552 0.012771 -0.006862 687981.000000 1 0 0
8.147333 6.870945 -13.734620 17.384726 0.700613 2.481670 0.001741 0.006520 -521809.000000 1 0 0
3.919633 -4.185655 -17.681120 18.587771 -0.818207 2.827973 0.018205 -0.004071 308526.000000 1 0 0
9.205733 -7.509755 -12.432420 17.196133 -0.684283 2.378899 0.009190 -0.001749 1911920.000000 1 0 0
11.825233 -8.839255 -8.943120 17.261169 -0.641893 2.115432 0.007871 -0.003358 -118709.000000 1 0 0
-2.990267 -2.521855 -13.851420 14.393168 0.700623 2.866355 0.002290 -0.003966 -2482900.000000 1 0 0
-0.457867 6.060745 -17.494920 18.520650 -1.495393 2.807222 0.009319 -0.006564 2039580.000000 1 0 0
0.997833 -8.432755 -17.462720 19.417868 -1.453016 2.688990 0.004463 -0.002055 1362470.000000 1 0 0
0.030933 8.460645 -15.923920 18.032046 1.567140 2.653204 0.008814 -0.003002 -467789.000000 1 0 0
1.837233 3.401045 -14.947520 15.439264 1.075511 2.888528 0.010399 -0.006952 1841240.000000 1 0 0
-1.940767 -0.474255 -15.701320 15.827916 0.239668 3.015030 0.007484 -0.006899 1275380.000000 1 0 0
13.975833 -4.427355 -8.524220 16.958411 -0.306785 2.097463 0.006794 -0.005193 -742910.000000 1 0 0
0.612933 0.641545 -14.580220 14.607193 0.808202 3.080813 0.005793 -0.007079 1009520.000000 1 0 0
8.731233 2.700645 -12.515120 15.496972 0.299975 2.510842 -0.002945 0.002183 1717600.000000 1 0 0
5.892133 0.977245 -17.095020 18.108339 0.164360 2.805472 0.011171 -0.000116 -370713.000000 1 0 0
15.224833 1.363045 -12.429120 19.701179 0.089290 2.253486 0.002014 0.001555 314359.000000 1 0 0
8.557733 -11.288355 -12.058120 18.602688 -0.922130 2.276004 0.002210 0.006767 753898.000000 1 0 0
-4.567867 0.727845 -14.963420 15.662027 -0.158012 2.841790 0.009834 -0.006870 1607510.000000 1 0 0
2.352133 5.105345 -17.303720 18.193839 1.139064 2.827496 0.007398 -0.003690 2956260.000000 1 0 0
5.762833 -11.658555 -12.586820 18.098624 -1.111718 2.339852 -0.008031 0.012918 63410.200000 1 0 0
12.838533 7.222045 -8.740720 17.128516 0.512411 2.106333 0.009206 0.005518 -570920.000000 1 0 0
-5.011067 3.566545 -15.652720 16.817808 -0.618558 2.767181 0.005543 -0.003183 2351210.000000 1 0 0
-0.824867 -4.310255 -19.139620 19.636286 1.381709 2.916201 0.006026 -0.010983 -1386630.000000 1 0 0
9.818133 4.428745 -10.270620 14.882713 0.423750 2.332429 -0.004578 0.006160 247571.000000 1 0 0
13.379733 3.631845 -12.833620 18.892045 0.265057 2.317623 0.008527 0.001382 299356.000000 1 0 0
-6.198467 5.836645 -17.089720 19.093086 -0.755343 2.679393 -0.005272 0.004578 -397459.000000 1 0 0
-10.163567 3.141345 -15.398220 18.715537 -0.299765 2.537030 0.002713 0.005038 -1418740.000000 1 0 0
10.694233 13.520745 -8.384320 19.169611 0.901598 2.023475 0.029522 0.000236 492494.000000 1 0 0
7.445133 13.365245 -12.422420 19.707265 1.062555 2.252797 0.019099 -0.004947 239047.000000 1 0 0
5.315833 15.166145 -11.406320 19.707211 1.233670 2.188039 0.004516 -0.006649 1127510.000000 1 0 0
14.171133 9.500645 -9.789920 19.670429 0.590598 2.091738 0.023438 -0.000376 -842658.000000 1 0 0
8.250433 -17.232955 -2.271320 19.240667 -1.124285 1.689120 0.007268 0.006330 -543537.000000 1 0 0
0.677533 -16.057555 -0.039820 16.071892 -1.528627 1.573274 0.009482 -0.004821 1425590.000000 1 0 0
-9.129767 -11.725955 7.573280 16.679486 0.909244 1.099493 -0.000970 -0.002649 226420.000000 1 0 0
2.025633 -16.045655 -2.649520 16.388599 -1.445219 1.733177 0.006576 -0.004030 3609340.000000 1 0 0
-1.382367 -11.083755 -9.603620 14.730583 1.446717 2.280951 -0.001611 0.007171 1319060.000000 1 0 0
-4.983867 -12.633855 -13.014820 18.810602 1.195053 2.334896 0.015660 0.002576 1794800.000000 1 0 0
-8.129767 -17.888955 -1.829820 19.734641 1.144242 1.663651 0.005807 -0.004139 -1303800.000000 1 0 0
-11.358867 -7.062755 -8.863120 16.045599 0.556283 2.156002 0.014164 -0.002243 2822940.000000 1 0 0
-13.511967 -11.604555 -4.679320 18.415618 0.709601 1.827708 0.000505 0.005336 -305435.000000 1 0 0
-5.747367 -13.438855 9.844180 17.622228 1.166668 0.978072 0.005663 -0.007505 -159528.000000 1 0 0
0.118933 -14.077355 -3.692720 14.554114 -1.562348 1.827324 0.003423 -0.001547 -790081.000000 1 0 0
-14.558067 -11.726355 1.889480 18.788689 0.678079 1.470061 -0.006246 0.005803 -121645.000000 1 0 0
-3.903067 -16.539255 -7.627120 18.626697 1.339048 1.992672 -0.006336 -0.001600 -383323.000000 1 0 0
0.655833 -15.341855 -9.235820 17.919347 -1.528074 2.112283 -0.005322 0.008702 847355.000000 1 0 0
4.524133 -14.397755 -2.651520 15.322979 -1.266341 1.744714 0.000727 0.005825 430033.000000 1 0 0
-3.591767 -18.156255 -2.477120 18.673149 1.375493 1.703845 -0.011813 -0.008650 1248950.000000 1 0 0
-0.910567 -13.595055 0.677780 13.642362 1.503918 1.521094 -0.000226 0.000807 1701340.000000 1 0 0
-8.548767 -11.163055 -10.657820 17.643252 0.917254 2.219399 0.011489 0.000701 2290660.000000 1 0 0
-3.666267 -14.120555 -0.431520 14.595129 1.316765 1.600367 -0.006459 0.003813 3582040.000000 1 0 0
-1.469367 -15.082255 -7.338920 16.837256 1.473679 2.021805 -0.008304 0.002893 632574.000000 1 0 0
-14.196667 -8.028555 -1.856820 16.414957 0.514684 1.684157 0.003667 0.001131 434631.000000 1 0 0
-10.838267 -7.293055 -11.664220 17.513158 0.592305 2.299665 0.011162 -0.004165 -260213.000000 1 0 0
-9.525867 -14.786655 6.844880 18.874313 0.998495 1.199680 -0.005284 0.008051 -863402.000000 1 0 0
-2.603467 -14.434155 -12.358120 19.179312 1.392346 2.270965 0.006954 0.006802 573394.000000 1 0 0
2.222133 -17.970555 -4.894020 18.757136 -1.447767 1.834766 0.009395 -0.001497 -778412.000000 1 0 0
-6.629967 -9.540055 -9.252220 14.851689 0.963460 2.243335 0.005606 0.000586 1411170.000000 1 0 0
-10.878167 -15.395455 0.390380 18.854892 0.955666 1.550090 0.002841 -0.000232 1198660.000000 1 0 0
-12.479367 -10.998155 4.049280 17.119891 0.722391 1.332009 0.002085 0.004731 2067960.000000 1 0 0
-16.958867 -9.054255 -1.517720 19.284350 0.490395 1.649580 -0.007421 0.005004 1061970.000000 1 0 0
-1.441867 -19.337455 -3.976520 19.794667 1.496371 1.773061 -0.014542 -0.004441 447589.000000 1 0 0
3.394033 -14.246155 -8.923320 17.149286 -1.336914 2.118036 -0.011141 0.010426 -318277.000000 1 0 0
-4.497967 -8.002955 -13.139520 16.028911 1.058758 2.531751 0.004980 0.001313 1619870.000000 1 0 0
5.496433 -16.692555 1.276580 17.620494 -1.252703 1.498284 0.012635 0.003585 3777440.000000 1 0 0
-2.779267 -13.816955 -3.277420 14.469763 1.372296 1.799280 -0.006048 0.000340 -619427.000000 1 0 0
-0.430467 -14.018655 3.657980 14.494441 1.540099 1.315666 -0.001619 0.002323 -4673020.000000 1 0 0
1.181733 -16.212955 7.009480 17.702803 -1.498037 1.163691 0.006750 -0.011110 1742670.000000 1 0 0
-5.692767 -10.360355 -14.660220 18.832594 1.068355 2.462988 0.011380 0.000858 -2212420.000000 1 0 0
-0.389967 -17.401755 -5.907320 18.381229 1.548390 1.897980 -0.001352 -0.002995 -1195880.000000 1 0 0
-6.450667 -13.430855 -1.346420 14.960341 1.123043 1.660918 -0.002157 0.000241 1207730.000000 1 0 0
-1.746767 -17.800155 -0.196820 17.886740 1.472977 1.581800 -0.008258 -0.003039 1897400.000000 1 0 0
-9.454967 -9.858255 -4.890520 14.508576 0.806277 1.914608 0.014830 -0.001344 1075480.000000 1 0 0
-0.845367 -16.678855 4.868280 17.395373 1.520155 1.287147 0.005918 -0.008078 2625910.000000 1 0 0
-6.822867 -9.944355 -6.394320 13.650239 0.969457 2.058321 0.012573 -0.000696 2907000.000000 1 0 0
-5.976667 -14.481455 -8.755720 17.947025 1.179380 2.080438 0.001297 -0.001882 458305.000000 1 0 0
-5.797367 -12.036055 -10.282220 16.858236 1.121923 2.226759 0.008862 -0.002878 1880450.000000 1 0 0
-10.794467 -12.111755 -8.973720 18.540301 0.842843 2.076030 0.020966 -0.007141 -412346.000000 1 0 0
3.913933 -17.301255 6.530080 18.902229 -1.348319 1.218061 0.012636 -0.008217 806548.000000 1 0 0
-6.669867 -14.482355 -4.165520 16.479602 1.139203 1.826337 0.002124 -0.006098 -415991.000000 1 0 0
-2.839767 -12.322155 -7.166020 14.534498 1.344291 2.086371 0.005365 0.002420 2542700.000000 1 0 0
-6.945167 -12.836855 4.460380 15.261559 1.074863 1.274205 -0.001519 0.005223 2554180.000000 1 0 0
2.545433 -16.333455 2.356380 16.697710 -1.416198 1.429204 0.007661 -0.004136 3006090.000000 1 0 0
-6.155367 -11.969355 7.276280 15.300270 1.095805 1.075190 -0.002710 -0.000849 1982110.000000 1 0 0
-11.125467 -12.830355 -0.982520 17.010566 0.856446 1.628588 0.005491 0.002530 978665.000000 1 0 0
-14.141167 -8.705355 4.521480 17.210450 0.551814 1.304959 -0.000604 0.000258 206770.000000 1 0 0
-7.957467 -15.573855 4.389580 18.031491 1.098427 1.324886 -0.005231 0.007946 750171.000000 1 0 0
-16.289167 -9.336555 1.225280 18.815141 0.520462 1.505628 -0.014026 0.004873 -1363860.000000 1 0 0
-6.559567 -17.082155 2.291780 18.441263 1.204158 1.446200 -0.010207 0.003577 2399150.000000 1 0 0
-11.553067 -14.992355 -4.688520 19.499392 0.914243 1.813620 0.022212 -0.001451 431253.000000 1 0 0
-10.200167 -9.923955 -12.758120 19.112768 0.771674 2.301667 0.015673 0.005446 -194228.000000 1 0 0
-4.277567 -16.121555 -4.613320 17.305630 1.311440 1.840638 -0.007142 -0.007584 8421.580000 1 0 0
-11.739967 -8.295855 -0.034520 14.375299 0.615164 1.573198 0.002519 0.002088 2806620.000000 1 0 0
-9.480267 -11.126355 3.427280 15.013910 0.865110 1.340492 -0.002100 0.007107 583653.000000 1 0 0
-14.037567 -12.986455 -0.677420 19.135313 0.746522 1.606205 -0.000584 0.005750 -393570.000000 1 0 0
5.592033 -15.034955 -7.237520 17.598363 -1.214715 1.994633 -0.004206 0.004710 -713146.000000 1 0 0
-7.332267 -10.572855 -1.284520 12.930483 0.964447 1.670301 0.004950 0.003416 918745.000000 1 0 0
-11.594967 -8.208055 -6.052720 15.441854 0.616007 1.973567 0.008301 -0.001331 1301630.000000 1 0 0
-14.426867 -6.603955 -9.215120 18.348437 0.429283 2.096971 -0.005976 -0.000469 1446450.000000 1 0 0
-3.745667 -16.436555 1.409780 16.916792 1.346736 1.487363 -0.006395 -0.003079 1650160.000000 1 0 0
-7.824867 -15.601155 0.037080 17.453537 1.105904 1.568672 0.001887 -0.000043 2659650.000000 1 0 0
0.926333 -18.629855 3.667680 19.010036 -1.521114 1.376645 0.006579 -0.011180 2039060.000000 1 0 0
-14.140467 -8.772555 -4.720220 17.297138 0.555275 1.847192 0.002525 0.001721 -621942.000000 1 0 0
-3.317667 -14.471655 11.149880 18.567594 1.345438 0.926667 -0.002183 -0.012354 214749.000000 1 0 0
-10.753167 -12.162255 -3.852320 16.685066 0.846812 1.803783 0.014406 -0.000142 431713.000000 1 0 0
-9.893467 -10.655155 0.482380 14.548048 0.822449 1.537633 0.001590 0.006080 1708580.000000 1 0 0
-0.153767 -13.290955 -11.231820 17.401922 1.559228 2.272390 -0.001477 0.006828 486318.000000 1 0 0
-5.927067 -12.669155 -6.419120 15.389695 1.133211 2.001054 -0.002913 -0.002795 3524130.000000 1 0 0
1.809733 -15.857255 9.880080 18.770819 -1.457161 1.016491 0.001803 -0.007583 390118.000000 1 0 0
-8.955367 -15.765755 -5.534720 18.957604 1.054219 1.867064 0.017733 -0.005555 545088.000000 1 0 0
-3.365067 -15.408555 5.957580 16.859419 1.355783 1.209627 -0.001897 -0.002872 -1228050.000000 1 0 0
-17.473167 -5.415455 -6.451020 19.397277 0.300542 1.909827 -0.007080 0.005529 -232452.000000 1 0 0
18.722733 5.504145 -2.964520 19.738914 0.285927 1.721553 -0.013083 0.017098 300412.000000 1 0 0
12.640833 -12.653055 -5.944920 18.847613 -0.785881 1.891696 0.003145 0.001578 256483.000000 1 0 0
10.933333 -13.539955 -1.620720 17.478412 -0.891507 1.663657 0.003426 0.002670 1425900.000000 1 0 0
18.555733 -2.791155 4.433380 19.281095 -0.149301 1.338786 0.001053 0.002651 -712776.000000 1 0 0
8.488933 -16.998955 5.120380 19.678535 -1.107645 1.307566 0.009975 -0.010873 -1883560.000000 1 0 0
17.938233 -1.045855 6.598680 19.142011 -0.058237 1.218853 0.020890 -0.002639 -1284340.000000 1 0 0
17.742133 -4.324155 -5.179220 18.981726 -0.239062 1.847154 0.010188 -0.001707 -448648.000000 1 0 0
5.403233 -11.865255 14.772580 19.703003 -1.143475 0.723093 0.003597 0.008090 826117.000000 1 0 0
15.918333 -8.917855 -0.914520 18.269040 -0.510660 1.620876 0.018041 -0.001080 1002860.000000 1 0 0
13.782333 -12.697555 -1.503220 18.800007 -0.744455 1.650840 0.015221 0.002316 929421.000000 1 0 0
10.987533 -2.020155 13.898780 17.832078 -0.181828 0.677048 -0.009005 0.005885 154821.000000 1 0 0
16.852033 -6.124355 -1.567620 17.998783 -0.348579 1.658003 0.011396 -0.001090 -1247630.000000 1 0 0
17.706333 3.549945 -1.069220 18.090317 0.197867 1.629935 -0.005869 0.011732 408617.000000 1 0 0
9.740033 -11.067255 9.507280 17.542541 -0.849098 0.998034 0.015870 -0.006899 1720530.000000 1 0 0
9.086333 -11.158255 4.295380 15.017270 -0.887388 1.280716 -0.002107 -0.002051 17677.600000 1 0 0
14.006533 -10.101155 6.725480 18.532361 -0.624796 1.199413 0.011955 -0.006676 -570487.000000 1 0 0
16.157733 -0.636555 -4.766020 16.858009 -0.039376 1.857420 0.002850 0.004901 -1509450.000000 1 0 0
15.741633 -0.556855 -1.768220 15.850416 -0.035360 1.682586 0.002956 0.005420 922700.000000 1 0 0
12.831333 -5.203055 -0.382620 13.851400 -0.385235 1.598423 0.000881 0.000398 1207520.000000 1 0 0
14.219433 -7.568855 0.969080 16.137502 -0.489144 1.510709 0.016465 -0.000128 1943600.000000 1 0 0
15.463733 2.489445 3.651280 16.082793 0.159617 1.341769 0.004940 0.000332 1541730.000000 1 0 0
15.866433 -7.017255 4.896080 18.026568 -0.416407 1.295737 0.010239 -0.001898 -825334.000000 1 0 0
13.647633 -12.089955 3.314080 18.531272 -0.724950 1.390992 0.016240 -0.003282 -476417.000000 1 0 0
13.874833 -1.053655 9.218180 16.691196 -0.075795 0.985702 0.009434 -0.004128 499945.000000 1 0 0
14.140233 -2.862655 -1.674320 14.523923 -0.199748 1.686333 0.001289 0.003347 -112506.000000 1 0 0
14.987633 1.804845 9.136580 17.645501 0.119845 1.026536 0.023785 -0.003675 -2534150.000000 1 0 0
14.320633 -10.219755 -3.106120 17.865383 -0.619821 1.745547 0.017467 -0.005249 124874.000000 1 0 0
7.369233 -12.631955 6.175780 15.874890 -1.042687 1.171220 0.000249 -0.004814 902877.000000 1 0 0
12.345033 -4.618655 6.914780 14.884421 -0.358008 1.087653 -0.000774 -0.003886 1531440.000000 1 0 0
14.831433 -9.122155 -5.787020 18.348698 -0.551416 1.891665 0.016496 -0.007321 -802990.000000 1 0 0
14.211733 -4.508655 4.561380 15.591906 -0.307205 1.273906 0.006762 -0.000599 1204690.000000 1 0 0
17.113333 -4.247555 0.830380 17.652122 -0.243285 1.523738 0.008388 0.001123 -1214050.000000 1 0 0
10.167133 -14.562055 1.129980 17.796092 -0.961284 1.507258 0.006822 -0.000693 539819.000000 1 0 0
16.307333 -2.555955 8.484680 18.559413 -0.155472 1.095993 0.014703 -0.007401 1079760.000000 1 0 0
15.946033 -2.539755 3.033680 16.429533 -0.157945 1.385083 -0.000262 0.002417 2103140.000000 1 0 0
7.756233 -15.379855 2.755080 17.443897 -1.103706 1.412193 0.001072 -0.001083 3446550.000000 1 0 0
16.628133 -7.071555 7.754080 19.662845 -0.402105 1.165434 0.013279 -0.001393 18257.700000 1 0 0
10.285733 -8.642455 5.094280 14.368021 -0.698799 1.208356 0.004252 -0.003946 1055880.000000 1 0 0
10.948833 -11.953755 2.131280 16.349665 -0.829248 1.440068 0.005131 -0.001841 878795.000000 1 0 0
12.283333 -7.352055 11.919180 18.627932 -0.539345 0.876486 0.000137 -0.008609 -435002.000000 1 0 0
15.127633 -9.746155 4.193880 18.477593 -0.572331 1.341830 0.013512 -0.001976 -130452.000000 1 0 0
7.332833 -10.319655 7.775380 14.856724 -0.953012 1.020010 0.002627 -0.003189 1248990.000000 1 0 0
15.066533 -3.347255 -4.394120 16.047206 -0.218614 1.848164 0.006630 -0.000262 -1050230.000000 1 0 0
11.865333 -9.082655 9.717580 17.824481 -0.653334 0.994191 0.004701 -0.009280 -1605300.000000 1 0 0
16.897433 -6.725255 2.279480 18.328893 -0.378785 1.446108 0.012403 0.002977 1242810.000000 1 0 0
17.453833 4.014345 1.916580 18.011789 0.226066 1.464188 -0.000961 0.007228 -277903.000000 1 0 0
14.722833 -4.995055 8.667280 17.799835 -0.327086 1.062224 0.007893 -0.005569 1911550.000000 1 0 0
12.723233 -12.616155 6.126080 18.936126 -0.781172 1.241357 0.010516 -0.004460 -779775.000000 1 0 0
18.153433 0.659845 -0.845420 18.185084 0.036332 1.617303 0.005352 0.009002 -370315.000000 1 0 0
11.642433 -2.145955 11.059280 16.200588 -0.182276 0.819418 -0.001457 0.003807 1047170.000000 1 0 0
5.867433 -12.560055 10.502180 17.391882 -1.133772 0.922467 0.002551 0.000561 -1068960.000000 1 0 0
10.744133 -5.055155 11.040480 16.213673 -0.439773 0.821756 -0.001209 0.000498 1439600.000000 1 0 0
17.805633 1.385245 5.049380 18.559518 0.077642 1.295259 0.016435 -0.001798 -873628.000000 1 0 0
12.300833 -7.757155 7.128280 16.195565 -0.562631 1.115044 0.007052 -0.003434 -1592590.000000 1 0 0
10.640933 -8.082855 14.219080 19.512669 -0.649617 0.754360 0.008545 -0.006916 -1373440.000000 1 0 0
14.078533 -0.279655 3.749080 14.571853 -0.019861 1.310588 -0.003364 0.000376 1354420.000000 1 0 0
11.663633 -7.749155 2.540280 14.231752 -0.586422 1.391341 0.002341 -0.000360 1229010.000000 1 0 0
9.309933 6.060145 3.508380 11.649418 0.577031 1.264884 -0.001459 0.002828 2707950.000000 1 0 0
-3.819867 14.798345 -9.955320 18.239813 -1.318183 2.148142 -0.004401 -0.000087 1693010.000000 1 0 0
8.883133 -6.537755 9.214280 14.372030 -0.634464 0.874832 -0.002595 -0.001800 847117.000000 1 0 0
5.681233 -10.648055 -8.632020 14.838101 -1.080673 2.191671 -0.011458 0.005524 -42645.200000 1 0 0
5.379433 1.058945 0.589180 5.514236 0.194366 1.463745 0.001539 -0.001597 3999590.000000 1 0 0
-0.534467 9.904845 10.963480 14.784773 -1.516888 0.735436 0.004801 -0.000567 -967742.000000 1 0 0
-6.357467 -5.121655 1.112280 8.239290 0.678154 1.435386 0.001726 0.000460 4499310.000000 1 0 0
-1.039867 3.892545 -10.820020 11.545824 -1.309749 2.785130 0.012335 -0.006798 991061.000000 1 0 0
10.938533 5.826945 1.188080 12.450555 0.489463 1.475227 -0.005460 0.005370 315310.000000 1 0 0
-10.209267 -1.809855 -13.495920 17.018947 0.175453 2.486504 0.012180 -0.005435 3282120.000000 1 0 0
7.386833 10.937045 -6.100320 14.539538 0.976775 2.003765 0.004082 0.002219 801881.000000 1 0 0
-12.463467 -2.937955 -9.569920 15.986024 0.231499 2.212602 0.001534 -0.002639 -907633.000000 1 0 0
-3.822567 -8.652655 2.443280 9.769855 1.154799 1.318030 0.000999 0.002001 -1608540.000000 1 0 0
7.965533 -6.712155 -6.059120 12.050547 -0.700211 2.097641 -0.004936 -0.000247 2584070.000000 1 0 0
14.248533 3.111545 -4.304720 15.206348 0.215001 1.857808 0.000753 0.008616 1177620.000000 1 0 0
-2.452567 -4.871355 9.801780 11.216955 1.104379 0.507759 -0.000742 -0.000513 2292620.000000 1 0 0
3.421433 -1.948055 -4.504720 5.982777 -0.517591 2.423327 -0.004283 0.001516 -2307180.000000 1 0 0
-3.912067 8.429945 -3.471420 9.920635 -1.136305 1.928281 0.000880 -0.001775 15111.900000 1 0 0
5.918733 0.015645 11.748880 13.155525 0.002643 0.466660 -0.004566 0.002133 3264350.000000 1 0 0
7.128733 4.687345 12.362980 15.021096 0.581649 0.604052 0.000187 -0.000644 687701.000000 1 0 0
1.125633 -14.508055 12.415180 19.128184 -1.493365 0.864459 -0.018743 -0.000099 500392.000000 1 0 0
3.063533 8.666445 -9.071120 12.914245 1.231013 2.349577 0.001108 0.001481 1101570.000000 1 0 0
-4.415267 -8.946355 -4.638320 11.002084 1.112341 2.005989 0.005189 0.000504 1581330.000000 1 0 0
5.740633 -6.514755 -4.009120 9.563992 -0.848480 2.003348 -0.006779 0.001967 3213930.000000 1 0 0
-3.147467 3.454245 8.627280 9.811642 -0.831834 0.496427 0.000661 -0.000055 891043.000000 1 0 0
-3.778067 3.212845 -11.043720 12.106193 -0.704723 2.719509 0.009159 -0.008322 971841.000000 1 0 0
3.098933 -6.185255 8.535280 10.986891 -1.106333 0.681132 -0.000424 0.001868 774351.000000 1 0 0
-5.132067 -8.672855 10.558280 14.595678 1.036473 0.762105 0.005786 -0.002601 1899080.000000 1 0 0
-13.143567 -2.478655 6.546980 14.891609 0.186394 1.115596 -0.003863 -0.000571 736781.000000 1 0 0
3.872633 -5.934355 -8.419320 11.004490 -0.992611 2.441963 -0.010353 0.003481 2751590.000000 1 0 0
3.007733 -0.570655 12.452580 12.823372 -0.187501 0.241063 0.000350 0.001167 1155040.000000 1 0 0
1.410733 -1.435355 -7.545920 7.809694 -0.794049 2.880951 0.001921 -0.001798 586853.000000 1 0 0
3.658033 -3.532855 3.463680 6.152995 -0.767992 0.972875 0.000361 -0.000540 3054350.000000 1 0 0
1.558233 0.461245 -11.788520 11.900001 0.287788 3.004605 0.004134 -0.005370 -613272.000000 1 0 0
4.093633 3.536945 -10.610520 11.910119 0.712572 2.670081 -0.002538 0.000939 456178.000000 1 0 0
2.874233 3.286245 3.344680 5.499774 0.852179 0.917070 -0.003518 0.002272 -199039.000000 1 0 0
-5.302067 0.864445 2.552580 5.947676 -0.161617 1.127220 -0.001499 -0.001159 2359890.000000 1 0 0
-9.340967 -9.331955 5.714080 14.387139 0.784916 1.162370 -0.002250 0.003717 -1548520.000000 1 0 0
-3.094867 3.858945 -0.558520 4.978112 -0.894838 1.683228 0.003691 -0.003978 334129.000000 1 0 0
-15.780967 -6.569055 4.912980 17.785634 0.394448 1.290924 0.003723 -0.003249 66557.100000 1 0 0
1.049933 6.667145 -8.055420 10.509185 1.414600 2.444189 0.005039 -0.000534 -348951.000000 1 0 0
-1.540167 6.487745 -9.448920 11.564819 -1.337715 2.527055 0.006104 -0.002286 740837.000000 1 0 0
2.020333 -0.356455 5.224580 5.612936 -0.174636 0.374172 0.002348 -0.000929 3219480.000000 1 0 0
-3.435167 -0.545655 -6.318420 7.212526 0.157528 2.638372 0.011785 -0.008041 921033.000000 1 0 0
1.942733 -1.114355 -2.466620 3.331698 -0.520783 2.404386 0.002469 -0.000457 35882.500000 1 0 0
2.319033 -8.653755 -7.678920 11.799627 -1.308968 2.279403 -0.012345 0.007810 2187440.000000 1 0 0
-2.384867 14.091045 -5.570020 15.338522 -1.403138 1.942431 -0.002234 0.002660 1595340.000000 1 0 0
6.765533 -5.108255 -8.267520 11.841393 -0.646720 2.343660 -0.004587 0.000360 3448530.000000 1 0 0
-14.262567 -5.040155 -2.068420 15.267689 0.339686 1.706691 0.003073 -0.000657 132975.000000 1 0 0
-2.666567 6.879845 -6.806420 10.038436 -1.201033 2.315883 0.005689 -0.001749 -1542900.000000 1 0 0
-5.739167 -1.081555 -8.056220 9.950401 0.186267 2.514331 0.014550 -0.010330 -79151.700000 1 0 0
-5.669267 -10.609455 3.465380 12.518386 1.080040 1.290310 -0.000944 0.003490 -3295580.000000 1 0 0
8.121433 -7.613855 6.560180 12.921472 -0.753152 1.038288 -0.001486 -0.003581 1209660.000000 1 0 0
8.770033 -6.075655 13.161480 16.942598 -0.605860 0.681184 -0.001170 0.004943 844656.000000 1 0 0
-4.615067 9.547745 -0.771720 10.632677 -1.120543 1.643440 -0.001534 0.001035 134138.000000 1 0 0
2.776133 6.628845 12.100580 14.073825 1.174192 0.535932 0.001327 -0.003397 1447350.000000 1 0 0
6.133033 -2.872855 10.973280 12.894971 -0.438069 0.552960 -0.001730 0.004196 -368913.000000 1 0 0
-9.631767 -6.437455 -1.131020 11.640059 0.589172 1.668116 0.002636 0.000488 -426621.000000 1 0 0
1.009133 -13.394555 6.163680 14.779155 -1.495599 1.140597 0.002355 -0.000331 504134.000000 1 0 0
-0.456567 -3.137755 8.720780 9.279330 1.426303 0.348731 0.001554 -0.001841 711587.000000 1 0 0
4.285033 0.723745 3.442980 5.544315 0.167322 0.900787 -0.001563 0.001274 1907330.000000 1 0 0
-10.220567 5.548145 8.441880 14.370360 -0.497330 0.942891 -0.003554 -0.006939 842519.000000 1 0 0
9.411133 8.033045 -0.005920 12.373329 0.706562 1.571275 -0.004931 0.004478 370131.000000 1 0 0
4.279033 2.783945 8.126980 9.597306 0.576798 0.560860 -0.002742 0.000623 3735620.000000 1 0 0
1.369633 2.638245 -9.721120 10.165451 1.091950 2.844836 0.008572 -0.005473 2272080.000000 1 0 0
-1.418067 -10.170055 2.997080 10.696888 1.432254 1.286812 -0.000676 0.001699 -2227960.000000 1 0 0
-9.916467 9.630645 9.156180 16.580750 -0.770777 0.985775 -0.000482 -0.007148 -52341.500000 1 0 0
9.760933 -2.094255 -7.796220 12.666600 -0.211351 2.233809 0.000337 0.000643 -401175.000000 1 0 0
-5.276567 -1.894155 6.772780 8.792072 0.344648 0.691441 -0.003878 -0.000214 1017760.000000 1 0 0
3.142033 -7.840255 -4.920920 9.775348 -1.189638 2.098327 -0.011212 0.003714 2205980.000000 1 0 0
-5.141067 4.952745 -13.103220 14.921616 -0.766743 2.642750 0.002229 -0.008128 1251610.000000 1 0 0
-5.729767 9.584645 5.532280 12.462013 -1.031991 1.110815 0.000009 -0.000520 1884640.000000 1 0 0
-0.501167 -1.748655 -9.408320 9.582559 1.291677 2.950604 0.005383 -0.005054 -312725.000000 1 0 0
-16.655767 0.039045 6.463980 17.866145 -0.002344 1.200598 -0.003856 -0.001802 -518357.000000 1 0 0
-5.935067 -2.895455 4.113380 7.780011 0.453885 1.013715 -0.006912 0.001161 2241620.000000 1 0 0
1.024233 -5.725955 -5.134420 7.758729 -1.393793 2.293961 -0.002451 0.002976 1375940.000000 1 0 0
-6.972967 1.496545 -8.512920 11.105481 -0.211414 2.444250 0.008950 -0.006592 -898505.000000 1 0 0
8.049133 1.952645 4.741680 9.543841 0.237993 1.050852 -0.003584 0.001478 1825030.000000 1 0 0
0.539933 -8.138055 -0.574720 8.176171 -1.504547 1.641146 -0.002193 0.004024 731015.000000 1 0 0
5.500033 5.560545 -3.369120 8.515926 0.790869 1.977545 -0.001068 0.000938 15999.900000 1 0 0
-0.715267 -0.313055 -1.266120 1.487504 0.412558 2.589007 0.004504 -0.002258 465984.000000 1 0 0
9.114733 6.403345 -6.363520 12.828701 0.612420 2.089826 -0.003801 0.002387 1467790.000000 1 0 0
-14.911467 -7.130555 2.412480 16.703794 0.446050 1.425862 -0.003085 -0.001798 2110000.000000 1 0 0
-6.424367 6.914545 8.937180 12.998331 -0.822130 0.812668 0.001397 -0.003033 1659790.000000 1 0 0
-9.533167 -3.106955 -9.581920 13.868945 0.315055 2.333516 0.014895 -0.005897 1000880.000000 1 0 0
14.829633 3.372545 -1.344920 15.267642 0.223616 1.659000 -0.010181 0.007718 245977.000000 1 0 0
12.001433 1.588045 -5.875220 13.456392 0.131557 2.022625 0.002250 0.004074 -561231.000000 1 0 0
1.709333 -9.462555 12.731080 15.954378 -1.392082 0.646880 -0.005725 0.001090 128993.000000 1 0 0
-3.586167 6.373945 7.929180 10.787014 -1.058309 0.745031 0.001014 0.000702 2008330.000000 1 0 0
-4.057767 13.171645 -12.368920 18.518852 -1.271954 2.302193 -0.001727 0.000989 749989.000000 1 0 0
-10.234767 7.826045 6.584880 14.469212 -0.652813 1.098316 -0.004248 -0.004783 109827.000000 1 0 0
7.861733 -9.313255 -7.252520 14.182475 -0.869712 2.107577 -0.005330 0.002118 816929.000000 1 0 0
5.809633 -3.753855 -0.248420 6.921342 -0.573659 1.606696 -0.000113 0.000120 -175408.000000 1 0 0
-1.680667 -4.437755 4.264380 6.379910 1.208768 0.838731 -0.000792 0.000013 724404.000000 1 0 0
9.772733 -2.113355 -2.639020 10.341035 -0.212971 1.828850 -0.003236 0.000899 -1028370.000000 1 0 0
13.473833 7.161945 1.419680 15.324918 0.488564 1.478025 -0.004714 0.008121 -842213.000000 1 0 0
5.437233 -3.714755 -3.224720 7.332239 -0.599366 2.026172 -0.002822 -0.000565 -2406750.000000 1 0 0
-12.207167 -5.928155 1.863080 13.697774 0.452085 1.434360 -0.000737 -0.000725 1203920.000000 1 0 0
3.762333 -5.703055 -0.345720 6.841017 -0.987629 1.621354 -0.001048 0.002384 408114.000000 1 0 0
-5.153767 3.835045 -8.649320 10.774025 -0.639730 2.502762 0.009738 -0.007073 1037280.000000 1 0 0
-1.677667 -9.186955 7.236380 11.814394 1.390173 0.911570 -0.001544 -0.000549 817660.000000 1 0 0
-7.361667 -7.452755 2.592780 10.791673 0.791547 1.328165 0.001750 0.000992 -1205710.000000 1 0 0
-5.703967 13.163045 -8.421520 16.634993 -1.161890 2.101631 0.002561 -0.006754 813754.000000 1 0 0
9.080933 -13.821555 -4.158720 17.052674 -0.989507 1.817156 -0.001151 0.002106 9269.790000 1 0 0
-6.561467 -5.106655 -6.731020 10.697542 0.661356 2.251335 0.011027 -0.003768 2793980.000000 1 0 0
3.429933 0.406245 -6.199920 7.097075 0.117892 2.633323 -0.002513 -0.003015 1225950.000000 1 0 0
-3.567467 5.786345 5.007880 8.443191 -1.018310 0.935860 0.000553 0.003052 -254671.000000 1 0 0
-2.585967 -10.795655 -2.912420 11.476741 1.335688 1.827369 0.000568 0.004607 2044170.000000 1 0 0
-12.507267 -0.376155 1.798880 12.641566 0.030066 1.428013 0.000621 -0.002334 -413472.000000 1 0 0
8.239933 -12.001555 -6.095120 15.782405 -0.969139 1.967302 -0.006620 0.001536 -242586.000000 1 0 0
6.197133 3.924145 1.029480 7.406970 0.564488 1.431357 0.000508 -0.000325 -1028600.000000 1 0 0
3.305733 -4.874055 -11.046020 12.517940 -0.974831 2.651767 -0.006232 0.002714 -761853.000000 1 0 0
-7.622167 4.300745 8.715180 12.351041 -0.513712 0.787494 -0.004962 -0.001456 1124930.000000 1 0 0
8.222933 8.745945 4.056080 12.671226 0.816210 1.244960 0.001265 0.003324 2320140.000000 1 0 0
0.281233 10.497145 -6.376820 12.285478 1.544011 2.116539 -0.000106 0.003390 2389530.000000 1 0 0
5.451433 8.138345 3.261480 10.324148 0.980596 1.249383 -0.001105 0.004195 1831610.000000 1 0 0
8.116433 6.750945 -3.753520 11.204493 0.693811 1.912403 -0.004903 0.002675 -230215.000000 1 0 0
10.497833 2.464145 -8.304320 13.610225 0.230555 2.227050 -0.002571 0.003279 1651730.000000 1 0 0
3.370933 -12.630355 -0.370420 13.077701 -1.309984 1.599125 -0.001145 0.002999 -2370890.000000 1 0 0
0.638033 2.146545 5.253780 5.711125 1.281876 0.402919 0.000836 0.001419 360703.000000 1 0 0
-4.818767 13.362745 1.516380 14.285758 -1.224699 1.464450 -0.008688 0.002747 1032960.000000 1 0 0
8.233933 4.026045 -8.046620 12.196507 0.454775 2.291280 -0.004071 0.004287 1328560.000000 1 0 0
-13.946267 -0.525255 -3.473020 14.381798 0.037645 1.814694 -0.003220 0.000042 724271.000000 1 0 0
-8.621667 0.096345 -0.529920 8.638474 -0.011174 1.632179 -0.000825 -0.002245 329661.000000 1 0 0
1.726933 -3.828155 -1.137620 4.351005 -1.147017 1.835332 0.003090 0.001034 -3016250.000000 1 0 0
8.035833 -5.658655 -0.280120 9.832266 -0.613524 1.599290 -0.000999 0.001012 1912630.000000 1 0 0
-2.342767 -1.249755 7.375480 7.838887 0.490050 0.345567 0.001274 -0.000541 1426600.000000 1 0 0
-5.785167 8.936145 -11.674220 15.799058 -0.996258 2.402260 -0.000072 -0.000586 -922119.000000 1 0 0
-6.133467 9.342645 -8.882720 14.276104 -0.989864 2.242358 -0.002114 -0.000157 965830.000000 1 0 0
-1.414567 14.113445 -8.415720 16.492867 -1.470902 2.106288 0.003228 0.002867 -803742.000000 1 0 0
-1.387567 7.241445 9.802980 12.266307 -1.381476 0.644867 0.001261 -0.003252 -391129.000000 1 0 0
10.062833 2.303445 -3.988420 11.066795 0.225029 1.939488 -0.003330 0.004845 -1565550.000000 1 0 0
-3.043467 -7.485655 -6.999820 10.690893 1.184636 2.284643 0.004907 0.000210 723345.000000 1 0 0
-5.546767 -5.017255 -1.631420 7.655129 0.735316 1.785558 0.007145 0.000574 -619826.000000 1 0 0
5.749533 7.363745 -8.799420 12.834004 0.907880 2.326270 -0.003969 0.004864 794646.000000 1 0 0
-9.531767 5.332245 -7.398620 13.191929 -0.510045 2.166202 -0.007731 0.003106 -78372.600000 1 0 0
-0.412567 6.084045 -5.328620 8.098148 -1.503089 2.288962 0.005330 -0.001212 -1544020.000000 1 0 0
-8.234467 2.872245 -6.304420 10.761131 -0.335612 2.196726 0.001938 -0.000344 1083520.000000 1 0 0
3.674233 1.468945 -2.015020 4.440506 0.380331 2.041801 0.000950 -0.002318 2948150.000000 1 0 0
-6.745067 12.502445 -3.402520 14.607676 -1.076050 1.805883 -0.005522 -0.001672 711612.000000 1 0 0
-6.673067 3.180445 -2.385320 7.767548 -0.444760 1.882928 0.005099 -0.002237 -1056740.000000 1 0 0
12.085233 3.991145 -0.815320 12.753307 0.318973 1.634770 -0.002934 0.005427 114234.000000 1 0 0
2.198333 12.359345 -5.531620 13.718050 1.394769 1.985847 -0.000523 0.004084 1672340.000000 1 0 0
-9.278367 -1.405155 -4.258620 10.305261 0.150302 1.996813 0.003797 -0.000871 425046.000000 1 0 0
-1.175567 5.691345 3.390980 6.728455 -1.367107 1.042600 0.000507 0.002795 373680.000000 1 0 0
11.580933 2.634545 12.067080 16.931428 0.223683 0.777452 0.010152 0.006512 132794.000000 1 0 0
-7.056467 -2.298655 -5.710620 9.364225 0.314911 2.226647 0.014557 -0.005465 489546.000000 1 0 0
7.503933 -7.440655 10.823380 15.126729 -0.781164 0.773437 0.001077 0.000504 -303095.000000 1 0 0
-5.522967 -1.890155 -10.884820 12.351322 0.329741 2.649334 0.013938 -0.003789 25008.200000 1 0 0
0.771333 -6.156555 4.531380 7.683198 -1.446159 0.940013 -0.002145 -0.000414 841521.000000 1 0 0
-4.778167 -9.331555 7.482080 12.879842 1.097560 0.950945 -0.002360 -0.001759 2985080.000000 1 0 0
-8.778167 9.362545 1.659680 12.940943 -0.817601 1.442192 -0.000507 -0.001055 274333.000000 1 0 0
-8.069567 7.274745 -9.048320 14.139021 -0.733645 2.265234 -0.003619 0.000939 -487728.000000 1 0 0
-1.199667 -10.714055 -0.127620 10.781765 1.459289 1.582633 -0.001022 0.003776 -1176310.000000 1 0 0
-3.976067 10.334045 7.768780 13.526106 -1.203502 0.958981 0.003980 0.000551 2030430.000000 1 0 0
-7.431767 11.957545 2.060180 14.228787 -1.014709 1.425496 -0.004684 -0.003298 1210690.000000 1 0 0
-8.112067 -8.266255 -2.860820 11.929832 0.794812 1.812960 0.009759 0.000127 -50288.900000 1 0 0
5.418433 4.574745 -8.038020 10.719024 0.701172 2.418682 -0.002146 0.002963 1360630.000000 1 0 0
-9.004867 -0.069455 -10.184120 13.594438 0.007713 2.417557 0.008134 -0.005279 -859696.000000 1 0 0
-15.270567 -2.244155 -1.390920 15.497132 0.145915 1.660671 -0.002115 0.000942 113385.000000 1 0 0
-7.129567 -5.850955 8.781080 12.734668 0.687213 0.809941 0.001067 -0.002703 -2011850.000000 1 0 0
8.139733 3.454545 -0.957120 8.894111 0.401367 1.678618 -0.002694 0.003618 1470640.000000 1 0 0
11.928333 7.261745 -5.862620 15.145573 0.546851 1.968264 0.002142 0.002026 192179.000000 1 0 0
3.776133 13.353145 -9.625720 16.888462 1.295203 2.177251 -0.006822 0.001412 2001640.000000 1 0 0
-9.727467 5.458545 -0.368420 11.160424 -0.511362 1.603814 -0.001384 -0.000391 935796.000000 1 0 0
11.185433 -1.357955 -5.284620 12.445287 -0.120813 2.009348 -0.001372 0.001208 -178714.000000 1 0 0
10.624833 1.666745 -1.285420 10.831317 0.155604 1.689753 -0.004607 0.004479 -583614.000000 1 0 0
14.613733 5.095445 4.878980 16.227421 0.335494 1.265409 0.004385 0.003616 986321.000000 1 0 0
0.879133 -0.827155 10.400580 10.470393 -0.754945 0.115543 0.004302 -0.001218 2275330.000000 1 0 0
-8.017267 1.425445 -12.568320 14.975684 -0.175958 2.566696 0.008417 -0.003273 -491825.000000 1 0 0
3.062533 -11.608855 -7.780220 14.306517 -1.312863 2.145783 -0.014928 0.007998 151243.000000 1 0 0
2.924333 4.978545 -6.715620 8.856477 1.039703 2.431455 0.001292 0.000524 -2183710.000000 1 0 0
6.525733 8.091845 0.519380 10.408309 0.892130 1.520875 0.000049 0.001932 226930.000000 1 0 0
-9.048967 -5.489755 6.707980 12.530691 0.545311 1.005905 -0.004019 -0.000921 -2259950.000000 1 0 0
-0.448067 -6.851355 -11.919020 13.755176 1.505491 2.618967 -0.007854 0.006841 1233890.000000 1 0 0
6.334433 -13.456655 -4.724120 15.605253 -1.130839 1.878348 -0.005267 0.004809 1955040.000000 1 0 0
-3.288967 -0.366555 10.037080 10.568569 0.110992 0.318486 0.002316 -0.000385 -11326.400000 1 0 0
8.580133 8.440645 6.936980 13.891899 0.777203 1.047943 -0.005130 0.001313 -554613.000000 1 0 0
-7.975567 5.720445 -2.653620 10.167343 -0.622207 1.834849 0.004671 -0.002894 1241650.000000 1 0 0
-5.393467 5.890045 -6.448620 10.264834 -0.829379 2.250065 0.003574 -0.002742 -783257.000000 1 0 0
3.375833 -13.585555 2.542180 14.227657 -1.327242 1.391153 0.004077 -0.001335 -1887170.000000 1 0 0
-11.252867 -7.030955 6.447580 14.752377 0.558466 1.118476 -0.000783 -0.002125 -1496340.000000 1 0 0
-12.995367 -3.693655 -6.715020 15.086886 0.276926 2.032071 0.009976 -0.000930 46809.700000 1 0 0
6.094633 0.391745 -7.223320 9.459089 0.064189 2.439725 -0.005780 0.001994 917521.000000 1 0 0
-1.505267 2.212745 -2.457920 3.633654 -0.973434 2.313704 0.005367 -0.004631 2916230.000000 1 0 0
7.551333 0.949045 -4.851920 9.025765 0.125024 2.138341 -0.003502 0.003888 354525.000000 1 0 0
3.711933 -4.524055 10.896680 12.368636 -0.883687 0.492840 -0.002097 0.003947 626078.000000 1 0 0
6.049133 -2.568455 2.133580 6.909496 -0.401531 1.256876 0.000832 -0.000737 -725985.000000 1 0 0
-6.293967 7.767145 1.150880 10.063155 -0.889787 1.456180 -0.000344 -0.000430 1272830.000000 1 0 0
6.093633 -3.430155 7.959880 10.595189 -0.512699 0.720807 -0.000802 0.000044 1657610.000000 1 0 0
6.740533 -2.270655 -7.858520 10.599386 -0.324926 2.405969 -0.006272 0.000205 645027.000000 1 0 0
11.948633 -8.284755 -5.993020 15.726515 -0.606259 1.961758 0.006548 -0.004797 381074.000000 1 0 0
5.584733 -9.764055 9.988780 15.043329 -1.051243 0.844640 -0.002944 0.003043 2836210.000000 1 0 0
-6.550367 7.549945 -4.397220 10.919914 -0.856170 1.985238 0.000647 -0.002802 781304.000000 1 0 0
-1.232867 -7.472555 9.704480 12.309995 1.407283 0.662688 0.003262 -0.003829 311552.000000 1 0 0
10.115433 -9.362355 0.771780 13.804757 -0.746754 1.514860 0.000995 0.000189 1758140.000000 1 0 0
11.068533 6.045045 9.742380 15.936404 0.499880 0.913058 0.003686 -0.000900 763439.000000 1 0 0
-15.327467 -4.214255 -4.874920 16.626967 0.268318 1.868362 -0.007951 0.002079 1562340.000000 1 0 0
-4.773467 -4.608155 7.897180 10.314385 0.767779 0.698749 -0.003142 -0.001235 -1033330.000000 1 0 0
3.039733 10.826145 -11.094020 15.796286 1.297067 2.349445 -0.002669 -0.000193 -480392.000000 1 0 0
9.891833 -1.377555 1.529280 10.103698 -0.138372 1.418854 -0.004636 0.001232 -849932.000000 1 0 0
-1.605167 -2.678355 0.550680 3.170709 1.030884 1.396234 0.001245 0.000449 126548.000000 1 0 0
1.605233 2.955745 0.893180 3.480082 1.073274 1.311237 -0.003229 -0.000256 -37690.400000 1 0 0
-8.882467 -2.356855 4.297080 10.144845 0.259361 1.133411 -0.007990 -0.000492 2406970.000000 1 0 0
9.931833 4.903645 -2.747620 11.412119 0.458619 1.813949 -0.006492 0.004698 775801.000000 1 0 0
2.578333 8.409145 2.556380 9.159509 1.273286 1.287944 -0.001336 0.003105 1533190.000000 1 0 0
-8.130067 -0.013555 2.431880 8.486001 0.001667 1.280146 -0.005878 -0.000984 1024210.000000 1 0 0
6.906233 2.018945 13.702180 15.476496 0.284411 0.483541 -0.002114 0.003095 -1667690.000000 1 0 0
6.827633 4.404945 3.778080 8.960692 0.572968 1.135556 -0.005152 0.000993 826239.000000 1 0 0
-0.251467 3.383345 7.859180 8.560197 -1.496608 0.407518 -0.000765 0.000691 1243480.000000 1 0 0
2.644433 -10.290255 9.202380 14.055824 -1.319255 0.857008 -0.005457 -0.001278 1752650.000000 1 0 0
1.404633 -4.550455 6.896380 8.380913 -1.271396 0.604357 0.000886 -0.001792 -431775.000000 1 0 0
-0.110567 10.849845 -2.002120 11.033578 -1.560606 1.753264 -0.000146 -0.000603 2569260.000000 1 0 0
8.748333 5.559245 7.923280 13.046720 0.566088 0.918138 -0.003141 0.000424 712644.000000 1 0 0
2.722633 11.419845 -2.894620 12.091502 1.336753 1.812537 0.003008 -0.002237 2433740.000000 1 0 0
1.492033 2.419145 -6.690820 7.269491 1.018144 2.739892 0.004737 -0.003918 2072260.000000 1 0 0
-13.524567 -2.163055 3.595980 14.160642 0.158592 1.314043 0.000108 -0.003591 2408590.000000 1 0 0
-0.959267 -10.717655 -5.388120 12.034125 1.481531 2.035029 -0.003292 0.003615 1582060.000000 1 0 0
-5.685267 2.885245 0.398980 6.387964 -0.469626 1.508298 0.004035 -0.002763 141090.000000 1 0 0
3.763233 7.299045 -5.000820 9.614894 1.094763 2.117778 0.001075 0.000960 -1097450.000000 1 0 0
3.028333 9.760945 -6.481520 12.101940 1.269963 2.135987 0.000872 0.003281 1033160.000000 1 0 0
-12.332267 1.790545 -2.560620 12.721935 -0.144184 1.773457 0.000187 0.000691 989910.000000 1 0 0
-2.475867 9.587645 -5.749620 11.450370 -1.318082 2.096861 -0.000299 0.000274 240773.000000 1 0 0
-1.340767 3.300045 1.671980 3.934904 -1.184882 1.131934 0.000188 0.000480 1702510.000000 1 0 0
12.825433 3.702745 9.652680 16.473503 0.281061 0.944742 0.016972 0.000392 1329400.000000 1 0 0
-2.519167 -9.517255 11.542780 15.171029 1.312036 0.706184 -0.001947 -0.003887 -939596.000000 1 0 0
-0.517667 -8.970355 -7.618520 11.780369 1.513152 2.274064 -0.002086 0.005637 1702000.000000 1 0 0
2.393833 7.649945 -0.475620 8.029839 1.267527 1.630063 0.000744 0.001594 2337380.000000 1 0 0
-11.968567 -1.324155 -5.430520 13.209486 0.110188 1.994465 -0.001829 0.002433 -731037.000000 1 0 0
-6.183567 -7.027155 -10.918420 14.381561 0.849168 2.432873 0.006822 -0.002736 2328910.000000 1 0 0
-4.722267 -2.264655 -1.369020 5.413195 0.447170 1.826477 0.004065 0.000260 -2147390.000000 1 0 0
-10.308067 3.778945 4.538380 11.879965 -0.351387 1.178816 -0.006061 -0.003056 2990570.000000 1 0 0
6.759233 9.411945 -3.625120 12.141393 0.947990 1.873996 0.000726 0.001431 1496140.000000 1 0 0
1.202033 -2.631755 -11.613920 11.968882 -1.142350 2.897441 0.002717 -0.001218 -1093030.000000 1 0 0
1.281733 8.839545 7.586580 11.719070 1.426800 0.866667 -0.006299 0.005003 -658127.000000 1 0 0
10.403333 0.465045 10.435980 14.742974 0.044672 0.784331 -0.000417 0.004508 -511338.000000 1 0 0
-5.310567 -0.841755 -3.899420 6.641999 0.157198 2.198250 0.009883 -0.005295 481917.000000 1 0 0
11.754933 5.735745 5.436680 14.164558 0.453956 1.176864 -0.001735 0.002401 1482200.000000 1 0 0
9.930233 -3.525455 3.645180 11.150144 -0.341142 1.237756 -0.000806 -0.003647 -2190040.000000 1 0 0
7.183033 -1.675655 -3.388020 8.116801 -0.229181 2.001388 -0.002599 0.002097 -3596830.000000 1 0 0
2.337333 9.285745 10.546580 14.244948 1.324207 0.737171 -0.003973 0.003894 2074500.000000 1 0 0
2.392133 -10.782655 6.277980 12.704369 -1.352482 1.053929 -0.002579 0.001923 1718290.000000 1 0 0
5.859133 -7.573855 -1.281520 9.661005 -0.912362 1.703837 -0.003786 0.000743 2122260.000000 1 0 0
-0.271467 -5.669655 -2.337020 6.138432 1.522952 1.961370 0.000655 0.004209 1601320.000000 1 0 0
7.762633 -5.104155 2.637280 9.657438 -0.581650 1.294200 0.001266 -0.002930 1185940.000000 1 0 0
-2.687467 -12.460455 4.707180 13.588339 1.358371 1.217051 -0.003388 0.001328 -907404.000000 1 0 0
4.848833 -10.363655 -1.203420 11.504988 -1.133182 1.675588 -0.003054 -0.000667 1453180.000000 1 0 0
0.942433 0.162145 1.123880 1.475662 0.170381 0.705001 -0.000093 -0.000836 -1083830.000000 1 0 0
-1.541867 8.547745 2.409380 9.013679 -1.392333 1.300204 -0.000469 0.003700 505966.000000 1 0 0
-7.632167 0.695545 -3.145120 8.284053 -0.090882 1.960225 0.005045 -0.001168 -452917.000000 1 0 0
4.454133 -6.401155 12.942080 15.109981 -0.962873 0.542297 -0.003138 0.003097 120897.000000 1 0 0
-5.106767 13.022745 8.490780 16.363505 -1.197082 1.025250 0.005313 -0.007259 1317930.000000 1 0 0
0.763133 6.098345 8.318980 10.342998 1.446306 0.636282 -0.003242 0.003365 1521130.000000 1 0 0
7.892433 -0.494355 -0.719520 7.940566 -0.062555 1.661534 -0.002843 0.001936 3662970.000000 1 0 0
2.388033 -9.292855 -2.518920 9.919920 -1.319264 1.827533 -0.007926 0.003902 1576840.000000 1 0 0
-7.221767 12.145445 4.947180 14.971317 -1.034352 1.234022 0.001543 -0.003187 484824.000000 1 0 0
-14.952867 0.257045 0.255380 14.957256 -0.017189 1.553721 0.000347 -0.003430 2637880.000000 1 0 0
6.904233 -0.475055 3.956480 7.971690 -0.068698 1.051446 -0.001259 -0.000190 -203329.000000 1 0 0
-4.191367 -5.012255 5.149880 8.319346 0.874355 0.903296 -0.002404 0.000201 853155.000000 1 0 0
2.950733 5.117045 6.861580 9.053853 1.047725 0.710765 -0.004902 0.002028 -1264580.000000 1 0 0
2.024233 -7.141855 1.814880 7.641819 -1.294608 1.331012 -0.002085 0.000371 2028040.000000 1 0 0
-2.432867 6.424745 -1.679320 7.072221 -1.208811 1.810539 0.002520 -0.000411 1790430.000000 1 0 0
2.652233 -3.779755 -6.599420 8.054392 -0.958934 2.531084 -0.006379 0.001030 -977703.000000 1 0 0
-5.151867 0.963845 -12.090120 13.177319 -0.184949 2.732532 0.010731 -0.005465 1256390.000000 1 0 0
-7.438267 6.500945 -11.908420 15.472574 -0.718256 2.449084 -0.002230 -0.002680 1692820.000000 1 0 0
-0.944867 11.301045 -8.995720 14.475129 -1.487382 2.241402 0.000783 0.003248 848869.000000 1 0 0
4.708233 5.948045 -0.596220 7.609348 0.901223 1.649230 0.000304 0.000602 614829.000000 1 0 0
-2.540967 13.382745 3.571680 14.082304 -1.383161 1.314366 -0.006654 0.004959 137635.000000 1 0 0
1.486633 -7.891455 10.241880 13.014655 -1.384593 0.664947 -0.004778 0.000301 -880284.000000 1 0 0
12.958533 -0.341055 -1.042420 13.004866 -0.026313 1.651039 0.002384 0.005043 1386560.000000 1 0 0
-1.023867 3.108045 -5.402020 6.315858 -1.252568 2.596946 0.007464 -0.006639 1337160.000000 1 0 0
6.546933 1.055445 7.256980 9.830568 0.159837 0.740390 -0.005103 0.000109 1694870.000000 1 0 0
5.528833 -6.131555 6.884980 10.750205 -0.837042 0.875711 -0.001307 -0.001310 994986.000000 1 0 0
12.183933 -4.922455 2.550780 13.386010 -0.383960 1.379068 -0.001017 -0.001688 -2121880.000000 1 0 0
4.450033 -9.251755 13.859180 17.247453 -1.122469 0.637562 0.000317 0.004741 169108.000000 1 0 0
-2.789467 -4.340155 -1.430420 5.353893 0.999562 1.841255 0.005697 -0.000638 2024220.000000 1 0 0
-9.400567 -5.174955 -7.583320 13.139922 0.503222 2.185995 0.015542 -0.004083 1719070.000000 1 0 0
-10.491867 -3.169155 7.876980 13.497023 0.293344 0.947631 -0.003784 0.001419 363952.000000 1 0 0
12.019133 -0.579955 1.616980 12.141274 -0.048215 1.437219 -0.003491 0.000446 288554.000000 1 0 0
-7.480067 4.703345 4.436980 9.887348 -0.561316 1.105427 -0.001659 -0.000476 912789.000000 1 0 0
-1.079967 10.602145 6.971780 12.734894 -1.469283 0.991476 -0.000573 0.005081 2575790.000000 1 0 0
7.371033 -10.009955 1.865580 12.570271 -0.936075 1.421834 -0.000851 -0.001714 2493950.000000 1 0 0
-4.297967 -1.763955 1.626980 4.922512 0.389453 1.233944 -0.001155 0.001457 477199.000000 1 0 0
6.703833 -15.062655 -0.920720 16.512803 -1.152055 1.626583 0.004245 0.004288 -629065.000000 1 0 0
-10.410467 1.773045 2.415080 10.833011 -0.168695 1.345970 -0.005497 0.001519 125654.000000 1 0 0
-2.935667 8.392445 -11.356820 14.423198 -1.234301 2.477375 0.003947 -0.001963 607166.000000 1 0 0
-1.197967 -5.240755 -6.914220 8.758257 1.346071 2.480711 -0.001220 -0.000827 -247681.000000 1 0 0
12.783333 -0.533755 6.436180 14.322113 -0.041730 1.104717 -0.001063 -0.004835 2420840.000000 1 0 0
5.949133 -13.310055 3.793680 15.064586 -1.150469 1.316228 0.001018 0.000445 595688.000000 1 0 0
-5.631167 3.509945 -5.016420 8.318306 -0.557381 2.218125 0.008662 -0.004695 -389058.000000 1 0 0
-4.365167 8.140945 3.401680 9.843835 -1.078611 1.217956 0.000919 0.002278 884825.000000 1 0 0
13.974333 6.049945 -4.043320 15.755388 0.408570 1.830331 0.009623 0.007689 1785560.000000 1 0 0
-6.651367 -8.538955 5.327680 12.063938 0.909027 1.113392 0.000798 -0.000726 -1002430.000000 1 0 0
1.690433 11.339645 2.697680 11.778056 1.422813 1.339702 -0.000966 0.002706 1207190.000000 1 0 0
-7.482867 7.208145 6.038480 12.017233 -0.766700 1.044326 -0.002893 -0.002138 -879037.000000 1 0 0
-17.275467 -4.109955 5.206080 18.505047 0.233565 1.285613 -0.002595 -0.004989 -1119240.000000 1 0 0
7.446233 -13.133355 -8.590320 17.370233 -1.055017 2.088105 -0.007016 0.006152 48901.300000 1 0 0
-2.262367 12.840545 -2.772220 13.329783 -1.396397 1.780297 -0.006274 0.002963 866808.000000 1 0 0
-5.464667 13.888745 -5.662520 15.963206 -1.195940 1.933414 -0.002624 -0.000941 3217500.000000 1 0 0
-5.619867 2.499145 7.457780 9.666805 -0.418436 0.689627 -0.001940 -0.000014 659206.000000 1 0 0
-7.396567 5.116345 1.497780 9.117540 -0.605147 1.405774 0.002118 -0.001411 69596.000000 1 0 0
10.668133 -5.774155 -5.189920 13.194135 -0.496103 1.975069 -0.000531 -0.001012 2226380.000000 1 0 0
-9.408367 -0.768655 6.844380 11.659920 0.081518 0.943447 -0.008781 -0.000016 -716247.000000 1 0 0
-11.345167 -4.539555 -2.498220 12.472429 0.380619 1.772460 0.004479 -0.000867 320019.000000 1 0 0
6.541533 -4.374655 13.569180 15.686042 -0.589444 0.525550 -0.000817 0.001868 -742240.000000 1 0 0
0.308333 10.290745 -11.692720 15.579287 1.540843 2.419660 0.003997 0.001228 -1469200.000000 1 0 0
-11.730367 -3.131255 1.456680 12.228172 0.260854 1.451388 -0.002275 -0.001632 3299190.000000 1 0 0
5.230133 5.967145 5.421280 9.609963 0.851124 0.971416 -0.004285 0.003112 -5150650.000000 1 0 0
-7.069867 0.057645 8.204480 10.830505 -0.008153 0.711268 -0.007506 0.000447 -42255.200000 1 0 0
1.839933 2.018345 9.676580 10.054615 0.831607 0.275086 0.000589 -0.001164 2334710.000000 1 0 0
10.380333 -5.030055 -2.161320 11.735590 -0.451232 1.756022 -0.001060 -0.000478 2847190.000000 1 0 0
-9.697467 -2.363755 -1.614920 10.111190 0.239087 1.731199 0.003894 -0.002024 -40800.700000 1 0 0
-1.952967 -5.200955 -9.899620 11.351937 1.211586 2.630201 0.006977 -0.001405 605156.000000 1 0 0
7.683033 -1.537255 6.512880 10.188707 -0.197477 0.877306 -0.001899 -0.001231 1405820.000000 1 0 0
1.564833 -11.974055 -2.637020 12.360444 -1.440847 1.785792 -0.003890 0.004442 -3648300.000000 1 0 0
-0.791567 -1.495755 4.824580 5.112772 1.084056 0.337356 0.003682 -0.001074 1304530.000000 1 0 0
7.672233 1.527045 9.858380 12.585018 0.196468 0.670771 -0.002411 0.002571 1117150.000000 1 0 0
-3.763067 10.799845 -7.950020 13.928393 -1.235515 2.178249 0.000350 0.002297 2483670.000000 1 0 0
-9.589567 12.784045 6.564180 17.276576 -0.927218 1.181057 -0.003264 -0.001930 1280770.000000 1 0 0
-2.551467 -2.423755 -11.083620 11.628895 0.759734 2.834149 0.008854 -0.005296 -1847510.000000 1 0 0
1.173033 -11.941355 11.089480 16.338560 -1.472878 0.824764 -0.013642 0.004288 1867720.000000 1 0 0
1.313633 3.424245 -1.882420 4.122449 1.204484 2.044996 0.002612 -0.002068 3442310.000000 1 0 0
-2.069367 -9.386355 -12.150420 15.492535 1.353802 2.472324 -0.003273 0.007635 1650600.000000 1 0 0
1.288633 -2.675155 1.564480 3.356282 -1.121892 1.085879 0.004954 -0.001146 2470120.000000 1 0 0
-1.076667 -2.312755 -6.647020 7.119755 1.135099 2.775134 0.003158 -0.005237 156033.000000 1 0 0
1.804133 5.798145 4.115480 7.335568 1.269135 0.975166 -0.006199 0.005091 -748377.000000 1 0 0
-10.938567 8.655045 3.767180 14.448311 -0.669377 1.307013 -0.009772 -0.001634 1654800.000000 1 0 0
-16.358867 -1.503355 3.964480 16.899400 0.091641 1.333996 0.003868 -0.006072 319840.000000 1 0 0
-12.087067 0.237645 6.799080 13.870153 -0.019659 1.058483 -0.004343 -0.001801 318383.000000 1 0 0
-5.004367 2.956445 4.684580 7.465223 -0.533607 0.892432 -0.001846 0.002366 2774970.000000 1 0 0
5.195933 -6.030755 4.008780 8.912802 -0.859622 1.104280 0.000581 -0.001274 1717780.000000 1 0 0
10.032033 3.444645 6.287980 12.330692 0.330751 1.035675 -0.005218 0.002852 337496.000000 1 0 0
-12.160767 5.878845 3.278680 13.899454 -0.450302 1.332667 -0.005909 0.000475 2372900.000000 1 0 0
-4.856367 12.373545 -1.276020 13.353544 -1.196790 1.666499 -0.008874 0.001998 -124856.000000 1 0 0
-1.772567 -12.153855 10.309480 16.035697 1.425973 0.872507 -0.001462 -0.006805 1802900.000000 1 0 0
5.207233 6.305445 13.865080 16.097030 0.880502 0.532887 -0.000597 -0.003183 217546.000000 1 0 0
12.857633 -3.779555 -6.033120 14.697017 -0.285901 1.993798 0.001008 -0.001908 2547820.000000 1 0 0
3.527233 -2.515055 6.436880 7.758885 -0.619424 0.592380 -0.000936 -0.000060 1290600.000000 1 0 0
7.199133 -11.898655 -0.640920 13.921792 -1.026681 1.616850 0.001786 0.001898 -1005660.000000 1 0 0
-6.070767 -6.590155 -4.104820 9.855653 0.826398 2.000382 0.014405 -0.002739 1627310.000000 1 0 0
0.222733 -8.923055 5.018680 10.240004 -1.545840 1.058586 -0.003281 0.001721 1884260.000000 1 0 0
-10.361767 2.558045 -0.397720 10.680262 -0.242034 1.608044 -0.001549 0.000987 -2060120.000000 1 0 0
-1.791467 8.982845 -0.364820 9.167003 -1.373947 1.610604 0.003144 0.001013 520110.000000 1 0 0
-3.524667 2.340645 -6.623620 7.859659 -0.586207 2.573142 0.011501 -0.008574 -268431.000000 1 0 0
-12.532067 3.049045 6.516180 14.450259 -0.238662 1.102980 -0.002783 -0.008417 1088660.000000 1 0 0
11.443233 1.562145 7.899880 13.992712 0.135674 0.970883 0.002096 -0.003275 -3497000.000000 1 0 0
6.027133 2.701845 -3.169120 7.325955 0.421423 2.018158 -0.003106 0.002464 1179810.000000 1 0 0
10.449533 -2.382255 6.423280 12.495055 -0.224146 1.030878 -0.000967 -0.002859 2601700.000000 1 0 0
-0.902867 11.010145 4.083880 11.777799 -1.488976 1.216699 0.001749 0.004819 426623.000000 1 0 0
-1.497467 -12.223655 7.443780 14.389928 1.448898 1.027114 -0.004844 0.000950 131105.000000 1 0 0
8.117933 8.626845 -7.846920 14.209062 0.815781 2.155854 0.002181 0.003055 1819440.000000 1 0 0
-4.699367 -5.840055 -8.650720 11.446626 0.893209 2.427586 0.008562 -0.002866 -144056.000000 1 0 0
-8.577667 -5.284755 -11.540120 15.319248 0.552178 2.423875 0.016752 -0.002855 582419.000000 1 0 0
6.111633 -0.596355 -9.929820 11.675145 -0.097269 2.587749 -0.004585 0.001098 -2838990.000000 1 0 0
-11.257167 -5.354055 -5.330020 13.557242 0.443948 1.974850 0.006580 -0.003891 -1023290.000000 1 0 0
3.913233 8.954845 -2.774620 10.158797 1.158809 1.847436 0.004919 -0.001745 1648110.000000 1 0 0
11.615033 -10.521355 -4.001120 16.174575 -0.736032 1.820762 0.002466 -0.003430 -1658850.000000 1 0 0
3.943433 -11.200955 3.851580 12.483859 -1.232286 1.257155 -0.001253 0.003583 1954830.000000 1 0 0
-1.002367 0.850645 3.194480 3.454423 -0.703702 0.390416 0.001944 -0.000195 -709622.000000 1 0 0
-10.500767 -5.144555 4.441580 12.508405 0.455553 1.207788 -0.000785 -0.002680 3803580.000000 1 0 0
4.633233 -8.556055 2.746680 10.110251 -1.074491 1.295666 0.000218 0.000279 6388610.000000 1 0 0
-3.681267 -5.714755 2.704380 7.315998 0.998531 1.192161 -0.001700 -0.000074 768592.000000 1 0 0
10.022633 5.071045 12.279180 16.641723 0.468404 0.740909 0.004527 0.002961 451312.000000 1 0 0
1.597033 -12.465755 -5.337520 13.654108 -1.443377 1.972416 -0.005665 0.003616 1170380.000000 1 0 0
9.831133 -10.790655 -1.743820 14.701371 -0.831894 1.689692 0.002437 -0.000814 1488780.000000 1 0 0
9.490333 -4.525555 -9.315520 14.047276 -0.444964 2.295822 0.003101 -0.004476 1450090.000000 1 0 0
-7.431367 -3.105055 -13.031720 15.319670 0.395783 2.588022 0.013021 -0.001268 2639390.000000 1 0 0
0.429333 6.173445 -2.504520 6.675955 1.501363 1.955361 0.003728 -0.001003 2349130.000000 1 0 0
-5.861867 -9.505655 0.964880 11.209369 1.018208 1.484612 0.000157 0.004270 1282780.000000 1 0 0
-8.975367 -4.015555 0.619480 9.852190 0.420687 1.507877 -0.001948 -0.000555 901272.000000 1 0 0
1.904133 3.867245 12.059080 12.806355 1.113268 0.343303 -0.000792 -0.005221 330794.000000 1 0 0
6.634733 4.271545 9.617580 12.440403 0.572015 0.687094 -0.006235 0.002047 2128960.000000 1 0 0
-8.240567 9.869645 -3.616120 13.356390 -0.875110 1.844959 -0.005283 -0.002035 1957070.000000 1 0 0
16.290133 2.078945 -6.063520 17.505905 0.126934 1.924495 -0.000796 0.009549 -427606.000000 1 0 0
-10.942667 2.681745 -5.132620 12.380529 -0.240336 1.998269 -0.005340 0.002117 -396751.000000 1 0 0
-13.766367 4.039745 1.633180 14.439518 -0.285437 1.457449 -0.003041 0.002325 -426735.000000 1 0 0
-17.280767 10.532245 3.480380 20.534511 -0.547359 1.400485 0.019250 -0.003607 80506.400000 1 0 0
-14.396067 2.876845 -1.023220 14.716316 -0.197237 1.640382 -0.000157 0.001696 224028.000000 1 0 0
-14.275767 5.109245 5.327080 16.071082 -0.343692 1.232935 -0.002403 -0.004965 1000770.000000 1 0 0
-17.289267 7.594645 3.267680 19.164423 -0.413895 1.399452 0.009084 -0.001552 -1699180.000000 1 0 0
-14.591367 12.628645 -3.317220 19.580465 -0.713417 1.741032 0.013716 -0.003499 -1479070.000000 1 0 0
-8.438867 12.577345 -9.441120 17.847656 -0.979829 2.128199 -0.007096 -0.008740 680636.000000 1 0 0
-12.368467 8.972345 -9.821420 18.164312 -0.627584 2.142064 -0.012845 0.011166 -974243.000000 1 0 0
-14.038167 -3.419055 -12.223920 18.925757 0.238903 2.272982 -0.002286 0.001763 -911308.000000 1 0 0
-14.642167 5.863845 -7.577520 17.498472 -0.380917 2.018658 0.001349 0.007217 -605201.000000 1 0 0
-10.805867 13.715645 -8.280420 19.324881 -0.903508 2.013612 -0.000342 -0.005135 2287380.000000 1 0 0
-10.840767 13.544445 3.947980 17.792155 -0.895821 1.347039 0.001564 -0.006120 -1268610.000000 1 0 0
-15.191767 3.280345 3.232080 15.874407 -0.212664 1.365759 0.000446 -0.005111 -466352.000000 1 0 0
-11.053567 9.511545 -12.449920 19.174236 -0.710556 2.277466 -0.007433 0.004423 -1328800.000000 1 0 0
-12.981867 11.711845 -8.900620 19.619307 -0.734012 2.041671 -0.003473 -0.008180 276306.000000 1 0 0
-8.845267 14.543645 -3.339420 17.346702 -1.024378 1.764516 -0.000995 -0.011188 -250717.000000 1 0 0
-16.600467 8.372045 -4.050320 19.028182 -0.467102 1.785296 0.019766 -0.000847 -1524190.000000 1 0 0
-16.865567 6.769345 0.423180 18.178296 -0.381687 1.547515 0.016954 0.004670 -573616.000000 1 0 0
-10.563167 2.892645 -12.505920 16.623655 -0.267290 2.422337 0.003655 0.000366 827194.000000 1 0 0
-16.877467 1.014845 2.456880 17.085522 -0.060058 1.426497 0.009748 -0.009611 319670.000000 1 0 0
-12.760467 1.189345 -6.933020 14.570889 -0.092937 2.066685 -0.001291 0.000185 485893.000000 1 0 0
-12.243167 9.125545 -5.313820 16.168098 -0.640524 1.905682 0.001382 0.002450 -882607.000000 1 0 0
-9.531167 13.870245 1.359880 16.884197 -0.968736 1.490167 0.007859 -0.008174 -725465.000000 1 0 0
-12.166967 11.144745 2.876880 16.748638 -0.741576 1.398172 -0.001425 -0.002345 222237.000000 1 0 0
-12.494567 6.955445 -3.588020 14.743348 -0.507955 1.816630 -0.006871 0.005092 -658722.000000 1 0 0
-15.585667 3.682745 -9.343820 18.541375 -0.232035 2.098956 -0.012891 0.003692 -1967830.000000 1 0 0
-15.040667 5.991445 -4.658720 16.847040 -0.379083 1.850978 0.007166 0.003618 1432780.000000 1 0 0
-17.959867 5.327445 7.410180 20.145701 -0.288363 1.194123 0.016103 -0.007962 -1236020.000000 1 0 0
-15.789467 10.259745 -2.000120 18.935948 -0.576223 1.676619 0.025151 0.004421 219136.000000 1 0 0
-8.707867 10.029245 -8.287520 15.655532 -0.855804 2.128650 -0.002452 -0.005155 -1835340.000000 1 0 0
-16.970767 4.320645 -1.191520 17.552624 -0.249297 1.638731 0.006156 0.003611 -1196220.000000 1 0 0
-10.245967 5.474645 -4.514320 12.463172 -0.490727 1.941437 -0.003263 0.003755 -1099780.000000 1 0 0
-18.086967 2.619645 6.270480 19.321486 -0.143836 1.240277 -0.002772 -0.002157 -1758510.000000 1 0 0
-10.240767 10.141045 -5.714020 15.503681 -0.780506 1.948255 -0.006440 -0.004749 1175580.000000 1 0 0
-15.401767 0.493145 -5.849920 16.482693 -0.032008 1.933617 -0.005963 0.001603 1349080.000000 1 0 0
-16.404267 -4.131155 -8.792520 19.065016 0.246704 2.050128 -0.014533 -0.000708 -1504750.000000 1 0 0
-9.960867 9.655845 -1.087020 13.915309 -0.769850 1.648993 -0.005069 -0.000358 2264190.000000 1 0 0
-17.465667 -2.948655 -3.118320 17.985216 0.167249 1.745059 -0.000078 0.000688 549611.000000 1 0 0
-12.008167 5.230745 -11.527520 17.448223 -0.410814 2.292507 0.001332 0.003551 251609.000000 1 0 0
-16.147667 7.118045 5.922980 18.614387 -0.415185 1.246973 0.001284 -0.001690 -71864.200000 1 0 0
-12.020867 6.181545 -8.792620 16.125226 -0.474970 2.147509 -0.004661 0.004571 2130180.000000 1 0 0
-14.548567 8.489945 0.034180 16.844617 -0.528243 1.568767 0.008326 0.002838 560879.000000 1 0 0
-14.747567 11.978645 3.990880 19.414062 -0.682163 1.363754 0.000323 -0.005708 -344846.000000 1 0 0
-17.198367 4.192545 -4.047220 18.158779 -0.239112 1.795564 0.000485 0.002627 -115052.000000 1 0 0
-13.792867 13.581245 -0.663720 19.368374 -0.777668 1.605071 0.019360 -0.003191 282333.000000 1 0 0
-10.049267 6.973145 -13.037620 17.877137 -0.606617 2.388080 -0.010438 0.000469 199125.000000 1 0 0
-15.914967 -1.179055 -8.268020 17.973216 0.073950 2.048813 -0.010285 -0.001589 754786.000000 1 0 0
-11.459967 11.901245 0.059680 16.521926 -0.804285 1.567184 0.007179 -0.005120 1062640.000000 1 0 0
-11.966967 7.379745 -0.875720 14.086725 -0.552591 1.633003 -0.007468 0.003664 1689400.000000 1 0 0
-11.530167 0.269545 -11.620320 16.372209 -0.023373 2.359952 0.000491 -0.003987 250279.000000 1 0 0
-19.095967 -1.220755 -4.681520 19.699310 0.063841 1.810741 -0.000400 -0.001665 -971165.000000 1 0 0
-18.007867 1.517845 -5.048220 18.763572 -0.084089 1.843196 -0.002755 0.001666 -1634820.000000 1 0 0
-13.388767 -0.092955 -9.486120 16.408967 0.006943 2.187202 -0.002200 -0.001849 86268.500000 1 0 0
-6.129867 11.315045 -13.297420 18.504780 -1.074313 2.372574 -0.014039 0.003724 -2110260.000000 1 0 0
16.315933 5.776945 7.196280 18.744845 0.340294 1.176772 0.025077 -0.002035 1669820.000000 1 0 0
14.809533 10.178845 -5.531720 18.802422 0.602163 1.869417 0.027053 -0.001705 31428.100000 1 0 0
2.359533 17.054645 4.436280 17.779452 1.433318 1.318615 0.008077 -0.002366 2791060.000000 1 0 0
-3.893367 18.254145 -5.834220 19.555312 -1.360658 1.873754 -0.000521 0.000438 -91641.500000 1 0 0
5.462033 14.597345 5.651680 16.578835 1.212745 1.222925 0.001057 -0.000525 -87968.800000 1 0 0
9.940633 6.089345 15.022480 19.015026 0.549612 0.659935 0.012666 0.003536 -363898.000000 1 0 0
4.728833 12.826545 -1.122520 13.716493 1.217582 1.652725 0.001954 -0.003274 2145130.000000 1 0 0
3.610133 13.767545 13.076880 19.328299 1.314349 0.827706 -0.014306 0.000494 -163068.000000 1 0 0
-0.741867 12.354945 9.174680 15.406810 -1.510822 0.932914 0.002855 0.001636 1175660.000000 1 0 0
-7.707867 13.976145 8.461480 18.064897 -1.066801 1.083325 0.007843 -0.013298 -46096.500000 1 0 0
11.430233 12.916545 -4.258820 17.765835 0.846370 1.812873 0.032152 -0.002966 444371.000000 1 0 0
-5.680067 16.092945 0.935680 17.091563 -1.231492 1.516024 -0.012326 0.000230 -505052.000000 1 0 0
3.288433 10.666445 6.791780 13.065800 1.271745 1.024164 -0.004000 0.007393 906869.000000 1 0 0
-1.131167 15.594745 2.469180 15.829481 -1.498388 1.414171 -0.005810 0.001501 -1878320.000000 1 0 0
9.843933 8.778045 9.479080 16.242231 0.728222 0.947633 -0.002417 -0.003227 2244150.000000 1 0 0
7.249833 12.261745 6.245280 15.553585 1.036831 1.157606 -0.003743 -0.000301 332160.000000 1 0 0
11.813433 14.065145 -1.618320 18.439210 0.872190 1.658675 0.020457 -0.003162 -250209.000000 1 0 0
9.581933 15.916645 -1.150220 18.613867 1.028902 1.632629 0.012297 -0.007506 690871.000000 1 0 0
10.166733 13.778045 2.929780 17.371833 0.935088 1.401335 0.011947 0.000891 2313220.000000 1 0 0
-6.032667 14.540745 6.248780 16.937343 -1.177528 1.192933 -0.004824 -0.006960 -325134.000000 1 0 0
-0.877467 18.319645 -6.108120 19.331023 -1.522935 1.892280 0.004421 0.006600 1367020.000000 1 0 0
-3.499767 15.657745 5.407180 16.930769 -1.350894 1.245732 -0.011580 -0.002516 2045730.000000 1 0 0
7.049333 12.242945 10.713180 17.730060 1.048371 0.921987 -0.011170 0.001660 2383310.000000 1 0 0
1.526833 14.663645 6.164380 15.979778 1.467046 1.174763 0.001228 0.002944 324564.000000 1 0 0
17.402933 7.701245 -1.536220 19.092701 0.416621 1.651344 0.003453 0.010555 1026230.000000 1 0 0
2.097233 16.159745 -3.313820 16.628805 1.441736 1.771421 -0.007657 -0.001801 1069620.000000 1 0 0
6.817933 11.276745 0.573180 13.190062 1.027000 1.527327 0.002468 0.001162 743881.000000 1 0 0
12.598533 9.405945 3.259680 16.056785 0.641315 1.366366 0.003325 0.005504 -1694470.000000 1 0 0
6.040833 14.275445 -3.464820 15.883481 1.170483 1.790704 -0.003249 0.000815 1380110.000000 1 0 0
3.113333 16.594245 1.562980 16.955964 1.385337 1.478486 0.008174 -0.006874 40368.300000 1 0 0
2.831933 18.858745 -2.526220 19.236785 1.421745 1.702499 0.005901 -0.012915 -650090.000000 1 0 0
3.916533 11.963045 10.812380 16.594012 1.254408 0.861127 -0.012441 0.000063 3226260.000000 1 0 0
8.099633 11.559545 3.388180 14.515747 0.959609 1.335209 -0.000144 0.003207 1669170.000000 1 0 0
0.807633 12.612245 0.175280 12.639293 1.506848 1.556928 0.002224 -0.001281 -1623920.000000 1 0 0
11.980533 9.942745 -4.672920 16.255077 0.692714 1.862385 0.015139 0.002577 269045.000000 1 0 0
-1.239867 16.389745 9.905380 19.190559 -1.495291 1.028436 -0.004294 -0.002736 -1290510.000000 1 0 0
8.134333 14.843545 -7.955020 18.702421 1.069486 2.010142 0.017195 0.004162 2819780.000000 1 0 0
14.471833 7.550745 -1.402920 16.383403 0.480899 1.656532 0.003198 0.007232 988432.000000 1 0 0
12.520833 8.380145 6.085080 16.248886 0.589821 1.186947 0.002932 0.001684 -525300.000000 1 0 0
-3.003967 14.173345 10.314980 17.785003 -1.361942 0.952090 0.005740 -0.008647 1914410.000000 1 0 0
-4.613867 17.156845 -3.072120 18.030059 -1.308089 1.742021 -0.000432 -0.002286 -890358.000000 1 0 0
-7.050567 16.415045 -1.654220 17.941590 -1.165105 1.663128 -0.004658 -0.001800 -11559.700000 1 0 0
8.387833 11.259645 -1.893820 14.167636 0.930537 1.704870 0.002244 -0.000785 -476464.000000 1 0 0
8.548933 12.942545 -4.223420 16.075789 0.987055 1.836636 0.010398 0.000064 917825.000000 1 0 0
2.555133 14.767245 -7.378920 16.704750 1.399466 2.028318 -0.009019 0.002665 -1673200.000000 1 0 0
11.221033 11.320645 9.889880 18.758420 0.789817 1.015467 0.002134 -0.001479 689145.000000 1 0 0
8.563033 15.751445 1.476780 17.989287 1.072853 1.488612 0.010259 -0.005095 968833.000000 1 0 0
6.028933 9.939445 7.739980 13.965955 1.025563 0.983391 -0.002239 0.005072 3303710.000000 1 0 0
14.432233 11.564245 2.578580 18.672712 0.675520 1.432260 0.020223 0.006890 1840820.000000 1 0 0
12.108233 12.685345 1.011780 17.565619 0.808671 1.513164 0.018434 0.001236 1831750.000000 1 0 0
5.248333 15.772545 8.269580 18.566209 1.249570 1.109164 0.004600 -0.001128 -1615110.000000 1 0 0
11.631933 14.945245 5.094180 19.611550 0.909426 1.308029 0.022838 -0.006028 -176825.000000 1 0 0
5.979533 17.011645 1.897280 18.131480 1.232789 1.465964 0.006701 -0.007635 1432160.000000 1 0 0
-0.640467 16.226245 -4.177220 16.767540 -1.531346 1.822573 -0.003081 0.000640 2125870.000000 1 0 0
16.015433 6.458145 2.591680 17.461917 0.383301 1.421827 -0.005413 0.006392 602536.000000 1 0 0
7.617633 16.719345 -3.118220 18.635668 1.143280 1.738912 -0.000192 -0.004506 -443176.000000 1 0 0
14.818833 8.158045 7.578080 18.535879 0.503241 1.149621 0.023089 -0.001613 1140740.000000 1 0 0
2.110633 12.950445 8.580980 15.678075 1.409239 0.991633 -0.002191 0.003842 986662.000000 1 0 0
15.910133 7.467745 -5.843120 18.521382 0.438845 1.891758 0.007771 0.008186 -1022370.000000 1 0 0
-2.919967 17.034545 0.712580 17.297679 -1.401032 1.529590 -0.016149 0.001758 -853172.000000 1 0 0
-3.054567 18.465645 4.592180 19.271703 -1.406862 1.330196 -0.013144 -0.007671 1101070.000000 1 0 0
-0.946067 19.219445 0.903980 19.263938 -1.521612 1.523853 -0.008141 -0.002008 -21938.400000 1 0 0
6.917933 16.802445 -6.041020 19.148730 1.180226 1.891758 -0.000821 0.001836 1427640.000000 1 0 0
11.093033 10.125945 0.776380 15.039711 0.739853 1.519151 0.005415 0.005119 -1657140.000000 1 0 0
9.111133 8.800045 14.209280 19.035682 0.768032 0.728078 0.001828 -0.004557 1234400.000000 1 0 0
6.396933 12.449245 -8.468020 16.358845 1.096137 2.114889 0.003855 0.000807 1648390.000000 1 0 0
6.318133 8.965045 13.297980 17.237376 0.956888 0.689661 -0.004019 -0.006070 473922.000000 1 0 0
16.583633 9.505045 2.925580 19.337057 0.520449 1.418919 0.007912 0.004072 -2029070.000000 1 0 0
2.658333 14.764645 -0.732420 15.019917 1.392658 1.619579 -0.000831 -0.003462 613092.000000 1 0 0
9.000833 12.880645 8.448980 17.841280 0.960885 1.077464 0.000307 -0.004382 -529545.000000 1 0 0
7.194233 9.314445 10.499380 15.771901 0.913129 0.842363 -0.006862 -0.002477 279029.000000 1 0 0
4.308733 15.722245 -5.290520 17.138955 1.303310 1.884605 -0.007099 0.000272 1513700.000000 1 0 0
0.310633 16.490745 -8.137420 18.391812 1.551962 2.029123 -0.005178 0.007811 764942.000000 1 0 0
-2.432767 15.707945 -1.974520 16.017385 -1.417142 1.694384 -0.010117 0.001514 -945593.000000 1 0 0
13.232833 10.475245 7.845180 18.611434 0.669604 1.135670 0.011547 0.003795 1459390.000000 1 0 0
-1.012967 15.948045 7.006480 17.448696 -1.507365 1.157590 -0.004929 -0.000824 1488710.000000 1 0 0
13.277733 13.298645 6.802480 19.985642 0.786185 1.223488 0.022384 -0.004962 -81605.200000 1 0 0
5.294633 17.453145 4.667480 18.826332 1.276257 1.320261 0.009557 -0.006086 -402443.000000 1 0 0
10.826333 9.482545 -1.918720 14.519285 0.719327 1.703334 0.005120 0.003573 1092700.000000 1 0 0
3.211033 12.757345 4.684080 13.964283 1.324218 1.228732 0.000164 0.004141 2714690.000000 1 0 0
-0.229767 18.166945 3.615880 18.524721 -1.558149 1.374343 0.000130 -0.002127 1298130.000000 1 0 0
-7.595867 15.872845 -5.724420 18.504415 -1.124460 1.885310 0.007590 -0.012594 -1226720.000000 1 0 0
-12.366067 -9.017955 8.253180 17.388448 0.630088 1.076246 0.003785 -0.001490 -560693.000000 1 0 0
-13.203367 -11.576155 6.860280 18.852048 0.719825 1.198344 0.006681 0.003491 -1217970.000000 1 0 0
-6.433567 -12.262455 12.368080 18.566852 1.087619 0.841778 0.013883 -0.006430 -1184840.000000 1 0 0
-1.828767 -10.660955 14.340380 17.962373 1.400911 0.646235 -0.001950 -0.004515 1090670.000000 1 0 0
-8.762567 2.856045 11.100780 14.427990 -0.315079 0.692908 -0.006669 -0.000810 1999550.000000 1 0 0
0.604433 9.943745 15.250780 18.216193 1.510086 0.578635 0.002729 -0.009731 -1079960.000000 1 0 0
1.006133 -6.703755 16.546180 17.880960 -1.421823 0.388834 -0.002114 -0.004725 1224500.000000 1 0 0
6.104533 2.369345 17.870780 19.032706 0.370231 0.351228 0.002478 0.000073 47010.400000 1 0 0
-4.989567 -2.860755 17.585680 18.502320 0.520591 0.316090 0.017675 -0.010838 -446793.000000 1 0 0
-4.344867 8.117045 13.004680 15.933801 -1.079327 0.616046 0.005200 -0.009184 285575.000000 1 0 0
0.114133 -4.901555 18.596380 19.231839 -1.547515 0.257781 0.005882 -0.006451 -176851.000000 1 0 0
-11.565167 1.970745 11.193980 16.215490 -0.168782 0.808856 0.001469 0.000318 774698.000000 1 0 0
-3.339167 -6.133555 14.399280 16.003431 1.072255 0.451572 0.011671 -0.005599 778782.000000 1 0 0
-7.433967 -2.226255 14.606480 16.539932 0.290971 0.488359 0.004325 -0.004222 1377790.000000 1 0 0
-6.132667 -1.121855 10.713080 12.395090 0.180931 0.527039 -0.002819 -0.001132 1189910.000000 1 0 0
-3.918467 2.418445 11.123780 12.039176 -0.552965 0.392475 0.003980 -0.002387 -544502.000000 1 0 0
-6.496067 6.293645 13.686580 16.405223 -0.769573 0.583967 0.004468 -0.008718 930672.000000 1 0 0
-9.089567 5.437845 12.635380 16.487669 -0.539133 0.697651 0.004592 -0.006385 317507.000000 1 0 0
-12.155367 -2.258055 15.950880 20.181237 0.183672 0.659365 0.002993 0.004863 927034.000000 1 0 0
-3.476367 -7.561455 17.074780 18.994969 1.139865 0.453520 0.018528 -0.003565 -432055.000000 1 0 0
-0.551867 -5.278355 14.431680 15.376573 1.466622 0.352392 0.006313 -0.002931 2544430.000000 1 0 0
-14.137267 -2.316455 13.821980 19.906668 0.162411 0.803295 0.002118 0.006725 -913218.000000 1 0 0
-6.407267 1.505745 12.278680 13.931487 -0.230817 0.492059 -0.000641 -0.003182 2510670.000000 1 0 0
2.291833 -2.231655 14.697780 15.041859 -0.772095 0.214301 0.001160 0.002752 102267.000000 1 0 0
-12.643767 3.990145 9.273580 16.179783 -0.305690 0.960441 -0.005837 -0.003905 -1068950.000000 1 0 0
-9.094467 -2.993155 12.612380 15.834786 0.317952 0.649315 -0.005323 0.004942 1888830.000000 1 0 0
-7.060167 -7.240255 15.246580 18.295504 0.797991 0.585653 0.018504 -0.005432 -661484.000000 1 0 0
-2.949167 6.084745 19.351780 20.499100 -1.119478 0.336153 0.009665 -0.009196 -904571.000000 1 0 0
0.713233 5.481245 16.116680 17.038196 1.441401 0.330394 0.000043 -0.012350 1518910.000000 1 0 0
3.541833 1.506445 16.741080 17.177827 0.402149 0.225980 0.005655 -0.003018 656878.000000 1 0 0
-11.725067 11.413545 7.978180 18.204328 -0.771936 1.117137 0.005343 -0.012294 77635.900000 1 0 0
0.643133 -9.476355 15.405480 18.098170 -1.503033 0.552495 -0.013068 0.004542 -98229.500000 1 0 0
-2.408267 -3.524855 18.864980 19.341971 0.971418 0.222544 0.021818 -0.010886 1803790.000000 1 0 0
-12.778167 2.272945 13.836580 18.970998 -0.176036 0.753419 -0.000098 -0.001520 464479.000000 1 0 0
-5.420267 -0.490355 15.700080 16.616626 0.090221 0.333686 0.012676 -0.002704 1019930.000000 1 0 0
-4.439667 -6.009255 11.724680 13.902874 0.934499 0.567350 0.005504 -0.004815 676365.000000 1 0 0
2.478033 1.886045 13.947580 14.291005 0.650571 0.219671 -0.000117 -0.001406 -417273.000000 1 0 0
0.140033 3.310045 14.269480 14.649030 1.528516 0.228132 0.005760 -0.006435 -133601.000000 1 0 0
-12.991167 7.194245 12.355980 19.318329 -0.505740 0.876820 0.006736 0.003747 146890.000000 1 0 0
0.974733 1.419845 18.157780 18.239272 0.969184 0.094565 0.006030 -0.002185 -105880.000000 1 0 0
-1.989867 6.413745 12.469680 14.162931 -1.269962 0.493997 0.001111 -0.007115 405928.000000 1 0 0
-13.503667 -2.699055 10.897580 17.561070 0.197276 0.901348 0.005908 0.002018 11670.300000 1 0 0
-2.527267 3.650045 13.415680 14.131185 -0.965194 0.319581 0.007646 -0.007760 -711487.000000 1 0 0
3.646333 6.080845 16.294780 17.770545 1.030640 0.410417 -0.001461 -0.007871 -333630.000000 1 0 0
-3.691367 12.270145 12.366680 17.807791 -1.278568 0.803136 0.001116 -0.011132 755084.000000 1 0 0
3.888833 -1.417855 17.048180 17.543483 -0.349619 0.238188 0.009863 -0.000827 -749129.000000 1 0 0
-15.697467 0.465945 9.192680 18.197059 -0.029674 1.041213 -0.007440 -0.000299 214832.000000 1 0 0
-4.625767 4.629045 15.225980 16.572756 -0.785752 0.405930 0.009852 -0.009850 576906.000000 1 0 0
-7.972567 -8.208455 10.529680 15.550393 0.799975 0.826937 0.006390 -0.001283 3708010.000000 1 0 0
-2.657867 -0.362755 14.732080 14.974313 0.135645 0.180113 0.011681 -0.004411 1353470.000000 1 0 0
-1.774567 1.008145 17.215080 17.335641 -0.516639 0.118005 0.008957 -0.005941 1306080.000000 1 0 0
-0.658967 -2.351655 14.539080 14.742774 1.297589 0.166424 0.009543 -0.000756 1252550.000000 1 0 0
4.981933 -8.321455 16.508180 19.146443 -1.031344 0.531188 -0.003946 0.005547 -843277.000000 1 0 0
-4.413767 9.971645 10.612980 15.216780 -1.154087 0.798960 0.002500 -0.006382 -1209180.000000 1 0 0
-6.189567 2.245945 15.219280 16.582566 -0.348085 0.408323 0.010876 -0.004196 -36879.500000 1 0 0
-4.751867 6.851245 17.292080 19.197287 -0.964394 0.449288 0.012185 -0.006358 -317641.000000 1 0 0
-4.041867 9.178945 15.743780 18.666985 -1.156004 0.567212 0.013089 -0.010461 -480708.000000 1 0 0
-4.614467 -9.869755 18.450680 21.427388 1.133455 0.533408 0.029235 -0.005858 375513.000000 1 0 0
-6.817767 -4.126555 11.212980 13.756501 0.544282 0.617888 0.002047 0.001261 -113434.000000 1 0 0
-2.309067 -0.700155 19.654580 19.802135 0.294408 0.122153 0.016107 -0.000112 202415.000000 1 0 0
-5.625267 -4.531055 15.283780 16.904675 0.678075 0.441491 0.014119 -0.003051 281488.000000 1 0 0
-12.854667 -0.042255 9.694980 16.100835 0.003287 0.924616 -0.004158 0.001901 -500946.000000 1 0 0
-14.484167 8.547345 10.245180 19.692941 -0.533120 1.023657 0.006728 -0.006896 -1474020.000000 1 0 0
-8.273667 10.501445 12.942180 18.607363 -0.903502 0.801624 0.010628 -0.014904 -732393.000000 1 0 0
-10.473867 7.268445 10.877380 16.758567 -0.606661 0.864443 -0.000986 -0.005036 -365965.000000 1 0 0
-9.730467 -6.488555 14.702980 18.787255 0.588115 0.671959 0.005604 -0.006772 418160.000000 1 0 0
-0.668467 -13.392455 14.482580 19.737017 1.520924 0.746931 -0.015537 -0.005736 560226.000000 1 0 0
3.856433 -5.704555 16.966380 18.310436 -0.976341 0.385538 0.004379 -0.000307 1197960.000000 1 0 0
-7.283567 9.367945 10.448180 15.810541 -0.909927 0.848864 0.004874 -0.009428 1527290.000000 1 0 0
-10.286867 -6.711055 11.801280 17.033147 0.578054 0.805373 0.001593 -0.000371 1815250.000000 1 0 0
-10.886767 -3.928155 10.680880 15.749073 0.346281 0.825498 -0.002712 0.005199 178215.000000 1 0 0
-10.091067 -10.189955 9.821380 17.381724 0.790274 0.970314 0.005008 -0.004164 1338640.000000 1 0 0
-9.747467 -3.655155 15.310980 18.514842 0.358758 0.597122 0.007645 -0.000937 1320910.000000 1 0 0
5.723433 -3.419855 16.119480 17.443931 -0.538593 0.392191 0.004439 0.003637 -1066650.000000 1 0 0
-11.185267 0.551145 15.491580 19.115518 -0.049234 0.625929 0.007360 0.000865 -578954.000000 1 0 0
-2.963267 3.233645 18.734380 19.240957 -0.829002 0.229976 0.010762 -0.006222 1381620.000000 1 0 0
0.499233 7.340845 13.871180 15.701811 1.502893 0.487700 -0.000242 -0.009180 1289920.000000 1 0 0
-13.108267 -7.440255 12.294380 19.450857 0.516255 0.886570 -0.011171 -0.000902 174399.000000 1 0 0
-1.520567 -1.051955 12.189380 12.328817 0.605213 0.150540 0.007315 -0.001999 1082190.000000 1 0 0
2.091733 -4.870855 13.193880 14.218968 -1.165172 0.382037 -0.003784 0.000056 1065670.000000 1 0 0
-14.585467 -3.998155 8.621580 17.408410 0.267547 1.052669 0.001636 -0.004952 -630019.000000 1 0 0
8.131933 1.108545 16.203180 18.163157 0.135485 0.468846 0.003299 0.002816 -1523150.000000 1 0 0
-1.167667 11.237645 13.410980 17.535749 -1.467261 0.700097 0.001619 -0.008484 -485932.000000 1 0 0
2.723133 -12.522455 -14.029820 19.001662 -1.356670 2.401412 -0.009809 0.023092 -293835.000000 1 0 0
0.698033 -10.814055 -14.095320 17.779456 -1.506337 2.486164 -0.015701 0.015079 -3100340.000000 1 0 0
3.165433 -14.582755 -12.301220 19.338995 -1.357045 2.260209 -0.013100 0.017259 -3111490.000000 1 0 0
-5.284567 -10.126155 -16.191720 19.815081 1.089804 2.527230 0.002978 -0.000488 -232565.000000 1 0 0
-1.245567 -12.314355 -15.137720 19.553653 1.469992 2.456188 -0.004105 0.007020 -124918.000000 1 0 0
5.622533 -14.937555 -12.383320 20.201238 -1.210797 2.230646 -0.015312 0.015145 -596765.000000 1 0 0
1.746233 -11.835455 -16.313020 20.229729 -1.424311 2.508816 -0.005393 0.013393 -759425.000000 1 0 0
1.227933 -14.647255 -14.045520 20.330433 -1.487158 2.333477 -0.005413 0.020942 -290620.000000 1 0 0
-1.161867 -10.585055 -15.947420 19.175858 1.461469 2.552852 -0.011912 0.001805 -394109.000000 1 0 0
-5.890967 -5.419055 -15.216520 17.193374 0.743697 2.657338 0.011201 -0.001762 39810.300000 1 0 0
-6.624867 -7.548755 -16.490320 19.308112 0.850490 2.594541 0.010998 -0.002300 -6413.090000 1 0 0
4.716733 -12.593455 -11.779420 17.877287 -1.212430 2.290157 -0.014546 0.016949 -470719.000000 1 0 0
-1.971267 -15.638455 -13.246520 20.589256 1.445405 2.269689 0.002982 0.009988 157029.000000 1 0 0
15.482633 -7.717655 -8.929020 19.467961 -0.462424 2.047274 -0.003946 0.000632 562762.000000 1 0 0
19.092633 -3.783455 -4.534920 19.985211 -0.195629 1.799704 -0.001961 0.001985 205099.000000 1 0 0
14.676533 -11.850755 -8.853720 20.838171 -0.679275 2.009626 0.004951 -0.006367 584352.000000 1 0 0
17.697233 -3.599955 -6.631020 19.238559 -0.200681 1.922687 0.023468 0.000371 643582.000000 1 0 0
9.286533 -9.145855 -15.546220 20.287220 -0.777766 2.443868 0.024945 0.002312 25493.700000 1 0 0
1.227533 1.959845 -15.318620 15.492190 1.011233 2.991761 0.011069 -0.008930 205299.000000 1 0 0
4.662033 -4.363255 -13.995120 15.382975 -0.752306 2.713550 -0.002384 0.003692 -45712.000000 1 0 0
12.909633 -5.560455 -8.612320 16.484821 -0.406707 2.120506 0.008408 -0.006802 -1242900.000000 1 0 0
2.998333 0.891545 -12.148620 12.544872 0.289021 2.889583 0.003979 -0.004113 -3070200.000000 1 0 0
0.652433 6.357145 -12.846920 14.348599 1.468525 2.679997 0.013594 -0.006302 307555.000000 1 0 0
3.065633 -1.029955 -16.866620 17.173869 -0.324120 2.952151 0.011299 -0.005166 -431700.000000 1 0 0
13.187133 4.448845 -11.474220 18.037473 0.325372 2.260272 0.005695 0.006752 179980.000000 1 0 0
-3.862967 9.439945 -16.497720 19.396129 -1.182371 2.587860 -0.000291 0.000760 -171650.000000 1 0 0
-0.422667 -5.078155 -17.770020 18.486209 1.487755 2.862327 -0.000716 -0.006059 569031.000000 1 0 0
-0.593667 -8.566355 -17.632720 19.612437 1.501605 2.688410 -0.001157 -0.002797 -411623.000000 1 0 0
5.424933 -10.087855 -12.327620 16.827505 -1.077392 2.392912 -0.007591 0.010720 301329.000000 1 0 0
1.521733 -9.722555 -18.266520 20.748723 -1.415540 2.647435 0.000326 0.005921 -525256.000000 1 0 0
10.950833 8.748845 -14.685620 20.300997 0.674082 2.379502 0.021851 -0.000936 -176933.000000 1 0 0
10.930833 -3.933455 -12.988720 17.425901 -0.345422 2.411884 0.011351 -0.006544 319151.000000 1 0 0
4.855933 7.494045 -12.339320 15.231533 0.995848 2.515147 -0.003460 0.004242 137364.000000 1 0 0
9.485133 -5.988655 -12.727820 16.965528 -0.563169 2.419186 0.009477 -0.002130 -978564.000000 1 0 0
-3.310367 0.310345 -15.849420 16.194411 -0.093476 2.934812 0.008372 -0.005974 -1911660.000000 1 0 0
-0.679667 10.812845 -12.808120 16.775801 -1.508022 2.439493 0.003452 0.000744 -842845.000000 1 0 0
6.467333 -5.448555 -12.546620 15.130460 -0.700108 2.548524 -0.002711 0.002469 142758.000000 1 0 0
17.634833 -6.493055 -8.317920 20.550788 -0.352791 1.987501 0.004418 -0.006882 -490779.000000 1 0 0
13.437933 4.640445 -14.080620 20.009388 0.332503 2.351389 0.024884 -0.000470 346327.000000 1 0 0
14.149033 0.683045 -11.506520 18.249978 0.048238 2.252987 0.003830 -0.001312 -652365.000000 1 0 0
15.101433 6.136645 -11.196920 19.775811 0.385979 2.172676 0.010517 0.003374 -272870.000000 1 0 0
8.162433 1.482645 -11.642820 14.296111 0.179683 2.522499 -0.004739 0.002067 501133.000000 1 0 0
9.895433 1.168045 -9.017920 13.439003 0.117495 2.306388 -0.003795 0.003292 368103.000000 1 0 0
-0.304067 -5.714255 -13.059120 14.257832 1.517634 2.728606 -0.007056 0.003726 234962.000000 1 0 0
10.341533 -5.875355 -9.124320 14.990674 -0.516657 2.225175 0.005684 -0.006336 -645128.000000 1 0 0
10.193833 8.491845 -11.363120 17.468433 0.694564 2.279032 0.010694 0.000511 545294.000000 1 0 0
8.382733 8.155645 -14.646320 18.742984 0.771668 2.467750 0.009565 0.001290 496905.000000 1 0 0
8.687633 10.560745 -10.712820 17.371494 0.882405 2.235327 0.020275 -0.001359 -1237580.000000 1 0 0
6.994033 1.749245 -17.959320 19.352352 0.245078 2.759852 0.015411 0.007447 -1289980.000000 1 0 0
12.088333 2.727045 -12.874520 17.869466 0.221879 2.375285 -0.001422 0.001484 -1529790.000000 1 0 0
2.483033 -0.903155 -19.383020 19.562275 -0.348854 3.006113 0.016136 -0.012417 -626661.000000 1 0 0
10.268133 -2.233955 -15.459520 18.692829 -0.214224 2.544599 0.009173 -0.005853 -435229.000000 1 0 0
8.207233 -0.796755 -13.120720 15.496670 -0.096776 2.580511 0.004066 -0.004226 552015.000000 1 0 0
0.658333 4.440645 -14.568320 15.244300 1.423617 2.842679 0.012047 -0.008599 575976.000000 1 0 0
3.769233 -7.711755 -15.813620 17.993022 -1.116177 2.644295 -0.000571 0.006752 -1247770.000000 1 0 0
11.460333 -5.808355 -14.665220 19.497305 -0.469091 2.422140 0.021301 0.000048 -101736.000000 1 0 0
-5.823767 4.289145 -16.815720 18.305230 -0.634798 2.735393 0.002405 -0.002238 13304.300000 1 0 0
11.454533 7.869545 -9.164820 16.647222 0.601964 2.153797 0.011811 0.001308 -1205400.000000 1 0 0
9.514533 6.059245 -13.444120 17.549506 0.567069 2.443498 0.001175 0.003460 -486551.000000 1 0 0
12.066233 0.456945 -10.262420 15.846767 0.037852 2.275231 -0.002421 0.002163 -3361220.000000 1 0 0
5.330133 -7.317955 -13.789820 16.496118 -0.941287 2.560646 -0.004373 0.007166 -1429860.000000 1 0 0
8.366533 -10.244155 -10.862420 17.115307 -0.885947 2.258366 -0.000906 0.006837 46103.000000 1 0 0
9.988433 4.828045 -15.855020 19.350981 0.450250 2.531054 0.003501 0.001862 -288037.000000 1 0 0
9.865433 -0.425555 -11.096320 14.853827 -0.043109 2.414386 0.000009 -0.001355 154432.000000 1 0 0
-1.695767 5.462545 -13.916020 15.045618 -1.269794 2.751626 0.008131 -0.007624 1137710.000000 1 0 0
1.379733 -0.662455 -14.857220 14.935846 -0.447628 3.038939 0.006509 -0.005791 -2168690.000000 1 0 0
11.192233 -10.475155 -14.481620 21.088202 -0.752315 2.327759 0.024504 0.007953 -327679.000000 1 0 0
9.125233 -7.833355 -10.861520 16.205059 -0.709367 2.305348 0.009254 0.000560 -74856.300000 1 0 0
13.919033 -1.105955 -9.700820 17.002015 -0.079290 2.177995 -0.004553 0.001991 459272.000000 1 0 0
4.087433 11.079345 -12.345120 17.083939 1.217363 2.378375 -0.000582 -0.003769 45923.400000 1 0 0
-1.308467 2.959345 -16.854520 17.162303 -1.154492 2.951922 0.008353 -0.009298 -1112720.000000 1 0 0
5.871233 -0.508355 -17.671620 18.628364 -0.086369 2.819707 0.005082 0.002878 -213512.000000 1 0 0
6.079233 -6.551455 -16.107720 18.421109 -0.822768 2.635028 0.005976 0.002738 -401927.000000 1 0 0
-2.014667 -4.971755 -19.993620 20.700774 1.185796 2.879459 0.007338 -0.012211 -834204.000000 1 0 0
-0.142667 -4.309755 -15.227020 15.825817 1.537705 2.865630 -0.002665 -0.003191 143782.000000 1 0 0
0.577333 0.891545 -12.979120 13.022508 0.996135 3.059939 0.006795 -0.007383 804097.000000 1 0 0
15.577533 0.444445 -13.697720 20.748123 0.028523 2.291869 0.004452 -0.003572 458845.000000 1 0 0
-0.138867 6.946545 -16.280320 17.700920 -1.550808 2.738225 0.010337 -0.003081 -163653.000000 1 0 0
-4.859767 -0.515955 -18.245220 18.888398 0.105772 2.879881 -0.000761 -0.002052 -336206.000000 1 0 0
10.275533 -8.446555 -13.127120 18.688289 -0.688016 2.349595 0.015860 -0.008470 314322.000000 1 0 0
4.282033 8.410845 -17.424420 19.816370 1.099888 2.645175 0.008502 -0.008923 -161090.000000 1 0 0
9.190233 0.395245 -17.217420 19.520659 0.042981 2.650907 0.009332 0.009819 46164.700000 1 0 0
3.183633 4.899145 -18.695120 19.586849 0.994538 2.838685 0.007235 0.001368 -352621.000000 1 0 0
1.340333 -8.261455 -15.910620 17.977651 -1.409958 2.657338 -0.005352 -0.000050 -826190.000000 1 0 0
4.652933 7.786145 -14.983620 17.515213 1.032150 2.597241 0.001178 0.001766 532070.000000 1 0 0
-5.728367 -0.399955 -15.074320 16.131003 0.069707 2.777630 0.007802 -0.004377 387377.000000 1 0 0
2.985333 3.350845 -13.839520 14.548975 0.843021 2.828017 0.005255 -0.005064 -505334.000000 1 0 0
-2.613267 -10.211355 -18.125920 20.967830 1.320256 2.614878 0.001480 -0.000436 204044.000000 1 0 0
6.013733 -9.094355 -15.561120 19.000545 -0.986546 2.530432 -0.006683 0.008225 -165719.000000 1 0 0
-1.974267 5.443945 -17.414220 18.351820 -1.222893 2.820559 0.007365 -0.002463 1753690.000000 1 0 0
9.821033 -12.253755 -11.681720 19.572168 -0.895159 2.210370 0.009242 0.006895 628394.000000 1 0 0
10.900533 3.622345 -9.417920 14.853963 0.320828 2.257555 -0.002983 0.002946 -1387540.000000 1 0 0
4.904233 -0.374055 -10.862320 11.923985 -0.076124 2.716411 -0.001268 -0.002500 -1116830.000000 1 0 0
6.451833 9.468245 -11.494220 16.229322 0.972651 2.357795 0.002110 0.000593 269231.000000 1 0 0
10.612933 -9.641855 -9.545320 17.225355 -0.737492 2.158130 0.013096 0.000762 -907062.000000 1 0 0
3.277533 -2.452355 -14.695620 15.255081 -0.642369 2.869930 0.005947 -0.003243 -101237.000000 1 0 0
9.158733 -4.592955 -14.804820 18.004453 -0.464834 2.536214 0.013788 -0.002232 377661.000000 1 0 0
-4.141767 -6.714655 -16.717420 18.485479 1.018097 2.700660 -0.008044 0.001264 160272.000000 1 0 0
5.771633 -7.731355 -11.305820 14.862946 -0.929524 2.435143 -0.003849 0.005243 301620.000000 1 0 0
5.468633 6.169045 -16.870520 18.777047 0.845511 2.687057 0.011010 -0.015937 -2114610.000000 1 0 0
8.928733 1.354045 -19.589520 21.570929 0.150504 2.709627 0.011888 0.003887 437235.000000 1 0 0
13.129833 5.796945 -9.434420 17.175720 0.415771 2.152308 0.003553 0.003964 931632.000000 1 0 0
-1.601467 -0.685055 -17.259620 17.347290 0.404212 3.041013 0.006455 -0.008208 77152.900000 1 0 0
-0.533267 -0.414155 -19.465720 19.477426 0.660332 3.106920 0.007746 -0.014991 -367870.000000 1 0 0
2.876133 6.411645 -16.509320 17.942658 1.149124 2.739172 0.006921 -0.004554 39250.000000 1 0 0
7.596033 3.662345 -15.636920 17.765859 0.449257 2.647010 0.004340 0.001905 -216225.000000 1 0 0
2.934033 -10.046455 -14.777120 18.108094 -1.286652 2.525341 -0.006113 0.007046 -138905.000000 1 0 0
8.862633 -10.668755 -13.480520 19.341484 -0.877609 2.341966 0.013463 0.008950 -317200.000000 1 0 0
3.852033 0.120545 -14.825220 15.317958 0.031284 2.887265 0.007233 -0.004329 -2721830.000000 1 0 0
-1.234067 -2.768155 -18.922320 19.163501 1.151434 2.982772 0.007433 -0.005392 344863.000000 1 0 0
9.248933 10.080745 -13.226620 19.029126 0.828405 2.339317 0.017236 -0.002412 290908.000000 1 0 0
4.783133 2.114245 -10.760820 11.964265 0.416199 2.689222 -0.006767 0.000957 436051.000000 1 0 0
-0.538667 6.964845 -18.811720 20.066889 -1.493609 2.786030 0.018224 -0.007319 235157.000000 1 0 0
0.756033 -1.751955 -17.577320 17.680585 -1.163402 3.033460 0.011768 -0.011959 -2083500.000000 1 0 0
-4.523967 -2.268355 -14.044720 14.928693 0.464774 2.795741 0.009207 -0.005392 -3169010.000000 1 0 0
10.118433 6.043445 -10.457420 15.756381 0.538410 2.296543 -0.000562 0.007307 146263.000000 1 0 0
8.102933 5.371345 -17.533720 20.048446 0.585383 2.635340 0.013852 -0.004617 -1036160.000000 1 0 0
11.522433 0.306845 -13.698920 17.903101 0.026624 2.442102 0.001372 0.001366 732272.000000 1 0 0
6.870433 11.999645 -11.908820 18.248680 1.050803 2.281788 0.012618 -0.004427 -672631.000000 1 0 0
-0.903367 0.509645 -15.015820 15.051600 -0.513651 3.072628 0.008092 -0.005438 -872431.000000 1 0 0
-4.359067 -3.038455 -18.965320 19.695609 0.608738 2.868425 -0.000057 0.002910 -180883.000000 1 0 0
5.644633 -11.948655 -14.158920 19.367686 -1.129465 2.390669 -0.012408 0.013611 -51694.300000 1 0 0
2.034533 -4.730155 -14.132120 15.040961 -1.164597 2.792185 0.000028 0.000908 -1267910.000000 1 0 0
11.727633 2.139045 -15.447120 19.512212 0.180410 2.484324 0.005460 -0.001663 639266.000000 1 0 0
9.649733 2.147245 -13.715620 16.906988 0.218951 2.517066 -0.002211 0.001649 801518.000000 1 0 0
-2.456567 -4.155855 -16.444720 17.138689 1.036939 2.856049 -0.002611 -0.004721 -192506.000000 1 0 0
-2.845367 10.160145 -14.211420 17.699975 -1.297740 2.502951 0.002148 -0.003635 -86207.500000 1 0 0
3.523633 5.774145 -13.648120 15.232462 1.022879 2.681450 -0.000049 -0.000174 -151514.000000 1 0 0
-5.232867 -2.539255 -16.559720 17.551496 0.451779 2.803815 0.006975 -0.000660 435964.000000 1 0 0
-4.331467 6.226545 -13.527420 15.508789 -0.962999 2.630565 0.001749 -0.002976 -543340.000000 1 0 0
5.890233 -1.177955 -14.233520 15.449126 -0.197381 2.742247 0.005937 0.002099 -2160950.000000 1 0 0
6.602133 -2.987055 -12.706520 14.627587 -0.424879 2.623304 -0.001236 0.000274 965710.000000 1 0 0
2.884533 -3.168755 -18.307820 18.802601 -0.832317 2.911676 0.010614 -0.010517 -345325.000000 1 0 0
7.218733 -12.098955 -12.168220 18.616132 -1.032850 2.283178 -0.003161 0.013988 -2388950.000000 1 0 0
-6.086367 -5.434455 -17.840920 19.618246 0.728873 2.712646 0.015098 0.001993 283348.000000 1 0 0
0.516533 8.745045 -11.947920 14.815377 1.511799 2.508927 0.005374 -0.000367 306045.000000 1 0 0
0.277533 8.496845 -14.360320 16.688085 1.538145 2.607073 0.007675 -0.004650 -464427.000000 1 0 0
7.696033 -2.566855 -15.075820 17.120105 -0.321927 2.647905 0.008949 -0.006671 -1019950.000000 1 0 0
14.144633 1.476045 -9.007120 16.833822 0.103977 2.135376 -0.009585 0.008367 284535.000000 1 0 0
2.803933 10.859845 -14.710820 18.498824 1.318122 2.490183 0.008119 0.002708 80110.600000 1 0 0
6.263333 0.958245 -15.522720 16.766109 0.151816 2.754046 0.008866 -0.001419 1033460.000000 1 0 0
16.392133 -5.800355 -10.465020 20.294403 -0.340100 2.112575 0.021720 -0.011285 444170.000000 1 0 0
4.710933 -4.223255 -11.322720 12.970457 -0.730867 2.632039 -0.004280 0.004109 -1768310.000000 1 0 0
8.800633 -3.545955 -17.123720 19.576688 -0.383021 2.635612 0.010145 -0.000041 441230.000000 1 0 0
13.102033 -9.759655 -8.945020 18.625990 -0.640227 2.071729 0.007717 -0.003627 -815413.000000 1 0 0
2.224033 -7.742155 -13.646620 15.846688 -1.291066 2.608354 -0.008169 0.005556 243197.000000 1 0 0
-6.850067 -2.192755 -18.537920 19.884317 0.309800 2.771485 0.005535 -0.002498 1353930.000000 1 0 0
-1.612767 -6.480555 -15.803820 17.156903 1.326889 2.741782 -0.010869 0.000018 64349.900000 1 0 0
1.509233 -7.145355 -18.280520 19.685306 -1.362637 2.761520 0.004448 -0.009498 -578038.000000 1 0 0
5.342733 10.803345 -14.671120 18.986806 1.111523 2.453881 0.007640 -0.012067 -828832.000000 1 0 0
5.365433 -3.518055 -17.459220 18.600778 -0.580364 2.789429 0.017214 -0.003731 -151657.000000 1 0 0
4.144633 13.047345 -14.111020 19.660419 1.263217 2.371344 0.000803 -0.007710 -10049.300000 1 0 0
9.207333 10.389545 -15.840620 21.062831 0.845652 2.421986 0.021689 -0.010651 208128.000000 1 0 0
2.502633 3.805845 -16.349820 16.972455 0.989114 2.869889 0.004289 -0.004707 203411.000000 1 0 0
16.614533 1.469445 -11.561820 20.294769 0.088214 2.176930 0.001440 0.003788 855543.000000 1 0 0
9.872333 -3.776455 -10.643720 15.000445 -0.365355 2.359670 0.006377 -0.004338 236390.000000 1 0 0
14.662633 -2.222355 -11.898520 19.013323 -0.150421 2.246952 0.012657 -0.008144 -195145.000000 1 0 0
-2.749267 -8.710555 -16.047120 18.464623 1.265067 2.624123 -0.006638 0.005376 -337774.000000 1 0 0
14.021633 8.234945 -8.872520 18.524096 0.531031 2.070279 0.021948 0.004049 -450228.000000 1 0 0
-8.352967 0.053345 -16.534920 18.525077 -0.006386 2.673808 0.013233 -0.001674 -7432.690000 1 0 0
-3.432267 3.939545 -15.810420 16.651422 -0.854103 2.822415 0.006737 -0.006465 133947.000000 1 0 0
15.051933 3.921745 -9.776120 18.371535 0.254881 2.131915 0.006304 0.010218 322192.000000 1 0 0
5.472833 1.027145 -12.967120 14.112162 0.185522 2.735981 -0.002150 -0.001135 -501953.000000 1 0 0
7.704333 -7.705855 -13.030720 16.986365 -0.785497 2.445149 0.004949 0.004381 -766606.000000 1 0 0
3.075633 -6.154655 -11.912420 13.756636 -1.107369 2.617823 -0.006488 0.003132 -811337.000000 1 0 0
-3.246667 3.483945 -18.412020 19.017918 -0.820637 2.888492 0.006038 -0.007053 -360300.000000 1 0 0
0.768733 5.107745 -17.686120 18.424952 1.421414 2.857443 0.010151 -0.012186 -80954.500000 1 0 0
6.375033 7.151245 -10.245220 14.026613 0.842721 2.389723 -0.002037 0.004987 154705.000000 1 0 0
9.713133 3.630445 -11.632920 15.583642 0.357689 2.413557 -0.002778 0.004177 208092.000000 1 0 0
4.488533 1.698545 -17.334920 17.986979 0.361765 2.871508 0.011201 -0.008097 -554288.000000 1 0 0
2.629733 8.120545 -13.362620 15.856177 1.257617 2.573148 0.004571 -0.001291 -21053.100000 1 0 0
14.247233 -3.698455 -9.905820 17.742251 -0.253985 2.163153 0.009054 -0.003704 226245.000000 1 0 0
-1.333667 9.199345 -16.213520 18.689164 -1.426825 2.621023 0.010245 -0.003184 -2004180.000000 1 0 0
-5.197167 2.011345 -15.687520 16.647953 -0.369256 2.800260 0.009480 -0.006515 579853.000000 1 0 0
4.557233 4.313245 -11.864620 13.421686 0.757899 2.655123 -0.002516 -0.001005 418137.000000 1 0 0
9.227933 3.025345 -17.584920 20.088227 0.316804 2.637027 0.008699 0.003289 765448.000000 1 0 0
-4.341067 14.413845 -13.312920 20.095711 -1.278263 2.294915 0.002369 0.000682 -441137.000000 1 0 0
15.307133 -5.184855 -8.077720 18.067667 -0.326592 2.034296 0.004549 -0.002205 496527.000000 1 0 0
1.269733 9.094645 -16.779620 19.128001 1.432080 2.640854 0.014747 -0.003733 528025.000000 1 0 0
0.447033 -3.140955 -12.952720 13.335606 -1.429422 2.901384 0.000146 -0.002848 212155.000000 1 0 0
7.481733 3.507645 -13.088920 15.479009 0.438400 2.578469 -0.002974 0.006261 -107999.000000 1 0 0
-2.876167 7.614145 -14.971520 17.040949 -1.209626 2.643638 0.001471 -0.000921 -5659.520000 1 0 0
12.036233 -5.257755 -11.057520 17.169264 -0.411846 2.270551 0.019250 -0.008301 -1016650.000000 1 0 0
0.454633 -4.404055 -20.096320 20.578252 -1.467930 2.924745 0.010073 -0.009289 -491112.000000 1 0 0
3.409433 -4.657055 -16.240820 17.235911 -0.938850 2.800132 0.007581 -0.003166 462875.000000 1 0 0
-5.694967 4.181145 -14.343920 15.989454 -0.633301 2.683927 0.002414 -0.002416 632849.000000 1 0 0
12.069733 -7.594055 -9.929620 17.376578 -0.561601 2.179052 0.007403 -0.004853 104785.000000 1 0 0
-2.101567 -1.867155 -14.945320 15.207414 0.726402 2.955666 0.004343 -0.004084 -16350.100000 1 0 0
7.112333 5.866945 -14.315520 17.027637 0.689739 2.569413 0.001944 0.003652 -937018.000000 1 0 0
4.153133 -5.455955 -18.592120 19.816228 -0.920159 2.788267 0.018954 -0.005550 -41171.000000 1 0 0
7.590733 7.300645 -12.334720 16.219246 0.765920 2.434877 -0.001589 0.003986 100626.000000 1 0 0
12.218533 -2.615355 -11.095420 16.710505 -0.210866 2.296924 0.009026 -0.005735 -1391410.000000 1 0 0
7.417733 -0.827055 -10.726820 13.067955 -0.111038 2.533693 -0.003172 -0.002080 -2984860.000000 1 0 0
5.353233 4.006445 -14.491220 15.959453 0.642487 2.709287 0.004943 0.000763 -1248120.000000 1 0 0
14.744633 2.795445 -12.879620 19.776332 0.187367 2.280046 0.003544 -0.002750 327376.000000 1 0 0
-6.598367 6.743145 -15.842520 18.438923 -0.796249 2.604479 -0.001791 0.006819 656743.000000 1 0 0
-11.064867 3.811345 -16.507120 20.234689 -0.331726 2.524878 0.001084 -0.002887 -346212.000000 1 0 0
-5.040967 6.533745 -17.945320 19.751852 -0.913659 2.710569 -0.000366 0.011267 -375340.000000 1 0 0
-10.138367 1.604245 -15.596820 18.671392 -0.156934 2.559534 0.015713 -0.002330 -662388.000000 1 0 0
-7.515167 5.719545 -18.025820 20.349966 -0.650546 2.658992 -0.005503 0.002770 237824.000000 1 0 0
-8.742167 3.876045 -15.430720 18.153686 -0.417330 2.586791 -0.000950 0.001272 -819995.000000 1 0 0
9.026833 13.429045 -12.115620 20.214134 0.978982 2.213502 0.037054 -0.011794 -461424.000000 1 0 0
14.032533 9.145145 -11.359120 20.237966 0.577577 2.166725 0.026262 -0.003039 478103.000000 1 0 0
8.269033 16.054745 -8.992020 20.173948 1.095180 2.032780 0.031133 -0.002577 76043.300000 1 0 0
7.203333 13.485245 -14.014720 20.740111 1.080192 2.312751 0.017213 -0.008363 -219339.000000 1 0 0
4.662533 15.895245 -12.693320 20.869077 1.285471 2.224632 0.023904 -0.015802 132670.000000 1 0 0
11.040633 11.022245 -11.608320 19.445785 0.784565 2.210501 0.018431 -0.003837 -449098.000000 1 0 0
15.672733 10.075145 -9.603920 20.961355 0.571329 2.046735 0.029481 0.004291 529848.000000 1 0 0
13.169633 10.701945 -9.387520 19.393205 0.682391 2.076088 0.032114 -0.000810 261044.000000 1 0 0
10.244333 11.972745 -8.301720 17.810433 0.863038 2.055691 0.015139 0.005332 257024.000000 1 0 0
5.368833 16.249445 -10.199920 19.922530 1.251687 2.108284 0.005242 -0.004725 -150026.000000 1 0 0
6.809633 14.680545 -11.800720 20.028642 1.136481 2.200855 0.018306 0.005417 211418.000000 1 0 0
10.824833 13.979845 -9.945120 20.285918 0.911913 2.083170 0.040447 0.003523 -139875.000000 1 0 0
8.314833 -18.691055 -1.580220 20.518018 -1.152228 1.647889 0.016993 0.012957 38661.100000 1 0 0
7.292833 -17.241555 -3.581920 19.060083 -1.170638 1.759848 0.012334 0.001506 94257.100000 1 0 0
4.434033 -18.654155 5.790680 20.029232 -1.337430 1.277498 0.011854 0.009673 -10414.200000 1 0 0
9.756533 -16.915555 -2.703520 19.713827 -1.047626 1.708368 0.008192 0.004718 -981475.000000 1 0 0
-9.686167 -12.108455 -10.099720 18.505157 0.896085 2.148114 0.018546 -0.001790 -967905.000000 1 0 0
-5.296667 -6.886655 -12.275020 15.038511 0.915170 2.525667 0.004805 0.000764 795748.000000 1 0 0
-10.796867 -9.500455 -5.631820 15.445011 0.721614 1.944039 0.009251 0.000296 -1279310.000000 1 0 0
-4.790167 -11.542655 -14.129920 18.863542 1.177429 2.417438 0.014394 0.002160 64482.300000 1 0 0
-2.969667 -15.438955 7.496580 17.417777 1.380768 1.125862 -0.008690 -0.001692 192554.000000 1 0 0
-4.867567 -11.932955 -11.581720 17.326998 1.183490 2.302879 0.008154 0.000925 797129.000000 1 0 0
-14.352467 -12.933655 -4.199620 19.771433 0.733447 1.784835 0.002719 0.001165 12081.800000 1 0 0
-3.165067 -12.262855 -3.339420 13.097595 1.318207 1.828607 -0.000912 0.001756 898708.000000 1 0 0
-2.527967 -17.424355 -1.543320 17.674292 1.426719 1.658228 -0.015872 -0.003887 -884707.000000 1 0 0
-5.687767 -12.133355 3.782080 13.923833 1.132442 1.295714 -0.001533 0.003214 -477020.000000 1 0 0
-8.937167 -10.625755 -12.126220 18.434338 0.871500 2.288699 0.013110 0.003967 -82801.500000 1 0 0
-10.016067 -11.952655 -7.552220 17.326961 0.873323 2.021796 0.016526 -0.003450 311714.000000 1 0 0
-10.959767 -15.228255 6.331280 19.801549 0.946971 1.245345 0.002445 0.001886 -1117710.000000 1 0 0
-9.351967 -15.858155 0.540880 18.418277 1.037965 1.541426 0.005413 0.006237 3697.110000 1 0 0
-14.909667 -7.732455 -8.189720 18.685838 0.478433 2.024486 -0.006159 0.001388 -175574.000000 1 0 0
-2.433067 -16.484955 5.178480 17.449648 1.424261 1.269491 -0.000897 -0.003460 1342480.000000 1 0 0
4.466933 -16.045655 5.699080 17.603865 -1.299282 1.241116 0.012770 -0.003511 19158.800000 1 0 0
4.368433 -14.553355 -10.124420 18.258894 -1.279187 2.158549 -0.000211 0.007558 -650331.000000 1 0 0
-7.508067 -14.105755 -0.405620 15.984615 1.081667 1.596175 0.000895 0.002310 65131.200000 1 0 0
3.007233 -14.831255 9.501680 17.868730 -1.370745 1.010132 0.002088 -0.009465 42448.700000 1 0 0
2.469033 -17.199655 10.493780 20.298859 -1.428219 1.027496 0.008026 -0.008474 -292187.000000 1 0 0
-8.255067 -17.174855 -5.888120 19.944717 1.122749 1.870484 0.015601 -0.003861 -363824.000000 1 0 0
-6.557967 -9.057555 -7.723620 13.590457 0.944122 2.175249 0.010858 0.000572 338717.000000 1 0 0
-6.132267 -13.106455 -4.894120 15.275348 1.133172 1.896941 -0.002181 -0.004905 599922.000000 1 0 0
2.082733 -19.582855 -5.015120 20.321846 -1.464840 1.820157 0.004959 -0.002129 96391.700000 1 0 0
-5.391167 -12.839055 8.382980 16.253626 1.173250 1.028901 -0.000505 -0.004804 914694.000000 1 0 0
2.067733 -17.439155 3.439680 17.895001 -1.452779 1.377378 0.007998 -0.012103 1564530.000000 1 0 0
-17.825767 -10.051455 -2.467320 20.612554 0.513431 1.690784 0.012883 -0.000276 878114.000000 1 0 0
-3.275467 -15.415155 2.524980 15.960301 1.361427 1.411925 -0.008314 -0.000560 -340219.000000 1 0 0
-10.213967 -10.245455 -14.351620 20.378014 0.786937 2.352190 0.013986 0.002861 -179837.000000 1 0 0
6.074133 -14.667555 -5.736020 16.879994 -1.178177 1.917513 -0.008134 0.003609 363562.000000 1 0 0
-7.338967 -12.208255 -10.735820 17.837033 1.029533 2.216654 0.007704 -0.002826 -815486.000000 1 0 0
-7.105967 -14.331955 3.961080 16.479984 1.110504 1.328063 -0.005594 0.007445 620827.000000 1 0 0
3.174333 -15.076655 -3.159320 15.727785 -1.363281 1.773047 0.001387 -0.002459 -999648.000000 1 0 0
-7.568967 -11.468355 7.828580 15.814522 0.987432 1.052933 0.001737 -0.004944 -895052.000000 1 0 0
-12.660467 -12.428655 -1.244720 17.785056 0.776159 1.640840 0.002112 0.008777 -788067.000000 1 0 0
-1.849067 -13.665255 4.106380 14.388211 1.436302 1.281374 -0.007263 0.000748 -4093070.000000 1 0 0
-3.186567 -13.876955 5.393580 15.225465 1.345079 1.208687 -0.007035 0.000592 378336.000000 1 0 0
-14.476767 -10.347555 -4.595920 18.378551 0.620570 1.823549 -0.000623 0.004703 528060.000000 1 0 0
-6.080367 -8.503055 -10.350420 14.710676 0.950021 2.351246 0.002099 0.000515 148638.000000 1 0 0
0.661233 -19.484255 2.354880 19.637181 -1.536873 1.450588 0.008067 -0.011741 55460.300000 1 0 0
6.516733 -14.392055 -8.326420 17.858564 -1.145616 2.055835 -0.007456 0.010836 -2414090.000000 1 0 0
-3.982367 -16.834555 -6.014820 18.315009 1.338507 1.905415 -0.007032 -0.005343 -200169.000000 1 0 0
-3.675867 -13.577755 -13.101420 19.222763 1.306407 2.320685 0.014197 -0.000988 -573147.000000 1 0 0
-8.179867 -14.843955 -4.465920 17.527055 1.067142 1.828439 0.009029 -0.004386 -1451070.000000 1 0 0
-4.585067 -14.438855 10.194380 18.260032 1.263317 0.978474 0.004033 -0.004178 -1291150.000000 1 0 0
-0.313567 -12.135755 -10.143020 15.819473 1.544964 2.266822 0.000616 0.008311 728710.000000 1 0 0
2.318333 -17.288955 6.688080 18.681891 -1.437498 1.204673 0.009507 -0.011843 -573504.000000 1 0 0
-2.967667 -19.209355 -3.474020 19.745257 1.417517 1.747659 -0.016102 -0.008305 -81600.100000 1 0 0
0.531833 -15.499555 -3.058820 15.807449 -1.536497 1.765530 0.004641 -0.002891 1752740.000000 1 0 0
5.988533 -18.037955 0.572680 19.014687 -1.250250 1.540674 0.011669 0.002243 -48533.200000 1 0 0
-6.946767 -16.752955 3.844080 18.539041 1.177717 1.361930 -0.007271 0.006826 1382400.000000 1 0 0
-5.244667 -13.410755 -9.645720 17.331901 1.198004 2.160999 0.004247 -0.001156 29231.200000 1 0 0
5.654033 -15.383455 -2.097020 16.523204 -1.218582 1.698053 0.006484 0.004320 -488351.000000 1 0 0
-8.752467 -10.299955 -0.582920 13.529026 0.866443 1.613896 0.003680 0.003750 126450.000000 1 0 0
-7.416867 -18.089355 -3.215520 19.813486 1.181688 1.733807 0.009752 -0.014437 -270216.000000 1 0 0
7.909133 -16.117655 -1.156620 17.990858 -1.114606 1.635130 0.004184 0.007739 154498.000000 1 0 0
-8.129367 -9.960155 -9.710220 16.111476 0.886262 2.217664 0.011600 0.001833 394907.000000 1 0 0
-9.042367 -14.996055 -6.952120 18.840861 1.028186 1.948720 0.019528 -0.010423 -403175.000000 1 0 0
-11.578967 -10.323455 -12.006420 19.616328 0.728138 2.229462 0.019441 0.004916 182907.000000 1 0 0
6.489533 -16.385155 2.492480 17.798871 -1.193690 1.430299 0.010104 0.000406 1065880.000000 1 0 0
-2.301167 -11.322955 -6.072520 13.052976 1.370297 2.054681 0.001247 0.000720 650671.000000 1 0 0
-12.358367 -15.329755 -3.280120 19.962209 0.892305 1.735861 0.011688 -0.005284 141652.000000 1 0 0
-0.410967 -19.800355 -2.828520 20.005586 1.550044 1.712658 -0.005245 -0.008097 42507.200000 1 0 0
-5.812167 -15.725455 -4.696520 17.410586 1.216766 1.843931 -0.003989 -0.008264 -1982520.000000 1 0 0
1.882633 -16.087955 -1.064020 16.232644 -1.454305 1.636391 0.009877 -0.006087 132275.000000 1 0 0
-13.045667 -11.866955 5.272180 18.406790 0.738120 1.280302 0.005686 0.001529 372546.000000 1 0 0
2.214333 -15.277155 -8.981320 17.859419 -1.426855 2.097735 -0.006095 0.009208 -2240050.000000 1 0 0
-11.731167 -16.738855 0.072880 20.440520 0.959511 1.567231 0.012191 -0.008023 369902.000000 1 0 0
-7.454667 -16.630155 -1.078420 18.256426 1.149389 1.629901 0.003229 -0.000241 448505.000000 1 0 0
-2.991967 -14.436455 -1.831720 14.856591 1.366439 1.694404 -0.007910 0.000029 18668.100000 1 0 0
-1.899367 -10.436255 -13.308020 17.018414 1.390770 2.468629 0.001495 0.005738 847614.000000 1 0 0
1.561833 -19.613055 4.752780 20.241052 -1.491332 1.333774 0.020233 -0.012822 -261945.000000 1 0 0
-17.217967 -9.463155 2.545880 19.811390 0.502543 1.441934 -0.011019 0.005769 -290381.000000 1 0 0
-2.609167 -15.795755 -8.181420 17.979134 1.407093 2.043226 -0.003051 0.002625 -978183.000000 1 0 0
-10.412167 -12.131555 0.229980 15.988769 0.861520 1.556412 0.003882 0.004927 468571.000000 1 0 0
-6.971367 -11.505055 -6.715420 15.035395 1.026021 2.033804 0.004618 -0.001460 193536.000000 1 0 0
-2.221767 -13.753355 -6.797520 15.501526 1.410636 2.024733 -0.004079 0.000916 965049.000000 1 0 0
-14.246367 -14.546255 -1.025020 20.386348 0.795813 1.621097 0.011343 0.001622 287419.000000 1 0 0
-9.588367 -11.435255 -4.622220 15.622636 0.873021 1.871159 0.012880 -0.001479 202601.000000 1 0 0
9.291033 -15.123855 -5.053320 18.455089 -1.019907 1.848156 -0.002780 0.006295 -157115.000000 1 0 0
-5.599167 -10.752155 -9.353320 15.311567 1.090688 2.227951 0.005277 0.001754 -53509.700000 1 0 0
-10.421567 -16.118555 -4.969520 19.827077 0.996845 1.824141 0.019833 -0.002138 -109452.000000 1 0 0
2.090733 -17.523855 -3.330420 17.959631 -1.452050 1.757315 0.008257 -0.002493 429911.000000 1 0 0
-0.221067 -14.596655 -8.171720 16.729860 1.555652 2.081110 -0.001660 0.005631 -723987.000000 1 0 0
-0.678267 -18.462655 -7.088020 19.788120 1.534076 1.937131 -0.006860 0.001204 -141129.000000 1 0 0
-1.875267 -9.951555 -10.660420 14.703558 1.384541 2.381864 0.001096 0.005991 305493.000000 1 0 0
-4.975267 -17.269355 2.049180 18.088202 1.290294 1.457264 -0.006320 -0.003666 219033.000000 1 0 0
0.247233 -12.817955 -2.685820 13.098653 -1.551511 1.777307 -0.003818 0.002607 -2316210.000000 1 0 0
2.508633 -14.863255 2.938580 15.357241 -1.403591 1.378261 0.007962 -0.002975 -1463740.000000 1 0 0
-9.383767 -13.133555 6.819580 17.522900 0.950413 1.171054 -0.003799 0.000367 -274548.000000 1 0 0
-0.989567 -17.908655 -4.539020 18.501402 1.515596 1.818660 -0.008233 -0.006660 -569913.000000 1 0 0
-9.658767 -17.576755 -2.200120 20.176090 1.068322 1.680059 0.017758 -0.013686 -520569.000000 1 0 0
1.249433 -16.238155 1.429180 16.348741 -1.494003 1.483266 0.005416 -0.006829 194020.000000 1 0 0
-0.465367 -18.088455 4.299580 18.598257 1.545075 1.337504 0.011307 -0.007889 604671.000000 1 0 0
-17.247467 -9.376855 -0.018920 19.631630 0.497967 1.571760 -0.014557 0.004699 428366.000000 1 0 0
-14.608567 -7.240455 -10.662820 19.481533 0.460146 2.149966 -0.005935 -0.004310 373784.000000 1 0 0
2.931233 -12.727055 -8.937320 15.825478 -1.344429 2.170918 -0.013776 0.008453 423720.000000 1 0 0
-11.436667 -14.734555 1.726580 18.731939 0.910749 1.478492 -0.000555 0.002767 -188990.000000 1 0 0
-2.273167 -15.491555 10.472380 18.836834 1.425100 0.981288 -0.005697 -0.006099 102576.000000 1 0 0
-6.982867 -15.895455 1.362480 17.415001 1.156876 1.492480 -0.003568 0.002805 -894770.000000 1 0 0
-12.484067 -15.001755 -5.986020 20.414138 0.876743 1.868399 0.014614 -0.003241 -106460.000000 1 0 0
0.921033 -13.897655 -5.074020 14.823589 -1.504621 1.920153 -0.002096 0.001300 273420.000000 1 0 0
5.815233 -16.579555 -7.333020 19.038691 -1.233456 1.966182 0.001508 0.001482 125376.000000 1 0 0
-6.545567 -12.890255 5.986080 15.647245 1.100935 1.178226 -0.001771 0.001667 -119464.000000 1 0 0
-2.523967 -13.510255 0.558780 13.755349 1.386107 1.530162 -0.001873 0.001776 1025980.000000 1 0 0
-4.144567 -15.498055 0.186480 16.043750 1.309486 1.559173 -0.010647 -0.000310 51604.900000 1 0 0
-17.536067 -7.573555 -1.894720 19.195373 0.407687 1.669664 -0.023667 0.006569 450772.000000 1 0 0
1.098533 -12.912255 -12.140520 17.757402 -1.485924 2.323600 -0.006501 0.014587 -362283.000000 1 0 0
1.174333 -17.247455 -5.799420 18.234227 -1.502814 1.894470 0.004139 0.000856 -2480630.000000 1 0 0
-12.855167 -6.382655 -8.982520 16.931605 0.460848 2.130008 0.001017 -0.000529 1808030.000000 1 0 0
-11.631267 -13.459955 -9.041520 19.955095 0.858151 2.041029 0.028624 -0.005217 164280.000000 1 0 0
-4.290767 -9.766455 3.569380 11.248769 1.156845 1.247902 0.000029 0.002749 -3609060.000000 1 0 0
-7.105367 -14.254855 9.643180 18.619293 1.108388 1.026386 0.005941 -0.009198 -1108470.000000 1 0 0
-5.117267 -15.822655 -8.391020 18.626649 1.258000 2.038104 -0.002659 -0.004038 -172429.000000 1 0 0
-0.282867 -13.497255 2.166480 13.672949 1.549842 1.411676 -0.001758 0.002232 609752.000000 1 0 0
-10.869467 -13.577655 -4.602020 17.991015 0.895726 1.829467 0.015474 0.000217 -1208140.000000 1 0 0
-9.618467 -10.637755 6.562080 15.771418 0.835676 1.141673 -0.001474 0.001380 -2966.470000 1 0 0
-15.479867 -7.963455 -4.969920 18.103674 0.475132 1.848893 -0.000308 0.004243 -833283.000000 1 0 0
-14.459567 -7.380255 5.416780 17.113993 0.471938 1.248746 0.005763 -0.003225 -170368.000000 1 0 0
-1.699967 -19.385355 -0.005420 19.459751 1.483327 1.571075 -0.007010 -0.002250 -345337.000000 1 0 0
-15.287067 -12.232355 -1.292720 19.621316 0.674849 1.636728 -0.002520 0.008060 -270203.000000 1 0 0
-4.417467 -12.201655 -6.870920 14.683458 1.223437 2.057750 0.001599 -0.000942 1069080.000000 1 0 0
-7.267267 -18.479155 1.835480 19.941447 1.196107 1.478622 -0.003272 0.004570 96822.900000 1 0 0
-2.510567 -11.747255 -8.638320 14.795997 1.360249 2.194232 0.002282 0.005487 524790.000000 1 0 0
-1.446167 -20.376655 -5.208520 21.081464 1.499943 1.820448 -0.008865 -0.002576 -147683.000000 1 0 0
-5.517567 -8.921455 -13.962120 17.463582 1.016913 2.497257 0.008911 0.001861 121411.000000 1 0 0
-8.060067 -19.214655 -0.931220 20.857488 1.173615 1.615458 0.002579 0.006551 86212.200000 1 0 0
-16.984167 -7.330255 5.641980 19.339765 0.407442 1.274762 0.005846 0.001327 -616188.000000 1 0 0
-3.555967 -14.701255 -4.359020 15.740802 1.333473 1.851389 -0.006460 -0.005647 -2103130.000000 1 0 0
-3.171967 -15.026055 -10.990720 18.884905 1.362753 2.191963 0.003489 0.004939 -443883.000000 1 0 0
-0.169567 -16.624555 6.291280 17.775961 1.560597 1.209037 0.007423 -0.014414 -1044790.000000 1 0 0
-10.960667 -11.485855 3.761080 16.315845 0.808791 1.338187 0.001847 0.004401 -1349030.000000 1 0 0
-0.264567 -14.763555 -0.223320 14.767614 1.552878 1.585919 -0.000185 0.001494 671722.000000 1 0 0
-7.216567 -9.549755 -2.486920 12.225442 0.923669 1.775648 0.006560 0.003713 120727.000000 1 0 0
-10.949567 -14.413555 -0.869320 18.121791 0.921134 1.618786 0.000417 -0.004312 211157.000000 1 0 0
0.217733 -14.693955 -10.614920 18.128327 -1.555980 2.196346 -0.007750 0.005995 238066.000000 1 0 0
-1.394667 -14.051555 -4.000920 14.676466 1.471867 1.846899 -0.006519 -0.001559 -4055970.000000 1 0 0
-11.208067 -8.063655 -7.619320 15.770140 0.623661 2.075044 0.008626 -0.002981 674795.000000 1 0 0
-0.231267 -17.312555 -0.265820 17.316140 1.557439 1.586148 0.002193 -0.007302 -799292.000000 1 0 0
-12.705967 -9.468255 4.507880 16.474539 0.640410 1.293634 0.000739 0.002562 384131.000000 1 0 0
3.907933 -16.803455 1.590180 17.325031 -1.342291 1.478882 0.010579 -0.006944 1838460.000000 1 0 0
-3.686767 -18.029955 -8.171520 20.135671 1.369097 1.988676 -0.003225 -0.003328 -15855.700000 1 0 0
-13.280467 -11.279355 2.717780 17.634653 0.704099 1.416064 -0.001181 0.003749 -686155.000000 1 0 0
-8.407167 -12.118955 4.178580 15.330038 0.964297 1.294728 -0.000531 0.002201 1520190.000000 1 0 0
-8.292567 -9.522755 -5.934720 13.952434 0.854341 2.010149 0.013018 -0.002302 -562880.000000 1 0 0
3.668933 -17.586555 -5.507020 18.790297 -1.365125 1.868241 -0.005136 0.011997 66401.600000 1 0 0
-2.637967 -13.030655 11.353180 17.482893 1.371053 0.864017 -0.002227 -0.006601 593936.000000 1 0 0
0.306633 -16.890655 -9.332120 19.299656 -1.552644 2.075489 0.000501 0.006215 -245832.000000 1 0 0
-7.198067 -10.784855 -14.572520 19.505989 0.982270 2.414454 0.009984 0.005731 -2576070.000000 1 0 0
-4.702767 -18.854855 -1.514220 19.491394 1.326364 1.648561 0.002494 -0.010215 -226617.000000 1 0 0
-2.385567 -17.255155 1.165380 17.458219 1.433415 1.503994 -0.002372 -0.007179 362627.000000 1 0 0
4.105033 -14.596155 -7.525820 16.927404 -1.296637 2.031517 -0.008861 0.006081 -1146530.000000 1 0 0
-1.039467 -15.996255 -6.161520 17.173380 1.505906 1.937760 -0.005909 -0.001127 -746952.000000 1 0 0
-9.359467 -15.392655 8.365080 19.862226 1.024480 1.136078 -0.009335 0.004085 -624208.000000 1 0 0
-7.155967 -12.041055 -1.856220 14.129417 1.034581 1.702550 0.000542 0.000513 1070920.000000 1 0 0
-7.240367 -15.081455 -9.588820 19.282600 1.123208 2.091255 0.012972 -0.000802 244600.000000 1 0 0
-4.993567 -13.242555 -0.713620 14.170752 1.210199 1.621176 -0.003316 0.001176 638083.000000 1 0 0
-6.430967 -13.893555 -7.353720 16.984269 1.137288 2.018584 0.000386 -0.002365 182696.000000 1 0 0
5.783933 -15.469855 0.306480 16.518602 -1.213004 1.552242 0.007669 0.003461 224121.000000 1 0 0
-14.002067 -12.844155 0.902080 19.022196 0.742294 1.523356 -0.023254 0.000232 870064.000000 1 0 0
0.875733 -15.235155 10.996780 18.809732 -1.513378 0.946369 -0.006699 -0.008194 -175029.000000 1 0 0
-9.204767 -10.699555 1.916080 14.243580 0.860356 1.435865 0.001014 0.005740 -9558.290000 1 0 0
-9.380367 -8.907655 -3.579920 13.422124 0.759556 1.840782 0.010979 -0.000423 -562572.000000 1 0 0
-12.262067 -7.092355 -12.378120 18.811636 0.524384 2.288960 0.002512 -0.000774 -416962.000000 1 0 0
-13.174767 -8.593155 -0.762120 15.747940 0.577951 1.619210 -0.000083 0.000584 950135.000000 1 0 0
-11.177267 -9.695455 0.527880 14.805803 0.714524 1.535135 0.002676 0.004691 677160.000000 1 0 0
-15.592667 -12.397355 2.877080 20.127177 0.671731 1.427360 -0.001784 0.012293 -533886.000000 1 0 0
-10.355267 -12.407955 -2.319320 16.326915 0.875331 1.713333 0.008726 -0.000846 498996.000000 1 0 0
-3.578167 -8.880955 -12.213820 15.519408 1.187790 2.476732 0.001920 0.007345 -949065.000000 1 0 0
-0.306567 -15.573555 3.859280 16.047543 1.551114 1.327925 0.006021 -0.005291 -953117.000000 1 0 0
-15.596667 -7.916655 1.169280 17.529879 0.469698 1.504045 -0.010641 0.001496 292399.000000 1 0 0
-6.330767 -13.504955 -13.297620 19.982220 1.132440 2.298923 0.015654 -0.000451 501003.000000 1 0 0
-15.167967 -10.461055 1.113180 18.459146 0.603767 1.510455 -0.002631 0.001618 -51410.500000 1 0 0
-10.018267 -8.345855 -12.513520 18.072276 0.694579 2.335628 0.015570 0.000881 502705.000000 1 0 0
-13.262967 -11.919655 -6.238520 18.891892 0.732106 1.907335 0.008026 0.006716 -117993.000000 1 0 0
-12.154367 -11.407855 -3.919720 17.124018 0.753726 1.801746 0.005921 0.003814 -2161090.000000 1 0 0
-11.764867 -10.879555 -9.142520 18.448915 0.746322 2.089274 0.010775 -0.003499 -67353.700000 1 0 0
-13.165767 -8.485655 -5.930220 16.748471 0.572516 1.932721 0.000344 0.001882 -1225780.000000 1 0 0
-13.598967 -8.260755 -3.313220 16.252674 0.545883 1.776092 0.009044 -0.000839 95826.300000 1 0 0
-4.351267 -17.063655 -3.322320 17.920370 1.321115 1.757269 -0.007605 -0.011284 185284.000000 1 0 0
-15.384667 -9.055255 -1.862020 17.948614 0.531987 1.674725 -0.001547 0.002648 -1325650.000000 1 0 0
-9.345867 -15.619855 3.620180 18.558847 1.031604 1.374473 -0.002956 0.003980 -1186240.000000 1 0 0
4.550933 -17.244355 8.017880 19.554160 -1.312771 1.148304 0.014835 -0.022740 153271.000000 1 0 0
-8.375767 -15.477655 5.951580 18.577744 1.074771 1.244686 -0.002479 0.007259 361001.000000 1 0 0
0.887433 -16.108055 8.583480 18.273837 -1.515759 1.081829 0.000067 -0.006024 769826.000000 1 0 0
-11.025167 -7.819155 -10.159020 16.908553 0.616880 2.215325 0.014276 -0.001158 595571.000000 1 0 0
-4.906767 -15.769355 5.861480 17.524436 1.269134 1.229749 -0.004126 -0.006387 -1300720.000000 1 0 0
-1.428267 -13.403655 -12.098520 18.112760 1.464639 2.302255 -0.003041 0.008563 -2284870.000000 1 0 0
-6.311667 -14.416055 -2.635920 15.956436 1.158116 1.736752 0.000805 -0.006034 264458.000000 1 0 0
-17.733967 -6.880855 -7.060420 20.290127 0.370123 1.926205 -0.004162 -0.000027 -194051.000000 1 0 0
-17.297067 -4.223555 -10.133020 20.486704 0.239491 2.088187 -0.012153 -0.001038 415704.000000 1 0 0
-15.383967 -5.340055 -9.060420 18.635285 0.334105 2.078529 -0.011624 -0.001178 -344492.000000 1 0 0
-16.084667 -5.343455 -5.692520 17.879424 0.320737 1.894820 -0.006029 0.005885 -670203.000000 1 0 0
-15.470467 -4.148155 -12.352520 20.226895 0.261972 2.227738 0.006822 -0.003934 -271170.000000 1 0 0
-18.690567 -5.067855 -5.455720 20.119277 0.264779 1.845403 -0.014116 0.005024 -59255.700000 1 0 0
-17.464267 -4.359455 -7.654020 19.559895 0.244622 1.972853 -0.019452 0.003824 436864.000000 1 0 0
12.310733 -7.921155 8.701180 17.029662 -0.571746 1.034515 0.005334 -0.004731 179766.000000 1 0 0
15.971133 -3.414255 1.677080 16.417881 -0.210607 1.468468 0.004005 0.002299 1043870.000000 1 0 0
11.892433 -2.238255 12.614080 17.480125 -0.186032 0.764651 -0.004688 0.004045 31017.100000 1 0 0
9.836233 -10.110955 5.242780 15.048908 -0.799170 1.214951 0.004568 -0.003113 309438.000000 1 0 0
16.822333 -1.991655 7.089980 18.363698 -0.117845 1.174411 0.013199 -0.006365 -989764.000000 1 0 0
5.232733 -12.893455 9.058180 16.603413 -1.185262 0.993738 0.001915 0.000425 -156288.000000 1 0 0
15.127833 -9.132955 -2.291620 17.818915 -0.543149 1.699760 0.014621 -0.004214 201405.000000 1 0 0
11.236433 -8.602355 6.317180 15.497248 -0.653396 1.150937 0.009174 -0.006505 -2632220.000000 1 0 0
19.838633 -3.112355 3.531980 20.389532 -0.155615 1.396693 0.007682 0.000375 379043.000000 1 0 0
13.600733 -8.548155 6.721180 17.413362 -0.561117 1.174528 0.007756 -0.003905 -2356450.000000 1 0 0
8.288633 -11.120255 8.783980 16.417059 -0.930269 1.006227 0.006338 -0.002527 -371769.000000 1 0 0
16.719133 0.053445 -0.668720 16.732587 0.003197 1.610772 -0.000321 0.007594 -1723120.000000 1 0 0
12.453833 -12.376355 2.304080 17.708216 -0.782278 1.440313 0.007407 -0.003377 -1863350.000000 1 0 0
10.389933 -11.672655 3.580780 16.031955 -0.843473 1.345544 -0.000376 -0.002181 -666697.000000 1 0 0
16.282233 3.017245 2.343880 16.724493 0.183231 1.430187 -0.000446 0.003683 -170027.000000 1 0 0
18.272933 -3.241455 0.427980 18.563143 -0.175565 1.547739 0.003269 0.002241 -341314.000000 1 0 0
13.514733 -11.850055 -0.179020 17.975090 -0.719863 1.580756 0.019232 0.000837 -286288.000000 1 0 0
16.839633 -7.617655 -0.998720 18.509440 -0.424819 1.624780 0.014506 -0.001804 285258.000000 1 0 0
10.262633 -5.829555 9.730980 15.296971 -0.516586 0.881314 0.000342 -0.001587 830997.000000 1 0 0
11.261833 -13.256855 6.249880 18.483346 -0.866587 1.225861 0.011249 -0.002032 -839214.000000 1 0 0
13.027933 -1.855455 10.332380 16.731044 -0.141470 0.905163 0.004491 0.000615 -168625.000000 1 0 0
15.512033 -2.120355 -1.466220 15.724785 -0.135849 1.664175 0.001587 0.001366 -1257360.000000 1 0 0
10.439733 -12.506055 9.216780 18.717331 -0.875208 1.055929 0.017934 -0.012380 -30352.800000 1 0 0
14.513633 1.233245 3.320780 14.939679 0.084768 1.346645 -0.000310 0.001274 1072620.000000 1 0 0
14.912533 -5.765855 5.185180 16.808177 -0.368941 1.257190 0.005615 -0.002035 -490053.000000 1 0 0
14.138233 -3.453755 -3.126620 14.886027 -0.239592 1.782409 0.000270 0.001233 545045.000000 1 0 0
14.008833 0.573145 9.614980 17.000698 0.040890 0.969680 0.017027 -0.002336 64057.000000 1 0 0
15.310633 -3.377355 4.249580 16.244413 -0.217112 1.306114 0.001064 0.003253 -232325.000000 1 0 0
18.447133 4.780945 -4.403020 19.558649 0.253591 1.797861 -0.018786 0.012995 438453.000000 1 0 0
17.856133 -5.914455 -5.359620 19.558829 -0.319855 1.848373 0.017566 -0.004926 355316.000000 1 0 0
17.213233 0.166345 5.857280 18.183256 0.009663 1.242823 0.015283 -0.001299 589768.000000 1 0 0
17.018033 -6.666955 3.875080 18.683629 -0.373381 1.361875 0.012901 0.001258 29061.800000 1 0 0
9.675033 -6.807555 14.260680 18.528790 -0.613152 0.692504 0.000942 0.000250 -274856.000000 1 0 0
8.620733 -12.348455 5.222080 15.939621 -0.961332 1.237017 -0.000506 -0.002886 -1463150.000000 1 0 0
16.924733 -10.173255 -0.705120 19.759527 -0.541219 1.606489 0.026658 -0.000204 401329.000000 1 0 0
14.856933 -8.820455 0.301080 17.280612 -0.535769 1.553372 0.023133 -0.003128 108241.000000 1 0 0
9.950433 -13.073355 1.521380 16.499646 -0.920214 1.478458 0.001115 -0.003079 697274.000000 1 0 0
16.973133 -8.324155 8.721280 20.819211 -0.455963 1.138557 0.014718 -0.001266 422171.000000 1 0 0
19.053433 -0.270155 -1.803320 19.140487 -0.014178 1.665151 0.010200 0.008113 -419352.000000 1 0 0
13.326433 -1.339355 7.752480 15.475421 -0.100167 1.046095 0.000846 -0.007938 -408981.000000 1 0 0
12.750733 -9.981455 -3.026120 16.473252 -0.664174 1.755544 0.007357 -0.001882 -1937760.000000 1 0 0
8.836533 -15.326355 1.540580 17.758234 -1.047792 1.483934 0.007071 0.009201 -178552.000000 1 0 0
11.449933 -8.384155 11.048980 17.985410 -0.632041 0.909260 0.008001 -0.007192 -212182.000000 1 0 0
13.861833 -3.987055 -0.585120 14.435698 -0.280068 1.611340 0.001566 0.001261 -437903.000000 1 0 0
7.236233 -13.377455 10.700480 18.596227 -1.074945 0.957689 0.017150 0.000491 125716.000000 1 0 0
15.371833 -6.755655 1.710580 16.877743 -0.414073 1.469271 0.014788 -0.002123 -95738.100000 1 0 0
15.722633 -6.116255 -2.701520 17.085315 -0.370996 1.729582 0.012352 -0.002724 -178480.000000 1 0 0
11.258333 -8.571955 3.824380 14.657911 -0.650749 1.306833 0.006673 -0.002500 517796.000000 1 0 0
10.524733 -14.626755 -0.466220 18.025796 -0.947067 1.596663 0.008924 0.005917 556270.000000 1 0 0
13.347733 -12.847555 4.668180 19.105328 -0.766306 1.323958 0.012768 -0.003693 338985.000000 1 0 0
12.784733 -11.090455 6.555280 18.149912 -0.714553 1.201270 0.006389 -0.007299 -581118.000000 1 0 0
10.950033 -10.602755 1.296980 15.297183 -0.769287 1.485909 0.005392 -0.003546 127078.000000 1 0 0
13.879233 -7.596055 11.868080 19.778384 -0.500765 0.927229 0.006425 -0.010300 97619.100000 1 0 0
15.226433 -1.868055 -5.001220 16.135244 -0.122075 1.885943 0.008471 0.001158 -1034200.000000 1 0 0
12.676333 -11.562055 -7.069920 18.556786 -0.739459 1.961661 0.007567 -0.000585 408825.000000 1 0 0
17.599533 -5.411555 1.763480 18.496982 -0.298308 1.475312 0.008552 0.004997 169183.000000 1 0 0
10.624333 -9.830455 9.077780 17.085678 -0.746606 1.010651 0.004960 -0.009059 -1343560.000000 1 0 0
16.249533 1.676445 10.065280 19.187696 0.102805 1.018587 0.027030 -0.002039 -452700.000000 1 0 0
18.037033 3.631445 0.466680 18.404884 0.198677 1.545437 -0.010796 0.008549 492369.000000 1 0 0
13.200733 -4.024155 5.734380 14.944440 -0.295894 1.176982 0.003344 -0.006112 -1216620.000000 1 0 0
12.069933 -6.203055 6.610780 15.095151 -0.474726 1.117490 0.003279 -0.004766 -81798.200000 1 0 0
16.507633 -10.147455 3.452480 19.682287 -0.551168 1.394474 0.007640 -0.000478 -3785.790000 1 0 0
16.079233 -8.166955 -5.590920 18.881188 -0.469963 1.871414 0.008991 -0.006723 -434698.000000 1 0 0
13.965033 -0.503055 5.320180 14.952576 -0.036007 1.207023 0.001124 -0.000105 856053.000000 1 0 0
18.119033 -4.196755 5.079780 19.279945 -0.227608 1.304174 0.008575 0.002602 39201.900000 1 0 0
13.620033 -13.418455 7.138680 20.408846 -0.777943 1.213456 0.019968 -0.006928 -678145.000000 1 0 0
14.979033 -13.690555 -1.079120 20.321595 -0.740486 1.623923 0.013171 0.004844 625527.000000 1 0 0
17.852333 -6.044455 7.790480 20.394431 -0.326466 1.178847 0.025579 -0.000406 -181960.000000 1 0 0
14.308833 3.215045 9.220280 17.323186 0.221019 1.009539 0.019730 -0.005101 -3516.180000 1 0 0
18.620733 3.862245 3.003580 19.252795 0.204516 1.414149 0.010009 0.002759 -556941.000000 1 0 0
14.805733 -10.371555 8.069480 19.796348 -0.611068 1.150945 0.007861 -0.012986 -502726.000000 1 0 0
14.799633 -4.864355 10.248480 18.647317 -0.317557 0.988916 0.004196 -0.010739 149386.000000 1 0 0
17.705933 -8.020655 1.807180 19.521703 -0.425340 1.478091 0.015946 -0.000580 -421789.000000 1 0 0
18.333833 -5.976355 -2.170620 19.405098 -0.315113 1.682889 0.011434 -0.002614 120870.000000 1 0 0
14.154533 -13.165755 -5.658020 20.142023 -0.749222 1.855535 0.005908 0.000512 -230781.000000 1 0 0
15.377233 -1.581255 9.360880 18.071684 -0.102471 1.026301 0.013469 -0.006834 -60696.100000 1 0 0
13.042833 -10.077555 10.201880 19.384297 -0.657841 1.016558 0.003840 -0.013219 -735989.000000 1 0 0
16.504433 2.229145 4.785580 17.328219 0.134251 1.290987 0.010854 -0.002346 -1645600.000000 1 0 0
14.912233 2.367245 -0.147920 15.099683 0.157432 1.580593 -0.006629 0.005904 -1371920.000000 1 0 0
14.847033 -9.929955 -7.168420 19.246419 -0.589490 1.952449 0.009082 -0.005226 723954.000000 1 0 0
16.217933 -0.184355 -3.251820 16.541755 -0.011367 1.768668 0.005844 0.007580 -1540.760000 1 0 0
12.091333 2.457845 13.601680 18.364287 0.200541 0.736745 0.022791 0.008319 -54373.400000 1 0 0
17.570333 -3.059555 9.402980 20.161684 -0.172403 1.085604 0.016378 -0.009362 1021460.000000 1 0 0
7.515133 -18.196055 4.728380 20.246758 -1.179126 1.335082 0.015693 -0.008624 -541793.000000 1 0 0
6.773533 -11.215655 6.595580 14.668788 -1.027488 1.104441 0.000860 -0.003872 217444.000000 1 0 0
17.914133 2.067545 -1.555720 18.100032 0.114906 1.656854 -0.002439 0.016410 344993.000000 1 0 0
17.457833 -2.211355 3.423180 17.927191 -0.125997 1.378667 -0.000764 0.005934 -973704.000000 1 0 0
12.489633 -13.564755 -1.941720 18.540868 -0.826639 1.675715 0.003000 0.005269 -531045.000000 1 0 0
14.920833 -8.139855 4.263880 17.523389 -0.499410 1.325004 0.012514 -0.001447 -559511.000000 1 0 0
11.478433 -3.056755 14.994380 19.129287 -0.260264 0.669964 -0.008504 0.006992 252921.000000 1 0 0
11.844733 -13.944955 -6.443120 19.397764 -0.866655 1.909387 -0.001821 0.000425 -211146.000000 1 0 0
10.566333 -12.053355 -1.182720 16.072635 -0.851044 1.644449 0.003396 -0.002238 -1073940.000000 1 0 0
13.134233 -8.112155 2.035880 15.571125 -0.553285 1.439674 0.016597 -0.000245 -973985.000000 1 0 0
8.779133 -7.959055 10.012680 15.513655 -0.736443 0.869235 0.004710 -0.002430 -1524700.000000 1 0 0
15.497133 -3.799155 7.994080 17.846569 -0.240411 1.106343 0.006933 -0.007767 -1138470.000000 1 0 0
9.928133 -17.527155 5.439180 20.865131 -1.055417 1.307067 0.015998 -0.006232 -1579280.000000 1 0 0
15.211633 -6.417255 8.181080 18.425662 -0.399212 1.110733 0.009271 -0.000127 281969.000000 1 0 0
16.568433 -4.946855 -0.512920 17.298770 -0.290145 1.600451 0.015848 -0.000613 -465666.000000 1 0 0
13.925833 -10.535755 3.502080 17.809984 -0.647688 1.372871 0.016874 -0.004093 21183.400000 1 0 0
14.859633 -10.193655 -4.599620 18.597736 -0.601266 1.820711 0.017757 -0.010004 247664.000000 1 0 0
13.560033 -6.620355 -0.173420 15.090847 -0.454184 1.582288 0.008247 -0.001261 57429.600000 1 0 0
17.643333 -0.970155 -5.218320 18.424420 -0.054932 1.857955 -0.000798 0.005659 -666074.000000 1 0 0
14.343733 0.153645 -1.633920 14.437312 0.010711 1.684213 -0.000060 0.006141 -2365110.000000 1 0 0
4.853533 -13.003955 11.680780 18.141121 -1.213574 0.871232 -0.004410 0.005772 -31450.600000 1 0 0
11.892133 -7.635855 13.443980 19.505633 -0.570797 0.810363 -0.001472 -0.009833 -1556390.000000 1 0 0
12.081233 -5.835655 11.522080 17.685288 -0.449983 0.861228 0.002199 -0.002628 619270.000000 1 0 0
13.177333 -4.696655 8.277080 16.254560 -0.342382 1.036523 0.005972 -0.007313 -155739.000000 1 0 0
15.109333 -1.172555 2.954880 15.440147 -0.077449 1.378232 0.002759 0.001668 -291292.000000 1 0 0
15.174033 -10.336055 5.650880 19.209835 -0.597974 1.272214 0.015250 -0.004929 670252.000000 1 0 0
13.542133 -8.204855 -5.839820 16.876389 -0.544729 1.924138 0.011909 -0.004189 -1428720.000000 1 0 0
9.412533 -2.169455 13.523180 16.618626 -0.226530 0.620244 -0.010760 0.001968 470925.000000 1 0 0
9.893433 -9.308755 13.498280 19.150366 -0.754959 0.788574 0.015093 -0.003873 -297556.000000 1 0 0
20.143733 6.260045 -3.050920 21.313523 0.301307 1.714435 0.003512 0.005594 -208049.000000 1 0 0
11.053933 -3.557255 10.628380 15.741854 -0.311343 0.829605 -0.004909 0.000823 627221.000000 1 0 0
10.119433 -13.943255 -2.932120 17.476115 -0.942991 1.739372 -0.001099 0.000971 573803.000000 1 0 0
14.918933 -12.679255 2.608680 19.752045 -0.704423 1.438338 0.013652 0.005556 -1024830.000000 1 0 0
11.359233 -0.573655 14.533680 18.455057 -0.050458 0.664026 0.007032 0.010522 447976.000000 1 0 0
18.901233 -1.819555 5.620280 19.802902 -0.095971 1.283030 0.018498 -0.002703 -55387.900000 1 0 0
18.787233 -0.509255 7.877380 20.378238 -0.027100 1.173899 0.026127 -0.002491 298235.000000 1 0 0
18.886733 0.759345 0.597680 18.911439 0.040184 1.539187 0.002376 0.004003 250966.000000 1 0 0
18.561733 0.816945 3.794580 18.963232 0.043984 1.369334 0.012755 -0.002588 41132.900000 1 0 0
16.486033 -3.969255 -4.252220 17.482152 -0.236268 1.816493 0.007500 -0.001484 -1826480.000000 1 0 0
11.002733 -8.398455 15.737280 20.958439 -0.651963 0.721402 0.013594 -0.008540 216836.000000 1 0 0
16.512733 -7.553655 6.237580 19.199882 -0.429027 1.239916 0.007014 0.000590 455644.000000 1 0 0
18.688833 2.314645 6.040480 19.776690 0.123224 1.260402 0.020599 -0.002287 338941.000000 1 0 0
15.540833 1.634645 7.675780 17.409973 0.104799 1.114213 0.030169 -0.006198 79012.200000 1 0 0
8.624233 -15.875255 3.986780 18.501231 -1.073150 1.353605 0.005043 -0.006344 623172.000000 1 0 0
11.380033 -15.193555 2.022580 19.090314 -0.927933 1.464649 0.006324 0.004100 615175.000000 1 0 0
7.956333 -16.155655 6.337080 19.091019 -1.113183 1.232436 0.009237 -0.010738 -186912.000000 1 0 0
14.436733 -11.740155 -2.621020 18.791494 -0.682747 1.710732 0.011074 -0.005658 709048.000000 1 0 0
13.604533 -4.906855 3.140280 14.799389 -0.346156 1.356981 0.003520 0.001525 -3273650.000000 1 0 0
-1.071567 10.194345 -5.574420 11.668208 -1.466067 2.068882 -0.000573 0.003363 -2191040.000000 1 0 0
8.259833 -1.813455 -8.077320 11.694296 -0.216122 2.333261 -0.005630 -0.000351 -3822530.000000 1 0 0
2.758133 -10.116555 7.624980 12.965042 -1.304630 0.942066 -0.000967 0.001165 567077.000000 1 0 0
-6.307367 1.420845 8.356280 10.565467 -0.221569 0.658510 -0.004811 0.000085 -401634.000000 1 0 0
7.187233 -6.338355 -7.397620 12.106025 -0.722719 2.228207 -0.007062 0.001516 22900.500000 1 0 0
-11.369767 -4.470655 -4.039320 12.867574 0.374635 1.890110 0.004302 -0.002690 273559.000000 1 0 0
2.127833 -3.233655 2.864680 4.815661 -0.988799 0.933696 0.002140 -0.000959 3148270.000000 1 0 0
-3.600367 -4.214055 8.868580 10.458136 0.863770 0.558582 -0.002395 -0.001045 -1001370.000000 1 0 0
-4.884567 -1.017755 -2.364420 5.521349 0.205422 2.013332 0.005482 -0.001731 -48680.900000 1 0 0
4.987333 -5.178355 -3.544820 8.015897 -0.804187 2.028873 -0.005139 0.000998 226226.000000 1 0 0
2.729533 14.372145 -8.913720 17.130771 1.383113 2.118038 -0.003807 0.003329 341691.000000 1 0 0
5.441933 -5.526255 13.800980 15.831020 -0.793086 0.511996 -0.000281 0.003160 -865586.000000 1 0 0
-4.767367 -0.940155 9.934980 11.059634 0.194708 0.454889 0.002015 -0.001284 -3037680.000000 1 0 0
-0.971067 11.965645 -2.740420 12.313794 -1.489819 1.795224 -0.005012 -0.000276 -951152.000000 1 0 0
3.176833 9.369345 -10.508420 14.432733 1.243895 2.386337 0.002072 0.000500 -278293.000000 1 0 0
-10.674367 2.730845 1.187580 11.081966 -0.250460 1.463427 -0.004147 0.000988 57468.800000 1 0 0
5.667433 -9.060755 -0.763120 10.714450 -1.011843 1.642080 -0.003592 0.000857 673036.000000 1 0 0
-7.009967 5.539545 9.477180 13.024713 -0.668760 0.755935 -0.001834 -0.003917 74381.700000 1 0 0
-5.790267 -1.870555 5.288780 8.062094 0.312469 0.855282 -0.006737 0.000301 -266708.000000 1 0 0
6.544233 -3.767955 -7.419120 10.586208 -0.522411 2.347355 -0.005586 0.000802 340978.000000 1 0 0
6.254033 4.870645 11.061780 13.608787 0.661680 0.621783 -0.001812 0.000010 74557.200000 1 0 0
3.860833 -9.877855 3.075480 11.042492 -1.198196 1.288551 -0.003318 0.001897 1010020.000000 1 0 0
-6.591967 6.695745 -5.724920 11.002806 -0.793208 2.118016 -0.000331 -0.002607 205855.000000 1 0 0
-11.048667 8.514245 5.375880 14.948762 -0.656563 1.202935 -0.004966 -0.004245 180725.000000 1 0 0
-9.068767 -5.596255 5.101680 11.814726 0.552892 1.124301 -0.003477 -0.001384 -312926.000000 1 0 0
3.426133 9.695945 -7.991220 13.023415 1.231134 2.231413 -0.001666 0.003725 607584.000000 1 0 0
-7.989167 -8.649355 6.143080 13.280646 0.825056 1.089917 -0.002238 0.002359 -2829910.000000 1 0 0
-7.873367 -5.734855 -7.566620 12.334188 0.629524 2.231240 0.015827 -0.005227 2467170.000000 1 0 0
9.221833 -1.526055 7.006380 11.681627 -0.163997 0.927573 -0.001721 -0.003398 511590.000000 1 0 0
-4.102267 -0.458755 -4.850920 6.369495 0.111367 2.436554 0.011515 -0.007904 -258926.000000 1 0 0
9.025033 1.173245 -4.370920 10.096171 0.129274 2.018535 -0.005479 0.004136 -3086650.000000 1 0 0
-1.979067 -10.579455 10.556980 15.076187 1.385867 0.795060 -0.003726 -0.004162 305895.000000 1 0 0
-12.908467 0.308645 -2.611020 13.173504 -0.023906 1.770320 -0.000964 -0.000886 -654864.000000 1 0 0
-9.922167 -5.009455 -6.063120 12.661179 0.467540 2.070169 0.009713 -0.005006 -1716830.000000 1 0 0
-5.489367 8.386945 -0.098520 10.024156 -0.991255 1.580625 -0.000448 0.000092 858856.000000 1 0 0
6.347633 9.737945 0.424880 11.631876 0.993125 1.534261 0.002379 0.000506 562976.000000 1 0 0
-0.536267 -12.155855 0.008880 12.167681 1.526709 1.570066 -0.000795 0.003366 -540673.000000 1 0 0
6.210733 4.819445 2.352480 8.205755 0.659926 1.280030 -0.000929 0.000492 320541.000000 1 0 0
3.380533 -7.510055 -8.209920 11.628917 -1.147831 2.354619 -0.011802 0.005568 1330430.000000 1 0 0
-6.512667 -9.911855 4.597980 12.720107 0.989475 1.200949 0.000371 0.001793 -3409970.000000 1 0 0
0.006733 6.380545 -9.170720 11.171996 1.569741 2.533723 0.006704 -0.001341 -2339150.000000 1 0 0
-17.273867 -2.722355 4.432180 18.040009 0.156314 1.322569 0.006952 -0.006452 164593.000000 1 0 0
-8.252667 1.012345 -9.264820 12.448624 -0.122059 2.410199 0.006557 -0.004274 -303388.000000 1 0 0
-10.008167 -5.904055 -11.765920 16.536570 0.532978 2.362440 0.011284 -0.000483 -999567.000000 1 0 0
2.207833 9.544045 6.442980 11.724987 1.343464 0.989020 -0.006960 0.007184 56884.200000 1 0 0
-11.479967 1.730745 -1.200720 11.671626 -0.149635 1.673854 -0.000449 -0.000588 -1450850.000000 1 0 0
-6.115967 -5.375755 -3.105420 8.714782 0.721074 1.935143 0.013618 -0.001746 640105.000000 1 0 0
-6.834267 -8.331255 1.369680 10.862460 0.883789 1.444367 0.002077 0.003061 -642743.000000 1 0 0
0.076933 11.045145 -7.840020 13.545001 1.563831 2.188068 -0.000819 0.003614 -150627.000000 1 0 0
-2.777967 9.142845 -4.285220 10.472432 -1.275820 1.992363 0.000230 -0.001543 -567561.000000 1 0 0
3.482433 -4.846555 9.355280 11.096743 -0.947737 0.567839 -0.001272 -0.000488 -819707.000000 1 0 0
-9.109267 1.637745 -0.422920 9.264978 -0.177888 1.616459 -0.004428 -0.000861 -2317840.000000 1 0 0
2.524533 3.491745 -10.446020 11.299773 0.944800 2.750374 0.001912 -0.004057 -1142690.000000 1 0 0
-13.579767 0.511045 1.089680 13.632998 -0.037615 1.490781 0.000955 -0.003059 -165266.000000 1 0 0
9.306433 -12.528555 -5.038520 16.400033 -0.931908 1.883073 -0.000113 0.000807 -2135250.000000 1 0 0
-4.627967 9.559045 -8.370220 13.522352 -1.119913 2.238254 0.000537 0.000243 -293407.000000 1 0 0
-2.242167 7.100445 8.437680 11.253359 -1.264928 0.723048 0.001736 -0.000581 -421093.000000 1 0 0
-10.851467 -1.258555 -4.334720 11.752791 0.115464 1.948541 0.003164 -0.001125 -2854050.000000 1 0 0
2.792433 -7.198855 9.697580 12.396139 -1.200765 0.672436 -0.003020 0.001134 -1079670.000000 1 0 0
-16.118667 -6.626255 3.331080 17.743020 0.390032 1.381935 0.004937 -0.001563 -149174.000000 1 0 0
-10.657667 -0.092555 6.201880 12.331170 0.008684 1.043795 -0.004505 -0.002289 -2355960.000000 1 0 0
-8.422367 9.988745 9.512680 16.161757 -0.870272 0.941480 0.004720 -0.008447 -756828.000000 1 0 0
0.200533 -6.068755 -3.816920 7.172090 -1.537765 2.131982 -0.002056 0.004371 430535.000000 1 0 0
4.920033 1.551245 -2.989920 5.962609 0.305426 2.096064 -0.002857 0.001756 -366456.000000 1 0 0
0.340333 5.383145 3.675980 6.527397 1.507658 0.972589 -0.002440 0.003994 -2005590.000000 1 0 0
6.027233 -11.368255 -1.565320 12.962059 -1.083296 1.691853 -0.003762 0.000991 -2500470.000000 1 0 0
6.301733 -13.524255 5.309880 15.837050 -1.134751 1.228892 0.002325 -0.003327 829628.000000 1 0 0
8.053233 -8.253655 -6.067220 13.030293 -0.797688 2.055136 -0.005391 0.000601 645940.000000 1 0 0
-13.256067 -1.419455 -4.546520 14.085773 0.106673 1.899455 -0.001431 0.002103 -2961300.000000 1 0 0
-6.822167 -1.428755 -6.989820 9.871215 0.206445 2.357602 0.012957 -0.006480 -1040370.000000 1 0 0
-5.601067 12.870245 -4.468820 14.730428 -1.160322 1.879027 -0.004683 -0.000224 758660.000000 1 0 0
-4.239767 6.916745 -6.738720 10.546437 -1.020894 2.263938 0.004509 -0.001645 -2445030.000000 1 0 0
-9.467367 -3.678855 -8.124020 13.006333 0.370625 2.245442 0.013530 -0.003070 622391.000000 1 0 0
-2.035267 -6.224655 9.152880 11.254504 1.254785 0.621057 0.002675 0.000418 -154124.000000 1 0 0
7.538233 -6.047655 9.972880 13.887312 -0.676120 0.769686 -0.002178 0.002424 204396.000000 1 0 0
9.663933 -5.102355 12.234180 16.404292 -0.485780 0.729074 0.000365 0.006380 -82828.400000 1 0 0
-6.441967 2.936445 -8.992520 11.444958 -0.427692 2.474654 0.008133 -0.005438 -194188.000000 1 0 0
7.361133 5.473745 8.797280 12.709851 0.639393 0.806316 -0.007515 0.000065 1343100.000000 1 0 0
12.684933 3.348845 11.194380 17.246346 0.258113 0.864413 0.018976 0.005281 -814234.000000 1 0 0
-7.469767 -7.382655 -3.996620 11.237170 0.779533 1.934417 0.012725 -0.003467 -199824.000000 1 0 0
2.313633 1.399745 -5.783820 6.384728 0.544087 2.704257 0.001437 -0.001748 -644436.000000 1 0 0
12.755033 6.845645 -7.200420 16.167862 0.492576 2.032366 0.004196 0.004525 501397.000000 1 0 0
0.812633 -7.715355 0.966180 7.817965 -1.465857 1.446895 -0.002154 0.001658 496052.000000 1 0 0
-10.238767 -6.015655 -8.671220 14.704098 0.531205 2.201502 0.014132 -0.002475 -1343280.000000 1 0 0
-6.695667 0.191245 3.079380 7.372321 -0.028555 1.139890 -0.005244 -0.001702 -24904.900000 1 0 0
10.793633 -8.027655 1.227480 13.507497 -0.639483 1.479797 -0.000075 0.000012 -621611.000000 1 0 0
6.316233 0.964645 10.506180 12.296551 0.151554 0.546400 -0.004184 0.002930 134555.000000 1 0 0
-13.017367 5.392045 2.030680 14.235507 -0.392704 1.427659 -0.007073 0.001515 43957.500000 1 0 0
2.140733 7.286845 3.663680 8.432283 1.285055 1.121333 -0.005343 0.004569 109320.000000 1 0 0
10.061533 -9.534155 -0.801320 13.884404 -0.758492 1.628542 -0.000940 0.000602 730183.000000 1 0 0
6.615633 -11.837155 -9.125420 16.344972 -1.061156 2.163133 -0.013245 0.007096 -212147.000000 1 0 0
10.266933 3.552645 12.014480 16.198115 0.333132 0.735164 0.000856 0.004477 -615074.000000 1 0 0
-11.080167 -3.146555 -1.837820 11.663983 0.276696 1.729019 0.002599 -0.001252 -33169.400000 1 0 0
12.444133 0.964845 6.828780 14.227425 0.077379 1.070172 -0.001117 -0.004302 -453738.000000 1 0 0
-9.506267 9.138445 3.125280 13.551667 -0.765673 1.338082 -0.006837 -0.002211 1516690.000000 1 0 0
-6.572467 7.790345 -8.876320 13.515763 -0.869990 2.287282 0.001020 -0.002543 -900999.000000 1 0 0
8.500733 5.444945 12.089580 15.750170 0.569687 0.695733 -0.000030 0.002523 -2554290.000000 1 0 0
1.290233 4.772045 -2.700620 5.632980 1.306737 2.070801 0.002435 -0.000994 1271050.000000 1 0 0
1.260533 0.508245 9.573780 9.669774 0.383261 0.141022 0.003379 -0.001296 694686.000000 1 0 0
2.545033 12.600445 -3.973320 13.454950 1.371498 1.870572 0.001245 0.000954 431918.000000 1 0 0
2.226533 0.717145 12.928180 13.138097 0.311598 0.179000 -0.001180 -0.002557 73660.300000 1 0 0
-12.186667 -1.705755 0.858180 12.335353 0.139065 1.501169 -0.001411 -0.002604 -255906.000000 1 0 0
3.254833 8.782645 -1.301420 9.456346 1.215890 1.708858 0.002602 0.000088 500433.000000 1 0 0
3.653633 -2.874655 -5.781820 7.419037 -0.666636 2.464380 -0.005227 0.001170 -776575.000000 1 0 0
-7.687267 -7.219955 9.289780 14.054246 0.754060 0.848653 -0.000030 -0.002017 -452013.000000 1 0 0
-7.027767 10.918745 -3.396820 13.421881 -0.998903 1.826660 -0.003685 -0.000215 659649.000000 1 0 0
0.380833 0.408145 2.541980 2.602553 0.820001 0.216171 0.000684 -0.000524 -1977590.000000 1 0 0
-7.130267 4.602345 -1.954020 8.708644 -0.573181 1.797100 0.006124 -0.002612 -966807.000000 1 0 0
-7.025367 -3.838455 -5.894920 9.941810 0.500053 2.205504 0.009589 -0.004536 109425.000000 1 0 0
2.942833 -6.207255 13.449080 15.101922 -1.128086 0.472234 -0.003709 0.000915 -427233.000000 1 0 0
-5.584567 -0.477455 -11.583820 12.868575 0.085288 2.690941 0.013761 -0.005632 -629651.000000 1 0 0
11.777333 2.389845 -0.547320 12.029817 0.200201 1.616309 -0.004085 0.005774 -1703790.000000 1 0 0
6.192733 -11.032555 10.776980 16.619582 -1.059308 0.865249 0.002711 -0.000389 348243.000000 1 0 0
-8.056067 6.425145 -10.428020 14.660365 -0.673247 2.362152 -0.004232 -0.001490 706824.000000 1 0 0
2.964933 7.974045 11.289880 14.136393 1.214814 0.645765 -0.002177 0.000555 1190680.000000 1 0 0
-6.079067 -10.218555 -0.425320 11.897681 1.034132 1.606552 0.004294 0.004781 -562793.000000 1 0 0
11.334233 4.318345 6.034280 13.547158 0.364021 1.109144 -0.003564 0.000840 -282605.000000 1 0 0
-7.994667 10.675545 1.353280 13.405720 -0.928015 1.469676 -0.001310 -0.000140 160432.000000 1 0 0
4.212833 -2.764855 -3.471720 6.119250 -0.580787 2.174073 -0.003837 0.000002 -4832530.000000 1 0 0
6.379233 6.435745 6.289480 11.030457 0.789808 0.964057 -0.004430 0.002658 -6616870.000000 1 0 0
-0.336267 10.423845 -10.221220 14.602841 -1.538548 2.346120 0.002471 0.002538 153201.000000 1 0 0
14.061233 6.414045 -2.473220 15.651679 0.427957 1.729478 0.004890 0.008032 477877.000000 1 0 0
1.479933 9.443545 -6.183020 11.384221 1.415347 2.144947 -0.000093 0.001973 -219302.000000 1 0 0
0.821633 7.364945 7.350980 10.438123 1.459696 0.789439 -0.003198 0.005339 -40993.600000 1 0 0
12.210733 6.378345 1.899180 13.906551 0.481372 1.433801 -0.005663 0.006757 -2931040.000000 1 0 0
-6.761867 6.699145 -3.062120 9.998898 -0.780739 1.882043 0.001068 -0.004001 1166540.000000 1 0 0
1.022433 9.762045 11.298080 14.966279 1.466441 0.715291 0.001423 -0.002009 -1091030.000000 1 0 0
-3.521167 13.606445 -10.966220 17.826720 -1.317565 2.233381 -0.003349 0.001138 63042.900000 1 0 0
-10.135267 -5.504055 -2.301320 11.760711 0.497499 1.767746 0.003613 -0.000957 -731782.000000 1 0 0
-4.061067 4.033845 -12.381620 13.640699 -0.782035 2.708559 0.008030 -0.010439 -515214.000000 1 0 0
-3.136567 8.543345 2.472080 9.430693 -1.218938 1.305566 0.000829 0.004443 -1512730.000000 1 0 0
7.046333 8.909145 7.118680 13.405196 0.901623 1.010970 -0.001636 0.001625 -435218.000000 1 0 0
-1.404267 -2.304355 -8.177520 8.611263 1.023496 2.822852 0.005705 -0.005835 -1024460.000000 1 0 0
0.800733 -1.359455 4.764480 5.018921 -1.038497 0.319783 0.002773 -0.002518 123981.000000 1 0 0
2.660433 -8.787855 -6.091320 11.018551 -1.276828 2.156546 -0.013294 0.005979 538040.000000 1 0 0
5.312533 3.928845 8.767880 10.978823 0.636775 0.645802 -0.002629 0.000261 948306.000000 1 0 0
6.237033 -7.460455 -2.803920 10.120323 -0.874479 1.851528 -0.005019 0.001020 717089.000000 1 0 0
1.852333 2.308545 -8.263520 8.777601 0.894605 2.797650 0.002632 -0.003609 82020.600000 1 0 0
-5.317867 10.969345 -0.691020 12.209986 -1.119388 1.627421 -0.005489 0.000552 503624.000000 1 0 0
-5.489667 3.293145 -3.458920 7.276357 -0.540332 2.066174 0.007006 -0.002623 673395.000000 1 0 0
1.938733 13.658245 -6.436420 15.222807 1.429792 2.007345 -0.010504 0.003401 640708.000000 1 0 0
-5.115267 -2.590955 2.754780 6.361432 0.468845 1.122929 -0.002980 0.000707 484927.000000 1 0 0
10.272533 -3.444955 -1.919820 11.003561 -0.323570 1.746166 -0.003628 0.001609 299079.000000 1 0 0
2.419133 -3.370755 7.103880 8.226744 -0.948301 0.528607 0.000392 -0.001283 -2510960.000000 1 0 0
-2.845567 9.977545 -11.654020 15.603360 -1.292975 2.414172 0.002821 0.003364 -2231800.000000 1 0 0
0.547733 -2.007855 9.309780 9.539576 -1.304481 0.219936 0.004802 -0.002658 266805.000000 1 0 0
9.504733 2.641945 5.006180 11.062625 0.271117 1.101195 -0.004180 0.000441 1018420.000000 1 0 0
13.341133 2.022245 -5.106120 14.427327 0.150435 1.932555 0.000271 0.007234 -2024490.000000 1 0 0
-6.505367 3.806445 7.693980 10.770615 -0.529409 0.775103 -0.001892 0.000391 123403.000000 1 0 0
10.547133 0.073845 1.728580 10.688099 0.007001 1.408353 -0.003709 0.001858 1175250.000000 1 0 0
15.346333 6.529745 -4.753020 17.341820 0.402287 1.848428 0.007645 0.006282 -61243.800000 1 0 0
7.936933 -4.885955 -9.382820 13.225157 -0.551809 2.359539 -0.000135 -0.000958 442559.000000 1 0 0
4.518833 5.654845 -2.124220 7.543834 0.896599 1.856240 0.000842 -0.000829 243280.000000 1 0 0
-1.647167 -10.534055 1.393080 10.752681 1.415686 1.440875 -0.000926 0.002987 -1118810.000000 1 0 0
-2.815467 12.332345 -12.892820 18.062070 -1.346344 2.365715 0.001198 0.001275 -18960.600000 1 0 0
8.376033 4.291545 -9.591420 13.437657 0.473487 2.365665 -0.002270 0.002800 -991717.000000 1 0 0
4.171033 7.579445 -8.984820 12.472870 1.067716 2.375102 -0.000127 0.001035 -1659800.000000 1 0 0
-1.746667 -5.032855 -2.426920 5.854094 1.236749 1.998264 0.003651 0.000808 222601.000000 1 0 0
-3.216567 -8.952255 7.440480 12.076834 1.225858 0.907021 0.001468 0.001827 -1612870.000000 1 0 0
1.078233 7.099945 -1.356320 7.308311 1.420083 1.757464 0.003397 -0.001192 2230300.000000 1 0 0
0.504533 -0.500355 -2.262120 2.371096 -0.781240 2.837236 0.002093 -0.002374 -2042710.000000 1 0 0
4.208433 -6.741255 7.555680 10.965570 -1.012715 0.810637 -0.000529 0.000341 -961338.000000 1 0 0
-13.850167 3.798145 6.080380 15.595642 -0.267651 1.170298 -0.003724 -0.005998 -582187.000000 1 0 0
4.282733 6.310845 12.579980 14.711372 0.974557 0.545015 0.001013 -0.001535 -938721.000000 1 0 0
8.247333 10.092245 -7.201420 14.890680 0.885658 2.075581 0.008071 0.001250 437214.000000 1 0 0
12.425133 5.224145 9.487880 16.483188 0.398010 0.957447 0.014991 0.000251 -162441.000000 1 0 0
7.621833 3.979645 0.408980 8.607972 0.481200 1.523267 -0.002380 0.004302 -2305280.000000 1 0 0
-10.753967 -7.554055 -1.034720 13.182648 0.612364 1.649368 0.004180 0.001723 -1038450.000000 1 0 0
10.408133 6.822345 0.105080 12.445267 0.580219 1.562353 -0.005284 0.004313 -1098820.000000 1 0 0
14.534133 3.674745 4.150880 15.555532 0.247646 1.300681 0.002611 0.000947 471651.000000 1 0 0
2.283933 5.538145 8.275780 10.216454 1.179646 0.626569 -0.007804 0.002796 482896.000000 1 0 0
4.300833 -0.059055 11.702080 12.467531 -0.013730 0.352234 -0.000059 0.001962 -583681.000000 1 0 0
-1.288767 -1.693055 -0.749720 2.255978 0.920161 1.909565 0.003030 -0.002356 -868053.000000 1 0 0
2.925033 -5.329455 -9.547720 11.318916 -1.068842 2.574598 -0.009780 0.003044 737718.000000 1 0 0
-4.029667 -5.339455 -1.356520 6.825551 0.924296 1.770870 0.005157 -0.000013 -1924010.000000 1 0 0
-0.994967 -8.407755 8.413180 11.935741 1.453005 0.788552 0.001223 0.003419 -1025330.000000 1 0 0
3.979233 8.578045 -5.958120 11.176598 1.136455 2.133044 0.002268 0.001529 116254.000000 1 0 0
-14.359667 -1.763855 -2.556920 14.691802 0.122222 1.745724 -0.002206 -0.000849 -1077670.000000 1 0 0
8.648233 -10.576555 -6.635020 15.188118 -0.885368 2.022897 -0.014065 0.002190 502579.000000 1 0 0
14.695333 6.212345 1.744480 16.049587 0.399957 1.461888 -0.009815 0.008245 -1523800.000000 1 0 0
-5.799567 0.447645 -8.536520 10.329934 -0.077033 2.543457 0.015252 -0.010261 -825013.000000 1 0 0
-8.053067 -4.561255 -12.887420 15.866396 0.515347 2.518789 0.011389 -0.003058 833090.000000 1 0 0
0.921433 -10.684455 12.054880 16.134645 -1.484769 0.727044 -0.009207 0.002610 -188318.000000 1 0 0
0.283133 11.772445 3.333380 12.238548 1.546750 1.294944 0.000061 0.004175 -1007020.000000 1 0 0
5.044233 -13.372855 -3.773020 14.782193 -1.210099 1.828893 -0.001945 0.004138 115081.000000 1 0 0
-7.507667 1.622445 -6.997220 10.390307 -0.212832 2.309645 0.005350 -0.001933 803882.000000 1 0 0
1.585733 2.720645 4.083180 5.156435 1.043081 0.656946 -0.001626 0.001550 -1246950.000000 1 0 0
17.153733 5.593545 1.919780 18.144527 0.315211 1.464793 -0.006696 0.002622 -294872.000000 1 0 0
2.366533 -8.181755 -3.614720 9.252448 -1.289235 1.972163 -0.009864 0.004660 170590.000000 1 0 0
-0.262567 -9.523955 -0.605720 9.546809 1.543234 1.634286 0.001994 0.004121 -978761.000000 1 0 0
0.706933 11.770645 -5.583420 13.046931 1.510809 2.013018 -0.003322 0.002416 -155578.000000 1 0 0
6.096733 -5.021255 7.857380 11.140987 -0.688965 0.787995 0.000024 -0.000337 -921885.000000 1 0 0
-6.097367 -1.888655 -9.410320 11.370973 0.300377 2.545568 0.015664 -0.008441 -381410.000000 1 0 0
2.099333 -1.284655 11.345480 11.609370 -0.549149 0.213623 0.000422 -0.000212 -22871.600000 1 0 0
17.879433 2.080145 -5.781120 18.905620 0.115822 1.881563 -0.005140 0.011694 -242383.000000 1 0 0
-8.964267 4.685745 7.961780 12.872616 -0.481653 0.903957 -0.004908 -0.004607 -788364.000000 1 0 0
11.377833 -7.184555 -5.024420 14.363764 -0.563225 1.928152 0.004150 -0.003052 -77976.400000 1 0 0
10.969533 0.467445 8.969380 14.177410 0.042587 0.885822 -0.001457 -0.000100 -702381.000000 1 0 0
-8.370367 -7.256655 -1.647120 11.199781 0.714250 1.718399 0.007594 0.000545 -1177550.000000 1 0 0
10.256433 -10.413155 -3.251520 14.973330 -0.792980 1.789694 0.001569 -0.000782 -1120720.000000 1 0 0
7.560733 -13.804955 -3.750620 16.180501 -1.069734 1.804723 0.000210 -0.001700 -2397700.000000 1 0 0
1.743033 -1.143255 -11.666520 11.851282 -0.580512 2.964784 0.002372 -0.003955 231775.000000 1 0 0
-11.892567 -2.553955 -6.413720 13.751059 0.211539 2.056032 0.006058 -0.000986 332464.000000 1 0 0
2.665933 -12.387355 -6.454920 14.220399 -1.358816 2.041956 -0.009652 0.007961 -489274.000000 1 0 0
-5.427567 1.504345 1.092580 5.737183 -0.270380 1.379188 -0.001443 -0.000685 579390.000000 1 0 0
0.073133 6.817045 -3.976920 7.892613 1.560069 2.098880 0.005766 -0.001461 1137030.000000 1 0 0
5.461333 -11.763455 3.720880 13.492590 -1.136145 1.291403 -0.004733 0.000014 -1141370.000000 1 0 0
-4.260867 -9.299955 1.088580 10.287330 1.141177 1.464780 0.002510 0.004507 3798.230000 1 0 0
7.068933 -6.085755 -4.834620 10.506178 -0.710797 2.048982 -0.004349 0.000168 1263170.000000 1 0 0
-7.042767 -6.029155 2.168080 9.521126 0.708012 1.341068 -0.002792 0.001963 142313.000000 1 0 0
-6.084167 -0.691755 7.272380 9.507004 0.113211 0.699833 -0.005928 0.000149 -1312630.000000 1 0 0
4.121933 -5.050255 3.308580 7.310411 -0.886265 1.101135 -0.000053 0.000911 -482235.000000 1 0 0
-2.404367 10.691845 -8.776120 14.039829 -1.349597 2.246040 0.000274 0.002599 -800961.000000 1 0 0
-2.348167 -4.875055 2.859780 6.120326 1.121920 1.084608 -0.001018 0.000569 -1205540.000000 1 0 0
15.024733 5.131645 6.413980 17.123537 0.329124 1.186862 0.014165 -0.002589 1110780.000000 1 0 0
6.788333 0.298645 0.167080 6.796953 0.043966 1.546212 -0.000744 0.000484 2930650.000000 1 0 0
-9.707267 9.203745 0.424380 13.383574 -0.758779 1.539082 -0.006969 -0.001642 -2405280.000000 1 0 0
7.204733 10.517045 -2.606020 13.011831 0.970173 1.772441 -0.000693 0.000398 -803526.000000 1 0 0
1.577633 -4.310155 -5.526420 7.183848 -1.219916 2.448516 -0.003010 0.002057 -903488.000000 1 0 0
0.802533 -8.147755 -7.927120 11.396017 -1.472616 2.340057 -0.009495 0.006528 -37116.700000 1 0 0
-10.497567 0.385245 -10.392920 14.777013 -0.036682 2.350849 0.001985 -0.004425 -3250310.000000 1 0 0
5.662733 -2.439255 0.598480 6.194731 -0.406736 1.474034 -0.001521 -0.001297 335267.000000 1 0 0
-3.405067 5.330945 -1.049620 6.412110 -1.002380 1.735230 0.004195 -0.003046 1262940.000000 1 0 0
-0.248967 4.521745 -5.180220 6.880613 -1.515792 2.423211 0.006381 -0.003608 -1381200.000000 1 0 0
3.974233 -9.855655 9.981580 14.579452 -1.187497 0.816696 -0.005382 0.001953 -510724.000000 1 0 0
7.351733 -13.560855 -0.763120 15.444323 -1.074016 1.620227 0.004471 0.002378 701122.000000 1 0 0
13.077533 -0.167655 0.514880 13.088739 -0.012819 1.531449 -0.002785 0.001406 351503.000000 1 0 0
9.301133 2.348745 -0.701020 9.618685 0.247351 1.643742 -0.004254 0.004424 62099.900000 1 0 0
-0.765867 -5.730855 4.667680 7.430780 1.437944 0.891617 -0.002287 0.001942 -21885.500000 1 0 0
11.410333 -3.790055 3.265580 12.458902 -0.320694 1.305590 -0.001570 -0.002925 -3232380.000000 1 0 0
1.798433 -8.229955 11.734080 14.444901 -1.355655 0.622654 -0.007729 0.001549 342146.000000 1 0 0
9.406833 -6.031855 -6.143420 12.751995 -0.570179 2.073460 -0.004423 -0.002143 -905429.000000 1 0 0
3.259333 6.393745 -0.154220 7.178232 1.099364 1.592282 -0.000216 0.002558 -1719110.000000 1 0 0
6.536333 -1.451355 11.500780 13.307818 -0.218499 0.527214 -0.004362 0.004909 452161.000000 1 0 0
-4.788967 -7.564555 -3.930320 9.777735 1.006408 1.984460 0.009974 -0.000344 771097.000000 1 0 0
-3.479467 -8.561855 -5.895020 10.961903 1.184792 2.138590 0.005094 0.001830 -318384.000000 1 0 0
9.782533 5.395145 2.167980 11.380056 0.504000 1.379118 -0.004965 0.002537 -283569.000000 1 0 0
8.871333 -1.399655 0.255980 8.984715 -0.156483 1.542302 -0.001679 0.000879 1403640.000000 1 0 0
-3.803567 9.639945 9.177480 13.842753 -1.194986 0.846003 0.000840 -0.002656 287738.000000 1 0 0
-14.391667 -3.474055 -5.949320 15.955674 0.236862 1.952892 -0.008078 0.003440 -676230.000000 1 0 0
10.650433 6.310745 -5.950720 13.735658 0.534912 2.018871 -0.000640 0.001438 -1358530.000000 1 0 0
-1.831967 4.464645 2.632480 5.497191 -1.181419 1.071421 0.001459 0.001881 429894.000000 1 0 0
7.013433 -3.703555 2.582380 8.341058 -0.485847 1.256025 -0.000718 -0.002737 -2128800.000000 1 0 0
8.258533 -11.107455 -1.590220 13.932255 -0.931460 1.685185 0.002092 -0.001105 -547202.000000 1 0 0
4.457333 0.498645 1.845380 4.849937 0.111407 1.180464 0.000710 -0.000422 778698.000000 1 0 0
-10.710267 2.430345 3.830480 11.631379 -0.223139 1.235210 -0.008471 -0.001038 256015.000000 1 0 0
-0.862267 -3.090455 4.483680 5.513420 1.298706 0.621115 0.002194 -0.000731 362101.000000 1 0 0
8.369333 -8.763655 -8.680320 14.906218 -0.808409 2.192387 0.000949 0.000892 -802115.000000 1 0 0
12.017133 -4.848655 0.942480 12.992660 -0.383501 1.498193 -0.001468 -0.000865 229060.000000 1 0 0
2.938233 4.843745 3.547480 6.684287 1.025535 1.011347 -0.003920 0.001697 -762204.000000 1 0 0
6.141533 7.656845 1.957680 10.008907 0.894778 1.373933 -0.001844 0.003369 -717715.000000 1 0 0
-1.694067 -1.319255 -10.325020 10.545915 0.661649 2.936558 0.011081 -0.006728 162296.000000 1 0 0
-1.085667 -8.582555 5.874580 10.457037 1.444968 0.974257 -0.006692 0.000349 -66956.200000 1 0 0
-4.211167 -0.254755 2.204580 4.760147 0.060421 1.089270 -0.001193 0.000164 736394.000000 1 0 0
-8.411267 6.332945 -7.860320 13.139263 -0.645362 2.212089 -0.005205 -0.001078 -924239.000000 1 0 0
6.430633 11.177445 -9.462320 15.994493 1.048720 2.203837 0.002289 0.001577 410936.000000 1 0 0
-11.103667 -5.801155 3.061280 12.896366 0.481449 1.331133 -0.001992 -0.000246 1155140.000000 1 0 0
1.389033 -6.219755 2.999480 7.043554 -1.351076 1.130898 0.000308 -0.000104 1115790.000000 1 0 0
10.197833 2.205245 7.244880 12.702252 0.212967 0.963850 -0.001641 -0.000514 -1939550.000000 1 0 0
-4.067867 -2.453855 -10.629520 11.642836 0.542790 2.721293 0.008920 -0.006496 -2144550.000000 1 0 0
-8.330467 11.950945 6.022680 15.763707 -0.962050 1.178772 -0.000915 -0.000861 -841197.000000 1 0 0
6.941833 6.060645 -2.937420 9.672068 0.717731 1.879371 -0.000675 0.002332 -3147730.000000 1 0 0
3.892433 -9.921955 -2.425220 10.930595 -1.196941 1.794533 -0.008888 0.001768 53424.800000 1 0 0
8.446033 -12.899455 -7.367520 17.088352 -0.991083 2.016555 -0.003655 0.001571 793979.000000 1 0 0
-1.067167 9.443945 3.656180 10.183054 -1.458274 1.203551 0.001531 0.003523 -155693.000000 1 0 0
0.573133 -13.246155 4.640280 14.047110 -1.527555 1.234136 -0.000591 0.001334 -877800.000000 1 0 0
-11.196467 -6.920755 -5.135820 14.129203 0.553636 1.942807 0.007410 -0.003483 494509.000000 1 0 0
3.703033 10.345645 -3.494320 11.530616 1.227073 1.878685 0.006664 -0.002347 -1071440.000000 1 0 0
11.451333 -8.237855 -7.488720 15.971105 -0.623614 2.058832 0.010145 -0.004057 114942.000000 1 0 0
11.612833 -4.817355 -5.999520 13.930507 -0.393225 2.016037 0.001278 -0.003198 -100797.000000 1 0 0
1.359733 -10.430355 -2.777320 10.879094 -1.441164 1.828944 -0.008538 0.005112 -1644480.000000 1 0 0
2.401033 -12.171455 -3.983520 13.029877 -1.376029 1.881493 -0.006993 0.004681 -1664930.000000 1 0 0
-7.636067 -5.755655 7.300880 12.030791 0.645894 0.918705 -0.002117 0.000401 -2649480.000000 1 0 0
-7.261467 -0.760755 9.584480 12.048648 0.104385 0.650994 -0.006292 -0.000089 919695.000000 1 0 0
16.060033 2.578845 -7.577020 17.943978 0.159216 2.006733 -0.004460 0.009679 -11333.900000 1 0 0
-1.976267 6.280945 -5.503220 8.581453 -1.265959 2.266978 0.006060 -0.000947 -913065.000000 1 0 0
7.675833 1.103945 8.371480 11.411345 0.142841 0.747177 -0.002040 0.001231 147692.000000 1 0 0
7.989733 8.284045 -3.719520 12.095291 0.803481 1.883380 -0.002268 0.003758 1599080.000000 1 0 0
8.035933 0.649445 3.860980 8.938969 0.080642 1.124168 -0.004023 -0.002163 392412.000000 1 0 0
-6.950367 5.818345 5.465180 10.584372 -0.696973 1.028220 -0.000607 -0.003647 -20773.200000 1 0 0
-6.128267 -2.093055 -4.432820 7.847702 0.329119 2.171055 0.012301 -0.003849 -877669.000000 1 0 0
-15.096767 -2.140855 3.210280 15.582090 0.140870 1.363287 0.002289 -0.004892 261701.000000 1 0 0
1.110933 1.270245 -10.488520 10.623405 0.852203 2.982068 0.006020 -0.007435 549396.000000 1 0 0
1.454933 -9.254955 9.388380 13.263209 -1.414867 0.784345 -0.002550 -0.000891 -1217510.000000 1 0 0
-0.304967 -6.934655 -1.306120 7.063172 1.526847 1.756786 0.000765 0.004157 1172000.000000 1 0 0
-0.427067 -10.232055 -8.624120 13.388531 1.529082 2.270698 -0.003163 0.005503 -90705.800000 1 0 0
-4.279567 6.609045 3.792480 8.739398 -0.996158 1.121921 0.002074 0.000441 -5657.870000 1 0 0
10.720233 -1.276755 -8.766620 13.907089 -0.118539 2.252827 0.002957 -0.000180 44621.200000 1 0 0
2.947833 -1.030555 6.320480 7.049839 -0.336316 0.458895 0.001757 -0.000224 502939.000000 1 0 0
2.084433 -12.337855 6.583480 14.138944 -1.403431 1.086453 -0.001541 -0.000222 -142926.000000 1 0 0
2.883833 -4.881955 -1.402320 5.840931 -1.037234 1.813250 0.000023 0.002088 -1366570.000000 1 0 0
-0.899467 9.534145 -1.645720 9.716859 -1.476733 1.740984 0.003111 -0.001015 773524.000000 1 0 0
4.605033 -2.497755 2.773380 5.927626 -0.496987 1.083913 -0.000455 0.000865 -1556340.000000 1 0 0
17.595133 6.612045 -2.654420 18.982987 0.359462 1.711088 -0.013263 0.012763 316829.000000 1 0 0
-7.139567 3.563145 -5.432720 9.653179 -0.462903 2.168554 0.003826 -0.003020 -2744130.000000 1 0 0
-13.781167 -5.971455 2.234180 15.184545 0.408884 1.423125 0.001025 -0.002982 1657790.000000 1 0 0
6.606433 -6.033655 3.217680 9.508071 -0.740115 1.225564 -0.000031 -0.002299 219613.000000 1 0 0
-4.544467 1.928445 3.510380 6.057545 -0.401320 0.952675 -0.000938 -0.001672 798303.000000 1 0 0
6.755033 -12.124555 -5.496820 14.928172 -1.062490 1.947888 -0.005943 0.004608 -524659.000000 1 0 0
2.876833 -12.231955 3.176680 12.961026 -1.339804 1.323179 -0.000311 0.001148 106746.000000 1 0 0
3.318733 11.322845 -6.149420 13.305494 1.285681 2.051239 -0.002707 0.004939 336162.000000 1 0 0
-5.531867 -8.393655 6.421780 11.928716 0.988083 1.002323 0.001714 0.000721 -880816.000000 1 0 0
-3.923267 6.558645 6.386780 9.959860 -1.031714 0.874668 0.002952 0.000550 511548.000000 1 0 0
4.290333 4.264245 -6.998920 9.250709 0.782349 2.428866 -0.000686 0.001315 -2610300.000000 1 0 0
-0.305667 -2.791555 1.549480 3.207351 1.461734 1.066601 0.003203 0.000286 251676.000000 1 0 0
-13.166367 -0.894855 6.506380 14.713496 0.067861 1.112741 -0.004914 -0.002216 -307149.000000 1 0 0
-0.531267 -9.362355 -6.061920 11.166146 1.514112 2.144664 -0.003121 0.005131 239383.000000 1 0 0
1.957533 -1.767555 -3.930320 4.733244 -0.734443 2.550559 0.004191 0.000590 -1080040.000000 1 0 0
11.345333 -1.987055 1.161380 11.576432 -0.173384 1.470304 -0.003041 0.000974 710872.000000 1 0 0
0.480333 -4.362455 -1.854320 4.764476 -1.461132 1.970556 0.000800 0.001226 -2887110.000000 1 0 0
0.936133 -7.412155 -11.400620 13.630499 -1.445164 2.561488 -0.014169 0.007962 -1857220.000000 1 0 0
-4.381767 4.235445 -9.948320 11.666531 -0.768420 2.591973 0.008447 -0.006973 -3171.630000 1 0 0
-1.056767 5.762645 -2.133820 6.235224 -1.389429 1.920075 0.004503 -0.001705 -1698960.000000 1 0 0
-11.389367 1.855745 -3.859320 12.167819 -0.161517 1.893545 -0.002533 0.001041 449808.000000 1 0 0
-1.781667 -11.258155 4.181080 12.140915 1.413842 1.219219 -0.001191 0.001361 -466704.000000 1 0 0
-3.475667 -5.291955 -9.480620 11.400316 0.989667 2.552797 0.003690 0.002056 -1873770.000000 1 0 0
-12.944567 -3.764855 -8.306920 15.834799 0.283036 2.123040 0.003454 0.001376 -161330.000000 1 0 0
11.306633 4.533345 0.456980 12.190160 0.381321 1.533300 -0.004955 0.005680 257808.000000 1 0 0
-8.936167 -2.245355 -2.984020 9.685095 0.246170 1.883996 0.006447 -0.003005 -219031.000000 1 0 0
-2.464067 -6.110655 -6.432920 9.208376 1.187499 2.344227 0.001278 -0.000225 -284425.000000 1 0 0
-0.167267 2.743845 -1.777920 3.273784 -1.509911 2.144895 0.003126 -0.003565 -176929.000000 1 0 0
8.037533 6.139545 -5.219720 11.381627 0.652312 2.047226 -0.001960 0.002566 -202009.000000 1 0 0
-9.831767 -0.905455 -0.929520 9.917031 0.091836 1.664664 0.000766 -0.002076 196572.000000 1 0 0
6.281833 0.568745 -8.826620 10.848692 0.090292 2.521133 -0.004615 0.001564 480797.000000 1 0 0
-4.112467 2.481545 7.912180 9.255974 -0.542930 0.545595 -0.001646 0.001814 -2024770.000000 1 0 0
-10.081267 -3.270755 1.494880 10.703478 0.313724 1.430675 -0.003597 -0.000274 1592390.000000 1 0 0
-1.920067 -8.239155 -7.903620 11.577458 1.341841 2.322211 0.001179 0.000474 470187.000000 1 0 0
-9.329967 -9.769455 4.196980 14.145854 0.808405 1.269568 -0.004703 0.003523 -850920.000000 1 0 0
-1.147067 -10.670855 7.370180 13.019311 1.463712 0.969034 -0.002259 -0.001760 121085.000000 1 0 0
9.548033 3.794045 -3.794420 10.952504 0.378232 1.924573 -0.005093 0.004577 -380961.000000 1 0 0
12.695833 -0.696755 3.044180 13.074275 -0.054826 1.335802 -0.004297 -0.001347 -623080.000000 1 0 0
6.507133 11.926045 -6.937720 15.254681 1.071319 2.042936 -0.000663 0.004045 -335661.000000 1 0 0
-11.996867 -0.073955 -6.391020 13.593212 0.006164 2.060271 -0.003795 0.002370 308134.000000 1 0 0
-7.713667 -6.601355 -11.220120 15.131742 0.707852 2.406093 0.014790 -0.007660 -616044.000000 1 0 0
4.147133 6.031845 6.575780 9.839855 0.968482 0.838902 -0.005129 0.003462 -3715510.000000 1 0 0
-4.332467 -1.380855 -7.339020 8.633553 0.308544 2.586891 0.014207 -0.009561 -633468.000000 1 0 0
9.699433 9.352945 0.835680 13.500183 0.767214 1.508855 0.002729 0.003476 -1589090.000000 1 0 0
-8.760167 3.922345 4.963480 10.805621 -0.420979 1.093542 -0.004740 -0.001616 -337726.000000 1 0 0
-6.901567 7.960645 -12.167720 16.095245 -0.856538 2.427950 -0.004328 -0.002133 -1193570.000000 1 0 0
11.117633 -3.616655 7.277980 13.771382 -0.314510 1.013980 0.000066 -0.002705 346451.000000 1 0 0
11.792933 6.942345 6.480780 15.141662 0.532060 1.128507 0.000745 0.001121 408483.000000 1 0 0
-10.049867 -0.714455 -14.652320 17.782034 0.070972 2.539224 0.010326 -0.002961 406558.000000 1 0 0
1.809533 -13.116155 11.979680 17.855550 -1.433700 0.835345 -0.015360 0.004076 421618.000000 1 0 0
2.954033 3.122545 13.025380 13.716309 0.813122 0.318752 -0.001634 -0.003906 -1214370.000000 1 0 0
-2.509767 -1.329155 10.984980 11.346161 0.487041 0.252995 0.005911 -0.000849 -862175.000000 1 0 0
2.444833 -10.150655 -8.216120 13.285994 -1.334443 2.237507 -0.016125 0.010197 -1476870.000000 1 0 0
13.840933 3.674445 -7.568220 16.197251 0.259491 2.056978 -0.000766 0.006872 -2339360.000000 1 0 0
7.422833 -1.533155 4.993380 9.076501 -0.203682 0.988260 -0.002573 -0.001573 -74595.800000 1 0 0
-1.189767 8.751145 10.155980 13.458901 -1.435669 0.715764 -0.000843 -0.001209 -237007.000000 1 0 0
-12.182567 -4.609855 0.901080 13.056709 0.361746 1.501729 -0.002706 -0.001005 -22470.200000 1 0 0
-4.886667 4.865545 -5.353320 8.729895 -0.783232 2.230923 0.006983 -0.004887 21007.600000 1 0 0
-11.189767 0.426945 2.041880 11.382550 -0.038136 1.390433 -0.005674 0.000629 -2985930.000000 1 0 0
-1.428267 2.296245 -4.057020 4.875664 -1.014356 2.553672 0.006342 -0.006144 882989.000000 1 0 0
3.206233 -9.853755 13.110480 16.711107 -1.256219 0.668847 -0.006775 0.003382 -2196260.000000 1 0 0
8.873133 4.678745 -1.608420 10.159240 0.485243 1.729786 -0.004388 0.002404 -1485100.000000 1 0 0
4.118233 2.317345 3.750580 6.032975 0.512544 0.899910 -0.003432 0.001044 506325.000000 1 0 0
-5.565067 -3.238555 7.555080 9.926603 0.527037 0.705798 -0.002431 -0.000338 65895.900000 1 0 0
1.786733 -5.857455 7.681580 9.823893 -1.274726 0.673043 -0.001048 -0.000415 -243172.000000 1 0 0
-5.785167 -6.053255 -9.731620 12.838009 0.808040 2.431086 0.014863 -0.003151 -1187190.000000 1 0 0
-11.636267 -5.828955 5.394780 14.088402 0.464391 1.177837 -0.002794 -0.000855 -1499620.000000 1 0 0
10.650833 6.174545 4.390980 13.070806 0.525377 1.228195 -0.003040 0.003925 -163712.000000 1 0 0
1.456233 -3.721055 0.421280 4.018002 -1.197769 1.465755 0.005754 -0.000190 -722976.000000 1 0 0
8.850133 4.307145 6.933680 12.039613 0.452931 0.957085 -0.005153 0.003058 112280.000000 1 0 0
-7.928667 11.940745 3.546680 14.765639 -0.984641 1.328226 -0.003915 -0.002423 -197618.000000 1 0 0
-6.143767 13.205545 -6.911020 16.121243 -1.135340 2.013839 0.001922 -0.006370 226237.000000 1 0 0
4.388733 -6.987155 -0.996220 8.311063 -1.009961 1.690952 -0.003356 0.001542 -156869.000000 1 0 0
-1.923667 -8.132655 10.977780 13.796820 1.338529 0.650676 0.001444 -0.004095 -789474.000000 1 0 0
11.531333 8.807045 -5.784120 15.620234 0.652243 1.950125 0.011927 0.000592 482513.000000 1 0 0
-3.403167 -2.927255 -1.940520 4.890397 0.710361 1.978827 0.007376 -0.001235 -3013010.000000 1 0 0
-2.033867 5.995345 4.671480 7.867878 -1.243738 0.935096 0.000054 0.002526 -1301980.000000 1 0 0
0.327733 -11.593655 -5.758720 12.949251 -1.542536 2.031652 -0.005165 0.001092 214356.000000 1 0 0
-8.905867 6.224745 -1.472220 10.964914 -0.610020 1.705469 0.001350 -0.000976 -1055030.000000 1 0 0
2.924733 -0.011955 3.909580 4.882522 -0.004088 0.642284 -0.000653 -0.000082 308378.000000 1 0 0
-10.079067 4.037445 -0.947420 10.898906 -0.381004 1.657834 0.001822 0.000106 -148773.000000 1 0 0
6.487133 5.438745 13.593780 16.014172 0.697715 0.556973 0.005454 -0.000213 -981195.000000 1 0 0
-8.694467 -1.620755 5.693380 10.518326 0.184297 0.998835 -0.008153 0.000134 -524440.000000 1 0 0
12.873733 -1.868155 -1.575020 13.103576 -0.144108 1.691285 -0.000828 0.003779 -692744.000000 1 0 0
5.337633 -5.479355 5.462680 9.399709 -0.798499 0.950650 -0.002417 -0.001736 -33703.700000 1 0 0
-9.042067 -1.184755 3.184280 9.659309 0.130285 1.234854 -0.006513 -0.000473 978422.000000 1 0 0
1.923733 5.363045 5.621880 8.004283 1.226391 0.792090 -0.002737 0.002862 -442092.000000 1 0 0
9.228533 2.960845 -7.434820 12.215112 0.310461 2.225164 -0.002956 0.003323 -809206.000000 1 0 0
2.095833 -2.355755 -1.542320 3.510107 -0.843721 2.025720 0.004230 0.000138 14251.400000 1 0 0
-6.303567 0.397645 -3.904720 7.425625 -0.062999 2.124503 0.006869 -0.002538 -2147900.000000 1 0 0
-4.001667 4.205345 5.060680 7.701217 -0.810211 0.853795 0.000114 0.000525 747842.000000 1 0 0
-6.503467 1.815145 -12.325220 14.053500 -0.272178 2.640423 0.006496 -0.003956 -1049140.000000 1 0 0
0.024333 3.182445 6.283280 7.043306 1.563150 0.468841 -0.002202 0.001276 1040520.000000 1 0 0
-8.764567 9.432545 -2.153320 13.054782 -0.822090 1.736498 -0.005778 -0.000391 738842.000000 1 0 0
-1.262167 -3.817455 -6.131020 7.331809 1.251480 2.561154 -0.000931 -0.001420 -216572.000000 1 0 0
-3.341767 7.066145 -2.845120 8.318204 -1.129041 1.919878 0.003717 0.001107 1057560.000000 1 0 0
6.911233 -0.375655 -4.210420 8.101475 -0.054301 2.117308 -0.002516 0.003085 -175690.000000 1 0 0
-5.112667 -10.830355 6.950480 13.847207 1.129743 1.044955 -0.001183 -0.000832 210641.000000 1 0 0
9.738633 8.388045 -1.486820 12.938737 0.711027 1.685963 -0.001161 0.004361 343735.000000 1 0 0
13.630833 4.562345 -4.463120 15.051048 0.322987 1.871856 -0.002559 0.004021 453726.000000 1 0 0
4.735333 1.116045 -6.787720 8.351172 0.231461 2.519716 -0.005701 0.000670 -457599.000000 1 0 0
8.935933 -4.810155 3.640780 10.781641 -0.493811 1.226342 -0.002002 -0.003334 -482276.000000 1 0 0
-8.706667 -3.179855 -0.672920 9.293565 0.350170 1.643267 0.003885 -0.001835 487854.000000 1 0 0
-8.640867 -4.134255 -10.432420 14.163051 0.446262 2.398817 0.016738 -0.005261 -274452.000000 1 0 0
10.464333 -1.071755 10.802480 15.077948 -0.102064 0.772107 -0.001383 0.004348 1004520.000000 1 0 0
2.158333 -11.715155 9.808580 15.430862 -1.388605 0.881950 -0.007831 -0.000580 747211.000000 1 0 0
-6.281267 -10.633555 2.020080 12.514293 1.037241 1.408665 0.001549 0.005288 -873111.000000 1 0 0
-3.705967 -1.608155 6.640280 7.772623 0.409416 0.546562 -0.000959 -0.000897 -1008730.000000 1 0 0
4.643033 -7.559055 3.965780 9.717226 -1.019976 1.150404 -0.001238 0.000323 598566.000000 1 0 0
11.397333 -9.594155 -5.291920 15.809852 -0.699708 1.912107 0.004708 -0.003232 578568.000000 1 0 0
11.384933 1.187745 11.466080 16.201804 0.103950 0.784553 0.002470 0.005544 -75578.800000 1 0 0
-10.098367 -3.515055 4.394880 11.560605 0.334965 1.180827 -0.001596 -0.001330 1600490.000000 1 0 0
1.986833 8.861145 9.017680 12.797889 1.350226 0.788905 -0.002850 0.002710 -525774.000000 1 0 0
6.588233 8.843245 4.065880 11.753263 0.930502 1.217560 -0.001830 0.004060 405399.000000 1 0 0
-4.323967 3.647245 0.442980 5.674092 -0.700706 1.492646 0.004116 -0.003506 -1712010.000000 1 0 0
4.974133 6.887645 4.157280 9.458575 0.945338 1.115727 -0.003298 0.002625 -1261260.000000 1 0 0
-8.189967 13.083845 1.237180 15.485257 -1.011507 1.490817 -0.008307 -0.002634 -958726.000000 1 0 0
8.879633 8.192545 -9.201920 15.186869 0.745174 2.221709 0.002990 0.001420 -1646500.000000 1 0 0
7.069933 1.909045 6.004580 9.470132 0.263733 0.884011 -0.005894 0.001336 -144385.000000 1 0 0
11.485833 -6.261555 2.989380 13.418935 -0.499116 1.346138 0.000080 -0.002332 -61247.900000 1 0 0
11.393333 4.664245 -2.120620 12.492408 0.388570 1.741375 -0.002281 0.004984 190117.000000 1 0 0
-3.918167 14.341045 -5.917720 16.001157 -1.304092 1.949623 -0.004005 0.001274 333388.000000 1 0 0
7.190533 -3.006455 6.883280 10.398177 -0.396023 0.847352 -0.001031 -0.001966 -431301.000000 1 0 0
-7.991567 -0.357155 0.883280 8.048160 0.044662 1.460825 -0.002087 -0.000791 318782.000000 1 0 0
-3.203867 1.086545 10.629280 11.154683 -0.326963 0.308143 0.002947 -0.001174 32721.900000 1 0 0
6.992833 -1.170655 -1.849120 7.327305 -0.165870 1.825915 -0.001607 0.002245 -1329450.000000 1 0 0
-7.681567 5.437045 3.065980 9.897887 -0.615944 1.255855 0.000113 -0.000680 608308.000000 1 0 0
9.475333 -2.163055 2.897680 10.141859 -0.224437 1.281044 -0.003637 -0.001236 -1944210.000000 1 0 0
0.270933 3.387445 1.629380 3.768696 1.490985 1.123704 0.000171 0.001816 -2051170.000000 1 0 0
-7.519767 -3.093155 3.939680 9.035241 0.390241 1.119608 -0.006834 0.000506 -538033.000000 1 0 0
-2.139667 8.383745 -6.782420 10.993933 -1.320914 2.235624 0.000994 -0.000018 -297747.000000 1 0 0
4.463133 9.739445 7.344080 12.988913 1.141100 0.969864 -0.005472 0.006747 349346.000000 1 0 0
-11.736967 -3.156755 6.888980 13.970667 0.262741 1.055143 -0.001934 -0.000543 -980708.000000 1 0 0
-4.824067 2.378345 -5.712520 7.846084 -0.458045 2.386303 0.011173 -0.007828 -733044.000000 1 0 0
-2.841467 2.910245 -1.814920 4.453919 -0.797355 1.990498 0.003341 -0.003196 1610130.000000 1 0 0
2.325933 5.275645 11.410280 12.784244 1.155551 0.467879 -0.001261 -0.004282 109222.000000 1 0 0
-0.666667 1.672845 4.514080 4.860018 -1.191564 0.379582 0.001906 -0.000313 -503309.000000 1 0 0
5.052633 1.519845 7.573280 9.230038 0.292193 0.608505 -0.003587 0.000479 -206921.000000 1 0 0
3.368233 -8.038155 1.860180 8.911633 -1.173993 1.360514 -0.000852 0.000612 2784770.000000 1 0 0
5.113333 6.494245 -4.615220 9.466871 0.903808 2.080035 0.002757 0.000863 -1789170.000000 1 0 0
-4.013567 2.930345 -7.940220 9.367109 -0.630649 2.582375 0.013130 -0.010026 686299.000000 1 0 0
-8.769967 -2.241555 -12.801820 15.678759 0.250237 2.526131 0.012815 -0.004696 1898580.000000 1 0 0
-7.798267 8.202645 1.264680 11.388405 -0.810665 1.459517 0.001792 -0.000990 -2073020.000000 1 0 0
7.407133 0.817645 -6.410420 9.829936 0.109941 2.281190 -0.004967 0.002491 466839.000000 1 0 0
8.983233 8.917745 5.465880 13.787694 0.781740 1.163169 -0.001912 0.004155 593861.000000 1 0 0
9.298133 -1.121655 -1.422520 9.472959 -0.120052 1.721533 -0.003545 0.002151 1532450.000000 1 0 0
5.478133 0.094045 4.330680 6.983808 0.017166 0.901922 -0.000906 0.000731 -1679790.000000 1 0 0
-4.224667 -7.195655 -7.949120 11.524485 1.039906 2.331953 0.008291 -0.004503 -1490660.000000 1 0 0
-2.166467 7.459445 -0.498720 7.783677 -1.288140 1.634913 0.002351 0.000653 -85757.600000 1 0 0
13.327133 -3.464455 -7.492620 15.676552 -0.254326 2.069117 0.004971 -0.003216 774351.000000 1 0 0
-4.775167 -5.055755 1.669880 7.152019 0.813932 1.335137 0.000231 -0.000062 3674370.000000 1 0 0
-8.875167 1.389945 2.514080 9.328512 -0.155349 1.297917 -0.006334 0.000613 -1245620.000000 1 0 0
-0.985467 11.167545 10.158480 15.128778 -1.482780 0.834609 -0.002625 -0.001857 248696.000000 1 0 0
-8.467367 0.308845 7.446480 11.280149 -0.036459 0.849791 -0.007687 -0.000428 -535771.000000 1 0 0
-6.095067 12.949045 -2.030620 14.455138 -1.130865 1.711740 -0.007029 0.000265 -555106.000000 1 0 0
-12.883367 -0.740255 3.317780 13.324293 0.057395 1.319146 -0.001384 -0.003402 115982.000000 1 0 0
-6.685567 12.777745 8.700680 16.842488 -1.088746 1.027931 0.010669 -0.011513 74995.700000 1 0 0
-8.108767 0.987145 -14.064520 16.264602 -0.121142 2.615413 0.009176 -0.001262 -46738.200000 1 0 0
7.223033 2.899345 3.769480 8.647970 0.381715 1.119780 -0.003426 0.001868 -221175.000000 1 0 0
-1.715567 0.697045 -1.947620 2.687427 -0.385931 2.381418 0.007523 -0.004175 201891.000000 1 0 0
-6.284567 9.735145 -10.376720 15.554586 -0.997553 2.301128 -0.001216 -0.001052 -243392.000000 1 0 0
-10.166967 13.767545 5.401680 17.946884 -0.934713 1.265075 -0.006896 -0.001612 969314.000000 1 0 0
-5.637767 8.286345 2.467180 10.321575 -0.973368 1.329428 0.000235 0.000484 -1012460.000000 1 0 0
-2.351667 -10.824955 -1.265620 11.149519 1.356875 1.684555 0.000093 0.004558 274453.000000 1 0 0
-2.216267 -12.516355 8.834980 15.479918 1.395543 0.963392 -0.003401 -0.002887 530620.000000 1 0 0
-14.684867 -6.537655 -1.560420 16.149958 0.418852 1.667568 0.007472 -0.000869 369654.000000 1 0 0
-2.682167 -9.313655 3.260580 10.225926 1.290401 1.246276 -0.001221 0.000856 -2588410.000000 1 0 0
4.663933 -2.737555 7.582780 9.313702 -0.530778 0.619527 -0.002642 0.001825 425664.000000 1 0 0
-15.005667 -1.321855 -0.116920 15.064229 0.087864 1.578558 -0.001709 -0.004092 -12209.800000 1 0 0
5.538533 8.844245 -2.810220 10.807097 1.011313 1.833854 0.000597 0.001532 -590647.000000 1 0 0
-5.598067 -5.721355 8.615480 11.760049 0.796289 0.748654 0.001289 -0.000590 -4115390.000000 1 0 0
3.410233 3.567645 6.974180 8.543827 0.807953 0.615850 -0.001364 0.000932 111164.000000 1 0 0
3.404333 2.148445 9.340780 10.171307 0.562968 0.406915 0.001355 -0.000887 228115.000000 1 0 0
9.944833 -3.239055 5.206080 11.683084 -0.314867 1.108943 -0.001381 -0.003058 -771955.000000 1 0 0
6.495433 10.055745 -5.087120 13.007207 0.997279 1.972623 0.001314 0.001197 88407.400000 1 0 0
-4.506867 12.114245 -8.494820 15.467021 -1.214632 2.152229 -0.001486 -0.001245 -277482.000000 1 0 0
-3.313767 -7.175955 2.178280 8.198798 1.138183 1.301884 0.000151 0.000111 991319.000000 1 0 0
-7.463567 -3.934855 1.161980 8.516931 0.485177 1.433938 -0.001116 -0.000074 1764430.000000 1 0 0
-1.988167 -3.908755 -10.935320 11.781867 1.100257 2.760203 0.005640 -0.002057 -1199450.000000 1 0 0
-5.213667 8.379645 -4.364520 10.791191 -1.014226 1.987176 0.001578 -0.003017 -1849030.000000 1 0 0
-11.029067 -3.185855 -10.152520 15.325262 0.281205 2.294907 0.011156 -0.003286 -1596360.000000 1 0 0
4.621033 -11.339455 -7.689420 14.459058 -1.183826 2.131529 -0.010564 0.003473 -2027710.000000 1 0 0
-9.303767 -4.006655 7.228880 12.444681 0.406645 0.950986 -0.006351 -0.000360 -135420.000000 1 0 0
-5.750367 -9.655055 -5.209820 12.386647 1.033632 2.004903 0.009346 -0.001530 618157.000000 1 0 0
4.889333 4.332945 -9.499620 11.529214 0.725140 2.539162 -0.003174 0.005813 346471.000000 1 0 0
-3.549367 -7.179455 -14.165420 16.272729 1.111656 2.627015 -0.003569 0.001974 36347.500000 1 0 0
0.578033 -0.796655 -8.762320 8.817427 -0.943111 3.029732 0.004061 -0.006631 -143424.000000 1 0 0
-7.819267 2.240245 -2.933520 8.646686 -0.279029 1.916932 0.006183 -0.002250 -804872.000000 1 0 0
-2.287967 7.564745 -12.575620 14.852824 -1.277092 2.580515 0.004263 -0.003487 -101674.000000 1 0 0
-9.762167 8.918645 7.692380 15.297544 -0.740274 1.043903 -0.003981 -0.006346 -618042.000000 1 0 0
-10.787567 -3.180455 -14.192320 18.108253 0.286703 2.471475 0.010483 -0.000840 -374828.000000 1 0 0
-3.398867 4.798945 7.932080 9.874212 -0.954553 0.637959 0.001417 0.000009 124588.000000 1 0 0
8.601633 -2.291055 -3.625720 9.611601 -0.260308 1.957593 -0.002028 0.002423 -5377730.000000 1 0 0
1.932533 -8.505455 -1.235420 8.809297 -1.347378 1.711501 -0.003316 0.003844 -1053750.000000 1 0 0
-13.425967 -2.865955 5.006780 14.612944 0.210307 1.221085 0.001245 -0.006460 475827.000000 1 0 0
7.103933 2.757345 -1.972320 7.871395 0.370244 1.824063 -0.002728 0.002056 30831.300000 1 0 0
-11.227767 4.625545 9.247080 15.263254 -0.390786 0.919976 -0.005883 -0.004412 -2617040.000000 1 0 0
-1.639067 -2.479455 7.940480 8.478530 0.986686 0.358170 0.001874 -0.001516 -1551600.000000 1 0 0
3.086233 11.973545 -9.966620 15.881566 1.318533 2.249210 -0.005697 0.001976 443037.000000 1 0 0
3.533933 -4.999055 -7.182820 9.437803 -0.955441 2.435756 -0.010757 0.002180 246587.000000 1 0 0
8.325933 -13.692555 -9.782120 18.774906 -1.024469 2.118843 -0.003747 0.006725 -248294.000000 1 0 0
-6.325167 -5.725255 -0.390020 8.540398 0.735656 1.616480 0.006656 0.000390 -192942.000000 1 0 0
-1.141867 -3.964655 9.897580 10.723080 1.290374 0.394948 0.001240 -0.000828 452323.000000 1 0 0
2.873533 3.360745 1.764680 4.760871 0.863390 1.191073 -0.004334 0.001669 -207853.000000 1 0 0
-9.127367 13.498645 7.909580 18.113081 -0.976244 1.118894 0.001490 -0.008588 -98098.200000 1 0 0
4.029633 -11.209455 -0.122420 11.912381 -1.225697 1.581073 -0.001617 0.001220 -564975.000000 1 0 0
-12.570967 -1.399355 -9.051720 15.553811 0.110860 2.191935 0.000928 -0.001160 204646.000000 1 0 0
-4.232767 0.957445 -13.408620 14.093406 -0.222455 2.828582 0.010025 -0.006667 476310.000000 1 0 0
3.946133 -3.085855 4.969980 7.056569 -0.663665 0.789352 -0.000872 0.000586 26707.600000 1 0 0
1.715633 -1.218655 1.089580 2.369747 -0.617621 1.093040 0.001913 -0.000651 301056.000000 1 0 0
8.134733 -9.073855 7.251080 14.180511 -0.839917 1.034052 0.003184 -0.002749 -1607370.000000 1 0 0
-0.086767 2.267145 -6.381120 6.772456 -1.532544 2.799982 0.006221 -0.007088 314485.000000 1 0 0
-3.761967 -9.775155 -3.408120 11.014596 1.203418 1.885378 0.005647 0.003679 1114450.000000 1 0 0
-9.481967 2.336245 -5.478920 11.197513 -0.241576 2.082081 -0.000806 0.001292 -2658840.000000 1 0 0
8.965433 -7.681955 5.176380 12.891328 -0.708453 1.157599 0.001074 -0.003051 1674810.000000 1 0 0
-5.568467 -4.320455 4.634480 8.435198 0.659859 0.989124 -0.003523 0.000034 225195.000000 1 0 0
-0.202267 -12.432755 10.474080 16.257942 1.554529 0.870762 -0.000190 0.000322 -1400410.000000 1 0 0
-14.002067 -8.282255 3.031580 16.548236 0.534148 1.386559 -0.007656 -0.002777 -978919.000000 1 0 0
10.818233 -1.403855 -3.700820 11.519594 -0.129046 1.897859 -0.001583 0.003031 437263.000000 1 0 0
-13.662267 2.992845 2.845680 14.272791 -0.215653 1.370073 -0.005362 -0.001195 -1221300.000000 1 0 0
-6.371667 6.219845 0.981680 8.958142 -0.773341 1.460991 -0.000225 -0.001364 555574.000000 1 0 0
6.998133 -6.887255 -0.374220 9.825894 -0.777413 1.608891 -0.003585 0.000350 -75622.600000 1 0 0
-6.890567 7.856945 10.068780 14.511783 -0.850833 0.803996 0.003639 -0.006366 253362.000000 1 0 0
-12.697167 -5.010055 -1.829120 13.771869 0.375826 1.704006 0.003840 -0.002218 -2109520.000000 1 0 0
-9.383767 -5.479355 0.158180 10.867540 0.528511 1.556241 0.000905 -0.000282 -1605670.000000 1 0 0
-1.831467 1.815345 2.153080 3.359390 -0.780977 0.875108 0.002987 -0.000549 307916.000000 1 0 0
-7.232867 7.268245 7.604980 12.766263 -0.787838 0.932648 0.002301 -0.002449 -493538.000000 1 0 0
5.606433 7.271445 -0.447820 9.192744 0.913977 1.619530 0.001514 0.001170 -2103320.000000 1 0 0
0.011033 -4.069855 7.463480 8.501022 -1.568085 0.499231 0.001063 -0.001210 -1087210.000000 1 0 0
6.339733 0.641345 13.173780 14.633934 0.100820 0.450519 -0.003721 0.002944 449412.000000 1 0 0
5.843533 6.073745 -7.845120 11.514476 0.804713 2.320370 -0.003804 0.004207 -649255.000000 1 0 0
9.948233 5.297145 8.952480 14.393540 0.489286 0.899529 -0.000840 0.000926 -2055340.000000 1 0 0
-1.143167 -4.973855 -8.523920 9.934952 1.344884 2.602107 0.006722 -0.000605 332493.000000 1 0 0
9.850833 -3.673155 -8.044520 13.238024 -0.356909 2.223936 0.000602 -0.003606 76031.700000 1 0 0
8.385033 -5.606455 1.267080 10.165953 -0.589358 1.445832 0.000632 -0.001068 702594.000000 1 0 0
15.666233 3.157145 -5.044820 16.758539 0.198862 1.876569 0.000985 0.009632 -415525.000000 1 0 0
-6.843967 3.667045 1.210280 7.858236 -0.491881 1.416167 0.001637 -0.001630 440239.000000 1 0 0
-1.760567 3.883045 0.288780 4.273292 -1.145120 1.503167 0.003085 -0.002682 -922605.000000 1 0 0
-2.609367 10.111745 6.953580 12.546253 -1.318253 0.983352 0.000167 0.002693 242002.000000 1 0 0
5.413233 -5.763655 -8.845420 11.864412 -0.816740 2.412144 -0.009324 0.001135 -357003.000000 1 0 0
-1.294267 -0.896155 6.246380 6.441699 0.605609 0.246883 0.004137 -0.002314 244550.000000 1 0 0
-5.669967 5.107545 -7.836420 10.938236 -0.733261 2.369460 0.004889 -0.003918 -9169.620000 1 0 0
6.812933 -1.243355 2.577280 7.389476 -0.180513 1.214530 -0.001340 0.000127 -1342630.000000 1 0 0
8.768333 7.515845 3.207280 11.985751 0.708635 1.299904 -0.002629 0.003673 -361850.000000 1 0 0
-5.300467 -4.767455 -7.636020 10.446644 0.732506 2.390516 0.010559 -0.004382 344755.000000 1 0 0
-2.083067 7.897045 -10.056820 12.955389 -1.312893 2.459516 0.001475 -0.000911 1009010.000000 1 0 0
-2.783767 -2.158455 1.477780 3.819963 0.659542 1.173575 -0.000164 0.001536 -1513060.000000 1 0 0
5.920633 -2.007555 -9.192520 11.116951 -0.326912 2.544355 -0.006335 0.001256 1062230.000000 1 0 0
1.081833 -7.569655 5.232080 9.265242 -1.428841 0.970727 -0.003333 0.000627 687327.000000 1 0 0
1.755033 11.939445 1.203980 12.127657 1.424847 1.471357 0.001132 0.000069 -330425.000000 1 0 0
-1.050967 7.028845 2.448280 7.516866 -1.422374 1.239039 -0.000427 0.003717 763271.000000 1 0 0
8.749333 7.873145 -6.672420 13.529909 0.732736 2.086516 0.001488 0.000396 -423442.000000 1 0 0
3.694333 -10.756955 5.356380 12.571833 -1.239980 1.130661 -0.001309 0.007118 242402.000000 1 0 0
7.860733 -7.186955 12.379280 16.330647 -0.740652 0.710494 0.000030 0.003233 530971.000000 1 0 0
-8.810467 0.066345 -4.036920 9.691514 -0.007530 2.000434 0.004031 -0.000617 -276664.000000 1 0 0
-3.217067 -5.094455 11.165980 12.687872 1.007548 0.494826 0.005445 -0.005181 781696.000000 1 0 0
-8.355067 0.162045 -11.627720 14.319122 -0.019392 2.518438 0.008832 -0.003893 -1695890.000000 1 0 0
1.493333 -5.000755 5.388780 7.501770 -1.280605 0.769391 0.000898 -0.001048 -277502.000000 1 0 0
6.702333 3.680845 -7.669020 10.829762 0.502220 2.357661 -0.006643 0.002911 394482.000000 1 0 0
16.236133 4.052545 -1.395920 16.792371 0.244603 1.654021 -0.010419 0.013637 -2250330.000000 1 0 0
7.940133 7.463045 0.164680 10.898159 0.754435 1.555685 -0.001804 0.001521 -1926450.000000 1 0 0
5.466633 -10.504355 13.935280 18.287088 -1.090950 0.704357 0.001587 0.002165 215469.000000 1 0 0
-5.249967 -9.128755 9.015180 13.862532 1.048885 0.862781 0.000508 -0.002360 -4561.600000 1 0 0
-12.529567 -3.168855 2.801980 13.224325 0.247716 1.357297 -0.001274 -0.002932 271008.000000 1 0 0
-2.104367 -1.337655 -5.970920 6.470669 0.566226 2.745996 0.007580 -0.006775 -978529.000000 1 0 0
-2.474167 13.052845 -4.378520 13.988199 -1.383469 1.889163 -0.002438 0.004261 374589.000000 1 0 0
3.870933 -0.478555 -4.889920 6.254954 -0.123004 2.468292 -0.000899 0.001160 -373949.000000 1 0 0
-8.830167 3.909045 -7.384220 12.156446 -0.416760 2.223621 -0.001824 0.000486 497981.000000 1 0 0
-4.500467 8.057245 -11.273620 14.569417 -1.061404 2.455594 0.005342 -0.002240 -996668.000000 1 0 0
-10.130567 -6.403755 7.422380 14.097099 0.563704 1.016296 -0.005629 0.000708 -1230130.000000 1 0 0
8.143733 5.214645 4.173780 10.532490 0.569545 1.163338 -0.005936 0.001685 -1217830.000000 1 0 0
-6.693267 -7.547655 4.046380 10.869228 0.845322 1.189333 0.000765 0.001055 -688350.000000 1 0 0
-4.146367 11.882445 7.978380 14.900987 -1.235058 1.005784 0.004044 -0.003283 -187291.000000 1 0 0
-7.199567 10.067245 -7.888620 14.676972 -0.949976 2.138246 -0.001481 -0.003675 -2075170.000000 1 0 0
13.133633 5.592845 4.680280 15.022558 0.402583 1.253972 -0.003688 0.004958 -1878280.000000 1 0 0
5.342933 4.037045 -3.609320 7.607355 0.647067 2.065137 -0.001187 0.002334 381471.000000 1 0 0
-2.900467 -4.098655 5.228880 7.249336 0.954946 0.765132 -0.002422 0.000526 -1666830.000000 1 0 0
12.332633 -2.421455 -5.376320 13.669751 -0.193879 1.975015 -0.001677 -0.001921 -2501980.000000 1 0 0
-5.231067 9.610745 7.041480 13.012030 -1.072345 0.998990 -0.002130 -0.000803 484384.000000 1 0 0
1.786133 3.825845 -0.431120 4.244199 1.134011 1.672550 -0.001574 -0.001524 712902.000000 1 0 0
-0.127567 9.503645 7.650580 12.201103 -1.557374 0.893049 -0.002101 0.005513 -1254090.000000 1 0 0
-5.534767 2.123645 5.943980 8.394904 -0.366369 0.784069 -0.003806 0.001409 896175.000000 1 0 0
8.962233 1.044545 10.609480 13.927447 0.116026 0.704759 -0.000292 0.003562 -2516700.000000 1 0 0
0.381933 -2.815255 -10.234720 10.621724 -1.435954 2.870821 0.001715 -0.003345 -2572630.000000 1 0 0
1.313933 10.618245 -2.715820 11.038534 1.447679 1.819379 0.001420 0.000619 15895.200000 1 0 0
2.340933 -4.321855 11.709980 12.699687 -1.074386 0.397405 -0.002734 0.001288 87772.000000 1 0 0
6.601333 -3.034255 9.450780 11.920635 -0.430844 0.655393 -0.003689 0.002577 297901.000000 1 0 0
-10.526567 -8.224655 5.704880 14.525812 0.663249 1.167186 -0.004262 0.001524 -543836.000000 1 0 0
-2.992267 0.856745 -6.897720 7.567444 -0.278859 2.717711 0.014231 -0.008699 784569.000000 1 0 0
10.978833 2.494545 -5.172620 12.390058 0.223421 2.001468 -0.001506 0.003586 -3553950.000000 1 0 0
-2.051667 -4.152055 0.012380 4.631312 1.111853 1.568123 0.000958 0.000607 1175150.000000 1 0 0
-1.464967 -6.491855 -10.722820 12.620189 1.348852 2.586129 -0.001934 0.001947 901520.000000 1 0 0
0.375533 6.744745 -6.582720 9.432116 1.515176 2.343264 0.003950 0.001751 -3067260.000000 1 0 0
2.094033 3.786745 -6.134220 7.506868 1.065660 2.527242 0.002684 -0.002151 -2211260.000000 1 0 0
1.694033 -14.781255 6.473780 16.225445 -1.456687 1.160382 0.001160 -0.004875 252704.000000 1 0 0
-1.659967 5.357645 -10.552320 11.950368 -1.270344 2.653038 0.008834 -0.005181 -728304.000000 1 0 0
13.645533 4.287445 -0.828920 14.327242 0.304434 1.628685 -0.005470 0.007149 -1000730.000000 1 0 0
-2.390967 3.331345 -6.162620 7.402193 -0.948278 2.554473 0.008602 -0.007190 -1436150.000000 1 0 0
5.847133 7.729145 14.173880 17.170543 0.923145 0.599750 0.000841 -0.006220 511678.000000 1 0 0
15.680833 0.602145 -5.707320 16.698042 0.038381 1.919623 -0.008494 0.006350 -61272.100000 1 0 0
6.199033 -8.371755 10.538880 14.818309 -0.933422 0.779583 -0.002479 0.003152 1217850.000000 1 0 0
0.089633 -6.034155 -6.383520 8.784554 -1.555943 2.384266 -0.003438 0.001807 -514268.000000 1 0 0
8.707933 5.449245 -7.563420 12.756476 0.559160 2.205462 -0.002133 0.004686 -359794.000000 1 0 0
-15.881867 -0.740855 5.275380 16.751484 0.046614 1.250424 -0.004472 -0.004379 -123952.000000 1 0 0
-0.330467 4.018245 -12.249620 12.896072 -1.488739 2.823623 0.010053 -0.007390 741379.000000 1 0 0
-11.149867 3.615145 5.885480 13.115932 -0.313537 1.105455 -0.001561 -0.006134 506932.000000 1 0 0
4.891133 -9.850855 -9.840520 14.757993 -1.109938 2.300693 -0.017011 0.009107 547923.000000 1 0 0
1.658733 11.045145 -11.755120 16.215100 1.421733 2.381757 0.005420 -0.001449 -4459010.000000 1 0 0
5.924333 2.391845 1.306080 6.521080 0.383720 1.369147 0.000915 0.000873 -359983.000000 1 0 0
5.706133 4.547745 4.934980 8.808857 0.672904 0.976134 -0.004690 0.002610 63809.100000 1 0 0
0.327133 -1.542055 -6.344520 6.537421 -1.361754 2.898062 0.004666 -0.003028 282438.000000 1 0 0
12.710333 6.884445 -4.567620 15.159528 0.496403 1.876856 0.004774 0.002273 -394747.000000 1 0 0
7.255833 3.111845 12.621480 14.887325 0.405148 0.558973 0.000355 0.003125 -271517.000000 1 0 0
-2.526667 -0.245755 8.601380 8.968176 0.096960 0.286990 0.000873 0.000065 991318.000000 1 0 0
2.215333 -15.341055 13.292080 20.418988 -1.427382 0.861939 -0.018126 0.003355 474858.000000 1 0 0
18.850433 4.474545 -1.736820 19.451913 0.233058 1.660203 0.002509 0.013678 1358350.000000 1 0 0
-0.212267 -13.172355 7.174380 15.000924 1.554683 1.072121 -0.007892 -0.001629 -460078.000000 1 0 0
4.347433 1.655945 -0.533720 4.682647 0.363935 1.685023 0.001176 -0.002461 1166120.000000 1 0 0
2.708733 -0.514455 -7.315020 7.817379 -0.187689 2.781143 -0.003584 -0.001039 823653.000000 1 0 0
7.100833 -11.324455 0.928980 13.398810 -1.010735 1.501408 -0.002513 0.000468 310254.000000 1 0 0
-11.781767 -7.299355 1.186880 13.910403 0.554668 1.485369 -0.001297 0.001460 -16276.700000 1 0 0
0.241933 -6.935755 10.090180 12.246427 -1.535928 0.602487 -0.002154 -0.002897 -1069410.000000 1 0 0
-4.602667 -7.182655 10.645180 13.641662 1.000914 0.675582 0.003049 -0.002068 -1245850.000000 1 0 0
11.850033 0.685445 -1.697220 11.990566 0.057779 1.712820 -0.001192 0.004322 800658.000000 1 0 0
6.329433 -9.681155 -7.558820 13.817461 -0.991762 2.149630 -0.013557 0.004319 -595310.000000 1 0 0
-10.826267 5.013345 3.657880 12.478853 -0.433672 1.273301 -0.007658 -0.002111 1473700.000000 1 0 0
6.116733 -8.978755 2.068980 11.059527 -0.972769 1.382611 0.000345 -0.000716 3740170.000000 1 0 0
11.505633 -1.296955 5.832980 12.964773 -0.112250 1.104132 -0.001958 -0.003836 -142880.000000 1 0 0
-6.398967 3.584045 4.159080 8.431495 -0.510563 1.054941 -0.002704 0.000082 -398863.000000 1 0 0
9.546833 6.338845 -3.250120 11.911602 0.586136 1.847154 -0.003975 0.003664 -861130.000000 1 0 0
-2.263967 6.545945 10.926080 12.936544 -1.237816 0.564997 0.001238 -0.005216 292271.000000 1 0 0
1.838233 9.793945 3.025780 10.414212 1.385264 1.276002 -0.003126 0.002897 -283473.000000 1 0 0
2.897533 6.102745 -5.562020 8.750729 1.127518 2.259590 0.000811 0.000552 -2071160.000000 1 0 0
11.751733 0.018145 -5.849220 13.126954 0.001544 2.032628 0.000405 0.001777 191462.000000 1 0 0
-2.554867 -12.440255 6.304380 14.178593 1.368242 1.110023 -0.002963 0.000196 -393491.000000 1 0 0
10.984733 1.858745 -2.803120 11.488114 0.167624 1.817286 -0.000246 0.003974 171684.000000 1 0 0
-8.853367 5.216245 0.951180 10.319693 -0.532427 1.478494 -0.000865 -0.001167 -1515940.000000 1 0 0
1.083333 -10.218955 5.506380 11.658511 -1.465179 1.078892 -0.004506 0.000707 465098.000000 1 0 0
9.272133 -5.848155 -1.283720 11.037269 -0.562705 1.687368 0.000843 0.001106 862009.000000 1 0 0
-7.744767 8.603945 -4.464920 12.407449 -0.837903 1.938912 -0.006086 -0.002912 -451699.000000 1 0 0
-7.532167 0.052345 -1.667320 7.714676 -0.006949 1.788638 0.000838 -0.001722 -1601870.000000 1 0 0
4.117433 8.860945 2.736580 10.146846 1.135808 1.297717 0.000212 0.002357 50367.700000 1 0 0
-1.251667 -10.528455 -3.782420 11.257075 1.452468 1.913467 0.002534 0.005147 -413500.000000 1 0 0
3.208733 7.924345 -3.705820 9.317956 1.186055 1.979813 0.005311 -0.000018 -506642.000000 1 0 0
-4.459367 1.807245 -10.965520 11.974753 -0.385041 2.728092 0.010284 -0.008637 -922877.000000 1 0 0
1.334133 2.829445 10.959280 11.396995 1.130193 0.278045 0.000342 -0.002050 681377.000000 1 0 0
2.150433 5.548245 -7.993720 9.965287 1.201036 2.501694 0.002458 -0.000134 -695970.000000 1 0 0
15.666433 6.016245 4.113080 17.278593 0.366656 1.330444 0.010510 0.004012 103764.000000 1 0 0
-4.478367 9.068345 4.653980 11.133292 -1.112084 1.139528 0.001099 0.001971 633257.000000 1 0 0
-1.046767 -8.188855 -12.531320 15.006233 1.443658 2.559064 -0.007783 0.007228 238466.000000 1 0 0
14.223033 -4.301555 -5.332920 15.787276 -0.293690 1.915373 0.007110 -0.001629 986482.000000 1 0 0
-6.093167 -6.105155 -5.579420 10.272756 0.786381 2.144954 0.010388 -0.001879 666959.000000 1 0 0
-8.991167 2.648145 -12.333420 15.490868 -0.286429 2.491741 0.000914 -0.000405 -461400.000000 1 0 0
10.594333 5.452045 13.749380 18.193684 0.475274 0.714039 0.012715 0.004894 761797.000000 1 0 0
-0.380867 10.891145 5.533780 12.222308 -1.535840 1.100937 -0.000419 0.008084 869924.000000 1 0 0
0.384033 11.352145 -0.614620 11.375255 1.536980 1.624854 0.000574 -0.000397 188409.000000 1 0 0
-1.497867 -0.572555 3.678380 4.012718 0.365109 0.411103 0.001599 -0.000044 385901.000000 1 0 0
-4.803667 6.810345 8.882580 12.180158 -0.956490 0.753547 0.000029 -0.002976 798197.000000 1 0 0
3.306233 -8.852455 -11.555520 14.927397 -1.213357 2.456112 -0.014964 0.010033 1697980.000000 1 0 0
6.737633 -3.884155 12.067680 14.356576 -0.522951 0.572465 0.001013 0.004121 -583976.000000 1 0 0
-2.477867 -1.818155 -12.541120 12.912211 0.633025 2.901267 0.005846 -0.006442 1086330.000000 1 0 0
-15.909667 -4.958955 5.204280 17.458330 0.302151 1.268098 -0.006191 -0.004755 586111.000000 1 0 0
-9.023467 7.167045 5.785880 12.894414 -0.671236 1.105473 -0.011872 -0.001878 -3751740.000000 1 0 0
-12.648767 1.539245 6.091880 14.123441 -0.121096 1.124829 -0.005356 -0.006205 458871.000000 1 0 0
-3.646867 3.647645 10.139180 11.375761 -0.785505 0.470599 0.004865 -0.002343 563017.000000 1 0 0
2.018433 -12.398555 -1.154020 12.614674 -1.409416 1.662407 -0.001434 0.002970 -2619480.000000 1 0 0
10.143433 -5.219955 -3.766820 12.013580 -0.475271 1.889722 0.000707 0.000547 637734.000000 1 0 0
3.374133 -13.452955 0.983380 13.904453 -1.325056 1.500013 0.003019 0.004481 460207.000000 1 0 0
9.964333 -1.831055 -6.231920 11.894432 -0.181733 2.122262 0.000568 0.002357 269207.000000 1 0 0
11.876433 -5.379155 -1.661220 13.143235 -0.425285 1.697529 0.002612 0.000316 137214.000000 1 0 0
1.367333 0.915345 5.866480 6.092869 0.589919 0.273454 0.002617 -0.000766 -194887.000000 1 0 0
-10.785867 11.777745 6.749380 17.337945 -0.829329 1.170942 -0.007160 -0.005374 -656916.000000 1 0 0
4.734133 -14.076355 3.173880 15.186484 -1.246362 1.360250 0.002984 0.000049 -3677160.000000 1 0 0
5.330733 -3.462555 -1.703420 6.580854 -0.576056 1.832622 -0.001101 0.000904 -1553040.000000 1 0 0
1.955533 -2.898755 -7.718420 8.473541 -0.977314 2.716220 -0.003750 0.000251 -653818.000000 1 0 0
-2.668467 14.970145 -8.880020 17.609109 -1.394396 2.099351 0.001604 0.002022 -1679570.000000 1 0 0
-2.392767 6.105745 -8.159020 10.467811 -1.197303 2.464566 0.008917 -0.003970 -46467.800000 1 0 0
2.475533 -3.549355 -11.438820 12.229995 -0.961777 2.779927 -0.003485 0.000776 -1671510.000000 1 0 0
14.559433 2.740745 -2.780020 15.073728 0.186068 1.756286 -0.001594 0.011160 601984.000000 1 0 0
-3.443067 13.147045 2.257980 13.776719 -1.314660 1.406155 -0.007857 0.003377 -928569.000000 1 0 0
7.853533 -5.126055 14.001080 16.851845 -0.578276 0.590192 -0.005052 0.003919 -1815940.000000 1 0 0
-11.471667 7.312745 3.033880 13.938429 -0.567510 1.351377 -0.010115 0.001633 1413900.000000 1 0 0
-2.253267 11.850245 4.024680 12.716272 -1.382894 1.248760 -0.003040 0.004409 -156097.000000 1 0 0
1.768533 1.411745 0.717880 2.374044 0.673678 1.263600 -0.001225 -0.000935 -1398760.000000 1 0 0
-6.907867 8.526845 5.384680 12.223768 -0.889908 1.114631 -0.000304 -0.001420 -1043120.000000 1 0 0
-1.025567 9.167845 1.016280 9.280840 -1.459394 1.461073 0.000743 0.003065 465884.000000 1 0 0
4.962533 13.093145 -8.567120 16.415015 1.208508 2.119882 -0.004633 -0.001115 -1741700.000000 1 0 0
8.901133 6.880345 7.068680 13.286668 0.658043 1.009820 -0.005749 0.002239 -1900130.000000 1 0 0
7.192733 -13.866355 2.956580 15.898194 -1.092286 1.383738 0.006007 -0.002174 82956.000000 1 0 0
4.228733 -13.442955 -1.403820 14.162130 -1.266028 1.670084 -0.001536 0.004384 -3103120.000000 1 0 0
12.012233 -11.965255 -4.604320 17.568746 -0.783439 1.835968 -0.000229 -0.000588 -1079430.000000 1 0 0
3.075833 -0.050855 -2.020320 3.680357 -0.016532 2.151900 0.001275 -0.001131 1188400.000000 1 0 0
-13.585267 -3.137155 -10.676920 17.561259 0.226945 2.224312 -0.008806 -0.002612 260255.000000 1 0 0
-6.708267 13.678945 5.055680 16.052236 -1.114852 1.250390 -0.002574 -0.004356 490419.000000 1 0 0
7.307133 -4.287455 -0.506220 8.487209 -0.530619 1.630477 -0.000871 0.003078 -653230.000000 1 0 0
11.730233 1.956145 -7.391720 14.002228 0.165240 2.126918 0.002895 0.004544 -796457.000000 1 0 0
-7.454967 -4.597455 9.780580 13.129085 0.552606 0.730329 0.000973 0.000588 367232.000000 1 0 0
1.062233 2.797445 8.527480 9.037254 1.207898 0.337480 -0.000993 -0.000497 -1097730.000000 1 0 0
1.650533 7.994945 -8.661220 11.902106 1.367209 2.385766 0.003646 0.000274 59423.700000 1 0 0
-8.635167 -2.081755 -5.547520 10.472573 0.236565 2.129065 0.011310 -0.004542 107561.000000 1 0 0
6.685233 -0.491455 7.162180 9.809725 -0.073382 0.752313 -0.003667 0.000582 103682.000000 1 0 0
-10.875967 6.571645 7.355980 14.682766 -0.543528 1.046049 -0.003837 -0.004741 190028.000000 1 0 0
-5.983467 11.108145 5.125380 13.618454 -1.076704 1.184937 -0.004312 -0.000060 528021.000000 1 0 0
6.040933 -1.197655 -6.914520 9.259473 -0.195719 2.413960 -0.003917 0.001267 -302333.000000 1 0 0
4.508933 -5.775355 11.481880 13.620528 -0.907923 0.567991 -0.004481 0.002491 -1559000.000000 1 0 0
-9.000267 -7.474855 2.658780 11.997807 0.693073 1.347336 -0.004195 0.002593 133384.000000 1 0 0
-1.071667 12.850645 -9.374120 15.942449 -1.487595 2.199377 0.003664 0.003839 670035.000000 1 0 0
-4.477567 9.333245 -2.334620 10.611716 -1.123485 1.792615 -0.001241 -0.001092 551183.000000 1 0 0
-3.156367 9.747045 -0.210920 10.247538 -1.257625 1.591380 0.000943 0.000272 -2494960.000000 1 0 0
-3.483867 10.712045 -6.391820 12.951471 -1.256357 2.086930 0.001618 0.002501 1097670.000000 1 0 0
4.906133 -4.895255 0.363480 6.940157 -0.784288 1.518399 -0.001269 0.000968 -2001580.000000 1 0 0
-2.215367 2.851045 -10.886520 11.469639 -0.910215 2.821352 0.011210 -0.006619 -596646.000000 1 0 0
-3.591767 12.136445 -2.212620 12.848727 -1.283060 1.743864 -0.005719 0.002678 -490030.000000 1 0 0
-0.311867 0.321445 0.123280 0.464528 -0.800521 1.302189 0.002050 -0.000326 -397270.000000 1 0 0
-4.916667 -1.791055 0.174780 5.235651 0.349341 1.537407 -0.001530 0.000938 49995.600000 1 0 0
2.457333 2.463345 -2.460420 4.261481 0.786620 2.186291 0.000141 -0.001380 1768880.000000 1 0 0
6.023133 -9.707155 8.448080 14.208344 -1.015451 0.934046 -0.002648 -0.000654 60079.100000 1 0 0
-4.204867 -5.366855 6.679480 9.544606 0.906205 0.795655 -0.000300 0.000425 55394.600000 1 0 0
-6.328067 5.339745 -12.134720 14.690430 -0.700895 2.542822 0.000718 -0.005613 44957.700000 1 0 0
-12.760067 3.046745 8.034180 15.383433 -0.234383 1.021295 -0.005317 -0.006395 633412.000000 1 0 0
4.717433 -7.491055 -4.789920 10.065456 -1.008794 2.066757 -0.012272 0.002851 976824.000000 1 0 0
-6.032667 2.497745 -1.114620 6.623759 -0.392548 1.739877 0.005448 -0.003615 -569824.000000 1 0 0
-6.994767 -2.635855 -14.507420 16.319918 0.360376 2.665821 0.010627 -0.001966 522828.000000 1 0 0
2.729933 -6.062755 0.874680 6.706310 -1.147710 1.439997 -0.001021 0.000251 1070750.000000 1 0 0
4.959333 -7.932055 13.087480 16.087095 -1.012034 0.620584 -0.001848 0.003967 13173.400000 1 0 0
-9.934067 -1.701555 8.038780 12.891973 0.169639 0.897522 -0.003254 0.000511 -200231.000000 1 0 0
-4.430267 13.277945 -0.036320 13.997586 -1.248755 1.573391 -0.009204 0.003190 628474.000000 1 0 0
6.718833 2.283245 -4.511720 8.409015 0.327584 2.137120 -0.004720 0.003573 -667241.000000 1 0 0
5.132733 4.559345 0.047080 6.865478 0.726307 1.563939 -0.000546 0.000081 -933868.000000 1 0 0
-5.859867 12.233145 1.957880 13.704786 -1.124077 1.427445 -0.005394 0.000624 -292985.000000 1 0 0
6.576033 -7.253755 6.553180 11.781568 -0.834363 0.980962 -0.001351 -0.001274 -1730230.000000 1 0 0
-0.260567 4.959545 7.829880 9.272109 -1.518306 0.565249 -0.001834 -0.000093 -157536.000000 1 0 0
-5.818267 -3.410655 -1.534820 6.916680 0.530209 1.794560 0.005542 -0.000801 -772355.000000 1 0 0
2.412033 -6.522755 -5.219020 8.694964 -1.216603 2.214591 -0.010225 0.005297 -91439.300000 1 0 0
-14.504667 -4.894255 -3.671220 15.742203 0.325430 1.806172 0.001571 -0.001033 127364.000000 1 0 0
-12.482667 -5.079955 -6.294820 14.874396 0.386493 2.007769 0.006302 -0.003299 -1481740.000000 1 0 0
-14.831267 -3.815855 -1.214520 15.362366 0.251823 1.649937 0.002188 -0.002145 338668.000000 1 0 0
11.900933 2.832645 8.675680 14.997450 0.233671 0.953936 0.007170 -0.000806 -1837930.000000 1 0 0
8.817333 -6.664055 7.641580 13.436843 -0.647197 0.965867 -0.001980 -0.006476 -149996.000000 1 0 0
-8.926067 -1.596555 -9.686120 13.268179 0.176993 2.389157 0.012376 -0.005686 118376.000000 1 0 0
-8.860367 5.196645 -3.869420 10.976504 -0.530437 1.931057 0.001930 -0.000451 -2151530.000000 1 0 0
-4.022167 -6.282355 4.196480 8.558987 1.001318 1.058361 0.000991 -0.000145 -1673260.000000 1 0 0
-0.128667 -9.288255 3.482280 9.920409 1.556945 1.212134 -0.003319 0.001454 1188810.000000 1 0 0
8.004733 -10.514055 3.286580 13.617001 -0.920079 1.327031 -0.001111 -0.000300 238903.000000 1 0 0
0.074333 6.654845 9.660380 11.730961 1.559627 0.603253 -0.003986 -0.004802 -818159.000000 1 0 0
0.026833 3.520445 -9.705020 10.323839 1.563174 2.793600 0.012422 -0.006899 -135160.000000 1 0 0
4.581133 -3.162855 10.998980 12.327530 -0.604260 0.468539 -0.001313 0.002683 -1931980.000000 1 0 0
8.568233 -9.205755 1.224580 12.635669 -0.821251 1.473729 -0.001882 -0.000300 -52979.700000 1 0 0
-0.304167 -0.344455 11.396680 11.405941 0.847432 0.040299 0.006537 -0.000818 -817452.000000 1 0 0
10.871433 5.946145 11.315880 16.780758 0.500500 0.830730 0.010335 0.002212 -422120.000000 1 0 0
-6.307067 -2.927155 -11.827920 13.720314 0.434523 2.610143 0.011841 -0.004403 877371.000000 1 0 0
-1.680167 2.904245 8.417180 9.061265 -1.046320 0.379314 0.001403 -0.001158 -385746.000000 1 0 0
-1.631467 13.668845 -6.869120 15.384532 -1.452002 2.033641 0.000790 0.003704 399062.000000 1 0 0
7.690133 3.089045 9.745080 12.792456 0.381962 0.704735 -0.003457 0.002367 368468.000000 1 0 0
6.520133 8.451845 -7.979320 13.327241 0.913711 2.212702 0.000942 0.003717 -11681.900000 1 0 0
6.552133 -2.978655 -3.986620 8.227756 -0.426680 2.076626 -0.000628 0.001403 -3021550.000000 1 0 0
2.016933 8.144045 1.019880 8.451843 1.328024 1.449832 0.000044 0.002356 949985.000000 1 0 0
-17.494467 6.384545 6.327180 19.668554 -0.349928 1.243282 0.008951 -0.002150 -368774.000000 1 0 0
-14.387867 3.124945 -10.233420 17.930390 -0.213871 2.178191 -0.009418 0.002562 -961463.000000 1 0 0
-18.412667 0.192045 -4.243220 18.896246 -0.010430 1.797281 0.013594 -0.001272 906193.000000 1 0 0
-13.081667 7.928345 0.119380 15.297154 -0.544867 1.562992 -0.006489 0.003464 -1326780.000000 1 0 0
-12.966467 -4.307455 -12.927820 18.809890 0.320730 2.328546 0.012466 0.006767 -1120970.000000 1 0 0
-17.421067 -0.679555 -8.684020 19.477360 0.038988 2.032922 -0.015690 0.000633 960335.000000 1 0 0
-16.768967 -2.116355 -1.944820 17.013510 0.125543 1.685357 0.002822 -0.000953 124177.000000 1 0 0
-15.350267 4.070245 1.858380 15.989095 -0.259193 1.454305 0.002674 -0.001233 -1187180.000000 1 0 0
-13.073967 5.876145 4.571680 15.045197 -0.422400 1.262051 -0.003674 -0.003564 -172158.000000 1 0 0
-9.874767 14.138945 2.859780 17.481394 -0.961139 1.406468 0.008488 -0.007109 -506800.000000 1 0 0
-11.909667 2.398545 -6.390520 13.727051 -0.198736 2.055043 -0.003969 0.005363 323122.000000 1 0 0
-15.785767 10.786045 4.032180 19.539388 -0.599414 1.362941 0.007257 -0.002034 -90474.000000 1 0 0
-12.806567 1.090845 -8.505020 15.412121 -0.084973 2.155365 -0.004994 -0.000725 802448.000000 1 0 0
-12.215267 14.380145 3.945580 19.276123 -0.866620 1.364652 0.007509 -0.009249 -130141.000000 1 0 0
-10.547267 11.178445 -1.070520 15.406118 -0.814442 1.640339 -0.001123 -0.002289 965900.000000 1 0 0
-17.448567 5.787145 8.857080 20.405671 -0.320252 1.121813 0.033993 -0.001887 357047.000000 1 0 0
-11.700767 12.674945 -9.074620 19.491303 -0.825342 2.055078 -0.000560 -0.004173 -408113.000000 1 0 0
-17.157467 -0.395455 3.110380 17.441603 0.023044 1.391506 0.007489 -0.007666 633743.000000 1 0 0
-12.911067 14.936245 -0.654520 19.753872 -0.857995 1.603936 0.016603 -0.008537 370231.000000 1 0 0
-16.481867 4.659145 -10.277920 19.974864 -0.275495 2.111271 0.012321 0.002460 420077.000000 1 0 0
-11.707867 7.743745 -9.095120 16.726056 -0.584357 2.145719 -0.011791 0.008375 -467303.000000 1 0 0
-14.705067 13.498145 -2.016720 20.062554 -0.742630 1.671488 0.027612 -0.010406 985515.000000 1 0 0
-11.756867 10.687045 -5.389920 16.777607 -0.737768 1.897853 0.003819 -0.004912 1831520.000000 1 0 0
-17.671767 2.931545 -0.849420 17.933399 -0.164392 1.618179 0.009121 -0.000236 -496019.000000 1 0 0
-9.158367 15.319145 0.777980 17.864970 -1.031968 1.527235 0.001819 -0.008238 -44390.000000 1 0 0
-8.133667 13.177845 -3.629720 15.905565 -1.017809 1.801029 -0.003564 -0.006746 -1873510.000000 1 0 0
-17.645167 11.608445 2.319680 21.248266 -0.581897 1.461408 0.033039 0.006044 78527.200000 1 0 0
-8.024767 15.545745 -7.205820 18.920648 -1.094270 1.961505 0.015464 -0.018912 -169679.000000 1 0 0
-6.228267 15.247745 -5.284020 17.297569 -1.183008 1.881236 -0.005640 -0.003891 -1720840.000000 1 0 0
-17.385267 5.341245 -0.034920 18.187293 -0.298075 1.572716 0.015875 0.003001 546316.000000 1 0 0
-5.363767 12.253045 -12.268220 18.149830 -1.158176 2.313038 -0.015440 -0.001618 -273491.000000 1 0 0
-11.198767 3.845745 -11.384520 16.425877 -0.330790 2.336555 0.002501 0.000100 423621.000000 1 0 0
-11.783267 10.973545 1.327580 16.156316 -0.749832 1.488533 -0.000968 -0.001953 216444.000000 1 0 0
-13.026167 0.206845 -11.012220 17.058511 -0.015878 2.272547 0.003891 -0.003406 906392.000000 1 0 0
-14.226767 -2.057755 -13.078020 19.433730 0.143644 2.308992 -0.004593 0.003101 223271.000000 1 0 0
-18.872867 -2.321555 -3.566720 19.346736 0.122395 1.756215 0.006444 0.003582 1269440.000000 1 0 0
-18.193567 4.865645 -5.133020 19.519945 -0.261322 1.836888 0.017948 -0.000697 326983.000000 1 0 0
-8.169467 15.367045 -2.121920 17.532507 -1.082172 1.692121 0.003330 -0.007240 258270.000000 1 0 0
-16.058767 9.297645 -5.282820 19.293480 -0.524817 1.848152 0.019410 0.000940 -203578.000000 1 0 0
-18.257767 1.818845 2.242680 18.484693 -0.099293 1.449170 0.012599 -0.011899 -15798.500000 1 0 0
-15.696267 -2.696455 -8.622220 18.110393 0.170129 2.067002 -0.016379 -0.000631 -585492.000000 1 0 0
-9.535967 10.574945 -7.027820 15.879370 -0.837015 2.029265 -0.005369 -0.007977 13745.200000 1 0 0
-13.828467 11.968945 -7.558120 19.789071 -0.713441 1.962684 0.004122 -0.011067 216280.000000 1 0 0
-10.961867 6.656245 -3.784620 13.371293 -0.545710 1.857759 -0.003696 0.003239 -2071990.000000 1 0 0
-13.242367 5.048745 -12.516620 18.908090 -0.364245 2.294243 0.006426 0.002502 407073.000000 1 0 0
-17.530667 9.134445 2.780380 19.962287 -0.480350 1.431060 0.018568 -0.004566 696937.000000 1 0 0
-13.384367 8.884645 -6.354720 17.276014 -0.586021 1.947476 -0.003754 0.003783 -1193090.000000 1 0 0
-15.724867 7.088045 -3.720220 17.645165 -0.423481 1.783225 0.008300 0.005797 -937457.000000 1 0 0
-14.939567 -0.369255 -9.213420 17.556028 0.024712 2.123278 -0.006210 -0.005291 -719335.000000 1 0 0
-10.100667 5.865445 -6.015320 13.138150 -0.526107 2.046373 -0.005626 0.003722 487255.000000 1 0 0
-12.837867 12.300645 -0.629520 17.790812 -0.764031 1.606188 0.016223 -0.007294 -480942.000000 1 0 0
-10.728367 3.510145 -13.968820 17.959591 -0.316206 2.461941 0.001109 0.003150 193228.000000 1 0 0
-11.000167 6.432445 -11.879020 17.420997 -0.529137 2.321125 -0.006255 0.003261 -240130.000000 1 0 0
-5.755467 11.673245 -14.836220 19.735842 -1.112726 2.421493 -0.011712 -0.001204 -161373.000000 1 0 0
-15.342567 13.411545 3.676180 20.706960 -0.718342 1.392317 -0.002289 -0.005071 43405.700000 1 0 0
-15.012567 11.125645 -3.092420 18.939910 -0.637773 1.734806 0.022527 0.002632 560215.000000 1 0 0
-18.031367 7.797945 -4.458320 20.144844 -0.408177 1.793957 0.021933 -0.003550 -791266.000000 1 0 0
-3.956367 16.191145 -10.747520 19.832176 -1.331139 2.143520 0.002960 -0.000705 -67626.100000 1 0 0
-15.660867 4.575145 -4.262920 16.863190 -0.284229 1.826364 0.003804 0.004061 13704.800000 1 0 0
-18.534667 -1.714155 -6.093720 19.585853 0.092221 1.887177 -0.017138 0.002536 156321.000000 1 0 0
-10.750367 8.623945 -5.762120 14.938033 -0.676081 1.966800 -0.006054 -0.000042 1434720.000000 1 0 0
-11.215567 13.800045 -6.680720 18.996373 -0.888348 1.930166 0.000887 -0.002755 760103.000000 1 0 0
-9.455367 10.549045 -4.361520 14.822590 -0.840016 1.869465 -0.009369 -0.003547 -1033820.000000 1 0 0
-11.013767 6.349945 -0.120720 12.713750 -0.522995 1.580292 -0.005223 0.003309 -849145.000000 1 0 0
-14.669767 9.541745 -1.122420 17.535871 -0.576682 1.634847 0.013639 0.003648 595294.000000 1 0 0
-18.616967 3.178945 4.823480 19.492642 -0.169124 1.320747 0.000771 -0.005843 255457.000000 1 0 0
-14.747267 13.532545 0.631180 20.025235 -0.742471 1.539272 0.012386 0.006227 -263946.000000 1 0 0
-16.434567 2.442645 -8.836320 18.818662 -0.147548 2.059578 -0.019736 -0.000783 -213286.000000 1 0 0
-9.058967 8.546245 -8.799220 15.248916 -0.756283 2.185895 -0.003815 0.002504 -2103860.000000 1 0 0
-17.593667 4.772445 -2.581720 18.411372 -0.264885 1.711484 0.004028 0.004789 959060.000000 1 0 0
-13.455167 6.000145 -4.436620 15.385930 -0.419469 1.863305 -0.007416 0.007191 -826144.000000 1 0 0
-12.090967 9.715645 3.566780 15.915626 -0.676899 1.344771 -0.011807 0.003515 414323.000000 1 0 0
-17.484167 2.632145 -4.065320 18.142522 -0.149422 1.796792 0.004985 0.001898 898591.000000 1 0 0
-11.401167 1.550845 -12.508120 16.995434 -0.135195 2.397894 0.006023 -0.002117 94468.300000 1 0 0
-11.045667 12.019445 3.578980 16.711760 -0.827592 1.354965 0.001307 -0.004403 -35851.800000 1 0 0
-15.465867 13.302545 -4.473920 20.884604 -0.710342 1.786691 -0.007611 0.001520 282069.000000 1 0 0
-11.146067 4.143445 -4.522320 12.722198 -0.355910 1.934210 -0.008738 0.003167 74150.500000 1 0 0
-11.020467 15.187545 -8.939220 20.785136 -0.943078 2.015375 0.001761 -0.007580 457488.000000 1 0 0
-15.502767 7.247645 -0.227720 17.114789 -0.437317 1.584102 0.012283 0.007187 -1188550.000000 1 0 0
-12.752567 8.503245 -3.922120 15.821383 -0.588086 1.821308 -0.004610 0.002878 1001850.000000 1 0 0
-19.315767 2.011345 -5.780820 20.262335 -0.103756 1.860114 0.023989 -0.002485 -8817.110000 1 0 0
-12.488667 10.170845 -8.809620 18.358167 -0.683464 2.071308 -0.009502 0.000595 780766.000000 1 0 0
-16.798767 11.138345 -1.091320 20.185447 -0.585491 1.624887 0.032229 0.005004 912842.000000 1 0 0
-10.646467 6.617245 -14.498820 19.166402 -0.556110 2.428696 -0.008460 -0.002424 49345.400000 1 0 0
-13.058567 12.765345 -3.731620 18.638809 -0.774044 1.772366 0.003175 -0.012912 -611206.000000 1 0 0
-17.998767 7.775945 -0.127720 19.607071 -0.407807 1.577310 0.034803 0.001115 327580.000000 1 0 0
-12.731567 6.650045 -2.068620 14.511895 -0.481349 1.713830 -0.008747 0.006421 773272.000000 1 0 0
-13.787267 8.570845 -10.468020 19.316510 -0.556186 2.143517 -0.003851 0.005502 -182550.000000 1 0 0
-15.001167 1.348545 -0.882420 15.087486 -0.089655 1.629317 0.000168 0.002835 -730428.000000 1 0 0
-13.523267 2.830945 -2.384620 14.020678 -0.206359 1.741706 -0.003064 0.001747 -40715.600000 1 0 0
-11.297767 9.432645 -10.895720 18.312046 -0.695669 2.208066 -0.008502 0.004321 13426.900000 1 0 0
-15.017167 4.401245 -8.035720 17.591448 -0.285097 2.045188 -0.012429 0.003596 688647.000000 1 0 0
-18.381667 10.630445 4.633380 21.733850 -0.524324 1.355960 0.025101 -0.005351 379037.000000 1 0 0
-15.377467 6.218745 -6.197420 17.707267 -0.384299 1.928360 0.009242 0.004315 814511.000000 1 0 0
-7.682567 11.344945 -13.087520 18.947633 -0.975551 2.333281 -0.017338 0.005371 -1994690.000000 1 0 0
-16.755267 9.162545 -2.729620 19.290983 -0.500418 1.712770 0.023941 0.000227 1604300.000000 1 0 0
-20.683467 -1.063155 -4.830620 21.266664 0.051356 1.799942 0.012480 -0.001621 242188.000000 1 0 0
-15.355567 4.409945 4.367980 16.562618 -0.279662 1.303914 0.005491 -0.002933 -4078.690000 1 0 0
-6.846067 12.594345 -9.318120 17.097179 -1.072893 2.147196 -0.002500 -0.007874 -1344780.000000 1 0 0
-17.027167 1.502845 5.919680 18.089377 -0.088033 1.237408 -0.007279 -0.006109 -430038.000000 1 0 0
-10.381067 14.273745 -3.109420 17.921351 -0.941993 1.745182 0.015937 -0.015012 -936604.000000 1 0 0
-9.932267 8.570345 -12.930220 18.419862 -0.711924 2.348958 -0.017260 0.000440 -1242260.000000 1 0 0
-13.689867 11.640445 2.888780 18.200480 -0.704666 1.411402 -0.001729 -0.003509 -568981.000000 1 0 0
-16.807067 6.726045 2.019380 18.215243 -0.380671 1.459706 0.013791 0.001426 606984.000000 1 0 0
-9.202967 13.345345 -8.332920 18.227188 -0.967084 2.045607 -0.000251 -0.010431 1000520.000000 1 0 0
-5.565867 9.871745 -12.967420 17.221620 -1.057406 2.423365 -0.003429 0.001170 -300899.000000 1 0 0
-15.913067 1.934645 3.339680 16.374432 -0.120982 1.365398 0.001132 -0.005460 -1248790.000000 1 0 0
-18.480867 -4.896555 4.528080 19.647448 0.259002 1.338239 -0.002400 0.000383 -446218.000000 1 0 0
-5.192867 14.505145 -9.113320 17.900215 -1.227011 2.104956 -0.003119 -0.002820 1164520.000000 1 0 0
-15.512767 -0.863555 -6.724020 16.929386 0.055610 1.979239 -0.003735 -0.000568 597841.000000 1 0 0
-8.964067 11.069345 -9.432120 17.083611 -0.890102 2.155695 -0.006831 -0.005996 290772.000000 1 0 0
-16.821567 1.271445 -6.021220 17.911917 -0.075441 1.913630 -0.000697 0.000639 -114024.000000 1 0 0
-11.184967 8.664945 -1.427320 14.220478 -0.659120 1.671336 -0.008633 -0.000842 -386031.000000 1 0 0
-10.748867 11.036345 -12.871220 20.075043 -0.798593 2.266799 -0.004978 0.007761 -23287.200000 1 0 0
-13.908367 11.926745 -10.212920 20.976025 -0.708845 2.079317 0.002749 0.005507 75909.800000 1 0 0
-13.062067 6.004545 -7.541420 16.234074 -0.430886 2.053914 -0.005501 0.007747 -288524.000000 1 0 0
-8.758067 15.403045 -4.697720 18.331015 -1.053790 1.829959 0.002100 -0.012909 949943.000000 1 0 0
-8.660767 6.240445 -12.863520 16.715926 -0.624380 2.448912 -0.003683 -0.003749 -1464930.000000 1 0 0
-16.162867 7.556745 4.400080 18.376707 -0.437342 1.329009 0.007240 -0.000997 304736.000000 1 0 0
-12.679767 5.485745 -10.096020 17.111385 -0.408322 2.201877 -0.004653 0.002949 389044.000000 1 0 0
-12.357767 9.082645 -13.290220 20.293811 -0.633815 2.284834 0.002260 -0.000151 -1234640.000000 1 0 0
-10.731067 5.300345 -8.414320 14.630456 -0.458776 2.183552 -0.008497 0.004843 -1028830.000000 1 0 0
-17.832567 -4.413055 -2.537620 18.544946 0.242598 1.708063 0.000653 0.001396 644145.000000 1 0 0
-8.905967 13.183045 -10.848620 19.256206 -0.976661 2.169271 0.000182 -0.012223 110377.000000 1 0 0
-14.894067 6.183345 6.281780 17.306870 -0.393502 1.199349 0.001836 -0.004485 -348509.000000 1 0 0
-16.385667 -3.158955 -4.284620 17.228669 0.190451 1.822125 -0.008600 -0.000826 -215662.000000 1 0 0
-11.232467 -1.108455 -12.422820 16.784619 0.098365 2.404062 0.004390 -0.002718 608896.000000 1 0 0
-15.286167 6.917145 -8.573220 18.841812 -0.424939 2.043180 0.000472 0.007546 75564.800000 1 0 0
-14.870567 9.187945 1.458180 17.540763 -0.553449 1.487569 0.006815 0.000113 -496971.000000 1 0 0
-19.552567 5.290045 7.439880 21.578676 -0.264229 1.218793 0.016207 -0.006645 -1084570.000000 1 0 0
-16.292267 0.569545 1.079180 16.337900 -0.034944 1.504694 0.004610 -0.003862 128781.000000 1 0 0
-17.470667 3.857045 7.063880 19.235369 -0.217287 1.194763 0.002382 -0.001954 379281.000000 1 0 0
-15.425167 4.067545 -1.252120 16.001516 -0.257826 1.649126 0.004001 0.004169 -2639630.000000 1 0 0
-10.707067 13.234245 0.498980 17.030429 -0.890566 1.541493 0.008915 -0.011654 -654629.000000 1 0 0
-13.482367 3.436445 0.187780 13.914691 -0.249570 1.557301 -0.002792 0.002582 -391688.000000 1 0 0
-15.162767 0.211345 -4.253720 15.749549 -0.013938 1.844278 -0.002558 0.002800 445690.000000 1 0 0
-18.690467 6.958545 3.716580 20.287136 -0.356405 1.386557 0.005933 -0.001491 219272.000000 1 0 0
-14.210367 1.419045 -6.315220 15.615064 -0.099530 1.987153 -0.007138 0.002468 -1048910.000000 1 0 0
-14.031567 12.043045 5.402880 19.264239 -0.709283 1.286521 0.005045 -0.014778 -191200.000000 1 0 0
17.633233 5.566045 6.248680 19.518140 0.305758 1.244911 0.023138 -0.002699 506196.000000 1 0 0
18.529133 7.632745 -0.367820 20.043025 0.390750 1.589149 0.014617 0.009038 547200.000000 1 0 0
16.656533 4.975645 8.567780 19.380506 0.290282 1.112877 0.034685 -0.001135 457796.000000 1 0 0
11.307933 12.439845 11.067280 20.127190 0.833026 0.988591 -0.005596 -0.002072 517875.000000 1 0 0
-2.263267 16.274945 -0.557920 16.441031 -1.432618 1.604737 -0.012806 -0.001065 -148812.000000 1 0 0
14.975233 12.712845 3.506280 19.954148 0.703869 1.394162 0.029324 0.001102 265971.000000 1 0 0
13.562933 11.701145 6.932580 19.207567 0.711838 1.201532 0.016558 0.004028 831021.000000 1 0 0
-0.694667 15.818945 8.542580 17.991589 -1.526911 1.076049 -0.002222 -0.000234 153885.000000 1 0 0
0.731233 12.963345 9.356380 16.003902 1.514448 0.946371 -0.001628 0.001366 -1028810.000000 1 0 0
0.724833 15.434545 -3.769420 15.904688 1.523869 1.810074 -0.004747 0.000710 1098210.000000 1 0 0
5.235633 10.135645 13.441880 17.630295 1.093991 0.703735 -0.007157 -0.013113 102524.000000 1 0 0
-1.497467 16.608645 -2.873020 16.921694 -1.480878 1.741406 -0.007405 0.004179 -1124850.000000 1 0 0
8.622433 10.049845 3.272180 13.640121 0.861695 1.328540 -0.000947 0.003916 344404.000000 1 0 0
12.515133 13.886745 -4.957520 19.340301 0.837303 1.830021 0.040659 -0.005501 19053.800000 1 0 0
2.433533 11.608645 7.809380 14.201026 1.364157 0.988532 0.000053 0.005114 839894.000000 1 0 0
-0.262367 15.129145 -8.680620 17.444570 -1.553456 2.091639 0.001371 0.006739 -2425160.000000 1 0 0
2.381133 15.974745 0.283980 16.153728 1.422830 1.553216 0.001176 -0.003728 -560907.000000 1 0 0
1.827533 13.450445 5.205080 14.537786 1.435752 1.204631 0.002939 0.004025 1273920.000000 1 0 0
17.453933 9.182545 -2.124820 19.836173 0.484310 1.678121 -0.000654 0.009411 283293.000000 1 0 0
-7.131767 14.951945 7.331280 18.115475 -1.125734 1.154149 0.001902 -0.011203 -1178370.000000 1 0 0
8.354333 15.831645 -0.127120 17.901174 1.085236 1.577898 0.005023 -0.009737 141866.000000 1 0 0
15.608433 10.517445 2.166580 18.945551 0.592946 1.456187 0.012995 0.007384 619827.000000 1 0 0
14.011533 7.420545 8.764080 18.116199 0.487048 1.065839 0.019371 -0.000555 -1222260.000000 1 0 0
4.215333 18.492545 -1.824620 19.054461 1.346678 1.666701 0.008497 -0.014042 -437542.000000 1 0 0
-0.340967 17.669345 -4.803320 18.313762 -1.551502 1.836180 -0.000656 0.005290 -139045.000000 1 0 0
1.402633 13.768745 -0.735920 13.859556 1.469276 1.623920 0.001002 -0.002640 -126631.000000 1 0 0
10.327733 14.714545 4.211280 18.463878 0.958815 1.340689 0.013301 -0.006015 7640.960000 1 0 0
-1.607467 15.382745 -5.131220 16.295466 -1.466676 1.891133 -0.001527 0.000477 309709.000000 1 0 0
15.055933 8.776945 -6.206320 18.499575 0.527793 1.912916 0.016577 0.004510 95093.800000 1 0 0
-2.376167 18.504345 0.903280 18.678139 -1.443084 1.522417 -0.018286 -0.002864 -629774.000000 1 0 0
-3.913067 19.314945 3.527080 20.020477 -1.370909 1.393698 -0.005019 -0.006427 85447.700000 1 0 0
1.865733 17.586845 -2.687920 17.888627 1.465105 1.721626 -0.006957 -0.006115 -174883.000000 1 0 0
2.924233 12.156345 3.253380 12.919456 1.334729 1.316236 0.001394 0.005386 20086.900000 1 0 0
-2.526767 16.071645 1.879780 16.377298 -1.414854 1.455763 -0.011864 -0.002596 -1670810.000000 1 0 0
11.703033 12.897945 -2.658520 17.617766 0.833932 1.722275 0.011929 0.002419 393654.000000 1 0 0
7.247233 11.674045 4.741680 14.535792 1.015224 1.238508 -0.004496 0.003123 11433.300000 1 0 0
7.147333 15.949245 2.192980 17.614538 1.149499 1.445974 0.009818 -0.003396 -284360.000000 1 0 0
5.475333 12.174745 10.399580 16.922026 1.148168 0.908970 -0.012748 0.006772 630607.000000 1 0 0
-1.264567 14.186445 3.236780 14.605858 -1.481892 1.347333 -0.005483 0.002981 -1881920.000000 1 0 0
4.655533 16.179645 1.566980 16.908883 1.290625 1.477991 0.006403 -0.008328 -1000490.000000 1 0 0
7.501433 13.130645 11.988080 19.297653 1.051753 0.900498 -0.004157 -0.000006 247164.000000 1 0 0
0.817333 17.364345 -9.386320 19.755797 1.523761 2.065894 0.002516 0.006390 30905.400000 1 0 0
9.761033 9.758345 15.339880 20.635285 0.785260 0.732685 0.006709 -0.007213 156382.000000 1 0 0
13.546833 7.616345 -0.096720 15.541388 0.512179 1.577020 -0.003645 0.009836 -155995.000000 1 0 0
12.413733 13.583545 -0.225620 18.402836 0.830365 1.583057 0.021869 -0.002393 501478.000000 1 0 0
9.445233 12.439445 3.449280 15.995304 0.921372 1.353446 0.003875 0.005485 821355.000000 1 0 0
-0.603167 13.067345 0.779080 13.104438 -1.524671 1.511310 0.001922 -0.001392 -223919.000000 1 0 0
15.981333 7.446245 -0.839020 17.650879 0.436025 1.618348 0.000118 0.008935 -391521.000000 1 0 0
-4.221067 18.550945 -2.298120 19.163411 -1.347066 1.691008 -0.003216 0.005657 -10815.600000 1 0 0
11.687133 9.284445 -3.229320 15.271493 0.671327 1.783865 0.010994 0.001976 -168468.000000 1 0 0
14.652733 9.705645 8.000780 19.310997 0.585028 1.143609 0.015840 0.003294 543410.000000 1 0 0
4.460033 13.771145 4.639680 15.200755 1.257589 1.260620 0.001530 0.004319 822352.000000 1 0 0
2.302133 15.976545 5.630380 17.095350 1.427687 1.235180 0.004067 0.002670 153057.000000 1 0 0
6.054733 18.474145 5.656080 20.247100 1.254087 1.287677 0.017864 -0.014572 -61286.200000 1 0 0
10.528633 17.140045 -0.840820 20.133063 1.019949 1.612572 0.026416 -0.010977 -1136770.000000 1 0 0
9.986833 13.583645 -4.522020 17.455684 0.936828 1.832842 0.025279 -0.002493 166886.000000 1 0 0
16.485933 8.033045 2.343480 18.488042 0.453409 1.443698 -0.003893 0.004932 240911.000000 1 0 0
4.111833 14.147345 -0.513820 14.741728 1.287945 1.605658 0.003676 -0.003181 223574.000000 1 0 0
5.695433 13.127045 -2.399620 14.509150 1.161437 1.736946 0.000729 -0.003709 -396882.000000 1 0 0
-6.158067 16.921245 -2.841920 18.229833 -1.221770 1.727329 -0.001161 -0.000465 -1977430.000000 1 0 0
18.109433 9.913645 2.900780 20.848176 0.500868 1.431205 0.022566 0.005038 -896302.000000 1 0 0
7.804333 12.879045 9.487880 17.798800 1.025998 1.008580 -0.001270 -0.001390 -542420.000000 1 0 0
-2.555567 15.798245 6.674880 17.339824 -1.410423 1.175648 -0.003030 -0.001449 -849663.000000 1 0 0
11.275133 15.882145 6.357580 20.488777 0.953440 1.255292 0.018591 -0.007851 -237230.000000 1 0 0
13.550933 12.049745 1.350480 18.183727 0.726827 1.496459 0.025060 0.004287 423964.000000 1 0 0
17.405133 7.941845 -5.479920 19.900781 0.428075 1.849763 -0.002342 0.012975 -155557.000000 1 0 0
9.431733 9.250045 7.994680 15.441368 0.775673 1.026584 -0.003118 -0.002362 -565292.000000 1 0 0
-1.999467 14.182145 -1.946620 14.454080 -1.430735 1.705883 -0.009537 0.001562 367945.000000 1 0 0
10.923833 11.661645 0.754080 15.996647 0.818054 1.523639 0.007232 0.006660 -17640.600000 1 0 0
11.800233 9.780345 -0.646120 15.340082 0.692073 1.612928 0.003784 0.005516 -734621.000000 1 0 0
-0.191467 15.903345 10.999880 19.337797 -1.558757 0.965716 0.002752 -0.010121 -1060210.000000 1 0 0
2.092133 20.042445 -1.732920 20.225717 1.466788 1.656581 0.011097 -0.010277 -788467.000000 1 0 0
9.207833 14.348745 1.820580 17.145996 1.000266 1.464415 0.006296 -0.002204 -763336.000000 1 0 0
8.474533 11.737345 -5.223820 15.390623 0.945448 1.917092 0.007702 -0.000131 -361062.000000 1 0 0
10.536733 9.962345 10.304880 17.789368 0.757385 0.952961 -0.006774 -0.006680 205896.000000 1 0 0
-5.082567 15.724645 5.778680 17.506858 -1.258173 1.234407 -0.012218 -0.005577 1011490.000000 1 0 0
14.383933 8.967845 -2.167020 17.088468 0.557493 1.697951 0.017211 0.002223 -965179.000000 1 0 0
12.125633 9.615245 7.061980 17.010452 0.670439 1.142683 0.004018 0.000658 -984151.000000 1 0 0
3.170533 12.933245 9.767480 16.514381 1.330391 0.937937 -0.011682 0.002273 -542290.000000 1 0 0
8.533833 12.624545 -2.673020 15.470956 0.976380 1.744444 0.007543 -0.001288 -1063760.000000 1 0 0
9.546233 16.943345 1.843580 19.534746 1.057708 1.476281 0.019321 -0.004700 -282473.000000 1 0 0
9.654233 14.401745 -7.525120 18.900844 0.980247 1.980281 0.028054 -0.003442 1505730.000000 1 0 0
6.410833 11.447945 7.345180 15.036818 1.060309 1.060450 -0.005108 0.003971 -1368680.000000 1 0 0
5.376033 16.875045 -5.554120 18.561172 1.262383 1.874685 -0.001230 0.001872 -693603.000000 1 0 0
-4.199967 17.262745 -4.606220 18.353728 -1.332137 1.824478 -0.003384 0.000275 252676.000000 1 0 0
-0.196067 18.723545 -0.436420 18.729657 -1.560325 1.594099 -0.007143 0.001391 -275322.000000 1 0 0
6.439833 15.704045 -2.760520 17.196190 1.181635 1.732025 0.000645 -0.000031 81781.600000 1 0 0
-1.016567 20.822845 1.007580 20.871979 -1.522015 1.522503 -0.003578 0.000209 -53398.800000 1 0 0
-1.487367 18.848045 4.378580 19.407036 -1.492046 1.343219 -0.000192 -0.002815 996843.000000 1 0 0
7.274833 13.826745 -4.386120 16.227758 1.086454 1.844485 0.001684 0.004397 -1380770.000000 1 0 0
-0.991067 11.989745 7.693180 14.280099 -1.488324 1.001862 0.000903 0.006023 502781.000000 1 0 0
7.658233 10.764545 10.881780 17.115406 0.952440 0.881767 -0.006777 -0.003643 -104466.000000 1 0 0
1.490533 15.958445 -7.192620 17.567795 1.477666 1.992615 -0.007075 0.000174 -6635.100000 1 0 0
8.994033 7.330845 14.733380 18.753837 0.683868 0.667100 0.006577 -0.000687 96032.600000 1 0 0
11.338633 11.401445 -4.867120 16.800191 0.788160 1.864716 0.025491 -0.002512 -408142.000000 1 0 0
-3.314267 16.912145 4.469780 17.804043 -1.377279 1.317027 -0.012395 -0.006406 -528787.000000 1 0 0
3.918533 15.176345 -6.746620 17.064385 1.318115 1.977259 -0.006224 -0.003013 -1484240.000000 1 0 0
-4.396667 14.007245 9.592180 17.536919 -1.266650 0.992055 0.009551 -0.009487 -832354.000000 1 0 0
6.365333 17.968145 0.651380 19.073437 1.230335 1.536639 0.007007 -0.007395 -25625.700000 1 0 0
9.850733 10.703145 -2.246520 14.718733 0.826846 1.724025 0.009715 0.002387 -68192.100000 1 0 0
7.408333 18.155445 -2.534520 19.771883 1.183369 1.699338 0.010363 -0.002420 -72475.300000 1 0 0
3.479533 10.439745 10.506680 15.214656 1.249079 0.808529 -0.007501 0.002494 1232450.000000 1 0 0
-0.051667 18.704245 2.104080 18.822290 -1.568034 1.458776 -0.001139 -0.004460 54020.900000 1 0 0
-0.843367 17.275745 -7.312020 18.778399 -1.522017 1.970760 0.003240 0.004947 692215.000000 1 0 0
10.158533 8.932845 12.997480 18.759691 0.721285 0.805375 0.004610 0.000018 3432.550000 1 0 0
3.644733 11.501445 5.540980 13.276663 1.263914 1.140272 -0.002481 0.005744 427209.000000 1 0 0
12.811833 13.889445 8.230080 20.610531 0.825734 1.160027 0.005497 -0.007277 -135662.000000 1 0 0
-0.568667 17.505645 6.819280 18.795573 -1.538323 1.199511 -0.002619 0.002411 -125120.000000 1 0 0
12.137933 13.594645 5.702580 19.096157 0.841947 1.267545 0.017688 -0.005453 156673.000000 1 0 0
4.801833 14.447545 -4.469120 15.867016 1.249919 1.856321 -0.007143 0.003424 -660359.000000 1 0 0
3.751433 17.757345 4.757080 18.762366 1.362597 1.314454 0.008397 -0.002934 -1911050.000000 1 0 0
7.130133 11.831845 2.089780 13.971347 1.028451 1.420657 0.002925 0.003545 1067760.000000 1 0 0
6.486933 8.584545 11.746880 15.929969 0.923687 0.741572 -0.004505 -0.002229 474861.000000 1 0 0
-5.298767 14.838645 1.880380 15.868149 -1.227817 1.452017 -0.010554 0.002775 -123407.000000 1 0 0
6.746133 13.764045 6.060680 16.483055 1.115078 1.194271 -0.002264 0.000248 -685738.000000 1 0 0
5.874933 16.035245 5.015580 17.798875 1.219608 1.285135 0.003703 -0.005210 609686.000000 1 0 0
1.119533 18.165745 4.399380 18.724374 1.509245 1.333624 0.009853 0.001465 88483.200000 1 0 0
7.196833 18.085845 -6.952220 20.669435 1.192079 1.913838 0.004567 0.002373 241918.000000 1 0 0
-2.394567 18.736745 -5.852020 19.774875 -1.443685 1.871227 0.005901 0.002614 -2072690.000000 1 0 0
13.553633 9.999145 -4.568920 17.451616 0.635613 1.835688 0.021067 0.002404 -2182240.000000 1 0 0
-1.531567 17.918745 9.976980 20.566168 -1.485531 1.064300 0.004238 -0.007357 38775.600000 1 0 0
3.488333 11.945545 -1.574320 12.543644 1.286677 1.696636 0.004523 -0.003618 -517852.000000 1 0 0
4.407433 13.934045 -10.956220 18.265318 1.264447 2.214094 -0.007754 -0.009422 -202195.000000 1 0 0
11.561233 13.638645 2.131780 18.006089 0.867650 1.452126 0.017562 0.003858 196320.000000 1 0 0
15.933033 6.509145 -7.109520 18.621917 0.387839 1.962520 0.003023 0.009204 108947.000000 1 0 0
2.433433 16.269845 2.998480 16.721852 1.422330 1.390506 0.006214 -0.000658 26328.200000 1 0 0
13.363533 10.781645 3.495880 17.522816 0.678871 1.369944 0.008012 0.007205 -17840.900000 1 0 0
-4.812167 19.563245 -5.727720 20.944791 -1.329605 1.847792 -0.002132 0.003894 93710.100000 1 0 0
5.516533 12.066645 0.139780 13.268594 1.141994 1.560261 0.002682 -0.000794 548258.000000 1 0 0
4.978033 15.158445 9.736680 18.691234 1.253492 1.022865 -0.003049 -0.001219 -357057.000000 1 0 0
7.713033 9.500445 13.834480 18.470035 0.888865 0.724210 -0.003067 -0.006057 -857390.000000 1 0 0
-5.048767 13.658145 7.085380 16.193751 -1.216722 1.117938 -0.000625 -0.003063 -2251930.000000 1 0 0
-4.479367 17.055345 0.615080 17.644485 -1.313960 1.535930 -0.013523 -0.001168 -3197420.000000 1 0 0
-0.612367 16.607245 3.507380 16.984619 -1.533940 1.362796 -0.002546 -0.001379 -1655710.000000 1 0 0
7.767933 16.955045 -4.687420 19.229827 1.141187 1.817035 -0.000218 -0.000090 414441.000000 1 0 0
3.029733 16.353545 -4.584620 17.252143 1.387609 1.839770 -0.008869 -0.000438 -468028.000000 1 0 0
9.503233 14.368445 8.206180 19.081537 0.986451 1.126239 0.007301 -0.007304 41357.100000 1 0 0
12.652333 10.963445 9.267480 19.135434 0.714004 1.065222 0.005171 -0.003340 167314.000000 1 0 0
3.628433 12.368245 12.324580 17.833516 1.285436 0.807799 -0.012973 0.003421 634472.000000 1 0 0
-3.497867 18.964845 6.056580 20.213426 -1.388407 1.266490 0.002661 -0.013156 -24384.700000 1 0 0
-2.598167 15.710545 10.289580 18.959092 -1.406902 0.997118 0.008181 -0.008844 -1015270.000000 1 0 0
2.099433 14.190645 7.588180 16.228447 1.423917 1.084239 0.000713 0.001637 -216018.000000 1 0 0
4.547133 17.177645 8.033280 19.500808 1.312019 1.146208 0.014640 -0.001410 -306476.000000 1 0 0
-1.897467 13.416345 9.380280 16.479938 -1.430299 0.965271 0.001511 -0.002979 -190167.000000 1 0 0
5.798933 17.849945 3.207180 19.040330 1.256681 1.401548 0.006521 -0.009145 684492.000000 1 0 0
7.201633 15.402745 -6.784020 18.306583 1.133440 1.950428 0.001532 0.002215 -370404.000000 1 0 0
11.009333 7.621345 9.485180 16.409112 0.605514 0.954467 0.002024 -0.002722 1191420.000000 1 0 0
9.049733 16.240245 -2.626220 18.776055 1.062411 1.711127 0.011081 -0.011995 -276467.000000 1 0 0
14.582433 11.356045 -6.614420 19.630529 0.661648 1.914467 0.039138 -0.002256 401162.000000 1 0 0
11.175833 6.467445 16.030880 20.584368 0.524610 0.678063 0.032902 -0.004142 771757.000000 1 0 0
8.449933 8.385345 10.160080 15.650643 0.781562 0.864291 -0.003389 -0.003115 -605624.000000 1 0 0
16.228033 9.464045 4.491680 19.315600 0.527968 1.336106 0.009796 0.004063 46458.100000 1 0 0
-3.271967 14.251445 4.707180 15.361217 -1.345119 1.259353 -0.011626 0.000734 -768386.000000 1 0 0
4.873633 14.689345 12.673480 20.003656 1.250444 0.884653 -0.014524 0.002253 -369694.000000 1 0 0
16.040733 10.519045 -4.580320 19.721429 0.580421 1.805188 0.025227 -0.007337 -195101.000000 1 0 0
14.697033 13.987945 6.516680 21.310385 0.760683 1.260020 0.027501 0.005378 -95556.900000 1 0 0
6.185933 9.519545 9.284180 14.665726 0.994552 0.885306 -0.007324 0.000946 344046.000000 1 0 0
10.247333 12.023345 8.825680 18.095892 0.864976 1.061323 0.001263 -0.005920 -690901.000000 1 0 0
8.072533 11.536145 -0.374420 14.085050 0.960231 1.597382 0.001405 0.000974 -468506.000000 1 0 0
7.526633 13.591545 -8.729420 17.820861 1.065061 2.082706 0.016877 0.001027 -819433.000000 1 0 0
2.768633 15.260945 -2.248920 15.672250 1.391329 1.714790 -0.003756 -0.002673 38053.200000 1 0 0
12.202333 13.629945 -7.814820 19.893309 0.840607 1.974510 0.028814 -0.010989 520529.000000 1 0 0
-7.673767 14.831845 9.862180 19.394147 -1.093338 1.037339 0.004685 -0.016370 5455.270000 1 0 0
11.484233 9.657945 2.219380 15.168690 0.699231 1.423956 0.009174 0.005316 -2829400.000000 1 0 0
12.036533 8.800445 4.615780 15.608696 0.631324 1.270589 0.002246 0.005285 341404.000000 1 0 0
14.072733 8.039845 6.138980 17.331128 0.519054 1.208720 0.009509 0.000807 -1835150.000000 1 0 0
16.231433 7.375945 7.468380 19.329788 0.426526 1.174108 0.033462 0.000539 702601.000000 1 0 0
13.504233 8.400845 2.417780 16.086770 0.556504 1.419928 -0.002685 0.007151 -1663830.000000 1 0 0
-4.291667 17.474145 -7.203520 19.381817 -1.329962 1.951597 0.001926 -0.001386 312620.000000 1 0 0
3.123533 19.489545 -3.981620 20.135842 1.411881 1.769846 0.000126 -0.004559 602848.000000 1 0 0
-0.044367 14.936345 6.222480 16.180718 -1.567826 1.176064 0.002168 0.003162 -295732.000000 1 0 0
6.814933 16.055645 8.191880 19.270027 1.169386 1.131713 0.008969 -0.004626 -1317720.000000 1 0 0
12.719133 15.252845 -2.235720 19.985597 0.875732 1.682898 0.034095 -0.011522 119045.000000 1 0 0
12.770933 15.687445 4.225180 20.665063 0.887525 1.364884 0.035000 -0.006751 83615.400000 1 0 0
2.924733 18.179745 1.388380 18.465774 1.411284 1.495539 0.014831 -0.009690 -279077.000000 1 0 0
10.323233 14.526945 -1.302920 17.868936 0.952974 1.643776 0.014358 0.000971 -1155040.000000 1 0 0
-6.264567 15.688145 -0.477020 16.899415 -1.190878 1.599027 -0.010192 -0.001390 -634919.000000 1 0 0
-3.911267 15.871645 -2.482520 16.533905 -1.329179 1.721513 -0.004785 -0.000103 -2380010.000000 1 0 0
-6.725267 16.986445 1.715580 18.349707 -1.193812 1.477166 -0.013589 -0.000184 -541308.000000 1 0 0
-0.006667 19.613945 -6.474820 20.655028 -1.570456 1.889646 -0.002580 0.006365 -20215.300000 1 0 0
4.819633 14.849845 7.081380 17.143299 1.256964 1.144974 0.004590 0.001489 -1007750.000000 1 0 0
8.646833 12.305345 7.004080 16.590551 0.958268 1.134955 -0.001229 -0.002195 -986566.000000 1 0 0
-7.562367 17.524745 -5.668720 19.910813 -1.163412 1.859496 0.012998 -0.006540 235908.000000 1 0 0
-7.757767 17.741845 -1.072120 19.393438 -1.158589 1.626107 0.008036 -0.001090 -40042.800000 1 0 0
-13.629667 -9.090155 9.193280 18.786036 0.588191 1.059432 0.002890 -0.005441 -931829.000000 1 0 0
-12.545067 -12.764755 7.730380 19.495550 0.794078 1.163073 0.006626 0.001210 -28114.300000 1 0 0
-3.852967 -15.069955 12.534080 19.976288 1.320486 0.892525 0.000052 -0.009613 520916.000000 1 0 0
-1.841867 -14.057955 15.292480 20.853741 1.440519 0.747603 0.002276 0.001714 -1258250.000000 1 0 0
-7.141967 -13.644055 12.787680 20.017310 1.088566 0.877818 0.017671 -0.013100 279892.000000 1 0 0
-9.950367 -11.517455 8.932480 17.647968 0.858266 1.040084 0.001887 -0.005473 308804.000000 1 0 0
-10.752567 -10.628355 11.231980 18.834463 0.779589 0.931847 0.010704 -0.007011 547818.000000 1 0 0
-5.933367 -12.248655 10.854180 17.408263 1.119699 0.897575 0.013086 -0.006917 377797.000000 1 0 0
-12.511567 -10.208855 7.271580 17.709769 0.684393 1.147687 0.006339 -0.001315 78881.900000 1 0 0
-7.530367 -11.110255 12.584380 18.398664 0.975136 0.817587 0.008186 -0.007128 -23386.200000 1 0 0
-14.768467 -11.537955 7.194780 20.074782 0.663207 1.204244 0.011594 0.006994 -150016.000000 1 0 0
-11.017467 -9.094255 9.125780 16.951989 0.690062 1.002341 -0.001715 -0.002990 -235526.000000 1 0 0
-5.251867 -11.928255 13.379080 18.677933 1.156048 0.772305 0.020586 -0.005841 -1399940.000000 1 0 0
3.947233 -12.599355 14.636480 19.711696 -1.267193 0.733960 -0.009816 0.009635 525637.000000 1 0 0
6.524033 -12.875355 14.247280 20.281094 -1.101797 0.791905 0.013904 0.004859 19483.000000 1 0 0
6.505333 -8.754455 16.320480 19.629517 -0.931733 0.589128 -0.006933 0.015516 -822429.000000 1 0 0
0.805533 -1.719055 14.650380 14.772870 -1.132590 0.128864 0.009318 -0.002067 -1656940.000000 1 0 0
-0.104567 -6.321355 15.530680 16.768199 1.554256 0.386594 0.004653 -0.003826 -1122870.000000 1 0 0
-1.409767 -4.629855 18.282980 18.912704 1.275221 0.258777 0.014403 -0.013702 -1859390.000000 1 0 0
-5.194567 12.534545 12.861880 18.695623 -1.177921 0.812119 0.013995 -0.015740 -166771.000000 1 0 0
-4.082667 8.723945 11.587080 15.067708 -1.133088 0.693520 0.001330 -0.005447 -224462.000000 1 0 0
-0.771467 -3.856455 15.136580 15.639165 1.373357 0.254204 0.006868 -0.002828 525021.000000 1 0 0
-4.344967 9.182645 14.166580 17.432490 -1.128841 0.622105 0.007782 -0.012334 468469.000000 1 0 0
-13.360867 -2.631955 16.925780 21.723766 0.194500 0.677509 0.008987 0.008267 -389199.000000 1 0 0
-0.197467 0.769945 17.282580 17.300849 -1.319739 0.045960 0.006125 -0.001259 -813007.000000 1 0 0
-3.215967 -7.296455 15.529780 17.457227 1.155655 0.474349 0.016254 -0.003184 198759.000000 1 0 0
-7.496267 5.485845 12.776780 15.796665 -0.631758 0.628641 0.001936 -0.006580 -854766.000000 1 0 0
-9.722667 10.087845 13.509280 19.462670 -0.803830 0.803610 0.009364 -0.009352 395469.000000 1 0 0
-5.486667 2.295745 11.202180 12.683170 -0.396286 0.488086 0.001936 -0.002207 -1708650.000000 1 0 0
-7.251667 -7.427755 16.823180 19.768096 0.797393 0.552859 0.017166 -0.008435 -45765.300000 1 0 0
-4.546167 2.855745 18.563280 19.324034 -0.560872 0.281529 0.017448 -0.007840 763746.000000 1 0 0
0.987733 -8.297555 16.429580 18.432475 -1.452315 0.470506 -0.002137 -0.004178 613567.000000 1 0 0
-14.930167 -3.664955 14.227980 20.947009 0.240714 0.824074 0.011336 0.003515 564135.000000 1 0 0
-14.255867 1.976245 13.210280 19.535782 -0.137749 0.828191 -0.004006 0.005490 387494.000000 1 0 0
-5.586767 1.041245 16.021080 16.999152 -0.184263 0.340872 0.014121 -0.007385 340685.000000 1 0 0
4.657633 5.652045 15.178280 16.852874 0.881555 0.449569 0.003931 -0.004624 -768148.000000 1 0 0
-1.103267 -12.016655 13.863180 18.379471 1.479242 0.716247 -0.010079 -0.003677 -163217.000000 1 0 0
-5.796567 -4.007555 16.791080 18.209917 0.604908 0.397364 0.015768 -0.004290 296952.000000 1 0 0
-12.959467 -1.615455 9.901680 16.389044 0.124015 0.922079 -0.002601 0.002612 -1227190.000000 1 0 0
-14.610967 10.142745 9.979180 20.394599 -0.606814 1.059504 0.014570 -0.008122 359917.000000 1 0 0
-3.482567 -3.269355 17.702780 18.335904 0.753831 0.263552 0.018181 -0.009734 -2118500.000000 1 0 0
-7.862667 9.394745 11.903980 17.081789 -0.873944 0.799757 0.004106 -0.011697 24662.500000 1 0 0
-4.176667 10.686445 16.300980 19.934057 -1.198213 0.613314 0.013040 -0.012222 351469.000000 1 0 0
-12.597367 12.671345 8.475980 19.776220 -0.788326 1.127860 0.001714 -0.013996 114457.000000 1 0 0
-12.537367 3.102945 10.601080 16.709181 -0.242620 0.883504 -0.003098 -0.001036 792649.000000 1 0 0
-10.122867 -3.469655 13.762180 17.432973 0.330205 0.660910 0.003148 0.005493 -1144430.000000 1 0 0
-4.337667 -6.422455 17.781780 19.397293 0.976778 0.411018 0.018222 -0.005925 -518549.000000 1 0 0
0.968533 -3.592055 18.161180 18.538322 -1.307427 0.202056 0.008527 0.000862 -495207.000000 1 0 0
-5.839767 2.022445 13.687280 15.017816 -0.333395 0.424116 0.004206 -0.003982 -953644.000000 1 0 0
-10.573467 8.814045 10.401280 17.253180 -0.694896 0.923713 0.001631 -0.006891 426670.000000 1 0 0
4.668733 2.503745 17.254280 18.049266 0.492248 0.297901 0.002847 -0.003889 -1612920.000000 1 0 0
0.549633 -5.227455 13.297380 14.298556 -1.466038 0.376436 0.002697 -0.001195 -1309040.000000 1 0 0
-3.949167 5.879445 20.560980 21.746671 -0.979324 0.331740 0.020696 -0.011324 -521505.000000 1 0 0
-10.809767 10.912345 9.165780 17.886919 -0.790120 1.032785 0.006744 -0.010091 -313015.000000 1 0 0
0.694933 4.198645 13.036280 13.713357 1.406770 0.315548 0.001579 -0.006719 -2620530.000000 1 0 0
-3.152267 7.091845 13.341680 15.434749 -1.152532 0.526856 0.004002 -0.007102 111928.000000 1 0 0
0.836533 8.858045 14.141480 16.707669 1.476638 0.561596 0.004377 -0.005723 216571.000000 1 0 0
-4.114267 -6.662755 13.120880 15.279954 1.017607 0.538071 0.014430 -0.004424 -333896.000000 1 0 0
-5.033067 8.146645 16.471280 19.052629 -1.017385 0.526612 0.017080 -0.009502 201882.000000 1 0 0
1.655533 -10.652055 15.712280 19.054732 -1.416611 0.601325 -0.009876 0.006247 -588533.000000 1 0 0
-15.033867 -1.137755 14.391980 20.843242 0.075535 0.808635 0.007993 0.002726 262647.000000 1 0 0
-13.537967 -5.229055 8.587380 16.863056 0.368598 1.036492 0.004425 -0.000839 -834539.000000 1 0 0
-14.088067 -2.048155 12.219480 18.761244 0.144371 0.861480 0.001844 0.004556 201943.000000 1 0 0
9.330933 1.740345 16.980180 19.453062 0.184395 0.509723 0.004438 0.004710 -1655320.000000 1 0 0
4.974333 -6.768855 16.642780 18.642519 -0.937039 0.467423 0.000600 -0.005113 220645.000000 1 0 0
-6.110067 -2.696355 11.121280 12.972514 0.415593 0.540803 -0.000969 0.000236 295106.000000 1 0 0
0.584233 -6.305755 18.005780 19.086959 -1.478409 0.338195 0.004796 -0.006756 -489040.000000 1 0 0
-8.364967 11.984045 12.227580 19.055281 -0.961408 0.874097 0.014551 -0.012199 -3276.260000 1 0 0
-6.574267 -5.768255 14.895680 17.273536 0.720187 0.530921 0.016040 -0.003332 -949661.000000 1 0 0
-4.280167 -8.899955 17.226480 19.856501 1.122529 0.520544 0.021890 -0.006082 -62531.200000 1 0 0
2.450533 -6.005055 16.280380 17.524742 -1.183345 0.379111 0.002665 -0.003801 73010.900000 1 0 0
2.299933 5.321845 15.999880 17.017870 1.162870 0.347635 -0.001147 -0.008188 -1866980.000000 1 0 0
1.020033 -8.839355 14.002880 16.590820 -1.455908 0.566073 -0.008285 0.000868 -471749.000000 1 0 0
-9.884567 -2.782255 11.243380 15.226924 0.274376 0.740119 -0.009071 0.002129 50783.500000 1 0 0
-1.255067 10.010545 12.372880 15.964785 -1.446073 0.684064 -0.002212 -0.006924 -192869.000000 1 0 0
-12.345067 -3.727355 11.317880 17.157747 0.293227 0.850461 0.003893 0.001481 -697970.000000 1 0 0
-1.575467 6.699945 19.895080 21.051973 -1.339846 0.333061 0.002507 -0.009174 -298807.000000 1 0 0
0.595133 -13.206455 15.481480 20.357821 -1.525763 0.706762 -0.019924 -0.010934 -338113.000000 1 0 0
4.068733 -8.771055 15.315380 18.112064 -1.136458 0.563127 -0.000428 0.004290 -871117.000000 1 0 0
4.481333 -4.409155 16.272980 17.445139 -0.777280 0.368666 0.002654 0.003399 -717300.000000 1 0 0
8.047733 1.747445 14.761380 16.903193 0.213816 0.508883 -0.001429 0.005663 -469790.000000 1 0 0
-6.196067 -0.076955 11.926680 13.440345 0.012419 0.479168 0.001649 -0.001614 137070.000000 1 0 0
-3.578067 -11.099755 18.387380 21.773904 1.258958 0.565224 0.022697 -0.002537 -223428.000000 1 0 0
3.302633 -1.448755 13.723680 14.189633 -0.413389 0.256978 -0.000445 0.002829 680395.000000 1 0 0
-2.498367 8.760945 15.909380 18.333150 -1.292999 0.520053 0.007688 -0.008206 -1120490.000000 1 0 0
-3.272267 3.958245 14.771580 15.638894 -0.879988 0.334602 0.008235 -0.011383 -1116960.000000 1 0 0
-4.482667 -9.143555 19.868580 22.326204 1.114976 0.473622 0.027383 -0.004019 -95664.900000 1 0 0
-5.588567 -2.747355 19.102880 20.092289 0.456907 0.315128 0.018323 -0.011424 -739977.000000 1 0 0
-6.582967 -8.624355 11.254580 15.632675 0.918838 0.767081 0.011941 -0.002983 158383.000000 1 0 0
-11.628367 2.289645 12.757580 17.413134 -0.194415 0.748602 0.002006 -0.003928 -420891.000000 1 0 0
-11.664467 -7.502955 11.589980 18.074340 0.571602 0.874684 -0.000717 -0.002414 -189230.000000 1 0 0
-10.879867 -7.332455 15.479880 20.291947 0.593026 0.703074 0.006750 -0.012393 286283.000000 1 0 0
0.350133 5.748445 17.622580 18.539756 1.509962 0.315861 0.001760 -0.011122 -208895.000000 1 0 0
-2.239367 -0.058955 13.228980 13.417308 0.026321 0.167745 0.010653 -0.003001 167256.000000 1 0 0
-6.109567 -10.452955 18.177380 21.840518 1.041865 0.587592 0.023952 -0.005072 745750.000000 1 0 0
0.575733 2.638445 19.165680 19.355004 1.355955 0.139983 0.007613 -0.005485 -419873.000000 1 0 0
-0.679467 10.739245 14.825680 18.319221 -1.507611 0.627843 0.004501 -0.010453 -1124150.000000 1 0 0
-12.683267 -2.342055 14.448480 19.367733 0.182600 0.728749 0.005545 0.005771 -1339950.000000 1 0 0
-13.822767 8.367445 11.681480 19.938405 -0.544335 0.944833 0.013927 -0.003709 102284.000000 1 0 0
-17.953367 -0.721555 6.981280 19.276470 0.040169 1.200206 0.000563 -0.001861 -703480.000000 1 0 0
-2.077867 -7.689955 17.899080 19.591580 1.306893 0.418718 0.013959 -0.004325 -812725.000000 1 0 0
5.728733 2.622645 14.527580 15.835000 0.429326 0.409212 0.001539 -0.000185 -3306210.000000 1 0 0
-14.216967 -6.920655 11.279780 19.422952 0.453023 0.951153 0.013884 0.001014 213883.000000 1 0 0
3.339433 7.671545 16.247980 18.275702 1.160233 0.475534 -0.002332 -0.016383 -88322.800000 1 0 0
1.033333 2.059245 14.548680 14.729982 1.105708 0.157058 0.003633 -0.005153 -2298250.000000 1 0 0
-14.208367 0.713845 9.701580 17.219406 -0.050199 0.972289 -0.005799 -0.000272 -3133030.000000 1 0 0
-9.409067 -5.141555 15.510580 18.855881 0.500111 0.604853 0.005719 0.000992 -710866.000000 1 0 0
-2.516967 -0.007255 18.193580 18.366860 0.002882 0.137472 0.012972 -0.004594 112972.000000 1 0 0
6.930133 3.703145 17.744480 19.406355 0.490752 0.416861 0.011944 0.006708 -697939.000000 1 0 0
-4.205867 -0.738955 14.707180 15.314585 0.173921 0.282584 0.011757 -0.000722 -981410.000000 1 0 0
4.399633 -8.908255 17.899080 20.471709 -1.112055 0.506738 -0.004787 0.007818 -76233.500000 1 0 0
1.929333 6.856045 13.376780 15.154733 1.296484 0.489262 0.001167 -0.004196 -1474830.000000 1 0 0
-3.737267 -0.728055 20.410180 20.762290 0.192400 0.184430 0.022894 -0.005051 -314184.000000 1 0 0
-10.472067 1.586245 16.465880 19.578191 -0.150331 0.571609 0.007058 0.000514 -21835.400000 1 0 0
-3.589167 7.045345 18.338380 19.970358 -1.099627 0.407082 0.012939 -0.010153 -875921.000000 1 0 0
-12.496167 1.116645 14.844680 19.436193 -0.089122 0.701671 0.004178 0.001801 -646755.000000 1 0 0
-15.990767 -4.754155 8.404880 18.680167 0.288984 1.104103 0.006698 -0.007994 -1047850.000000 1 0 0
-2.448767 0.847945 15.734980 15.946946 -0.333352 0.163227 0.011110 -0.003894 285553.000000 1 0 0
-13.518067 -8.957255 12.595880 20.533552 0.585191 0.910401 -0.023777 -0.003047 420323.000000 1 0 0
6.219933 -3.292455 14.653080 16.255479 -0.486843 0.447749 0.002609 0.003786 603015.000000 1 0 0
-15.576267 0.315045 7.610080 17.338762 -0.020223 1.116416 -0.007075 -0.001947 346443.000000 1 0 0
-13.916367 5.922245 12.618580 19.696873 -0.402345 0.875466 -0.001847 0.002470 -414038.000000 1 0 0
0.410833 9.201445 16.676080 19.050644 1.526177 0.504626 0.004468 -0.020943 -433401.000000 1 0 0
-10.314367 -5.399055 10.842980 15.909311 0.482231 0.820919 -0.002337 0.000138 -10528.400000 1 0 0
-3.256667 -10.988655 14.988880 18.868570 1.282677 0.652804 0.017707 -0.005950 -1224810.000000 1 0 0
-3.386067 2.658645 12.563680 13.280810 -0.665634 0.330123 0.006797 -0.003779 -1868530.000000 1 0 0
-12.363467 -7.641555 7.389480 16.305002 0.553604 1.100441 0.002661 -0.003475 -604947.000000 1 0 0
-8.172267 -1.820155 13.205780 15.636225 0.219146 0.565047 -0.002664 -0.000593 -199493.000000 1 0 0
-9.786067 6.521145 9.634180 15.202298 -0.587797 0.884428 -0.000059 -0.006197 -556281.000000 1 0 0
-17.828867 -3.710755 6.678880 19.397052 0.205202 1.219277 -0.002763 -0.007618 120163.000000 1 0 0
-1.242367 0.139645 20.485880 20.523993 -0.111933 0.060951 0.014704 -0.000570 -1020670.000000 1 0 0
-2.537267 2.859145 20.260780 20.618236 -0.844974 0.186479 0.013880 0.000503 -529665.000000 1 0 0
-3.745567 11.331945 11.102180 16.300327 -1.251569 0.821530 0.001973 -0.008040 -528072.000000 1 0 0
-4.117067 -4.806355 14.895480 16.184147 0.862490 0.401759 0.011981 -0.005561 -481000.000000 1 0 0
-0.225867 -14.275755 13.241180 19.472469 1.554976 0.823041 -0.015402 -0.007449 -218263.000000 1 0 0
-12.066467 0.319645 8.387380 14.698638 -0.026484 0.963532 -0.004016 -0.000363 -1001510.000000 1 0 0
-7.797567 2.383845 15.346180 17.377860 -0.296693 0.488393 0.009649 -0.003130 67532.600000 1 0 0
3.726633 -2.156555 18.517280 19.011265 -0.524601 0.228460 0.006060 0.002748 88318.600000 1 0 0
-2.138767 4.887445 12.537980 13.625799 -1.158298 0.402295 0.001724 -0.005229 -179509.000000 1 0 0
-10.196867 -6.157655 13.232280 17.804102 0.543265 0.732933 -0.007465 -0.003826 -301336.000000 1 0 0
2.454633 -3.787455 14.314280 15.008953 -0.995761 0.305435 -0.001286 0.000877 -67421.100000 1 0 0
6.849433 1.176845 17.107080 18.464883 0.170155 0.385885 0.000530 0.003016 -1840040.000000 1 0 0
-1.916667 -5.807855 13.785380 15.081164 1.252037 0.417564 0.009732 -0.005436 -1675960.000000 1 0 0
-12.743067 3.668245 14.635180 19.749184 -0.280284 0.736160 -0.005969 0.003517 61093.800000 1 0 0
-13.205667 -6.433255 13.575080 20.001480 0.453322 0.824800 -0.011150 -0.004696 -267049.000000 1 0 0
-9.444567 6.894545 12.032980 16.778773 -0.630579 0.771085 -0.002308 -0.006279 -209576.000000 1 0 0
-1.007667 -2.362055 12.973180 13.224905 1.167566 0.195422 0.008786 -0.002462 409007.000000 1 0 0
0.093333 6.617545 15.237280 16.612505 1.556693 0.409757 0.001985 -0.013115 520617.000000 1 0 0
-16.418967 -0.790755 9.849680 19.163089 0.048124 1.030964 -0.001965 0.004810 -495094.000000 1 0 0
-1.255467 2.807545 13.767780 14.107100 -1.150293 0.219773 0.007245 -0.005149 -2913700.000000 1 0 0
-10.981567 -3.291355 16.241580 19.880059 0.291197 0.614645 -0.001973 -0.002335 -733712.000000 1 0 0
-5.126767 -1.374255 17.019380 17.827833 0.261898 0.302307 0.022655 -0.007268 285734.000000 1 0 0
-11.895167 6.706345 11.308380 17.729905 -0.513367 0.879140 0.003180 0.000236 -1781250.000000 1 0 0
-2.547567 4.735745 18.559580 19.322924 -1.077256 0.282019 0.009056 -0.009634 252495.000000 1 0 0
5.280833 -1.931455 16.521380 17.452041 -0.350635 0.328047 0.006246 0.003041 -723571.000000 1 0 0
-8.012467 -4.137455 12.216780 15.184462 0.476663 0.635865 0.001280 0.001313 -1651530.000000 1 0 0
-11.578067 -0.779855 16.247280 19.965819 0.067255 0.620213 0.020294 0.001993 634786.000000 1 0 0
2.140833 1.982845 17.274280 17.519007 0.747104 0.167343 0.003307 -0.008508 -2315340.000000 1 0 0
-8.956567 -7.547455 11.599380 16.484229 0.700225 0.790253 0.007537 -0.003883 -361549.000000 1 0 0
-7.251867 6.887145 14.992380 18.022037 -0.759608 0.588289 0.007324 -0.006996 -114864.000000 1 0 0
-5.599167 3.524845 15.846980 17.172711 -0.561850 0.395510 0.009585 -0.003967 -207174.000000 1 0 0
-9.369667 4.215245 11.648680 15.532247 -0.422756 0.722783 -0.006356 -0.005124 -209829.000000 1 0 0
-10.083767 0.204845 14.353180 17.542466 -0.020312 0.612530 0.000242 0.001400 201643.000000 1 0 0
8.399533 -0.456155 15.964480 18.045079 -0.054254 0.484946 0.002188 0.004822 217428.000000 1 0 0
-8.465367 -7.463155 14.570880 18.430184 0.722562 0.659010 0.016621 -0.005563 -2105290.000000 1 0 0
-0.022167 4.136345 15.591180 16.130553 -1.565437 0.259330 0.003705 -0.009802 587635.000000 1 0 0
-7.950667 3.160845 9.764680 12.982797 -0.378399 0.719516 -0.009541 -0.001198 -581806.000000 1 0 0
-2.039167 -9.667355 13.076980 16.389734 1.362910 0.647032 -0.002692 -0.003549 491701.000000 1 0 0
-5.962467 10.275445 10.461480 15.829667 -1.045015 0.848808 0.009721 -0.012463 -1517280.000000 1 0 0
-8.476667 -2.730155 15.699480 18.049413 0.311588 0.515988 0.007815 -0.005858 -149952.000000 1 0 0
4.111033 5.712245 17.780780 19.122931 0.946979 0.376888 -0.002593 -0.005663 119269.000000 1 0 0
-6.811167 -0.826955 15.010780 16.504526 0.120820 0.428729 0.008009 -0.003646 -356670.000000 1 0 0
-0.899467 -9.870855 15.368780 18.287762 1.479924 0.572801 -0.003757 -0.002198 -744076.000000 1 0 0
-4.247167 5.726345 16.289080 17.780990 -0.932636 0.412565 0.012709 -0.008310 253200.000000 1 0 0
3.828633 0.078445 17.398480 17.814929 0.020486 0.216647 0.008026 -0.002700 -789841.000000 1 0 0
1.393733 0.256145 19.133180 19.185586 0.181755 0.073929 0.005511 -0.003860 -733593.000000 1 0 0
-6.105067 6.387145 18.075880 20.119764 -0.807975 0.454652 0.010077 -0.000425 77530.800000 1 0 0
-12.161467 0.544045 10.972280 16.388661 -0.044705 0.837255 0.002884 0.002870 -588311.000000 1 0 0
-5.360867 5.247445 13.982280 15.867537 -0.774707 0.492428 0.006315 -0.007935 -1377560.000000 1 0 0
-8.652767 -9.547455 9.977080 16.296208 0.834517 0.911914 0.008221 -0.001234 -745211.000000 1 0 0
6.853433 -3.965255 17.074780 18.821289 -0.524520 0.434203 -0.000520 0.007770 -1126050.000000 1 0 0
-16.538367 1.792845 9.351680 19.083653 -0.107984 1.058665 -0.005784 -0.004828 122837.000000 1 0 0
-4.078967 -9.558355 11.431080 15.448939 1.167450 0.737835 0.007681 -0.003216 -1294790.000000 1 0 0
-11.064567 -3.900455 9.131580 14.866874 0.338916 0.909395 -0.003444 0.001917 -389850.000000 1 0 0
3.687633 -5.483755 18.539080 19.681659 -0.978790 0.342414 -0.000496 0.000635 -79141.900000 1 0 0
2.660333 -1.965955 16.200880 16.535141 -0.636416 0.201413 0.005548 0.000254 -499633.000000 1 0 0
-3.084567 -4.274755 20.079380 20.759807 0.945735 0.256736 0.020307 -0.013535 -1119560.000000 1 0 0
-6.220067 -3.298055 14.436080 16.061345 0.487537 0.453752 0.010208 0.000182 901169.000000 1 0 0
-9.824667 5.124345 13.985780 17.843347 -0.480762 0.670020 0.006382 -0.005798 -68707.200000 1 0 0
-5.772567 -5.141155 11.837280 14.137723 0.727608 0.578501 0.004327 -0.002144 -526599.000000 1 0 0
5.945433 2.007745 19.425280 20.413739 0.325671 0.312465 -0.000598 -0.003965 84550.600000 1 0 0
-2.662067 11.721345 13.481180 18.061527 -1.347472 0.728156 0.000231 -0.017328 -1082460.000000 1 0 0
3.422133 1.344145 15.114980 15.555718 0.374267 0.238611 0.001413 0.000812 -1066850.000000 1 0 0
-5.796567 7.513445 12.969080 16.070130 -0.913681 0.631691 0.004468 -0.010475 -901968.000000 1 0 0
-1.789467 -1.536355 15.317880 15.498388 0.709440 0.152771 0.011518 -0.002598 -74895.800000 1 0 0
-7.158467 10.507245 14.108980 18.992345 -0.972739 0.733438 0.026250 -0.019308 282822.000000 1 0 0
-10.057067 2.004445 10.654380 14.787772 -0.196729 0.766294 -0.010047 -0.000278 141084.000000 1 0 0
-13.856467 5.010245 9.355580 17.453685 -0.346955 1.005077 -0.001736 -0.001492 -231773.000000 1 0 0
0.420833 -4.980055 20.187180 20.796641 -1.486493 0.242693 0.003968 -0.004509 68731.500000 1 0 0
-14.354467 -2.825655 7.527080 16.452720 0.194363 1.095617 -0.002695 -0.003074 330112.000000 1 0 0
-2.050867 2.497745 17.605980 17.900149 -0.883329 0.181544 0.005595 -0.006494 29796.400000 1 0 0
-6.037767 -8.357855 14.615280 17.886162 0.945190 0.614386 0.015792 -0.003886 473298.000000 1 0 0
-7.940067 2.025245 12.198280 14.695044 -0.249741 0.591519 -0.003959 -0.002392 627311.000000 1 0 0
-14.601867 -3.489355 10.089480 18.088331 0.234567 0.979076 0.008556 -0.001428 -29988.600000 1 0 0
-0.569567 7.039545 12.732380 14.559983 -1.490063 0.506438 0.000355 -0.005135 -1517820.000000 1 0 0
-1.701367 -2.156955 19.398480 19.592043 0.902933 0.140684 0.016546 -0.003158 340435.000000 1 0 0
-12.623567 10.150545 7.496280 17.848872 -0.677233 1.137366 0.001712 -0.014229 -586215.000000 1 0 0
-19.289267 2.069045 7.154180 20.677018 -0.106855 1.217495 -0.007406 -0.001065 -138697.000000 1 0 0
-16.065867 8.491845 6.745880 19.383767 -0.486237 1.215341 0.006121 0.001403 502196.000000 1 0 0
-12.330567 7.675845 13.742480 19.995431 -0.556803 0.813057 0.013400 0.003032 436487.000000 1 0 0
-15.989667 7.999445 10.320080 20.643755 -0.463878 1.047298 0.001940 -0.006017 -302354.000000 1 0 0
1.881733 10.929345 15.239980 18.848037 1.400295 0.629077 -0.006817 -0.006784 -284927.000000 1 0 0
2.229833 14.504345 12.727480 19.425162 1.418255 0.856341 -0.015933 0.003382 -544814.000000 1 0 0
-3.127167 13.666645 11.796380 18.322417 -1.345851 0.871313 -0.002109 -0.008923 324329.000000 1 0 0
9.007333 4.970345 15.634780 18.715842 0.504233 0.581978 0.012467 -0.001707 -41186.900000 1 0 0
-0.306567 12.489245 12.910880 17.965691 -1.546255 0.768950 -0.003038 -0.007966 -239170.000000 1 0 0
3.723933 13.506045 14.676680 20.290044 1.301758 0.762163 -0.015926 0.002612 135559.000000 1 0 0
-2.816467 -4.106455 -13.681920 14.559890 0.969621 2.792547 -0.001536 -0.003041 -755462.000000 1 0 0
5.706833 -11.640055 16.329080 20.849405 -1.114959 0.671014 -0.001670 0.010751 68432.700000 1 0 0
7.932933 -13.511955 7.396080 17.326464 -1.039913 1.129772 0.002470 -0.008746 -260539.000000 1 0 0
-0.139667 15.765945 1.241580 15.815374 -1.561938 1.492211 -0.005849 -0.000614 -3603370.000000 1 0 0
-13.655367 7.873345 9.081480 18.191534 -0.523017 1.048104 -0.001757 -0.007081 150632.000000 1 0 0
-15.336467 -9.759755 4.650580 18.764006 0.566738 1.320340 0.006786 0.001363 -1719890.000000 1 0 0
9.392833 -10.950355 11.062080 18.179802 -0.861811 0.916650 0.011953 -0.011407 118505.000000 1 0 0
-5.524567 -10.685155 -16.921320 20.761128 1.093616 2.523609 0.008049 0.003277 43273.800000 1 0 0
-1.918367 -12.780855 -14.655820 19.540303 1.421812 2.418904 0.005669 0.004833 -160137.000000 1 0 0
5.288033 -15.750455 -12.743720 20.939019 -1.246883 2.225105 -0.011266 0.014398 195346.000000 1 0 0
2.546533 -11.757355 -16.818820 20.678320 -1.357500 2.520693 -0.001294 0.011056 366997.000000 1 0 0
0.795333 -14.178355 -14.749520 20.474536 -1.514760 2.375152 0.014933 0.022801 316755.000000 1 0 0
-6.547867 -5.817255 -14.657520 17.075067 0.726380 2.602971 0.010815 -0.002229 40801.300000 1 0 0
-6.583267 -8.125255 -17.244320 20.167442 0.889853 2.596458 0.006263 -0.001319 -4690.560000 1 0 0
-2.569867 -16.372855 -13.316920 21.260643 1.415108 2.247678 0.007792 0.006081 397883.000000 1 0 0
16.152233 -8.373855 -8.775220 20.199519 -0.478285 2.020199 0.008664 -0.008498 -17705.800000 1 0 0
18.974933 -2.913655 -4.171520 19.645331 -0.152363 1.784767 -0.006255 0.002632 146819.000000 1 0 0
15.538333 -11.534155 -9.097620 21.383246 -0.638557 2.010261 0.004948 -0.006561 315983.000000 1 0 0
17.851833 -4.215955 -7.337520 19.756048 -0.231914 1.951319 0.091021 -0.005305 -170537.000000 1 0 0
9.111233 -9.904255 -16.090820 20.976733 -0.827078 2.445073 0.040440 0.015480 208498.000000 1 0 0
-4.709267 9.240445 -16.115020 19.163947 -1.099469 2.569746 -0.002127 -0.008217 337183.000000 1 0 0
1.404333 -9.496755 -19.181720 21.449916 -1.423985 2.677563 0.003382 0.025204 243337.000000 1 0 0
10.999333 7.996045 -15.263120 20.442233 0.628590 2.413803 0.018016 -0.016618 471857.000000 1 0 0
18.476133 -6.375255 -8.743120 21.411528 -0.332261 1.991428 0.023133 -0.004074 518092.000000 1 0 0
13.755033 5.521445 -13.920420 20.333848 0.381724 2.324842 0.055965 0.004596 40584.000000 1 0 0
15.858433 6.326945 -10.655420 20.126055 0.379613 2.128730 0.002118 -0.001257 235974.000000 1 0 0
3.156033 -0.234655 -19.331120 19.588461 -0.074215 2.979320 0.019024 -0.007534 147027.000000 1 0 0
10.251333 -1.670355 -14.694920 17.995015 -0.161521 2.526310 0.006967 -0.006986 140374.000000 1 0 0
12.361533 -5.587755 -14.460820 19.827905 -0.424539 2.388119 0.026055 0.006012 -317076.000000 1 0 0
10.215933 6.679345 -13.282620 18.039039 0.579053 2.398421 0.009038 0.009788 312401.000000 1 0 0
10.453633 5.443845 -16.409020 20.203213 0.480118 2.518707 -0.000700 -0.002340 280666.000000 1 0 0
11.750833 -10.080155 -15.140720 21.654861 -0.709019 2.345051 0.041987 0.000744 377527.000000 1 0 0
-1.283267 2.184645 -17.403820 17.587279 -1.039691 2.997027 0.005082 -0.010092 322542.000000 1 0 0
6.604233 -1.080855 -17.478220 18.715563 -0.162223 2.775930 0.018472 0.015551 167404.000000 1 0 0
6.578233 -5.945655 -15.572420 17.919939 -0.734931 2.623973 -0.007565 -0.003467 312059.000000 1 0 0
-2.423867 -4.345255 -20.578920 21.171875 1.061970 2.904365 0.011159 -0.016196 357130.000000 1 0 0
15.865133 -0.418555 -13.424120 20.786645 -0.026376 2.272874 -0.000157 -0.000962 77244.500000 1 0 0
-3.938067 -0.361855 -18.415920 18.835748 0.091629 2.930064 -0.002462 -0.009047 129000.000000 1 0 0
3.914933 9.226645 -17.104820 19.825048 1.169513 2.611556 0.011538 -0.023996 228338.000000 1 0 0
9.531133 0.651845 -16.368620 18.952549 0.068285 2.613289 0.015780 -0.029692 80332.500000 1 0 0
4.089233 4.719645 -18.471420 19.498467 0.856842 2.815580 0.009507 0.001045 293610.000000 1 0 0
-2.945567 -11.045255 -17.815020 21.167167 1.310180 2.571099 0.003721 -0.013534 178834.000000 1 0 0
5.716533 -9.469155 -16.381920 19.766409 -1.027660 2.547713 -0.000544 0.009344 251524.000000 1 0 0
10.048733 -12.347055 -10.764120 19.217000 -0.887663 2.165345 -0.000334 0.006545 130576.000000 1 0 0
6.288933 6.579645 -17.117620 19.386988 0.807985 2.652892 0.016279 -0.013715 -279700.000000 1 0 0
8.190733 1.194145 -20.166020 21.798680 0.144772 2.752103 0.006996 0.003835 104697.000000 1 0 0
-1.055267 -0.722255 -20.197220 20.237661 0.600199 3.078363 0.007694 -0.010565 204733.000000 1 0 0
-0.963767 6.626645 -19.591120 20.703943 -1.426371 2.812236 0.013324 -0.012196 108535.000000 1 0 0
8.384733 5.440445 -18.438320 20.973169 0.575567 2.644848 0.008306 -0.001737 45507.100000 1 0 0
11.886733 0.074145 -12.852920 17.507069 0.006238 2.395219 -0.018625 -0.005403 -41176.100000 1 0 0
-3.764667 -2.712755 -19.630920 20.171881 0.624407 2.909479 -0.025540 -0.004455 286458.000000 1 0 0
5.192733 -11.185255 -14.498820 19.033922 -1.136157 2.436784 -0.028458 0.005589 -83121.300000 1 0 0
11.862633 3.075445 -15.533120 19.785303 0.253670 2.473628 0.028791 -0.004007 -173712.000000 1 0 0
-3.038867 -4.460355 -17.130820 17.960915 0.972727 2.836381 -0.003632 -0.003433 191374.000000 1 0 0
-6.561367 -4.614855 -17.769720 19.496445 0.612962 2.717552 0.009319 -0.003293 -40127.700000 1 0 0
2.988733 10.134445 -15.295720 18.590281 1.284017 2.537082 0.003440 -0.013145 193084.000000 1 0 0
16.816833 -6.465455 -10.994020 21.106313 -0.367041 2.118687 0.025310 -0.009997 -80781.000000 1 0 0
9.513033 -3.225755 -17.664420 20.320803 -0.326921 2.624535 0.005481 -0.000271 59214.700000 1 0 0
-7.159967 -1.592355 -19.205720 20.558706 0.218835 2.776776 -0.002112 0.009958 506115.000000 1 0 0
1.650833 -7.243555 -19.214720 20.600966 -1.346720 2.772651 0.003618 -0.011016 179421.000000 1 0 0
6.169633 11.231545 -14.482820 19.338150 1.068481 2.417234 0.012492 0.006700 405568.000000 1 0 0
6.066133 -4.032755 -17.076320 18.565069 -0.586708 2.738390 0.024820 -0.027389 605328.000000 1 0 0
4.551733 13.352145 -14.913520 20.528300 1.242252 2.383990 0.009070 -0.007121 144342.000000 1 0 0
9.091533 11.312045 -15.645420 21.340044 0.893801 2.393736 0.027611 -0.012929 26417.700000 1 0 0
17.163533 0.738745 -11.820720 20.853346 0.043015 2.173474 0.014482 0.009234 127903.000000 1 0 0
14.925333 -3.020155 -12.342320 19.601524 -0.199655 2.251913 0.010979 -0.004344 -26571.700000 1 0 0
-8.590567 0.629145 -17.252120 19.282876 -0.073106 2.678524 0.010651 -0.009236 424120.000000 1 0 0
-3.522567 4.228645 -18.933420 19.717107 -0.876240 2.858705 0.015894 -0.010331 98326.800000 1 0 0
4.411333 2.485245 -16.807920 17.553987 0.513056 2.848998 0.010593 -0.010870 292819.000000 1 0 0
-5.056967 14.303945 -13.927720 20.595075 -1.230974 2.313476 0.000530 -0.004041 -173194.000000 1 0 0
1.128233 9.520445 -17.617020 20.056699 1.452840 2.643219 0.020909 -0.005436 296101.000000 1 0 0
0.875733 -5.246855 -19.974520 20.670700 -1.405415 2.881322 0.005738 0.004461 352148.000000 1 0 0
3.338833 -5.865155 -18.860320 20.031463 -1.053282 2.797953 0.011723 0.013134 -360246.000000 1 0 0
-6.594167 7.680845 -15.994420 18.928811 -0.861376 2.577319 -0.015146 0.008457 28747.800000 1 0 0
-11.694667 3.201045 -16.872220 20.777000 -0.267174 2.518474 0.009171 -0.009652 224991.000000 1 0 0
-4.178067 6.781245 -17.634520 19.349879 -1.018607 2.717349 0.000026 0.021262 530450.000000 1 0 0
-8.169467 5.187145 -17.589020 20.075365 -0.565717 2.638612 0.000538 -0.006076 333906.000000 1 0 0
-8.742067 4.597545 -14.812820 17.803954 -0.484161 2.553492 -0.007519 -0.016511 322961.000000 1 0 0
9.521433 14.095445 -12.578020 21.155279 0.976705 2.207511 0.039282 -0.013883 440884.000000 1 0 0
13.329933 9.614945 -11.792920 20.228871 0.624882 2.193181 -0.007103 -0.014077 101040.000000 1 0 0
8.156433 15.881045 -9.919220 20.423661 1.096332 2.077929 0.015548 0.000751 42399.200000 1 0 0
7.765333 14.178845 -14.339720 21.609433 1.069743 2.296399 0.035411 -0.017405 109903.000000 1 0 0
3.985833 15.381845 -13.118720 20.605553 1.317247 2.260955 0.014915 -0.015708 203487.000000 1 0 0
10.783233 11.844945 -11.209320 19.550695 0.832284 2.181381 0.019173 -0.010450 227354.000000 1 0 0
16.191533 10.083145 -10.399720 21.725325 0.556974 2.069960 0.047544 -0.001438 289870.000000 1 0 0
13.474533 11.577345 -9.595120 20.190698 0.709812 2.066016 0.042524 -0.000537 44006.100000 1 0 0
10.928333 11.453745 -7.895220 17.690428 0.808869 2.033422 0.018829 0.000330 171014.000000 1 0 0
4.910433 17.074745 -10.305520 20.539304 1.290768 2.096413 0.011190 0.003340 -52867.300000 1 0 0
11.682133 14.216945 -10.278620 21.077091 0.882960 2.080213 0.052752 -0.008123 94785.900000 1 0 0
8.809833 -19.255655 -2.162220 21.285408 -1.141707 1.672554 0.023743 0.006116 295101.000000 1 0 0
7.776733 -17.037955 -4.373720 19.232756 -1.142603 1.800213 0.013107 0.008941 243581.000000 1 0 0
3.834233 -19.035255 5.160180 20.091534 -1.372028 1.311052 0.020677 -0.013914 -212268.000000 1 0 0
10.415133 -17.202055 -2.081720 20.216806 -1.026373 1.673949 0.009988 -0.015225 468518.000000 1 0 0
-2.260167 -16.020455 7.743580 17.936732 1.430641 1.124402 -0.005909 -0.000190 124790.000000 1 0 0
-15.282967 -12.749855 -4.252420 20.352173 0.695281 1.781289 -0.002703 0.001364 -87594.000000 1 0 0
-9.330967 -12.586455 -7.374720 17.316821 0.932854 2.010720 0.018239 -0.003272 199064.000000 1 0 0
-11.509567 -15.380955 7.090780 20.477380 0.928384 1.217200 0.001480 0.003895 138390.000000 1 0 0
-15.856367 -7.777855 -8.124620 19.440392 0.456034 2.001956 0.074277 -0.003933 -151461.000000 1 0 0
5.009333 -15.508255 6.264180 17.459649 -1.258365 1.203835 0.011961 -0.012398 260759.000000 1 0 0
2.664133 -13.997055 9.203780 16.962450 -1.382711 0.997270 -0.003222 -0.005652 411538.000000 1 0 0
2.966333 -17.627255 9.806580 20.388435 -1.404077 1.069016 -0.003736 -0.002626 94126.800000 1 0 0
-7.336867 -17.139055 -5.646920 19.479849 1.166321 1.864903 -0.028700 -0.009473 -394611.000000 1 0 0
2.167333 -20.055755 -4.195520 20.604199 -1.463149 1.775855 0.018633 -0.001215 116816.000000 1 0 0
-18.744267 -9.812555 -2.510320 21.305762 0.482268 1.688894 0.028145 -0.012367 65817.500000 1 0 0
-3.868867 -14.731155 2.812180 15.488170 1.313965 1.388214 -0.009373 0.000677 22025.800000 1 0 0
-10.840067 -9.714355 -14.829520 20.779567 0.730685 2.365504 0.011757 0.007421 140644.000000 1 0 0
0.585033 -20.414155 2.533280 20.579055 -1.542146 1.447383 0.012370 -0.008869 245188.000000 1 0 0
6.911033 -18.260355 0.527180 19.531535 -1.208985 1.543802 0.016054 0.002774 368900.000000 1 0 0
-7.662767 -18.881555 -3.678620 20.706602 1.185271 1.749399 0.008445 -0.015759 -70184.800000 1 0 0
-9.811867 -15.295255 -7.422120 19.629198 1.000422 1.958557 0.032630 -0.014215 76894.400000 1 0 0
-12.247767 -10.890955 -12.371220 20.534551 0.726827 2.217374 0.044181 0.005827 455551.000000 1 0 0
-13.233967 -14.966455 -3.218220 20.235849 0.846756 1.730510 0.004058 -0.009073 142096.000000 1 0 0
-0.269867 -20.735855 -2.741920 20.918093 1.557783 1.702253 -0.004147 -0.000619 470457.000000 1 0 0
-12.124567 -16.686155 -0.790220 20.641156 0.942424 1.609089 0.013964 -0.008206 228853.000000 1 0 0
1.011833 -19.780855 5.508980 20.558572 -1.519689 1.299516 0.022114 -0.024857 33421.600000 1 0 0
-18.095867 -9.112755 2.451180 20.408601 0.466509 1.450400 0.001184 0.013559 -89237.400000 1 0 0
-15.110567 -14.872555 -0.802920 21.217135 0.777460 1.608648 0.009486 -0.002297 -20729.600000 1 0 0
10.223933 -15.301655 -5.074520 19.089793 -0.981762 1.839855 -0.000116 0.002449 -299530.000000 1 0 0
-0.333967 -19.325755 -6.890120 20.519992 1.553517 1.913225 -0.005696 -0.000111 20155.300000 1 0 0
-9.871867 -17.727055 -3.113720 20.527968 1.062685 1.723066 0.011442 0.019586 369870.000000 1 0 0
-14.886967 -6.646655 -11.350120 19.865171 0.419918 2.178956 0.011128 -0.004749 63167.400000 1 0 0
-12.318067 -15.032055 1.919280 19.528981 0.884306 1.472359 0.007102 -0.008073 315207.000000 1 0 0
-2.685267 -16.330255 10.301280 19.493698 1.407820 1.014032 -0.006543 -0.010742 353172.000000 1 0 0
-12.386967 -14.227055 -6.527220 19.961228 0.854428 1.903918 0.010560 -0.004869 140734.000000 1 0 0
5.962633 -17.034755 -6.512320 19.187136 -1.234097 1.917087 0.019250 -0.007181 -44168.000000 1 0 0
-17.312667 -7.249255 -2.759220 18.970857 0.396544 1.716759 -0.036787 0.006547 -151616.000000 1 0 0
-11.855567 -13.735355 -9.922720 20.680300 0.858722 2.071240 0.016141 -0.003014 108126.000000 1 0 0
-7.095367 -14.612255 8.763080 18.456809 1.118754 1.076073 0.001313 -0.007724 305709.000000 1 0 0
-15.546267 -7.892155 -5.914920 18.410834 0.469754 1.897871 -0.004556 0.005145 190285.000000 1 0 0
-0.801467 -19.615655 -0.211020 19.633156 1.529961 1.581545 0.001637 -0.007000 297659.000000 1 0 0
-15.025767 -11.481155 -1.812220 18.996703 0.652463 1.666338 0.004709 0.008167 223211.000000 1 0 0
-6.777667 -18.928655 1.156680 20.138735 1.226956 1.513329 -0.013442 -0.004012 -16139.400000 1 0 0
-2.298867 -20.788555 -5.284220 21.572477 1.460661 1.818266 -0.007651 0.000103 142511.000000 1 0 0
-8.950567 -19.333555 -0.622520 21.313998 1.137221 1.600008 0.006104 -0.012211 219855.000000 1 0 0
-17.716967 -7.345655 5.037580 19.829947 0.393039 1.313942 0.009515 0.003529 -20373.700000 1 0 0
-2.828967 -15.888355 -10.787420 19.411628 1.394590 2.160024 0.003352 0.007278 46673.100000 1 0 0
-2.790867 -18.228855 -8.417120 20.271359 1.418874 1.998983 -0.006380 0.001472 123264.000000 1 0 0
3.825633 -17.915855 -6.384220 19.400299 -1.360422 1.906124 -0.003964 0.038089 279787.000000 1 0 0
1.077133 -17.350955 -9.020920 19.585526 -1.508797 2.049457 0.004357 0.002811 -105015.000000 1 0 0
-7.698367 -10.033155 -14.867820 19.518738 0.916319 2.436761 0.002820 -0.001322 312800.000000 1 0 0
-5.430367 -19.145855 -2.051320 20.006513 1.294423 1.673509 0.005729 -0.015582 -5032.070000 1 0 0
-10.059667 -15.978055 8.628880 20.759401 1.008901 1.142127 -0.007401 -0.000473 -174054.000000 1 0 0
-7.628667 -15.876755 -9.243420 19.892429 1.122876 2.054059 0.036783 0.014647 333911.000000 1 0 0
-12.585867 -7.942655 -12.651120 19.533065 0.562958 2.275328 -0.001702 0.002902 91333.000000 1 0 0
-15.413267 -13.285055 3.163580 20.592953 0.711376 1.416561 -0.000960 0.012316 119678.000000 1 0 0
-6.253567 -14.451855 -13.301520 20.612948 1.162407 2.272211 0.001454 0.007177 423551.000000 1 0 0
-13.646467 -11.293355 -6.841120 18.988598 0.691325 1.939359 -0.006177 -0.008723 311257.000000 1 0 0
-11.287067 -10.059655 -9.187120 17.691741 0.727963 2.116815 0.003151 0.001605 156472.000000 1 0 0
-9.826567 -14.802855 3.683080 18.145275 0.984761 1.366399 -0.002913 0.004437 530630.000000 1 0 0
4.985333 -18.068855 8.201980 20.459950 -1.301587 1.158319 0.024556 -0.025011 135683.000000 1 0 0
-5.052567 -16.666455 5.585080 18.289130 1.276445 1.260462 -0.002345 0.012401 476799.000000 1 0 0
-18.527267 -7.235555 -6.676420 20.980645 0.372321 1.894646 -0.007508 -0.005290 -5730.440000 1 0 0
-17.086267 -3.548855 -10.767720 20.505577 0.204790 2.123643 -0.004269 -0.005222 -316308.000000 1 0 0
-15.943967 -4.002555 -13.163120 21.059398 0.245956 2.245988 -0.004749 -0.001438 197873.000000 1 0 0
-19.264667 -4.436955 -5.874120 20.623269 0.226368 1.859625 -0.013427 0.007129 4581.650000 1 0 0
5.346033 -13.733355 8.628880 17.077549 -1.199571 1.041094 0.010426 -0.004334 201730.000000 1 0 0
19.529233 -3.347755 2.665180 19.992538 -0.169773 1.437090 -0.011450 0.003146 -36228.700000 1 0 0
18.000233 -2.524655 -0.132820 18.176906 -0.139348 1.578103 0.006254 -0.000955 291078.000000 1 0 0
14.327333 -11.398155 0.016080 18.308213 -0.672024 1.569918 0.024056 0.001291 162320.000000 1 0 0
10.937633 -13.592855 5.422580 18.270246 -0.893220 1.269458 0.002620 -0.003003 459033.000000 1 0 0
9.823133 -13.172455 9.496380 18.978639 -0.930032 1.046768 0.017788 -0.000360 382752.000000 1 0 0
18.960033 3.982345 -4.441920 19.876433 0.207029 1.796176 0.044083 0.017883 76495.500000 1 0 0
18.650033 -6.298955 -5.006820 20.311790 -0.325716 1.819862 0.009538 -0.003900 -47478.200000 1 0 0
17.824233 -9.874655 -0.640420 20.386815 -0.505910 1.602215 0.035017 -0.004383 406101.000000 1 0 0
17.865033 -8.642655 8.795780 21.707617 -0.450583 1.153606 0.053197 -0.000915 -116050.000000 1 0 0
19.894833 0.108345 -2.029820 19.998407 0.005446 1.672470 0.019865 0.009695 117395.000000 1 0 0
7.607933 -13.305555 11.571780 19.204805 -1.051381 0.924109 0.021402 -0.002737 325676.000000 1 0 0
15.986633 -6.358755 -3.581320 17.573618 -0.378569 1.776023 0.015986 -0.002487 228145.000000 1 0 0
14.208933 -7.192555 11.073680 19.397243 -0.468595 0.963208 0.000356 -0.043593 311714.000000 1 0 0
16.137033 0.886045 10.580180 19.316551 0.054852 0.991152 0.023673 -0.015277 -52846.700000 1 0 0
16.539933 -10.486455 2.565680 19.751401 -0.565051 1.440530 0.007373 0.006991 97747.400000 1 0 0
15.843733 -7.280255 -5.837520 18.387567 -0.430729 1.893858 0.005592 -0.004768 178634.000000 1 0 0
17.621733 -4.202955 5.889180 19.049219 -0.234135 1.256491 0.013081 -0.003430 64476.300000 1 0 0
13.178033 -13.926755 7.808580 20.702391 -0.813014 1.184044 0.014837 -0.004591 178017.000000 1 0 0
15.047133 -14.408455 -1.697520 20.902186 -0.763719 1.652098 0.010135 0.005460 260005.000000 1 0 0
18.686233 -6.471555 7.947380 21.312372 -0.333399 1.188664 0.024105 -0.001610 172904.000000 1 0 0
19.308933 3.387245 2.552780 19.769295 0.173657 1.441306 0.005705 -0.000144 134172.000000 1 0 0
15.755733 -10.379555 8.059980 20.516861 -0.582522 1.167071 0.030783 -0.028796 348182.000000 1 0 0
13.948333 -4.659355 10.616980 18.137967 -0.322390 0.945490 -0.001270 -0.011231 -357868.000000 1 0 0
18.625433 -7.826455 1.946280 20.296506 -0.397800 1.474756 0.011371 0.001535 23168.800000 1 0 0
18.991833 -6.370155 -1.609820 20.096271 -0.323623 1.650988 0.012886 -0.003706 128886.000000 1 0 0
14.422833 -13.967755 -6.090820 20.981286 -0.769370 1.865334 0.002485 0.002969 349391.000000 1 0 0
13.914633 -9.705455 10.138580 19.763696 -0.609046 1.032132 0.004794 -0.010655 432691.000000 1 0 0
14.397033 2.500545 0.638980 14.626537 0.171969 1.527096 -0.007890 0.004392 -126935.000000 1 0 0
12.797633 1.825745 13.538280 18.718915 0.141707 0.762313 0.004033 0.013822 130726.000000 1 0 0
17.993033 -2.349255 9.871280 20.656970 -0.129830 1.072572 0.009508 0.001798 196828.000000 1 0 0
6.914533 -18.487655 5.404280 20.464858 -1.212896 1.303550 0.009480 -0.017229 284554.000000 1 0 0
12.426233 -3.120455 14.984080 19.714745 -0.246031 0.707415 -0.006768 0.013784 329424.000000 1 0 0
12.296433 -14.289055 -7.204720 20.181361 -0.860210 1.935849 0.026602 0.014893 320480.000000 1 0 0
10.502333 -17.806655 4.735880 21.208596 -1.037912 1.345598 0.006939 -0.002858 603477.000000 1 0 0
18.118633 -0.399155 -5.810420 19.031688 -0.022027 1.881052 0.002463 0.006648 182665.000000 1 0 0
4.396533 -13.807255 11.460480 18.474642 -1.262526 0.901626 -0.004743 -0.000454 270471.000000 1 0 0
8.901533 -2.464255 14.267880 16.996536 -0.270071 0.574511 -0.016326 0.003393 357078.000000 1 0 0
9.188633 -9.699655 14.001280 19.353298 -0.812447 0.761999 0.020958 0.000353 381946.000000 1 0 0
20.962033 5.920045 -2.708520 21.949712 0.275249 1.694508 0.016301 0.009647 707089.000000 1 0 0
14.728633 -13.341455 1.954580 19.968661 -0.736020 1.472757 0.013377 0.002803 106660.000000 1 0 0
11.279633 -0.593455 15.480180 19.162941 -0.052565 0.630354 0.008622 0.012774 43912.700000 1 0 0
19.547633 0.034045 7.706680 21.011998 0.001742 1.195256 0.059440 -0.008285 175226.000000 1 0 0
19.636633 1.342345 0.579980 19.691004 0.068253 1.541338 0.001107 0.005511 178975.000000 1 0 0
17.939233 0.198445 3.430580 18.265387 0.011062 1.381856 0.007162 0.002032 230334.000000 1 0 0
10.256433 -8.307855 16.318180 20.988041 -0.680817 0.680117 0.014470 0.002400 155381.000000 1 0 0
18.748733 3.196945 5.693280 19.853183 0.168891 1.279944 0.010231 0.003725 70391.200000 1 0 0
15.634233 2.487345 7.267380 17.419269 0.157774 1.140430 0.027755 -0.006860 63868.500000 1 0 0
11.253933 -16.116955 2.206680 19.780715 -0.961235 1.459006 -0.012671 0.013927 300383.000000 1 0 0
8.652333 -16.031955 6.971680 19.506173 -1.075901 1.205304 0.018012 -0.009576 188552.000000 1 0 0
6.139533 6.768445 7.146380 11.600710 0.834082 0.907104 -0.003748 0.001903 -1243560.000000 1 0 0
18.313733 2.302445 -6.596320 19.601161 0.125066 1.914023 -0.009611 0.013904 239990.000000 1 0 0
14.188733 4.531045 -7.349620 16.609257 0.309105 2.029182 0.007619 0.006121 409431.000000 1 0 0
-10.630167 -3.976955 -13.698920 17.789801 0.357999 2.449706 0.007470 -0.005110 -126017.000000 1 0 0
7.824333 -14.305355 -10.306820 19.289736 -1.070297 2.134495 -0.008286 0.013159 78437.000000 1 0 0
1.894233 -15.878555 14.006580 21.257961 -1.452062 0.851459 -0.026409 0.001350 231124.000000 1 0 0
-9.432467 -7.636455 1.828380 12.273135 0.680563 1.421266 -0.002181 0.007991 126357.000000 1 0 0
-13.583767 3.135645 -9.727520 16.999283 -0.226864 2.180020 -0.009872 0.001293 243391.000000 1 0 0
-13.395767 -4.969755 -13.456720 19.627235 0.355254 2.326244 0.020587 0.004556 45349.000000 1 0 0
-17.714967 0.108145 -8.241520 19.538536 -0.006105 2.006235 0.002178 -0.009973 476539.000000 1 0 0
-12.267967 15.128345 4.528580 19.996947 -0.889429 1.342351 0.005492 -0.014746 295278.000000 1 0 0
-18.019267 6.451245 9.225580 21.246738 -0.343801 1.121633 0.058195 -0.000318 156353.000000 1 0 0
-13.334767 15.648145 -0.189520 20.560067 -0.865048 1.580014 0.021200 -0.012729 210831.000000 1 0 0
-15.888467 5.300245 -10.651220 19.849042 -0.321982 2.137212 0.003398 0.004222 211838.000000 1 0 0
-18.427467 3.059045 -0.288120 18.681871 -0.164504 1.586219 0.041449 -0.004022 -158736.000000 1 0 0
-9.636567 15.593545 0.004280 18.330905 -1.017258 1.570563 0.002672 -0.008329 -22420.400000 1 0 0
-18.441367 12.109145 2.453880 22.197679 -0.581022 1.460023 0.044299 -0.004950 -294211.000000 1 0 0
-8.473867 16.282645 -7.602820 19.867909 -1.090944 1.963479 0.023134 -0.022206 -111344.000000 1 0 0
-15.130967 -1.776655 -13.155020 20.128517 0.116883 2.283063 -0.005630 -0.005862 79007.100000 1 0 0
-18.821667 5.421245 -4.686620 20.139748 -0.280441 1.805654 0.030914 -0.002657 -40668.100000 1 0 0
-16.706467 9.574345 -5.920320 20.145081 -0.520399 1.869084 0.026198 0.008918 -171329.000000 1 0 0
-18.840767 1.731145 2.987680 19.154571 -0.091626 1.414179 0.008876 -0.023796 141436.000000 1 0 0
-13.316067 12.363445 -6.862220 19.423246 -0.748319 1.931892 -0.000837 0.005677 -20465.700000 1 0 0
-12.947667 4.820445 -13.390420 19.240117 -0.356403 2.340557 0.005089 -0.001535 1873.230000 1 0 0
-13.952467 9.637145 -6.470620 18.149788 -0.604466 1.935328 -0.000544 0.001283 149331.000000 1 0 0
-6.376667 11.385645 -15.494920 20.258019 -1.060261 2.441649 -0.015247 -0.018685 19318.400000 1 0 0
-14.732667 14.008745 3.259180 20.589285 -0.760216 1.411833 -0.003921 -0.007663 -92206.800000 1 0 0
-18.628967 8.468945 -4.766520 21.011453 -0.426682 1.799642 0.039037 -0.007989 154595.000000 1 0 0
-3.889267 16.953145 -10.184220 20.155740 -1.345286 2.100499 -0.000876 0.003351 -90958.900000 1 0 0
-19.180867 -2.080155 -6.686220 20.419065 0.108027 1.904400 -0.014201 0.002478 -188655.000000 1 0 0
-10.438267 14.095245 -6.221220 18.610130 -0.933369 1.911650 -0.002126 -0.009154 190.413000 1 0 0
-19.562367 3.132645 4.742180 20.371253 -0.158788 1.335853 0.029414 -0.003317 97574.600000 1 0 0
-15.246267 12.724345 0.614480 19.867944 -0.695478 1.539863 0.015568 0.001533 102578.000000 1 0 0
-17.041867 2.662445 -8.139620 19.072683 -0.154977 2.011713 -0.022495 -0.004250 85002.300000 1 0 0
-16.075767 13.903045 -4.061720 21.638450 -0.713049 1.759625 -0.005082 0.035903 -64457.200000 1 0 0
-10.583267 15.892845 -8.476620 20.891174 -0.983315 1.988597 0.006422 -0.010829 -29620.700000 1 0 0
-19.049767 2.376145 -6.616720 20.305681 -0.124093 1.902713 0.013743 -0.003931 180235.000000 1 0 0
-17.334167 10.595245 -0.524920 20.322601 -0.548639 1.596629 0.040435 0.003512 61805.800000 1 0 0
-11.591367 6.632345 -14.596420 19.783914 -0.519712 2.400590 -0.001331 -0.006781 343020.000000 1 0 0
-12.881167 13.150545 -4.581720 18.969804 -0.795746 1.814735 0.019749 0.000338 399053.000000 1 0 0
-18.350867 7.411045 -0.931020 19.812741 -0.383823 1.617805 -0.001284 0.006533 53346.200000 1 0 0
-14.475767 9.225245 -10.482420 20.113033 -0.567387 2.119024 -0.002396 0.012724 622101.000000 1 0 0
-18.499167 11.526545 4.926180 22.346088 -0.557221 1.348521 0.015448 -0.006270 201296.000000 1 0 0
-8.168867 11.793545 -13.769220 19.884906 -0.965016 2.335670 -0.023133 0.000596 414062.000000 1 0 0
-21.085667 -1.725655 -5.380020 21.829518 0.081658 1.819818 0.003808 -0.007127 132524.000000 1 0 0
-10.455267 13.343345 -3.286820 17.267329 -0.906163 1.762314 0.012558 -0.008101 118383.000000 1 0 0
-18.595267 -5.032055 3.594780 19.596632 0.264280 1.386313 -0.002506 0.001326 -31643.600000 1 0 0
-11.517167 11.524145 -13.143820 20.933491 -0.785701 2.249629 0.003779 0.004787 153608.000000 1 0 0
-14.829867 11.904045 -9.982920 21.477661 -0.676390 2.054210 0.007161 0.018269 -6572.870000 1 0 0
-12.468067 9.576345 -14.094420 21.114254 -0.654966 2.301684 0.010110 0.001089 275393.000000 1 0 0
-18.421467 -4.960255 -3.043820 19.318887 0.263027 1.729012 -0.012651 0.004962 -410548.000000 1 0 0
-9.377267 12.499745 -11.310620 19.290072 -0.927169 2.197335 -0.002227 -0.014730 80959.500000 1 0 0
-15.487367 7.789545 -8.255620 19.201323 -0.466014 2.015234 -0.004728 0.005694 36305.800000 1 0 0
-14.533767 8.715645 2.210580 17.090334 -0.540186 1.441086 0.008300 0.000882 -98460.600000 1 0 0
-19.936767 6.153645 7.535780 22.184003 -0.299381 1.224204 0.025937 -0.008707 353871.000000 1 0 0
-18.639767 6.027345 3.897880 19.974065 -0.312747 1.374389 -0.003200 -0.000548 140316.000000 1 0 0
-14.136567 12.930145 5.726280 19.995536 -0.740855 1.280352 0.002102 -0.013567 121590.000000 1 0 0
17.787033 6.329945 5.705280 19.723006 0.341898 1.277332 0.009565 -0.001352 133160.000000 1 0 0
18.187433 7.876345 0.484580 19.825598 0.408682 1.546352 0.012213 0.008210 48649.700000 1 0 0
17.263533 4.254945 8.446580 19.684482 0.241654 1.127302 0.046475 -0.006620 -20147.200000 1 0 0
11.976633 13.099945 10.927080 20.843449 0.830164 1.018968 0.010222 -0.005345 154384.000000 1 0 0
15.471533 12.460145 4.275980 20.320127 0.678000 1.358781 0.032889 0.001411 266990.000000 1 0 0
5.035933 10.214145 14.367280 18.333252 1.112736 0.670239 -0.006291 -0.007621 175008.000000 1 0 0
13.260533 13.350045 -5.200220 19.521981 0.788762 1.840429 0.043474 -0.004014 235514.000000 1 0 0
18.024333 9.285245 -2.877620 20.478600 0.475694 1.711781 0.024547 0.009360 -109310.000000 1 0 0
14.492633 7.255845 9.566480 18.820235 0.464173 1.037577 0.026377 -0.001037 50982.900000 1 0 0
4.568433 19.234145 -1.347320 19.815100 1.337601 1.638843 0.001171 -0.007791 478041.000000 1 0 0
-4.745167 19.652245 3.837380 20.577970 -1.333874 1.383218 -0.014160 0.014841 318037.000000 1 0 0
8.381733 12.919245 12.276180 19.694287 0.995280 0.897793 0.039639 -0.002104 57110.400000 1 0 0
0.402033 17.091245 -10.196020 19.905555 1.547278 2.108564 0.003798 0.009993 8116.060000 1 0 0
10.710033 9.767245 15.383680 21.136734 0.739390 0.755663 0.019017 -0.006423 159444.000000 1 0 0
-1.407867 12.570145 0.690980 12.667600 -1.459260 1.516222 -0.004231 0.003298 656349.000000 1 0 0
-4.741167 19.331645 -2.448220 20.054549 -1.330289 1.693180 -0.005100 0.017797 35916.100000 1 0 0
5.458733 18.745545 6.344280 20.529080 1.287431 1.256614 0.016857 -0.003598 253225.000000 1 0 0
10.950333 17.594745 -1.560420 20.782679 1.014095 1.645950 0.029238 -0.006175 340571.000000 1 0 0
18.269933 10.805945 3.184780 21.463963 0.534117 1.421868 0.010918 0.007939 332330.000000 1 0 0
11.599833 16.774345 6.389480 21.371950 0.965783 1.267188 0.020804 0.003785 -163814.000000 1 0 0
18.058433 7.835745 -6.161420 20.626900 0.409394 1.874135 -0.001891 0.016743 540479.000000 1 0 0
0.694333 15.847645 10.661080 19.112524 1.527011 0.979056 -0.004760 0.000501 441734.000000 1 0 0
1.161733 20.074545 -1.921920 20.199771 1.512990 1.666086 0.004412 -0.006911 195859.000000 1 0 0
14.116933 9.681545 -1.599720 17.192417 0.601139 1.663979 0.013219 0.000096 -145459.000000 1 0 0
9.190333 17.804145 1.657080 20.104619 1.094280 1.488280 0.015614 -0.005632 194870.000000 1 0 0
-0.069967 17.783845 -0.377420 17.787987 -1.566862 1.592016 -0.010643 -0.000291 -19404.300000 1 0 0
-0.240567 21.162345 1.437880 21.212501 -1.559429 1.502960 0.008748 0.000500 298525.000000 1 0 0
6.335933 17.502445 -0.176120 18.614796 1.223469 1.580258 0.007363 -0.019301 -19663.500000 1 0 0
6.752033 18.709345 -2.940520 20.106621 1.224452 1.717569 -0.007096 -0.008919 150145.000000 1 0 0
10.106833 9.781145 12.573080 18.865344 0.769023 0.841340 0.000791 -0.005783 164928.000000 1 0 0
12.538533 14.798745 8.197580 21.057492 0.867889 1.170930 0.009060 -0.004508 171194.000000 1 0 0
0.201033 17.785045 7.300980 19.226351 1.559493 1.181283 0.001087 0.006598 218671.000000 1 0 0
6.496133 18.468145 -7.467320 20.953114 1.232565 1.935189 -0.005868 0.009533 -151652.000000 1 0 0
-0.808367 18.379245 9.567880 20.736307 -1.526842 1.091216 0.009402 -0.007845 260607.000000 1 0 0
16.013733 6.978245 -7.931620 19.184529 0.410954 1.997023 0.025071 0.008173 -215331.000000 1 0 0
-5.161267 19.907045 -6.541520 21.580561 -1.317114 1.878762 0.002175 0.004407 295489.000000 1 0 0
4.231833 15.540045 10.183880 19.055520 1.304925 1.006961 -0.006681 0.003343 217326.000000 1 0 0
9.296233 14.719845 7.348180 18.896813 1.007505 1.171404 0.011273 -0.008002 5588.050000 1 0 0
-2.839667 19.358245 6.617280 20.654146 -1.425145 1.244660 0.003871 -0.008117 55579.100000 1 0 0
4.992433 17.920845 8.422880 20.421214 1.299103 1.145646 0.017165 -0.008372 141300.000000 1 0 0
15.341633 11.517345 -7.162220 20.477117 0.643965 1.928119 0.047605 -0.021385 -54632.100000 1 0 0
11.760733 7.155945 15.736980 20.908729 0.546617 0.718717 0.030166 0.002427 316877.000000 1 0 0
17.027833 9.419445 5.002480 20.092234 0.505281 1.319174 0.015621 0.001050 276891.000000 1 0 0
5.655733 14.553445 13.195380 20.442802 1.200140 0.869147 -0.014637 0.000778 385359.000000 1 0 0
16.004533 10.377445 -3.641620 19.419007 0.575254 1.759442 0.040255 -0.013528 53772.000000 1 0 0
15.192933 14.174945 7.305180 22.025439 0.750749 1.232723 0.021203 0.026576 421793.000000 1 0 0
12.546233 14.505445 -7.947620 20.760071 0.857697 1.963656 0.037340 -0.010771 324725.000000 1 0 0
-7.949167 15.730345 9.722880 20.128771 -1.102886 1.066680 0.004241 -0.013002 175201.000000 1 0 0
-4.339667 16.527445 -7.140620 18.519654 -1.314019 1.966622 -0.005058 -0.007138 97920.200000 1 0 0
2.369533 20.046845 -4.134520 20.605459 1.453142 1.772819 -0.004773 -0.000186 157884.000000 1 0 0
7.195833 15.772045 9.014680 19.539751 1.142766 1.091279 0.008814 -0.024896 328590.000000 1 0 0
13.346933 15.670145 -1.657520 20.650459 0.865291 1.651148 0.046783 -0.013489 190335.000000 1 0 0
12.826133 16.623645 4.376380 21.447796 0.913639 1.365305 0.040937 -0.013692 283934.000000 1 0 0
2.399833 18.451645 0.644780 18.618221 1.441462 1.536158 0.007191 -0.012889 38178.400000 1 0 0
-6.504967 17.907745 1.787080 19.136237 -1.222368 1.477273 -0.041503 0.024322 182166.000000 1 0 0
0.289533 20.118545 -5.726320 20.919618 1.556406 1.848065 -0.004997 0.010909 207341.000000 1 0 0
-7.032767 17.876445 -6.374520 20.240099 -1.195984 1.891195 0.010942 -0.010854 7932.860000 1 0 0
-7.165767 18.476645 -0.962320 19.840884 -1.200827 1.619317 -0.002177 0.005937 80086.600000 1 0 0
-14.420867 -8.817655 8.743580 19.030571 0.548797 1.093421 0.014060 -0.006030 300881.000000 1 0 0
-13.053467 -13.560455 7.626380 20.308634 0.804446 1.185834 0.004700 0.004346 -14132.600000 1 0 0
-3.871767 -16.019355 12.505280 20.687976 1.333651 0.921695 0.014083 -0.007857 -130838.000000 1 0 0
-1.744767 -14.990055 15.447680 21.595759 1.454923 0.773727 -0.007864 0.000102 442632.000000 1 0 0
-6.503667 -14.321855 12.976380 20.391166 1.144532 0.881010 -0.038690 0.005347 206372.000000 1 0 0
-10.062367 -11.085155 11.698380 18.999579 0.833725 0.907500 0.009334 -0.002299 250946.000000 1 0 0
-8.210467 -11.355755 13.200680 19.251569 0.944786 0.815240 0.031134 0.020266 389483.000000 1 0 0
-14.973067 -11.973355 8.013980 20.779265 0.674533 1.174860 -0.002438 0.021335 283615.000000 1 0 0
-4.423267 -11.827555 12.925480 18.069986 1.212920 0.773741 0.017245 -0.023616 135185.000000 1 0 0
3.606833 -12.524655 13.752680 18.947624 -1.290404 0.758562 -0.010491 0.002276 398004.000000 1 0 0
6.167633 -13.755755 14.267380 20.756171 -1.149301 0.812921 -0.003323 -0.000128 334199.000000 1 0 0
6.792533 -9.219255 17.097580 20.578154 -0.935812 0.590144 -0.004541 0.019343 455668.000000 1 0 0
-5.265867 13.398745 13.249880 19.565660 -1.196329 0.826845 0.010816 -0.013761 511041.000000 1 0 0
-13.471167 -2.004355 17.630380 22.278242 0.147705 0.657746 0.018900 -0.000772 441707.000000 1 0 0
-9.848467 9.151245 13.606380 19.127759 -0.748718 0.779390 -0.003555 -0.008774 392444.000000 1 0 0
-8.132267 -7.616355 17.125680 20.431142 0.752651 0.576795 0.012313 -0.007385 121658.000000 1 0 0
-4.689367 2.067945 18.052080 18.765505 -0.415333 0.276627 0.017397 -0.012473 431763.000000 1 0 0
-15.020967 -3.708955 15.172580 21.670094 0.242076 0.795172 0.005899 0.003908 -48995.200000 1 0 0
-14.468067 2.472845 12.428680 19.233097 -0.169282 0.868184 -0.004442 0.001729 229072.000000 1 0 0
-13.907467 10.641645 10.377580 20.355747 -0.653143 1.035831 -0.038472 0.029154 -17468.800000 1 0 0
-4.749467 11.126745 15.684180 19.807963 -1.167359 0.657026 0.035493 -0.017336 203440.000000 1 0 0
-13.513167 12.553545 8.699680 20.393176 -0.748601 1.130069 0.019322 -0.025260 231616.000000 1 0 0
-3.918467 -5.993555 18.518580 19.854846 0.991768 0.368973 0.022435 -0.010348 101902.000000 1 0 0
0.839633 -2.786455 18.647980 18.873698 -1.278123 0.154812 0.011780 0.005109 127263.000000 1 0 0
-4.105867 6.693545 21.024880 22.443424 -1.020577 0.357443 0.018604 -0.005660 224402.000000 1 0 0
2.055933 -10.554755 16.568280 19.751902 -1.378418 0.575685 -0.009184 0.001430 298144.000000 1 0 0
-14.780167 -0.255455 14.147680 20.461560 0.017282 0.807334 -0.016193 0.010239 30789.400000 1 0 0
-13.501667 -5.623755 7.724080 16.540346 0.394669 1.084919 -0.001761 -0.002466 75184.100000 1 0 0
10.176633 1.522845 16.606080 19.535732 0.148539 0.554742 0.012077 0.010748 299442.000000 1 0 0
-7.569767 12.385145 11.897080 18.767890 -1.022184 0.884203 0.022110 -0.014076 25887.900000 1 0 0
-1.534867 7.649045 19.891680 21.366859 -1.372765 0.373764 0.003456 -0.016954 400472.000000 1 0 0
1.297833 -13.845555 15.466380 20.798863 -1.477333 0.732333 -0.019393 0.002219 677079.000000 1 0 0
-3.526167 -11.597955 17.580180 21.354371 1.275643 0.603668 0.017094 -0.014755 427681.000000 1 0 0
-2.008667 8.990845 16.690180 19.063897 -1.350993 0.504355 0.006714 -0.014108 182970.000000 1 0 0
-4.189967 -9.749455 20.539180 23.118513 1.164897 0.476883 0.017506 -0.002629 241097.000000 1 0 0
-6.467767 -3.106255 19.079180 20.383718 0.447737 0.359704 0.017319 -0.013235 181295.000000 1 0 0
-10.524667 -7.931355 16.126180 20.826154 0.645799 0.685151 0.016708 -0.010092 239428.000000 1 0 0
0.085833 6.630245 17.857080 19.048434 1.557851 0.355546 0.000074 -0.009954 140770.000000 1 0 0
-6.231067 -11.238255 18.697980 22.687861 1.064542 0.602114 0.023264 -0.006443 276215.000000 1 0 0
0.719333 3.533445 18.881480 19.222720 1.369962 0.188704 0.006654 -0.002428 77602.800000 1 0 0
-18.263367 -0.422755 7.828180 19.874851 0.023144 1.165954 -0.011236 -0.000624 141570.000000 1 0 0
-1.405367 -8.150455 17.410980 19.275560 1.400047 0.443472 0.012738 -0.014002 182920.000000 1 0 0
5.944533 3.423845 14.990180 16.485318 0.522559 0.429186 0.001265 -0.001203 353342.000000 1 0 0
-13.856367 -6.551755 10.482080 18.568748 0.441679 0.970968 0.009586 -0.001426 191366.000000 1 0 0
3.839933 8.225845 16.835180 19.126759 1.134049 0.494534 0.001209 -0.008873 175769.000000 1 0 0
6.463833 4.409345 17.312880 18.998929 0.598650 0.424474 0.011181 -0.025625 332197.000000 1 0 0
4.607533 -9.820355 18.064380 21.071084 -1.132106 0.540781 -0.011534 0.012071 379279.000000 1 0 0
-4.494967 -0.681255 19.839180 20.353425 0.150415 0.225268 0.020680 -0.007024 724782.000000 1 0 0
-10.983367 1.803145 17.236580 20.517928 -0.162719 0.573377 0.026718 -0.002452 228481.000000 1 0 0
-16.701367 -4.200655 8.706880 19.297433 0.246405 1.102694 0.006723 -0.011233 201599.000000 1 0 0
-13.176567 -9.573955 11.959080 20.206487 0.628349 0.937452 -0.008805 -0.010187 115107.000000 1 0 0
-14.571867 6.093345 13.284680 20.638578 -0.396061 0.871497 -0.001278 0.004157 10050.900000 1 0 0
1.250133 9.001345 17.073780 19.341691 1.432796 0.489124 0.002308 -0.025992 259868.000000 1 0 0
-3.864967 -10.261355 14.929280 18.523412 1.210578 0.633487 0.021910 -0.007901 679264.000000 1 0 0
-18.496667 -3.039855 6.599080 19.872475 0.162890 1.232298 0.063440 -0.012104 -274801.000000 1 0 0
-0.818067 -0.341655 21.186380 21.204921 0.395618 0.041821 0.013929 0.005043 373459.000000 1 0 0
-1.613367 2.639245 20.285880 20.520368 -1.022110 0.151320 0.007540 -0.008128 37136.300000 1 0 0
-7.944167 2.330845 16.283280 18.267125 -0.285394 0.470376 0.008399 0.004219 554300.000000 1 0 0
3.359933 -3.032855 18.527680 19.072554 -0.734279 0.239606 0.021299 -0.003175 -61844.000000 1 0 0
-12.095367 4.290345 14.325480 19.233417 -0.340864 0.730528 -0.018364 0.002975 -20084.800000 1 0 0
-13.131567 -5.513455 13.349380 19.520302 0.397511 0.817740 -0.014004 0.000428 111506.000000 1 0 0
-17.339167 -0.622255 10.015080 20.033366 0.035872 1.047290 0.005321 0.000525 -284682.000000 1 0 0
-7.424967 7.821145 14.994180 18.469594 -0.811378 0.623516 0.012968 -0.006157 8550.860000 1 0 0
-9.648667 0.949445 13.954880 16.992260 -0.098086 0.607199 0.012414 -0.007124 217493.000000 1 0 0
7.617033 -0.822255 15.569380 17.352259 -0.107533 0.457287 0.002130 0.005925 222108.000000 1 0 0
3.976533 6.340345 18.480780 19.938707 1.010631 0.384784 0.000249 -0.003126 64538.500000 1 0 0
1.678133 0.641445 19.953680 20.034394 0.365101 0.089794 0.001021 -0.002080 169886.000000 1 0 0
-6.885167 6.758745 17.681080 20.142164 -0.776133 0.499516 0.012564 -0.008226 462666.000000 1 0 0
7.674733 -3.488555 17.049980 19.020341 -0.426632 0.459199 -0.002223 0.021222 368619.000000 1 0 0
-16.063667 2.480845 8.900280 18.531351 -0.153228 1.069820 -0.005438 -0.009921 221553.000000 1 0 0
4.266533 -5.908155 19.161380 20.500441 -0.945363 0.363435 0.010392 -0.001367 76317.200000 1 0 0
-3.584267 -3.757755 20.700280 21.341727 0.809023 0.245796 0.019906 -0.008388 411497.000000 1 0 0
-9.923567 5.867245 14.569480 18.578792 -0.533956 0.669391 0.012187 -0.002848 40608.200000 1 0 0
6.271333 2.745445 19.927380 21.070538 0.412643 0.330913 0.005878 -0.006352 -353.215000 1 0 0
-7.137167 11.376145 14.492280 19.758087 -1.010487 0.747360 0.023700 -0.021425 282147.000000 1 0 0
-14.606967 4.652545 9.815380 18.203059 -0.308356 1.001290 -0.000349 0.000815 406301.000000 1 0 0
0.511233 -5.877655 20.484880 21.317563 -1.484036 0.280421 -0.003803 0.001157 217385.000000 1 0 0
-6.489167 -8.908455 13.986380 17.806984 0.941245 0.667384 0.029878 0.011947 275797.000000 1 0 0
-12.746967 10.087145 6.556480 17.527781 -0.669436 1.187411 -0.008291 -0.018685 59538.100000 1 0 0
-19.213167 2.232345 8.086980 20.964933 -0.115670 1.174788 -0.034737 0.001817 63993.400000 1 0 0
-15.316767 9.021645 6.499880 18.927279 -0.532295 1.220247 -0.014236 -0.001254 83342.500000 1 0 0
-13.023567 7.792745 14.381680 20.908680 -0.539211 0.812297 0.021455 0.002650 205217.000000 1 0 0
-16.488067 8.774845 10.549680 21.451107 -0.489070 1.056639 0.009897 -0.007753 72122.800000 1 0 0
2.609933 10.479945 14.827380 18.343724 1.326721 0.629524 -0.007948 -0.036970 228619.000000 1 0 0
1.702333 14.636745 13.506380 19.988861 1.455011 0.828889 -0.015887 -0.005885 547946.000000 1 0 0
9.179133 4.786745 16.550980 19.521894 0.480684 0.558943 0.020599 -0.008188 179319.000000 1 0 0
-0.156167 13.196845 13.526680 18.898470 -1.558963 0.773091 0.000736 0.008153 132759.000000 1 0 0
3.260333 12.769245 15.056880 20.009823 1.320810 0.718985 -0.029066 0.004694 -213642.000000 1 0 0
-3.522767 -4.662355 -13.374520 14.595383 0.923736 2.729670 -0.003973 -0.004983 76867.400000 1 0 0
5.647933 -12.377755 16.924780 21.715344 -1.142718 0.677100 -0.025799 0.037685 244347.000000 1 0 0
8.865233 -13.667055 7.299880 17.851303 -0.995366 1.149518 0.008922 -0.009144 318535.000000 1 0 0
-0.372367 15.406845 0.393380 15.416364 -1.546632 1.545276 -0.008614 -0.000169 -671391.000000 1 0 0
-14.259067 7.518445 8.439580 18.195453 -0.485229 1.088484 0.009103 -0.006614 152318.000000 1 0 0
-15.703767 -9.751355 5.526680 19.293559 0.555686 1.280275 0.000387 0.006125 167096.000000 1 0 0
9.365833 -10.050655 11.365980 17.830311 -0.820654 0.879609 0.020326 -0.005781 -25439.700000 1 0 0
-24.826967 6.158645 31.273979 40.402586 -0.243155 0.685569 0.028920 -0.014340 -130115.000000 0 0 1
-23.648067 5.384645 31.200609 39.518394 -0.223882 0.660768 0.024918 -0.011367 -34800.100000 0 0 1
-22.695567 5.779445 32.157109 39.781533 -0.249351 0.629465 0.019194 -0.012744 824403.000000 0 0 1
-21.301467 5.060945 31.946059 38.728753 -0.233262 0.600830 0.019749 -0.009171 676519.000000 0 0 1
-21.209367 3.755345 32.511219 38.998964 -0.175244 0.585125 0.004708 -0.008389 427785.000000 0 0 1
-19.938667 3.237445 32.112899 37.937709 -0.160965 0.561488 0.008139 -0.003635 425074.000000 0 0 1
-19.581067 1.961645 32.914879 38.349126 -0.099848 0.538858 0.011900 -0.010150 -32883.300000 0 0 1
-20.484667 0.922145 32.589789 38.504107 -0.044986 0.561612 0.024929 -0.017425 338019.000000 0 0 1
-20.348767 -0.167155 33.480482 39.179624 0.008214 0.546135 0.019186 -0.012816 -470963.000000 0 0 1
-21.006867 -1.451855 33.031979 39.172796 0.069004 0.567518 0.016572 -0.023199 -281956.000000 0 0 1
-20.233667 -2.369955 32.242469 38.139150 0.116598 0.563501 0.034075 -0.018487 140059.000000 0 0 1
-20.360367 -3.742955 32.608609 38.624806 0.181805 0.565651 0.032291 -0.023564 -602064.000000 0 0 1
-21.661167 -4.504255 32.259669 39.117524 0.205020 0.601150 0.030134 -0.015123 -537245.000000 0 0 1
-22.784767 -4.190655 32.999029 40.319265 0.181891 0.612100 0.019526 -0.017842 -438360.000000 0 0 1
-22.840567 -4.719055 34.287575 41.468045 0.203742 0.597325 0.004591 -0.013079 -847561.000000 0 0 1
-24.038767 -4.288455 -34.022790 41.878436 0.176540 2.519083 0.003339 -0.009936 -186698.000000 0 0 1
-23.943767 -4.833655 -32.732930 40.842538 0.199198 2.500499 0.006275 -0.000912 -52744.400000 0 0 1
-25.128847 -4.560555 -32.052720 40.983344 0.179533 2.468811 -0.000367 -0.001035 -661052.000000 0 0 1
-25.134177 -5.126155 -30.675700 39.987534 0.201192 2.445154 -0.015058 0.013446 -830166.000000 0 0 1
-25.330397 -6.529455 -30.592940 40.251593 0.252280 2.434176 -0.011726 0.007172 376066.000000 0 0 1
-25.263467 -6.938455 -29.249610 39.267348 0.268035 2.411157 -0.025376 0.018633 -187406.000000 0 0 1
-25.470967 -8.454855 -29.107510 39.591689 0.320497 2.396747 -0.019365 0.015547 763312.000000 0 0 1
-26.818237 -8.918155 -29.335180 40.734556 0.321037 2.374821 -0.007613 0.012394 608755.000000 0 0 1
-26.957517 -10.254055 -28.872640 40.810326 0.363478 2.356728 -0.011367 0.009703 367875.000000 0 0 1
-28.426907 -10.429855 -28.426500 41.532358 0.351651 2.324635 0.020769 -0.007973 356324.000000 0 0 1
-28.616947 -11.500155 -27.549620 41.354138 0.382113 2.299882 0.026725 -0.012127 392535.000000 0 0 1
-30.018477 -11.608755 -27.255170 42.174832 0.369006 2.273447 0.023650 -0.013243 139278.000000 0 0 1
-30.241877 -12.427955 -25.989540 41.766989 0.389912 2.242411 0.012521 -0.009242 -88165.800000 0 0 1
-30.123987 -11.587855 -24.851320 40.734765 0.367223 2.226953 0.018079 -0.008005 258338.000000 0 0 1
-29.839157 -12.266255 -23.609520 39.978065 0.390021 2.202551 0.013236 -0.005425 -305677.000000 0 0 1
-29.633707 -11.422755 -22.340620 38.829618 0.367914 2.183828 0.015682 -0.004599 90728.600000 0 0 1
-29.316447 -12.117155 -21.141420 38.121374 0.391939 2.158657 0.012033 0.003978 -528805.000000 0 0 1
-27.998637 -12.557055 -21.094620 37.236894 0.421596 2.173046 0.011229 -0.012306 -1295460.000000 0 0 1
-27.651407 -13.179255 -19.705920 36.422745 0.444771 2.142462 0.009029 -0.017261 -470606.000000 0 0 1
-27.240447 -12.198255 -18.874220 35.313957 0.421022 2.134676 0.007326 -0.011933 -168231.000000 0 0 1
-26.896247 -12.678655 -17.619420 34.562991 0.440500 2.105722 -0.008191 0.004169 -14566.500000 0 0 1
-26.609897 -11.530855 -16.565820 33.398707 0.408905 2.089785 -0.003251 -0.004151 -265990.000000 0 0 1
-25.472897 -10.753755 -16.806520 32.356929 0.399467 2.116957 0.013897 -0.012728 -56230.400000 0 0 1
-25.461857 -9.630355 -15.959720 31.555705 0.361597 2.101063 0.030147 -0.018996 -529756.000000 0 0 1
-24.165367 -8.833655 -16.128020 30.366288 0.350460 2.130713 0.036861 -0.021844 750014.000000 0 0 1
-22.992167 -9.398155 -15.482320 29.268879 0.388031 2.128181 0.008787 -0.018984 1207810.000000 0 0 1
-21.890867 -8.482555 -15.486120 28.124432 0.369678 2.153914 0.032252 -0.039416 266926.000000 0 0 1
-20.831667 -8.963055 -14.502020 26.918456 0.406318 2.139736 0.009761 -0.003977 -468033.000000 0 0 1
-20.174267 -10.204455 -14.757220 26.998287 0.468289 2.149093 0.003057 -0.003837 -455584.000000 0 0 1
-19.088667 -10.341255 -13.921420 25.790011 0.496486 2.140995 0.001147 0.007465 -785616.000000 0 0 1
-18.218567 -11.551955 -14.328320 25.897193 0.565099 2.157089 0.003431 0.007396 -386376.000000 0 0 1
-17.385967 -11.339755 -15.426620 25.861989 0.577946 2.209927 0.019160 -0.004261 -374247.000000 0 0 1
-18.008767 -11.233655 -16.669320 26.988459 0.557727 2.236543 0.010980 -0.010225 -575607.000000 0 0 1
-17.072667 -10.823855 -17.808120 26.939950 0.565036 2.292987 0.007892 -0.001379 -129323.000000 0 0 1
-17.808967 -10.894355 -18.987220 28.219865 0.549003 2.308826 0.007864 -0.006158 7320.800000 0 0 1
-17.104167 -10.329755 -20.036420 28.296899 0.543306 2.357569 0.006732 -0.006300 -507937.000000 0 0 1
-17.727267 -10.629255 -21.359620 29.723230 0.540125 2.372608 0.008668 -0.001678 -1757.030000 0 0 1
-18.976567 -9.992755 -21.555520 30.407329 0.484688 2.358723 0.013213 -0.021684 -27481.400000 0 0 1
-19.747667 -10.643055 -22.515320 31.783401 0.494322 2.358023 0.004672 -0.011322 77381.600000 0 0 1
-21.091667 -9.926555 -22.773720 32.588912 0.439884 2.344540 0.014013 -0.017694 64586.300000 0 0 1
-20.829667 -8.743055 -23.489920 32.589759 0.397407 2.375718 0.011190 -0.015223 326712.000000 0 0 1
-21.950067 -8.222355 -24.187520 33.681578 0.358414 2.371898 0.010331 -0.013431 -26259.800000 0 0 1
-21.497367 -7.487955 -25.482670 34.169763 0.335177 2.412481 -0.006133 -0.011668 -70871.900000 0 0 1
-20.759867 -8.306855 -26.353620 34.561383 0.380627 2.437990 0.005667 -0.010448 71016.900000 0 0 1
-20.118767 -7.485555 -27.326570 34.749672 0.356198 2.475729 0.004935 -0.016832 545151.000000 0 0 1
-18.933967 -8.205355 -28.077850 34.845209 0.408936 2.507801 0.028297 -0.010559 580317.000000 0 0 1
-19.338867 -9.280955 -28.900990 35.991598 0.447448 2.503096 0.031877 -0.001928 1797730.000000 0 0 1
-18.079467 -9.909655 -29.310500 35.835370 0.501396 2.528584 0.003144 0.008855 1633070.000000 0 0 1
-18.385467 -11.044455 -30.328200 37.145728 0.540946 2.526059 0.020959 0.010295 -97794.200000 0 0 1
-18.732267 -10.668255 -31.616300 38.266172 0.517700 2.543162 0.015657 0.010115 298682.000000 0 0 1
-18.938767 -11.840355 -32.379020 39.335376 0.558737 2.537737 -0.003201 0.013581 -157212.000000 0 0 1
-19.396467 -11.476955 -33.802620 40.627091 0.534297 2.553538 -0.020861 0.011651 -962992.000000 0 0 1
-18.428267 -11.068855 34.463096 40.618045 0.540894 0.557713 -0.009010 0.001556 -611396.000000 0 0 1
-18.814967 -10.941355 33.083379 39.600836 0.526723 0.581898 -0.000830 -0.004551 -341544.000000 0 0 1
-18.335267 -12.058055 32.125369 38.905244 0.581729 0.599295 0.011539 -0.004798 791542.000000 0 0 1
-16.921867 -11.944255 31.825599 37.972142 0.614640 0.576950 0.016975 -0.011449 1437860.000000 0 0 1
-16.430967 -12.918755 30.916119 37.318592 0.666297 0.594484 0.020178 -0.011380 -40498.500000 0 0 1
-16.440667 -14.440355 31.288389 38.180920 0.720714 0.610298 0.018095 -0.005102 -820725.000000 0 0 1
-17.648567 -15.098955 30.957329 38.701506 0.707698 0.643668 0.003517 -0.004244 223325.000000 0 0 1
-17.643367 -16.436355 31.437059 39.619829 0.749996 0.654310 0.010679 -0.005654 -91062.700000 0 0 1
-18.101067 -16.678955 32.889019 41.079481 0.744532 0.642468 -0.004766 -0.010209 -161172.000000 0 0 1
-17.081867 -16.270455 33.794690 41.214063 0.761074 0.609421 0.011956 -0.010115 655211.000000 0 0 1
-17.569567 -16.201955 -34.055840 41.605207 0.744924 2.529674 0.002814 -0.008810 -236974.000000 0 0 1
-16.471567 -15.494955 -33.312360 40.263128 0.754857 2.545199 0.018002 0.000462 -381325.000000 0 0 1
-16.240267 -14.181655 -33.682640 39.992322 0.717832 2.572198 0.016648 0.002038 59864.500000 0 0 1
-15.090867 -13.594255 -33.086440 38.823324 0.733272 2.591031 0.022245 0.001008 281578.000000 0 0 1
-15.197967 -13.229155 -31.583200 37.463145 0.716250 2.573720 0.025290 0.001089 -144124.000000 0 0 1
-15.376567 -14.324355 -30.699100 37.202966 0.749986 2.541315 0.024671 -0.003310 -94552.800000 0 0 1
-15.479967 -13.883555 -29.408150 36.016965 0.731084 2.526133 0.028974 -0.001681 -225217.000000 0 0 1
-15.427167 -15.111355 -28.400350 35.678150 0.775057 2.491479 0.029237 0.005950 276572.000000 0 0 1
-14.199467 -15.710655 -28.016010 35.119031 0.835880 2.494342 0.025016 -0.005614 363653.000000 0 0 1
-13.450267 -16.366655 -29.061850 35.963428 0.882898 2.511706 0.020144 -0.013747 89298.400000 0 0 1
-11.987567 -16.729355 -28.744330 35.352646 0.949043 2.520210 0.012582 -0.007227 -47525.200000 0 0 1
-11.103467 -15.635355 -28.856240 34.647278 0.953290 2.555047 0.018408 -0.002703 -744830.000000 0 0 1
-9.801667 -16.120155 -28.618280 34.277369 1.024487 2.558753 0.007552 -0.006765 111543.000000 0 0 1
-8.838567 -14.901455 -28.485760 33.340848 1.035440 2.595153 0.003084 -0.003713 -412719.000000 0 0 1
-9.179367 -14.104955 -27.366420 32.126803 0.993866 2.590256 -0.001908 -0.002915 -298087.000000 0 0 1
-8.219867 -13.165355 -26.943200 31.093871 1.012660 2.618967 -0.010799 -0.000017 -554054.000000 0 0 1
-8.132967 -11.889155 -27.827860 31.335075 0.970845 2.663934 -0.016272 -0.004661 -92935.100000 0 0 1
-7.385867 -12.034055 -29.059830 32.308562 1.020330 2.689298 -0.004571 -0.004052 399886.000000 0 0 1
-7.326767 -10.745755 -29.634210 32.362620 0.972370 2.728024 -0.006458 0.001918 -287188.000000 0 0 1
-6.236167 -10.671955 -30.682780 33.078896 1.041963 2.758635 -0.006926 0.009275 -2005750.000000 0 0 1
-4.932767 -10.900455 -30.347300 32.620710 1.145842 2.766047 0.011261 0.005346 -802822.000000 0 0 1
-3.968267 -10.613355 -31.360520 33.344754 1.212996 2.794876 0.025389 0.002841 55146.200000 0 0 1
-3.926867 -9.159855 -31.977600 33.494628 1.165793 2.839474 0.007726 0.006579 -1651040.000000 0 0 1
-2.792567 -8.829255 -32.716170 34.001499 1.264466 2.865757 0.002812 0.004070 -346403.000000 0 0 1
-2.863367 -7.506155 -33.159720 34.119030 1.206366 2.903898 -0.018452 0.003528 872171.000000 0 0 1
-1.451867 -6.985455 -33.652340 34.400356 1.365872 2.932673 -0.006017 -0.000956 862075.000000 0 0 1
-0.905067 -7.575855 34.357091 35.194068 1.451893 0.218525 0.009888 -0.013515 258747.000000 0 0 1
0.189633 -6.745955 33.931337 34.595946 -1.542693 0.196328 -0.002348 -0.005597 536123.000000 0 0 1
0.900433 -7.246055 32.634249 33.441147 -1.447165 0.220121 -0.004055 -0.003051 -486853.000000 0 0 1
0.145133 -7.244255 31.479139 32.302268 -1.550765 0.226235 -0.018516 0.005982 -161241.000000 0 0 1
0.827633 -7.703255 30.313989 31.288385 -1.463767 0.250222 -0.011118 -0.001962 67362.500000 0 0 1
0.198233 -7.052655 29.063609 29.907735 -1.542696 0.238152 -0.010970 0.001329 34058.700000 0 0 1
0.502433 -5.631355 29.035739 29.581054 -1.481811 0.192310 -0.022866 0.003781 197301.000000 0 0 1
0.414633 -5.191455 27.651519 28.137691 -1.491097 0.186163 -0.010224 0.015729 -203488.000000 0 0 1
-0.905467 -4.372255 27.414559 27.775790 1.366589 0.161453 -0.012922 0.021932 537036.000000 0 0 1
-2.066867 -5.154655 27.368129 27.925918 1.189453 0.200204 -0.000532 0.010398 -413653.000000 0 0 1
-3.181967 -4.358455 27.008769 27.542597 0.940174 0.197205 -0.000686 0.001856 1006030.000000 0 0 1
-4.594367 -5.047155 27.183139 28.026863 0.832326 0.245993 0.009967 0.004970 866145.000000 0 0 1
-4.947667 -6.059855 26.273749 27.413703 0.886095 0.289395 0.008305 0.004480 -1044140.000000 0 0 1
-6.259367 -6.367055 26.585389 28.044643 0.793927 0.324009 0.005805 0.003411 -643298.000000 0 0 1
-6.568567 -7.873755 26.681419 28.583915 0.875526 0.366906 0.007305 0.000838 -59070.900000 0 0 1
-5.929067 -8.515655 27.750749 29.627256 0.962588 0.357819 0.011294 -0.003724 -220866.000000 0 0 1
-5.851067 -9.909155 27.629989 29.930630 1.037413 0.394642 0.010927 -0.007515 227987.000000 0 0 1
-4.931367 -10.561655 28.731039 31.005476 1.133967 0.385411 0.017251 -0.012734 208895.000000 0 0 1
-4.860467 -11.971955 28.668379 31.445632 1.185139 0.423440 0.034069 -0.017093 197536.000000 0 0 1
-4.247867 -12.529155 29.818699 32.621755 1.243920 0.417578 0.044119 -0.021226 -154569.000000 0 0 1
-4.352467 -14.082255 29.932619 33.364885 1.271035 0.457568 0.055681 -0.028820 506108.000000 0 0 1
-5.650367 -14.636055 30.199709 34.031797 1.202366 0.479129 0.061148 -0.030415 414919.000000 0 0 1
-5.606967 -16.002055 30.383309 34.794386 1.233774 0.509016 0.050978 -0.030531 -97164.000000 0 0 1
-5.818867 -16.435955 31.800759 36.266901 1.230533 0.501519 0.056516 -0.027903 -1122110.000000 0 0 1
-7.122867 -16.406755 32.220429 36.852041 1.161208 0.506766 0.054825 -0.023118 -1481500.000000 0 0 1
-7.166867 -16.500455 33.573497 38.089483 1.161038 0.491899 0.041093 -0.020076 -578630.000000 0 0 1
-8.575567 -16.730755 34.140844 38.975065 1.097149 0.503361 0.053954 -0.017291 63288.800000 0 0 1
-9.196767 -17.941955 33.655955 39.232864 1.097132 0.539723 0.039841 -0.013767 337390.000000 0 0 1
-9.724567 -17.951655 32.318969 38.227541 1.074341 0.563414 0.042788 -0.018770 -593167.000000 0 0 1
-10.134867 -19.398555 31.853469 38.647936 1.089347 0.602016 0.044109 -0.016825 -366217.000000 0 0 1
-11.064167 -19.962255 32.713169 39.888079 1.064693 0.609169 0.055072 -0.019650 -124864.000000 0 0 1
-11.423667 -21.283655 32.350289 40.373696 1.078195 0.641379 0.040057 -0.018115 -99876.800000 0 0 1
-10.880767 -22.284955 33.379965 41.584040 1.116588 0.638969 0.030084 -0.021429 659886.000000 0 0 1
-9.497167 -22.652055 33.249859 41.338419 1.173795 0.636244 0.018521 -0.018370 652854.000000 0 0 1
-8.953067 -23.302255 34.394917 42.498974 1.203972 0.627817 0.009065 -0.019638 342450.000000 0 0 1
-9.484967 -24.751655 -34.504392 43.510482 1.204851 2.486536 0.014907 -0.007372 -116878.000000 0 0 1
-8.960067 -25.592435 33.653323 43.218071 1.234027 0.678227 0.014241 -0.007114 78604.400000 0 0 1
-9.113867 -26.918295 34.001987 44.314696 1.244336 0.696200 0.021351 -0.006111 -675299.000000 0 0 1
-8.446867 -27.831495 32.968519 43.964360 1.276131 0.722898 0.011160 -0.004623 -668303.000000 0 0 1
-7.108467 -27.518145 32.777709 43.383831 1.318003 0.714336 -0.003530 -0.004919 -1365210.000000 0 0 1
-6.257667 -28.405795 33.443294 44.322697 1.353964 0.715842 0.000563 -0.002898 178841.000000 0 0 1
-4.799867 -27.833545 33.530362 43.840964 1.400027 0.700037 -0.004125 -0.002420 551747.000000 0 0 1
-4.660467 -26.575615 34.265632 43.613264 1.397195 0.667018 -0.012717 -0.002232 -91206.400000 0 0 1
-4.993967 -25.369895 33.564080 42.368842 1.376435 0.656411 -0.002907 -0.010134 -73027.300000 0 0 1
-4.649567 -24.107655 34.392098 42.256525 1.380269 0.619983 -0.001690 -0.005065 901105.000000 0 0 1
-3.280467 -24.012955 -34.334804 42.026922 1.435024 2.526936 -0.010447 -0.003545 577541.000000 0 0 1
-2.859467 -22.698055 -34.294133 41.224577 1.445478 2.553293 -0.004716 -0.010444 -113586.000000 0 0 1
33.765452 -15.622755 1.901380 37.253073 -0.433352 1.519735 0.064124 -0.039880 -140983.000000 0 0 1
34.562787 -15.870455 3.067280 38.155810 -0.430460 1.490321 0.044902 -0.036179 191272.000000 0 0 1
33.913482 -16.485855 4.142980 37.935102 -0.452478 1.461366 0.057018 -0.037657 -60330.700000 0 0 1
34.846782 -16.727555 5.355780 39.022989 -0.447546 1.433115 0.037643 -0.020215 431433.000000 0 0 1
-34.564688 -17.853455 5.429780 39.280352 0.476778 1.432121 0.048938 -0.024582 441715.000000 0 0 1
-33.855427 -17.797955 6.688680 38.829056 0.483999 1.397673 0.041674 -0.016029 896405.000000 0 0 1
-32.548157 -18.669655 6.703780 38.116653 0.520782 1.394001 0.022310 -0.013752 566362.000000 0 0 1
-32.836357 -20.056355 6.874080 39.086272 0.548321 1.394007 0.041747 -0.020399 5755.090000 0 0 1
-31.681087 -20.723755 7.328480 38.559978 0.579278 1.379579 0.023870 -0.006076 -204394.000000 0 0 1
-31.879177 -22.251755 7.512380 39.596191 0.609384 1.379914 0.016343 -0.003176 -502874.000000 0 0 1
-31.861507 -22.899255 6.241480 39.730185 0.623174 1.413046 0.035962 -0.004175 64129.500000 0 0 1
-32.089977 -24.282155 6.438280 40.753419 0.647769 1.412150 0.048720 -0.011116 18525.400000 0 0 1
-31.680267 -25.162225 5.223180 40.792873 0.671228 1.442402 0.047397 -0.008558 -62276.500000 0 0 1
-32.532557 -24.952755 4.154580 41.210045 0.654298 1.469810 0.054963 -0.005656 -133881.000000 0 0 1
-31.793857 -25.085475 2.957280 40.606353 0.668000 1.497904 0.051031 0.001447 328270.000000 0 0 1
-32.669267 -24.767255 1.714780 41.032163 0.648678 1.528993 0.039122 -0.002361 -398441.000000 0 0 1
-33.728267 -25.643325 1.364780 42.391494 0.650055 1.538596 0.049017 0.000433 199306.000000 0 0 1
-34.434861 -25.258415 0.199580 42.705819 0.632866 1.566123 0.050780 0.003467 -477063.000000 0 0 1
34.894539 -24.127955 0.364780 42.425466 -0.604967 1.562198 0.067464 -0.002402 -1409270.000000 0 0 1
33.524102 -24.388755 0.168880 41.457271 -0.628944 1.566723 0.046242 0.002250 -260255.000000 0 0 1
32.775082 -23.352955 0.733180 40.250516 -0.619080 1.552580 0.070048 -0.010768 361272.000000 0 0 1
31.258422 -23.521955 0.414780 39.122159 -0.645099 1.560194 0.011301 -0.003665 348284.000000 0 0 1
30.889732 -23.532855 -0.959820 38.844460 -0.651032 1.595508 0.010726 -0.008484 -638558.000000 0 0 1
29.513052 -23.395555 -1.124220 37.678059 -0.670285 1.600638 0.003445 -0.004933 -316938.000000 0 0 1
29.240692 -23.178755 -2.662020 37.408009 -0.670267 1.642018 -0.010825 0.011006 78923.600000 0 0 1
29.680452 -21.901655 -3.140420 37.019913 -0.635722 1.655729 0.001969 -0.000133 184928.000000 0 0 1
29.418762 -21.787855 -4.504520 36.884480 -0.637465 1.693227 0.005034 -0.021240 242002.000000 0 0 1
29.880482 -20.413455 -4.935020 36.522688 -0.599341 1.706333 0.020945 -0.025325 583295.000000 0 0 1
28.901682 -19.548155 -4.363020 35.163526 -0.594688 1.695195 0.023959 -0.021932 566548.000000 0 0 1
29.221112 -18.162255 -4.585420 34.709753 -0.556111 1.703291 0.037539 -0.023373 -294987.000000 0 0 1
28.352912 -17.283855 -3.713520 33.412715 -0.547446 1.682167 0.043455 -0.022512 -527319.000000 0 0 1
28.547622 -17.174955 -2.308820 33.395755 -0.541613 1.639987 0.041316 -0.016953 -90081.000000 0 0 1
28.860022 -18.248855 -1.418220 34.175034 -0.563848 1.612307 0.030230 -0.004618 -25547.600000 0 0 1
27.778852 -19.320755 -1.086320 33.854635 -0.607713 1.602890 0.011593 -0.005273 263272.000000 0 0 1
26.790032 -19.127755 -0.092720 32.917859 -0.620052 1.573613 0.006718 0.011970 167021.000000 0 0 1
26.221822 -20.343955 0.310480 33.189710 -0.659835 1.561441 -0.009459 0.014686 -489617.000000 0 0 1
25.143402 -20.159055 1.390680 32.256971 -0.675815 1.527670 -0.005055 0.022132 -1003720.000000 0 0 1
24.534402 -21.409455 1.845280 32.614517 -0.717486 1.514188 -0.008763 0.027808 169745.000000 0 0 1
23.673002 -21.248755 2.944380 31.946674 -0.731484 1.478500 -0.018653 0.023553 1132030.000000 0 0 1
22.220902 -20.720355 2.559580 30.490212 -0.750468 1.486750 -0.030525 0.019947 158005.000000 0 0 1
22.231502 -19.376355 2.156180 29.569104 -0.716885 1.497812 -0.001202 0.010460 3291.200000 0 0 1
22.513102 -18.429955 3.172580 29.267188 -0.685999 1.462182 0.008889 0.012615 -449653.000000 0 0 1
22.566002 -16.992355 2.670280 28.374196 -0.645423 1.476547 0.009551 0.011694 514907.000000 0 0 1
21.311902 -16.691455 2.060680 27.148632 -0.664412 1.494820 0.006984 0.013568 249483.000000 0 0 1
21.455102 -15.380055 1.571980 26.445011 -0.621944 1.511318 0.013453 0.004442 -443865.000000 0 0 1
20.172802 -14.692055 1.104080 24.980341 -0.629474 1.526584 0.010047 0.002682 -374546.000000 0 1 0
19.234402 -14.486455 2.138780 24.174242 -0.645516 1.482207 0.010655 0.001760 -11719.100000 0 1 0
18.278902 -13.485755 1.933280 22.797399 -0.635632 1.485892 0.023957 -0.004363 53605.400000 0 1 0
18.868402 -12.021255 2.126980 22.473345 -0.567261 1.476010 0.029031 -0.000584 -674815.000000 0 1 0
19.836502 -11.594255 1.232180 23.009386 -0.528938 1.517219 0.025146 -0.006536 -126445.000000 0 1 0
20.205002 -10.287155 1.576180 22.727781 -0.470932 1.501390 0.024676 -0.009919 -18481.100000 0 1 0
21.122402 -9.656655 0.491480 23.230334 -0.428805 1.549638 0.039038 0.000030 -148294.000000 0 1 0
20.414302 -9.340455 -0.680220 22.459976 -0.429110 1.601087 0.030115 0.005885 1099130.000000 0 1 0
21.332002 -8.751555 -1.617420 23.114067 -0.389315 1.640829 0.035114 0.001907 -142046.000000 0 1 0
20.640002 -8.390455 -2.951120 22.474842 -0.386109 1.702484 0.055727 -0.004475 -456398.000000 0 1 0
21.339002 -8.092955 -4.149120 23.196209 -0.362497 1.750635 0.033793 0.001202 210197.000000 0 1 0
22.247002 -9.095655 -4.605620 24.471857 -0.388111 1.760126 0.027013 0.005183 -472423.000000 0 1 0
21.595902 -10.292855 -5.343820 24.512900 -0.444762 1.790561 0.012642 0.000756 -378292.000000 0 1 0
20.883202 -9.993355 -6.517320 24.051003 -0.446329 1.845206 0.001679 0.000159 -255528.000000 0 1 0
19.557402 -9.646755 -6.265420 22.689366 -0.458236 1.850571 0.005658 -0.005587 -930739.000000 0 1 0
18.630102 -9.580855 -7.515220 22.256505 -0.474996 1.915230 -0.001819 -0.004086 -245716.000000 0 1 0
18.534902 -10.736355 -8.315420 22.977339 -0.525023 1.941098 -0.000551 0.001610 817705.000000 0 1 0
19.657802 -10.908855 -9.183520 24.285167 -0.506626 1.958597 -0.006056 0.001541 169589.000000 0 1 0
19.700202 -12.309955 -9.748420 25.192551 -0.558502 1.968125 -0.007062 -0.004258 -140832.000000 0 0 1
18.766402 -12.529155 -10.802120 25.016862 -0.588674 2.017277 0.008250 0.001521 237530.000000 0 0 1
18.816902 -13.765755 -11.471420 25.983943 -0.631597 2.028045 0.009416 0.006312 -922992.000000 0 0 1
17.494002 -14.143355 -12.097520 25.542603 -0.679884 2.064194 0.013655 0.004707 -648806.000000 0 0 1
17.427602 -15.474755 -12.588820 26.489012 -0.726115 2.066041 0.015659 0.002975 -330775.000000 0 0 1
16.338702 -15.698355 -13.437120 26.342887 -0.765413 2.106080 0.025994 -0.001106 -402191.000000 0 0 1
16.309302 -17.150455 -13.990120 27.492815 -0.810532 2.104662 0.030486 -0.003940 -147375.000000 0 0 1
15.848002 -18.090755 -12.999720 27.339117 -0.851385 2.066327 0.020487 0.000688 251405.000000 0 0 1
15.927102 -19.427955 -13.476520 28.508500 -0.884096 2.063170 0.027376 -0.000851 -277916.000000 0 0 1
15.035502 -20.349955 -12.591820 28.262005 -0.934471 2.032572 0.021416 0.000254 -757868.000000 0 0 1
13.708602 -20.143855 -12.918320 27.578681 -0.973254 2.058294 0.014115 -0.002729 -1200710.000000 0 0 1
12.804802 -20.661055 -11.949820 27.085796 -1.015977 2.027714 0.009939 0.000897 -338288.000000 0 0 1
11.374302 -20.408455 -12.380920 26.441765 -1.062341 2.058087 0.012436 0.000685 -791113.000000 0 0 1
10.451502 -20.981055 -11.507720 26.112567 -1.108638 2.027171 -0.001622 0.001796 -41674.400000 0 0 1
9.086102 -20.750755 -11.843720 25.562175 -1.158077 2.052545 0.000913 0.004890 1059870.000000 0 0 1
8.120302 -21.322355 -10.726720 25.211994 -1.206920 2.010268 -0.004070 0.001261 283988.000000 0 0 1
7.904602 -22.721255 -10.849020 26.390138 -1.235998 1.994458 0.008775 0.002576 79863.900000 0 0 1
7.304002 -23.255355 -9.662220 26.220573 -1.266474 1.948189 0.008636 -0.006112 227022.000000 0 0 1
7.178202 -24.799855 -9.676620 27.571659 -1.289051 1.929395 0.013999 -0.003602 725211.000000 0 0 1
8.436502 -25.417745 -9.415320 28.388106 -1.250324 1.908863 0.002336 0.005881 247416.000000 0 0 1
8.330002 -26.759815 -9.806220 29.692399 -1.269016 1.907376 -0.007449 0.003721 554799.000000 0 0 1
9.637602 -27.581725 -9.626020 30.761911 -1.234638 1.889062 -0.006956 0.008648 423199.000000 0 0 1
10.079202 -27.776765 -8.275320 30.685826 -1.222707 1.843856 0.002714 0.000734 -52228.500000 0 0 1
11.420702 -28.211025 -8.303120 31.547364 -1.186132 1.837129 0.018803 0.010985 -108550.000000 0 0 1
12.117302 -28.325025 -6.915320 31.574637 -1.166561 1.791601 0.018440 -0.005692 130986.000000 0 0 1
11.688102 -29.484245 -6.172820 32.311548 -1.193381 1.763019 0.031126 -0.014440 -351970.000000 0 0 1
10.339602 -29.528395 -5.819420 31.822934 -1.233981 1.754700 0.024769 -0.009240 -575326.000000 0 0 1
9.822202 -30.662945 -4.895020 32.567669 -1.260796 1.721671 0.031476 -0.010670 110574.000000 0 0 1
9.930602 -31.993895 -5.380220 33.928940 -1.269834 1.730042 0.042997 -0.019569 -137505.000000 0 0 1
8.957702 -32.382535 -6.324920 34.188794 -1.300923 1.756868 0.044112 -0.014495 2873.310000 0 0 1
9.085902 -33.935375 -6.463220 35.720253 -1.309191 1.752738 0.043321 -0.013046 -322751.000000 0 0 1
8.639402 34.554976 -5.402620 36.026017 1.325800 1.721329 0.041338 -0.011641 68455.900000 0 0 1
9.070102 33.202042 -5.656920 34.880411 1.304124 1.733696 0.040167 -0.007653 154847.000000 0 0 1
8.827602 32.239219 -4.461520 33.722380 1.303532 1.703487 0.026042 -0.000343 713166.000000 0 0 1
7.411802 32.011209 -4.414920 33.153338 1.343268 1.704360 0.017475 0.001100 313052.000000 0 0 1
7.092602 31.079809 -3.392920 32.058874 1.346432 1.676829 0.004815 0.000430 757268.000000 0 0 1
5.645402 30.514259 -3.596920 31.239852 1.387856 1.686191 -0.002442 -0.000660 412413.000000 0 0 1
5.630402 29.687069 -4.731020 30.584408 1.383364 1.726107 -0.000777 0.001911 203639.000000 0 0 1
5.151302 30.393159 -5.891820 31.384607 1.402903 1.759646 -0.005562 -0.004639 -686483.000000 0 0 1
5.483902 29.710649 -7.179120 31.053753 1.388274 1.804090 0.010370 -0.011045 -182242.000000 0 0 1
4.769302 28.517849 -7.500120 29.870817 1.405091 1.824598 0.013286 -0.011026 161399.000000 0 0 1
5.268102 27.355079 -6.818320 28.680005 1.380543 1.810832 -0.001888 -0.008179 -369904.000000 0 0 1
4.488502 26.033259 -7.179320 27.375534 1.400061 1.836153 -0.000496 -0.003649 -465916.000000 0 0 1
3.168002 26.085029 -6.746020 27.128836 1.449939 1.822099 -0.005241 -0.006073 -143077.000000 0 0 1
2.151102 26.706069 -7.585620 27.845699 1.490423 1.846700 0.000537 -0.008508 797815.000000 0 0 1
1.686402 25.824059 -8.775120 27.326337 1.505585 1.897712 0.013182 -0.010963 810112.000000 0 0 1
2.767702 25.629009 -9.764220 27.565309 1.463222 1.932878 0.008172 -0.014317 1259880.000000 0 0 1
2.281902 25.045839 -10.990920 27.446337 1.479938 1.982806 0.031005 -0.014700 -190960.000000 0 0 1
1.888202 23.543039 -10.913120 26.017997 1.490765 2.003630 0.034251 -0.008183 -78751.900000 0 0 1
0.784002 23.168039 -10.136820 25.300747 1.536969 1.983026 0.038599 -0.006554 -494207.000000 0 0 1
0.754602 21.756639 -10.089420 23.994106 1.536126 2.004788 0.020741 -0.000998 -473912.000000 0 1 0
-0.374298 21.064439 -9.304020 23.030750 -1.553029 1.986663 0.029420 0.001944 77296.700000 0 1 0
-1.636798 21.182339 -9.957020 23.463010 -1.493678 2.009063 0.034355 -0.001312 -405706.000000 0 1 0
-2.507798 20.322639 -9.260320 22.473367 -1.448018 1.995507 0.028331 -0.003150 -532348.000000 0 1 0
-3.899998 20.428539 -9.906020 23.036154 -1.382157 2.015312 0.029725 -0.005867 -694058.000000 0 1 0
-4.736298 19.490739 -9.355220 22.132364 -1.332414 2.007212 0.018913 -0.014081 -47213.900000 0 1 0
-5.769198 19.011439 -10.232020 22.347543 -1.276169 2.046382 0.022170 -0.016425 57190.200000 0 1 0
-6.704698 17.934539 -9.576820 21.408319 -1.213041 2.034586 0.026876 -0.017582 229523.000000 0 1 0
-7.692098 18.472139 -8.708720 21.822696 -1.176219 1.981295 0.031560 -0.010497 -33228.700000 0 1 0
-8.925698 18.741939 -9.341720 22.763921 -1.126335 1.993660 0.026998 -0.012860 -309741.000000 0 1 0
-9.973998 19.034739 -8.242720 23.016176 -1.088142 1.937058 0.038624 -0.019235 -178768.000000 0 1 0
-10.199598 17.879139 -7.430520 21.883967 -1.052370 1.917226 0.033920 -0.023926 -493639.000000 0 1 0
-11.074698 18.271439 -6.420020 22.309439 -1.025888 1.862695 0.032066 -0.015741 -398100.000000 0 1 0
-11.686998 17.041639 -5.647920 21.422007 -0.969671 1.837601 0.023753 -0.024082 -535635.000000 0 1 0
-12.555298 17.468239 -4.670120 22.013289 -0.947597 1.784571 0.034793 -0.014939 -384600.000000 0 1 0
-13.296098 16.344039 -4.246320 21.492907 -0.887870 1.769673 0.048210 -0.011254 36104.300000 0 1 0
-14.521898 16.704239 -3.363920 22.388235 -0.855173 1.721621 0.041541 -0.013851 359027.000000 0 1 0
-15.722298 16.975839 -4.071620 23.493570 -0.823716 1.744984 0.044061 -0.020922 303275.000000 0 1 0
-16.614098 17.758239 -3.292420 24.540239 -0.818673 1.705366 0.038970 -0.006801 -474986.000000 0 1 0
-17.895798 18.084439 -4.042820 25.761423 -0.790641 1.728381 0.033629 -0.014779 -922718.000000 0 0 1
-17.789198 18.792639 -5.253220 26.404832 -0.812821 1.771082 0.027796 -0.016346 20069.800000 0 0 1
-19.032598 18.931739 -5.927520 27.491562 -0.782741 1.788115 0.002184 -0.008702 102086.000000 0 0 1
-18.886998 19.782939 -7.221920 28.288504 -0.808563 1.828949 -0.000871 -0.004563 -152585.000000 0 0 1
-18.647598 21.087539 -6.883920 28.979399 -0.846726 1.810634 -0.000434 -0.007867 47564.500000 0 0 1
-18.461298 21.964239 -8.025220 29.793480 -0.871834 1.843526 -0.000700 -0.001504 -13463.900000 0 0 1
-18.294598 23.453939 -7.578420 30.695472 -0.908356 1.820266 0.000753 0.000500 700485.000000 0 0 1
-17.053198 23.713739 -6.900920 30.012925 -0.947348 1.802804 0.001609 0.001229 775647.000000 0 0 1
-17.232898 24.833679 -6.061220 30.828927 -0.964154 1.768694 -0.002371 -0.002461 -326752.000000 0 0 1
-15.969498 25.119329 -5.268820 30.228563 -1.004507 1.745991 0.005240 0.000642 -787152.000000 0 0 1
-16.177998 26.036999 -4.246220 30.946459 -1.014829 1.708442 0.002142 -0.001352 127905.000000 0 0 1
-15.001498 26.542119 -3.636920 30.704335 -1.056361 1.689525 0.000033 0.001257 825287.000000 0 0 1
-14.110198 27.513869 -4.517720 31.249327 -1.096930 1.715875 0.014565 -0.001073 396858.000000 0 0 1
-14.809698 28.754929 -4.634120 32.674886 -1.095196 1.713101 0.009938 -0.003722 460203.000000 0 0 1
-14.084398 29.720379 -5.397620 33.328748 -1.128248 1.733464 0.018729 -0.010348 -19540.200000 0 0 1
-14.598498 31.110079 -4.950920 34.719803 -1.132047 1.713880 0.018278 -0.015305 -156900.000000 0 0 1
-15.988198 31.205999 -5.085520 35.430204 -1.097323 1.714830 0.027872 -0.008541 -469425.000000 0 0 1
-16.377898 32.495609 -4.690320 36.690588 -1.103951 1.698981 0.028640 -0.013996 -171355.000000 0 0 1
12.523333 -8.448455 18.782929 24.104122 -0.593487 0.677342 0.024722 -0.002126 -421903.000000 0 1 0
12.789233 -9.771155 19.112829 24.986800 -0.652410 0.699884 0.022803 0.001177 -176414.000000 0 1 0
13.116433 -10.519155 18.002829 24.633215 -0.675949 0.751251 0.022852 -0.012294 -399143.000000 0 1 0
13.453333 -11.933155 18.463829 25.774122 -0.725588 0.772209 0.038207 -0.014196 -416616.000000 0 0 1
14.614833 -11.933455 19.264929 26.965500 -0.684739 0.774989 0.030077 -0.009173 74392.500000 0 0 1
14.803833 -13.128355 20.008429 28.139730 -0.725486 0.779822 0.031783 -0.014118 -66369.000000 0 0 1
15.392733 -14.335855 19.203729 28.482208 -0.749862 0.830867 0.038710 -0.018894 -419590.000000 0 0 1
14.584633 -14.811655 18.168629 27.607892 -0.793121 0.852510 0.039330 -0.019866 252160.000000 0 0 1
15.152033 -16.054855 17.705029 28.298596 -0.814320 0.894831 0.045153 -0.015258 -86713.600000 0 0 1
14.738033 -16.451855 16.300429 27.451359 -0.840291 0.935031 0.051550 -0.018613 231049.000000 0 0 1
13.348433 -16.764455 16.259029 26.899510 -0.898356 0.921739 0.081883 -0.019141 305343.000000 0 0 1
12.900133 -16.624155 14.918029 25.793867 -0.910870 0.954085 0.089743 -0.031146 171930.000000 0 0 1
12.304833 -17.898455 14.236329 25.969919 -0.968522 0.990603 0.070416 -0.018964 215116.000000 0 0 1
13.361233 -18.778155 13.955129 26.942295 -0.952374 1.026328 0.068664 -0.011340 405546.000000 0 0 1
12.791733 -19.977055 13.499729 27.293843 -1.001255 1.053414 0.060628 -0.011813 -260470.000000 0 0 1
13.857533 -20.970155 13.061429 28.326305 -0.986851 1.091555 0.055565 -0.005828 -271502.000000 0 0 1
14.462733 -21.638355 14.176129 29.636999 -0.981606 1.072050 0.052833 -0.005432 -14336.000000 0 0 1
14.737733 -22.928155 13.722329 30.515625 -0.999514 1.104387 0.024308 -0.001545 -579600.000000 0 0 1
15.549033 -23.743955 14.720129 31.972332 -0.991010 1.092348 0.020720 -0.002211 -244768.000000 0 0 1
16.874933 -23.287755 14.847429 32.365553 -0.943733 1.094218 -0.003072 0.003253 -479885.000000 0 0 1
17.539433 -23.844355 15.960829 33.629348 -0.936588 1.076275 0.006252 -0.000725 105759.000000 0 0 1
18.936533 -23.192755 16.081529 33.986935 -0.886084 1.077913 -0.001411 -0.001544 -74448.800000 0 0 1
19.954933 -23.867755 15.415729 34.720510 -0.874450 1.110744 0.001816 -0.009241 644881.000000 0 0 1
21.223033 -23.124455 15.485429 34.999372 -0.828247 1.112469 0.005885 -0.000830 1181930.000000 0 0 1
22.365733 -24.022155 15.037429 36.102828 -0.821091 1.141186 0.000023 -0.007335 -503114.000000 0 0 1
22.669333 -25.090055 15.968329 37.395147 -0.836041 1.129606 0.012176 -0.005631 406972.000000 0 0 1
23.815433 -25.767305 15.453129 38.339641 -0.824744 1.155940 0.016374 -0.014272 61231.400000 0 0 1
24.269833 -26.999645 16.262629 39.780381 -0.838592 1.149646 0.030894 -0.012079 -370988.000000 0 0 1
24.905133 -26.586635 17.425029 40.382502 -0.818042 1.124642 0.016953 0.008344 -169904.000000 0 0 1
25.105833 -27.658695 18.295029 41.593441 -0.833743 1.115361 0.038853 0.008518 119061.000000 0 0 1
25.418433 -27.243165 19.790029 42.189241 -0.820034 1.082550 0.029467 0.012721 -146523.000000 0 0 1
24.337733 -26.646185 20.448929 41.478948 -0.830645 1.055267 0.038754 0.011152 -291872.000000 0 0 1
24.584733 -26.294565 21.814829 42.091567 -0.818991 1.025969 0.032360 0.017465 8747.910000 0 0 1
23.293833 -26.265435 22.664429 41.786985 -0.845287 0.997529 0.028592 0.008371 142952.000000 0 0 1
22.693933 -27.521425 22.804729 42.337916 -0.881239 1.001979 0.027854 0.007428 -1428790.000000 0 0 1
21.425333 -27.441035 23.298129 41.891027 -0.907887 0.981038 0.021555 -0.002342 -1234420.000000 0 0 1
20.826233 -28.889535 23.233829 42.522324 -0.946186 0.992747 0.027568 -0.003627 -423234.000000 0 0 1
21.523433 -29.729135 24.103739 43.909792 -0.944154 0.989704 0.024622 -0.010738 419318.000000 0 0 1
22.112033 -30.855785 23.384729 44.585502 -0.948999 1.018678 0.042546 -0.013052 280551.000000 0 0 1
23.215833 -31.587335 24.224029 46.081864 -0.936982 1.017289 0.013957 -0.017806 265376.000000 0 0 1
22.764433 -32.057495 25.489119 46.857204 -0.953316 0.995630 0.018386 -0.014147 256911.000000 0 0 1
23.916133 -32.317595 26.271199 48.026912 -0.933704 0.992008 0.027701 -0.009113 -138027.000000 0 0 1
23.573133 -32.812555 27.681299 48.975613 -0.947816 0.970114 0.020217 -0.017086 189879.000000 0 0 1
22.922733 -34.048081 27.987349 49.679123 -0.978253 0.972346 0.016651 -0.013754 804650.000000 0 0 1
21.658533 -34.268915 27.341799 48.898104 -1.007167 0.977426 0.019785 -0.014240 141079.000000 0 0 1
20.965433 33.652979 27.843859 48.449488 1.013644 0.958560 0.053595 -0.028912 32837.300000 0 0 1
20.340433 33.739644 29.148299 49.007348 1.028273 0.933812 0.045667 -0.016227 417120.000000 0 0 1
19.815433 32.510659 29.562859 48.203288 1.023417 0.910570 0.046685 -0.025341 -224509.000000 0 0 1
19.402533 32.582189 31.009839 48.986400 1.033696 0.885336 0.034328 -0.023009 307987.000000 0 0 1
20.498633 32.737759 31.928979 50.114015 1.011373 0.880032 0.025862 -0.004321 767452.000000 0 0 1
20.030833 32.836489 33.316214 50.886534 1.023044 0.856990 0.006695 0.004261 -390300.000000 0 0 1
21.180733 33.045759 34.296626 52.123931 1.000808 0.852660 -0.004871 0.011673 -201426.000000 0 0 1
21.766833 31.775539 34.475564 51.691821 0.970196 0.840696 -0.001155 0.003691 -1056640.000000 0 0 1
22.987633 31.843339 -34.058130 51.984476 0.945525 2.285190 -0.013336 0.013412 -874102.000000 0 0 1
23.427733 30.401229 -33.647220 51.041442 0.914230 2.290569 -0.007752 0.007162 -422502.000000 0 0 1
23.541733 29.618209 34.322374 51.083039 0.899210 0.834034 0.007017 0.001261 59478.800000 0 0 1
22.729433 28.478969 34.345500 50.072869 0.897207 0.814942 0.011356 -0.009018 -338107.000000 0 0 1
22.866133 27.656169 33.069799 48.798927 0.879926 0.826200 0.054086 -0.020956 -597024.000000 0 0 1
24.100133 26.996069 33.019749 48.988856 0.842014 0.831151 0.032188 -0.026259 87503.500000 0 0 1
24.259733 26.353309 31.781739 47.886433 0.826739 0.845055 0.046125 -0.033905 -555555.000000 0 0 1
25.598333 25.618869 31.787809 48.187819 0.785799 0.850424 0.018104 -0.024057 -405513.000000 0 0 1
25.573033 24.574409 32.732489 48.262795 0.765487 0.825467 0.029475 -0.023758 459076.000000 0 0 1
26.616833 24.663829 33.695865 49.519406 0.747332 0.822409 0.028142 -0.030553 -478609.000000 0 0 1
26.580733 23.548039 -34.444109 49.471629 0.724974 2.340942 0.028149 -0.031352 -387579.000000 0 0 1
25.706233 23.686839 -33.326700 48.296435 0.744537 2.332347 0.027649 -0.019256 966498.000000 0 0 1
24.331733 23.427539 -33.637680 47.669448 0.766468 2.354129 0.023044 -0.017608 120518.000000 0 0 1
23.940333 21.916339 -33.591060 46.710007 0.741289 2.373361 0.007359 -0.012700 -603641.000000 0 0 1
23.935933 21.484239 -32.236990 45.538170 0.731472 2.357333 -0.001232 -0.017564 366156.000000 0 0 1
23.920433 20.105639 -32.253510 44.907825 0.698966 2.372031 0.003226 -0.012936 -376667.000000 0 0 1
23.711833 19.457339 -30.880130 43.524952 0.687161 2.359558 0.008464 -0.014179 -957171.000000 0 0 1
22.412633 19.521539 -30.409750 42.522576 0.716563 2.367626 0.000939 -0.025005 -584004.000000 0 0 1
22.415433 19.192139 -29.004210 41.376733 0.708084 2.347565 0.005719 -0.026647 250313.000000 0 0 1
20.928533 19.334739 -28.558500 40.341338 0.745834 2.357347 0.016791 -0.036236 345049.000000 0 0 1
20.693233 18.955339 -27.212600 39.090157 0.741594 2.340816 0.017227 -0.027511 -60796.600000 0 0 1
21.242533 19.810139 -26.204340 39.119742 0.750521 2.304802 0.011855 -0.025254 -280853.000000 0 0 1
21.472133 19.101739 -24.813920 37.969192 0.727043 2.283032 0.017456 -0.010428 134789.000000 0 0 1
22.352733 17.977739 -24.927520 38.002960 0.677342 2.286219 0.030809 -0.025736 446227.000000 0 0 1
22.483033 17.219939 -23.735520 36.951156 0.653605 2.268355 0.031173 -0.025112 -375741.000000 0 0 1
23.412133 16.003439 -23.884920 37.077317 0.599602 2.270763 0.040763 -0.026054 538820.000000 0 0 1
24.786833 16.374339 -23.654720 37.974357 0.583795 2.243257 0.070664 -0.033825 1036510.000000 0 0 1
25.744533 15.328139 -23.678820 38.189257 0.537026 2.239588 0.069591 -0.035780 246314.000000 0 0 1
25.816933 14.453739 -22.411520 37.117392 0.510378 2.219057 0.052642 -0.028367 -1134570.000000 0 0 1
24.649933 13.743839 -22.188620 35.900517 0.508630 2.237067 0.026627 -0.018577 -531362.000000 0 0 1
24.591933 13.035939 -20.946820 34.834869 0.487429 2.215945 0.014616 -0.023343 -876806.000000 0 0 1
23.187333 12.498739 -20.763920 33.541187 0.494384 2.238338 0.005336 -0.006475 -303406.000000 0 0 1
22.198433 13.519839 -20.604320 33.167672 0.547044 2.241091 0.028875 -0.012540 -183107.000000 0 0 1
21.010633 13.079839 -21.206220 32.591911 0.556824 2.279248 0.018339 -0.013316 -310058.000000 0 0 1
19.889133 14.145139 -21.216120 32.338619 0.618203 2.286384 0.023223 -0.012184 -1058230.000000 0 0 1
20.124933 15.334839 -21.884120 33.452726 0.651126 2.283895 0.013536 -0.011346 457836.000000 0 0 1
19.044033 16.280939 -21.935620 33.300384 0.707338 2.289912 0.003743 -0.002986 506376.000000 0 0 1
17.809233 15.926539 -22.803320 33.027486 0.729649 2.332886 0.013111 0.005459 -258024.000000 0 0 1
16.808433 15.132839 -22.222920 31.707797 0.732988 2.347407 0.006837 0.006005 -663544.000000 0 0 1
15.767933 15.024739 -23.110220 31.756145 0.761267 2.385817 -0.000446 -0.003765 -1002390.000000 0 0 1
14.653133 14.076839 -22.678320 30.449596 0.765342 2.411005 -0.000270 -0.006109 -496188.000000 0 0 1
13.534933 14.292739 -23.454120 30.619806 0.812624 2.443359 0.019006 -0.009411 133242.000000 0 0 1
12.297933 13.667339 -23.064520 29.495887 0.838089 2.468596 0.039833 -0.014339 1748040.000000 0 0 1
10.991633 14.012539 -23.880320 29.789879 0.905631 2.500805 0.044085 -0.008234 498934.000000 0 0 1
10.704933 15.363639 -23.567120 30.100600 0.962241 2.470182 0.006431 -0.009281 -104342.000000 0 0 1
10.077133 15.935039 -24.681220 31.058601 1.006902 2.489254 0.012595 -0.009500 -1118110.000000 0 0 1
10.090733 17.462739 -24.741420 31.920338 1.046828 2.457668 0.001252 0.000018 420213.000000 0 0 1
11.348233 18.157239 -24.692620 32.683225 1.012199 2.427234 -0.002108 -0.001459 1111300.000000 0 0 1
12.427033 17.774639 -25.583750 33.539487 0.960645 2.438421 -0.000102 -0.008046 242678.000000 0 0 1
12.151933 17.744439 -27.105090 34.600874 0.970324 2.470856 0.019867 -0.015605 -868248.000000 0 0 1
13.250633 17.468939 -27.935370 35.512364 0.921861 2.476141 0.008827 -0.022604 -502315.000000 0 0 1
12.909633 17.440339 -29.286710 36.449080 0.933586 2.503942 0.024385 -0.028625 -1170470.000000 0 0 1
13.902833 17.937739 -30.269700 37.832604 0.911448 2.498251 0.020338 -0.025327 -1963120.000000 0 0 1
14.942733 17.063539 -30.467680 37.983274 0.851564 2.501657 0.007964 -0.025583 -765307.000000 0 0 1
15.791733 17.559039 -31.510270 39.377605 0.838340 2.498438 0.004973 -0.014306 -659996.000000 0 0 1
17.066933 16.761439 -31.626290 39.654107 0.776368 2.494026 0.012303 -0.022660 -1095970.000000 0 0 1
18.045133 17.175739 -30.701140 39.537233 0.760719 2.459908 0.017128 -0.023598 312732.000000 0 0 1
19.153733 16.272039 -30.707550 39.681209 0.704232 2.455704 0.027643 -0.017210 -215437.000000 0 0 1
20.474933 16.702839 -31.272080 40.940819 0.684283 2.440033 0.023849 -0.019397 -1041420.000000 0 0 1
20.391233 17.006639 -32.620150 42.060698 0.695142 2.458381 0.030721 -0.013952 -114759.000000 0 0 1
21.559033 17.561439 -33.142580 43.262300 0.683565 2.443523 0.026661 -0.000651 -439502.000000 0 0 1
21.176533 18.092339 -34.546531 44.376132 0.707019 2.463058 0.013173 0.016381 243192.000000 0 0 1
22.216033 18.962739 34.216162 44.987591 0.706558 0.706607 0.010723 0.010804 385013.000000 0 0 1
22.030433 19.401039 32.894999 44.088788 0.722019 0.728599 0.017994 0.005912 -2286.850000 0 0 1
22.900733 20.641039 32.511509 44.805070 0.733548 0.758860 0.027653 0.004198 1327960.000000 0 0 1
24.301133 20.352139 32.313269 45.264798 0.697191 0.775784 0.018743 -0.003829 746079.000000 0 0 1
24.981833 21.437739 31.731689 45.722737 0.709197 0.803763 0.034422 -0.020893 269215.000000 0 0 1
26.461033 21.072739 31.413779 46.163537 0.672523 0.822367 0.018363 -0.022751 438853.000000 0 0 1
27.127033 20.699939 32.630429 47.213433 0.651816 0.807751 0.018374 -0.017264 -1292000.000000 0 0 1
28.463433 20.448539 32.448259 47.761902 0.622978 0.823885 0.008979 -0.015105 -940200.000000 0 0 1
29.120333 19.675839 33.650063 48.656543 0.594212 0.807117 -0.003545 -0.016214 177726.000000 0 0 1
29.299233 20.381639 -34.293756 49.496646 0.607792 2.336230 -0.004016 -0.016930 456099.000000 0 0 1
28.140733 20.179139 -33.463110 48.154732 0.622097 2.339088 -0.008564 -0.015820 516643.000000 0 0 1
28.330833 20.498639 -31.965120 47.377201 0.626354 2.311347 0.007657 -0.012652 -680384.000000 0 0 1
29.307933 19.703239 -31.420530 47.269676 0.591881 2.297899 0.016803 -0.021203 -949287.000000 0 0 1
29.529933 19.950839 -30.072940 46.630833 0.594171 2.271709 0.002601 -0.022012 -1008830.000000 0 0 1
30.876333 19.522739 -29.555560 46.989535 0.563823 2.251039 0.053632 -0.014095 -559230.000000 0 0 1
31.915933 20.151039 -30.301560 48.403261 0.563173 2.247239 0.012199 -0.010887 238517.000000 0 0 1
33.022033 20.438339 -29.442020 48.734104 0.554223 2.219477 0.050394 -0.012533 261424.000000 0 0 1
34.186133 21.224139 -30.067170 50.231369 0.555603 2.212516 0.044414 -0.012373 -22212.600000 0 0 1
34.978333 20.539539 -31.015770 51.062064 0.530960 2.223596 0.019139 -0.004679 907876.000000 0 0 1
-34.111136 21.273939 -31.339890 50.973903 -0.557639 2.232957 0.025716 -0.016171 555816.000000 0 0 1
-33.349536 20.819739 -32.550840 51.041260 -0.558088 2.262351 0.021216 -0.016785 -497559.000000 0 0 1
-32.635936 19.652939 -32.367110 49.989720 -0.542026 2.275063 0.045159 -0.010888 -135621.000000 0 0 1
-31.798136 19.280439 -33.430500 50.004551 -0.545067 2.303052 0.035796 -0.004872 -323175.000000 0 0 1
-30.853436 18.090539 -33.322630 48.883532 -0.530313 2.320844 0.023615 0.008256 -58270.500000 0 0 1
-31.531136 16.840739 -33.062580 48.692476 -0.490553 2.317207 0.023678 0.007592 174974.000000 0 0 1
-30.930936 15.719639 -33.655110 48.337317 -0.470200 2.340963 0.012166 0.009611 -235918.000000 0 0 1
-31.863836 14.518039 -33.506350 48.463935 -0.427524 2.334175 0.007857 0.009556 25692.500000 0 0 1
-31.253236 13.210039 -33.718100 47.834926 -0.399902 2.353057 0.013352 0.003892 602746.000000 0 0 1
-32.260936 12.194839 -33.643360 48.180470 -0.361404 2.343785 0.019502 0.002842 196899.000000 0 0 1
-31.731636 10.763339 -33.794350 47.589960 -0.327020 2.360458 0.010240 0.004197 -35625.600000 0 0 1
-31.173236 10.404039 34.110145 47.365775 -0.322125 0.766788 0.003237 -0.001141 165156.000000 0 0 1
-31.430736 9.025439 33.923787 47.118712 -0.279630 0.767046 0.008058 -0.005230 -396590.000000 0 0 1
-30.564836 8.299339 32.859879 45.638360 -0.265139 0.766986 0.023423 -0.005306 284183.000000 0 0 1
-29.359336 7.889639 33.501831 45.239249 -0.262525 0.736911 0.015199 0.003880 -172890.000000 0 0 1
-28.450036 7.385739 32.567069 43.869895 -0.253997 0.734217 0.015365 -0.001225 -210930.000000 0 0 1
19.472433 -3.882455 -31.986600 37.648262 -0.196801 2.586055 0.007486 -0.020800 -168888.000000 0 0 1
20.706233 -4.208155 -32.601610 38.849989 -0.200501 2.566545 0.024080 -0.028728 409875.000000 0 0 1
21.797633 -3.291755 -32.495980 39.267813 -0.149882 2.545521 0.027320 -0.026458 546886.000000 0 0 1
21.589133 -1.788955 -32.817500 39.322758 -0.082675 2.558144 0.029074 -0.021758 -323083.000000 0 0 1
22.663033 -1.064255 -32.194930 39.386028 -0.046925 2.527714 0.030791 -0.023923 706084.000000 0 0 1
22.553733 0.338245 -32.478000 39.542455 0.014996 2.534561 0.012536 -0.020603 -105046.000000 0 0 1
23.606933 1.279345 -31.809220 39.632694 0.054141 2.502438 0.031680 -0.015755 39564.000000 0 0 1
24.842033 1.127745 -32.474580 40.902283 0.045366 2.488083 0.051947 -0.027793 -415049.000000 0 0 1
25.835333 1.835245 -31.731220 40.959771 0.070917 2.457025 0.053166 -0.017631 196372.000000 0 0 1
27.265933 1.575345 -32.255600 42.265075 0.057713 2.439007 0.044500 -0.024717 -58483.000000 0 0 1
27.512633 2.071545 -33.536820 43.427578 0.075153 2.453167 0.044337 -0.026632 17960.600000 0 0 1
28.336133 1.141345 -34.267724 44.480513 0.040257 2.450262 0.026038 -0.023654 179103.000000 0 0 1
28.933533 1.889545 33.634397 44.407121 0.065214 0.711459 0.029415 -0.031806 -266729.000000 0 0 1
28.003933 2.595245 32.872409 43.261424 0.092410 0.707706 0.026923 -0.024066 -252338.000000 0 0 1
28.121633 3.970645 33.117458 43.627495 0.140268 0.708873 0.024591 -0.015001 -52026.800000 0 0 1
27.383633 4.929045 32.185379 42.544770 0.178093 0.712842 0.032590 -0.008481 -231227.000000 0 0 1
27.626733 6.306745 32.499519 43.118791 0.224438 0.717091 0.028530 -0.003438 -120452.000000 0 0 1
26.838833 7.216245 31.797129 42.230967 0.262661 0.718287 0.020894 -0.000288 -757519.000000 0 0 1
27.285333 8.717845 31.981079 42.933433 0.309255 0.730413 0.011610 0.009090 284049.000000 0 0 1
28.565633 9.118545 31.523359 43.507073 0.308990 0.760405 -0.002746 0.005423 180783.000000 0 0 1
28.693633 10.499245 31.762179 44.072608 0.350776 0.766016 -0.003058 0.001318 -518274.000000 0 0 1
30.065233 11.044045 31.376629 44.837284 0.352035 0.795695 -0.003221 0.008754 -419236.000000 0 0 1
31.065833 10.791745 32.370049 46.145074 0.334342 0.793318 -0.003231 0.001327 160706.000000 0 0 1
32.375033 10.947245 31.886539 46.741163 0.326069 0.820037 -0.010003 0.009114 24374.100000 0 0 1
32.899733 12.477845 31.876359 47.478325 0.362508 0.834717 0.000882 0.004893 -585208.000000 0 0 1
33.192033 12.916945 33.200213 48.690992 0.371125 0.820500 0.007324 0.007246 99030.500000 0 0 1
33.356233 14.334445 33.416184 49.343246 0.405877 0.826820 0.009878 0.013192 -356606.000000 0 0 1
32.118433 15.184945 33.131761 48.578698 0.441635 0.820272 0.016973 0.000667 -1415220.000000 0 0 1
31.972533 15.510245 31.742979 47.649001 0.451666 0.841717 0.013985 -0.004301 -228125.000000 0 0 1
31.035333 16.491945 31.494189 47.191738 0.488445 0.840129 0.012380 -0.003995 392688.000000 0 0 1
29.516733 16.215445 31.789939 46.311752 0.502355 0.814223 0.018675 0.002398 317593.000000 0 0 1
28.909333 15.266545 30.876129 44.968348 0.485861 0.813968 0.010665 0.008661 -842743.000000 0 0 1
27.687533 14.867645 31.358319 44.395839 0.492792 0.786490 0.007812 0.009294 -911247.000000 0 0 1
26.857633 14.158645 30.249279 42.858121 0.485150 0.787244 0.004325 0.012994 -16768.100000 0 0 1
27.228333 12.833245 30.017949 42.510605 0.440441 0.786781 0.000920 0.008572 -70339.700000 0 0 1
26.552233 12.323545 28.901059 41.135897 0.434538 0.791787 0.001385 0.000296 -154316.000000 0 0 1
26.472633 10.816245 28.884399 40.646033 0.387883 0.780399 0.000547 0.007499 -840652.000000 0 0 1
27.576333 10.244045 28.277029 40.804227 0.355681 0.805165 -0.004194 0.008321 -603878.000000 0 0 1
27.375533 8.848345 27.951249 40.112160 0.312622 0.799832 0.007340 0.012463 -580331.000000 0 0 1
28.550433 8.188045 27.267219 40.319630 0.279296 0.828100 -0.005576 0.005368 -971838.000000 0 0 1
28.721733 8.534245 25.938099 39.630244 0.288827 0.857272 -0.004554 0.013148 -18715.800000 0 0 1
29.681233 7.679845 25.368259 39.793268 0.253191 0.879546 -0.009006 0.019568 -191716.000000 0 0 1
29.972433 7.939045 23.847429 39.116174 0.258932 0.915169 -0.003454 0.019188 -69422.400000 0 0 1
30.772833 9.084445 23.581629 39.819438 0.287056 0.936993 -0.002940 0.014393 -105189.000000 0 0 1
30.093833 10.246945 23.303729 39.417033 0.328186 0.938238 0.001463 0.008545 -677635.000000 0 0 1
29.683633 10.409145 21.834729 38.291301 0.337271 0.964014 -0.002819 0.025185 -510669.000000 0 0 1
30.683333 10.709745 20.927829 38.654102 0.335820 0.998680 0.000903 0.010963 -289563.000000 0 0 1
30.186733 10.580545 19.617929 37.523991 0.337123 1.020652 0.009575 0.007074 -547127.000000 0 0 1
31.152433 11.149545 18.502029 37.909254 0.343698 1.060929 0.025545 -0.010073 616216.000000 0 0 1
32.291533 10.383245 18.154129 38.472422 0.311106 1.079381 0.031691 -0.004105 -4214.610000 0 0 1
33.300533 10.487045 19.125929 39.808351 0.305089 1.069628 0.032241 0.002297 -745878.000000 0 0 1
34.681133 9.860345 18.811429 40.667890 0.277005 1.089913 0.022924 -0.004866 80895.200000 0 0 1
34.577333 8.496245 18.505429 40.127659 0.240944 1.091490 0.022880 -0.004144 320508.000000 0 0 1
-34.617936 8.009245 17.744329 39.716630 -0.227361 1.107641 0.016535 0.004372 -30010.900000 0 0 1
-34.651936 6.498445 17.554429 39.384571 -0.185382 1.108820 0.011233 0.005463 -636204.000000 0 0 1
34.499633 6.043645 16.882529 38.881488 0.173420 1.121641 -0.003713 0.015350 -99587.000000 0 0 1
34.709533 4.740145 16.360129 38.663607 0.135726 1.133888 -0.003252 0.008614 -219486.000000 0 0 1
33.508933 3.778645 16.559629 37.567913 0.112291 1.114316 -0.006678 0.010301 91652.600000 0 0 1
33.448033 3.162245 17.814229 38.027851 0.094262 1.083258 0.003291 0.016387 -58055.600000 0 0 1
32.245433 2.433145 17.945329 36.982739 0.075314 1.064164 -0.002520 0.016569 69209.300000 0 0 1
32.177233 1.632045 19.240629 37.526520 0.050677 1.032445 0.003796 0.005743 -64486.100000 0 0 1
32.984133 0.480745 19.216429 38.176633 0.014574 1.043318 0.004420 0.007208 -66538.100000 0 0 1
32.654533 -0.252255 20.392529 38.499836 -0.007725 1.012575 0.013630 -0.000399 212829.000000 0 0 1
33.162533 -1.714855 20.443629 38.995337 -0.051665 1.018952 0.027138 -0.002506 115921.000000 0 0 1
32.783433 -2.515655 21.576329 39.327090 -0.076585 0.990062 0.036467 0.001820 52868.100000 0 0 1
33.165333 -3.854455 21.400529 39.658275 -0.115700 1.000807 0.027900 0.001810 22893.600000 0 0 1
32.681533 -4.692455 22.633229 40.029549 -0.142607 0.969862 0.020538 0.005664 153850.000000 0 0 1
33.349233 -4.373955 23.839929 41.226752 -0.130412 0.954198 0.019796 0.003655 142102.000000 0 0 1
32.602633 -4.886755 24.887039 41.305893 -0.148781 0.924159 0.020484 -0.005299 50554.300000 0 0 1
32.942033 -4.183855 26.220299 42.310593 -0.126330 0.902423 0.006294 -0.004509 -456051.000000 0 0 1
32.013433 -4.387455 27.192069 42.231721 -0.136202 0.871241 0.009502 -0.005787 -846178.000000 0 0 1
32.434133 -3.804555 28.397249 43.276453 -0.116767 0.855048 0.007386 -0.001390 215724.000000 0 0 1
31.526933 -4.079655 29.640989 43.464691 -0.128687 0.820363 0.007450 -0.008084 34551.800000 0 0 1
31.617933 -5.419755 30.026379 43.939172 -0.169764 0.818438 0.013132 -0.012852 -187242.000000 0 0 1
30.840433 -5.754155 31.132049 44.197818 -0.184457 0.789247 0.026918 -0.022324 -490663.000000 0 0 1
30.814133 -7.211855 31.526459 44.670340 -0.229906 0.787304 0.023518 -0.021941 -345373.000000 0 0 1
31.941533 -7.723455 32.168479 45.986132 -0.237246 0.796063 0.025814 -0.025242 -654860.000000 0 0 1
32.195233 -9.031555 31.851439 46.180258 -0.273495 0.809694 0.013584 -0.011393 -828931.000000 0 0 1
33.506033 -9.427455 32.463539 47.596350 -0.274275 0.820221 0.009147 -0.005974 -855663.000000 0 0 1
33.421433 -9.753855 33.823799 48.540491 -0.283958 0.799847 0.019729 -0.018829 -172456.000000 0 0 1
34.697633 -9.977255 34.395839 49.865269 -0.279995 0.809617 0.012634 -0.020962 -152857.000000 0 0 1
34.723633 -10.207855 -33.224800 49.130625 -0.285919 2.313462 0.034281 -0.023656 -273270.000000 0 0 1
34.345233 -9.146755 -32.353880 48.062789 -0.260277 2.309268 0.017021 -0.029636 554283.000000 0 0 1
-35.017436 -8.064755 -32.363490 48.359658 0.226360 2.303962 0.020971 -0.020020 91478.700000 0 0 1
34.716533 -6.799355 -31.704490 47.504143 -0.193405 2.301515 0.023285 -0.025369 -370830.000000 0 0 1
34.965833 -6.749055 -30.343850 46.785772 -0.190674 2.276501 0.012156 -0.019894 112099.000000 0 0 1
34.244033 -5.741055 -29.685750 45.682133 -0.166106 2.278161 0.023976 -0.020950 -176991.000000 0 0 1
34.459033 -5.782055 -28.152810 44.871347 -0.166246 2.249021 0.006513 -0.014605 -347518.000000 0 0 1
-34.503836 -5.476355 -27.847530 44.676505 0.157404 2.243771 0.000943 -0.011334 -606828.000000 0 0 1
-34.369336 -5.000555 -26.523000 43.700416 0.144481 2.222986 -0.000753 -0.008105 198574.000000 0 0 1
-32.936936 -4.734255 -25.992540 42.224010 0.142759 2.233927 -0.017249 0.001433 -803023.000000 0 0 1
-32.781436 -4.345855 -24.655420 41.248015 0.131802 2.211470 -0.006611 0.007166 673265.000000 0 0 1
-31.432036 -4.161855 -24.210320 39.892775 0.131642 2.222932 -0.006047 0.004677 814766.000000 0 0 1
-30.498836 -3.147655 -24.944720 39.526267 0.102842 2.253757 0.002531 0.002964 -658865.000000 0 0 1
-29.968636 -3.700755 -26.107890 39.917874 0.122866 2.283709 0.010265 0.005391 -60608.100000 0 0 1
-29.032136 -2.811155 -26.692630 39.538133 0.096528 2.311912 0.012151 -0.000172 171139.000000 0 0 1
-28.258836 -3.396455 -27.903940 39.858846 0.119617 2.346290 0.017662 0.009660 -178204.000000 0 0 1
-29.062636 -3.544255 -29.060350 41.251697 0.121353 2.352464 0.012120 0.012362 197329.000000 0 0 1
-28.451636 -4.369855 -30.060880 41.620280 0.152398 2.377868 0.021759 0.005113 -1193320.000000 0 0 1
-29.400836 -4.623055 -31.244870 43.151172 0.155965 2.380495 0.004215 0.003185 -519230.000000 0 0 1
-30.472336 -5.532855 -31.026960 43.838886 0.179613 2.357104 0.002877 -0.002171 866078.000000 0 0 1
-31.624536 -4.943755 -30.400520 44.144576 0.155071 2.330433 0.018446 -0.007746 -112548.000000 0 0 1
-32.524736 -3.989255 -31.207790 45.251505 0.122043 2.331805 0.044426 -0.013245 -1097230.000000 0 0 1
-32.031436 -2.750155 -31.666920 45.126157 0.085648 2.348636 0.045405 -0.003735 -9931.020000 0 0 1
-31.717136 -1.767655 -30.686600 44.167507 0.055674 2.338907 0.027162 -0.003922 100169.000000 0 0 1
-31.403336 -0.328055 -31.209270 44.275226 0.010446 2.353068 0.036464 0.001078 -419862.000000 0 0 1
-32.599636 0.293745 -31.493610 45.328468 -0.009010 2.338919 0.037645 -0.001471 -647575.000000 0 0 1
-32.367936 1.655845 -31.861380 45.448571 -0.051112 2.347655 0.037735 0.007385 -364700.000000 0 0 1
-33.615936 2.446445 -32.220420 46.628014 -0.072648 2.333682 0.019927 0.004124 -93029.700000 0 0 1
-34.305536 1.973945 -33.389220 47.912485 -0.057477 2.341833 0.010531 -0.002524 10576.300000 0 0 1
34.699833 2.514845 -33.524370 48.314452 0.072348 2.337658 0.002950 -0.007586 -385972.000000 0 0 1
33.864533 2.047845 34.383696 48.303611 0.060398 0.778704 -0.002985 -0.010748 -183457.000000 0 0 1
34.244233 2.351545 33.083669 47.673121 0.068562 0.803809 -0.011644 0.000682 -23899.100000 0 0 1
-34.917536 1.633745 32.636819 47.823273 -0.046755 0.819692 -0.016808 0.004948 -236490.000000 0 0 1
-34.733536 1.717545 31.051859 46.621738 -0.049409 0.841912 -0.003082 -0.001499 -229030.000000 0 0 1
-34.263636 2.995145 30.608349 46.041706 -0.087193 0.843575 0.005826 -0.000246 260588.000000 0 0 1
-34.041936 3.001845 29.225899 44.966851 -0.087953 0.863287 0.013087 -0.000876 48374.000000 0 0 1
-33.668836 4.383345 28.678499 44.443903 -0.129462 0.869414 0.021701 0.000863 -225677.000000 0 0 1
-33.183336 4.426645 27.383969 43.250558 -0.132617 0.885184 0.021079 0.001833 242025.000000 0 0 1
-32.614136 5.720545 27.136379 42.811092 -0.173635 0.884258 0.024045 0.006850 -632144.000000 0 0 1
-31.839236 5.786145 25.873259 41.432378 -0.179768 0.896344 0.022562 0.005460 -1032280.000000 0 0 1
-30.655036 5.036845 25.954869 40.481555 -0.162852 0.874797 0.020449 0.002578 1188.600000 0 0 1
-29.616036 5.398845 25.077559 39.180876 -0.180315 0.876238 0.020404 -0.001069 -149699.000000 0 0 1
-29.828436 5.176845 23.599129 38.385599 -0.171842 0.908675 0.028947 -0.006147 -532264.000000 0 0 1
-29.782136 3.845545 23.228929 37.965076 -0.128412 0.912399 0.018589 0.000295 -8811.000000 0 0 1
-30.610936 3.682745 22.091429 37.929187 -0.119733 0.949071 0.028561 -0.002107 -195072.000000 0 0 1
-30.684236 2.223245 21.589029 37.583924 -0.072329 0.958899 0.014518 0.003878 -225023.000000 0 0 1
-29.541736 1.725945 20.935529 36.248992 -0.058358 0.955075 0.006535 0.015226 -71413.900000 0 0 1
-29.245636 2.244945 19.607429 35.281699 -0.076611 0.981544 0.006392 0.013461 -244151.000000 0 0 1
-27.988636 1.521345 19.097929 33.917682 -0.054302 0.972704 0.005635 0.022787 -314436.000000 0 0 1
-28.201736 0.145745 18.958429 33.982071 -0.005168 0.978949 0.011734 0.013678 441529.000000 0 0 1
-27.072636 -0.488055 18.368829 32.719714 0.018026 0.974720 0.015435 0.013133 118945.000000 0 0 1
-26.881536 -0.473555 16.802729 31.704462 0.017615 1.012219 0.032908 0.017996 -88342.800000 0 0 1
-26.416136 0.770945 16.288429 31.043832 -0.029176 1.018444 0.030462 0.019722 25911.100000 0 0 1
-26.862136 0.870545 14.954329 30.756530 -0.032397 1.063042 0.041559 0.019561 -66593.400000 0 0 1
-26.518236 2.191345 14.302929 30.209148 -0.082448 1.077578 0.043397 0.014129 579776.000000 0 0 1
-25.114236 2.455445 14.210229 28.960053 -0.097461 1.057922 0.036335 0.009096 683303.000000 0 0 1
-24.910736 3.666645 13.582829 28.609130 -0.146142 1.076091 0.034172 0.004748 134016.000000 0 0 1
-23.443536 4.024745 13.235529 27.220896 -0.170021 1.063030 0.022761 0.009805 98601.500000 0 0 1
-22.685336 4.455945 14.326429 27.197913 -0.193955 1.016027 0.011725 0.015278 -385179.000000 0 0 1
-21.357936 4.746645 14.036329 25.994434 -0.218688 1.000390 0.017046 0.014419 -36367.700000 0 0 1
-20.448636 5.255245 15.229129 26.032493 -0.251553 0.945911 0.004909 0.019240 183288.000000 0 0 1
-20.715236 6.590845 15.635829 26.777591 -0.308037 0.947254 0.007136 0.017847 423589.000000 0 0 1
-20.171936 6.899045 16.898029 27.203809 -0.329541 0.900569 0.003876 0.021106 -330604.000000 0 0 1
-20.428936 8.354545 17.312929 28.051334 -0.388204 0.905633 0.004398 0.022660 -1161780.000000 0 0 1
-19.668036 9.309145 16.672329 27.412741 -0.442071 0.917010 -0.000443 0.022221 137731.000000 0 0 1
-19.983136 10.685245 16.987929 28.321192 -0.491031 0.927506 0.009369 0.021341 -356884.000000 0 0 1
-19.563636 11.338545 18.331529 29.109164 -0.525264 0.889564 0.016812 0.023334 -175384.000000 0 0 1
-20.182536 11.003345 19.579329 30.195339 -0.499144 0.865286 0.021448 0.026543 562912.000000 0 0 1
-19.409436 11.501845 20.664429 30.594726 -0.534953 0.829256 0.019159 0.020273 -72876.400000 0 0 1
-12.137967 -33.509349 -21.543120 41.645080 1.223271 2.114493 0.044187 0.006299 -469974.000000 0 0 1
-12.823667 -34.192049 -20.511220 41.883801 1.211983 2.082562 0.062639 0.007960 939645.000000 0 0 1
-14.018067 -33.393249 -20.189220 41.463476 1.173349 2.079351 0.054888 -0.011971 1358120.000000 0 0 1
-15.055867 -34.347149 -19.520520 42.278321 1.157678 2.050724 0.048438 -0.004940 -543211.000000 0 0 1
-15.805167 33.876945 -20.259420 42.519346 -1.134268 2.067438 0.035819 -0.007835 287261.000000 0 0 1
-16.516267 32.940845 -19.475920 41.679705 -1.106036 2.057003 0.043853 -0.006072 -575041.000000 0 0 1
-17.784967 33.287645 -18.761720 42.147058 -1.080101 2.032137 0.053336 -0.007583 -1519940.000000 0 0 1
-17.571867 34.371345 -17.874420 42.540037 -1.098200 2.004439 0.057991 -0.009240 5280.310000 0 0 1
-18.764467 -34.428949 -17.211120 42.821494 1.071785 1.984417 0.041247 -0.007395 228784.000000 0 0 1
-18.942367 34.225145 -15.764820 42.174677 -1.065298 1.953897 0.039072 -0.002808 -249389.000000 0 0 1
-19.090167 32.815345 -15.717020 41.089002 -1.043908 1.963309 0.040978 -0.009941 82856.900000 0 0 1
-19.555367 32.340845 -14.461920 40.465909 -1.026954 1.936263 0.044986 -0.005510 124337.000000 0 0 1
-19.756867 30.803345 -14.403220 39.327250 -1.000500 1.945762 0.031917 -0.006361 638017.000000 0 0 1
-18.562067 30.162645 -13.937120 38.060200 -1.019131 1.945704 0.025804 -0.010094 455562.000000 0 0 1
-18.619867 28.725345 -13.988120 36.979892 -0.995685 1.958715 0.025331 -0.009747 228290.000000 0 0 1
-17.366967 28.017245 -13.344220 35.561858 -1.015897 1.955452 0.031768 -0.007113 1076630.000000 0 0 1
-16.245567 28.265845 -14.207120 35.562884 -1.049156 1.981760 0.043642 -0.011619 -30938.200000 0 0 1
-15.116267 27.467045 -13.953520 34.316771 -1.067691 1.989536 0.047616 -0.015582 331248.000000 0 0 1
-13.863767 27.900145 -14.773320 34.480039 -1.109626 2.013584 0.044866 -0.016799 -6543.440000 0 0 1
-14.005567 27.937145 -16.209620 35.204996 -1.106090 2.049282 0.025269 -0.017163 -446039.000000 0 0 1
-12.802067 28.286345 -16.843520 35.323001 -1.145792 2.067856 0.044019 -0.012743 -348766.000000 0 0 1
-12.764167 28.285945 -18.383920 36.069199 -1.146899 2.105615 0.065385 -0.032367 -271748.000000 0 0 1
-12.623867 27.026545 -18.919120 35.323211 -1.133820 2.136015 0.035758 -0.025617 225492.000000 0 0 1
-12.919967 27.015545 -20.320220 36.189454 -1.124706 2.166988 0.029778 -0.030881 -162699.000000 0 0 1
-12.097667 25.963745 -21.073820 35.560870 -1.134762 2.205095 0.008517 -0.021562 212062.000000 0 0 1
-10.734667 26.301345 -21.308220 35.511041 -1.183291 2.214354 -0.002199 -0.019282 -13895.200000 0 0 1
-10.042367 25.186445 -21.775320 34.776007 -1.191393 2.247414 0.015240 -0.022176 830204.000000 0 0 1
-8.746867 25.623345 -22.558720 35.241443 -1.241836 2.265450 0.023586 -0.019966 736145.000000 0 0 1
-9.220567 26.075245 -23.817320 36.499342 -1.230906 2.281729 0.023891 -0.022404 161358.000000 0 0 1
-8.185567 26.543945 -24.630220 37.124550 -1.271671 2.296214 0.010862 -0.017654 -936491.000000 0 0 1
-8.806967 27.256645 -25.876870 38.601810 -1.258272 2.305482 0.006880 -0.013637 -398551.000000 0 0 1
-9.567967 26.456345 -26.682780 38.774411 -1.223780 2.329739 0.007110 -0.010118 -771462.000000 0 0 1
-9.773267 27.136645 -27.878210 40.113699 -1.225108 2.339188 0.018139 -0.007456 -538543.000000 0 0 1
-11.158367 26.791045 -28.410180 40.612899 -1.176151 2.345544 0.008174 -0.002458 -507146.000000 0 0 1
-11.290067 27.219045 -29.786320 41.899485 -1.177609 2.361573 0.015524 0.001888 141028.000000 0 0 1
-12.611367 26.897545 -30.184900 42.351537 -1.132364 2.364168 0.015677 0.002051 134976.000000 0 0 1
-12.885267 27.195245 -31.598240 43.635538 -1.128323 2.380583 0.012684 0.000522 75380.700000 0 0 1
-12.051067 26.443645 -32.511580 43.606162 -1.143191 2.412191 0.011226 0.004938 302506.000000 0 0 1
-12.247667 25.011645 -32.710900 42.960339 -1.115440 2.436299 0.003501 0.005731 -115713.000000 0 0 1
-11.310867 24.412145 -33.777530 43.183446 -1.136913 2.468965 -0.006860 0.016037 408352.000000 0 0 1
-11.783567 24.791645 34.062240 43.746020 -1.127100 0.678307 0.002131 0.016284 396104.000000 0 0 1
-10.981167 24.122545 33.078029 42.386781 -1.143606 0.675514 0.000401 0.010881 -114934.000000 0 0 1
-11.509067 24.188045 31.657099 41.469170 -1.126682 0.702253 0.001730 0.018035 69040.100000 0 0 1
-12.740767 23.481845 31.471289 41.281548 -1.073668 0.703848 0.019487 0.007968 384791.000000 0 0 1
-13.019267 23.351645 30.112119 40.268354 -1.062190 0.726075 0.022485 0.011097 568475.000000 0 0 1
-14.283267 22.484345 29.774449 39.950911 -1.004857 0.729848 0.012006 -0.002922 727560.000000 0 0 1
-14.043967 21.099545 29.996409 39.270961 -0.983529 0.701567 -0.023181 -0.003014 -520269.000000 0 0 1
-15.220867 20.372645 29.824479 39.194630 -0.929139 0.706047 -0.013120 -0.014640 -327491.000000 0 0 1
-15.073967 18.860145 29.931919 38.455810 -0.896513 0.678770 -0.021010 -0.020220 -321824.000000 0 0 1
-14.647867 18.239045 28.746809 37.062134 -0.894165 0.683071 -0.015273 -0.018314 5814.420000 0 0 1
-14.185367 16.933045 28.908639 36.382167 -0.873467 0.652476 -0.025969 -0.022923 -176330.000000 0 0 1
-13.699767 16.384445 27.543739 34.853855 -0.874401 0.659557 -0.001205 -0.024641 343143.000000 0 0 1
-12.587767 17.060745 26.959869 34.298038 -0.935136 0.666408 -0.031596 -0.023026 272556.000000 0 0 1
-12.041467 16.354545 25.872429 32.891498 -0.936136 0.665514 -0.037197 -0.016608 -132752.000000 0 0 1
-10.890267 17.030845 25.124729 32.247474 -1.001878 0.677532 -0.021395 -0.008659 -340715.000000 0 0 1
-11.250867 18.027345 24.209059 32.212509 -1.012844 0.720400 -0.014701 -0.003858 -352453.000000 0 0 1
-11.552867 19.288945 24.711369 33.409338 -1.031159 0.738239 -0.005149 -0.012771 228550.000000 0 0 1
-10.520367 20.139545 25.554409 34.195134 -1.089410 0.726790 -0.040013 -0.007290 135225.000000 0 0 1
-10.338667 19.762445 26.911369 34.952311 -1.088803 0.692041 -0.043284 -0.007649 15208.200000 0 0 1
-11.479067 19.936145 27.743469 36.040518 -1.048367 0.692291 -0.011820 -0.002003 -192525.000000 0 0 1
-11.388067 19.383645 29.162389 36.821987 -1.039612 0.656746 -0.029925 -0.000128 -292645.000000 0 0 1
-10.429967 20.151745 29.918189 37.549635 -1.093191 0.648876 -0.042592 0.000449 296684.000000 0 0 1
-10.483767 19.789145 31.266209 38.459010 -1.083615 0.621553 -0.038786 -0.002937 703259.000000 0 0 1
-9.364267 20.556745 32.111069 39.260540 -1.143351 0.613050 -0.044268 -0.000995 411738.000000 0 0 1
-8.078567 20.057245 31.929799 38.562526 -1.187900 0.595264 -0.040622 -0.000812 -688835.000000 0 0 1
-7.120867 20.890145 32.510819 39.294507 -1.242276 0.596400 -0.033026 0.002283 210798.000000 0 0 1
-5.793667 20.278845 33.029899 39.188932 -1.292510 0.568262 -0.020470 0.001634 15460.600000 0 0 1
-6.002867 19.520645 34.225623 39.855781 -1.272461 0.537997 -0.012993 -0.004157 402856.000000 0 0 1
-4.827667 19.028045 -34.273399 39.497326 -1.322326 2.621433 -0.016523 -0.001871 863631.000000 0 0 1
-4.101267 17.852345 34.119472 38.725508 -1.344982 0.492699 -0.020865 -0.000966 401986.000000 0 0 1
-4.933967 16.682245 34.165187 38.339292 -1.283233 0.470973 -0.019180 -0.000821 512204.000000 0 0 1
-4.816767 15.937045 32.955609 36.922389 -1.277288 0.467796 -0.019161 0.006912 -144664.000000 0 0 1
-5.362467 14.480545 33.089989 36.515608 -1.216133 0.436617 -0.003430 -0.010696 -510521.000000 0 0 1
-4.619467 13.591245 33.914481 36.827346 -1.243160 0.400401 -0.000479 -0.008455 -287883.000000 0 0 1
-4.987967 12.246245 33.748154 36.246217 -1.184008 0.373432 0.002316 -0.000427 -798241.000000 0 0 1
-4.126067 11.223145 34.420428 36.438294 -1.218495 0.334354 -0.001954 -0.013194 -364511.000000 0 0 1
-4.295167 11.015745 -33.300300 35.337021 -1.199017 2.800420 0.019347 -0.016989 -147129.000000 0 0 1
-3.398767 9.980145 -32.995860 34.639308 -1.242562 2.832321 0.020588 -0.009229 106926.000000 0 0 1
-3.464567 9.704745 -31.459170 33.103847 -1.227902 2.825051 0.028272 -0.006471 -242442.000000 0 0 1
-4.660167 9.084045 -31.100280 32.733231 -1.096798 2.824395 0.030442 -0.001284 -597084.000000 0 0 1
-4.565867 8.466045 -29.893390 31.402799 -1.076193 2.830285 0.044102 0.005087 -240852.000000 0 0 1
-5.820067 7.880445 -29.246410 30.843590 -0.934667 2.818370 0.045255 -0.000953 -345377.000000 0 0 1
-5.467567 6.910545 -28.331480 29.670232 -0.901449 2.840048 0.045160 -0.002535 -99372.300000 0 0 1
-6.564367 6.059045 -28.141340 29.525209 -0.745389 2.834212 0.052935 -0.010866 -421986.000000 0 0 1
-6.544467 5.306545 -26.791640 28.085253 -0.681319 2.836902 0.050307 -0.012387 -144855.000000 0 0 1
-6.947967 6.054245 -25.598430 27.206759 -0.716770 2.796030 0.033294 -0.008295 164011.000000 0 0 1
-6.167367 7.184945 -25.297500 27.011541 -0.861461 2.783435 0.034534 -0.005075 -557208.000000 0 0 1
-6.781067 7.999345 -24.149820 26.328429 -0.867637 2.731923 0.022336 -0.002463 136894.000000 0 0 1
-6.914867 7.122245 -23.030120 25.078440 -0.800171 2.734620 0.014086 -0.005036 -160123.000000 0 0 1
-7.932967 7.579345 -22.189920 24.754211 -0.762606 2.682398 0.009307 -0.001926 -295126.000000 0 1 0
-7.481167 7.800945 -20.686120 23.339626 -0.806320 2.660109 -0.003444 -0.000064 -87781.000000 0 1 0
-6.885167 9.045945 -20.405220 23.358246 -0.920208 2.633300 -0.019309 0.001790 -54418.000000 0 1 0
-6.691667 9.192645 -18.999520 22.141926 -0.941566 2.602313 -0.012145 0.001045 649004.000000 0 1 0
-8.022367 9.538845 -18.192620 22.052649 -0.871538 2.540933 -0.025328 0.009116 652880.000000 0 1 0
-7.811167 9.545245 -16.783620 20.828248 -0.884978 2.507839 -0.025830 0.007268 462099.000000 0 1 0
-9.005867 9.960145 -16.116420 20.977348 -0.835671 2.446942 -0.014945 0.005946 636069.000000 0 1 0
-9.497367 11.450945 -16.406820 22.147412 -0.878386 2.405058 -0.017649 0.006665 -559002.000000 0 1 0
-8.505167 12.368145 -15.941520 21.896140 -0.968395 2.386272 -0.029983 0.007869 231758.000000 0 1 0
-8.758167 13.679745 -16.295320 23.008224 -1.001321 2.357797 -0.019873 0.002701 -205979.000000 0 1 0
-7.603167 14.621645 -15.888520 22.892045 -1.091282 2.337914 -0.010409 -0.001148 -521975.000000 0 1 0
-7.143067 14.481045 -14.536520 21.726354 -1.112547 2.303757 -0.006024 -0.003568 -638887.000000 0 1 0
-8.028667 14.909345 -13.554520 21.690391 -1.076826 2.245811 -0.015176 -0.018660 -839384.000000 0 1 0
-7.403267 15.862245 -12.464820 21.489321 -1.134123 2.189583 -0.011710 -0.011994 49370.600000 0 1 0
-7.232867 17.251645 -12.918520 22.733714 -1.173800 2.175178 0.000776 -0.007158 435482.000000 0 1 0
-6.169067 17.476645 -13.867320 23.147204 -1.231461 2.213164 0.018688 -0.003362 340493.000000 0 1 0
-5.993367 18.902445 -14.442120 24.531565 -1.263755 2.200266 0.039385 0.001695 -147762.000000 0 1 0
-5.481967 19.791545 -13.470120 24.560158 -1.300585 2.151311 0.040140 -0.008882 -12595.700000 0 1 0
-5.483567 21.149345 -13.919920 25.906147 -1.317104 2.138054 0.039140 -0.003963 -207428.000000 0 0 1
-4.926567 22.263545 -12.958820 26.227228 -1.353022 2.087593 0.041725 -0.002883 -518084.000000 0 0 1
-5.096467 23.653645 -13.307520 27.614470 -1.358578 2.073623 0.034656 -0.006184 992151.000000 0 0 1
-6.447967 24.160645 -13.346320 28.344969 -1.309996 2.061054 0.032926 -0.007538 857298.000000 0 0 1
-7.284567 24.222645 -12.063120 28.023567 -1.278667 2.015802 0.015954 -0.007356 -337789.000000 0 0 1
-7.631567 22.916945 -11.591120 26.791440 -1.249337 2.018218 0.023663 -0.001413 -384630.000000 0 0 1
-8.248567 22.883545 -10.332020 26.428131 -1.224835 1.972457 0.032635 -0.002182 -167248.000000 0 0 1
-7.437667 23.268345 -9.069220 26.057350 -1.261413 1.926285 0.034429 0.000525 -72714.000000 0 0 1
-7.067167 24.633445 -8.981720 27.155529 -1.291407 1.907896 0.036483 -0.002754 14239.600000 0 0 1
-6.590167 24.983145 -7.670020 26.952125 -1.312887 1.859364 0.034852 -0.003239 -66979.000000 0 0 1
-6.645567 26.521745 -7.544920 28.363574 -1.325281 1.840045 0.027921 -0.006160 296844.000000 0 0 1
-5.642467 27.391345 -8.083020 29.111139 -1.367644 1.852155 0.019584 -0.008632 217994.000000 0 0 1
-5.402067 27.264245 -9.466820 29.362256 -1.375192 1.899076 0.023213 -0.005686 -545993.000000 0 0 1
-4.795167 28.596245 -10.033820 30.682510 -1.404657 1.903946 0.013659 -0.005433 475733.000000 0 0 1
-5.712367 29.708345 -10.120820 31.900594 -1.380833 1.893636 0.007746 0.003006 302572.000000 0 0 1
-6.656467 29.554145 -11.149120 32.280937 -1.349263 1.923438 0.010234 0.006872 -475179.000000 0 0 1
-7.801867 30.562645 -11.139820 33.452055 -1.320860 1.910289 0.010335 0.019199 -200027.000000 0 0 1
-8.773567 30.336945 -10.130820 33.165332 -1.289273 1.881222 0.026481 0.008921 176520.000000 0 0 1
-9.864867 31.221845 -10.289520 34.321909 -1.264762 1.875274 0.012865 0.006783 804346.000000 0 0 1
-11.091767 30.964845 -9.330120 34.189180 -1.226831 1.847199 0.034492 0.001785 572805.000000 0 0 1
-12.073067 30.092645 -9.834020 33.882653 -1.189259 1.865271 0.047747 -0.002699 -260270.000000 0 0 1
-13.128167 30.029645 -8.893120 33.959033 -1.158660 1.835764 0.054756 -0.005303 -13832.000000 0 0 1
-14.242167 29.063445 -9.299520 33.674979 -1.115151 1.850588 0.055400 -0.010869 -308610.000000 0 0 1
-13.898167 27.739445 -8.991820 32.303075 -1.106329 1.852880 0.051005 -0.006484 460123.000000 0 0 1
-14.825367 26.851245 -9.636720 32.150385 -1.066320 1.875215 0.050130 -0.006409 148498.000000 0 0 1
-14.918267 25.412445 -9.096720 30.839866 -1.039956 1.870217 0.042747 -0.009842 -211487.000000 0 0 1
-13.861967 24.514045 -9.374020 29.681051 -1.056153 1.892122 0.038347 -0.007853 155276.000000 0 0 1
-14.223867 23.220745 -8.871120 28.639451 -1.021200 1.885728 0.045067 -0.008891 -143028.000000 0 0 1
-13.233067 22.073545 -9.111620 27.301595 -1.030745 1.911064 0.041973 -0.006773 -260723.000000 0 0 1
-13.270567 21.663645 -10.458520 27.473662 -1.021183 1.961322 0.033322 -0.002139 371770.000000 0 0 1
-12.440967 20.512045 -10.650320 26.247875 -1.025596 1.988606 0.025685 -0.006294 -137412.000000 0 0 1
-12.493967 19.858845 -12.012020 26.358330 -1.009226 2.043977 0.018642 -0.003423 291830.000000 0 0 1
-13.814167 19.481545 -12.383520 26.901921 -0.953996 2.049153 0.024945 0.001713 162668.000000 0 0 1
-13.805867 18.850845 -13.658120 27.064747 -0.938672 2.099768 0.022010 0.003379 -57155.800000 0 0 1
-15.183967 18.553445 -14.280420 27.905440 -0.884942 2.108009 0.020932 0.013718 9855.260000 0 0 1
-15.788867 19.774145 -14.674620 29.251489 -0.896995 2.096326 0.006268 0.008266 141081.000000 0 0 1
-17.139367 19.517245 -15.035620 30.012508 -0.850176 2.095525 0.012468 0.004431 28243.000000 0 0 1
-17.811167 20.683745 -15.837120 31.557397 -0.859882 2.096534 0.006412 0.002486 -10407.400000 0 0 1
-17.845667 21.913745 -15.144820 32.063150 -0.887361 2.062744 0.007776 -0.003737 276755.000000 0 0 1
-18.318767 22.906045 -16.039220 33.429339 -0.896217 2.071217 0.018840 -0.006532 -87320.500000 0 0 1
-18.771267 24.215645 -15.358220 34.272917 -0.911379 2.035452 0.022256 -0.005568 -393977.000000 0 0 1
-20.017167 24.012645 -14.770020 34.575245 -0.875895 2.012173 0.015163 -0.006410 -233095.000000 0 0 1
-20.617567 25.207345 -14.208020 35.529736 -0.885224 1.982194 0.021400 -0.009751 201810.000000 0 0 1
-25.009867 -1.026755 3.895780 25.332287 0.041031 1.416396 0.012334 -0.020144 -211049.000000 0 0 1
-25.456387 -0.185155 4.947180 25.933309 0.007273 1.378854 0.025904 -0.020222 -511375.000000 0 0 1
-26.770537 -0.391655 5.326180 27.298045 0.014629 1.374425 0.045479 -0.018926 -1046390.000000 0 0 1
-27.207677 0.330745 6.572380 27.992200 -0.012156 1.333790 0.050262 -0.010029 -513105.000000 0 0 1
-27.293837 1.743645 6.372880 28.082155 -0.063798 1.341865 0.040893 -0.012812 36588.300000 0 0 1
-27.605147 2.528145 7.487980 28.714204 -0.091328 1.306970 0.041648 0.000146 -30763.600000 0 0 1
-26.459507 2.797445 8.506780 27.933788 -0.105334 1.261347 0.041409 -0.000888 -18828.100000 0 0 1
-25.964627 1.670445 9.179580 27.590160 -0.064247 1.231618 0.051763 -0.005770 45819.400000 0 0 1
-24.857967 2.046145 9.941580 26.850330 -0.082128 1.191508 0.046855 -0.015235 -615071.000000 0 0 1
-24.042567 1.051345 10.754680 26.359315 -0.043701 1.150531 0.030708 -0.004491 -12219.800000 0 0 1
-23.208967 0.162545 9.982880 25.265401 -0.007003 1.164597 0.009702 -0.011353 606367.000000 0 0 1
-23.896467 -0.715155 9.089580 25.576807 0.029918 1.207472 0.006454 -0.006136 -493499.000000 0 0 1
-22.928267 -1.546455 8.244880 24.414647 0.067346 1.226322 0.007005 -0.010726 -612052.000000 0 1 0
-22.119867 -2.344255 9.033580 24.008116 0.105585 1.185027 0.011113 -0.007158 -733913.000000 0 1 0
-20.931367 -2.617755 8.358980 22.690247 0.124418 1.193514 0.011867 -0.013552 -74719.300000 0 1 0
-19.705767 -2.564455 9.344680 21.959434 0.129410 1.131235 -0.003904 -0.003179 89895.100000 0 1 0
-19.435167 -1.229355 9.693480 21.753174 0.063170 1.108938 0.001462 -0.002454 31487.900000 0 1 0
-20.163767 -0.787155 10.832080 22.902643 0.039018 1.078147 0.008969 -0.002011 -653729.000000 0 1 0
-19.792667 0.628245 11.236680 22.768560 -0.031731 1.054667 0.000585 0.006172 -212576.000000 0 1 0
-20.150167 1.626545 10.270580 22.675090 -0.080547 1.100730 -0.009608 0.010831 513404.000000 0 1 0
-20.354967 2.914545 10.828480 23.239519 -0.142219 1.086087 -0.004656 0.008529 -341743.000000 0 1 0
-21.096167 3.953045 9.950980 23.657913 -0.185234 1.136668 -0.002969 0.006761 -318025.000000 0 1 0
-21.331367 5.168545 10.623980 24.384627 -0.237717 1.119999 -0.001127 0.009514 739884.000000 0 1 0
-22.121567 6.120745 9.934080 25.010262 -0.269934 1.162332 0.008489 0.008348 -225076.000000 0 0 1
-22.288867 7.344545 10.886480 25.869893 -0.318311 1.136451 0.010540 0.012989 -262217.000000 0 0 1
-23.237367 7.140945 11.901180 27.066703 -0.298145 1.115534 0.010217 0.013899 175181.000000 0 0 1
-23.325867 8.303645 12.729280 27.840280 -0.341996 1.095924 0.008855 0.013057 -297272.000000 0 0 1
-24.149967 8.046945 13.986180 29.044577 -0.321637 1.068383 0.017269 0.011832 849338.000000 0 0 1
-25.539617 7.858245 13.663780 30.012047 -0.298495 1.098114 0.021699 0.008975 648993.000000 0 0 1
-26.343347 7.471245 14.755580 31.104961 -0.276353 1.076536 0.033872 0.012560 1507160.000000 0 0 1
-27.797367 6.992945 14.272480 32.020284 -0.246454 1.108804 0.028397 0.019852 1213470.000000 0 0 1
-27.814817 5.729745 13.591380 31.483641 -0.203154 1.124424 0.040150 0.025254 146130.000000 0 0 1
-28.866487 5.626545 12.642380 32.011902 -0.192503 1.164807 0.019535 0.007860 -96002.100000 0 0 1
-29.067307 4.187645 12.063380 31.748541 -0.143083 1.181036 0.046088 0.011209 -1232.460000 0 0 1
-29.840667 3.230945 12.775480 32.620811 -0.107853 1.168387 0.027374 0.012779 388827.000000 0 0 1
-30.140847 2.059945 11.989580 32.503293 -0.068238 1.193000 0.037873 0.011609 41143.000000 0 0 1
-31.181397 1.116745 12.680480 33.679685 -0.035799 1.184778 0.032040 0.020038 -121002.000000 0 0 1
-30.709407 0.149645 13.578380 33.577708 -0.004873 1.154488 0.043727 0.013851 -670021.000000 0 0 1
-31.814107 -0.435455 14.185980 34.836318 0.013687 1.151390 0.035460 0.020626 -533557.000000 0 0 1
-31.641027 -1.749055 14.968480 35.046671 0.055222 1.129512 0.022574 0.018092 -219546.000000 0 0 1
-31.316997 -2.882755 14.216280 34.513290 0.091792 1.146250 0.020715 0.016119 222010.000000 0 0 1
-31.254417 -4.017755 15.067080 34.928467 0.127849 1.124786 0.019399 0.019191 -165840.000000 0 0 1
-31.196007 -5.307455 14.211280 34.688909 0.168519 1.148695 0.019148 0.014540 57751.600000 0 0 1
-32.423547 -5.619255 13.580980 35.599234 0.171603 1.179382 -0.000703 0.009414 39988.200000 0 0 1
-32.471097 -6.898755 13.006080 35.652813 0.209346 1.197380 -0.001644 0.013692 46055.900000 0 0 1
-33.579317 -6.943455 11.858580 36.282338 0.203904 1.237837 0.004639 0.027151 789206.000000 0 0 1
-34.932265 -6.942455 12.239080 37.659738 0.196184 1.239794 -0.012451 0.030320 -98233.000000 0 0 1
34.912320 -5.697255 12.826780 37.627850 -0.161762 1.222938 -0.004842 0.017705 -370218.000000 0 0 1
33.374982 -5.471555 12.740780 36.140764 -0.162496 1.210521 -0.001078 0.009031 388476.000000 0 0 1
32.584532 -6.281155 13.578880 35.855134 -0.190429 1.182389 -0.003021 0.016043 -606416.000000 0 0 1
31.254012 -6.117355 13.168480 34.462214 -0.193287 1.178714 0.004245 0.011480 -235427.000000 0 0 1
30.359152 -7.264455 13.757680 34.113402 -0.234868 1.155684 -0.005225 0.006088 57082.100000 0 0 1
30.020972 -7.146055 15.133880 34.370906 -0.233687 1.114852 0.010499 0.010247 284672.000000 0 0 1
29.126302 -8.192355 15.485180 33.988924 -0.274186 1.097756 0.021298 0.016267 130333.000000 0 0 1
28.568562 -8.159655 16.933380 34.197691 -0.278209 1.052776 0.019176 0.014925 135047.000000 0 0 1
29.554092 -8.376055 17.939980 35.573102 -0.276172 1.042210 -0.001404 0.025996 116283.000000 0 0 1
29.025492 -8.814655 19.167080 35.882507 -0.294836 1.007280 0.005729 0.014171 -18217.500000 0 0 1
30.084562 -9.509055 20.086380 37.402750 -0.306141 1.003885 -0.002304 0.019416 225317.000000 0 0 1
31.115522 -8.786555 20.657880 38.368311 -0.275219 1.002247 0.008234 0.015952 109094.000000 0 0 1
32.309922 -8.708455 19.860280 38.912710 -0.263273 1.035169 -0.011878 0.020926 600882.000000 0 0 1
33.420982 -7.894855 20.585280 40.038039 -0.231972 1.030788 0.006140 0.013659 123815.000000 0 0 1
33.764042 -8.474455 21.799380 41.073591 -0.245911 1.011323 0.007771 0.010919 -845455.000000 0 0 1
34.949314 -7.979855 22.297680 42.217522 -0.224478 1.014362 -0.002932 0.011479 -777134.000000 0 0 1
-35.059766 -8.659255 23.686080 43.187965 0.242140 0.990297 -0.006691 0.015794 -137742.000000 0 0 1
34.573585 -8.066255 24.777480 43.293427 -0.229207 0.961470 0.002618 0.009557 151690.000000 0 0 1
34.820637 -8.925355 25.926580 44.320721 -0.250921 0.945945 -0.007603 0.006778 -203468.000000 0 0 1
34.223312 -8.359255 27.230780 44.526707 -0.239565 0.912765 0.005884 0.008439 -297006.000000 0 0 1
35.131627 -7.555455 27.912180 45.501713 -0.211835 0.910398 -0.006707 -0.001826 -557017.000000 0 0 1
34.680452 -7.155755 29.126980 45.851059 -0.203478 0.882461 -0.004948 -0.003750 -27558.000000 0 0 1
-34.503290 -6.523855 30.013980 46.193903 0.186873 0.863555 -0.001456 -0.000242 442279.000000 0 0 1
-33.985157 -7.498555 30.891880 46.535228 0.217163 0.844857 -0.002409 0.006410 133398.000000 0 0 1
-32.622407 -7.232455 31.214380 45.726003 0.218173 0.819428 -0.002083 -0.001951 482412.000000 0 0 1
-32.312297 -8.090855 32.483080 46.526304 0.245351 0.797964 -0.008952 0.000770 -166120.000000 0 0 1
-32.101147 -9.465755 32.328880 46.532146 0.286746 0.802704 -0.000121 -0.002234 335717.000000 0 0 1
-31.659077 -10.035855 33.533880 47.196787 0.306977 0.780571 0.001279 -0.005407 -178971.000000 0 0 1
-31.726357 -11.607355 33.550780 47.612470 0.350732 0.788847 0.013258 -0.008874 728598.000000 0 0 1
-33.108957 -12.009655 33.455880 48.577060 0.347971 0.811077 0.008221 -0.010113 1037990.000000 0 0 1
-33.268497 -13.439855 33.432980 49.042703 0.383934 0.820697 0.020068 -0.015892 993818.000000 0 0 1
-34.798034 -13.795455 33.571880 50.282093 0.377437 0.839721 0.023807 -0.014986 939631.000000 0 0 1
-35.060730 -15.103755 33.973280 51.103444 0.406763 0.843578 0.023288 -0.013816 -1248220.000000 0 0 1
33.902342 -15.297955 34.227680 50.546319 -0.423881 0.826907 0.008722 -0.010016 -1264460.000000 0 0 1
33.457912 -16.745855 -34.508568 50.898888 -0.464052 2.315811 0.011654 -0.002932 -189943.000000 0 0 1
34.056532 -17.181355 -33.317768 50.647014 -0.467237 2.288747 0.015888 -0.011185 187316.000000 0 0 1
34.082452 -18.599355 -33.198168 51.084909 -0.499549 2.278200 0.017592 -0.012391 -176855.000000 0 0 1
34.691474 -19.081055 -31.856868 50.817764 -0.502860 2.248344 0.031755 -0.017818 254233.000000 0 0 1
33.716082 -19.002755 -30.821368 49.475607 -0.513233 2.243318 0.020521 -0.016312 235133.000000 0 0 1
34.111482 -19.798555 -29.714968 49.381731 -0.525889 2.216474 0.014889 -0.006590 -440784.000000 0 0 1
32.973332 -19.989855 -28.680668 48.056380 -0.544997 2.210320 0.007196 -0.002610 633747.000000 0 0 1
31.776772 -20.633355 -29.095068 47.770510 -0.575898 2.225670 0.009936 -0.009475 703998.000000 0 0 1
30.854642 -19.736755 -29.758868 47.192570 -0.569078 2.253101 0.005457 -0.001343 -521786.000000 0 0 1
29.473752 -20.373955 -29.933368 46.688400 -0.604834 2.266767 -0.003770 0.002674 -388951.000000 0 0 1
28.578362 -19.551055 -30.651968 46.244023 -0.599989 2.295390 -0.018478 0.009889 526719.000000 0 0 1
27.328792 -20.215755 -30.866668 45.916128 -0.636892 2.308027 -0.020427 0.004640 777857.000000 0 0 1
26.292982 -19.535755 -31.801168 45.653926 -0.639008 2.341403 -0.021976 0.012330 427400.000000 0 0 1
26.662502 -19.812155 -33.132868 46.916921 -0.639052 2.354917 -0.021483 0.009944 31134.300000 0 0 1
25.555622 -19.660855 -33.979068 46.842461 -0.655762 2.382398 -0.014180 0.007866 -15235.900000 0 0 1
26.006172 -19.864155 33.729580 46.995641 -0.652290 0.770278 -0.011314 0.005763 40635.500000 0 0 1
26.760662 -18.755755 33.296080 46.653407 -0.611310 0.776044 -0.015536 0.003755 -38308.800000 0 0 1
27.188362 -18.821955 31.932680 45.969219 -0.605526 0.802858 -0.014946 0.014304 -339855.000000 0 0 1
26.247392 -18.277355 30.858180 44.443386 -0.608272 0.803314 -0.014305 0.009790 -370417.000000 0 0 1
25.948462 -16.892855 31.199080 43.955362 -0.577089 0.781596 -0.011304 0.004784 586430.000000 0 0 1
24.947502 -16.341255 30.350380 42.550676 -0.579900 0.776635 -0.000467 -0.002963 68191.200000 0 0 1
24.714502 -14.851855 30.737480 42.144714 -0.541108 0.753452 0.006083 -0.005130 155477.000000 0 0 1
25.839042 -13.977755 30.578080 42.403452 -0.495872 0.765375 0.012805 -0.008668 470152.000000 0 0 1
25.671742 -12.723855 31.203280 42.362478 -0.460151 0.742799 0.031857 -0.015505 95390.500000 0 0 1
26.973272 -11.875855 31.300780 42.992234 -0.414743 0.755314 0.029627 -0.020104 166216.000000 0 0 1
27.514732 -11.415255 30.130780 42.370184 -0.393266 0.779690 0.024041 -0.019909 -93362.500000 0 0 1
28.904222 -11.170055 30.230580 43.291017 -0.368772 0.797762 0.024220 -0.013708 15147.300000 0 0 1
29.461332 -10.615255 28.936280 42.637566 -0.345831 0.824864 0.013581 -0.009854 -337282.000000 0 0 1
29.320582 -9.210155 28.829180 42.138404 -0.304359 0.817352 0.015884 -0.009431 6352.170000 0 0 1
30.024132 -8.735355 27.708280 41.779226 -0.283128 0.845701 0.015771 -0.003583 -31648.600000 0 0 1
29.940812 -7.223555 27.601980 41.358207 -0.236737 0.840100 0.020237 -0.002160 227791.000000 0 0 1
28.636122 -6.763055 27.290680 40.131629 -0.231922 0.822994 0.027644 -0.006912 -244886.000000 0 0 1
28.599962 -5.372855 27.404880 39.973152 -0.185698 0.815393 0.028938 -0.011486 280316.000000 0 0 1
27.149762 -4.909655 27.133180 38.696560 -0.178903 0.793748 0.031762 -0.008471 205389.000000 0 0 1
26.685532 -5.101655 25.806780 37.471782 -0.188898 0.811103 0.025626 -0.000766 170044.000000 0 0 1
25.344362 -4.664055 25.668080 36.372248 -0.181991 0.787379 0.038368 -0.006116 365069.000000 0 0 1
24.557402 -5.039655 24.343380 34.943730 -0.202409 0.800086 0.034285 0.007724 -130412.000000 0 0 1
24.904902 -4.176955 23.270280 34.339584 -0.166170 0.826232 0.044231 0.016625 300727.000000 0 0 1
24.541602 -4.768955 22.031880 33.323219 -0.191929 0.848436 0.039021 0.012405 98679.000000 0 0 1
24.844802 -3.787455 20.869580 32.667237 -0.151280 0.877789 0.044923 0.006881 -159056.000000 0 0 1
23.984602 -2.708555 20.792680 31.858013 -0.112452 0.859697 0.037201 0.009862 -214820.000000 0 0 1
24.507302 -1.790955 19.855680 31.592142 -0.072949 0.891172 0.042996 0.002222 242385.000000 0 0 1
23.463502 -0.723055 19.369580 30.434181 -0.030806 0.880920 0.014668 -0.001499 12900.700000 0 0 1
22.616402 -1.368355 18.467680 29.230622 -0.060429 0.886933 0.022876 -0.006485 -1347880.000000 0 0 1
21.426002 -0.730455 18.235080 28.144720 -0.034079 0.865967 0.022255 0.000936 -647986.000000 0 0 1
20.381302 -1.635155 17.515980 26.923610 -0.080057 0.862448 0.005197 -0.003658 59012.600000 0 0 1
20.734002 -2.028555 16.198380 26.389418 -0.097527 0.909905 0.010376 -0.013352 -417668.000000 0 0 1
19.674602 -2.695155 15.607480 25.257618 -0.136139 0.904687 0.013819 -0.013817 -360411.000000 0 0 1
19.972602 -3.066055 14.140880 24.663131 -0.152324 0.960194 0.022318 -0.023625 -294499.000000 0 1 0
18.971302 -3.907655 13.641380 23.691081 -0.203136 0.957211 0.019401 -0.021963 322867.000000 0 1 0
19.310502 -4.356555 12.367380 23.341533 -0.221891 1.012379 0.015886 -0.018242 -125780.000000 0 1 0
18.313302 -5.417555 11.849680 22.475361 -0.287623 1.015459 0.009489 -0.014017 -160128.000000 0 1 0
18.348902 -6.599255 12.612580 23.223039 -0.345249 0.996664 0.016902 -0.012082 167421.000000 0 1 0
17.281802 -7.408255 12.238580 22.434923 -0.404978 0.993793 0.007899 -0.003998 -692876.000000 0 1 0
17.340302 -8.869555 12.772180 23.291279 -0.472805 0.990386 0.020195 -0.009846 -651121.000000 0 1 0
18.147502 -9.652555 11.948480 23.775404 -0.488836 1.044243 0.004422 -0.016375 175665.000000 0 1 0
17.822402 -11.011455 11.976880 24.131635 -0.553436 1.051448 0.012500 -0.019023 -248395.000000 0 1 0
18.473802 -11.801555 10.805080 24.439882 -0.568480 1.112848 0.011771 -0.018422 -31419.100000 0 1 0
18.073302 -11.507855 9.494780 23.435568 -0.566992 1.153660 0.027344 -0.013175 171770.000000 0 1 0
18.872802 -12.197955 8.561980 24.047459 -0.573787 1.206764 0.028350 -0.011958 -166912.000000 0 1 0
18.705102 -11.602755 7.145280 23.142165 -0.555212 1.256912 0.028498 0.008399 -307712.000000 0 1 0
19.320502 -10.366355 6.961880 23.004584 -0.492456 1.263345 0.050947 0.011987 357264.000000 0 1 0
19.511502 -9.993055 5.598980 22.625394 -0.473330 1.320734 0.016185 0.010354 39879.900000 0 1 0
19.907302 -8.517155 5.328680 22.298821 -0.404274 1.329495 0.023633 0.010210 -165451.000000 0 1 0
20.448602 -8.138155 4.092080 22.385710 -0.378765 1.386964 0.018863 -0.000222 452823.000000 0 1 0
20.646602 -6.750955 4.012980 22.089852 -0.316019 1.388116 0.019854 0.002855 -694701.000000 0 1 0
21.422002 -6.211455 2.839480 22.484372 -0.282218 1.444171 0.025515 0.002200 -353321.000000 0 1 0
20.738802 -6.486555 1.593280 21.787883 -0.303134 1.497604 0.019190 -0.002892 680240.000000 0 1 0
21.125502 -5.715155 0.494780 21.890515 -0.264209 1.548192 0.016944 0.001235 -196452.000000 0 1 0
-24.958767 -16.136355 -0.034520 29.720754 0.573925 1.571958 -0.001734 0.013300 -1115870.000000 0 0 1
-24.093767 -15.333655 -0.756420 28.569262 0.566766 1.597276 -0.009450 0.018554 384364.000000 0 0 1
-22.717067 -15.629855 -0.437220 27.578047 0.602642 1.586651 -0.008165 0.012587 1016620.000000 0 0 1
-22.176367 -15.143355 0.952780 26.870434 0.599130 1.535331 -0.016762 0.011569 -1151780.000000 0 0 1
-22.706767 -15.672155 2.146580 27.673480 0.604117 1.493150 0.001595 0.018424 -70131.100000 0 0 1
-21.918367 -15.166655 3.185280 26.843775 0.605310 1.451856 0.004451 0.024679 -11679.500000 0 0 1
-22.225967 -15.862755 4.511280 27.676204 0.619864 1.407064 0.010356 0.022678 -692143.000000 0 0 1
-21.950167 -17.263255 4.518980 28.288708 0.666439 1.410364 0.017206 0.012600 204119.000000 0 0 1
-22.277767 -17.868355 5.743380 29.130112 0.676003 1.372333 0.015428 0.006505 -100464.000000 0 0 1
-22.507967 -19.354955 5.697380 30.227190 0.710223 1.381177 0.007803 0.010134 -23784.800000 0 0 1
-23.066367 -19.814455 6.887980 31.178746 0.709707 1.348040 0.009604 0.006458 -441383.000000 0 0 1
-23.624367 -21.049255 6.637080 32.330059 0.727819 1.364035 0.012233 0.007065 -141763.000000 0 0 1
-24.225567 -21.644155 7.948080 33.444275 0.729180 1.330849 0.006502 0.007215 -311183.000000 0 0 1
-23.238767 -22.114055 8.856080 33.279151 0.760604 1.301436 0.008565 0.008391 -131794.000000 0 0 1
-23.755667 -22.984155 9.864580 34.495116 0.768893 1.280777 0.006411 0.009520 286918.000000 0 0 1
-22.666167 -23.514555 10.856380 34.417298 0.803767 1.249883 -0.007077 0.009596 417010.000000 0 0 1
-22.355367 -22.511255 11.781980 33.842785 0.788873 1.215212 0.001025 0.013445 -86661.600000 0 0 1
-21.675267 -22.958855 12.936480 34.121529 0.814148 1.181941 0.007538 0.015228 -267815.000000 0 0 1
-22.244467 -22.351255 14.261080 34.608862 0.787793 1.146078 -0.001999 0.023309 73230.100000 0 0 1
-23.509967 -22.857555 14.649680 35.913779 0.771329 1.150630 0.006430 0.019241 784.478000 0 0 1
-23.956567 -22.037855 15.720580 36.148593 0.743706 1.120883 0.003509 0.024462 -454629.000000 0 0 1
-25.244477 -22.532455 16.397380 37.601452 0.728695 1.119554 -0.020164 0.029507 854994.000000 0 0 1
-26.447247 -22.348355 15.570780 37.965182 0.701594 1.148196 -0.018558 0.025689 1314550.000000 0 0 1
-26.715617 -23.366155 14.515780 38.345916 0.718618 1.182569 -0.023643 0.016529 -521716.000000 0 0 1
-27.489647 -24.511555 15.145380 39.823103 0.728191 1.180658 -0.016425 0.019858 -199737.000000 0 0 1
-26.829407 -25.234115 16.227280 40.248009 0.754766 1.155805 -0.021628 0.029740 133771.000000 0 0 1
-27.643547 -26.296915 16.676280 41.638825 0.760438 1.158736 -0.033822 0.028888 -255886.000000 0 0 1
-27.544837 -27.639945 15.899480 42.136422 0.787122 1.183881 -0.018778 0.024449 67396.800000 0 0 1
-28.236237 -27.727645 14.655480 42.200598 0.776311 1.216126 -0.023564 0.012685 -544259.000000 0 0 1
-29.598167 -28.014725 14.732080 43.334865 0.757921 1.223923 -0.012520 -0.000137 -685381.000000 0 0 1
-30.131017 -28.406365 13.355480 43.510557 0.755944 1.258812 -0.000747 -0.010636 -189830.000000 0 0 1
-29.563917 -29.616275 12.870180 43.781166 0.786283 1.272423 0.012195 -0.015579 182046.000000 0 0 1
-29.983687 -29.814775 11.501780 43.820466 0.782573 1.305210 0.020496 -0.006399 165404.000000 0 0 1
-29.319617 -30.999475 10.697380 43.989105 0.813240 1.325151 0.028427 -0.015280 5936.580000 0 0 1
-29.685287 -32.247895 11.245980 45.250581 0.826752 1.319637 0.020268 -0.001034 308001.000000 0 0 1
-28.939857 -33.320955 10.671680 45.405794 0.855649 1.333548 0.031241 -0.002613 -8471.300000 0 0 1
-29.185237 34.498153 11.413180 46.606451 -0.868632 1.323396 0.024832 0.005841 350589.000000 0 0 1
-30.531307 34.063139 11.307080 47.120146 -0.840021 1.328469 0.012517 0.018748 129565.000000 0 0 1
-30.610737 32.778879 11.865880 46.392577 -0.819588 1.312151 0.008474 0.014384 819192.000000 0 0 1
-32.064677 32.340269 12.321980 47.179102 -0.789677 1.306558 0.021933 0.013542 2025770.000000 0 0 1
-33.121077 32.273239 11.326380 47.611496 -0.772434 1.330602 0.007901 0.015397 925907.000000 0 0 1
-33.732757 33.550423 11.034880 48.839516 -0.782688 1.342887 0.015531 0.022469 57262.200000 0 0 1
35.128510 33.505595 10.447480 49.656691 0.761757 1.358818 0.005403 0.033840 167489.000000 0 0 1
35.133058 33.049009 9.132180 49.091399 0.754842 1.383682 -0.011908 0.024060 479281.000000 0 0 1
33.833682 32.985229 8.536180 48.016765 0.772701 1.392071 -0.001860 0.027882 468316.000000 0 0 1
33.783972 32.422369 7.101880 47.360358 0.764835 1.420274 -0.006900 0.017126 -56238.000000 0 0 1
33.829202 31.009679 7.043680 46.428747 0.741940 1.418499 -0.001269 0.008925 -87221.000000 0 0 1
33.507272 30.526809 5.801480 45.697708 0.738887 1.443499 0.022037 -0.003316 -197285.000000 0 0 1
33.796382 29.065429 5.570880 44.922481 0.710280 1.446465 0.031490 -0.003783 -248078.000000 0 0 1
33.062522 28.150039 6.366580 43.887224 0.705317 1.425216 0.024790 -0.005687 -132608.000000 0 0 1
33.745982 27.519169 7.454580 44.177672 0.684109 1.401244 0.008564 -0.001380 -46198.800000 0 0 1
32.786652 26.507809 8.112280 42.935272 0.679899 1.380712 0.009139 -0.000426 101586.000000 0 0 1
32.833092 25.296229 7.374080 42.098553 0.656461 1.394726 0.019792 -0.005392 814553.000000 0 0 1
31.651442 24.488119 7.583380 40.730694 0.658485 1.383520 0.018506 0.002133 549015.000000 0 0 1
31.719672 23.176139 6.793580 39.867578 0.631005 1.399557 0.019894 0.009715 280949.000000 0 0 1
32.704922 22.202839 7.104880 40.162885 0.596413 1.392959 0.028060 0.009050 950988.000000 0 0 1
34.060792 22.415839 6.666180 41.316405 0.582057 1.408743 0.042050 0.000692 412852.000000 0 0 1
34.997192 21.272839 6.841480 41.522801 0.546167 1.405277 0.031344 0.002379 -842627.000000 0 0 1
34.772304 20.231639 5.939380 40.665816 0.526954 1.424219 0.046784 -0.005511 128959.000000 0 0 1
-34.828826 19.026639 6.247080 40.175691 -0.499990 1.414669 0.034154 -0.006371 -143315.000000 0 0 1
35.080523 17.823039 5.397680 39.716983 0.470075 1.434471 0.033270 -0.004734 -165401.000000 0 0 1
-34.653899 17.842339 4.095280 39.192003 -0.475475 1.466112 0.040986 -0.005198 361255.000000 0 0 1
35.001473 16.873139 3.267880 38.993397 0.449200 1.486892 0.018754 -0.001160 -838960.000000 0 0 1
-34.381368 16.341239 2.128780 38.126713 -0.443688 1.514933 0.026533 0.012514 341922.000000 0 0 1
-33.287347 15.511939 2.467080 36.806986 -0.436080 1.503719 0.036967 0.008375 673105.000000 0 0 1
-32.131097 16.199239 2.927280 36.102516 -0.466971 1.489625 0.042301 0.003229 686800.000000 0 0 1
-30.807027 15.360139 3.148480 34.567611 -0.462521 1.479588 0.021452 0.001892 953639.000000 0 0 1
-30.852377 14.572939 4.339380 34.395784 -0.441279 1.444299 0.027612 -0.002624 765365.000000 0 0 1
-29.506857 14.293039 4.727180 33.125395 -0.451088 1.427602 0.011575 0.002440 366581.000000 0 0 1
-29.357467 13.640839 6.100680 32.941640 -0.434967 1.384524 0.009241 0.000509 -405254.000000 0 0 1
-29.849327 12.332639 6.185180 32.883624 -0.391802 1.381576 0.003186 0.009686 407447.000000 0 0 1
-29.516157 11.784339 7.479780 32.649981 -0.379860 1.339654 -0.018089 0.012469 -87281.700000 0 0 1
-29.385887 10.258539 7.461780 32.006970 -0.335871 1.335501 -0.012345 0.012217 76027.500000 0 0 1
-30.614937 9.565639 7.479380 32.935041 -0.302839 1.341703 -0.012661 0.009365 -108601.000000 0 0 1
-30.381767 8.181239 7.421680 32.327477 -0.263042 1.339152 -0.009074 0.006196 574957.000000 0 0 1
-31.697067 7.354539 7.189580 33.323916 -0.227992 1.353338 -0.003922 0.005730 404283.000000 0 0 1
-32.496407 7.207339 8.328180 34.312108 -0.218256 1.325629 -0.002656 0.007067 72575.600000 0 0 1
-33.655357 6.455239 7.989680 35.187898 -0.189503 1.341741 -0.001702 0.009887 817967.000000 0 0 1
-34.570549 6.019039 9.208280 36.278700 -0.172381 1.314168 -0.002186 0.013789 297844.000000 0 0 1
35.091881 7.014539 9.985480 37.153111 0.197290 1.298685 0.000346 0.016916 -49542.400000 0 0 1
-34.398678 7.735139 10.915980 36.908807 -0.221188 1.270550 0.000754 0.003697 -542106.000000 0 0 1
-35.117180 8.779239 11.747680 38.056529 -0.244977 1.256981 0.012337 -0.006317 -628588.000000 0 0 1
34.326642 8.321339 12.812480 37.572898 0.237828 1.222812 0.009382 -0.005256 692861.000000 0 0 1
33.979492 9.323739 13.722280 37.813212 0.267802 1.199422 0.029009 -0.008619 -276064.000000 0 0 1
33.203202 8.845739 14.980180 37.484737 0.260365 1.159679 0.014454 -0.007829 -61598.500000 0 0 1
31.824442 8.594139 14.785980 36.128653 0.263757 1.149154 0.014634 -0.006549 261881.000000 0 0 1
31.397082 7.901839 15.958580 36.095597 0.246554 1.112836 0.003239 0.001666 -665601.000000 0 0 1
29.904942 7.657639 16.058580 34.796882 0.250680 1.091117 0.000420 0.014763 -1043510.000000 0 0 1
29.110572 8.829539 16.228680 34.478344 0.294491 1.080721 -0.007420 0.011657 111767.000000 0 0 1
27.726272 8.604239 16.250180 33.269317 0.300905 1.060491 -0.005612 0.018571 -210944.000000 0 0 1
27.072332 7.919439 17.465380 33.176320 0.284589 1.016387 0.000422 0.019078 -719454.000000 0 0 1
27.102112 8.795539 18.633680 34.045558 0.313810 0.991642 0.008723 0.010721 166876.000000 0 0 1
26.510372 8.344839 19.843180 34.149494 0.304957 0.950756 0.011772 0.014837 -94174.700000 0 0 1
27.127052 7.067539 20.501480 34.729494 0.254869 0.939342 0.014391 0.010950 39825.700000 0 0 1
26.722522 6.929539 21.840280 35.200988 0.253726 0.901486 0.002751 0.016853 -19652.700000 0 0 1
27.082632 5.692939 22.307380 35.545713 0.207190 0.892370 0.007972 0.014943 -563998.000000 0 0 1
26.521772 5.344839 23.709980 35.974086 0.198863 0.851195 0.008078 0.011143 52973.600000 0 0 1
25.182002 4.909539 23.808280 35.001014 0.192547 0.822738 0.022001 0.001552 9439.630000 0 0 1
24.260402 5.985739 23.910380 34.584714 0.241897 0.807431 0.017195 0.015520 281791.000000 0 0 1
22.795802 5.549439 24.226280 33.724732 0.238796 0.769364 0.014130 0.004506 554737.000000 0 0 1
22.289402 4.674339 23.233880 32.534291 0.206716 0.775409 0.008509 0.005316 -907940.000000 0 0 1
20.915502 4.702539 23.126780 31.534427 0.221157 0.747513 0.024916 -0.003614 -1547460.000000 0 0 1
20.312602 3.907939 21.972980 30.177569 0.190068 0.755217 0.019969 -0.001366 1276220.000000 0 0 1
18.935302 4.122139 21.535180 28.970704 0.214352 0.732742 0.022511 -0.003858 1948880.000000 0 0 1
17.990402 3.473839 22.444480 28.973726 0.190746 0.684636 0.027261 -0.001720 880489.000000 0 0 1
16.533602 3.623239 21.870380 27.655043 0.215734 0.658636 0.033042 0.001637 178516.000000 0 0 1
16.227502 2.760039 20.806980 26.530738 0.168472 0.669295 0.021271 0.002974 462465.000000 0 0 1
14.820402 2.585539 20.655680 25.553600 0.172720 0.629490 0.035214 -0.006635 695284.000000 0 0 1
14.048002 1.643239 21.665280 25.873364 0.116444 0.578363 0.038014 -0.004053 -507182.000000 0 0 1
14.341402 0.263839 21.493980 25.840600 0.018395 0.588470 0.021446 -0.004180 825218.000000 0 0 1
13.373802 -0.546861 22.172280 25.899183 -0.040868 0.543122 0.020656 -0.004400 432767.000000 0 0 1
13.733902 -2.041761 22.077880 26.081059 -0.147585 0.561401 0.007344 -0.004993 55177.600000 0 0 1
13.470302 -2.511461 20.797380 24.905572 -0.184328 0.582574 0.007854 0.001303 179171.000000 0 1 0
13.790002 -3.880861 20.794880 25.251778 -0.274330 0.603240 -0.001135 0.011989 -144559.000000 0 0 1
13.625602 -4.498061 19.409680 24.137632 -0.318854 0.636594 0.000577 0.007865 -290110.000000 0 1 0
12.268102 -4.709861 19.136080 23.213761 -0.366560 0.601757 0.004694 0.007426 -440757.000000 0 1 0
12.009702 -5.143061 17.798980 22.079124 -0.404614 0.633188 0.012956 0.006785 -27799.200000 0 1 0
10.534502 -5.378661 17.453480 21.083873 -0.472072 0.595600 0.014394 0.002236 -33026.500000 0 1 0
9.957902 -6.427661 18.175780 21.698701 -0.573194 0.577841 0.012435 0.005551 -535701.000000 0 1 0
8.561602 -6.512561 18.060780 21.021567 -0.650296 0.537181 0.009339 -0.003838 -305528.000000 0 1 0
7.843302 -7.318461 19.117480 21.921572 -0.750796 0.511349 0.011999 0.002073 -365469.000000 0 1 0
7.946402 -8.735861 19.001280 22.372064 -0.832686 0.556080 0.012790 0.007766 759233.000000 0 1 0
9.145102 -9.389061 19.495680 23.491890 -0.798560 0.591886 0.028517 0.003953 734114.000000 0 1 0
9.163202 -10.836061 18.989280 23.706060 -0.868850 0.641781 0.034850 -0.001639 158887.000000 0 1 0
9.357102 -10.880161 17.601680 22.710183 -0.860517 0.683991 0.037553 0.002824 2823.790000 0 1 0
9.617102 -12.190261 17.118080 23.111032 -0.902850 0.736701 0.036515 -0.001559 131048.000000 0 1 0
9.785102 -12.125461 15.583280 22.036644 -0.891809 0.785333 0.042746 -0.006647 145856.000000 0 1 0
10.327602 -13.244761 14.955280 22.488741 -0.908526 0.843287 0.036557 -0.012257 -267659.000000 0 1 0
10.249802 -13.159561 13.581480 21.510209 -0.909063 0.887443 0.043061 -0.015391 -23157.600000 0 1 0
10.927202 -14.320661 12.800880 22.098589 -0.919003 0.952973 0.057023 -0.020046 967933.000000 0 1 0
12.321202 -14.223761 12.474880 22.577645 -0.856949 0.985397 0.041881 -0.020306 717533.000000 0 1 0
12.600002 -13.477961 11.292080 21.631610 -0.819052 1.021582 0.029213 -0.016853 -1072710.000000 0 1 0
14.061902 -13.416861 10.878680 22.273189 -0.761928 1.060518 0.023191 -0.020881 -563826.000000 0 1 0
14.550602 -14.561861 10.293680 23.015814 -0.785785 1.107115 0.032675 -0.016201 -1048270.000000 0 1 0
15.840202 -14.404361 9.830680 23.559285 -0.737959 1.140353 0.029328 -0.021123 -978368.000000 0 1 0
16.481902 -15.763761 9.510880 24.710445 -0.763131 1.175704 0.031600 -0.021674 -236107.000000 0 1 0
16.895902 -16.575361 10.561080 25.918151 -0.775822 1.151105 0.034298 -0.016329 159178.000000 0 0 1
15.871302 -17.143461 11.391180 25.991450 -0.823912 1.117127 0.054440 -0.009144 346117.000000 0 0 1
16.436202 -17.864961 12.628580 27.363966 -0.827027 1.091107 0.045232 -0.005012 16386.400000 0 0 1
17.459902 -18.805561 12.382980 28.492727 -0.822487 1.121201 0.056718 -0.010121 -226073.000000 0 0 1
17.729202 -19.457861 13.559980 29.610911 -0.831850 1.095121 0.032871 -0.007566 -26887.300000 0 0 1
19.091402 -20.165861 13.504880 30.879206 -0.812761 1.118152 -0.007312 -0.011295 642350.000000 0 0 1
20.269102 -19.325561 13.519880 31.098247 -0.761573 1.121039 -0.003727 -0.011233 293297.000000 0 0 1
21.331402 -20.102861 12.978880 32.056280 -0.755756 1.153951 -0.008969 -0.018103 -33838.900000 0 0 1
22.063902 -19.301261 11.913180 31.642982 -0.718711 1.184795 -0.014860 -0.009008 -860188.000000 0 0 1
21.690802 -19.374061 10.488680 30.916946 -0.729041 1.224673 -0.007674 -0.010658 219887.000000 0 0 1
20.454102 -18.829661 10.029680 29.555387 -0.744070 1.224568 -0.002463 -0.011740 485827.000000 0 0 1
20.340502 -17.284161 10.164680 28.562195 -0.704344 1.206942 0.021771 -0.019705 -138423.000000 0 0 1
21.381802 -16.603361 9.508980 28.692748 -0.660258 1.233002 0.011577 -0.007798 -100790.000000 0 0 1
21.217302 -15.194161 9.709180 27.844293 -0.621464 1.214617 0.023805 -0.020466 90614.900000 0 0 1
-33.768437 25.100145 7.848380 42.800954 -0.639201 1.386384 0.019559 0.006609 -402912.000000 0 0 1
-32.829717 24.460145 8.628380 41.839431 -0.640333 1.363080 0.008168 0.004623 -86349.100000 0 0 1
-31.887917 25.321845 9.260180 41.758664 -0.671126 1.347183 -0.000679 0.003997 299679.000000 0 0 1
-30.787667 24.512345 10.038280 40.614069 -0.672404 1.321045 -0.004962 -0.008374 845736.000000 0 0 1
-29.876737 23.871245 9.070880 39.303137 -0.674125 1.337904 -0.005395 -0.008468 1069130.000000 0 0 1
-28.964297 22.997145 9.768680 38.252141 -0.671061 1.312560 -0.001826 -0.009249 124254.000000 0 0 1
-28.211737 22.145645 8.750080 36.917416 -0.665515 1.331501 0.008948 -0.017578 -266885.000000 0 0 1
-29.051617 21.326145 7.989380 36.913834 -0.633233 1.352637 0.007964 -0.018559 -16147.600000 0 0 1
-28.247937 20.548645 7.168380 35.659198 -0.628905 1.368392 0.008903 -0.021644 -428571.000000 0 0 1
-29.063507 19.638145 6.247880 35.628362 -0.594229 1.394522 0.019589 -0.021800 -503572.000000 0 0 1
-29.677807 18.542845 6.899480 35.668083 -0.558459 1.376134 0.022031 -0.016646 -324996.000000 0 0 1
-30.777927 18.347845 6.059480 36.340632 -0.537574 1.403273 0.034219 -0.011530 -736599.000000 0 0 1
-31.461937 16.993545 6.358780 36.318978 -0.495234 1.394808 0.035156 -0.006422 -677264.000000 0 0 1
-32.360097 17.054545 7.415880 37.323299 -0.485032 1.370772 0.028054 -0.005070 -176243.000000 0 0 1
-33.023347 15.845245 7.657980 37.420020 -0.447373 1.364691 0.031979 -0.003346 -363924.000000 0 0 1
-34.050987 15.935745 8.795680 38.610642 -0.437719 1.340974 0.016032 -0.005498 -208965.000000 0 0 1
-35.129210 16.788845 8.498980 39.851717 -0.445826 1.355881 0.022217 -0.007629 -235699.000000 0 0 1
34.288087 16.876045 9.582080 39.399113 0.457375 1.325127 0.029530 -0.006085 153606.000000 0 0 1
33.402942 18.177845 9.538280 39.206752 0.498378 1.325049 0.021647 -0.000432 927879.000000 0 0 1
32.316272 18.265645 8.599380 38.104128 0.514450 1.343154 0.012570 -0.003321 690442.000000 0 0 1
31.586502 19.449945 8.737680 38.109770 0.551933 1.339462 0.010649 0.005603 311001.000000 0 0 1
30.382262 19.658445 7.778980 37.014171 0.574289 1.359055 -0.002239 0.002250 -590893.000000 0 0 1
29.704182 20.889145 7.997180 37.183998 0.612897 1.354032 -0.013501 0.002647 857318.000000 0 0 1
28.385372 20.943645 7.408680 36.045168 0.635668 1.363782 -0.022354 -0.001142 954501.000000 0 0 1
28.275642 20.644845 5.923680 35.507908 0.630661 1.403186 -0.045083 0.020331 -1411570.000000 0 0 1
28.188112 19.283745 5.665680 34.619827 0.599981 1.406403 -0.029414 0.017889 35318.800000 0 0 1
27.999072 18.918945 4.285880 34.062344 0.594230 1.444637 -0.027434 0.012100 317511.000000 0 0 1
26.566762 19.228645 3.754080 33.009495 0.626512 1.456822 -0.017353 0.015910 -564840.000000 0 0 1
25.557042 18.348945 4.273780 31.750770 0.622679 1.435783 -0.010014 0.009658 358104.000000 0 0 1
24.251302 18.815445 4.026580 30.957390 0.659843 1.440358 0.007476 0.001647 -305898.000000 0 0 1
23.728302 20.053145 4.764080 31.430199 0.701651 1.418633 0.011047 -0.001969 -962493.000000 0 0 1
24.390502 21.229045 4.365680 32.628639 0.716208 1.436595 0.000470 -0.002523 -49991.900000 0 0 1
23.736602 22.393845 4.821380 32.987214 0.756299 1.424112 -0.023360 0.007515 -110944.000000 0 0 1
24.290602 23.802545 4.408680 34.293308 0.775250 1.441882 -0.033242 0.002213 -22402.900000 0 0 1
25.502692 24.119745 5.055680 35.464198 0.757536 1.427752 -0.032648 0.000312 6776.720000 0 0 1
26.094922 25.358945 4.673680 36.686024 0.771096 1.443052 -0.014724 -0.006298 -1127940.000000 0 0 1
27.384712 25.583845 5.511680 37.879205 0.751412 1.424771 -0.014669 -0.002710 227971.000000 0 0 1
28.293872 24.432245 5.439280 37.776495 0.712289 1.426308 -0.021873 -0.003882 630727.000000 0 0 1
28.812622 24.138945 4.175080 37.819137 0.697363 1.460175 -0.024637 -0.007844 -803719.000000 0 0 1
29.886262 25.145445 3.604580 39.223399 0.699463 1.478768 -0.009198 -0.022774 -405875.000000 0 0 1
29.396912 26.430845 3.391680 39.677090 0.732319 1.485210 -0.009644 -0.018175 -514032.000000 0 0 1
30.221352 27.143845 2.511180 40.699195 0.731802 1.509056 0.023960 -0.022275 -1234780.000000 0 0 1
29.940932 28.632245 2.444980 41.499913 0.763059 1.511847 0.022828 -0.018997 124655.000000 0 0 1
28.775642 29.048845 1.769980 40.926835 0.790123 1.527535 0.032053 -0.020066 328254.000000 0 0 1
27.564322 28.746645 2.481180 39.903856 0.806391 1.508577 0.011287 -0.013533 -232469.000000 0 0 1
26.316992 29.294245 1.756180 39.418537 0.838884 1.526229 -0.010193 -0.013578 -45114.200000 0 0 1
25.991322 30.483945 2.390080 40.131437 0.864781 1.511205 -0.001994 -0.016969 -692692.000000 0 0 1
24.678302 30.835645 2.094580 39.550510 0.895862 1.517812 -0.005080 -0.010343 -403045.000000 0 0 1
24.292702 32.199445 2.740380 40.428323 0.924457 1.502961 0.016882 -0.013441 -368956.000000 0 0 1
24.338002 32.211145 4.152380 40.584954 0.923735 1.468304 0.003295 -0.029148 205745.000000 0 0 1
25.604002 32.111445 4.812880 41.350618 0.897674 1.454140 0.005185 -0.029225 256375.000000 0 0 1
25.552912 32.042045 6.347880 41.472154 0.897593 1.417129 0.021445 -0.037826 -143751.000000 0 0 1
25.120002 30.810245 6.914180 40.349617 0.886788 1.398590 0.016346 -0.039937 196365.000000 0 0 1
25.966342 29.678245 6.720480 40.002675 0.852007 1.401995 0.002343 -0.040334 -75057.500000 0 0 1
25.225102 28.504645 7.313680 38.759650 0.846360 1.380965 0.004056 -0.030137 -487639.000000 0 0 1
24.120802 28.145545 6.538080 37.639491 0.862251 1.396208 -0.011198 -0.031287 -600264.000000 0 0 1
23.528102 26.944345 6.941980 36.438447 0.852980 1.379112 -0.002301 -0.020183 -244485.000000 0 0 1
22.107602 26.740545 6.346680 35.271563 0.879959 1.389873 0.003908 -0.005288 -36161.800000 0 0 1
21.890402 26.496245 4.964780 34.725923 0.880301 1.427334 -0.004138 -0.010245 34514.900000 0 0 1
22.249002 27.599345 4.166280 35.694535 0.892321 1.453809 -0.002639 -0.009504 -347582.000000 0 0 1
22.282502 27.285345 2.606380 35.324116 0.885987 1.496944 -0.010867 -0.002582 -101313.000000 0 0 1
23.474302 26.617745 2.230180 35.560103 0.848069 1.508039 -0.033638 0.018081 86054.800000 0 0 1
23.527902 26.377745 0.853280 35.356410 0.842441 1.546660 -0.024903 0.021725 -219291.000000 0 0 1
24.807602 25.769845 0.274580 35.771182 0.804421 1.563120 -0.016243 0.020970 -102023.000000 0 0 1
25.885452 26.694945 -0.088220 37.184466 0.800792 1.573169 -0.021056 0.023316 928307.000000 0 0 1
26.991042 26.202445 -0.777520 37.625643 0.770574 1.591462 -0.013389 0.031037 -75390.200000 0 0 1
27.861512 25.101245 -0.155020 37.501472 0.733328 1.574930 -0.014429 0.023018 -1315070.000000 0 0 1
27.147402 23.917345 -0.005120 36.180393 0.722228 1.570938 -0.014988 0.014558 -370281.000000 0 0 1
27.800422 22.934245 0.706680 36.046393 0.689776 1.551190 -0.018667 0.017360 -210495.000000 0 0 1
26.823682 21.842945 1.229080 34.614084 0.683409 1.535281 -0.014724 0.011645 220220.000000 0 0 1
26.427512 20.956845 0.225880 33.729123 0.670454 1.564099 0.000739 0.005328 -51752.300000 0 0 1
25.192602 20.374545 0.518480 32.404600 0.680054 1.554795 0.004111 0.014548 -817367.000000 0 0 1
24.961002 18.983445 -0.113820 31.359779 0.650203 1.574426 0.023046 0.001116 38904.600000 0 0 1
23.666902 18.545945 0.294680 30.069273 0.664675 1.560996 0.023597 -0.001077 411835.000000 0 0 1
23.290902 17.447545 -0.506920 29.105668 0.642934 1.588214 0.036622 -0.018350 84736.100000 0 0 1
21.821402 17.008545 -0.252020 27.668171 0.662080 1.579905 0.057144 -0.004528 -414469.000000 0 0 1
21.329402 15.963545 -1.002720 26.660525 0.642495 1.608416 0.067135 -0.016463 830265.000000 0 0 1
20.062002 15.491945 -0.494720 25.352101 0.657560 1.590312 0.087292 -0.022665 833912.000000 0 0 1
18.786102 16.208945 -0.982020 24.831671 0.711887 1.610354 0.082319 -0.037447 -687951.000000 0 1 0
18.673902 17.546045 -0.481220 25.628302 0.754269 1.589574 0.057049 -0.021383 -495657.000000 0 0 1
17.656702 18.257345 -1.093120 25.422130 0.802121 1.613808 0.046892 -0.030056 -339390.000000 0 0 1
17.569502 19.750945 -0.628720 26.442060 0.843783 1.594576 0.036892 -0.007251 -62073.900000 0 0 1
17.296902 19.985945 0.763680 26.442466 0.857399 1.541911 0.050501 -0.008689 102776.000000 0 0 1
17.593202 21.305445 1.198780 27.656461 0.880544 1.527437 0.041024 -0.005482 362418.000000 0 0 1
16.558102 22.451245 0.817380 27.908731 0.935334 1.541505 0.044561 -0.007586 81338.900000 0 0 1
15.325702 22.346745 1.459980 27.136428 0.969655 1.516969 0.043520 -0.006636 -760977.000000 0 0 1
14.580902 23.488945 1.212780 27.673165 1.015255 1.526957 0.025230 -0.002810 649626.000000 0 0 1
13.095602 23.392745 1.735880 26.865007 1.060449 1.506136 0.016126 0.000280 864047.000000 0 0 1
12.935702 23.370145 3.103180 26.890998 1.065259 1.455140 0.017862 0.008683 -293836.000000 0 0 1
11.578402 23.317845 3.464880 26.263790 1.109915 1.438484 0.003173 0.006774 -8820.650000 0 0 1
11.174602 23.521145 4.965180 26.509791 1.127277 1.382388 0.011603 0.007834 146540.000000 0 0 1
11.850102 22.646945 5.913280 26.235013 1.088719 1.343446 0.021898 -0.018726 -249595.000000 0 0 1
11.071202 22.263845 6.985280 25.827204 1.109333 1.296923 0.016319 -0.015178 -1467050.000000 0 0 1
11.666902 21.276045 7.999680 25.549591 1.069214 1.252337 0.021261 -0.010773 -534944.000000 0 0 1
12.762002 21.828545 8.658980 26.726990 1.041742 1.240864 0.025051 -0.003930 11338.700000 0 0 1
13.986102 21.652145 7.944580 26.973001 0.997277 1.271824 0.020964 -0.003436 -852387.000000 0 0 1
15.251302 21.879745 8.754480 28.070739 0.962052 1.253634 0.025552 0.000208 -499019.000000 0 0 1
15.557502 20.663245 9.529380 27.564736 0.925437 1.217802 0.027418 -0.002488 1410110.000000 0 0 1
16.951102 20.666045 9.937180 28.516185 0.883836 1.214853 0.034790 -0.003289 1242900.000000 0 0 1
17.318102 21.461945 11.256180 29.786462 0.891849 1.183274 0.015647 -0.001811 -241543.000000 0 0 1
16.578602 21.020645 12.390180 29.499731 0.902995 1.137340 0.019970 -0.002317 113725.000000 0 0 1
16.704102 21.802545 13.532480 30.618720 0.917037 1.113005 0.015689 0.006253 -983011.000000 0 0 1
17.781702 21.397445 14.469980 31.359527 0.877425 1.091199 0.016831 0.004253 -127854.000000 0 0 1
19.112102 21.747845 14.076880 32.193163 0.849816 1.118243 0.030082 0.006560 -678015.000000 0 0 1
19.982202 21.267445 15.004180 32.813382 0.816546 1.095887 0.027074 0.006524 -556584.000000 0 0 1
21.412002 21.709145 14.579280 33.798169 0.792289 1.124793 0.030785 0.007452 38367.600000 0 0 1
21.877002 21.031045 13.449580 33.193362 0.765685 1.153611 0.039964 0.007310 -442724.000000 0 0 1
23.245002 21.253645 13.268480 34.177480 0.740677 1.172094 0.018425 0.015141 -319729.000000 0 0 1
23.941402 20.704145 11.987880 33.846146 0.713015 1.208751 0.021230 0.014112 191343.000000 0 0 1
23.357002 21.328445 10.841280 33.436290 0.740033 1.240591 0.009674 0.020556 810697.000000 0 0 1
24.186002 21.198645 9.662280 33.581318 0.719670 1.278943 0.018929 0.008861 32448.600000 0 0 1
23.795902 22.138945 8.474980 33.588735 0.749342 1.315723 -0.000194 -0.000534 -139524.000000 0 0 1
24.189302 23.481445 8.657780 34.806002 0.770550 1.319413 0.011781 -0.006985 -161590.000000 0 0 1
25.544502 23.801445 8.526080 35.940568 0.750090 1.331286 -0.004314 -0.007957 -589415.000000 0 0 1
25.943162 25.178545 9.163680 37.295842 0.770442 1.322552 0.010215 -0.007593 104523.000000 0 0 1
27.189562 25.694945 8.710880 38.410701 0.757144 1.342023 -0.001743 -0.008515 508604.000000 0 0 1
27.587592 26.911745 9.369780 39.662451 0.772998 1.332304 -0.000798 -0.015895 -163580.000000 0 0 1
28.875072 27.519345 8.803580 40.848343 0.761363 1.353573 0.001624 -0.015117 -337310.000000 0 0 1
28.732152 28.159545 7.542780 40.931529 0.775334 1.385459 0.014348 -0.017457 56767.500000 0 0 1
29.963582 28.443545 6.893480 41.885219 0.759379 1.405464 0.012557 -0.008673 -219661.000000 0 0 1
29.833102 29.492345 5.803780 42.349690 0.779654 1.433319 0.022706 -0.004318 -121226.000000 0 0 1
29.568272 30.802345 6.305780 43.160515 0.805837 1.424171 0.029995 -0.013435 111601.000000 0 0 1
29.738532 31.761045 5.248580 43.825699 0.818273 1.450748 0.017745 -0.013054 -153955.000000 0 0 1
29.676142 33.200845 5.714680 44.895736 0.841397 1.443162 -0.007492 -0.003617 -201759.000000 0 0 1
28.470352 33.759645 6.170080 44.590856 0.870190 1.431980 -0.011486 -0.009464 -343629.000000 0 0 1
28.576532 -34.135449 6.637880 45.010093 -0.873809 1.422781 -0.010025 -0.001529 -362789.000000 0 0 1
27.228412 -33.564349 7.094880 43.798279 -0.889245 1.408089 0.016688 -0.005689 -245204.000000 0 0 1
26.311352 -33.542449 6.040280 43.056569 -0.905628 1.430045 0.015734 -0.015849 -815454.000000 0 0 1
25.088202 -32.970849 6.428680 41.926396 -0.920343 1.416857 0.004684 -0.013028 -173937.000000 0 0 1
24.005302 -33.209749 5.357780 41.326115 -0.944906 1.440784 0.018879 -0.010093 -169442.000000 0 0 1
24.320602 -32.538549 4.166480 40.836361 -0.928936 1.468590 -0.004033 0.004838 78033.800000 0 0 1
23.395902 -32.813049 3.112080 40.419667 -0.951395 1.493726 0.011404 -0.000863 127742.000000 0 0 1
23.834402 -32.088449 1.822380 40.013352 -0.931937 1.525236 0.011244 0.011769 14939.100000 0 0 1
23.749502 -30.664249 1.957880 38.835143 -0.911798 1.520360 0.011660 0.023061 -149782.000000 0 0 1
24.552302 -29.967549 1.027180 38.754672 -0.884400 1.544289 -0.002336 0.024298 -363933.000000 0 0 1
24.637802 -28.410949 1.359280 37.630452 -0.856405 1.534667 -0.003926 0.017235 290543.000000 0 0 1
23.475002 -27.589749 1.241480 36.246534 -0.865803 1.536539 -0.008972 0.016801 -47017.100000 0 0 1
22.993602 -27.355549 -0.046020 35.735611 -0.871816 1.572084 -0.002186 0.019630 -1112990.000000 0 0 1
21.750002 -26.480449 -0.045220 34.267752 -0.883166 1.572116 -0.005316 0.019895 -661800.000000 0 0 1
21.955302 -25.065949 0.110880 33.321905 -0.851456 1.567469 -0.006705 0.011189 -263457.000000 0 0 1
22.151002 -24.621949 1.429580 33.150429 -0.838178 1.527659 -0.010860 0.011985 -257107.000000 0 0 1
20.935502 -24.530649 2.359180 32.335951 -0.864307 1.497773 -0.018540 0.007935 -323274.000000 0 0 1
21.147202 -23.758649 3.561880 32.005695 -0.843487 1.459276 -0.023232 0.005487 1001890.000000 0 0 1
19.909102 -23.479349 4.290980 31.081581 -0.867499 1.432299 -0.012892 0.001529 1179150.000000 0 0 1
20.234902 -22.724349 5.614380 30.941373 -0.843282 1.388333 -0.008766 0.001001 -70272.400000 0 0 1
20.543102 -21.349349 5.582080 30.149185 -0.804641 1.384573 0.000469 0.009627 360277.000000 0 0 1
19.466602 -20.497249 5.174880 28.737870 -0.811182 1.389737 -0.010082 0.008744 -536096.000000 0 0 1
19.484302 -19.101549 5.909780 27.918322 -0.775479 1.357502 -0.009591 0.010663 45103.500000 0 0 1
18.869402 -19.134949 7.173780 27.814811 -0.792385 1.309936 0.004575 0.003178 333437.000000 0 0 1
17.475002 -18.824349 7.141080 26.659460 -0.822554 1.299622 0.010765 0.006283 509648.000000 0 0 1
18.049533 -26.765465 -12.315120 34.551960 -0.977487 1.935233 0.061495 -0.017629 -121718.000000 0 0 1
18.301733 -25.462415 -12.844420 33.886090 -0.947581 1.959563 0.061075 -0.021239 31913.600000 0 0 1
17.077733 -24.812755 -13.149220 32.866758 -0.967990 1.982397 0.038762 -0.011630 86373.500000 0 0 1
17.285933 -23.416355 -13.742020 32.186523 -0.934891 2.011913 0.033917 -0.014497 -43087.200000 0 0 1
17.445433 -22.314755 -12.853520 31.104733 -0.907259 1.996798 0.042647 -0.011946 530973.000000 0 0 1
18.701333 -22.196555 -12.133720 31.458768 -0.870653 1.966765 0.041937 -0.017390 537707.000000 0 0 1
18.810233 -22.926955 -10.793520 31.558996 -0.883715 1.919852 0.046679 -0.014840 3894.630000 0 0 1
18.029233 -22.471655 -9.691220 30.396517 -0.894648 1.895288 0.037967 -0.007604 2067070.000000 0 0 1
16.613233 -22.905555 -9.699420 29.912250 -0.943296 1.901028 0.042462 0.003163 2063970.000000 0 0 1
15.734533 -22.198255 -8.649120 28.550750 -0.954176 1.878571 0.027718 0.007753 -800529.000000 0 0 1
15.465433 -20.861555 -8.826820 27.428030 -0.932863 1.898445 0.015680 0.003807 -77744.200000 0 0 1
14.531633 -20.284655 -7.973720 26.195721 -0.949158 1.880094 -0.001477 0.007615 -340439.000000 0 0 1
13.048833 -20.610655 -8.172420 25.726632 -1.006386 1.894061 0.001272 0.014292 -731449.000000 0 0 1
12.673333 -21.821355 -7.637920 26.365180 -1.044632 1.864707 0.002228 0.014126 234845.000000 0 0 1
11.401333 -22.236055 -8.148620 26.283693 -1.097008 1.886016 -0.005264 0.018608 566242.000000 0 0 1
10.979033 -23.643955 -7.670920 27.173862 -1.136075 1.856977 -0.006143 0.019087 21513.400000 0 0 1
10.891033 -23.687055 -6.258820 26.811639 -1.139832 1.806407 -0.003958 0.021111 3386.890000 0 0 1
10.145633 -24.819455 -5.922320 27.459299 -1.182746 1.788181 -0.012011 0.020505 -119127.000000 0 0 1
10.466433 -25.338755 -4.564720 27.792722 -1.179082 1.735785 0.004934 0.009808 -407012.000000 0 0 1
9.550333 -26.272115 -4.106820 28.254183 -1.222132 1.716666 0.007562 -0.001900 -600430.000000 0 0 1
10.134833 -27.011295 -3.061620 29.012039 -1.211844 1.676522 0.009893 -0.007021 -427392.000000 0 0 1
9.104633 -27.676295 -2.162020 29.215509 -1.252979 1.644867 0.001486 -0.006555 -305390.000000 0 0 1
8.406533 -26.734155 -1.397720 28.059552 -1.266137 1.620630 0.002982 0.000467 -479837.000000 0 0 1
7.821033 -27.383905 -0.280720 28.480267 -1.292596 1.580653 0.008402 -0.007403 -50688.800000 0 0 1
7.089033 -26.356435 0.577980 27.299270 -1.308047 1.549623 0.006445 -0.004742 -803229.000000 0 0 1
5.860033 -25.877825 0.186780 26.533690 -1.348102 1.563757 0.012133 -0.009590 -783369.000000 0 0 1
5.220633 -25.235855 1.292680 25.802605 -1.366800 1.520677 0.019048 -0.009713 1002310.000000 0 0 1
3.692733 -24.867255 1.189680 25.168075 -1.423376 1.523509 0.008071 -0.005967 1180030.000000 0 0 1
2.936733 -26.033225 0.860280 26.212464 -1.458464 1.537971 0.005305 -0.007408 -187799.000000 0 0 1
1.557433 -25.776615 0.732780 25.834017 -1.510449 1.542428 -0.002809 -0.001734 -59856.000000 0 0 1
0.733533 -26.961985 0.232480 26.972963 -1.543597 1.562177 0.001757 0.004109 -301617.000000 0 0 1
0.443733 -27.861755 1.277380 27.894551 -1.554871 1.524987 0.003250 0.006346 -136251.000000 0 0 1
0.505433 -29.176285 0.746680 29.190214 -1.553475 1.545214 0.003682 0.011357 -255821.000000 0 0 1
0.094733 -30.243685 1.737980 30.293729 -1.567664 1.513394 0.007474 0.006472 99905.800000 0 0 1
0.729033 -30.044985 3.010380 30.204222 -1.546536 1.470963 0.008708 0.004123 225020.000000 0 0 1
0.192033 -30.962185 3.927880 31.210928 -1.564594 1.444612 0.012039 0.002924 -115873.000000 0 0 1
0.484633 -30.707615 5.400780 31.182702 -1.555015 1.396721 0.016249 -0.000042 -218510.000000 0 0 1
1.794733 -31.061385 5.787880 31.646963 -1.513080 1.386872 0.005080 0.010256 -114125.000000 0 0 1
1.965333 -30.950285 7.158880 31.828167 -1.507382 1.343933 0.017929 0.010196 670685.000000 0 0 1
3.281333 -31.698815 7.593780 32.760457 -1.467648 1.336872 0.022179 0.009877 714909.000000 0 0 1
3.424133 -33.119255 7.400980 34.108419 -1.467774 1.352073 0.017580 0.001788 -599737.000000 0 0 1
4.613533 -33.590125 7.969680 34.829542 -1.434302 1.339931 0.018244 0.001033 -263946.000000 0 0 1
4.877833 34.189736 7.416380 35.323278 1.429083 1.359265 0.012713 -0.001295 -12788.300000 0 0 1
5.237433 34.049350 6.038980 34.975108 1.418174 1.397262 -0.008677 -0.006128 198978.000000 0 0 1
4.935133 32.694379 5.649080 33.543853 1.420980 1.401581 -0.016068 -0.003494 -787527.000000 0 0 1
5.136233 32.435119 4.184080 33.104748 1.413746 1.444068 -0.013163 -0.007335 453622.000000 0 0 1
6.467633 32.448749 3.642280 33.286901 1.374056 1.461156 -0.008643 -0.001806 687101.000000 0 0 1
7.178333 31.292079 4.068280 32.361606 1.345300 1.444750 -0.007066 -0.005277 -509079.000000 0 0 1
8.630633 31.128739 3.534480 32.495827 1.300334 1.461814 -0.018572 0.003023 -414594.000000 0 0 1
9.487733 31.771489 4.370680 33.444692 1.280602 1.439738 -0.005892 -0.001182 184982.000000 0 0 1
10.793533 31.851779 3.725480 33.836598 1.244073 1.460471 0.003410 -0.002959 118114.000000 0 0 1
11.955633 32.208289 4.565580 34.657691 1.215364 1.438679 0.013379 -0.014230 -1070150.000000 0 0 1
12.349333 31.066179 5.290980 33.846831 1.192432 1.413831 0.015718 -0.006566 -80602.800000 0 0 1
13.481933 31.426789 6.055980 34.728669 1.165547 1.395520 0.027695 -0.003711 49012.100000 0 0 1
14.070833 30.307779 6.961180 34.132211 1.136143 1.365408 0.028947 -0.005999 -569948.000000 0 0 1
13.374133 30.098459 8.131180 33.924928 1.152654 1.328758 0.010806 0.001641 -238825.000000 0 0 1
14.041933 29.250059 9.045280 33.683214 1.123223 1.298920 0.008635 -0.001010 267303.000000 0 0 1
13.488733 29.437879 10.483980 34.035988 1.141136 1.257679 -0.003831 0.007959 50836.400000 0 0 1
14.246233 30.420569 11.138080 35.389589 1.132821 1.250627 0.008575 -0.001015 -35697.200000 0 0 1
13.725433 30.727449 12.410480 35.868979 1.150704 1.217497 -0.000819 0.005725 -71747.700000 0 0 1
14.674433 31.610049 13.291480 37.298762 1.136169 1.206436 0.001655 0.003082 580225.000000 0 0 1
15.916933 31.077849 13.712180 37.512736 1.097466 1.196590 -0.005722 -0.003178 85639.400000 0 0 1
16.329733 31.813849 14.810680 38.705780 1.096573 1.178136 0.008476 -0.003403 -483018.000000 0 0 1
17.479033 31.242699 15.629780 39.062935 1.060719 1.159151 0.007876 -0.007554 1000950.000000 0 0 1
18.774033 31.094169 14.981380 39.290627 1.027602 1.179598 0.024291 -0.007412 1222280.000000 0 0 1
19.048733 29.696209 14.948180 38.316669 1.000453 1.170032 0.016126 -0.009609 -700360.000000 0 0 1
20.417533 29.349419 14.390380 38.540201 0.962982 1.188140 0.040133 -0.012063 -522422.000000 0 0 1
21.474733 29.457119 15.310880 39.538703 0.940860 1.173163 0.037037 -0.014739 -1017090.000000 0 0 1
22.683433 29.185249 14.696680 39.778251 0.910099 1.192363 0.029992 -0.011132 -273602.000000 0 0 1
23.895033 29.368159 15.676980 40.978398 0.887795 1.178223 0.035358 -0.011893 352235.000000 0 0 1
23.914833 28.386069 16.675780 40.691151 0.870681 1.148547 0.021688 -0.007138 -79545.500000 0 0 1
24.822433 28.666629 17.739280 41.864195 0.857144 1.133233 0.021009 -0.006448 263088.000000 0 0 1
25.777433 27.451419 18.056380 41.762295 0.816837 1.123687 -0.007039 -0.001215 428190.000000 0 0 1
25.155233 26.238409 18.632780 40.846302 0.806471 1.097112 0.002518 0.002489 297258.000000 0 0 1
25.002433 26.421719 20.012280 41.517710 0.812991 1.067840 0.035227 -0.000542 -670011.000000 0 0 1
24.396633 25.224149 20.632480 40.708140 0.802073 1.039282 0.047585 0.001550 -578945.000000 0 0 1
25.219733 24.060339 20.653280 40.515341 0.761876 1.035885 0.009534 0.001143 576890.000000 0 0 1
24.485333 22.821639 20.918180 39.470609 0.750245 1.012233 0.028147 -0.010446 829659.000000 0 0 1
25.497033 21.602439 20.884780 39.407336 0.702897 1.012229 0.003568 -0.010589 741249.000000 0 0 1
24.899433 20.274639 20.891280 38.307810 0.683376 0.993986 0.010855 0.000671 399817.000000 0 0 1
25.866633 19.241939 21.037180 38.495427 0.639579 0.992635 0.013612 -0.001673 201482.000000 0 0 1
26.352533 18.992839 22.476280 39.501482 0.624498 0.965509 0.016318 0.009164 561943.000000 0 0 1
25.345133 18.305139 23.227780 38.948474 0.625493 0.931823 0.010588 0.019938 758942.000000 0 0 1
25.879733 18.122439 24.528080 39.997626 0.610898 0.910642 0.017342 0.024440 -343666.000000 0 0 1
25.028933 17.388639 25.543980 39.765653 0.607188 0.873219 0.012018 0.027661 -415363.000000 0 0 1
24.618733 16.168139 24.937280 38.592210 0.581100 0.868236 0.010515 0.017912 843957.000000 0 0 1
23.603833 15.502139 25.722780 38.198412 0.581115 0.831999 0.004840 0.021443 389886.000000 0 0 1
23.062533 14.254739 25.053880 36.915782 0.553615 0.824837 -0.002417 0.021417 135998.000000 0 0 1
21.979933 13.587339 25.709380 36.451412 0.553673 0.787942 0.005301 0.011702 449810.000000 0 0 1
21.536433 12.550539 24.910680 35.240261 0.527645 0.785717 0.005618 0.015932 -427662.000000 0 0 1
20.204133 11.959239 25.375380 34.570801 0.534457 0.746586 0.013356 0.009430 -270155.000000 0 0 1
19.060533 12.750239 25.125280 34.016940 0.589571 0.739789 0.017171 0.003688 -575223.000000 0 0 1
17.942333 11.949339 25.294780 33.234619 0.587531 0.705793 0.016752 0.006602 598819.000000 0 0 1
16.559233 12.738139 25.411580 32.897064 0.655706 0.688095 0.020798 -0.004787 1107440.000000 0 0 1
16.298533 13.266639 26.721380 33.995265 0.683206 0.666432 0.025460 0.000319 364606.000000 0 0 1
15.198333 14.150439 26.862380 33.953081 0.749708 0.658090 0.030892 -0.001315 -95425.400000 0 0 1
15.052133 14.578639 28.329480 35.237237 0.769420 0.636865 0.032930 0.001676 -269968.000000 0 0 1
14.452833 13.553039 29.097280 35.202570 0.753280 0.597816 0.037289 -0.001487 6464.620000 0 0 1
14.843533 13.371639 30.490180 36.452466 0.733279 0.580047 0.035034 -0.004329 314646.000000 0 0 1
16.353233 13.105839 30.784380 37.240694 0.675607 0.597699 0.031945 0.012699 -15626.400000 0 0 1
17.180133 14.215839 30.661680 37.912870 0.691261 0.628788 0.028871 0.006095 -209216.000000 0 0 1
18.524133 13.783439 30.587580 38.323971 0.639702 0.646608 0.015810 0.023300 -5856.840000 0 0 1
19.524333 14.934839 30.295580 39.013731 0.652991 0.681646 0.007261 0.015644 -222288.000000 0 0 1
19.413433 15.590739 29.045980 38.257306 0.676622 0.708672 0.011983 0.006689 148563.000000 0 0 1
19.548033 14.881139 27.808880 37.106707 0.650669 0.723596 0.018991 0.004127 -505713.000000 0 0 1
19.267733 15.694639 26.580580 36.388109 0.683553 0.751780 0.012786 0.002608 78044.500000 0 0 1
20.204533 16.755539 26.319080 37.170758 0.692351 0.784051 0.013551 0.006366 459435.000000 0 0 1
20.106233 17.276839 24.997480 36.436572 0.709856 0.814744 0.005803 0.004026 -956675.000000 0 0 1
21.079333 18.327739 24.636880 37.245405 0.715686 0.848013 0.005338 0.004384 -954299.000000 0 0 1
20.875633 18.825139 23.335080 36.533599 0.733795 0.877951 0.003701 -0.003834 -55169.900000 0 0 1
21.975233 19.498639 22.752080 37.158646 0.725754 0.911835 0.026661 0.002596 658.618000 0 0 1
22.172533 20.940039 23.305080 38.382720 0.756818 0.918294 0.036627 -0.014611 -63949.400000 0 0 1
21.245333 21.885639 22.787680 38.073925 0.800243 0.929155 0.043611 -0.009331 174279.000000 0 0 1
21.447533 23.180439 23.373580 39.289358 0.824209 0.933644 0.049848 -0.008020 -224599.000000 0 0 1
20.561433 24.310189 22.862380 39.197528 0.868749 0.948059 0.052366 -0.015325 -361326.000000 0 0 1
21.116533 24.913179 21.731780 39.228111 0.867694 0.983653 0.059170 -0.012342 69465.100000 0 0 1
20.498533 26.136599 21.350780 39.486295 0.905712 0.999511 0.061670 -0.017153 -410462.000000 0 0 1
21.124333 26.749339 20.139680 39.590040 0.902359 1.037116 0.064933 -0.019117 -429024.000000 0 0 1
20.856533 26.024459 18.872080 38.320006 0.895190 1.055852 0.047629 -0.014345 208771.000000 0 0 1
21.354233 26.747929 17.742780 38.552059 0.897062 1.092543 0.050283 -0.023717 -187061.000000 0 0 1
21.143833 26.040869 16.393280 37.335347 0.888812 1.116220 0.030455 -0.005455 -791873.000000 0 0 1
19.884533 26.000759 15.773380 36.335019 0.917911 1.121747 0.033494 -0.010086 -511956.000000 0 0 1
19.901233 25.471769 14.489180 35.423247 0.907559 1.149405 0.034154 0.004841 503847.000000 0 0 1
18.415433 25.328059 14.013180 34.307550 0.942128 1.150033 0.028724 -0.000997 612452.000000 0 0 1
17.649733 26.494109 13.926380 34.747589 0.983134 1.158421 0.022553 -0.000725 -199703.000000 0 0 1
16.859433 26.751049 15.092480 35.037723 1.008442 1.125473 0.032238 0.001243 704734.000000 0 0 1
15.323733 26.531939 14.772680 34.014595 1.047042 1.121531 0.024014 -0.007587 507961.000000 0 0 1
14.854833 25.135599 14.659580 32.670594 1.037030 1.105476 0.024597 -0.001844 267422.000000 0 0 1
14.750333 24.404779 15.874580 32.636909 1.027145 1.062832 0.025104 0.004847 -256161.000000 0 0 1
13.628533 24.871049 16.830080 32.978138 1.069515 1.035216 0.041315 0.000265 -355298.000000 0 0 1
13.843033 26.188689 17.332780 34.320581 1.084541 1.041384 0.041338 -0.009565 -509234.000000 0 0 1
12.780233 26.717629 18.037580 34.677375 1.124623 1.023765 0.032452 -0.010616 -826068.000000 0 0 1
13.188833 27.989139 18.797080 36.203141 1.130443 1.024868 0.034322 -0.014249 -242618.000000 0 0 1
13.449933 29.075569 17.890980 36.693004 1.137526 1.061474 0.028342 -0.008424 208997.000000 0 0 1
14.129333 30.092819 18.605980 38.097222 1.131825 1.060562 0.031648 -0.010365 -178109.000000 0 0 1
14.214233 31.472769 17.896680 38.895639 1.146583 1.092665 0.014255 -0.014136 139390.000000 0 0 1
12.941233 32.030029 17.601880 38.771439 1.186817 1.099557 0.008988 0.003216 260616.000000 0 0 1
13.049833 33.250524 17.023380 39.568813 1.196798 1.126057 0.009066 0.002412 -487448.000000 0 0 1
11.676833 33.874847 16.745080 39.550618 1.238846 1.133619 0.010574 0.002186 -420096.000000 0 0 1
11.663033 -33.967975 16.190780 39.395317 -1.240055 1.147265 0.007588 0.000678 -309004.000000 0 0 1
12.149233 -32.799915 16.820580 38.811985 -1.216061 1.122549 0.010521 -0.001152 -220222.000000 0 0 1
11.690633 -32.587755 18.280580 39.151147 -1.226354 1.084988 0.016527 -0.010446 85143.500000 0 0 1
12.469233 -33.380545 19.207180 40.480345 -1.213299 1.076421 0.023927 -0.009326 740405.000000 0 0 1
12.096133 -33.036225 20.573680 40.755183 -1.219809 1.041633 0.022965 -0.016292 -422776.000000 0 0 1
12.917133 -33.751835 21.664780 42.135512 -1.205284 1.030758 0.047757 -0.019028 249481.000000 0 0 1
14.261233 -33.294265 21.524980 42.133308 -1.166101 1.034590 0.045178 -0.020800 -1596.280000 0 0 1
15.059233 -33.793385 22.550180 43.327636 -1.151585 1.023410 0.044141 -0.019283 1001540.000000 0 0 1
16.585233 -33.375845 22.507280 43.538427 -1.109613 1.027510 0.064309 -0.022850 1285020.000000 0 0 1
16.729633 -31.985105 22.823780 42.706586 -1.088884 1.006960 0.061050 -0.018981 -326671.000000 0 0 1
18.011833 -31.530665 22.500680 42.718726 -1.051786 1.016063 0.057932 -0.015856 -477343.000000 0 0 1
-4.496067 13.074145 18.381029 23.000220 -1.239575 0.644887 0.011316 -0.002232 -601417.000000 0 1 0
-4.197067 14.388945 17.895229 23.343015 -1.286984 0.697235 0.004687 -0.002747 -885036.000000 0 1 0
-5.330167 15.104645 17.665029 23.845633 -1.231556 0.736524 0.008181 -0.005184 -1126460.000000 0 1 0
-5.095767 16.610745 17.584329 24.720282 -1.273135 0.779405 0.015663 -0.009375 -121039.000000 0 1 0
-4.608167 17.196345 18.769329 25.869619 -1.308974 0.758984 -0.001114 -0.001604 291537.000000 0 0 1
-4.395267 18.568045 18.479329 26.562686 -1.338363 0.801420 -0.000280 0.001359 87630.800000 0 0 1
-3.693367 19.292945 19.689929 27.812803 -1.381649 0.784212 -0.012224 0.004244 625586.000000 0 0 1
-4.651367 19.499845 20.734929 28.841228 -1.336638 0.768529 -0.026970 0.013868 333678.000000 0 0 1
-4.065167 20.186245 21.766829 29.963393 -1.372071 0.757658 -0.033569 0.015838 -265079.000000 0 0 1
-5.033167 20.506645 22.935829 31.175431 -1.330113 0.744094 -0.046220 0.017662 23582.400000 0 0 1
-5.458467 19.389845 23.652329 31.067565 -1.296386 0.705451 -0.046585 0.010368 -24878.300000 0 0 1
-6.440167 19.717245 24.621989 32.194531 -1.255094 0.700084 -0.049574 0.003677 62374.400000 0 0 1
-5.937167 20.300745 25.939019 33.469432 -1.286271 0.684071 -0.046873 0.003407 -461976.000000 0 0 1
-5.427267 21.591445 25.710329 34.009804 -1.324536 0.713664 -0.047724 0.002866 -80248.900000 0 0 1
-4.555567 22.120745 26.683799 34.958628 -1.367695 0.702396 -0.031096 0.013010 229218.000000 0 0 1
-3.046967 21.752845 26.570449 34.474034 -1.431630 0.690798 -0.013291 0.015650 390335.000000 0 0 1
-2.621367 20.412545 27.003239 33.951708 -1.443076 0.651224 -0.008989 0.018266 616138.000000 0 0 1
-1.265867 20.141245 26.652209 33.430711 -1.508029 0.648092 -0.002291 0.019377 431050.000000 0 0 1
-0.622067 18.809045 27.018459 32.926650 -1.537736 0.608397 -0.000549 0.019984 -432089.000000 0 0 1
-1.151267 17.676645 26.344979 31.746608 -1.505759 0.591954 0.006724 0.017372 -222049.000000 0 0 1
-0.657467 16.378045 26.730279 31.355708 -1.530675 0.550075 0.007374 0.015311 -546653.000000 0 0 1
0.794833 16.161145 26.294989 30.874598 1.521654 0.551631 0.018430 0.014325 -570401.000000 0 0 1
1.024033 16.053045 24.907019 29.649764 1.507092 0.573437 0.009500 0.012688 -180070.000000 0 0 1
0.662533 14.787645 24.338449 28.486374 1.526023 0.546422 0.017734 0.008069 -228839.000000 0 0 1
1.036233 14.572845 22.798929 27.078271 1.499809 0.569883 0.013196 -0.002437 -378886.000000 0 0 1
2.405433 14.381645 22.568229 26.868993 1.405073 0.573631 0.020035 -0.002217 -435706.000000 0 0 1
2.629933 13.508945 21.494129 25.522651 1.378521 0.569522 0.008760 -0.008836 -343639.000000 0 0 1
4.091633 13.645545 21.083829 25.445436 1.279476 0.594212 0.005893 -0.008852 -434866.000000 0 0 1
4.605333 14.768245 20.432729 25.628238 1.268513 0.648031 -0.000139 -0.007801 -205446.000000 0 0 1
5.953933 14.643445 20.049929 25.531930 1.184619 0.667634 0.009945 -0.008154 -42082.000000 0 0 1
6.358333 15.899545 19.193329 25.721738 1.190370 0.728474 0.012075 -0.009611 22512.400000 0 0 1
5.836633 15.786745 17.880229 24.555859 1.216665 0.755184 0.001347 -0.013090 -14369.100000 0 1 0
6.291633 16.762745 17.059629 24.730653 1.211733 0.809560 -0.003621 -0.001859 -259081.000000 0 1 0
6.244533 16.226145 15.592529 23.353992 1.203423 0.839735 -0.011932 0.000412 230485.000000 0 1 0
7.255833 15.324245 15.147829 22.736234 1.128583 0.841639 -0.012571 0.000196 290251.000000 0 1 0
7.143333 13.998545 15.639529 22.171634 1.098950 0.787831 -0.009697 -0.011688 293.610000 0 1 0
8.314733 13.141145 15.090329 21.668930 1.006661 0.800422 -0.009938 -0.011397 971488.000000 0 1 0
9.626033 13.673745 15.328129 22.684430 0.957405 0.828867 -0.008158 -0.005199 828329.000000 0 1 0
10.532533 13.178445 14.329929 22.134871 0.896529 0.866639 -0.017224 -0.002027 694107.000000 0 1 0
11.978633 13.758745 14.415329 23.250644 0.854453 0.902057 -0.004527 0.011062 -9599.640000 0 1 0
12.637133 13.274845 15.592529 24.063366 0.810004 0.865870 0.005646 0.000478 724192.000000 0 1 0
14.005033 13.651645 15.701129 25.080547 0.772621 0.894347 0.010224 0.005152 550439.000000 0 0 1
15.070733 13.055545 14.763929 24.810237 0.713873 0.933438 0.004950 -0.001573 173779.000000 0 1 0
16.381633 13.594645 15.023329 26.055185 0.692692 0.956239 0.010444 -0.000549 915829.000000 0 0 1
17.384933 12.895945 14.298829 25.942201 0.638225 0.987018 0.017941 0.001302 362035.000000 0 0 1
18.769933 13.593645 14.399829 27.284660 0.626800 1.014832 0.017352 0.005578 134901.000000 0 0 1
19.397333 13.411945 15.632029 28.293058 0.604953 0.985431 0.003345 -0.001697 140520.000000 0 0 1
20.760933 13.799545 15.560529 29.386627 0.586632 1.012773 0.018184 0.004357 325386.000000 0 0 1
21.566933 13.513545 16.843529 30.519714 0.559739 0.986167 0.024484 0.003847 -8703.050000 0 0 1
21.891833 12.159345 17.119929 30.334700 0.507001 0.971129 0.015150 0.003536 187735.000000 0 0 1
22.846133 12.032945 18.141929 31.557363 0.484775 0.958330 0.005824 0.002976 -568574.000000 0 0 1
23.158733 10.538245 18.396129 31.397438 0.427041 0.944792 0.005062 0.013545 -329992.000000 0 0 1
22.152433 9.671845 18.930129 30.702193 0.411658 0.906415 -0.014906 0.007392 609925.000000 0 0 1
22.418633 8.319545 18.642129 30.320602 0.355347 0.908621 -0.015815 0.015757 -568079.000000 0 0 1
21.170633 7.572345 19.053129 29.471305 0.343502 0.867812 0.009392 0.013365 -566563.000000 0 0 1
21.153733 6.177445 18.720829 28.915579 0.284125 0.866588 0.019522 0.014379 595640.000000 0 0 1
19.847933 5.672545 18.983629 28.044543 0.278379 0.827240 0.009638 0.016277 109402.000000 0 0 1
19.603133 4.282045 18.388429 27.216779 0.215059 0.828980 0.028440 0.015528 -922469.000000 0 0 1
19.340133 4.251345 16.997729 26.096695 0.216378 0.861452 0.039113 0.007344 314643.000000 0 0 1
19.109333 2.914745 16.499629 25.414565 0.151363 0.864239 0.024308 0.003683 213810.000000 0 0 1
18.124533 1.898845 17.176929 25.042987 0.104386 0.814960 0.033195 0.007223 360833.000000 0 0 1
18.646433 1.160345 18.274129 26.133880 0.062149 0.796448 0.023439 0.000232 1166780.000000 0 0 1
17.463133 0.736345 19.027329 25.836843 0.042141 0.743001 0.021328 0.003744 1052570.000000 0 0 1
17.697033 -0.278755 20.197929 26.855521 -0.015750 0.719560 0.012614 -0.003548 -210737.000000 0 0 1
18.067233 -1.539155 19.715029 26.785748 -0.084985 0.743614 0.011155 0.000876 -68851.400000 0 0 1
17.364533 -2.609955 20.317029 26.853688 -0.149187 0.712726 0.015725 0.001917 -64363.300000 0 0 1
17.639833 -3.921355 19.574729 26.640397 -0.218744 0.745460 0.009542 0.004074 -550858.000000 0 0 1
16.930033 -4.018355 18.422429 25.340858 -0.233038 0.756875 -0.008559 0.005251 -136646.000000 0 0 1
17.128433 -5.276555 17.745429 25.221529 -0.298833 0.790370 0.013205 -0.000753 -549868.000000 0 0 1
16.666033 -5.168255 16.255829 23.847840 -0.300703 0.820784 -0.000812 -0.003117 -1452190.000000 0 1 0
15.336133 -4.928855 16.049029 22.738996 -0.310962 0.787254 -0.007988 0.001888 -1108930.000000 0 1 0
14.971733 -5.075555 14.663329 21.562172 -0.326850 0.822967 -0.005870 -0.000233 127086.000000 0 1 0
15.433833 -3.986355 13.662929 20.994520 -0.252763 0.862178 -0.005622 0.002062 -147143.000000 0 1 0
14.804133 -2.699555 13.807129 20.422702 -0.180370 0.828384 -0.000992 0.007069 448502.000000 0 1 0
15.457333 -1.704855 13.058129 20.306413 -0.109850 0.872316 0.013809 0.002340 -58014.000000 0 1 0
14.752333 -0.367155 13.306729 19.870460 -0.024883 0.837027 0.023190 0.006791 -213752.000000 0 1 0
15.311733 0.754545 12.679029 19.894127 0.049239 0.879774 0.036789 0.001772 -135050.000000 0 1 0
16.105033 1.541045 13.522629 21.085739 0.095397 0.874584 0.043081 -0.002523 -237491.000000 0 1 0
16.187033 3.012745 13.026729 20.995055 0.184015 0.901459 0.041909 -0.003384 565047.000000 0 1 0
15.037133 3.864045 13.178129 20.364413 0.251525 0.867001 0.040165 -0.002783 511117.000000 0 1 0
15.250233 5.136345 12.624529 20.453126 0.324871 0.905564 0.046836 -0.004386 -151101.000000 0 1 0
14.162633 6.169245 12.941229 20.152299 0.410815 0.873469 0.047518 -0.006182 -126024.000000 0 1 0
14.353433 7.335545 12.156129 20.189174 0.472461 0.924654 0.037338 -0.013722 935841.000000 0 1 0
13.274933 8.270245 12.383629 19.949312 0.557158 0.901091 0.019738 -0.010523 134812.000000 0 1 0
13.544033 9.294145 13.495529 21.259146 0.601416 0.883033 0.024323 -0.017899 -250554.000000 0 1 0
13.420933 8.755645 14.777229 21.797919 0.578052 0.825868 0.038002 -0.014021 513553.000000 0 1 0
13.803833 9.651845 15.830229 23.114932 0.610199 0.816400 0.041225 -0.009436 -145261.000000 0 1 0
13.327433 9.112645 17.197629 23.588540 0.599737 0.753838 0.046899 -0.008010 -577802.000000 0 1 0
11.973733 9.354545 17.440829 23.131371 0.663206 0.716681 0.028080 -0.014798 -606228.000000 0 1 0
11.444233 8.677845 18.587329 23.489663 0.648774 0.657867 0.045307 -0.009303 -132699.000000 0 1 0
11.975133 8.837445 20.040929 24.962834 0.635766 0.638768 0.054869 -0.004129 -916853.000000 0 1 0
13.192033 8.182145 20.169729 25.451821 0.555165 0.655953 0.041480 -0.001241 -637135.000000 0 0 1
13.835433 8.335345 21.380729 26.796133 0.542229 0.646987 0.037366 -0.000583 109856.000000 0 0 1
15.376833 8.136045 21.397829 27.577333 0.486664 0.682623 0.031501 0.002766 216363.000000 0 0 1
16.025833 9.282445 20.889629 27.917158 0.524998 0.725343 0.041261 0.009585 -686664.000000 0 0 1
17.227933 8.883345 20.332129 28.091119 0.476078 0.761514 0.035297 0.004364 -1001180.000000 0 0 1
17.937033 9.947945 19.515029 28.311396 0.506371 0.810275 0.034987 0.005415 -328573.000000 0 0 1
18.454233 10.870345 20.429029 29.598452 0.532324 0.809023 0.017076 0.007258 7318.840000 0 0 1
19.354633 11.743045 19.768429 30.054812 0.545354 0.852974 0.013945 0.011655 301748.000000 0 0 1
20.169333 12.658245 20.777429 31.602764 0.560466 0.853359 -0.003037 0.010708 -30359.400000 0 0 1
19.581733 13.942545 20.913829 31.862628 0.618746 0.854793 0.005978 0.005963 183311.000000 0 0 1
20.135933 14.824545 21.905029 33.242341 0.634626 0.851375 -0.004619 0.010558 383112.000000 0 0 1
21.530233 15.443545 21.551629 34.154454 0.622240 0.887948 -0.004234 0.013468 967087.000000 0 0 1
22.678233 14.625745 21.499929 34.503067 0.572799 0.898057 -0.005938 0.011569 893646.000000 0 0 1
23.935733 15.316145 21.516929 35.643819 0.569232 0.922706 0.002955 0.017047 439233.000000 0 0 1
25.156633 14.432245 21.319329 35.995273 0.520853 0.936909 0.005168 0.014614 -547100.000000 0 0 1
25.382333 13.871445 20.114129 35.231492 0.500152 0.963178 -0.003213 0.006211 -184196.000000 0 0 1
26.374933 12.898745 20.249129 35.665697 0.454852 0.967029 -0.003219 0.002734 -279101.000000 0 0 1
26.686733 12.139245 18.969929 34.919926 0.426904 0.996504 0.003029 0.003165 -177681.000000 0 0 1
27.299733 12.864945 17.876429 35.076330 0.440383 1.036026 0.002419 0.002668 408655.000000 0 0 1
27.386233 12.141545 16.630929 34.263839 0.417306 1.064000 0.008518 -0.002499 -424043.000000 0 0 1
26.108533 11.775845 15.863929 32.741263 0.423714 1.064977 0.001701 -0.012236 -340262.000000 0 0 1
25.570433 12.839045 15.133629 32.368424 0.465330 1.084287 0.016864 -0.008294 43403.000000 0 0 1
24.509833 12.459145 14.272829 30.978636 0.470291 1.091977 0.014745 -0.002312 199608.000000 0 0 1
24.103933 13.415845 13.124929 30.549112 0.507883 1.126709 0.015343 0.004605 -66608.400000 0 0 1
23.454433 14.543845 13.641629 30.785190 0.555060 1.111717 0.013020 0.001134 140718.000000 0 0 1
23.092233 15.433945 12.605329 30.501675 0.589175 1.144758 -0.002620 0.005558 13440.500000 0 0 1
22.357233 16.741345 12.991429 30.804151 0.642740 1.135430 0.011125 0.011536 -1084920.000000 0 0 1
21.091033 16.513845 13.502029 29.997392 0.664276 1.103911 0.026988 0.010859 -758126.000000 0 0 1
20.281933 17.626245 13.702029 30.162674 0.715457 1.099243 0.016297 0.010008 -890199.000000 0 0 1
19.703333 18.282445 12.386029 29.595318 0.748010 1.138989 0.028160 0.017446 -384567.000000 0 0 1
18.637533 17.574645 11.781829 28.196405 0.756055 1.139720 0.018687 0.017767 36911.200000 0 0 1
17.426733 17.607645 12.503729 27.750017 0.790562 1.103376 0.012990 0.018791 -1052290.000000 0 0 1
16.256333 16.987745 11.730729 26.276641 0.807396 1.108023 0.018922 0.011943 -359197.000000 0 0 1
16.245033 15.549345 11.752029 25.373084 0.763521 1.089229 0.016206 0.013639 -466908.000000 0 0 1
15.220533 15.109645 10.956729 24.083519 0.781742 1.098483 0.015418 0.000874 -684512.000000 0 1 0
15.449033 13.774045 10.307629 23.122373 0.728144 1.108744 0.027209 -0.000346 -183782.000000 0 1 0
15.337033 12.610945 11.067929 22.732346 0.688164 1.062282 0.011711 0.005172 543951.000000 0 1 0
16.007833 11.561945 10.403029 22.319326 0.625515 1.085919 0.031297 0.005058 -223689.000000 0 1 0
16.342033 10.297445 11.150629 22.303272 0.562273 1.047250 0.044146 -0.010877 -104677.000000 0 1 0
17.376333 9.504945 10.552229 22.441713 0.500541 1.081272 0.062815 -0.002269 788822.000000 0 1 0
17.748133 8.362545 11.297729 22.639944 0.440326 1.048332 0.056885 0.001238 16550.000000 0 1 0
18.946233 8.535645 12.241629 24.117928 0.423286 1.038430 0.035418 0.002539 -189685.000000 0 1 0
18.657033 9.378445 13.378629 24.799755 0.465786 1.000993 0.033995 0.003600 9210.140000 0 1 0
19.820533 9.505545 14.142029 26.138208 0.447179 0.999113 0.025499 0.003395 -721046.000000 0 0 1
19.460833 9.777545 15.615529 26.798678 0.465583 0.948752 0.027518 0.009667 120390.000000 0 0 1
18.956933 8.683145 16.405629 26.531245 0.429525 0.904153 0.043304 0.004727 -280542.000000 0 0 1
17.608233 8.470145 16.149429 25.349503 0.448359 0.880104 0.052844 -0.004246 -1253230.000000 0 0 1
17.236733 7.059345 16.631329 24.970791 0.388714 0.841921 0.044570 0.007832 615489.000000 0 1 0
15.852633 6.984645 17.013929 24.280960 0.415008 0.794403 0.037426 0.003287 751499.000000 0 1 0
15.447133 5.630245 17.090629 23.715041 0.349520 0.766034 0.047072 0.006966 -135653.000000 0 1 0
13.988833 5.526045 17.634729 23.177754 0.376217 0.706179 0.032422 0.000080 403606.000000 0 1 0
13.470133 4.183445 17.815329 22.722932 0.301127 0.669674 0.029357 0.000854 112145.000000 0 1 0
13.334333 3.468945 16.601529 21.574262 0.254510 0.692729 0.047159 -0.000408 -773197.000000 0 1 0
13.220933 1.946745 16.774229 21.446623 0.146197 0.672706 0.032185 0.002638 -397795.000000 0 1 0
14.409833 1.319945 17.155729 22.443364 0.091345 0.700685 0.021262 0.007352 -45513.800000 0 1 0
14.256233 -0.111355 17.042229 22.219139 -0.007811 0.696633 0.013450 0.012200 404879.000000 0 1 0
13.262933 -0.895955 17.988429 22.367202 -0.067451 0.636414 0.013698 0.009695 1105240.000000 0 1 0
11.876033 -0.591055 17.808629 21.413472 -0.049728 0.588714 0.011226 0.014172 626124.000000 0 1 0
11.118733 -1.537555 18.580829 21.708006 -0.137414 0.543423 0.006114 0.002822 133821.000000 0 1 0
-25.307867 14.421845 29.133549 41.197590 -0.517960 0.785314 0.031277 -0.013550 -845749.000000 0 0 1
-24.360767 14.401545 30.131309 41.336996 -0.533907 0.754055 0.036338 -0.016428 -131574.000000 0 0 1
-23.834367 13.089745 30.165379 40.612419 -0.502226 0.733610 0.042760 -0.006699 -756066.000000 0 0 1
-22.658767 12.911645 31.110139 40.595210 -0.517940 0.697656 0.039120 -0.020892 -834756.000000 0 0 1
-22.893467 13.040045 32.512589 41.847605 -0.517764 0.681024 0.043150 -0.022234 -19978.700000 0 0 1
-21.757367 13.170445 33.340845 41.933943 -0.544331 0.651657 0.028361 -0.013025 -322829.000000 0 0 1
-22.207667 13.393145 -34.374246 43.059791 -0.542686 2.495249 0.018565 -0.000647 204626.000000 0 0 1
-22.749467 12.241045 -33.741030 42.495159 -0.493646 2.488152 0.009065 -0.004770 210585.000000 0 0 1
-23.341767 12.526245 -32.482140 41.914607 -0.492532 2.457448 -0.005512 -0.001923 -31274.600000 0 0 1
-23.965567 11.284745 -31.834950 41.414465 -0.440076 2.447589 -0.017060 -0.003716 18255.300000 0 0 1
-23.008067 10.368945 -31.306660 40.211853 -0.423407 2.463137 -0.014873 -0.003066 357806.000000 0 0 1
-23.051767 9.081145 -31.928870 40.414154 -0.375276 2.481673 -0.019987 0.000282 -180920.000000 0 0 1
-22.304367 8.017345 -31.138860 39.132994 -0.345070 2.490990 -0.011382 0.003980 -387107.000000 0 0 1
-22.937967 7.578945 -29.960720 38.486822 -0.319118 2.463016 -0.013891 0.005454 -42854.100000 0 0 1
-22.145967 6.700045 -29.242360 37.288739 -0.293786 2.472225 -0.017773 0.012868 -497701.000000 0 0 1
-22.915467 5.978145 -28.123710 36.766831 -0.255190 2.441715 -0.015637 0.009274 322494.000000 0 0 1
-23.707167 4.855245 -28.589390 37.456059 -0.202007 2.439168 -0.008763 0.007042 387702.000000 0 0 1
-24.193867 4.084045 -27.565960 36.903994 -0.167228 2.414280 0.012802 0.004770 -543947.000000 0 0 1
-24.854267 2.800345 -28.014280 37.554978 -0.112197 2.412762 0.020866 0.006326 462657.000000 0 0 1
-26.203797 2.798645 -28.478940 38.801049 -0.106400 2.394950 0.003357 0.008013 570351.000000 0 0 1
-26.407007 3.330345 -29.832450 39.979948 -0.125454 2.413110 0.008451 0.003362 -522097.000000 0 0 1
-27.894547 3.153345 -30.162820 41.204915 -0.112567 2.392078 0.013788 -0.010631 -414347.000000 0 0 1
-28.797697 3.983445 -29.474140 41.399276 -0.137453 2.363065 0.024026 -0.003798 -431364.000000 0 0 1
-29.990537 4.112245 -30.196460 42.757093 -0.136268 2.354959 0.024646 -0.008317 -201737.000000 0 0 1
-30.078767 5.551745 -30.772920 43.388094 -0.182519 2.359227 0.022216 -0.024241 -470332.000000 0 0 1
-29.172257 5.689145 -31.862900 43.573287 -0.192602 2.390947 0.029494 -0.017506 339422.000000 0 0 1
-29.244777 6.964745 -32.528730 44.293147 -0.233798 2.395573 0.023836 -0.017095 -662088.000000 0 0 1
-28.790237 8.249645 -31.755110 43.649987 -0.279066 2.385459 0.008379 -0.014708 180416.000000 0 0 1
-27.373847 8.348245 -31.597080 42.630929 -0.296012 2.405619 -0.023615 -0.012377 619277.000000 0 0 1
-26.765407 7.573545 -30.605170 41.357248 -0.275752 2.403896 -0.020887 -0.009165 -890411.000000 0 0 1
-26.730507 8.194245 -29.203500 40.429074 -0.297455 2.377975 -0.024611 -0.001796 721864.000000 0 0 1
-28.005927 8.530345 -28.596540 40.925063 -0.295663 2.344450 -0.021682 0.000197 1122150.000000 0 0 1
-28.657327 7.432445 -27.972550 40.730175 -0.253765 2.327842 -0.018393 0.009410 401139.000000 0 0 1
-30.074267 7.760045 -27.375200 41.401466 -0.252521 2.293231 -0.008409 0.003821 600973.000000 0 0 1
-30.203657 8.624845 -26.277060 40.952811 -0.278154 2.267434 -0.027372 0.015386 -151360.000000 0 0 1
-30.070097 7.962445 -25.010220 39.913937 -0.258855 2.247984 -0.028699 0.015773 -165597.000000 0 0 1
-29.478757 8.856345 -23.912320 38.977314 -0.291853 2.231273 -0.031078 0.025720 -84571.900000 0 0 1
-30.268037 9.960445 -23.469120 39.574791 -0.317913 2.205616 -0.026129 0.022351 -23053.500000 0 0 1
-29.488667 10.668845 -22.568920 38.636277 -0.347144 2.194614 -0.026844 0.011366 -30624.300000 0 0 1
-30.296237 11.661845 -21.672820 39.032957 -0.367445 2.159453 -0.026141 0.021175 -55511.900000 0 0 1
-31.022507 11.036445 -20.650820 38.867151 -0.341793 2.130952 -0.037809 0.014415 -331473.000000 0 0 1
-31.650077 11.958745 -19.833220 39.218561 -0.361260 2.101001 -0.027578 0.015058 -186413.000000 0 0 1
-30.835337 12.792845 -18.764320 38.295882 -0.393264 2.082866 -0.040932 0.023660 -79146.200000 0 0 1
-30.218967 12.001945 -17.739920 37.039673 -0.378061 2.070247 -0.031804 0.023412 223434.000000 0 0 1
-30.966037 11.739745 -16.562720 37.027567 -0.362375 2.034549 -0.029800 0.018645 -198757.000000 0 0 1
-31.391077 12.904245 -15.641120 37.370628 -0.390021 2.002634 -0.030085 0.019283 11722.100000 0 0 1
-32.196087 13.922045 -16.244320 38.656038 -0.408134 2.004492 -0.028491 0.019474 383909.000000 0 0 1
-32.844607 14.725645 -15.302320 39.112323 -0.421475 1.972775 -0.022141 0.013654 -359066.000000 0 0 1
-33.454857 15.984845 -15.846020 40.321695 -0.445733 1.974677 -0.016235 0.018201 -267306.000000 0 0 1
-34.564347 15.754845 -16.675520 41.484722 -0.427677 1.984461 -0.005693 0.009115 291052.000000 0 0 1
-35.049158 16.995545 -17.264420 42.606950 -0.451500 1.987996 -0.000540 0.002943 -414444.000000 0 0 1
34.824926 16.703545 -18.735220 42.927757 0.447230 2.022430 -0.001048 -0.002343 438072.000000 0 0 1
33.708522 15.825145 -18.946820 41.781355 0.438927 2.041457 0.028922 -0.014779 877203.000000 0 0 1
32.474412 16.531345 -18.825820 41.015659 0.470867 2.047656 0.074136 -0.024402 -836512.000000 0 0 1
31.284242 15.713945 -19.273720 39.963835 0.465483 2.074051 0.079324 -0.028830 -857126.000000 0 0 1
30.976742 15.575145 -20.636220 40.348448 0.465886 2.107668 0.073819 -0.026994 551087.000000 0 0 1
29.881372 14.672445 -20.836720 39.272712 0.456440 2.130063 0.050349 -0.025090 293892.000000 0 0 1
30.201972 13.151445 -20.754620 38.934225 0.410688 2.133020 0.038040 0.006682 -127383.000000 0 0 1
30.366092 12.753745 -19.398720 38.223918 0.397628 2.103080 0.040351 0.001832 68114.700000 0 0 1
31.095522 11.538445 -19.408520 38.428607 0.355316 2.100241 0.039547 0.015859 -230510.000000 0 0 1
31.433212 11.002245 -18.000020 37.856267 0.336692 2.066310 0.030948 0.017495 -270976.000000 0 0 1
30.418442 10.350345 -17.244920 36.466403 0.327976 2.063374 0.029411 0.009035 -107520.000000 0 0 1
30.662002 10.179945 -15.834520 35.979462 0.320555 2.026505 -0.002488 0.009968 -250564.000000 0 0 1
30.205362 11.364745 -14.941320 35.563526 0.359865 2.004385 0.018178 -0.002256 208978.000000 0 0 1
28.801882 11.405445 -14.732520 34.302766 0.377050 2.014719 0.006875 0.010240 344735.000000 0 0 1
28.447692 12.218645 -13.605020 33.818087 0.405687 1.984824 0.010084 0.004444 97880.600000 0 0 1
26.945912 12.533745 -13.475720 32.630844 0.435377 1.996514 0.028241 0.003925 102935.000000 0 0 1
26.081892 11.489445 -13.037120 31.340691 0.414938 1.999817 0.011871 0.009829 1517090.000000 0 0 1
24.738102 11.632445 -13.591920 30.529130 0.439544 2.032207 0.010029 0.014454 1095510.000000 0 0 1
24.501902 10.746945 -14.813320 30.582258 0.413347 2.076446 -0.007934 0.011937 -550660.000000 0 0 1
24.742302 9.409245 -14.571720 30.216724 0.363400 2.074006 -0.020008 0.014939 306645.000000 0 0 1
26.006732 8.861245 -14.900020 31.255117 0.328392 2.067719 -0.018331 0.012841 123556.000000 0 0 1
26.440072 7.633445 -14.016720 30.883901 0.281065 2.041880 -0.029374 0.011680 219169.000000 0 0 1
25.710382 6.441945 -14.386620 30.157872 0.245504 2.068084 -0.013919 0.007349 616927.000000 0 0 1
25.899942 5.503545 -13.378720 29.666246 0.209378 2.038653 -0.031554 0.003712 -392055.000000 0 0 1
25.048302 4.265445 -13.520120 28.782027 0.168671 2.059795 -0.023300 0.004184 -656667.000000 0 0 1
24.645802 3.823745 -12.296020 27.806990 0.153921 2.028837 -0.034846 0.000133 -132007.000000 0 0 1
23.885902 2.626645 -12.410420 27.045408 0.109526 2.047523 -0.028958 -0.002819 -148029.000000 0 0 1
23.116402 2.327445 -11.093320 25.745811 0.100346 2.016263 -0.033700 0.000335 -367436.000000 0 0 1
23.880702 2.037445 -9.934020 25.944631 0.085112 1.963722 -0.032418 0.002687 -7624.180000 0 0 1
23.122602 2.111545 -8.763120 24.817446 0.091067 1.931682 -0.029463 0.008448 -701481.000000 0 1 0
23.839402 1.553745 -7.507920 25.041966 0.065083 1.875293 -0.022018 0.012610 -233434.000000 0 0 1
23.926202 0.106545 -7.357620 25.032161 0.004453 1.869129 -0.025855 0.007042 558901.000000 0 0 1
24.862402 -0.520855 -8.225820 26.193023 -0.020946 1.890248 -0.014718 0.001347 -544976.000000 0 0 1
24.931702 -2.061555 -8.021420 26.271333 -0.082500 1.881081 -0.007455 -0.003048 -720588.000000 0 0 1
25.547542 -2.500555 -6.839020 26.565050 -0.097568 1.831173 0.011229 0.001603 348607.000000 0 0 1
25.402522 -3.884955 -6.708320 26.559039 -0.151760 1.826144 0.012487 0.006655 -1211640.000000 0 0 1
26.466632 -4.411455 -5.800520 27.451586 -0.165162 1.783701 0.010263 -0.001332 -636016.000000 0 0 1
27.713582 -4.119955 -6.391220 28.737856 -0.147581 1.795069 0.012724 -0.007102 1149620.000000 0 0 1
28.905342 -4.517855 -5.652820 29.797386 -0.155044 1.761662 0.025351 -0.004024 1671340.000000 0 0 1
30.216462 -4.774955 -6.445720 31.263111 -0.156729 1.778462 0.041173 -0.007519 265266.000000 0 0 1
30.060202 -5.815855 -7.349120 31.487291 -0.191112 1.806369 0.023493 -0.006692 214528.000000 0 0 1
31.000222 -5.768555 -8.417020 32.636425 -0.183977 1.831647 0.018514 -0.013477 -477708.000000 0 0 1
30.645842 -6.758455 -9.591220 32.815177 -0.217060 1.867406 0.012926 -0.007511 730916.000000 0 0 1
29.438062 -6.424555 -10.290420 31.839710 -0.214871 1.899900 0.012429 -0.005556 1756610.000000 0 0 1
28.227952 -6.884755 -9.608420 30.602922 -0.239228 1.890169 0.020889 -0.011993 983517.000000 0 0 1
27.082322 -5.828555 -9.490820 29.283099 -0.211983 1.900863 0.013388 -0.004860 -765269.000000 0 0 1
26.408522 -5.571955 -10.713220 29.038419 -0.207941 1.948657 0.000049 -0.000634 777930.000000 0 0 1
25.192902 -4.836755 -10.477020 27.710006 -0.189681 1.958534 -0.006667 0.001497 1404090.000000 0 0 1
23.991102 -5.793455 -10.072720 26.657021 -0.236947 1.958284 0.012987 -0.001762 -716628.000000 0 0 1
24.071102 -6.320655 -8.761120 26.384197 -0.256786 1.909282 0.009820 -0.002167 1077860.000000 0 0 1
22.894502 -7.053855 -8.377120 25.378953 -0.298874 1.907186 0.011320 -0.009320 994317.000000 0 0 1
21.688202 -6.360755 -7.656520 23.863353 -0.285282 1.897421 0.002438 -0.003199 577422.000000 0 1 0
21.113402 -5.334355 -8.491620 23.373889 -0.247474 1.942599 0.000514 -0.001508 750343.000000 0 1 0
21.395902 -4.052255 -8.007520 23.201848 -0.187177 1.923167 0.008717 0.002130 -256070.000000 0 1 0
21.240902 -2.895855 -9.036020 23.263954 -0.135499 1.969705 0.007517 0.006727 -502079.000000 0 1 0
22.218102 -2.947155 -10.037920 24.557883 -0.131877 1.991875 -0.014403 0.003592 315164.000000 0 1 0
22.075102 -1.975355 -11.111620 24.792746 -0.089246 2.035525 -0.008926 -0.003391 -354633.000000 0 1 0
23.360002 -2.033455 -11.954320 26.319772 -0.086830 2.042265 -0.006312 -0.007383 -188599.000000 0 0 1
24.412702 -1.295155 -11.362920 26.958735 -0.053003 2.005887 -0.017877 -0.005487 160363.000000 0 0 1
25.592342 -1.410255 -12.108020 28.347150 -0.055049 2.012117 -0.004593 -0.006230 -149691.000000 0 0 1
26.718092 -0.404755 -11.743220 29.187728 -0.015148 1.984861 -0.008388 -0.002803 -102952.000000 0 0 1
27.853412 -0.519255 -12.586520 30.569636 -0.018640 1.995151 -0.000146 -0.005286 162334.000000 0 0 1
28.840082 0.409245 -12.209820 31.320880 0.014189 1.971243 0.015087 -0.005375 -135515.000000 0 0 1
28.703372 1.693445 -13.078720 31.588039 0.058930 1.997685 0.010886 -0.003846 -251984.000000 0 0 1
29.062702 1.462845 -14.465220 32.496510 0.050292 2.032117 0.017367 -0.003670 358383.000000 0 0 1
28.915942 2.661245 -15.208620 32.779812 0.091775 2.053260 0.011304 0.001200 -29580.100000 0 0 1
29.272492 2.416645 -16.690320 33.782921 0.082370 2.087534 0.014474 -0.007697 -420550.000000 0 0 1
28.222962 1.873545 -17.414320 33.216025 0.066286 2.122659 0.008589 0.006551 -505186.000000 0 0 1
28.596322 1.732645 -18.796720 34.264681 0.060516 2.151454 0.001632 0.003612 -110756.000000 0 0 1
27.633842 0.966845 -19.726620 33.966212 0.034973 2.190473 0.001104 0.008166 -133383.000000 0 0 1
27.384172 -0.370355 -19.431520 33.579964 -0.013524 2.187886 0.007191 0.006194 110198.000000 0 0 1
26.691532 -1.081155 -20.431920 33.631386 -0.040483 2.223738 -0.003329 0.006369 -295904.000000 0 0 1
26.527902 -2.606255 -20.292020 33.500570 -0.097932 2.221469 -0.010978 0.003531 559086.000000 0 0 1
25.333002 -3.026655 -19.598220 32.171600 -0.118911 2.225820 0.002801 -0.000189 752022.000000 0 0 1
25.128702 -4.442355 -19.610820 32.183388 -0.174976 2.226032 0.004486 -0.002401 -134284.000000 0 0 1
26.043322 -5.342355 -18.748820 32.531733 -0.202327 2.185020 -0.009521 0.003244 -3400.720000 0 0 1
27.427492 -5.321555 -19.010420 33.793229 -0.191642 2.168265 -0.015998 0.000185 -255367.000000 0 0 1
28.095952 -5.462455 -17.778220 33.694006 -0.192026 2.126613 -0.015161 0.011202 178146.000000 0 0 1
29.639862 -5.317955 -17.841920 35.001945 -0.177530 2.105680 -0.004555 0.013319 393394.000000 0 0 1
30.235772 -6.368655 -18.579720 36.055064 -0.207598 2.112172 -0.014475 0.014420 332669.000000 0 0 1
31.633972 -6.204955 -18.796820 37.316619 -0.193689 2.098686 -0.015050 0.014613 295652.000000 0 0 1
32.224502 -7.395155 -19.497820 38.383223 -0.225583 2.103632 -0.021753 0.026490 -290946.000000 0 0 1
32.472492 -8.430855 -18.577120 38.349073 -0.254022 2.076498 -0.019065 0.018679 325970.000000 0 0 1
33.231522 -9.515255 -19.132120 39.508381 -0.278871 2.076307 -0.016726 0.019999 -62160.300000 0 0 1
34.011562 -10.320555 -18.074720 39.874750 -0.294612 2.041246 -0.013928 0.017641 -1208170.000000 0 0 1
33.292632 -11.150755 -17.228620 39.109641 -0.323188 2.026975 -0.015435 0.019308 -174937.000000 0 0 1
34.023892 -11.896155 -16.244920 39.535315 -0.336355 1.994233 0.004486 0.002314 -176867.000000 0 0 1
35.034581 -11.181255 -15.230920 39.804814 -0.308931 1.963449 0.001622 -0.001587 5016.840000 0 0 1
-34.796306 -11.967055 -14.168920 39.430339 0.331246 1.938357 -0.006686 0.000634 457850.000000 0 0 1
-34.155536 -13.217955 -14.539120 39.404327 0.369243 1.948700 -0.007243 0.005352 -46599.700000 0 0 1
-32.711857 -13.128255 -15.139720 38.361801 0.381653 1.976490 -0.018254 0.009093 -146964.000000 0 0 1
-32.646737 -12.570855 -16.424220 38.647003 0.367558 2.009737 -0.020961 0.014508 -30931.300000 0 0 1
-31.342227 -12.584655 -16.969920 37.797975 0.381819 2.036402 -0.014545 0.013032 -194822.000000 0 0 1
-31.221917 -11.819255 -18.320220 38.080616 0.361885 2.072694 -0.010143 0.016710 14570.200000 0 0 1
-31.309047 -10.411455 -18.231120 37.696532 0.321035 2.075592 0.002281 0.008052 180588.000000 0 0 1
-32.604687 -9.881555 -18.008120 38.535738 0.294272 2.057042 -0.008356 0.005983 -386979.000000 0 0 1
-32.752397 -8.374455 -17.927420 38.265433 0.250327 2.058390 -0.006557 0.005283 -148290.000000 0 0 1
-34.116231 -8.102755 -17.665720 39.263845 0.233184 2.037476 -0.001220 0.005862 120414.000000 0 0 1
-34.408328 -6.663355 -17.716620 39.271006 0.191288 2.038836 0.003206 0.005377 -38133.100000 0 0 1
23.810433 27.498245 -27.902210 45.843467 0.857150 2.225143 -0.006292 0.030987 15594.500000 0 0 1
24.078333 26.634145 -26.800510 44.804142 0.835754 2.212012 -0.007801 0.020623 -364947.000000 0 0 1
25.286133 25.993845 -27.089290 45.264756 0.799198 2.212378 -0.003466 0.019375 -329824.000000 0 0 1
25.884333 25.224645 -25.861730 44.442215 0.772491 2.191882 0.002452 0.003954 -119990.000000 0 0 1
26.237933 26.019645 -24.744220 44.471648 0.781221 2.160849 0.007338 0.010530 92400.900000 0 0 1
26.562933 25.211045 -23.647220 43.593316 0.759293 2.144148 0.014557 0.006328 -23499.800000 0 0 1
27.265433 25.908645 -22.480720 43.818312 0.759888 2.109524 0.011106 0.009610 -202361.000000 0 0 1
26.430733 26.794645 -21.804920 43.497025 0.792235 2.095893 0.002078 0.015138 24626.500000 0 0 1
27.136133 27.534545 -20.783720 43.891729 0.792686 2.064082 -0.010192 0.019987 100687.000000 0 0 1
26.265533 28.616645 -20.188220 43.776190 0.828211 2.050108 -0.009219 0.028869 -118216.000000 0 0 1
25.369733 28.213245 -19.162120 42.506439 0.838416 2.038463 -0.001214 0.022172 -255077.000000 0 0 1
24.707533 29.326445 -18.676420 42.653385 0.870672 2.024019 -0.003053 0.017772 -766484.000000 0 0 1
23.638033 28.949645 -17.665720 41.339040 0.886062 2.012342 -0.001808 0.016997 -425981.000000 0 0 1
22.626733 28.186945 -18.313720 40.519936 0.894388 2.039767 0.008227 0.013225 -825141.000000 0 0 1
21.577733 28.024645 -17.430820 39.431114 0.914645 2.028687 -0.002030 0.011167 -608170.000000 0 0 1
20.700533 26.861245 -17.993420 38.390125 0.914212 2.058614 -0.007072 0.008175 -189347.000000 0 0 1
20.110833 27.098345 -19.266320 38.858165 0.932343 2.089565 -0.014007 0.010593 435736.000000 0 0 1
19.297633 25.948945 -19.665120 37.847897 0.931354 2.117159 -0.010480 0.012995 564956.000000 0 0 1
18.492333 26.230245 -20.992620 38.349475 0.956722 2.150054 -0.017453 0.015152 182903.000000 0 0 1
17.528533 27.223545 -20.834520 38.502572 0.998740 2.142565 -0.028836 0.024468 -1143300.000000 0 0 1
16.585933 27.241845 -21.839520 38.654572 1.023902 2.171220 -0.024520 0.019202 -1112130.000000 0 0 1
15.516633 28.256245 -21.512820 38.755421 1.068614 2.159270 -0.023998 0.028352 -731485.000000 0 0 1
14.906333 27.906945 -20.303020 37.592672 1.080208 2.141328 -0.019944 0.027248 -689319.000000 0 0 1
14.152233 28.977845 -19.850220 37.868621 1.116487 2.122556 -0.026969 0.025844 -372548.000000 0 0 1
13.767833 28.818345 -18.392320 36.855497 1.125110 2.093285 -0.018096 0.021095 -83908.100000 0 0 1
12.837933 27.750645 -18.310620 35.639720 1.137499 2.110370 -0.020843 0.023495 -255829.000000 0 0 1
12.314733 27.651145 -17.036820 34.734589 1.151807 2.083443 -0.005843 0.020666 348441.000000 0 0 1
11.399733 26.416845 -16.690820 33.262397 1.163405 2.096466 0.013124 0.019831 194253.000000 0 0 1
12.083633 25.245445 -16.387820 32.433121 1.124377 2.100503 0.002702 0.022060 -467182.000000 0 0 1
11.174133 24.171645 -16.204320 31.172258 1.137775 2.117450 0.029692 0.016050 -38042.300000 0 0 1
11.822133 22.817745 -16.381720 30.475778 1.092765 2.138304 0.011002 0.016965 -46274.000000 0 0 1
12.071933 22.630945 -17.748520 31.191364 1.080767 2.176110 0.003051 0.022274 -251479.000000 0 0 1
13.125933 21.729545 -17.971820 31.103851 1.027397 2.186828 0.006236 0.017950 -281419.000000 0 0 1
12.683133 20.289945 -18.235120 30.084270 1.012129 2.221988 0.024896 0.011798 -16355.500000 0 0 1
12.140133 19.716345 -17.056620 28.758396 1.018884 2.205701 0.031698 0.005322 -463.177000 0 0 1
11.642733 18.420845 -17.184020 27.751960 1.007150 2.238520 0.025962 0.003431 -134363.000000 0 0 1
12.735033 17.328545 -17.192020 27.532255 0.937019 2.245200 0.012689 0.004196 63521.100000 0 0 1
13.337533 17.014845 -15.945120 26.863387 0.905965 2.206276 0.012479 -0.000444 -358163.000000 0 0 1
14.246533 15.995845 -16.127320 26.812706 0.843177 2.216149 0.009789 0.004247 -1118790.000000 0 0 1
14.713933 15.386845 -14.825820 25.943395 0.807750 2.179090 0.018479 0.012296 10471.000000 0 0 1
15.500333 16.184745 -13.861320 26.350379 0.806995 2.124732 -0.002234 0.016911 1529800.000000 0 0 1
16.781133 16.709745 -14.232120 27.629246 0.783267 2.111933 -0.024323 0.019230 964957.000000 0 0 1
17.906633 15.644345 -14.639020 27.923000 0.718072 2.122647 -0.027293 0.015408 154436.000000 0 0 1
18.324633 14.707545 -13.650320 27.174166 0.676331 2.097084 -0.005798 0.015343 59563.700000 0 0 1
19.051933 15.252945 -12.599420 27.465867 0.675106 2.047362 -0.019704 0.015485 -848028.000000 0 0 1
19.563733 14.123845 -11.709020 26.820212 0.625300 2.022584 -0.007198 0.013257 -156237.000000 0 0 1
18.536933 13.316245 -11.121320 25.389447 0.622944 2.024202 0.010318 0.007501 52109.500000 0 0 1
18.990733 12.275545 -10.260320 24.831655 0.573838 1.996756 0.014246 0.008163 -215643.000000 0 1 0
19.714433 11.036745 -10.833320 25.056525 0.510359 2.017899 0.014592 0.007013 -213857.000000 0 0 1
20.958233 11.266345 -11.453120 26.407423 0.493244 2.019401 0.003615 0.007460 311140.000000 0 0 1
21.378133 10.258145 -12.418720 26.767120 0.447392 2.053250 -0.002634 0.008321 257016.000000 0 0 1
22.271933 9.111845 -11.853620 26.824858 0.388342 2.028500 -0.008075 0.013899 -34580.500000 0 0 1
21.493533 8.267545 -11.008120 25.524556 0.367206 2.016703 0.000093 0.011773 650950.000000 0 0 1
22.241333 7.270545 -10.337320 25.581202 0.315943 1.986789 -0.009508 0.012609 -993695.000000 0 0 1
22.544433 6.015745 -11.210820 25.886737 0.260764 2.018694 -0.003714 0.012871 668983.000000 0 0 1
21.379033 5.190445 -11.492720 24.821087 0.238174 2.052198 0.017010 0.006308 1336870.000000 0 1 0
20.437933 5.744845 -12.407620 24.589863 0.274017 2.099695 -0.010687 0.003207 -362048.000000 0 1 0
19.422433 4.684645 -12.850420 23.755212 0.236677 2.142364 -0.003678 -0.006844 -214233.000000 0 1 0
19.942633 3.686045 -13.658720 24.451097 0.182770 2.163510 -0.009272 0.000793 786976.000000 0 1 0
18.891733 2.738645 -13.902020 23.614909 0.143962 2.200242 -0.001178 0.005284 485194.000000 0 1 0
19.443933 1.578445 -14.753620 24.458686 0.081002 2.218311 0.010585 0.000711 2301.760000 0 1 0
20.285133 0.692145 -14.041220 24.680388 0.034108 2.175991 0.002011 -0.004736 208790.000000 0 1 0
21.483133 0.584545 -14.802620 26.095675 0.027203 2.173952 -0.004436 -0.007613 -139396.000000 0 0 1
21.823133 -0.890255 -15.109820 26.558395 -0.040771 2.175998 0.009720 -0.010472 -92304.700000 0 0 1
20.956533 -1.495655 -16.071220 26.451793 -0.071249 2.223789 0.001641 -0.006564 192976.000000 0 0 1
21.684233 -2.440255 -16.840420 27.563754 -0.112064 2.228072 0.011110 -0.011645 -361453.000000 0 0 1
20.840933 -3.244855 -17.795220 27.596076 -0.154456 2.271618 0.009473 -0.008456 -404354.000000 0 0 1
20.001033 -4.126055 -17.118520 26.647877 -0.203438 2.268418 0.019602 -0.016273 93856.900000 0 0 1
19.027333 -4.779555 -17.912920 26.566073 -0.246102 2.310783 0.025796 -0.014381 404109.000000 0 0 1
18.035333 -5.712555 -17.195920 25.565723 -0.306745 2.308535 0.035145 -0.020470 -279653.000000 0 0 1
18.803533 -6.758555 -16.746020 26.070675 -0.345051 2.268333 0.036110 -0.009028 51849.500000 0 0 1
18.050733 -7.844955 -16.274220 25.538647 -0.409979 2.261707 0.046451 -0.002186 -168496.000000 0 0 1
18.936433 -8.944955 -15.659620 26.150036 -0.441298 2.212845 0.047822 -0.003712 14581.100000 0 0 1
19.669133 -9.656355 -16.639820 27.513698 -0.456373 2.220290 0.061226 -0.008427 411090.000000 0 0 1
20.441033 -10.657555 -16.001820 28.062030 -0.480605 2.177582 0.056229 -0.009290 -442283.000000 0 0 1
21.090433 -11.647855 -16.951620 29.459061 -0.504593 2.183926 0.048728 -0.008812 -354847.000000 0 0 1
22.004133 -11.070255 -17.868420 30.430459 -0.466124 2.198378 0.041475 -0.003129 346866.000000 0 0 1
22.571033 -12.071355 -18.717020 31.709556 -0.491111 2.202183 0.043418 0.002181 -346030.000000 0 0 1
21.892233 -12.142955 -20.139520 32.129760 -0.506421 2.248259 0.045640 -0.000648 674562.000000 0 0 1
20.546233 -12.602355 -20.137520 31.408387 -0.550189 2.266794 0.043021 0.002678 134872.000000 0 0 1
20.316933 -13.994555 -20.060920 31.797261 -0.603178 2.253510 0.034432 0.000811 -942892.000000 0 0 1
18.823233 -14.270455 -20.049120 30.982692 -0.648684 2.274580 0.035233 -0.000322 -774601.000000 0 0 1
18.212533 -13.651455 -21.104920 31.039913 -0.643222 2.318461 0.035893 0.006440 -1018930.000000 0 0 1
16.831833 -13.874855 -21.147620 30.381640 -0.689397 2.340700 0.048954 0.007417 -217762.000000 0 0 1
16.205233 -13.241055 -22.420720 30.669591 -0.685072 2.390642 0.049695 0.004324 -221461.000000 0 0 1
16.453433 -14.026555 -23.575820 31.988732 -0.705944 2.399423 0.044044 0.002004 305072.000000 0 0 1
16.056633 -13.236355 -24.699120 32.296487 -0.689416 2.441468 0.057249 -0.004501 -8080.180000 0 0 1
15.997833 -13.987955 -26.096510 33.654441 -0.718471 2.458185 0.047027 -0.012408 -600958.000000 0 0 1
14.952133 -14.912155 -26.181540 33.636463 -0.784060 2.462858 0.046648 -0.014127 41017.100000 0 0 1
14.801633 -15.696855 -27.423540 34.893124 -0.814743 2.474994 0.042500 -0.016545 -417606.000000 0 0 1
15.655933 -16.961355 -27.338060 35.779398 -0.825399 2.440399 0.039049 -0.014335 -643191.000000 0 0 1
17.029233 -16.697455 -27.424990 36.344599 -0.775561 2.425814 0.039966 -0.011859 -823683.000000 0 0 1
17.790933 -17.812055 -27.271190 37.114746 -0.785991 2.396139 0.026006 -0.004099 -1011530.000000 0 0 1
19.285433 -17.592355 -27.367950 37.820941 -0.739520 2.379828 0.008783 -0.000304 -552244.000000 0 0 1
19.886533 -16.888755 -26.293390 37.041147 -0.704062 2.360071 0.012998 0.003099 -929118.000000 0 0 1
21.256833 -16.760255 -26.456490 37.851089 -0.667667 2.344742 0.016022 0.007005 -685833.000000 0 0 1
21.932833 -16.160055 -25.175860 37.094750 -0.634998 2.316775 0.017001 0.009570 -116066.000000 0 0 1
21.664033 -14.814355 -24.822320 36.123995 -0.599786 2.328344 0.026968 0.002550 -325339.000000 0 0 1
20.325333 -14.542455 -24.462220 34.971451 -0.621043 2.345482 0.035777 0.002034 193906.000000 0 0 1
20.174333 -13.242555 -23.722620 33.839794 -0.580865 2.347633 0.036200 0.002960 41502.800000 0 0 1
20.545533 -12.167355 -24.495820 34.208312 -0.534675 2.368964 0.035533 -0.002398 -57633.700000 0 0 1
19.949133 -11.032555 -23.944720 33.061077 -0.505170 2.380753 0.043195 0.000450 2531.500000 0 0 1
19.869633 -9.858255 -24.898120 33.345223 -0.460560 2.413849 0.048160 -0.000874 -89211.000000 0 0 1
19.466333 -8.665855 -24.183420 32.231552 -0.418831 2.419316 0.045372 0.004204 273852.000000 0 0 1
19.596933 -7.539755 -25.051120 32.687097 -0.367284 2.444001 0.031749 -0.000492 -169174.000000 0 0 1
19.334233 -6.208655 -24.256520 31.634455 -0.310721 2.444599 0.033119 -0.002900 269024.000000 0 0 1
17.985233 -6.180055 -23.775620 30.445719 -0.330978 2.466931 0.049018 0.000948 518355.000000 0 0 1
17.663833 -5.219355 -22.756720 29.276628 -0.287307 2.461159 0.038899 0.003896 87958.900000 0 0 1
18.240733 -5.515255 -21.313120 28.590059 -0.293620 2.412041 0.030689 -0.000470 -116004.000000 0 0 1
17.636833 -6.499855 -20.505820 27.817164 -0.353094 2.399660 0.044085 0.003829 87408.400000 0 0 1
17.772133 -7.866455 -20.922820 28.556859 -0.416707 2.393037 0.055467 0.004566 -196540.000000 0 0 1
17.421433 -8.946555 -19.907820 27.926125 -0.474419 2.364385 0.052509 -0.000115 701054.000000 0 0 1
16.016733 -9.048655 -19.655220 26.921024 -0.514249 2.389274 0.043187 0.000355 312548.000000 0 0 1
15.822433 -10.246855 -18.948120 26.727863 -0.574697 2.358773 0.050890 0.001374 337729.000000 0 0 1
14.355733 -10.768955 -18.638520 25.873768 -0.643597 2.375123 0.052550 0.001187 1396340.000000 0 0 1
13.513733 -10.017655 -17.752220 24.456404 -0.637906 2.383098 0.048537 0.004784 312051.000000 0 1 0
13.469433 -8.643255 -17.928320 24.032398 -0.570514 2.412841 0.033503 -0.005289 -956291.000000 0 1 0
12.247233 -7.910655 -17.320420 22.640011 -0.573497 2.441893 0.032044 0.000036 645809.000000 0 1 0
11.048533 -7.927155 -18.101420 22.640037 -0.622365 2.497311 0.025181 -0.004056 128581.000000 0 1 0
10.186933 -6.912255 -17.652120 21.520925 -0.596179 2.532610 0.007388 -0.004454 800860.000000 0 1 0
8.785033 -6.867255 -18.383420 21.500840 -0.663482 2.596365 0.007295 0.004709 881811.000000 0 1 0
8.788533 -6.517455 -19.761120 22.587992 -0.638095 2.635924 0.021745 -0.001915 1004470.000000 0 1 0
7.484633 -6.030555 -20.182420 22.354360 -0.678222 2.697127 0.024941 0.001663 1180670.000000 0 1 0
7.299533 -5.773455 -21.722720 23.632446 -0.669189 2.736816 0.032698 -0.006483 -128203.000000 0 1 0
7.151533 -6.946455 -22.556620 24.661686 -0.770853 2.725418 0.034715 -0.010189 106853.000000 0 1 0
6.358433 -6.583255 -23.660120 25.368685 -0.802768 2.772488 0.040400 -0.014476 -351230.000000 0 0 1
6.193833 -7.843055 -24.553920 26.509848 -0.902354 2.755052 0.034738 -0.017637 -197255.000000 0 0 1
5.523533 -8.952655 -24.029620 26.231319 -1.017991 2.728954 0.030798 -0.013937 69156.000000 0 0 1
5.080633 -9.812055 -25.067120 27.394338 -1.093014 2.726422 0.014587 0.000370 -357766.000000 0 0 1
4.377933 -11.085655 -24.567820 27.306333 -1.194678 2.689904 0.023813 -0.004229 -80070.900000 0 0 1
5.138233 -12.157955 -24.000520 27.390550 -1.170941 2.638786 0.020244 0.002289 -129024.000000 0 0 1
4.326833 -13.260855 -23.685620 27.487822 -1.255402 2.609361 0.026822 0.003623 -683685.000000 0 0 1
5.073133 -14.240155 -22.762420 27.324832 -1.228560 2.555360 0.028585 -0.002114 9788.420000 0 0 1
6.197433 -14.975655 -23.277320 28.363921 -1.178421 2.533373 0.035358 -0.000962 1022470.000000 0 0 1
7.389333 -14.192655 -23.470920 28.406298 -1.090770 2.543227 0.035173 -0.003255 525203.000000 0 0 1
8.139633 -13.665955 -22.176020 27.290801 -1.033608 2.519365 0.044670 0.001513 -385847.000000 0 0 1
8.676133 -14.672455 -21.290420 27.273397 -1.036783 2.466469 0.048034 0.011611 333960.000000 0 0 1
7.713233 -15.382755 -20.522620 26.782476 -1.106013 2.443813 0.046084 0.012120 -98942.700000 0 0 1
8.248433 -15.969655 -19.206720 26.305220 -1.094031 2.389336 0.033998 0.009461 692976.000000 0 0 1
9.235433 -17.029255 -19.285520 27.335325 -1.073863 2.353948 0.040111 0.011387 374219.000000 0 0 1
9.679333 -17.454655 -17.946220 26.840664 -1.064473 2.303148 0.041908 0.011770 -377712.000000 0 0 1
8.658333 -18.115955 -16.983020 26.297861 -1.124952 2.272860 0.024482 0.001491 -350459.000000 0 0 1
8.368133 -19.515055 -17.231420 27.345655 -1.165708 2.252522 0.025484 -0.003747 273495.000000 0 0 1
7.585133 -19.726455 -18.399920 28.021854 -1.203709 2.287135 0.022557 -0.000117 151999.000000 0 0 1
6.039733 -19.546355 -18.378220 27.500860 -1.271107 2.302688 0.027237 0.000630 285183.000000 0 0 1
5.669433 -18.152055 -18.278120 26.376680 -1.268066 2.336390 0.019628 0.003314 -1057100.000000 0 0 1
4.319333 -18.035555 -18.018920 25.857675 -1.335734 2.341792 0.006741 0.003267 -793370.000000 0 0 1
4.012633 -16.627055 -17.467720 24.447524 -1.333993 2.366703 -0.011389 0.016033 147510.000000 0 1 0
4.673533 -16.376655 -16.235520 23.529319 -1.292808 2.332302 -0.012213 0.020279 166779.000000 0 1 0
4.383733 -15.064755 -15.814320 22.276819 -1.287623 2.360153 -0.017254 0.023076 10017.400000 0 1 0
10.508833 30.824245 -17.962020 37.191448 1.242227 2.074829 0.006033 0.008925 -357730.000000 0 0 1
9.767833 30.272545 -19.004920 37.054345 1.258680 2.109348 0.014833 0.013465 -297448.000000 0 0 1
8.764033 29.475045 -18.388320 35.828995 1.281784 2.109734 0.023376 0.014078 479552.000000 0 0 1
7.805433 28.831845 -19.470420 35.655256 1.306411 2.148467 0.029371 0.006563 447775.000000 0 0 1
6.945033 29.798045 -20.037820 36.574187 1.341814 2.150610 0.037778 -0.006800 84225.300000 0 0 1
5.992933 29.208945 -20.927620 36.428601 1.368430 2.182769 0.040781 -0.015044 273193.000000 0 0 1
4.930433 30.178845 -21.469120 37.363016 1.408853 2.182922 0.044973 -0.019640 438619.000000 0 0 1
3.762833 30.187145 -20.640720 36.762235 1.446786 2.166952 0.047165 -0.023881 579836.000000 0 0 1
2.730833 31.010345 -21.207020 37.667448 1.482961 2.168816 0.036989 -0.024472 -163696.000000 0 0 1
1.317433 30.810345 -20.613220 37.093366 1.528063 2.160015 0.043619 -0.029183 234726.000000 0 0 1
0.712933 29.523845 -20.895720 36.177297 1.546653 2.186572 0.043674 -0.034764 208663.000000 0 0 1
0.317833 29.409445 -22.253920 36.881614 1.559990 2.218539 0.038689 -0.036841 -875828.000000 0 0 1
-0.186367 27.951345 -22.533420 35.903585 -1.564129 2.249275 0.044379 -0.031590 452840.000000 0 0 1
-1.277667 27.504345 -21.731720 35.076902 -1.524376 2.238959 0.041014 -0.030200 168202.000000 0 0 1
-1.619667 26.155645 -22.026320 34.233023 -1.508951 2.269758 0.040642 -0.032855 -655873.000000 0 0 1
-2.624667 25.694545 -20.996220 33.285729 -1.469001 2.253364 0.025306 -0.027535 -558111.000000 0 0 1
-3.830567 26.380545 -21.257920 34.095536 -1.426600 2.243984 0.021114 -0.023752 123344.000000 0 0 1
-4.879667 25.912445 -20.430620 33.356801 -1.384662 2.230000 0.017945 -0.020139 50896.700000 0 0 1
-5.916867 26.918145 -19.917920 34.004696 -1.354428 2.196589 0.021071 -0.022491 310842.000000 0 0 1
-7.124967 26.279045 -19.541820 33.514714 -1.306034 2.193313 0.029237 -0.023414 215201.000000 0 0 1
-8.079467 27.138945 -18.904020 34.046469 -1.281444 2.159450 0.024744 -0.026814 587038.000000 0 0 1
-9.255367 26.324145 -18.336820 33.389540 -1.232704 2.152177 0.028752 -0.020770 -88847.900000 0 0 1
-8.950167 25.748045 -17.057220 32.156120 -1.236256 2.129928 0.025353 -0.016162 218388.000000 0 0 1
-10.124467 25.189645 -16.458620 31.747586 -1.188628 2.115800 0.009879 -0.010966 432127.000000 0 0 1
-9.856267 24.380145 -15.202820 30.375372 -1.186611 2.094971 0.020740 -0.005004 -185042.000000 0 0 1
-9.474567 23.041745 -15.425820 29.302651 -1.180680 2.125193 0.015913 -0.000665 -227106.000000 0 0 1
-9.764467 22.283045 -14.278220 28.208978 -1.157797 2.101521 0.041510 0.009492 -90307.700000 0 0 1
-9.127767 20.820545 -14.226720 26.818105 -1.157629 2.129974 0.043755 0.007052 100240.000000 0 0 1
-9.913367 19.781545 -14.824920 26.633862 -1.106235 2.161107 0.018555 0.007784 117288.000000 0 0 1
-10.402167 19.903645 -16.189320 27.684910 -1.089212 2.195393 0.026122 0.009097 321804.000000 0 0 1
-9.340867 19.922845 -17.331720 28.009999 -1.132376 2.237971 0.018246 0.002072 460676.000000 0 0 1
-8.661967 18.673045 -17.527620 27.035712 -1.136464 2.276164 0.011784 0.005213 712098.000000 0 0 1
-7.661067 18.665745 -18.577920 27.427014 -1.181327 2.314962 0.017591 0.000677 806408.000000 0 0 1
-7.104267 17.238845 -18.771720 26.458002 -1.179896 2.359572 0.025941 -0.007124 808505.000000 0 0 1
-8.098367 16.305945 -19.308120 26.538102 -1.109831 2.385558 0.016887 -0.009705 587062.000000 0 0 1
-7.700367 15.580945 -20.475420 26.857109 -1.111786 2.437785 0.017992 -0.007490 141967.000000 0 0 1
-6.512467 14.600245 -20.297520 25.837351 -1.151230 2.474443 0.019241 -0.005375 83746.800000 0 0 1
-6.709567 13.474945 -19.402520 24.557080 -1.108807 2.481766 -0.000806 -0.000117 1567590.000000 0 1 0
-5.395067 12.989145 -18.941620 23.592575 -1.177126 2.502880 0.008227 0.010569 1892460.000000 0 1 0
-4.871667 13.555245 -17.610020 22.750618 -1.225778 2.456003 0.021131 0.014746 -489658.000000 0 1 0
-4.281767 14.837745 -17.699720 23.489834 -1.289856 2.424174 0.018234 0.004933 -168548.000000 0 1 0
-3.812867 15.235545 -16.406020 22.711611 -1.325572 2.378009 0.022449 0.009537 459414.000000 0 1 0
-2.873167 16.468445 -16.515620 23.499584 -1.398070 2.350129 0.034420 0.002174 573113.000000 0 1 0
-3.670267 17.620445 -16.498820 24.416429 -1.365437 2.312746 0.024169 -0.006531 313200.000000 0 1 0
-2.769167 18.700745 -16.520320 25.105918 -1.423787 2.288989 0.033983 -0.010765 263611.000000 0 0 1
-3.361167 19.854045 -17.333920 26.569632 -1.403093 2.281538 0.044936 -0.014406 194904.000000 0 0 1
-3.334367 19.562045 -18.698520 27.265844 -1.401968 2.326479 0.053907 -0.017006 125989.000000 0 0 1
-3.902167 20.614445 -19.511820 28.651237 -1.383717 2.319939 0.054849 -0.015139 402303.000000 0 0 1
-2.980667 21.869745 -19.656020 29.555528 -1.435339 2.298362 0.042184 -0.017617 200479.000000 0 0 1
-1.852967 21.722145 -20.504920 29.928862 -1.485699 2.325567 0.058111 -0.017828 773593.000000 0 0 1
-0.740967 22.546445 -20.130820 30.234767 -1.537944 2.299385 0.054472 -0.018106 765849.000000 0 0 1
0.273533 22.146845 -19.064820 29.223705 1.558446 2.281510 0.058770 -0.015761 -284987.000000 0 0 1
-0.377367 22.160845 -17.786720 28.418530 -1.553769 2.247062 0.053127 -0.017439 -428970.000000 0 0 1
0.468933 21.895245 -16.709620 27.546924 1.549382 2.222557 0.054745 -0.016870 -430274.000000 0 0 1
-0.160067 22.122145 -15.328320 26.914166 -1.563561 2.176726 0.058034 -0.020542 -407101.000000 0 0 1
-1.066767 21.139745 -14.964320 25.922146 -1.520376 2.186189 0.049067 -0.013681 -463047.000000 0 0 1
-1.088667 21.088245 -13.582520 25.107451 -1.519218 2.142393 0.064045 -0.012774 392183.000000 0 0 1
-1.873567 19.879445 -12.998420 23.825648 -1.476827 2.147858 0.031898 -0.007117 613516.000000 0 1 0
-1.089967 18.702145 -13.197920 22.916006 -1.512582 2.184533 0.028027 -0.005990 609604.000000 0 1 0
-1.887667 17.611445 -12.721420 21.807357 -1.464020 2.193649 0.018763 -0.006232 514761.000000 0 1 0
-1.259667 16.154445 -12.848720 20.679518 -1.492977 2.241230 0.006022 -0.002162 -595306.000000 0 1 0
-0.070167 15.941945 -12.115420 20.023335 -1.566395 2.220644 0.011775 0.001287 158242.000000 0 1 0
0.365233 14.581045 -12.137720 18.975366 1.545753 2.264848 0.020649 0.001042 242911.000000 0 1 0
0.847233 14.041445 -13.476520 19.480672 1.510531 2.334760 0.010497 -0.000571 -532673.000000 0 1 0
-0.208667 13.822245 -14.396020 19.958542 -1.555701 2.376468 0.013880 -0.010236 123887.000000 0 1 0
0.250333 12.891345 -15.382720 20.071809 1.551380 2.443990 0.018559 -0.007828 -331250.000000 0 1 0
-0.469467 12.788145 -16.697020 21.036813 -1.534102 2.487672 0.023101 -0.004882 -351210.000000 0 1 0
-0.437867 13.973945 -17.492820 22.393338 -1.539472 2.467321 0.030581 -0.005784 69886.700000 0 1 0
-0.683367 13.640745 -18.842920 23.272141 -1.520741 2.514398 0.037116 -0.008211 -53804.600000 0 1 0
-1.355567 14.804745 -19.618120 24.614806 -1.479488 2.493116 0.040928 -0.002530 144523.000000 0 1 0
-0.444267 15.879645 -19.819220 25.400039 -1.542826 2.465915 0.035553 -0.009086 -70961.800000 0 0 1
-1.026367 17.151845 -19.958920 26.336243 -1.511028 2.430808 0.058074 -0.015230 -636876.000000 0 0 1
-0.057967 18.319445 -19.984720 27.110781 -1.567632 2.399640 0.063833 -0.015774 -525369.000000 0 0 1
0.590633 18.284945 -21.215320 28.013887 1.538506 2.429987 0.054570 -0.014768 -253995.000000 0 0 1
1.344733 19.469345 -21.398620 28.961433 1.501837 2.402182 0.048857 -0.012241 -40234.500000 0 0 1
1.857233 19.538845 -22.862520 30.131555 1.476028 2.432199 0.040792 -0.019989 201591.000000 0 0 1
2.872933 18.582445 -23.170620 29.840218 1.417406 2.459872 0.025516 -0.018395 363207.000000 0 0 1
3.304833 18.690845 -24.543320 31.026507 1.395790 2.483309 0.022393 -0.031914 324431.000000 0 0 1
4.155933 17.561945 -25.183830 30.982559 1.338427 2.519806 0.005348 -0.016072 297895.000000 0 0 1
5.419133 17.372045 -24.538820 30.550100 1.268417 2.503498 -0.001813 -0.011002 765225.000000 0 0 1
6.197333 16.236245 -24.987820 30.437045 1.206167 2.533899 -0.001434 -0.011892 500603.000000 0 0 1
6.612533 16.155845 -26.494420 31.728397 1.182301 2.558998 -0.000854 -0.012846 -867852.000000 0 0 1
7.576933 17.097945 -26.935620 32.791420 1.153654 2.534698 -0.004013 -0.012538 279299.000000 0 0 1
7.942333 17.067645 -28.331410 34.015496 1.135256 2.555119 -0.005522 -0.020633 77196.800000 0 0 1
8.638133 15.838545 -28.919870 34.085711 1.071502 2.583838 0.001307 -0.019114 589672.000000 0 0 1
9.857433 15.450345 -28.236080 33.662417 1.002898 2.565874 0.010007 -0.020256 858013.000000 0 0 1
10.299933 14.162645 -28.617820 33.550689 0.942008 2.592451 0.010836 -0.016597 -135922.000000 0 0 1
9.806333 13.072645 -27.678160 32.142476 0.927205 2.608242 0.006361 -0.012114 -241158.000000 0 0 1
8.413133 12.897645 -27.673640 31.669550 0.992806 2.633810 0.000642 -0.009897 -415392.000000 0 0 1
7.945533 12.322045 -26.450380 30.242137 0.998069 2.635448 0.011545 -0.006069 354665.000000 0 0 1
6.427033 12.016745 -26.506480 29.804402 1.079667 2.666713 -0.006439 -0.007586 514095.000000 0 0 1
5.619833 13.203845 -26.577900 30.204450 1.168400 2.646518 -0.011448 -0.005051 522877.000000 0 0 1
4.265133 12.810545 -26.315170 29.576842 1.249401 2.667532 -0.005675 -0.006398 733995.000000 0 0 1
3.136833 13.765145 -26.726310 30.226058 1.346740 2.655605 0.011002 -0.002605 -482019.000000 0 0 1
2.964933 13.798945 -28.137740 31.479106 1.359148 2.676666 0.018536 -0.012086 8270.180000 0 0 1
3.707433 14.752745 -28.852750 32.617016 1.324590 2.656415 0.022721 -0.025346 -178551.000000 0 0 1
3.472933 14.708345 -30.370920 33.923288 1.338923 2.679861 0.038608 -0.025899 -138052.000000 0 0 1
4.233333 13.665145 -30.936710 34.084268 1.270382 2.708456 0.029514 -0.023924 104820.000000 0 0 1
4.227233 13.741345 -32.354490 35.404902 1.272355 2.723444 0.031727 -0.022512 -1222200.000000 0 0 1
5.158533 12.657545 -32.959810 35.681549 1.183802 2.748480 0.038006 -0.018629 1394890.000000 0 0 1
6.575033 13.001845 -32.900470 35.982217 1.102599 2.724705 0.037580 -0.019716 1393110.000000 0 0 1
7.223133 13.221645 -31.682710 35.082469 1.070790 2.697713 0.025654 -0.014670 -1227720.000000 0 0 1
7.285233 12.027645 -30.723080 33.788260 1.026191 2.712354 0.021684 -0.016686 -308147.000000 0 0 1
8.395733 11.191845 -30.994600 34.006043 0.927189 2.717576 0.025955 -0.012723 157643.000000 0 0 1
8.217133 9.998745 -30.179960 32.837877 0.882894 2.736484 0.024819 -0.005789 -144411.000000 0 0 1
9.172833 8.827245 -30.527280 33.075307 0.766201 2.746505 0.017623 -0.000914 -11982.100000 0 0 1
10.497433 9.048045 -30.107360 33.143873 0.711379 2.710199 0.016357 -0.012181 -141603.000000 0 0 1
11.226533 7.810545 -30.066870 33.031142 0.607849 2.714704 -0.002223 -0.006914 -506293.000000 0 0 1
12.548233 7.926945 -29.313860 32.857221 0.563416 2.672898 -0.004335 -0.002976 -188102.000000 0 0 1
13.198733 6.687745 -29.000400 32.556960 0.468990 2.669808 0.002200 0.000834 154501.000000 0 0 1
14.116333 6.359245 -30.040700 33.795776 0.423260 2.665711 -0.005060 -0.000997 -541841.000000 0 0 1
14.827933 5.038445 -29.693770 33.570426 0.327554 2.656264 -0.003419 -0.003365 -314453.000000 0 0 1
15.572933 5.149145 -28.531990 32.910551 0.319331 2.619857 -0.012142 -0.005156 -104058.000000 0 0 1
16.298133 3.990245 -28.160010 32.780136 0.240105 2.604221 -0.003522 0.003824 -78157.800000 0 0 1
16.952133 4.244045 -26.764230 31.964210 0.245312 2.563157 -0.005032 0.004042 -318637.000000 0 0 1
17.949533 5.239745 -26.786090 32.667036 0.284023 2.532160 0.011535 0.000396 70105.400000 0 0 1
18.372833 5.448145 -25.436430 31.847374 0.288273 2.495924 0.015911 0.003554 588239.000000 0 0 1
19.656533 6.360245 -25.511740 32.828050 0.312937 2.460893 0.013341 0.007928 219393.000000 0 0 1
19.279233 7.659545 -25.912520 33.193616 0.378172 2.466498 0.021266 0.003032 516770.000000 0 0 1
20.224133 8.560845 -26.538850 34.447266 0.400429 2.450295 0.030318 -0.009088 -294365.000000 0 0 1
20.521733 8.261145 -28.017900 35.698610 0.382708 2.473243 0.032460 -0.003160 29650.500000 0 0 1
19.556433 8.766045 -28.907710 35.985460 0.421392 2.503639 0.028368 0.004537 649250.000000 0 0 1
18.315833 8.049745 -28.936300 35.179221 0.414085 2.536658 0.020630 0.003167 439628.000000 0 0 1
17.094833 8.808245 -29.511830 35.224517 0.475779 2.564075 0.010577 0.001629 46396.700000 0 0 1
17.098433 8.741745 -30.922560 36.400264 0.472615 2.585861 0.008525 0.007634 171401.000000 0 0 1
16.025833 9.526845 -31.383640 36.503711 0.536342 2.605553 -0.000625 0.010968 -145301.000000 0 0 1
15.506833 9.280445 -32.790760 37.440919 0.539297 2.637887 -0.003003 0.013976 243754.000000 0 0 1
14.875633 7.986045 -32.840740 36.926624 0.492694 2.666721 -0.004230 0.013083 269220.000000 0 0 1
13.712933 7.950745 -33.636550 37.184356 0.525433 2.701210 -0.002330 0.009660 267418.000000 0 0 1
13.052833 6.581745 -33.920900 36.936747 0.467033 2.734690 -0.000337 0.000081 204378.000000 0 0 1
12.506233 5.980845 -32.763230 35.575351 0.446080 2.741316 0.010181 -0.003271 60457.300000 0 0 1
11.826533 4.788245 -33.099170 35.473218 0.384700 2.773665 0.010460 -0.011971 -388310.000000 0 0 1
11.677533 3.713345 -31.972140 34.239910 0.307879 2.775598 0.017373 -0.013999 -377036.000000 0 0 1
12.763833 2.963345 -31.485130 34.102936 0.228126 2.747221 0.014128 -0.018486 -80777.400000 0 0 1
12.343033 1.880345 -30.590320 33.040185 0.151178 2.754080 0.017202 -0.017326 -917.439000 0 0 1
11.736433 0.612945 -31.271340 33.406829 0.052178 2.782102 0.015064 -0.016650 131534.000000 0 0 1
12.622033 -0.200155 -32.055090 34.451191 -0.015856 2.766434 0.017641 -0.013259 525287.000000 0 0 1
13.529833 -0.914455 -31.181700 34.002809 -0.067485 2.731373 0.012288 -0.016749 169220.000000 0 0 1
13.959333 -2.249855 -31.757870 34.763301 -0.159798 2.722715 0.017547 -0.017318 208029.000000 0 0 1
12.948233 -3.247555 -31.902430 34.582776 -0.245741 2.745291 0.026798 -0.017168 266989.000000 0 0 1
13.471933 -4.303255 -32.640640 35.572775 -0.309180 2.732730 0.020445 -0.015375 -36258.100000 0 0 1
12.481333 -5.469855 -32.803320 35.521272 -0.413034 2.747861 0.028018 -0.011090 -260358.000000 0 0 1
12.502033 -6.251355 -31.572560 34.528348 -0.463669 2.724808 0.032151 -0.014731 130001.000000 0 0 1
12.077933 -7.586055 -31.823020 34.873045 -0.560820 2.720246 0.041386 -0.016150 -125146.000000 0 0 1
12.053733 -8.419655 -30.540400 33.895414 -0.609725 2.692908 0.043827 -0.018255 -102574.000000 0 0 1
13.330033 -8.364055 -29.925510 33.810994 -0.560366 2.657467 0.042767 -0.013416 313616.000000 0 0 1
13.364833 -8.868955 -28.636430 32.822587 -0.585879 2.631012 0.050299 -0.011563 -228456.000000 0 0 1
13.392933 -10.389455 -28.489850 33.150912 -0.659773 2.604889 0.047752 -0.018663 769159.000000 0 0 1
12.164933 -11.089455 -28.821500 33.190969 -0.739183 2.622669 0.038254 -0.017978 1014550.000000 0 0 1
12.465933 -12.471455 -28.952660 33.899752 -0.785620 2.594551 0.024753 -0.027343 219055.000000 0 0 1
-10.331667 -2.513755 -17.795220 20.729982 0.238668 2.602996 0.025183 -0.007229 564451.000000 0 1 0
-11.195867 -2.164755 -18.899720 22.073355 0.190996 2.598710 0.028843 -0.010236 908242.000000 0 1 0
-12.015767 -3.251955 -19.402320 23.052199 0.264309 2.571163 0.020818 -0.007351 -309852.000000 0 1 0
-12.778167 -2.921355 -20.700320 24.501410 0.224758 2.577104 0.013664 -0.017555 52062.300000 0 1 0
-13.851367 -2.013455 -20.471820 24.799390 0.144350 2.541878 -0.002759 -0.010979 -99562.100000 0 1 0
-14.628567 -1.706955 -21.561920 26.111780 0.116161 2.542335 0.003867 -0.014791 -149439.000000 0 0 1
-15.347267 -0.357455 -21.321120 26.272733 0.023287 2.517563 -0.007978 -0.011319 -262212.000000 0 0 1
-14.501367 0.748145 -21.464320 25.914598 -0.051546 2.546812 -0.010118 -0.010820 -347139.000000 0 0 1
-15.225267 1.908545 -21.216120 26.183488 -0.124703 2.515437 -0.017001 -0.002876 -251242.000000 0 0 1
-14.715967 3.260545 -21.803320 26.506142 -0.218043 2.536723 -0.009826 -0.006911 -360868.000000 0 0 1
-13.510367 3.667345 -21.220320 25.422065 -0.265060 2.558421 0.000393 -0.006953 -87402.700000 0 0 1
-13.161967 4.928345 -21.813420 25.949012 -0.358278 2.569235 0.007769 -0.012189 126507.000000 0 0 1
-11.932867 5.633845 -21.147120 24.926576 -0.441103 2.583707 -0.000193 -0.010102 220356.000000 0 1 0
-12.180867 6.311645 -19.921720 24.188536 -0.478070 2.538529 0.005488 -0.012811 -286545.000000 0 1 0
-10.975567 6.517645 -19.260920 23.106834 -0.535872 2.556316 -0.003866 -0.005129 -533478.000000 0 1 0
-11.090667 7.149445 -17.849520 22.197360 -0.572595 2.505003 -0.000473 -0.007534 -166837.000000 0 1 0
-11.598767 8.436845 -17.897020 22.935018 -0.628874 2.465999 -0.004043 -0.008719 985408.000000 0 1 0
-12.709367 8.592945 -16.966320 22.874062 -0.594513 2.406439 0.017349 -0.001623 267003.000000 0 1 0
-13.340667 9.966945 -16.973720 23.778573 -0.641649 2.365740 0.025315 -0.003111 -699087.000000 0 1 0
-12.567267 11.014245 -16.449120 23.448312 -0.719636 2.348304 -0.004114 0.018081 37770.300000 0 1 0
-13.152867 12.261445 -16.798420 24.607475 -0.750337 2.322186 0.012290 0.005110 -97503.700000 0 1 0
-12.513667 13.459345 -16.065120 24.409709 -0.821792 2.289148 0.016670 0.015175 -340056.000000 0 1 0
-12.601567 13.325145 -14.614120 23.450618 -0.813300 2.243607 0.033403 0.015086 210495.000000 0 1 0
-11.975167 14.403545 -13.915020 23.334406 -0.877198 2.209718 0.019529 0.010599 -944837.000000 0 1 0
-12.306367 14.347245 -12.412320 22.613177 -0.861819 2.151841 0.012170 0.000665 64577.700000 0 1 0
-13.590767 14.810245 -12.117120 23.470767 -0.828310 2.113280 0.000502 0.001693 681027.000000 0 1 0
-14.725867 14.026745 -12.549520 23.897514 -0.761088 2.123675 0.010553 0.005784 349372.000000 0 1 0
-16.110267 14.364245 -11.913720 24.653782 -0.728166 2.075149 -0.000836 0.003123 507885.000000 0 1 0
-17.193367 13.686945 -12.503920 25.284231 -0.672334 2.088095 0.007982 0.002333 -250794.000000 0 0 1
-18.384567 13.993645 -11.837320 25.960288 -0.650607 2.044267 0.052849 0.003848 287920.000000 0 0 1
-19.689367 13.530045 -12.589220 27.004106 -0.602067 2.055783 0.035422 0.005393 440442.000000 0 0 1
-20.000467 12.243745 -12.128020 26.401076 -0.549322 2.048089 0.041720 -0.003347 624478.000000 0 0 1
-21.154967 11.732245 -12.814920 27.375178 -0.506357 2.057961 0.052611 -0.000463 364929.000000 0 0 1
-21.788067 10.581745 -12.051620 27.054292 -0.452116 2.032485 0.042925 -0.007610 123562.000000 0 0 1
-21.067967 9.368345 -12.298520 26.131948 -0.418415 2.060803 0.051446 -0.008534 848533.000000 0 0 1
-21.671367 8.409245 -11.450920 25.913068 -0.370149 2.028509 0.048341 -0.009137 -3137.030000 0 0 1
-20.780067 7.175645 -11.475320 24.798871 -0.332494 2.051875 0.064920 -0.009611 -116618.000000 0 1 0
-20.675767 6.467845 -12.733920 25.129128 -0.303179 2.102195 0.068390 -0.002303 373445.000000 0 0 1
-19.563267 5.608545 -12.568920 23.919760 -0.279199 2.124054 0.057680 -0.008751 95369.200000 0 1 0
-19.470567 4.510445 -13.699720 24.230753 -0.227639 2.171697 0.049148 -0.013986 -192317.000000 0 1 0
-20.303667 3.412645 -13.484920 24.611544 -0.166524 2.150661 0.045281 -0.018865 320205.000000 0 1 0
-19.946867 2.551845 -14.543820 24.817577 -0.127241 2.196946 0.035881 -0.019808 -116044.000000 0 1 0
-20.506567 1.173145 -14.319720 25.038968 -0.057146 2.179613 0.021946 -0.011369 -150419.000000 0 0 1
-21.852567 0.989245 -14.688720 26.349037 -0.045238 2.162128 0.034731 -0.022919 72371.200000 0 0 1
-22.227467 -0.391855 -14.749320 26.678761 0.017627 2.156575 0.026524 -0.027603 203690.000000 0 0 1
-23.596467 -0.529355 -15.468220 28.219484 0.022430 2.150935 0.047826 -0.029726 1404890.000000 0 0 1
-24.777367 -0.108255 -14.711620 28.815992 0.004369 2.106605 0.073388 -0.041563 1623790.000000 0 0 1
-25.958877 -0.213555 -15.521120 30.245893 0.008226 2.109664 0.057559 -0.040655 451457.000000 0 0 1
-27.222747 0.284345 -14.800420 30.987275 -0.010445 2.068750 0.050582 -0.037479 -654752.000000 0 0 1
-27.596097 -0.558155 -13.694020 30.812048 0.020223 2.031342 0.066759 -0.040622 37461.200000 0 0 1
-28.759127 -0.057455 -13.072620 31.590886 0.001998 1.997431 0.068902 -0.043258 -3241.450000 0 0 1
-29.020427 -0.610155 -11.633820 31.271444 0.021022 1.951988 0.067969 -0.037756 -306369.000000 0 0 1
-29.387187 -1.981255 -11.507120 31.621922 0.067317 1.943245 0.076539 -0.033521 535792.000000 0 0 1
-28.422767 -2.889955 -12.034020 31.000373 0.101329 1.969463 0.071794 -0.039279 -170121.000000 0 0 1
-28.632167 -4.327455 -11.536120 31.170658 0.150004 1.949908 0.065297 -0.031988 -191221.000000 0 0 1
-29.895767 -4.893955 -11.813220 32.515532 0.162261 1.942615 0.059917 -0.033219 -39707.200000 0 0 1
-30.145007 -6.089255 -11.074420 32.687050 0.199317 1.916439 0.049840 -0.029157 -84580.000000 0 0 1
-29.395647 -7.363155 -11.558420 32.433273 0.245435 1.935182 0.032513 -0.018331 -867920.000000 0 0 1
-28.024427 -7.329555 -11.399720 31.129479 0.255812 1.945722 0.045439 -0.020384 -1027850.000000 0 0 1
-27.434567 -8.479955 -11.987920 31.117123 0.299782 1.966277 0.051862 -0.020999 665596.000000 0 0 1
-25.896927 -8.613255 -11.722720 29.702881 0.321088 1.976501 0.040068 -0.024081 146303.000000 0 0 1
-25.127917 -7.558655 -12.314320 28.985996 0.292197 2.009578 0.032766 -0.019070 1285390.000000 0 0 1
-23.731567 -7.552755 -11.955620 27.625499 0.308122 2.018365 0.028010 -0.020495 924606.000000 0 0 1
-23.369967 -7.380255 -10.417420 26.629798 0.305889 1.972725 0.019405 -0.018603 -727774.000000 0 0 1
-23.651467 -6.092755 -9.865820 26.340994 0.252124 1.954700 0.023316 -0.016544 -356531.000000 0 0 1
-24.988167 -5.727755 -9.763920 27.432641 0.225326 1.934698 0.029339 -0.020235 -1003660.000000 0 0 1
-25.263537 -4.347355 -9.139720 27.215442 0.170411 1.913281 0.045075 -0.028105 -395047.000000 0 0 1
-25.014267 -4.336255 -7.783920 26.553833 0.171645 1.868303 0.028808 -0.023033 291892.000000 0 0 1
-25.211427 -3.069055 -7.208920 26.400827 0.121137 1.847365 0.055529 -0.027452 -96104.400000 0 0 1
-25.085187 -2.940955 -5.665120 25.884540 0.116706 1.791443 0.042546 -0.016013 -29049.900000 0 0 1
-23.761467 -3.168455 -5.246620 24.539222 0.132562 1.786265 -0.003270 -0.002110 160733.000000 0 1 0
-23.766967 -2.983855 -3.838720 24.259181 0.124893 1.729702 -0.017012 -0.000766 350221.000000 0 1 0
-22.515167 -3.643455 -3.174620 23.027933 0.160432 1.709096 -0.016633 0.003074 158701.000000 0 1 0
-22.490067 -5.044355 -3.248920 23.276686 0.220641 1.710832 -0.007300 -0.000735 1261110.000000 0 1 0
-21.211767 -5.454555 -2.711720 22.069088 0.251694 1.693982 -0.013995 -0.004069 575786.000000 0 1 0
-21.182567 -7.030555 -2.726020 22.484684 0.320463 1.692334 -0.011512 0.004340 -81753.700000 0 1 0
-21.933367 -7.557055 -1.660820 23.258117 0.331808 1.642265 -0.002196 0.012214 468005.000000 0 1 0
-22.511667 -8.800955 -1.967520 24.250837 0.372681 1.652018 -0.007901 0.008707 -103340.000000 0 1 0
-22.895567 -9.553355 -0.691220 24.818367 0.395295 1.598651 -0.019028 0.005751 183016.000000 0 1 0
-21.749167 -9.994055 0.022980 23.935495 0.430738 1.569836 -0.028312 0.016946 280991.000000 0 1 0
-22.055767 -10.904255 1.008180 24.624704 0.459153 1.529843 -0.035559 0.026389 549072.000000 0 1 0
-20.838567 -11.502255 1.839080 23.873206 0.504354 1.493685 -0.028106 0.018924 915489.000000 0 1 0
-20.117667 -12.421655 1.010980 23.665167 0.553152 1.528063 -0.022716 0.024538 -381341.000000 0 1 0
-18.859267 -12.692655 1.524280 22.783741 0.592388 1.503844 -0.034685 0.017016 -535884.000000 0 1 0
-18.160267 -13.818555 0.745980 22.832088 0.650455 1.538118 -0.020375 0.014757 -162020.000000 0 1 0
-19.062667 -14.922955 0.731080 24.220122 0.664188 1.540607 -0.012092 0.014626 377568.000000 0 1 0
-18.576067 -16.170455 0.212380 24.629230 0.716275 1.562173 -0.011935 0.010592 420754.000000 0 1 0
-17.445867 -16.798755 1.137380 24.245620 0.766504 1.523868 -0.004565 0.007493 52337.400000 0 1 0
-16.148267 -16.292455 0.972980 22.959906 0.789843 1.528406 0.001135 0.008500 562869.000000 0 1 0
-15.131467 -17.007855 1.741180 22.831122 0.843715 1.494459 0.012526 0.002962 1069420.000000 0 1 0
-15.084867 -16.807655 3.257180 22.817969 0.839364 1.427561 0.020338 -0.001491 -589805.000000 0 1 0
-14.675867 -15.483455 3.585080 21.632643 0.812169 1.404303 0.001819 0.000916 -69189.700000 0 1 0
-13.925467 -15.334155 4.774480 21.256778 0.833505 1.344254 -0.003211 0.002525 -143603.000000 0 1 0
-14.503267 -15.747155 6.173180 22.280615 0.826495 1.290058 0.005182 0.005865 -767136.000000 0 1 0
-15.260367 -14.754355 6.831080 22.298732 0.768541 1.259446 0.001516 0.009454 187334.000000 0 1 0
-15.462567 -15.019455 8.208680 23.066370 0.770862 1.206949 0.003346 0.007866 -246888.000000 0 1 0
-16.388067 -16.139555 8.701480 24.592066 0.777758 1.209130 0.002020 0.014573 -268238.000000 0 1 0
-15.867267 -17.430955 8.297180 24.989029 0.832324 1.232338 0.003323 0.012029 178490.000000 0 1 0
-16.578967 -18.539055 8.832280 26.392572 0.841155 1.229562 0.007622 0.008791 2267.570000 0 0 1
-16.270267 -18.819755 10.344280 26.942697 0.857926 1.176741 0.001546 0.009238 1056120.000000 0 0 1
-14.928067 -19.295355 10.568480 26.586664 0.912323 1.161994 -0.002069 0.006422 784727.000000 0 0 1
-14.738667 -19.470255 11.973180 27.196988 0.922841 1.114931 0.003442 -0.001286 1439900.000000 0 0 1
-13.362467 -20.220355 12.316780 27.186786 0.986837 1.100621 0.002072 0.000065 1763170.000000 0 0 1
-12.171667 -19.468355 12.119580 25.962483 1.012051 1.085115 0.002161 -0.004281 41973.100000 0 0 1
-11.033167 -20.272755 12.411680 26.206205 1.072389 1.077404 0.005451 -0.003413 13545.100000 0 0 1
-9.846967 -19.373355 12.771880 25.207351 1.100552 1.039475 0.005523 -0.011518 -343122.000000 0 0 1
-9.250667 -18.745155 11.685780 23.948134 1.112365 1.061043 0.000278 -0.006940 -537550.000000 0 1 0
-8.194867 -17.927355 12.110980 23.134860 1.142041 1.019849 0.001743 -0.010655 -308520.000000 0 1 0
-7.481367 -17.231755 10.977680 21.758072 1.161191 1.041955 -0.000814 -0.015119 329698.000000 0 1 0
-6.459867 -18.052455 10.381680 21.803676 1.227155 1.074532 0.000039 -0.012287 316736.000000 0 1 0
-5.970667 -17.415555 9.197280 20.580097 1.240519 1.107497 0.003882 -0.009700 -876357.000000 0 1 0
-4.920667 -18.169055 8.438280 20.628429 1.306314 1.149372 -0.001909 -0.010348 -878231.000000 0 1 0
-3.692967 -18.158155 9.105580 20.646263 1.370155 1.114053 0.003530 -0.012093 -266419.000000 0 1 0
-2.754767 -19.033555 8.489780 21.022401 1.427062 1.155081 0.011924 -0.005646 1088670.000000 0 1 0
-1.362267 -19.170955 9.189480 21.303235 1.499857 1.124791 0.003685 -0.010892 1379870.000000 0 1 0
-0.249267 -19.548555 8.366980 21.265336 1.558046 1.166408 0.012581 -0.011776 667925.000000 0 1 0
0.910233 -19.862755 9.129380 21.879286 -1.525002 1.140367 0.022214 -0.013798 154951.000000 0 1 0
2.045233 -20.340255 8.216280 22.032163 -1.470582 1.188640 0.026360 -0.026619 -350424.000000 0 1 0
1.862933 -21.696455 7.750380 23.114391 -1.485143 1.228867 0.028749 -0.019713 -7139.480000 0 1 0
2.005033 -22.711855 8.753980 24.422954 -1.482743 1.204208 0.031421 -0.016588 -11547.200000 0 1 0
1.687733 -24.110555 8.217480 25.528304 -1.500911 1.243064 0.022503 -0.011587 217517.000000 0 0 1
1.923533 -25.102375 9.227880 26.813858 -1.494318 1.219467 0.025691 -0.004823 -177273.000000 0 0 1
1.497533 -26.359645 8.812580 27.834063 -1.514046 1.248641 0.029889 -0.001181 -783986.000000 0 0 1
1.710433 -27.439405 9.922680 29.228515 -1.508542 1.224426 0.022896 0.000985 266901.000000 0 0 1
0.901433 -27.319135 11.079080 29.493961 -1.537812 1.185710 0.013058 -0.001970 -125367.000000 0 0 1
-0.481567 -27.509035 10.851380 29.575858 1.553292 1.195122 0.002750 0.005775 -161046.000000 0 0 1
-1.222667 -27.720055 12.179780 30.302531 1.526717 1.157162 -0.000595 -0.000761 -87282.600000 0 0 1
-0.789867 -28.892435 12.808380 31.614100 1.543465 1.153656 -0.014069 -0.003097 -62947.700000 0 0 1
-1.093167 -28.769865 14.183980 32.094944 1.532818 1.113038 -0.019098 -0.003045 -82680.100000 0 0 1
-0.433467 -29.914835 15.004180 33.469548 1.556307 1.105941 -0.032678 0.002031 51638.000000 0 0 1
-0.707067 -29.677085 16.379680 33.904620 1.546975 1.066592 -0.031700 0.004528 -103012.000000 0 0 1
-0.372667 -30.818465 17.108480 35.250770 1.558705 1.064048 -0.037344 0.004274 -8556.560000 0 0 1
-0.766667 -30.641695 18.622280 35.864893 1.545781 1.024842 -0.033605 0.001050 921299.000000 0 0 1
-2.194167 -30.703355 18.786680 36.061749 1.499454 1.022823 -0.040744 0.004241 778570.000000 0 0 1
-2.522967 -30.830945 20.170480 36.929132 1.489146 0.992982 -0.024111 -0.003397 -662485.000000 0 0 1
-4.019467 -30.844935 20.462580 37.232826 1.441214 0.988930 -0.002094 -0.012962 -771684.000000 0 0 1
-4.611167 -29.628845 20.126480 36.113800 1.416404 0.979657 0.002406 -0.011380 -1022.650000 0 0 1
-5.904667 -29.467675 20.683180 36.482913 1.373038 0.968025 0.012897 -0.014754 330227.000000 0 0 1
-5.918267 -28.375275 21.795780 36.266212 1.365173 0.926052 0.018392 -0.017615 15089.500000 0 0 1
-5.087967 -28.825135 22.866280 37.143540 1.396084 0.907625 0.014780 -0.016866 317241.000000 0 0 1
-4.997867 -27.851815 23.868280 37.018875 1.393241 0.870087 0.021266 -0.016675 -259059.000000 0 0 1
-3.845767 -28.173895 24.857880 37.768671 1.435134 0.852422 0.022314 -0.019987 143972.000000 0 0 1
-4.128467 -29.222835 25.778580 39.186139 1.430450 0.852837 0.012873 -0.014693 537835.000000 0 0 1
-3.372667 -30.343065 25.315980 39.660753 1.460100 0.878491 0.008625 -0.014972 161018.000000 0 0 1
-3.681167 -31.605185 26.107580 41.158771 1.454845 0.883676 0.010532 -0.011737 -99157.200000 0 0 1
-3.403667 -31.561285 27.495680 41.996572 1.463368 0.856994 0.011056 -0.016174 184731.000000 0 0 1
-3.872067 -32.720195 28.167980 43.347885 1.453005 0.863459 0.017196 -0.014228 -210799.000000 0 0 1
-3.503067 -32.645325 29.667080 44.250699 1.463899 0.836006 0.024726 -0.005121 -305375.000000 0 0 1
-2.105167 -32.767015 29.751780 44.308887 1.506638 0.834615 0.021373 -0.003475 -168465.000000 0 0 1
-1.721367 -32.650095 31.090480 45.117732 1.518123 0.810555 0.021221 -0.005707 -203233.000000 0 0 1
-27.850977 2.959145 -10.293520 29.839404 -0.105852 1.922997 0.066068 -0.010648 -145517.000000 0 0 1
-28.721067 2.597445 -11.357320 30.994114 -0.090192 1.945971 0.054940 -0.033604 314010.000000 0 0 1
-29.510257 3.694645 -11.793320 31.993563 -0.124551 1.948315 0.028449 -0.029959 -33721.500000 0 0 1
-30.392077 3.414245 -13.004920 33.233467 -0.111871 1.972862 0.031237 -0.026233 -55868.100000 0 0 1
-31.461317 2.516545 -12.792720 34.055853 -0.079819 1.955883 0.033076 -0.023833 -266657.000000 0 0 1
-32.342657 2.539745 -13.844420 35.272733 -0.078365 1.974141 0.042326 -0.025558 502754.000000 0 0 1
-33.581327 1.545045 -13.760120 36.324008 -0.045977 1.959313 0.020815 -0.020008 901883.000000 0 0 1
-33.220587 0.182245 -13.967420 36.037889 -0.005486 1.968797 0.041061 -0.021484 -56100.100000 0 0 1
-33.122977 -0.459055 -12.696920 35.476106 0.013858 1.936815 0.023985 -0.019827 262728.000000 0 0 1
-32.380817 -1.859955 -12.825120 34.877793 0.057377 1.947348 0.003801 -0.025904 166211.000000 0 0 1
-33.126197 -2.878955 -13.491520 35.883902 0.086691 1.956247 0.014117 -0.013605 184578.000000 0 0 1
-32.687737 -4.139455 -13.070120 35.446456 0.125966 1.948437 0.019783 -0.020588 -302758.000000 0 0 1
-33.199277 -5.320755 -13.853720 36.365203 0.158916 1.961632 0.006993 -0.007365 -65354.200000 0 0 1
-32.849897 -6.548055 -13.203720 36.004596 0.196754 1.946281 0.014120 -0.017431 190010.000000 0 0 1
-33.134757 -7.656355 -14.058520 36.799101 0.227082 1.962793 0.004475 -0.004835 -422072.000000 0 0 1
-32.746697 -8.973755 -13.257420 36.450427 0.267469 1.943045 0.010451 -0.009580 -25851.900000 0 0 1
-31.356637 -9.193755 -13.134820 35.217713 0.285206 1.952994 0.016971 -0.014871 210001.000000 0 0 1
-30.745747 -9.715455 -14.300020 35.272958 0.306064 1.988224 0.009316 -0.007644 -398978.000000 0 0 1
-29.506407 -10.577255 -14.041620 34.346375 0.344203 1.991961 0.005858 -0.005817 -40927.100000 0 0 1
-29.956797 -11.820355 -13.449420 34.900105 0.375825 1.966404 -0.005827 0.000542 748913.000000 0 0 1
-28.893177 -12.771355 -13.373520 34.304143 0.416198 1.971267 -0.001080 0.001816 126769.000000 0 0 1
-29.264647 -14.121355 -13.995520 35.379469 0.449582 1.977499 0.002314 0.004862 -374190.000000 0 0 1
-29.199317 -14.194355 -15.372420 35.922014 0.452482 2.013007 -0.004312 0.004423 -212664.000000 0 0 1
-29.274537 -15.478155 -15.950120 36.755654 0.486362 2.019669 -0.000772 0.001653 -330365.000000 0 0 1
-28.166857 -16.539955 -15.727920 36.253405 0.530965 2.019539 -0.021729 0.005665 641144.000000 0 0 1
-26.981837 -16.176255 -16.446820 35.499136 0.540069 2.052514 -0.015883 -0.001738 451243.000000 0 0 1
-25.896127 -17.123055 -16.403420 35.112399 0.584223 2.056882 -0.012749 -0.005239 445681.000000 0 0 1
-24.675267 -16.379055 -16.946420 34.122183 0.586004 2.090519 -0.015164 -0.010824 -568955.000000 0 0 1
-24.903367 -15.989955 -18.303620 34.797684 0.570787 2.124688 -0.003288 -0.016644 -218590.000000 0 0 1
-23.710867 -15.561155 -18.902220 34.082967 0.580783 2.158672 -0.003367 -0.012955 -326909.000000 0 0 1
-24.004367 -15.038055 -20.351020 34.878600 0.559657 2.193805 0.015408 -0.019175 362819.000000 0 0 1
-24.495167 -16.047655 -21.295020 36.207987 0.579977 2.199542 0.010350 -0.023225 1784600.000000 0 0 1
-25.921777 -16.335455 -21.235520 37.279122 0.562318 2.176859 0.024867 -0.023155 1097390.000000 0 0 1
-26.177817 -17.698855 -21.992320 38.499217 0.594506 2.178813 0.015800 -0.022177 -581507.000000 0 0 1
-25.914777 -17.666155 -23.383020 39.120766 0.598340 2.211443 0.019130 -0.017242 235370.000000 0 0 1
-26.532927 -18.784455 -24.035920 40.429907 0.616053 2.207450 -0.000657 -0.015656 -596229.000000 0 0 1
-25.883227 -18.947255 -25.425720 40.931737 0.631900 2.241036 0.012756 -0.017617 956228.000000 0 0 1
-24.542467 -19.452655 -25.519980 40.398117 0.670220 2.254556 0.036191 -0.025833 628442.000000 0 0 1
-24.520767 -20.818355 -25.208410 40.867295 0.703919 2.235513 0.028875 -0.023944 -879177.000000 0 0 1
-23.116167 -21.384755 -25.082680 40.259232 0.746510 2.243406 0.029973 -0.019964 -294698.000000 0 0 1
-22.271867 -21.255855 -26.204300 40.429108 0.762061 2.275955 0.026238 -0.024454 -222800.000000 0 0 1
-20.935967 -21.509755 -25.848990 39.612555 0.798916 2.281735 0.033276 -0.017368 -167623.000000 0 0 1
-19.849067 -21.379755 -26.907800 39.687644 0.822508 2.315820 0.026060 -0.022855 -619364.000000 0 0 1
-19.749167 -22.377155 -27.931820 40.877295 0.847701 2.323081 0.034655 -0.014802 -857434.000000 0 0 1
-20.654667 -22.271555 -28.988690 41.987874 0.823047 2.332847 0.046246 -0.021828 -397881.000000 0 0 1
-19.966267 -22.165855 -30.379560 42.578100 0.837558 2.365280 0.049054 -0.027136 -58028.900000 0 0 1
-19.511867 -23.393555 -30.855890 43.359627 0.875623 2.362608 0.051496 -0.026887 -165179.000000 0 0 1
-18.975667 -23.264155 -32.168430 44.001190 0.886579 2.390701 0.060466 -0.027629 98535.700000 0 0 1
-18.382267 -24.629455 -32.592670 44.797320 0.929633 2.385553 0.049054 -0.024924 143021.000000 0 0 1
-17.665967 -24.758855 -33.853180 45.509615 0.951053 2.409637 0.050293 -0.018457 -57339.000000 0 0 1
-18.372367 -24.623855 34.105494 45.902754 0.929783 0.733263 0.047698 -0.011479 -524501.000000 0 0 1
-17.499667 -24.785155 32.809919 44.688176 0.956019 0.746313 0.046154 -0.009506 -246420.000000 0 0 1
-16.676967 -23.679755 32.593969 43.602968 0.957210 0.726480 0.042679 -0.012501 -659159.000000 0 0 1
-16.296467 -23.678455 31.255599 42.463591 0.968006 0.743570 0.043519 -0.006032 -316709.000000 0 0 1
-15.262967 -22.599755 31.039489 41.317756 0.976799 0.720860 0.026513 0.003086 -312841.000000 0 0 1
-15.966167 -21.381555 30.839999 40.782287 0.929394 0.713294 0.029143 -0.005272 194348.000000 0 0 1
-15.204367 -20.282955 30.396319 39.579126 0.927543 0.695102 0.026743 -0.009033 -396150.000000 0 0 1
-14.648567 -19.431155 31.548209 39.842688 0.924823 0.657014 0.028020 -0.014157 -122312.000000 0 0 1
-14.195667 -18.187155 31.044999 38.679213 0.908039 0.639109 0.028972 -0.013213 47899.100000 0 0 1
-13.727967 -17.474655 32.219709 39.139881 0.904902 0.603783 0.033178 -0.015836 -15649.300000 0 0 1
-13.319367 -16.037655 31.908389 38.115052 0.877729 0.578727 0.033768 -0.013992 -726227.000000 0 0 1
-12.254867 -16.003355 30.999599 36.976537 0.917279 0.576531 0.046250 -0.016612 -307552.000000 0 0 1
-11.939967 -14.662455 30.775019 36.119969 0.887383 0.550960 0.042558 -0.019375 -616676.000000 0 0 1
-10.463767 -14.491955 30.442229 35.302075 0.945431 0.530932 0.045492 -0.021873 -519607.000000 0 0 1
-10.170767 -13.146355 30.383399 34.632674 0.912326 0.500580 0.050680 -0.020746 184312.000000 0 0 1
-8.804567 -12.905655 30.703819 34.449976 0.972099 0.470685 0.048002 -0.019433 351736.000000 0 0 1
-8.463567 -11.435055 30.671529 33.810282 0.933634 0.434298 0.049375 -0.016200 -112639.000000 0 0 1
-9.040967 -10.723855 31.775339 34.733447 0.870339 0.415700 0.051866 -0.010708 341174.000000 0 0 1
-8.815167 -9.345655 31.584239 34.097105 0.814600 0.386318 0.031193 -0.003165 -445557.000000 0 0 1
-9.490467 -8.542555 32.681319 35.087217 0.732881 0.372471 0.019717 -0.004579 503957.000000 0 0 1
-10.860167 -8.319955 32.301519 35.079239 0.653725 0.400629 0.024807 -0.006652 362235.000000 0 0 1
-11.645567 -7.726655 33.290991 36.105547 0.585796 0.397462 0.023062 -0.011350 -246997.000000 0 0 1
-11.410367 -6.232555 33.799182 36.213615 0.499935 0.367223 0.009497 -0.000632 -387370.000000 0 0 1
-11.742967 -5.275855 32.807109 35.242564 0.422253 0.373942 0.009417 -0.004488 130308.000000 0 0 1
-11.546467 -3.966755 33.262469 35.432300 0.330915 0.351779 -0.000535 -0.006520 -483632.000000 0 0 1
-11.139867 -2.985355 32.200999 34.203996 0.261836 0.343921 -0.006771 0.005087 -780677.000000 0 0 1
-9.804467 -2.602255 32.279149 33.835525 0.259434 0.304484 -0.007146 0.010390 -572735.000000 0 0 1
-9.587367 -1.532555 31.356539 32.825278 0.158510 0.300273 -0.014685 0.016809 31954.100000 0 0 1
-8.109067 -1.079855 31.342819 32.392829 0.132387 0.255310 -0.004485 0.019780 196869.000000 0 0 1
-7.666167 -0.466255 32.570669 33.463951 0.060745 0.231575 -0.000591 0.006082 942380.000000 0 0 1
-6.269967 -0.117055 32.501629 33.101089 0.018667 0.190604 0.003051 0.008082 778596.000000 0 0 1
-5.935967 0.733545 33.774707 34.300213 -0.122953 0.175272 0.011652 -0.002858 -480530.000000 0 0 1
-6.598967 1.951545 34.040637 34.729236 -0.287539 0.199467 0.025545 -0.000742 -131363.000000 0 0 1
-6.263767 3.017345 33.174981 33.895701 -0.448912 0.206585 0.024953 -0.000065 -371268.000000 0 0 1
-6.970867 4.356145 33.449104 34.444325 -0.558533 0.240972 0.031186 0.000230 -789740.000000 0 0 1
-8.289967 4.314845 33.042649 34.338871 -0.479905 0.275637 0.018916 0.006970 -975412.000000 0 0 1
-8.959467 5.541745 33.212835 34.843585 -0.553937 0.307154 0.013190 0.006369 -331292.000000 0 0 1
-10.334767 5.387745 32.531269 34.556022 -0.480560 0.344019 -0.001405 0.012810 -360668.000000 0 0 1
-11.104767 6.515445 32.882889 35.313613 -0.530601 0.373194 0.002190 0.007729 -42591.200000 0 0 1
-12.304267 6.525345 32.135999 35.024242 -0.487618 0.408957 -0.015139 0.014226 -299010.000000 0 0 1
-13.248467 7.698945 32.250509 35.705615 -0.526421 0.443551 -0.012013 0.012895 -506443.000000 0 0 1
-13.950267 7.591545 33.440850 37.020696 -0.498369 0.443392 -0.006393 0.011630 184344.000000 0 0 1
-14.753567 8.767845 33.675208 37.796329 -0.536208 0.471330 -0.012374 0.014759 195678.000000 0 0 1
-15.365767 8.927745 -34.091931 38.445691 -0.526343 2.661075 -0.004811 0.016478 -381387.000000 0 0 1
-14.480367 9.327445 -33.119950 37.331131 -0.572248 2.662024 -0.007829 0.012902 -717330.000000 0 0 1
-15.191167 9.661445 -31.988800 36.706925 -0.566464 2.628978 -0.002335 0.017142 -1527550.000000 0 0 1
-14.339067 9.892245 -30.777840 35.365814 -0.603902 2.626548 0.001628 0.005421 -19756.300000 0 0 1
-13.563967 11.087645 -30.667620 35.318833 -0.685281 2.622577 0.007164 0.007091 75951.400000 0 0 1
-12.425767 11.119145 -31.506150 35.646494 -0.729960 2.654826 0.013955 -0.003502 -894328.000000 0 0 1
-11.646267 12.388445 -31.307820 35.627078 -0.816268 2.644064 0.022852 -0.006875 -789964.000000 0 0 1
-12.214867 13.511045 -31.866140 36.704253 -0.835740 2.622333 0.009685 -0.014445 -333615.000000 0 0 1
-11.241367 14.489545 -32.127950 36.993518 -0.910970 2.622914 0.013321 -0.014506 -128051.000000 0 0 1
-11.430167 15.918545 -31.535800 37.128903 -0.948065 2.585568 0.015008 -0.014385 -478319.000000 0 0 1
-12.663067 16.482345 -31.869390 38.048377 -0.915698 2.563675 -0.000804 -0.017280 -333626.000000 0 0 1
-13.108967 17.405645 -30.918850 37.825610 -0.925286 2.527688 -0.017980 -0.004404 -383362.000000 0 0 1
-14.569767 17.858145 -31.060110 38.677149 -0.886458 2.503211 -0.030017 -0.005877 -398333.000000 0 0 1
-14.670767 18.607845 -32.216290 39.992157 -0.903157 2.507425 -0.015526 -0.008287 893560.000000 0 0 1
-15.952267 19.218845 -32.513470 40.999567 -0.878009 2.486547 -0.017645 -0.011138 825370.000000 0 0 1
-16.284267 20.460245 -31.651440 41.056213 -0.898562 2.451095 -0.031507 -0.013550 -966136.000000 0 0 1
-15.500967 21.606345 -31.845840 41.488211 -0.948470 2.445865 -0.016749 -0.008237 -45430.000000 0 0 1
-16.018667 22.881245 -31.401790 42.026438 -0.960018 2.414622 -0.028772 -0.006060 128687.000000 0 0 1
-17.351667 23.284245 -32.094830 43.281803 -0.930367 2.406147 -0.011654 -0.010490 -332899.000000 0 0 1
-18.483067 22.775145 -31.485070 43.030694 -0.889055 2.391592 -0.012084 -0.008598 -392462.000000 0 0 1
-19.530467 22.490245 -32.399500 44.011110 -0.855718 2.398185 0.016632 -0.017700 19370.500000 0 0 1
-20.849567 21.967245 -31.761880 43.887143 -0.811496 2.379970 0.022617 -0.024080 354394.000000 0 0 1
-21.700467 22.892445 -31.004360 44.229454 -0.812122 2.347580 0.033194 -0.024980 1053330.000000 0 0 1
-22.433067 23.794845 -31.817820 45.626865 -0.814848 2.342488 0.050628 -0.018917 -76158.500000 0 0 1
-23.697167 23.235245 -32.546650 46.483510 -0.775556 2.346441 0.047806 -0.025089 -412011.000000 0 0 1
-23.392067 22.406445 -33.632350 46.694459 -0.763881 2.374980 0.067537 -0.028281 718332.000000 0 0 1
-24.577167 22.052245 -34.363987 47.657342 -0.731302 2.376133 0.080251 -0.026803 502714.000000 0 0 1
-24.387067 20.888745 33.779299 46.605898 -0.708284 0.760073 0.089180 -0.020352 -46448.800000 0 0 1
-24.075967 19.638945 34.400579 46.354506 -0.684246 0.734569 0.089200 -0.020561 333765.000000 0 0 1
-23.705867 18.716545 33.373771 45.012063 -0.668325 0.735582 0.082133 -0.033883 -267134.000000 0 0 1
-23.268967 17.325345 33.989184 44.686430 -0.640016 0.706536 0.061352 -0.023410 -647956.000000 0 0 1
-24.232167 16.294545 34.065040 44.867996 -0.591985 0.708670 0.065617 -0.012587 245247.000000 0 0 1
-24.868767 15.858845 32.911959 44.194520 -0.567681 0.730701 0.065051 -0.016603 -450372.000000 0 0 1
-25.845417 14.685345 33.098481 44.487688 -0.516708 0.731771 0.041444 -0.009593 -77987.700000 0 0 1
-27.040487 14.972545 33.821303 45.817525 -0.505686 0.740437 0.040674 -0.005009 397897.000000 0 0 1
-28.050667 13.995945 33.566567 45.928649 -0.462809 0.751242 0.015409 0.004212 101217.000000 0 0 1
-27.970577 12.739545 34.481239 46.190963 -0.427387 0.728020 0.000358 0.009012 -179628.000000 0 0 1
-26.970297 11.745345 34.242783 45.143308 -0.410724 0.709734 0.003796 -0.001285 -49751.000000 0 0 1
-27.361077 10.442045 -34.471478 45.232152 -0.364578 2.437349 0.001948 0.000779 -112796.000000 0 0 1
-26.182307 9.432945 -34.217835 44.106166 -0.345803 2.458788 -0.000304 -0.007270 272193.000000 0 0 1
-25.395497 9.051145 33.839302 43.266070 -0.342372 0.672734 0.008329 -0.003267 399998.000000 0 0 1
-24.438067 10.030945 33.422193 42.601431 -0.389494 0.668855 -0.002134 -0.006694 17238.200000 0 0 1
-23.192667 9.480745 32.655179 41.159993 -0.388054 0.654468 0.002105 -0.006618 317136.000000 0 0 1
-23.415467 9.154745 31.295579 40.143576 -0.372698 0.676783 0.013557 -0.006448 -198177.000000 0 0 1
-22.173867 8.938445 30.691619 38.904391 -0.383182 0.661782 0.011148 -0.005860 -146919.000000 0 0 1
-22.321767 9.034445 29.189749 37.840771 -0.384583 0.689784 0.017761 -0.009670 -158727.000000 0 0 1
-22.518067 10.395545 28.688709 37.923248 -0.432503 0.712861 0.018119 -0.014573 336771.000000 0 0 1
-22.282267 10.450445 27.282159 36.742719 -0.438544 0.733973 0.010791 -0.013946 -1200550.000000 0 0 1
-22.425067 11.858145 26.636229 36.782984 -0.486413 0.761002 0.016161 -0.014383 1395090.000000 0 0 1
-23.774367 12.407645 26.710009 37.849634 -0.481007 0.787403 0.032280 -0.008792 1144210.000000 0 0 1
-24.708967 11.843845 25.832599 37.658105 -0.446978 0.814851 0.025043 -0.004394 -827715.000000 0 0 1
-26.085657 12.454045 26.114489 38.955504 -0.445428 0.836093 0.009881 -0.000192 -665646.000000 0 0 1
-26.139057 13.855845 25.883959 39.309211 -0.487423 0.852012 0.016855 -0.005326 -218243.000000 0 0 1
-27.396337 14.483845 25.979519 40.438552 -0.486326 0.873113 0.008024 -0.011615 -258845.000000 0 0 1
-27.490817 15.938045 25.404919 40.683857 -0.525403 0.896373 0.008923 -0.019441 -213117.000000 0 0 1
-26.698687 16.919945 26.031629 40.948140 -0.564857 0.881853 0.024939 -0.020477 13804.500000 0 0 1
-26.642367 18.091045 25.247289 40.920988 -0.596515 0.905901 0.017745 -0.031137 -481511.000000 0 0 1
-22.118067 -9.043455 32.635859 40.448637 0.388131 0.632001 0.010618 0.007492 -170001.000000 0 0 1
-21.115067 -8.811655 31.681079 39.079177 0.395344 0.625467 0.014367 -0.003949 -268144.000000 0 0 1
-21.610967 -9.170755 30.437429 38.439221 0.401325 0.656992 0.019172 -0.005290 -178474.000000 0 0 1
-20.641267 -9.101355 29.217389 36.912767 0.415286 0.657496 0.035471 -0.005746 50002.600000 0 0 1
-20.239667 -7.690255 28.916079 36.123729 0.363112 0.642712 0.038453 -0.011638 773246.000000 0 0 1
-19.094067 -7.196555 29.645119 35.988983 0.360435 0.602842 0.032947 -0.006249 1020530.000000 0 0 1
-17.731467 -7.431955 28.878679 34.693183 0.396896 0.587368 0.035390 -0.006243 133065.000000 0 0 1
-17.365967 -8.813955 28.677699 34.665156 0.469663 0.596552 0.035960 -0.012384 479264.000000 0 0 1
-16.891667 -9.562555 29.858929 35.613572 0.515128 0.576429 0.035557 -0.010585 -230479.000000 0 0 1
-15.524267 -9.116655 30.457599 35.380526 0.530993 0.533843 0.030643 -0.014166 -632142.000000 0 0 1
-14.477067 -9.623855 29.691509 34.406246 0.586685 0.529680 0.029953 -0.010585 -603806.000000 0 0 1
-13.230967 -9.137555 30.143919 34.164444 0.604402 0.490031 0.017775 -0.008981 -5124.250000 0 0 1
-12.020467 -9.954155 29.690639 33.542672 0.691642 0.483958 0.024856 -0.009251 -446110.000000 0 0 1
-11.740167 -9.775755 28.295469 32.156344 0.694350 0.495073 0.023449 -0.009244 90142.600000 0 0 1
-10.672867 -10.624755 27.914449 31.717692 0.783139 0.494743 0.027434 -0.009558 -2926.500000 0 0 1
-10.016767 -10.349755 26.517459 30.176625 0.801746 0.497577 0.019512 -0.009861 136611.000000 0 0 1
-10.822967 -10.685355 25.394519 29.600592 0.779000 0.539616 0.016881 -0.007016 253156.000000 0 0 1
-10.251067 -10.254755 24.182419 28.196343 0.785578 0.540126 -0.008120 -0.006808 74756.800000 0 0 1
-11.150467 -10.779955 23.032629 27.767649 0.768505 0.592625 -0.014321 -0.007683 -361531.000000 0 0 1
-11.085467 -12.214955 22.901129 28.223296 0.833835 0.624208 -0.004796 -0.007778 1061180.000000 0 0 1
-12.297967 -12.842755 22.393229 28.594284 0.807064 0.671102 -0.011904 -0.004123 1372790.000000 0 0 1
-13.515167 -12.789955 23.381229 29.881843 0.757836 0.672196 -0.002768 -0.001642 -775581.000000 0 0 1
-14.671167 -13.333955 22.820529 30.229357 0.737686 0.715275 0.007663 0.002651 -538424.000000 0 0 1
-15.676767 -13.091355 23.778929 31.346165 0.695768 0.709648 0.013163 0.005576 -1146170.000000 0 0 1
-17.018567 -13.712455 23.528729 32.113301 0.678228 0.748547 0.020070 0.001132 -1418790.000000 0 0 1
-16.993267 -15.146255 23.743229 32.892569 0.727993 0.764336 0.005609 0.002884 291161.000000 0 0 1
-18.212567 -15.853855 23.494329 33.690144 0.716270 0.799082 0.017041 0.008436 316121.000000 0 0 1
-19.123867 -15.737755 24.757169 35.018804 0.688572 0.785595 0.015570 0.003895 -514112.000000 0 0 1
-18.701667 -16.523255 25.856319 35.934935 0.723634 0.767669 0.008481 0.011039 418143.000000 0 0 1
-19.477767 -16.351655 27.052499 37.129473 0.698369 0.754522 0.014382 0.005219 -52341.900000 0 0 1
-18.899767 -17.233455 28.202549 38.073310 0.739315 0.736620 0.010436 0.004454 -140485.000000 0 0 1
-18.999667 -18.622655 28.013619 38.633580 0.775378 0.759601 0.015665 0.008659 193494.000000 0 0 1
-18.843967 -19.344255 29.201389 39.774570 0.798498 0.746349 0.017075 0.004602 -364707.000000 0 0 1
-18.745667 -20.897555 28.900629 40.290870 0.839626 0.770877 0.024500 0.008289 -563958.000000 0 0 1
-19.868167 -21.560955 28.410139 40.825909 0.826235 0.801145 0.017199 0.010331 -266932.000000 0 0 1
-19.585167 -22.945755 28.376119 41.416067 0.864250 0.815990 0.022966 0.013373 668776.000000 0 0 1
-20.833567 -23.722255 27.840379 42.093581 0.850141 0.848123 0.023910 0.019538 1233580.000000 0 0 1
-21.872867 -24.007855 28.798919 43.407109 0.831898 0.845361 0.011314 0.013596 1053370.000000 0 0 1
-23.053167 -24.524255 28.162369 43.886292 0.816308 0.874068 -0.000345 0.019159 818115.000000 0 0 1
-23.861267 -25.517445 29.055099 45.438957 0.818926 0.877038 -0.005497 0.020015 -128864.000000 0 0 1
-24.690567 -24.975255 30.042839 46.216443 0.791130 0.863151 -0.002016 0.020899 329587.000000 0 0 1
-25.391437 -25.988935 30.762119 47.607329 0.797027 0.868250 -0.003729 0.019987 129495.000000 0 0 1
-26.399777 -25.426695 31.800089 48.525361 0.766625 0.856178 0.025585 0.000814 884347.000000 0 0 1
-27.526167 -24.761555 31.208969 48.423385 0.732574 0.870425 0.022444 0.003136 405591.000000 0 0 1
-28.635007 -24.600755 32.045709 49.518565 0.709762 0.866962 0.030040 -0.006651 239426.000000 0 0 1
-29.860417 -23.993355 31.254969 49.438838 0.676882 0.886414 0.038006 -0.007451 245143.000000 0 0 1
-30.416757 -25.064755 30.469999 49.818088 0.689231 0.912683 0.034355 -0.006935 146710.000000 0 0 1
-31.534117 -24.714855 29.684439 49.863719 0.664753 0.933143 0.023946 -0.002977 994337.000000 0 0 1
-32.945047 -25.078745 30.289809 51.300995 0.650649 0.939201 0.026436 -0.003591 649531.000000 0 0 1
-33.061037 -26.465355 30.517699 52.199398 0.675046 0.946364 0.034152 -0.015379 -232608.000000 0 0 1
-33.992227 -26.772875 31.512819 53.528647 0.667145 0.941335 0.035721 -0.017933 -64744.000000 0 0 1
-34.054837 -28.248405 31.699869 54.429643 0.692470 0.949117 0.042897 -0.025565 730567.000000 0 0 1
-32.846067 -28.666405 32.360319 54.293804 0.717554 0.932258 0.034224 -0.016177 635455.000000 0 0 1
-32.784177 -30.075775 32.417319 55.047589 0.742339 0.941104 0.035193 -0.019733 426240.000000 0 0 1
-31.568397 -30.603205 33.235622 55.115573 0.769875 0.923519 0.040452 -0.015775 262014.000000 0 0 1
-31.847087 -30.299145 -34.565049 55.919744 0.760495 2.237144 0.035676 -0.020866 -123522.000000 0 0 1
-30.898347 -30.755185 -33.663160 55.079920 0.783076 2.228333 0.022498 -0.017287 -239007.000000 0 0 1
-31.436647 -30.362365 -32.269510 54.327316 0.768016 2.206797 0.016287 -0.021086 -191364.000000 0 0 1
-31.509797 -28.993945 -31.929430 53.413525 0.743840 2.211523 0.016853 -0.013698 -846439.000000 0 0 1
-30.304147 -28.385425 -31.637170 52.201381 0.752717 2.221894 0.020711 -0.008737 -868746.000000 0 0 1
-30.494267 -26.828995 -31.361840 51.315303 0.721545 2.228321 0.018911 -0.007210 -4004.550000 0 0 1
-31.089937 -26.449745 -30.109360 50.722251 0.704929 2.206337 0.007355 -0.013173 -42724.000000 0 0 1
-31.006987 -25.078105 -29.952470 49.874794 0.680077 2.214989 0.010836 0.000609 443887.000000 0 0 1
-29.802987 -24.443555 -29.170650 48.338724 0.686920 2.218634 0.001452 -0.005353 315971.000000 0 0 1
-29.756807 -23.032255 -29.149220 47.598627 0.658695 2.229884 -0.001853 -0.002874 70090.200000 0 0 1
-28.753957 -22.472155 -28.311760 46.188132 0.663378 2.230606 -0.000850 0.000738 -67703.300000 0 0 1
-28.698417 -20.938155 -28.376080 45.466552 0.630312 2.244787 0.004386 -0.009274 13800.100000 0 0 1
-27.956247 -20.524455 -29.522450 45.545362 0.633288 2.276013 0.008894 -0.009107 522925.000000 0 0 1
-27.809067 -19.107555 -29.502830 44.820306 0.602014 2.289284 0.006832 -0.013083 -313603.000000 0 0 1
-27.164417 -18.540255 -30.770190 45.038330 0.598898 2.322932 0.015486 -0.008157 -249828.000000 0 0 1
-27.938767 -18.472055 -31.934250 46.277293 0.584182 2.332372 0.016822 -0.007038 360449.000000 0 0 1
-28.946757 -17.447655 -31.886670 46.466064 0.542439 2.327097 0.013542 -0.011385 240529.000000 0 0 1
-29.577667 -16.923255 -33.242380 47.605575 0.519700 2.343799 0.013549 -0.014654 676776.000000 0 0 1
-30.456957 -17.719755 -34.074378 49.017131 0.526927 2.339428 0.016362 -0.011722 171836.000000 0 0 1
-31.787997 -17.536755 -33.699000 49.534201 0.504131 2.318993 0.025900 -0.017009 -739139.000000 0 0 1
-32.806207 -18.015055 34.420815 50.848618 0.502179 0.827216 0.030978 -0.016256 -310687.000000 0 0 1
-32.998167 -19.442155 34.454631 51.516968 0.532432 0.838201 0.022324 -0.014444 849568.000000 0 0 1
-34.008867 -19.918355 33.517719 51.737621 0.529824 0.866050 0.033511 -0.016437 580892.000000 0 0 1
-34.346482 -21.398455 33.718375 52.673556 0.557172 0.876118 0.027898 -0.016361 -497649.000000 0 0 1
-33.241247 -22.232155 33.626344 52.249213 0.589487 0.871635 0.032171 -0.016499 -846360.000000 0 0 1
-33.560167 -23.571955 33.994023 53.268335 0.612321 0.878683 0.030823 -0.017841 -648619.000000 0 0 1
-32.275387 -24.426955 34.196364 52.988376 0.647857 0.869307 0.028541 -0.010593 402442.000000 0 0 1
-31.384377 -24.039555 -33.930490 52.097576 0.653645 2.280076 0.016729 -0.014075 -174237.000000 0 0 1
-30.716327 -22.844155 -34.230658 51.352566 0.639466 2.300409 0.023388 -0.010968 -2132290.000000 0 0 1
-29.361927 -22.848055 -33.507670 50.069155 0.661277 2.303965 0.020667 -0.006036 -534912.000000 0 0 1
-28.551207 -23.929455 -34.012990 50.444759 0.697559 2.310761 0.020986 -0.001301 11803.800000 0 0 1
-27.234627 -23.955555 -33.525550 49.391862 0.721429 2.316878 0.022976 0.002073 -53385.000000 0 0 1
-27.046947 -24.435355 -32.079740 48.556499 0.734714 2.292505 0.015392 0.006953 -551663.000000 0 0 1
-27.006637 -25.830375 -31.743240 49.032642 0.763140 2.274951 0.026208 0.004468 403649.000000 0 0 1
-26.268987 -25.998055 -30.500140 47.918859 0.780215 2.260742 0.014755 0.008601 407094.000000 0 0 1
-25.962527 -27.468005 -30.130720 48.336367 0.813567 2.243822 0.020956 0.004731 17176.700000 0 0 1
-27.158767 -28.208265 -30.027050 49.344995 0.804351 2.224981 0.014423 0.014208 12777.200000 0 0 1
-26.976607 -29.425065 -29.326240 49.533828 0.828782 2.204390 0.019333 0.012056 -175944.000000 0 0 1
-27.769677 -30.681375 -29.666700 50.917726 0.835171 2.192769 0.018727 0.014415 -342578.000000 0 0 1
-27.394947 -31.125995 -30.961820 51.748864 0.849068 2.212186 0.028210 -0.000133 226109.000000 0 0 1
-27.910347 -32.371155 -31.357730 53.011191 0.859263 2.203752 0.043645 0.002474 -289575.000000 0 0 1
-27.431477 -32.932625 -32.750290 53.940942 0.876280 2.223266 0.028079 -0.014522 1169140.000000 0 0 1
-26.000557 -33.085165 -32.927140 53.430830 0.904732 2.234778 0.017932 -0.008840 973952.000000 0 0 1
-25.702047 -33.689865 -34.183466 54.443655 0.919089 2.249608 0.024995 -0.011698 -111546.000000 0 0 1
-24.210967 -33.615715 34.571849 53.957390 0.946623 0.875354 0.015614 -0.009943 113708.000000 0 0 1
-23.936967 -34.346615 33.422885 53.570118 0.962138 0.897061 0.016006 -0.003412 80733.500000 0 0 1
-23.024167 33.808732 33.782805 53.051112 -0.972928 0.880459 0.000247 0.001006 -593732.000000 0 0 1
-22.699567 32.974449 32.467699 51.543536 -0.967899 0.889361 -0.000482 -0.004248 -359927.000000 0 0 1
-23.828167 32.573499 31.721379 51.332838 -0.939228 0.904657 0.014509 -0.019048 -229407.000000 0 0 1
-23.501167 31.694879 30.715869 50.003348 -0.932769 0.909328 0.002783 -0.013682 328726.000000 0 0 1
-24.809367 31.128929 30.074659 49.889879 -0.897895 0.923764 0.014365 -0.014616 469212.000000 0 0 1
-25.465837 30.208039 30.887809 50.150685 -0.870371 0.907268 0.015989 -0.017019 -201160.000000 0 0 1
-26.629987 29.658119 30.334369 50.089262 -0.839143 0.920269 0.023094 -0.018317 14945.100000 0 0 1
-27.284727 28.615239 31.247419 50.395331 -0.809195 0.901995 0.039755 -0.030652 61775.300000 0 0 1
-26.502887 27.427179 31.218759 49.287565 -0.802535 0.884857 0.031127 -0.031090 152248.000000 0 0 1
-27.168187 26.322099 31.724389 49.370033 -0.769582 0.872930 0.036300 -0.025362 436486.000000 0 0 1
-28.163757 25.568139 30.763939 48.921844 -0.737129 0.890738 0.042216 -0.024548 816151.000000 0 0 1
-27.463507 25.099539 29.579899 47.531058 -0.740454 0.899083 0.028864 -0.024456 -193515.000000 0 0 1
-28.089167 24.073139 28.838729 46.906179 -0.708559 0.908642 0.027560 -0.010561 -340441.000000 0 0 1
-27.558637 23.902339 27.429879 45.642070 -0.714467 0.926072 0.041029 -0.025966 -866919.000000 0 0 1
-26.416977 23.109939 27.501059 44.589620 -0.718725 0.906177 0.040537 -0.028952 -480596.000000 0 0 1
-26.104577 22.588839 26.260979 43.374458 -0.713322 0.920468 0.022785 -0.015397 -533601.000000 0 0 1
-24.895267 21.661839 26.171739 42.118517 -0.716059 0.900289 0.026015 -0.020344 -307947.000000 0 0 1
-25.133807 20.380439 26.795819 42.012932 -0.681338 0.879159 0.044823 -0.036776 894159.000000 0 0 1
-23.852967 19.792439 27.021409 41.120083 -0.692631 0.853786 0.038686 -0.019377 230188.000000 0 0 1
-23.872267 18.660139 28.078049 41.309354 -0.663461 0.823440 0.054165 -0.033302 -585616.000000 0 0 1
-22.656067 18.040739 28.366579 40.539221 -0.672473 0.795774 0.052940 -0.032930 -352380.000000 0 0 1
-22.670967 17.271939 29.538689 41.046641 -0.651044 0.767517 0.055934 -0.029428 31091.900000 0 0 1
-21.457567 16.348139 29.852659 40.235184 -0.651062 0.734816 0.055164 -0.028105 540020.000000 0 0 1
-20.277767 17.014339 30.294309 40.229600 -0.698111 0.718133 0.080208 -0.029816 704856.000000 0 0 1
-19.171767 16.100939 30.292039 39.298912 -0.698558 0.690683 0.054231 -0.020912 -251692.000000 0 0 1
-17.908567 16.650339 30.883519 39.392160 -0.749006 0.669710 0.042153 -0.023056 -927562.000000 0 0 1
-18.034367 16.500839 32.302029 40.508482 -0.741023 0.647799 0.026469 -0.020393 284071.000000 0 0 1
-16.908467 16.988639 32.991779 40.779500 -0.787763 0.628299 0.012527 -0.016579 -632837.000000 0 0 1
-17.004567 16.573339 34.555164 41.927201 -0.772556 0.602060 -0.003694 -0.014671 255665.000000 0 0 1
-18.070367 17.056239 -33.807780 41.957352 -0.756536 2.507763 0.019002 -0.011558 249690.000000 0 0 1
-19.346667 16.485139 -33.991220 42.443566 -0.705707 2.499521 0.028892 -0.006672 -143833.000000 0 0 1
-20.505467 17.205939 -33.283480 42.711925 -0.698126 2.464272 0.034906 -0.024587 -683494.000000 0 0 1
-20.641567 17.011439 -31.892110 41.624152 -0.689285 2.443691 0.019959 -0.021850 355876.000000 0 0 1
-21.618467 17.894939 -31.348950 42.075451 -0.691441 2.411429 0.010716 -0.018580 -202167.000000 0 0 1
-21.727867 17.778739 -29.838890 40.970027 -0.685768 2.386649 0.005659 -0.010338 -44526.900000 0 0 1
-22.292567 16.576639 -29.299610 40.375867 -0.639389 2.382806 0.011453 -0.014462 466441.000000 0 0 1
-23.705067 16.490439 -29.480160 41.266749 -0.607801 2.366535 0.027768 -0.018620 312291.000000 0 0 1
-24.433567 15.544239 -28.501470 40.631962 -0.566601 2.348232 0.020299 -0.016657 -149065.000000 0 0 1
-24.232567 14.164039 -28.735290 40.169070 -0.528948 2.367934 -0.007055 -0.007673 -87092.900000 0 0 1
-25.088867 13.441439 -27.875260 39.839097 -0.491839 2.345768 -0.021904 -0.000776 70458.800000 0 0 1
-25.070247 11.915039 -28.056480 39.467094 -0.443665 2.361549 -0.018499 -0.000492 -241117.000000 0 0 1
-23.869267 11.478139 -27.498590 38.179340 -0.448231 2.374956 -0.022159 0.003949 -581405.000000 0 0 1
-23.469367 10.264539 -28.112270 38.032508 -0.412292 2.402625 -0.026796 0.008252 367148.000000 0 0 1
-22.310167 9.681839 -27.230810 36.510253 -0.409440 2.412591 -0.000781 0.000444 761790.000000 0 0 1
-22.794967 9.099339 -25.960330 35.726002 -0.379801 2.384231 -0.012937 0.003840 123383.000000 0 0 1
-21.659667 8.658639 -25.250210 34.375664 -0.380298 2.395781 0.015009 0.010041 -281300.000000 0 0 1
-21.945767 7.558839 -24.213020 33.541363 -0.331706 2.377319 0.023904 0.010567 -113808.000000 0 0 1
-22.335967 6.328239 -24.802520 33.972150 -0.276085 2.389241 0.014885 -0.008988 161929.000000 0 0 1
-22.372367 5.321339 -23.864120 33.141147 -0.233514 2.374707 0.024513 -0.004116 -196470.000000 0 0 1
34.336701 24.884345 -11.087120 43.831084 0.627122 1.826526 -0.035433 0.004328 190886.000000 0 0 1
35.049723 24.267345 -10.006220 43.789400 0.605586 1.801341 -0.019053 0.001063 -304187.000000 0 0 1
-34.502468 23.214145 -10.452220 42.878499 -0.592254 1.817041 -0.008658 0.004100 -347862.000000 0 0 1
-33.509877 22.635845 -9.398820 41.516637 -0.594092 1.799163 -0.019444 0.005004 -186328.000000 0 0 1
-34.092981 21.879145 -8.382720 41.367842 -0.570553 1.774848 -0.003870 -0.001267 -589928.000000 0 0 1
-33.119817 21.381645 -7.534420 40.135576 -0.573265 1.759641 -0.009326 -0.000326 -693879.000000 0 0 1
-33.706307 20.522245 -6.405520 39.978849 -0.546905 1.731713 -0.005901 -0.000781 -308644.000000 0 0 1
-34.130927 19.259645 -6.889220 39.790897 -0.513746 1.744809 -0.010979 -0.004359 380469.000000 0 0 1
-34.450746 18.358745 -5.790820 39.464300 -0.489619 1.718064 -0.018591 -0.014966 -383390.000000 0 0 1
35.055886 17.140445 -6.309820 39.528772 0.454766 1.731108 -0.014708 -0.002491 65432.100000 0 0 1
33.898052 17.564445 -7.013020 38.817137 0.478066 1.752462 0.004857 -0.013134 204694.000000 0 0 1
33.269862 16.553145 -7.785820 37.967214 0.461679 1.777328 0.019645 -0.006934 -210453.000000 0 0 1
32.201032 17.075245 -8.727620 37.478551 0.487569 1.805824 0.020746 -0.022762 -110904.000000 0 0 1
31.501812 15.969145 -9.343920 36.533363 0.469174 1.829434 0.035048 -0.021579 121932.000000 0 0 1
30.793712 16.377945 -10.470820 36.416038 0.488810 1.862447 0.046147 -0.022916 -534018.000000 0 0 1
30.176322 15.227945 -11.283420 35.634482 0.467347 1.892985 0.040985 -0.014842 624370.000000 0 0 1
29.001172 14.528045 -10.807520 34.189685 0.464405 1.892417 0.033943 -0.009283 1002000.000000 0 0 1
29.138142 13.904245 -9.558220 33.670743 0.445228 1.858627 0.035134 -0.014024 -1062560.000000 0 0 1
28.026182 12.903945 -9.337120 32.236012 0.431489 1.864656 0.023975 -0.006888 -437954.000000 0 0 1
28.231972 11.703545 -10.110720 32.190742 0.392986 1.890292 0.022894 -0.002456 -218012.000000 0 0 1
27.172852 10.824345 -9.951520 30.896004 0.379084 1.898740 0.012559 0.003887 -747329.000000 0 0 1
27.447482 9.340145 -10.405320 30.803786 0.328000 1.915368 0.004386 0.009755 554993.000000 0 0 1
28.613062 8.818245 -9.725820 31.481111 0.298953 1.884876 0.010039 0.008744 1178180.000000 0 0 1
28.608142 7.390245 -9.748920 31.114031 0.252800 1.889493 0.003568 0.009879 -1246280.000000 0 0 1
29.696192 6.959845 -8.820820 31.750750 0.230213 1.852315 0.020573 0.005660 -347244.000000 0 0 1
30.998102 7.307845 -9.283820 33.173427 0.231524 1.854442 0.023919 0.003525 -234079.000000 0 0 1
31.942862 6.793445 -8.418120 33.724799 0.209553 1.823076 0.022401 -0.001161 -591229.000000 0 0 1
33.396602 7.059145 -8.844120 35.261637 0.208307 1.824318 0.021746 -0.000672 -47607.500000 0 0 1
33.732442 6.312345 -10.002420 35.745933 0.184990 1.854403 0.016575 -0.000027 -91693.600000 0 0 1
35.101937 6.359145 -10.307020 37.132457 0.179218 1.852065 0.026585 -0.006794 -1189700.000000 0 0 1
-34.870277 5.833145 -11.760520 37.259517 -0.165747 1.891925 0.027704 -0.007640 688642.000000 0 0 1
-33.481717 5.734345 -12.136920 36.072329 -0.169622 1.913952 0.023270 -0.011122 1342280.000000 0 0 1
-32.795617 6.929345 -12.499220 35.774276 -0.208226 1.927718 0.011436 -0.005223 -183087.000000 0 0 1
-32.197727 7.752845 -11.316620 34.998087 -0.236290 1.900064 0.007585 -0.001299 -748279.000000 0 0 1
-33.074157 8.604445 -10.564220 35.770645 -0.254514 1.870599 0.020656 -0.004524 177806.000000 0 0 1
-33.479447 9.741345 -11.278320 36.646523 -0.283147 1.883634 0.019407 -0.003951 15090.300000 0 0 1
-34.156323 10.754645 -10.325820 37.268476 -0.305038 1.851535 0.023329 -0.002808 30864.700000 0 0 1
-33.232937 11.314545 -9.419020 36.347833 -0.328152 1.832924 0.012761 -0.003941 -69214.400000 0 0 1
-33.836537 12.242945 -8.545420 36.984120 -0.347171 1.803960 0.028838 -0.009726 -517530.000000 0 0 1
-32.864267 13.011845 -7.614820 36.157345 -0.376990 1.782987 0.036561 -0.005380 -53573.400000 0 0 1
-32.096627 13.912145 -8.380520 35.971855 -0.409002 1.805931 0.013905 -0.009776 54880.900000 0 0 1
-31.348837 14.831345 -7.587920 35.500632 -0.441902 1.786199 -0.000881 -0.004061 777188.000000 0 0 1
-30.532997 16.044245 -8.200320 35.453165 -0.483817 1.804210 -0.009645 -0.000472 764413.000000 0 0 1
-31.468527 16.995845 -8.696220 36.806945 -0.495203 1.809317 -0.008980 -0.000408 66293.200000 0 0 1
-30.859527 18.208045 -9.022020 36.949156 -0.533056 1.817464 -0.015687 0.006982 -127963.000000 0 0 1
-31.608977 19.069245 -10.036520 38.255657 -0.542832 1.836257 -0.030338 0.006436 -12034.100000 0 0 1
-31.559137 18.512245 -11.327120 38.301253 -0.530500 1.871024 -0.043377 0.007412 -258213.000000 0 0 1
-32.305077 19.391545 -12.136820 39.584750 -0.540613 1.882419 -0.036687 0.005413 -380213.000000 0 0 1
-32.051627 19.344945 -13.639420 39.844290 -0.543030 1.920179 -0.048343 0.022096 89042.600000 0 0 1
-31.084647 20.329445 -14.017120 39.699134 -0.579184 1.931661 -0.052738 0.020160 252217.000000 0 0 1
-31.069677 20.561645 -15.420720 40.322508 -0.584620 1.963226 -0.059718 0.021376 -435852.000000 0 0 1
-30.265177 21.813845 -15.766820 40.502066 -0.624522 1.970651 -0.035116 0.010372 696262.000000 0 0 1
-28.850377 21.742145 -15.487520 39.305577 -0.645812 1.975807 -0.041128 0.013718 1011980.000000 0 0 1
-28.338517 23.045945 -15.335320 39.615138 -0.682761 1.968289 -0.037316 0.009284 186452.000000 0 0 1
-27.523117 23.516245 -16.578420 39.816827 -0.707053 2.000242 -0.031874 0.001792 -335976.000000 0 0 1
-28.414487 24.165245 -17.459020 41.184457 -0.704758 2.008568 -0.023802 0.009857 176627.000000 0 0 1
-27.808887 24.849845 -18.532520 41.644967 -0.729264 2.031984 -0.023341 0.010762 -408968.000000 0 0 1
-26.904297 26.042345 -18.299220 41.676209 -0.769120 2.025372 -0.006954 0.014613 -147260.000000 0 0 1
-27.573977 27.173245 -17.771020 42.597166 -0.778079 2.001145 0.001644 0.017431 83234.700000 0 0 1
-26.747737 28.334845 -17.746420 42.816355 -0.814203 1.998165 0.000914 0.012661 418515.000000 0 0 1
-27.546417 29.717845 -17.443920 44.116275 -0.823299 1.977308 -0.008076 0.014784 307699.000000 0 0 1
-27.917947 29.976645 -16.107520 44.016624 -0.820943 1.945441 -0.010160 0.008225 526797.000000 0 0 1
-26.903547 29.920945 -15.096720 42.976444 -0.838449 1.929733 -0.005793 0.012126 -73321.800000 0 0 1
-27.438067 30.498945 -13.805620 43.285428 -0.838180 1.895411 -0.001626 0.002713 -306523.000000 0 0 1
-27.334627 31.926345 -13.837720 44.248795 -0.862727 1.888857 0.006934 0.000668 219919.000000 0 0 1
-27.887327 32.520845 -12.654520 44.670407 -0.861952 1.858016 -0.003375 -0.008195 149498.000000 0 0 1
-27.322057 33.946845 -12.399520 45.305973 -0.893106 1.848018 -0.016173 -0.000481 118410.000000 0 0 1
-27.484287 -34.326649 -13.490620 45.996757 0.895648 1.868468 -0.019204 -0.006861 -602313.000000 0 0 1
-26.535957 -33.320649 -13.506020 44.685962 0.898266 1.877841 -0.003949 -0.002881 -471379.000000 0 0 1
-26.688227 -32.329849 -14.704120 44.426250 0.880700 1.908136 -0.016368 0.007966 38529.700000 0 0 1
-26.289047 -32.884749 -15.921220 45.011176 0.896403 1.932338 -0.012832 0.001527 108703.000000 0 0 1
-26.927997 -32.133749 -16.944320 45.219518 0.873312 1.954883 -0.006123 0.009156 289199.000000 0 0 1
-26.193597 -32.366749 -18.306220 45.484378 0.890425 1.985013 -0.018401 0.012316 -117971.000000 0 0 1
-26.297167 -33.598549 -18.993420 46.702821 0.906701 1.989621 -0.019759 0.013412 -63340.600000 0 0 1
-25.695477 34.491945 -18.369120 46.769396 -0.930522 1.974427 -0.016910 0.010177 -652014.000000 0 0 1
-25.583637 33.163045 -19.164320 46.060625 -0.913708 1.999913 -0.008101 -0.001343 298165.000000 0 0 1
-26.762887 32.372745 -19.338620 46.240988 -0.879979 2.002274 -0.006814 -0.000818 7693.360000 0 0 1
-27.559257 32.947245 -20.375120 47.541341 -0.874212 2.013713 -0.014075 0.007006 -582021.000000 0 0 1
-28.998337 32.428945 -20.274020 47.995582 -0.841188 2.006904 -0.013000 0.002250 -371856.000000 0 0 1
-29.175577 31.063245 -20.610720 47.338581 -0.816724 2.021267 -0.008602 0.005557 238656.000000 0 0 1
-30.562467 30.824745 -20.782820 48.126447 -0.789671 2.017326 0.003837 0.004746 159142.000000 0 0 1
-30.949767 29.556545 -21.550820 47.915710 -0.762376 2.037299 0.013155 0.004074 74811.000000 0 0 1
-32.331527 29.322545 -21.787820 48.783690 -0.736633 2.033781 0.019959 0.005063 325798.000000 0 0 1
-32.548027 28.056645 -22.347920 48.435306 -0.711424 2.050366 0.021413 0.009867 -139208.000000 0 0 1
-34.000027 27.560945 -22.373320 49.154582 -0.681180 2.043351 0.022680 0.008394 -71245.500000 0 0 1
-34.875250 28.182545 -23.259220 50.512674 -0.679658 2.049313 0.021722 0.011949 -276853.000000 0 0 1
34.437180 27.341845 -23.853320 50.024761 0.671049 2.067841 0.025864 0.009293 5398.860000 0 0 1
33.732072 28.003045 -25.020620 50.478259 0.692863 2.089404 0.030644 0.005693 57128.500000 0 0 1
34.495079 28.207145 -26.196170 51.689388 0.685450 2.102265 0.036601 -0.008987 -504411.000000 0 0 1
33.609092 28.374245 -27.249540 51.741727 0.701142 2.125446 0.044008 -0.001846 -154414.000000 0 0 1
34.312862 28.544445 -28.620210 53.021451 0.693884 2.140979 0.042970 -0.011679 226026.000000 0 0 1
34.894001 27.264345 -28.973480 52.918790 0.663264 2.150180 0.039727 -0.003144 -97250.600000 0 0 1
-34.800973 27.348745 -30.257740 53.615225 -0.666060 2.170442 0.024162 -0.002912 -737893.000000 0 0 1
-34.242344 25.983145 -30.781080 52.869053 -0.649110 2.192245 0.019117 -0.003510 -71806.200000 0 0 1
-33.165317 25.360145 -30.169170 51.509747 -0.652817 2.196538 0.039205 -0.004893 -667547.000000 0 0 1
-31.964087 26.084845 -30.328140 51.204668 -0.684462 2.204697 0.023687 0.003494 -809840.000000 0 0 1
-30.792337 25.524445 -29.509090 49.703638 -0.692129 2.206446 0.020830 -0.004532 -406953.000000 0 0 1
-30.349097 24.305645 -30.011510 49.117439 -0.675270 2.228139 0.048495 -0.011850 296580.000000 0 0 1
-30.933187 23.227345 -29.221140 48.479342 -0.644069 2.217745 0.052089 -0.015657 -154013.000000 0 0 1
-30.764857 21.793345 -29.707840 47.999813 -0.616331 2.238158 0.036896 -0.013863 -127852.000000 0 0 1
-29.499087 21.142645 -29.740580 46.922379 -0.621861 2.257285 0.028353 -0.002854 132065.000000 0 0 1
-29.587647 19.851245 -30.238440 46.731831 -0.590948 2.274522 0.022286 -0.006927 239204.000000 0 0 1
-28.224377 19.134645 -30.519560 45.762360 -0.595772 2.300856 0.028205 -0.015072 27252.400000 0 0 1
-27.578727 19.748445 -31.608160 46.364459 -0.621433 2.320924 0.050638 -0.017333 -552645.000000 0 0 1
-26.318687 19.339945 -32.006560 45.728838 -0.633726 2.346083 0.045934 -0.016743 -512779.000000 0 0 1
-26.293467 17.940145 -32.650720 45.598955 -0.598751 2.368911 0.050991 -0.014777 -522698.000000 0 0 1
-26.408247 16.874545 -31.698670 44.575233 -0.568595 2.361897 0.031979 -0.010852 141562.000000 0 0 1
-26.263427 15.610745 -32.344330 44.492905 -0.536285 2.384673 0.013673 -0.001569 -152620.000000 0 0 1
-26.747487 14.357745 -31.580510 43.805268 -0.492644 2.375939 0.004973 -0.001086 996564.000000 0 0 1
-28.189247 14.383845 -31.446190 44.613804 -0.471822 2.353013 0.004898 -0.000715 1174680.000000 0 0 1
-28.898997 13.165345 -31.275490 44.571679 -0.427471 2.348563 -0.001880 0.002641 42803.300000 0 0 1
-28.590257 12.265945 -30.075480 43.271130 -0.405275 2.339282 -0.023653 -0.004386 -411547.000000 0 0 1
-28.984757 12.809645 -28.787840 42.812882 -0.416135 2.308257 -0.026994 -0.002396 410137.000000 0 0 1
-29.240937 11.857245 -27.766320 42.030883 -0.385240 2.292437 -0.017717 0.002818 -64779.900000 0 0 1
-29.203647 12.674145 -26.469120 41.401706 -0.409462 2.264416 -0.022373 0.006938 12686.800000 0 0 1
-27.924577 13.131845 -26.079860 40.402802 -0.439575 2.272469 -0.033371 0.002206 -82340.200000 0 0 1
-27.861627 13.777745 -24.802920 39.765328 -0.459243 2.244305 -0.038072 0.007821 -265087.000000 0 0 1
-26.435487 13.869245 -24.242520 38.456348 -0.483169 2.252853 -0.037958 0.018844 -767027.000000 0 0 1
-25.623407 14.815245 -24.897420 38.677280 -0.524230 2.270149 -0.027326 0.014782 -224248.000000 0 0 1
-24.258467 14.715745 -24.566520 37.530524 -0.545275 2.284416 -0.027050 0.006059 18428.600000 0 0 1
-23.865667 15.399345 -23.258120 36.710353 -0.573029 2.256939 -0.033851 0.010707 -950185.000000 0 0 1
-23.993767 16.820445 -23.301120 37.437553 -0.611420 2.242601 -0.017756 0.000753 -88634.800000 0 0 1
-24.254967 17.295745 -22.004720 37.035846 -0.619451 2.207001 -0.025072 0.008695 57620.000000 0 0 1
-25.702307 17.343545 -21.459220 37.708159 -0.593602 2.176191 -0.039778 0.013058 307326.000000 0 0 1
-26.392227 16.109945 -21.187620 37.483266 -0.548035 2.171539 -0.034652 0.016502 -37603.800000 0 0 1
-27.595117 16.280645 -20.496720 38.035055 -0.533021 2.139915 -0.028988 0.027797 -579554.000000 0 0 1
-28.627827 15.111445 -20.810920 38.483797 -0.485685 2.142150 -0.042118 0.017583 422249.000000 0 0 1
-29.133827 15.246645 -22.141720 39.642096 -0.482138 2.163422 -0.037004 0.019693 465157.000000 0 0 1
-29.950837 16.380845 -22.478220 40.873648 -0.500479 2.153094 -0.034241 0.009164 -396486.000000 0 0 1
-30.404757 16.448445 -23.942520 42.050503 -0.495894 2.176542 -0.022980 0.011070 419659.000000 0 0 1
-31.490337 15.578045 -24.321620 42.730060 -0.459393 2.176319 -0.008169 0.011824 472634.000000 0 0 1
-31.708937 15.612345 -25.725980 43.715307 -0.457520 2.199985 0.015385 -0.006629 241587.000000 0 0 1
-33.057967 14.933545 -26.141330 44.712516 -0.424298 2.195249 0.007582 0.005280 530046.000000 0 0 1
-33.198827 13.474145 -26.064570 44.306619 -0.385550 2.199723 0.007566 0.003281 -90694.200000 0 0 1
-33.152997 12.926445 -24.768620 43.355492 -0.371772 2.178875 -0.011866 0.011395 -344245.000000 0 0 1
-33.237807 11.351645 -24.799320 42.995557 -0.329108 2.185588 0.000156 0.008659 -451649.000000 0 0 1
-34.340977 10.729845 -25.372780 44.025109 -0.302839 2.185021 0.018151 0.005133 -370646.000000 0 0 1
-33.942647 9.565345 -26.060280 43.849028 -0.274685 2.207214 0.008886 0.009158 253136.000000 0 0 1
35.108128 8.925745 -26.738140 45.024190 0.248961 2.206646 0.018209 0.014220 533264.000000 0 0 1
34.285990 8.216945 -25.806410 43.692311 0.235222 2.202648 0.009089 0.022371 39755.200000 0 0 1
33.263522 7.475945 -26.419130 43.131451 0.221076 2.230048 0.006986 0.021266 174338.000000 0 0 1
32.310762 6.679245 -25.504890 41.702483 0.203848 2.228867 0.013360 0.010985 418335.000000 0 0 1
33.093882 5.693545 -24.844420 41.771601 0.170374 2.207774 0.009110 0.003576 547607.000000 0 0 1
32.267782 4.714445 -24.152820 40.580715 0.145077 2.208286 0.010932 0.006448 789854.000000 0 0 1
33.095492 3.641445 -23.340420 40.661369 0.109588 2.182203 0.002067 0.002835 695817.000000 0 0 1
33.804352 2.635845 -24.124920 41.613623 0.077816 2.189201 0.000461 0.002125 594263.000000 0 0 1
34.637088 1.854145 -23.265020 41.766337 0.053480 2.161599 0.004296 -0.002691 315124.000000 0 0 1
-34.936655 0.686345 -23.967620 42.373196 -0.019643 2.171995 0.021001 -0.005576 340448.000000 0 0 1
34.442914 -0.399155 -24.153120 42.069548 -0.011588 2.182330 -0.000478 -0.007329 209407.000000 0 0 1
35.095289 -1.545355 -24.599920 42.886169 -0.044005 2.181702 0.006730 -0.008521 4221.240000 0 0 1
-22.105467 29.905345 27.365609 46.172047 -0.934255 0.936404 0.004467 -0.016254 -364934.000000 0 0 1
-23.382567 30.262645 26.857969 46.732458 -0.912953 0.958537 -0.008831 -0.016912 656578.000000 0 0 1
-23.633967 29.593245 25.628339 45.728944 -0.896893 0.975879 -0.013800 -0.003930 -291361.000000 0 0 1
-23.985467 28.074745 25.628709 44.948022 -0.863786 0.964065 -0.004208 -0.011596 -661136.000000 0 0 1
-25.273377 27.820045 26.131859 45.777424 -0.833327 0.963260 -0.001923 -0.015394 -379790.000000 0 0 1
-25.346137 27.575345 27.511539 46.472692 -0.827496 0.937266 0.010225 -0.016640 -1339010.000000 0 0 1
-24.772467 26.245045 28.004219 45.680562 -0.814254 0.910888 0.019351 -0.017548 455198.000000 0 0 1
-23.375767 26.343145 28.315369 45.190130 -0.845011 0.893635 0.010296 -0.012141 455169.000000 0 0 1
-23.112267 26.897445 29.586889 46.184775 -0.860943 0.875491 0.009180 -0.014496 -487871.000000 0 0 1
-21.711967 26.593845 30.137859 45.682958 -0.886118 0.850353 0.022614 -0.006020 -427355.000000 0 0 1
-20.614667 27.136345 29.377679 44.993263 -0.921135 0.859343 0.021507 -0.007916 429129.000000 0 0 1
-19.392767 26.924645 30.050639 44.766693 -0.946602 0.834872 0.029992 -0.012534 -1697.520000 0 0 1
-18.812667 25.471345 30.112189 43.697251 -0.934643 0.810537 0.033326 0.002094 -637571.000000 0 0 1
-17.963867 25.111545 29.006309 42.363382 -0.949834 0.816601 0.030233 -0.000851 504034.000000 0 0 1
-18.647867 24.370045 27.977059 41.525388 -0.917640 0.831546 0.032027 -0.005200 -60500.300000 0 0 1
-18.594967 22.847045 28.139109 40.737817 -0.887643 0.808289 0.028901 -0.000218 113539.000000 0 0 1
-19.381967 22.336745 29.212909 41.569037 -0.856106 0.791532 0.036802 -0.006995 238300.000000 0 0 1
-19.423467 20.938645 29.104289 40.776924 -0.822920 0.775967 0.047354 -0.011005 147561.000000 0 0 1
-19.919567 20.257745 30.399529 41.608854 -0.793815 0.751593 0.055936 -0.013874 265271.000000 0 0 1
-18.916167 20.336945 31.411289 41.929486 -0.821578 0.724025 0.045126 -0.015245 406592.000000 0 0 1
-19.407367 19.991445 32.662389 42.931753 -0.800222 0.706255 0.045745 -0.012879 -270606.000000 0 0 1
-18.493667 20.500445 33.795077 43.639331 -0.836816 0.685002 0.039776 -0.011875 -233858.000000 0 0 1
-18.491767 21.897945 33.936809 44.420406 -0.869532 0.701320 0.021289 -0.017737 737392.000000 0 0 1
-17.585867 22.616145 33.040539 43.731338 -0.909876 0.714327 0.031227 -0.006036 1190740.000000 0 0 1
-16.059267 22.750145 33.380140 43.470713 -0.956123 0.695277 0.018413 0.004523 1042200.000000 0 0 1
-15.440967 21.461145 33.566477 42.728358 -0.947113 0.667166 0.015183 -0.005387 -1100500.000000 0 0 1
-14.092067 21.618245 33.813037 42.535354 -0.993115 0.651888 -0.011719 -0.002715 -1713160.000000 0 0 1
-13.405967 20.248945 33.703990 41.541529 -0.985991 0.624369 -0.020540 -0.003732 -340863.000000 0 0 1
-12.059567 20.208745 34.116180 41.445631 -1.032770 0.603851 -0.031215 -0.007692 -75904.900000 0 0 1
-11.909567 20.286045 -33.628210 41.039224 -1.039930 2.531188 -0.020006 0.000727 -582328.000000 0 0 1
-10.460067 20.061945 -33.150010 40.134994 -1.090185 2.542704 -0.022912 -0.002119 -229316.000000 0 0 1
-9.721867 21.193745 -33.408890 40.741176 -1.140720 2.532256 -0.013780 -0.000961 -509591.000000 0 0 1
-8.376867 21.042545 -32.996060 40.021251 -1.191936 2.540050 -0.011175 -0.000607 458595.000000 0 0 1
-7.465367 22.322445 -33.098830 40.614724 -1.248056 2.523433 -0.021637 -0.001393 216994.000000 0 0 1
-7.630267 23.398645 -32.172820 40.506887 -1.255571 2.488578 -0.014162 0.004733 94927.400000 0 0 1
-7.376667 23.077445 -30.762670 39.157701 -1.261412 2.474477 -0.009892 -0.004076 -144886.000000 0 0 1
-7.204867 24.305045 -29.782930 39.110973 -1.282613 2.436418 -0.011857 -0.006133 33927.100000 0 0 1
-6.057967 25.085645 -30.029130 39.594661 -1.333842 2.431672 -0.013358 0.002541 -1241.420000 0 0 1
-5.973767 26.203145 -29.207970 39.691261 -1.346648 2.397760 -0.013300 0.003199 522261.000000 0 0 1
-4.636667 26.972445 -29.504000 40.242980 -1.400556 2.393734 -0.016634 0.000910 337480.000000 0 0 1
-3.474667 26.246945 -29.091870 39.335891 -1.439178 2.403236 -0.012702 0.010787 90587.100000 0 0 1
-2.287367 26.723545 -29.671150 39.996963 -1.485411 2.406599 -0.012394 0.006208 142979.000000 0 0 1
-1.699967 28.075245 -29.150370 40.507448 -1.510320 2.374065 -0.012680 0.003358 -643407.000000 0 0 1
-1.206367 28.149445 -27.823490 39.597893 -1.527967 2.349912 -0.005639 -0.003180 376070.000000 0 0 1
-0.557067 29.404245 -27.635270 40.356264 -1.551853 2.325102 -0.006770 0.002384 -791233.000000 0 0 1
-0.048367 29.526445 -26.134910 39.431546 -1.569158 2.295337 0.006268 -0.012626 -138285.000000 0 0 1
1.022733 28.784145 -25.653600 38.570457 1.535280 2.298438 0.034435 -0.022269 -673272.000000 0 0 1
2.218933 29.016145 -26.329810 39.244353 1.494473 2.306245 0.035879 -0.022656 -524167.000000 0 0 1
3.540733 28.964945 -25.493180 38.747994 1.449158 2.288853 0.041718 -0.022034 562958.000000 0 0 1
3.887833 27.661645 -25.067650 37.532238 1.431161 2.302175 0.052072 -0.020510 -343490.000000 0 0 1
5.084433 27.593045 -24.357620 37.155366 1.388575 2.285722 0.038927 -0.012424 -565910.000000 0 0 1
5.729133 26.226145 -24.082420 36.063785 1.355724 2.302009 0.037395 -0.009469 910092.000000 0 0 1
6.916033 26.545345 -23.298820 35.990580 1.315926 2.274910 0.025648 -0.010463 59041.000000 0 0 1
7.697433 25.456745 -22.983020 35.149901 1.277164 2.283468 0.020387 -0.000600 -582952.000000 0 0 1
9.136033 25.814245 -22.645320 35.533827 1.230639 2.261772 0.006695 0.013342 -1058110.000000 0 0 1
9.349333 26.551945 -21.435120 35.381919 1.232239 2.221594 0.007615 0.020659 531416.000000 0 0 1
10.709033 26.731545 -21.014820 35.649425 1.189761 2.201218 0.014970 0.019695 938476.000000 0 0 1
11.418233 25.479045 -20.411920 34.586186 1.149488 2.202073 -0.001525 0.023978 -151745.000000 0 0 1
11.581733 24.454845 -21.395120 34.495320 1.128494 2.239835 -0.006382 0.017673 -182973.000000 0 0 1
11.739933 23.151545 -20.897720 33.324687 1.101492 2.248614 -0.009660 0.025674 -437418.000000 0 0 1
11.815333 22.181445 -22.099020 33.466181 1.081358 2.292066 -0.011864 0.014663 640599.000000 0 0 1
10.727433 22.339745 -23.045620 33.841433 1.123118 2.319908 -0.004881 -0.001936 696297.000000 0 0 1
10.987433 21.495945 -24.116220 34.123180 1.098277 2.355676 -0.010679 -0.001296 363875.000000 0 0 1
9.960133 21.477245 -25.313400 34.658974 1.136565 2.389640 0.017667 -0.005649 104792.000000 0 0 1
8.745333 20.839845 -25.012120 33.710327 1.173470 2.406803 0.010203 -0.005930 -457370.000000 0 0 1
8.058733 20.660745 -26.273930 34.382102 1.198896 2.440557 0.005411 -0.002217 -249007.000000 0 0 1
6.575933 20.323345 -26.025400 33.669017 1.257862 2.454318 0.004267 -0.010994 -400967.000000 0 0 1
5.760133 21.369345 -25.563390 33.812940 1.307503 2.428013 0.028599 -0.008246 -290542.000000 0 0 1
5.892433 21.799545 -24.243420 33.131319 1.306804 2.391664 0.025947 -0.005325 -564296.000000 0 0 1
4.578533 22.240345 -23.558520 32.720021 1.367767 2.374603 0.039101 -0.008846 367636.000000 0 0 1
3.944433 23.460245 -23.990320 33.785753 1.404222 2.360397 0.042766 -0.012989 536356.000000 0 0 1
2.614033 23.586345 -23.470720 33.376991 1.460419 2.350685 0.058386 -0.016349 450565.000000 0 0 1
1.994633 24.747545 -24.223520 34.687151 1.490371 2.343876 0.052122 -0.010305 -387222.000000 0 0 1
0.647733 24.526445 -24.576720 34.727240 1.544393 2.357044 0.047371 -0.022848 -173677.000000 0 0 1
0.231733 25.484445 -25.555690 36.091604 1.561703 2.357570 0.025387 -0.007820 185948.000000 0 0 1
-1.252267 25.318945 -25.941190 36.270683 -1.521377 2.367722 0.024430 -0.006039 -108245.000000 0 0 1
-1.515067 24.131245 -26.648860 35.982970 -1.508094 2.404754 0.040001 -0.018434 -1422040.000000 0 0 1
-2.708367 24.013345 -27.295890 36.456023 -1.458485 2.416948 0.032703 -0.008810 -1166610.000000 0 0 1
-3.045067 22.528945 -27.729230 35.857161 -1.436448 2.454865 0.028154 -0.007147 -266913.000000 0 0 1
-2.295967 21.992845 -28.842890 36.343761 -1.466777 2.487521 0.018985 -0.009700 75320.700000 0 0 1
-2.746767 20.725745 -29.282700 35.980241 -1.439035 2.521552 0.012260 -0.012927 551045.000000 0 0 1
-4.084767 20.682445 -30.137180 36.779049 -1.375807 2.531180 0.010580 -0.011660 685276.000000 0 0 1
-4.089567 21.177445 -31.498040 38.175060 -1.380035 2.541166 0.003983 -0.005429 -35880.700000 0 0 1
-3.753067 22.550445 -31.590260 38.994264 -1.405878 2.515163 0.009646 -0.005654 -362930.000000 0 0 1
-3.390967 22.974745 -33.046840 40.390979 -1.424259 2.529024 -0.004303 0.001052 327826.000000 0 0 1
-2.153167 22.441645 -33.500790 40.380273 -1.475144 2.549246 -0.013765 -0.001552 465145.000000 0 0 1
-2.189167 22.458245 34.257249 41.021023 -1.473626 0.582456 -0.012456 0.005531 212831.000000 0 0 1
-1.030367 21.686545 33.555507 39.966735 -1.523320 0.574276 -0.000495 0.005732 352337.000000 0 0 1
-1.250767 20.312745 33.532129 39.224682 -1.509298 0.545490 -0.013597 0.011539 -42825.100000 0 0 1
-0.175167 19.731045 32.846129 38.317268 -1.561919 0.540960 -0.003530 0.008105 -301617.000000 0 0 1
-0.314867 18.210545 32.518329 37.271501 -1.553508 0.510559 -0.004416 0.023110 -242961.000000 0 0 1
-0.994267 18.129745 31.299739 36.184940 -1.516009 0.525659 -0.016885 0.020484 -19860.500000 0 0 1
-1.309867 16.780245 30.999739 35.274299 -1.492894 0.497414 -0.009455 0.018762 104155.000000 0 0 1
-2.418567 16.596345 29.935399 34.313500 -1.426086 0.510687 -0.011520 0.027069 779047.000000 0 0 1
-3.743967 17.013045 30.272189 34.926586 -1.354185 0.522172 -0.025223 0.018171 590928.000000 0 0 1
-4.144467 18.224245 29.577699 34.987712 -1.347184 0.563532 -0.027386 0.021381 724100.000000 0 0 1
-5.654867 18.630145 29.746999 35.551987 -1.276101 0.579533 -0.034145 0.012393 1036810.000000 0 0 1
-6.448467 17.673945 29.038499 34.600368 -1.220947 0.574886 -0.045376 0.011279 327020.000000 0 0 1
-7.795967 18.135545 28.921299 35.015948 -1.164806 0.598917 -0.055732 0.014471 722715.000000 0 0 1
-8.760367 17.203145 28.057999 34.057944 -1.099792 0.602659 -0.053435 0.005658 265248.000000 0 0 1
-9.109467 15.891045 28.512109 33.888760 -1.050282 0.571031 -0.043074 -0.004654 237935.000000 0 0 1
-9.727767 15.790645 29.819139 35.116306 -1.018662 0.556416 -0.048543 -0.005309 -231540.000000 0 0 1
-10.270367 14.365545 30.097549 34.895727 -0.950120 0.530608 -0.038520 -0.008366 -57099.000000 0 0 1
-9.291467 13.351545 30.239669 34.337046 -0.962821 0.493518 -0.021383 -0.003231 278368.000000 0 0 1
-8.365067 13.407045 31.319629 35.080513 -1.012966 0.467289 -0.023543 0.002431 -83796.100000 0 0 1
-8.966367 13.196945 32.749479 36.429157 -0.974011 0.453336 0.002053 -0.009587 -491739.000000 0 0 1
-9.364367 11.885845 32.951579 36.259774 -0.903503 0.430484 0.008036 -0.002159 173577.000000 0 0 1
-9.649867 11.742945 34.288292 37.506048 -0.882928 0.417250 -0.002179 0.006089 -244162.000000 0 0 1
-10.087467 10.284445 -34.520492 37.405764 -0.795067 2.746252 0.007718 0.005976 244778.000000 0 0 1
-8.961567 9.378545 34.512502 36.869765 -0.808130 0.359522 0.014044 -0.000677 903994.000000 0 0 1
-8.906167 8.632745 -33.457860 35.682944 -0.769810 2.786582 0.028667 -0.003886 -95177.900000 0 0 1
-8.193167 9.329145 -32.290060 34.594926 -0.850138 2.774502 0.021288 -0.005052 -406315.000000 0 0 1
-8.888967 10.451745 -31.748380 34.586302 -0.866026 2.733669 0.028467 -0.004851 43873.800000 0 0 1
-8.053467 11.244445 -30.948670 33.898614 -0.949269 2.721319 0.031700 -0.001065 -315702.000000 0 0 1
-7.190467 12.235245 -31.737160 34.765663 -1.039481 2.721100 0.016526 -0.003690 -443655.000000 0 0 1
-7.759767 13.455645 -32.018210 35.586994 -1.047691 2.689916 0.020662 -0.009005 -118871.000000 0 0 1
-6.883967 14.202945 -32.818390 36.416471 -1.119475 2.693318 0.006206 -0.010594 -116751.000000 0 0 1
-7.440867 15.606445 -33.144810 37.383232 -1.125895 2.660786 0.004306 -0.013217 349936.000000 0 0 1
-8.561367 15.565545 -34.032720 38.390223 -1.067937 2.660510 0.009562 -0.014360 281995.000000 0 0 1
-9.026867 16.800945 -34.389375 39.324104 -1.077769 2.635224 0.016862 -0.016292 -1289520.000000 0 0 1
-9.441167 16.936045 33.254522 38.494525 -1.062244 0.527880 -0.025209 -0.011177 542210.000000 0 0 1
-10.624367 16.259645 32.839029 38.153048 -0.992021 0.534117 -0.033801 -0.004668 76982.900000 0 0 1
-11.776467 16.750545 33.463920 39.231363 -0.958026 0.549111 -0.023619 -0.012632 -1873660.000000 0 0 1
-13.044267 16.553045 32.620019 38.835832 -0.903398 0.573612 -0.025364 -0.017225 -421401.000000 0 0 1
-13.177067 15.272745 32.082469 37.896921 -0.858928 0.561285 -0.029927 -0.010126 73147.500000 0 0 1
-13.680567 14.343045 32.988659 38.485484 -0.809034 0.541044 -0.023980 -0.010226 -306682.000000 0 0 1
-12.960467 12.961845 32.957489 37.711791 -0.785451 0.507565 -0.033692 0.007828 -51477.000000 0 0 1
-13.406067 12.236045 31.826629 36.638474 -0.739801 0.518291 -0.047565 0.002737 25394.300000 0 0 1
-12.457067 11.334445 31.303259 35.546339 -0.738247 0.493601 -0.028118 -0.001712 -227293.000000 0 0 1
-12.772467 10.806245 29.885059 34.249490 -0.702201 0.510358 -0.015975 -0.002876 -887980.000000 0 0 1
-13.780967 9.865945 29.826039 34.305168 -0.621325 0.516743 -0.021737 0.006829 -341700.000000 0 0 1
-14.090067 9.508545 28.521389 33.202591 -0.593640 0.537462 -0.013490 0.008320 218984.000000 0 0 1
-15.034567 8.286645 28.449849 33.228009 -0.503743 0.542926 -0.014101 0.010324 -148402.000000 0 0 1
-14.313467 7.123945 28.687019 32.841605 -0.461813 0.508458 -0.017754 0.014486 31098.800000 0 0 1
-15.031867 5.918945 28.408319 32.680629 -0.375115 0.517071 -0.016978 0.014827 -325083.000000 0 0 1
-14.131667 4.652545 28.367609 32.032350 -0.318052 0.483028 -0.011176 0.015446 160500.000000 0 0 1
-13.113967 4.672545 27.394759 30.729166 -0.342279 0.470172 -0.007493 0.008257 -288052.000000 0 0 1
-13.587367 4.531345 26.095489 29.767838 -0.321898 0.501976 -0.003032 0.010708 -720503.000000 0 0 1
-12.558367 4.288945 24.974559 28.281376 -0.329101 0.488422 0.002552 0.017673 -807547.000000 0 0 1
-11.851967 3.127045 25.220979 28.041849 -0.257963 0.452390 -0.002573 0.014667 -43907.600000 0 0 1
-11.330567 2.693945 23.919529 26.604191 -0.233425 0.453113 0.013251 0.001990 -682450.000000 0 0 1
-10.356467 1.548445 23.916129 26.108147 -0.148415 0.412701 0.007634 -0.002931 -167273.000000 0 0 1
-9.005167 1.952345 24.098659 25.800195 -0.213499 0.365208 0.015074 -0.012196 864917.000000 0 0 1
-8.150267 0.844945 24.472339 25.807676 -0.103302 0.323092 0.009042 -0.005210 -32297.100000 0 0 1
-6.651767 1.136545 24.477419 25.390584 -0.169229 0.269007 0.021003 -0.007491 -1038120.000000 0 0 1
-6.192767 1.330645 23.170029 24.020225 -0.211653 0.266855 0.022309 -0.006199 53875.000000 0 1 0
-4.791767 1.423945 23.006529 23.543344 -0.288854 0.213955 0.024157 -0.010153 398839.000000 0 1 0
-4.154867 2.801445 23.512829 24.040885 -0.593239 0.209980 0.020874 -0.007348 -480914.000000 0 1 0
-3.947167 2.829545 24.868099 25.337893 -0.621948 0.192866 0.020807 -0.007873 246670.000000 0 0 1
-3.239467 3.974945 25.358149 25.871414 -0.886993 0.199525 0.024521 -0.006682 118748.000000 0 0 1
4.022933 -23.553655 13.049080 27.225671 -1.401630 1.070947 0.027518 -0.000647 274456.000000 0 0 1
3.947333 -24.826755 13.516380 28.541929 -1.413121 1.077465 0.024389 -0.005460 14233.500000 0 0 1
2.584433 -25.236505 13.558680 28.764532 -1.468744 1.079955 0.009223 0.004592 478763.000000 0 0 1
2.391233 -26.572925 14.228380 30.237148 -1.481050 1.080871 0.000688 0.008581 -29505.700000 0 0 1
2.191633 -26.510475 15.593580 30.834531 -1.488313 1.040582 -0.005262 -0.003576 -56486.900000 0 0 1
2.166033 -27.801635 16.177180 32.238545 -1.493043 1.045122 -0.010416 -0.003678 -488174.000000 0 0 1
1.729433 -27.948395 17.636780 33.093198 -1.508996 1.008722 -0.021246 -0.000686 -273341.000000 0 0 1
2.623233 -27.334185 18.561180 33.144478 -1.475120 0.976401 -0.009319 -0.004835 216752.000000 0 0 1
2.379533 -27.704065 19.917180 34.203384 -1.485115 0.949222 -0.009580 -0.006496 -40047.600000 0 0 1
3.061533 -26.755195 20.893880 34.084713 -1.456864 0.910946 -0.005255 -0.003926 -37000.000000 0 0 1
2.428733 -25.468085 20.959880 33.073232 -1.475720 0.884416 -0.007391 -0.001866 249893.000000 0 0 1
3.174933 -24.572055 21.751680 32.969709 -1.442299 0.850314 0.019758 -0.006405 -85918.600000 0 0 1
2.331933 -23.387655 22.226980 32.349018 -1.471417 0.813308 0.019289 0.001764 -252818.000000 0 0 1
1.972533 -22.487255 21.237680 30.993654 -1.483302 0.815881 0.003408 0.005726 45581.300000 0 0 1
3.004633 -21.672355 20.672180 30.100795 -1.433035 0.813767 0.010277 0.010665 134924.000000 0 0 1
2.467233 -20.385555 20.006980 28.669450 -1.450354 0.798405 -0.002963 -0.005401 -151832.000000 0 0 1
2.006333 -19.367955 20.862680 28.537598 -1.467574 0.750923 -0.001231 -0.006355 -230059.000000 0 0 1
1.101933 -18.539955 20.204980 27.444224 -1.511431 0.743329 -0.008799 -0.011056 -347239.000000 0 0 1
1.050633 -17.179155 20.876980 27.056894 -1.509715 0.689451 -0.008804 -0.007394 -229176.000000 0 0 1
2.112333 -16.291955 20.774880 26.485570 -1.441861 0.669093 -0.027226 0.002021 -126824.000000 0 0 1
1.561933 -15.049155 21.161580 26.014019 -1.467378 0.620706 -0.017135 0.000197 497766.000000 0 0 1
2.617933 -13.979155 20.851280 25.239775 -1.385667 0.598596 -0.028661 0.005204 -419166.000000 0 0 1
2.824833 -13.549155 19.487680 23.902489 -1.365253 0.617551 -0.026954 0.003542 -459061.000000 0 1 0
1.797633 -13.128455 18.603380 22.840175 -1.434716 0.618925 -0.017826 0.005328 -267446.000000 0 1 0
1.041633 -11.900855 19.083580 22.514404 -1.483493 0.559319 -0.018577 0.003944 -311168.000000 0 1 0
1.798933 -10.717655 18.898980 21.800820 -1.404499 0.521861 -0.013455 0.004564 -280784.000000 0 1 0
1.531633 -9.640855 19.779580 22.057284 -1.413244 0.458456 -0.012373 -0.006312 192539.000000 0 1 0
0.110033 -9.029855 19.935680 21.885651 -1.558611 0.425332 -0.004644 -0.008618 384296.000000 0 1 0
-0.116567 -8.327755 21.136280 22.717998 1.556800 0.375359 -0.003678 -0.007204 -72650.500000 0 1 0
-1.508867 -8.243755 21.412080 22.993768 1.389769 0.373071 0.007024 0.003478 363808.000000 0 1 0
-1.853167 -7.503255 22.712080 23.991074 1.328660 0.327999 0.011695 0.003832 -250953.000000 0 1 0
-1.673567 -8.403255 23.842080 25.334962 1.374211 0.345004 0.008681 0.009280 55073.400000 0 0 1
-1.847567 -7.648055 25.038180 26.245318 1.333764 0.304471 0.000323 0.011931 -184050.000000 0 0 1
-1.879667 -8.519055 26.350380 27.756981 1.353633 0.319717 0.004630 0.003428 -737794.000000 0 0 1
-0.733667 -9.269855 26.534180 28.116387 1.491816 0.337074 0.001672 0.003272 -656054.000000 0 0 1
-0.828467 -10.363455 27.452680 29.355361 1.491025 0.362016 0.017842 -0.009067 -1102100.000000 0 0 1
0.413933 -11.200755 27.456680 29.656324 -1.533857 0.387574 0.018805 -0.011063 -1241680.000000 0 0 1
1.409533 -10.655555 28.249080 30.224794 -1.439278 0.363572 -0.001432 -0.005343 -1119050.000000 0 0 1
2.475533 -11.544755 28.375080 30.733611 -1.359566 0.394318 -0.000990 -0.012466 -290115.000000 0 0 1
3.484833 -10.983655 29.419580 31.595830 -1.263568 0.373318 0.005762 -0.006865 151852.000000 0 0 1
3.000633 -11.045155 30.773980 32.833475 -1.305529 0.356069 0.005909 -0.004539 75574.300000 0 0 1
3.937633 -10.389255 31.592380 33.489104 -1.208515 0.338171 -0.002942 0.002581 -126214.000000 0 0 1
3.347733 -10.197455 33.003380 34.704733 -1.253591 0.314419 -0.003803 -0.001190 43853.800000 0 0 1
3.303533 -11.361755 33.736880 35.751642 -1.287839 0.337318 0.004342 -0.008607 4802.130000 0 0 1
2.712433 -11.178655 -34.152668 36.037819 -1.332753 2.816715 0.007043 -0.008023 -299621.000000 0 0 1
3.408433 -10.330055 -33.093768 34.835685 -1.252091 2.824020 -0.006923 0.005255 -308233.000000 0 0 1
3.146133 -8.982555 -33.282368 34.616477 -1.233899 2.863061 -0.013988 0.001363 195536.000000 0 0 1
3.585933 -8.224555 -32.122968 33.352471 -1.159643 2.869223 -0.005860 0.003938 -120201.000000 0 0 1
2.829933 -6.923955 -31.821768 32.689060 -1.182799 2.910726 -0.016592 0.001322 -366740.000000 0 0 1
3.220733 -5.908055 -32.685368 33.370819 -1.071690 2.938560 0.009537 0.000152 181078.000000 0 0 1
2.975833 -4.647655 -32.088368 32.559479 -1.001280 2.971274 0.000634 0.000272 -380891.000000 0 0 1
3.000233 -3.504855 -33.136368 33.456006 -0.862817 3.003251 0.001310 0.005106 461594.000000 0 0 1
2.001433 -3.530055 -34.208968 34.448810 -1.055018 3.023522 -0.004489 0.006598 699196.000000 0 0 1
2.005233 -2.364655 34.144580 34.285054 -0.867463 0.090554 0.014693 0.008863 68807.400000 0 0 1
1.517933 -2.614755 32.700180 32.839654 -1.044819 0.092197 0.004426 0.005646 -169542.000000 0 0 1
0.170833 -2.964555 32.598780 32.733748 -1.513235 0.090841 -0.006369 0.007126 -781177.000000 0 0 1
-0.129467 -3.494255 31.279580 31.474414 1.533762 0.111325 -0.005689 0.006739 620530.000000 0 0 1
-1.638567 -3.593955 30.910280 31.161625 1.143028 0.127096 -0.005497 0.003105 778918.000000 0 0 1
-2.383267 -2.408055 30.617080 30.803966 0.790572 0.110210 -0.007595 0.001389 -478853.000000 0 0 1
-3.742767 -2.704655 30.534980 30.882171 0.625756 0.150090 -0.003508 0.002996 -328407.000000 0 0 1
-4.490467 -1.638455 29.658680 30.041407 0.349864 0.159794 0.005397 -0.004535 -265701.000000 0 0 1
-4.238867 -1.768355 28.271380 28.642032 0.395225 0.161052 0.006472 -0.001763 188825.000000 0 0 1
-5.013567 -0.860355 27.462480 27.929624 0.169950 0.183153 0.008691 -0.002805 233809.000000 0 0 1
-5.124067 0.655145 27.840880 28.316071 -0.127167 0.183460 0.014934 -0.005311 -869385.000000 0 0 1
-6.180067 0.764145 28.711980 29.379499 -0.123022 0.213575 0.006204 -0.003314 -947693.000000 0 0 1
-6.320067 2.163745 28.910480 29.672225 -0.329853 0.227080 0.010214 0.001723 -1090530.000000 0 0 1
-7.651067 2.404845 29.558480 30.627208 -0.304538 0.264951 0.004874 0.001741 -1091650.000000 0 0 1
-8.758967 2.262845 28.708880 30.100495 -0.252818 0.305264 -0.003141 0.007415 -119276.000000 0 0 1
-9.944267 2.673445 29.360980 31.114352 -0.262633 0.337313 -0.009008 0.012254 -700249.000000 0 0 1
-11.191167 2.118845 28.723980 30.899818 -0.187117 0.377513 -0.014269 0.013270 -849321.000000 0 0 1
-11.228567 0.724245 28.979780 31.087504 -0.064411 0.370351 -0.012069 0.015129 -148417.000000 0 0 1
-11.791167 0.118445 27.885480 30.276157 -0.010045 0.400060 -0.006151 0.016142 -1317210.000000 0 0 1
-12.012967 -1.401555 28.015080 30.514266 0.116145 0.407542 -0.006454 0.010657 764043.000000 0 0 1
-10.845567 -2.266055 28.175680 30.275903 0.205975 0.374664 -0.012210 0.013119 952897.000000 0 0 1
-9.771367 -2.046955 27.287580 29.056526 0.206499 0.350735 -0.021724 0.005539 -626576.000000 0 0 1
-9.885167 -2.755155 25.973680 27.927396 0.271818 0.376266 -0.021067 0.008798 -2418.550000 0 0 1
-10.793767 -2.199455 24.990380 27.310476 0.201019 0.415171 -0.011255 0.007174 583136.000000 0 0 1
-10.722767 -2.926455 23.769380 26.239766 0.266431 0.437406 -0.012570 0.006527 -460719.000000 0 0 1
-9.565967 -2.449455 22.871180 24.911813 0.250673 0.407573 0.014034 -0.001403 47261.500000 0 1 0
-8.251767 -2.647455 23.317880 24.876178 0.310460 0.355829 0.014579 -0.004813 -546109.000000 0 1 0
-7.363967 -2.199355 22.349480 23.633968 0.290231 0.331206 0.017706 -0.004608 -428295.000000 0 1 0
-5.862867 -2.132355 22.718280 23.559296 0.348832 0.268001 0.024398 -0.000316 202058.000000 0 1 0
-5.137267 -3.343755 22.596580 23.413194 0.576995 0.264889 0.023872 -0.008372 103888.000000 0 1 0
-5.473067 -4.360455 23.524880 24.543594 0.672732 0.289125 0.014250 -0.005751 -564734.000000 0 1 0
-4.907767 -5.749255 23.168480 24.370445 0.864196 0.315377 0.000737 -0.004840 -356537.000000 0 1 0
-5.606867 -6.564055 22.234580 23.851632 0.863882 0.370342 -0.017546 -0.007790 5961.740000 0 1 0
-5.689867 -6.005855 20.911080 22.488178 0.812409 0.376737 0.014385 -0.012831 67797.500000 0 1 0
-7.004467 -6.160555 20.066480 22.128683 0.721383 0.435146 0.023645 -0.009376 268489.000000 0 1 0
-8.041367 -5.287855 20.406980 22.562576 0.581687 0.440681 0.026978 -0.007373 -588973.000000 0 1 0
-8.949867 -5.189655 19.355680 21.947095 0.525478 0.490867 0.019681 -0.002832 109724.000000 0 1 0
-9.662067 -3.790855 19.303280 21.916723 0.373889 0.493341 0.015782 -0.010243 98084.200000 0 1 0
-8.823567 -2.775655 18.817380 20.967913 0.304772 0.456872 0.018593 -0.013816 -357399.000000 0 1 0
-9.382567 -1.516255 18.879280 21.136670 0.160218 0.466383 0.013196 -0.013355 -116035.000000 0 1 0
-8.442667 -0.353055 18.362180 20.213187 0.041794 0.431293 0.014246 -0.006227 450736.000000 0 1 0
-7.281467 -0.089155 19.127680 20.466946 0.012243 0.363763 0.018887 -0.002031 495107.000000 0 1 0
-7.619367 0.717345 20.255980 21.653500 -0.093871 0.361238 0.032562 -0.002448 -99229.100000 0 1 0
-7.504167 2.235345 19.959780 21.440665 -0.289511 0.373842 0.029405 -0.010196 -635283.000000 0 1 0
-8.502567 2.705645 19.138080 21.115877 -0.308083 0.436265 0.015466 -0.012399 -450677.000000 0 1 0
-8.209967 4.029145 18.740180 20.852624 -0.456230 0.454008 0.018635 -0.011767 -228947.000000 0 1 0
-9.141967 4.631945 17.684280 20.439282 -0.468968 0.525226 0.018332 -0.005734 -122739.000000 0 1 0
-10.485567 4.674845 18.126380 21.456164 -0.419386 0.564586 0.011221 0.003256 449827.000000 0 1 0
-11.450467 5.192345 17.207080 21.310966 -0.425729 0.631016 0.012576 0.014566 395202.000000 0 1 0
-11.662067 6.764445 17.212980 21.864314 -0.525612 0.664438 0.021190 0.019167 -197346.000000 0 1 0
-10.501367 7.448845 16.733880 21.113663 -0.616955 0.655798 0.021481 0.009645 711139.000000 0 1 0
-10.710767 8.856645 16.770580 21.781025 -0.690925 0.692013 0.020397 0.005517 529099.000000 0 1 0
-9.373467 9.671045 16.707580 21.460061 -0.801022 0.678455 0.016168 -0.000427 723206.000000 0 1 0
-8.657267 9.863745 17.954780 22.239961 -0.850447 0.631199 0.029311 0.009644 824202.000000 0 1 0
-7.669867 10.916945 17.942480 22.359319 -0.958351 0.639388 0.035777 -0.004506 382621.000000 0 1 0
-8.154467 12.334645 17.605580 22.991200 -0.986656 0.698585 0.027453 -0.000553 -360286.000000 0 1 0
-8.233867 12.531045 16.191880 22.068091 -0.989462 0.747010 0.024279 -0.016220 46319.200000 0 1 0
-8.919867 13.767445 16.017280 22.927273 -0.995902 0.797340 0.031390 -0.020735 -90590.900000 0 1 0
-8.740867 14.436945 14.659780 22.354805 -1.026378 0.855584 0.028600 -0.015339 355878.000000 0 1 0
-7.542667 15.194745 14.599480 22.381173 -1.110033 0.860167 0.027025 -0.002891 108473.000000 0 1 0
-7.169667 15.697145 13.294080 21.783871 -1.142344 0.914393 0.020576 -0.016203 -579841.000000 0 1 0
-6.092267 16.724045 13.431880 22.298538 -1.221455 0.924334 -0.005006 -0.004958 383123.000000 0 1 0
-4.771667 16.193445 13.654480 21.712699 -1.284240 0.890696 -0.009741 -0.012328 176270.000000 0 1 0
-3.828767 17.211445 13.524680 22.221842 -1.351906 0.916475 -0.007979 -0.018062 -230505.000000 0 1 0
-2.348067 16.799945 13.570880 21.723728 -1.431930 0.896045 0.006583 -0.023976 -75317.500000 0 1 0
-1.738467 16.334045 14.762680 22.085290 -1.464763 0.838688 0.003451 -0.016803 152360.000000 0 1 0
-2.193367 15.070645 15.164980 21.492134 -1.426272 0.787518 0.009969 -0.012725 -316764.000000 0 1 0
-1.181867 14.574945 16.207480 21.829069 -1.489884 0.734043 0.008104 -0.004950 -228557.000000 0 1 0
0.035233 14.108945 15.653280 21.073413 1.568299 0.733557 -0.017960 -0.016728 212809.000000 0 1 0
0.955733 13.796145 16.704280 21.685941 1.501631 0.691514 -0.009693 0.004880 548147.000000 0 1 0
1.902733 14.950445 17.212280 22.877911 1.444208 0.719169 -0.014525 -0.002897 41847.400000 0 1 0
1.210833 15.973445 17.910780 24.029422 1.495138 0.729709 -0.024035 -0.006341 562208.000000 0 1 0
2.134733 16.922445 18.505280 25.166876 1.445311 0.744683 -0.012252 -0.004748 82650.600000 0 0 1
1.310933 18.077045 19.071780 26.310281 1.498404 0.759937 -0.013913 -0.006365 396077.000000 0 0 1
0.727333 19.033045 18.151680 26.311011 1.532601 0.809460 -0.024623 -0.003332 324978.000000 0 0 1
-0.369767 18.503545 17.424680 25.419233 -1.550815 0.815517 -0.016603 -0.003832 -494072.000000 0 0 1
-1.162567 19.586345 16.594780 25.697533 -1.511510 0.868761 -0.023256 0.004356 278231.000000 0 0 1
-1.722567 20.685545 17.317780 27.032657 -1.487714 0.875485 -0.019203 0.007298 -148623.000000 0 0 1
-2.604567 21.440945 16.573980 27.224891 -1.449912 0.916274 0.001052 -0.005447 -1096060.000000 0 0 1
-3.268767 22.645045 17.289480 28.677675 -1.427439 0.923678 -0.000543 0.007597 -777092.000000 0 0 1
-4.230167 22.190545 18.168480 28.989796 -1.382427 0.893460 0.002223 0.006332 -276669.000000 0 0 1
-4.859667 23.223645 18.955280 30.368680 -1.364518 0.896725 0.003056 0.013947 200213.000000 0 0 1
-5.983667 22.702145 19.859980 30.750780 -1.313085 0.868678 -0.014286 0.015833 423370.000000 0 0 1
-7.255867 22.385845 19.326080 30.451125 -1.257354 0.883229 -0.012880 0.014983 350794.000000 0 0 1
-8.233067 21.848745 20.196180 30.871293 -1.210430 0.857664 -0.044927 0.012538 -235710.000000 0 0 1
-9.611267 22.343045 19.794280 31.359235 -1.164556 0.887683 -0.028248 0.007281 -908555.000000 0 0 1
-9.939367 23.685445 20.066780 32.595506 -1.173474 0.907611 -0.020066 0.013499 108506.000000 0 0 1
-10.852667 24.170645 19.092280 32.657551 -1.148773 0.946384 -0.023896 0.009681 -89712.200000 0 0 1
-11.248967 25.598145 19.422580 34.044690 -1.156755 0.963679 -0.020653 0.012091 -255333.000000 0 0 1
-11.988067 25.747445 20.631580 35.104227 -1.135044 0.942554 -0.019505 0.011250 137364.000000 0 0 1
-12.356867 27.102745 20.720780 36.285006 -1.143025 0.963004 -0.021394 0.015526 -419871.000000 0 0 1
-13.187067 27.437745 21.985680 37.551281 -1.122774 0.945319 -0.011755 0.001540 468168.000000 0 0 1
-14.513367 26.883945 22.085480 37.698180 -1.075777 0.944868 -0.009267 -0.002912 953625.000000 0 0 1
-15.053767 26.931845 23.401080 38.724033 -1.061102 0.921905 -0.011317 0.004759 -1216340.000000 0 0 1
-16.510867 26.635445 23.496080 39.167862 -1.015885 0.927443 0.010587 -0.003636 -1399700.000000 0 0 1
-16.749667 25.259145 23.389280 38.283602 -0.985258 0.913539 0.014623 -0.004420 722564.000000 0 0 1
-18.139167 24.960545 23.631580 38.865277 -0.942366 0.917209 0.027692 -0.005562 895767.000000 0 0 1
26.924933 25.022645 24.006929 43.902362 0.748795 0.992228 0.044813 -0.019544 -135100.000000 0 0 1
26.751733 24.102945 25.052569 43.866142 0.733360 0.962934 0.044699 -0.026159 404707.000000 0 0 1
26.057433 22.987645 24.459719 42.493523 0.722889 0.957446 0.042448 -0.017909 54023.400000 0 0 1
25.653433 21.851545 25.461059 42.235698 0.705537 0.923750 0.053574 -0.014648 -597578.000000 0 0 1
24.581333 22.113445 26.284189 42.238667 0.732596 0.899147 0.051897 -0.018120 -496093.000000 0 0 1
24.538633 21.162345 27.332239 42.391516 0.711654 0.870091 0.058613 -0.014693 -47542.500000 0 0 1
23.229233 21.423545 28.096409 42.284439 0.744982 0.844022 0.047109 -0.016494 -141667.000000 0 0 1
23.126233 22.584645 28.934989 43.383435 0.773551 0.840676 0.055609 -0.029430 -402807.000000 0 0 1
21.810533 22.685245 29.394929 43.062531 0.805054 0.819468 0.060681 -0.024557 -515465.000000 0 0 1
21.441633 23.963645 30.147919 44.078305 0.840886 0.817615 0.061809 -0.035520 -214626.000000 0 0 1
21.188433 25.136345 29.317799 44.049051 0.870415 0.842537 0.070898 -0.037745 26210.600000 0 0 1
20.774133 26.295245 29.988259 44.969992 0.902162 0.840822 0.059427 -0.035745 -956317.000000 0 0 1
19.410933 26.444745 30.621089 44.874937 0.937602 0.819803 0.064491 -0.031862 -1530040.000000 0 0 1
18.408633 26.552645 29.630009 43.839003 0.964589 0.828635 0.059544 -0.038420 -179399.000000 0 0 1
17.170833 26.965145 30.145189 43.939606 1.003772 0.814737 0.039501 -0.034047 -119701.000000 0 0 1
16.230333 25.963445 30.799619 43.429722 1.012109 0.782458 0.029802 -0.018964 -951129.000000 0 0 1
16.539033 25.627345 32.151409 44.317192 0.997685 0.759059 0.025545 -0.020182 -477524.000000 0 0 1
15.581633 24.951145 32.888669 44.124953 1.012567 0.729732 0.012533 -0.010170 -435112.000000 0 0 1
16.132633 24.692345 34.322103 45.254619 0.992073 0.709908 0.027783 -0.012416 -90558.000000 0 0 1
16.150833 25.754645 -33.904190 45.537295 1.010686 2.410637 0.015356 -0.018075 -200806.000000 0 0 1
16.713633 25.357545 -32.719760 44.642281 0.988037 2.393418 0.001639 0.000483 -117922.000000 0 0 1
17.212833 26.570645 -31.839330 44.900153 0.995959 2.359037 -0.004735 0.011014 -7843.590000 0 0 1
16.143633 27.359445 -31.358590 44.637622 1.037720 2.349721 0.003669 0.000947 416157.000000 0 0 1
16.664933 28.589845 -30.757030 45.178470 1.043048 2.319636 0.017193 0.002226 373453.000000 0 0 1
16.083833 28.853245 -29.337240 44.180008 1.062262 2.297004 0.030661 -0.000330 37276.700000 0 0 1
16.514833 27.801245 -28.461640 43.077998 1.034777 2.292547 0.004925 0.012925 54620.100000 0 0 1
16.034833 28.074145 -27.180940 42.238335 1.051853 2.269876 0.001192 0.019778 -222591.000000 0 0 1
16.623833 27.244145 -26.046060 41.194569 1.022925 2.255275 -0.008251 0.016374 -437374.000000 0 0 1
17.953933 27.534945 -25.711650 41.732551 0.992987 2.234585 -0.004494 0.017800 -781870.000000 0 0 1
18.529033 26.616045 -24.811820 40.833385 0.962652 2.223877 -0.010370 0.018554 491001.000000 0 0 1
20.020533 27.068645 -24.702720 41.758324 0.933971 2.203794 -0.016111 0.020107 503626.000000 0 0 1
20.798333 26.218445 -23.880120 41.112500 0.900172 2.190567 -0.016511 0.018706 544733.000000 0 0 1
22.158833 26.672145 -23.794520 42.054683 0.877564 2.172199 -0.003306 0.022062 869826.000000 0 0 1
22.722933 26.487445 -22.392820 41.465103 0.861748 2.141281 0.004697 0.013046 -132998.000000 0 0 1
22.581333 25.245045 -21.798320 40.278973 0.841036 2.142640 0.013848 0.004230 132638.000000 0 0 1
22.981033 25.283945 -20.443020 39.816112 0.833076 2.109980 0.005266 0.002937 -583487.000000 0 0 1
22.445533 24.165745 -19.550220 38.340530 0.822287 2.105876 0.003232 0.000750 -672133.000000 0 0 1
22.932033 22.898145 -19.950320 38.055465 0.784659 2.122623 0.008830 0.002629 234699.000000 0 0 1
22.946733 21.967845 -18.847420 36.937298 0.763607 2.106277 0.013189 0.005064 -900933.000000 0 0 1
23.087033 20.530045 -19.385620 36.473224 0.726842 2.131170 0.021302 -0.005172 610247.000000 0 0 1
22.078333 20.123445 -20.337520 36.138906 0.739109 2.168517 0.004914 -0.012072 1899830.000000 0 0 1
20.689833 20.204145 -19.909420 35.109282 0.773522 2.173741 -0.007851 -0.009804 352414.000000 0 0 1
19.737933 20.014445 -21.068120 35.128759 0.792354 2.213972 -0.008272 -0.003538 -464531.000000 0 0 1
19.876233 20.786745 -22.263920 36.370806 0.807786 2.229557 -0.009510 -0.006177 -130594.000000 0 0 1
19.823833 22.205245 -22.135520 37.094993 0.841999 2.210210 -0.011422 0.004346 -195383.000000 0 0 1
19.362033 22.787845 -23.479120 38.018986 0.866497 2.236437 -0.005698 0.007404 1203640.000000 0 0 1
17.973533 22.460545 -23.734520 37.294120 0.895917 2.260637 0.001323 0.000870 521540.000000 0 0 1
17.621533 22.799045 -25.047720 38.179879 0.912795 2.286363 0.000791 0.013521 84867.900000 0 0 1
16.111733 23.120045 -25.104600 37.740765 0.962172 2.298538 -0.005172 0.005940 80228.800000 0 0 1
15.747733 24.340345 -24.444220 37.920487 0.996547 2.271320 -0.008632 0.006638 -630857.000000 0 0 1
14.362933 24.474745 -24.432420 37.446630 1.040104 2.281622 -0.003853 0.002516 -269918.000000 0 0 1
13.760233 25.781845 -23.770320 37.670620 1.080540 2.253643 -0.011561 0.008572 171569.000000 0 0 1
13.828333 26.999745 -24.528620 39.011052 1.097464 2.250755 -0.010112 0.010639 -208006.000000 0 0 1
12.649233 27.726445 -24.284620 38.967956 1.142786 2.243617 0.001824 0.016157 -40058.100000 0 0 1
12.750833 29.158845 -24.848120 40.376367 1.158563 2.233705 0.008463 0.010304 -189368.000000 0 0 1
12.697933 29.203045 -26.243960 41.265007 1.160641 2.260082 0.024045 -0.003415 -87621.800000 0 0 1
12.108233 30.361845 -26.782250 42.258015 1.191327 2.257226 0.056001 -0.015547 -153627.000000 0 0 1
13.010833 31.606545 -26.779100 43.420913 1.180287 2.235382 0.057789 -0.012684 40240.600000 0 0 1
14.066333 31.558545 -27.730210 44.303138 1.151506 2.247107 0.037781 0.009326 631712.000000 0 0 1
14.992933 32.645445 -27.386550 45.172295 1.140264 2.222157 0.033000 -0.001892 -385595.000000 0 0 1
16.384933 32.488445 -27.917330 45.862211 1.103690 2.225245 0.026925 0.021406 -1197510.000000 0 0 1
17.146633 31.614245 -27.152320 45.063466 1.073830 2.217470 -0.006113 0.023342 -545448.000000 0 0 1
18.431333 31.413845 -27.683160 45.748235 1.040194 2.220713 -0.009154 0.031712 -427971.000000 0 0 1
19.417133 30.871445 -26.619520 45.151633 1.009349 2.201308 -0.022082 0.038802 -867021.000000 0 0 1
19.777033 31.706545 -25.539200 45.262421 1.013095 2.170318 -0.017636 0.032291 -14675.400000 0 0 1
20.599533 32.849345 -25.718990 46.528343 1.010695 2.156468 -0.019129 0.024766 66656.000000 0 0 1
22.046033 32.572145 -26.181320 47.248637 0.975786 2.158099 -0.023505 0.031062 -504389.000000 0 0 1
22.048933 32.068145 -27.536890 47.673910 0.968465 2.186593 -0.031301 0.042883 -151670.000000 0 0 1
23.124733 32.532345 -28.330160 48.945937 0.952844 2.188059 -0.033419 0.046304 -706631.000000 0 0 1
23.200233 31.872545 -29.707200 49.362209 0.941586 2.216575 -0.028809 0.038750 124508.000000 0 0 1
22.162233 32.235045 -30.618750 49.676660 0.968496 2.234909 -0.023439 0.029886 -50973.600000 0 0 1
20.972133 31.527945 -30.430940 48.578635 0.983815 2.247756 -0.021367 0.028930 -518013.000000 0 0 1
19.764033 32.166445 -31.166750 48.955730 1.019834 2.260918 -0.027187 0.025813 -713362.000000 0 0 1
19.248533 33.412045 -30.674020 49.272368 1.048139 2.242780 -0.019735 0.030804 250008.000000 0 0 1
18.354033 33.922345 -31.662320 49.900887 1.074843 2.258163 -0.014288 0.021808 1160030.000000 0 0 1
16.869433 33.378845 -31.588600 48.954721 1.102844 2.272162 0.015808 0.012250 54755.400000 0 0 1
16.652733 32.064245 -32.112290 48.338685 1.091785 2.297378 0.013780 0.000735 -109822.000000 0 0 1
16.911333 31.677545 -33.483410 49.097849 1.080430 2.321253 0.008265 -0.004552 -484543.000000 0 0 1
16.303133 32.446345 34.500975 50.088669 1.105179 0.810967 0.022904 -0.008619 -292609.000000 0 0 1
16.822333 33.783245 34.320912 51.011994 1.108791 0.832808 0.012957 0.006643 83627.200000 0 0 1
16.573933 34.405945 33.058789 50.510869 1.121882 0.857290 0.021975 -0.006507 27154.800000 0 0 1
15.128333 -34.263649 32.859299 49.825672 -1.155011 0.850662 0.032997 -0.012446 -622732.000000 0 0 1
14.192133 33.924345 32.608499 49.148673 1.174575 0.845354 0.036388 -0.011163 -341280.000000 0 0 1
12.859233 34.376645 32.563049 49.065933 1.212842 0.845097 0.028000 -0.007009 -45523.300000 0 0 1
12.433233 -34.142849 31.255749 47.929545 -1.221569 0.860421 0.021356 0.001555 -1099270.000000 0 0 1
13.083333 -32.916449 31.058739 47.109569 -1.192472 0.850926 0.035530 -0.000367 290185.000000 0 0 1
12.490133 -32.313949 29.897089 45.760580 -1.201960 0.858812 0.029943 -0.004869 178216.000000 0 0 1
12.807833 -30.823849 29.570409 44.593265 -1.176985 0.845825 0.023111 -0.004841 -34214.800000 0 0 1
12.428733 -30.000349 30.657209 44.658244 -1.178035 0.814153 0.003655 0.008801 400694.000000 0 0 1
13.010833 -28.713449 30.446139 43.825920 -1.145345 0.802785 0.015774 0.000884 -477095.000000 0 0 1
12.614733 -27.633149 31.540849 43.789811 -1.142544 0.766593 0.001536 0.002930 -180470.000000 0 0 1
11.278433 -27.217449 31.639439 43.232472 -1.177953 0.749772 -0.019768 0.010262 -518596.000000 0 0 1
10.827433 -26.325749 30.698929 41.865291 -1.180598 0.747665 -0.025695 0.010871 -374477.000000 0 0 1
11.050133 -24.802549 30.939589 41.164670 -1.151671 0.720304 -0.033750 0.014521 -206533.000000 0 0 1
10.246233 -24.200949 31.909509 41.338698 -1.170297 0.688966 -0.012196 0.006712 -106044.000000 0 0 1
10.846833 -23.039849 32.431499 41.234579 -1.130792 0.665655 -0.016776 0.005308 208137.000000 0 0 1
10.086433 -22.578149 33.724000 41.818861 -1.150661 0.632706 -0.007976 0.007759 -141366.000000 0 0 1
10.120033 -23.458749 -34.328820 42.792474 -1.163520 2.501795 -0.004634 0.009944 -6136.490000 0 0 1
11.343733 -23.711049 -33.679680 42.722534 -1.124565 2.478895 0.000382 0.008409 254967.000000 0 0 1
12.011233 -22.564649 -32.837450 41.614074 -1.081641 2.480130 0.008632 0.001734 -36202.700000 0 0 1
12.345533 -21.343949 -33.532050 41.621805 -1.046404 2.507546 -0.005388 0.008636 -85170.500000 0 0 1
13.332133 -20.590049 -32.886090 41.026708 -0.996178 2.500725 -0.006604 0.002932 -231676.000000 0 0 1
13.629433 -19.229349 -33.561590 41.011091 -0.954200 2.529337 -0.026681 0.001627 -573460.000000 0 0 1
14.265133 -19.494949 34.369165 42.009363 -0.939088 0.612643 -0.015925 0.015705 137598.000000 0 0 1
13.898533 -18.528849 33.387811 40.635371 -0.927230 0.606507 -0.036420 0.013632 -398484.000000 0 0 1
14.754233 -17.248849 33.346929 40.338912 -0.863190 0.597634 -0.017365 0.012457 -906127.000000 0 0 1
14.794433 -16.458249 34.524714 41.008598 -0.838585 0.570021 -0.024830 0.012006 268782.000000 0 0 1
15.411533 -15.212049 34.345730 40.602352 -0.778884 0.562537 0.001206 0.003209 32215.600000 0 0 1
16.961333 -15.172749 34.416226 41.259856 -0.729795 0.584237 0.016361 0.001338 -180603.000000 0 0 1
17.662633 -15.739849 33.354884 40.893272 -0.727898 0.616932 0.009180 -0.001281 244724.000000 0 0 1
19.056233 -15.501549 33.522822 41.559808 -0.682897 0.632391 0.019804 -0.003485 92754.000000 0 0 1
19.978233 -16.256149 32.584139 41.534543 -0.683035 0.668896 0.014451 -0.007178 -621628.000000 0 0 1
19.865633 -15.771249 31.272139 40.265647 -0.671008 0.681473 0.013025 0.009207 297747.000000 0 0 1
20.668033 -16.402349 30.303969 40.181279 -0.670832 0.716390 0.004685 0.006362 -436402.000000 0 0 1
20.843233 -15.487049 29.094989 38.997531 -0.639022 0.728652 0.007135 0.008443 -388761.000000 0 0 1
21.643733 -14.398049 29.430879 39.267437 -0.587007 0.723492 0.008786 0.001153 21133.900000 0 0 1
21.926633 -13.694549 28.237789 38.284339 -0.558285 0.741316 0.007109 0.001773 97369.800000 0 0 1
22.680333 -12.380049 28.582329 38.530672 -0.499651 0.735035 0.016634 0.001053 -198192.000000 0 0 1
21.862533 -11.479249 29.233069 38.266380 -0.483498 0.701405 0.018582 -0.003480 -68439.500000 0 0 1
22.541433 -10.241549 29.442819 38.469275 -0.426460 0.699197 0.022023 -0.013271 175956.000000 0 0 1
21.639733 -8.966949 29.326999 37.533413 -0.392836 0.673959 0.035891 -0.013910 395536.000000 0 0 1
20.655833 -9.009549 30.361239 37.810584 -0.411297 0.638514 0.039823 -0.018633 241544.000000 0 0 1
19.591733 -8.100549 30.076719 36.797608 -0.392062 0.613991 0.055032 -0.020518 170336.000000 0 0 1
18.399833 -8.137849 31.044669 36.993917 -0.416414 0.575017 0.035809 -0.012018 -501859.000000 0 0 1
18.619133 -7.691449 32.332759 38.095115 -0.391743 0.557203 0.034346 -0.014364 220291.000000 0 0 1
19.060433 -8.722049 33.250659 39.306241 -0.429156 0.562474 0.038115 -0.019026 -315552.000000 0 0 1
19.256333 -8.337749 -34.434196 40.324165 -0.408617 2.594296 0.037779 -0.026830 217660.000000 0 0 1
18.029933 -8.120249 -33.751770 39.117757 -0.423167 2.611628 0.022654 -0.022432 324515.000000 0 0 1
18.272833 -7.395949 -32.594090 38.091615 -0.384595 2.597652 0.018290 -0.022962 739210.000000 0 0 1
16.951933 -7.146949 -31.774250 36.715798 -0.398988 2.616766 0.013957 -0.024191 810189.000000 0 0 1
17.114833 -6.100349 -30.881530 35.830164 -0.342397 2.609774 0.006092 -0.016175 932877.000000 0 0 1
15.889833 -6.034849 -30.118630 34.583783 -0.362966 2.627804 0.013552 -0.011894 837587.000000 0 0 1
15.715133 -4.723749 -29.257640 33.545323 -0.291994 2.630442 0.002171 -0.007644 -231296.000000 0 0 1
16.646733 -4.523049 -28.220860 33.075499 -0.265303 2.592935 0.003730 0.004126 -150492.000000 0 0 1
16.655233 -5.382149 -27.078280 32.242791 -0.312558 2.567756 0.019304 -0.002555 523727.000000 0 0 1
15.364533 -5.460949 -26.152960 30.819931 -0.341500 2.584079 0.021729 -0.008607 1011650.000000 0 0 1
15.224933 -4.276949 -25.413870 29.932518 -0.273859 2.584960 -0.007904 0.005930 248914.000000 0 0 1
14.052933 -4.297049 -24.581820 28.639403 -0.296747 2.602786 0.023301 -0.008041 729198.000000 0 0 1
13.782333 -2.997449 -23.819520 27.682249 -0.214150 2.606972 0.020207 0.002172 -50629.100000 0 0 1
13.473633 -1.955449 -24.689920 28.194941 -0.144125 2.637651 -0.004741 -0.002841 208660.000000 0 0 1
12.865533 -0.827449 -24.058620 27.295124 -0.064227 2.649668 -0.006527 -0.000181 -54083.400000 0 0 1
13.432933 0.514551 -24.498220 27.944073 0.038286 2.639729 -0.010643 -0.002981 -423384.000000 0 0 1
12.987833 1.023551 -25.744060 28.852869 0.078646 2.673107 -0.006239 -0.001651 159957.000000 0 0 1
13.431033 2.361551 -25.989300 29.349843 0.174049 2.658366 -0.014001 0.008808 -400000.000000 0 0 1
12.776233 3.017551 -27.215840 30.216546 0.231934 2.692159 -0.007248 0.002413 -458497.000000 0 0 1
11.430333 3.359551 -26.996330 29.508319 0.285865 2.725987 0.003723 -0.006428 1982.590000 0 0 1
11.011633 4.222551 -28.074410 30.450919 0.366169 2.743897 0.006493 -0.007993 160280.000000 0 0 1
9.653133 4.967551 -28.011510 30.041708 0.475263 2.771851 0.011826 -0.007166 108240.000000 0 0 1
9.488833 5.987551 -27.075520 29.308232 0.562910 2.748737 0.013139 -0.022275 69110.300000 0 0 1
8.223233 6.614551 -27.057270 29.042550 0.677402 2.769703 0.027778 -0.022237 44476.000000 0 0 1
8.289033 5.579045 -32.391700 33.897729 0.592418 2.842389 0.018015 -0.021874 -313681.000000 0 0 1
8.163333 4.787845 -31.263370 32.664380 0.530438 2.847650 0.005960 -0.008255 449034.000000 0 0 1
7.651333 3.496745 -31.572090 32.673643 0.428669 2.881189 0.004989 -0.001996 -388627.000000 0 0 1
7.456133 2.567645 -30.396660 31.402924 0.331648 2.887757 0.010618 -0.010748 526442.000000 0 0 1
8.686233 2.046745 -29.819880 31.126597 0.231410 2.850808 0.015929 -0.020179 1255200.000000 0 0 1
8.360933 1.207245 -28.753130 29.968402 0.143400 2.855834 0.022520 -0.019423 -626448.000000 0 0 1
9.491933 0.578945 -27.953440 29.526713 0.060918 2.813681 0.026027 -0.017622 -668782.000000 0 0 1
10.156133 -0.495555 -28.555540 30.311903 -0.048755 2.799507 0.023253 -0.015716 -6425.490000 0 0 1
11.270833 -0.815455 -27.749950 29.962583 -0.072225 2.754879 0.011743 -0.013514 24178.900000 0 0 1
11.986833 -2.118755 -28.226260 30.739145 -0.174950 2.734438 0.008618 -0.012358 -179827.000000 0 0 1
11.218133 -3.231955 -27.963650 30.302768 -0.280505 2.746104 0.022187 -0.011780 -324196.000000 0 0 1
11.901233 -4.371755 -28.355050 31.060593 -0.352035 2.721116 0.028249 -0.015411 43500.200000 0 0 1
11.167633 -5.667655 -27.870600 30.555011 -0.469635 2.719284 0.028131 -0.021426 229833.000000 0 0 1
11.244133 -5.765855 -26.442550 29.306724 -0.473825 2.695800 0.035297 -0.018908 -13396.100000 0 0 1
10.221533 -6.539555 -25.875710 28.579676 -0.569159 2.703090 0.037705 -0.024083 -286052.000000 0 0 1
10.156833 -6.339855 -24.397720 27.177265 -0.558021 2.685375 0.035709 -0.018462 -384194.000000 0 0 1
11.315433 -6.667055 -23.680820 27.078956 -0.532441 2.635221 0.033699 -0.008274 -218790.000000 0 0 1
11.031633 -6.805555 -22.298720 25.792352 -0.552763 2.615046 0.031124 -0.009241 -997887.000000 0 0 1
12.266933 -6.774555 -21.471020 25.639363 -0.504578 2.563349 0.034666 -0.002949 -461479.000000 0 0 1
12.882533 -5.471355 -21.275720 25.466677 -0.401626 2.559718 0.014616 0.002621 317515.000000 0 0 1
14.055333 -5.627855 -20.471120 25.461577 -0.380857 2.504789 0.020762 -0.001380 534469.000000 0 0 1
14.577633 -4.298555 -19.908820 25.046877 -0.286747 2.489577 0.017498 -0.001640 -748905.000000 0 0 1
15.274933 -3.539255 -20.796320 26.044900 -0.227686 2.495562 0.012402 0.000448 -292215.000000 0 0 1
15.606833 -2.295955 -20.184720 25.617720 -0.146064 2.478221 0.004314 0.005081 -446443.000000 0 0 1
16.558033 -1.408755 -20.980520 26.764440 -0.084875 2.471711 -0.005110 -0.000405 721770.000000 0 0 1
17.846933 -2.059655 -21.046220 27.671259 -0.114898 2.435003 -0.005548 -0.005865 653108.000000 0 0 1
18.780933 -1.250355 -21.722820 28.743134 -0.066478 2.427605 -0.002530 0.001618 32085.500000 0 0 1
20.121333 -1.923055 -22.090020 29.942197 -0.095284 2.400536 0.000172 -0.002830 -1106980.000000 0 0 1
20.949433 -2.087355 -20.972120 29.716420 -0.099310 2.354266 0.005377 -0.004078 1167080.000000 0 0 1
22.236033 -2.702855 -21.274020 30.892240 -0.120960 2.330425 -0.002905 -0.007099 1426400.000000 0 0 1
23.253233 -1.976855 -22.175220 32.192564 -0.084810 2.330671 0.000427 -0.006225 -1479350.000000 0 0 1
22.828833 -1.915655 -23.553920 32.857457 -0.083718 2.370072 0.001523 -0.005661 407245.000000 0 0 1
23.761833 -1.379155 -24.504420 34.161285 -0.057976 2.370738 0.002145 0.001359 551539.000000 0 0 1
25.072433 -2.150055 -24.798220 35.329893 -0.085544 2.348865 0.016740 -0.009670 -434180.000000 0 0 1
26.015333 -2.142655 -23.730820 35.278043 -0.082176 2.308621 0.020607 -0.004168 453523.000000 0 0 1
27.307233 -2.601855 -24.094720 36.510411 -0.094994 2.291537 0.015469 -0.002359 243457.000000 0 0 1
28.228033 -1.830955 -25.040220 37.778127 -0.064772 2.295379 0.015664 -0.010952 -1337730.000000 0 0 1
27.875233 -1.820755 -26.386520 38.426452 -0.065225 2.327703 0.035037 -0.011021 -5284.250000 0 0 1
28.555033 -0.910255 -27.180830 39.433691 -0.031866 2.331290 0.031393 -0.010682 -1085860.000000 0 0 1
27.872233 -0.841855 -28.580520 39.930142 -0.030195 2.368512 0.047923 -0.016449 2223120.000000 0 0 1
26.478533 -0.334255 -28.642360 39.007810 -0.012623 2.395391 0.040101 -0.009855 1956710.000000 0 0 1
26.241233 0.949945 -28.082600 38.446549 0.036185 2.389751 0.028230 -0.003613 -1220160.000000 0 0 1
24.815233 1.489145 -28.156680 37.560777 0.059937 2.418299 0.028596 -0.004283 -418933.000000 0 0 1
23.884833 0.882645 -27.306260 36.289064 0.036937 2.422593 0.035108 -0.004296 801138.000000 0 0 1
22.528533 1.196845 -27.668550 35.700362 0.053076 2.457545 0.018414 -0.000685 1081700.000000 0 0 1
21.479433 1.148945 -26.516830 34.144229 0.053440 2.460067 0.022269 0.004838 126299.000000 0 0 1
21.508133 2.094045 -25.466260 33.399329 0.097055 2.437931 0.024796 0.003453 609817.000000 0 0 1
20.491033 1.725345 -24.518620 32.000343 0.084002 2.443701 0.019153 0.005973 270770.000000 0 0 1
20.754633 2.213745 -23.080420 31.118503 0.106261 2.406389 0.016450 0.007104 -290952.000000 0 0 1
20.623733 3.645045 -22.848820 30.995053 0.174934 2.399678 0.009377 0.004477 375365.000000 0 0 1
20.884533 4.038745 -21.538820 30.272032 0.191026 2.362440 0.001769 0.004392 -262817.000000 0 0 1
20.509533 5.475645 -21.068820 29.908507 0.260895 2.352434 0.001939 0.013221 -130705.000000 0 0 1
21.321833 6.412245 -21.745320 31.122281 0.292132 2.344383 -0.008807 0.019724 254753.000000 0 0 1
21.081033 7.734145 -21.305120 30.953757 0.351630 2.329924 -0.014405 0.008196 -506934.000000 0 0 1
21.663033 8.228945 -19.914620 30.554781 0.363026 2.280709 -0.031297 0.012510 -1751060.000000 0 0 1
22.991433 8.542445 -19.931520 31.604507 0.355742 2.253192 -0.034896 0.014038 -1159900.000000 0 0 1
23.529733 8.708845 -18.665520 31.271296 0.354486 2.210415 -0.022430 0.009738 -476413.000000 0 0 1
23.294133 10.156445 -18.116720 31.208741 0.411158 2.190141 -0.022792 -0.001217 -1041030.000000 0 0 1
21.998033 10.310845 -17.641120 30.023925 0.438309 2.198847 -0.013724 -0.004639 -663626.000000 0 0 1
21.706433 11.645145 -17.425220 30.173116 0.492407 2.186469 -0.006740 0.000822 22698.300000 0 0 1
20.221133 12.019545 -17.080920 29.070974 0.536295 2.198836 -0.006174 -0.002310 1080350.000000 0 0 1
19.257533 11.942245 -18.118020 29.012625 0.555092 2.245271 -0.003823 0.000138 254184.000000 0 0 1
18.923433 10.614645 -18.483720 28.502893 0.511193 2.276390 0.005664 0.005540 -841121.000000 0 0 1
18.139633 10.387945 -19.782920 28.780542 0.520078 2.328660 0.030565 -0.003781 -192924.000000 0 0 1
18.865933 10.547345 -20.970020 30.114974 0.509779 2.341070 0.031732 -0.010379 28824.500000 0 0 1
18.133833 10.102045 -22.102320 30.321605 0.508265 2.387554 0.021138 -0.014697 34202.500000 0 0 1
18.930333 10.279445 -23.418620 31.819118 0.497464 2.397927 0.037499 -0.015822 -157978.000000 0 0 1
18.783433 11.667245 -23.761420 32.458389 0.555823 2.392134 0.024409 -0.012196 53522.800000 0 0 1
19.517233 12.104645 -24.847620 33.835618 0.555142 2.395524 0.027564 -0.013474 -325790.000000 0 0 1
19.407533 13.609645 -25.103180 34.525996 0.611568 2.384856 0.042764 -0.023117 455013.000000 0 0 1
20.352433 14.141345 -26.076880 35.975031 0.607243 2.381628 0.039412 -0.029555 753207.000000 0 0 1
20.233933 15.522445 -26.340630 36.663158 0.654387 2.372367 0.043876 -0.024519 519814.000000 0 0 1
18.965833 16.024945 -27.153400 36.794141 0.701548 2.400871 0.043841 -0.025433 801351.000000 0 0 1
17.779733 15.808445 -26.406330 35.543214 0.726775 2.408242 0.042279 -0.028914 -201826.000000 0 0 1
16.675133 15.978045 -27.297030 35.755920 0.764053 2.439399 0.032532 -0.026782 246518.000000 0 0 1
15.355033 15.446345 -26.711660 34.465626 0.788363 2.457548 0.019842 -0.024178 -212400.000000 0 0 1
15.269933 14.040045 -26.701190 33.811939 0.743461 2.481111 0.028696 -0.018757 1032840.000000 0 0 1
13.904333 13.615345 -26.495310 32.874147 0.774897 2.508095 0.015250 -0.022572 840066.000000 0 0 1
13.872133 12.092245 -26.380220 32.164802 0.716954 2.532483 0.009712 -0.016407 -58743.600000 0 0 1
12.564433 11.571845 -26.239280 31.309302 0.744297 2.564526 0.019806 -0.019745 5723.440000 0 0 1
12.455533 10.155945 -25.841680 30.431496 0.684047 2.585218 0.021415 -0.017746 -344011.000000 0 0 1
11.041233 9.631845 -25.552560 29.455298 0.717328 2.620957 0.018739 -0.022341 103374.000000 0 0 1
10.329933 10.207345 -24.475920 28.459938 0.779429 2.606092 0.025326 -0.021468 119702.000000 0 0 1
9.042233 9.664545 -24.281220 27.653988 0.818653 2.642541 0.013208 -0.023207 -82068.700000 0 0 1
8.225533 10.241445 -23.138120 26.606751 0.894131 2.625256 0.004076 -0.020459 -198558.000000 0 0 1
7.753733 11.561245 -23.433520 27.256423 0.980030 2.605563 0.002360 -0.016877 -111942.000000 0 0 1
7.258033 12.317645 -22.350220 26.531787 1.038327 2.572507 0.006093 -0.007701 53754.600000 0 0 1
8.342933 13.176845 -21.665320 26.694941 1.006357 2.517663 0.006180 -0.013670 -691070.000000 0 0 1
9.279233 12.369845 -21.075020 26.139504 0.927200 2.508585 0.026038 -0.015836 -1252850.000000 0 0 1
10.034733 13.034645 -20.116320 25.985845 0.914711 2.456130 0.022281 -0.016270 -381045.000000 0 0 1
10.973133 12.058345 -19.338320 25.293951 0.832482 2.441129 0.031130 -0.019127 1355460.000000 0 0 1
12.061833 11.299245 -20.000820 25.945974 0.752766 2.450993 0.043090 -0.022534 1739230.000000 0 0 1
11.622633 10.592645 -21.169120 26.370843 0.739067 2.502684 0.045703 -0.026506 -144599.000000 0 0 1
12.857633 9.871145 -21.798320 27.164774 0.654750 2.502183 0.057607 -0.029230 558938.000000 0 0 1
13.390833 8.727345 -21.161120 26.519313 0.577598 2.494685 0.050388 -0.027307 266737.000000 0 0 1
14.481933 8.316445 -21.978020 27.602953 0.521281 2.491818 0.046672 -0.024621 -75094.000000 0 0 1
15.159033 7.030945 -21.469320 27.205921 0.434281 2.480206 0.059906 -0.016275 195471.000000 0 0 1
15.782433 7.185745 -20.186320 26.612171 0.427253 2.431862 0.040360 -0.018205 209987.000000 0 0 1
16.444733 6.046245 -19.733320 26.389207 0.352329 2.415508 0.022537 -0.016400 -83942.400000 0 0 1
17.208233 6.071745 -18.398420 25.913148 0.339202 2.360299 0.033990 -0.015148 134541.000000 0 0 1
18.439533 6.785745 -18.497920 26.985843 0.352619 2.326042 0.019356 -0.012836 420195.000000 0 0 1
19.115133 6.980145 -17.271120 26.690866 0.350119 2.274544 0.011096 -0.006729 188091.000000 0 0 1
19.861433 5.858845 -16.526420 26.493870 0.286850 2.244370 -0.010743 -0.007429 -595292.000000 0 0 1
21.142833 5.602445 -17.039820 27.726562 0.259028 2.232633 -0.013813 -0.002844 143835.000000 0 0 1
21.919233 4.890245 -16.080320 27.621440 0.219508 2.192189 0.009010 -0.011276 -166778.000000 0 0 1
22.774433 3.820045 -16.739320 28.521437 0.166187 2.198025 -0.018705 0.015350 -439725.000000 0 0 1
23.456133 2.968845 -15.857520 28.468670 0.125901 2.161585 -0.020011 0.010344 378915.000000 0 0 1
24.472133 2.289745 -16.588020 29.652835 0.093294 2.164467 -0.012680 0.006802 215709.000000 0 0 1
25.321133 1.214845 -15.927020 29.938363 0.047941 2.131750 -0.005237 -0.003475 -132130.000000 0 0 1
24.755733 -0.027555 -15.980820 29.465805 -0.001113 2.144030 0.004271 -0.014024 2035.560000 0 0 1
25.840233 -0.934755 -16.124720 30.472906 -0.036159 2.128394 0.007212 -0.006315 187076.000000 0 0 1
25.508333 -2.438855 -16.301020 30.370155 -0.095320 2.137371 0.003407 -0.013618 -483186.000000 0 0 1
24.920533 -2.977155 -15.185420 29.334168 -0.118902 2.114922 0.007765 -0.010195 39279.400000 0 0 1
24.969633 -4.389755 -15.224520 29.572598 -0.174025 2.111592 0.006570 -0.005208 -1179900.000000 0 0 1
24.330733 -5.106955 -14.012920 28.538176 -0.206894 2.084061 0.010275 -0.005078 -203151.000000 0 0 1
22.975933 -4.997055 -13.687420 27.206792 -0.214156 2.097965 0.020247 -0.003103 -123392.000000 0 0 1
22.088233 -5.373055 -14.730020 27.087511 -0.238620 2.145747 0.020115 -0.002790 -512334.000000 0 0 1
20.594733 -5.439755 -14.308720 25.660737 -0.258236 2.162302 0.030304 -0.006341 74339.600000 0 0 1
20.236933 -6.501855 -13.425320 25.140541 -0.310870 2.134134 0.030932 -0.004595 428061.000000 0 0 1
20.229333 -6.100155 -12.046520 24.321933 -0.292878 2.088970 0.033047 -0.009225 -331304.000000 0 1 0
20.013233 -7.344655 -11.109520 24.039444 -0.351730 2.051200 0.032086 -0.010206 532232.000000 0 1 0
18.714033 -7.967155 -11.105520 23.173760 -0.402490 2.070571 0.031136 -0.005408 1066800.000000 0 1 0
18.569533 -8.984255 -12.050620 23.890622 -0.450618 2.099492 0.036471 -0.007310 -664857.000000 0 1 0
17.134233 -9.523455 -12.015820 22.992565 -0.507296 2.120689 0.042084 -0.003851 -699820.000000 0 1 0
16.272933 -8.498055 -12.303220 22.099649 -0.481265 2.161223 0.044597 -0.009660 -875327.000000 0 1 0
14.928133 -8.884855 -12.349920 21.314557 -0.536864 2.188804 0.033623 -0.005642 440969.000000 0 1 0
13.848433 -7.776955 -12.664920 20.314042 -0.511688 2.243952 0.025809 -0.009041 296704.000000 0 1 0
14.025033 -6.934455 -13.773420 20.844551 -0.459185 2.292638 0.032111 -0.011170 -378545.000000 0 1 0
14.991033 -5.948355 -13.518020 21.044022 -0.377740 2.268381 0.025613 -0.017647 -315713.000000 0 1 0
15.021033 -4.807855 -14.552920 21.460065 -0.309771 2.316025 0.021575 -0.014139 -381005.000000 0 1 0
13.977833 -3.941955 -14.188220 20.303310 -0.274876 2.344533 0.023379 -0.017823 -296230.000000 0 1 0
13.598933 -3.062055 -15.166920 20.599578 -0.221475 2.398343 0.015213 -0.020563 -93293.700000 0 1 0
14.593833 -1.935155 -15.670920 21.501221 -0.131832 2.387420 0.009393 -0.011796 -192530.000000 0 1 0
15.614333 -2.458355 -16.510020 22.856764 -0.156160 2.377955 -0.000122 -0.008759 -232496.000000 0 1 0
16.730333 -1.617255 -16.482420 23.541234 -0.096367 2.346405 0.004396 -0.002027 -191186.000000 0 1 0
17.852233 -1.984855 -15.487920 23.717452 -0.110728 2.282359 0.013802 -0.003426 -925757.000000 0 1 0
17.592733 -1.810955 -14.093320 22.614276 -0.102576 2.243630 0.018458 0.001246 -210125.000000 0 1 0
18.385333 -2.654355 -13.281920 22.835837 -0.143383 2.191523 0.007529 0.000396 -44649.300000 0 1 0
17.815833 -2.958255 -11.828520 21.588633 -0.164545 2.150654 0.000561 0.001316 -483409.000000 0 1 0
17.931933 -1.849755 -10.964520 21.099680 -0.102791 2.117241 0.013778 0.000211 590476.000000 0 1 0
17.384433 -2.121855 -9.678820 20.010006 -0.121454 2.075672 0.009369 -0.000739 -1141290.000000 0 1 0
17.225533 -0.815755 -8.769920 19.346729 -0.047322 2.041263 -0.002694 0.004037 -64737.100000 0 1 0
18.394533 -0.251755 -8.183720 20.134436 -0.013686 1.989366 -0.009141 0.010732 1472140.000000 0 1 0
19.480533 0.194845 -9.045320 21.478988 0.010002 2.005481 -0.012416 0.014743 473500.000000 0 1 0
19.323833 1.539045 -9.801320 21.721995 0.079477 2.038924 -0.005430 0.016059 -705596.000000 0 1 0
19.387933 2.667645 -8.974320 21.530135 0.136734 2.000747 0.001735 0.018541 549305.000000 0 1 0
18.776633 3.724945 -9.662920 21.443162 0.195839 2.038267 -0.010684 0.012419 -156329.000000 0 1 0
18.712733 5.124845 -8.928520 21.357642 0.267315 2.002092 0.008551 0.010522 -18755.300000 0 1 0
18.158233 6.151645 -9.743920 21.506002 0.326644 2.041013 0.019577 0.009395 561031.000000 0 1 0
18.650033 7.397645 -9.276320 22.104275 0.377620 2.003869 0.039267 0.001975 -32757.400000 0 1 0
-24.897967 -29.015245 5.778480 38.667610 0.861619 1.420795 0.006067 0.008923 -337436.000000 0 0 1
-25.139917 -28.157545 6.839280 38.361941 0.841956 1.391555 0.004564 0.009032 -558704.000000 0 0 1
-24.030367 -27.348545 7.073280 37.086827 0.849891 1.378899 0.001444 0.008396 -755801.000000 0 0 1
-24.306467 -26.303575 8.144980 36.729050 0.824838 1.347179 -0.009855 0.015512 -639597.000000 0 0 1
-25.276107 -25.272955 7.972880 36.621997 0.785336 1.351331 -0.014181 0.009550 1521470.000000 0 0 1
-26.675117 -25.690635 7.905280 37.869038 0.766600 1.360496 -0.016011 0.012303 1262780.000000 0 0 1
-27.232377 -26.173135 9.246680 38.886199 0.765567 1.330708 -0.016000 0.010718 -1138840.000000 0 0 1
-26.579527 -27.265325 9.846580 39.329688 0.798134 1.317744 -0.017091 0.009971 -555040.000000 0 0 1
-27.008937 -27.540295 11.133880 40.148646 0.795139 1.289796 -0.009228 0.013465 -24953.700000 0 0 1
-26.005237 -28.451345 11.978080 40.363669 0.830286 1.269505 -0.004503 0.007673 265726.000000 0 0 1
-24.753267 -27.932955 12.278680 39.290459 0.845676 1.252962 -0.008742 0.009198 -632404.000000 0 0 1
-24.786167 -26.870005 13.290680 38.897216 0.825717 1.222085 0.000697 0.014201 -1167470.000000 0 0 1
-23.439067 -26.367055 13.759180 37.867222 0.844118 1.198932 0.008303 0.014605 -600678.000000 0 0 1
-22.657167 -27.361035 14.387280 38.327109 0.879166 1.185988 0.020988 0.010245 -49131.200000 0 0 1
-21.583667 -26.834345 15.142080 37.619401 0.893421 1.156542 0.014028 0.006694 123802.000000 0 0 1
-20.747467 -27.875685 15.900980 38.214557 0.930963 1.141647 0.019495 -0.000635 -314097.000000 0 0 1
-21.434267 -28.495265 16.958980 39.484363 0.925886 1.126845 0.022444 0.003413 -77161.200000 0 0 1
-20.686367 -29.554905 17.440080 40.069622 0.960117 1.120487 0.011363 0.003373 -615185.000000 0 0 1
-21.434667 -30.465215 18.421080 41.556112 0.957673 1.111539 0.002525 -0.000200 216471.000000 0 0 1
-22.566367 -31.097355 17.795480 42.343424 0.943050 1.137058 0.008744 -0.005236 571467.000000 0 0 1
-22.909767 -32.151015 18.605780 43.643101 0.951686 1.130379 0.005014 -0.002000 -61692.000000 0 0 1
-24.051267 -33.074535 18.095880 44.719673 0.942058 1.154199 -0.000703 -0.002884 202462.000000 0 0 1
-23.631567 -33.926755 17.006780 44.706892 0.962392 1.180561 0.001604 0.000177 231376.000000 0 0 1
-24.691267 34.474255 16.559380 45.523027 -0.949265 1.198497 0.005397 -0.001173 -491230.000000 0 0 1
-24.323567 33.985419 15.157480 44.456651 -0.949607 1.222869 0.005243 -0.006645 353881.000000 0 0 1
-23.248867 33.050069 15.099080 43.136980 -0.957763 1.213197 -0.001174 -0.007896 480124.000000 0 0 1
-22.050067 33.709127 14.737880 42.891908 -0.991525 1.220043 0.004439 0.001478 -574754.000000 0 0 1
-20.833667 32.808989 14.503280 41.482726 -1.005039 1.213629 0.008179 -0.012255 -495363.000000 0 0 1
-20.920267 31.898729 13.429280 40.441712 -0.990331 1.232304 0.016038 -0.007712 219981.000000 0 0 1
-19.928067 30.883809 13.491780 39.153105 -0.997761 1.218994 0.010335 -0.015806 152727.000000 0 0 1
-19.894767 29.992809 12.242180 38.016329 -0.985116 1.242929 0.010803 -0.005057 86888.600000 0 0 1
-19.414267 30.793909 11.132680 38.067245 -1.008282 1.274011 0.009869 -0.000749 117542.000000 0 0 1
-19.535567 30.087429 9.924380 37.220761 -0.994918 1.300896 0.012838 -0.002540 100932.000000 0 0 1
-18.916567 30.871589 8.741480 37.246543 -1.021055 1.333894 -0.000261 -0.002899 516545.000000 0 0 1
-17.495967 31.030859 8.724880 36.676240 -1.057401 1.330604 -0.001329 -0.004337 328874.000000 0 0 1
-16.995767 31.615679 7.527080 36.675117 -1.077543 1.364091 0.004779 -0.002128 101521.000000 0 0 1
-16.377467 30.621219 6.476180 35.324515 -1.079666 1.386420 0.006299 -0.002840 -915973.000000 0 0 1
-17.217867 29.658399 5.984880 34.812273 -1.044809 1.398019 0.003119 0.000296 -677804.000000 0 0 1
-17.287567 28.454399 6.729780 33.967672 -1.024841 1.371354 -0.001349 0.000647 -25176.100000 0 0 1
-18.381567 27.406379 6.351280 33.605511 -0.980004 1.380658 0.006350 0.002783 195022.000000 0 0 1
-18.082867 26.644009 5.235480 32.623665 -0.974520 1.409618 0.010083 -0.002100 -330055.000000 0 0 1
-19.239967 26.169409 4.644880 32.811419 -0.936829 1.428756 0.023932 -0.001880 -1193030.000000 0 0 1
-18.957467 25.315799 3.399080 31.809259 -0.928038 1.463734 0.025591 -0.003510 -1153230.000000 0 0 1
-18.557567 25.999819 2.203180 32.019180 -0.950897 1.501934 0.017170 -0.008202 589277.000000 0 0 1
-17.255967 26.562929 2.161080 31.749454 -0.994684 1.502677 0.011940 -0.010067 262768.000000 0 0 1
-15.983467 25.703739 2.478080 30.369298 -1.014477 1.489107 0.004640 -0.007440 -298555.000000 0 0 1
-15.740467 24.561529 1.595480 29.216032 -1.000874 1.516159 0.015247 -0.006904 193843.000000 0 0 1
-15.380567 24.891709 0.253080 29.261289 -1.017320 1.562147 0.015912 -0.007426 -359228.000000 0 0 1
-15.199367 23.647439 -0.680820 28.119133 -0.999535 1.595011 0.018361 -0.007461 201383.000000 0 0 1
-16.318467 22.762339 -0.859420 28.020618 -0.948814 1.601472 0.019774 -0.012531 596833.000000 0 0 1
-15.956967 21.629039 -1.616120 26.926789 -0.935177 1.630851 0.018485 -0.013943 196385.000000 0 0 1
-15.091567 20.480639 -1.003120 25.460130 -0.935752 1.610206 0.024472 -0.014347 195419.000000 0 0 1
-15.781767 19.744039 -0.007120 25.276299 -0.896471 1.571078 0.032750 -0.017308 508870.000000 0 0 1
-14.931667 18.781539 0.625080 24.001908 -0.899100 1.544750 0.063432 -0.037703 431692.000000 0 1 0
-15.809567 17.777039 1.448480 23.834085 -0.843910 1.509985 0.062249 -0.030555 358711.000000 0 1 0
-16.471367 16.881339 0.571980 23.592641 -0.797690 1.546550 0.044546 -0.027300 86474.000000 0 1 0
-17.212267 15.980139 1.366580 23.526464 -0.748294 1.512677 0.047407 -0.034017 -298846.000000 0 1 0
-17.671667 14.816739 0.498880 23.066695 -0.697748 1.549167 0.059795 -0.025464 -535157.000000 0 1 0
-18.678367 15.119739 -0.463920 24.035455 -0.680494 1.590099 0.057037 -0.027668 400104.000000 0 1 0
-19.284667 13.881339 -0.792320 23.774308 -0.623899 1.604129 0.042328 -0.019061 -837846.000000 0 1 0
-20.433867 14.110039 -1.771620 24.895276 -0.604337 1.642019 0.056990 -0.016035 -425366.000000 0 1 0
-21.427067 13.065139 -1.901420 25.168084 -0.547557 1.646417 0.046277 -0.015450 1383330.000000 0 0 1
-22.399167 12.963339 -0.879520 25.894872 -0.524642 1.604768 0.033478 -0.004610 -166884.000000 0 0 1
-23.450667 14.109639 -0.708920 27.377331 -0.541649 1.596694 0.005007 0.000656 -648743.000000 0 0 1
-22.926767 15.299139 -0.256520 27.563855 -0.588444 1.580103 -0.013797 -0.004409 230692.000000 0 0 1
-23.962367 16.236739 -0.016920 28.945241 -0.595529 1.571381 -0.025909 -0.003493 -23134.400000 0 0 1
-23.484167 17.389739 0.864580 29.234511 -0.637385 1.541218 -0.029535 -0.010879 62061.500000 0 0 1
-23.089267 16.959839 2.160580 28.730097 -0.633529 1.495523 -0.021637 -0.015780 462913.000000 0 0 1
-22.326567 17.934239 2.898380 28.783904 -0.676731 1.469931 -0.022285 -0.019154 4783.550000 0 0 1
-23.086567 19.195639 3.469480 30.224153 -0.693634 1.455751 -0.017204 -0.019869 -911903.000000 0 0 1
-23.924567 18.890939 4.554380 30.821986 -0.668370 1.422489 -0.009527 -0.026337 689070.000000 0 0 1
-25.279667 19.341339 4.455480 32.140321 -0.653092 1.431723 -0.015694 -0.031226 407276.000000 0 0 1
-26.144497 18.609839 3.438480 32.275129 -0.618606 1.464057 0.021792 -0.021622 -1782250.000000 0 0 1
-27.443337 19.129539 3.440580 33.629059 -0.608747 1.468307 0.026222 -0.019013 -47010.200000 0 0 1
-28.177117 18.509539 2.369080 33.795939 -0.581210 1.500639 0.040024 -0.009180 -111291.000000 0 0 1
-29.415817 19.225739 1.823180 35.188681 -0.578891 1.518962 0.043017 -0.020446 -283423.000000 0 0 1
-30.522697 19.157739 2.685080 36.136735 -0.560507 1.496424 0.066470 -0.011710 -268762.000000 0 0 1
-31.506477 20.088239 2.364380 37.440429 -0.567602 1.507604 0.049814 -0.019333 151106.000000 0 0 1
-32.314027 20.659539 3.603180 38.522666 -0.568842 1.477125 0.046820 -0.015675 -99925.700000 0 0 1
-31.479067 21.527439 4.279780 38.375497 -0.599815 1.459040 0.038872 -0.020298 27912.100000 0 0 1
-31.953687 22.057939 5.490680 39.214007 -0.604193 1.430316 0.024669 -0.016102 -645228.000000 0 0 1
-30.927177 23.023739 6.079280 39.032556 -0.639940 1.414411 0.018909 -0.008488 -435329.000000 0 0 1
-30.815997 24.195639 5.261980 39.531545 -0.665629 1.437292 0.018806 -0.005269 569658.000000 0 0 1
-29.955207 25.168509 5.843680 39.559030 -0.698780 1.422533 -0.005486 -0.003451 -368685.000000 0 0 1
-30.344117 26.530839 5.361480 40.661976 -0.718452 1.438556 -0.007068 0.001734 -1061170.000000 0 0 1
-31.500657 26.959429 5.995180 41.893250 -0.707873 1.427197 0.002533 0.004958 -290784.000000 0 0 1
-31.626377 28.335869 5.731580 42.848573 -0.730577 1.436631 0.006307 0.003766 -488242.000000 0 0 1
-32.551637 28.934489 6.788980 44.078384 -0.726637 1.416160 0.000358 0.013080 -436257.000000 0 0 1
-32.028767 28.959049 8.107680 43.934074 -0.735107 1.385191 -0.001713 0.017201 -136923.000000 0 0 1
-32.809287 29.647849 9.047580 45.136492 -0.734824 1.368980 0.002144 0.020986 -3520.480000 0 0 1
-34.012387 28.944359 9.765980 45.716438 -0.705071 1.355517 0.007640 0.018785 338241.000000 0 0 1
-33.687477 27.751169 10.498980 44.891002 -0.689075 1.334733 0.013961 0.006901 -241352.000000 0 0 1
-34.705791 27.447599 11.389380 45.690049 -0.669146 1.318865 0.023635 0.004457 -393446.000000 0 0 1
-34.346424 26.195969 12.217080 44.890563 -0.651579 1.295167 0.022897 0.008706 -318743.000000 0 0 1
-33.438657 26.527529 13.230480 44.686678 -0.670654 1.270219 0.022106 -0.003287 -227053.000000 0 0 1
-33.085737 25.345409 13.927680 43.943555 -0.653696 1.248290 0.025538 -0.008240 -942809.000000 0 0 1
-31.820727 25.483689 14.704980 43.338361 -0.675260 1.224617 0.031827 -0.013200 -974986.000000 0 0 1
-32.022917 26.423809 15.726980 44.396202 -0.689891 1.208693 0.026940 -0.014400 470173.000000 0 0 1
-30.835617 26.668049 16.492680 43.977592 -0.713050 1.186373 0.051706 -0.014254 441679.000000 0 0 1
-31.084957 27.801159 17.540280 45.242020 -0.729691 1.172662 0.037038 -0.016779 -429351.000000 0 0 1
-31.130927 29.071499 16.982880 45.855260 -0.751203 1.191402 0.054483 -0.016783 40545.500000 0 0 1
-31.426607 30.046729 17.976180 47.048704 -0.762955 1.178755 0.038913 -0.018401 -293429.000000 0 0 1
-31.170827 31.517959 17.531780 47.669335 -0.790935 1.194177 0.025274 -0.008630 -677454.000000 0 0 1
-29.828417 31.756629 17.275680 46.868615 -0.816698 1.193296 0.020012 -0.005546 -796788.000000 0 0 1
-29.630047 33.024229 16.648980 47.389112 -0.839518 1.211810 0.015891 0.004829 -1029240.000000 0 0 1
-28.344017 33.146529 15.879880 46.413858 -0.863342 1.221607 0.026568 -0.000485 -959510.000000 0 0 1
-28.280807 32.409929 14.641980 45.437816 -0.853329 1.242699 0.016411 -0.002608 241516.000000 0 0 1
-27.736967 31.097419 14.679480 44.180040 -0.842453 1.232092 0.015724 -0.006393 -375401.000000 0 0 1
-28.765527 30.007449 14.402980 43.992594 -0.806526 1.237250 0.030914 -0.006277 -206291.000000 0 0 1
-29.089277 29.984849 13.042880 43.765213 -0.800557 1.268179 0.026102 -0.002390 212301.000000 0 0 1
-29.916867 28.842019 12.775780 43.475298 -0.767108 1.272531 0.036593 -0.001734 126125.000000 0 0 1
-30.111387 28.682199 11.251280 43.080801 -0.761094 1.306565 0.019717 0.005353 183844.000000 0 0 1
-29.019517 28.130479 10.499280 41.757527 -0.769843 1.316634 -0.001340 0.012629 386862.000000 0 0 1
-29.134857 28.250249 9.033680 41.575519 -0.769984 1.351766 0.001391 0.001828 -368542.000000 0 0 1
-28.017797 27.445729 8.343880 40.098445 -0.775084 1.361180 -0.005498 -0.004153 87309.500000 0 0 1
-27.737047 27.877639 6.998480 39.943526 -0.787926 1.394678 -0.014765 -0.002661 -364911.000000 0 0 1
-26.870127 26.965989 6.382180 38.599229 -0.787179 1.404689 0.005565 -0.001033 -761267.000000 0 0 1
-26.441587 27.434279 4.983080 38.426921 -0.803822 1.440753 -0.003164 -0.004534 -83713.800000 0 0 1
-25.483497 28.485829 4.922780 38.536798 -0.840971 1.442704 0.005237 -0.003132 313310.000000 0 0 1
-25.234677 28.780539 3.572380 38.443078 -0.850950 1.477736 0.003189 0.000538 -8703.250000 0 0 1
-24.023467 29.711679 3.337580 38.354273 -0.890862 1.483666 0.007815 -0.003113 -287465.000000 0 0 1
-22.723967 29.220929 3.509580 37.182772 -0.909826 1.476268 0.013203 -0.003657 -53565.900000 0 0 1
-21.837167 30.256889 3.062080 37.439518 -0.945638 1.488917 0.018805 -0.005084 -371304.000000 0 0 1
-20.375567 29.957549 3.340380 36.383741 -0.973518 1.478857 0.013376 -0.007696 -244841.000000 0 0 1
-19.460367 30.947799 2.869880 36.670265 -1.009460 1.492454 0.009155 -0.008964 -447260.000000 0 0 1
-18.146767 30.477149 3.023380 35.599193 -1.033750 1.485766 0.014913 -0.011881 281160.000000 0 0 1
-17.035067 31.482679 2.560680 35.887458 -1.074817 1.499383 0.017320 -0.010122 326813.000000 0 0 1
-16.903767 32.640719 3.385480 36.913620 -1.092952 1.478954 0.016629 -0.009362 430526.000000 0 0 1
-15.825667 33.423010 2.858780 37.090726 -1.128576 1.493644 0.008287 0.001126 262743.000000 0 0 1
-15.665467 -34.449848 3.680580 38.022961 1.144014 1.473846 0.003903 0.001233 115035.000000 0 0 1
-16.716367 -33.510075 3.499380 37.611271 1.108072 1.477621 0.005249 -0.004187 219720.000000 0 0 1
-16.581767 -32.421055 4.450080 36.686278 1.098030 1.449196 0.002243 -0.001178 -89985.200000 0 0 1
-17.775867 -31.452685 4.452080 36.401564 1.056387 1.448185 0.000458 0.001956 -149826.000000 0 0 1
-17.819967 -30.543615 3.326680 35.518030 1.042652 1.476997 0.005135 -0.000253 -61621.800000 0 0 1
-18.926967 -29.699165 3.466780 35.387696 1.003408 1.472673 0.004797 -0.003796 -772201.000000 0 0 1
-19.268667 -28.718065 2.342180 34.662582 0.979827 1.503174 -0.004718 -0.005394 -319940.000000 0 0 1
-18.562467 -27.506245 2.328880 33.265333 0.977153 1.500730 -0.001791 0.001223 -193916.000000 0 0 1
-19.038567 -26.586715 1.364680 32.728929 0.949351 1.529088 -0.001232 -0.001716 -102224.000000 0 0 1
-18.262367 -25.225095 1.377180 31.172361 0.944160 1.526602 0.001921 0.002619 -1099270.000000 0 0 1
-17.002467 -25.471415 0.914080 30.638414 0.982209 1.540957 0.006807 0.000582 -1952050.000000 0 0 1
-16.091867 -24.444455 1.190480 29.289875 0.988606 1.530140 0.009675 -0.001390 480952.000000 0 0 1
-14.741067 -24.723455 0.452780 28.788075 1.033147 1.555068 0.019401 -0.003500 180539.000000 0 0 1
-14.731067 -24.639155 -0.965320 28.723233 1.031943 1.604410 0.021163 -0.000016 -20526.800000 0 0 1
-14.521367 -23.294455 -1.445220 27.488004 1.013361 1.623397 0.025337 -0.007750 -258860.000000 0 0 1
-14.504767 -23.361955 -3.005820 27.662324 1.015171 1.679672 0.004125 0.006869 671293.000000 0 0 1
-13.307267 -23.921455 -3.568920 27.605372 1.063137 1.700443 0.015287 0.000005 682802.000000 0 0 1
-13.646167 -24.179455 -4.933020 28.199266 1.056987 1.746635 0.019505 -0.002908 210947.000000 0 0 1
-12.549467 -24.819455 -5.800320 28.410177 1.102655 1.776405 0.037065 -0.004249 -36272.500000 0 0 1
-12.399767 -26.215425 -5.594820 29.534805 1.128985 1.761379 0.022774 -0.007836 -105421.000000 0 0 1
-11.408567 -26.781395 -6.442920 29.814589 1.168089 1.788614 0.028148 0.000976 107454.000000 0 0 1
22.387333 12.529645 28.561229 38.391776 0.510241 0.731847 0.011354 0.013120 -269786.000000 0 0 1
23.259533 11.483345 28.987429 38.899153 0.458599 0.729970 0.002794 0.010476 429083.000000 0 0 1
22.913533 10.730645 30.151359 39.360909 0.437976 0.698165 0.014188 0.003374 -615030.000000 0 0 1
22.939533 11.508945 31.494579 40.627411 0.465013 0.683757 0.021517 -0.001363 -26534.700000 0 0 1
22.006233 12.569045 31.623029 40.524945 0.518942 0.675595 0.024424 0.005924 171673.000000 0 0 1
22.221233 13.121245 32.891129 41.806419 0.533392 0.665273 0.016702 0.009113 -767177.000000 0 0 1
21.249133 14.134945 33.468980 42.089131 0.586987 0.651471 0.010079 0.015935 -584806.000000 0 0 1
19.994633 13.567045 33.813412 41.559558 0.596174 0.620456 0.009287 0.021700 -402370.000000 0 0 1
19.296133 14.475045 34.576890 42.159566 0.643599 0.609135 0.014321 0.019576 -1012350.000000 0 0 1
18.125433 13.731645 -33.973480 40.881374 0.648341 2.551746 0.016735 0.015111 -542160.000000 0 0 1
17.137933 13.289445 34.266644 40.552694 0.659585 0.564249 0.018456 0.012295 338455.000000 0 0 1
16.087033 12.656845 -34.173056 39.834484 0.666624 2.601919 0.014672 0.004038 1190200.000000 0 0 1
14.759933 12.331145 34.184221 39.223382 0.695985 0.512489 0.011233 0.004146 1170050.000000 0 0 1
14.960533 11.341045 33.264688 38.196549 0.648642 0.513802 0.001399 0.014749 570731.000000 0 0 1
13.702733 10.742745 32.910549 37.232724 0.664899 0.486628 0.018966 0.005113 894308.000000 0 0 1
13.920533 9.719645 31.761229 36.014281 0.609533 0.490905 0.025785 0.004788 165938.000000 0 0 1
14.311833 8.464645 32.291569 36.321126 0.534104 0.475514 0.018748 0.008794 -165837.000000 0 0 1
15.156333 7.741045 31.431459 35.743179 0.472208 0.496260 0.021619 -0.002323 -84813.300000 0 0 1
15.416133 6.311345 31.960529 36.041166 0.388582 0.480469 0.031240 -0.012216 -190686.000000 0 0 1
14.284233 5.427245 32.002269 35.463214 0.363100 0.445472 0.011539 -0.003897 38452.600000 0 0 1
14.603433 4.203345 32.587519 35.956568 0.280257 0.436345 0.020736 -0.011733 266291.000000 0 0 1
13.410333 3.230345 32.825319 35.605810 0.236381 0.397817 0.003083 -0.007851 52351.200000 0 0 1
13.839533 1.902445 32.949779 35.788824 0.136608 0.400997 0.011792 -0.019571 23081.100000 0 0 1
12.997933 1.054645 33.778260 36.208140 0.080962 0.368437 0.009739 -0.018014 211579.000000 0 0 1
13.625233 -0.336055 34.107364 36.729718 -0.024659 0.380163 0.014898 -0.017837 -58254.700000 0 0 1
13.813533 -1.174655 33.028929 35.820436 -0.084832 0.397402 0.013280 -0.008489 -118177.000000 0 0 1
14.042133 -2.473255 33.571658 36.474028 -0.174343 0.401626 0.007866 -0.013948 -319433.000000 0 0 1
14.088333 -3.599955 32.575849 35.673894 -0.250174 0.419834 0.015057 -0.018850 -1364660.000000 0 0 1
14.408533 -4.922655 33.010689 36.353046 -0.329216 0.432171 0.017648 -0.020719 567249.000000 0 0 1
15.729233 -5.254955 33.454337 37.339202 -0.322430 0.460214 0.012525 -0.021056 1535100.000000 0 0 1
16.963733 -4.744155 32.583689 37.040141 -0.272698 0.495595 0.019669 -0.021749 -229204.000000 0 0 1
17.073233 -3.317555 32.537029 36.893898 -0.191922 0.490902 0.021742 -0.022963 -11299.400000 0 0 1
17.983233 -2.737255 31.594259 36.456638 -0.151052 0.522397 0.053625 -0.029399 21497.000000 0 0 1
17.984133 -1.228155 31.457599 36.256281 -0.068185 0.520349 0.053695 -0.035747 -301611.000000 0 0 1
18.369733 -0.609555 32.689029 37.501884 -0.033170 0.512210 0.029937 -0.027531 72037.600000 0 0 1
18.308733 0.813545 32.662339 37.452636 0.044406 0.511324 0.021568 -0.025239 -186812.000000 0 0 1
19.488533 1.614445 32.081419 37.571622 0.082652 0.547413 0.039785 -0.028196 -426318.000000 0 0 1
19.665233 1.429145 30.690859 36.478661 0.072546 0.571044 0.041855 -0.029955 42997.700000 0 0 1
20.583033 2.324045 30.061479 36.506917 0.112435 0.603338 0.045791 -0.025715 187299.000000 0 0 1
20.092533 3.783845 29.964189 36.275060 0.186141 0.598774 0.039100 -0.018008 -109231.000000 0 0 1
19.817633 4.400845 31.220239 37.239889 0.218521 0.576538 0.037578 -0.017991 402634.000000 0 0 1
19.276633 5.695645 31.016529 36.960168 0.287295 0.575008 0.030681 -0.012341 -115920.000000 0 0 1
19.098233 6.379545 32.363079 38.115745 0.322385 0.556567 0.026023 -0.005713 -330476.000000 0 0 1
18.123133 5.769745 33.179029 38.243769 0.308218 0.520507 0.022071 -0.009986 27632.800000 0 0 1
18.275933 6.281745 34.503699 39.547128 0.331066 0.510561 0.018454 0.000297 -47133.000000 0 0 1
17.171033 5.640845 -33.787640 38.317987 0.317403 2.650397 0.009900 -0.002084 -147552.000000 0 0 1
17.113833 4.261545 -33.897920 38.211425 0.244048 2.661852 0.001259 -0.010004 324456.000000 0 0 1
15.920533 3.764545 -33.296510 37.098420 0.232194 2.684905 0.005425 -0.017083 91006.900000 0 0 1
15.833833 2.245245 -33.405620 37.036291 0.140861 2.695106 0.000248 -0.024810 -339455.000000 0 0 1
16.935533 1.517745 -32.896010 37.030572 0.089380 2.664530 -0.017648 -0.014263 10654.400000 0 0 1
16.823733 0.133445 -33.140440 37.166444 0.007932 2.671831 -0.006292 -0.020215 -573924.000000 0 0 1
17.964633 -0.617555 -32.437660 37.085188 -0.034363 2.635571 -0.002356 -0.018611 -407914.000000 0 0 1
17.895733 -0.782055 -31.010800 35.812548 -0.043673 2.617783 0.003004 -0.014699 173101.000000 0 0 1
17.997533 0.388845 -30.213860 35.170154 0.021602 2.604259 -0.000531 -0.007495 -273376.000000 0 0 1
17.777333 0.043545 -28.717620 33.774800 0.002449 2.587290 -0.011140 0.001733 -50637.700000 0 0 1
16.461933 -0.431555 -28.499950 32.915477 -0.026209 2.617648 -0.012727 -0.004621 107282.000000 0 0 1
15.937133 -0.563255 -27.201030 31.531024 -0.035328 2.611332 -0.004024 0.000505 39391.300000 0 0 1
16.586633 -1.539455 -26.138170 30.995003 -0.092548 2.574195 0.006647 0.005679 -799826.000000 0 0 1
17.857433 -1.152755 -25.662350 31.285347 -0.064464 2.532675 0.009341 0.004608 -404980.000000 0 0 1
18.673033 -2.260555 -25.495690 31.683157 -0.120474 2.505980 0.010635 0.006974 175735.000000 0 0 1
19.331433 -2.895455 -26.810640 33.179788 -0.148674 2.511616 0.016938 -0.003696 -384771.000000 0 0 1
20.334833 -2.058355 -27.374160 34.162653 -0.100880 2.500243 0.030037 0.001215 -241898.000000 0 0 1
20.728833 -2.680355 -28.565330 35.395577 -0.128592 2.509903 0.030482 -0.005044 -476503.000000 0 0 1
22.148933 -2.237555 -28.896830 36.477509 -0.100682 2.485173 0.021925 -0.012386 -231862.000000 0 0 1
23.145833 -3.065655 -28.325800 36.708020 -0.131683 2.452230 0.016916 -0.013590 240204.000000 0 0 1
24.458333 -2.598355 -28.623490 37.739444 -0.105839 2.431728 0.017542 -0.018702 -8265.620000 0 0 1
25.590333 -3.570555 -28.357830 38.363792 -0.138632 2.402652 0.026399 -0.018361 -680863.000000 0 0 1
25.595133 -4.575955 -29.306570 39.178122 -0.176913 2.415891 0.029734 -0.026218 377652.000000 0 0 1
26.558933 -5.629855 -29.180010 39.856557 -0.208884 2.392234 0.028735 -0.026907 157592.000000 0 0 1
26.395233 -6.638255 -28.012880 39.057601 -0.246385 2.370601 0.009302 -0.018780 -196835.000000 0 0 1
26.643133 -6.015655 -26.790050 38.259004 -0.222063 2.346514 0.003376 -0.005327 332010.000000 0 0 1
26.430933 -7.021755 -25.760060 37.569668 -0.259666 2.326308 -0.019374 -0.000278 -224118.000000 0 0 1
26.396033 -6.509755 -24.311620 36.471665 -0.241794 2.300420 -0.026030 0.006515 371209.000000 0 0 1
27.651533 -6.108655 -23.735020 36.949616 -0.217423 2.268372 -0.032492 0.015378 795972.000000 0 0 1
27.606533 -5.817055 -22.366020 36.002745 -0.207675 2.241109 -0.026433 0.007137 -582829.000000 0 0 1
29.007233 -5.491155 -21.854320 36.731235 -0.187089 2.208036 -0.022844 0.015190 -475004.000000 0 0 1
29.440533 -4.285655 -22.450420 37.271077 -0.144555 2.217244 -0.005567 0.010783 433228.000000 0 0 1
30.690333 -3.833555 -21.916420 37.906756 -0.124267 2.187276 -0.006855 0.011956 442740.000000 0 0 1
31.311333 -2.620255 -22.576520 38.690626 -0.083489 2.193845 0.001951 0.001734 -392193.000000 0 0 1
30.558533 -1.441455 -22.518020 37.986352 -0.047135 2.205318 -0.002651 0.000675 -217639.000000 0 0 1
31.186633 -0.352555 -23.136320 38.833229 -0.011304 2.209041 -0.002142 -0.001421 -115104.000000 0 0 1
30.355333 0.958045 -22.992620 38.092318 0.031551 2.218808 0.005784 0.002217 -297659.000000 0 0 1
29.222733 0.909745 -23.815120 37.708828 0.031121 2.254351 0.007133 0.005576 -77111.200000 0 0 1
28.356733 1.987745 -23.421820 36.832555 0.069983 2.259970 0.006623 0.011251 328827.000000 0 0 1
26.975833 1.919545 -24.121920 36.238753 0.071038 2.299146 0.006749 0.006924 237590.000000 0 0 1
26.058733 2.955945 -23.803020 35.417212 0.112951 2.307804 0.002884 0.014815 1667.090000 0 0 1
25.072933 3.111345 -24.789720 35.395800 0.123461 2.346695 0.020381 0.010857 100733.000000 0 0 1
24.029933 4.190945 -24.342220 34.460780 0.172668 2.355160 0.017424 0.022150 384666.000000 0 0 1
24.623033 5.468445 -24.223220 34.970874 0.218540 2.335979 0.002437 0.030718 34758.000000 0 0 1
23.602233 6.323045 -23.811020 34.117605 0.261754 2.343272 -0.000380 0.018600 -385489.000000 0 0 1
24.053233 7.664545 -23.222220 34.301236 0.308477 2.314486 0.002575 0.016883 -289086.000000 0 0 1
24.720333 8.607045 -24.083520 35.569538 0.335050 2.314588 -0.001554 0.019318 449870.000000 0 0 1
24.805733 9.825645 -23.405020 35.491726 0.377143 2.290883 0.002273 0.013577 -94847.600000 0 0 1
25.616133 10.931045 -24.186120 36.886887 0.403331 2.285884 0.023626 0.009091 -10217.700000 0 0 1
25.241233 11.239845 -25.531060 37.620327 0.418936 2.316720 0.035009 0.002665 -15412.100000 0 0 1
23.905433 11.670045 -25.669410 36.967260 0.454143 2.338357 0.036028 -0.009214 -104395.000000 0 0 1
23.452533 11.916245 -27.121280 37.783356 0.470107 2.371448 0.034312 -0.013047 -199999.000000 0 0 1
23.314733 10.795345 -27.969900 37.979357 0.433634 2.398604 0.029390 0.000495 955055.000000 0 0 1
24.503233 10.080945 -28.396910 38.838362 0.390306 2.390812 0.024866 -0.002214 784441.000000 0 0 1
25.157933 10.625845 -29.717620 40.360465 0.399637 2.398390 0.026954 0.004902 -790985.000000 0 0 1
26.086633 11.684645 -29.505280 41.080468 0.421120 2.372053 0.026081 0.006186 823325.000000 0 0 1
27.049433 11.885645 -30.535220 42.489293 0.414008 2.372665 0.026746 0.014721 351747.000000 0 0 1
27.904633 10.716745 -31.096000 43.133263 0.366680 2.375938 0.018210 0.006948 -1152210.000000 0 0 1
27.278733 9.704145 -31.855600 43.047403 0.341780 2.403885 0.014187 0.012794 -116951.000000 0 0 1
28.115233 8.576445 -31.999210 43.450790 0.296080 2.398600 0.013883 0.012699 103618.000000 0 0 1
27.428033 7.466745 -32.846400 43.438868 0.265790 2.428210 0.010883 0.013141 69914.700000 0 0 1
26.242133 6.986845 -32.277940 42.182116 0.260209 2.442155 0.026413 0.008889 -330665.000000 0 0 1
25.650533 5.936745 -33.005350 42.220231 0.227442 2.468252 0.018824 0.009687 -335397.000000 0 0 1
24.329533 5.438245 -32.381260 40.866204 0.219910 2.485485 0.033199 0.009401 295336.000000 0 0 1
23.270533 6.372845 -32.627560 40.579410 0.267305 2.504859 0.027020 0.015109 304485.000000 0 0 1
23.033533 7.218645 -31.530830 39.709517 0.303702 2.488218 0.032485 0.019372 -296953.000000 0 0 1
21.615933 7.829645 -31.628450 39.101288 0.347516 2.513050 0.032377 0.016337 50910.600000 0 0 1
21.354433 8.677745 -32.657280 39.972653 0.385983 2.526969 0.036916 0.013427 -162049.000000 0 0 1
20.037833 9.185345 -32.667540 39.408799 0.429817 2.548007 0.019155 0.018916 28027.800000 0 0 1
19.663533 10.127445 -33.852540 40.437781 0.475605 2.562850 0.013781 0.020101 -84209.800000 0 0 1
19.363733 9.426245 34.122280 40.350195 0.453031 0.563008 0.014293 0.010113 7158.640000 0 0 1
19.312433 10.435245 33.104741 39.721383 0.495395 0.585522 0.012035 0.010777 206726.000000 0 0 1
18.237033 10.207645 31.994079 38.215265 0.510276 0.578641 0.024394 0.004576 150606.000000 0 0 1
18.477633 9.070845 31.092669 37.288835 0.456349 0.584781 0.020851 -0.005089 620926.000000 0 0 1
19.465333 9.188045 30.033419 36.950313 0.441015 0.621844 0.025920 -0.009518 -92775.200000 0 0 1
19.071933 9.998945 28.712889 35.890772 0.482879 0.643489 0.037977 -0.012424 -396912.000000 0 0 1
17.994833 9.504645 27.956159 34.578883 0.485942 0.629240 0.026041 -0.001995 -750859.000000 0 0 1
16.838133 10.114845 28.425299 34.551851 0.540942 0.604678 0.021356 -0.009451 -927527.000000 0 0 1
15.554433 9.556345 27.744399 33.211682 0.550927 0.581971 0.033073 -0.007573 -171747.000000 0 0 1
15.587733 9.827245 26.367989 32.168665 0.562507 0.609945 0.037285 -0.002183 1416480.000000 0 0 1
14.384833 9.335445 25.682029 30.881071 0.575657 0.588736 0.045774 -0.003683 1254010.000000 0 0 1
14.287833 7.831945 25.367619 30.149588 0.501425 0.570943 0.044919 -0.002161 -148143.000000 0 0 1
14.277733 7.042845 26.538619 30.947595 0.458253 0.540339 0.036131 -0.005437 149196.000000 0 0 1
13.772333 5.724445 26.291309 30.227130 0.393923 0.516016 0.038944 -0.009696 -641.333000 0 0 1
13.650333 4.776045 27.519719 31.088215 0.336572 0.483843 0.043215 -0.009794 681502.000000 0 0 1
14.893933 4.085945 27.754389 31.762089 0.267749 0.507790 0.025497 -0.008437 856629.000000 0 0 1
15.031733 3.782145 29.130649 32.997763 0.246494 0.488992 0.014162 -0.011616 -2501.760000 0 0 1
16.125333 2.720845 29.380219 33.624792 0.167157 0.507902 0.035700 -0.015909 -128409.000000 0 0 1
15.814633 1.319845 29.233519 33.263242 0.083264 0.497342 0.025624 -0.018243 174272.000000 0 0 1
14.847433 0.839145 30.173949 33.639525 0.056458 0.457909 0.011737 -0.015701 319665.000000 0 0 1
14.482133 -0.637755 30.025879 33.342050 -0.044009 0.449784 0.016119 -0.015638 -573695.000000 0 0 1
13.863733 -1.012555 28.805269 31.983932 -0.072907 0.449609 0.016924 -0.015669 -27161.800000 0 0 1
14.644833 -1.244255 27.665759 31.327520 -0.084758 0.488338 0.027260 -0.009297 -1647550.000000 0 0 1
15.742733 -2.268355 27.621199 31.873339 -0.143104 0.522463 0.030697 -0.007186 -144471.000000 0 0 1
16.967833 -2.008455 28.291929 33.051089 -0.117820 0.543303 0.033297 -0.015774 393913.000000 0 0 1
17.794533 -1.066155 27.647719 32.896481 -0.059843 0.572690 0.038474 -0.017743 -144731.000000 0 0 1
19.295333 -0.961555 28.090449 34.092635 -0.049792 0.602459 0.059245 -0.016940 883614.000000 0 0 1
20.143933 -1.858755 27.385879 34.047311 -0.092013 0.636219 0.041303 -0.017569 -466908.000000 0 0 1
21.469633 -1.480855 27.617169 35.012085 -0.068865 0.661959 0.048592 -0.024151 223269.000000 0 0 1
22.500933 -1.889555 26.474479 34.795983 -0.083780 0.706176 0.042642 -0.011906 438044.000000 0 0 1
22.399133 -1.180555 25.207129 33.741876 -0.052657 0.727171 0.046782 -0.004796 228183.000000 0 0 1
21.647533 -2.054755 24.382729 32.670402 -0.094635 0.728273 0.031548 0.007675 -203269.000000 0 0 1
21.632033 -1.401455 23.035429 31.631312 -0.064696 0.755035 0.033454 -0.010941 -30009.700000 0 0 1
20.865233 -0.216255 23.132729 31.153296 -0.010364 0.733934 0.022158 -0.005708 198322.000000 0 0 1
20.915833 0.386245 21.897229 30.283822 0.018465 0.762565 0.024686 -0.003662 -89688.300000 0 0 1
-29.139197 -27.991349 -10.164120 41.664346 0.765309 1.817236 -0.008764 0.004030 -90776.600000 0 0 1
-29.139807 -26.789949 -9.364220 40.675771 0.743408 1.803096 -0.007827 0.004552 -148766.000000 0 0 1
-29.795677 -26.977149 -8.128020 41.007482 0.735793 1.770326 0.013352 -0.005162 -564240.000000 0 0 1
-30.175647 -25.740949 -7.307820 40.330762 0.706255 1.753000 0.024454 -0.015232 288350.000000 0 0 1
-29.112607 -24.998249 -6.722820 38.957061 0.709508 1.744235 0.012698 -0.014743 -215070.000000 0 0 1
-28.272957 -25.552249 -5.725920 38.536524 0.734894 1.719933 0.004975 -0.010080 -80623.000000 0 0 1
-27.066157 -24.682749 -5.416420 37.029077 0.739374 1.717598 -0.007281 -0.007941 -739329.000000 0 0 1
-27.243367 -23.602649 -4.485220 36.323591 0.713917 1.694592 0.009160 -0.010492 -596213.000000 0 0 1
-28.247597 -22.697749 -4.787220 36.551771 0.676889 1.702145 0.013207 -0.019406 -500693.000000 0 0 1
-28.242877 -21.542449 -3.766720 35.720098 0.651616 1.676444 0.021122 -0.018277 -120200.000000 0 0 1
-27.343897 -20.522549 -4.178920 34.443099 0.643843 1.692424 0.024202 -0.018832 347278.000000 0 0 1
-27.506217 -19.445449 -3.219220 33.839043 0.615373 1.666074 0.010250 -0.009090 -108166.000000 0 0 1
-26.305257 -18.478849 -3.039120 32.290411 0.612387 1.665054 0.010537 -0.009492 5796.330000 0 0 1
-26.169627 -17.660449 -4.204220 31.849902 0.593643 1.703184 0.015596 -0.011914 90404.400000 0 0 1
-25.109217 -16.734349 -4.090920 30.450728 0.587861 1.705549 0.019132 -0.009886 60287.800000 0 0 1
-25.152727 -15.692149 -5.253320 30.108148 0.557790 1.746176 0.013535 -0.015368 -1150510.000000 0 0 1
-26.333947 -15.010949 -5.215420 30.757210 0.518086 1.741187 0.005289 -0.010805 -1046830.000000 0 0 1
-26.441587 -14.059949 -6.277320 30.598111 0.488713 1.777417 0.030295 -0.025861 232381.000000 0 0 1
-27.710047 -13.176149 -6.095120 31.282712 0.443857 1.766891 0.020332 -0.017589 231793.000000 0 0 1
-28.881447 -13.801149 -6.571020 32.677025 0.445775 1.773267 0.019727 -0.013871 -357590.000000 0 0 1
-29.993477 -13.072149 -6.129820 33.287602 0.411010 1.756001 0.008890 -0.017425 789607.000000 0 0 1
-31.400087 -13.614949 -6.617820 34.858684 0.409129 1.761803 0.000204 -0.014663 832064.000000 0 0 1
-31.867377 -14.881949 -6.152920 35.705189 0.436898 1.743986 0.001270 -0.015120 206577.000000 0 0 1
-31.997657 -15.799949 -7.184120 36.401923 0.458663 1.769456 -0.000371 -0.015827 -934542.000000 0 0 1
-32.712297 -17.101249 -6.738320 37.522687 0.481703 1.751356 -0.002035 -0.017088 53621.600000 0 0 1
-34.113898 -16.970649 -6.688120 38.684517 0.461622 1.744558 0.008630 -0.022453 -21384.500000 0 0 1
-34.612791 -16.212049 -5.584820 38.627271 0.438036 1.715887 0.010927 -0.020150 -27161.100000 0 0 1
34.117332 -16.102449 -5.470720 38.120991 -0.440975 1.714803 0.037138 -0.029548 92563.600000 0 0 1
33.475972 -15.353349 -6.475920 37.393897 -0.430014 1.744855 0.036094 -0.032336 659736.000000 0 0 1
32.052532 -15.322149 -6.404120 36.099111 -0.445920 1.749144 0.050373 -0.041177 571113.000000 0 0 1
31.329562 -14.606649 -5.261620 34.965416 -0.436265 1.721851 0.066173 -0.050451 -839655.000000 0 0 1
31.577362 -15.208449 -4.025920 35.279381 -0.448840 1.685161 0.064700 -0.047044 204059.000000 0 0 1
31.082302 -14.325649 -3.017820 34.357546 -0.431876 1.658745 0.071271 -0.046222 -662631.000000 0 0 1
31.001342 -15.073449 -1.652720 34.511209 -0.452562 1.618704 0.075843 -0.040216 1075220.000000 0 0 1
32.294792 -15.436149 -1.083720 35.810651 -0.445874 1.601063 0.086524 -0.037466 1290230.000000 0 0 1
33.122792 -16.378749 -1.755620 36.992769 -0.459226 1.618273 0.069246 -0.036770 -681748.000000 0 0 1
32.554782 -17.761849 -2.107420 37.144829 -0.499458 1.627562 0.064094 -0.032464 -821069.000000 0 0 1
32.796172 -18.688949 -1.032620 37.761515 -0.517956 1.598146 0.067137 -0.031275 310448.000000 0 0 1
32.563792 -20.083149 -1.286420 38.280390 -0.552632 1.604408 0.055639 -0.026474 -211994.000000 0 0 1
33.515292 -20.822649 -2.234520 39.520255 -0.555926 1.627368 0.037282 -0.022746 -169262.000000 0 0 1
33.458832 -20.337249 -3.570120 39.317209 -0.546156 1.661725 0.041047 -0.023980 387201.000000 0 0 1
34.583333 -20.757649 -4.348420 40.568407 -0.540582 1.678190 0.036029 -0.022807 413256.000000 0 0 1
34.613829 -20.002949 -5.735720 40.387295 -0.524003 1.713296 0.041975 -0.030437 -404326.000000 0 0 1
33.504712 -20.274649 -6.532420 39.702640 -0.544182 1.736082 0.037454 -0.033964 -272709.000000 0 0 1
33.354162 -19.342349 -7.597320 39.298166 -0.525515 1.765346 0.037291 -0.034781 -71378.700000 0 0 1
32.354182 -19.706449 -8.700820 38.869544 -0.547073 1.796556 0.038766 -0.040070 -255352.000000 0 0 1
32.693902 -20.900849 -9.350020 39.914403 -0.568809 1.807245 0.040109 -0.035085 -146050.000000 0 0 1
31.789002 -21.223949 -10.373420 39.605612 -0.588684 1.835805 0.042629 -0.039157 -437558.000000 0 0 1
31.857612 -22.698949 -10.778420 40.574919 -0.619074 1.839667 0.039923 -0.030358 -322962.000000 0 0 1
31.277442 -23.426649 -9.746520 40.275065 -0.642858 1.815222 0.030492 -0.025787 -222837.000000 0 0 1
31.154852 -24.795249 -10.106820 41.080129 -0.672218 1.819375 0.022766 -0.007556 166089.000000 0 0 1
30.152762 -25.498549 -9.117920 40.527787 -0.701961 1.797718 0.010735 -0.005125 1326280.000000 0 0 1
28.773772 -25.117949 -9.295420 39.309619 -0.717665 1.809524 0.006046 -0.006028 1151900.000000 0 0 1
27.831072 -26.181849 -9.056120 39.269213 -0.754874 1.803507 -0.014145 -0.001429 275618.000000 0 0 1
26.403012 -25.625649 -9.040720 37.888356 -0.770458 1.811735 0.000800 -0.011440 -492426.000000 0 0 1
25.917732 -25.264249 -10.286320 37.627377 -0.772631 1.847694 0.013825 -0.015945 -238300.000000 0 0 1
24.719002 -24.532549 -10.091720 36.259038 -0.781612 1.852844 0.033624 -0.018031 -247581.000000 0 0 1
24.021802 -24.283349 -11.445120 36.023864 -0.790813 1.894109 0.066330 -0.030820 -292510.000000 0 0 1
23.483802 -25.522649 -11.877420 36.660164 -0.826978 1.900737 0.053329 -0.023509 271947.000000 0 0 1
22.599502 -25.378449 -12.973920 36.374795 -0.843255 1.935501 0.058495 -0.014160 -420565.000000 0 0 1
21.902102 -26.658749 -13.331820 36.988219 -0.883039 1.939530 0.065420 -0.021787 -247717.000000 0 0 1
22.627302 -27.425149 -14.237620 38.299392 -0.880963 1.951685 0.057269 -0.018473 142544.000000 0 0 1
22.092302 -28.718849 -14.065620 38.867515 -0.915081 1.941087 0.063185 -0.018675 -1358.670000 0 0 1
22.753302 -29.757749 -15.023120 40.360011 -0.918005 1.952205 0.054251 -0.024035 -249908.000000 0 0 1
22.597302 -29.673849 -16.438320 40.760198 -0.919962 1.985909 0.053406 -0.026665 200799.000000 0 0 1
23.285702 -30.704749 -17.100120 42.159455 -0.921957 1.988438 0.042486 -0.026529 -475924.000000 0 0 1
23.214802 -30.733949 -18.661920 42.799181 -0.923882 2.021984 0.036097 -0.022025 392195.000000 0 0 1
21.858602 -30.866349 -19.099020 42.371010 -0.954609 2.038409 0.036353 -0.017472 412849.000000 0 0 1
21.843002 -30.818449 -20.533320 42.994311 -0.954213 2.068697 0.024463 -0.009501 -362654.000000 0 0 1
20.396402 -30.621749 -20.979320 42.353708 -0.983203 2.089018 0.018049 -0.002750 -243918.000000 0 0 1
20.361702 -30.776149 -22.389020 43.162929 -0.986305 2.116137 0.006899 0.001927 618550.000000 0 0 1
18.997302 -30.536549 -22.740620 42.550136 -1.014273 2.134645 0.009206 0.003241 241229.000000 0 0 1
18.730502 -30.559149 -24.253020 43.277041 -1.020926 2.165681 0.016820 0.006549 -402097.000000 0 0 1
19.130802 -29.364049 -24.939220 43.013947 -0.993364 2.189272 0.014548 0.009030 353461.000000 0 0 1
19.304902 -29.610049 -26.351240 44.088797 -0.993037 2.211408 0.014393 0.003889 -485875.000000 0 0 1
19.921602 -28.495349 -27.182660 44.133345 -0.960663 2.234351 0.003203 0.002005 -37003.900000 0 0 1
19.143702 -27.312849 -27.291320 43.096278 -0.959463 2.256560 0.015668 -0.008654 -290720.000000 0 0 1
18.076702 -27.434049 -28.193810 43.293014 -0.988180 2.280003 0.028677 -0.010342 -291512.000000 0 0 1
17.342602 -26.079249 -28.368760 42.257302 -0.983951 2.306803 0.022898 -0.005999 -279107.000000 0 0 1
16.509302 -25.736049 -27.297720 40.988617 -1.000430 2.299607 0.020116 0.004476 -306485.000000 0 0 1
16.103902 -24.415049 -27.438660 40.103744 -0.987710 2.324291 0.006388 0.012935 208153.000000 0 0 1
14.928102 -23.976749 -26.516450 38.740867 -1.013919 2.324655 0.009773 0.007436 583599.000000 0 0 1
13.669802 -24.628049 -26.646360 38.774125 -1.064084 2.328452 0.043600 -0.005003 625592.000000 0 0 1
12.647102 -24.216249 -25.715170 37.518607 -1.089502 2.325946 0.039576 -0.012158 334767.000000 0 0 1
12.791602 -24.562949 -24.204320 36.780601 -1.090673 2.289053 0.019547 0.001602 -475790.000000 0 0 1
13.831802 -23.864049 -23.554020 36.271248 -1.045506 2.277572 -0.013268 0.007232 -217997.000000 0 0 1
14.002602 -24.186549 -22.198920 35.691092 -1.046005 2.242057 -0.005481 0.006278 358991.000000 0 0 1
15.181602 -23.515949 -21.423720 35.248499 -0.997529 2.224072 -0.006898 0.004856 263678.000000 0 0 1
15.139602 -22.134249 -21.379220 34.295824 -0.970896 2.243850 -0.006339 0.000833 -437897.000000 0 0 1
16.237002 -21.570249 -20.738520 34.044119 -0.925538 2.225805 0.008185 -0.003345 -1310490.000000 0 0 1
16.090702 -20.050849 -20.292820 32.752798 -0.894536 2.238998 0.011211 0.005378 -75232.300000 0 0 1
15.282202 -19.921549 -19.150720 31.577902 -0.916429 2.222397 0.009867 -0.003766 1104580.000000 0 0 1
13.862602 -19.794049 -19.419020 31.001200 -0.959841 2.247717 0.017553 -0.005517 848007.000000 0 0 1
13.050502 -19.961449 -18.128220 29.956759 -0.991765 2.220746 0.022889 -0.001590 -326835.000000 0 0 1
13.048102 -18.837649 -17.308620 28.717561 -0.965013 2.217701 0.034896 -0.003158 167048.000000 0 0 1
12.626302 -19.086749 -15.946720 27.893106 -0.986364 2.179383 0.031661 -0.002182 -34026.900000 0 0 1
12.637602 -17.798449 -15.092920 26.538462 -0.953364 2.175744 0.029546 0.004240 33746.300000 0 0 1
11.483702 -16.992649 -15.207620 25.532278 -0.976494 2.208838 0.016988 -0.002179 263048.000000 0 0 1
11.888102 -15.635549 -14.881520 24.642585 -0.920720 2.219174 0.019061 -0.006096 -325404.000000 0 1 0
10.769202 -14.675049 -14.541620 23.297886 -0.937715 2.244853 0.027618 -0.006226 -496034.000000 0 1 0
9.902502 -14.466549 -15.647220 23.498427 -0.970542 2.299474 0.035193 0.010553 -215109.000000 0 1 0
8.801502 -13.692749 -15.231120 22.292259 -0.999509 2.322997 0.024383 0.000393 -122483.000000 0 1 0
8.039402 -13.150949 -16.475920 22.561812 -1.022097 2.389494 0.018733 0.008671 148227.000000 0 1 0
8.604702 -12.036149 -17.238620 22.717389 -0.950137 2.432310 0.029553 0.020102 366975.000000 0 1 0
9.678002 -12.361449 -18.125320 23.979082 -0.906558 2.427794 0.043859 0.021021 412719.000000 0 1 0
9.996302 -11.181449 -19.081620 24.270539 -0.841302 2.475440 0.054636 0.019320 514777.000000 0 1 0
8.817102 -10.849649 -19.823520 24.257537 -0.888382 2.527351 0.041862 0.012851 697465.000000 0 1 0
9.029702 -9.690449 -20.532220 24.433836 -0.820680 2.568668 0.039383 -0.000757 164426.000000 0 1 0
8.566702 -9.740449 -22.032920 25.567837 -0.849425 2.609493 0.039776 -0.001727 -189927.000000 0 0 1
9.559902 -10.352149 -22.800020 26.802978 -0.825164 2.588021 0.044589 0.000930 -219430.000000 0 0 1
9.292102 -10.372149 -24.205120 27.925122 -0.840267 2.619518 0.041083 -0.000460 176821.000000 0 0 1
10.417202 -11.073149 -25.007220 29.265915 -0.815912 2.595351 0.060302 -0.004061 52837.600000 0 0 1
10.287302 -12.482449 -24.952420 29.736566 -0.881507 2.566452 0.044891 -0.004014 348661.000000 0 0 1
11.363302 -13.140949 -25.642690 30.973484 -0.857816 2.546135 0.045811 -0.015535 60547.800000 0 0 1
11.436902 -14.714049 -25.419690 31.519305 -0.910065 2.508971 0.034850 -0.008007 190749.000000 0 0 1
10.398302 -15.471949 -26.025260 32.012810 -0.979059 2.520020 0.031940 -0.004511 -103131.000000 0 0 1
10.175802 -16.661249 -25.332840 31.982760 -1.022512 2.485002 0.030808 -0.007415 -106310.000000 0 0 1
9.055102 -17.415349 -26.036340 32.606445 -1.091317 2.495600 0.039150 -0.007171 -36360.000000 0 0 1
9.486002 -18.070649 -27.230420 34.029815 -1.087397 2.498413 0.029361 -0.015450 -234295.000000 0 0 1
8.468902 -18.925849 -27.683710 34.587539 -1.150042 2.498751 0.035186 -0.010306 -326985.000000 0 0 1
8.820502 -19.809649 -28.915040 36.142813 -1.151889 2.498128 0.029632 -0.015013 -197919.000000 0 0 1
9.559202 -20.989549 -28.547730 36.700305 -1.143439 2.462051 0.032690 -0.018489 152974.000000 0 0 1
9.409902 -22.016649 -29.533370 38.019719 -1.166895 2.460350 0.041858 -0.013557 -73861.000000 0 0 1
10.234402 -23.280049 -29.281460 38.782825 -1.156607 2.426467 0.034400 -0.008453 -181099.000000 0 0 1
10.421302 -24.218649 -30.307200 40.170547 -1.164444 2.425632 0.034432 -0.003228 -54676.200000 0 0 1
10.791902 -25.519149 -29.822440 40.707125 -1.170711 2.392945 0.048810 -0.003268 383350.000000 0 0 1
9.811502 -26.302749 -28.856910 40.259426 -1.213761 2.369961 0.047009 -0.009084 413636.000000 0 0 1
10.449902 -26.576249 -27.597870 39.713220 -1.196162 2.339118 0.048126 -0.000149 -95318.500000 0 0 1
9.617002 -26.789449 -26.448280 38.854508 -1.226140 2.319515 0.034380 0.003991 963435.000000 0 0 1
8.665802 -25.592649 -26.017960 37.510186 -1.244309 2.337304 0.024126 0.004543 1441450.000000 0 0 1
9.485402 -24.495149 -25.493220 36.604500 -1.201342 2.341235 0.026739 0.003050 215185.000000 0 0 1
8.689402 -23.362749 -25.309210 35.522948 -1.214716 2.363815 0.017102 0.010313 -656316.000000 0 0 1
9.529702 -22.126849 -25.078370 34.775527 -1.164120 2.376257 0.032246 0.000724 106509.000000 0 0 1
10.207102 -22.093149 -23.801320 34.041078 -1.138006 2.345066 0.027690 0.003071 292192.000000 0 0 1
11.215502 -21.093149 -23.846820 33.754692 -1.082101 2.355300 0.035175 -0.004452 -44260.500000 0 0 1
11.817102 -20.746649 -22.457320 32.778019 -1.053037 2.325583 0.021154 0.002311 173912.000000 0 0 1
10.959002 -20.048249 -21.535620 31.397690 -1.070543 2.326634 0.014071 0.007080 132760.000000 0 0 1
10.529702 -18.694749 -21.862820 30.632518 -1.057842 2.365581 0.029775 0.000637 -122906.000000 0 0 1
11.563402 -17.566649 -21.697720 30.217387 -0.988637 2.371799 0.035849 -0.001411 -511867.000000 0 0 1
12.597002 -17.715249 -22.599420 31.356790 -0.952671 2.375635 0.031053 0.002266 -924628.000000 0 0 1
13.508502 -16.649749 -22.505820 31.083849 -0.889183 2.380432 0.035194 0.005854 -717927.000000 0 0 1
14.730902 -16.695749 -23.386320 32.290362 -0.847839 2.380744 0.024855 0.000069 -872739.000000 0 0 1
15.762102 -17.489949 -22.845320 32.806262 -0.837314 2.341124 0.015949 0.003903 360393.000000 0 0 1
16.976402 -17.139949 -23.512020 33.686661 -0.790192 2.343344 0.012725 0.000679 -501351.000000 0 0 1
18.221202 -17.293549 -22.691320 33.852253 -0.759284 2.305415 0.005064 0.005984 -747316.000000 0 0 1
18.549002 -18.709549 -22.556620 34.683047 -0.789707 2.278860 -0.002220 0.012626 136621.000000 0 0 1
19.875102 -18.838949 -22.073120 35.173119 -0.758640 2.249207 -0.007914 0.009625 334207.000000 0 0 1
20.204502 -20.283349 -21.649620 35.893484 -0.787346 2.218257 0.002825 0.011585 76119.100000 0 0 1
19.491902 -20.662549 -20.472420 35.014213 -0.814544 2.195293 0.001291 0.006967 261638.000000 0 0 1
19.709902 -22.022949 -20.226120 35.813216 -0.840767 2.170947 0.010489 0.024699 -415113.000000 0 0 1
-15.243467 13.190245 29.434689 35.675577 -0.713312 0.600478 0.010788 -0.013482 -688426.000000 0 0 1
-16.490667 13.757245 29.154719 36.210517 -0.695276 0.634876 0.034834 -0.019198 -351100.000000 0 0 1
-16.814767 13.536945 27.793609 35.191902 -0.677820 0.660358 0.024462 -0.022496 -239755.000000 0 0 1
-18.212567 14.002345 27.383799 35.744030 -0.655443 0.698032 0.036343 -0.018707 -355423.000000 0 0 1
-18.360867 15.426945 27.399459 36.412119 -0.698782 0.718974 0.051209 -0.019168 251833.000000 0 0 1
-19.417967 15.962645 26.592479 36.592669 -0.688045 0.757267 0.054802 -0.024388 -97551.600000 0 0 1
-19.674567 17.505445 26.602529 37.432923 -0.727123 0.780343 0.066967 -0.021322 465131.000000 0 0 1
-18.615867 18.312345 26.072649 36.900888 -0.777179 0.786173 0.063654 -0.011414 598176.000000 0 0 1
-17.461467 18.443845 26.890329 36.988756 -0.812752 0.756873 0.038626 -0.001963 -215011.000000 0 0 1
-16.284767 19.201145 26.277439 36.392051 -0.867398 0.764013 0.024682 -0.002435 -357621.000000 0 0 1
-16.422267 20.576345 26.105119 37.074979 -0.897207 0.789618 0.037534 -0.003141 -331354.000000 0 0 1
-15.237767 21.186845 25.679539 36.612985 -0.947294 0.793468 0.044879 -0.008337 -108470.000000 0 0 1
-15.478467 22.672345 25.385179 37.390179 -0.971774 0.824497 0.032595 0.000663 66248.700000 0 0 1
-15.186167 23.417645 26.584499 38.545316 -0.995482 0.809729 0.022303 0.006946 203560.000000 0 0 1
-15.322867 24.795745 26.377869 39.311718 -1.017273 0.835250 0.014887 -0.001247 -435282.000000 0 0 1
-14.880467 25.640345 27.638119 40.530497 -1.044948 0.820427 0.007251 0.005290 229362.000000 0 0 1
-13.473267 25.731445 27.804569 40.208584 -1.088439 0.807221 0.003290 0.002292 43322.600000 0 0 1
-13.184067 26.804445 28.664619 41.399979 -1.113681 0.806011 0.006994 0.007673 491183.000000 0 0 1
-11.647867 26.834945 28.878559 41.106669 -1.161280 0.791854 0.020402 0.005894 584786.000000 0 0 1
-10.831167 27.346045 27.856109 40.510285 -1.193676 0.812576 0.025804 0.012520 -280662.000000 0 0 1
-9.447567 27.346445 28.081269 40.319254 -1.238157 0.800326 0.012622 0.014111 -351712.000000 0 0 1
-8.758867 27.944145 26.856349 39.734827 -1.267054 0.828625 0.018384 0.009816 -1004870.000000 0 0 1
-7.387767 28.166145 26.943109 39.671677 -1.314282 0.824189 0.007783 0.004007 -525189.000000 0 0 1
-6.919467 28.733545 25.775419 39.215658 -1.334481 0.853601 0.017456 0.001715 -1424280.000000 0 0 1
-5.449667 28.482745 25.640229 38.709004 -1.381749 0.846800 -0.004918 0.004238 -1788580.000000 0 0 1
-4.624367 29.147845 26.598339 39.729753 -1.413456 0.837286 -0.002205 0.000842 -159247.000000 0 0 1
-3.255967 28.884645 26.441309 39.294616 -1.458547 0.832675 -0.012665 0.005544 71020.700000 0 0 1
-2.532067 29.798045 25.413919 39.245409 -1.486026 0.866413 -0.018120 0.011607 -581433.000000 0 0 1
-3.032567 29.588945 24.099119 38.281453 -1.468663 0.889855 -0.024038 0.019877 80034.400000 0 0 1
-2.613167 30.681745 23.229429 38.572069 -1.485831 0.924499 -0.028078 0.016738 -209624.000000 0 0 1
-2.870867 30.464145 21.768129 37.552063 -1.476836 0.952462 -0.024533 0.023059 1272560.000000 0 0 1
-4.209967 30.351745 21.200329 37.261323 -1.432970 0.965552 -0.021810 0.023693 1370670.000000 0 0 1
-4.818867 29.019745 21.411829 36.384523 -1.406243 0.941610 -0.011326 0.025423 401371.000000 0 0 1
-6.280467 28.984245 20.900929 36.281945 -1.357410 0.956884 -0.013859 0.023519 10143.800000 0 0 1
-6.236867 29.099545 19.497529 35.578584 -1.359662 0.990809 -0.024633 0.026676 344816.000000 0 0 1
-7.234067 28.290445 18.895629 34.781113 -1.320454 0.996466 -0.023791 0.026766 -538023.000000 0 0 1
-6.773167 26.790945 18.545629 33.280188 -1.323170 0.979717 -0.031857 0.020286 260495.000000 0 0 1
-5.827167 26.688345 17.504829 32.444455 -1.355829 1.000915 -0.023637 0.020122 555092.000000 0 0 1
-4.453867 26.752645 17.881329 32.485118 -1.405826 0.987897 -0.021030 0.025019 181854.000000 0 0 1
-3.486767 26.977845 16.717529 31.928630 -1.442263 1.019736 -0.009350 0.019240 -240381.000000 0 0 1
-3.299967 25.871145 15.891329 30.540797 -1.443927 1.023558 -0.001403 0.008411 -363773.000000 0 0 1
-2.423267 26.138845 14.837829 30.154148 -1.478353 1.056335 -0.005332 -0.001430 -240517.000000 0 0 1
-1.812667 24.789645 14.417129 28.734402 -1.497804 1.045190 -0.001651 -0.006351 -215349.000000 0 0 1
-0.825267 24.275545 15.270129 28.690765 -1.536814 1.009562 -0.000760 -0.005640 -265732.000000 0 0 1
-0.248767 23.097645 14.759029 27.411531 -1.560027 1.002230 -0.002687 -0.014394 -1035880.000000 0 0 1
1.022333 22.781245 15.539329 27.595308 1.525950 0.972646 -0.011070 -0.004781 -446337.000000 0 0 1
1.998633 23.776845 15.277329 28.332484 1.486936 1.001290 -0.002707 -0.011844 105240.000000 0 0 1
3.271533 23.336445 15.706629 28.319442 1.431514 0.982886 -0.005884 -0.005869 -534916.000000 0 0 1
4.387833 24.351745 15.721829 29.316147 1.392524 1.004766 0.010973 -0.004357 -16457.500000 0 0 1
5.649233 23.688945 15.707529 28.979414 1.336693 0.997953 0.014495 -0.001566 299094.000000 0 0 1
6.701633 24.537045 16.139629 30.124178 1.304176 1.005377 0.018579 -0.002551 -123340.000000 0 0 1
8.087333 23.906145 15.913029 29.835100 1.244587 1.008221 0.019315 0.003115 -256191.000000 0 0 1
8.383333 23.633145 14.535029 28.984011 1.229916 1.045483 0.023291 0.009542 469106.000000 0 0 1
9.437933 24.518845 14.107429 29.820595 1.203352 1.078017 0.021869 0.006832 201706.000000 0 0 1
10.080433 24.026345 12.795729 29.027764 1.173545 1.114295 0.032344 0.007761 -411957.000000 0 0 1
10.872533 22.901045 12.967429 28.474972 1.127543 1.097978 0.030534 0.005377 -246595.000000 0 0 1
11.532833 22.517845 11.771529 27.903915 1.097465 1.135301 0.048642 0.009146 179248.000000 0 0 1
12.721033 21.556045 11.996429 27.756118 1.037660 1.123856 0.018712 0.006832 -157141.000000 0 0 1
12.316833 20.244245 12.414129 26.751531 1.024215 1.088231 0.027080 0.015058 -528912.000000 0 0 1
13.361033 19.384045 12.752129 26.774525 0.967301 1.074379 0.024236 0.009214 -513235.000000 0 0 1
13.778433 19.550245 14.202129 27.816502 0.956876 1.034955 0.025992 0.007681 -224722.000000 0 0 1
14.649633 18.496145 14.568129 27.729939 0.900930 1.017661 0.019444 0.013546 96147.600000 0 0 1
15.063833 18.492845 15.929529 28.681950 0.887230 0.981970 0.009920 0.005745 86190.500000 0 0 1
15.852733 17.211745 16.171629 28.444242 0.826477 0.966069 -0.008763 0.005167 17517.000000 0 0 1
16.407633 17.081345 17.459129 29.424547 0.805513 0.935579 0.013539 -0.000558 -70947.800000 0 0 1
17.426333 16.107045 17.510229 29.491051 0.746076 0.935089 0.001921 0.001627 148330.000000 0 0 1
18.096833 15.860845 18.850329 30.567903 0.719647 0.906290 0.013349 -0.004091 -148683.000000 0 0 1
18.627733 17.050945 19.452529 31.876764 0.741233 0.914431 0.009610 0.004739 383031.000000 0 0 1
17.683433 17.928645 20.018129 32.169327 0.792284 0.899152 0.007640 0.007188 -420390.000000 0 0 1
18.409733 18.983945 20.838829 33.668461 0.800753 0.903401 0.005358 0.005879 -77258.600000 0 0 1
17.496233 19.795645 21.532229 34.082585 0.846980 0.886967 0.012684 0.000021 614739.000000 0 0 1
18.279933 20.802945 22.187829 35.485465 0.849864 0.895325 0.013767 0.004069 24920.400000 0 0 1
17.425433 21.911245 22.772729 36.088025 0.898944 0.887912 0.028714 -0.001488 -119179.000000 0 0 1
16.589633 21.504545 23.835929 36.136033 0.913709 0.850488 0.018250 -0.000494 -266112.000000 0 0 1
15.601033 22.462245 24.073029 36.434262 0.963741 0.849012 0.033452 -0.015742 -296408.000000 0 0 1
14.979433 22.151445 25.438689 36.907951 0.976203 0.810347 0.032589 -0.012256 -57623.000000 0 0 1
14.027333 21.111945 25.465169 35.929864 0.984346 0.783076 0.021750 -0.007167 -149002.000000 0 0 1
13.379333 20.929845 26.711259 36.476792 1.002018 0.749131 0.021659 -0.002099 480400.000000 0 0 1
12.355233 19.739545 26.623839 35.371319 1.011541 0.718649 0.036521 -0.002457 418916.000000 0 0 1
12.955933 18.443045 26.628529 34.886683 0.958406 0.702412 0.029383 -0.001732 111811.000000 0 0 1
13.645133 18.061745 25.422199 34.039749 0.923803 0.727501 0.032247 -0.008701 230403.000000 0 0 1
12.784933 17.815745 24.099929 32.583153 0.948343 0.738255 0.048581 -0.008735 -97494.900000 0 0 1
12.456333 18.897145 23.207429 32.416772 0.988005 0.772872 0.049615 -0.009917 -11047.900000 0 0 1
13.516233 19.461945 22.453829 32.643993 0.963774 0.812288 0.035345 -0.008600 116138.000000 0 0 1
14.181533 18.541745 21.409229 31.674395 0.917863 0.828589 0.030828 -0.004974 -311919.000000 0 0 1
13.296233 18.148245 20.387529 30.361159 0.938495 0.834565 0.038880 -0.000868 162987.000000 0 0 1
13.911533 17.151045 19.576129 29.511251 0.889312 0.845517 0.037560 -0.003604 -45155.000000 0 0 1
12.828033 16.355445 18.843129 28.055704 0.905685 0.834386 0.026438 0.007926 138422.000000 0 0 1
12.354533 16.922945 17.624629 27.379702 0.940188 0.871458 0.028058 0.013683 583322.000000 0 0 1
11.145433 16.316245 17.141729 26.158735 0.971511 0.856221 0.005075 0.009270 750881.000000 0 0 1
10.713633 16.824845 15.750829 25.415467 1.003775 0.902393 0.008603 0.010229 150467.000000 0 0 1
10.267233 18.165145 15.644929 26.079731 1.056346 0.927435 0.007702 0.006851 172721.000000 0 0 1
9.802433 18.500945 14.339429 25.376995 1.083567 0.970295 0.003098 0.008974 -206833.000000 0 0 1
8.785133 19.620245 14.161329 25.742491 1.149808 0.988294 0.013836 0.004376 316386.000000 0 0 1
7.548933 19.431545 14.851529 25.595688 1.200253 0.951778 -0.002455 0.006062 15550.600000 0 0 1
6.717633 20.535245 14.646429 26.102505 1.254642 0.975068 -0.001049 0.003256 -364580.000000 0 0 1
5.477233 20.429645 15.544729 26.248982 1.308854 0.937006 -0.002122 0.005335 43457.900000 0 0 1
4.508633 19.521945 15.031229 25.047394 1.343824 0.927156 0.001143 -0.003640 -675813.000000 0 0 1
3.454533 19.217845 15.861729 25.156586 1.392939 0.888573 -0.014365 -0.002474 -476404.000000 0 0 1
2.251133 18.573545 15.135829 24.065276 1.450184 0.890596 -0.026023 -0.007034 -347653.000000 0 1 0
1.598133 19.567645 14.346229 24.315860 1.489305 0.939744 -0.018029 -0.011317 290618.000000 0 1 0
0.711033 18.899145 13.441129 23.202310 1.533192 0.952925 -0.013502 -0.019949 362818.000000 0 1 0
-0.244167 19.726145 12.523829 23.367214 -1.558419 1.005155 0.007421 -0.031573 -41542.900000 0 1 0
-1.229067 20.467745 13.154229 24.361300 -1.510819 1.000402 0.010215 -0.025746 -692218.000000 0 1 0
-2.301367 20.609145 12.259129 24.089819 -1.459590 1.036899 0.015076 -0.033275 244715.000000 0 1 0
-3.582067 21.304545 12.806329 25.114078 -1.404218 1.035697 0.017231 -0.023389 162051.000000 0 0 1
-4.254867 20.519445 13.735829 25.056427 -1.366336 0.990591 0.013514 -0.030181 -25302.100000 0 0 1
-5.352067 21.292045 14.219829 26.157204 -1.324534 0.996041 0.009942 -0.021401 136905.000000 0 0 1
-6.119767 20.727945 15.466029 26.576255 -1.283710 0.949673 0.008328 -0.018970 -841819.000000 0 0 1
-7.032167 19.686045 15.205229 25.849385 -1.227708 0.941935 0.012386 -0.017822 368839.000000 0 0 1
-7.787067 19.281245 16.367129 26.462950 -1.186960 0.903974 0.007556 -0.002269 -647234.000000 0 0 1
-8.804967 20.243845 16.909929 27.808028 -1.160532 0.917137 0.003750 0.007096 -1135640.000000 0 0 1
-9.967567 20.398745 16.128629 27.849486 -1.116281 0.953128 -0.005161 -0.004094 134694.000000 0 0 1
-11.049267 19.616445 16.590529 27.966710 -1.057826 0.935738 -0.012336 0.000389 196579.000000 0 0 1
-12.293267 19.532045 15.635029 27.876143 -1.009047 0.975354 -0.009368 -0.004183 388561.000000 0 0 1
-12.857867 20.820845 15.367029 28.895984 -1.017574 1.010066 -0.019470 0.004151 395303.000000 0 0 1
-13.833467 20.818245 14.338729 28.816025 -0.984304 1.049972 -0.012645 -0.010775 799964.000000 0 0 1
-14.961367 21.921845 14.332629 30.163455 -0.971921 1.075644 -0.016051 -0.009449 251230.000000 0 0 1
-16.135667 21.809445 15.044129 31.021564 -0.933824 1.064482 -0.005913 -0.007291 -867280.000000 0 0 1
-16.914967 22.929545 15.081429 32.238636 -0.935218 1.083989 0.011502 -0.013889 -540797.000000 0 0 1
-18.220867 22.711945 15.850929 33.152442 -0.894679 1.072281 0.044872 -0.018837 -652536.000000 0 0 1
-19.117367 21.790645 15.243329 32.751565 -0.850654 1.086684 0.049770 -0.021960 1267910.000000 0 0 1
-20.298567 21.537845 16.070329 33.677382 -0.815012 1.073348 0.057547 -0.016297 1535200.000000 0 0 1
-21.437467 22.597945 16.022729 35.027988 -0.811745 1.095697 0.047879 -0.019040 -352399.000000 0 0 1
-22.084367 22.768445 14.763229 34.986773 -0.800649 1.135184 0.053670 -0.018118 190316.000000 0 0 1
-22.708667 24.024745 14.583629 36.132453 -0.813552 1.155331 0.055027 -0.023069 -503922.000000 0 0 1
-21.927167 25.192445 14.021929 36.222568 -0.854585 1.173307 0.046993 -0.023416 -153151.000000 0 0 1
-20.733267 25.581445 14.695229 36.058681 -0.889697 1.151042 0.044205 -0.026155 292118.000000 0 0 1
-20.235167 26.753345 14.099929 36.386968 -0.923237 1.172879 0.021940 -0.017977 -406773.000000 0 0 1
-18.733967 26.923245 14.370529 35.809702 -0.962875 1.157858 0.016157 -0.016102 -406544.000000 0 0 1
-17.949367 26.089745 13.567129 34.451728 -0.968179 1.166033 0.020969 -0.010418 -717818.000000 0 0 1
-16.605267 26.434545 13.711329 34.095756 -1.009924 1.156941 -0.009038 -0.001965 -1087630.000000 0 0 1
-15.719267 25.971545 12.565429 32.855844 -1.026526 1.178359 -0.002641 -0.008874 -182573.000000 0 0 1
-14.379067 26.325545 12.826729 32.623870 -1.070874 1.166720 -0.010304 0.001904 -536936.000000 0 0 1
-13.447667 25.805945 11.978829 31.468697 -1.090406 1.180288 -0.013841 -0.000636 -1277210.000000 0 0 1
-12.061467 26.380045 12.174829 31.458103 -1.141955 1.173402 -0.022526 0.003529 -1372480.000000 0 0 1
-11.080067 25.756445 11.378129 30.259282 -1.164541 1.185298 -0.022513 -0.001372 -160423.000000 0 0 1
-9.788667 26.226645 11.654329 30.322900 -1.213575 1.176303 0.001573 -0.004091 -266431.000000 0 0 1
-9.431367 27.636645 11.054629 31.224024 -1.241926 1.208906 -0.009203 -0.001475 -916916.000000 0 0 1
-8.230867 28.171345 11.542529 31.537308 -1.286537 1.196093 0.021688 -0.013100 -128420.000000 0 0 1
-7.802667 29.340045 10.883729 32.251751 -1.310873 1.226577 0.025809 -0.012027 -435950.000000 0 0 1
-6.572167 29.910745 11.559529 32.733297 -1.354507 1.209868 0.025059 -0.013190 667907.000000 0 0 1
-5.357867 29.118445 11.442229 31.741380 -1.388829 1.202011 0.034988 -0.017685 589765.000000 0 0 1
-4.321767 29.667845 12.219229 32.375427 -1.426142 1.183784 0.016473 -0.015506 -528732.000000 0 0 1
-2.975967 29.365245 11.558529 31.698164 -1.469798 1.197546 0.025998 -0.022995 -810685.000000 0 0 1
-2.877567 29.981045 10.260929 31.818707 -1.475110 1.242447 0.043432 -0.027390 -263315.000000 0 0 1
-1.708367 29.705845 9.554929 31.251439 -1.513350 1.260077 0.034050 -0.025444 -422509.000000 0 0 1
-1.517667 30.513545 8.260929 31.648423 -1.521100 1.306716 0.035904 -0.027232 -240575.000000 0 0 1
-2.444467 30.188845 7.253329 31.144061 -1.490000 1.335742 0.041798 -0.027686 12115.700000 0 0 1
-2.218167 30.927845 6.107429 31.603047 -1.499198 1.376318 0.039802 -0.025385 35023.900000 0 0 1
10.186433 34.277745 -27.235610 44.950035 1.281935 2.221704 0.096211 -0.018172 70745.100000 0 0 1
10.807833 -34.526249 -26.018170 44.562498 -1.267427 2.194269 0.070188 -0.015225 794163.000000 0 0 1
11.916133 -33.615249 -26.182090 44.243429 -1.230131 2.204054 0.066540 -0.005388 540321.000000 0 0 1
12.725333 -33.475349 -24.872920 43.602697 -1.207527 2.177843 0.044472 0.013194 -507248.000000 0 0 1
12.089833 -32.748949 -23.862020 42.285384 -1.217149 2.170392 0.028549 0.014309 -46880.900000 0 0 1
12.629033 -32.899349 -22.555820 41.840466 -1.204273 2.140154 0.007266 0.012356 70715.200000 0 0 1
14.068233 -32.518149 -22.103920 41.760369 -1.162483 2.128576 -0.003072 0.013589 651752.000000 0 0 1
15.071333 -33.460749 -22.493120 43.043086 -1.147595 2.120661 0.016658 0.013528 437785.000000 0 0 1
16.341633 -33.050349 -22.012220 42.940800 -1.111601 2.109027 0.009835 0.004264 390771.000000 0 0 1
17.493333 -34.047349 -22.314020 44.307495 -1.096174 2.098577 -0.004823 0.015516 -102825.000000 0 0 1
18.793233 -33.688949 -21.913720 44.366000 -1.061950 2.087401 -0.007656 0.012596 -379997.000000 0 0 1
19.529433 34.353345 -21.968420 45.212416 1.053870 2.078182 -0.015955 0.023278 -429353.000000 0 0 1
21.008333 34.470245 -21.517320 45.744321 1.023448 2.060520 -0.014237 0.017307 -103521.000000 0 0 1
21.783033 -34.115549 -22.500120 46.310113 -1.002543 2.078140 -0.021571 0.013253 -1275260.000000 0 0 1
23.119033 -34.087949 -22.153020 46.767876 -0.974840 2.064261 -0.027046 0.013241 -743364.000000 0 0 1
24.013933 -33.775149 -23.372220 47.578255 -0.952730 2.084306 -0.005952 0.005219 -109152.000000 0 0 1
24.033533 -32.395449 -23.820620 46.845466 -0.932512 2.104231 0.005703 -0.002962 74712.600000 0 0 1
22.847833 -31.932649 -24.465520 46.263151 -0.949743 2.128022 -0.008406 0.005805 330148.000000 0 0 1
22.686933 -30.384149 -24.502020 45.146898 -0.929430 2.144466 0.002117 -0.012419 -474525.000000 0 0 1
23.526633 -29.763649 -25.409720 45.662141 -0.901907 2.160930 0.012183 -0.014731 -467810.000000 0 0 1
23.438933 -28.391649 -25.180690 44.604220 -0.880665 2.170667 0.013863 -0.003884 278274.000000 0 0 1
24.139633 -27.404949 -26.136770 44.909730 -0.848663 2.191963 0.005427 0.005880 459282.000000 0 0 1
23.423133 -27.258949 -27.364150 45.171785 -0.860938 2.221542 -0.000514 -0.003390 525818.000000 0 0 1
24.267533 -26.577149 -28.352370 45.816098 -0.830792 2.238049 -0.001492 -0.003745 178689.000000 0 0 1
23.397533 -25.940849 -29.446600 45.688887 -0.836901 2.271169 -0.004277 -0.004979 461504.000000 0 0 1
22.656833 -24.778949 -29.024100 44.381604 -0.830105 2.283613 0.008327 -0.006841 -5249.120000 0 0 1
21.444133 -25.070349 -28.373010 43.513227 -0.863200 2.281088 0.002470 -0.002300 -875302.000000 0 0 1
20.635033 -23.829549 -28.062390 42.203669 -0.857119 2.298193 0.000268 0.011501 -307140.000000 0 0 1
20.265233 -23.031749 -29.147760 42.317053 -0.849208 2.330621 0.012270 0.003929 38491.000000 0 0 1
19.750233 -21.818349 -28.625740 41.055390 -0.835109 2.342346 0.008615 0.016066 -747922.000000 0 0 1
18.673833 -21.148949 -29.494200 40.815412 -0.847472 2.378387 0.018424 0.005779 168777.000000 0 0 1
17.483533 -21.919049 -29.521200 40.713878 -0.897495 2.381960 0.006975 0.006645 385928.000000 0 0 1
16.368433 -21.216849 -30.059800 40.269987 -0.913687 2.413518 -0.002249 0.000291 320496.000000 0 0 1
15.117533 -22.122849 -30.098820 40.297633 -0.971336 2.414203 0.004370 -0.001127 -258666.000000 0 0 1
15.205733 -23.115349 -31.051850 41.590276 -0.988944 2.413753 0.007264 0.003286 734152.000000 0 0 1
14.260433 -24.181849 -30.756850 41.642593 -1.037973 2.401774 0.023528 0.005071 345364.000000 0 0 1
14.734033 -25.563049 -31.342630 43.045576 -1.047925 2.386381 0.036917 0.005149 106663.000000 0 0 1
13.928133 -26.635549 -30.901590 43.108625 -1.088985 2.370043 0.051850 -0.003408 46112.000000 0 0 1
14.411233 -27.909149 -31.335150 44.367734 -1.094145 2.354997 0.053241 -0.006997 129718.000000 0 0 1
13.855933 -29.099049 -30.506140 44.377540 -1.126398 2.328731 0.056864 -0.009721 8498.010000 0 0 1
14.109633 -29.336349 -29.136100 43.687703 -1.122496 2.300861 0.084276 -0.018443 -202488.000000 0 0 1
13.511533 -28.455149 -28.210000 42.285471 -1.127482 2.301149 0.075618 -0.010914 67962.000000 0 0 1
14.357033 -28.369149 -26.904860 41.650984 -1.102297 2.273076 0.055798 -0.005442 275405.000000 0 0 1
14.176233 -29.470249 -26.067110 41.820514 -1.122435 2.243764 0.053937 -0.007143 135239.000000 0 0 1
14.956233 -29.255149 -24.886620 41.217672 -1.098202 2.219037 0.051238 -0.007730 -574745.000000 0 0 1
14.439833 -28.270749 -23.787320 39.668383 -1.098570 2.213865 0.024156 -0.002734 1050870.000000 0 0 1
13.243333 -28.620649 -23.062820 39.069439 -1.137415 2.202231 0.021244 -0.000711 1018280.000000 0 0 1
12.032033 -28.733749 -23.801820 39.203632 -1.174238 2.223244 0.022032 0.006685 1015710.000000 0 0 1
10.714333 -28.246449 -23.033820 37.989678 -1.208247 2.222218 -0.000141 0.010326 1227380.000000 0 0 1
10.805233 -26.879549 -22.830620 36.884962 -1.188578 2.238225 -0.008401 0.006880 -255994.000000 0 0 1
9.655533 -26.464149 -22.165120 35.845125 -1.220951 2.237448 0.000072 0.006752 -954543.000000 0 0 1
9.557533 -24.930149 -21.895320 34.529173 -1.204706 2.257654 0.008560 0.004574 -84855.300000 0 0 1
10.192133 -24.532849 -20.696620 33.676257 -1.177044 2.232645 0.000703 -0.000677 75675.200000 0 0 1
10.164333 -23.111549 -20.613420 32.594024 -1.156462 2.255482 -0.002888 -0.002181 -307677.000000 0 0 1
10.596533 -22.501349 -19.288920 31.474746 -1.130675 2.230443 0.006281 -0.001078 -200763.000000 0 0 1
9.824933 -22.876149 -18.145820 30.807763 -1.165134 2.200619 0.011458 -0.011133 145521.000000 0 0 1
10.153933 -22.202449 -16.943220 29.717399 -1.141860 2.177478 0.007615 -0.009480 -456489.000000 0 0 1
9.262133 -22.553949 -15.752720 29.027847 -1.181129 2.144416 -0.000912 -0.004489 -236778.000000 0 0 1
9.557233 -23.778149 -15.068520 29.728797 -1.188624 2.102342 -0.000283 -0.001844 -270279.000000 0 0 1
8.705733 -24.078849 -13.994320 29.179132 -1.223868 2.070995 0.000154 0.000806 -267334.000000 0 0 1
8.710033 -25.570449 -13.675620 30.277634 -1.242494 2.039437 -0.003163 0.007193 -288177.000000 0 0 1
9.986533 -26.052849 -13.374920 30.941400 -1.204753 2.017801 -0.002504 0.004054 -565323.000000 0 0 1
10.043433 -27.399949 -13.649020 32.216820 -1.219455 2.008280 -0.009212 -0.009579 29626.800000 0 0 1
11.352533 -28.082649 -13.039320 32.977857 -1.186628 1.977296 0.001251 -0.010698 1208440.000000 0 0 1
12.591433 -27.712249 -13.608720 33.342318 -1.144320 1.991225 0.001810 -0.002727 15362.900000 0 0 1
12.714733 -28.140549 -14.954320 34.310153 -1.146422 2.021787 0.003774 -0.008915 -1164790.000000 0 0 1
14.041833 -27.625049 -15.532420 34.663705 -1.100530 2.035423 -0.008387 -0.005590 479014.000000 0 0 1
15.159133 -28.507349 -15.278520 35.719762 -1.082063 2.012780 0.023039 -0.005813 168908.000000 0 0 1
16.321633 -27.911849 -15.802420 35.988658 -1.041661 2.025387 0.034440 -0.012928 -511969.000000 0 0 1
17.567033 -28.719449 -15.510520 37.067285 -1.021835 2.002526 0.030304 -0.020043 -396795.000000 0 0 1
17.731333 -29.889549 -16.325420 38.396675 -1.035371 2.009955 0.028292 -0.013346 -43289.600000 0 0 1
19.065833 -30.361349 -16.314220 39.388720 -1.010068 1.997844 0.036354 -0.017235 329602.000000 0 0 1
19.351833 -31.417749 -17.454720 40.819549 -1.018730 2.012640 0.019697 -0.019024 -269750.000000 0 0 1
18.881533 -32.693449 -17.194820 41.485367 -1.047061 1.998167 0.008937 -0.005900 -372617.000000 0 0 1
19.487233 -33.614649 -17.997020 42.820434 -1.045419 2.004562 -0.001622 -0.004286 -259031.000000 0 0 1
19.300833 34.191245 -17.427020 42.956541 1.056892 1.988529 -0.020575 0.006393 -552743.000000 0 0 1
20.250333 33.796145 -16.492120 42.711186 1.030972 1.967230 -0.000808 -0.003564 -225982.000000 0 0 1
19.968733 32.478645 -16.087220 41.381292 1.019546 1.970077 -0.010191 -0.002958 -389345.000000 0 0 1
20.866933 32.008345 -14.927720 41.021944 0.993071 1.943244 0.001988 -0.006544 -367146.000000 0 0 1
22.176933 31.663245 -15.321020 41.582582 0.959802 1.948135 0.004240 -0.001774 24406.500000 0 0 1
23.045633 31.305245 -14.273920 41.410921 0.936213 1.922705 0.012365 0.003579 50404.400000 0 0 1
22.691033 29.987445 -13.496820 39.953648 0.923031 1.915388 0.010908 0.007098 -968658.000000 0 0 1
22.915333 28.790445 -14.142920 39.421116 0.898539 1.937741 0.014957 0.013594 -37127.300000 0 0 1
22.608333 27.697645 -13.364620 38.169482 0.886222 1.928516 0.001089 0.018290 618160.000000 0 0 1
21.120033 27.216045 -13.217220 36.898019 0.910853 1.937146 -0.012020 0.016272 -90155.400000 0 0 1
20.629633 26.622045 -14.413020 36.634003 0.911544 1.975159 -0.008118 0.012021 1066360.000000 0 0 1
19.186533 26.666145 -14.424720 35.878669 0.947097 1.984542 -0.008890 0.002754 1150640.000000 0 0 1
18.439133 28.098245 -14.565820 36.628897 0.990048 1.979761 -0.004116 0.000540 -342828.000000 0 0 1
18.465933 28.804145 -15.767920 37.673555 1.000713 2.002634 -0.007866 0.000952 -514273.000000 0 0 1
17.492333 28.440345 -16.673120 37.320609 1.019382 2.033930 -0.019174 0.010877 -788191.000000 0 0 1
17.554233 29.260445 -17.998520 38.578121 1.030428 2.056180 -0.025109 0.014032 -309302.000000 0 0 1
17.005833 30.525145 -17.813020 39.220996 1.062512 2.042237 -0.023787 0.013577 -48986.100000 0 0 1
17.299433 31.270345 -18.940120 40.445432 1.065483 2.058149 -0.027318 0.019412 141521.000000 0 0 1
16.244333 32.415745 -19.150220 41.004753 1.106249 2.056719 -0.029815 0.023281 420854.000000 0 0 1
16.312033 33.532645 -18.247920 41.515145 1.118045 2.025892 -0.021332 0.000693 -264713.000000 0 0 1
15.445533 34.572545 -18.646920 42.208210 1.150642 2.028383 -0.018255 0.010893 -10766.800000 0 0 1
15.425433 -33.448449 -17.690420 40.861885 -1.138692 2.018539 -0.013524 0.013161 -276648.000000 0 0 1
14.441533 -32.568149 -18.149020 39.982860 -1.153424 2.041956 -0.018531 0.017786 -317599.000000 0 0 1
14.164133 -31.576049 -17.190520 38.641732 -1.149131 2.031825 -0.010196 0.014674 145193.000000 0 0 1
13.058333 -30.598149 -17.672520 37.670741 -1.167429 2.059103 -0.009765 0.009175 497391.000000 0 0 1
11.765733 -31.177049 -17.813120 37.785554 -1.209937 2.061704 -0.023105 0.018501 586844.000000 0 0 1
10.755633 -30.144549 -17.887220 36.665107 -1.228075 2.080426 -0.042221 0.023982 -240160.000000 0 0 1
9.382733 -30.670649 -18.197620 36.876520 -1.273918 2.086876 -0.009843 0.012945 -1839730.000000 0 0 1
8.757233 -31.305449 -17.091720 36.726654 -1.298033 2.054856 -0.001956 0.011378 -179119.000000 0 0 1
7.917433 -32.341849 -17.489520 37.610693 -1.330713 2.054447 0.022038 0.010451 1146750.000000 0 0 1
6.533833 -31.982949 -18.208220 37.378326 -1.369278 2.079600 0.015815 0.015739 427957.000000 0 0 1
6.682833 -31.471149 -19.526320 37.634700 -1.361556 2.116288 0.001230 0.022002 -150876.000000 0 0 1
6.313433 -32.408749 -20.531420 38.880916 -1.378400 2.127110 0.011823 0.014326 -951984.000000 0 0 1
6.550133 -31.870549 -21.982820 39.266786 -1.368096 2.164980 -0.001856 0.023826 -508033.000000 0 0 1
7.807833 -31.402349 -22.423920 39.368794 -1.327099 2.176799 0.004229 0.016599 -121500.000000 0 0 1
8.849433 -32.351349 -22.420720 40.343660 -1.303787 2.160053 0.007908 0.012960 -552927.000000 0 0 1
8.722733 -33.536449 -23.464120 41.849067 -1.316337 2.166008 0.017196 0.012388 -302073.000000 0 0 1
7.710133 -34.484749 -23.100820 42.217199 -1.350833 2.149799 0.019440 0.001108 98454.100000 0 0 1
7.509733 33.826045 -24.181420 42.253266 1.352329 2.180101 0.026272 -0.010199 19787.500000 0 0 1
6.339333 32.779545 -24.005920 41.121404 1.379762 2.194175 0.030619 -0.015547 389968.000000 0 0 1
5.053933 33.316245 -23.945720 41.338988 1.420248 2.188608 0.029212 -0.009546 -445504.000000 0 0 1
4.729733 33.941645 -22.704520 41.108404 1.432339 2.155927 0.024351 -0.010124 -1020430.000000 0 0 1
3.447633 -34.397949 -22.840720 41.434328 -1.470902 2.154659 0.017854 -0.004501 -670634.000000 0 0 1
2.369233 33.933445 -22.855820 40.981465 1.501089 2.162422 0.013998 -0.014421 -772413.000000 0 0 1
1.205033 -34.531249 -23.174420 41.604242 -1.535914 2.161590 0.004852 -0.005963 -331496.000000 0 0 1
-0.124067 34.052445 -22.741820 40.948440 -1.567153 2.159613 0.000712 -0.014551 -296549.000000 0 0 1
-0.286667 34.035145 -21.336220 40.170979 -1.562374 2.130736 -0.001571 -0.012156 145246.000000 0 0 1
-1.505967 33.419345 -20.948220 39.470856 -1.525764 2.130254 0.006425 -0.007672 438707.000000 0 0 1
-1.870267 33.410945 -19.442120 38.701229 -1.514877 2.097127 0.019186 -0.006125 188135.000000 0 0 1
-0.925467 32.587645 -18.775920 37.621088 -1.542405 2.093333 0.022586 -0.022519 163024.000000 0 0 1
-1.334167 32.380145 -17.446620 36.805412 -1.529616 2.064651 0.013066 -0.018515 -340427.000000 0 0 1
-0.412267 31.471045 -16.659120 35.610713 -1.557697 2.057610 -0.008504 -0.020766 -349496.000000 0 0 1
0.598233 32.168345 -15.990420 35.928454 1.552202 2.032041 0.016199 -0.013820 -641653.000000 0 0 1
1.273833 31.346345 -15.097320 34.815874 1.530181 2.019317 0.030213 -0.008952 -96924.600000 0 0 1
2.211033 32.133345 -14.172620 35.189539 1.502097 1.985317 0.032737 -0.009202 -77171.200000 0 0 1
3.337633 32.702145 -14.789820 36.045927 1.469087 1.993585 0.035252 -0.011420 -487012.000000 0 0 1
4.101233 33.545645 -14.001920 36.581200 1.449142 1.963581 0.032414 -0.011189 -909238.000000 0 0 1
5.425033 33.820645 -14.698920 37.273654 1.411745 1.976158 0.041234 -0.025176 -866715.000000 0 0 1
6.205133 32.704045 -14.628220 36.359910 1.383289 1.984843 0.032778 -0.009682 -389818.000000 0 0 1
7.488233 32.768045 -15.245620 36.908635 1.346132 1.996612 0.022293 0.006112 846109.000000 0 0 1
8.314733 31.453445 -15.158320 35.891902 1.312358 2.006813 0.014135 0.003051 -52908.500000 0 0 1
8.806433 31.216445 -13.880020 35.279947 1.295833 1.975151 0.002987 0.004969 -260929.000000 0 0 1
9.804733 30.206845 -13.923120 34.676210 1.256939 1.983970 -0.000437 0.013149 246035.000000 0 0 1
9.262433 28.774145 -13.986420 33.307117 1.259370 2.004157 0.017179 0.007122 -267201.000000 0 0 1
8.627033 28.340945 -15.172120 33.284051 1.275306 2.044109 0.024529 -0.001621 -9030.620000 0 0 1
7.930733 27.144145 -14.926520 31.976587 1.286537 2.056460 0.023727 0.003245 -310421.000000 0 0 1
7.296333 26.452745 -16.153120 31.841914 1.301663 2.102835 0.028178 0.008340 417729.000000 0 0 1
8.204633 25.654745 -16.921820 31.809274 1.261266 2.131731 0.028076 0.012984 -166834.000000 0 0 1
7.532833 24.961545 -17.931020 31.644016 1.277710 2.173228 0.019803 0.015514 -101294.000000 0 0 1
8.301233 23.783045 -18.547220 31.281673 1.234977 2.205464 0.014209 0.027359 11851.300000 0 0 1
7.568033 23.072545 -19.554020 31.176548 1.253844 2.248753 0.021766 0.014333 -547524.000000 0 0 1
8.317033 22.034545 -20.032120 30.918927 1.209876 2.275610 0.014719 0.014107 -933623.000000 0 0 1
7.729733 21.198045 -21.148620 30.925232 1.221136 2.323840 0.009305 0.001173 -130479.000000 0 0 1
6.911933 20.184645 -20.577820 29.641886 1.240877 2.338124 0.004173 0.001974 373583.000000 0 0 1
6.113133 19.409845 -21.470620 29.582089 1.265681 2.382990 0.008304 -0.001787 261599.000000 0 0 1
24.696833 -13.255655 -9.761020 29.680355 -0.492602 1.905905 0.045376 0.002743 -245162.000000 0 0 1
24.979933 -12.266155 -8.783620 29.182316 -0.456454 1.876528 0.052506 -0.008298 769842.000000 0 0 1
23.989133 -12.368955 -7.759520 28.083442 -0.476055 1.850741 0.036817 -0.003416 -222398.000000 0 0 1
24.632233 -11.994755 -6.426320 28.141049 -0.453156 1.801190 0.018239 -0.005142 -282680.000000 0 0 1
24.810133 -10.590755 -6.244320 27.689318 -0.403455 1.798267 0.009100 -0.000426 277175.000000 0 0 1
25.870333 -10.045755 -6.996420 28.620643 -0.370390 1.817752 0.015431 -0.006293 -1034320.000000 0 0 1
25.991333 -8.494055 -6.661420 28.143789 -0.315862 1.809756 0.024039 -0.002168 -118026.000000 0 0 1
26.549233 -8.107055 -5.410320 28.281755 -0.296366 1.763283 0.025008 -0.010138 533706.000000 0 0 1
27.945833 -8.332555 -5.281620 29.636069 -0.289775 1.749969 0.034541 -0.010439 182412.000000 0 0 1
28.418633 -8.129555 -3.782720 29.799620 -0.278623 1.698078 0.043843 -0.012429 -144171.000000 0 0 1
28.405633 -6.820955 -3.263620 29.394840 -0.235665 1.682053 0.042398 -0.004416 131170.000000 0 0 1
28.953933 -6.847555 -1.963220 29.817335 -0.232231 1.636686 0.061388 -0.005366 -114768.000000 0 0 1
29.333433 -5.430755 -1.452020 29.867236 -0.183066 1.619431 0.055140 -0.012195 400327.000000 0 0 1
28.179633 -4.615955 -1.188620 28.579916 -0.162363 1.612398 0.051013 -0.003383 378102.000000 0 0 1
28.395333 -3.266755 -0.774920 28.593131 -0.114542 1.597901 0.056627 -0.001110 -79289.300000 0 0 1
29.160833 -3.025555 0.588280 29.323271 -0.103384 1.550733 0.056529 -0.009379 43216.900000 0 0 1
28.511733 -3.457055 1.749880 28.773812 -0.120661 1.509944 0.056234 -0.010755 268601.000000 0 0 1
29.332233 -3.064755 2.826780 29.627071 -0.104106 1.475239 0.046878 -0.005122 -161917.000000 0 0 1
29.007933 -3.708555 4.153280 29.537490 -0.127156 1.429718 0.049394 -0.011225 -225677.000000 0 0 1
29.250533 -5.123555 4.074480 29.974087 -0.173402 1.434441 0.047054 -0.020228 242407.000000 0 0 1
28.946333 -5.811055 5.259480 29.988676 -0.198119 1.394502 0.049752 -0.023539 70188.600000 0 0 1
29.669233 -7.195255 5.363480 30.996806 -0.237922 1.396888 0.033953 -0.017903 230863.000000 0 0 1
31.050233 -7.130755 5.648280 32.355335 -0.225738 1.395327 0.024562 -0.011609 45320.500000 0 0 1
31.683133 -8.403355 5.605680 33.254488 -0.259262 1.401418 0.017975 -0.006466 -602958.000000 0 0 1
33.197433 -8.346155 5.602580 34.685974 -0.246305 1.408563 0.016906 -0.006418 -806868.000000 0 0 1
33.708533 -7.945155 4.342780 34.903444 -0.231477 1.446050 0.023752 -0.007007 173266.000000 0 0 1
35.096533 -7.699855 4.583180 36.222368 -0.215969 1.443927 0.025737 -0.002466 317000.000000 0 0 1
-34.454536 -7.501455 3.265280 35.412553 0.214375 1.478458 0.033479 -0.003432 -477164.000000 0 0 1
-34.191636 -8.690155 2.552980 35.370955 0.248890 1.498556 0.052007 -0.013988 385598.000000 0 0 1
-33.341536 -8.407755 1.436980 34.415306 0.247021 1.529030 0.073196 -0.021615 71403.100000 0 0 1
-33.041736 -9.756655 0.712480 34.459487 0.287123 1.550119 0.070421 -0.018347 -165179.000000 0 0 1
-32.369836 -10.618655 1.608580 34.104980 0.316981 1.523613 0.064593 -0.017550 181193.000000 0 0 1
-32.408136 -11.955255 1.072780 34.559604 0.353409 1.539750 0.058614 -0.023887 -634957.000000 0 0 1
-31.912236 -13.005555 2.066580 34.522544 0.386991 1.510899 0.039032 -0.031622 781641.000000 0 0 1
-30.522236 -13.026155 2.402180 33.272482 0.403374 1.498536 0.030724 -0.019170 787818.000000 0 0 1
-29.679736 -13.623355 1.403180 32.687175 0.430323 1.527856 0.031115 -0.006974 -730240.000000 0 0 1
-28.430136 -14.148555 2.113580 31.826427 0.461774 1.504338 0.019746 -0.000032 39399.200000 0 0 1
-27.575636 -13.025355 2.467980 30.596838 0.441284 1.490047 0.013483 0.006665 875263.000000 0 0 1
-26.326336 -13.402955 3.038680 29.697622 0.470908 1.468296 0.014811 0.010384 369056.000000 0 0 1
-25.563436 -12.257955 3.710280 28.592182 0.447123 1.440664 -0.002983 0.020651 -319716.000000 0 0 1
-24.375736 -12.710555 4.293480 27.823887 0.480654 1.415868 -0.009745 0.028209 -200942.000000 0 0 1
-23.698236 -11.728455 5.027280 26.915360 0.459566 1.382912 -0.009576 0.032537 116770.000000 0 0 1
-22.476936 -12.256555 5.814180 26.253390 0.499224 1.347481 -0.005135 0.039705 24176.600000 0 0 1
-22.825036 -13.099255 6.907980 27.208325 0.521006 1.314094 0.014035 0.024062 506519.000000 0 0 1
-21.684936 -13.452855 7.705280 26.656840 0.555269 1.277557 0.018288 0.029721 460084.000000 0 0 1
-21.641136 -12.788355 9.092180 26.731041 0.533722 1.223735 0.039091 0.029538 -367425.000000 0 0 1
-21.216836 -11.415755 9.043880 25.734517 0.493624 1.211698 0.035798 0.021206 719452.000000 0 0 1
-22.268136 -10.442655 9.154680 26.243611 0.438501 1.214469 0.029900 0.014719 -260685.000000 0 0 1
-22.732836 -10.172555 10.604380 27.068720 0.420759 1.168255 0.035644 0.007148 -335693.000000 0 0 1
-23.381036 -11.300255 11.106280 28.243903 0.450206 1.166657 0.038917 -0.000454 1422010.000000 0 0 1
-24.831236 -11.323755 10.943680 29.403773 0.427856 1.189433 0.048314 0.003861 1620210.000000 0 0 1
-25.706636 -10.986655 12.192480 30.499087 0.403890 1.159535 0.046040 -0.007252 -180680.000000 0 0 1
-25.563436 -11.917955 13.233280 31.155202 0.436253 1.132107 0.057272 -0.008368 28196.500000 0 0 1
-26.666636 -11.917855 14.097180 32.432626 0.420290 1.121135 0.040086 -0.010924 -149516.000000 0 0 1
-26.354036 -12.845355 15.308280 33.073884 0.453529 1.089588 0.033966 -0.012278 125033.000000 0 0 1
-26.568136 -14.232655 15.125780 33.722745 0.491801 1.105672 0.038670 -0.003600 270214.000000 0 0 1
-25.956036 -14.857755 16.228780 34.027077 0.519893 1.073630 0.019957 -0.000668 -215697.000000 0 0 1
-25.751336 -16.365755 16.051880 34.476544 0.566136 1.086497 0.012770 0.006400 96191.100000 0 0 1
-26.990636 -17.070655 16.135080 35.780477 0.563950 1.102971 0.005096 0.015101 637953.000000 0 0 1
-26.692036 -18.452755 16.148180 36.245450 0.604877 1.109038 -0.007004 0.018617 171945.000000 0 0 1
-27.864936 -19.266055 16.747080 37.790213 0.604937 1.111677 -0.026959 0.032534 47503.100000 0 0 1
-27.928136 -19.053155 18.123480 38.359667 0.598694 1.078714 -0.005849 0.027244 -189958.000000 0 0 1
-28.459136 -20.065755 18.929780 39.634499 0.614122 1.072865 -0.005506 0.025623 -261966.000000 0 0 1
-27.661536 -21.432655 19.022480 39.829311 0.659196 1.072875 -0.014899 0.028630 -47667.900000 0 0 1
-26.476036 -21.200855 19.749280 39.249087 0.675202 1.043524 -0.003209 0.026103 -240634.000000 0 0 1
-25.937936 -22.368755 20.274880 39.802117 0.711646 1.036318 -0.006845 0.025727 227229.000000 0 0 1
-24.529436 -22.166155 20.921080 39.124459 0.734831 1.006606 0.002520 0.034188 760422.000000 0 0 1
-23.482236 -22.048155 19.965680 37.896767 0.753911 1.015913 0.000416 0.026891 41567.900000 0 0 1
-22.207636 -21.976755 20.541780 37.391464 0.780173 0.989185 0.008426 0.026572 -315156.000000 0 0 1
-21.088336 -21.672655 19.548880 36.008063 0.799062 0.996906 0.006822 0.026514 -365544.000000 0 0 1
-20.860036 -22.569555 18.460280 35.851191 0.824741 1.029889 -0.000050 0.020111 -325531.000000 0 0 1
-19.694436 -22.301855 17.761680 34.651419 0.847405 1.032608 -0.004305 0.019434 -506752.000000 0 0 1
-19.468336 -23.227555 16.497580 34.506602 0.873218 1.072307 -0.006430 0.025066 -620157.000000 0 0 1
-19.354036 -24.651055 16.802280 35.560791 0.905195 1.078677 0.004736 0.015167 1120090.000000 0 0 1
-18.148436 -25.271685 17.360280 35.628684 0.948004 1.061852 0.004932 0.011069 432534.000000 0 0 1
-16.909636 -25.179135 16.507780 34.531601 0.979404 1.072365 -0.004909 0.010896 -689355.000000 0 0 1
-16.209336 -23.929955 16.525280 33.293696 0.975423 1.051409 0.001232 0.012719 300054.000000 0 0 1
-15.009336 -24.039155 15.748580 32.421890 1.012650 1.063588 0.006618 0.004485 485799.000000 0 0 1
-14.268236 -22.672155 15.816680 31.109107 1.009090 1.037440 0.014246 0.006843 -229429.000000 0 0 1
-14.881036 -21.711655 14.975180 30.283613 0.969941 1.053539 0.007733 0.007666 112288.000000 0 0 1
-16.008936 -21.021555 15.471980 30.619830 0.919945 1.041075 0.010609 0.009341 -57296.300000 0 0 1
-15.672236 -19.878255 16.500380 30.216329 0.903162 0.993125 0.013486 0.001653 -609398.000000 0 0 1
-15.101036 -18.730555 15.962380 28.873388 0.892271 0.985027 0.003959 -0.000019 -149667.000000 0 0 1
-14.834136 -17.722255 16.929080 28.648275 0.873878 0.938587 -0.009520 -0.003476 -1107940.000000 0 0 1
-13.993936 -16.601955 16.345580 27.177806 0.870433 0.925505 -0.006533 -0.003556 -314376.000000 0 0 1
-14.577936 -15.783655 15.314980 26.385386 0.825089 0.951535 -0.016219 0.005608 41119.000000 0 0 1
-14.476636 -16.419455 14.026680 25.998447 0.848198 1.000929 -0.014287 0.000158 -88951.100000 0 0 1
-15.328736 -15.619855 12.985980 25.447705 0.794804 1.035262 -0.002599 0.003966 -388541.000000 0 0 1
-16.681136 -15.969155 13.128080 26.563522 0.763595 1.053865 -0.015086 0.003861 -474447.000000 0 0 1
-17.450936 -14.918455 12.600180 26.188929 0.707320 1.068857 -0.007758 0.004752 -758729.000000 0 0 1
-18.968036 -15.035455 12.770780 27.366844 0.670257 1.085295 0.014831 0.001110 18546.700000 0 0 1
-19.698236 -16.018555 12.005380 28.084582 0.682737 1.129101 0.028634 -0.001981 331326.000000 0 0 1
-19.767736 -15.797555 10.624680 27.444671 0.674228 1.173279 0.031814 0.007104 -925426.000000 0 0 1
-20.570636 -16.798355 9.839680 28.322343 0.684792 1.215981 0.023445 0.007228 -194026.000000 0 0 1
-20.044336 -18.111555 9.816880 28.743259 0.734787 1.222245 0.028039 0.014300 309826.000000 0 0 1
-21.028136 -19.011955 9.316280 29.840074 0.735087 1.253281 0.025979 0.009536 182360.000000 0 0 1
-20.546836 -20.429355 9.377680 30.454423 0.782531 1.257785 0.029021 0.014780 -424732.000000 0 0 1
-19.528436 -20.700655 8.478980 29.694613 0.814529 1.281227 0.031153 0.011271 -575894.000000 0 0 1
-19.099636 -22.060955 8.385080 30.361018 0.857220 1.290980 0.015749 0.008074 -266034.000000 0 0 1
-17.874136 -22.361255 7.539480 29.603281 0.896461 1.313275 0.014370 0.001070 165695.000000 0 0 1
-16.663636 -21.956055 8.164680 28.747298 0.921589 1.282817 0.012872 0.004804 -588625.000000 0 0 1
-15.475836 -22.320055 7.559180 28.192686 0.964541 1.299349 0.020085 0.009129 -1046590.000000 0 0 1
-14.318536 -21.834555 8.404180 27.429884 0.990373 1.259400 -0.012318 0.008550 -1332280.000000 0 0 1
-13.100936 -22.124455 7.829580 26.878027 1.036171 1.275210 -0.000018 0.010330 -401354.000000 0 0 1
-11.959936 -21.854355 8.663580 26.376325 1.070062 1.236123 -0.001327 0.007413 1527650.000000 0 0 1
-10.661436 -22.476555 8.003080 26.132567 1.127890 1.259546 0.000186 0.009804 595380.000000 0 0 1
-10.562136 -23.868355 8.098980 27.328567 1.154183 1.269922 0.002805 0.013383 240908.000000 0 0 1
-9.457036 -24.314855 7.302380 27.091926 1.199860 1.297880 0.012892 0.012007 417615.000000 0 0 1
-9.325536 -25.842505 7.135880 28.385233 1.224479 1.316676 0.009804 0.007077 -286493.000000 0 0 1
-10.227136 -26.462615 6.245780 29.049511 1.202004 1.354100 0.015264 0.007153 -221452.000000 0 0 1
-10.227436 -27.871865 6.382380 30.367352 1.219106 1.359045 0.020365 0.012157 -158871.000000 0 0 1
-9.136036 -28.673255 5.641480 30.617789 1.262341 1.385483 0.026064 0.009355 452681.000000 0 0 1
-7.827036 -28.246295 6.076880 29.933996 1.300479 1.366366 0.023249 0.003219 999165.000000 0 0 1
-6.693336 -29.011845 5.634280 30.302360 1.344053 1.383773 0.016632 0.009196 1022910.000000 0 0 1
-6.664736 -30.465725 6.240680 31.804484 1.355427 1.373295 0.015112 0.003244 -540640.000000 0 0 1
-6.415436 -30.471275 7.659880 32.067588 1.363287 1.329598 0.012139 0.010603 42524.500000 0 0 1
-6.478436 -31.764645 8.128280 33.422025 1.369604 1.325131 0.029360 0.009444 -70094.500000 0 0 1
-6.709336 -31.959095 9.642080 34.049503 1.363866 1.283690 0.022589 0.008003 161088.000000 0 0 1
-5.666736 -31.357725 10.384680 33.515077 1.392013 1.255760 0.017972 0.013191 272000.000000 0 0 1
-5.897336 -31.615985 11.772780 34.248320 1.386385 1.219891 0.018466 0.005743 -54683.400000 0 0 1
-5.185436 -30.656125 12.777880 33.614892 1.403234 1.180864 0.010689 0.005441 157865.000000 0 0 1
-5.518736 -29.287225 12.634480 32.370173 1.384545 1.169825 0.013382 0.003734 130954.000000 0 0 1
-4.733436 -28.497615 13.516380 31.893761 1.406200 1.133166 0.001947 -0.000393 -200157.000000 0 0 1
-5.473736 -28.026555 14.795280 32.161310 1.377919 1.092763 0.002320 -0.004073 -2904.830000 0 0 1
-5.795436 -28.960145 15.793180 33.491814 1.373288 1.079745 0.014477 -0.005076 623037.000000 0 0 1
-4.672436 -29.493755 16.516280 34.124782 1.413681 1.065580 0.014254 -0.004003 505932.000000 0 0 1
-5.059436 -30.880145 17.008580 35.615629 1.408398 1.072921 0.014630 -0.007957 -13248.600000 0 0 1
-5.137436 -31.859235 15.927680 35.987430 1.410918 1.112311 0.008219 0.001460 4743.610000 0 0 1
-5.504936 -33.108585 16.427380 37.367654 1.406034 1.115626 0.001106 -0.001164 10502.900000 0 0 1
-5.025436 -34.366933 15.655580 38.097746 1.425597 1.147320 -0.009909 -0.001124 149947.000000 0 0 1
-5.811236 -34.469910 14.447780 37.824377 1.403778 1.178869 0.009498 -0.007313 507981.000000 0 0 1
-5.561336 33.512055 13.779380 36.658663 -1.406345 1.185447 0.001126 -0.003161 -713519.000000 0 0 1
-4.359436 33.597967 12.871880 36.242425 -1.441764 1.207710 0.017197 -0.005044 -713200.000000 0 0 1
-4.550436 34.388189 11.719180 36.614112 -1.439235 1.244990 0.018210 -0.005191 -302130.000000 0 0 1
-3.384436 34.455310 10.967780 36.316869 -1.472884 1.264004 0.024583 -0.003176 -1229960.000000 0 0 1
-3.673436 -34.537770 9.466480 35.999527 1.464835 1.304706 0.023706 -0.005673 -483489.000000 0 0 1
-4.056436 33.590311 8.621580 34.915545 -1.450616 1.321289 0.034827 -0.019309 1207430.000000 0 0 1
-5.238436 32.806589 8.907680 34.395643 -1.412457 1.308833 0.046996 -0.019753 2214050.000000 0 0 1
-6.664936 33.444480 9.217580 35.325888 -1.374090 1.306811 0.030813 -0.009965 843418.000000 0 0 1
-7.405336 33.814367 8.084780 35.547350 -1.355200 1.341351 0.029194 -0.003737 -544762.000000 0 0 1
-8.731836 34.101011 8.467680 36.205325 -1.320124 1.334730 0.023749 0.001761 -32951.200000 0 0 1
-9.594636 34.291730 7.195280 36.328389 -1.297978 1.371416 0.030864 -0.001409 -429012.000000 0 0 1
-9.316536 -33.715165 6.493880 35.576406 1.301193 1.387234 0.027093 0.004827 146121.000000 0 0 1
-9.859236 -33.707535 5.176380 35.499259 1.286240 1.424458 0.024903 0.008560 -907605.000000 0 0 1
-9.653936 -32.354635 4.473380 34.059243 1.280828 1.439075 0.014731 0.013570 -44501.600000 0 0 1
-10.531336 -31.345955 4.924180 33.432402 1.246674 1.422971 0.020994 0.004334 -342255.000000 0 0 1
-11.896036 -31.582615 4.732080 34.078877 1.210568 1.431489 0.016914 0.010973 -848190.000000 0 0 1
-12.832436 -30.575475 5.457680 33.605317 1.173426 1.407669 0.013543 0.003866 74170.600000 0 0 1
-13.021036 -30.955785 6.826680 34.269689 1.172630 1.370250 0.002386 0.012852 -452130.000000 0 0 1
-13.718236 -30.068155 7.589580 33.909964 1.142767 1.345069 -0.008933 0.011675 -513600.000000 0 0 1
32.947582 -13.420555 -12.573020 37.732417 -0.386810 1.910508 0.014491 -0.014315 -338327.000000 0 0 1
31.791402 -13.364255 -11.772020 36.440047 -0.397945 1.899749 0.024484 -0.013361 -22016.800000 0 0 1
31.558992 -14.641455 -11.213020 36.552346 -0.434385 1.882590 0.036892 -0.017361 148176.000000 0 0 1
32.465122 -15.188755 -10.018220 37.216222 -0.437597 1.843348 0.019155 -0.020561 1169540.000000 0 0 1
33.737592 -15.602955 -10.542320 38.637001 -0.433184 1.847156 0.027078 -0.017011 696074.000000 0 0 1
34.725136 -16.016955 -9.567220 39.419660 -0.432170 1.815946 0.009447 -0.016146 245904.000000 0 0 1
-34.230171 -16.095255 -10.308120 39.204836 0.439530 1.836854 -0.006969 -0.013034 -433831.000000 0 0 1
-33.737347 -14.777055 -10.662820 38.344043 0.412832 1.852594 -0.009813 -0.008552 1580010.000000 0 0 1
-32.283657 -14.714355 -10.706820 37.059179 0.427653 1.863886 -0.002474 -0.007798 1412390.000000 0 0 1
-31.821477 -13.302355 -11.028920 36.210442 0.395953 1.880292 -0.006687 -0.008749 -393101.000000 0 0 1
-32.108137 -12.378055 -10.061020 35.852096 0.367954 1.855242 0.012275 -0.016355 166464.000000 0 0 1
-31.796817 -11.044755 -10.448720 35.244857 0.334316 1.871781 0.004286 -0.009259 -219002.000000 0 0 1
-32.336287 -9.956255 -9.483820 35.138374 0.298686 1.844085 0.010220 -0.017353 -375105.000000 0 0 1
-31.651967 -9.867155 -8.253020 34.166066 0.302191 1.814765 0.025031 -0.017207 101374.000000 0 0 1
-32.110697 -8.816055 -7.453020 34.122825 0.267950 1.790989 0.037277 -0.016894 -609288.000000 0 0 1
-31.397697 -8.681955 -6.125220 33.146795 0.269775 1.756655 0.032409 -0.012559 127202.000000 0 0 1
-30.118067 -8.012155 -6.105720 31.758029 0.260003 1.764258 0.043411 -0.020015 1226190.000000 0 0 1
-29.460817 -8.043355 -4.790020 30.912450 0.266523 1.726378 0.048115 -0.016009 -277982.000000 0 0 1
-28.869977 -9.330455 -4.191620 30.628461 0.312593 1.708081 0.041418 -0.013192 -587551.000000 0 0 1
-29.809467 -10.363355 -3.958020 31.806750 0.334583 1.695559 0.053168 -0.017615 276239.000000 0 0 1
-30.066847 -10.546955 -2.571120 31.966611 0.337373 1.651315 0.031558 -0.015885 -85551.900000 0 0 1
-30.468877 -12.002855 -2.282920 32.827317 0.375270 1.640396 0.035287 -0.017397 1458410.000000 0 0 1
-31.792387 -12.369055 -2.814620 34.229687 0.371037 1.653117 0.050271 -0.031077 1712360.000000 0 0 1
-32.110617 -13.713855 -2.481620 35.004571 0.403632 1.641750 0.053297 -0.037051 -512110.000000 0 0 1
-33.631267 -13.928955 -2.497620 36.487203 0.392659 1.639302 0.026953 -0.033381 -33704.100000 0 0 1
-34.252053 -13.159155 -1.451920 36.721582 0.366800 1.610345 0.042919 -0.031891 559722.000000 0 0 1
34.619761 -13.170255 -1.498920 37.070611 -0.363519 1.611242 0.072203 -0.040147 212810.000000 0 0 1
33.864042 -12.218455 -0.558220 36.005216 -0.346272 1.586301 0.070580 -0.035374 -77418.700000 0 0 1
34.200322 -12.465455 0.817880 36.410418 -0.349519 1.548332 0.074900 -0.027864 209076.000000 0 0 1
33.939492 -11.355255 1.648280 35.826635 -0.322866 1.524773 0.065550 -0.025377 -234478.000000 0 0 1
34.241925 -11.450455 3.186980 36.246092 -0.322709 1.482756 0.052778 -0.024378 -306711.000000 0 0 1
33.355902 -12.207455 3.944780 35.737927 -0.350836 1.460190 0.049270 -0.025211 -312529.000000 0 0 1
33.921442 -12.701355 5.151180 36.585835 -0.358275 1.429530 0.041696 -0.019569 -412301.000000 0 0 1
32.848142 -13.100455 6.181780 35.900373 -0.379488 1.397741 0.025209 -0.001622 199955.000000 0 0 1
32.132242 -11.923555 6.630380 34.908654 -0.355327 1.379700 0.020632 -0.000877 186136.000000 0 0 1
32.104992 -11.825955 8.088680 35.156941 -0.352930 1.338643 -0.017372 0.014795 -399576.000000 0 0 1
31.674692 -10.460455 8.587080 34.444814 -0.318970 1.318839 -0.024189 0.005992 349218.000000 0 0 1
30.321962 -10.013555 8.435880 33.028121 -0.318965 1.312519 0.000093 0.003568 658999.000000 0 0 1
29.976332 -9.046055 9.369680 32.683367 -0.293083 1.280036 0.001891 0.007386 -22769.100000 0 0 1
28.428512 -8.993255 9.490280 31.290963 -0.306385 1.262651 0.026027 -0.000557 385374.000000 0 0 1
27.707852 -8.375755 8.418680 30.145522 -0.293555 1.287765 0.038661 -0.006570 97504.000000 0 0 1
27.062672 -9.410155 7.732980 29.677234 -0.334640 1.307184 0.052742 -0.015582 -764174.000000 0 0 1
25.993022 -8.976055 6.736580 28.312334 -0.332504 1.330554 0.052033 -0.018018 -957269.000000 0 0 1
24.879102 -8.382055 7.311980 27.252406 -0.324967 1.299162 0.049278 -0.011281 12370.800000 0 0 1
23.835602 -8.093455 6.370880 25.965902 -0.327338 1.322910 0.043385 -0.008644 274463.000000 0 0 1
23.990802 -6.814455 5.536480 25.546976 -0.276755 1.352345 0.035829 0.000359 -890154.000000 0 0 1
25.024302 -6.856355 4.588080 26.349113 -0.267425 1.395778 0.035940 -0.004257 167173.000000 0 0 1
25.041202 -5.704855 3.846680 25.969292 -0.223996 1.422125 0.033658 -0.009692 -283422.000000 0 0 1
25.804072 -5.816355 2.544880 26.573606 -0.221699 1.474882 0.041848 -0.013130 -148300.000000 0 0 1
24.986802 -6.126855 1.433980 25.766935 -0.240459 1.515116 0.026405 -0.006913 -234707.000000 0 0 1
25.643212 -5.952355 0.232380 26.326011 -0.228083 1.561969 0.023595 -0.003482 -699987.000000 0 0 1
24.797202 -6.167055 -1.019920 25.572916 -0.243754 1.610690 0.021929 -0.008177 -170602.000000 0 0 1
23.866302 -5.155055 -1.353920 24.454203 -0.212729 1.626190 0.019670 0.001481 24231.100000 0 1 0
23.474802 -5.325655 -2.701420 24.222440 -0.223091 1.682554 0.022182 0.003359 -367014.000000 0 1 0
22.307102 -4.423855 -3.080620 22.949238 -0.195776 1.705439 0.004692 0.008478 -447173.000000 0 1 0
22.614002 -3.096555 -2.969020 23.017316 -0.136085 1.700147 -0.007235 0.010244 124303.000000 0 1 0
23.190802 -2.426055 -4.104020 23.675769 -0.104234 1.745019 0.000254 0.007877 -570063.000000 0 1 0
22.330602 -1.504455 -4.905720 22.912557 -0.067270 1.786573 0.001756 0.013573 -551038.000000 0 1 0
21.935502 -0.343455 -4.233720 22.342976 -0.015656 1.761437 -0.009253 0.017765 288226.000000 0 1 0
21.031602 0.425645 -4.996520 21.621163 0.020236 1.803998 0.000798 0.022451 -342500.000000 0 1 0
20.720502 1.788245 -4.329820 21.243455 0.086090 1.776054 0.000186 0.022091 -528750.000000 0 1 0
21.679802 2.838945 -4.369320 22.297183 0.130208 1.768031 -0.001846 0.015413 415702.000000 0 1 0
22.505902 2.804545 -3.219920 22.907400 0.123975 1.711826 0.017806 0.010982 15358.000000 0 1 0
23.742502 3.732645 -3.275020 24.256232 0.155937 1.706228 0.009670 0.008381 -232103.000000 0 1 0
23.384502 5.066045 -3.275720 24.150157 0.213344 1.706855 0.009643 0.006723 143824.000000 0 1 0
24.462802 5.814845 -2.831420 25.303321 0.233371 1.682930 0.008668 0.001443 -486698.000000 0 0 1
24.050102 7.276845 -3.034520 25.309449 0.293813 1.690982 0.009667 -0.006183 102333.000000 0 0 1
22.865702 7.550845 -2.311320 24.190862 0.318951 1.666487 0.024595 -0.008676 243306.000000 0 1 0
22.364302 8.811245 -2.635920 24.181566 0.375312 1.680019 0.013369 0.006704 -761618.000000 0 1 0
21.282402 9.287245 -1.697020 23.282471 0.411471 1.643749 0.010839 0.009224 -530155.000000 0 1 0
21.875602 9.641545 -0.466420 23.910644 0.415130 1.590304 0.011378 0.006906 1052080.000000 0 1 0
20.871902 10.105545 0.439280 23.193777 0.450903 1.551856 0.011810 0.004123 187001.000000 0 1 0
21.367202 10.154645 1.911980 23.734570 0.443648 1.490152 0.033307 -0.003100 1118210.000000 0 1 0
22.416502 11.195545 2.174980 25.150951 0.463194 1.484211 0.048157 -0.009510 1621920.000000 0 0 1
22.052502 12.557945 2.146280 25.468046 0.517658 1.486423 0.052587 -0.001808 -61251.400000 0 0 1
20.963002 13.181645 3.089880 24.954971 0.561331 1.446660 0.039650 0.005097 8898.630000 0 1 0
19.633102 12.856545 2.733580 23.626720 0.579770 1.454838 0.093951 -0.001409 874389.000000 0 1 0
18.624202 13.708045 3.305580 23.360185 0.634503 1.428815 0.069237 -0.002347 318879.000000 0 1 0
18.433802 13.684045 4.855080 23.465506 0.638577 1.362388 0.037844 0.002694 -724294.000000 0 1 0
18.053902 12.437345 5.286280 22.551623 0.603238 1.334187 0.034440 0.007773 190512.000000 0 1 0
18.241302 12.362045 6.674680 23.024261 0.595599 1.276676 0.033648 -0.003064 -5370.170000 0 1 0
18.159002 10.963845 7.259580 22.420008 0.543186 1.241054 0.011893 -0.009589 438837.000000 0 1 0
19.221302 10.158745 6.710680 22.752841 0.486198 1.271406 0.006012 -0.014353 966864.000000 0 1 0
19.302802 8.901045 7.405380 22.509252 0.432069 1.235560 0.012555 -0.010879 -153192.000000 0 1 0
20.271502 7.940845 6.698580 22.778538 0.373352 1.272310 0.022220 -0.009003 -177129.000000 0 1 0
19.873102 7.671745 5.383380 21.972179 0.368411 1.323267 0.012260 -0.010439 740144.000000 0 1 0
20.738802 6.721945 4.799780 22.323090 0.313439 1.354090 0.007953 -0.014678 -175526.000000 0 1 0
20.462102 6.718745 3.314580 21.790493 0.317259 1.418092 0.010348 -0.005316 -605643.000000 0 1 0
21.243002 5.786245 2.691080 22.180795 0.265932 1.449172 0.003952 -0.012656 -131766.000000 0 1 0
21.003202 5.703245 1.306180 21.802927 0.265148 1.510852 0.009548 -0.001874 -367288.000000 0 1 0
22.011802 4.781545 0.604480 22.533264 0.213903 1.543967 0.017812 -0.004103 -103549.000000 0 1 0
21.856302 3.415045 0.900480 22.139813 0.154997 1.530113 0.013150 -0.000328 26908.300000 0 1 0
22.979702 2.625845 0.640380 23.138104 0.113775 1.543116 0.018573 0.006623 -359547.000000 0 1 0
22.739802 1.104345 0.616680 22.774953 0.048526 1.543716 0.025655 0.003641 -326351.000000 0 1 0
22.004102 0.575845 -0.468120 22.016613 0.026164 1.592060 0.008256 0.001860 603139.000000 0 1 0
22.216402 -0.816155 -0.723320 22.243152 -0.036720 1.603321 0.009610 0.005571 -1139220.000000 0 1 0
21.950402 -1.906955 0.387480 22.036487 -0.086658 1.553212 0.025290 0.005843 134804.000000 0 1 0
22.872602 -1.935355 1.476880 23.001798 -0.084413 1.506545 0.035166 -0.000463 1088840.000000 0 1 0
24.217402 -2.283355 1.082680 24.348891 -0.094008 1.526316 0.036580 0.000347 -144130.000000 0 1 0
25.136502 -1.832255 2.185080 25.297737 -0.072764 1.484314 0.046584 -0.004238 -839071.000000 0 0 1
25.151202 -0.476455 2.459480 25.275661 -0.018941 1.473336 0.045773 -0.008948 569610.000000 0 0 1
26.136672 -0.073455 3.399980 26.356989 -0.002810 1.441439 0.053873 -0.006323 145910.000000 0 0 1
25.814812 1.351245 3.856580 26.136251 0.052296 1.422699 0.050538 -0.003040 -257388.000000 0 0 1
25.831872 2.233345 2.781580 26.077014 0.086243 1.463925 0.053754 -0.003757 27362.600000 0 0 1
27.109792 2.734945 2.475280 27.359601 0.100544 1.480200 0.054809 -0.013219 -145761.000000 0 0 1
27.212332 3.750645 1.289780 27.499853 0.136966 1.523878 0.053011 -0.019649 -200543.000000 0 0 1
26.879462 3.269345 -0.042820 27.077591 0.121035 1.572378 0.061583 -0.009040 97341.900000 0 0 1
27.216732 4.170245 -1.015420 27.553086 0.152041 1.607658 0.054861 0.001048 122145.000000 0 0 1
28.685652 3.990345 -1.517920 29.001613 0.138219 1.623159 0.047690 0.000512 -54250.500000 0 0 1
29.652912 4.437245 -0.613520 29.989344 0.148537 1.591256 0.056189 -0.008976 -614756.000000 0 0 1
30.902632 3.979645 -1.049920 31.175512 0.128075 1.604480 0.025309 -0.008495 -841153.000000 0 0 1
32.021102 4.209745 -0.061120 32.296697 0.130718 1.572689 0.001376 -0.003652 -661733.000000 0 0 1
32.118242 3.331245 1.018080 32.306581 0.103349 1.539278 0.005962 -0.001396 371276.000000 0 0 1
31.591252 3.912845 2.215580 31.909659 0.123231 1.501308 0.018496 0.007916 54995.400000 0 0 1
31.489642 2.922845 3.433380 31.810827 0.092554 1.462654 0.023011 0.003448 -172125.000000 0 0 1
30.544402 1.872945 3.263580 30.775305 0.061242 1.464551 0.031912 0.001763 348555.000000 0 0 1
30.632532 0.843145 4.186480 30.928782 0.027518 1.435021 0.022240 0.001555 90872.000000 0 0 1
31.842552 -0.132655 4.031980 32.097081 -0.004166 1.444845 0.031974 0.003355 -501873.000000 0 0 1
33.051852 0.499945 4.238280 33.326234 0.015125 1.443275 0.024950 -0.002648 -722767.000000 0 0 1
34.144232 -0.263955 3.734980 34.348920 -0.007730 1.461844 0.020435 -0.005454 80029.300000 0 0 1
-34.820072 0.498345 4.047380 35.058052 -0.014311 1.455090 0.026839 -0.008805 149021.000000 0 0 1
-34.549123 1.715345 3.333480 34.751926 -0.049609 1.474726 0.010817 -0.007790 138770.000000 0 0 1
-34.302072 1.509945 1.979280 34.392290 -0.043991 1.513214 0.013029 -0.009925 -1546300.000000 0 0 1
-33.933787 2.781345 1.234380 34.069950 -0.081781 1.534558 0.005142 -0.011226 236373.000000 0 0 1
-32.732807 3.434145 1.633380 32.952965 -0.104532 1.521209 0.009533 -0.017991 985027.000000 0 0 1
-31.580227 2.673145 1.214880 31.716437 -0.084445 1.532483 0.000267 -0.018159 -815304.000000 0 0 1
-30.264107 3.258845 1.754880 30.489602 -0.107267 1.513208 -0.007043 -0.015331 -442884.000000 0 0 1
-30.087727 3.162745 3.147880 30.416828 -0.104733 1.467119 0.006239 -0.013900 333914.000000 0 0 1
-29.452597 4.356345 3.704780 30.002643 -0.146846 1.446999 0.009640 -0.012186 -533185.000000 0 0 1
-29.720217 4.629545 5.183580 30.522016 -0.154529 1.400138 0.017969 -0.009748 -525629.000000 0 0 1
-31.018207 5.019845 5.545080 31.907302 -0.160444 1.396122 0.016849 -0.005251 -424001.000000 0 0 1
-32.044167 4.088545 5.506480 32.769897 -0.126905 1.401961 0.022976 -0.007465 -1155530.000000 0 0 1
-31.922597 2.934445 6.546980 32.718895 -0.091666 1.369339 0.024757 -0.000879 -955719.000000 0 0 1
-32.194607 3.506545 7.843580 33.321319 -0.108490 1.333174 0.016001 0.003693 354762.000000 0 0 1
-32.416087 2.635145 8.933580 33.727667 -0.081113 1.302723 0.023372 0.009734 132246.000000 0 0 1
-33.594107 1.594845 8.899380 34.789460 -0.047438 1.312114 0.014402 0.011959 -251311.000000 0 0 1
-33.571577 0.607045 7.868780 34.486765 -0.018080 1.340601 0.023193 -0.000209 115858.000000 0 0 1
-34.544324 -0.429955 7.935080 35.446589 0.012446 1.345023 0.025566 0.007783 35542.400000 0 0 1
-34.648504 -1.280655 9.212280 35.875131 0.036945 1.311100 0.017021 0.024100 1008690.000000 0 0 1
-33.400037 -2.010855 9.453480 34.770308 0.060133 1.295446 0.024966 -0.006296 1354510.000000 0 0 1
-33.326677 -2.719055 10.721880 35.114376 0.081408 1.260499 0.017694 0.011955 305442.000000 0 0 1
-31.975687 -3.485555 10.838380 33.942070 0.108578 1.245785 0.011507 0.007841 255894.000000 0 0 1
-31.871707 -4.567855 9.902180 33.685667 0.142351 1.272431 0.014597 0.001824 -261185.000000 0 0 1
-30.621757 -5.194055 9.957180 32.616187 0.168021 1.260560 0.023022 -0.007227 -298009.000000 0 0 1
-30.448657 -6.200555 8.797580 32.294969 0.200893 1.294896 0.015181 -0.001271 -221557.000000 0 0 1
-31.274117 -7.307255 8.914280 33.330628 0.229534 1.300051 0.008583 -0.000580 -302180.000000 0 0 1
-31.305337 -8.094555 7.746480 33.249871 0.253026 1.335658 0.017991 -0.000851 204535.000000 0 0 1
-32.293527 -9.305455 7.739780 34.487209 0.280552 1.344444 0.008767 -0.001579 -606911.000000 0 0 1
-33.611047 -8.931155 7.850380 35.652440 0.259719 1.348785 0.002876 -0.007355 -376050.000000 0 0 1
-34.524351 -9.999055 8.234380 36.874340 0.281910 1.345588 -0.004992 -0.001507 607319.000000 0 0 1
7.715133 -23.702955 10.658180 27.109964 -1.256119 1.166745 0.052630 -0.014738 -286382.000000 0 0 1
7.221833 -24.501755 9.605080 27.290079 -1.284165 1.211130 0.050881 -0.010639 71753.200000 0 0 1
6.037533 -25.173215 10.040180 27.765946 -1.335403 1.200812 0.056694 -0.009238 622751.000000 0 0 1
5.614333 -26.216795 8.988680 28.277861 -1.359833 1.247314 0.044233 -0.002295 75524.900000 0 0 1
4.960233 -25.665605 7.864880 27.298050 -1.379886 1.278542 0.045778 -0.000152 -236624.000000 0 0 1
4.742633 -26.638875 6.820980 27.904265 -1.394608 1.323852 0.040583 0.003993 -628045.000000 0 0 1
4.220833 -25.962005 5.545880 26.881182 -1.409629 1.362993 0.031223 0.003127 897448.000000 0 0 1
2.793633 -25.823155 5.481080 26.545846 -1.463032 1.362824 0.028952 -0.004289 409303.000000 0 0 1
2.132133 -26.985205 5.065180 27.539124 -1.491949 1.385816 0.021855 -0.000960 -1148840.000000 0 0 1
0.620033 -26.819935 4.966480 27.282949 -1.547682 1.387740 0.019487 -0.003113 -1122430.000000 0 0 1
0.028833 -26.652255 6.225880 27.369785 -1.569715 1.341315 0.020810 -0.001446 873022.000000 0 0 1
-1.419267 -26.489835 6.171280 27.236196 1.517270 1.342228 0.007152 -0.006600 1683020.000000 0 0 1
-2.053167 -27.914785 6.223780 28.673789 1.497377 1.352000 0.007125 0.003192 -700827.000000 0 0 1
-1.756967 -28.568215 7.481080 29.583719 1.509373 1.315142 0.009245 -0.004486 -1954.890000 0 0 1
-2.352367 -29.823975 7.561280 30.857350 1.492084 1.323236 0.020588 -0.001431 -306105.000000 0 0 1
-2.150767 -30.536725 8.876780 31.873415 1.500480 1.288563 0.017240 0.000335 339655.000000 0 0 1
-0.855067 -31.015415 9.211180 32.365614 1.543234 1.282210 0.009477 0.004814 168749.000000 0 0 1
-0.818667 -31.491795 10.539980 33.218888 1.544806 1.247927 -0.005936 0.012182 -162860.000000 0 0 1
0.654433 -31.686925 10.900480 33.515817 -1.550146 1.239537 0.013036 0.004700 -86487.100000 0 0 1
1.211533 -32.978995 10.587880 34.658118 -1.534076 1.260338 0.019848 0.002774 725005.000000 0 0 1
2.597333 -33.076065 10.957980 34.940658 -1.492431 1.251797 0.026876 0.002901 811048.000000 0 0 1
2.984933 -33.787305 12.260080 36.066624 -1.482680 1.223955 0.020591 -0.001655 -126071.000000 0 0 1
2.708833 -32.964005 13.384080 35.680485 -1.488805 1.186282 0.008116 0.007922 -122040.000000 0 0 1
3.391633 -33.438565 14.500380 36.604670 -1.469713 1.163493 0.008488 0.011910 -528110.000000 0 0 1
3.093033 -32.753405 15.869080 36.526430 -1.476642 1.121364 0.005966 0.006120 -106624.000000 0 0 1
3.357733 -31.363965 16.029680 35.382528 -1.464146 1.100625 0.000564 -0.000700 1483960.000000 0 0 1
4.797133 -31.121335 16.066080 35.350656 -1.417857 1.099011 0.009318 0.006511 1576120.000000 0 0 1
5.231633 -29.864265 15.225980 33.927493 -1.397376 1.105397 0.019397 -0.000158 -10105.900000 0 0 1
5.428033 -29.972615 13.830580 33.453044 -1.391638 1.144576 0.024347 0.001090 -819442.000000 0 0 1
4.247433 -29.942615 13.117980 32.964864 -1.429884 1.161528 0.014149 0.007560 -1218730.000000 0 0 1
4.450133 -29.836745 11.572480 32.310329 -1.422738 1.204493 0.016780 0.006027 38919.500000 0 0 1
5.109633 -30.877415 10.930280 33.151080 -1.406801 1.234799 0.025422 0.004156 -1242110.000000 0 0 1
6.438033 -31.062365 11.219880 33.648247 -1.366428 1.230840 0.030072 0.006587 -1714730.000000 0 0 1
6.937133 -32.399115 10.700380 34.818452 -1.359866 1.258422 0.026393 0.006078 -228768.000000 0 0 1
6.492933 -33.525475 11.412680 36.005068 -1.379493 1.248259 0.019656 0.002162 335229.000000 0 0 1
7.096033 34.521035 10.829380 36.869106 1.368063 1.272675 0.037382 -0.003072 981.970000 0 0 1
6.833433 33.212099 11.583280 35.831714 1.367877 1.241614 0.031766 -0.002786 -1385080.000000 0 0 1
5.502833 32.933059 11.731480 35.390608 1.405234 1.232918 0.020544 -0.008608 -1120790.000000 0 0 1
5.211333 31.710279 12.447680 34.462219 1.407910 1.201244 0.025916 -0.009432 245431.000000 0 0 1
3.828933 31.531939 13.124880 34.368392 1.449958 1.178958 0.020833 -0.006011 185394.000000 0 0 1
3.860333 32.015699 14.460780 35.341495 1.450799 1.149249 0.041093 0.002447 326030.000000 0 0 1
2.661233 31.767149 15.160980 35.299989 1.487218 1.126869 0.026505 0.000842 -126735.000000 0 0 1
2.895033 32.039099 16.655880 36.225729 1.480682 1.093048 0.017344 -0.000865 -10081.800000 0 0 1
3.499933 33.242797 16.976180 37.490316 1.465899 1.100876 0.013017 0.000176 348564.000000 0 0 1
3.987233 33.109379 18.353680 38.065556 1.450947 1.067678 0.011156 0.002146 220966.000000 0 0 1
4.372033 34.456766 18.995780 39.588168 1.444586 1.070330 0.008628 0.003078 682058.000000 0 0 1
3.232833 -33.873785 19.171580 39.056805 -1.475647 1.057715 0.000345 -0.005550 757161.000000 0 0 1
3.603733 -32.875605 20.122680 38.713235 -1.461615 1.024193 -0.004062 -0.006927 -210763.000000 0 0 1
2.401233 -32.096995 20.621580 38.226072 -1.496124 1.000996 -0.017379 -0.006015 323274.000000 0 0 1
1.466533 -32.916295 21.401180 39.289232 -1.526272 0.994755 -0.015073 -0.006073 894187.000000 0 0 1
0.475333 -32.066025 21.997780 38.889050 -1.555974 0.969569 -0.016149 -0.004904 -11228.700000 0 0 1
-0.635367 -32.829275 22.730580 39.935501 1.551445 0.965285 -0.018290 0.000235 -786847.000000 0 0 1
-1.455767 -33.563645 21.868180 40.085594 1.527450 0.993766 -0.032099 -0.001041 -226727.000000 0 0 1
-2.367167 -34.410092 22.520980 41.192869 1.502112 0.992354 -0.024498 0.001672 123344.000000 0 0 1
-3.644267 -33.872555 23.205580 41.220500 1.463621 0.972831 -0.002868 0.004202 215409.000000 0 0 1
-4.674667 -33.600445 22.227180 40.557243 1.432559 0.990772 -0.010339 0.000654 198936.000000 0 0 1
-5.832967 -33.078005 22.857680 40.628210 1.396251 0.973262 -0.002346 0.007155 -534135.000000 0 0 1
-6.980667 -33.036545 21.888180 40.239725 1.362558 0.995665 0.005076 -0.005298 -689159.000000 0 0 1
-7.419767 -34.238000 21.291780 40.995530 1.357385 1.024685 0.007977 0.003989 387712.000000 0 0 1
-8.639967 -33.998225 20.602180 40.681423 1.321934 1.039760 0.018447 -0.010097 647127.000000 0 0 1
-9.835767 34.238097 20.821180 41.261497 -1.291054 1.041860 0.035815 -0.007337 549799.000000 0 0 1
-10.343967 34.315228 22.159880 42.137784 -1.278019 1.017034 0.044884 -0.003646 -335307.000000 0 0 1
-11.687367 33.918664 22.229480 42.204503 -1.238967 1.016072 0.029721 0.000184 -417395.000000 0 0 1
-12.139767 33.544945 23.675580 42.815539 -1.223564 0.984875 0.029368 0.002674 -179423.000000 0 0 1
-12.175567 -34.546670 24.592980 44.119514 1.231951 0.979525 0.033220 -0.002753 124364.000000 0 0 1
-10.951567 -33.880855 24.867580 43.430930 1.258159 0.961150 0.029815 -0.003064 -25406.500000 0 0 1
-11.086467 -32.472835 25.510080 42.756976 1.241797 0.931502 0.027994 -0.004504 -352336.000000 0 0 1
-11.761267 -32.430155 26.723780 43.637172 1.222884 0.911693 0.032984 -0.000494 -63097.900000 0 0 1
-12.134967 -31.103455 27.033280 42.959057 1.198811 0.890170 0.034357 -0.003895 285625.000000 0 0 1
-12.994267 -30.927115 28.331080 43.908855 1.173034 0.869479 0.041234 -0.007044 168602.000000 0 0 1
-12.252967 -30.617415 29.470280 44.227353 1.190121 0.841512 0.036037 -0.000712 62058.900000 0 0 1
-13.172367 -30.284085 30.474580 44.937035 1.160520 0.825538 0.039688 -0.000699 -42968.200000 0 0 1
-12.473467 -29.777145 31.779380 45.301156 1.174109 0.793277 0.039357 0.000981 -211275.000000 0 0 1
-13.370667 -29.402185 32.808080 46.039476 1.143999 0.777588 0.043102 -0.001837 67449.000000 0 0 1
-12.786867 -28.848385 33.977380 46.370202 1.153575 0.748454 0.040409 -0.002929 74986.600000 0 0 1
-12.009167 -29.835155 -34.202868 46.948831 1.188122 2.386946 0.037199 0.006564 184516.000000 0 0 1
-10.689967 -30.114875 34.557880 47.068335 1.229698 0.746299 0.014821 0.006128 -302490.000000 0 0 1
-10.318167 -31.398005 -34.087168 47.478778 1.253289 2.371642 0.013867 0.014318 -278845.000000 0 0 1
-8.807267 -31.549125 -34.280568 47.413844 1.298566 2.378942 0.008660 0.014343 -187832.000000 0 0 1
-8.004967 -30.687845 -33.508568 46.137268 1.315631 2.383691 0.017048 0.006242 109331.000000 0 0 1
-6.643267 -31.094315 -33.491568 46.180890 1.360312 2.382158 0.008849 0.003674 511197.000000 0 0 1
-5.744567 -30.410805 -32.432268 44.829334 1.384097 2.379599 -0.006506 0.009606 -118294.000000 0 0 1
-6.032967 -30.708585 -31.079968 44.106443 1.376808 2.352738 -0.002188 0.006764 -96920.000000 0 0 1
-5.695167 -29.658955 -30.219268 42.723445 1.381084 2.356500 -0.024532 0.012402 -586115.000000 0 0 1
-6.398167 -29.903465 -28.883268 42.064200 1.360014 2.327663 -0.012466 0.017940 -287452.000000 0 0 1
-5.945267 -31.028925 -28.209268 42.354495 1.381487 2.299667 -0.027254 0.020190 72571.200000 0 0 1
-6.899267 -31.462785 -27.237968 42.183097 1.354930 2.272747 -0.014472 0.020987 328618.000000 0 0 1
-6.431267 -32.727685 -26.481868 42.588166 1.376760 2.241852 -0.012666 0.018300 508871.000000 0 0 1
-5.505867 -32.458165 -25.426968 41.597810 1.402766 2.228445 -0.017412 0.014051 196882.000000 0 0 1
-5.168767 -33.653045 -24.716668 42.073237 1.418397 2.198722 -0.010491 0.001478 64983.500000 0 0 1
-4.226667 -33.456925 -23.499768 41.103159 1.445130 2.179405 -0.000511 -0.003431 295186.000000 0 0 1
-4.825667 -32.804215 -22.330268 39.975548 1.424739 2.163491 0.005936 0.003139 268868.000000 0 0 1
-4.935667 -31.387665 -22.442168 38.899836 1.414825 2.185752 -0.007829 0.016476 -885415.000000 0 0 1
-5.395667 -30.696205 -21.211568 37.700144 1.396797 2.168371 0.016994 0.000256 -245865.000000 0 0 1
-6.807067 -30.840595 -21.168168 38.020650 1.353562 2.161270 0.022382 -0.000412 -206637.000000 0 0 1
-7.474567 -29.732065 -20.690268 36.985836 1.324503 2.164471 0.034948 -0.011289 -293424.000000 0 0 1
-7.672067 -28.472465 -21.571468 36.535874 1.307592 2.202374 0.027856 -0.018260 -682635.000000 0 0 1
-6.499267 -27.697385 -21.754968 35.814302 1.340313 2.223628 0.022448 -0.009125 -125210.000000 0 0 1
-6.421767 -27.037305 -23.004768 36.075952 1.337602 2.262274 0.036729 -0.013128 -630636.000000 0 0 1
-5.401567 -27.772205 -23.937068 37.060161 1.378699 2.272995 0.023893 -0.001571 1233630.000000 0 0 1
-3.999767 -27.514125 -23.763168 36.574764 1.426436 2.278006 0.017632 0.005415 790289.000000 0 0 1
-3.444167 -27.677625 -22.461268 35.810917 1.446994 2.248773 -0.000963 0.002424 -1160200.000000 0 0 1
-1.995267 -27.135395 -22.547768 35.337128 1.497398 2.262793 0.009342 0.005281 -281515.000000 0 0 1
-1.789267 -25.744835 -22.848268 34.467976 1.501408 2.295460 0.010250 0.003656 32971.800000 0 0 1
-2.268067 -24.715055 -21.982268 33.154158 1.479284 2.295658 0.021176 -0.001344 -525938.000000 0 0 1
-2.185967 -23.376655 -22.680168 32.644088 1.477557 2.338898 0.027960 0.003884 463645.000000 0 0 1
-3.038267 -23.153455 -23.824568 33.360510 1.440319 2.366212 0.012279 -0.001938 573562.000000 0 0 1
-4.411467 -22.982155 -23.517668 33.177119 1.381151 2.358666 0.011602 -0.001550 73059.200000 0 0 1
-5.413367 -23.143055 -24.680468 34.264137 1.341019 2.375031 0.003779 -0.002568 38587.900000 0 0 1
-5.441767 -21.921855 -25.398968 33.989530 1.327480 2.414723 0.018753 -0.002499 61240.600000 0 0 1
-5.734367 -22.195655 -26.774268 35.247575 1.317969 2.433503 0.015737 -0.000479 -97186.200000 0 0 1
-5.708467 -20.960855 -27.686268 35.191952 1.304905 2.476276 0.020411 -0.000217 58497.400000 0 0 1
-5.820567 -21.138355 -29.116868 36.448609 1.302099 2.496173 0.015106 -0.007866 451560.000000 0 0 1
-4.604767 -21.592155 -29.729168 37.030373 1.360683 2.502827 0.012216 -0.010420 444557.000000 0 0 1
-4.810567 -21.880355 -31.240868 38.443248 1.354382 2.519480 0.018322 -0.020263 28900.100000 0 0 1
-5.244567 -20.774255 -32.016068 38.524068 1.323508 2.551819 0.037727 -0.024074 192848.000000 0 0 1
-6.314667 -21.063155 -32.910268 39.580516 1.279526 2.552556 0.027183 -0.018500 252295.000000 0 0 1
-6.331067 -20.113555 -34.073068 40.070082 1.265848 2.587421 0.022567 -0.021165 1288100.000000 0 0 1
-5.191067 -20.365055 34.199880 40.141182 1.321211 0.551022 0.023832 -0.015948 797566.000000 0 0 1
-5.457667 -19.998855 32.853880 38.847365 1.304384 0.562889 0.021759 -0.011003 -98297.400000 0 0 1
-4.346467 -20.457955 31.932380 38.171935 1.361451 0.579857 0.011741 -0.010775 -1167770.000000 0 0 1
-4.271567 -21.853355 31.746880 38.777311 1.377765 0.611658 0.002325 -0.006403 -85126.200000 0 0 1
-3.255967 -22.366855 30.912780 38.294615 1.426241 0.631343 0.005927 0.000884 1416110.000000 0 0 1
-1.733667 -22.180055 31.342480 38.435810 1.492792 0.617290 0.007461 -0.003906 930160.000000 0 0 1
-1.285767 -20.838355 31.069280 37.432478 1.509173 0.591673 0.010818 -0.008154 -292234.000000 0 0 1
-0.163367 -20.481855 31.835180 37.855142 1.562820 0.571716 0.012217 -0.007692 -297928.000000 0 0 1
-0.451667 -20.141955 33.360980 38.972521 1.548376 0.543289 0.005506 -0.014936 -22488.600000 0 0 1
-1.220967 -18.937655 33.498280 38.500134 1.506412 0.515427 0.006746 -0.018037 922.992000 0 0 1
-1.535867 -18.679355 -34.315468 39.100237 1.488758 2.641688 0.008444 -0.018331 -420349.000000 0 0 1
-2.615767 -17.621255 -34.277068 38.629888 1.423429 2.662297 -0.006552 -0.016834 -375206.000000 0 0 1
-2.224567 -16.338255 34.441880 38.185474 1.435472 0.446502 0.017089 -0.020794 601559.000000 0 0 1
-3.305467 -15.419755 -34.465168 37.901752 1.359626 2.712465 0.020013 -0.022073 682448.000000 0 0 1
-2.903967 -13.986055 34.252180 37.111381 1.366072 0.395105 0.021333 -0.019115 -178056.000000 0 0 1
-2.011567 -13.384955 -34.000368 36.595471 1.421627 2.762732 0.019040 -0.012859 -184758.000000 0 0 1
-1.972267 -11.991055 -34.004168 36.110368 1.407778 2.798365 0.010821 -0.009943 274110.000000 0 0 1
-1.214567 -11.242255 33.992780 35.824190 1.463178 0.321135 0.012443 -0.011717 -206992.000000 0 0 1
-1.920067 -11.414055 32.803180 34.785283 1.404137 0.339207 0.018098 -0.018086 -174278.000000 0 0 1
-1.220867 -10.926155 31.694080 33.546775 1.459520 0.333896 0.020887 -0.012959 256691.000000 0 0 1
-0.215867 -11.951255 31.046380 33.267955 1.552736 0.367519 0.014138 -0.017559 16932.400000 0 0 1
-0.892267 -12.949055 30.401580 33.056471 1.501999 0.403516 0.036187 -0.019026 -410802.000000 0 0 1
-0.040567 -13.965555 29.948980 33.045118 1.567892 0.436337 0.024735 -0.025029 -318239.000000 0 0 1
-0.295667 -15.393755 30.460980 34.131019 1.551592 0.468000 0.033073 -0.020645 -108982.000000 0 0 1
-1.381267 -16.072255 29.877480 33.954221 1.485066 0.495073 0.038246 -0.024918 157815.000000 0 0 1
-1.661567 -17.326555 30.446280 35.070590 1.475192 0.519348 0.030436 -0.020270 -60049.200000 0 0 1
-2.330667 -18.374355 29.504680 34.836405 1.444627 0.560575 0.029220 -0.018664 159997.000000 0 0 1
-3.658667 -18.118655 29.065980 34.445649 1.371547 0.566431 0.035932 -0.017617 121617.000000 0 0 1
-4.154667 -19.117955 28.238580 34.353673 1.356806 0.605889 0.033495 -0.010597 -546456.000000 0 0 1
-3.621667 -19.263455 26.776480 33.183988 1.384959 0.631895 0.032005 -0.012140 -590260.000000 0 0 1
-4.293867 -20.079855 25.871480 33.029856 1.360130 0.670879 0.039361 -0.012546 -252131.000000 0 0 1
-4.425867 -21.436055 26.205980 34.144489 1.367189 0.695860 0.020590 -0.008596 -129657.000000 0 0 1
-28.151917 34.436945 -0.555120 44.483050 -0.885480 1.583276 -0.007156 0.005958 -101433.000000 0 0 1
-27.558627 -33.513949 -0.383120 43.391352 0.882603 1.579626 0.003060 0.018506 5685.020000 0 0 1
-28.210417 -32.853549 0.692880 43.308929 0.861289 1.554797 -0.009727 0.017414 -10436.500000 0 0 1
-27.514847 -31.571449 1.227880 41.896669 0.853946 1.541485 0.007951 0.010866 178474.000000 0 0 1
-26.190577 -31.781249 1.694380 41.217290 0.881539 1.529676 0.005441 -0.000352 -270569.000000 0 0 1
-25.672707 -30.533849 1.977980 39.941410 0.871671 1.521254 0.015897 0.001441 929926.000000 0 0 1
-24.128867 -30.540149 2.297280 38.989491 0.902139 1.511842 0.014167 0.002079 839007.000000 0 0 1
-23.628567 -31.363249 3.318580 39.407810 0.925133 1.486485 0.012762 -0.001378 -203869.000000 0 0 1
-22.228667 -31.171249 3.403680 38.436251 0.951323 1.482126 0.006500 0.005437 -158352.000000 0 0 1
-21.767467 -31.630149 4.780080 38.692869 0.968042 1.446941 0.011884 -0.003819 -392876.000000 0 0 1
-22.062767 -30.742249 5.830280 38.286338 0.948310 1.417921 0.006130 -0.007467 -263006.000000 0 0 1
-21.680367 -31.272249 7.071180 38.703920 0.964596 1.387065 0.008465 -0.000535 -202218.000000 0 0 1
-22.238567 -30.698649 8.403680 38.827603 0.943872 1.352634 0.003550 0.005284 -169841.000000 0 0 1
-21.752067 -29.387249 8.738380 37.591516 0.933605 1.336194 0.012736 0.006845 4801.300000 0 0 1
-22.201767 -29.054249 10.038380 37.918820 0.918301 1.302869 -0.000637 0.012356 83429.800000 0 0 1
-21.441367 -27.893849 10.791580 36.800234 0.915449 1.273174 0.011353 0.005570 699798.000000 0 0 1
-20.112467 -28.315949 11.095380 36.461099 0.953199 1.261585 0.005345 0.002591 108496.000000 0 0 1
-19.467767 -27.297749 11.829580 35.554184 0.951290 1.231610 0.014203 -0.001088 707992.000000 0 0 1
-18.097267 -27.602849 12.522480 35.302136 0.990473 1.208179 0.014732 0.004320 705978.000000 0 0 1
-18.330967 -28.392149 13.656780 36.450598 0.997496 1.186760 0.012499 0.006037 -416735.000000 0 0 1
-17.144267 -28.572749 14.352280 36.281067 1.030361 1.164091 0.016278 0.003678 -688746.000000 0 0 1
-17.323367 -29.759549 15.287780 37.675536 1.043634 1.152970 0.009761 -0.004066 4768.870000 0 0 1
-17.205967 -31.036549 14.695980 38.409432 1.064598 1.178173 0.013575 -0.000380 -14302.000000 0 0 1
-17.298567 -32.051249 15.669080 39.648998 1.075883 1.164516 0.026015 -0.000421 106583.000000 0 0 1
-17.240767 -33.433149 15.044680 40.513725 1.094684 1.190336 0.012306 -0.002628 32449.800000 0 0 1
-16.910067 -34.473949 15.936880 41.573882 1.114764 1.177388 0.035061 0.002633 124991.000000 0 0 1
-17.262967 33.476145 15.326180 40.663917 -1.094684 1.184350 0.011196 -0.003155 -79198.500000 0 0 1
-16.923267 32.266245 16.221080 39.882715 -1.087751 1.151936 0.017952 -0.008311 -187866.000000 0 0 1
-17.787967 32.072845 17.318080 40.558539 -1.064420 1.129635 0.026601 -0.011060 171718.000000 0 0 1
-17.521567 30.865545 18.118480 39.849297 -1.054485 1.098789 0.014106 -0.004478 23777.000000 0 0 1
-18.209667 30.974045 19.511280 40.886104 -1.039321 1.073319 0.018579 -0.006407 60913.400000 0 0 1
-17.664567 31.919845 20.398880 41.797461 -1.065344 1.060952 0.011399 -0.005818 -305266.000000 0 0 1
-18.572667 32.201345 21.428980 42.907712 -1.047635 1.047867 0.010950 -0.005047 -218779.000000 0 0 1
-18.154267 33.245845 22.516080 44.066285 -1.070982 1.034496 -0.008136 0.003369 1454890.000000 0 0 1
-16.924867 32.949045 23.287080 43.753615 -1.096274 1.009561 -0.001373 -0.007851 1556120.000000 0 0 1
-16.704767 33.757745 24.448480 44.903928 -1.111283 0.995049 -0.003243 -0.005960 -291112.000000 0 0 1
-17.519867 33.170545 25.610980 45.421945 -1.084863 0.971761 -0.011617 -0.008752 750709.000000 0 0 1
-18.897767 33.544545 25.465580 46.161216 -1.057751 0.986436 -0.024945 -0.012551 444761.000000 0 0 1
-19.794567 32.651545 26.065280 46.231452 -1.025804 0.971817 -0.022470 -0.007319 -49451.400000 0 0 1
-21.280467 33.032245 25.934380 47.080565 -0.998486 0.987413 0.007532 -0.016071 -44780.000000 0 0 1
-21.845667 32.549545 24.695680 46.331228 -0.979695 1.008625 0.005674 -0.010918 1201040.000000 0 0 1
-23.207667 32.970545 24.468980 47.163372 -0.957464 1.025334 -0.002490 -0.013176 878421.000000 0 0 1
-23.646467 32.396845 23.087080 46.278767 -0.940284 1.048502 -0.007630 -0.010105 -224413.000000 0 0 1
-23.016767 33.136145 22.054580 45.980215 -0.963696 1.070536 -0.001507 -0.011034 221897.000000 0 0 1
-22.954167 32.421145 20.818680 44.849101 -0.954721 1.088072 -0.005747 -0.001509 157334.000000 0 0 1
-22.321067 33.254045 19.646880 44.610105 -0.979642 1.114737 -0.002942 -0.000448 1022960.000000 0 0 1
-20.896667 33.455745 19.624980 44.057887 -1.012480 1.109135 0.003308 0.008657 805617.000000 0 0 1
-20.553567 34.327745 18.568280 44.109231 -1.031300 1.136291 0.011124 0.007998 432885.000000 0 0 1
-19.210067 -34.095949 18.749780 43.394869 1.057714 1.124005 0.017942 -0.000376 472789.000000 0 0 1
-19.348367 -33.071349 19.728880 43.096428 1.041443 1.095295 0.016409 -0.003736 -115031.000000 0 0 1
-18.173167 -32.362849 19.950880 42.138529 1.059133 1.077582 0.009994 -0.005104 -617708.000000 0 0 1
-18.433167 -31.450249 21.183680 42.162164 1.040656 1.044385 0.012651 -0.005066 -235966.000000 0 0 1
-19.212467 -30.378349 20.786580 41.521619 1.006865 1.046481 0.008717 -0.000721 -101786.000000 0 0 1
-19.581667 -29.582149 21.908480 41.695644 0.986072 1.017566 0.017152 0.003573 60329.000000 0 0 1
-20.336967 -28.316449 21.447180 40.931590 0.947958 1.019284 0.005741 0.005372 -250571.000000 0 0 1
-19.475867 -27.502249 20.681180 39.539781 0.954618 1.020374 0.007828 0.009060 152238.000000 0 0 1
-19.947967 -26.212049 20.493880 38.794227 0.920278 1.014233 0.002469 0.021756 -868633.000000 0 0 1
-21.080567 -25.953649 19.508880 38.711479 0.888637 1.042624 0.010896 0.014366 -1252530.000000 0 0 1
-22.288467 -26.442249 19.992280 39.945707 0.870432 1.046636 0.001840 0.008996 -669783.000000 0 0 1
-23.264567 -26.143749 19.014380 39.828160 0.843606 1.073091 0.001845 0.013499 -842027.000000 0 0 1
-24.722667 -26.298049 19.412880 40.983625 0.816266 1.077338 -0.012018 0.011628 -543141.000000 0 0 1
-25.205117 -27.600149 19.638880 42.222645 0.830723 1.087019 -0.018294 0.003474 -44776.600000 0 0 1
-25.402157 -28.494949 18.566880 42.449508 0.842719 1.118105 -0.006928 -0.004745 -459627.000000 0 0 1
-26.258407 -29.713049 19.077180 44.003500 0.847041 1.122381 -0.003377 -0.011248 363345.000000 0 0 1
-27.573537 -29.365549 19.448280 44.731097 0.816860 1.121000 -0.006282 -0.009159 97812.700000 0 0 1
-28.552827 -29.775049 18.504880 45.213361 0.806349 1.149133 -0.006524 -0.008380 -835633.000000 0 0 1
-29.937467 -29.235149 18.719080 45.840482 0.773530 1.150148 -0.002739 -0.007698 -801453.000000 0 0 1
-30.086097 -27.900549 18.239680 44.903227 0.747725 1.152505 0.002568 0.002890 -640949.000000 0 0 1
-31.348627 -27.410549 18.546680 45.585677 0.718478 1.151790 -0.004794 0.015624 -674104.000000 0 0 1
-31.722937 -26.163549 17.722680 44.776885 0.689652 1.163858 -0.014417 0.006312 -164801.000000 0 0 1
-31.995367 -26.455149 16.300480 44.601391 0.690896 1.196658 0.014411 -0.005433 -67510.800000 0 0 1
-32.613777 -25.362849 15.703180 44.198670 0.660978 1.207576 0.012683 -0.006232 -669145.000000 0 0 1
-31.833877 -24.127049 15.183980 42.732464 0.648541 1.207533 -0.012502 0.007615 -296502.000000 0 0 1
-31.166377 -23.498349 16.260380 42.283749 0.646034 1.176072 -0.026126 0.018309 133508.000000 0 0 1
-30.615277 -22.215049 15.985280 41.064982 0.627714 1.170960 -0.025995 0.022720 -459480.000000 0 0 1
-31.577017 -21.091449 16.243680 41.301505 0.588881 1.166584 -0.016547 0.014536 -369765.000000 0 0 1
-31.956177 -20.959249 17.615880 42.080953 0.580494 1.138872 -0.011724 0.014348 476449.000000 0 0 1
-32.840797 -19.842049 17.753280 42.277699 0.543494 1.137438 -0.003398 0.010682 178869.000000 0 0 1
-33.247567 -19.495349 19.223780 43.069979 0.530337 1.108127 -0.001951 0.000147 -570903.000000 0 0 1
-34.300606 -20.249149 19.727780 44.449352 0.533289 1.110933 0.002281 0.004844 -197614.000000 0 0 1
-34.495757 -19.711749 21.037580 44.956535 0.519144 1.083822 0.003643 0.008062 -315235.000000 0 0 1
34.561335 -20.253649 21.798180 45.605447 -0.530077 1.072451 -0.002494 0.011517 -348023.000000 0 0 1
34.482815 -21.662549 21.937880 46.255823 -0.560906 1.076658 -0.004639 0.008470 -40430.000000 0 0 1
35.080235 -22.177149 23.093980 47.495060 -0.563748 1.063015 -0.007509 0.027325 -281116.000000 0 0 1
34.567319 -23.640249 23.512580 48.027100 -0.599832 1.059201 -0.006577 0.037106 -100681.000000 0 0 1
33.249572 -23.468749 23.965180 47.229716 -0.614632 1.038611 0.014973 0.016510 -222499.000000 0 0 1
32.773492 -24.663349 24.564280 47.809899 -0.645124 1.031199 0.022069 0.007477 -182998.000000 0 0 1
31.823012 -24.484149 25.785280 47.718532 -0.655793 0.999929 0.032216 0.002797 337347.000000 0 0 1
30.437392 -24.637049 25.522280 46.741906 -0.680467 0.993183 0.040336 0.006926 -276005.000000 0 0 1
29.861092 -24.744749 26.762880 47.119414 -0.691975 0.966747 0.022820 0.013789 265551.000000 0 0 1
28.372112 -25.245849 26.711880 46.431177 -0.727158 0.957825 0.007917 0.009068 604425.000000 0 0 1
27.545172 -24.225449 26.161880 45.056108 -0.721362 0.951268 0.011331 0.011479 -726678.000000 0 0 1
26.243712 -24.713249 26.064280 44.483972 -0.755373 0.944775 0.008626 0.018546 -678543.000000 0 0 1
25.162202 -23.719749 25.682680 43.073924 -0.755898 0.931979 0.010256 0.015937 -719004.000000 0 0 1
25.031002 -23.191449 24.373880 41.934239 -0.747269 0.950544 0.030473 0.017384 72762.500000 0 0 1
26.170372 -22.587149 23.735480 41.933765 -0.712039 0.969123 0.027588 0.016434 296976.000000 0 0 1
25.926572 -21.871349 22.364480 40.628968 -0.700760 0.987885 0.035512 0.013094 155001.000000 0 0 1
25.229982 -20.631749 22.502080 39.605109 -0.685469 0.966527 0.025027 0.000867 187911.000000 0 0 1
25.056902 -20.039149 21.221780 38.467906 -0.674586 0.986425 0.011672 0.003512 -102222.000000 0 0 1
24.367802 -18.655949 21.185080 37.291310 -0.653410 0.966605 0.023517 0.002883 -72260.800000 0 0 1
25.058102 -17.527549 21.720180 37.508528 -0.610374 0.953205 0.016950 -0.017153 67825.200000 0 0 1
24.999702 -17.428949 23.121780 38.254020 -0.608822 0.921749 0.017438 -0.008844 24823.500000 0 0 1
25.288372 -16.015549 23.625480 38.133488 -0.564558 0.902631 0.026092 -0.001017 -474575.000000 0 0 1
24.109702 -15.303449 23.397180 36.917493 -0.565574 0.884380 0.011056 0.002493 -427067.000000 0 0 1
24.072702 -14.019249 23.967580 36.748867 -0.527356 0.860314 0.007797 0.008417 -372097.000000 0 0 1
22.774602 -13.239649 23.669780 35.415100 -0.526581 0.838804 -0.004578 0.011564 502475.000000 0 0 1
21.718202 -13.922249 24.375580 35.491946 -0.570051 0.813730 0.011139 0.005524 -209106.000000 0 0 1
20.496402 -13.251349 24.325180 34.458891 -0.573925 0.787077 0.024860 0.007259 -554859.000000 0 0 1
19.240002 -14.010549 24.683880 34.289461 -0.629402 0.767184 0.020538 0.011331 -257462.000000 0 0 1
18.786902 -15.013049 23.750280 33.799632 -0.674206 0.791641 0.027134 0.007997 640567.000000 0 0 1
17.475002 -15.506649 24.057180 33.534755 -0.725789 0.770761 0.025075 0.015507 588903.000000 0 0 1
17.119002 -16.737349 23.219480 33.351812 -0.774126 0.800708 0.011643 0.013793 -124291.000000 0 0 1
17.798102 -17.912749 23.602780 34.564870 -0.788609 0.819133 0.003256 0.013285 143945.000000 0 0 1
17.424202 -18.895149 22.649580 34.258327 -0.825876 0.848458 0.007610 0.018812 317105.000000 0 0 1
17.838302 -20.379549 23.092180 35.591850 -0.851794 0.864783 -0.000415 0.020948 -448257.000000 0 0 1
17.020202 -20.832649 24.182780 36.173103 -0.885777 0.838567 -0.007777 0.018445 417884.000000 0 0 1
17.140402 -22.155349 24.645580 37.310287 -0.912333 0.849236 0.008251 0.012896 -349189.000000 0 0 1
16.640102 -23.273449 23.684980 37.141953 -0.950086 0.879303 0.005171 0.002956 -17128.200000 0 0 1
17.510102 -23.592749 22.627680 37.084139 -0.932318 0.914519 0.011538 0.006750 -597021.000000 0 0 1
18.519402 -24.504349 22.928080 38.329209 -0.923619 0.929558 0.016146 0.002871 -723454.000000 0 0 1
19.381702 -24.742849 21.697080 38.191913 -0.906306 0.966593 0.023140 0.012697 -132298.000000 0 0 1
18.746702 -25.495049 20.669180 37.797505 -0.936765 0.992211 0.043643 -0.003871 -351353.000000 0 0 1
19.717602 -25.740349 19.729780 37.955416 -0.917121 1.024162 0.031969 -0.001921 -506119.000000 0 0 1
19.300202 -26.344249 18.390480 37.479688 -0.938515 1.057928 0.036999 -0.009850 -8032.360000 0 0 1
18.632202 -27.581949 18.644080 38.151338 -0.976688 1.060212 0.047562 -0.017591 -78439.400000 0 0 1
17.816702 -28.003449 17.590080 37.563798 -1.004161 1.083462 0.046467 -0.019590 -167072.000000 0 0 1
16.861802 -29.148849 18.037980 38.201368 -1.046356 1.079032 0.057048 -0.027352 54915.300000 0 0 1
15.912702 -28.894349 19.063480 38.098737 -1.067400 1.046770 0.040819 -0.031445 88256.000000 0 0 1
15.301502 -30.126649 19.368380 38.947209 -1.100844 1.050314 0.043638 -0.026040 -339336.000000 0 0 1
13.942102 -29.989749 20.062680 38.681758 -1.135624 1.025513 0.033827 -0.016439 -199914.000000 0 0 1
12.950002 -29.414149 19.218480 37.446558 -1.156068 1.031859 0.041220 -0.018622 -113201.000000 0 0 1
11.760902 -29.089449 19.888380 37.149193 -1.186587 1.005856 0.020864 -0.017460 -70540.300000 0 0 1
10.766502 -28.352249 18.969880 35.771832 -1.207876 1.011839 0.027486 -0.019139 -227896.000000 0 0 1
10.312702 -29.168849 17.876480 35.731528 -1.230961 1.046851 0.024683 -0.009543 192084.000000 0 0 1
9.563002 -28.357249 16.996080 34.415858 -1.245540 1.054291 0.035862 -0.006013 3743.230000 0 0 1
9.526402 -29.000049 15.568380 34.265575 -1.253406 1.099160 0.027387 -0.002650 719444.000000 0 0 1
8.700002 -30.221149 15.588380 35.099935 -1.290497 1.110611 0.013398 0.004827 630855.000000 0 0 1
9.212902 -31.142449 14.651280 35.628495 -1.283169 1.147000 0.016623 0.005836 162835.000000 0 0 1
8.300802 -32.352649 14.265280 36.319353 -1.319641 1.167151 0.019945 0.002371 125825.000000 0 0 1
7.924202 -33.196449 15.341380 37.418647 -1.336475 1.148350 0.019625 0.007059 69074.100000 0 0 1
7.171702 -34.286449 14.843380 38.043657 -1.364599 1.169983 0.011166 0.005537 -84747.200000 0 0 1
7.072602 33.695545 15.755780 37.863651 1.363903 1.141623 0.033134 0.001127 304316.000000 0 0 1
8.329302 33.072045 15.949380 37.649969 1.324074 1.133355 0.015724 0.004785 -14456.900000 0 0 1
8.200002 32.004345 16.879880 37.100519 1.319977 1.098450 0.032216 0.000108 -1105820.000000 0 0 1
9.366102 31.122245 17.100880 36.725442 1.278472 1.086437 0.006314 0.003428 -1243210.000000 0 0 1
9.584102 30.293045 15.949380 35.551460 1.264381 1.105567 0.021769 0.001911 52963.300000 0 0 1
10.602402 29.370545 16.332380 35.238991 1.224367 1.088884 0.018723 0.003215 457651.000000 0 0 1
11.518602 28.859745 15.109080 34.552097 1.191046 1.118220 0.014157 -0.000123 627017.000000 0 0 1
10.864002 28.105445 14.101480 33.268519 1.201943 1.133084 0.012941 -0.003562 109395.000000 0 0 1
11.827702 27.248745 13.522380 32.638067 1.161273 1.143608 0.025763 0.005074 86847.300000 0 0 1
-9.666967 -9.292255 19.705629 23.835018 0.765637 0.597488 0.014310 0.004135 92098.400000 0 1 0
-10.068267 -9.441455 18.355829 22.966226 0.753281 0.644745 0.026603 0.003790 -403786.000000 0 1 0
-9.668367 -10.694055 17.846429 22.941996 0.835727 0.679490 0.006036 -0.006260 -178931.000000 0 1 0
-10.060067 -10.849555 16.358229 22.056959 0.823137 0.735291 0.020738 -0.009770 1313280.000000 0 1 0
-11.467067 -11.125255 16.121829 22.697539 0.770270 0.780887 0.008458 -0.002878 1150120.000000 0 1 0
-11.823767 -11.504355 14.796429 22.160459 0.771707 0.839688 0.011730 -0.002577 48172.300000 0 1 0
-11.762967 -12.982155 14.521429 22.754684 0.834628 0.878673 0.004855 -0.006602 -229917.000000 0 1 0
-10.449367 -13.350955 14.161329 22.090281 0.906713 0.874910 0.007103 -0.008872 -92727.300000 0 1 0
-10.321667 -14.753755 13.980929 22.796414 0.960342 0.910571 0.010672 -0.011422 86804.000000 0 1 0
-9.756767 -15.555055 15.167129 23.815878 1.010587 0.880391 0.009832 -0.015168 521348.000000 0 1 0
-10.692067 -15.544755 16.257529 24.905159 0.968289 0.859551 -0.004004 -0.001519 171172.000000 0 1 0
-10.027267 -15.689355 17.485829 25.543221 1.002113 0.816798 -0.000282 -0.003218 -212916.000000 0 0 1
-10.981567 -15.433655 18.709129 26.623749 0.952371 0.791578 -0.003359 0.000827 137225.000000 0 0 1
-11.389267 -14.079055 18.871529 26.154728 0.890621 0.764781 -0.011658 -0.003934 -271306.000000 0 0 1
-12.530067 -13.686855 18.167529 25.969052 0.829493 0.795981 -0.018251 -0.008665 155054.000000 0 0 1
-13.883667 -13.738855 18.961429 27.222199 0.780156 0.800228 -0.028584 -0.007452 481712.000000 0 0 1
-14.216667 -15.104555 19.276129 28.316609 0.815670 0.822030 -0.028402 -0.004252 48009.300000 0 0 1
-15.146467 -15.126355 20.358429 29.541288 0.784734 0.810479 -0.007739 -0.002530 32223.900000 0 0 1
-15.687567 -16.499655 20.645329 30.733825 0.810623 0.834233 0.012078 -0.000710 -236967.000000 0 0 1
-16.775467 -16.958255 19.880429 31.052056 0.790817 0.876000 0.007248 0.003624 -179739.000000 0 0 1
-17.069867 -18.364055 20.102629 32.136188 0.821906 0.894967 -0.003739 0.002796 498867.000000 0 0 1
-18.404567 -18.754855 19.376029 32.648173 0.794825 0.935421 0.007860 0.008932 395484.000000 0 0 1
-18.530367 -18.721455 17.943129 31.871982 0.790528 0.972815 0.002063 0.007771 -28718.000000 0 0 1
-18.637867 -17.433955 17.322029 30.844214 0.752035 0.974481 0.003742 0.014443 -1006080.000000 0 0 1
-18.324667 -17.647055 15.839329 29.968255 0.766563 1.013920 0.002078 0.006209 -331400.000000 0 0 1
-19.072867 -18.673955 15.114729 30.674841 0.774830 1.055560 0.008607 0.002908 190187.000000 0 0 1
-18.633967 -18.823855 13.807129 29.869701 0.790468 1.090271 0.005265 -0.003777 -248587.000000 0 0 1
-19.164467 -20.105955 13.048929 30.688773 0.809368 1.131611 0.018441 -0.000085 -13541.100000 0 0 1
-18.581767 -21.339155 13.427229 31.319835 0.854360 1.127728 0.003984 0.008212 51322.700000 0 0 1
-18.169067 -22.130955 12.296729 31.162537 0.883393 1.165164 0.005703 0.010531 -530380.000000 0 0 1
-17.394867 -23.379355 12.636729 31.762597 0.931129 1.161625 -0.000078 0.014516 -345955.000000 0 0 1
-17.413367 -24.482155 11.758729 32.262501 0.952548 1.197732 0.010167 0.002826 30449.400000 0 0 1
-16.566267 -24.398655 10.609729 31.341696 0.974316 1.225455 0.007577 0.003110 -7397.890000 0 0 1
-16.710767 -25.599325 9.701629 32.073303 0.992468 1.263500 0.019496 0.003050 -197788.000000 0 0 1
-18.000867 -25.789245 9.163429 32.757973 0.961415 1.287282 0.015109 0.005667 -303631.000000 0 0 1
-18.064367 -26.881405 8.232129 33.417050 0.979109 1.321889 0.013710 0.008597 252427.000000 0 0 1
-19.301767 -26.764515 7.309829 33.798389 0.946003 1.352796 0.013709 0.005234 263454.000000 0 0 1
-19.128267 -25.651885 6.450529 32.642290 0.930062 1.371874 0.010352 0.001489 -345757.000000 0 0 1
-20.045867 -25.581365 5.422329 32.949122 0.906128 1.405478 0.009779 -0.000398 -488245.000000 0 0 1
-19.979367 -24.226955 4.688929 31.750693 0.881190 1.422575 0.008790 -0.003894 -81851.000000 0 0 1
-20.829767 -24.137355 3.577729 32.082569 0.858822 1.459048 0.006848 0.001183 -124551.000000 0 0 1
-21.054667 -22.831355 3.048929 31.206822 0.825860 1.472940 0.012590 0.007402 234441.000000 0 0 1
-21.812767 -22.956155 1.700729 31.712369 0.810932 1.517141 0.000575 0.007946 -176044.000000 0 0 1
-21.043467 -23.646755 0.757329 31.663387 0.843584 1.546876 0.001922 0.002783 -4317.700000 0 0 1
-21.572767 -23.562055 -0.562371 31.951071 0.829444 1.588398 0.001917 -0.004048 78024.000000 0 0 1
-20.672367 -24.278055 -1.605671 31.927244 0.865442 1.621109 -0.001549 -0.002181 76085.100000 0 0 1
-19.363367 -23.752855 -1.832371 30.700093 0.886855 1.630518 0.002065 0.002061 734564.000000 0 0 1
-18.685767 -24.222355 -3.010071 30.739891 0.913723 1.668874 -0.001547 0.001798 380585.000000 0 0 1
-18.367567 -25.752925 -3.038971 31.777602 0.951251 1.666575 0.004168 -0.007654 -796226.000000 0 0 1
-19.489767 -26.505225 -3.439971 33.078866 0.936758 1.674978 0.023182 -0.014155 -266538.000000 0 0 1
-19.117967 -27.805235 -3.843071 33.961698 0.968463 1.684198 0.029524 -0.018162 -306899.000000 0 0 1
-20.245267 -28.735335 -4.378371 35.422598 0.957028 1.694717 0.022127 -0.013638 243831.000000 0 0 1
-20.754267 -28.239915 -5.616771 35.493387 0.937012 1.729713 0.007670 -0.010533 287234.000000 0 0 1
-21.815767 -29.029095 -6.160271 36.831576 0.926327 1.738841 0.006015 -0.018504 169246.000000 0 0 1
-22.304567 -28.519215 -7.531771 36.980629 0.907072 1.775899 -0.004454 0.000933 -285691.000000 0 0 1
-21.425667 -28.728665 -8.630271 36.862948 0.929992 1.807107 0.020987 -0.001116 297710.000000 0 0 1
-22.012467 -28.531055 -9.918871 37.375845 0.913660 1.839396 0.021944 0.006611 269129.000000 0 0 1
-22.579767 -27.091065 -10.349871 36.754476 0.875974 1.856252 -0.001939 0.013426 -618033.000000 0 0 1
-21.587267 -26.186725 -10.693571 35.582399 0.881378 1.876044 -0.013254 0.020711 -261001.000000 0 0 1
-21.055467 -25.424325 -9.628371 34.386546 0.879118 1.854595 -0.013685 0.016597 -167931.000000 0 0 1
-20.785867 -23.917255 -9.841271 33.180385 0.855332 1.871926 -0.022927 0.009486 54621.100000 0 0 1
-21.934367 -23.149355 -10.185571 33.477678 0.812341 1.879947 -0.030202 0.017271 145512.000000 0 0 1
-21.714967 -21.741955 -10.402871 32.441827 0.786019 1.897225 -0.029391 0.020578 -111775.000000 0 0 1
-23.053167 -20.987655 -10.522171 32.903590 0.738533 1.896302 -0.025617 0.016663 -353015.000000 0 0 1
-23.794367 -21.406955 -11.693371 34.075865 0.732630 1.921072 -0.042016 0.030759 371362.000000 0 0 1
-25.059767 -20.773655 -11.784071 34.617929 0.692154 1.918143 -0.036055 0.029474 168327.000000 0 0 1
-25.066387 -19.174555 -11.947071 33.744923 0.653001 1.932684 -0.030551 0.015183 -909213.000000 0 0 1
-24.351967 -18.718655 -13.092171 33.388790 0.655344 1.973723 -0.031553 0.013114 357368.000000 0 0 1
-24.146767 -17.311455 -13.228671 32.523077 0.621996 1.989687 -0.020425 0.008350 2732.890000 0 0 1
-23.000367 -16.694355 -12.398371 31.007063 0.627852 1.982156 -0.040541 0.013944 -467421.000000 0 0 1
-23.410167 -16.559455 -11.049771 30.730260 0.615650 1.938607 -0.016924 0.006212 680.082000 0 0 1
-22.419667 -16.908955 -10.122071 29.849800 0.646185 1.916757 -0.028647 0.011866 -440363.000000 0 0 1
-22.970967 -17.065055 -8.700871 29.909640 0.638939 1.865969 -0.029954 0.000960 201770.000000 0 0 1
-23.534867 -18.375355 -8.559771 31.061444 0.662906 1.849985 -0.029782 0.003781 -67222.000000 0 0 1
-24.131167 -18.676555 -7.345071 31.385936 0.658660 1.807011 -0.011066 0.000486 -81913.800000 0 0 1
-24.549067 -20.127155 -7.195171 32.550415 0.686743 1.793684 -0.005519 -0.005498 604900.000000 0 0 1
-25.752767 -20.480455 -7.899471 33.838671 0.671851 1.806415 -0.011410 -0.011986 386508.000000 0 0 1
-26.098637 -21.816155 -7.712171 34.879235 0.696258 1.793750 -0.009219 -0.004747 -511344.000000 0 0 1
-25.380087 -22.839255 -8.520771 35.190679 0.732754 1.815358 -0.037452 0.004877 -616176.000000 0 0 1
-25.836147 -24.127655 -8.323571 36.317104 0.751217 1.802043 -0.017397 0.002540 -565598.000000 0 0 1
-25.192987 -25.094035 -9.097071 36.703595 0.783430 1.821259 -0.021594 0.009424 -301067.000000 0 0 1
-25.798737 -26.474705 -8.840771 38.008474 0.798329 1.805546 -0.008580 0.001602 -218983.000000 0 0 1
-25.555607 -26.938785 -7.530671 37.887969 0.811741 1.770890 -0.001385 -0.012266 124721.000000 0 0 1
-26.227677 -28.164365 -7.328471 39.176893 0.820989 1.758966 0.007311 -0.016931 13105.100000 0 0 1
-25.712077 -28.763325 -6.004171 39.044716 0.841351 1.725186 0.007514 -0.017049 -106682.000000 0 0 1
-25.947327 -27.832565 -4.943171 38.371218 0.820439 1.699980 0.004533 -0.010704 27484.500000 0 0 1
-25.306187 -28.088865 -3.712871 37.989115 0.837466 1.668688 -0.004137 -0.018255 -186041.000000 0 0 1
-25.663847 -29.391315 -2.959771 39.131096 0.852999 1.646506 0.004897 -0.012524 -401980.000000 0 0 1
-25.381247 -30.647805 -3.548571 39.951070 0.879120 1.659736 0.021880 -0.009047 -147433.000000 0 0 1
-25.589277 -31.694205 -2.660671 40.821721 0.891571 1.636020 0.026833 -0.008701 305778.000000 0 0 1
-24.630267 -31.768295 -1.421971 40.223086 0.911293 1.606156 0.024605 -0.017577 86692.900000 0 0 1
-23.257367 -31.985695 -1.686471 39.583254 0.942101 1.613415 0.029807 -0.028282 -205067.000000 0 0 1
-22.570367 -32.251605 -0.464671 39.367543 0.960190 1.582600 0.059707 -0.017016 778134.000000 0 0 1
-21.271867 -31.353725 -0.387571 37.890614 0.974682 1.581025 0.035456 -0.011025 339434.000000 0 0 1
-21.364967 -29.983765 -0.123571 36.817160 0.951696 1.574153 0.018787 -0.008764 -385345.000000 0 0 1
-21.777267 -29.260045 -1.213471 36.494823 0.930975 1.604053 0.016671 -0.016228 -487745.000000 0 0 1
-22.387367 -27.932155 -0.784771 35.805242 0.895147 1.592716 0.007671 -0.007336 575233.000000 0 0 1
-23.660567 -28.101115 -0.126271 36.735692 0.870977 1.574234 0.009341 -0.007999 748179.000000 0 0 1
-24.316467 -26.866585 0.171029 36.237180 0.835180 1.566077 0.014741 -0.005298 230054.000000 0 0 1
-23.778767 -26.093745 1.386529 35.330380 0.831783 1.531542 0.007313 0.007639 -199129.000000 0 0 1
-24.257067 -26.625505 2.615029 36.113172 0.831912 1.498321 -0.008078 0.011159 -245516.000000 0 0 1
-23.731367 -25.988915 3.730529 35.390936 0.830772 1.465191 0.001810 0.006900 -430050.000000 0 0 1
-24.517567 -24.804855 4.259829 35.135994 0.791223 1.449259 0.017121 0.008040 -409845.000000 0 0 1
-24.571867 -23.733355 3.322729 34.323306 0.768041 1.473838 0.009799 0.014823 356110.000000 0 0 1
-25.512237 -22.755455 3.812429 34.397959 0.728346 1.459735 -0.002964 0.017257 300689.000000 0 0 1
-25.630387 -21.594555 2.827429 33.633850 0.700146 1.486632 0.005010 0.015827 437691.000000 0 0 1
-24.464167 -20.771855 2.798929 32.214894 0.703955 1.483804 0.004102 0.016999 274961.000000 0 0 1
-24.508067 -19.801555 1.716629 31.554615 0.679576 1.516368 -0.003138 0.014726 572116.000000 0 0 1
-23.267467 -18.819255 1.801729 29.979753 0.680098 1.510662 0.007125 0.015131 1241390.000000 0 0 1
-22.075567 -19.607055 1.597729 29.568903 0.726246 1.516736 0.008805 0.007526 117404.000000 0 0 1
-20.942167 -18.798655 1.756129 28.196592 0.731513 1.508474 0.000065 0.010427 -395535.000000 0 0 1
-19.599367 -19.534755 1.684329 27.723254 0.783747 1.510004 -0.004595 -0.003105 -353797.000000 0 0 1
-19.367767 -19.902055 0.303429 27.772185 0.799003 1.559870 -0.015336 0.000927 610443.000000 0 0 1
-18.045567 -20.428555 0.160529 27.257918 0.847257 1.564907 -0.003225 0.000770 562677.000000 0 0 1
-17.720167 -20.947855 -1.228371 27.464993 0.868677 1.615536 -0.006186 0.002620 -70284.000000 0 0 1
-17.589567 -19.862655 -2.152171 26.618598 0.846017 1.651737 -0.002129 -0.000754 23727.500000 0 0 1
-17.502967 -20.271055 -3.468171 27.005513 0.858548 1.699577 0.002512 0.005696 -172884.000000 0 0 1
-16.894267 -19.315255 -4.511771 26.054777 0.852159 1.744838 0.007060 0.010943 230433.000000 0 0 1
-15.476167 -19.328455 -4.430871 25.154195 0.895633 1.747869 0.026767 0.001247 57521.400000 0 0 1
-14.944067 -18.512055 -5.458271 24.409302 0.891643 1.796318 0.042790 0.001162 182793.000000 0 1 0
-13.401567 -18.452655 -5.299371 23.413368 0.942658 1.799114 0.062701 -0.006065 95117.300000 0 1 0
-12.655467 -19.645355 -5.425871 23.990433 0.998512 1.798938 0.046805 -0.008621 -820941.000000 0 1 0
-11.359567 -19.265455 -5.750071 23.092441 1.038034 1.822446 0.045172 -0.019108 -459693.000000 0 1 0
-10.359367 -20.450355 -5.847371 23.658513 1.101913 1.820542 0.040537 -0.018665 325726.000000 0 1 0
-10.607667 -21.338655 -6.955771 24.824253 1.109463 1.854799 0.041231 -0.017021 -222310.000000 0 1 0
-9.511267 -22.201355 -7.128471 25.182920 1.166042 1.857787 0.037607 -0.013336 68802.800000 0 0 1
-9.847467 -23.431655 -8.038671 26.657744 1.172944 1.877115 0.046129 -0.006457 -152650.000000 0 0 1
-10.340867 -23.116555 -9.334571 26.989681 1.150160 1.923948 0.035804 0.000007 26465.400000 0 0 1
-10.433167 -24.285855 -10.130271 28.306821 1.165037 1.936786 0.044101 -0.001557 262021.000000 0 0 1
-11.307267 -23.885955 -11.373871 28.770785 1.128666 1.977220 0.054780 -0.007767 540448.000000 0 0 1
-10.642067 -22.888855 -12.140171 28.009588 1.135584 2.019091 0.049375 -0.004482 302983.000000 0 0 1
-11.580267 -22.484355 -13.094371 28.480017 1.095192 2.048537 0.053823 -0.017292 -216538.000000 0 0 1
-11.023467 -21.443355 -14.083471 27.922723 1.095953 2.099452 0.056713 -0.009548 -181538.000000 0 0 1
-10.674367 -20.208355 -13.444271 26.515432 1.084832 2.102538 0.063662 -0.008988 -16448.700000 0 0 1
-10.601767 -19.087355 -14.343771 26.124095 1.063791 2.152039 0.058789 -0.000171 70073.000000 0 0 1
-10.046567 -17.823555 -13.534371 24.531445 1.057520 2.155216 0.055394 0.006795 509154.000000 0 1 0
-11.013067 -17.329455 -12.549271 24.064120 1.004674 2.119396 0.052259 -0.000449 691953.000000 0 1 0
-10.632467 -16.209655 -11.775971 22.682058 0.990261 2.116682 0.046671 -0.002333 47823.700000 0 1 0
-10.379967 -14.872255 -12.565871 22.064197 0.961453 2.176711 0.049872 0.009649 463747.000000 0 1 0
-11.586367 -14.210955 -12.914171 22.427014 0.886788 2.184417 0.047974 0.015766 31530.500000 0 1 0
-11.623367 -13.908755 -14.317671 23.098741 0.874671 2.239343 0.054866 0.003934 154999.000000 0 1 0
-12.895767 -13.178055 -14.821871 23.656919 0.796224 2.247895 0.048134 0.006538 -105979.000000 0 1 0
-13.057967 -11.855655 -14.299671 22.705674 0.737176 2.252071 0.029246 0.011340 -355417.000000 0 1 0
-14.000567 -11.084455 -14.994371 23.317637 0.669668 2.269269 0.009648 0.004079 -202664.000000 0 1 0
-14.207867 -9.645255 -14.514871 22.485015 0.596402 2.272520 -0.000910 -0.006322 1000010.000000 0 1 0
-13.087767 -8.727655 -14.766471 21.575687 0.588134 2.324581 0.003630 -0.000365 1195570.000000 0 1 0
-13.345067 -7.763255 -15.801971 22.092108 0.526879 2.367816 0.013084 -0.002396 -659072.000000 0 1 0
-12.323167 -6.655355 -15.918771 21.202864 0.495186 2.420044 0.012233 0.002560 -276087.000000 0 1 0
-11.030667 -7.191655 -16.171071 20.854233 0.577758 2.458198 0.016608 0.000104 227650.000000 0 1 0
-10.073067 -6.371455 -15.505971 19.557537 0.563991 2.486249 0.012372 -0.002758 224674.000000 0 1 0
11.406933 21.977845 15.932029 29.444411 1.092049 0.999066 0.032738 0.005847 -149514.000000 0 0 1
11.783733 22.149445 17.312629 30.482477 1.081870 0.966779 0.049237 -0.006944 45660.900000 0 0 1
12.182733 20.916545 17.843129 30.071550 1.043385 0.935575 0.038769 -0.004459 -661807.000000 0 0 1
13.300733 21.097845 18.853529 31.264742 1.008301 0.923504 0.033908 -0.012273 6610.290000 0 0 1
14.459633 21.717545 18.281029 31.857947 0.983391 0.959622 0.025398 -0.006465 889163.000000 0 0 1
15.655633 21.315045 18.988429 32.557494 0.937297 0.948100 0.027851 -0.007875 405602.000000 0 0 1
16.915333 21.814945 18.279029 33.108054 0.911236 0.985913 0.028486 -0.007111 -1237900.000000 0 0 1
17.195033 23.164245 18.541829 34.293598 0.932236 0.999552 0.034514 -0.006311 -102395.000000 0 0 1
18.379933 23.616145 17.920629 34.881129 0.909441 1.031231 0.033836 -0.005273 2119300.000000 0 0 1
19.795833 23.049545 18.504729 35.575013 0.861193 1.023757 0.029725 -0.007848 1127400.000000 0 0 1
20.054233 21.709545 18.271329 34.746483 0.825013 1.017086 0.032539 -0.005982 800405.000000 0 0 1
21.180133 21.217745 19.051329 35.521034 0.786285 1.004702 0.050510 -0.007893 737359.000000 0 0 1
21.364833 19.702545 18.828129 34.628670 0.744943 0.995939 0.043458 -0.009667 -319461.000000 0 0 1
21.828333 19.415745 17.530829 34.070181 0.726969 1.030313 0.026807 -0.002239 -24032.500000 0 0 1
21.762933 18.044945 17.166829 33.074844 0.692270 1.025081 0.022980 0.007563 -237323.000000 0 0 1
22.647033 17.016645 17.924429 33.522224 0.644387 1.006640 0.008144 0.010896 646334.000000 0 0 1
23.989033 17.136245 17.412129 34.238967 0.620283 1.037300 0.017979 0.002310 636140.000000 0 0 1
24.807233 16.144645 17.966029 34.624075 0.576940 1.025246 0.013140 0.007381 -837757.000000 0 0 1
26.184733 15.948545 17.391429 35.248520 0.547068 1.054808 0.019585 0.001763 -1648250.000000 0 0 1
27.082933 17.016745 17.541729 36.479681 0.560983 1.069158 0.011853 0.001505 800657.000000 0 0 1
28.481233 16.760145 17.546129 37.415902 0.531893 1.082697 0.023765 -0.000459 646046.000000 0 0 1
29.139333 15.794445 16.557429 37.050151 0.496705 1.107508 0.020733 -0.002582 -1161700.000000 0 0 1
28.973833 16.110945 15.180729 36.462311 0.507477 1.141380 0.027930 -0.003060 35959.600000 0 0 1
29.136033 15.030745 14.327829 35.778742 0.476272 1.158781 0.056498 -0.014110 -169461.000000 0 0 1
28.465233 15.265745 12.967929 34.806316 0.492260 1.189015 0.039852 0.005385 -466210.000000 0 0 1
29.172333 16.244745 12.235829 35.561669 0.508091 1.219544 0.031842 0.012334 158912.000000 0 0 1
28.503533 16.710145 11.081929 34.849526 0.530247 1.247184 0.013720 0.017189 -291966.000000 0 0 1
27.253033 17.568745 11.316829 34.343256 0.572607 1.235000 0.007220 0.017724 -534205.000000 0 0 1
27.398233 18.901645 11.786829 35.310971 0.603905 1.230464 -0.001945 0.022352 152146.000000 0 0 1
27.896633 19.124445 13.135529 36.283724 0.600960 1.200360 0.009073 0.025265 -123247.000000 0 0 1
26.939433 18.783845 14.333329 35.833088 0.608886 1.159277 0.000556 0.016430 489935.000000 0 0 1
25.854033 19.713945 14.457229 35.582048 0.651459 1.152388 0.004970 0.024897 446621.000000 0 0 1
25.114833 19.534945 15.656629 35.461232 0.661073 1.113511 0.004780 0.019421 -100676.000000 0 0 1
25.703533 20.371045 16.824829 36.860900 0.670175 1.096805 0.011689 -0.004071 -112017.000000 0 0 1
25.518933 21.741245 16.620729 37.418529 0.705634 1.110533 0.000349 0.003014 -722451.000000 0 0 1
24.349033 22.258345 17.116829 37.165780 0.740571 1.092178 0.013480 0.004266 -1012570.000000 0 0 1
24.213333 23.737545 16.771029 37.828877 0.775476 1.111476 0.008103 0.007301 -93007.400000 0 0 1
24.126733 23.997645 15.418429 37.359258 0.782716 1.145372 0.015066 -0.000523 221227.000000 0 0 1
24.407133 25.377745 15.154829 38.332844 0.804892 1.164349 0.017696 -0.003616 -389294.000000 0 0 1
24.325433 25.764845 13.679929 37.982817 0.814127 1.202356 0.013952 -0.007894 56293.200000 0 0 1
23.013533 26.028945 13.202629 37.167702 0.846807 1.207649 0.024154 -0.004409 120807.000000 0 0 1
22.950733 26.330445 11.819829 36.874610 0.853871 1.244496 0.024133 -0.017623 -241304.000000 0 0 1
22.362133 25.202845 11.006229 35.445528 0.845050 1.255066 0.017754 -0.011617 -131767.000000 0 0 1
20.937533 25.152245 11.056529 34.543633 0.876590 1.244988 0.023817 -0.010881 246492.000000 0 0 1
20.401233 23.874345 10.734629 33.187753 0.863681 1.241422 0.026573 -0.001737 -30304.300000 0 0 1
20.387433 23.398445 9.286129 32.393932 0.854057 1.280055 0.026188 0.009514 -857047.000000 0 0 1
19.267233 23.815145 8.567929 31.808754 0.890572 1.298070 0.040765 0.005266 -491615.000000 0 0 1
19.538233 24.056645 7.213829 31.819869 0.888675 1.342100 0.031560 -0.004243 190078.000000 0 0 1
18.260333 24.279845 6.340929 31.034787 0.925967 1.365031 0.018465 -0.001861 -651714.000000 0 0 1
17.529133 23.134545 6.274529 29.695915 0.922383 1.357899 0.025043 0.006676 487982.000000 0 0 1
16.502333 23.074645 5.237729 28.847878 0.949960 1.388220 0.046172 0.002484 1828100.000000 0 0 1
15.181433 23.936545 5.455929 28.865226 1.005583 1.380638 0.046588 -0.006409 210786.000000 0 0 1
15.283633 25.260045 5.002429 29.944676 1.026671 1.402954 0.065019 -0.007586 402454.000000 0 0 1
14.181333 26.085445 5.370529 30.172889 1.072842 1.391851 0.044523 -0.005536 63730.100000 0 0 1
14.136633 27.511445 4.742729 31.292451 1.096134 1.418649 0.035565 -0.008885 -178248.000000 0 0 1
13.711733 27.513245 3.386429 30.926658 1.108455 1.461078 0.036573 0.000900 459713.000000 0 0 1
13.370233 28.811945 2.881229 31.893460 1.136319 1.480334 0.035097 -0.003259 -211158.000000 0 0 1
12.773833 28.799145 1.426829 31.537238 1.153320 1.525538 0.047813 -0.005528 259145.000000 0 0 1
13.672133 28.553745 0.310529 31.659754 1.124235 1.560988 0.075382 -0.008732 249762.000000 0 0 1
13.864833 27.186645 -0.008071 30.517984 1.099191 1.571061 0.051016 0.001567 499214.000000 0 0 1
14.967333 26.911045 -1.092971 30.812660 1.063222 1.606275 0.058371 -0.002553 440472.000000 0 0 1
14.602233 27.453945 -2.301271 31.180766 1.081970 1.644668 0.060379 -0.008051 482791.000000 0 0 1
15.694933 27.465045 -3.266471 31.801406 1.051633 1.673692 0.062297 -0.005744 966556.000000 0 0 1
15.250933 27.740445 -4.765971 32.013087 1.068128 1.720228 0.058538 -0.001515 172556.000000 0 0 1
14.384133 26.801345 -5.406771 30.894151 1.078226 1.746712 0.064104 -0.009148 -29374.000000 0 0 1
14.009333 27.356145 -6.688771 31.454089 1.097508 1.785084 0.049051 -0.005685 1126820.000000 0 0 1
12.719033 26.633945 -7.283471 30.400490 1.125270 1.812734 0.047200 -0.009445 1085170.000000 0 0 1
12.854933 25.259745 -7.713071 29.373381 1.100046 1.836499 0.055808 -0.014545 371418.000000 0 0 1
11.574333 24.786145 -8.127871 28.537352 1.133922 1.859610 0.042805 0.003628 407787.000000 0 0 1
11.668733 23.262545 -8.509271 27.380888 1.105861 1.886804 0.039292 -0.010040 84786.700000 0 0 1
12.326433 23.090545 -9.755871 27.933694 1.080452 1.927568 0.040785 -0.004741 180166.000000 0 0 1
12.293733 21.748645 -10.152471 26.966870 1.056309 1.956789 0.042505 -0.007995 -10727.000000 0 0 1
12.743733 21.527745 -11.598371 27.574785 1.036304 2.004920 0.050179 -0.000997 -49982.900000 0 0 1
12.351933 20.227545 -12.091171 26.606771 1.022583 2.042539 0.058623 -0.005136 -68885.300000 0 0 1
12.649033 19.932845 -13.483871 27.186966 1.005336 2.089746 0.053942 -0.000542 -991591.000000 0 0 1
14.062833 19.480545 -13.745071 27.679991 0.945529 2.090440 0.005236 -0.001580 -1123300.000000 0 0 1
14.904133 20.569645 -13.490471 28.761716 0.943771 2.059003 0.005188 0.010591 -559798.000000 0 0 1
16.198033 20.351245 -14.038871 29.557391 0.898546 2.065726 0.026838 0.016226 195917.000000 0 0 1
17.155033 21.529845 -13.754671 30.773696 0.898008 2.034163 -0.008326 0.017217 -497103.000000 0 0 1
17.052333 22.762445 -14.435471 31.895043 0.927844 2.040467 -0.012835 0.015687 348227.000000 0 0 1
15.883633 23.584945 -14.264771 31.812311 0.978102 2.035775 0.000262 0.013924 696681.000000 0 0 1
16.184433 24.953245 -14.869571 33.252135 0.995413 2.034402 -0.005825 0.016587 -338851.000000 0 0 1
16.333933 25.070445 -16.286571 34.067242 0.993352 2.069254 -0.015650 0.017761 626107.000000 0 0 1
15.128433 24.865345 -17.071971 33.743252 1.024213 2.101265 -0.012095 0.019075 582512.000000 0 0 1
15.278133 24.962445 -18.608971 34.681967 1.021567 2.137152 -0.014740 0.020279 80730.400000 0 0 1
15.916933 23.855145 -19.213671 34.519297 0.982402 2.161092 -0.016926 0.017070 10298.900000 0 0 1
15.651933 23.781045 -20.631571 35.159392 0.988700 2.197899 -0.008752 0.021644 -42440.600000 0 0 1
16.094433 22.448545 -21.226871 34.836016 0.948786 2.226020 -0.009472 0.018675 -37061.300000 0 0 1
15.053633 21.480845 -21.177271 33.712244 0.959538 2.250005 0.004901 0.022974 -6642.240000 0 0 1
15.398633 20.315045 -21.862171 33.582339 0.922200 2.279700 0.003159 0.016596 -682206.000000 0 0 1
14.328933 19.270445 -22.054771 32.604927 0.931423 2.313693 0.002519 0.014438 -804748.000000 0 0 1
14.081533 18.472045 -20.900871 31.246639 0.919460 2.303524 0.000263 0.012930 252587.000000 0 0 1
13.314333 17.282045 -21.119471 30.364002 0.914358 2.339972 0.001320 0.005325 559668.000000 0 0 1
11.772133 17.354245 -21.242771 29.849761 0.974754 2.362649 0.015560 0.000367 175242.000000 0 0 1
10.967133 17.355845 -20.056371 28.701244 1.007252 2.344512 0.016171 -0.005446 855186.000000 0 0 1
9.614233 17.571445 -20.508271 28.666676 1.070143 2.367999 0.009260 -0.002404 796165.000000 0 0 1
8.566633 17.227845 -19.427771 27.342716 1.109347 2.361045 0.012375 -0.015067 -287402.000000 0 0 1
8.475233 15.827545 -19.311671 26.368189 1.079174 2.392615 0.001344 -0.015684 513834.000000 0 0 1
7.194233 15.347645 -18.883671 25.375189 1.132458 2.410101 0.014006 -0.018417 458372.000000 0 0 1
6.923633 15.406645 -17.373071 24.230662 1.148448 2.370267 0.020300 -0.024419 -206443.000000 0 1 0
6.781133 16.759445 -16.982771 24.804783 1.186317 2.324929 0.032647 -0.022157 -308035.000000 0 1 0
6.247533 16.760945 -15.676171 23.784518 1.214005 2.290406 0.032825 -0.030883 -401339.000000 0 1 0
5.932233 18.170345 -15.164471 24.399058 1.255227 2.241476 0.037477 -0.021336 -671149.000000 0 1 0
6.953733 19.095945 -14.958471 25.234210 1.221574 2.205309 0.047167 -0.019703 -833694.000000 0 0 1
7.485433 19.640745 -16.126571 26.492581 1.206673 2.225243 0.050378 -0.011629 415308.000000 0 0 1
8.748033 20.534945 -15.772571 27.331045 1.168073 2.185962 0.040872 0.009690 582171.000000 0 0 1
8.541133 21.793645 -15.116771 27.864506 1.197284 2.144218 0.036331 0.005309 -201772.000000 0 0 1
8.300933 21.608145 -13.738071 26.917504 1.204021 2.106419 0.037062 -0.012371 -79855.300000 0 0 1
8.057733 22.979645 -13.002871 27.605539 1.233546 2.061248 0.036642 -0.006916 -370680.000000 0 0 1
6.758433 23.460345 -13.251971 27.779110 1.290312 2.068089 0.037862 -0.004304 -342259.000000 0 0 1
6.368733 24.642945 -12.558471 28.382225 1.317890 2.029155 0.026460 -0.005493 18786.500000 0 0 1
5.797033 24.359245 -11.185071 27.424154 1.337161 1.990900 0.015714 -0.000048 -1112250.000000 0 0 1
6.791933 24.010245 -10.289971 26.990845 1.295122 1.961933 0.009623 -0.000136 -112400.000000 0 0 1
6.223033 23.389545 -9.117871 25.863730 1.310760 1.931075 0.008449 -0.003582 1123520.000000 0 0 1
7.383633 23.240445 -8.042871 25.677307 1.263176 1.889387 0.010250 -0.005164 865167.000000 0 0 1
7.480733 24.437545 -7.309871 26.581745 1.273738 1.849382 0.003925 -0.002915 60178.000000 0 0 1
8.443133 24.304445 -6.294571 26.488000 1.236448 1.810730 0.007809 -0.001485 -262575.000000 0 0 1
8.413233 25.605445 -5.499671 27.507593 1.253337 1.772086 -0.000028 -0.001373 -39855.400000 0 0 1
8.893733 26.663745 -6.308271 28.807084 1.248849 1.791569 0.013417 -0.003577 39474.500000 0 0 1
8.910733 27.776245 -5.524771 29.689123 1.260364 1.757975 -0.000245 -0.000352 86389.400000 0 0 1
9.089733 29.082945 -6.367371 31.128513 1.267870 1.776801 0.010684 -0.001033 1000750.000000 0 0 1
10.388633 29.120245 -7.013171 31.703264 1.228121 1.793854 0.028635 -0.005787 908378.000000 0 0 1
10.482733 30.251145 -7.889671 32.973723 1.237222 1.812412 0.027775 -0.009336 204906.000000 0 0 1
11.857233 30.474845 -8.570971 33.804906 1.199737 1.827137 0.022801 -0.013783 12231.800000 0 0 1
12.949333 30.618245 -7.730071 34.130868 1.170681 1.799262 0.034825 -0.008678 -952937.000000 0 0 1
14.046533 31.142745 -8.420571 35.186385 1.147080 1.812455 0.030666 -0.006108 -133467.000000 0 0 1
15.346233 31.357245 -7.639171 35.737104 1.115665 1.786219 0.031677 -0.007186 157831.000000 0 0 1
16.148633 30.196745 -7.409271 35.035968 1.079713 1.783881 0.036732 -0.005515 30644.200000 0 0 1
17.412433 30.651145 -6.958671 35.932000 1.054175 1.765690 0.035381 0.003850 -15115.400000 0 0 1
18.468533 29.599545 -6.637871 35.514520 1.012955 1.758808 0.029190 0.001168 -364122.000000 0 0 1
18.228533 28.788045 -5.461171 34.508772 1.006324 1.729719 0.052595 -0.012242 257142.000000 0 0 1
19.291133 27.892445 -5.105871 34.295863 0.965713 1.720229 0.038385 -0.004689 149744.000000 0 0 1
19.478033 26.630345 -6.026071 33.539269 0.939291 1.751449 0.030819 0.014890 -66545.000000 0 0 1
19.933133 26.902845 -7.358571 34.281794 0.933125 1.787129 0.016513 0.021327 320441.000000 0 0 1
19.683233 25.844245 -8.257271 33.519206 0.919906 1.819703 0.006345 0.019554 -1204690.000000 0 0 1
20.130933 26.093845 -9.721271 34.360534 0.913688 1.857633 0.007555 0.013593 315574.000000 0 0 1
21.521133 26.190645 -9.997071 35.341908 0.882957 1.857579 -0.011925 0.021802 -79366.300000 0 0 1
22.189633 24.998145 -9.737571 34.815332 0.844846 1.854270 -0.007888 0.020649 -881909.000000 0 0 1
23.722833 25.249145 -9.701171 35.977838 0.816555 1.843819 -0.016523 0.020474 266643.000000 0 0 1
24.327833 25.432545 -10.951071 36.858971 0.807595 1.872458 -0.011277 0.019352 -1282550.000000 0 0 1
25.693933 25.463545 -10.819671 37.757590 0.780895 1.861427 -0.015751 0.018042 -961474.000000 0 0 1
26.595533 25.781445 -12.018671 38.941671 0.769857 1.884551 -0.006869 0.012362 38115.300000 0 0 1
26.487133 27.098745 -12.426971 39.879065 0.796811 1.887690 -0.000477 0.016155 -164971.000000 0 0 1
27.028033 27.162545 -13.720971 40.701148 0.787880 1.914647 -0.005626 0.014306 -144640.000000 0 0 1
26.600433 28.308145 -14.655771 41.517776 0.816489 1.931572 -0.006673 0.013093 -225155.000000 0 0 1
27.024833 29.596645 -14.257071 42.539006 0.830788 1.912564 -0.003773 0.004007 5482.660000 0 0 1
26.939933 30.517045 -15.376971 43.514380 0.847575 1.931975 -0.002692 0.013612 -192054.000000 0 0 1
27.318633 32.018645 -15.152771 44.733744 0.864442 1.916366 0.002011 -0.002094 607773.000000 0 0 1
28.688433 32.302645 -14.860471 45.687205 0.844587 1.902089 -0.004793 -0.004856 476766.000000 0 0 1
28.878933 33.694645 -14.754371 46.765514 0.862208 1.891776 -0.002774 -0.015371 -32162.200000 0 0 1
14.845433 -32.778849 -29.620910 46.607275 -1.145536 2.259507 0.048693 -0.007868 -651450.000000 0 0 1
15.794033 -33.215249 -28.748740 46.681841 -1.126936 2.234253 0.043917 -0.001323 -506124.000000 0 0 1
16.087333 -32.284749 -27.665560 45.458668 -1.108514 2.225075 0.042974 -0.005254 336463.000000 0 0 1
17.258833 -32.735549 -26.692270 45.628508 -1.085611 2.195665 0.008643 0.003569 1526760.000000 0 0 1
18.608333 -32.517149 -27.124890 46.253591 -1.051022 2.197451 0.011419 -0.002169 893812.000000 0 0 1
19.101133 -33.331349 -28.206590 47.659666 -1.050415 2.204128 -0.000573 0.007523 154377.000000 0 0 1
20.633533 -33.117449 -28.427790 48.276778 -1.013607 2.200432 0.002008 0.015194 584383.000000 0 0 1
20.979633 -31.789049 -28.773820 47.734907 -0.987448 2.217782 0.006374 0.000886 -704984.000000 0 0 1
22.320333 -31.542049 -28.501880 48.015156 -0.954963 2.206323 -0.008899 0.004885 -994331.000000 0 0 1
22.755233 -30.212349 -29.134190 47.742933 -0.925265 2.227148 -0.021059 0.005561 -130916.000000 0 0 1
22.890333 -30.356349 -30.520330 48.754136 -0.924706 2.247216 -0.018325 -0.002956 -52088.300000 0 0 1
23.237333 -29.191649 -31.232420 48.657888 -0.898483 2.267741 -0.009695 -0.008732 -930.369000 0 0 1
23.406333 -29.471949 -32.747650 49.888483 -0.899608 2.286856 -0.005640 0.009979 4760.540000 0 0 1
24.580833 -30.218349 -32.970840 51.033736 -0.887913 2.273207 -0.000385 -0.003693 -330004.000000 0 0 1
24.758133 -30.521849 -34.343696 52.192316 -0.889287 2.288985 -0.003835 0.000997 -382845.000000 0 0 1
26.043833 -31.307249 -34.557360 53.410076 -0.876917 2.274465 -0.012357 -0.000724 -440255.000000 0 0 1
27.185233 -30.513049 -34.521528 53.495971 -0.843011 2.272226 -0.002908 -0.009608 -485650.000000 0 0 1
28.412133 -31.195949 34.465154 54.481954 -0.832066 0.885894 0.013128 -0.000369 -196817.000000 0 0 1
29.613133 -30.298049 34.399020 54.572905 -0.796830 0.888816 0.014616 -0.012256 -727161.000000 0 0 1
29.639833 -29.582649 33.172055 53.423198 -0.784433 0.900868 0.010962 -0.002249 297752.000000 0 0 1
30.826833 -28.798549 33.112245 53.629011 -0.751394 0.905323 0.014094 -0.011787 328980.000000 0 0 1
30.904133 -27.998949 31.746979 52.410660 -0.736117 0.920107 0.008320 -0.010887 568567.000000 0 0 1
32.082933 -27.138349 31.697259 52.635737 -0.702098 0.924542 0.018561 -0.021114 1162970.000000 0 0 1
32.106833 -26.323549 30.530669 51.535422 -0.686742 0.936736 0.021937 -0.007331 -291739.000000 0 0 1
32.861833 -26.998649 29.372119 51.687024 -0.687762 0.966396 0.024893 -0.003591 -286526.000000 0 0 1
32.320733 -28.142749 28.668439 51.560872 -0.716409 0.981217 0.013862 -0.013146 30583.300000 0 0 1
31.144333 -27.875849 27.946249 50.279472 -0.730076 0.981449 0.021197 -0.011175 -110647.000000 0 0 1
30.544233 -29.062449 27.142719 50.142829 -0.760544 0.998804 0.004397 0.006467 114340.000000 0 0 1
29.325333 -28.730749 26.501989 48.864982 -0.775157 0.997563 0.013213 0.004381 98152.200000 0 0 1
28.832033 -29.692149 25.591449 48.660375 -0.800094 1.017000 0.000397 0.008991 -13219.400000 0 0 1
27.462033 -29.334549 24.988059 47.318940 -0.818355 1.014461 0.005656 0.007782 -201656.000000 0 0 1
26.407733 -29.144249 25.892649 47.086993 -0.834619 0.988564 -0.000853 0.007604 -337116.000000 0 0 1
25.309533 -28.635549 25.136879 45.743085 -0.846976 0.989003 -0.000790 0.009065 695800.000000 0 0 1
24.041533 -28.494449 26.054489 45.483682 -0.869955 0.960840 0.001850 0.004402 469817.000000 0 0 1
24.195333 -27.428349 27.002319 45.462663 -0.847943 0.934843 -0.018324 0.009111 -194070.000000 0 0 1
23.031133 -27.283149 27.772299 45.233880 -0.869707 0.909714 -0.011048 -0.004310 -310341.000000 0 0 1
23.247633 -26.236449 28.865679 45.409593 -0.845724 0.881916 -0.008084 0.007027 178955.000000 0 0 1
22.077433 -25.976249 29.638189 45.173010 -0.866355 0.855152 0.003654 -0.000915 305906.000000 0 0 1
22.215833 -24.903649 30.568479 45.256678 -0.842379 0.829226 0.009771 0.000293 -283459.000000 0 0 1
21.571433 -23.562049 30.244639 43.991307 -0.829475 0.812736 -0.004576 0.004138 -305733.000000 0 0 1
22.132633 -23.017749 29.057169 43.173942 -0.804999 0.832504 -0.010807 0.007303 316995.000000 0 0 1
21.546233 -21.779449 28.589759 41.904163 -0.790781 0.819940 0.000940 0.014136 72744.700000 0 0 1
22.020733 -20.427549 29.202729 41.892682 -0.747883 0.799474 0.003399 0.013880 -49863.300000 0 0 1
21.761433 -20.402249 30.566549 42.709784 -0.753173 0.773199 -0.002128 0.014097 -194251.000000 0 0 1
22.723833 -19.674549 31.262469 43.368219 -0.713602 0.765752 -0.002391 0.011412 -322394.000000 0 0 1
22.256533 -19.289449 32.687309 43.998821 -0.714102 0.733384 0.016869 0.000130 -72476.300000 0 0 1
22.264833 -20.255849 33.737328 45.213156 -0.738186 0.728485 -0.000294 0.003232 33821.500000 0 0 1
21.599933 -19.676249 -34.327428 45.078644 -0.738827 2.436422 0.006147 -0.006817 -237499.000000 0 0 1
21.376633 -20.669749 -33.118430 44.508756 -0.768588 2.409965 0.002573 0.002522 152148.000000 0 0 1
22.604533 -20.949649 -32.464420 44.763727 -0.747420 2.382178 0.004652 0.001828 153591.000000 0 0 1
22.433733 -22.019649 -31.499130 44.500927 -0.776083 2.357219 -0.003093 0.002977 241669.000000 0 0 1
23.651733 -22.203449 -30.554840 44.564513 -0.753825 2.326267 -0.018068 0.008340 723722.000000 0 0 1
24.868233 -22.667649 -31.143320 45.849293 -0.739138 2.317542 -0.013885 0.003118 96256.000000 0 0 1
25.690933 -23.121849 -30.078920 45.819050 -0.732815 2.286929 -0.009182 -0.002001 394487.000000 0 0 1
26.952033 -23.962549 -30.460900 47.206803 -0.726750 2.272166 -0.019351 0.009243 1088600.000000 0 0 1
27.933433 -23.338449 -31.338160 48.031658 -0.696017 2.281607 -0.010813 0.009035 735689.000000 0 0 1
27.606033 -23.556149 -32.683010 48.838144 -0.706405 2.303942 -0.011546 0.005350 -308209.000000 0 0 1
28.000533 -24.923749 -33.300910 50.141537 -0.727328 2.297137 -0.016377 -0.006680 -249869.000000 0 0 1
27.326233 -26.078349 -32.755680 49.997378 -0.762036 2.285175 0.000901 -0.007884 101186.000000 0 0 1
27.457833 -27.251849 -33.545490 51.204450 -0.781633 2.285149 -0.002154 -0.011983 87381.800000 0 0 1
26.668533 -27.275749 34.287255 51.291256 -0.796654 0.838631 0.001308 -0.004589 1610.800000 0 0 1
27.473833 -26.811549 33.190395 50.747147 -0.773199 0.857890 -0.019628 -0.000502 222071.000000 0 0 1
26.829333 -27.004649 31.947469 49.696126 -0.788655 0.872575 -0.015591 0.003727 -642692.000000 0 0 1
27.617833 -26.451549 30.764029 49.080084 -0.763831 0.893340 -0.018941 -0.001918 -427281.000000 0 0 1
27.864333 -25.077349 30.571759 48.372791 -0.732804 0.886661 -0.035152 0.009524 46033.600000 0 0 1
28.570033 -24.532549 31.674299 49.207255 -0.709512 0.871484 -0.029094 0.008404 -2048320.000000 0 0 1
29.027833 -23.082949 31.486599 48.650216 -0.671808 0.866886 -0.019131 0.022461 -398616.000000 0 0 1
30.292833 -22.861649 30.922389 48.954110 -0.646495 0.887103 -0.011040 0.015568 -188307.000000 0 0 1
31.328933 -23.041149 31.878009 50.285227 -0.634130 0.884154 -0.001530 0.003042 -973356.000000 0 0 1
32.666233 -22.449949 31.463349 50.606574 -0.602119 0.899854 0.015704 -0.005970 -503230.000000 0 0 1
33.158433 -22.938249 30.221539 50.388355 -0.605186 0.927580 0.015570 -0.004381 -292074.000000 0 0 1
34.244733 -22.183249 29.788869 50.519056 -0.574817 0.940163 0.015894 -0.003549 -441227.000000 0 0 1
34.602933 -22.491249 28.328069 50.056955 -0.576362 0.969252 0.015407 -0.000222 -123948.000000 0 0 1
-34.997736 -23.714049 28.152019 50.791080 0.595526 0.983310 0.024109 -0.002233 308900.000000 0 0 1
-34.630336 -23.831349 26.773679 49.839976 0.602738 1.003691 0.009464 0.009156 -52802.200000 0 0 1
-34.220836 -25.302349 26.390549 50.077296 0.636672 1.015734 0.005684 -0.006047 -625265.000000 0 0 1
34.945133 -26.132649 26.434029 51.017992 -0.642104 1.026131 0.013464 0.001298 -146029.000000 0 0 1
35.144633 -27.388849 25.874779 51.524736 -0.662002 1.044677 0.006555 0.009402 -73372.900000 0 0 1
-34.490836 -28.451549 26.747479 52.101209 0.689742 1.031683 0.008015 0.000053 -762822.000000 0 0 1
-34.382436 -29.736049 26.127939 52.431419 0.713059 1.049129 0.009743 0.001576 138926.000000 0 0 1
-33.499736 -30.662549 26.756489 52.709903 0.741208 1.038379 0.021369 -0.008776 -341987.000000 0 0 1
-32.031636 -30.283749 26.648309 51.509839 0.757356 1.027052 0.024741 -0.001511 -1534870.000000 0 0 1
-31.552436 -30.105349 25.359399 50.447868 0.761933 1.044094 0.018400 -0.001283 246023.000000 0 0 1
-30.288436 -29.435649 25.366859 49.267883 0.771120 1.029933 -0.005641 0.002105 680910.000000 0 0 1
-29.631136 -29.415549 23.928929 48.123512 0.781747 1.050382 -0.016308 0.002446 3818.910000 0 0 1
-29.464736 -30.711849 23.443929 48.590185 0.806119 1.067309 -0.010449 -0.004148 381536.000000 0 0 1
-28.976436 -30.746349 22.114629 47.686776 0.815025 1.088576 -0.010885 -0.010570 -479120.000000 0 0 1
-29.035436 -32.180949 21.454029 48.362644 0.836737 1.111176 -0.005407 -0.012651 -92123.600000 0 0 1
-28.038236 -33.105949 21.867629 48.583328 0.868091 1.103913 -0.003503 -0.019978 845818.000000 0 0 1
-26.797836 -32.870349 21.157529 47.394355 0.886820 1.108042 0.002309 -0.014608 520640.000000 0 0 1
-25.939736 -34.174749 21.165529 47.841018 0.921540 1.112508 -0.002121 -0.008566 -376967.000000 0 0 1
-26.236236 34.091645 20.138729 47.498934 -0.914882 1.132958 -0.011054 -0.007051 845849.000000 0 0 1
-27.408736 33.257645 20.324729 47.648760 -0.881512 1.130118 -0.007745 -0.009923 723778.000000 0 0 1
-27.386436 32.199245 21.481829 47.416002 -0.865994 1.100612 -0.004585 -0.009107 -571723.000000 0 0 1
-26.496636 31.149445 21.319229 46.117992 -0.865937 1.090236 -0.007893 -0.005779 -375725.000000 0 0 1
-26.601836 30.125245 22.334629 45.978514 -0.847430 1.063561 -0.003111 -0.010661 -85037.300000 0 0 1
-25.583536 28.974345 22.176929 44.562834 -0.847469 1.049903 0.000737 -0.009265 223060.000000 0 0 1
-24.229936 29.306345 22.466629 44.166742 -0.879937 1.037148 0.006128 -0.007054 208547.000000 0 0 1
-23.454336 28.297045 21.838429 42.752142 -0.878703 1.034664 0.006040 -0.011686 -374030.000000 0 0 1
-21.955936 28.603545 21.711829 42.090729 -0.916129 1.028815 0.003555 0.003550 -561178.000000 0 0 1
-21.305236 28.329745 22.904529 42.203139 -0.925988 0.997123 0.009147 -0.003680 263818.000000 0 0 1
-20.001236 28.899445 22.880029 41.937133 -0.965394 0.993716 0.024206 -0.011233 189720.000000 0 0 1
-19.426436 28.984545 24.308079 42.524969 -0.980328 0.962319 0.011749 -0.009332 -466102.000000 0 0 1
-19.225936 27.762545 24.934249 41.977521 -0.965113 0.934786 0.008267 -0.012717 185799.000000 0 0 1
-19.054636 27.815645 26.359379 42.797268 -0.970186 0.907252 0.012738 -0.014784 -682996.000000 0 0 1
-17.744636 28.307545 26.941449 42.918887 -1.010866 0.892163 0.006588 0.000528 -879330.000000 0 0 1
-17.514236 29.746345 26.882509 43.752289 -1.038663 0.909139 -0.004909 -0.001701 -467808.000000 0 0 1
-16.310236 30.130045 27.468369 43.913036 -1.074635 0.895002 -0.000842 -0.001015 -835177.000000 0 0 1
-16.155136 30.191445 29.044959 44.901241 -1.079472 0.867332 -0.006758 0.009896 -634593.000000 0 0 1
-16.171636 28.911645 29.660459 44.465131 -1.060805 0.840554 0.000489 0.007413 207467.000000 0 0 1
-16.423236 28.999445 31.052929 45.551892 -1.055503 0.820707 -0.002594 0.016580 -337519.000000 0 0 1
-16.095936 27.751145 31.906849 45.246571 -1.045205 0.788123 -0.000962 0.018477 270501.000000 0 0 1
-14.710536 27.610445 32.230349 44.916945 -1.081263 0.770512 0.004902 0.027477 627438.000000 0 0 1
-14.378036 26.410145 32.842749 44.529427 -1.072252 0.741359 0.013190 0.024199 -117538.000000 0 0 1
-14.762836 26.406145 34.356239 45.777472 -1.061018 0.721970 0.020940 0.019477 1689200.000000 0 0 1
-16.182936 26.131845 -34.513891 46.216549 -1.016321 2.414013 0.031329 0.005291 1690950.000000 0 0 1
-16.744836 27.097545 -33.608680 46.305613 -1.017285 2.382995 0.030281 -0.003023 -496954.000000 0 0 1
-18.115536 26.660245 -33.147910 46.235541 -0.973964 2.370193 0.018113 -0.003056 -688863.000000 0 0 1
-19.134836 26.796945 -34.112310 47.411685 -0.950691 2.373866 0.006712 -0.004577 -973774.000000 0 0 1
-20.237236 26.046045 -33.763080 47.200506 -0.910251 2.367867 0.015481 -0.010186 -1120070.000000 0 0 1
-21.319636 26.192245 34.323039 48.152171 -0.887596 0.777309 0.018862 -0.023515 -914350.000000 0 0 1
-21.127536 25.470645 33.098616 46.804326 -0.878333 0.785309 0.027785 -0.021570 -46579.400000 0 0 1
-21.174136 24.059245 33.197648 46.144069 -0.849095 0.767808 0.034665 -0.019619 -118654.000000 0 0 1
-21.555536 23.403045 31.810269 44.991520 -0.826469 0.785509 0.043133 -0.022935 249701.000000 0 0 1
-22.927236 23.287445 31.477799 45.374167 -0.793192 0.804130 0.043550 -0.019817 -63543.400000 0 0 1
-23.136136 22.700445 30.282649 44.357974 -0.775893 0.819362 0.050648 -0.020712 97117.500000 0 0 1
-24.626136 22.370745 30.057999 44.837263 -0.737445 0.836076 0.046555 -0.027818 -177808.000000 0 0 1
-25.083836 21.239945 30.730449 44.996606 -0.702609 0.819002 0.060546 -0.033404 -584239.000000 0 0 1
-26.369936 21.010145 30.232889 45.286061 -0.672754 0.839818 0.053512 -0.027152 -620078.000000 0 0 1
-26.827936 19.656345 30.780749 45.316273 -0.632325 0.824066 0.071964 -0.025616 -572929.000000 0 0 1
-27.450536 19.580645 32.031949 46.507842 -0.619601 0.811043 0.070016 -0.026010 71549.700000 0 0 1
-27.695036 18.322145 32.580959 46.521338 -0.584464 0.794916 0.054926 -0.015343 -174651.000000 0 0 1
-28.625136 17.308445 31.883289 46.211739 -0.543838 0.809391 0.029492 -0.012210 29233.500000 0 0 1
-30.005836 17.617345 31.974259 47.255415 -0.530903 0.827625 0.030599 -0.009899 -212976.000000 0 0 1
-30.808336 16.556145 31.617409 47.147853 -0.493112 0.835777 0.025508 0.004505 -591828.000000 0 0 1
-32.303936 16.884245 31.659219 48.279687 -0.481617 0.855626 0.010736 0.010542 -575473.000000 0 0 1
-32.698536 17.120845 32.988569 49.503164 -0.482346 0.841436 0.012150 0.008820 479570.000000 0 0 1
-34.115136 17.021845 33.069589 50.469629 -0.462810 0.856299 0.011821 0.003448 88403.700000 0 0 1
-34.668736 17.531045 34.387427 51.882116 -0.468176 0.846245 0.018299 0.010645 899592.000000 0 0 1
34.193533 17.774645 34.407537 51.662504 0.479381 0.841955 0.011099 -0.000457 1221040.000000 0 0 1
33.728733 18.457245 -33.609320 51.067443 0.500711 2.289137 0.005905 -0.003547 -547191.000000 0 0 1
32.234233 18.376345 -33.365760 49.899998 0.518135 2.303191 0.006146 -0.006452 -598116.000000 0 0 1
31.866033 16.998045 -33.068680 48.968512 0.490026 2.312174 0.005030 0.003201 -555937.000000 0 0 1
30.539133 17.016145 -32.644960 47.831801 0.508348 2.321967 0.000999 0.007123 -814661.000000 0 0 1
29.948633 15.602045 -32.753480 47.043967 0.480275 2.340930 -0.003207 0.005252 -395570.000000 0 0 1
29.348033 15.436045 -34.039970 47.521554 0.484203 2.369290 0.005457 -0.002707 -5937.700000 0 0 1
28.792133 14.157645 -34.301351 46.968165 0.457001 2.389573 0.002883 -0.001209 -681196.000000 0 0 1
29.722833 12.955745 -34.284723 47.188350 0.411054 2.384085 0.003439 0.003600 -335831.000000 0 0 1
30.144033 12.512145 -33.011130 46.421452 0.393437 2.361883 0.005709 0.010280 -484802.000000 0 0 1
31.164833 11.603745 -33.140270 46.948602 0.356432 2.354467 0.023293 0.002836 -1020330.000000 0 0 1
17.470533 -21.805255 10.227880 29.753961 -0.895320 1.219891 -0.010774 -0.001261 54958.500000 0 0 1
16.811033 -22.972755 10.653480 30.394982 -0.939057 1.212690 -0.008687 -0.004300 -185305.000000 0 0 1
17.693833 -23.960455 11.121680 31.794133 -0.934722 1.213436 -0.031061 -0.005689 -520351.000000 0 0 1
17.015933 -25.187775 11.612480 32.539448 -0.976660 1.205877 -0.025085 0.001800 -480236.000000 0 0 1
16.472233 -25.983415 10.637180 32.551834 -1.005786 1.237905 -0.017148 -0.003317 -592681.000000 0 0 1
15.270533 -26.591315 11.013580 32.581991 -1.049513 1.225977 -0.004779 -0.007724 -134203.000000 0 0 1
14.592533 -27.303495 9.792080 32.470105 -1.079965 1.264455 -0.012785 -0.014526 -7451.040000 0 0 1
14.265933 -26.409345 8.761580 31.268765 -1.075520 1.286791 -0.019070 -0.004407 159296.000000 0 0 1
13.919533 -26.953165 7.521480 31.253786 -1.094088 1.327752 0.001956 -0.001400 -361891.000000 0 0 1
13.959833 -25.893455 6.387080 30.102205 -1.076340 1.356991 0.011886 0.004440 -119334.000000 0 0 1
12.911933 -24.925355 6.470980 28.807376 -1.092834 1.344234 0.008701 -0.002073 269884.000000 0 0 1
12.806533 -24.117255 5.316080 27.819238 -1.082649 1.378520 0.022430 0.003739 -184017.000000 0 0 1
11.981433 -22.878355 5.584680 26.422765 -1.088368 1.357832 0.027034 -0.002618 -184838.000000 0 0 1
11.455733 -22.289255 4.401180 25.444353 -1.096045 1.396949 0.026648 -0.002949 -35374.300000 0 0 1
10.723433 -21.106455 4.601980 24.117477 -1.100718 1.378804 0.034912 -0.004860 228599.000000 0 1 0
9.975233 -20.626855 3.333380 23.153485 -1.120351 1.426325 0.029871 -0.009873 -427249.000000 0 1 0
10.856533 -19.873255 2.543680 22.787735 -1.070807 1.458938 0.016020 -0.000648 -96693.400000 0 1 0
10.275633 -19.637355 1.289480 22.200836 -1.088707 1.512681 0.011401 0.012587 -100205.000000 0 1 0
11.263033 -19.163155 0.209680 22.228954 -1.039437 1.561363 -0.002970 0.012741 -294588.000000 0 1 0
11.785333 -17.928955 0.508580 21.461597 -0.989282 1.547097 0.001144 0.009098 3478.410000 0 1 0
12.752333 -17.577955 -0.492220 21.722080 -0.943178 1.593458 0.024646 0.008325 -460767.000000 0 1 0
13.787733 -16.587655 -0.064320 21.569794 -0.877316 1.573778 0.018028 0.007332 -813906.000000 0 1 0
14.792333 -17.183955 0.707580 22.684843 -0.860053 1.539600 0.016893 0.002010 -212779.000000 0 1 0
16.034933 -16.511155 0.569580 23.023070 -0.800029 1.546054 0.016981 0.001950 -18930.600000 0 1 0
17.117933 -17.126355 1.439980 24.257148 -0.785644 1.511398 0.007961 0.006076 -338141.000000 0 1 0
17.421733 -18.453155 1.042680 25.399270 -0.814141 1.529733 0.003496 0.012641 382696.000000 0 0 1
18.422733 -19.171355 1.790280 26.648509 -0.805309 1.503564 -0.007795 0.015185 610577.000000 0 0 1
18.857233 -20.449455 1.130780 27.839794 -0.825884 1.530168 -0.012217 0.011379 7598.800000 0 0 1
17.879633 -21.431155 1.405780 27.945517 -0.875498 1.520471 -0.006246 0.018660 210320.000000 0 0 1
18.091333 -22.512555 0.550880 28.886241 -0.893858 1.551724 -0.000880 0.015770 -584856.000000 0 0 1
17.069833 -23.644855 0.646780 29.169791 -0.945506 1.548622 0.005601 0.011839 -587106.000000 0 0 1
17.121633 -24.426955 1.832980 29.886222 -0.959445 1.509426 0.003627 0.011629 -368661.000000 0 0 1
15.990633 -25.233955 1.969680 29.938812 -1.005969 1.504959 0.008289 0.008249 -494634.000000 0 0 1
16.067533 -26.041855 3.272580 30.774236 -1.017979 1.464253 0.007244 0.006840 217523.000000 0 0 1
16.967733 -27.123235 3.333980 32.166586 -1.011781 1.466963 0.004645 0.005098 844617.000000 0 0 1
18.318233 -26.760475 3.672280 32.636886 -0.970531 1.458038 0.007755 0.005416 899456.000000 0 0 1
19.460733 -27.813925 3.754480 34.153048 -0.960288 1.460643 0.022724 0.006687 336574.000000 0 0 1
19.844833 -28.361795 2.542680 34.708415 -0.960270 1.497472 0.004121 0.015341 -833981.000000 0 0 1
20.729833 -29.405025 2.709280 36.079380 -0.956739 1.495633 0.007735 0.018830 -736771.000000 0 0 1
20.187633 -30.802125 3.017680 36.951561 -0.990636 1.489039 0.021543 0.019256 -215253.000000 0 0 1
19.769933 -30.989795 4.344780 37.014791 -1.002939 1.453146 0.044161 0.010813 39905.600000 0 0 1
19.114533 -32.248585 4.533380 37.760934 -1.035743 1.450451 0.037110 -0.001761 -172843.000000 0 0 1
19.006933 -32.600615 6.048380 38.218405 -1.042953 1.411870 0.033615 -0.003758 -134592.000000 0 0 1
20.145133 -33.216375 6.595980 39.403818 -1.025624 1.402610 0.025200 -0.013935 -90430.400000 0 0 1
19.722933 -33.809865 7.812480 39.914107 -1.042711 1.373792 0.019850 -0.009810 -107782.000000 0 0 1
20.689833 34.440578 8.509080 41.068565 1.029833 1.362092 0.027921 -0.011454 276991.000000 0 0 1
21.817933 -34.037761 9.035480 41.427422 -1.000780 1.350925 0.033871 -0.012721 431033.000000 0 0 1
22.906633 34.261258 9.215680 42.231226 0.981465 1.350807 0.043096 -0.016904 39735.700000 0 0 1
24.012733 -34.274626 10.051580 43.039466 -0.959669 1.335076 0.040214 -0.008923 -465052.000000 0 0 1
24.614633 -33.113355 9.521380 42.344198 -0.931568 1.344000 0.026318 -0.007177 115007.000000 0 0 1
25.106233 -32.252865 10.553680 42.213154 -0.909354 1.318106 0.017211 0.001573 -100979.000000 0 0 1
25.865633 -31.093155 9.972280 41.656472 -0.876919 1.329055 0.009860 -0.003279 -179538.000000 0 0 1
24.986033 -30.033125 9.598980 40.229726 -0.876875 1.329868 0.011057 -0.010947 317575.000000 0 0 1
25.449533 -29.409155 8.426280 39.794212 -0.857452 1.357435 0.015637 -0.012144 -185874.000000 0 0 1
25.061633 -27.921225 8.484680 38.466480 -0.839318 1.348394 0.011757 -0.006949 -59809.000000 0 0 1
25.666633 -27.260015 9.567480 38.644808 -0.815495 1.320620 0.007315 -0.015111 -176422.000000 0 0 1
25.255633 -25.867965 9.644380 37.416743 -0.797375 1.310098 0.015148 -0.020201 95244.100000 0 0 1
26.050533 -24.943155 10.621480 37.597967 -0.763686 1.284396 0.027630 -0.034517 -144898.000000 0 0 1
27.370833 -24.750555 10.193080 38.283826 -0.735168 1.301296 0.038987 -0.028630 -924450.000000 0 0 1
28.108533 -23.933555 11.076580 38.543421 -0.705346 1.279307 0.035037 -0.033153 -795730.000000 0 0 1
29.493433 -23.850055 10.477080 39.350437 -0.679997 1.301295 0.054353 -0.037297 -839497.000000 0 0 1
29.468933 -23.239255 9.239280 38.650295 -0.667752 1.329411 0.058208 -0.032767 47799.100000 0 0 1
30.768133 -22.924355 8.731280 39.350214 -0.640337 1.347048 0.051715 -0.038264 392569.000000 0 0 1
30.714033 -22.256455 7.314580 38.629066 -0.627069 1.380292 0.044978 -0.017973 -576823.000000 0 0 1
30.233933 -20.933455 7.383380 37.507527 -0.605595 1.372652 0.037572 -0.000761 -155716.000000 0 0 1
30.458033 -20.280955 6.148080 37.105361 -0.587448 1.404336 0.019611 0.000685 -267452.000000 0 0 1
30.267733 -18.772455 6.158180 36.145040 -0.555150 1.399587 0.027038 -0.004812 -212096.000000 0 0 1
31.145233 -18.095655 7.024180 36.699011 -0.526338 1.378208 0.023908 0.005880 -55241.000000 0 0 1
30.804233 -16.730555 7.054680 35.757248 -0.497550 1.372200 0.020153 0.013597 98511.100000 0 0 1
31.056633 -15.956355 8.378280 35.907037 -0.474613 1.335293 0.014306 -0.005802 -316846.000000 0 0 1
32.399933 -15.591055 8.510480 36.949492 -0.448500 1.338382 0.000461 0.005288 -551084.000000 0 0 1
32.640233 -15.125455 9.831980 37.293861 -0.433941 1.304007 0.001840 -0.000735 -409008.000000 0 0 1
34.131833 -14.988155 10.092980 38.619879 -0.413774 1.306384 -0.011668 -0.000179 -856010.000000 0 0 1
34.838733 -14.034755 9.450580 38.730158 -0.382960 1.324297 -0.007256 0.004659 119752.000000 0 0 1
-34.092636 -14.462555 9.270480 38.176107 0.401204 1.325509 -0.008738 0.000229 643586.000000 0 0 1
-33.303836 -13.437255 8.443080 36.891610 0.383498 1.339888 0.003434 -0.001244 -575102.000000 0 0 1
-33.716636 -13.323055 7.086480 36.939593 0.376316 1.377760 0.020529 -0.006764 -197460.000000 0 0 1
-32.754936 -12.854955 6.177480 35.725299 0.373988 1.397007 0.019622 -0.005577 -546419.000000 0 0 1
-31.849936 -13.942255 5.601380 35.216194 0.412619 1.411061 0.012862 0.001504 -583258.000000 0 0 1
-31.038036 -14.506455 6.552480 34.881684 0.437210 1.381825 0.016348 0.002920 -513353.000000 0 0 1
-30.134036 -15.458755 6.025180 34.399652 0.473993 1.394736 0.008424 0.008311 512867.000000 0 0 1
-29.280436 -16.127755 7.163380 34.187168 0.503460 1.359698 -0.002019 -0.004397 144415.000000 0 0 1
-30.112436 -16.998155 7.940480 35.478829 0.513900 1.345075 0.009104 -0.014419 203131.000000 0 0 1
-30.259636 -16.581355 9.292580 35.734283 0.501283 1.307726 -0.013946 -0.007895 291696.000000 0 0 1
-31.243236 -17.431455 10.148880 37.188643 0.508909 1.294387 -0.029839 -0.006109 -726673.000000 0 0 1
-32.605836 -17.312355 9.872180 38.214109 0.488107 1.309494 0.001067 -0.009344 -538365.000000 0 0 1
-33.439936 -18.127455 10.662680 39.503502 0.496750 1.297489 0.019169 -0.017525 -198226.000000 0 0 1
-33.427636 -19.606955 10.261280 40.089068 0.530471 1.311954 0.018706 -0.013238 -369209.000000 0 0 1
-32.191636 -20.299455 10.519280 39.484485 0.562603 1.301124 0.021622 -0.010645 212424.000000 0 0 1
-31.944636 -20.632455 11.874880 39.839312 0.573475 1.268127 -0.004201 -0.016458 -72453.600000 0 0 1
-33.010936 -21.525255 12.623080 41.381163 0.577825 1.260812 0.035905 -0.032562 443980.000000 0 0 1
-33.080936 -22.890355 12.101180 42.008990 0.605303 1.278594 0.029016 -0.030907 218333.000000 0 0 1
-34.456836 -23.134755 11.822380 43.153900 0.591281 1.293290 0.041735 -0.031706 500813.000000 0 0 1
-34.814436 -24.652755 11.746380 44.246816 0.616154 1.302101 0.034543 -0.019021 -263502.000000 0 0 1
-34.606136 -25.357995 12.947080 44.813385 0.632376 1.277707 0.044111 -0.009075 143353.000000 0 0 1
34.864233 -26.476065 13.205880 45.726273 -0.649493 1.277820 0.042943 -0.008032 113026.000000 0 0 1
33.555533 -26.212275 13.985980 44.818130 -0.663148 1.253435 0.049093 -0.016187 420034.000000 0 0 1
32.617333 -25.416685 13.263880 43.426131 -0.661953 1.260401 0.042562 -0.020411 295967.000000 0 0 1
31.447533 -25.048725 13.988080 42.568208 -0.672618 1.235971 0.025899 0.004380 31849.800000 0 0 1
31.295933 -23.544355 14.346380 41.708401 -0.644980 1.219656 0.036679 0.000257 178013.000000 0 0 1
32.227433 -23.001655 15.313480 42.452164 -0.619881 1.201753 0.040816 -0.007838 -52366.300000 0 0 1
33.341233 -22.486255 14.619480 42.790171 -0.593356 1.222119 0.039694 -0.021050 -584677.000000 0 0 1
34.433133 -22.138355 15.639880 43.821836 -0.571394 1.205852 0.035551 -0.016357 -380772.000000 0 0 1
34.325933 -20.861855 16.322680 43.358005 -0.546104 1.184821 0.032203 -0.002408 170873.000000 0 0 1
33.308533 -20.772755 17.315880 42.904609 -0.557626 1.155359 0.027379 -0.005414 230499.000000 0 0 1
33.298033 -19.400855 18.044180 42.552845 -0.527559 1.132893 0.019993 0.005574 -394778.000000 0 0 1
32.895633 -18.333455 17.230480 41.414100 -0.508447 1.141695 0.018508 -0.003403 92481.800000 0 0 1
32.634233 -17.126055 17.911880 40.977193 -0.483281 1.118404 0.001604 0.003971 -119221.000000 0 0 1
33.869933 -16.246755 18.154880 41.722046 -0.447260 1.120604 -0.005630 -0.003958 -492692.000000 0 0 1
34.616433 -16.473455 19.281480 42.912092 -0.444170 1.104787 -0.010421 0.016095 -224997.000000 0 0 1
-34.529136 -15.661755 19.382380 42.582020 0.425828 1.098225 -0.011938 0.005787 -19809.500000 0 0 1
-34.056936 -15.478955 20.863480 42.834072 0.426592 1.062057 -0.022084 0.018251 -131540.000000 0 0 1
-33.541436 -16.663655 21.474680 43.172528 0.461091 1.050179 -0.006057 0.016077 199916.000000 0 0 1
-33.364236 -16.474055 22.902580 43.693191 0.458646 1.019058 -0.002952 0.016985 354143.000000 0 0 1
-32.488736 -17.600155 23.592180 43.839188 0.496472 1.002552 0.008531 0.015509 -75150.100000 0 0 1
-33.175036 -18.834055 23.644380 44.881637 0.516344 1.015946 -0.004562 0.014129 634487.000000 0 0 1
-32.406536 -19.904955 24.204280 45.080350 0.550815 1.004021 0.007712 0.012709 -152860.000000 0 0 1
-31.192036 -20.554455 23.509180 44.137402 0.582652 1.009084 -0.000633 0.013413 29999.700000 0 0 1
-30.047136 -19.716655 23.435080 42.904310 0.580715 0.992955 0.003105 0.019576 540692.000000 0 0 1
-28.922036 -20.580955 23.164180 42.386780 0.618470 0.992623 0.002555 0.017984 27031.000000 0 0 1
-27.625836 -19.784255 23.221980 41.156578 0.621483 0.971290 0.015484 0.024471 -677496.000000 0 0 1
-27.080236 -19.485755 24.438080 41.355212 0.623731 0.938584 0.026168 0.004613 967678.000000 0 0 1
-25.918236 -18.614655 24.388980 40.163201 0.622841 0.918205 0.040341 0.006822 790596.000000 0 0 1
-25.415836 -18.101055 25.736780 40.447432 0.618864 0.881101 0.043449 -0.009791 102175.000000 0 0 1
-24.178636 -17.375555 25.512580 39.209796 0.623122 0.862332 0.044231 -0.009079 749317.000000 0 0 1
-23.703736 -16.849355 26.744580 39.510004 0.617958 0.827245 0.046072 -0.014911 -73946.800000 0 0 1
-22.839536 -17.799855 27.593380 39.998423 0.662018 0.809498 0.024710 -0.010165 -523032.000000 0 0 1
-23.476136 -19.021255 27.991080 41.187834 0.680952 0.823585 0.034811 -0.007900 322948.000000 0 0 1
-22.551036 -19.734455 28.795580 41.559396 0.718888 0.805324 0.023941 -0.002584 -88429.900000 0 0 1
-23.237736 -20.970155 29.390380 42.936397 0.734149 0.816865 0.023422 0.004279 -265304.000000 0 0 1
-24.273136 -20.629055 30.292280 43.958677 0.704420 0.810539 0.026555 -0.007703 356345.000000 0 0 1
-24.756336 -21.701155 31.077580 45.272865 0.719730 0.814200 0.017706 -0.001229 -201202.000000 0 0 1
-25.942136 -21.427655 32.032880 46.456907 0.690382 0.809973 0.025832 -0.005317 -555540.000000 0 0 1
-25.616736 -20.681555 33.224280 46.773889 0.679204 0.780848 0.028432 -0.007271 855815.000000 0 0 1
-26.746836 -20.521155 34.087280 47.942191 0.654442 0.779866 0.022529 -0.006303 677359.000000 0 0 1
-27.990836 -19.677155 33.657480 47.994826 0.612727 0.793615 0.022140 -0.006357 282392.000000 0 0 1
-28.752836 -20.401255 32.691580 48.079894 0.617099 0.823112 0.034352 -0.009633 -563342.000000 0 0 1
-29.924136 -19.790255 32.297380 48.272444 0.584311 0.837847 0.029690 -0.019493 -714593.000000 0 0 1
-30.675336 -20.422655 31.108280 48.226405 0.587380 0.869712 0.036890 -0.011967 -254259.000000 0 0 1
-31.580436 -19.534755 30.511580 48.061285 0.553963 0.882985 0.036574 -0.018349 122596.000000 0 0 1
-32.462836 -20.234155 29.668180 48.409273 0.557377 0.911119 0.027714 -0.011658 -16992.100000 0 0 1
-33.004236 -19.326055 28.530180 47.715272 0.529736 0.929886 0.009681 0.000916 -552941.000000 0 0 1
-33.955436 -19.867955 27.684480 48.105485 0.529405 0.957587 0.010507 0.007915 -229355.000000 0 0 1
-34.504636 -18.819555 26.896280 47.625156 0.499321 0.970667 0.001692 0.020004 -566997.000000 0 0 1
34.557433 -19.286255 26.108880 47.411491 -0.509035 0.987610 -0.009007 0.022700 -530658.000000 0 0 1
33.467133 -19.466755 26.980980 47.190856 -0.526831 0.962169 -0.009922 0.026109 263402.000000 0 0 1
32.295733 -19.759255 26.199380 46.041829 -0.549067 0.965465 -0.000330 0.024489 562883.000000 0 0 1
31.113433 -20.317955 27.024380 45.947602 -0.578501 0.942019 0.002247 0.020715 49215.000000 0 0 1
30.576733 -19.382255 27.943080 45.732091 -0.564966 0.913452 0.004337 0.024780 -564005.000000 0 0 1
29.690133 -19.972255 28.782680 45.922082 -0.592161 0.893393 0.009339 0.021618 -742970.000000 0 0 1
-29.490317 -5.659455 34.555764 45.780007 0.189604 0.715413 -0.005890 -0.002194 -42101.500000 0 0 1
-29.997167 -5.628355 33.222260 45.113490 0.185473 0.743040 -0.002829 0.007245 367371.000000 0 0 1
-29.329997 -4.688355 32.413769 43.964552 0.158508 0.741775 -0.002812 0.003399 -257013.000000 0 0 1
-30.030687 -4.414555 31.072159 43.437421 0.145956 0.773698 -0.009455 -0.004099 -243387.000000 0 0 1
-29.917727 -5.462755 30.152729 42.826384 0.180603 0.789685 -0.016348 0.001641 836912.000000 0 0 1
-28.616177 -5.779955 29.588029 41.566151 0.199301 0.778696 -0.007346 -0.004686 879241.000000 0 0 1
-28.460147 -6.858755 28.504889 40.860142 0.236486 0.798725 0.000061 -0.003058 56200.900000 0 0 1
-29.102157 -6.542455 27.287559 40.427097 0.221134 0.829856 -0.014800 -0.009784 50455.700000 0 0 1
-28.479207 -7.244555 26.211009 39.377224 0.249097 0.842447 0.010608 -0.007545 73161.800000 0 0 1
-28.936237 -6.936755 24.723519 38.686907 0.235285 0.877512 -0.009880 0.005386 -90804.900000 0 0 1
-28.545567 -5.629355 24.310879 37.915140 0.194708 0.874746 0.003831 -0.005783 223418.000000 0 0 1
-29.371267 -5.272555 23.231329 37.817533 0.177622 0.909297 0.012491 -0.000767 -12993.000000 0 0 1
-28.843357 -3.962155 22.540229 36.819829 0.136514 0.911986 0.017213 0.000854 552354.000000 0 0 1
-27.611317 -4.129355 21.845429 35.449389 0.148453 0.906833 0.005809 0.010768 554593.000000 0 0 1
-26.906707 -2.863055 21.788929 34.740832 0.106008 0.892863 0.010937 0.011328 371806.000000 0 0 1
-25.561397 -2.901655 21.045529 33.237312 0.113033 0.885129 0.004128 0.015334 -444680.000000 0 0 1
-25.748047 -3.284355 19.668929 32.567095 0.126872 0.922347 0.009740 0.003101 -891005.000000 0 0 1
-24.545967 -3.516255 19.036329 31.261004 0.142284 0.916063 0.011229 0.007000 -1060820.000000 0 0 1
-24.572667 -4.195655 17.608629 30.520211 0.169114 0.955807 0.016023 0.006844 -411667.000000 0 0 1
-25.328857 -3.594355 16.576829 30.483793 0.140966 0.995848 0.015393 0.008771 156163.000000 0 0 1
-25.227847 -4.398055 15.411929 29.888371 0.172599 1.029031 0.025870 -0.001505 -24793.400000 0 0 1
-26.453217 -4.250255 14.474129 30.452221 0.159309 1.075484 0.040007 -0.010198 137235.000000 0 0 1
-26.725617 -2.956955 13.950829 30.292372 0.110193 1.092194 0.040914 -0.013562 -1018890.000000 0 0 1
-27.926257 -3.063255 13.301429 31.083555 0.109254 1.128601 0.046654 -0.016385 -835126.000000 0 0 1
-28.423297 -1.851255 12.451229 31.086075 0.065040 1.158690 0.038447 0.003182 -60037.000000 0 0 1
-27.513857 -1.630555 11.385229 29.821041 0.059194 1.179069 0.055628 -0.004077 237886.000000 0 0 1
-27.753247 -0.483355 10.564029 29.699748 0.017414 1.207140 0.055759 0.008378 -720684.000000 0 0 1
-29.071367 -0.573755 9.803329 30.685156 0.019734 1.245614 0.047358 0.008016 -309354.000000 0 0 1
-28.985067 -1.454355 8.717629 30.302579 0.050134 1.278986 0.045818 -0.003506 625497.000000 0 0 1
-30.298477 -1.560755 8.152529 31.414923 0.051467 1.308280 0.045930 -0.008214 717261.000000 0 0 1
-30.229047 -2.322555 6.816929 31.075071 0.076681 1.349628 0.040487 -0.009063 -260274.000000 0 0 1
-29.801627 -1.674955 5.601129 30.369641 0.056144 1.385303 0.042205 -0.012874 530286.000000 0 0 1
-30.674427 -0.666155 5.056929 31.095607 0.021714 1.407446 0.032278 -0.004687 -57366.200000 0 0 1
-30.179257 -0.070955 3.711629 30.406722 0.002351 1.448425 0.017110 -0.008216 -182355.000000 0 0 1
-30.356657 -0.944855 2.646229 30.486422 0.031115 1.483887 0.007685 -0.015356 357948.000000 0 0 1
-29.729467 -0.412055 1.495829 29.769926 0.013859 1.520529 -0.002302 -0.020119 -188366.000000 0 0 1
-30.293877 -1.032655 0.202329 30.312148 0.034075 1.564121 -0.000422 -0.009804 87490.600000 0 0 1
-31.652897 -0.663955 0.010429 31.659861 0.020973 1.570467 -0.000019 -0.005323 181918.000000 0 0 1
-32.180217 -1.204555 -1.143871 32.223062 0.037414 1.606302 -0.000951 -0.002604 1064920.000000 0 0 1
-33.751257 -1.011955 -1.225471 33.788655 0.029974 1.607073 0.017942 -0.002843 1648500.000000 0 0 1
-34.576481 -1.889755 -0.401471 34.630411 0.054600 1.582390 0.020239 -0.002865 1056170.000000 0 0 1
34.330985 -1.584555 -0.449671 34.370475 -0.046123 1.583880 0.038261 -0.007335 -9550.480000 0 0 1
33.388202 -2.642455 0.128129 33.492850 -0.078979 1.566971 0.049293 -0.012248 -661850.000000 0 0 1
33.487912 -2.885055 1.544529 33.647427 -0.085940 1.524877 0.039948 -0.012049 306363.000000 0 0 1
32.764122 -4.041755 1.935029 33.069137 -0.122739 1.512248 0.043116 -0.007450 -263262.000000 0 0 1
33.071842 -4.375755 3.430729 33.536009 -0.131547 1.468317 0.039868 -0.001928 -67906.800000 0 0 1
32.650352 -3.388755 4.255629 33.100446 -0.103419 1.441872 0.034213 -0.011253 -38060.200000 0 0 1
32.707992 -3.751155 5.596729 33.394719 -0.114187 1.402408 0.020972 -0.004840 -268144.000000 0 0 1
32.199892 -2.638355 6.568929 32.968846 -0.081754 1.370207 0.014025 0.000203 30986.000000 0 0 1
30.832042 -2.316055 6.430229 31.580481 -0.074978 1.365748 0.027174 -0.001923 -3613.190000 0 0 1
30.365752 -1.638955 7.554029 31.334142 -0.053921 1.327318 0.019119 0.006329 429756.000000 0 0 1
28.825722 -1.756155 7.783329 29.909640 -0.060848 1.307538 0.033760 0.003179 -158954.000000 0 0 1
28.029982 -1.183355 6.754629 28.856633 -0.042192 1.334529 0.036381 0.001476 1092560.000000 0 0 1
26.620582 -1.384055 6.955629 27.549079 -0.051945 1.315552 0.031147 0.007939 888204.000000 0 0 1
25.999352 -2.777655 6.872029 27.035282 -0.106432 1.313789 0.053809 -0.007783 -1114200.000000 0 0 1
26.312032 -3.589055 7.953229 27.721079 -0.135567 1.279805 0.040173 -0.008069 511280.000000 0 0 1
25.478802 -4.751155 8.075129 27.146833 -0.184357 1.268764 0.047409 -0.016180 -87651.200000 0 0 1
25.873172 -5.753555 9.152329 28.040855 -0.218815 1.238312 0.050539 -0.012531 -428448.000000 0 0 1
25.690362 -5.331255 10.534629 28.273581 -0.204615 1.188991 0.035990 -0.008378 478523.000000 0 0 1
25.962672 -6.302355 11.516929 29.093293 -0.238141 1.163790 0.032276 -0.003230 -376071.000000 0 0 1
24.887202 -6.301755 12.614229 28.604261 -0.248000 1.114093 0.031877 -0.008754 595009.000000 0 0 1
23.595702 -6.673255 12.127029 27.356066 -0.275619 1.111516 0.043769 -0.017900 967774.000000 0 0 1
22.541502 -6.548055 13.088529 26.875750 -0.282708 1.062143 0.046888 -0.021576 165955.000000 0 0 1
21.548602 -7.666455 13.124129 26.369671 -0.341810 1.049854 0.043056 -0.023657 -564316.000000 0 0 1
21.999502 -8.834755 13.753829 27.408006 -0.381875 1.045097 0.036965 -0.018518 385980.000000 0 0 1
21.005402 -9.863755 13.709029 26.952886 -0.439018 1.037204 0.050534 -0.031501 212327.000000 0 0 1
21.544002 -11.067955 14.526029 28.242684 -0.474577 1.030571 0.043958 -0.029719 -260587.000000 0 0 1
21.500102 -10.878555 15.915629 28.877406 -0.468418 0.987061 0.055533 -0.028303 290616.000000 0 0 1
21.910902 -12.030655 16.668329 30.044259 -0.502130 0.982683 0.045989 -0.027299 -265130.000000 0 0 1
21.628502 -11.970555 18.248829 30.726309 -0.505497 0.934879 0.049690 -0.025009 -98419.900000 0 0 1
20.248302 -11.912255 18.557229 29.937707 -0.531779 0.902230 0.045427 -0.028974 -69730.200000 0 0 1
19.908802 -12.276755 19.890529 30.703620 -0.552572 0.866072 0.056780 -0.020437 131867.000000 0 0 1
20.387902 -11.465455 21.105529 31.505024 -0.512287 0.836709 0.041908 -0.014414 63001.400000 0 0 1
19.613002 -10.294055 21.455829 30.838126 -0.483336 0.801324 0.049500 -0.019364 16580.300000 0 0 1
19.756902 -9.199655 20.566329 29.965692 -0.435786 0.814367 0.037585 -0.012597 -1266880.000000 0 0 1
20.731502 -8.093455 21.067829 30.645597 -0.372198 0.812801 0.026970 0.006337 1262290.000000 0 0 1
22.114302 -8.490655 21.100829 31.723470 -0.366589 0.843103 0.030818 0.005884 748638.000000 0 0 1
22.722702 -8.636555 19.848129 31.382471 -0.363221 0.886073 0.028740 0.005535 -1243940.000000 0 0 1
23.998002 -9.484955 19.900329 32.586678 -0.376396 0.913866 0.016693 0.008779 -287153.000000 0 0 1
23.859502 -10.871355 20.256829 33.133085 -0.427535 0.912996 0.010958 -0.002881 401476.000000 0 0 1
25.150002 -11.480455 20.354429 34.331126 -0.428229 0.936159 0.003429 -0.000105 677596.000000 0 0 1
25.064802 -12.978555 20.576329 34.929536 -0.477786 0.940875 -0.011694 -0.004251 -47352.300000 0 0 1
24.243002 -13.572155 19.594029 33.997831 -0.510365 0.956564 0.019512 -0.010987 85058.400000 0 0 1
23.958302 -14.907855 19.905529 34.532224 -0.556613 0.956439 0.013463 -0.015054 -115736.000000 0 0 1
22.760402 -15.440355 19.077929 33.472494 -0.596073 0.964341 0.037867 -0.024779 -648769.000000 0 0 1
23.064102 -15.727755 17.729829 33.070560 -0.598485 1.004961 0.022136 -0.017427 -759573.000000 0 0 1
22.141502 -16.421755 17.010129 32.392355 -0.638151 1.017931 0.011131 -0.016772 -1138050.000000 0 0 1
22.212102 -17.959155 17.101229 33.292053 -0.679921 1.031336 0.002191 -0.006403 -357442.000000 0 0 1
23.361402 -18.492755 16.507229 34.062086 -0.669595 1.064866 0.015710 0.004849 -228777.000000 0 0 1
23.370702 -19.884955 16.894329 35.028838 -0.704987 1.067521 0.018431 0.006838 -184610.000000 0 0 1
24.557202 -20.596955 16.252729 35.936638 -0.697917 1.101498 0.016734 0.016043 -188999.000000 0 0 1
24.473202 -20.623455 14.827229 35.271961 -0.700238 1.136945 0.007627 0.000819 357046.000000 0 0 1
25.532042 -21.462655 14.370229 36.318511 -0.699021 1.163997 0.011427 -0.005334 325103.000000 0 0 1
25.740442 -21.366055 12.821829 35.825661 -0.692802 1.204784 -0.002426 -0.023847 -539738.000000 0 0 1
24.633202 -21.826255 12.119129 35.072116 -0.725054 1.217973 -0.003432 -0.018287 -227234.000000 0 0 1
24.817202 -21.670755 10.739229 34.653228 -0.717818 1.255703 0.017288 -0.010705 -123560.000000 0 0 1
23.552602 -22.066355 9.954729 33.774927 -0.752830 1.271616 -0.003961 -0.021984 -189365.000000 0 0 1
23.133302 -23.372155 10.248429 34.444703 -0.790534 1.268689 0.000859 -0.022789 455267.000000 0 0 1
21.709902 -23.492955 10.268529 33.595855 -0.824823 1.260177 -0.015297 -0.006644 742406.000000 0 0 1
21.119902 -24.189755 9.013329 33.353180 -0.853048 1.297155 -0.009615 -0.004316 -534928.000000 0 0 1
21.668702 -25.481005 8.865329 34.603588 -0.866078 1.311711 -0.010684 -0.005923 -103211.000000 0 0 1
21.478302 -26.127615 7.645329 34.675940 -0.882752 1.348490 -0.005426 -0.001173 9487.910000 0 0 1
20.040402 -26.642585 7.316929 34.131840 -0.925892 1.354747 -0.011314 -0.001972 221448.000000 0 0 1
19.183302 -25.556545 7.227929 32.762464 -0.926897 1.348350 -0.014833 0.002592 -573803.000000 0 0 1
17.824702 -25.877055 7.537729 32.313454 -0.967611 1.335358 -0.009969 -0.003498 449619.000000 0 0 1
16.975602 -24.602155 7.521429 30.822216 -0.966810 1.324281 -0.007859 -0.001556 -669104.000000 0 0 1
16.974102 -24.032755 6.216629 30.072245 -0.955861 1.362572 0.001369 -0.001044 136211.000000 0 0 1
16.396802 -22.738555 6.256029 28.723421 -0.946048 1.351234 0.013445 -0.001517 -108938.000000 0 0 1
16.410302 -22.012055 4.864129 27.883478 -0.930172 1.395454 0.026436 0.007820 -395230.000000 0 0 1
15.559802 -20.858255 4.934329 26.486258 -0.929874 1.383404 0.055110 -0.000127 253366.000000 0 0 1
15.350302 -20.225255 3.705029 25.659695 -0.921581 1.425899 0.054384 0.005234 162036.000000 0 0 1
14.250702 -19.137555 3.705429 24.146609 -0.930731 1.416732 0.039910 0.002663 269366.000000 0 1 0
14.716202 -18.037655 4.438029 23.698517 -0.886459 1.382414 0.023204 0.000742 527470.000000 0 1 0
13.855702 -16.925955 4.296429 22.291876 -0.884812 1.376847 -0.000685 0.004183 95287.800000 0 1 0
14.747402 -15.721955 4.456629 22.011980 -0.817372 1.366923 -0.015079 0.005130 -222180.000000 0 1 0
15.363202 -15.456055 5.708429 22.527844 -0.788411 1.314609 0.004054 -0.006447 800570.000000 0 1 0
16.494502 -14.585955 5.680729 22.739599 -0.724069 1.318305 0.010443 -0.010777 225632.000000 0 1 0
17.869102 -15.208655 5.370829 24.071847 -0.705141 1.345786 -0.000956 -0.016579 -899228.000000 0 1 0
18.821502 -14.228755 5.604429 24.251104 -0.647320 1.337588 0.010134 -0.008829 -94002.200000 0 1 0
20.111802 -14.867255 5.597029 25.629018 -0.636573 1.350636 0.020922 -0.007619 996191.000000 0 0 1
21.336402 -13.909255 5.443629 26.045010 -0.577712 1.360235 0.017935 -0.010158 65424.000000 0 0 1
21.525102 -13.261855 6.695429 26.154074 -0.552182 1.311915 0.034435 -0.012726 556743.000000 0 0 1
22.555602 -12.253255 6.672429 26.522043 -0.497644 1.316483 0.037243 -0.012480 365640.000000 0 0 1
22.656002 -11.611955 8.069629 26.706757 -0.473624 1.263842 0.046609 -0.011165 -198166.000000 0 0 1
23.119502 -12.416255 9.133329 27.786552 -0.492844 1.235874 0.051457 -0.015581 269242.000000 0 0 1
23.184702 -11.671155 10.306229 27.927847 -0.466363 1.192831 0.066931 -0.028088 -530550.000000 0 0 1
23.743702 -12.369955 11.504929 29.140051 -0.480289 1.164930 0.049339 -0.016830 199472.000000 0 0 1
22.804602 -13.380755 11.954929 29.017491 -0.530625 1.146159 0.041822 -0.016158 1119890.000000 0 0 1
23.307002 -14.154055 13.092729 30.248523 -0.545761 1.123157 0.035906 -0.015356 200347.000000 0 0 1
22.315102 -15.279955 13.471629 30.214659 -0.600408 1.108657 0.010006 -0.017628 1023310.000000 0 0 1
21.003202 -14.810255 13.849829 29.194108 -0.614169 1.076508 0.015877 -0.029215 1009430.000000 0 0 1
20.040502 -15.872855 13.750129 29.028181 -0.669868 1.077329 0.002603 -0.023948 995801.000000 0 0 1
18.630202 -15.447155 14.299329 28.109960 -0.692262 1.037131 0.012848 -0.027801 257358.000000 0 0 1
18.632802 -15.120555 15.641929 28.644065 -0.681715 0.993119 0.017002 -0.025187 -8685.510000 0 0 1
18.435202 -13.687355 15.714129 27.823268 -0.638656 0.970625 0.025473 -0.031753 1142440.000000 0 0 1
16.941002 -13.124755 15.677829 26.552798 -0.659143 0.939193 0.033857 -0.037647 910816.000000 0 0 1
16.320002 -13.374855 14.418429 25.556219 -0.686541 0.971351 0.032676 -0.041151 -560225.000000 0 0 1
14.936002 -13.177755 14.484729 24.628129 -0.722939 0.942042 0.060729 -0.039786 -229224.000000 0 1 0
14.564102 -11.681655 14.112629 23.403855 -0.676011 0.923534 0.045562 -0.041203 -494049.000000 0 1 0
14.764202 -10.822255 15.211529 23.801124 -0.632536 0.877456 0.021767 -0.023024 -27013.400000 0 1 0
14.458602 -9.500455 14.883729 22.821814 -0.581336 0.860351 0.012234 -0.021106 -958955.000000 0 1 0
15.066302 -8.471855 15.913129 23.494541 -0.512241 0.826694 0.015749 -0.017116 -14351.800000 0 1 0
16.475802 -8.574255 15.879229 24.436035 -0.479846 0.863438 0.017124 -0.024996 -46135.900000 0 1 0
16.938202 -9.510955 16.857429 25.720301 -0.511636 0.856067 0.025549 -0.020005 -1321800.000000 0 0 1
18.447702 -9.422955 16.962329 26.773689 -0.472245 0.884670 0.033304 -0.023217 -670287.000000 0 0 1
18.910402 -8.202655 17.515829 27.049790 -0.409271 0.866444 0.023530 -0.028603 245320.000000 0 0 1
20.098702 -7.767155 16.870829 27.366246 -0.368772 0.906528 0.019166 -0.011343 -6787.360000 0 0 1
20.441502 -6.305555 17.221129 27.462380 -0.299208 0.892996 0.002167 -0.002246 -540410.000000 0 0 1
21.101502 -6.240955 18.479529 28.735273 -0.287561 0.872262 0.021187 0.000869 234388.000000 0 0 1
21.416602 -4.894755 18.731929 28.870654 -0.224690 0.864760 0.024838 0.000905 -15105.000000 0 0 1
-5.413967 -33.371249 -6.010120 34.337630 1.409963 1.746733 -0.023706 0.004206 -126221.000000 0 0 1
-5.909167 -32.063249 -6.299620 33.206255 1.388544 1.761665 -0.020930 -0.000502 118781.000000 0 0 1
-5.384267 -31.149149 -5.379020 32.065459 1.399633 1.739344 -0.014396 -0.003065 -728218.000000 0 0 1
-5.969467 -29.749449 -5.717620 30.876454 1.372768 1.757049 0.000431 -0.004898 1576790.000000 0 0 1
-7.336167 -29.601149 -5.260720 30.947092 1.327857 1.741617 -0.000637 -0.005295 1520740.000000 0 0 1
-8.360967 -30.207149 -6.048420 31.921168 1.300769 1.761429 -0.000979 -0.003778 -718382.000000 0 0 1
-9.794767 -30.050449 -5.574520 32.094270 1.255711 1.745374 0.024599 -0.001922 -624606.000000 0 0 1
-10.720667 -30.595649 -6.466320 33.058126 1.233767 1.767670 0.011169 -0.003335 -133399.000000 0 0 1
-12.059067 -30.321349 -6.074020 33.191851 1.192267 1.754831 0.014230 -0.005926 65230.500000 0 0 1
-13.127067 -30.924849 -6.958620 34.308724 1.169364 1.775037 0.027556 -0.012861 -298912.000000 0 0 1
-13.124367 -30.371449 -8.263020 34.102073 1.162903 1.815535 0.045639 -0.019595 401056.000000 0 0 1
-14.209167 -30.865449 -9.063920 35.167186 1.139362 1.831477 0.054564 -0.018134 539445.000000 0 0 1
-14.433367 -30.080949 -10.386820 34.943835 1.123425 1.872600 0.056364 -0.016344 -29484.600000 0 0 1
-14.963867 -28.763249 -10.258820 34.007134 1.091086 1.877237 0.056088 -0.023009 876280.000000 0 0 1
-13.904667 -27.896749 -9.812320 32.677974 1.108403 1.875775 0.044118 -0.020786 263483.000000 0 0 1
-14.373367 -26.480549 -9.496820 31.591181 1.073506 1.876135 0.038250 -0.009165 -59275.000000 0 0 1
-14.544767 -25.678949 -10.672620 31.382534 1.055443 1.917800 0.054222 -0.009096 149163.000000 0 0 1
-14.980867 -24.358649 -10.281020 30.388641 1.019411 1.915925 0.042510 0.003392 -337617.000000 0 0 1
-15.584267 -23.537049 -11.412220 30.448330 0.985950 1.954984 0.042382 0.003079 -238758.000000 0 0 1
-16.874167 -24.018649 -11.726520 31.609243 0.958365 1.950865 0.034712 0.000032 -42280.100000 0 0 1
-17.264867 -23.581049 -13.009420 31.990412 0.938817 1.989598 0.037014 -0.000443 849602.000000 0 0 1
-18.788167 -23.908349 -13.336820 33.203541 0.904749 1.984134 0.011544 0.010985 1226910.000000 0 0 1
-19.052167 -25.230449 -13.774520 34.486200 0.924023 1.981682 0.034909 0.011107 -103261.000000 0 0 1
-19.122467 -26.101849 -12.646320 34.740533 0.938518 1.943379 0.050012 0.001075 -1572200.000000 0 0 1
-19.153267 -27.613749 -12.923820 36.005442 0.964370 1.937929 0.048659 -0.002235 626106.000000 0 0 1
-18.102067 -28.224449 -13.701520 36.222037 1.000518 1.958717 0.061923 -0.004507 134108.000000 0 0 1
-16.790367 -27.939349 -13.310020 35.209093 1.029673 1.958462 0.063918 -0.015107 -1022920.000000 0 0 1
-15.813167 -29.047549 -13.708920 35.801548 1.072271 1.963745 0.059444 -0.015145 -379319.000000 0 0 1
-15.935467 -29.332649 -15.088920 36.633576 1.073137 1.995321 0.064155 -0.006787 -17225.900000 0 0 1
-15.221067 -30.482549 -15.573720 37.462079 1.107679 1.999530 0.064316 -0.007065 129559.000000 0 0 1
-15.853567 -31.900849 -15.315220 38.775710 1.109581 1.976831 0.065802 -0.011313 -221651.000000 0 0 1
-15.866767 -32.299949 -13.971420 38.603647 1.114188 1.941123 0.065222 -0.004260 123840.000000 0 0 1
-16.397267 -33.640349 -13.802320 39.887936 1.117256 1.924130 0.049415 0.001329 -759840.000000 0 0 1
-17.067967 -33.845849 -12.415820 39.887461 1.103726 1.887327 0.049832 -0.009471 655311.000000 0 0 1
-18.411167 -33.360049 -12.285820 40.035051 1.066501 1.882706 0.052962 -0.009598 718998.000000 0 0 1
-18.754267 -31.965149 -12.350820 39.064511 1.040206 1.892480 0.055265 -0.011531 -299253.000000 0 0 1
-18.146167 -31.058149 -11.233420 37.683971 1.042028 1.873493 0.059614 -0.014864 210861.000000 0 0 1
-18.736467 -31.307449 -9.937920 37.814994 1.031505 1.836723 0.047438 -0.023716 362799.000000 0 0 1
-18.269667 -30.283449 -9.111120 36.522329 1.027962 1.822926 0.051191 -0.018372 108077.000000 0 0 1
-18.505367 -30.511049 -7.577420 36.479994 1.025601 1.780034 0.047388 -0.022979 -169991.000000 0 0 1
-17.566767 -31.358149 -6.996220 36.617917 1.060157 1.763038 0.054575 -0.031585 -136929.000000 0 0 1
-17.953767 -31.691049 -5.671620 36.862279 1.055355 1.725270 0.053330 -0.037923 20103.800000 0 0 1
-16.980767 -32.749449 -5.092220 37.239811 1.092454 1.707967 0.050987 -0.028954 562860.000000 0 0 1
-15.665567 -32.296249 -4.801320 36.214781 1.119173 1.703767 0.035913 -0.024919 382731.000000 0 0 1
-15.541767 -31.834149 -3.460920 35.594066 1.116625 1.668183 0.027676 -0.016647 4053.850000 0 0 1
-14.169067 -31.297749 -2.979420 34.484612 1.145684 1.657303 0.032559 -0.007060 56051.900000 0 0 1
-13.098967 -32.176749 -2.868220 34.859042 1.184189 1.653170 0.014708 0.002707 -124272.000000 0 0 1
-11.864867 -31.522549 -2.579720 33.780188 1.210805 1.647239 0.007116 0.006274 1344590.000000 0 0 1
-10.607367 -32.466849 -2.739520 34.265397 1.255015 1.650832 0.011675 -0.004622 261818.000000 0 0 1
-10.604467 -33.477449 -1.781020 35.162001 1.264031 1.621470 0.008980 0.004243 -597722.000000 0 0 1
-9.391167 -34.155749 -1.662220 35.462264 1.302475 1.617686 0.011673 0.000395 -46756.900000 0 0 1
-8.320067 -33.456649 -0.769920 34.484252 1.327059 1.593125 0.023907 0.002002 -253044.000000 0 0 1
-8.683967 -33.526249 0.602680 34.637896 1.317346 1.553396 0.028596 0.005706 -133419.000000 0 0 1
-7.666967 -33.098849 1.477680 34.007348 1.343172 1.527331 0.036060 -0.003518 302372.000000 0 0 1
-6.697667 -34.210649 1.919680 34.912926 1.377464 1.515784 0.039152 -0.008643 503629.000000 0 0 1
-7.470867 34.179645 2.873680 35.104416 -1.355604 1.488844 0.038672 -0.011152 475101.000000 0 0 1
-6.703667 33.289445 3.624180 34.150563 -1.372079 1.464473 0.034296 -0.013733 -284052.000000 0 0 1
-5.931467 33.817845 4.881380 34.679343 -1.397168 1.429570 0.036245 -0.009204 16644.500000 0 0 1
-4.871567 -34.559549 4.511280 35.191565 1.430757 1.442251 0.030615 -0.010129 -889180.000000 0 0 1
-4.185567 -34.068449 5.590580 34.776900 1.448551 1.409340 0.026182 -0.012320 330913.000000 0 0 1
-3.052267 -33.037349 5.243580 33.589848 1.478669 1.414049 0.037165 -0.009533 370960.000000 0 0 1
-3.508667 -31.816749 4.731780 32.357472 1.460963 1.424036 0.032012 -0.003619 21674.400000 0 0 1
-3.664467 -31.846849 3.321480 32.228595 1.456235 1.467553 0.024962 -0.008711 51557.800000 0 0 1
-4.119767 -30.555249 2.586880 30.940065 1.436774 1.487089 0.024338 -0.003495 390341.000000 0 0 1
-3.131767 -29.545549 2.706180 29.834055 1.465193 1.479964 0.012161 0.002145 226592.000000 0 0 1
-3.614067 -28.367649 2.015180 28.667855 1.444078 1.500444 0.021299 0.006190 258813.000000 0 0 1
-3.023767 -27.092349 2.595780 27.383875 1.459647 1.475861 0.022131 -0.000762 -140493.000000 0 0 1
-3.223367 -25.942249 1.752180 26.200391 1.447178 1.503870 0.022794 -0.006889 -268116.000000 0 0 1
-2.917367 -24.682749 2.352580 24.965651 1.453148 1.476424 0.011649 -0.004962 -383179.000000 0 1 0
-3.919667 -24.192149 3.382180 24.739907 1.410170 1.433657 0.005531 -0.003955 -434106.000000 0 1 0
-3.924267 -24.984249 4.540580 25.694930 1.415000 1.393152 0.013580 -0.004483 524276.000000 0 0 1
-4.942867 -24.457749 5.416180 25.533281 1.371384 1.357050 0.005817 -0.001243 410398.000000 0 0 1
-5.539467 -25.406549 6.502980 26.804238 1.356123 1.325741 0.014270 -0.001246 312350.000000 0 0 1
-4.620067 -25.871149 7.492880 27.327726 1.394079 1.293053 0.013224 -0.007582 -54475.300000 0 0 1
-5.332367 -26.768049 8.283080 28.523183 1.374164 1.276153 0.015093 -0.005363 92755.400000 0 0 1
-4.649867 -27.328349 9.543880 29.318007 1.402262 1.239225 0.014407 -0.000063 -360467.000000 0 0 1
-4.241667 -26.449849 10.574180 28.799297 1.411784 1.194834 0.019142 -0.003292 -550715.000000 0 0 1
-5.196467 -25.649049 11.186680 28.460829 1.370903 1.166844 0.016997 -0.006171 -527687.000000 0 0 1
-4.632467 -24.727849 12.287180 27.998233 1.385605 1.116472 -0.000505 -0.005432 144994.000000 0 0 1
-3.923367 -25.393949 13.340280 28.951831 1.417508 1.091928 -0.003956 -0.003163 204930.000000 0 0 1
-3.420667 -24.502349 14.343580 28.597279 1.432087 1.045382 -0.001708 -0.005870 17271.300000 0 0 1
-2.319067 -24.980449 15.292880 29.381509 1.478226 1.023368 -0.000693 -0.006609 -74845.600000 0 0 1
-2.791667 -25.894549 16.293580 30.721358 1.463402 1.011763 -0.005641 -0.003269 -437971.000000 0 0 1
-1.749167 -26.488449 16.997180 31.521447 1.504857 1.001279 -0.018783 0.008122 -515002.000000 0 0 1
-2.158667 -27.180249 18.332180 32.855663 1.491542 0.978870 -0.027758 0.001364 -116796.000000 0 0 1
-2.492267 -26.099849 19.196280 32.494779 1.475595 0.938809 -0.021316 0.005333 -80276.600000 0 0 1
-2.554767 -26.512849 20.567180 33.652145 1.474733 0.913258 -0.016476 -0.000612 103264.000000 0 0 1
-2.930667 -25.383049 21.588880 33.450975 1.455848 0.869264 -0.005066 -0.000636 136944.000000 0 0 1
-2.709467 -25.623249 23.013580 34.547315 1.465445 0.841766 -0.001162 -0.005734 -38101.200000 0 0 1
-3.151967 -24.581049 23.907380 34.434368 1.443265 0.803366 0.015931 -0.004860 -388319.000000 0 0 1
-2.263967 -23.356249 24.067880 33.614026 1.474166 0.772731 0.019739 0.002509 -315331.000000 0 0 1
-2.175567 -22.530149 22.878480 32.183312 1.474532 0.780047 0.010651 0.005339 196808.000000 0 0 1
-1.172267 -21.510749 22.933780 31.464977 1.516353 0.754131 0.001063 0.005072 179589.000000 0 0 1
-1.529767 -20.337049 22.007880 30.004709 1.495717 0.747367 0.010326 -0.000860 -287818.000000 0 0 1
-2.250067 -19.243349 22.640180 29.798440 1.454398 0.707826 0.025549 -0.011042 1084610.000000 0 0 1
-3.682567 -19.380849 22.672480 30.053618 1.383024 0.716055 0.025864 -0.004294 615027.000000 0 0 1
-4.398867 -19.227049 21.292580 29.024187 1.345882 0.747170 0.023216 -0.003887 -786743.000000 0 0 1
-4.327767 -20.332749 20.452180 29.162337 1.361079 0.793546 0.015647 -0.001730 86044.000000 0 0 1
-5.183567 -21.473249 20.656780 30.243551 1.333931 0.818915 0.024533 0.000314 184977.000000 0 0 1
-5.144267 -22.373049 19.390680 30.050213 1.344793 0.869412 0.008420 0.001070 -229230.000000 0 0 1
-5.671767 -23.680849 19.523880 31.211111 1.335716 0.894969 0.020521 -0.006694 -239487.000000 0 0 1
-5.357167 -24.467149 18.373280 31.063130 1.355244 0.937901 0.026048 -0.005487 265247.000000 0 0 1
-6.135467 -25.817049 18.303880 32.236563 1.337473 0.966967 0.009881 -0.010373 998224.000000 0 0 1
-7.549967 -25.725849 18.134980 32.368176 1.285334 0.976082 0.025119 -0.013254 104058.000000 0 0 1
-8.114967 -26.952249 17.738480 33.270559 1.278343 1.008467 0.038193 -0.018192 1446620.000000 0 0 1
-9.686567 -27.027549 17.927880 33.848587 1.226661 1.012609 0.045137 -0.021989 842874.000000 0 0 1
-10.432367 -26.202049 17.064280 32.963181 1.191885 1.026663 0.054909 -0.022509 -169823.000000 0 0 1
-11.822867 -26.198749 17.313680 33.554704 1.146882 1.028641 0.047648 -0.020092 157287.000000 0 0 1
-12.359767 -25.469049 18.582180 33.863457 1.118989 0.989942 0.041776 -0.020414 -646245.000000 0 0 1
-12.639967 -24.124349 18.263080 32.791662 1.088172 0.980096 0.041208 -0.014020 -85395.900000 0 0 1
-12.813167 -23.189849 19.340180 32.802270 1.066010 0.940234 0.032278 -0.010659 34410.900000 0 0 1
-11.498467 -22.584849 19.893780 32.218824 1.099877 0.905289 0.029923 -0.016332 191704.000000 0 0 1
-10.781567 -23.466049 20.754980 33.131055 1.140108 0.893805 0.038694 -0.014616 491945.000000 0 0 1
-9.393567 -23.357349 20.431180 32.422800 1.188423 0.889052 0.045271 -0.019424 1248720.000000 0 0 1
-8.428367 -24.342249 21.235780 33.384739 1.237471 0.881373 0.039730 -0.016395 666148.000000 0 0 1
-8.428267 -24.198049 22.675280 34.216218 1.235634 0.846370 0.040406 -0.017460 -175116.000000 0 0 1
-7.202867 -24.561549 23.261880 34.587079 1.285536 0.833134 0.030633 -0.015298 -103361.000000 0 0 1
-7.198167 -24.673249 24.859180 35.756980 1.286935 0.802062 0.024024 -0.011299 359177.000000 0 0 1
-5.969267 -25.121249 25.422280 36.235364 1.337505 0.793173 0.016150 -0.012010 238196.000000 0 0 1
-6.148867 -25.129749 26.805580 37.253885 1.330826 0.767660 0.012046 -0.006959 315564.000000 0 0 1
-4.867467 -25.458249 27.653180 37.901359 1.381882 0.753046 0.014291 -0.006136 240923.000000 0 0 1
-3.843367 -24.552249 27.306180 36.921699 1.415518 0.738365 0.021949 -0.007195 -144506.000000 0 0 1
-2.690267 -24.781049 28.110380 37.570353 1.462658 0.725442 0.013418 -0.007979 245843.000000 0 0 1
-1.431067 -24.051349 27.616180 36.649267 1.511366 0.717387 0.010074 -0.002039 -664225.000000 0 0 1
-1.538767 -22.591749 27.729480 35.800545 1.502789 0.684786 0.011698 -0.002523 -48106.900000 0 0 1
-0.532967 -21.773749 27.149680 34.806398 1.546324 0.676099 0.015509 -0.006083 212532.000000 0 0 1
0.685333 -21.531249 28.087280 35.397170 -1.538977 0.654275 0.026766 -0.009014 -75387.500000 0 0 1
1.377133 -22.711149 28.333980 36.338784 -1.510234 0.676582 0.023874 -0.014373 -192074.000000 0 0 1
2.274133 -22.585949 29.421680 37.160894 -1.470447 0.657148 0.032993 -0.018010 133715.000000 0 0 1
2.900933 -23.947449 29.864980 38.390269 -1.450246 0.679430 0.031364 -0.015550 -133140.000000 0 0 1
3.839233 -24.443049 28.923180 38.062484 -1.415001 0.707657 0.020902 -0.023881 3355.280000 0 0 1
4.424833 -25.680849 29.297580 39.210118 -1.400171 0.726966 -0.010493 -0.003164 -161775.000000 0 0 1
5.736633 -25.508249 30.157180 39.912845 -1.349583 0.714264 -0.013525 -0.001541 350476.000000 0 0 1
6.865733 -25.091249 29.424480 39.274790 -1.303704 0.723950 -0.023156 -0.001172 91885.900000 0 0 1
7.411533 -25.938849 28.406080 39.174738 -1.292481 0.759599 -0.018638 0.007159 -930293.000000 0 0 1
8.686533 -25.405449 27.767080 38.625166 -1.241341 0.768598 -0.016182 -0.001486 -801536.000000 0 0 1
8.377133 -24.196349 27.120880 37.298550 -1.237498 0.756665 0.001098 0.002167 -290956.000000 0 0 1
9.317733 -23.642849 26.267980 36.548751 -1.195383 0.768850 -0.015206 -0.000178 -669562.000000 0 0 1
8.696433 -22.522249 25.412380 35.052371 -1.202307 0.759786 -0.001278 -0.000337 -47268.400000 0 0 1
7.883033 -23.019649 24.385480 34.448485 -1.240865 0.784300 0.008886 0.002780 -61683.500000 0 0 1
7.269133 -21.943649 23.679580 33.092092 -1.250910 0.773362 0.007540 0.012255 -94228.600000 0 0 1
6.583633 -22.320249 22.350680 32.265936 -1.283968 0.805567 0.032869 0.009767 -236355.000000 0 0 1
7.381533 -23.073649 21.461380 32.364659 -1.261173 0.845828 0.029108 0.014408 -309974.000000 0 0 1
6.723633 -23.473849 20.297980 31.752745 -1.291834 0.877272 0.037763 0.001722 -165524.000000 0 0 1
7.531333 -24.483449 19.411280 32.139665 -1.272373 0.922328 0.031767 -0.008763 432464.000000 0 0 1
8.658633 -23.816149 18.840780 31.577775 -1.222092 0.931480 0.039787 -0.012451 -7894.010000 0 0 1
9.231033 -24.703449 17.872380 31.857406 -1.213189 0.975189 0.047822 -0.021926 -1134120.000000 0 0 1
10.606533 -24.326349 17.445080 31.758473 -1.159637 0.989264 0.044541 -0.020498 -1075810.000000 0 0 1
10.497833 -23.154349 16.739380 30.439041 -1.145131 0.988514 0.061415 -0.013948 352690.000000 0 0 1
11.759333 -22.885849 16.136680 30.371639 -1.096150 1.010653 0.053842 -0.018853 389052.000000 0 0 1
-11.796067 22.640445 11.666280 28.068471 -1.090476 1.142154 -0.012403 -0.011225 -1049480.000000 0 0 1
-12.797867 21.834445 11.180180 27.668119 -1.040636 1.154822 -0.017417 -0.013329 -551983.000000 0 0 1
-12.359367 20.508345 10.921480 26.317768 -1.028430 1.142870 0.002814 -0.019885 -673574.000000 0 0 1
-13.251067 19.762245 9.931980 25.783354 -0.980128 1.175362 0.003902 -0.015796 -639546.000000 0 0 1
-13.101267 20.260045 8.619780 25.620563 -0.996776 1.227662 0.003703 -0.025783 -5830.480000 0 0 1
-13.838467 19.598545 7.624280 25.174109 -0.955990 1.263102 -0.005204 -0.026139 720887.000000 0 0 1
-15.387867 19.906145 7.621180 26.289227 -0.912724 1.276677 -0.000006 -0.017450 535699.000000 0 0 1
-16.077267 19.179245 8.596480 26.461697 -0.873155 1.239927 -0.000897 -0.015530 -176639.000000 0 0 1
-17.471567 19.413545 8.564980 27.486365 -0.837999 1.253911 0.016037 -0.017543 155645.000000 0 0 1
-18.275067 18.434645 9.482080 27.635558 -0.789745 1.220569 0.019097 -0.013567 -47402.500000 0 0 1
-18.355067 17.172645 8.839080 26.644653 -0.752129 1.232650 0.017863 -0.019112 325150.000000 0 0 1
-19.034167 16.159145 9.600680 26.750524 -0.703887 1.203711 0.032511 -0.022003 -285370.000000 0 0 1
-18.217167 15.477245 10.715880 26.196190 -0.704260 1.149370 0.041987 -0.015599 -120061.000000 0 0 1
-17.210567 14.683845 10.103480 24.776990 -0.706342 1.150778 0.025526 0.000716 377247.000000 0 1 0
-16.369767 13.904245 10.947880 24.107123 -0.704137 1.099396 0.012054 0.008060 309564.000000 0 1 0
-17.150467 12.836145 11.754880 24.435268 -0.642504 1.068931 0.023301 0.013678 -254933.000000 0 1 0
-17.964967 11.969745 10.986180 24.222118 -0.587737 1.100041 0.008089 0.011646 313169.000000 0 1 0
-18.882767 11.253045 11.790280 24.943950 -0.537431 1.078477 0.018817 0.014431 1295020.000000 0 1 0
-20.158267 10.584045 11.083280 25.322260 -0.483484 1.117769 0.021857 0.016712 843305.000000 0 0 1
-19.921367 9.435245 10.332680 24.344383 -0.442325 1.132455 0.034270 0.006280 193929.000000 0 1 0
-19.175667 9.525745 9.114180 23.270460 -0.461054 1.168358 0.024089 0.005371 -251999.000000 0 1 0
-19.966167 9.747045 7.797480 23.546834 -0.454145 1.233277 0.029125 -0.001627 -89333.800000 0 1 0
-20.791267 8.636745 7.510080 23.733340 -0.393714 1.248826 0.036657 0.001990 225779.000000 0 1 0
-21.633967 8.859545 6.430780 24.246134 -0.388686 1.302355 0.046032 0.004345 -497619.000000 0 1 0
-21.563567 7.630145 5.464580 23.517401 -0.340095 1.336290 0.028415 0.000540 -528369.000000 0 1 0
-22.115667 6.536045 6.087380 23.851180 -0.287359 1.312718 0.004708 0.003781 221078.000000 0 1 0
-22.012967 5.385945 5.259180 23.264524 -0.239957 1.342765 0.023472 0.001506 -679274.000000 0 1 0
-22.891067 4.212945 5.638380 23.948720 -0.182006 1.333130 0.029259 -0.003961 -244789.000000 0 1 0
-24.215067 4.226445 5.138680 25.112514 -0.172797 1.364714 0.044426 -0.004310 397102.000000 0 0 1
-24.624267 2.932845 4.829580 25.264223 -0.118545 1.378450 0.024927 -0.014931 -261294.000000 0 0 1
-25.733207 2.718645 3.758480 26.147947 -0.105257 1.426558 0.022416 -0.023133 -10418.000000 0 0 1
-25.370667 2.698745 2.412980 25.627650 -0.105974 1.476501 0.022453 -0.015370 -173375.000000 0 0 1
-26.515867 2.670645 1.637080 26.700254 -0.100380 1.509445 0.020764 -0.014555 -697303.000000 0 0 1
-26.176027 2.944645 0.182080 26.341763 -0.112023 1.563884 0.037010 -0.011457 -332152.000000 0 0 1
-25.531287 4.176145 0.037280 25.870605 -0.162134 1.569355 0.043092 -0.019732 217919.000000 0 0 1
-25.537217 4.696045 -1.299520 25.997904 -0.181859 1.620803 0.074408 -0.010315 -68612.000000 0 0 1
-26.862127 5.298845 -1.844620 27.441834 -0.194760 1.638066 0.059419 -0.016012 271839.000000 0 0 1
-27.919027 4.382245 -1.988120 28.330703 -0.155692 1.641029 0.024360 -0.012335 85225.600000 0 0 1
-29.093517 4.982545 -2.520120 29.624474 -0.169614 1.655968 0.001034 0.006856 271520.000000 0 0 1
-30.259617 3.976745 -2.561420 30.627109 -0.130672 1.654527 -0.000846 0.011427 -264662.000000 0 0 1
-30.143377 3.104445 -3.716720 30.529899 -0.102627 1.692839 -0.000477 0.017041 270467.000000 0 0 1
-31.165177 2.130645 -3.730920 31.459937 -0.068260 1.689669 0.015719 0.006006 -17243.200000 0 0 1
-31.347977 1.409245 -5.055420 31.784255 -0.044925 1.730529 0.015314 0.000347 163639.000000 0 0 1
-30.206707 0.616745 -5.425920 30.696354 -0.020415 1.748491 0.033472 -0.000965 680579.000000 0 0 1
-30.244037 -0.013555 -6.718020 30.981184 0.000448 1.789375 0.045122 -0.008687 -233728.000000 0 0 1
-30.285537 0.915845 -8.019220 31.342629 -0.030231 1.829530 0.044850 -0.011675 287038.000000 0 0 1
-31.640697 1.319845 -8.219920 32.717622 -0.041689 1.824756 0.022779 -0.011027 799866.000000 0 0 1
-31.777037 2.131545 -9.368920 33.197895 -0.066978 1.856898 0.042860 -0.010103 898428.000000 0 0 1
-33.311027 2.375445 -9.699420 34.775652 -0.071191 1.853459 0.050167 -0.008377 1156090.000000 0 0 1
-33.836157 3.309745 -8.787620 35.114985 -0.097507 1.823738 0.020351 -0.005839 638761.000000 0 0 1
-35.138742 2.921145 -8.330620 36.230699 -0.082941 1.802805 0.018325 -0.003937 459285.000000 0 0 1
34.611473 3.823745 -7.206020 35.559834 0.110030 1.774854 0.022034 0.003907 14391.900000 0 0 1
33.293572 3.572545 -6.753920 34.159046 0.106895 1.769828 0.024679 0.001192 389437.000000 0 0 1
32.977702 4.296045 -5.561020 33.718093 0.129542 1.736480 0.019683 -0.006089 725814.000000 0 0 1
31.573162 3.846245 -5.018420 32.200042 0.121223 1.727286 0.021369 -0.005781 764172.000000 0 0 1
31.599232 2.539545 -4.293620 31.990560 0.080195 1.705418 0.040920 -0.008459 -414167.000000 0 0 1
30.379432 1.866045 -4.406420 30.754001 0.061348 1.714571 0.052769 -0.012297 -391263.000000 0 0 1
30.471552 0.466145 -3.741420 30.703925 0.015297 1.692955 0.068825 -0.009862 -93650.100000 0 0 1
31.318072 -0.436855 -4.449620 31.635606 -0.013948 1.711917 0.054205 -0.015669 359504.000000 0 0 1
31.301632 -1.691855 -3.764820 31.572590 -0.053998 1.690324 0.055710 -0.006469 -414328.000000 0 0 1
32.459432 -2.564155 -4.212020 32.831855 -0.078832 1.699442 0.050587 -0.013911 -411001.000000 0 0 1
32.458432 -3.815555 -3.559920 32.875238 -0.117015 1.679295 0.043647 -0.012399 211493.000000 0 0 1
33.760032 -4.350555 -3.434820 34.212060 -0.128161 1.671364 0.057224 -0.013783 -289104.000000 0 0 1
33.589722 -5.835855 -3.048520 34.228937 -0.172022 1.659977 0.053450 -0.010448 -203556.000000 0 0 1
33.035952 -6.100055 -1.800720 33.642642 -0.182592 1.624347 0.061007 -0.007041 -8417.720000 0 0 1
33.104772 -7.432155 -1.415420 33.958302 -0.220842 1.612490 0.071595 -0.012612 -142566.000000 0 0 1
32.734562 -7.740055 0.013980 33.637185 -0.232185 1.570381 0.058919 -0.004980 938233.000000 0 0 1
31.300392 -7.671155 0.183080 32.227235 -0.240344 1.565115 0.054573 -0.010182 1312800.000000 0 0 1
30.802022 -7.717355 1.537080 31.791268 -0.245493 1.522428 0.043377 -0.008492 -770075.000000 0 0 1
30.798192 -9.169055 2.155280 32.206295 -0.289358 1.503825 0.044928 -0.014386 -688094.000000 0 0 1
29.778532 -10.070255 1.852780 31.489741 -0.326099 1.511925 0.050754 -0.023194 14134.400000 0 0 1
28.501452 -9.565855 2.253480 30.148243 -0.323813 1.495980 0.044271 -0.026815 -1090300.000000 0 0 1
27.391422 -10.592655 1.964580 29.433891 -0.369001 1.504001 0.033229 -0.026842 80679.700000 0 0 1
26.084822 -10.333355 2.498180 28.168015 -0.377178 1.481991 0.033084 -0.028356 1009870.000000 0 0 1
25.324572 -9.290655 1.935580 27.044347 -0.351618 1.499164 0.025810 -0.017858 -631539.000000 0 0 1
24.775102 -9.485855 0.471380 26.533174 -0.365660 1.553030 0.014032 -0.013526 -1418490.000000 0 0 1
25.721202 -9.722155 -0.526920 27.502330 -0.361383 1.589957 0.014797 -0.019081 -238346.000000 0 0 1
25.266382 -9.886855 -1.887320 27.197462 -0.372988 1.640245 0.012279 -0.011065 -503119.000000 0 0 1
24.608002 -11.226655 -2.299520 27.145522 -0.428014 1.655609 0.020642 -0.010177 -105480.000000 0 0 1
23.284102 -11.321555 -1.787820 25.952328 -0.452575 1.639740 0.013422 -0.000955 -150859.000000 0 0 1
22.839902 -12.633555 -2.029420 26.179885 -0.505247 1.648392 0.011125 0.001459 -295317.000000 0 0 1
21.343302 -12.764655 -1.687720 24.926319 -0.538995 1.638557 0.004782 0.002113 197046.000000 0 1 0
20.467702 -12.190455 -2.689320 23.974288 -0.537174 1.683208 0.006073 -0.000127 20356.600000 0 1 0
19.144202 -12.460455 -2.327920 22.960458 -0.576989 1.672359 0.011065 -0.002254 -465624.000000 0 1 0
18.163102 -11.963055 -3.409420 22.014475 -0.582429 1.726294 0.009865 -0.001276 -214056.000000 0 1 0
18.095402 -12.887555 -4.485420 22.663884 -0.618867 1.770022 0.003114 -0.000950 73677.900000 0 1 0
17.304802 -12.373655 -5.509020 21.975277 -0.620750 1.824191 0.008597 -0.000119 -869074.000000 0 1 0
17.366502 -13.125155 -6.824020 22.812986 -0.647186 1.874576 0.007495 -0.002089 -566656.000000 0 1 0
16.684602 -14.338455 -6.992120 23.083695 -0.709916 1.878534 -0.002918 0.004875 192466.000000 0 1 0
16.698802 -14.692955 -8.339320 23.754519 -0.721588 1.929502 -0.001944 -0.003291 -264685.000000 0 1 0
15.872302 -15.938455 -8.668020 24.105993 -0.787478 1.938613 0.001828 -0.002989 651597.000000 0 1 0
14.431002 -15.802855 -8.520220 23.034283 -0.830742 1.949690 0.003034 0.006152 1349300.000000 0 1 0
13.766002 -16.742855 -9.297420 23.585335 -0.882664 1.975997 0.008547 0.008509 -350535.000000 0 1 0
13.770302 -16.515755 -10.822120 24.073007 -0.875802 2.037062 0.016600 0.000661 -895424.000000 0 1 0
12.969202 -15.480455 -11.365320 23.173588 -0.873440 2.083394 0.017304 0.006644 22761.300000 0 1 0
13.124902 -14.123555 -10.840820 22.119250 -0.822032 2.083010 0.008273 0.005889 -152426.000000 0 1 0
13.085302 -13.005655 -11.891620 21.949552 -0.782346 2.143338 0.022917 0.007619 -795547.000000 0 1 0
14.075302 -13.155355 -12.827120 23.145464 -0.751627 2.158193 0.024310 0.006616 -673319.000000 0 1 0
13.845802 -12.398855 -14.037120 23.291169 -0.730321 2.217652 0.043145 0.001593 54851.700000 0 1 0
15.163602 -11.891855 -14.702620 24.238772 -0.665055 2.222541 0.044432 -0.006844 213048.000000 0 1 0
15.972902 -12.940055 -15.132620 25.525963 -0.680885 2.205368 0.044168 -0.000389 -716247.000000 0 0 1
17.020702 -12.461255 -15.918620 26.427062 -0.631962 2.217251 0.049667 0.000051 -458241.000000 0 0 1
18.011102 -13.584955 -16.270620 27.815173 -0.646218 2.195621 0.050481 -0.000247 -572757.000000 0 0 1
18.716302 -14.172155 -15.211020 27.973649 -0.648099 2.145710 0.029797 -0.009131 -244291.000000 0 0 1
19.832802 -14.894955 -15.680420 29.344084 -0.644158 2.134551 0.027189 -0.001907 -260344.000000 0 0 1
20.940402 -14.744355 -14.634920 29.497073 -0.613479 2.089953 0.012568 -0.001129 -490418.000000 0 0 1
21.475902 -13.470055 -14.441220 29.175428 -0.560192 2.088607 0.016568 -0.004740 -525303.000000 0 0 1
22.417702 -13.444555 -13.421220 29.384325 -0.540221 2.045132 0.023945 -0.000694 -312778.000000 0 0 1
23.147502 -12.101055 -13.417120 29.364289 -0.481705 2.045325 0.033374 -0.001055 -275226.000000 0 0 1
22.353002 -11.021955 -12.876120 28.052356 -0.458101 2.047669 0.017087 0.007460 507347.000000 0 0 1
22.932602 -9.710255 -12.774420 27.988910 -0.400537 2.044753 0.027492 -0.004276 113606.000000 0 0 1
24.053102 -9.430455 -11.730220 28.373989 -0.373650 1.996997 0.034704 -0.002264 -36944.400000 0 0 1
25.245852 -10.091755 -12.027720 29.729827 -0.380281 1.987302 0.044472 0.001964 -415639.000000 0 0 1
26.196472 -9.905055 -11.001720 30.089917 -0.361491 1.945104 0.040522 -0.001207 -950220.000000 0 0 1
27.392372 -10.794255 -11.185720 31.495687 -0.375376 1.933872 0.045415 -0.003074 -419326.000000 0 0 1
28.263842 -10.317955 -12.242520 32.483600 -0.350026 1.957225 0.021615 0.003772 535148.000000 0 0 1
29.299482 -11.255955 -12.512620 33.789374 -0.366785 1.950141 0.022193 0.003768 -96883.300000 0 0 1
30.128952 -10.849055 -13.721420 34.838673 -0.345633 1.975619 0.008745 0.004923 -513694.000000 0 0 1
29.550282 -11.035255 -14.992620 34.925273 -0.357402 2.014489 0.007092 0.003377 96132.900000 0 0 1
30.303122 -10.455355 -16.041520 35.845837 -0.332236 2.034780 -0.009544 0.007058 -321132.000000 0 0 1
29.819102 -10.957355 -17.386120 36.214909 -0.352145 2.071544 -0.027819 0.017953 377953.000000 0 0 1
28.546612 -10.553255 -17.869720 35.293160 -0.354103 2.101711 -0.015623 0.010354 382654.000000 0 0 1
28.658012 -9.279855 -18.500320 35.350519 -0.313158 2.121562 -0.023320 0.018000 -263763.000000 0 0 1
27.429402 -8.732155 -19.262020 34.635936 -0.308206 2.160516 -0.055784 0.011988 -85821.700000 0 0 1
27.082202 -9.398355 -20.456520 35.217097 -0.334027 2.190592 -0.045451 0.017484 594767.000000 0 0 1
25.671622 -9.301255 -20.643920 34.230351 -0.347605 2.218163 -0.010310 0.023508 483051.000000 0 0 1
25.176802 -9.566755 -22.051220 34.808770 -0.363132 2.256860 -0.001469 0.010998 -266063.000000 0 0 1
25.166202 -10.927355 -22.354520 35.390244 -0.409644 2.254486 -0.004407 0.009993 247698.000000 0 0 1
24.352702 -11.207755 -23.491020 35.644016 -0.431326 2.290345 0.002290 0.001036 -221102.000000 0 0 1
24.343502 -12.725455 -23.936720 36.435009 -0.481678 2.287589 0.003079 0.005298 272199.000000 0 0 1
25.410302 -13.285355 -24.665220 37.822707 -0.481747 2.281183 -0.012331 0.012160 -385667.000000 0 0 1
26.677142 -13.365455 -24.050020 38.323736 -0.464453 2.249197 -0.033792 0.021861 241334.000000 0 0 1
27.722202 -13.975055 -25.050720 39.891869 -0.466931 2.249733 -0.043437 0.035608 207763.000000 0 0 1
28.011152 -13.163355 -26.133360 40.507420 -0.439306 2.272016 -0.043353 0.024737 172897.000000 0 0 1
29.383122 -13.377555 -26.440350 41.730312 -0.427236 2.256995 -0.055899 0.023543 253939.000000 0 0 1
29.910932 -12.750055 -27.751160 42.747569 -0.402944 2.277311 -0.035482 0.005129 -24324.100000 0 0 1
29.532092 -13.581355 -28.843460 43.457368 -0.431044 2.296576 -0.022355 0.000918 63283.900000 0 0 1
30.350932 -13.360355 -29.944190 44.680339 -0.414671 2.305257 -0.018436 -0.009695 -123405.000000 0 0 1
30.098742 -14.365155 -31.068420 45.580025 -0.445297 2.320776 -0.007728 -0.010047 -88313.200000 0 0 1
30.473682 -15.701555 -30.676050 46.002219 -0.475773 2.300755 -0.006728 -0.004486 -4178.070000 0 0 1
30.454502 -16.668555 -31.731470 47.034068 -0.500788 2.311285 0.006629 -0.000825 343306.000000 0 0 1
29.118842 -16.991955 -32.469180 46.806849 -0.528227 2.337388 -0.005025 0.007639 170254.000000 0 0 1
28.625952 -15.943755 -33.296670 46.715272 -0.508178 2.364218 -0.008218 0.000865 -274553.000000 0 0 1
27.543182 -16.361255 -34.077774 46.771917 -0.536012 2.387064 -0.010502 -0.003037 -340080.000000 0 0 1
27.221732 -15.193555 34.118826 46.216459 -0.509072 0.740339 -0.004879 0.004317 -127178.000000 0 0 1
26.508082 -14.043155 -34.491930 45.711944 -0.487178 2.425764 -0.005591 -0.007145 1005420.000000 0 0 1
27.362342 -13.161755 -33.705620 45.365167 -0.448346 2.408315 0.007253 -0.017252 370137.000000 0 0 1
26.642942 -11.834555 -33.400000 44.333543 -0.418013 2.423983 0.016028 -0.023235 276365.000000 0 0 1
26.194842 -11.228855 34.513820 44.760035 -0.404972 0.690252 0.026734 -0.020561 177310.000000 0 0 1
25.408902 -10.108255 -34.259434 43.834894 -0.378629 2.467953 0.017204 -0.025517 132817.000000 0 0 1
20.363633 -29.801949 9.531480 37.332061 -0.971367 1.312622 0.013299 -0.003821 12689.100000 0 0 1
20.617333 -29.510349 8.144680 36.908954 -0.960979 1.348295 0.012313 -0.004652 508272.000000 0 0 1
21.736833 -30.284349 7.685480 38.061769 -0.948251 1.367477 0.011243 -0.001778 402968.000000 0 0 1
22.228933 -29.902049 6.289080 37.786380 -0.931538 1.403580 0.009171 0.002445 -60925.800000 0 0 1
22.877333 -28.648249 6.182380 37.179515 -0.896934 1.403736 0.010672 0.007126 254419.000000 0 0 1
23.610233 -28.550149 4.951780 37.377456 -0.879823 1.437925 -0.001184 0.012700 183781.000000 0 0 1
23.934333 -27.085349 4.587380 36.435045 -0.847081 1.444556 -0.011142 0.002807 275517.000000 0 0 1
24.757533 -26.427649 5.534680 36.633165 -0.818015 1.419132 -0.005893 -0.001594 189617.000000 0 0 1
24.289833 -25.090149 5.575280 35.363757 -0.801604 1.412481 -0.003637 0.005456 -79311.200000 0 0 1
25.182733 -24.142049 6.368080 35.462107 -0.764303 1.390243 -0.005994 0.002116 998627.000000 0 0 1
26.490833 -23.913449 5.773380 36.151752 -0.734308 1.410411 -0.001766 0.006240 1245490.000000 0 0 1
27.350833 -22.987949 6.478380 36.310925 -0.698944 1.391422 0.010841 -0.007509 27899.800000 0 0 1
26.883033 -21.502149 6.619580 35.055081 -0.674644 1.380822 0.012234 -0.003443 -519250.000000 0 0 1
26.910833 -20.768149 5.424480 34.422869 -0.657270 1.412553 0.005662 0.012333 41425.600000 0 0 1
26.609633 -19.373349 5.592280 33.386716 -0.629310 1.402503 0.014477 0.005048 -414239.000000 0 0 1
26.685433 -18.573049 4.281280 32.793290 -0.608036 1.439869 0.017863 0.016410 -224928.000000 0 0 1
27.987233 -18.260549 3.843880 33.637899 -0.578103 1.456274 0.026200 0.009236 -148778.000000 0 0 1
28.066833 -17.627949 2.564180 33.242544 -0.560804 1.493584 0.024147 0.005758 -160267.000000 0 0 1
29.214133 -16.626749 2.434380 33.702234 -0.517414 1.498501 0.039112 -0.016486 41625.700000 0 0 1
28.827833 -15.398049 3.060980 32.825500 -0.490584 1.477411 0.046235 -0.020769 -9538.390000 0 0 1
29.902433 -14.527649 3.321880 33.410223 -0.452252 1.471205 0.048298 -0.015337 -50898.400000 0 0 1
29.539033 -13.365649 4.208880 32.694185 -0.424910 1.441703 0.046597 -0.014073 -37092.400000 0 0 1
29.068533 -13.740149 5.456980 32.612113 -0.441555 1.402676 0.033841 0.002295 -81597.700000 0 0 1
28.953533 -12.518049 6.157080 32.139046 -0.408079 1.378028 0.031034 -0.003442 -161804.000000 0 0 1
28.513633 -12.749049 7.667480 32.161402 -0.420457 1.330072 0.029422 0.007668 -135715.000000 0 0 1
27.120233 -12.958949 7.769480 31.045229 -0.445757 1.317844 0.030779 0.009048 -244444.000000 0 0 1
26.622833 -13.137849 9.083980 31.046691 -0.458418 1.273861 0.022896 0.013586 61151.100000 0 0 1
27.004133 -14.407349 9.950780 32.184048 -0.490106 1.256462 0.022569 0.009347 519169.000000 0 0 1
28.273833 -14.331049 10.613880 33.428177 -0.469125 1.247691 0.011893 0.016698 483242.000000 0 0 1
28.560833 -15.548549 11.243780 34.407865 -0.498534 1.237902 0.010949 0.013335 -209238.000000 0 0 1
29.322233 -15.377549 12.549680 35.408429 -0.483002 1.208496 0.010787 0.015343 660002.000000 0 0 1
30.749933 -15.321649 12.395080 36.523271 -0.462260 1.224544 -0.004282 0.024630 386658.000000 0 0 1
31.225233 -15.441249 13.691880 37.428798 -0.459247 1.196292 0.004573 0.019801 -478642.000000 0 0 1
32.741733 -15.289349 13.870480 38.706272 -0.436875 1.204294 -0.003974 0.011174 -379129.000000 0 0 1
33.078933 -13.956749 13.811980 38.467876 -0.399261 1.203544 -0.015725 0.012112 -23941.500000 0 0 1
34.125233 -13.767049 14.755880 39.645922 -0.383457 1.189427 -0.024200 0.002318 -92416.100000 0 0 1
34.911033 -12.459249 14.465780 39.790349 -0.342796 1.198721 -0.024238 0.007591 -644389.000000 0 0 1
-34.469736 -12.518149 13.409280 39.047094 0.348353 1.220248 -0.010355 0.003607 -277924.000000 0 0 1
-33.870036 -11.246449 13.311580 38.090158 0.320593 1.213785 -0.004710 0.006350 -628911.000000 0 0 1
-33.099536 -11.089349 11.979780 36.906206 0.323277 1.240207 -0.001304 0.005334 211898.000000 0 0 1
-31.827236 -11.724549 12.007280 35.980728 0.352955 1.230555 -0.014408 0.009789 223286.000000 0 0 1
-31.850436 -13.149549 11.938080 36.467501 0.391537 1.237286 -0.021873 0.005377 -990985.000000 0 0 1
-30.746936 -13.904449 12.676180 36.047099 0.424700 1.211457 -0.016132 0.007880 833752.000000 0 0 1
-29.457036 -13.834449 12.042880 34.700719 0.439073 1.216373 0.009015 0.003179 672534.000000 0 0 1
-28.475336 -14.717749 12.530780 34.416237 0.477044 1.198135 0.012639 -0.002190 -332901.000000 0 0 1
-27.115836 -14.557449 11.861880 32.983209 0.492700 1.202921 0.035507 -0.006381 -522059.000000 0 0 1
-27.040036 -14.890449 10.494380 32.604003 0.503366 1.243088 0.011451 0.002977 277980.000000 0 0 1
-25.724036 -14.720949 9.991680 31.277245 0.519776 1.245642 0.018215 0.004038 207998.000000 0 0 1
-25.718636 -14.494549 8.481980 30.716187 0.513211 1.291020 0.021990 0.014573 -52546.500000 0 0 1
-25.862336 -15.611249 7.621580 31.155417 0.543083 1.323657 0.023946 0.012360 160343.000000 0 0 1
-25.733036 -15.192949 6.291680 30.538501 0.533336 1.363286 0.018307 0.018851 -195592.000000 0 0 1
-25.802536 -16.303049 5.180380 30.957981 0.563502 1.402670 0.009665 0.013892 -334671.000000 0 0 1
-27.098336 -16.835849 5.039980 32.298096 0.555925 1.414110 0.001588 0.012116 -157036.000000 0 0 1
-27.199536 -17.552649 3.812780 32.595207 0.573085 1.453554 0.004392 0.009250 729479.000000 0 0 1
-28.611436 -18.198249 3.577680 34.096779 0.566505 1.465676 0.004697 0.001682 535316.000000 0 0 1
-29.624636 -17.309849 3.197580 34.459751 0.528800 1.477871 0.009141 -0.001494 283295.000000 0 0 1
-30.912736 -17.876949 3.459080 35.876842 0.524314 1.474231 0.024192 -0.009331 951275.000000 0 0 1
-32.073936 -17.012649 2.861880 36.419197 0.487686 1.492134 0.028056 -0.014800 292916.000000 0 0 1
-32.215936 -17.207449 1.476680 36.553295 0.490576 1.530387 0.027242 -0.009295 -180925.000000 0 0 1
-32.978536 -16.175749 0.864680 36.742160 0.456013 1.547260 0.036777 -0.022547 -115043.000000 0 0 1
-33.606036 -16.728649 -0.439920 37.542068 0.461876 1.582515 0.038123 -0.028482 -376536.000000 0 0 1
-32.634636 -16.932549 -1.426120 36.793539 0.478615 1.609566 0.034845 -0.025738 101824.000000 0 0 1
-33.123336 -17.852149 -2.434820 37.706537 0.494328 1.635414 0.027076 -0.013506 606199.000000 0 0 1
-31.993136 -18.673649 -3.169320 37.179436 0.528331 1.656144 0.023294 -0.007685 462058.000000 0 0 1
-32.492436 -19.397649 -4.265620 38.081789 0.538203 1.683044 0.021819 -0.019800 52915.700000 0 0 1
-31.454036 -20.220849 -4.756820 37.694382 0.571346 1.697328 0.012553 -0.015702 -243148.000000 0 0 1
-31.848336 -21.356049 -5.774620 38.778132 0.590689 1.720267 0.017470 -0.016384 -224040.000000 0 0 1
-32.376236 -22.465449 -5.092620 39.734768 0.606611 1.699315 0.031786 -0.023297 -53887.500000 0 0 1
-32.924936 -23.367349 -6.055420 40.825880 0.617217 1.719669 0.029754 -0.017209 126721.000000 0 0 1
-33.679536 -24.558249 -5.506920 42.044558 0.630039 1.702152 0.044766 -0.016639 -214904.000000 0 0 1
-32.738636 -25.483249 -5.000720 41.787815 0.661421 1.690753 0.048841 -0.016590 -90405.800000 0 0 1
-33.311136 -26.742449 -4.796220 42.985975 0.676451 1.682606 0.048306 -0.008095 735929.000000 0 0 1
-32.212536 -27.737249 -4.265020 42.722276 0.710886 1.670794 0.029978 -0.008172 176228.000000 0 0 1
-31.167536 -28.034649 -5.194520 42.241447 0.732529 1.694080 0.024976 -0.008917 641794.000000 0 0 1
-30.407336 -29.206649 -4.813820 42.435920 0.765260 1.684478 0.020056 -0.001381 400746.000000 0 0 1
-29.434036 -29.007049 -3.609320 41.482509 0.778092 1.657915 0.020988 -0.007529 -981211.000000 0 0 1
-30.017036 -28.769649 -2.350320 41.644197 0.764182 1.627264 0.014178 -0.000112 -478100.000000 0 0 1
-29.043236 -28.597749 -1.340920 40.781599 0.777670 1.603683 0.019492 0.001355 -450661.000000 0 0 1
-29.510636 -28.402949 0.067780 40.958634 0.766274 1.569141 0.022226 0.006635 -68876.500000 0 0 1
-30.088936 -29.557649 0.699780 42.183982 0.776491 1.554207 0.018776 0.015119 480053.000000 0 0 1
-30.744636 -29.307649 1.968780 42.521136 0.761474 1.524479 0.021910 0.011585 306028.000000 0 0 1
-31.457036 -30.543149 2.576480 43.921149 0.770659 1.512101 0.013584 0.017329 -105855.000000 0 0 1
-32.283536 -30.302149 3.758880 44.436202 0.753750 1.486105 0.020848 0.018328 640251.000000 0 0 1
-32.871636 -31.500149 4.230080 45.724145 0.764096 1.478151 0.009880 0.020169 -286240.000000 0 0 1
-34.028636 -32.128049 3.456780 46.926633 0.756677 1.497066 0.010977 0.013274 -905973.000000 0 0 1
-34.530136 -33.307149 3.918380 48.135747 0.767372 1.489303 0.011705 0.007992 246283.000000 0 0 1
34.762033 -33.767049 2.994980 48.554942 -0.770880 1.509075 0.013189 0.005320 -1397510.000000 0 0 1
33.660033 34.500445 3.400480 48.320201 0.797727 1.500364 0.001076 0.010017 -833750.000000 0 0 1
32.726933 -34.253749 4.376580 47.576527 -0.808189 1.478676 -0.001120 0.009814 575522.000000 0 0 1
32.024433 -33.024649 4.042380 46.179352 -0.800773 1.483148 0.008345 0.008290 -499419.000000 0 0 1
31.051833 -32.915549 2.807480 45.337971 -0.814525 1.508833 0.005394 0.007491 -967125.000000 0 0 1
31.563133 -33.480649 1.584780 46.040164 -0.814870 1.536368 0.011223 0.014717 -201975.000000 0 0 1
30.837733 -33.027649 0.429880 45.188230 -0.819674 1.561283 0.010592 0.015663 -475005.000000 0 0 1
31.273733 -33.753749 -0.869820 46.023022 -0.823518 1.589697 0.019253 0.006444 685538.000000 0 0 1
32.515233 -33.376849 -1.438320 46.618914 -0.798474 1.601654 0.009786 0.010416 190231.000000 0 0 1
33.689033 -33.761749 -0.731920 47.700549 -0.786476 1.586141 0.018702 0.016714 -255033.000000 0 0 1
34.973433 -33.554949 -1.554120 48.492174 -0.764702 1.602851 -0.001746 0.028374 -293162.000000 0 0 1
35.084033 34.490745 -2.422520 49.258192 0.776871 1.619996 0.005630 0.010755 131285.000000 0 0 1
-34.518636 -34.289549 -3.578320 48.786409 0.782069 1.644209 0.004946 0.011750 -183982.000000 0 0 1
-33.782236 33.767645 -4.334420 47.961240 -0.785182 1.661293 -0.000523 0.002096 759024.000000 0 0 1
-32.543836 33.282545 -3.785020 46.702842 -0.796620 1.651930 0.008971 0.004512 460457.000000 0 0 1
-31.956336 32.323145 -4.601320 45.685504 -0.791105 1.671685 0.019994 -0.012415 25031.000000 0 0 1
-30.670636 31.781745 -3.929020 44.341904 -0.803188 1.659520 0.025125 -0.010818 -963700.000000 0 0 1
-29.525536 32.542245 -4.151420 44.136031 -0.833963 1.664995 0.006429 -0.007778 -318974.000000 0 0 1
-28.288236 31.893145 -3.907220 42.809618 -0.845227 1.662193 0.009816 -0.011027 451846.000000 0 0 1
-27.961636 31.505145 -2.425920 42.193748 -0.844916 1.628323 -0.000224 -0.008305 -1057950.000000 0 0 1
-28.865836 30.622345 -1.825020 42.122384 -0.814917 1.614136 0.010112 -0.006176 -562855.000000 0 0 1
-28.784136 30.630845 -0.447520 42.035407 -0.816470 1.581443 0.004015 0.002526 -146513.000000 0 0 1
-30.094536 30.216545 0.268080 42.647304 -0.787421 1.564510 0.000855 0.004366 53157.200000 0 0 1
-30.533136 28.899545 0.021080 42.041129 -0.757919 1.570295 0.007613 -0.001574 -640351.000000 0 0 1
-31.483036 28.816545 -0.960520 42.690718 -0.741206 1.593298 0.021662 -0.008615 -757762.000000 0 0 1
-31.786936 27.339545 -1.264620 41.945909 -0.710321 1.600950 0.022601 -0.011929 95955.200000 0 0 1
-32.242836 26.491045 -0.218920 41.730371 -0.687780 1.576042 0.033767 -0.010200 -1802.050000 0 0 1
-32.756336 25.300245 -0.765920 41.396456 -0.657669 1.589299 0.037657 -0.005350 -109167.000000 0 0 1
-32.923436 24.122445 0.227980 40.815401 -0.632326 1.565211 0.042836 -0.007000 -543629.000000 0 0 1
-31.794136 23.464345 0.686780 39.521061 -0.635782 1.553418 0.045340 -0.017924 -623401.000000 0 0 1
-31.261036 23.978945 1.872080 39.442957 -0.654327 1.523316 0.039190 -0.020501 -1070780.000000 0 0 1
-29.799436 23.596245 2.163680 38.071914 -0.669743 1.513934 0.025879 -0.024951 -275573.000000 0 0 1
-28.857036 24.295145 1.393680 37.748178 -0.699781 1.533867 0.030324 -0.016603 4588.940000 0 0 1
-28.578736 25.617045 1.937480 38.428257 -0.730804 1.520357 -0.005968 -0.008474 -704719.000000 0 0 1
-28.027036 26.621045 0.897980 38.665245 -0.759676 1.547570 -0.009287 -0.003368 1046160.000000 0 0 1
-26.639836 26.419845 0.565280 37.523441 -0.781252 1.555731 -0.007010 -0.007852 541130.000000 0 0 1
-26.242536 27.454545 -0.298120 37.980411 -0.807966 1.578646 0.011690 -0.014230 571635.000000 0 0 1
-24.990136 27.047445 -1.141120 36.842548 -0.824913 1.601774 0.006948 -0.007424 22916.100000 0 0 1
-25.281936 26.139945 -2.136920 36.428552 -0.802082 1.629491 0.024382 -0.021033 247945.000000 0 0 1
-24.115336 25.660845 -2.833220 35.327829 -0.816437 1.651081 0.006987 -0.009039 656987.000000 0 0 1
-23.308636 24.599245 -2.042320 33.949763 -0.812331 1.630990 -0.006082 -0.008290 88397.300000 0 0 1
-23.905336 23.289945 -2.053120 33.438031 -0.772360 1.632236 -0.011451 -0.010810 -594486.000000 0 0 1
-23.013336 22.382145 -1.539820 32.139463 -0.771495 1.618725 -0.019923 -0.020676 -1161450.000000 0 0 1
-23.551936 20.966445 -1.255620 31.557283 -0.727386 1.610595 -0.022360 -0.020676 -594879.000000 0 0 1
-24.179136 20.821245 0.021580 31.908546 -0.710917 1.570120 -0.023775 -0.018497 1114160.000000 0 0 1
-25.542336 21.252145 0.208280 33.228120 -0.693972 1.564528 -0.019475 -0.019525 1563970.000000 0 0 1
-26.666136 20.678745 -0.745120 33.752756 -0.659603 1.592874 -0.014931 -0.023618 -166737.000000 0 0 1
-26.856136 19.328745 -0.690020 33.095748 -0.623835 1.591647 -0.018923 -0.014667 292236.000000 0 0 1
-27.817536 18.885645 -1.638320 33.662546 -0.596432 1.619484 0.008309 -0.010398 -11028.200000 0 0 1
-28.170536 17.375445 -1.500520 33.132110 -0.552677 1.616101 -0.014928 0.008971 312180.000000 0 0 1
-28.955936 16.999245 -0.328920 33.578695 -0.530860 1.580592 0.001935 0.004832 713919.000000 0 0 1
-29.029136 15.562945 -0.238420 32.938622 -0.492120 1.578035 0.000560 0.006380 37083.200000 0 0 1
-27.792136 14.854245 0.372780 31.514923 -0.490847 1.558967 -0.001854 0.009599 -544268.000000 0 0 1
-27.548436 15.245345 1.736480 31.533351 -0.505451 1.515700 0.002828 0.016207 768754.000000 0 0 1
-26.306836 14.763445 2.279680 30.252370 -0.511403 1.495369 -0.005568 0.011177 549661.000000 0 0 1
-26.118236 13.240745 2.371980 29.378663 -0.469195 1.489970 -0.000078 0.014735 -487241.000000 0 0 1
-26.002736 12.550545 1.117880 28.894777 -0.449682 1.532099 -0.002419 0.008259 306312.000000 0 0 1
-25.798136 11.155545 1.331580 28.138285 -0.408136 1.523456 0.021942 0.005007 -80960.300000 0 0 1
-25.584436 10.350345 0.044480 27.598822 -0.384428 1.569185 0.018697 -0.005676 -295781.000000 0 0 1
-26.811636 9.990545 -0.535620 28.617507 -0.356682 1.589514 0.018410 -0.003133 -238328.000000 0 0 1
-26.704136 9.386145 -1.818320 28.364007 -0.337999 1.634947 0.023130 -0.002629 99541.900000 0 0 1
-28.015436 9.028645 -2.581220 29.547314 -0.311764 1.658267 0.023238 -0.007914 196318.000000 0 0 1
-27.790736 8.636045 -3.901020 29.361952 -0.301292 1.704050 0.038783 -0.010285 -1285940.000000 0 0 1
-28.938936 8.323545 -4.541720 30.452761 -0.280065 1.720495 0.012445 -0.004974 -1223360.000000 0 0 1
-11.367967 18.492445 -20.423420 29.804652 -1.019612 2.325733 0.036220 0.004123 324646.000000 0 0 1
-11.777067 17.546745 -21.432820 30.099059 -0.979674 2.363247 0.022323 -0.002732 541223.000000 0 0 1
-10.879767 17.656845 -22.565420 30.648518 -1.018566 2.398330 0.029244 -0.016576 458391.000000 0 0 1
-10.972567 16.303945 -23.380120 30.542525 -0.978421 2.442605 0.027243 -0.015954 15097.500000 0 0 1
-10.425067 15.140945 -22.769420 29.263915 -0.967807 2.462386 0.021043 -0.012109 -31077.300000 0 0 1
-10.408867 14.006445 -23.675420 29.411741 -0.931695 2.506413 0.017642 -0.007077 -44234.200000 0 0 1
-9.636967 12.784945 -23.125920 28.127106 -0.924884 2.536050 0.008794 -0.003701 538639.000000 0 0 1
-8.210567 12.926745 -23.156320 27.762012 -1.004923 2.557297 0.016797 -0.009468 243781.000000 0 0 1
-7.729867 11.715945 -22.734820 26.718650 -0.987581 2.588487 0.006626 -0.002885 -65636.600000 0 0 1
-6.222467 11.636145 -22.417820 26.013028 -1.079734 2.609588 0.009600 -0.001510 390422.000000 0 0 1
-5.388267 11.517945 -23.555320 26.768443 -1.133227 2.646587 0.012772 -0.009996 -252276.000000 0 0 1
-4.006167 11.503645 -23.284620 26.278446 -1.235680 2.659600 0.024318 -0.005560 118890.000000 0 0 1
-3.226867 10.973145 -24.519920 27.056405 -1.284789 2.705128 0.033869 -0.015533 -301267.000000 0 0 1
-3.173567 9.551145 -24.622120 26.599712 -1.250002 2.753556 0.029464 -0.010411 1937.040000 0 0 1
-3.056467 9.098345 -25.885890 27.607991 -1.246705 2.786525 0.027035 -0.016786 -386047.000000 0 0 1
-2.670767 7.622745 -25.975510 27.202322 -1.233794 2.840121 0.028443 -0.005904 -591134.000000 0 0 1
-1.313367 7.486445 -25.652100 26.754476 -1.397131 2.853532 0.030921 0.001229 -319350.000000 0 0 1
-0.962267 6.140745 -25.435420 26.183874 -1.415358 2.901919 0.032128 -0.003480 126934.000000 0 0 1
0.527933 6.052945 -25.011920 25.739328 1.483797 2.903287 0.023114 -0.002504 132265.000000 0 0 1
0.773733 6.610745 -23.745620 24.660800 1.454285 2.868307 0.016649 -0.000288 -160584.000000 0 1 0
1.523733 5.774545 -22.911320 23.676902 1.312806 2.886601 0.019196 -0.008010 -240584.000000 0 1 0
1.658833 6.359645 -21.554920 22.534670 1.315644 2.845632 0.017754 -0.013842 618110.000000 0 1 0
2.529033 7.512745 -21.465420 22.882342 1.246080 2.787836 0.007523 -0.014240 601233.000000 0 1 0
2.119233 8.282945 -20.329220 22.053923 1.320315 2.743485 0.005961 -0.014837 423591.000000 0 1 0
2.970433 9.600745 -20.311520 22.661765 1.270742 2.682129 0.009591 -0.018128 -39841.100000 0 1 0
2.656833 10.518445 -19.254620 22.100607 1.323383 2.628490 0.015612 -0.015175 70110.100000 0 1 0
3.335333 11.762145 -19.387120 22.920142 1.294485 2.578963 0.019226 -0.009922 128781.000000 0 1 0
4.699633 11.804145 -18.657720 22.572880 1.191899 2.543755 0.017727 -0.017488 269760.000000 0 1 0
5.671133 11.034245 -19.375720 23.007278 1.096045 2.572066 0.020137 -0.009084 172464.000000 0 1 0
6.841633 10.848845 -18.561720 22.561977 1.008157 2.536939 0.024975 -0.002204 760537.000000 0 1 0
7.767433 9.774445 -19.234820 22.931443 0.899315 2.565866 0.020165 0.002006 -84405.400000 0 1 0
7.304433 8.451845 -19.136520 22.158403 0.858092 2.613210 0.026172 -0.007249 -50596.800000 0 1 0
6.369833 8.113145 -20.156220 22.642241 0.905192 2.668590 0.009308 -0.009471 164542.000000 0 1 0
6.102833 6.595045 -20.345420 22.241297 0.824142 2.725707 0.020050 -0.005487 571409.000000 0 1 0
7.361133 5.962245 -20.551220 22.629345 0.680786 2.709680 0.024747 0.001716 521493.000000 0 1 0
7.104033 4.647945 -20.958720 22.612797 0.579370 2.756736 0.023313 0.007763 7681.550000 0 1 0
6.998633 4.286545 -22.477720 23.929129 0.549548 2.791513 0.028742 0.002533 -69934.200000 0 1 0
5.848633 4.827445 -23.090820 24.304252 0.690036 2.824267 0.014964 -0.000622 -87187.300000 0 1 0
5.921833 4.502445 -24.445220 25.552082 0.650069 2.846180 0.020992 -0.002651 -66967.600000 0 0 1
4.849433 5.246145 -25.270670 26.261108 0.824674 2.866077 0.006578 -0.005917 -157972.000000 0 0 1
4.975733 6.650245 -25.411540 26.734435 0.928446 2.825693 0.012566 -0.004554 80184.900000 0 0 1
4.776133 7.401245 -24.236820 25.787852 0.997722 2.792999 0.016065 -0.009548 -1182790.000000 0 0 1
4.889433 8.970245 -24.588020 26.625975 1.071744 2.747798 0.020999 -0.012832 337754.000000 0 0 1
3.834433 9.525145 -25.382060 27.380289 1.188086 2.757182 0.013674 -0.004452 683299.000000 0 0 1
2.560333 9.393945 -24.770320 26.615226 1.304708 2.767070 0.008088 -0.000052 -325048.000000 0 0 1
1.312533 9.759845 -25.599600 27.428394 1.437115 2.774361 0.014287 0.008403 119196.000000 0 0 1
1.242533 11.130245 -26.002670 28.311925 1.459621 2.734903 0.021353 -0.003524 222142.000000 0 0 1
-0.013267 11.318945 -26.636860 28.942028 -1.569624 2.739776 0.040874 -0.011777 150117.000000 0 0 1
-0.360067 12.769645 -27.025710 29.892850 -1.542607 2.700033 0.031695 -0.012949 -211740.000000 0 0 1
-0.328167 13.636645 -25.923490 29.293226 -1.546736 2.657216 0.026600 -0.010331 138267.000000 0 0 1
-0.557167 14.956045 -26.408890 30.354953 -1.533560 2.626004 0.023593 -0.020289 -281102.000000 0 0 1
-1.003267 15.916945 -25.237220 29.854195 -1.507848 2.578015 0.028563 -0.021199 -224254.000000 0 0 1
-2.296567 15.610545 -24.798120 29.392347 -1.424728 2.574922 0.032189 -0.013548 -459389.000000 0 0 1
-2.543267 15.880245 -23.405020 28.397981 -1.411992 2.539547 0.036813 -0.021161 -694619.000000 0 0 1
-3.726867 15.122645 -22.835220 27.641114 -1.329168 2.543005 0.038597 -0.022233 -40364.000000 0 0 1
-5.019267 15.507445 -23.248620 28.393172 -1.257769 2.530132 0.028507 -0.018957 -23042.100000 0 0 1
-5.446467 15.071145 -24.555820 29.322205 -1.224016 2.563393 0.036302 -0.022525 -425667.000000 0 0 1
-6.864667 15.461545 -25.001320 30.186901 -1.152957 2.546716 0.028084 -0.027374 -31127.800000 0 0 1
-7.109967 16.855245 -25.193930 31.134948 -1.171618 2.513560 0.032550 -0.027089 80527.500000 0 0 1
-8.419167 16.943245 -25.743280 31.947964 -1.109629 2.507801 0.027744 -0.024263 232215.000000 0 0 1
-9.029467 18.333445 -26.146840 33.185896 -1.113156 2.478172 0.022687 -0.016176 -14129.600000 0 0 1
-9.571367 19.130745 -25.141480 33.010460 -1.106898 2.436608 0.023369 -0.022891 -580642.000000 0 0 1
-10.603567 19.887545 -25.679010 34.166674 -1.080961 2.421251 0.029650 -0.018340 -105655.000000 0 0 1
-11.164867 20.991845 -24.704620 34.287462 -1.081981 2.375341 0.011109 -0.012289 -33476.200000 0 0 1
-10.241767 22.033345 -24.452820 34.471763 -1.135678 2.359383 0.013991 -0.004032 129072.000000 0 0 1
-10.516467 23.242245 -25.149680 35.823239 -1.145889 2.349067 0.022408 -0.021159 -385186.000000 0 0 1
-10.235767 23.242945 -26.703860 36.852429 -1.155970 2.381273 0.014835 -0.021547 -287168.000000 0 0 1
-11.131867 22.474745 -27.500930 37.220072 -1.110911 2.402194 0.006664 -0.012162 -60717.100000 0 0 1
-10.988667 22.678245 -28.898340 38.342765 -1.119588 2.424446 0.026030 -0.009769 -218554.000000 0 0 1
-11.671467 21.647645 -29.811990 38.647101 -1.076316 2.451819 0.025458 -0.007796 -137977.000000 0 0 1
-10.831767 20.614645 -30.247130 38.173022 -1.087004 2.485479 0.028797 -0.014843 -223810.000000 0 0 1
-10.629367 19.662745 -29.261530 36.821788 -1.075211 2.489276 0.019351 -0.014549 166068.000000 0 0 1
-9.503467 18.661845 -29.645730 36.296689 -1.099779 2.526572 0.015063 -0.013002 592035.000000 0 0 1
-8.140567 19.149445 -29.610330 36.190354 -1.168835 2.529040 0.020465 -0.020389 461021.000000 0 0 1
-7.262567 18.376345 -30.329410 36.198177 -1.194424 2.564168 0.020271 -0.019354 -125212.000000 0 0 1
-6.818567 17.034845 -29.641960 34.861506 -1.190056 2.587309 0.025662 -0.023890 -458400.000000 0 0 1
-7.921167 16.114445 -29.595310 34.616507 -1.113926 2.596247 0.026150 -0.024071 394970.000000 0 0 1
-7.798067 14.971545 -28.742890 33.333327 -1.090601 2.610564 0.017292 -0.020388 -310497.000000 0 0 1
-9.094867 14.156145 -28.583070 33.167830 -0.999734 2.609547 0.018249 -0.011050 349364.000000 0 0 1
-10.041467 14.814445 -27.726450 33.000831 -0.975115 2.568401 0.017734 -0.018328 702008.000000 0 0 1
-11.343567 14.234645 -27.872290 33.289130 -0.897949 2.563084 0.028084 -0.009372 1080750.000000 0 0 1
-12.462367 14.856245 -26.978690 33.224514 -0.872803 2.518387 0.022519 -0.004122 287095.000000 0 0 1
-12.949567 16.083545 -27.438140 34.339820 -0.892927 2.496457 0.022076 -0.008043 120159.000000 0 0 1
-14.062167 16.481645 -26.632830 34.332154 -0.864446 2.458683 -0.000012 -0.008418 503939.000000 0 0 1
-14.768767 17.784145 -27.081420 35.606117 -0.877765 2.435007 -0.019248 -0.001614 4768.650000 0 0 1
-13.947767 18.886045 -26.813740 35.639859 -0.934681 2.422422 -0.016372 0.001229 154809.000000 0 0 1
-14.707667 20.012845 -27.156240 36.800690 -0.937022 2.400791 -0.037318 0.005507 29.967700 0 0 1
-14.044467 21.371745 -26.903620 37.118773 -0.989410 2.381538 -0.012372 0.003383 -297611.000000 0 0 1
-15.002567 22.379345 -27.188360 38.276873 -0.980230 2.360732 -0.025387 -0.004835 259533.000000 0 0 1
-14.461167 23.666645 -27.261190 38.889689 -1.022302 2.347578 -0.008990 -0.006010 60337.700000 0 0 1
-13.856067 24.309945 -25.936770 38.153375 -1.052746 2.318290 -0.023516 -0.001599 -51303.200000 0 0 1
-13.328667 25.576345 -26.252880 39.000211 -1.090386 2.309253 -0.003018 -0.014175 -202642.000000 0 0 1
-12.969167 26.291745 -25.107880 38.598715 -1.112540 2.279019 0.008146 -0.023086 -163101.000000 0 0 1
-12.743567 27.775345 -25.362880 39.713272 -1.140641 2.263539 0.024163 -0.023614 165184.000000 0 0 1
-13.918067 28.426745 -25.857790 40.870744 -1.115494 2.255795 0.037496 -0.026760 357123.000000 0 0 1
-14.453267 29.322345 -24.876920 41.079897 -1.112837 2.221283 0.042016 -0.023435 -332293.000000 0 0 1
-15.853867 29.788845 -25.265840 42.155463 -1.081715 2.213484 0.037246 -0.024726 -158182.000000 0 0 1
-16.863967 28.789745 -25.232740 41.832212 -1.040911 2.218290 0.027037 -0.017658 -72334.600000 0 0 1
-18.102667 29.288845 -25.702180 42.966790 -1.017193 2.212033 0.018655 -0.015132 33204.000000 0 0 1
-19.215367 28.230945 -25.599670 42.679734 -0.973176 2.214058 0.025653 0.002942 -281827.000000 0 0 1
-19.642267 28.085145 -24.238420 41.977315 -0.960485 2.186358 0.033243 -0.010145 -26891.100000 0 0 1
-20.513267 26.953245 -24.207520 41.632626 -0.920249 2.191313 0.034963 -0.020211 -255695.000000 0 0 1
-21.201867 26.781545 -22.880720 41.113230 -0.901162 2.160999 0.026100 -0.014019 175723.000000 0 0 1
-22.180067 27.808045 -22.607820 42.146841 -0.897512 2.136969 0.015579 -0.008465 274237.000000 0 0 1
-22.514567 27.911245 -21.254920 41.685908 -0.892014 2.105845 0.001457 -0.004911 -612179.000000 0 0 1
-23.770567 28.768445 -21.096520 42.868711 -0.880240 2.085319 -0.013637 0.002188 69086.200000 0 0 1
-24.972867 28.024145 -21.345920 43.181536 -0.842909 2.087860 -0.019144 0.003918 630265.000000 0 0 1
-26.081017 28.937845 -21.398920 44.446958 -0.837276 2.073103 -0.002291 0.004255 665329.000000 0 0 1
-27.401387 28.287345 -21.896520 45.060709 -0.801306 2.078228 -0.008091 0.007796 -38012.600000 0 0 1
-27.322397 27.540445 -23.105820 45.153830 -0.789373 2.107974 -0.016242 0.006937 290200.000000 0 0 1
-28.631997 27.240045 -23.594720 46.027406 -0.760490 2.109034 -0.004556 0.009948 642574.000000 0 0 1
-28.658197 26.697745 -25.059520 46.497757 -0.749998 2.139975 -0.005854 0.016014 9377.070000 0 0 1
-27.980117 25.500545 -25.336970 45.553559 -0.739067 2.160605 -0.004845 0.013087 -207953.000000 0 0 1
-28.057067 25.358945 -26.683530 46.284834 -0.734930 2.185244 0.021734 0.009011 -63410.100000 0 0 1
-28.102677 23.918845 -27.164530 45.823392 -0.705146 2.205339 0.014007 -0.000927 6558.060000 0 0 1
-26.910897 23.152245 -27.050800 44.631475 -0.710461 2.221935 -0.008638 0.000096 75928.900000 0 0 1
-27.106907 21.856845 -27.658750 44.469231 -0.678583 2.242059 0.018088 -0.014782 -262690.000000 0 0 1
-25.884297 20.928745 -27.698980 43.304072 -0.679933 2.264825 0.006974 0.001634 -104992.000000 0 0 1
-25.428557 20.448645 -26.434770 41.994710 -0.677273 2.251678 0.014968 0.002130 -244037.000000 0 0 1
-24.930967 19.178645 -26.495090 41.126188 -0.655720 2.270824 -0.013539 -0.005225 -723309.000000 0 0 1
-25.898387 18.004445 -26.258430 41.041340 -0.607494 2.265040 -0.008906 0.005303 8506.420000 0 0 1
-26.872797 17.836945 -27.292140 42.251210 -0.585984 2.273063 0.000658 -0.002486 152993.000000 0 0 1
-27.685887 16.774845 -26.915300 42.099134 -0.544746 2.264425 -0.001095 -0.003898 -1003920.000000 0 0 1
-28.558447 16.240245 -28.010590 43.173181 -0.517062 2.276798 0.002412 -0.006686 -522582.000000 0 0 1
-29.843477 16.827145 -28.041450 44.273116 -0.513412 2.256702 0.009319 -0.013406 -479226.000000 0 0 1
-30.502307 16.223045 -29.098890 45.169938 -0.488812 2.270785 0.023785 -0.003134 11238.100000 0 0 1
-31.777437 16.978245 -29.589430 46.621890 -0.490699 2.258375 0.025068 -0.008689 327072.000000 0 0 1
-32.906587 16.653445 -28.803230 46.795371 -0.468502 2.233835 0.021595 -0.010115 -191957.000000 0 0 1
-34.069860 17.196045 -29.382660 48.164302 -0.467424 2.226921 0.022371 -0.008333 356871.000000 0 0 1
34.871112 16.894145 -28.677440 48.205831 0.451150 2.207932 0.021860 -0.003986 288425.000000 0 0 1
34.597826 17.756745 -27.571980 47.671015 0.474178 2.187538 0.028023 -0.015557 -171005.000000 0 0 1
33.537592 17.282645 -26.795300 46.275782 0.475830 2.188341 0.039827 -0.011366 -252231.000000 0 0 1
33.059772 18.294745 -25.726070 45.710796 0.505437 2.168567 0.043613 -0.012378 -68829.500000 0 0 1
32.526902 19.413145 -26.376020 46.158033 0.538088 2.179042 0.046447 -0.019961 -80516.600000 0 0 1
32.120732 20.430545 -25.488040 45.812539 0.566509 2.160789 0.049065 -0.014750 -414079.000000 0 0 1
31.260602 21.523645 -26.185670 46.110539 0.602982 2.174735 0.047538 -0.015635 -308568.000000 0 0 1
29.970762 21.105145 -26.545820 45.258748 0.613533 2.197570 0.037745 -0.021008 -659570.000000 0 0 1
29.079602 21.600645 -25.567570 44.338603 0.638884 2.185411 0.049783 -0.015847 -1142320.000000 0 0 1
27.619272 21.550945 -25.961360 43.603436 0.662604 2.208556 0.015867 -0.015701 -476221.000000 0 0 1
27.197742 20.173745 -26.173720 42.799074 0.638196 2.228813 0.020960 -0.027375 -207657.000000 0 0 1
25.842502 20.139945 -26.577740 42.188014 0.662012 2.252328 0.016471 -0.025578 -17089.800000 0 0 1
25.375862 18.655045 -26.724170 41.305282 0.633929 2.274429 0.033398 -0.022278 192813.000000 0 0 1
26.164652 17.865445 -27.656620 42.055342 0.599095 2.288457 0.028965 -0.020803 609954.000000 0 0 1
27.281702 17.252445 -27.018780 42.094567 0.563890 2.267717 0.023528 -0.018285 -47056.500000 0 0 1
28.141822 16.343545 -27.879530 42.852559 0.526150 2.279160 0.006498 -0.004486 -315486.000000 0 0 1
27.562342 15.147745 -28.373060 42.357613 0.502522 2.304797 0.019669 -0.011682 -77997.900000 0 0 1
27.058542 14.107545 -27.544930 41.108523 0.480598 2.305078 0.030887 -0.012838 -289245.000000 0 0 1
28.106152 13.396845 -26.682890 41.004973 0.444795 2.279333 0.022547 -0.003064 -85786.200000 0 0 1
28.548112 14.207345 -25.595490 40.889760 0.461776 2.247163 0.027812 -0.013908 171542.000000 0 0 1
29.397202 13.496845 -24.685620 40.690787 0.430412 2.222653 0.025548 -0.013857 81054.900000 0 0 1
-13.740267 -31.057049 -24.936320 42.132591 1.154264 2.204153 0.055084 0.022239 -117472.000000 0 0 1
-13.024267 -29.945749 -25.339310 41.333522 1.160546 2.230705 0.035779 0.014505 -432780.000000 0 0 1
-13.377367 -29.570349 -26.662270 42.002811 1.145956 2.258512 0.023979 0.023234 -436614.000000 0 0 1
-12.773867 -28.295849 -27.135380 41.232943 1.146746 2.289088 0.032341 0.017435 -440865.000000 0 0 1
-13.312967 -27.184749 -26.359250 40.137958 1.115405 2.287252 0.044985 0.010447 407114.000000 0 0 1
-13.027067 -25.907749 -26.914850 39.564189 1.104891 2.318945 0.039853 0.004434 -257768.000000 0 0 1
-13.544067 -24.750549 -26.013740 38.376374 1.070088 2.315642 0.027369 -0.003037 192422.000000 0 0 1
-12.809067 -24.525349 -24.785920 37.147096 1.089485 2.301290 0.017521 -0.006712 484440.000000 0 0 1
-13.239567 -23.280349 -24.268920 36.141959 1.053708 2.307012 0.024204 -0.003980 48731.300000 0 0 1
-12.585567 -22.919149 -22.921920 34.772090 1.068622 2.290557 0.016900 -0.008819 -727974.000000 0 0 1
-11.223067 -22.698049 -22.997420 34.205847 1.111598 2.308140 0.018820 -0.010789 -887397.000000 0 0 1
-10.650167 -22.198649 -21.775520 32.869124 1.123466 2.294937 0.022732 -0.012105 -215448.000000 0 0 1
-9.144267 -21.981749 -21.873620 32.330638 1.176579 2.313878 0.018312 -0.014152 -488529.000000 0 0 1
-8.814467 -21.044149 -22.900020 32.325871 1.174141 2.358041 0.019462 -0.009890 885605.000000 0 0 1
-7.464667 -20.546749 -22.803320 31.589263 1.222321 2.377296 0.018784 -0.006693 730667.000000 0 0 1
-7.188867 -19.368949 -23.756120 31.483157 1.215402 2.425789 0.009385 0.001373 272681.000000 0 0 1
-7.812767 -18.134249 -23.281520 30.527356 1.163999 2.438188 0.012545 0.003631 284743.000000 0 0 1
-8.134967 -17.036249 -24.166520 30.666466 1.125303 2.478421 0.000724 0.002924 390567.000000 0 0 1
-6.961967 -16.358749 -24.978320 30.659323 1.168434 2.523017 0.000653 0.005670 447522.000000 0 0 1
-6.628967 -17.164149 -26.142470 31.968421 1.202234 2.528303 0.001717 0.000821 -237533.000000 0 0 1
-5.801667 -16.459049 -27.002270 32.150928 1.231904 2.567821 -0.001442 -0.003268 -387679.000000 0 0 1
-5.468567 -17.345549 -28.223180 33.575604 1.265388 2.569160 0.000765 -0.002686 -39099.400000 0 0 1
-6.578667 -17.205249 -29.085120 34.427367 1.205585 2.577035 0.011562 -0.001976 222102.000000 0 0 1
-6.355967 -17.916949 -30.268900 35.743834 1.229900 2.580790 0.018684 -0.008528 -42130.000000 0 0 1
-7.214767 -17.501949 -31.496950 36.748182 1.179795 2.600414 0.019079 -0.011990 -96.516800 0 0 1
-6.762467 -16.504349 -32.380890 36.968182 1.181923 2.638120 0.018457 -0.016584 -242920.000000 0 0 1
-6.579767 -15.186449 -31.792570 35.842559 1.161945 2.661617 0.009280 -0.015048 -352467.000000 0 0 1
-7.092267 -14.031149 -32.682040 36.266915 1.102786 2.693218 0.019985 -0.015166 348330.000000 0 0 1
-6.324067 -13.825549 -33.906720 37.159188 1.141790 2.720082 0.028881 -0.023670 380432.000000 0 0 1
-6.926167 -12.933449 34.313443 37.318337 1.079135 0.404042 0.037666 -0.017910 -185202.000000 0 0 1
-6.870267 -11.440749 -34.412238 36.909259 1.030003 2.771647 0.026548 -0.010229 732969.000000 0 0 1
-5.620567 -10.740449 -34.543699 36.608949 1.088676 2.804095 0.024116 -0.005937 474635.000000 0 0 1
-5.482867 -10.278149 33.316164 35.294036 1.080749 0.336366 0.024316 -0.013838 575524.000000 0 0 1
-4.205467 -9.376449 33.092499 34.651367 1.149179 0.301093 0.016006 -0.011091 182688.000000 0 0 1
-4.222067 -8.644149 31.891639 33.311016 1.116447 0.292971 0.016520 -0.004779 -294567.000000 0 0 1
-3.180067 -7.710349 31.884029 32.956845 1.179611 0.255853 0.011675 -0.004707 -1179690.000000 0 0 1
-3.339867 -6.729049 30.736199 31.640935 1.110084 0.239713 0.005201 -0.002659 629253.000000 0 0 1
-4.445367 -5.816049 30.873069 31.729073 0.918188 0.232812 0.009250 0.002085 328686.000000 0 0 1
-5.682267 -6.398649 30.543329 31.719486 0.844627 0.273172 0.005083 0.002677 -514984.000000 0 0 1
-6.843667 -5.379949 30.348479 31.572295 0.666221 0.279340 -0.003253 0.009152 42975.900000 0 0 1
-8.031867 -6.031649 30.021689 31.657440 0.644118 0.322867 -0.001937 0.010286 -21546.900000 0 0 1
-9.209367 -5.180549 30.031839 31.836487 0.512413 0.338315 -0.006150 0.006549 1027970.000000 0 0 1
-10.313467 -6.031649 29.341899 31.681153 0.529192 0.386689 0.004588 0.005242 -382839.000000 0 0 1
-10.129867 -5.988549 27.943429 30.320161 0.533907 0.398582 -0.009759 0.012087 130360.000000 0 0 1
-11.089867 -6.675849 27.174079 30.099546 0.541872 0.444544 -0.007299 0.003736 -319416.000000 0 0 1
-10.909967 -6.565049 25.674579 28.658528 0.541704 0.460390 -0.010556 0.000793 -625021.000000 0 0 1
-9.638067 -6.932549 25.240369 27.893168 0.623554 0.439665 0.001519 0.000189 -144389.000000 0 0 1
-9.182467 -6.469249 23.937729 26.442083 0.613754 0.438737 -0.001679 -0.003402 -238831.000000 0 0 1
-10.106867 -6.856249 22.781529 25.848694 0.596065 0.492102 -0.004865 -0.005471 -280448.000000 0 0 1
-11.237767 -6.005349 22.721329 26.050152 0.490780 0.511084 -0.013104 -0.004102 -197249.000000 0 0 1
-11.953267 -6.411249 21.544629 25.458903 0.492310 0.561887 -0.007634 -0.005712 266437.000000 0 0 1
-13.112867 -5.373149 21.315529 25.596285 0.388893 0.586724 0.000324 -0.003941 455765.000000 0 0 1
-12.689267 -4.057449 20.954929 24.831219 0.309480 0.566295 -0.010244 0.002935 -415156.000000 0 1 0
-13.837767 -3.287449 20.896329 25.277414 0.233247 0.597615 -0.004458 0.006817 -324780.000000 0 0 1
-13.505667 -1.831449 20.495429 24.613408 0.134784 0.586842 -0.000573 0.010830 171997.000000 0 1 0
-12.453467 -1.171449 21.180729 24.598464 0.093790 0.533448 -0.006647 0.002916 172508.000000 0 1 0
-12.467067 0.228551 20.987629 24.412304 -0.018330 0.536084 0.011238 -0.001201 -610485.000000 0 1 0
-12.197367 0.890551 19.640429 23.136882 -0.072882 0.556934 0.018444 -0.010453 136624.000000 0 1 0
-13.169467 0.595551 18.621729 22.815747 -0.045191 0.616030 0.028143 -0.006497 217849.000000 0 1 0
-14.405967 1.246551 18.836029 23.746195 -0.086315 0.654712 0.019584 0.004408 -498569.000000 0 1 0
-15.504567 0.637551 17.959929 23.735145 -0.041097 0.712575 0.033588 0.008016 -307434.000000 0 1 0
-15.707567 -0.692449 18.262029 24.097901 0.044055 0.710821 0.013443 0.003388 1116760.000000 0 1 0
-16.785267 -1.279449 17.465529 24.257512 0.076077 0.766987 0.012749 0.012599 993696.000000 0 1 0
-16.831767 -2.765449 17.597129 24.507449 0.162844 0.769826 0.016952 0.011195 -202323.000000 0 1 0
-17.094367 -3.188449 18.895129 25.678970 0.184401 0.743918 0.004719 0.014468 182949.000000 0 0 1
-16.993167 -4.567349 19.142729 26.001394 0.262570 0.743330 0.003944 0.011992 -434972.000000 0 0 1
-17.535367 -5.031649 20.502129 27.443467 0.279435 0.727156 -0.007208 0.014995 -50677.100000 0 0 1
-16.707067 -4.703449 21.623529 27.727703 0.274422 0.676366 -0.007106 0.013777 301358.000000 0 0 1
-17.419867 -4.715349 22.833929 29.104546 0.264353 0.668829 -0.006033 0.009326 -412653.000000 0 0 1
-17.784567 -6.070949 23.470229 30.066574 0.328958 0.675157 0.016339 0.006752 -74062.100000 0 0 1
-16.725567 -6.826749 23.995129 30.035234 0.387523 0.645333 0.005894 -0.003258 153681.000000 0 0 1
-15.808367 -7.363349 23.043729 28.898734 0.435905 0.647829 0.013447 0.000564 270598.000000 0 0 1
-14.615267 -8.112949 23.747829 29.041098 0.506751 0.613337 0.009163 0.005734 333170.000000 0 0 1
-14.944367 -9.389749 24.185339 29.940476 0.560979 0.630419 0.006360 -0.002145 201602.000000 0 0 1
-14.310067 -9.542449 25.435049 30.704691 0.588119 0.594593 0.007923 0.004839 54518.100000 0 0 1
-15.135467 -10.323449 26.478009 32.198461 0.598591 0.605289 0.014873 -0.003746 -667658.000000 0 0 1
-15.132667 -11.710449 26.471339 32.662884 0.658593 0.625892 0.014100 -0.014219 -613106.000000 0 0 1
-14.170067 -12.169149 27.349839 33.119370 0.709577 0.599184 0.017066 -0.013671 -562321.000000 0 0 1
-14.099367 -13.717049 27.442529 33.764508 0.771655 0.621918 0.007503 -0.017184 86611.000000 0 0 1
-15.278567 -14.290049 27.987119 34.941650 0.751979 0.641887 0.009440 -0.019286 176303.000000 0 0 1
-15.467967 -15.629149 27.570879 35.265871 0.790581 0.673248 0.014674 -0.004549 -302009.000000 0 0 1
-14.586367 -16.807549 28.064949 35.817554 0.856032 0.670433 0.018209 -0.002383 124319.000000 0 0 1
-13.287867 -16.805849 27.487729 34.850814 0.901771 0.662063 0.020958 -0.010667 -11417.700000 0 0 1
-12.456567 -17.593949 28.282709 35.561562 0.954719 0.651266 0.027877 -0.006072 -407991.000000 0 0 1
-11.148767 -17.957549 27.539399 34.715804 1.015194 0.654617 0.033445 -0.011973 -193456.000000 0 0 1
-10.194067 -18.424749 28.461709 35.404226 1.065437 0.636961 0.041027 -0.014450 501301.000000 0 0 1
-9.010167 -18.865749 27.787999 34.774595 1.125234 0.645018 0.040126 -0.011394 861503.000000 0 0 1
-7.867067 -19.594949 28.559559 35.517618 1.189011 0.636644 0.038706 -0.013508 229614.000000 0 0 1
-8.197467 -20.850049 29.089189 36.716535 1.196198 0.656286 0.027015 -0.008254 2514.670000 0 0 1
-7.085467 -21.481749 29.674569 37.312859 1.252196 0.651309 0.028765 -0.009630 -129619.000000 0 0 1
-7.534767 -22.693349 30.458369 38.723030 1.250223 0.665562 0.021368 -0.004322 66556.800000 0 0 1
-7.689267 -23.843249 29.621129 38.794801 1.258834 0.702029 0.015061 -0.002914 14341.500000 0 0 1
-7.868167 -24.998849 30.385369 40.126315 1.265871 0.711715 0.014759 -0.002774 -368384.000000 0 0 1
-7.993767 -26.295949 29.593679 40.387660 1.275681 0.748456 0.009639 -0.004341 -281944.000000 0 0 1
-9.179267 -26.357749 28.821089 40.120382 1.235675 0.769347 0.024973 -0.008558 134458.000000 0 0 1
-9.226267 -27.462549 27.965099 40.266144 1.246685 0.803063 0.031479 -0.010790 73965.600000 0 0 1
-10.615367 -27.746149 27.311079 40.353808 1.205389 0.827402 0.032868 -0.007117 459647.000000 0 0 1
-11.030467 -27.097349 26.086009 39.197160 1.184212 0.842623 0.052765 -0.014377 346840.000000 0 0 1
-11.241967 -25.717849 26.097529 38.325847 1.158699 0.821754 0.048281 -0.007446 -459388.000000 0 0 1
-11.487067 -25.275349 24.645549 37.124103 1.144225 0.844816 0.060000 -0.023886 153267.000000 0 0 1
-12.781167 -25.552649 24.138539 37.402743 1.106997 0.869291 0.051293 -0.014209 191184.000000 0 0 1
-12.866767 -25.312049 22.792229 36.410702 1.100510 0.894414 0.049042 -0.013441 348346.000000 0 0 1
-14.281467 -25.300749 22.114529 36.512198 1.056913 0.920182 0.029351 -0.010318 441245.000000 0 0 1
-14.760067 -26.650549 21.977629 37.564977 1.065012 0.945847 0.041135 -0.008901 -510227.000000 0 0 1
-15.757067 -26.704449 21.035829 37.468905 1.037722 0.974694 0.025765 -0.006457 -620583.000000 0 0 1
-16.007467 -28.155249 20.584629 38.375565 1.053828 1.004631 0.023047 -0.009210 -203426.000000 0 0 1
-14.940767 -28.637649 19.825729 37.899881 1.089926 1.020303 0.014232 -0.000642 -278821.000000 0 0 1
-15.190367 -29.893649 19.245529 38.662228 1.100652 1.049752 0.016768 0.006158 325754.000000 0 0 1
-14.202667 -30.334249 18.100229 38.072309 1.132906 1.075358 0.010586 -0.001708 193648.000000 0 0 1
-14.370967 -29.547549 16.945229 36.969218 1.118114 1.094647 0.016293 -0.010545 143690.000000 0 0 1
-13.254767 -29.624849 16.072929 36.216841 1.150090 1.110965 0.029222 -0.015936 142691.000000 0 0 1
-13.437167 -28.900549 14.726329 35.109314 1.135584 1.137966 0.001569 -0.005065 -268753.000000 0 0 1
-13.599467 -27.479349 14.688329 33.997163 1.111239 1.124036 -0.000233 -0.006975 68270.400000 0 0 1
-13.980467 -26.926049 13.437229 33.181692 1.091893 1.153862 0.001987 -0.002186 236438.000000 0 0 1
-12.928167 -27.095849 12.302629 32.444987 1.125614 1.181882 -0.005275 -0.002683 356612.000000 0 0 1
-13.488967 -26.605649 11.114429 31.833054 1.101567 1.214135 -0.013882 0.007961 -65517.300000 0 0 1
-12.714867 -27.062449 10.031529 31.538477 1.131571 1.247100 -0.005747 0.004358 -6920.640000 0 0 1
-12.945567 -26.322349 8.680429 30.590907 1.113723 1.283085 0.001119 0.013538 -112338.000000 0 0 1
-14.184767 -26.602649 8.073229 31.210344 1.080936 1.309150 -0.002437 0.009298 -372635.000000 0 0 1
-14.272967 -25.797849 6.903729 30.280490 1.065452 1.340781 0.008996 0.002634 262316.000000 0 0 1
-15.352767 -26.126749 5.827929 30.859021 1.039525 1.380799 0.003138 0.013087 199109.000000 0 0 1
-15.037367 -27.317649 5.095329 31.596498 1.067597 1.408827 0.034747 0.000595 6306.350000 0 0 1
-15.685167 -27.245749 3.852029 31.673229 1.048442 1.448877 0.022435 0.010275 -225992.000000 0 0 1
-15.306767 -28.380049 2.903429 32.375209 1.076167 1.480995 0.015010 0.018793 333288.000000 0 0 1
-14.007267 -28.325849 2.312029 31.684424 1.111555 1.497761 0.026334 0.018416 298279.000000 0 0 1
-13.705567 -29.555749 1.639929 32.620150 1.136592 1.520502 0.017868 0.016263 288145.000000 0 0 1
-12.415667 -29.569649 0.744829 32.079085 1.173271 1.547576 -0.006143 0.009912 500764.000000 0 0 1
-12.272367 -28.827449 -0.450771 31.334262 1.168318 1.585183 0.021400 0.007690 -197290.000000 0 0 1
-12.207867 -27.458949 -0.254971 30.051471 1.152454 1.579281 0.021825 0.006942 -285843.000000 0 0 1
-11.901067 -26.680249 -1.533071 29.254425 1.151221 1.623225 0.033099 0.009961 416807.000000 0 0 1
-10.593867 -27.006849 -2.004571 29.079515 1.196975 1.639785 0.032827 0.002970 83198.000000 0 0 1
-10.268967 -26.082849 -3.050171 28.196990 1.195728 1.679182 0.050412 -0.006514 512238.000000 0 0 1
-8.914467 -26.485549 -3.707071 28.190324 1.246128 1.702680 0.036024 -0.008506 448601.000000 0 0 1
-8.547367 -25.718649 -4.848271 27.532020 1.249939 1.747815 0.033459 -0.010558 -536393.000000 0 0 1
-7.348967 -26.206849 -5.392671 27.746840 1.297397 1.766394 0.031032 0.000322 68985.100000 0 0 1
-6.476467 -25.072549 -5.983271 26.577751 1.318013 1.797866 0.016875 -0.004094 -52461.400000 0 0 1
-6.887367 -24.723649 -7.267871 26.674268 1.299110 1.846753 0.023943 -0.004531 -128751.000000 0 0 1
-5.987267 -23.807849 -7.866671 25.778781 1.324422 1.880904 0.009879 0.000567 -276069.000000 0 0 1
-6.135167 -23.626649 -9.373271 26.147983 1.316736 1.937425 0.027664 0.000101 -303557.000000 0 0 1
-5.746767 -24.769349 -10.007771 27.325838 1.342819 1.945760 0.006534 -0.002350 -284859.000000 0 0 1
-5.932367 -24.808149 -11.429871 27.951372 1.336074 1.992066 0.006388 0.001509 421017.000000 0 0 1
-7.336367 -25.236849 -11.970171 28.879159 1.287893 1.998180 0.005728 -0.007181 347315.000000 0 0 1
-7.450867 -25.330549 -13.339271 29.581891 1.284719 2.038600 0.011271 -0.004601 -687956.000000 0 0 1
-8.531967 -26.126949 -13.648371 30.686967 1.255156 2.031704 0.014229 -0.006843 -1017460.000000 0 0 1
-8.893467 -26.209649 -15.182971 31.568371 1.243667 2.072540 0.017328 -0.013298 323560.000000 0 0 1
-7.910067 -26.967849 -15.890871 32.285505 1.285484 2.085410 0.016473 -0.016492 -106008.000000 0 0 1
-6.713767 -26.293549 -16.137671 31.572928 1.320799 2.107288 0.021652 -0.017746 -1154500.000000 0 0 1
-5.736167 -27.291449 -16.741171 32.526813 1.363630 2.111440 0.013718 -0.011552 -643460.000000 0 0 1
-5.849267 -27.448149 -18.123271 33.407600 1.360835 2.144194 0.025576 -0.014649 148261.000000 0 0 1
-4.628967 -27.840949 -18.718871 33.866531 1.406039 2.156427 0.024321 -0.015967 -52400.500000 0 0 1
-24.086767 14.534045 -5.607820 28.685509 -0.542918 1.767557 -0.004509 -0.004975 -229982.000000 0 0 1
-24.421367 13.289445 -5.062820 28.260302 -0.498358 1.750918 -0.020154 0.001506 145303.000000 0 0 1
-23.318367 12.537445 -4.632220 26.877337 -0.493323 1.744008 0.001782 -0.001839 -858122.000000 0 0 1
-23.793967 11.209445 -4.053020 26.612619 -0.440265 1.723688 0.022273 -0.012954 26396.100000 0 0 1
-24.238867 10.269145 -5.043120 26.803191 -0.400739 1.760078 0.027357 -0.010169 371787.000000 0 0 1
-25.570817 10.453045 -5.501120 28.167271 -0.388059 1.767362 0.014032 -0.007221 -183883.000000 0 0 1
-25.926307 9.650645 -6.790720 28.485474 -0.356343 1.811506 0.034829 -0.014382 -40233.600000 0 0 1
-25.188407 10.125545 -7.927520 28.281232 -0.382223 1.854914 0.037682 -0.008032 -15168.100000 0 0 1
-25.682687 9.590445 -9.119320 28.891851 -0.357385 1.891924 0.060426 -0.018130 -435292.000000 0 0 1
-26.207477 10.568245 -10.159320 30.028843 -0.383308 1.915926 0.021292 -0.008964 -202987.000000 0 0 1
-25.271577 11.432545 -10.748820 29.747148 -0.424838 1.940500 0.023490 -0.001592 -141594.000000 0 0 1
-25.925497 12.102645 -11.797720 30.948208 -0.436756 1.961899 0.006646 -0.000180 -164485.000000 0 0 1
-25.158377 13.140145 -12.660920 31.079032 -0.481326 1.990378 0.008149 0.004441 31256.800000 0 0 1
-24.683167 14.337345 -11.965220 30.951327 -0.526223 1.967719 0.012466 0.001759 565134.000000 0 0 1
-23.827867 15.150345 -12.759020 30.985364 -0.566345 1.995198 0.013636 -0.000359 202306.000000 0 0 1
-23.689967 16.534945 -12.121020 31.329508 -0.609364 1.968051 0.020664 -0.004855 -155889.000000 0 0 1
-22.893067 16.644945 -10.965420 30.354359 -0.628666 1.940401 0.021498 0.001309 -35285.000000 0 0 1
-22.899667 17.923645 -10.310320 30.853760 -0.664105 1.911518 0.008576 0.004807 -297675.000000 0 0 1
-21.801667 18.158545 -9.262720 29.847000 -0.694481 1.886347 0.002281 0.008705 -415542.000000 0 0 1
-22.051367 17.584645 -8.007320 29.318931 -0.673178 1.847422 0.003533 0.002743 286784.000000 0 0 1
-22.748667 18.557945 -7.214620 30.231604 -0.684290 1.811767 -0.010695 0.000786 -48914.400000 0 0 1
-23.152867 18.027745 -5.834520 29.918163 -0.661580 1.767070 -0.019425 0.009051 360291.000000 0 0 1
-22.030667 18.015545 -4.951420 28.886445 -0.685470 1.743057 -0.013677 -0.009158 583643.000000 0 0 1
-22.466667 17.750545 -3.626920 28.861523 -0.668665 1.696796 -0.024092 0.003531 -382936.000000 0 0 1
-21.351467 17.415045 -2.636020 27.678828 -0.684203 1.666177 -0.024857 -0.012118 -586844.000000 0 0 1
-20.632867 18.565545 -2.241520 27.846348 -0.732707 1.651380 -0.023428 -0.010483 331928.000000 0 0 1
-19.862567 18.358845 -1.059820 27.068284 -0.746076 1.609960 0.014105 -0.024317 6823.220000 0 0 1
-19.275267 19.624245 -0.428420 27.510552 -0.794369 1.586370 0.019947 -0.020634 85366.600000 0 0 1
-20.268167 20.361045 0.258080 28.730426 -0.787684 1.561813 -0.000370 -0.017337 265183.000000 0 0 1
-19.839567 21.684945 0.512380 29.395710 -0.829810 1.553365 0.005990 -0.017953 -242108.000000 0 0 1
-20.693467 22.340345 1.572880 30.492369 -0.823649 1.519191 -0.007204 -0.018788 -198986.000000 0 0 1
-20.426467 22.001945 2.925480 30.164293 -0.822514 1.473659 0.018655 -0.020036 319641.000000 0 0 1
-21.460567 22.426445 3.786480 31.270414 -0.807403 1.449410 -0.002656 -0.017337 27977.100000 0 0 1
-21.013767 21.990445 5.190580 30.856121 -0.808105 1.401774 0.008979 -0.013642 504186.000000 0 0 1
-19.953567 22.726445 5.827080 30.799205 -0.850276 1.380453 0.016859 -0.012439 326035.000000 0 0 1
-19.562067 22.253045 7.157180 30.481104 -0.849664 1.333776 0.023146 -0.010060 -522943.000000 0 0 1
-20.532567 22.314045 8.341980 31.449826 -0.826952 1.302336 0.023539 -0.026357 -119120.000000 0 0 1
-21.565567 21.316045 8.309080 31.440233 -0.779579 1.303337 0.021902 -0.027111 941255.000000 0 0 1
-22.081867 20.783145 9.539680 31.789204 -0.755109 1.266007 0.028829 -0.028905 528057.000000 0 0 1
-22.801967 21.800945 10.570880 33.270924 -0.762959 1.247471 0.036336 -0.027183 580062.000000 0 0 1
-24.142467 22.182845 10.252380 34.351836 -0.743122 1.267726 0.045030 -0.024724 996554.000000 0 0 1
-24.895167 22.707245 11.329880 35.549325 -0.739468 1.246429 0.059501 -0.017704 137761.000000 0 0 1
-25.553797 24.084445 11.007980 36.799900 -0.755806 1.267015 0.038426 -0.018623 -112659.000000 0 0 1
-26.153227 24.575545 12.196180 37.903766 -0.754308 1.243201 0.028366 -0.014682 70441.700000 0 0 1
-26.606477 25.880445 12.110480 39.043127 -0.771566 1.255412 0.017312 -0.012611 167021.000000 0 0 1
-27.174647 26.456145 13.448580 40.239947 -0.772002 1.230030 0.019575 -0.013191 104410.000000 0 0 1
-26.084337 26.659845 14.326980 39.955004 -0.796309 1.204052 0.015174 -0.012240 312553.000000 0 0 1
-26.450877 26.781645 15.686780 40.779658 -0.791612 1.175944 0.013530 -0.011426 410830.000000 0 0 1
-25.199067 26.957345 16.618080 40.470384 -0.819097 1.147659 0.013118 -0.011284 573382.000000 0 0 1
-24.646567 25.741345 17.126380 39.539638 -0.807122 1.122818 0.029452 -0.012010 -265868.000000 0 0 1
-23.809067 25.963645 18.198080 39.650380 -0.828659 1.093968 0.028177 -0.005548 -391925.000000 0 0 1
-23.298267 24.616745 18.850180 38.783020 -0.812908 1.063241 0.035836 0.001018 -353460.000000 0 0 1
-22.487367 24.755445 19.974280 38.954918 -0.833370 1.032407 0.028470 -0.009074 137617.000000 0 0 1
-22.105667 23.421245 20.401280 38.123844 -0.814287 1.006133 0.034338 -0.007542 -870324.000000 0 0 1
-20.658067 23.298745 20.884680 37.493428 -0.845400 0.980000 0.042119 -0.005434 -772407.000000 0 0 1
-19.827667 23.436945 19.739580 36.497641 -0.868629 0.999354 0.039258 -0.006291 -52635.000000 0 0 1
-18.510167 22.969345 19.923880 35.597445 -0.892490 0.976773 0.028626 -0.007805 -52591.500000 0 0 1
-18.213267 21.465645 19.801480 34.417955 -0.867183 0.957796 0.045205 0.003911 -376023.000000 0 0 1
-18.654067 20.607445 20.849580 34.746885 -0.835110 0.927243 0.059744 -0.002427 96843.600000 0 0 1
-17.823667 20.683345 21.991680 35.058777 -0.859526 0.892740 0.068958 -0.010071 109325.000000 0 0 1
-18.585367 20.273845 23.295080 36.043105 -0.828822 0.868055 0.056171 -0.012327 189419.000000 0 0 1
-19.553367 21.253545 23.660780 37.334700 -0.827038 0.884408 0.033663 -0.000572 188484.000000 0 0 1
-20.014367 21.105745 24.967180 38.332590 -0.811933 0.861460 0.037863 -0.009754 258555.000000 0 0 1
-21.160467 22.077645 25.397780 39.752170 -0.806607 0.877725 0.026170 -0.017822 -322613.000000 0 0 1
-20.784267 23.420045 25.487580 40.374509 -0.844955 0.887595 0.029708 -0.014773 229880.000000 0 0 1
-21.782567 24.415045 25.725480 41.621809 -0.842320 0.904502 0.016766 -0.016135 359779.000000 0 0 1
-22.718667 24.789845 24.533780 41.624279 -0.828967 0.940468 0.014238 -0.014509 806706.000000 0 0 1
-23.738967 23.867145 24.101980 41.401505 -0.788091 0.949423 0.010792 -0.020733 460490.000000 0 0 1
-24.568467 24.492245 23.157780 41.710459 -0.783845 0.982189 0.010327 -0.009923 -530700.000000 0 0 1
-25.395697 23.471045 22.412080 41.208406 -0.746033 0.995753 0.011050 -0.007146 -907967.000000 0 0 1
-26.632017 23.307645 23.029080 42.223799 -0.718928 0.993924 -0.005108 -0.018422 -1059290.000000 0 0 1
-27.499257 22.590245 22.239380 41.965680 -0.687705 1.012264 0.006712 -0.022527 -21470.400000 0 0 1
-28.977687 22.545645 22.709380 43.170921 -0.661203 1.016866 0.017813 -0.022199 -177648.000000 0 0 1
-29.673087 23.760545 22.390880 44.118104 -0.675194 1.038491 0.018188 -0.015771 1789370.000000 0 0 1
-31.087237 23.864645 22.752180 45.316656 -0.654712 1.044804 0.028550 -0.018342 2095670.000000 0 0 1
-32.030927 23.114745 21.746180 45.090665 -0.625101 1.067544 0.029846 -0.025433 -514994.000000 0 0 1
-31.721137 21.677345 21.698580 44.124440 -0.599479 1.056688 0.020319 -0.023864 401407.000000 0 0 1
-32.298227 21.026445 20.547880 43.674961 -0.577084 1.080970 0.010932 -0.019091 -452562.000000 0 0 1
-33.768947 20.653145 20.659780 44.651100 -0.548907 1.089765 0.009344 -0.015700 -532645.000000 0 0 1
-34.295694 20.043545 19.470780 44.238553 -0.528895 1.115051 0.007395 -0.019017 94983.400000 0 0 1
34.584358 19.975145 19.487880 44.439416 0.523769 1.116837 0.011791 -0.010385 180681.000000 0 0 1
33.952822 19.160545 18.331080 43.080728 0.513777 1.131276 0.022718 -0.014290 -112868.000000 0 0 1
34.342624 17.813845 18.450180 42.862082 0.478503 1.125800 0.018509 -0.014681 332255.000000 0 0 1
33.699312 17.120145 17.416880 41.618394 0.470048 1.139014 0.024926 -0.016586 -668.193000 0 0 1
33.889532 15.613645 17.418480 41.178754 0.431734 1.134046 0.024583 -0.015293 77173.200000 0 0 1
32.927852 14.951345 16.619280 39.799330 0.426228 1.140019 0.035250 -0.020236 254182.000000 0 0 1
33.252962 13.593345 16.466580 39.518183 0.388057 1.141002 0.023170 -0.021918 139667.000000 0 0 1
32.361322 12.855845 15.435780 38.089254 0.378142 1.153541 0.034316 -0.019907 12501.000000 0 0 1
32.595002 13.327745 14.120080 37.939948 0.388146 1.189451 0.040015 -0.020888 314325.000000 0 0 1
31.817262 12.673045 13.129980 36.678885 0.379046 1.204702 0.048197 -0.023437 -332374.000000 0 0 1
32.108172 13.094545 11.651880 36.580981 0.387235 1.246626 0.047461 -0.012292 -359365.000000 0 0 1
33.401082 12.612845 11.376680 37.471923 0.361064 1.262322 0.051428 -0.015470 118200.000000 0 0 1
33.788732 13.020845 10.025880 37.573117 0.367823 1.300687 0.033927 -0.007543 486184.000000 0 0 1
-35.066885 12.549245 9.608080 38.464076 -0.343665 1.318329 0.043429 -0.010071 447135.000000 0 0 1
-34.830465 11.140245 9.593080 37.805999 -0.309560 1.314246 0.038393 -0.004507 494171.000000 0 0 1
-33.556627 10.893045 8.978980 36.405051 -0.313885 1.321584 0.011098 0.006009 495194.000000 0 0 1
-33.483227 10.752745 7.462980 35.950578 -0.310735 1.361686 0.015916 0.004060 -453554.000000 0 0 1
-33.732217 11.982645 6.784380 36.434517 -0.341325 1.383496 0.014769 0.002085 105451.000000 0 0 1
-33.232807 11.891945 5.463780 35.716813 -0.343640 1.417218 0.008746 -0.001760 95417.700000 0 0 1
-33.950347 12.966045 4.613180 36.633670 -0.364817 1.444534 0.026980 0.000465 258788.000000 0 0 1
35.027070 12.567045 4.230880 37.452992 0.344476 1.457590 0.023599 -0.002486 812718.000000 0 0 1
34.016432 13.582345 4.212780 36.869300 0.379892 1.456284 0.019538 -0.007713 596007.000000 0 0 1
33.395442 13.946545 5.585280 36.619080 0.395602 1.417675 0.034996 -0.004279 -316607.000000 0 0 1
32.425242 15.028845 5.499380 36.159448 0.434017 1.418117 0.018694 0.006442 720260.000000 0 0 1
31.985482 15.395145 6.782380 36.139760 0.448590 1.382006 0.012346 0.011432 338022.000000 0 0 1
30.729052 14.624545 7.299880 34.805750 0.444198 1.359495 0.038776 -0.005265 -198920.000000 0 0 1
31.093522 13.442245 7.962980 34.798134 0.408051 1.339917 0.042866 0.003185 626716.000000 0 0 1
30.155252 12.344945 7.885180 33.524811 0.388566 1.333368 0.059205 0.013952 186404.000000 0 0 1
30.501402 11.369245 6.714580 33.236739 0.356792 1.367373 0.056557 0.001283 -325499.000000 0 0 1
30.246452 11.972645 5.488680 32.989661 0.376912 1.403643 0.048052 -0.002587 225731.000000 0 0 1
30.593912 11.139745 4.422180 32.857831 0.349195 1.435801 0.049439 -0.007707 -224782.000000 0 0 1
30.164162 11.723045 3.015380 32.502292 0.370676 1.477888 0.026904 -0.014640 291605.000000 0 0 1
28.806742 11.359945 2.828680 31.094665 0.375626 1.479700 0.029327 -0.003779 160861.000000 0 0 1
28.194282 11.734045 1.619780 30.581515 0.394381 1.517806 0.027420 -0.005360 -688956.000000 0 0 1
26.846712 11.056545 1.503080 29.073225 0.390671 1.519073 0.044928 0.002767 -623734.000000 0 0 1
26.851992 9.656245 1.159980 28.559028 0.345210 1.530168 0.035182 -0.007580 152848.000000 0 0 1
25.511182 9.206845 1.178380 27.147283 0.346347 1.527376 0.045506 -0.008283 -12990.000000 0 0 1
25.541012 7.648945 1.076280 26.683479 0.290977 1.530450 0.055359 -0.007699 243555.000000 0 0 1
25.880222 6.922245 2.289980 26.887681 0.261354 1.485525 0.062606 0.000871 -240179.000000 0 0 1
27.175362 7.148045 2.743180 28.233312 0.257208 1.473482 0.074789 -0.011817 -1158590.000000 0 0 1
27.424412 6.392045 4.025880 28.445814 0.228990 1.428792 0.075417 -0.016486 -2196.720000 0 0 1
28.801682 6.442345 4.356680 29.833226 0.220057 1.424238 0.082474 -0.012783 424837.000000 0 0 1
29.083572 5.706245 5.534580 30.150406 0.193741 1.386184 0.060147 0.001175 163235.000000 0 0 1
30.583682 5.762845 5.921980 31.680307 0.186245 1.382761 0.045201 0.001401 223514.000000 0 0 1
30.992872 7.043745 6.290680 32.399770 0.223474 1.375397 0.059777 -0.008880 185938.000000 0 0 1
32.348342 7.014945 6.737080 33.778883 0.213550 1.370003 0.021065 0.000836 452588.000000 0 0 1
32.686232 8.220145 7.581780 34.546258 0.246377 1.349528 0.036521 -0.012886 -376560.000000 0 0 1
31.933942 8.287145 8.740480 34.129891 0.253908 1.311816 0.045317 -0.011698 5194.070000 0 0 1
32.324702 9.364945 9.609680 34.999065 0.281994 1.292654 0.042131 -0.006283 -235861.000000 0 0 1
31.675762 9.161145 10.986580 34.756085 0.281534 1.249175 0.041977 -0.005327 228117.000000 0 0 1
30.312842 9.595145 11.063280 33.664987 0.306559 1.235945 0.040409 -0.005820 658140.000000 0 0 1
29.659252 9.319445 12.279180 33.426061 0.304448 1.194634 0.033139 -0.009282 -321502.000000 0 0 1
28.222102 9.858245 12.218780 32.295056 0.336059 1.182785 0.027846 -0.015048 -631245.000000 0 0 1
28.083802 11.249245 12.456280 32.717035 0.380989 1.180213 0.031406 -0.009486 200922.000000 0 0 1
28.211362 11.997745 11.249680 32.655507 0.402108 1.219095 0.039975 -0.016878 -476708.000000 0 0 1
26.941952 12.120745 10.395180 31.318381 0.422757 1.232459 0.034911 -0.013873 -539083.000000 0 0 1
27.086432 13.171545 9.474080 31.574081 0.452610 1.266042 0.027962 0.003675 333922.000000 0 0 1
26.089342 13.212645 8.439380 30.437656 0.468785 1.289847 0.021030 0.005720 176806.000000 0 0 1
26.164832 14.384045 7.452080 30.773896 0.502649 1.326209 0.012491 0.008555 -149680.000000 0 0 1
25.835682 15.601645 8.025680 31.229879 0.543267 1.310893 0.016210 0.014106 173943.000000 0 0 1
26.013642 16.734245 7.214180 31.761438 0.571642 1.341660 0.014089 0.017977 -892706.000000 0 0 1
25.545762 18.052145 7.851880 32.250859 0.615181 1.324862 0.011126 0.015575 651167.000000 0 0 1
24.130302 18.221445 7.720180 31.207270 0.646774 1.320817 0.010493 0.015437 556983.000000 0 0 1
23.373202 17.551045 8.699280 30.496282 0.644080 1.281522 0.016654 0.013488 -756704.000000 0 0 1
22.088602 18.322345 9.088880 30.103528 0.692468 1.264090 0.016022 0.012543 -441397.000000 0 0 1
21.272202 18.483845 7.993880 29.292682 0.715376 1.294393 0.021624 -0.001026 -314384.000000 0 0 1
20.376502 19.560945 8.042380 29.368560 0.764980 1.293410 0.043668 -0.006210 -234754.000000 0 0 1
19.651902 19.982045 6.786080 28.836266 0.793728 1.333237 0.038888 -0.002394 -442001.000000 0 0 1
20.452702 20.583545 5.827480 29.596535 0.788587 1.372604 0.019344 0.006350 -308087.000000 0 0 1
19.664402 21.161445 4.823280 29.287531 0.822051 1.405355 0.012014 0.001931 -304865.000000 0 0 1
16.736033 17.054445 33.213118 40.915280 0.794821 0.623648 0.034192 0.001607 -147294.000000 0 0 1
16.190133 17.860745 32.222089 40.241641 0.834421 0.642308 0.019409 -0.002290 -89003.400000 0 0 1
15.942833 17.156545 31.034369 38.879982 0.822050 0.646479 0.030858 -0.003661 70838.000000 0 0 1
15.538933 17.945245 29.726169 38.041233 0.857139 0.673859 0.027135 -0.003890 187603.000000 0 0 1
16.668933 18.409645 29.009799 38.188176 0.834981 0.708015 0.019989 0.002045 -250243.000000 0 0 1
16.372133 18.779745 27.726759 37.275981 0.853783 0.732023 0.040365 -0.008512 -469810.000000 0 0 1
17.491133 19.345145 26.816229 37.407012 0.835687 0.771484 0.024252 -0.000875 -452143.000000 0 0 1
17.837233 20.669545 27.121009 38.483063 0.858820 0.788723 0.037921 -0.007648 352441.000000 0 0 1
18.737533 21.127445 26.096479 38.451142 0.845277 0.824816 0.025082 0.000523 293712.000000 0 0 1
19.384833 22.488545 26.397599 39.728323 0.859384 0.844035 0.040228 -0.009882 886688.000000 0 0 1
18.293333 23.433145 26.326149 39.709249 0.907959 0.846014 0.033268 -0.016704 1025130.000000 0 0 1
18.776733 24.679245 26.694689 40.917444 0.920399 0.860045 0.039818 -0.019663 -175052.000000 0 0 1
17.876433 25.880145 26.447839 41.095461 0.966313 0.871642 0.060733 -0.014396 -204776.000000 0 0 1
18.103733 26.283045 25.131629 40.621945 0.967627 0.903746 0.074462 -0.015133 172756.000000 0 0 1
17.203133 27.282245 24.736979 40.647101 1.008208 0.916528 0.072744 -0.024802 -556669.000000 0 0 1
17.562133 28.001045 23.396529 40.495489 1.010620 0.954819 0.061704 -0.027229 588658.000000 0 0 1
18.737433 28.828545 23.498829 41.645785 0.994448 0.971266 0.072505 -0.025091 704447.000000 0 0 1
18.749033 29.557945 22.254729 41.478565 1.005527 1.004470 0.066274 -0.030216 111718.000000 0 0 1
19.980833 30.476245 22.017729 42.577172 0.990481 1.027308 0.075134 -0.029783 -175844.000000 0 0 1
21.155733 29.750445 21.684729 42.460352 0.952655 1.034791 0.074516 -0.022594 -374383.000000 0 0 1
22.191233 30.680745 21.577029 43.581270 0.944607 1.052848 0.055324 -0.022936 -385383.000000 0 0 1
22.730733 31.080545 20.142629 43.455863 0.939339 1.088834 0.039030 -0.011843 351676.000000 0 0 1
21.851833 31.933645 19.388729 43.280285 0.970693 1.106291 0.045923 -0.012221 569593.000000 0 0 1
22.199333 31.685345 18.061029 42.696279 0.959656 1.134030 0.039642 -0.005703 125751.000000 0 0 1
21.340733 32.579045 17.123629 42.544562 0.990883 1.156564 0.040289 -0.009217 -281344.000000 0 0 1
21.580333 33.978145 17.263429 43.797844 1.004950 1.165641 0.051285 -0.007251 63063.100000 0 0 1
21.755933 -34.528149 16.060029 43.857020 -1.008543 1.195884 0.044318 -0.003246 64151.200000 0 0 1
23.020533 34.385645 15.189729 44.079989 0.980848 1.218989 0.025271 0.001028 11937.700000 0 0 1
22.893933 33.393445 14.255729 42.924121 0.969813 1.232252 0.038675 0.001131 -187594.000000 0 0 1
22.128333 33.678745 13.117029 42.378974 0.989487 1.256111 0.026283 -0.002824 -386422.000000 0 0 1
21.523433 32.467045 12.398629 40.879007 0.985384 1.262642 0.035558 -0.020185 -43670.500000 0 0 1
22.498133 31.730745 11.663029 40.608280 0.954034 1.279485 0.043688 -0.040565 -172536.000000 0 0 1
22.037333 30.493145 11.172429 39.246645 0.944999 1.282132 0.040998 -0.040844 -1391580.000000 0 0 1
23.046933 29.671645 10.295929 38.956050 0.910405 1.303322 0.032488 -0.036002 1014440.000000 0 0 1
24.227433 29.117645 10.889129 39.412928 0.876814 1.290872 0.026742 -0.030640 614989.000000 0 0 1
25.007333 30.082245 11.581129 40.797435 0.877260 1.282970 0.022924 -0.024788 -973057.000000 0 0 1
26.528233 29.775545 11.763329 41.577712 0.843009 1.283955 0.020113 -0.015805 747314.000000 0 0 1
26.706133 28.757245 12.716629 41.254204 0.822363 1.257443 0.022860 -0.009554 358082.000000 0 0 1
27.976933 28.093545 12.678829 41.625818 0.787478 1.261288 0.018301 0.009347 694007.000000 0 0 1
28.050733 26.994545 13.701829 41.270924 0.766213 1.232376 0.004887 -0.013801 72687.800000 0 0 1
28.713233 27.425245 14.889729 42.406342 0.762459 1.212029 -0.008584 -0.008680 22002.100000 0 0 1
28.981133 26.344145 15.730829 42.206386 0.737771 1.188866 0.009040 -0.017304 -185750.000000 0 0 1
29.976633 26.619545 16.879629 43.498512 0.726151 1.172281 0.016775 -0.022044 -217409.000000 0 0 1
31.267533 26.757945 16.341829 44.279811 0.707837 1.192801 0.036291 -0.017666 -352375.000000 0 0 1
32.293433 26.778845 17.332529 45.391507 0.692315 1.179004 0.015234 -0.015152 825680.000000 0 0 1
33.701733 26.667045 16.675629 46.097882 0.669393 1.200658 0.022482 -0.022067 338015.000000 0 0 1
34.101433 27.810645 15.959829 46.808716 0.684137 1.222860 0.032834 -0.008607 155817.000000 0 0 1
-34.794236 28.121545 16.006429 47.514902 -0.679736 1.227204 0.035655 -0.007429 768061.000000 0 0 1
-34.554436 29.321945 15.059429 47.755334 -0.703665 1.249976 0.026135 -0.000746 403871.000000 0 0 1
34.889533 30.385545 15.487329 48.789530 0.716507 1.247777 0.032517 0.002235 150250.000000 0 0 1
35.055733 31.494545 14.628629 49.343769 0.731938 1.269809 0.017633 0.029455 244951.000000 0 0 1
34.068533 32.637245 14.967929 49.496400 0.763945 1.263582 0.004409 0.026661 -505816.000000 0 0 1
34.172933 33.763745 14.073929 50.058519 0.779375 1.285805 -0.018593 0.023012 237782.000000 0 0 1
33.025333 34.590445 14.031429 49.840270 0.808541 1.285410 -0.021870 0.031753 526353.000000 0 0 1
31.698433 34.062545 13.434729 48.430771 0.821333 1.289709 -0.000658 0.026232 42762.400000 0 0 1
31.030033 33.101145 14.223929 47.548595 0.817682 1.267000 -0.004673 0.009921 -364374.000000 0 0 1
30.017733 32.444645 13.517229 46.221583 0.824233 1.274015 0.003173 0.011994 -675031.000000 0 0 1
29.363633 31.255845 14.293229 45.204504 0.816603 1.249085 0.011898 0.003599 96909.900000 0 0 1
28.575833 31.802545 15.351129 45.427275 0.838789 1.226082 0.009666 0.007262 132364.000000 0 0 1
28.293033 30.874745 16.351229 44.956738 0.829004 1.198548 0.007512 -0.006791 61534.500000 0 0 1
27.436533 31.453245 17.531529 45.270570 0.853500 1.173137 -0.004471 -0.001040 100929.000000 0 0 1
27.342133 30.410545 18.464629 44.870213 0.838478 1.146684 -0.011774 -0.000551 5086.520000 0 0 1
28.016633 30.666445 19.693829 45.969658 0.830522 1.128065 -0.017402 -0.004363 -75110.900000 0 0 1
27.886833 29.532845 20.713629 45.595162 0.814057 1.099216 -0.010324 -0.007979 -45898.900000 0 0 1
26.603333 29.334245 21.270629 44.951918 0.834180 1.077892 0.002273 -0.014793 34570.100000 0 0 1
26.682833 28.639945 22.489129 45.144002 0.820760 1.049316 -0.007098 -0.016194 -700575.000000 0 0 1
25.407533 28.621345 23.300329 44.806578 0.844811 1.023922 0.024367 -0.023707 -772667.000000 0 0 1
24.553633 27.557545 22.997329 43.487657 0.842979 1.013582 0.048074 -0.021628 -27025.900000 0 0 1
23.337733 27.640645 23.724529 43.260933 0.869605 0.990340 0.057434 -0.026425 268974.000000 0 0 1
22.979233 26.587945 24.821399 43.024014 0.858074 0.955844 0.047971 -0.024575 -150273.000000 0 0 1
23.962133 26.582545 25.824299 44.132867 0.837195 0.945733 0.029343 -0.025676 210304.000000 0 0 1
23.592233 25.681945 26.884169 44.033105 0.827783 0.914048 0.043720 -0.027097 -284501.000000 0 0 1
24.701633 25.566145 27.936369 45.213263 0.802595 0.904753 0.050828 -0.028667 -81938.300000 0 0 1
25.066333 26.728045 28.673799 46.528445 0.817470 0.906807 0.042848 -0.031264 81324.500000 0 0 1
26.139133 27.380345 28.046779 47.112200 0.808586 0.933134 0.020415 -0.018826 -779691.000000 0 0 1
26.522733 28.773345 28.615209 48.478768 0.826077 0.939412 -0.010673 -0.012056 -608214.000000 0 0 1
27.021233 28.680745 29.907229 49.468925 0.815182 0.921575 -0.007034 -0.005817 -63346.600000 0 0 1
27.242633 29.999645 30.390659 50.653054 0.833525 0.927324 0.001119 -0.011831 493449.000000 0 0 1
28.754333 30.351245 30.540079 51.775536 0.812410 0.939917 -0.005853 -0.006386 551416.000000 0 0 1
29.398233 30.368445 29.283699 51.420167 0.801630 0.964901 -0.025467 -0.005918 -517161.000000 0 0 1
30.797833 30.492645 29.350379 52.342647 0.780419 0.975523 -0.000870 -0.009711 9904.800000 0 0 1
31.402733 30.925145 27.980159 52.205225 0.777736 1.005146 -0.003542 -0.007720 -381155.000000 0 0 1
31.246033 32.328545 27.802379 52.862290 0.802424 1.016977 -0.011757 -0.005119 81001.500000 0 0 1
31.708133 32.706945 26.541739 52.722043 0.800903 1.043235 -0.008322 -0.011016 -115408.000000 0 0 1
31.568533 34.231345 26.213409 53.436879 0.825844 1.058077 -0.007111 -0.014661 -136312.000000 0 0 1
32.408933 -34.179649 27.036179 54.309689 -0.811984 1.049719 0.008097 -0.015356 -23509.600000 0 0 1
32.204833 -32.791249 26.778789 53.193240 -0.794420 1.043239 -0.000149 -0.006118 -541723.000000 0 0 1
33.143833 -31.865949 27.509499 53.579146 -0.765744 1.031611 -0.001409 -0.001235 -661508.000000 0 0 1
32.865833 -31.797649 28.887599 54.090173 -0.768881 1.007396 -0.002733 -0.002499 262155.000000 0 0 1
33.773133 -30.989449 29.629479 54.579085 -0.742442 0.996943 0.003222 -0.005529 -276682.000000 0 0 1
33.467833 -30.591349 31.081339 54.972503 -0.740525 0.969881 0.019837 -0.017417 -584617.000000 0 0 1
33.450633 -31.637849 32.042849 56.094942 -0.757554 0.962798 0.012895 -0.015530 76072.900000 0 0 1
32.167033 -32.213249 32.180009 55.749120 -0.786116 0.955465 0.008286 -0.011997 -241495.000000 0 0 1
31.926233 -33.250849 33.347704 56.894399 -0.805719 0.944518 0.005331 -0.011661 -317991.000000 0 0 1
31.850133 -32.690149 -34.521198 57.225780 -0.798413 2.218361 0.008505 -0.011213 38448.700000 0 0 1
32.181233 -33.571849 -33.464060 57.293491 -0.806544 2.194544 0.004609 -0.010882 175212.000000 0 0 1
31.355533 34.291445 -33.220240 57.119672 0.830091 2.191478 0.003448 -0.012095 15224.400000 0 0 1
31.392233 33.348245 -34.276156 57.205180 0.815602 2.213272 0.010499 -0.013416 6335.960000 0 0 1
30.715233 32.121845 -34.112851 56.026110 0.807779 2.225437 0.014103 -0.011251 -197648.000000 0 0 1
30.878133 31.323045 33.778843 55.458115 0.792551 0.915887 0.007481 -0.004917 202069.000000 0 0 1
32.205433 30.843645 33.604068 55.836849 0.763803 0.925011 0.007424 -0.007804 310889.000000 0 0 1
32.241633 29.843145 32.618459 54.718371 0.746785 0.932142 0.008190 -0.008432 -308155.000000 0 0 1
33.555933 29.053345 32.538179 55.034813 0.713606 0.938214 0.011918 -0.003074 -221909.000000 0 0 1
33.711833 27.925145 33.379760 55.050066 0.691789 0.919330 0.007542 0.001307 -400786.000000 0 0 1
35.062433 27.691545 33.637770 55.925803 0.668477 0.925455 0.007505 -0.000616 -339145.000000 0 0 1
-35.043836 26.500345 -34.563850 55.901685 -0.647461 2.237370 0.014413 -0.000661 42880.800000 0 0 1
34.955633 25.316245 33.940112 54.906646 0.626809 0.904419 0.003229 0.001141 -26615.300000 0 0 1
34.798033 24.260245 -34.279265 54.539257 0.608826 2.250451 0.010681 -0.009680 -111002.000000 0 0 1
34.442133 22.919845 34.150952 53.645758 0.587166 0.880713 0.002704 -0.012330 26646.400000 0 0 1
-34.853036 22.351745 33.287741 53.126343 -0.570245 0.893643 0.012239 -0.008457 170765.000000 0 0 1
34.963733 21.226645 32.542979 52.269289 0.545627 0.898733 0.006065 -0.006194 -84191.600000 0 0 1
-34.351636 20.517345 31.583919 50.975879 -0.538413 0.902582 0.001522 -0.007095 -25569.000000 0 0 1
-33.928336 21.306645 30.444709 50.318838 -0.560746 0.920985 0.004404 -0.003102 389681.000000 0 0 1
-32.850536 20.673745 29.738679 48.897346 -0.561705 0.917023 0.028332 0.000627 233286.000000 0 0 1
-33.235836 19.713045 28.627759 48.091304 -0.535350 0.933183 0.027038 -0.002008 -620834.000000 0 0 1
-33.806236 18.575345 29.218269 48.390208 -0.502432 0.922530 0.008549 0.000449 133589.000000 0 0 1
-33.999836 17.606545 28.209929 47.558168 -0.477819 0.935810 0.007002 -0.009963 -172915.000000 0 0 1
-34.753636 16.353945 28.634879 47.908486 -0.439826 0.930168 0.004796 0.001127 -354560.000000 0 0 1
-33.901936 15.402245 29.246169 47.348800 -0.426439 0.905013 0.007697 -0.003435 292112.000000 0 0 1
-34.492136 14.168745 29.259059 47.397820 -0.389766 0.905480 -0.000140 0.002923 -91919.800000 0 0 1
-33.511336 13.103545 29.831759 46.740201 -0.372740 0.878578 0.002143 0.012185 -446170.000000 0 0 1
-33.273736 13.297945 31.236569 47.536303 -0.380207 0.853818 0.003267 0.012395 425556.000000 0 0 1
-32.385336 12.358545 31.833019 47.062562 -0.364552 0.827935 0.010580 0.011744 531169.000000 0 0 1
-30.880836 12.661945 31.582419 45.949974 -0.389119 0.813001 0.009213 0.009939 -706410.000000 0 0 1
-30.406736 12.439845 30.211669 44.632547 -0.388339 0.827257 0.008071 0.006880 -292581.000000 0 0 1
-29.072136 12.728545 29.962729 43.645963 -0.412684 0.814139 0.022476 0.001700 -268706.000000 0 0 1
-27.977736 11.793145 30.549819 43.071144 -0.398918 0.782310 0.014796 -0.000466 -279220.000000 0 0 1
-27.668736 10.651545 29.751769 42.002168 -0.367480 0.783654 0.009096 -0.000171 391952.000000 0 0 1
-26.559536 9.968445 30.345589 41.540746 -0.359055 0.751740 0.011031 -0.007238 -215232.000000 0 0 1
-26.044336 8.874445 29.423049 40.283731 -0.328405 0.751896 0.016516 -0.010519 -280995.000000 0 0 1
-26.790936 7.646345 29.243549 40.390667 -0.278016 0.761187 0.022758 -0.012552 454828.000000 0 0 1
-28.029136 7.845345 28.546689 40.768804 -0.272916 0.795106 0.022745 -0.006413 -172101.000000 0 0 1
-28.792536 6.572045 28.557469 41.082003 -0.224411 0.802191 0.020124 -0.007731 -516331.000000 0 0 1
-29.329236 6.210145 29.817859 42.283267 -0.208657 0.788101 0.019770 -0.009457 -69392.500000 0 0 1
-30.070736 5.048345 29.809639 42.642110 -0.166331 0.796706 0.027974 -0.006169 -480120.000000 0 0 1
-30.584636 4.614245 31.196939 43.931312 -0.149739 0.781114 0.014539 -0.000247 -576851.000000 0 0 1
-31.764136 5.249245 31.555429 45.080595 -0.163777 0.795429 0.024104 -0.000686 -631940.000000 0 0 1
-32.286036 4.796045 32.801669 46.274611 -0.147470 0.782933 0.013133 -0.001807 214058.000000 0 0 1
-33.737136 5.280345 33.018019 47.500168 -0.155255 0.802218 -0.000587 0.001546 90433.900000 0 0 1
-33.848936 6.654845 33.379245 48.002202 -0.194128 0.801863 0.001060 0.001716 434766.000000 0 0 1
35.114033 7.159445 33.194395 48.847936 0.201134 0.823653 -0.002218 0.007746 569020.000000 0 0 1
34.906733 8.570245 33.668364 49.249242 0.240756 0.818069 -0.006052 0.014580 -284840.000000 0 0 1
34.682133 8.672345 -34.090896 49.398877 0.245028 2.332444 -0.000026 0.007572 69219.600000 0 0 1
34.556133 10.008045 -33.725840 49.312469 0.281904 2.323920 0.002144 0.012834 -371305.000000 0 0 1
34.485533 10.252145 -32.193670 48.278265 0.288967 2.300751 0.009653 0.001505 108740.000000 0 0 1
33.296933 9.637445 -31.683680 46.961917 0.281740 2.311310 0.011417 0.000996 568207.000000 0 0 1
33.334333 9.622445 -30.261950 46.038623 0.281025 2.288049 0.012802 0.010095 -317587.000000 0 0 1
31.996833 9.135145 -29.720740 44.615811 0.278103 2.299829 0.014049 0.013301 -437179.000000 0 0 1
31.901433 7.697145 -29.609210 44.200144 0.236754 2.304856 0.017165 0.008307 -794471.000000 0 0 1
30.664833 7.289045 -29.191540 42.960542 0.233370 2.317873 0.019064 0.012264 -1221660.000000 0 0 1
33.946462 6.246945 -19.045320 39.422212 0.181987 2.075001 0.008512 -0.004122 -837714.000000 0 0 1
33.763352 7.516845 -18.369320 39.165020 0.219061 2.058981 0.013277 0.017524 222114.000000 0 0 1
34.431793 8.625445 -18.946620 40.235818 0.245457 2.061095 0.005025 0.002405 -1532680.000000 0 0 1
-34.371464 8.658945 -18.774320 40.110472 -0.246787 2.057896 0.004933 -0.002392 -1299820.000000 0 0 1
-33.599717 7.800545 -19.601620 39.673832 -0.228120 2.087560 0.011356 -0.010567 148148.000000 0 0 1
-33.234647 8.370345 -20.808820 40.095030 -0.246725 2.116462 -0.000038 0.001029 -322639.000000 0 0 1
-32.489157 7.325345 -21.732420 39.768129 -0.221762 2.148950 -0.010489 0.010585 -38176.300000 0 0 1
-33.293567 6.305545 -22.271820 40.549420 -0.187175 2.152264 -0.007946 0.008054 -57141.400000 0 0 1
-33.960507 6.710745 -23.450020 41.812122 -0.195091 2.166200 -0.004363 0.007450 92450.500000 0 0 1
-34.023067 5.669045 -24.623720 42.379650 -0.165107 2.190786 0.009292 0.004730 -58741.100000 0 0 1
-32.714937 5.483145 -25.123210 41.611388 -0.166060 2.219003 0.006917 0.012798 59030.600000 0 0 1
-32.471207 4.198945 -25.656890 41.596711 -0.128599 2.235468 0.009214 0.003451 -82106.500000 0 0 1
-31.133477 4.020945 -26.396140 41.014846 -0.128441 2.269957 0.016890 -0.005662 1223860.000000 0 0 1
-29.934437 4.063445 -25.571390 39.578758 -0.134920 2.273245 0.019065 -0.004833 620817.000000 0 0 1
-28.776327 4.094945 -26.368840 39.244888 -0.141354 2.307574 0.019207 -0.005225 474821.000000 0 0 1
-27.522947 4.558245 -25.538170 37.821797 -0.164126 2.312064 0.004565 -0.006202 283537.000000 0 0 1
-27.378447 5.955345 -25.467560 37.863466 -0.214183 2.308534 -0.011075 0.001741 -581251.000000 0 0 1
-26.309727 6.345445 -24.695020 36.637555 -0.236663 2.310455 0.001571 -0.001132 -542886.000000 0 0 1
-25.689207 7.734745 -25.045820 36.702244 -0.292456 2.321845 -0.014092 0.001114 -101708.000000 0 0 1
-26.391247 8.851245 -24.498520 37.081261 -0.323596 2.292509 -0.022544 0.010187 -365002.000000 0 0 1
-26.064847 10.095645 -25.021220 37.514793 -0.369535 2.300930 -0.041501 0.007037 -105588.000000 0 0 1
-24.825967 10.779245 -24.408420 36.445736 -0.409631 2.304627 -0.010499 0.007453 -332935.000000 0 0 1
-24.955567 11.012845 -23.004320 35.682794 -0.415594 2.271413 -0.039923 0.016304 531142.000000 0 0 1
-23.654767 11.056845 -22.407820 34.408025 -0.437250 2.280011 0.007795 0.005458 256947.000000 0 0 1
-23.570367 11.266445 -20.860220 33.431179 -0.445887 2.244615 0.018989 -0.002479 -1193950.000000 0 0 1
-23.794667 12.551645 -20.388520 33.755321 -0.485403 2.219318 0.005705 0.002029 732374.000000 0 0 1
-25.156617 12.966445 -20.415520 34.896669 -0.475914 2.195711 -0.017100 0.019522 444617.000000 0 0 1
-26.243387 12.181945 -19.616320 34.955903 -0.434592 2.166599 -0.016279 0.018471 -714371.000000 0 0 1
-25.962227 12.098745 -18.241620 33.958409 -0.436091 2.137881 -0.012129 0.004981 445593.000000 0 0 1
-26.991847 11.472445 -17.465520 34.135336 -0.401899 2.107906 -0.021131 0.004566 -171356.000000 0 0 1
-26.519367 10.917945 -16.060120 32.869527 -0.390549 2.081283 0.001696 0.001072 312506.000000 0 0 1
-25.696287 9.739645 -16.019920 31.808767 -0.362298 2.098594 0.018595 -0.006039 1657360.000000 0 0 1
-24.301067 10.010245 -16.289120 30.920580 -0.390745 2.125634 0.027106 -0.003207 672054.000000 0 0 1
-23.371367 8.788545 -16.070520 29.693786 -0.359681 2.142670 0.029535 -0.009580 -129628.000000 0 0 1
-22.004567 9.074445 -16.269720 28.831412 -0.391141 2.170388 0.037603 -0.002782 -171643.000000 0 0 1
-21.192567 8.111545 -15.695220 27.590976 -0.365552 2.175907 0.048878 -0.004171 -414000.000000 0 0 1
-19.726967 8.593045 -15.682620 26.625894 -0.410814 2.200616 0.054776 -0.005266 -249721.000000 0 0 1
-19.172867 8.726145 -16.972320 27.051877 -0.427112 2.249005 0.058274 -0.014872 -221814.000000 0 0 1
-17.819467 9.058545 -16.798820 26.111128 -0.470306 2.269674 0.048352 -0.014784 -706528.000000 0 0 1
-17.138967 9.690345 -18.055720 26.714340 -0.514589 2.312956 0.040668 -0.010201 -199843.000000 0 0 1
-16.938267 8.845045 -19.148720 27.052046 -0.481244 2.357242 0.059361 -0.025732 162360.000000 0 0 1
-15.778067 8.050745 -19.006220 25.980729 -0.471813 2.391390 0.046655 -0.022232 -745049.000000 0 0 1
-15.436067 7.330245 -20.364620 26.584251 -0.443349 2.443455 0.024669 -0.016944 99280.900000 0 0 1
-16.298567 6.285845 -20.866120 27.213050 -0.368091 2.444589 0.013745 -0.018522 440882.000000 0 0 1
-17.455367 6.837545 -21.491020 28.518516 -0.373345 2.424290 0.023433 -0.016473 -9572.190000 0 0 1
-18.199567 5.801345 -22.350420 29.401039 -0.308580 2.434404 0.023540 -0.012733 -85585.100000 0 0 1
-18.784867 4.806645 -21.528720 28.973450 -0.250504 2.408413 0.061171 -0.017511 -24917.500000 0 0 1
-19.522367 3.836845 -22.178420 29.794739 -0.194062 2.410393 0.036467 -0.009915 -793313.000000 0 0 1
-20.334067 3.080645 -21.137820 29.491898 -0.150358 2.369903 0.039061 -0.011044 -763138.000000 0 0 1
-21.239167 2.170045 -21.672720 30.422329 -0.101819 2.363702 0.041462 -0.011647 -518123.000000 0 0 1
-21.972967 1.751245 -20.580720 30.156992 -0.079532 2.321909 0.038831 -0.013880 -692687.000000 0 0 1
-22.755267 0.481445 -20.856420 30.871090 -0.021154 2.312571 0.044687 -0.009427 -308381.000000 0 0 1
-21.951567 -0.700555 -20.900720 30.318347 0.031903 2.331423 0.032052 -0.015244 -115587.000000 0 0 1
-22.649567 -1.912155 -21.002120 30.947508 0.084224 2.316701 0.037521 -0.018661 -734168.000000 0 0 1
-23.348367 -2.210755 -22.302020 32.363772 0.094404 2.331049 0.042977 -0.016896 -355143.000000 0 0 1
-22.579867 -2.310855 -23.504920 32.675246 0.101986 2.373662 0.032951 -0.015719 -204440.000000 0 0 1
-21.814567 -3.502455 -23.504320 32.258264 0.159197 2.387115 0.026744 -0.026571 81031.300000 0 0 1
-20.551567 -3.382255 -24.404420 32.083987 0.163112 2.435097 0.013728 -0.017965 102224.000000 0 0 1
-20.865867 -3.495955 -25.777150 33.347677 0.166002 2.454324 0.013760 -0.012337 916881.000000 0 0 1
-19.679667 -3.439855 -26.595120 33.262927 0.173044 2.497329 0.017074 -0.020051 687545.000000 0 0 1
-20.017667 -3.382755 -28.118420 34.681343 0.167407 2.516254 0.005525 -0.015395 -76512.200000 0 0 1
-20.764867 -4.499855 -28.482000 35.533825 0.213405 2.500673 0.006866 -0.001899 -59699.100000 0 0 1
-21.229467 -4.411055 -29.793320 36.848196 0.204865 2.512467 -0.012006 -0.004896 -110135.000000 0 0 1
-21.200367 -5.678955 -30.577400 37.638856 0.261726 2.519034 -0.005647 -0.000436 -614870.000000 0 0 1
-19.964667 -5.917655 -31.168060 37.484057 0.288157 2.552602 0.001079 -0.001109 -547479.000000 0 0 1
-19.706967 -7.237155 -31.575240 37.917499 0.351949 2.554826 -0.013541 0.005937 -149452.000000 0 0 1
-18.329167 -7.323555 -32.272760 37.830197 0.380125 2.592685 -0.002829 -0.008081 -360473.000000 0 0 1
-18.249467 -6.741655 -33.548620 38.781475 0.353867 2.616083 0.001508 -0.017118 370296.000000 0 0 1
-18.791967 -7.601855 -34.534427 40.044386 0.384403 2.610795 -0.000443 -0.013078 -475640.000000 0 0 1
-18.633667 -7.008455 33.213066 38.722600 0.359750 0.539982 0.007357 -0.014291 531107.000000 0 0 1
-17.304067 -6.945655 32.684239 37.628876 0.381703 0.518437 0.012137 -0.014045 883814.000000 0 0 1
-16.575167 -5.765555 33.031589 37.404059 0.334752 0.488364 0.011777 -0.021198 64494.100000 0 0 1
-15.157767 -5.647855 32.436399 36.246050 0.356669 0.462601 0.013253 -0.016520 -122065.000000 0 0 1
-15.240767 -5.598655 31.022059 35.014198 0.352045 0.482182 0.006047 -0.007430 495315.000000 0 0 1
-14.030167 -5.246955 30.369049 33.862298 0.357873 0.458224 0.005338 -0.004775 109592.000000 0 0 1
-14.338467 -5.333155 28.824269 32.632387 0.356092 0.487936 0.006348 0.007751 303902.000000 0 0 1
-15.258567 -4.336255 28.393119 32.523779 0.276885 0.509485 -0.006236 0.005171 238168.000000 0 0 1
-15.791667 -4.528955 27.108979 31.698343 0.279298 0.544826 0.000132 0.003243 116948.000000 0 0 1
-14.827767 -4.092755 25.966559 30.180714 0.269314 0.534803 0.002933 0.003774 239988.000000 0 0 1
-14.702367 -2.682155 25.912559 29.913446 0.180446 0.523147 0.004686 0.012954 -158761.000000 0 0 1
-14.108767 -2.392555 24.673589 28.523107 0.167981 0.525569 -0.000123 0.016723 -405986.000000 0 0 1
-13.860667 -0.883355 24.541759 28.199226 0.063645 0.514987 0.007753 0.004739 96819.100000 0 0 1
-15.050467 -0.168955 24.284499 28.570649 0.011225 0.554848 0.008110 0.002462 239264.000000 0 0 1
-14.654967 1.203345 24.205509 28.321772 -0.081928 0.545899 0.012091 0.007241 35278.900000 0 0 1
-15.657367 2.185245 23.541929 28.357554 -0.138671 0.591362 0.012151 0.000757 -325785.000000 0 0 1
-15.097767 2.832545 22.471529 27.220130 -0.185458 0.599623 0.017057 0.009357 58717.400000 0 0 1
-15.940467 3.800445 21.927029 27.374011 -0.234046 0.641805 0.010247 0.011496 -169952.000000 0 0 1
-15.091667 4.589345 20.924029 26.203730 -0.295212 0.645975 0.010874 0.017077 637926.000000 0 0 1
-14.059567 5.393345 21.499329 26.248443 -0.366295 0.611007 0.012442 0.015378 670780.000000 0 0 1
-13.138667 5.797045 20.489129 25.020686 -0.415529 0.611326 0.017229 0.018437 25947.000000 0 0 1
-12.047467 6.787445 20.865229 25.031353 -0.513067 0.585269 0.015773 0.016458 -228649.000000 0 0 1
-12.477767 8.113545 20.701129 25.496294 -0.576544 0.623351 0.016805 0.013755 -7454.100000 0 0 1
-11.448867 9.060945 20.580029 25.233210 -0.669492 0.617043 0.022859 0.010929 -225488.000000 0 0 1
-11.955767 10.538745 20.544329 26.001442 -0.722487 0.659787 0.022141 0.009172 -86688.100000 0 0 1
-12.550267 11.073845 19.366829 25.597135 -0.722983 0.712697 0.031639 0.011641 407147.000000 0 0 1
-13.124567 12.333145 19.679229 26.676446 -0.754320 0.741138 0.018038 0.013984 -513911.000000 0 0 1
-13.364367 13.120745 18.373929 26.236645 -0.776200 0.794957 0.012362 0.014341 49562.200000 0 0 1
-12.218967 13.656945 17.717329 25.489587 -0.840913 0.802264 0.012090 0.008505 351970.000000 0 0 1
-11.853067 14.942545 18.174729 26.345695 -0.900189 0.809507 0.011168 0.005752 -375052.000000 0 0 1
-12.686167 16.142245 17.634029 27.064181 -0.904713 0.861153 0.005012 0.009169 -86037.500000 0 0 1
-12.638867 16.427845 16.252129 26.339073 -0.915022 0.905827 0.001019 -0.005812 197827.000000 0 0 1
-13.421867 15.504845 15.512429 25.713463 -0.857283 0.923188 0.019175 -0.001169 -398644.000000 0 0 1
-13.693167 15.909145 14.059329 25.263975 -0.860117 0.980633 0.008009 -0.013704 252779.000000 0 0 1
-14.578767 17.050045 13.969629 26.427164 -0.863374 1.013836 0.008112 -0.016316 318089.000000 0 0 1
-14.920867 17.291945 12.635629 26.101777 -0.858872 1.065473 -0.007507 -0.020309 250727.000000 0 0 1
-16.092067 18.312145 12.558629 27.422772 -0.849838 1.095093 0.017491 -0.018945 -105482.000000 0 0 1
-17.320667 17.887145 13.067629 28.119715 -0.801486 1.087485 0.037612 -0.021875 556117.000000 0 0 1
-18.244367 18.991745 13.352129 29.526643 -0.805467 1.101559 0.054293 -0.025787 1000080.000000 0 0 1
-19.735567 18.685045 13.570729 30.377429 -0.758062 1.107681 0.051194 -0.013547 494517.000000 0 0 1
-20.452967 18.121345 12.461029 30.033053 -0.725027 1.142952 0.047400 -0.018479 -140262.000000 0 0 1
-21.806567 17.902145 12.758829 30.964510 -0.687387 1.146097 0.059195 -0.011420 -346247.000000 0 0 1
-22.584767 17.222445 11.611229 30.683953 -0.651497 1.182714 0.047002 -0.008204 -427868.000000 0 0 1
-22.276167 15.867245 11.336629 29.606017 -0.618931 1.177845 0.044502 0.001092 444130.000000 0 0 1
-22.881767 15.295945 10.122329 29.325803 -0.589255 1.218379 0.023967 -0.003375 396464.000000 0 0 1
-22.206567 13.886545 9.774429 27.955450 -0.558840 1.213606 0.042230 0.008743 -209418.000000 0 0 1
-22.458467 12.777545 10.635529 27.942134 -0.517269 1.180322 0.031464 0.003595 743899.000000 0 0 1
-23.788667 12.228545 10.708829 28.811751 -0.474824 1.189975 0.019490 -0.005553 434545.000000 0 0 1
-24.348167 11.609945 9.374429 28.557030 -0.444941 1.236324 0.016847 0.004781 -266177.000000 0 0 1
-24.813567 12.567045 8.398029 29.054614 -0.468801 1.277569 0.027426 0.004122 304139.000000 0 0 1
-25.468127 11.968645 7.307229 29.073520 -0.439317 1.316736 0.006542 0.011459 -612674.000000 0 0 1
-25.731777 12.907145 6.071429 29.420758 -0.464929 1.362937 0.000216 0.009279 240599.000000 0 0 1
-24.620967 13.202645 5.208929 28.418916 -0.492214 1.386463 -0.000089 0.009811 2421140.000000 0 0 1
-23.404567 13.834745 5.776929 27.794727 -0.533859 1.361427 0.009415 0.004586 1024620.000000 0 0 1
-23.489267 15.374945 6.051429 28.718537 -0.579569 1.358490 0.006422 -0.004593 -519402.000000 0 0 1
-22.217467 15.862645 6.398929 28.039002 -0.620042 1.340552 -0.002888 -0.009415 284923.000000 0 0 1
-22.251567 17.260845 6.739829 28.956766 -0.659756 1.335887 0.003306 -0.014943 1031360.000000 0 0 1
-20.819967 17.950945 6.650329 28.283110 -0.711533 1.333440 0.010972 -0.015833 1077100.000000 0 0 1
-20.298967 18.085845 5.341729 27.707037 -0.727806 1.376788 0.002364 -0.017658 349235.000000 0 0 1
-18.978667 18.601045 5.395029 27.116324 -0.775350 1.370501 -0.000610 -0.015757 60990.600000 0 0 1
-18.490067 19.360045 4.128829 27.087657 -0.808379 1.417775 0.006264 -0.018629 -202546.000000 0 0 1
-17.145767 19.785345 4.239129 26.521829 -0.856750 1.410272 -0.000341 -0.021121 298909.000000 0 0 1
-16.797067 20.968745 3.503829 27.094401 -0.895414 1.441114 0.007087 -0.004495 -67232.700000 0 0 1
-17.072267 22.319745 4.232829 28.417427 -0.917830 1.421288 0.012531 -0.014859 -333902.000000 0 0 1
-16.257167 22.503945 5.363729 28.275300 -0.945185 1.379943 0.017116 -0.011824 -11836.200000 0 0 1
-16.466267 23.783345 5.900829 29.522961 -0.965227 1.369568 0.015059 -0.009367 -406978.000000 0 0 1
-15.727167 24.092045 7.185729 29.654765 -0.992459 1.326047 0.008261 -0.001135 -114396.000000 0 0 1
-16.371667 23.454345 8.273429 29.775618 -0.961399 1.289232 0.009408 -0.009414 269715.000000 0 0 1
-15.497667 23.412845 9.345929 29.591982 -0.986080 1.249469 0.000161 -0.007122 -155692.000000 0 0 1
-16.099267 22.597445 10.504729 29.667832 -0.951772 1.208868 -0.006124 -0.014900 307935.000000 0 0 1
-17.131867 23.297545 11.208929 31.014780 -0.936737 1.201021 0.011467 -0.009469 63899.300000 0 0 1
-18.168267 22.406245 11.542129 31.070025 -0.889470 1.190186 0.023379 -0.017580 -274689.000000 0 0 1
-19.405467 23.090645 12.157229 32.519967 -0.871900 1.187652 0.033073 -0.023730 -146369.000000 0 0 1
-20.228767 23.811945 11.237229 33.203720 -0.866580 1.225545 0.037576 -0.024638 311079.000000 0 0 1
-19.704767 25.066445 10.803529 33.664829 -0.904588 1.244102 0.018985 -0.014816 -948429.000000 0 0 1
-20.754067 25.867845 10.084329 34.663675 -0.894648 1.275609 0.022987 -0.008510 -45726.200000 0 0 1
-21.747167 26.328045 11.015529 35.881013 -0.880397 1.258755 0.032618 -0.020746 535437.000000 0 0 1
-22.534667 27.382345 10.455129 36.971797 -0.882209 1.284098 0.024935 -0.013045 36700.600000 0 0 1
-23.508567 27.966145 11.510929 38.304823 -0.871780 1.265570 0.018541 -0.020576 -263601.000000 0 0 1
-22.853767 28.690645 12.537529 38.763867 -0.898158 1.241441 0.026096 -0.013230 130211.000000 0 0 1
-23.781567 29.172245 13.451029 39.968900 -0.886848 1.227559 0.012399 -0.014080 -274128.000000 0 0 1
8.668933 -32.493149 27.959899 43.734552 -1.310076 0.877197 -0.011778 -0.004515 -574757.000000 0 0 1
9.955633 -32.883749 27.604499 44.073392 -1.276816 0.893960 -0.009051 0.002651 -235472.000000 0 0 1
10.185233 -32.816649 26.238669 43.233542 -1.269855 0.918635 0.004520 -0.007271 -1460370.000000 0 0 1
11.598133 -33.093449 25.830209 43.553332 -1.233706 0.935929 -0.007443 -0.002242 -1160450.000000 0 0 1
11.923033 -34.453549 25.876459 44.707906 -1.237635 0.953553 0.003241 -0.021776 122041.000000 0 0 1
13.314433 -34.582649 26.132189 45.344515 -1.203285 0.956598 0.028172 -0.017374 271126.000000 0 0 1
13.801333 33.192945 25.747689 44.217552 1.176751 0.949247 0.048515 -0.015087 -31858.200000 0 0 1
13.971933 32.992545 24.357279 43.324358 1.170207 0.973744 0.039166 -0.024538 -28114.500000 0 0 1
14.827733 31.931345 24.094729 42.661791 1.136063 0.970624 0.053441 -0.023923 -606659.000000 0 0 1
14.867133 31.531845 22.587529 41.538962 1.130211 0.995877 0.051422 -0.028329 -107448.000000 0 0 1
13.803233 30.696845 22.176829 40.306790 1.148223 0.988192 0.036244 -0.016925 -477637.000000 0 0 1
13.995933 29.285145 22.425729 39.451479 1.124969 0.966190 0.039585 -0.012896 -345054.000000 0 0 1
13.638533 28.743245 23.839729 39.755709 1.127760 0.927726 0.051833 -0.016719 -309109.000000 0 0 1
14.455833 29.124545 24.938339 40.977201 1.110077 0.916513 0.059412 -0.022286 8239.260000 0 0 1
14.095733 28.498045 26.174969 41.182002 1.111461 0.882021 0.047579 -0.016310 -657520.000000 0 0 1
14.981833 28.943745 27.313189 42.523005 1.093153 0.873281 0.054957 -0.023907 -262782.000000 0 0 1
14.707633 30.224245 27.794369 43.615896 1.117912 0.879868 0.047653 -0.024832 -271771.000000 0 0 1
15.436333 30.464845 28.938109 44.763839 1.101808 0.867859 0.069164 -0.028409 -586483.000000 0 0 1
15.461033 31.959345 29.396309 46.093234 1.120215 0.879213 0.073231 -0.030032 -26651.500000 0 0 1
16.199933 32.790645 28.518739 46.378688 1.111927 0.908524 0.071039 -0.026939 24233.800000 0 0 1
16.186933 34.135045 28.973129 47.609456 1.127999 0.916554 0.075776 -0.014404 -23647.700000 0 0 1
17.065433 -34.115949 28.133369 47.398454 -1.106974 0.935333 0.070622 -0.023876 -257841.000000 0 0 1
16.563733 -33.887949 26.788229 46.264020 -1.116165 0.953259 0.070432 -0.024290 60689.400000 0 0 1
16.918133 -32.665849 26.106969 45.109364 -1.092920 0.953603 0.058613 -0.026933 182588.000000 0 0 1
18.427133 -32.317749 25.919599 45.341170 -1.052587 0.962272 0.050845 -0.016046 -18746.100000 0 0 1
19.038233 -31.851949 27.042069 45.915950 -1.032062 0.941041 0.040606 -0.015848 -197999.000000 0 0 1
20.044533 -30.891449 26.722279 45.498847 -0.995216 0.943056 0.042909 -0.018123 -57104.900000 0 0 1
20.421133 -30.152249 28.026349 45.952769 -0.975491 0.914869 0.048491 -0.017276 -434376.000000 0 0 1
19.299333 -29.527449 28.583449 45.402071 -0.991890 0.889806 0.037479 -0.008690 -193194.000000 0 0 1
19.649133 -28.598549 29.558699 45.581598 -0.968803 0.865212 0.050709 -0.006348 167921.000000 0 0 1
18.416233 -27.956649 30.260469 45.126797 -0.988300 0.835826 0.027355 -0.004912 207707.000000 0 0 1
17.623533 -27.154749 29.395899 43.727430 -0.995122 0.833548 0.038773 -0.004249 505313.000000 0 0 1
16.434233 -26.772049 30.098529 43.505724 -1.020249 0.806777 0.029073 -0.001687 352547.000000 0 0 1
15.414033 -25.976449 29.241639 42.040953 -1.035255 0.801609 0.016652 0.015202 -493471.000000 0 0 1
14.981433 -26.748249 28.173459 41.637194 -1.060239 0.827604 0.016654 0.006800 375057.000000 0 0 1
14.311633 -26.004649 27.103489 40.195320 -1.067685 0.830787 0.012968 -0.018530 1739790.000000 0 0 1
12.780533 -25.518849 27.379009 39.549511 -1.106487 0.806164 0.002677 -0.000833 1657140.000000 0 0 1
11.871533 -26.572849 27.434539 39.996294 -1.150645 0.814919 0.002777 0.001766 -224486.000000 0 0 1
11.615933 -27.185249 26.173869 39.484669 -1.166989 0.846128 0.004047 -0.002236 -1056280.000000 0 0 1
10.646533 -28.390849 26.204139 40.075502 -1.212027 0.858109 0.003764 0.005635 359967.000000 0 0 1
9.261133 -28.024849 26.111459 39.407728 -1.251633 0.846515 -0.016189 0.004881 566266.000000 0 0 1
8.526433 -29.211249 26.307209 40.225196 -1.286798 0.857939 -0.020231 0.003554 -462076.000000 0 0 1
7.124833 -29.064949 26.930159 40.258762 -1.330402 0.838032 -0.013066 -0.002095 1015380.000000 0 0 1
5.977933 -28.691749 26.110529 39.251903 -1.365385 0.843029 0.011697 -0.006353 1031010.000000 0 0 1
6.065133 -27.526549 25.308259 37.881456 -1.353924 0.839156 0.001794 -0.009260 -384983.000000 0 0 1
4.847933 -27.352149 24.327939 36.925481 -1.395377 0.851522 0.029711 -0.013798 83416.200000 0 0 1
4.745633 -28.247649 23.203429 36.862580 -1.404350 0.889941 0.017341 -0.016384 -128133.000000 0 0 1
4.347033 -29.553849 23.514529 38.016572 -1.424755 0.903921 0.009436 -0.009931 -210703.000000 0 0 1
2.891733 -29.767249 24.040129 38.371591 -1.473955 0.893731 0.003593 -0.006573 -74231.400000 0 0 1
1.905233 -29.392949 23.077029 37.418239 -1.506067 0.906212 -0.005921 0.000060 589934.000000 0 0 1
0.692433 -28.985449 23.712229 37.455380 -1.546912 0.885271 -0.012968 -0.005160 339568.000000 0 0 1
0.555433 -27.453749 24.065629 36.512619 -1.550567 0.851169 -0.006129 -0.007175 -638379.000000 0 0 1
1.373833 -26.986349 25.067609 36.858316 -1.519932 0.822887 0.005547 -0.014300 -275147.000000 0 0 1
1.038233 -25.654249 25.340439 36.074316 -1.530348 0.791961 0.016422 -0.006357 165785.000000 0 0 1
2.150633 -24.873449 26.127219 36.137864 -1.484548 0.762680 0.021958 -0.006521 512614.000000 0 0 1
3.300033 -24.665049 25.297509 35.485473 -1.437792 0.777175 0.018971 -0.007783 139435.000000 0 0 1
4.351433 -23.910049 25.840379 35.473238 -1.390775 0.754744 0.019646 -0.008198 76208.300000 0 0 1
4.200433 -22.410549 26.039399 34.611077 -1.385515 0.719185 0.024883 -0.003368 -506765.000000 0 0 1
4.032233 -21.718849 24.830269 33.234162 -1.387230 0.727061 0.022891 -0.005655 134998.000000 0 0 1
3.718833 -20.387649 25.259199 32.672819 -1.390374 0.687090 0.025225 -0.004509 -42134.100000 0 0 1
3.749233 -19.252449 24.210339 31.158531 -1.378463 0.680902 0.015424 -0.004141 -334739.000000 0 0 1
5.039133 -18.836849 23.847929 30.804926 -1.309402 0.685410 0.013822 0.004232 -457705.000000 0 0 1
5.109733 -17.947249 22.785629 29.451621 -1.293427 0.686194 0.005748 0.006049 18223.600000 0 0 1
6.529533 -17.411049 22.495529 29.186097 -1.212006 0.690760 0.016188 0.004727 -246344.000000 0 0 1
7.329733 -18.418949 21.900229 29.539849 -1.192063 0.735673 0.028497 0.001031 -116286.000000 0 0 1
8.626233 -18.014149 21.498929 29.344938 -1.124204 0.748621 0.020084 0.005304 231978.000000 0 0 1
9.667433 -18.225849 22.613829 30.610882 -1.083107 0.739581 0.002794 0.012691 -704772.000000 0 0 1
9.636633 -17.236749 23.578729 30.755921 -1.061013 0.697204 -0.001185 0.019908 472549.000000 0 0 1
10.553933 -17.559049 24.647589 32.050107 -1.029602 0.693469 -0.013622 0.027070 230461.000000 0 0 1
10.423533 -16.806149 25.952609 32.628739 -1.015641 0.651144 -0.016598 0.015195 -328960.000000 0 0 1
10.654233 -15.421249 25.779659 31.873475 -0.966217 0.628667 -0.006264 0.016270 270124.000000 0 0 1
10.427933 -14.750449 26.995199 32.481661 -0.955416 0.589731 -0.015067 0.009448 -407050.000000 0 0 1
10.781633 -13.230349 26.965569 31.912813 -0.887026 0.564276 -0.006129 0.015678 -78672.100000 0 0 1
9.973833 -12.416049 26.122869 30.594769 -0.894045 0.547489 -0.008068 0.015079 205331.000000 0 0 1
10.232433 -11.079049 26.314549 30.329911 -0.825103 0.520420 0.003286 0.023450 -58730.200000 0 0 1
9.305933 -10.190449 25.406259 28.912344 -0.830735 0.497593 -0.004687 0.028080 -135683.000000 0 0 1
7.979833 -10.168449 25.828849 28.882599 -0.905415 0.463998 -0.027704 0.030751 -471194.000000 0 0 1
7.163033 -9.283849 25.077089 27.683195 -0.913640 0.437392 -0.026628 0.027249 -156.361000 0 0 1
5.682233 -9.284949 25.469559 27.698312 -1.021612 0.403901 -0.020003 0.018203 -973285.000000 0 0 1
5.294633 -8.394649 26.506529 28.303698 -1.008098 0.358272 -0.015747 0.016178 -289053.000000 0 0 1
3.965933 -8.459449 26.929339 28.504038 -1.132405 0.333949 -0.022269 0.008732 895309.000000 0 0 1
2.760833 -8.262949 25.901489 27.327379 -1.248336 0.324463 -0.014090 0.006485 265711.000000 0 0 1
2.750833 -6.997849 25.267759 26.362788 -1.196255 0.289232 -0.010009 0.011281 83594.500000 0 0 1
1.660233 -6.813949 24.374979 25.363869 -1.331801 0.280158 -0.010707 0.001248 19455.200000 0 0 1
1.817433 -5.521749 23.536129 24.243394 -1.252824 0.242142 -0.007080 0.002392 -114283.000000 0 1 0
1.611033 -4.342849 24.304699 24.742153 -1.215570 0.188324 0.001523 0.010751 -65467.200000 0 1 0
1.970933 -3.188449 23.593729 23.889639 -1.017139 0.157557 -0.002843 0.011688 -946409.000000 0 1 0
1.084833 -2.548449 22.474829 22.644854 -1.168347 0.122619 0.003884 -0.000033 806818.000000 0 1 0
-0.025867 -1.711449 22.863029 22.927011 1.555683 0.074726 0.006022 -0.004340 900481.000000 0 1 0
-1.087067 -2.402449 23.508729 23.656158 1.145880 0.111702 0.013741 -0.005524 -400550.000000 0 1 0
-1.977467 -1.510449 24.424409 24.550837 0.652294 0.101529 0.022299 -0.000655 182072.000000 0 1 0
-1.296967 -0.737449 25.427799 25.471532 0.517007 0.058607 0.010588 -0.003666 252363.000000 0 0 1
-1.984367 0.480551 25.682729 25.763758 -0.237594 0.079331 0.020476 -0.006981 -154028.000000 0 0 1
-1.338767 1.366551 26.844929 26.913008 -0.795668 0.071143 0.014279 -0.009473 -230356.000000 0 0 1
-1.629667 0.926551 28.170579 28.232886 -0.516975 0.066448 0.017777 -0.005891 486232.000000 0 0 1
-0.910967 -0.259449 28.604999 28.620677 0.277460 0.033101 0.013845 -0.006594 1179670.000000 0 0 1
0.539433 -0.006449 29.236249 29.241226 -0.011954 0.018450 0.011252 -0.005219 905463.000000 0 0 1
1.554633 0.327551 28.335349 28.379855 0.207656 0.056011 0.006384 -0.002055 -134284.000000 0 0 1
2.156033 -0.680449 27.546879 27.639501 -0.305709 0.081890 0.002547 0.000032 144268.000000 0 0 1
3.124733 -1.641449 28.329619 28.548654 -0.483689 0.123953 -0.000600 -0.003514 283707.000000 0 0 1
2.408333 -2.685449 29.049279 29.272381 -0.839747 0.123542 -0.004204 0.000294 731376.000000 0 0 1
3.345433 -3.711449 29.385749 29.807533 -0.837218 0.168427 -0.003651 0.010370 419726.000000 0 0 1
3.740133 -4.659249 28.203959 28.829854 -0.894391 0.208753 -0.010639 0.014756 -378379.000000 0 0 1
4.706433 -4.015449 27.373249 28.063662 -0.706339 0.222275 -0.001222 0.012262 -62932.400000 0 0 1
5.049333 -4.801249 26.254799 27.163620 -0.760219 0.259405 -0.011953 0.014737 -682041.000000 0 0 1
6.231833 -4.138449 25.510239 26.584484 -0.586211 0.285250 -0.010923 0.018099 41155.800000 0 0 1
7.435433 -4.158449 26.285889 27.631980 -0.509936 0.313419 -0.016911 0.008971 288180.000000 0 0 1
8.200733 -5.326849 26.120199 27.890718 -0.576064 0.358228 -0.007065 0.017873 -115999.000000 0 0 1
8.973833 -5.602549 24.758949 26.924409 -0.558111 0.403805 -0.005106 0.012905 -615578.000000 0 0 1
8.124033 -5.959149 23.698129 25.750974 -0.632871 0.401999 0.001536 0.012813 -250729.000000 0 0 1
8.808433 -6.157349 22.492629 24.928293 -0.610074 0.445737 0.000958 0.006780 -135142.000000 0 1 0
9.259233 -4.821549 21.794129 24.165363 -0.480093 0.446707 0.004715 0.006318 710140.000000 0 1 0
8.134633 -4.155449 21.201329 23.085414 -0.472277 0.406814 0.006716 -0.006563 49165.300000 0 1 0
8.404233 -2.853449 20.628729 22.457020 -0.327313 0.406306 0.011304 0.000909 -424264.000000 0 1 0
7.159733 -2.032449 20.274129 21.597058 -0.276596 0.351826 0.010913 -0.000757 -162176.000000 0 1 0
6.571733 -1.600449 21.472929 22.513014 -0.238885 0.305154 0.009196 0.006415 75598.500000 0 1 0
5.442633 -0.761449 21.279929 21.978113 -0.139002 0.252733 0.006576 0.008681 311147.000000 0 1 0
4.793833 -0.261449 22.600529 23.104829 -0.054485 0.209315 -0.003826 0.006705 405455.000000 0 1 0
3.567333 0.470551 22.558329 22.843500 0.131149 0.158175 -0.003172 0.008062 692383.000000 0 1 0
3.041433 0.821551 23.836729 24.044020 0.263823 0.131406 -0.002872 0.008822 688788.000000 0 1 0
1.554633 1.313551 23.810029 23.896857 0.701541 0.085272 -0.005480 0.006410 501165.000000 0 1 0
1.340833 2.561551 23.152229 23.332061 1.088569 0.124237 -0.007500 0.000321 225515.000000 0 1 0
-0.036667 2.855551 23.059229 23.235395 -1.557956 0.123218 -0.009784 -0.003108 17832.700000 0 1 0
-0.454667 4.204551 22.450229 22.845082 -1.463078 0.186193 -0.001588 -0.003376 -419010.000000 0 1 0
-0.301667 5.290551 23.324429 23.918819 -1.513838 0.223401 -0.002457 -0.000555 299636.000000 0 1 0
-1.319967 6.302551 23.144629 24.023703 -1.364347 0.271357 0.000443 -0.006299 466768.000000 0 1 0
-1.174867 7.530551 24.068829 25.246743 -1.416031 0.306671 0.003127 -0.000231 162763.000000 0 0 1
-0.116567 8.363551 23.614029 25.051646 -1.556860 0.340422 -0.005590 0.001360 141756.000000 0 0 1
-0.288467 9.618551 24.129109 25.977175 -1.540815 0.379478 0.017906 -0.001126 -601518.000000 0 0 1
0.368633 10.833551 23.419929 25.806875 1.536782 0.433485 0.017323 -0.004913 1183530.000000 0 0 1
1.811933 10.914551 23.508429 25.981855 1.406286 0.439882 0.013518 -0.005960 1056400.000000 0 0 1
2.310833 11.265551 24.836699 27.369951 1.368479 0.433636 0.021756 -0.005996 -655547.000000 0 0 1
3.742733 11.838551 24.803579 27.737644 1.264592 0.464109 0.020170 -0.011862 314152.000000 0 0 1
4.893233 11.075551 24.482899 27.313438 1.154778 0.459288 0.018257 -0.009751 414585.000000 0 0 1
4.802033 10.647551 23.110029 25.894079 1.147112 0.467976 0.016569 -0.010768 -716478.000000 0 0 1
6.090533 10.089551 22.399729 25.310897 1.027699 0.484338 0.027895 -0.008384 466656.000000 0 0 1
6.965633 11.126551 22.012429 25.629421 1.011452 0.537730 0.023562 -0.011350 997057.000000 0 0 1
8.174033 10.549551 21.438029 25.252662 0.911597 0.556817 0.029055 -0.008542 1106010.000000 0 0 1
9.189633 11.555551 20.849629 25.547743 0.898954 0.616158 0.027111 -0.015165 -146378.000000 0 0 1
8.701033 12.204551 19.652029 24.715608 0.951443 0.651581 0.018404 -0.018240 804920.000000 0 1 0
9.575633 13.195551 19.035729 25.063406 0.943048 0.708248 0.029463 -0.017149 1002470.000000 0 0 1
10.951833 12.739551 18.407129 24.921100 0.860714 0.739781 0.012114 -0.013227 454085.000000 0 1 0
11.898933 12.679551 19.427229 26.072454 0.817148 0.730075 0.022733 -0.011375 -266554.000000 0 0 1
13.191733 12.306551 18.982929 26.188254 0.750697 0.759959 0.026578 -0.011936 -121365.000000 0 0 1
14.219033 12.213551 20.075429 27.465880 0.709672 0.751124 0.027050 -0.003288 -448148.000000 0 0 1
14.724033 13.400551 20.625629 28.666854 0.738375 0.767723 0.020012 -0.002472 348662.000000 0 0 1
15.854333 13.115551 21.456329 29.727960 0.691139 0.764461 0.014925 0.002843 607828.000000 0 0 1
16.507333 14.379551 22.061529 31.080132 0.716617 0.781543 0.015494 0.005814 -422906.000000 0 0 1
15.749433 14.893551 23.098329 31.676416 0.757475 0.753649 0.013780 -0.001044 -185230.000000 0 0 1
16.367833 16.010551 23.589429 32.874076 0.774364 0.770490 0.007500 0.000870 -262630.000000 0 0 1
-20.658267 13.093545 -24.957520 34.943994 -0.564914 2.366298 -0.012687 0.007484 40781.200000 0 0 1
-20.488167 12.801045 -26.288750 35.703363 -0.558457 2.398397 -0.008959 -0.012280 97627.200000 0 0 1
-21.248767 13.690145 -27.102650 37.060542 -0.572343 2.391033 -0.017889 -0.009950 -105128.000000 0 0 1
-20.876867 13.677245 -28.600110 37.958884 -0.579979 2.424089 -0.004096 -0.007323 683618.000000 0 0 1
-19.533167 14.074645 -28.928170 37.636143 -0.624386 2.447489 -0.015177 0.005152 400016.000000 0 0 1
-19.328767 14.476245 -30.274360 38.725957 -0.642828 2.468278 -0.005434 -0.003010 -396906.000000 0 0 1
-17.860667 14.690445 -30.623910 38.374945 -0.688312 2.494796 -0.016571 -0.005068 -694038.000000 0 0 1
-17.089267 13.497445 -30.757190 37.685923 -0.668503 2.525505 -0.020826 -0.010255 496604.000000 0 0 1
-15.702667 13.896945 -30.792770 37.254443 -0.724469 2.543752 -0.021807 0.003557 1024110.000000 0 0 1
-14.998667 13.546245 -29.443430 35.712411 -0.734560 2.540042 -0.004462 0.005054 -482510.000000 0 0 1
-15.633567 14.192545 -28.364450 35.360695 -0.737122 2.501677 -0.010869 0.008229 -208794.000000 0 0 1
-16.332067 13.312245 -27.537780 34.673932 -0.683880 2.488474 0.000557 0.008506 -130458.000000 0 0 1
-16.935667 13.884445 -26.227310 34.168207 -0.686719 2.445875 -0.002623 0.006789 96035.600000 0 0 1
-15.947467 14.287445 -25.328610 33.166116 -0.730549 2.439805 0.013806 0.002909 -34935.500000 0 0 1
-16.706567 14.783445 -24.246020 32.947369 -0.724403 2.397794 0.006110 -0.000667 -30775.200000 0 0 1
-15.996767 15.448345 -23.103620 32.067509 -0.767959 2.375273 0.016935 -0.001789 -304437.000000 0 0 1
-15.707767 16.797645 -23.410620 32.816946 -0.818915 2.365092 0.000468 -0.002394 -190595.000000 0 0 1
-15.137967 17.464545 -22.288320 32.108217 -0.856639 2.338052 -0.001833 0.001830 -210729.000000 0 0 1
-14.771967 18.974045 -22.589020 32.992260 -0.909281 2.324956 -0.003571 -0.006554 1131230.000000 0 0 1
-15.895867 19.898845 -22.812220 34.191227 -0.896767 2.301233 -0.020279 -0.003630 1108660.000000 0 0 1
-16.634967 19.696645 -24.010720 35.230592 -0.869470 2.320648 -0.031127 0.002217 -370758.000000 0 0 1
-17.819567 20.657445 -23.978420 36.321228 -0.859020 2.291850 -0.034507 -0.000332 -339174.000000 0 0 1
-17.447267 22.004645 -24.280220 37.123316 -0.900406 2.283712 -0.028350 -0.000518 9408.230000 0 0 1
-18.560567 22.757645 -24.686120 38.364170 -0.886630 2.269817 -0.013447 -0.004043 105289.000000 0 0 1
-18.090967 24.170145 -24.856420 39.106529 -0.928266 2.259592 -0.012590 -0.012133 164766.000000 0 0 1
-17.739267 24.825745 -23.636120 38.596183 -0.950371 2.229883 -0.002979 -0.007851 -552070.000000 0 0 1
-16.836967 25.834345 -23.861320 38.990504 -0.993207 2.229355 0.001075 -0.003491 -602180.000000 0 0 1
-15.782367 26.099645 -22.741820 38.045564 -1.026931 2.211491 0.002034 -0.018308 -2410.000000 0 0 1
-14.842867 25.057445 -22.494620 36.799377 -1.036018 2.228470 0.006807 -0.029418 -256222.000000 0 0 1
-15.295867 23.756045 -22.175820 35.917686 -0.998741 2.236238 -0.004241 -0.009605 -1172300.000000 0 0 1
-14.219767 22.642645 -22.102820 34.690428 -1.010037 2.261584 0.010223 -0.011567 209261.000000 0 0 1
-13.466467 22.871745 -20.911820 33.790038 -1.038666 2.238106 0.015032 -0.016149 -413190.000000 0 0 1
-12.447867 21.927445 -20.741620 32.649304 -1.054477 2.259174 0.013774 -0.014369 5746.160000 0 0 1
-11.591067 22.240345 -19.440720 31.732119 -1.090354 2.230207 0.012123 -0.010913 357779.000000 0 0 1
-12.238367 22.137045 -18.146320 31.130617 -1.065771 2.193101 0.015992 -0.005551 30963.600000 0 0 1
-13.088767 23.188445 -17.761220 32.007510 -1.056925 2.159049 0.013766 -0.009929 -270166.000000 0 0 1
-13.809067 22.886245 -16.441420 31.381377 -1.027896 2.122246 0.023639 -0.008953 -60776.800000 0 0 1
-12.984167 23.088245 -15.321320 30.600629 -1.058505 2.095188 0.021791 -0.006037 45875.300000 0 0 1
-13.741067 23.156645 -14.117820 30.403289 -1.035247 2.053699 0.020191 -0.001866 481952.000000 0 0 1
-12.851767 23.665445 -12.911720 29.865259 -1.073297 2.017874 0.036955 -0.001511 172328.000000 0 0 1
-12.440767 25.010845 -13.018120 30.818606 -1.109219 2.006900 0.040428 -0.011276 100430.000000 0 0 1
-11.725067 25.354545 -11.835720 30.338332 -1.137642 1.971563 0.037808 -0.007870 -156034.000000 0 0 1
-11.437067 26.845445 -11.865420 31.500359 -1.168050 1.957001 0.047750 -0.010342 -75263.500000 0 0 1
-10.740967 27.319345 -12.988720 32.100184 -1.196197 1.987371 0.043799 -0.012036 145017.000000 0 0 1
-10.579767 28.745245 -13.000020 33.274932 -1.218130 1.972172 0.025241 0.005895 -672422.000000 0 0 1
-10.136267 29.385945 -14.297520 34.215446 -1.238640 2.001893 0.041974 -0.003044 664457.000000 0 0 1
-8.736467 29.457145 -14.580820 34.009551 -1.282478 2.013880 0.029648 0.000422 737619.000000 0 0 1
-8.105367 28.199745 -14.926420 32.919912 -1.290914 2.041391 0.030696 -0.005532 233534.000000 0 0 1
-6.612067 28.254545 -15.343220 32.824581 -1.340915 2.057179 0.035070 -0.010348 640811.000000 0 0 1
-5.730267 28.626645 -14.290820 32.504589 -1.373235 2.026011 0.031509 -0.011306 315688.000000 0 0 1
-4.386967 28.687945 -14.776220 32.566552 -1.419052 2.041736 0.035631 -0.016865 426634.000000 0 0 1
-3.573467 29.890745 -14.229020 33.297016 -1.451810 2.012341 0.012623 -0.006973 -70037.900000 0 0 1
-3.948667 31.162445 -14.688320 34.676169 -1.444756 2.008196 0.002174 -0.000624 52264.500000 0 0 1
-4.992267 31.749345 -13.926720 35.027092 -1.414833 1.979694 0.006381 0.003554 153101.000000 0 0 1
-5.006567 33.280445 -14.078720 36.481010 -1.421480 1.967000 0.003092 0.003274 -430532.000000 0 0 1
-3.968867 33.873145 -13.345120 36.622863 -1.454160 1.943777 -0.007372 0.001263 -273696.000000 0 0 1
-3.864067 -33.979649 -13.827220 36.888203 1.457566 1.955022 0.001020 0.002273 505995.000000 0 0 1
-2.930467 -33.044549 -12.980620 35.623396 1.482345 1.943768 -0.002130 0.003778 313455.000000 0 0 1
-3.396867 -32.856149 -11.628120 35.018258 1.467776 1.909282 -0.008897 0.005168 -315163.000000 0 0 1
-2.414267 -32.283749 -10.837220 34.139632 1.496153 1.893823 -0.019174 -0.003080 -384838.000000 0 0 1
-2.793267 -32.245549 -9.329520 33.684087 1.484387 1.851437 -0.027731 -0.002690 -148901.000000 0 0 1
-1.755067 -31.710649 -8.540120 32.887371 1.515506 1.833485 -0.029242 -0.010595 -55889.100000 0 0 1
-2.126167 -31.674849 -7.156820 32.542844 1.503772 1.792529 -0.034481 -0.014687 -559537.000000 0 0 1
-1.084467 -31.018949 -6.293620 31.669558 1.535849 1.770856 -0.019796 -0.012932 -568231.000000 0 0 1
-1.277567 -31.107049 -4.881120 31.513584 1.529749 1.726312 -0.022404 -0.005683 -172241.000000 0 0 1
-0.202467 -30.526549 -4.180820 30.812180 1.564164 1.706903 -0.020520 -0.002251 -232321.000000 0 0 1
-0.387167 -30.598549 -2.651520 30.715658 1.558144 1.657229 -0.015774 0.002177 -124524.000000 0 0 1
-0.193567 -31.905849 -1.985020 31.968124 1.564730 1.632930 -0.015808 -0.001572 774756.000000 0 0 1
0.983533 -32.656649 -2.352320 32.756029 -1.540688 1.642672 -0.014817 -0.005240 1247610.000000 0 0 1
2.350633 -32.240749 -1.707120 32.371370 -1.498016 1.623556 -0.004796 -0.005247 -221795.000000 0 0 1
2.500633 -32.581749 -0.353020 32.679476 -1.494197 1.581599 -0.001446 -0.004968 822503.000000 0 0 1
3.791333 -32.313649 0.232480 32.536136 -1.454001 1.563651 -0.006567 -0.005985 734065.000000 0 0 1
4.004533 -30.764949 0.464180 31.027952 -1.441359 1.555836 -0.008016 -0.005507 -832263.000000 0 0 1
4.244033 -30.064149 -0.745220 30.371371 -1.430557 1.595336 -0.008857 -0.010294 242511.000000 0 0 1
3.937533 -28.656249 -0.626420 28.932286 -1.434246 1.592449 -0.007151 -0.000360 -370175.000000 0 0 1
3.910333 -27.990049 -2.008320 28.333141 -1.431990 1.641738 -0.010313 -0.000422 349347.000000 0 0 1
2.749233 -28.359649 -2.757420 28.625711 -1.474157 1.667273 -0.006572 0.005276 576565.000000 0 0 1
2.282233 -27.378949 -3.666920 27.717535 -1.487631 1.703481 -0.012120 0.001918 -4999.610000 0 0 1
2.695333 -27.536249 -5.160720 28.145032 -1.473224 1.755201 -0.021854 0.008404 -14957.000000 0 0 1
1.908333 -28.505349 -5.878220 29.167621 -1.503950 1.773718 -0.022750 0.004122 219559.000000 0 0 1
2.449633 -28.629949 -7.166220 29.614682 -1.485442 1.815204 -0.008332 -0.013166 -554148.000000 0 0 1
1.760233 -29.498949 -8.212320 30.671299 -1.511196 1.841856 -0.011649 -0.010287 -276187.000000 0 0 1
0.472033 -28.968949 -8.493920 30.192209 -1.554503 1.855974 -0.015570 -0.005349 -230046.000000 0 0 1
0.094633 -29.182549 -9.818820 30.790247 -1.567554 1.895358 0.000229 0.004339 -312829.000000 0 0 1
-1.277567 -28.541149 -10.008920 30.272229 1.526064 1.907768 -0.022754 0.000569 -1073710.000000 0 0 1
-1.185067 -27.125649 -9.888420 28.896125 1.527136 1.920060 -0.016239 0.002012 -530645.000000 0 0 1
-2.357367 -26.380649 -9.738020 28.219228 1.481673 1.923125 0.002384 -0.005335 -287031.000000 0 0 1
-3.236367 -26.617649 -8.491320 28.126070 1.449803 1.877484 0.005845 -0.007399 -29122.600000 0 0 1
-2.612567 -26.405649 -7.194820 27.492712 1.472178 1.835579 0.005837 -0.007903 -93295.500000 0 0 1
-1.664567 -27.373749 -6.805120 28.256018 1.510062 1.814025 -0.010816 -0.005632 -94207.000000 0 0 1
-1.307567 -27.259449 -5.333920 27.807157 1.522866 1.763811 0.003232 0.001720 -203554.000000 0 0 1
-2.352667 -27.449149 -4.401120 27.899116 1.485295 1.729209 0.012579 -0.002542 -264318.000000 0 0 1
-2.007167 -27.023749 -3.096720 27.274556 1.496658 1.684580 0.009585 0.007454 -536158.000000 0 0 1
-3.032867 -27.223949 -2.004820 27.465632 1.459849 1.643855 -0.000536 0.006046 51354.700000 0 0 1
-4.032967 -26.194349 -1.944220 26.574211 1.418033 1.644024 0.010901 0.003197 54338.600000 0 0 1
-4.947367 -26.381649 -0.900620 26.856637 1.385419 1.604337 0.025440 0.002418 -383207.000000 0 0 1
-5.918467 -25.221249 -0.829220 25.919630 1.340305 1.602794 0.034721 0.000143 -491062.000000 0 0 1
-5.336867 -24.041049 -0.334420 24.628561 1.352349 1.584375 0.007934 0.007695 -525177.000000 0 1 0
-6.265567 -23.041249 0.035980 23.877977 1.305288 1.569289 0.025161 -0.005399 133202.000000 0 1 0
-5.622867 -21.627149 0.418080 22.350056 1.316437 1.552089 0.006277 -0.006938 -182021.000000 0 1 0
-4.683967 -21.721949 1.425580 22.266901 1.358415 1.506730 0.002834 -0.004734 -663025.000000 0 1 0
-4.409867 -20.358149 1.818880 20.909555 1.357478 1.483698 -0.008536 -0.006028 -264157.000000 0 1 0
-3.312567 -20.334449 2.895880 20.805024 1.409311 1.431152 -0.005886 0.001279 -19497.300000 0 1 0
-3.847867 -20.675349 4.165280 21.438883 1.386793 1.375267 -0.006006 0.017988 523026.000000 0 1 0
-2.953267 -20.216549 5.204880 21.083676 1.425741 1.321350 0.005035 0.003677 359219.000000 0 1 0
-1.790567 -21.121749 5.595380 21.923564 1.486225 1.312719 -0.004765 -0.007715 -673936.000000 0 1 0
-0.997267 -21.529649 4.571480 22.032221 1.524509 1.361787 0.014076 -0.012438 -866373.000000 0 1 0
-0.515767 -22.839049 4.737080 23.330840 1.548217 1.366335 0.013690 -0.012840 -662258.000000 0 1 0
0.468033 -23.312349 3.617280 23.595961 -1.550722 1.416889 0.014628 -0.014476 1062200.000000 0 1 0
1.668933 -22.521049 3.446880 22.844342 -1.496826 1.419332 0.011316 -0.017246 678031.000000 0 1 0
2.615733 -22.924949 4.410580 23.491457 -1.457188 1.381923 0.029729 -0.018421 -206181.000000 0 1 0
3.946733 -22.100149 4.519780 22.900255 -1.394075 1.372124 0.034364 -0.018471 1122300.000000 0 1 0
4.712033 -21.895549 3.310680 22.640206 -1.358824 1.424040 0.017126 -0.009383 -153451.000000 0 1 0
5.768833 -21.041449 3.636380 22.118889 -1.303206 1.405645 0.029434 -0.009465 -268608.000000 0 1 0
6.622933 -20.546449 2.493980 21.731078 -1.258973 1.455777 0.036285 -0.000109 -868086.000000 0 1 0
7.272433 -21.519149 1.787880 22.785051 -1.244895 1.492248 0.026509 0.000377 -400666.000000 0 1 0
6.804633 -21.558249 0.440580 22.610954 -1.265054 1.551310 0.018926 -0.004023 53284.800000 0 1 0
7.589633 -22.559349 -0.406920 23.805300 -1.246262 1.587891 0.013921 0.002474 594708.000000 0 1 0
8.931733 -22.200749 -0.735520 23.941389 -1.188294 1.601523 0.011179 0.011664 -101924.000000 0 1 0
9.503133 -23.177849 -1.560120 25.098928 -1.181691 1.632995 0.011567 0.013205 -249047.000000 0 0 1
10.842633 -22.642149 -2.076820 25.190132 -1.124196 1.653336 0.009192 0.021293 -149766.000000 0 0 1
10.734833 -21.531749 -2.991220 24.244592 -1.108303 1.694488 0.005941 0.024585 -869205.000000 0 1 0
12.032533 -21.232049 -3.394520 24.639491 -1.055210 1.709003 -0.001060 0.021041 -340504.000000 0 1 0
12.259133 -20.145149 -4.454620 23.999104 -1.024121 1.757495 -0.006660 0.015928 -104413.000000 0 1 0
12.440633 -18.835549 -3.917520 22.910570 -0.987084 1.742633 0.010928 0.015684 65344.700000 0 1 0
12.314233 -17.806649 -4.873820 22.191692 -0.965762 1.792225 -0.009143 0.009480 -673621.000000 0 1 0
12.759333 -16.426149 -4.296220 21.238560 -0.910382 1.774486 0.002296 0.010173 1771990.000000 0 1 0
14.101033 -16.191849 -3.732520 21.793274 -0.854309 1.742914 0.001956 0.010481 1394740.000000 0 1 0
15.136633 -16.298549 -4.651220 22.724308 -0.822344 1.776933 -0.002667 0.013491 -756329.000000 0 1 0
16.536533 -15.895649 -4.170420 23.313536 -0.765640 1.750648 0.002249 0.009246 -363081.000000 0 1 0
17.080633 -16.652649 -3.170320 24.064697 -0.772712 1.702922 0.002614 0.004968 -199746.000000 0 1 0
18.444733 -16.301549 -3.084120 24.808476 -0.723795 1.695436 0.003535 0.009038 -34841.500000 0 1 0
19.239133 -17.247749 -2.133520 25.926453 -0.730874 1.653181 -0.004681 0.008288 -610078.000000 0 0 1
20.614033 -17.204849 -2.319220 26.950398 -0.695496 1.656958 -0.008075 0.008898 -693376.000000 0 0 1
21.266133 -17.885449 -1.266420 27.816209 -0.699263 1.616340 -0.005875 0.011127 220185.000000 0 0 1
22.806633 -17.802049 -1.319020 28.961962 -0.662777 1.616355 0.000894 0.006613 191062.000000 0 0 1
23.435433 -16.549749 -1.139420 28.712575 -0.614865 1.610490 0.008555 -0.004422 133490.000000 0 0 1
24.811433 -16.660549 -0.827720 29.897595 -0.591332 1.598485 0.022007 -0.001713 170003.000000 0 0 1
25.225933 -15.268149 -0.227820 29.487556 -0.544275 1.578522 0.020030 -0.008120 -76496.300000 0 0 1
24.565633 -15.023149 0.978680 28.811858 -0.548870 1.536822 -0.001344 -0.006021 -231479.000000 0 0 1
25.184833 -13.930249 1.626480 28.826604 -0.505236 1.514343 -0.010078 -0.009831 48425.500000 0 0 1
24.466233 -13.239949 2.825280 27.962028 -0.496025 1.469584 -0.007224 -0.012639 -134059.000000 0 0 1
24.268233 -14.078049 3.961980 28.334359 -0.525660 1.430507 0.013897 -0.006458 835173.000000 0 0 1
25.479733 -14.414649 4.676180 29.645667 -0.514840 1.412399 0.036128 -0.004431 1051620.000000 0 0 1
25.051133 -15.092549 5.984880 29.852355 -0.542233 1.368946 0.028038 0.005315 311211.000000 0 0 1
24.272333 -16.263549 5.792180 29.785878 -0.590338 1.375089 0.025088 0.000129 -209129.000000 0 0 1
23.594533 -16.481349 6.974680 29.613899 -0.609735 1.333042 0.005625 0.006451 -451366.000000 0 0 1
22.979733 -17.921449 7.177780 30.012780 -0.662352 1.329298 -0.002741 0.006113 169342.000000 0 0 1
23.886733 -19.058449 7.171680 31.388429 -0.673439 1.340279 0.001883 0.000252 51188.900000 0 0 1
23.218033 -20.301149 7.087480 31.645633 -0.718473 1.344916 -0.011262 0.007331 -170796.000000 0 0 1
1.601733 23.307945 -2.556520 23.502375 1.502184 1.679789 0.011284 -0.005977 -262755.000000 0 1 0
2.495533 24.314645 -2.181220 24.539506 1.468519 1.659800 0.007027 -0.003852 -381706.000000 0 1 0
2.878033 25.039845 -3.316620 25.421976 1.456360 1.701632 0.007035 0.000333 -50888.700000 0 0 1
3.784233 26.185445 -2.778820 26.603003 1.427273 1.675442 -0.002326 -0.000130 -218395.000000 0 0 1
4.964333 25.646045 -2.268720 26.220437 1.379590 1.657430 0.004672 0.005438 -471068.000000 0 0 1
5.827233 26.580645 -1.641120 27.261339 1.354982 1.631032 0.004765 0.002261 -304945.000000 0 0 1
7.078933 25.988145 -1.011320 26.953993 1.304857 1.608325 0.008542 -0.008891 -921377.000000 0 0 1
7.960533 25.671245 -2.023120 26.953217 1.270104 1.645927 0.012953 -0.011115 -436050.000000 0 0 1
8.981333 24.812745 -1.497220 26.430632 1.223503 1.627474 0.021573 -0.006762 869862.000000 0 0 1
10.169233 24.367845 -2.433920 26.516582 1.175447 1.662714 0.024643 -0.009028 -72839.200000 0 0 1
11.077433 25.448745 -2.561420 27.873088 1.160247 1.662822 0.032372 -0.003010 -204595.000000 0 0 1
12.089233 25.326645 -3.521320 28.284063 1.125447 1.695619 0.043933 -0.005162 590986.000000 0 0 1
13.159333 24.158345 -3.458820 27.726470 1.072022 1.695870 0.050061 -0.006658 -484150.000000 0 0 1
12.705533 22.831845 -3.529220 26.366249 1.062989 1.705053 0.050360 -0.015660 -283969.000000 0 0 1
12.335933 22.354145 -4.800720 25.979414 1.066541 1.756654 0.045652 -0.019056 -290505.000000 0 0 1
11.428233 21.109645 -4.860120 24.491680 1.074599 1.770562 0.040402 -0.026391 51603.000000 0 1 0
10.092933 21.535145 -4.677520 24.238584 1.132523 1.764993 0.028677 -0.016592 -483908.000000 0 1 0
9.144633 20.524045 -4.729320 22.961429 1.151643 1.778249 0.011145 -0.007963 -634590.000000 0 1 0
7.714433 21.032445 -4.591920 22.868361 1.219245 1.772969 0.000125 -0.003113 -537687.000000 0 1 0
7.373233 21.416645 -3.322120 22.892657 1.239230 1.716428 0.001375 -0.000164 225994.000000 0 1 0
6.102033 22.063645 -3.374720 23.139317 1.300976 1.717162 0.003949 0.016912 471113.000000 0 1 0
5.580133 22.445845 -2.006920 23.215977 1.327132 1.657350 0.008009 0.002366 -192216.000000 0 1 0
5.057833 21.462745 -1.181820 22.082296 1.339362 1.624341 0.006826 -0.007874 219805.000000 0 1 0
4.227433 22.126845 -0.202120 22.527967 1.382017 1.579768 0.008867 -0.005486 457150.000000 0 1 0
3.729233 21.233045 0.991580 21.580839 1.396936 1.524833 0.011252 -0.009064 439066.000000 0 1 0
2.702933 21.842245 1.774780 22.080293 1.447674 1.490331 -0.002860 -0.001970 673598.000000 0 1 0
2.693233 21.132945 3.020180 21.516885 1.444037 1.429968 0.009422 -0.000124 -318033.000000 0 1 0
1.858133 21.710345 4.146880 22.180811 1.485417 1.382732 0.017696 -0.004777 230964.000000 0 1 0
0.474633 21.805045 3.818880 22.142021 1.549033 1.397458 0.023841 -0.008463 -210913.000000 0 1 0
-0.287867 22.368045 4.831380 22.885684 -1.557927 1.358087 0.017369 -0.010752 -914642.000000 0 1 0
-1.704167 22.363545 4.295480 22.836013 -1.494740 1.381568 0.001455 -0.010863 -819903.000000 0 1 0
-2.670367 22.869245 5.192680 23.602906 -1.454556 1.348980 0.011867 -0.011903 -292363.000000 0 1 0
-3.936667 22.913145 4.595280 23.698653 -1.400649 1.375655 0.008259 -0.012389 359741.000000 0 1 0
-5.131267 23.316645 5.535280 24.507859 -1.354180 1.342973 0.028119 -0.017344 315838.000000 0 1 0
-5.268167 24.675845 5.817180 25.893831 -1.360459 1.344207 0.025914 -0.014151 -7298.460000 0 0 1
-6.230167 24.842745 6.833980 26.508117 -1.325080 1.310044 0.031434 -0.018105 46839.200000 0 0 1
-6.484567 26.303345 7.201680 28.031764 -1.329086 1.310971 0.032374 -0.016718 -221129.000000 0 0 1
-5.345167 26.846745 7.847580 28.476359 -1.374267 1.291601 0.032176 -0.018875 91061.700000 0 0 1
-5.352367 28.224045 8.296780 29.901189 -1.383383 1.289633 0.045169 -0.026481 -215760.000000 0 0 1
-5.631967 29.323545 7.254780 30.728182 -1.381044 1.332451 0.049040 -0.025455 -152007.000000 0 0 1
-6.949167 29.270945 6.751180 30.832736 -1.337703 1.350046 0.048519 -0.022331 -530876.000000 0 0 1
-7.120367 30.329745 5.837780 31.696573 -1.340207 1.385562 0.049333 -0.021413 -692326.000000 0 0 1
-8.575967 30.444045 5.405580 32.087496 -1.296216 1.401525 0.043856 -0.020225 285433.000000 0 0 1
-9.514767 31.023745 6.345880 33.064690 -1.273210 1.377675 0.037348 -0.009743 621137.000000 0 0 1
-9.970667 30.087045 7.361880 32.539849 -1.250792 1.342578 0.017617 -0.006086 -859257.000000 0 0 1
-10.988267 30.482245 8.393080 33.471676 -1.224815 1.317340 0.002828 -0.003007 -855961.000000 0 0 1
-10.529867 31.123845 9.552380 34.217244 -1.244563 1.287868 0.015747 -0.004524 -667834.000000 0 0 1
-11.484067 31.352145 10.538880 35.012980 -1.219681 1.265056 0.019212 0.001458 -448798.000000 0 0 1
-10.882267 31.853645 11.899380 35.702573 -1.241594 1.231003 0.023412 -0.002887 -204897.000000 0 0 1
-10.318567 33.123145 11.788180 36.641189 -1.268803 1.243251 0.014311 -0.002451 250395.000000 0 0 1
-9.537367 33.546945 12.901480 37.186114 -1.293806 1.216486 0.019597 -0.000770 817.264000 0 0 1
-9.062967 -34.254749 12.683780 37.635136 1.312147 1.227047 0.003478 -0.006025 -25149.000000 0 0 1
-9.890767 -33.291849 13.313080 37.194254 1.282009 1.204742 0.000665 0.003549 259513.000000 0 0 1
-9.283967 -32.000849 13.332980 35.888922 1.288432 1.190165 0.001323 0.001777 570922.000000 0 0 1
-10.172667 -31.026249 14.213780 35.610993 1.253968 1.160217 0.007986 -0.004916 448572.000000 0 0 1
-10.217667 -31.255549 15.608780 36.399781 1.254840 1.127615 0.007337 -0.007620 561182.000000 0 0 1
-9.029367 -30.760249 16.256280 35.944249 1.285277 1.101494 0.015477 -0.004706 722275.000000 0 0 1
-9.064467 -30.969349 17.794180 36.849667 1.286058 1.066849 0.004126 -0.015330 331811.000000 0 0 1
-9.997767 -30.136149 18.484680 36.739981 1.250468 1.043589 0.041494 -0.013500 162353.000000 0 0 1
-10.799367 -30.823749 19.393280 37.984591 1.233802 1.034964 0.030669 -0.015959 -352343.000000 0 0 1
-11.133867 -29.992949 20.666780 38.087475 1.215347 0.997251 0.048419 -0.022557 -26211.100000 0 0 1
-10.054167 -29.669549 21.521580 38.007194 1.244070 0.968847 0.057854 -0.024524 36775.900000 0 0 1
-10.441667 -29.011749 22.690380 38.282677 1.225319 0.936382 0.053700 -0.018719 -133104.000000 0 0 1
-9.278867 -29.057949 23.680880 38.616652 1.261708 0.910653 0.040167 -0.020734 -204026.000000 0 0 1
-8.967567 -30.310649 24.242980 39.835597 1.283146 0.916532 0.044232 -0.010396 60373.600000 0 0 1
-7.746867 -30.053549 24.925780 39.806083 1.318519 0.894152 0.030912 -0.006412 174417.000000 0 0 1
-7.475567 -31.102649 26.040380 41.247549 1.334919 0.887543 0.036931 -0.007881 -165534.000000 0 0 1
-7.195567 -32.415849 25.519380 41.878422 1.352361 0.915533 0.037475 0.003019 163841.000000 0 0 1
-7.444467 -33.350149 26.504480 43.245115 1.351175 0.911084 0.031501 0.002248 -463145.000000 0 0 1
-7.276267 34.439545 25.997880 43.759754 -1.362582 0.934644 0.025251 0.002926 94083.300000 0 0 1
-5.924267 34.302245 25.574080 43.194612 -1.399776 0.937176 0.026004 0.001076 314492.000000 0 0 1
-5.553667 32.988045 25.170380 41.864094 -1.404006 0.925744 0.024728 0.005334 -213117.000000 0 0 1
-6.264267 32.218945 23.999880 40.660739 -1.378764 0.939432 0.023851 0.002177 225475.000000 0 0 1
-7.584367 31.747045 24.236080 40.654460 -1.336292 0.932101 0.012519 0.005141 485306.000000 0 0 1
-8.193767 31.458745 22.970980 39.805231 -1.315997 0.955642 0.011239 0.015732 159747.000000 0 0 1
-9.301767 30.386345 23.076880 39.273340 -1.273737 0.942711 0.002903 0.005907 -111330.000000 0 0 1
-8.833967 29.071245 22.920180 38.059308 -1.275790 0.924514 -0.001018 0.015652 335194.000000 0 0 1
-9.790367 28.062245 23.270280 37.747143 -1.235119 0.906535 -0.006943 0.015923 -149844.000000 0 0 1
-9.288667 26.668245 22.863780 36.334929 -1.235633 0.890208 -0.017254 0.006153 -181797.000000 0 0 1
-8.110767 26.363545 23.572880 36.283629 -1.272335 0.863628 -0.017531 0.007175 28694.500000 0 0 1
-7.657067 25.024045 23.306280 35.043062 -1.273855 0.843201 -0.019060 0.004746 -137063.000000 0 0 1
-6.244667 24.741545 23.828180 34.913065 -1.323564 0.819618 -0.025188 0.010303 -32533.900000 0 0 1
-5.231667 25.438445 23.116080 34.768348 -1.367965 0.843490 -0.023169 0.012336 -187017.000000 0 0 1
-4.025467 25.396745 23.853480 35.074030 -1.413601 0.822912 -0.011147 0.010009 -226895.000000 0 0 1
-2.884667 26.055345 23.063780 34.916189 -1.460532 0.849249 -0.014537 0.021726 -422587.000000 0 0 1
-2.579467 25.179645 22.018380 33.548133 -1.468710 0.854863 -0.006112 0.012759 -14318.700000 0 0 1
-1.891267 25.781445 20.935580 33.264971 -1.497570 0.890069 -0.004906 0.016293 50052.300000 0 0 1
-1.569767 24.736045 19.819180 31.735406 -1.507421 0.896288 -0.014282 0.015164 510964.000000 0 0 1
-0.486367 23.821745 20.170880 31.218208 -1.550382 0.868299 0.002473 0.008797 849421.000000 0 0 1
-0.261567 22.831245 19.213580 29.841177 -1.559340 0.871262 -0.019618 0.010216 -685371.000000 0 0 1
0.890533 21.883145 19.465380 29.301299 1.530124 0.844215 -0.013584 0.014042 474345.000000 0 0 1
2.229333 22.393745 19.492380 29.772515 1.471572 0.856997 -0.015416 0.001816 625868.000000 0 0 1
3.178133 21.395245 19.800780 29.324528 1.423331 0.829521 -0.003751 0.005736 -474736.000000 0 0 1
4.574733 21.902545 19.467980 29.658926 1.364889 0.854766 -0.000389 0.001828 -992748.000000 0 0 1
5.522033 20.895945 19.421080 29.057043 1.312439 0.838771 0.013692 0.001721 -913470.000000 0 0 1
6.778833 21.429945 19.135580 29.518902 1.264430 0.865515 0.032619 0.003206 -28199.800000 0 0 1
7.860733 20.312845 18.802080 28.773617 1.201561 0.858665 0.030308 0.008441 503257.000000 0 0 1
8.311333 19.497845 19.897780 29.071737 1.167851 0.816965 0.026120 0.002344 -525954.000000 0 0 1
9.426033 18.772445 19.508780 28.667879 1.105454 0.822338 0.025994 -0.001080 -289348.000000 0 0 1
10.094133 18.051845 20.729980 29.282977 1.060937 0.784249 0.040934 -0.003801 -328266.000000 0 0 1
9.310533 16.961145 21.154080 28.668128 1.068773 0.740850 0.038138 -0.004243 -82718.900000 0 0 1
9.793033 16.287945 22.253480 29.264621 1.029462 0.706833 0.051578 -0.014518 -64713.800000 0 0 1
8.763733 15.202645 22.657780 28.658305 1.047865 0.658978 0.035265 -0.012807 -79506.900000 0 0 1
7.628133 15.684345 23.321880 29.122108 1.118126 0.642115 0.034281 0.002534 -630161.000000 0 0 1
6.621033 14.744845 23.531280 28.547674 1.148741 0.601867 0.025190 0.004195 -259105.000000 0 0 1
6.840633 13.632845 24.621880 28.963524 1.105729 0.554622 0.034222 0.002586 -779651.000000 0 0 1
6.971733 14.229845 25.904880 30.367028 1.115231 0.548976 0.032280 -0.004785 -50487.500000 0 0 1
7.292933 13.254445 26.865480 30.832146 1.067780 0.512857 0.030653 -0.010445 -725257.000000 0 0 1
8.167233 13.853145 27.948980 32.245292 1.038090 0.522125 0.017802 -0.004613 -157263.000000 0 0 1
9.515933 14.145245 27.640080 32.474836 0.978608 0.552676 0.036062 -0.003233 251097.000000 0 0 1
9.716133 15.318745 26.881680 32.429800 1.005563 0.593624 0.030141 -0.001663 -548615.000000 0 0 1
11.095833 15.282445 26.159280 32.264200 0.942800 0.625307 0.048132 -0.002157 339805.000000 0 0 1
11.078033 14.351545 25.058280 30.929065 0.913423 0.626328 0.045834 -0.006064 146206.000000 0 0 1
12.384233 13.917445 24.715880 30.950594 0.843626 0.645899 0.046601 -0.004644 -261519.000000 0 0 1
12.353733 12.845245 23.611180 29.582138 0.804901 0.646567 0.044880 -0.010216 139900.000000 0 0 1
11.963633 11.510045 23.988080 29.172550 0.766077 0.605386 0.043048 -0.005556 -123286.000000 0 0 1
10.657333 11.313445 24.455380 28.976515 0.815252 0.566150 0.044700 -0.005778 -529857.000000 0 0 1
10.404633 9.867745 24.984680 28.807343 0.758921 0.521039 0.034547 -0.004677 -64375.800000 0 0 1
10.481333 8.873245 24.033680 27.680510 0.702503 0.519127 0.037629 0.000381 212264.000000 0 0 1
10.075433 7.673145 24.597980 27.666806 0.650865 0.475467 0.042701 -0.006670 -96408.400000 0 0 1
10.266333 6.372145 23.715380 26.616181 0.555489 0.471223 0.045474 -0.010665 -890750.000000 0 0 1
11.616233 6.076445 23.607380 27.003119 0.481956 0.506915 0.044894 -0.002670 -500160.000000 0 0 1
11.800433 4.939145 22.825680 26.165952 0.396400 0.510822 0.043586 -0.005691 -46085.400000 0 0 1
11.648733 3.607645 23.606780 26.570438 0.300334 0.476817 0.028198 -0.004628 -762414.000000 0 0 1
12.827633 3.252645 24.260580 27.635188 0.248332 0.499364 0.029898 -0.004097 -209389.000000 0 0 1
12.705633 2.079745 25.027180 28.144595 0.162248 0.475125 0.024931 -0.005350 -559105.000000 0 0 1
14.067833 1.740845 25.663580 29.318148 0.123121 0.504641 0.030771 -0.006891 -103497.000000 0 0 1
14.821433 1.193545 24.592380 28.738208 0.080355 0.543821 0.015769 -0.004967 240771.000000 0 0 1
16.200033 1.089545 24.903480 29.728968 0.067155 0.577768 0.028712 -0.011372 -44739.700000 0 0 1
17.024033 0.099845 24.084180 29.493650 0.005865 0.615320 0.036426 -0.015202 -81395.600000 0 0 1
16.907233 -1.270355 24.427880 29.735327 -0.074996 0.606741 0.037737 -0.016886 43122.700000 0 0 1
17.869233 -2.044255 23.749480 29.791379 -0.113906 0.648165 0.027077 -0.007735 -173031.000000 0 0 1
17.825233 -3.553555 24.063380 30.156475 -0.196776 0.646909 0.032651 0.000976 -154036.000000 0 0 1
16.741733 -4.166955 23.419080 29.087840 -0.243940 0.634926 0.028829 0.003383 76039.800000 0 0 1
16.724033 -5.549055 23.770180 29.588964 -0.320371 0.637903 0.044635 0.002025 344155.000000 0 0 1
15.915933 -6.468655 22.742280 28.502136 -0.386034 0.646968 0.043321 -0.001861 256280.000000 0 0 1
16.387633 -6.631555 21.388580 27.748935 -0.384524 0.690717 0.025987 0.001447 -125633.000000 0 0 1
15.726733 -7.635555 20.673080 27.074122 -0.451992 0.701967 0.025303 -0.002883 -178594.000000 0 0 1
16.151933 -9.120455 20.953280 27.984060 -0.514034 0.724610 0.031448 -0.009785 -69382.700000 0 0 1
15.827533 -9.542855 22.242580 28.919012 -0.542569 0.693312 0.028769 -0.004432 625141.000000 0 0 1
16.741833 -10.593655 22.668580 30.106130 -0.564164 0.718254 0.025604 -0.007461 437783.000000 0 0 1
16.157233 -11.359855 23.869780 30.981751 -0.612791 0.691255 0.037597 0.001557 341940.000000 0 0 1
15.099733 -12.236355 23.477080 30.477920 -0.681032 0.691488 0.033404 0.002145 193400.000000 0 0 1
14.774733 -13.073855 24.549980 31.494761 -0.724398 0.676939 0.033215 0.015252 -145929.000000 0 0 1
13.660533 -14.081155 24.234080 31.179797 -0.800559 0.680534 0.018507 0.017585 -48594.500000 0 0 1
14.081633 -14.928655 23.210580 30.982062 -0.814587 0.724000 0.024301 0.015281 115616.000000 0 0 1
12.976333 -15.676655 22.760280 30.531510 -0.879363 0.729559 0.008116 0.022163 -91771.700000 0 0 1
13.289833 -16.498255 21.483280 30.171898 -0.892693 0.778412 0.014872 0.004501 -625334.000000 0 0 1
14.232133 -17.477755 21.643180 31.248245 -0.887397 0.805680 0.014091 0.008468 -538075.000000 0 0 1
14.198133 -18.267455 20.495480 30.908763 -0.910090 0.845849 0.018164 0.009722 58754.800000 0 0 1
-23.161367 -32.382849 26.913259 48.056439 0.949918 0.976369 -0.006303 -0.010894 -359895.000000 0 0 1
-23.528967 -33.400149 27.801119 49.417451 0.957085 0.973297 -0.001497 -0.015799 -16959.200000 0 0 1
-24.604767 -34.133649 27.243489 50.126921 0.946223 0.996207 -0.005982 -0.018741 404340.000000 0 0 1
-25.444317 34.200145 28.255619 51.141404 -0.931157 0.985436 -0.003987 -0.015284 262372.000000 0 0 1
-26.187667 -34.311249 29.281749 52.158187 0.918876 0.974716 0.019418 -0.019675 599366.000000 0 0 1
-25.339717 -33.866949 30.309639 52.036004 0.928439 0.949027 0.015339 -0.017572 297281.000000 0 0 1
-26.215467 -33.072149 31.349379 52.571868 0.900538 0.931894 0.010586 -0.018077 684447.000000 0 0 1
-26.750677 -31.821049 30.861959 51.774882 0.871750 0.932187 0.019832 -0.012547 221076.000000 0 0 1
-27.582897 -31.248649 31.847129 52.455065 0.847627 0.918351 0.013124 -0.007107 -183511.000000 0 0 1
-27.954507 -29.815649 31.576769 51.648037 0.817603 0.912988 0.015359 -0.014891 24578.200000 0 0 1
-28.599337 -29.612449 30.304119 51.119065 0.802800 0.936247 0.000802 0.007877 485364.000000 0 0 1
-29.166187 -28.312549 30.205089 50.642021 0.770548 0.931734 0.017260 0.004912 -196491.000000 0 0 1
-29.591187 -27.964949 28.782319 49.860792 0.757151 0.955435 0.008560 -0.001978 -186830.000000 0 0 1
-28.614157 -27.706349 27.770909 48.555485 0.769281 0.961925 0.002815 0.002917 54357.800000 0 0 1
-28.130507 -26.393449 27.743169 47.514450 0.753550 0.947285 0.010073 0.006801 -2819.500000 0 0 1
-27.011747 -26.318149 26.659819 46.184688 0.772393 0.955447 -0.008861 0.014588 -113043.000000 0 0 1
-27.473557 -26.561649 25.356779 45.861572 0.768524 0.984958 -0.011497 0.006272 140423.000000 0 0 1
-26.554457 -26.217149 24.328409 44.546039 0.779006 0.993046 -0.012762 0.019265 -305491.000000 0 0 1
-26.969367 -26.682949 22.944329 44.336991 0.780060 1.026871 -0.008897 0.019890 -116808.000000 0 0 1
-28.026777 -25.907649 22.405129 44.257161 0.746128 1.039967 -0.024771 0.014585 257663.000000 0 0 1
-28.342557 -26.231149 21.066329 43.990498 0.746728 1.071414 -0.027110 0.025224 136474.000000 0 0 1
-28.982027 -24.988349 20.318129 43.326687 0.711535 1.082693 -0.033073 0.015259 668617.000000 0 0 1
-30.264857 -24.550949 20.778929 44.164177 0.681535 1.080947 -0.020316 0.013571 280846.000000 0 0 1
-30.725137 -23.490849 19.999529 43.541189 0.652747 1.093562 -0.012858 0.013253 -36500.900000 0 0 1
-32.182937 -23.125049 20.422729 44.582476 0.623067 1.094952 -0.001027 0.019291 474662.000000 0 0 1
-33.062357 -24.024249 19.751729 45.391792 0.628379 1.120604 -0.016878 0.015163 535908.000000 0 0 1
-34.324956 -23.442149 19.426129 45.881493 0.599190 1.133604 -0.010639 0.008961 1231500.000000 0 0 1
34.912500 -24.327349 18.642329 46.456851 -0.608581 1.157880 0.000220 0.004403 799692.000000 0 0 1
34.627432 -25.578549 19.250329 47.158206 -0.636216 1.150307 -0.001954 0.003615 23131.900000 0 0 1
33.777522 -26.369949 18.433729 46.648661 -0.662858 1.164553 0.010230 0.011736 241628.000000 0 0 1
33.532152 -27.800749 19.027629 47.532489 -0.692221 1.158944 0.010570 0.018257 -136634.000000 0 0 1
32.558342 -27.968049 20.024529 47.362846 -0.709704 1.134275 0.007604 0.015208 -290599.000000 0 0 1
32.886722 -27.311249 21.269829 47.747737 -0.693043 1.109105 0.017844 0.014655 -128917.000000 0 0 1
31.686502 -27.305249 22.272229 47.388429 -0.711265 1.081514 0.012337 0.016287 921596.000000 0 0 1
30.637062 -26.507449 21.710129 45.963073 -0.713257 1.078854 0.013207 0.024548 120805.000000 0 0 1
29.560042 -26.184449 22.565129 45.481936 -0.724917 1.051656 0.023658 0.025100 251467.000000 0 0 1
28.532052 -25.148249 22.025829 43.950535 -0.722445 1.045869 0.026967 0.028569 121614.000000 0 0 1
28.992752 -23.848649 21.548029 43.285740 -0.688354 1.049726 0.017693 0.033859 679348.000000 0 0 1
29.970422 -23.095049 22.340929 43.940011 -0.656552 1.037422 0.023593 0.020868 1173630.000000 0 0 1
30.889062 -22.105649 21.570629 43.681643 -0.621150 1.054325 0.016495 0.018621 192851.000000 0 0 1
30.191702 -20.979249 21.180929 42.429936 -0.607273 1.048124 0.014070 0.011647 -15970.400000 0 0 1
31.093472 -19.958749 20.751529 42.376664 -0.570656 1.059059 0.000489 0.008104 -221672.000000 0 0 1
30.391482 -18.553849 20.792129 41.233483 -0.548101 1.042279 0.005316 0.017011 356531.000000 0 0 1
30.033512 -18.060749 22.117129 41.441162 -0.541414 1.007827 -0.004675 0.009866 369597.000000 0 0 1
28.825332 -18.680149 22.558529 41.094221 -0.575001 0.989693 0.021032 -0.000540 -105612.000000 0 0 1
28.612322 -18.580349 24.069329 41.751969 -0.575941 0.956378 0.020060 0.007036 -53819.600000 0 0 1
28.258802 -17.308249 24.532999 41.231098 -0.549553 0.933516 0.012762 0.011296 54048.900000 0 0 1
28.323162 -17.302849 25.952689 42.132317 -0.548402 0.907166 0.012140 0.013036 -124168.000000 0 0 1
28.086822 -15.893749 26.570909 41.803039 -0.514953 0.881983 -0.001354 0.008500 -670579.000000 0 0 1
26.726722 -15.590549 26.561119 40.778376 -0.528073 0.861430 0.008955 0.006186 -375926.000000 0 0 1
26.323932 -14.354449 27.200279 40.482771 -0.499228 0.834028 0.003574 -0.001067 32233.900000 0 0 1
27.002622 -13.036749 26.719729 40.162698 -0.449790 0.842918 0.009603 0.000147 -605992.000000 0 0 1
26.530402 -12.544349 25.515229 38.887657 -0.441676 0.855122 0.005965 0.006646 395324.000000 0 0 1
27.437242 -11.630949 24.880919 38.821918 -0.400948 0.875128 0.001639 0.002361 227012.000000 0 0 1
28.569472 -12.274849 24.075929 39.326035 -0.405802 0.911939 -0.008027 0.005967 -170606.000000 0 0 1
27.969572 -13.091149 23.059329 38.540988 -0.437762 0.929410 0.000262 0.001463 558554.000000 0 0 1
28.902952 -14.079649 22.708929 39.361308 -0.453303 0.955825 -0.004088 -0.006988 -264094.000000 0 0 1
28.171692 -15.088349 21.803129 38.686935 -0.491709 0.972085 0.010270 -0.001843 -136265.000000 0 0 1
28.258312 -14.821649 20.395129 37.870500 -0.483060 1.002082 -0.000667 0.006107 -9035.380000 0 0 1
27.550132 -15.846949 19.721329 37.404096 -0.521988 1.015435 -0.002505 -0.000496 112489.000000 0 0 1
28.208502 -15.978149 18.280629 37.218305 -0.515370 1.057360 0.001923 -0.001995 442727.000000 0 0 1
27.654412 -17.004449 17.425929 36.845363 -0.551297 1.078163 0.009700 -0.005773 955376.000000 0 0 1
26.274552 -16.979549 17.015029 35.611352 -0.573724 1.072650 0.010699 -0.006058 789197.000000 0 0 1
26.017312 -15.994949 15.852429 34.409859 -0.551217 1.092019 0.016634 0.002316 -248028.000000 0 0 1
26.281962 -16.491649 14.528229 34.260552 -0.560387 1.132882 0.016433 -0.001688 93301.600000 0 0 1
25.344272 -17.440949 14.056329 33.824536 -0.602736 1.142231 0.006020 -0.008540 -155139.000000 0 0 1
25.522982 -17.825149 12.598629 33.583984 -0.609649 1.186251 -0.000943 0.001316 -223800.000000 0 0 1
25.112902 -16.867649 11.672729 32.425731 -0.591460 1.202546 0.006862 -0.002803 -321256.000000 0 0 1
24.833702 -17.499049 10.392829 32.108260 -0.613839 1.241179 0.012286 -0.007465 152238.000000 0 0 1
26.076532 -17.872249 9.535029 33.019988 -0.600844 1.277859 0.015814 -0.006457 373366.000000 0 0 1
26.917832 -18.857649 10.087329 34.379279 -0.611104 1.273001 0.001302 0.002907 -160302.000000 0 0 1
28.074602 -19.170849 9.299829 35.244738 -0.599126 1.303770 0.008613 0.005599 999764.000000 0 0 1
29.087752 -19.962749 10.207829 36.726127 -0.601468 1.289143 0.036707 -0.020184 235639.000000 0 0 1
29.436912 -19.278849 11.398429 36.988241 -0.579827 1.257534 0.031977 -0.019710 5829.200000 0 0 1
29.513192 -20.196549 12.467529 37.873056 -0.600127 1.235348 0.021004 -0.016805 -49420.300000 0 0 1
29.462772 -19.567349 13.902529 38.002847 -0.586250 1.196273 0.026700 -0.008521 112966.000000 0 0 1
29.202322 -20.572949 14.876529 38.695387 -0.613738 1.176182 0.032158 -0.005819 79074.300000 0 0 1
29.076512 -20.065449 16.179629 38.856739 -0.604045 1.141323 0.034899 -0.007353 72324.500000 0 0 1
28.925632 -21.102449 17.267729 39.751478 -0.630279 1.121433 0.021013 0.006048 -100127.000000 0 0 1
27.644362 -21.640549 17.461629 39.210108 -0.664177 1.109248 0.009654 0.011111 -318853.000000 0 0 1
27.559732 -22.503049 18.582029 40.139978 -0.684733 1.089498 0.020525 0.014953 836232.000000 0 0 1
26.222502 -23.322949 18.769929 39.798113 -0.726942 1.079660 0.024459 0.027289 1367570.000000 0 0 1
25.096802 -22.568049 19.252829 38.856630 -0.732395 1.052405 0.028672 0.020105 106342.000000 0 0 1
23.938002 -23.323749 18.987029 38.438685 -0.772402 1.054162 0.037572 0.015168 -113604.000000 0 0 1
22.695402 -22.820249 19.744429 37.758277 -0.788141 1.020527 0.026583 0.012429 -98138.500000 0 0 1
22.222502 -21.524649 19.342329 36.486652 -0.769448 1.012053 0.013166 0.007698 1357830.000000 0 0 1
20.915602 -21.134449 19.873129 35.764068 -0.790603 0.981624 0.014382 0.009224 1566820.000000 0 0 1
20.786302 -20.694449 21.358629 36.283903 -0.783184 0.941405 0.011225 0.013239 -704850.000000 0 0 1
21.097902 -21.689049 22.286929 37.579829 -0.799213 0.935948 0.011755 0.014539 -282427.000000 0 0 1
21.417402 -21.217649 23.566629 38.265908 -0.780713 0.907313 0.012658 0.005118 -255626.000000 0 0 1
21.854502 -22.378849 24.420529 39.683679 -0.797252 0.907929 0.009894 0.004434 -299984.000000 0 0 1
20.871202 -23.354049 24.697559 39.887192 -0.841480 0.903092 -0.000078 0.011367 -189881.000000 0 0 1
21.248702 -24.170549 25.841059 41.273273 -0.849640 0.894259 0.001893 0.011725 -401897.000000 0 0 1
20.148702 -25.018549 26.466619 41.621868 -0.892801 0.881645 0.004615 0.006846 -409590.000000 0 0 1
19.616802 -26.046649 25.644489 41.483571 -0.925288 0.904366 0.014957 -0.000447 728091.000000 0 0 1
18.532302 -26.723749 26.339549 41.849454 -0.964462 0.890031 0.027922 -0.017528 583999.000000 0 0 1
17.892302 -27.765649 25.412219 41.675492 -0.998365 0.915033 0.040545 -0.023584 35999.800000 0 0 1
17.058802 -27.103749 24.434459 40.282238 -1.009047 0.919043 0.036422 -0.018918 359376.000000 0 0 1
16.737702 -27.987849 23.408829 40.142790 -1.031823 0.948209 0.035190 -0.019657 -501881.000000 0 0 1
15.830602 -27.297549 22.389529 38.691797 -1.045267 0.953707 0.022877 -0.017556 -76075.000000 0 0 1
14.567002 -26.992249 22.966129 38.317387 -1.075916 0.928088 0.013918 -0.015830 -320872.000000 0 0 1
13.839602 -26.324549 21.990029 36.987536 -1.086777 0.934121 0.012505 -0.015476 68401.200000 0 0 1
12.474302 -25.798349 22.497029 36.431845 -1.120410 0.905223 0.005775 -0.010767 656799.000000 0 0 1
11.322102 -26.643249 22.510229 36.671012 -1.168966 0.909877 0.007050 -0.021715 -90050.000000 0 0 1
10.189702 -25.820349 22.511229 35.738996 -1.194921 0.889399 0.012759 -0.016730 -917295.000000 0 0 1
8.916002 -26.624449 22.555629 36.015452 -1.247654 0.894029 0.014816 -0.017237 -754115.000000 0 0 1
8.773302 -27.410349 21.353929 35.836969 -1.261028 0.932456 0.020187 -0.020735 957469.000000 0 0 1
7.408302 -27.876549 21.335229 35.877248 -1.311046 0.933938 0.011848 -0.014326 961484.000000 0 0 1
7.000502 -28.775249 20.123929 35.804951 -1.332150 0.973942 0.016442 -0.007210 -15566.600000 0 0 1
7.658902 -30.012349 20.216529 36.987943 -1.320937 0.992533 0.022062 -0.016670 32721.100000 0 0 1
7.416602 -30.822649 19.077929 37.000122 -1.334663 1.029068 0.012703 -0.008802 -138670.000000 0 0 1
8.079502 -32.220149 19.005329 38.270339 -1.325103 1.051111 0.011868 -0.002724 -479325.000000 0 0 1
7.497202 -33.234249 19.753129 39.381587 -1.348924 1.045369 0.016043 -0.008344 -266295.000000 0 0 1
8.275302 -34.377249 19.821829 40.536166 -1.334570 1.059863 0.012894 -0.006563 -451064.000000 0 0 1
7.915302 33.913245 20.988829 40.660683 1.341503 1.028394 0.020202 -0.012483 -329695.000000 0 0 1
6.885702 33.030345 20.655129 39.560725 1.365274 1.021471 0.026332 -0.008237 -209935.000000 0 0 1
6.977802 31.857245 21.516229 39.070729 1.355168 0.987594 0.013415 -0.018414 -280837.000000 0 0 1
6.133502 30.676145 21.037429 37.699060 1.373455 0.978779 0.022713 -0.013733 36872.000000 0 0 1
4.739302 30.857245 21.164629 37.717000 1.418399 0.975030 0.016934 -0.017376 39342.500000 0 0 1
4.019802 29.723345 20.683629 36.434167 1.436371 0.967089 0.012569 -0.005274 817202.000000 0 0 1
2.584902 29.601745 21.308029 36.564698 1.483695 0.948689 0.004893 -0.002284 536388.000000 0 0 1
2.599302 29.262045 22.666229 37.105008 1.482200 0.913641 0.000005 -0.008005 88936.700000 0 0 1
1.280702 28.842945 22.948829 36.880949 1.526423 0.899195 -0.007537 0.000656 57999.600000 0 0 1
1.160702 28.299945 24.396059 37.381838 1.529805 0.859762 0.005861 0.000031 -204903.000000 0 0 1
1.417902 29.341745 25.344879 38.798342 1.522510 0.858932 0.008719 -0.001396 165057.000000 0 0 1
1.122302 29.050045 26.676059 39.456011 1.532182 0.828345 -0.002947 0.003047 -19846.400000 0 0 1
2.246602 28.404245 27.553889 39.636664 1.491867 0.802152 -0.014973 0.004146 26452.100000 0 0 1
2.427302 27.047945 27.129439 38.386060 1.481295 0.785899 -0.007903 0.001464 254789.000000 0 0 1
3.310102 26.312945 27.961669 38.538069 1.445656 0.758949 -0.028481 0.015396 158406.000000 0 0 1
3.869602 24.960045 27.306279 37.196916 1.416989 0.746455 -0.021727 0.023766 817592.000000 0 0 1
2.840102 23.978945 26.961459 36.193594 1.452904 0.730376 -0.005042 0.015356 433377.000000 0 0 1
3.403302 22.697445 26.764569 35.257604 1.421963 0.708844 -0.007561 0.018534 161427.000000 0 0 1
2.308502 21.613945 26.580859 34.337063 1.464394 0.685479 -0.007986 0.021691 -16352.700000 0 0 1
2.728602 20.279045 26.673749 33.618058 1.437047 0.654364 0.000677 0.023570 109336.000000 0 0 1
3.427102 19.701745 25.568689 32.460155 1.398570 0.663738 0.009344 0.019334 -123328.000000 0 0 1
3.863402 18.236545 25.846849 31.867806 1.362033 0.624827 0.007637 0.010453 -280363.000000 0 0 1
4.922502 18.100345 26.758199 32.678047 1.305262 0.611403 0.007148 0.010350 -140143.000000 0 0 1
6.127402 17.906845 26.044869 32.195269 1.241103 0.628406 0.024001 0.012237 -908510.000000 0 0 1
7.398302 17.798145 26.901899 33.094124 1.176848 0.621698 0.013565 0.007650 -283956.000000 0 0 1
7.906902 19.020245 27.485429 34.347309 1.176821 0.643133 0.007277 0.008617 262335.000000 0 0 1
8.235702 20.101945 26.596079 34.340448 1.181959 0.684900 -0.005444 0.002387 -483376.000000 0 0 1
8.409302 21.438145 27.296949 35.713217 1.196981 0.700783 -0.017734 0.007963 117238.000000 0 0 1
9.560602 21.452945 28.115529 36.634914 1.151562 0.695939 -0.001816 -0.004052 33821.900000 0 0 1
9.690602 22.580845 28.967969 37.986123 1.165415 0.703483 0.015994 -0.004195 -255189.000000 0 0 1
10.720002 22.334145 30.071949 38.962220 1.123290 0.689093 0.030073 -0.008442 814521.000000 0 0 1
12.094202 22.266145 29.654849 39.005910 1.073215 0.707075 0.019748 -0.014244 2264.370000 0 0 1
12.940802 21.965645 30.696239 39.902544 1.038402 0.693082 0.022501 -0.011618 -1271720.000000 0 0 1
14.340702 21.825345 30.170969 39.903494 0.989470 0.713465 0.022605 -0.012882 -1013260.000000 0 0 1
14.846202 22.940045 29.504979 40.214415 0.996410 0.747057 0.012504 -0.024462 -985187.000000 0 0 1
16.097002 22.690445 28.973099 40.167278 0.953778 0.765103 0.061393 -0.017659 -672115.000000 0 0 1
-8.490367 16.790045 4.642480 19.378972 -1.102616 1.328881 -0.003161 -0.009256 -227430.000000 0 1 0
-8.265367 18.130945 5.019380 20.548519 -1.143071 1.324030 -0.006735 -0.010010 -412972.000000 0 1 0
-6.987067 18.352145 5.514580 20.396836 -1.207018 1.297025 -0.010284 -0.002885 -996229.000000 0 1 0
-6.779067 19.833145 6.063080 21.819036 -1.241441 1.289210 -0.008819 0.001738 -456971.000000 0 1 0
-6.981967 20.921345 5.097680 22.637069 -1.248694 1.343657 -0.012112 -0.003595 -222976.000000 0 1 0
-8.296667 21.145945 4.663580 23.189106 -1.196900 1.368305 -0.020458 -0.007959 -287410.000000 0 1 0
-8.513467 22.248145 3.573480 24.087940 -1.205327 1.421895 0.001083 -0.006585 -11269.200000 0 1 0
-7.854667 22.002445 2.343480 23.479678 -1.227907 1.470821 -0.010147 -0.005328 11484.100000 0 1 0
-8.478967 21.018645 1.506280 22.714427 -1.187360 1.504434 0.009954 -0.003646 -738423.000000 0 1 0
-7.945567 21.000545 0.080280 22.453538 -1.209091 1.567221 0.001516 0.008110 285685.000000 0 1 0
-6.608267 20.668445 -0.268120 21.700823 -1.261341 1.583152 -0.007042 0.011168 70873.600000 0 1 0
-5.739267 21.744245 0.077980 22.489052 -1.312737 1.567329 -0.004037 0.011964 -671773.000000 0 1 0
-4.270367 21.381945 -0.205420 21.805178 -1.373672 1.580217 -0.002064 0.008328 -266174.000000 0 1 0
-4.053667 21.276045 -1.574920 21.715954 -1.382526 1.643384 0.000072 -0.006328 -335068.000000 0 1 0
-2.758767 21.640745 -1.976720 21.905252 -1.444000 1.661159 -0.006697 0.010104 -287566.000000 0 1 0
-2.606467 21.817045 -3.476720 22.245555 -1.451891 1.727728 0.012858 0.009351 -439077.000000 0 1 0
-1.393567 22.363745 -3.891620 22.742555 -1.508563 1.742759 0.006411 0.013458 -331022.000000 0 1 0
-1.412367 22.490245 -5.293920 23.148034 -1.508080 1.801537 0.012682 0.000373 -741369.000000 0 1 0
-0.148467 23.038445 -5.884020 23.778429 -1.564352 1.820846 0.013803 -0.003905 -477986.000000 0 1 0
1.023133 22.243345 -5.760020 22.999805 1.524831 1.823929 0.003327 0.002548 376.275000 0 1 0
2.062933 22.850345 -6.493220 23.844409 1.480760 1.846596 0.003192 0.005916 436970.000000 0 1 0
3.268233 21.909945 -6.795020 23.171088 1.422721 1.868425 0.002469 0.009564 493174.000000 0 1 0
2.797133 20.894945 -7.630620 22.419836 1.437721 1.918087 0.002253 0.000735 194916.000000 0 1 0
3.801133 19.901745 -7.747920 21.692356 1.382074 1.936036 -0.000746 0.001189 289266.000000 0 1 0
3.601933 18.906845 -8.891620 21.201500 1.382543 2.003566 -0.003951 0.000279 -212308.000000 0 1 0
4.017433 19.370345 -10.197020 22.255993 1.366294 2.046731 -0.000352 -0.003382 -524583.000000 0 1 0
2.966233 19.235645 -11.090120 22.400878 1.417796 2.088718 0.003087 -0.005950 -671602.000000 0 1 0
3.300033 19.513345 -12.576120 23.448233 1.403265 2.136886 0.011822 -0.011212 19773.300000 0 1 0
3.502933 20.894645 -12.727720 24.715412 1.404694 2.111770 0.031561 -0.010066 -72782.900000 0 1 0
3.788733 21.132445 -14.088220 25.679032 1.393396 2.151518 0.039337 -0.013390 137670.000000 0 0 1
3.998333 22.620545 -14.463220 27.145174 1.395847 2.132714 0.040954 -0.011414 -221491.000000 0 0 1
2.816833 23.370345 -14.529820 27.662669 1.450845 2.123805 0.046872 -0.011447 -298625.000000 0 0 1
3.147533 24.688745 -15.029020 29.074259 1.443992 2.114044 0.046099 -0.007595 65066.600000 0 0 1
1.984733 25.403745 -15.740520 29.950850 1.492827 2.124152 0.044594 -0.008229 297580.000000 0 0 1
0.923833 25.916645 -14.949520 29.933495 1.535165 2.093731 0.047427 -0.012569 -78224.600000 0 0 1
1.180033 27.208245 -14.427620 30.819430 1.527453 2.057974 0.032927 -0.013659 -660192.000000 0 0 1
0.417033 27.539845 -13.064520 30.484400 1.555655 2.013699 0.033800 -0.017060 265518.000000 0 0 1
-0.984467 27.579045 -13.214220 30.597198 -1.535115 2.017369 0.031323 -0.018434 16507.100000 0 0 1
-1.760767 26.416445 -13.476520 29.707667 -1.504241 2.041639 0.030423 -0.019572 -437540.000000 0 0 1
-1.654567 25.237945 -12.538620 28.229567 -1.505331 2.031040 0.044883 -0.016788 -432864.000000 0 0 1
-2.316367 25.392645 -11.311220 27.894366 -1.479826 1.988324 0.033373 -0.009571 -101847.000000 0 0 1
-2.119467 24.212245 -10.550120 26.495848 -1.483482 1.980328 0.039049 -0.010243 -323593.000000 0 0 1
-2.992167 24.095145 -9.272420 25.990514 -1.447247 1.935595 0.034368 -0.008077 133724.000000 0 0 1
-2.582367 24.749045 -8.026520 26.145915 -1.466830 1.882824 0.032933 -0.007440 -39016.800000 0 0 1
-2.393367 26.160445 -8.078520 27.483806 -1.479562 1.869140 0.032433 -0.009873 -513063.000000 0 0 1
-2.233767 26.653645 -6.583920 27.545499 -1.487185 1.812153 0.027475 -0.006326 421612.000000 0 0 1
-0.988967 26.370845 -5.951320 27.052130 -1.533312 1.792605 0.012225 -0.003152 264587.000000 0 0 1
-0.942667 26.909745 -4.608120 27.317719 -1.535780 1.740293 0.010330 -0.007125 396702.000000 0 0 1
-1.856167 26.140445 -3.538520 26.444080 -1.499908 1.705010 0.021008 -0.006189 58509.000000 0 0 1
-3.234167 26.271745 -3.659620 26.721849 -1.448308 1.708180 0.017171 -0.004604 -398593.000000 0 0 1
-3.898567 25.567745 -2.574220 25.991056 -1.419482 1.670001 0.014849 0.002764 599005.000000 0 0 1
-5.173267 24.817345 -3.081620 25.537417 -1.365286 1.691762 0.007506 0.007063 520725.000000 0 0 1
-6.203167 25.675945 -3.534820 26.650110 -1.333744 1.703826 0.010465 0.001722 -111012.000000 0 0 1
-7.277467 25.049545 -4.186020 26.419008 -1.288057 1.729914 0.012011 0.007143 -381902.000000 0 0 1
-8.557967 25.839545 -4.281020 27.554455 -1.250970 1.726794 0.016612 -0.000120 -717554.000000 0 0 1
-9.285467 25.875345 -3.068420 27.661681 -1.226256 1.681952 0.008038 0.003236 467241.000000 0 0 1
-10.555967 26.519245 -3.263020 28.728837 -1.191973 1.684622 0.010956 -0.000955 951787.000000 0 0 1
-11.287167 26.746445 -1.855020 29.089750 -1.171464 1.634608 0.005120 0.005634 366313.000000 0 0 1
-11.791967 25.522145 -1.251320 28.142427 -1.137984 1.615275 0.007220 0.006184 1161780.000000 0 0 1
-10.749567 24.618945 -0.752720 26.874007 -1.159110 1.598809 0.006447 0.004016 605062.000000 0 0 1
-11.271067 23.250045 -0.329620 25.840089 -1.119402 1.583553 0.019632 0.001117 -220704.000000 0 0 1
-12.010767 23.335245 0.871680 26.259322 -1.095454 1.537595 0.025298 -0.000988 155255.000000 0 0 1
-12.594067 22.067145 1.175380 25.435230 -1.052188 1.524569 0.034006 -0.006601 -402491.000000 0 0 1
-13.488167 22.065845 2.435380 25.976205 -1.022132 1.476904 0.033350 -0.010322 -515294.000000 0 0 1
-12.900967 22.130745 3.701680 25.882567 -1.043013 1.427286 0.030507 -0.011366 -120348.000000 0 0 1
-12.485867 23.421545 4.136380 26.862153 -1.081026 1.416196 0.014294 -0.005741 790.940000 0 0 1
-12.331767 23.511545 5.644180 27.142623 -1.087743 1.361322 0.006704 -0.009514 440226.000000 0 0 1
-11.147667 22.859045 6.149380 26.165269 -1.117061 1.333556 -0.001642 -0.008376 837772.000000 0 0 1
-11.255167 22.527645 7.527180 26.283683 -1.107456 1.280348 -0.003751 -0.011122 55931.100000 0 0 1
-9.915267 22.076345 8.162680 25.540299 -1.148662 1.245489 0.002327 -0.016592 391589.000000 0 0 1
-9.030967 23.091845 8.636680 26.256122 -1.197995 1.235616 0.004466 -0.018221 71942.300000 0 0 1
-7.891167 22.571945 9.266280 25.644242 -1.234477 1.201092 0.008670 -0.017432 -448855.000000 0 0 1
-7.878667 22.333845 10.819680 26.037272 -1.231658 1.142253 0.008508 -0.022974 -191374.000000 0 0 1
-8.884967 21.438045 11.287280 25.805719 -1.177897 1.118097 0.008983 -0.019745 96561.600000 0 0 1
-8.617267 20.902645 12.551780 25.859719 -1.179768 1.063999 0.008275 -0.019655 -200239.000000 0 0 1
-9.724667 19.889345 12.972480 25.660094 -1.116037 1.040776 0.015509 -0.023563 -368123.000000 0 0 1
-9.837567 18.826845 12.097680 24.445484 -1.089289 1.053095 0.024257 -0.030879 285625.000000 0 1 0
-10.563267 17.718645 12.691380 24.219912 -1.033200 1.019249 0.016875 -0.030607 113786.000000 0 1 0
-10.547167 16.503245 11.732980 22.831177 -1.002124 1.031069 0.019296 -0.031708 -202906.000000 0 1 0
-10.944167 15.311445 12.357980 22.515213 -0.950226 0.989782 0.013765 -0.026978 -18435.900000 0 1 0
-11.061067 14.273545 11.425780 21.368897 -0.911527 1.006653 0.012365 -0.016498 17262.600000 0 1 0
-11.563467 12.954645 12.104880 21.167539 -0.842078 0.962024 0.008561 -0.018949 328198.000000 0 1 0
-12.871867 13.079345 12.661780 22.295177 -0.793393 0.966825 0.023757 -0.017542 383711.000000 0 1 0
-13.442967 11.831145 12.959680 22.105263 -0.721711 0.944348 0.023739 -0.007974 -241012.000000 0 1 0
-14.187067 11.723545 14.271280 23.289135 -0.690605 0.911214 0.021739 0.002239 -1061120.000000 0 1 0
-15.284767 12.541145 14.179680 24.330387 -0.687116 0.948630 0.021292 0.008206 -977993.000000 0 1 0
-15.951467 12.563445 15.465080 25.523678 -0.667137 0.919886 0.021581 0.011175 -331086.000000 0 0 1
-17.043767 13.601545 15.514480 26.761747 -0.673542 0.952404 0.036606 0.009619 -329047.000000 0 0 1
-18.175567 13.290345 14.718180 26.899988 -0.631373 0.991847 0.037227 0.011069 550590.000000 0 0 1
-19.038167 14.444645 14.557480 27.982491 -0.649059 1.023670 0.052515 0.010442 225481.000000 0 0 1
-20.363167 14.154445 13.846080 28.402831 -0.607430 1.061584 0.041199 0.003640 -279597.000000 0 0 1
-21.120967 13.177745 14.537380 28.828521 -0.557821 1.042259 0.038356 0.011810 64802.200000 0 0 1
-22.301867 12.947545 13.793580 29.245086 -0.526002 1.079630 0.024200 0.009145 -309445.000000 0 0 1
-23.286067 11.964345 14.419780 29.888401 -0.474625 1.067342 0.009537 0.010949 -508047.000000 0 0 1
-23.858067 12.401445 15.596480 31.084617 -0.479363 1.045184 0.009391 0.010364 -248385.000000 0 0 1
-24.675767 11.452245 16.182880 31.653325 -0.434525 1.034153 0.004378 0.006693 -779868.000000 0 0 1
-25.380137 11.958345 17.477780 33.054896 -0.440318 1.013669 -0.002164 0.011468 -344126.000000 0 0 1
-26.354937 12.932745 17.189380 34.019309 -0.456192 1.041086 -0.008085 0.016253 173907.000000 0 0 1
-26.806217 13.570645 18.366880 35.214741 -0.468635 1.022109 -0.023005 0.022612 -38089.600000 0 0 1
-27.979937 14.544645 18.218280 36.418804 -0.479381 1.046916 -0.023893 0.015866 41006.200000 0 0 1
-27.539877 15.839345 17.961180 36.495666 -0.521941 1.056244 -0.019837 0.019184 1849480.000000 0 0 1
-28.743737 16.720445 17.932080 37.780090 -0.526860 1.076237 -0.017099 0.008225 1248560.000000 0 0 1
-28.461397 18.204745 17.504780 38.051034 -0.569050 1.092763 0.011441 0.000389 -716368.000000 0 0 1
-27.687717 18.933945 18.368680 38.242808 -0.599797 1.069780 0.005853 -0.000500 -484792.000000 0 0 1
-28.244847 19.287645 19.662480 39.451207 -0.599139 1.049044 0.006695 -0.011834 -897978.000000 0 0 1
-27.274957 19.509645 20.855980 39.490777 -0.620918 1.014408 0.008323 -0.021658 85896.100000 0 0 1
-26.862767 18.351145 21.550380 39.022963 -0.599324 0.985737 0.003455 -0.019575 198784.000000 0 0 1
-26.073267 17.451145 20.748780 37.614752 -0.589832 0.986500 0.022835 -0.011637 -532404.000000 0 0 1
-25.734267 16.203545 21.473780 37.228089 -0.561935 0.955970 0.015601 -0.008446 -150731.000000 0 0 1
-26.909907 15.470545 21.681280 37.862366 -0.521760 0.961081 -0.034813 0.001613 -61436.300000 0 0 1
-26.602117 14.263145 22.308680 37.533813 -0.492160 0.934324 -0.032933 0.018575 -361074.000000 0 0 1
-27.817707 13.356345 22.473180 38.174083 -0.447632 0.941343 -0.026816 0.008346 -358788.000000 0 0 1
-28.381957 12.848145 21.285080 37.731485 -0.425086 0.971429 -0.019072 0.003132 -50586.100000 0 0 1
-29.258047 11.780045 21.581080 38.217088 -0.382768 0.970730 -0.003671 0.004010 -453612.000000 0 0 1
-30.134367 11.444745 20.359380 38.125669 -0.362964 1.007463 0.006765 0.008894 -484633.000000 0 0 1
-29.467267 11.064145 19.162880 36.850388 -0.359185 1.023924 0.006496 0.003906 589793.000000 0 0 1
-28.613417 9.900745 19.269380 35.889572 -0.333123 1.004029 0.018761 0.004428 142097.000000 0 0 1
-27.870147 9.406345 18.012380 34.491597 -0.325501 1.021338 0.023342 0.003639 -295887.000000 0 0 1
-28.617187 8.905545 16.891680 34.403212 -0.301696 1.057569 0.016511 0.013100 331237.000000 0 0 1
-29.404177 9.869745 16.174580 34.980488 -0.323841 1.090109 0.010387 0.016356 -452098.000000 0 0 1
-28.715167 11.045445 15.482480 34.442269 -0.367209 1.104569 -0.001577 0.009654 -633596.000000 0 0 1
-28.064307 10.616445 14.325580 33.249609 -0.361652 1.125362 -0.007112 -0.000091 411641.000000 0 0 1
-27.107787 11.558745 13.860180 32.565953 -0.403055 1.131168 -0.016650 0.014528 -442438.000000 0 0 1
-26.916227 11.608245 12.289480 31.784681 -0.407172 1.173802 -0.005368 0.006505 -538322.000000 0 0 1
-26.327117 10.488845 11.586580 30.616691 -0.379130 1.182686 0.008067 0.009169 410332.000000 0 0 1
-27.174777 9.377245 11.449780 30.943476 -0.332278 1.191763 -0.008158 0.010762 -485954.000000 0 0 1
-26.595327 8.184545 10.655180 29.796494 -0.298546 1.205101 -0.002281 0.003981 -322781.000000 0 0 1
-26.290137 8.435845 9.332980 29.145142 -0.310496 1.244830 0.001951 0.005974 175260.000000 0 0 1
-25.709857 7.320145 8.731180 28.121429 -0.277381 1.255097 0.010323 0.003270 -105836.000000 0 0 1
-24.968467 7.658545 7.396780 27.143876 -0.297618 1.294803 0.008650 0.010425 -645047.000000 0 0 1
-25.896437 8.059845 6.463480 27.881232 -0.301731 1.336846 0.001614 0.008063 -328917.000000 0 0 1
-25.306607 8.531545 5.286980 27.224323 -0.325161 1.375354 0.008761 0.008151 46843.400000 0 0 1
-26.324747 8.698145 4.074680 28.022367 -0.319124 1.424871 -0.002646 0.005033 552684.000000 0 0 1
-26.992277 7.511445 3.593580 28.247454 -0.271414 1.443233 0.006300 -0.000904 466864.000000 0 0 1
-26.126927 6.392445 3.396480 27.111174 -0.239955 1.445187 0.009824 -0.004678 -170299.000000 0 0 1
-25.177567 6.464445 2.177480 26.085251 -0.251325 1.487224 0.037935 -0.010138 -866750.000000 0 0 1
-24.234767 7.438045 2.282180 25.453031 -0.297790 1.481013 0.040014 -0.005646 -420594.000000 0 0 1
-23.388267 7.455545 1.123780 24.573544 -0.308589 1.525049 0.054266 -0.006955 72050.200000 0 1 0
-22.126967 8.335745 1.255580 23.678340 -0.360281 1.517745 0.053712 -0.003581 -181094.000000 0 1 0
-22.379267 9.704645 1.574380 24.443617 -0.409170 1.506343 0.035693 -0.003813 995505.000000 0 1 0
-21.166567 10.424345 1.844880 23.666307 -0.457622 1.492763 0.044516 -0.003426 359930.000000 0 1 0
-21.513567 11.754045 2.487280 24.640976 -0.500040 1.469683 0.033936 -0.003599 -533529.000000 0 1 0
-20.584867 12.784645 2.312580 24.341979 -0.555768 1.475649 0.040028 -0.004158 -56732.000000 0 1 0
-20.881067 13.996545 3.011080 25.317757 -0.590513 1.451583 0.017366 -0.006726 -490369.000000 0 0 1
-19.697367 14.536945 3.823180 24.777525 -0.635786 1.415877 -0.001948 -0.009424 -273974.000000 0 1 0
-19.232667 13.704045 4.864980 24.111499 -0.619093 1.367631 -0.000496 -0.014470 606554.000000 0 1 0
-18.455267 14.411445 5.868580 24.139736 -0.662976 1.325227 0.003515 -0.011351 90784.400000 0 1 0
-18.004167 13.499245 6.991580 23.563995 -0.643363 1.269555 0.002815 -0.011323 43070.200000 0 1 0
-17.047867 12.522845 6.592580 22.156569 -0.633552 1.268676 0.014483 -0.012164 442637.000000 0 1 0
-16.649267 11.734845 7.692080 21.773212 -0.613958 1.209719 0.008957 -0.008007 -265251.000000 0 1 0
9.730833 -33.577049 -14.131220 37.706746 -1.288718 1.954941 -0.006456 0.022075 377095.000000 0 0 1
10.961333 -33.202749 -13.503220 37.482133 -1.251929 1.939340 -0.012968 0.014460 691576.000000 0 0 1
11.573833 -32.095049 -14.157220 36.938769 -1.224700 1.964122 -0.010161 -0.002120 433587.000000 0 0 1
12.950433 -31.650649 -13.569920 36.791575 -1.182412 1.948549 -0.003974 -0.007451 10607.000000 0 0 1
13.995133 -32.457649 -13.985320 38.012523 -1.163702 1.947560 -0.002851 -0.001360 -482953.000000 0 0 1
15.253733 -31.996049 -13.525720 37.939012 -1.125931 1.935328 0.002576 -0.009346 -129055.000000 0 0 1
16.418733 -32.782249 -14.096820 39.280669 -1.106475 1.937858 0.011176 -0.009799 -397702.000000 0 0 1
16.605933 -34.054249 -13.527620 40.229906 -1.117092 1.913737 0.013655 -0.013290 -329942.000000 0 0 1
17.306233 34.245845 -14.350220 40.965991 1.102876 1.928683 0.009440 -0.001655 -216851.000000 0 0 1
17.280733 32.856845 -13.680420 39.564503 1.086613 1.923861 0.004970 -0.002693 -782185.000000 0 0 1
18.026633 32.682045 -12.548220 39.376813 1.066744 1.895123 0.008520 -0.011076 -573707.000000 0 0 1
17.913633 31.394045 -11.984420 38.080318 1.052270 1.890952 0.005780 -0.005317 128709.000000 0 0 1
18.721233 31.182045 -10.678120 37.905497 1.030094 1.856366 0.009185 -0.007537 -256617.000000 0 0 1
20.022233 30.714945 -10.819120 38.227621 0.993106 1.857736 0.009172 -0.002973 -159608.000000 0 0 1
20.724633 30.490745 -9.571720 38.089549 0.973823 1.824814 0.010737 -0.004649 539865.000000 0 0 1
22.061633 29.719845 -9.674120 38.256678 0.932229 1.826446 -0.004893 0.008878 93743.700000 0 0 1
23.055633 30.356545 -10.449920 39.525724 0.921246 1.838360 -0.002092 -0.001449 318094.000000 0 0 1
24.284933 29.638245 -10.290220 39.674578 0.884351 1.833162 -0.008370 0.009095 241938.000000 0 0 1
25.380833 30.225445 -11.184420 41.022621 0.872302 1.846933 -0.010621 0.004200 -507031.000000 0 0 1
25.871433 31.490745 -10.806020 42.163588 0.883049 1.829976 -0.004410 -0.013449 65328.800000 0 0 1
27.027233 31.762945 -11.578420 43.282974 0.865777 1.841599 -0.001047 -0.011364 344704.000000 0 0 1
27.620033 33.203445 -11.380220 44.663681 0.876939 1.828435 -0.000773 -0.010729 116440.000000 0 0 1
26.851533 34.215545 -12.053720 45.133142 0.905408 1.841148 0.005958 -0.011137 313112.000000 0 0 1
27.357633 -33.748649 -11.674320 44.985566 -0.889608 1.833314 0.030569 -0.012815 102334.000000 0 0 1
26.300333 -32.663449 -11.939220 43.602217 -0.892898 1.848160 0.021028 -0.019242 632899.000000 0 0 1
25.097233 -32.792749 -11.160820 42.776154 -0.917557 1.834763 0.028795 -0.014541 1055960.000000 0 0 1
24.015033 -31.871749 -11.413120 41.506499 -0.925066 1.849357 0.032157 -0.015745 855175.000000 0 0 1
24.311633 -30.395149 -11.137120 40.484022 -0.896145 1.849489 0.027095 -0.013794 -445922.000000 0 0 1
25.030033 -29.714249 -12.188020 40.718386 -0.870756 1.874781 0.026685 -0.011037 45444.800000 0 0 1
25.446533 -28.475549 -11.718820 39.946385 -0.841513 1.868540 0.013360 -0.004433 -66279.600000 0 0 1
26.467333 -27.743449 -12.653520 40.377348 -0.808934 1.889548 0.023812 -0.013622 740640.000000 0 0 1
27.710533 -28.414649 -12.811220 41.706034 -0.797943 1.883024 0.012487 -0.006177 189126.000000 0 0 1
27.669333 -29.271649 -13.912220 42.614214 -0.813531 1.903362 0.021325 -0.009239 396266.000000 0 0 1
29.058433 -29.936349 -14.251720 44.087289 -0.800278 1.899970 0.022534 0.001129 733803.000000 0 0 1
29.475433 -30.893049 -13.292220 44.719847 -0.808877 1.872590 0.022778 -0.006273 209404.000000 0 0 1
30.459433 -31.723449 -13.907920 46.125747 -0.805723 1.877085 0.001704 -0.001967 225979.000000 0 0 1
31.099333 -32.796549 -12.965220 47.019986 -0.811954 1.850154 -0.012104 0.003801 433584.000000 0 0 1
31.991233 -33.748949 -13.568720 48.441105 -0.812129 1.854702 -0.011962 -0.004389 180658.000000 0 0 1
32.674633 -34.558749 -12.670220 49.218627 -0.813414 1.831155 -0.009353 0.002168 -616111.000000 0 0 1
31.883433 33.569345 -11.893620 47.800758 0.811150 1.822255 -0.010392 -0.008775 -273370.000000 0 0 1
31.642833 33.922145 -10.581320 47.580932 0.820148 1.795057 -0.009017 -0.012306 135664.000000 0 0 1
30.907133 32.929545 -9.865620 46.227008 0.817069 1.785867 -0.006438 -0.012066 -53550.400000 0 0 1
30.264933 33.406645 -8.523520 45.876143 0.834701 1.757676 -0.020038 -0.008138 -176031.000000 0 0 1
29.246033 34.334845 -8.741020 45.941457 0.865265 1.762228 -0.015575 -0.008650 -789005.000000 0 0 1
28.384633 34.507345 -7.648020 45.331407 0.882445 1.740321 -0.008918 -0.002300 -361547.000000 0 0 1
27.441633 -33.569949 -7.970620 44.085320 -0.885508 1.752596 -0.008694 -0.002605 -646498.000000 0 0 1
28.098633 -32.322349 -8.038520 43.576200 -0.855189 1.756329 -0.020898 0.003437 396602.000000 0 0 1
27.248433 -31.262149 -8.539820 42.340614 -0.853889 1.773883 -0.007265 0.005465 563359.000000 0 0 1
26.297333 -30.583349 -7.507020 41.027385 -0.860607 1.754809 -0.000376 0.003450 293654.000000 0 0 1
25.408933 -29.737149 -8.214120 39.967282 -0.863724 1.777792 0.005663 -0.004948 -119414.000000 0 0 1
24.572033 -29.073049 -7.290120 38.757874 -0.869106 1.760017 0.004370 -0.003810 466336.000000 0 0 1
23.415833 -28.264149 -7.986020 37.562479 -0.878939 1.785038 0.033184 -0.003957 296228.000000 0 0 1
22.583033 -29.019749 -8.854320 37.822456 -0.909493 1.807091 0.053260 -0.005587 -8350.840000 0 0 1
21.641433 -28.163249 -9.453220 36.754368 -0.915605 1.830920 0.064472 -0.009500 2391.770000 0 0 1
20.443733 -28.986949 -10.004020 36.854712 -0.956540 1.845690 0.062516 -0.013726 -75515.900000 0 0 1
20.758033 -29.691649 -11.198920 37.919728 -0.960661 1.870600 0.065463 -0.019739 414081.000000 0 0 1
19.660933 -30.466049 -11.706820 38.102258 -0.997705 1.883095 0.057437 -0.019680 583413.000000 0 0 1
19.385933 -31.808049 -10.969720 38.831702 -1.023445 1.857189 0.053677 -0.022244 61648.000000 0 0 1
20.237333 -32.875449 -11.334620 40.234542 -1.019003 1.856376 0.046459 -0.023990 -47783.900000 0 0 1
19.840333 -34.092149 -10.744220 40.882168 -1.043746 1.836729 0.040354 -0.021120 -414718.000000 0 0 1
20.977033 34.129645 -10.924820 41.523731 1.019690 1.837028 0.029140 -0.013390 -567200.000000 0 0 1
21.938333 34.343945 -9.942420 41.948167 1.002347 1.810090 0.027939 -0.019788 -473130.000000 0 0 1
23.124533 33.607145 -10.126320 42.032447 0.968113 1.814107 0.018654 -0.015707 -384130.000000 0 0 1
24.347933 34.042545 -9.336520 42.882249 0.949928 1.790279 0.014198 -0.015902 -605381.000000 0 0 1
24.399233 33.627545 -8.005420 42.311005 0.943113 1.761148 0.007007 -0.012423 156373.000000 0 0 1
24.991433 32.351945 -7.873020 41.631773 0.913059 1.761053 0.001627 -0.009585 -315059.000000 0 0 1
25.107033 31.840245 -6.456120 41.059053 0.903088 1.728691 -0.000144 -0.016335 -470009.000000 0 0 1
26.088533 32.470845 -5.623620 42.030851 0.893958 1.704996 0.000021 -0.015350 307102.000000 0 0 1
27.004133 31.527645 -5.042120 41.816726 0.862528 1.691667 0.009195 -0.013631 176959.000000 0 0 1
26.497833 30.458845 -4.002020 40.569601 0.854831 1.669603 0.007963 -0.009425 -657277.000000 0 0 1
26.170933 30.895745 -2.692420 40.579723 0.868004 1.637194 0.014382 -0.007052 -81078.100000 0 0 1
25.934833 29.838745 -1.778020 39.574330 0.855280 1.615740 0.000953 -0.005419 285193.000000 0 0 1
24.532833 29.193545 -1.964920 38.183555 0.871931 1.622279 -0.010595 -0.002794 -174636.000000 0 0 1
23.461933 29.949445 -1.463220 38.073253 0.906269 1.609237 -0.013858 -0.000562 -326129.000000 0 0 1
22.246133 29.241945 -1.660620 36.779606 0.920444 1.615962 -0.001483 0.004249 427122.000000 0 0 1
21.016233 29.930845 -1.032720 36.586938 0.958622 1.599027 0.014450 -0.004130 66165.200000 0 0 1
21.009933 29.709845 0.343880 36.389702 0.955274 1.561346 0.024314 -0.015591 392782.000000 0 0 1
19.922533 30.400245 0.979280 36.359885 0.990675 1.543860 0.029723 -0.012559 -65209.200000 0 0 1
19.461533 29.700645 2.222380 35.578344 0.990735 1.508291 0.023952 -0.018984 -396513.000000 0 0 1
18.896133 28.449345 1.799080 34.200377 0.984501 1.518168 0.030948 -0.012864 219840.000000 0 0 1
18.386133 27.709345 2.870980 33.378140 0.984965 1.484676 0.044304 -0.016743 -301156.000000 0 0 1
17.857233 26.324045 2.431580 31.902174 0.974741 1.494502 0.032558 0.006341 -312736.000000 0 0 1
18.768533 25.397145 1.912480 31.637484 0.934371 1.510310 0.026554 0.001014 -127762.000000 0 0 1
19.477533 24.663645 2.904780 31.561170 0.902351 1.478629 0.029116 0.002564 -41994.500000 0 0 1
20.810133 24.029945 2.486980 31.885498 0.857082 1.492720 0.015782 0.007718 -312047.000000 0 0 1
20.554733 22.994745 1.600780 30.883942 0.841368 1.518941 0.026842 0.010308 1147960.000000 0 0 1
21.782633 22.331345 1.212580 31.219264 0.797836 1.531946 0.012196 0.004874 760798.000000 0 0 1
21.617333 21.211045 0.171780 30.286086 0.775912 1.565124 0.029485 -0.000889 -464845.000000 0 0 1
21.232133 21.642045 -1.085020 30.337417 0.794959 1.606569 0.013326 0.006897 268899.000000 0 0 1
21.670833 20.759945 -2.077520 30.081829 0.763934 1.639914 0.042168 -0.007078 21644.400000 0 0 1
21.421933 21.272045 -3.547720 30.397129 0.781887 1.687775 0.017846 -0.001551 163917.000000 0 0 1
22.223033 22.409345 -3.830120 31.791693 0.789573 1.691565 0.003649 0.007934 315015.000000 0 0 1
21.849833 23.083345 -5.038320 32.181372 0.812843 1.728003 0.010766 -0.000231 -127001.000000 0 0 1
22.714733 24.349245 -5.357320 33.727521 0.820114 1.730313 0.001798 0.015711 -185390.000000 0 0 1
22.485733 25.567845 -4.701520 34.371895 0.849450 1.708010 -0.012924 0.019037 -6435.060000 0 0 1
23.023233 25.681845 -3.399920 34.658129 0.839930 1.669053 -0.002232 0.016322 312433.000000 0 0 1
22.023833 25.185645 -2.269920 33.533841 0.852272 1.638539 -0.003493 0.014602 -620880.000000 0 0 1
20.866833 25.971345 -2.199320 33.388209 0.893952 1.636715 0.007515 0.010779 -338264.000000 0 0 1
20.026733 25.548045 -1.182920 32.483410 0.905959 1.607220 0.029644 0.015643 -99168.400000 0 0 1
19.012933 24.383745 -1.523220 30.957694 0.908533 1.620019 0.042429 0.010572 -616180.000000 0 0 1
18.104733 24.824445 -2.478020 30.824909 0.940668 1.651273 0.042443 0.009551 -324371.000000 0 0 1
17.385933 23.787645 -3.086220 29.625116 0.939644 1.675161 0.047279 0.000528 -41500.000000 0 0 1
16.829433 24.241745 -4.441420 29.843228 0.963951 1.720176 0.056193 -0.013584 -203985.000000 0 0 1
16.255433 23.199845 -5.199420 28.801144 0.959621 1.752320 0.054947 -0.023058 55242.800000 0 0 1
16.139633 23.565145 -6.572020 29.308621 0.970281 1.796954 0.044155 -0.018334 -134091.000000 0 0 1
15.412533 22.505645 -7.411520 28.266249 0.970325 1.836102 0.043521 -0.016998 -187922.000000 0 0 1
16.042733 21.240845 -7.467120 27.645988 0.923926 1.844291 0.021850 -0.013588 316086.000000 0 0 1
15.192733 20.407945 -8.189020 26.727578 0.930855 1.882193 0.037631 -0.009120 -107214.000000 0 0 1
16.022833 19.186445 -8.607020 26.437315 0.875009 1.902404 0.013865 -0.004776 -17442.100000 0 0 1
16.913933 19.390745 -9.680020 27.491542 0.853516 1.930620 0.000253 -0.004887 475965.000000 0 0 1
17.650133 18.145245 -9.849820 27.162402 0.799229 1.941882 -0.015302 -0.002975 435902.000000 0 0 1
19.044933 18.272845 -10.513220 28.410106 0.764712 1.949861 -0.018420 0.001507 -46711.100000 0 0 1
18.890133 18.657645 -11.858620 29.078716 0.779206 1.990852 -0.025891 0.001015 811471.000000 0 0 1
20.165633 19.085445 -12.353720 30.389494 0.757885 1.989430 -0.014871 0.005548 468633.000000 0 0 1
20.152233 19.478845 -13.839720 31.258211 0.768408 2.029465 -0.014184 0.003563 -442626.000000 0 0 1
19.928033 18.411145 -14.769320 30.890606 0.745854 2.069306 -0.022431 0.010912 380261.000000 0 0 1
20.097133 18.855245 -16.082420 31.907041 0.753527 2.099066 -0.017266 0.003699 -85382.000000 0 0 1
20.237333 17.670945 -17.125920 31.860776 0.717801 2.138294 -0.012555 -0.000435 -27938.900000 0 0 1
21.407533 16.860745 -17.047720 32.143303 0.667139 2.129829 0.005050 -0.008502 252168.000000 0 0 1
21.425433 15.882845 -18.092420 32.228087 0.637915 2.166857 0.015589 -0.009354 -886033.000000 0 0 1
22.173733 16.332745 -19.347420 33.656435 0.634857 2.183218 0.015238 -0.009969 368379.000000 0 0 1
23.587933 16.430545 -19.071220 34.497316 0.608417 2.156555 0.045938 -0.013238 834829.000000 0 0 1
24.236733 17.167745 -20.046920 35.833360 0.616299 2.164517 0.068370 -0.020724 -143805.000000 0 0 1
25.732933 17.391645 -19.733820 36.797783 0.594335 2.136817 0.065546 -0.023189 179998.000000 0 0 1
25.792133 18.377445 -18.725420 36.791384 0.619080 2.104775 0.050339 -0.022442 -277843.000000 0 0 1
27.110533 18.816145 -18.537620 37.850649 0.606723 2.082607 0.045892 -0.028433 -480443.000000 0 0 1
27.332433 19.942745 -17.520520 38.101753 0.630341 2.048606 0.040587 -0.018424 -42561.600000 0 0 1
26.857333 19.632645 -16.246220 37.022922 0.631228 2.025076 0.030811 -0.020989 493767.000000 0 0 1
25.480933 20.015845 -16.155020 36.206307 0.665851 2.033304 0.031309 -0.015792 468199.000000 0 0 1
24.673433 19.328045 -15.000020 34.746974 0.664509 2.017165 0.024587 -0.009484 216497.000000 0 0 1
25.138233 19.644445 -13.746420 34.739013 0.663331 1.977632 0.019317 -0.009400 590802.000000 0 0 1
24.000233 19.440845 -12.893220 33.469281 0.680825 1.966248 0.015595 -0.012137 626843.000000 0 0 1
24.303033 19.799745 -11.399820 33.356007 0.683642 1.919588 0.026728 -0.012597 -85723.100000 0 0 1
24.499233 21.169545 -11.259620 34.280331 0.712617 1.905466 0.014712 -0.006777 200488.000000 0 0 1
25.113933 21.651145 -10.027120 34.641375 0.711487 1.864454 0.013606 -0.005343 273655.000000 0 0 1
24.359333 21.466545 -8.691420 33.611463 0.722356 1.832353 0.014063 -0.002471 -835246.000000 0 0 1
24.576433 20.190145 -8.108220 32.823562 0.687729 1.820405 0.029408 -0.007080 404556.000000 0 0 1
23.710133 19.913345 -7.003820 31.745318 0.698582 1.793252 0.028065 -0.010518 1079390.000000 0 0 1
22.205833 19.604645 -7.380920 30.527350 0.723264 1.814997 0.018189 -0.013878 436914.000000 0 0 1
21.542233 20.814145 -7.652820 30.917019 0.768210 1.820924 0.018451 -0.002435 650898.000000 0 0 1
20.135233 20.537845 -7.883420 29.822458 0.795297 1.838321 0.025063 -0.006607 956169.000000 0 0 1
19.350433 21.862145 -7.885320 30.241873 0.846268 1.834587 0.010723 -0.008770 -711589.000000 0 0 1
19.708133 22.706945 -8.916820 31.361211 0.855982 1.859100 -0.004900 0.005138 79389.200000 0 0 1
19.140533 22.315645 -10.147820 31.101869 0.861839 1.903159 -0.012460 0.000671 894629.000000 0 0 1
17.637433 22.710445 -10.433720 30.589310 0.910474 1.918873 -0.000671 0.002484 634918.000000 0 0 1
17.429433 24.056845 -10.198420 31.408991 0.943809 1.901488 0.003970 0.002606 375136.000000 0 0 1
16.077533 24.470045 -10.395220 31.069773 0.989496 1.911952 0.017703 0.006441 563142.000000 0 0 1
15.862133 25.944845 -10.087920 32.039169 1.022052 1.891108 0.022810 0.003927 39535.000000 0 0 1
16.488633 26.798645 -11.032920 33.343181 1.019218 1.908043 0.035528 0.009648 173941.000000 0 0 1
16.628233 28.070945 -10.518520 34.279955 1.036010 1.882669 0.048369 -0.003019 -240955.000000 0 0 1
18.813133 28.944745 33.224238 47.912235 0.994444 0.804544 0.004161 0.015859 -113812.000000 0 0 1
17.517033 29.457845 33.403698 47.858313 1.034322 0.798237 0.007257 -0.004990 -746863.000000 0 0 1
16.666933 28.374545 33.690786 47.095334 1.039700 0.773637 0.010504 -0.004263 553938.000000 0 0 1
15.176533 28.876445 33.707511 46.908129 1.086904 0.769030 0.031848 -0.015205 567628.000000 0 0 1
14.713533 29.242745 32.439809 46.086521 1.104631 0.789938 0.046664 -0.018226 464244.000000 0 0 1
13.410733 29.860045 32.478489 46.112062 1.148675 0.789306 0.019431 -0.015197 111363.000000 0 0 1
12.806333 29.879945 31.077109 44.973325 1.165886 0.807908 0.026059 -0.016552 -721147.000000 0 0 1
12.446233 28.540445 30.786139 43.786437 1.159569 0.791052 0.025067 -0.020519 997222.000000 0 0 1
11.089033 28.199945 31.150109 43.457253 1.196141 0.771596 0.016226 -0.010086 398135.000000 0 0 1
10.895433 26.676345 31.038519 42.352420 1.183043 0.748276 -0.005113 -0.003062 -62468.900000 0 0 1
11.066633 26.132645 29.717979 41.091894 1.170214 0.762360 -0.007227 0.004524 854592.000000 0 0 1
12.440733 25.833145 29.431089 41.089077 1.121993 0.772346 -0.009926 -0.001179 497509.000000 0 0 1
12.612533 25.132045 28.065259 39.728509 1.105669 0.786360 0.008813 -0.008013 -211365.000000 0 0 1
12.258733 25.861545 26.887379 39.268654 1.128153 0.816600 -0.003634 -0.002369 77985.100000 0 0 1
12.241133 25.156845 25.662029 37.963824 1.117932 0.828530 0.019023 -0.006718 663325.000000 0 0 1
11.252533 23.904145 25.419889 36.663311 1.130833 0.804692 0.009709 0.000622 445907.000000 0 0 1
11.299833 23.513745 24.023729 35.464376 1.122819 0.826568 0.026095 -0.008834 -84998.600000 0 0 1
10.483833 22.405645 23.781329 34.314360 1.133148 0.805095 0.033890 -0.010213 -59572.700000 0 0 1
10.406433 22.043045 22.336229 33.062015 1.129720 0.829037 0.041606 -0.009363 65140.400000 0 0 1
9.862533 23.084045 21.532329 33.072404 1.167026 0.861808 0.046049 -0.010679 218840.000000 0 0 1
10.017133 22.800745 20.181229 32.054624 1.156848 0.889773 0.047017 -0.001653 -571010.000000 0 0 1
9.592733 24.068545 19.254829 32.281013 1.191533 0.931694 0.036667 -0.003142 1183410.000000 0 0 1
8.176833 24.337545 19.259629 32.095327 1.246669 0.927200 0.032256 -0.002327 915046.000000 0 0 1
7.715833 25.266345 20.238929 33.279671 1.274411 0.917072 0.020703 -0.005369 -676145.000000 0 0 1
6.366833 25.889745 19.931929 33.288095 1.329660 0.928831 0.027590 -0.001933 -868233.000000 0 0 1
6.512633 26.775845 18.845229 33.384172 1.332201 0.970974 0.026857 -0.005218 -317667.000000 0 0 1
5.353133 27.399045 18.357229 33.411848 1.377850 0.989123 0.019755 -0.006417 -795428.000000 0 0 1
5.546933 28.546345 17.320229 33.847491 1.378875 1.033618 0.021267 -0.003651 -113525.000000 0 0 1
5.852233 27.979345 16.063229 32.789018 1.364606 1.058825 0.021567 0.001576 65411.700000 0 0 1
6.750433 28.807945 15.360329 33.337753 1.340624 1.091958 0.018077 0.002360 -268267.000000 0 0 1
7.314033 28.107845 14.136129 32.301334 1.316229 1.117832 0.016229 -0.001073 -318235.000000 0 0 1
6.412833 27.900245 13.063629 31.467547 1.344872 1.142693 0.014796 -0.006824 -152454.000000 0 0 1
6.802233 26.918145 12.118029 30.293622 1.323277 1.159259 0.009859 -0.007681 -108783.000000 0 0 1
6.100133 27.025045 10.732329 29.711068 1.348795 1.201217 -0.000413 -0.012754 -440912.000000 0 0 1
6.579933 28.004745 9.817629 30.396498 1.340024 1.241914 -0.002626 -0.009890 125810.000000 0 0 1
6.326333 29.358545 10.162329 31.705198 1.358556 1.244512 0.003031 -0.007304 -168367.000000 0 0 1
6.665033 30.293045 8.933829 32.278546 1.354228 1.290362 0.008152 -0.004377 -98263.600000 0 0 1
5.750133 30.333945 7.846529 31.855616 1.383458 1.321920 -0.003876 -0.008832 96617.000000 0 0 1
6.057133 29.404045 6.868429 30.797111 1.367642 1.345883 0.002354 -0.008573 751370.000000 0 0 1
4.728033 28.715845 6.362429 29.789840 1.407611 1.355561 -0.000662 -0.006313 671088.000000 0 0 1
3.947133 29.499245 5.530829 30.271693 1.437782 1.387058 -0.015090 -0.009333 492392.000000 0 0 1
2.544233 29.244445 5.767329 29.916096 1.484016 1.376798 0.001452 -0.017123 1195290.000000 0 0 1
1.635433 30.184045 4.955429 30.631805 1.516667 1.408308 0.001656 -0.022078 -387335.000000 0 0 1
2.004033 30.088045 3.585429 30.367119 1.504289 1.452451 -0.014994 -0.021105 110663.000000 0 0 1
1.189633 30.890145 2.754029 31.035479 1.532304 1.481941 -0.017956 -0.023002 1321400.000000 0 0 1
-0.224567 30.232645 2.436529 30.331501 -1.563369 1.490380 0.009152 -0.019510 932002.000000 0 0 1
-0.069767 29.294845 1.420029 29.329325 -1.568415 1.522361 0.006922 -0.013247 -221201.000000 0 0 1
-1.175067 28.439545 1.536129 28.505231 -1.529502 1.516881 0.011857 -0.011813 -227612.000000 0 0 1
-1.579767 27.876145 0.176229 27.921429 -1.514186 1.564485 0.008252 -0.013784 -317103.000000 0 0 1
-2.150667 28.866845 -0.617971 28.953445 -1.496431 1.592142 0.007245 -0.012259 5100.160000 0 0 1
-1.288167 29.378045 -1.623871 29.451076 -1.526976 1.625962 -0.004606 -0.011771 -494592.000000 0 0 1
-1.862867 30.701645 -2.178871 30.835187 -1.510194 1.641517 -0.015160 -0.012981 958036.000000 0 0 1
-3.099667 30.700045 -2.927571 30.994699 -1.470171 1.665391 0.013540 -0.010798 807573.000000 0 0 1
-3.088467 29.818045 -4.057471 30.250909 -1.467587 1.705329 0.004543 -0.005314 -1357180.000000 0 0 1
-4.463867 29.440645 -4.541371 30.121450 -1.420320 1.722142 0.007520 0.001809 -300601.000000 0 0 1
-5.245167 30.460445 -5.239571 31.349698 -1.400273 1.738717 -0.004281 -0.003185 580816.000000 0 0 1
-6.285867 29.899545 -6.017171 31.140027 -1.363581 1.765249 0.002938 -0.007178 -132761.000000 0 0 1
-6.961867 30.957245 -6.884571 32.468691 -1.349590 1.784455 0.004889 0.007424 -642507.000000 0 0 1
-7.831767 31.842445 -6.242671 33.380366 -1.329630 1.758920 0.006621 0.006155 -145707.000000 0 0 1
-8.148967 32.794445 -7.235371 34.557660 -1.327243 1.781728 -0.004357 0.014076 -60233.200000 0 0 1
-9.045967 33.885245 -6.632171 35.693487 -1.309921 1.757691 -0.001623 0.008637 -289497.000000 0 0 1
-10.407867 33.664745 -6.449271 35.822226 -1.270955 1.751819 0.016089 0.003192 -575204.000000 0 0 1
-11.082267 -34.476649 -5.777571 36.672009 1.259785 1.729003 0.017176 0.002305 907329.000000 0 0 1
-12.634567 34.591445 -5.937171 37.302149 -1.220600 1.730640 0.038659 -0.008243 619675.000000 0 0 1
-13.092167 -34.432049 -7.232571 37.540390 1.207447 1.764670 0.043333 -0.007019 -652590.000000 0 0 1
-14.420867 34.361745 -7.355871 37.984204 -1.173442 1.765684 0.039875 -0.015114 -1025460.000000 0 0 1
-14.901067 34.258545 -8.847071 38.392191 -1.160521 1.803325 0.052892 -0.007292 1105890.000000 0 0 1
-16.306267 34.014245 -9.029271 38.786479 -1.123768 1.805746 0.063988 -0.010466 1188720.000000 0 0 1
-17.224567 -34.141249 -8.710371 39.219652 1.103548 1.794756 0.061591 -0.015817 111475.000000 0 0 1
-18.728367 -34.519449 -9.012971 40.293644 1.073694 1.796387 0.050145 -0.012591 853191.000000 0 0 1
-19.254967 33.667445 -8.118471 39.625247 -1.051282 1.777139 0.035844 -0.009597 271840.000000 0 0 1
-19.391067 34.190745 -6.760371 39.883871 -1.054886 1.741120 0.027217 -0.013271 -849315.000000 0 0 1
-19.883967 33.103945 -5.737271 39.040487 -1.029897 1.718287 0.016189 -0.011961 -316607.000000 0 0 1
-19.688567 33.572745 -4.393971 39.167280 -1.040403 1.683218 0.018417 -0.018984 657296.000000 0 0 1
-20.861067 33.515045 -3.572271 39.638409 -1.014041 1.661040 0.021462 -0.012759 392818.000000 0 0 1
-21.763467 -34.436949 -3.656571 40.901375 1.007193 1.660316 0.025595 -0.012915 -118587.000000 0 0 1
-22.274567 -34.153649 -4.955471 41.075354 0.992885 1.691734 0.022340 -0.023265 179951.000000 0 0 1
-22.910467 -32.895149 -5.084371 40.408305 0.962444 1.696956 0.022336 -0.022588 -32121.300000 0 0 1
-23.295767 -32.626149 -6.504671 40.613656 0.950722 1.731649 0.022354 -0.013960 -720214.000000 0 0 1
-22.170667 -32.517749 -7.307871 40.029332 0.972388 1.754389 0.030542 -0.009786 -419281.000000 0 0 1
-22.242467 -33.174949 -8.651671 40.867542 0.980172 1.784111 0.032938 -0.004926 31501.700000 0 0 1
-23.404467 -32.780049 -9.651871 41.418103 0.950746 1.805994 0.015003 0.000163 260351.000000 0 0 1
-24.621667 -33.300649 -9.121571 42.407107 0.934130 1.787586 -0.007345 0.010064 -287123.000000 0 0 1
-25.766417 -32.779849 -9.724271 42.813411 0.904623 1.799927 -0.007607 0.009079 -194554.000000 0 0 1
-26.213187 -31.296749 -9.523571 41.920354 0.873564 1.799980 -0.003516 0.017072 -364069.000000 0 0 1
-25.497727 -30.282749 -10.254571 40.894195 0.870972 1.824260 -0.017879 0.017035 -11370.500000 0 0 1
-26.025217 -30.025049 -11.538971 41.375878 0.856639 1.853426 -0.025206 0.025964 -39141.300000 0 0 1
-25.075267 -29.191749 -12.431171 40.440836 0.861109 1.883247 -0.022214 0.029877 509205.000000 0 0 1
-23.817167 -29.847849 -12.641871 40.223978 0.897305 1.890502 -0.008156 0.019603 162324.000000 0 0 1
-23.156767 -29.309449 -13.733771 39.798192 0.902134 1.923126 -0.002173 0.018855 -229493.000000 0 0 1
-21.845367 -30.087649 -13.998371 39.729599 0.942795 1.930868 0.022238 0.002546 -121032.000000 0 0 1
-21.960367 -31.287449 -14.718871 40.961046 0.958803 1.938355 0.030540 0.004784 123592.000000 0 0 1
-22.583767 -32.339749 -13.943271 41.836595 0.961193 1.910576 0.022716 0.010827 -16369.500000 0 0 1
-22.877767 -33.630949 -14.741571 43.263690 0.973442 1.918498 0.028466 0.005626 -115342.000000 0 0 1
-23.389467 34.531145 -13.899371 43.962025 -0.975438 1.892484 0.016251 -0.005284 22168.400000 0 0 1
-23.479267 33.293845 -14.547371 43.259474 -0.956580 1.913762 0.018615 -0.014335 -158077.000000 0 0 1
-23.995267 32.166745 -13.664471 42.393279 -0.929883 1.898982 0.008877 -0.011053 -586850.000000 0 0 1
-23.202867 31.774245 -12.578871 41.306218 -0.940061 1.880238 0.011676 -0.002072 116085.000000 0 0 1
-22.816867 32.732145 -11.577671 41.545700 -0.962034 1.853209 0.019162 -0.004988 284931.000000 0 0 1
-21.849167 32.240645 -10.472871 40.330216 -0.975201 1.833485 0.012722 -0.001289 231398.000000 0 0 1
-22.568467 31.485745 -9.526171 39.892804 -0.948895 1.811920 0.008899 0.005960 110082.000000 0 0 1
-21.697867 30.923045 -8.584371 38.739174 -0.958948 1.794245 0.007938 0.003230 -137629.000000 0 0 1
-22.382767 29.808045 -7.743571 38.071915 -0.926721 1.775619 0.003806 0.000961 66936.300000 0 0 1
-22.680267 28.602445 -8.435871 37.465428 -0.900370 1.797908 0.006999 0.015618 -28611.700000 0 0 1
-23.177467 27.523045 -7.681371 36.792886 -0.870900 1.781117 0.002670 0.006132 210879.000000 0 0 1
-22.215367 26.779245 -6.659771 35.426022 -0.878281 1.759913 -0.004596 0.008217 78435.200000 0 0 1
-22.127467 27.391645 -5.387971 35.622426 -0.891306 1.722631 0.002038 0.007769 181579.000000 0 0 1
-21.138567 26.775045 -4.571171 34.418565 -0.902498 1.704001 0.001812 0.013934 115797.000000 0 0 1
-19.814967 27.589945 -4.547171 34.271194 -0.947963 1.703871 -0.005192 0.000459 52917.400000 0 0 1
-19.294667 27.729045 -5.867371 34.287172 -0.962875 1.742767 -0.004693 0.008214 106657.000000 0 0 1
-18.120167 28.529645 -5.896371 34.308137 -1.004942 1.743519 0.005020 0.004109 81809.300000 0 0 1
-17.357767 28.528545 -7.222671 34.166313 -1.024198 1.783801 0.016601 0.002800 -596779.000000 0 0 1
-17.903267 29.271345 -8.243271 35.288668 -1.021868 1.806570 0.034279 0.001818 -17029.500000 0 0 1
-17.711567 30.629745 -8.200171 36.319742 -1.046525 1.798537 0.044485 -0.006975 -180580.000000 0 0 1
-17.854367 31.227345 -9.626871 37.237107 -1.051405 1.832295 0.035568 -0.006401 64651.600000 0 0 1
-16.761367 30.759345 -10.409571 36.543671 -1.071862 1.859649 0.050516 -0.006370 345067.000000 0 0 1
-16.724367 31.433745 -11.629271 37.456972 -1.081838 1.886484 0.051395 -0.005176 424217.000000 0 0 1
-15.258967 31.491545 -12.184971 37.054379 -1.119592 1.905872 0.048720 -0.004790 711335.000000 0 0 1
-14.963367 32.151145 -13.404071 37.911312 -1.135204 1.932175 0.048988 0.000531 -151951.000000 0 0 1
-15.332667 31.415245 -14.562971 37.869360 -1.116743 1.965525 0.045128 -0.001887 -111691.000000 0 0 1
-14.910767 32.075745 -15.890971 38.777666 -1.135653 1.993028 0.061118 -0.002836 1049580.000000 0 0 1
-13.477967 32.071945 -16.022171 38.301112 -1.172963 2.002393 0.058673 -0.005529 653233.000000 0 0 1
-13.100967 32.354845 -17.357771 38.984145 -1.186060 2.032252 0.034606 -0.013256 -888531.000000 0 0 1
-11.626767 32.180445 -17.604071 38.479424 -1.224091 2.045970 0.046056 -0.010079 -1585830.000000 0 0 1
-11.113367 30.901545 -17.522971 37.221861 -1.225561 2.060961 0.052942 -0.018390 981354.000000 0 0 1
-9.770867 30.699745 -18.047871 36.927900 -1.262662 2.081433 0.045449 -0.014414 1179430.000000 0 0 1
-9.515967 30.995245 -19.535671 37.853683 -1.272917 2.113069 0.047980 -0.017329 -940089.000000 0 0 1
-10.197867 30.069045 -20.316671 37.694974 -1.243821 2.140017 0.043869 -0.031906 -163256.000000 0 0 1
-9.737867 29.957045 -21.629271 38.210940 -1.256509 2.172502 0.041452 -0.035978 -1487880.000000 0 0 1
-10.830167 29.581745 -22.636371 38.791461 -1.219842 2.193877 0.046709 -0.037586 -182664.000000 0 0 1
-11.719467 30.636945 -22.896971 40.002995 -1.205443 2.180203 0.058224 -0.036429 -333704.000000 0 0 1
-12.705267 30.814245 -21.913171 39.888953 -1.179716 2.152388 0.056460 -0.032664 -870179.000000 0 0 1
-13.553367 32.133545 -22.187671 41.334625 -1.171654 2.137414 0.062452 -0.029834 566081.000000 0 0 1
-14.365167 32.131345 -23.340571 42.232258 -1.150376 2.156363 0.056105 -0.030831 -84960.600000 0 0 1
-15.178867 33.273445 -23.457171 43.448349 -1.142810 2.141098 0.049717 -0.019196 74394.000000 0 0 1
-15.614967 33.533845 -24.911271 44.597280 -1.135006 2.163472 0.046057 -0.012294 7471.210000 0 0 1
-14.521067 33.724445 -25.799271 44.875405 -1.164209 2.183289 0.046257 -0.009627 158546.000000 0 0 1
-14.905667 33.846245 -27.158071 45.883636 -1.155960 2.204198 0.051762 0.000282 105639.000000 0 0 1
-15.386667 -33.950349 -27.636871 46.402288 1.145275 2.208800 0.049029 0.009470 1280010.000000 0 0 1
-16.747867 -33.650349 -27.245071 46.423387 1.108988 2.197999 0.040665 0.011567 822605.000000 0 0 1
-17.271067 -32.549949 -27.994271 46.275999 1.082968 2.220489 0.022484 0.020382 -557656.000000 0 0 1
-18.685567 -32.212549 -27.563771 46.330985 1.045159 2.207977 0.016365 0.015951 -697859.000000 0 0 1
-19.589867 -33.203049 -27.934971 47.608486 1.037761 2.197854 0.017056 0.016053 -1379650.000000 0 0 1
-20.852267 -32.965549 -27.397971 47.667528 1.006788 2.183122 0.022979 0.015426 -12713.200000 0 0 1
-21.868167 -34.085249 -27.811571 49.127430 1.000368 2.172577 0.012592 0.019223 85086.500000 0 0 1
-21.758267 33.895845 -27.066771 48.527936 -1.000125 2.162477 0.038165 0.013868 718510.000000 0 0 1
-22.889667 33.038845 -27.382871 48.634594 -0.964912 2.168847 0.020335 0.009149 825846.000000 0 0 1
-22.742467 31.567545 -27.003371 47.359389 -0.946485 2.177521 0.024284 0.011446 -56707.400000 0 0 1
-22.478767 31.334045 -25.633871 46.305644 -0.948494 2.157453 0.036791 0.002884 -97435.700000 0 0 1
-22.533767 29.982645 -25.200271 45.186096 -0.926297 2.162408 0.019909 -0.005116 -187556.000000 0 0 1
30.116852 10.146445 -26.699010 41.506773 0.324959 2.269525 0.011792 0.012637 -185408.000000 0 0 1
29.478662 8.904545 -26.822110 40.837581 0.293352 2.287363 0.002293 0.018534 63183.700000 0 0 1
28.201382 8.858345 -26.220540 39.513351 0.304351 2.296400 0.016570 0.010454 172121.000000 0 0 1
27.813272 7.398545 -25.885550 38.708891 0.259987 2.303287 0.006483 0.022713 -307547.000000 0 0 1
28.586092 6.853045 -24.867420 38.503473 0.235293 2.272931 -0.008870 0.027042 -114520.000000 0 0 1
28.119532 5.591745 -24.421620 37.661535 0.196296 2.276343 -0.001988 0.025488 -35268.200000 0 0 1
28.134562 5.479645 -22.870520 36.669344 0.192357 2.244258 -0.000689 0.025462 523688.000000 0 0 1
29.422112 5.104645 -22.378320 37.316314 0.171787 2.213913 0.007001 0.015321 697501.000000 0 0 1
29.354632 5.117845 -20.965920 36.434277 0.172610 2.183944 0.001349 0.009401 630798.000000 0 0 1
30.715812 4.658845 -20.326520 37.125912 0.150528 2.150173 0.005816 0.006341 573159.000000 0 0 1
30.986422 3.254045 -20.325220 37.200292 0.104632 2.148823 0.012457 0.006044 1502020.000000 0 0 1
32.277902 2.961345 -19.693420 37.927079 0.091489 2.116763 0.015806 -0.001470 1370430.000000 0 0 1
32.661032 1.484545 -19.789420 38.217379 0.045422 2.115088 0.022971 0.001069 -72211.900000 0 0 1
31.795242 0.702045 -18.978120 37.035109 0.022077 2.108815 0.035792 0.001395 229387.000000 0 0 1
32.036512 -0.720755 -19.189620 37.351025 -0.022494 2.110363 0.026318 0.005121 -98419.600000 0 0 1
30.964722 -1.500455 -18.428820 36.065035 -0.048419 2.107131 0.005447 0.002797 9263.750000 0 0 1
31.027242 -1.610855 -17.026420 35.428570 -0.051871 2.072117 0.015449 0.004308 13900.600000 0 0 1
29.732932 -1.442755 -16.463220 34.017149 -0.048486 2.075980 0.000359 0.003887 209693.000000 0 0 1
29.561242 -1.960155 -15.017820 33.215119 -0.066211 2.039957 0.003891 -0.003404 -220091.000000 0 0 1
29.468422 -3.361955 -14.882220 33.183898 -0.113596 2.035857 0.003850 0.003948 440842.000000 0 0 1
28.671782 -3.792255 -13.779120 32.036174 -0.131501 2.015412 0.018535 0.001046 -86244.800000 0 0 1
28.651162 -5.272055 -13.506920 32.111066 -0.181973 2.004937 0.005806 0.003843 99539.800000 0 0 1
27.999372 -5.961855 -14.580720 32.126406 -0.209795 2.041883 -0.006622 0.004795 448904.000000 0 0 1
27.629862 -7.265155 -14.152920 31.882548 -0.257125 2.030752 -0.004007 0.002777 -58866.500000 0 0 1
26.983042 -8.101555 -15.303920 32.061343 -0.291683 2.068413 -0.000012 0.002806 -119699.000000 0 0 1
25.702832 -7.636355 -15.656520 31.049575 -0.288796 2.099301 0.013900 -0.010296 -246719.000000 0 0 1
25.088902 -8.584055 -16.514220 31.238733 -0.329660 2.127801 0.005699 -0.002149 -496415.000000 0 0 1
23.635402 -8.277455 -16.851020 30.184522 -0.336866 2.163092 0.006794 -0.005151 -553521.000000 0 0 1
23.372602 -7.062155 -17.540520 30.063639 -0.293433 2.193762 0.004170 -0.004318 -276968.000000 0 0 1
22.076402 -6.997555 -18.085520 29.383998 -0.306952 2.233802 0.024516 -0.009302 -174874.000000 0 0 1
21.891302 -7.458655 -19.520120 30.263769 -0.328378 2.271819 0.019387 -0.002396 155470.000000 0 0 1
22.659502 -6.701255 -20.490520 31.276529 -0.287541 2.285165 0.008290 -0.005760 656822.000000 0 0 1
22.418702 -7.173455 -21.810920 32.090074 -0.309682 2.318120 0.008466 -0.001688 -113850.000000 0 0 1
22.898002 -6.043855 -22.738520 32.831189 -0.258061 2.335868 0.008229 -0.004859 -172125.000000 0 0 1
22.864202 -6.293455 -24.131520 33.833557 -0.268602 2.364909 0.009166 -0.004909 190804.000000 0 0 1
22.777702 -5.141255 -24.862920 34.108958 -0.221994 2.387549 0.020780 -0.014246 -457693.000000 0 0 1
22.907302 -5.536155 -26.342980 35.346090 -0.237130 2.411761 0.030984 -0.015238 342262.000000 0 0 1
21.684502 -6.052355 -26.891160 35.071115 -0.272183 2.444576 0.025462 -0.015392 362941.000000 0 0 1
21.692202 -6.223655 -28.269700 36.172661 -0.279402 2.467897 0.022427 -0.012390 -393751.000000 0 0 1
20.540902 -6.946855 -28.958840 36.177367 -0.326121 2.498873 0.019829 -0.016360 -424030.000000 0 0 1
20.424902 -8.346255 -28.738580 36.231789 -0.387925 2.486821 0.020238 -0.009738 -103076.000000 0 0 1
19.475302 -9.048055 -29.484160 36.475613 -0.434922 2.512098 0.027975 -0.016302 -779222.000000 0 0 1
19.394602 -10.545855 -29.164700 36.577935 -0.498034 2.493655 0.044512 -0.017307 -274860.000000 0 0 1
18.642102 -10.985855 -28.029290 35.409858 -0.532517 2.484166 0.048883 -0.013752 66479.800000 0 0 1
18.879302 -12.338555 -27.661430 35.690653 -0.578866 2.457563 0.059983 -0.014566 -626758.000000 0 0 1
18.631802 -13.514355 -28.694690 36.785419 -0.627530 2.465552 0.050976 -0.015984 981821.000000 0 0 1
17.288102 -13.587555 -29.241620 36.586506 -0.666114 2.496836 0.041408 -0.022411 1235920.000000 0 0 1
17.147802 -14.548755 -30.280880 37.717967 -0.703583 2.502813 0.034220 -0.015584 17619.600000 0 0 1
15.807202 -14.564955 -31.039520 37.755229 -0.744520 2.535930 0.028531 -0.016943 610849.000000 0 0 1
14.623402 -15.158655 -30.516210 37.079209 -0.803369 2.537470 0.023548 -0.016050 1168450.000000 0 0 1
13.745702 -15.745755 -31.511900 37.813661 -0.853113 2.555932 0.009901 -0.012819 252981.000000 0 0 1
12.602702 -16.504355 -30.828310 37.169968 -0.918649 2.548807 0.008008 -0.018520 -195730.000000 0 0 1
13.022502 -17.685055 -30.208720 37.348540 -0.936085 2.512961 0.011016 -0.017228 64234.200000 0 0 1
12.119602 -17.949955 -29.169220 36.330827 -0.976917 2.502904 0.015176 -0.020477 -316538.000000 0 0 1
12.468802 -19.245755 -28.395340 36.498841 -0.995918 2.462239 0.020858 -0.017129 -688080.000000 0 0 1
13.590302 -19.182955 -27.586670 36.245088 -0.954417 2.435826 0.018186 -0.005831 -670035.000000 0 0 1
13.624202 -20.287555 -26.661200 36.166605 -0.979417 2.399680 0.010941 -0.002868 -658211.000000 0 0 1
14.610902 -20.163355 -25.532720 35.664536 -0.943733 2.368728 0.012617 0.002765 -754101.000000 0 0 1
15.912002 -20.588655 -25.876670 36.697228 -0.912829 2.353416 0.014678 0.006984 208593.000000 0 0 1
16.679402 -20.684755 -24.670220 36.258534 -0.892188 2.319101 0.017018 0.015960 -436967.000000 0 0 1
18.100002 -21.190855 -24.929420 37.391689 -0.863902 2.300582 -0.007487 0.018981 -554304.000000 0 0 1
18.248902 -22.588255 -25.264570 38.490910 -0.891261 2.286803 -0.002909 0.013886 233428.000000 0 0 1
17.902202 -23.509955 -24.215820 38.204879 -0.919993 2.257306 0.002982 0.009270 -455275.000000 0 0 1
18.341102 -24.964855 -24.372320 39.416367 -0.937174 2.237412 0.008750 0.010114 -325014.000000 0 0 1
19.731102 -25.115985 -24.184320 40.062581 -0.904898 2.218885 0.008636 0.013688 -54427.900000 0 0 1
20.123802 -26.435645 -23.833420 40.888172 -0.920142 2.193081 0.012495 -0.002586 -90518.800000 0 0 1
20.141402 -26.672425 -22.309120 40.184464 -0.924014 2.159361 0.020229 0.001084 -1004390.000000 0 0 1
18.908402 -26.568325 -21.686920 39.162815 -0.952268 2.157673 0.020804 0.007554 -696191.000000 0 0 1
18.955902 -26.778335 -20.307520 38.584982 -0.954800 2.125047 0.015193 0.001786 707449.000000 0 0 1
17.575102 -27.354655 -19.806520 38.071769 -0.999718 2.117930 0.007747 -0.000453 253867.000000 0 0 1
17.356802 -28.604365 -20.453820 39.215138 -1.025400 2.119498 0.012189 -0.006444 77048.000000 0 0 1
16.363402 -29.404155 -19.834620 39.061201 -1.062977 2.103406 0.007828 0.001254 472989.000000 0 0 1
14.893902 -29.035955 -20.165820 38.361117 -1.096845 2.124315 0.001053 0.001695 -377894.000000 0 0 1
14.353502 -27.857895 -19.665820 36.997700 -1.095031 2.131216 -0.001085 0.006417 -644184.000000 0 0 1
13.038002 -27.728625 -20.137020 36.665593 -1.131272 2.152212 -0.016196 0.013781 -266618.000000 0 0 1
12.278302 -26.540905 -19.507020 35.152527 -1.137499 2.159069 -0.015595 0.008026 -773800.000000 0 0 1
11.998002 -26.936995 -18.158520 34.630703 -1.151766 2.122745 -0.016121 0.006110 -205509.000000 0 0 1
11.164402 -26.044075 -17.460420 33.283689 -1.165818 2.123034 -0.007784 -0.006121 -459636.000000 0 0 1
9.671002 -26.177345 -17.739120 33.067477 -1.216908 2.137024 -0.003778 -0.000026 -1350770.000000 0 0 1
9.078002 -27.222915 -16.934620 33.320843 -1.248924 2.103924 -0.007280 0.008496 987351.000000 0 0 1
7.644502 -27.042325 -16.836920 32.759848 -1.295298 2.110579 -0.007511 0.013243 1276360.000000 0 0 1
6.919202 -27.810175 -17.963220 33.822455 -1.326946 2.130699 0.000864 0.020824 -643160.000000 0 0 1
7.106102 -27.340135 -19.274520 34.197760 -1.316508 2.169557 0.000988 0.020423 -155413.000000 0 0 1
6.580102 -28.277275 -20.214220 35.376782 -1.342166 2.179005 0.001342 0.019363 147633.000000 0 0 1
6.525202 -27.815765 -21.672920 35.860988 -1.340376 2.219758 0.001351 0.009962 -1442450.000000 0 0 1
5.591202 -26.887575 -21.940620 35.151017 -1.365771 2.244880 0.015548 0.005302 -869847.000000 0 0 1
5.682202 -26.383675 -23.252620 35.624009 -1.358668 2.281970 0.013716 0.013306 -205347.000000 0 0 1
4.402502 -25.618645 -23.649620 35.142588 -1.400611 2.309002 0.000032 0.006937 -94990.900000 0 0 1
3.314002 -26.494575 -23.756720 35.739710 -1.446360 2.297909 -0.005926 0.017806 -213055.000000 0 0 1
2.064902 -25.850555 -23.954420 35.303388 -1.491087 2.316556 -0.000977 0.016599 322302.000000 0 0 1
1.113202 -26.838785 -24.623220 36.439848 -1.529343 2.312740 -0.023984 0.026145 -241065.000000 0 0 1
1.538002 -27.132105 -25.936070 37.565893 -1.514171 2.332859 -0.041918 0.030603 133321.000000 0 0 1
0.433702 -27.547455 -26.686110 38.356210 -1.555054 2.340252 -0.038191 0.018434 25985.300000 0 0 1
0.965002 -28.512035 -27.728240 39.783447 -1.536964 2.341973 -0.046600 0.026186 -128553.000000 0 0 1
1.651302 -27.904805 -28.799820 40.135203 -1.511689 2.371103 -0.042271 0.019302 10544.700000 0 0 1
1.947402 -28.808885 -29.838400 41.521974 -1.503302 2.372608 -0.031220 0.008354 550100.000000 0 0 1
3.346002 -29.534725 -29.886710 42.151051 -1.457987 2.358930 -0.013221 0.010250 522414.000000 0 0 1
3.526002 -30.443285 -28.820200 42.069350 -1.455488 2.325488 -0.033567 0.009753 -321234.000000 0 0 1
4.728502 -31.085235 -29.143650 42.871936 -1.419839 2.318264 0.001478 0.003921 -281929.000000 0 0 1
5.089502 -32.221955 -28.139960 43.081490 -1.414139 2.282573 0.013697 -0.001083 -255304.000000 0 0 1
4.113802 -33.235225 -28.022900 43.666766 -1.447644 2.267567 -0.010628 -0.001444 -174418.000000 0 0 1
4.606202 -34.363798 -27.380790 44.179128 -1.437548 2.239243 0.005124 -0.010354 261780.000000 0 0 1
3.473602 33.855450 -26.875570 43.365351 1.468553 2.239217 0.016775 -0.005483 341938.000000 0 0 1
2.966502 33.096159 -27.915880 43.398758 1.481402 2.269521 -0.011198 0.000910 -645175.000000 0 0 1
1.647702 32.709439 -27.705500 42.897751 1.520465 2.272932 -0.041070 0.009831 -1016740.000000 0 0 1
0.779302 32.939619 -28.912300 43.835452 1.547142 2.291035 -0.052664 0.020849 -727309.000000 0 0 1
0.885802 32.019309 -29.953570 43.854727 1.543139 2.322683 -0.041200 0.009721 -65553.000000 0 0 1
0.041402 32.315889 -31.036280 44.805904 1.569515 2.335998 -0.041981 0.013264 -84102.500000 0 0 1
-0.001698 31.172769 -32.090500 44.738593 -1.570742 2.370700 -0.037958 0.009854 -452651.000000 0 0 1
1.064402 31.157719 -33.011560 45.405941 1.536648 2.384785 -0.036309 0.010340 109013.000000 0 0 1
0.934202 29.970209 -33.795540 45.179914 1.539635 2.415872 -0.032000 0.006586 -524960.000000 0 0 1
2.087702 29.669119 34.403858 45.477913 1.500546 0.712858 -0.026976 0.007845 -377433.000000 0 0 1
2.299102 30.613099 33.394073 45.360906 1.495835 0.743379 -0.024609 0.001317 403098.000000 0 0 1
3.312502 30.264499 32.421629 44.475550 1.461779 0.753971 -0.028560 0.002744 -17648.200000 0 0 1
2.791902 29.359309 31.291009 42.998732 1.475987 0.755805 -0.037231 0.009307 -255880.000000 0 0 1
2.545102 28.007589 31.612289 42.311221 1.480173 0.727052 -0.030044 -0.001898 -516539.000000 0 0 1
3.668802 27.240449 31.923409 42.126075 1.436920 0.710852 -0.020151 0.007617 -726689.000000 0 0 1
3.465302 25.803819 32.364109 41.536501 1.437301 0.677451 -0.005311 0.001431 -115425.000000 0 0 1
2.837302 25.025529 31.299479 40.174429 1.457902 0.677584 0.000522 0.007440 453263.000000 0 0 1
3.056202 23.641639 31.378429 39.406513 1.442237 0.649684 -0.006759 0.009318 -652078.000000 0 0 1
2.141702 22.970539 30.349339 38.122368 1.477828 0.649968 -0.002778 0.018606 -112214.000000 0 0 1
0.798402 22.845339 30.743739 38.310892 1.535862 0.639356 -0.007972 0.016024 -382318.000000 0 0 1
0.090302 22.255139 29.671969 37.090768 1.566739 0.643530 -0.005309 0.014686 395816.000000 0 0 1
-1.328198 21.757339 30.065089 37.135636 -1.509826 0.627322 -0.013104 0.018394 278820.000000 0 0 1
-2.317198 22.714139 30.346989 37.976851 -1.469132 0.645013 -0.006593 0.011601 -987256.000000 0 0 1
-3.540998 22.099839 30.466219 37.803863 -1.411919 0.633598 -0.022210 0.009250 -154791.000000 0 0 1
-4.778098 23.011239 30.811939 38.752070 -1.366064 0.651617 -0.034517 -0.000776 345186.000000 0 0 1
-4.799598 23.510339 32.147259 40.115065 -1.369415 0.641204 -0.034185 -0.003749 25347.300000 0 0 1
-4.446398 24.878619 32.265169 40.984842 -1.393940 0.664466 -0.022940 -0.004683 -340041.000000 0 0 1
-4.616498 25.561769 33.646997 42.506899 -1.392121 0.657430 -0.018529 0.000359 153365.000000 0 0 1
-5.955098 25.732579 34.068314 43.107758 -1.343377 0.659488 -0.029319 0.003920 65846.200000 0 0 1
-5.896098 26.158539 -33.747280 43.103503 -1.349103 2.470168 -0.013622 0.004941 -331852.000000 0 0 1
-7.231698 26.669839 -33.227460 43.216222 -1.306007 2.447861 -0.007027 0.012899 -551144.000000 0 0 1
-7.678498 27.877659 -33.754000 44.446099 -1.302025 2.433243 0.004224 0.008527 95426.800000 0 0 1
-8.943398 28.379749 -33.353050 44.696985 -1.265514 2.413137 0.016120 0.008530 177055.000000 0 0 1
-9.212498 28.806139 -31.863650 43.931264 -1.261266 2.382276 0.016577 0.005729 -557432.000000 0 0 1
-8.628598 30.006509 -31.455410 44.320267 -1.290793 2.359911 0.019697 0.005375 67598.800000 0 0 1
-8.834398 30.203949 -30.064050 43.522089 -1.286242 2.333359 0.017938 0.000320 -239459.000000 0 0 1
-8.337298 31.575809 -29.630230 44.096403 -1.312647 2.307624 0.014953 -0.002795 48999.000000 0 0 1
-6.931198 31.749699 -29.614140 43.966830 -1.355861 2.309806 0.002130 -0.001468 -13812.700000 0 0 1
-6.601698 33.079699 -29.239720 44.640902 -1.373815 2.284977 0.005894 0.008707 141358.000000 0 0 1
-5.063298 33.247311 -29.384220 44.659299 -1.419666 2.288908 -0.005306 0.008166 18944.400000 0 0 1
-4.618098 34.539820 -29.029740 45.354733 -1.437881 2.265372 -0.016103 0.013474 -200963.000000 0 0 1
-4.677098 -33.713005 -30.041160 45.397282 1.432943 2.293932 -0.006355 0.008462 -625249.000000 0 0 1
-3.479098 -33.702415 -30.980880 45.910476 1.467931 2.311504 -0.008257 0.004748 -805247.000000 0 0 1
-3.466998 34.581145 -32.074750 47.293395 -1.470873 2.316117 -0.002272 0.012465 -90700.200000 0 0 1
-4.096898 -34.286325 -33.306080 47.975323 1.451869 2.338151 0.010318 0.002839 32264.100000 0 0 1
-3.388298 -33.262205 -34.235698 47.853295 1.469280 2.368036 0.001279 0.000414 54836.000000 0 0 1
-3.315998 -31.927075 -33.728250 46.561022 1.467306 2.380943 -0.015113 0.007891 -179803.000000 0 0 1
-2.267898 -31.228245 -34.345117 46.475087 1.498300 2.402382 -0.009670 -0.001082 16289.300000 0 0 1
31.504742 20.177845 12.655729 39.495084 0.569647 1.244604 0.021661 0.000305 49264.600000 0 0 1
32.294482 19.303445 13.432529 39.949836 0.538750 1.227880 0.013149 0.000218 481312.000000 0 0 1
31.739942 17.975645 13.209829 38.794939 0.515303 1.223344 0.025017 0.001597 76878.400000 0 0 1
32.658302 16.805545 13.631929 39.176786 0.475249 1.215403 0.037594 -0.008500 -1278290.000000 0 0 1
33.804922 16.790145 12.897129 39.887563 0.460986 1.241542 0.027045 0.001864 -879863.000000 0 0 1
34.634207 15.791745 13.528329 40.397069 0.427798 1.229314 0.015218 -0.003388 457396.000000 0 0 1
-34.326355 15.441145 12.777329 39.749060 -0.422715 1.243536 0.015196 -0.006119 426924.000000 0 0 1
-33.455147 14.520545 13.344429 38.835124 -0.409494 1.220030 0.014425 -0.007922 -63666.300000 0 0 1
-34.006967 13.200845 13.397529 38.861676 -0.370276 1.218825 0.014910 -0.008799 -387151.000000 0 0 1
-33.236717 12.323445 14.347129 38.241166 -0.355064 1.186211 -0.001033 -0.006008 -148236.000000 0 0 1
-33.482637 12.670645 15.688729 39.086679 -0.361769 1.157770 0.006116 -0.009633 982630.000000 0 0 1
-32.605887 11.886845 16.589129 38.466091 -0.349588 1.124900 -0.005713 -0.010098 662062.000000 0 0 1
-32.447077 12.567445 17.997129 39.174611 -0.369529 1.093468 0.002093 -0.004952 104038.000000 0 0 1
-33.687877 12.753145 18.653629 40.564438 -0.361895 1.092968 0.018058 -0.006718 290612.000000 0 0 1
-33.414427 13.528445 19.765029 41.112031 -0.384696 1.069275 0.008429 -0.014958 -731357.000000 0 0 1
-34.578517 13.714845 20.690429 42.566004 -0.377597 1.063199 0.023675 -0.013543 -825743.000000 0 0 1
-35.044773 12.499745 21.195429 42.820859 -0.342613 1.052986 0.026405 0.007919 -22022.300000 0 0 1
34.168972 12.748345 22.069829 42.627647 0.357101 1.026595 0.020948 -0.004372 -151027.000000 0 0 1
33.816712 11.485345 22.819829 42.381927 0.327411 1.002220 0.015221 -0.000308 87578.100000 0 0 1
34.721362 11.049845 23.856829 43.552501 0.308109 0.991098 0.019109 0.003797 323820.000000 0 0 1
34.317517 11.409445 25.163219 44.057406 0.320971 0.962895 0.011699 0.004796 172459.000000 0 0 1
-34.701309 11.484645 26.097679 44.912880 -0.319610 0.950749 0.011301 0.004528 1297260.000000 0 0 1
-33.849807 12.617045 25.830879 44.409836 -0.356784 0.950044 0.008943 -0.003061 662791.000000 0 0 1
-32.917177 12.407245 24.765969 43.021314 -0.360456 0.957376 0.013610 -0.005814 -368952.000000 0 0 1
-32.049647 13.645145 24.430639 42.546750 -0.402506 0.959161 0.014219 -0.007572 453754.000000 0 0 1
-31.091557 14.062845 25.417819 42.550136 -0.424769 0.930589 0.003932 -0.008292 176804.000000 0 0 1
-31.635067 14.687945 26.575529 43.849423 -0.434676 0.919694 0.000253 -0.008755 -1249000.000000 0 0 1
-30.723667 15.185145 27.659189 44.040471 -0.459036 0.891764 -0.000387 -0.005132 -1067390.000000 0 0 1
-30.161967 16.372145 27.164899 43.768974 -0.497304 0.901234 0.017140 -0.019456 -359472.000000 0 0 1
-29.856467 17.149845 28.275449 44.553640 -0.521391 0.883256 0.036492 -0.021715 -364019.000000 0 0 1
-29.188427 18.488345 28.038869 44.496757 -0.564627 0.889072 0.042133 -0.018962 -162008.000000 0 0 1
-29.985287 19.404245 27.299189 44.954287 -0.574352 0.918182 0.032346 -0.030015 680699.000000 0 0 1
-29.265177 20.641045 27.046359 44.877710 -0.614281 0.923956 0.038617 -0.040470 234297.000000 0 0 1
-30.125457 21.703845 26.304569 45.503081 -0.624318 0.954419 0.039033 -0.030557 -281937.000000 0 0 1
-31.274157 22.079445 27.044219 46.871789 -0.614739 0.955767 0.036501 -0.023724 225039.000000 0 0 1
-32.109667 22.878045 26.239729 47.359888 -0.619064 0.983575 0.036452 -0.012827 -285198.000000 0 0 1
-31.939617 24.412645 26.349389 48.066690 -0.652614 0.990605 0.031790 -0.012320 -820859.000000 0 0 1
-32.852057 25.069845 25.576899 48.599717 -0.651841 1.016580 0.038883 -0.009852 -603886.000000 0 0 1
-32.595157 26.468045 25.535879 49.143492 -0.682030 1.024392 0.038743 -0.012690 537570.000000 0 0 1
-33.463497 27.252645 24.458939 49.605967 -0.683459 1.055188 0.048800 -0.010408 332865.000000 0 0 1
-33.337827 26.685745 23.169129 48.583415 -0.675024 1.073679 0.053533 -0.013053 78212.000000 0 0 1
-34.391175 27.127445 22.326129 49.164085 -0.667869 1.099418 0.062723 -0.018640 176972.000000 0 0 1
-34.114527 26.857845 20.812529 48.148792 -0.666939 1.123805 0.068041 -0.032456 79147.600000 0 0 1
-33.985397 25.478345 20.457929 47.145309 -0.643300 1.121942 0.056310 -0.026173 -72257.200000 0 0 1
-33.525207 25.458245 19.130629 46.238974 -0.649475 1.144245 0.053334 -0.032659 -122237.000000 0 0 1
-33.725967 24.192945 18.245729 45.339233 -0.622268 1.156630 0.035384 -0.026556 229199.000000 0 0 1
-35.012679 24.128645 17.661429 46.043515 -0.603400 1.177125 0.037646 -0.034163 -127314.000000 0 0 1
-34.990826 23.046145 16.760529 45.126467 -0.582421 1.190267 0.022791 -0.030205 -235500.000000 0 0 1
34.019462 22.955145 15.899429 44.011979 0.593588 1.201186 0.026408 -0.019390 -106566.000000 0 0 1
33.006072 22.298845 16.625129 43.162880 0.594161 1.175402 0.015076 -0.021929 -836877.000000 0 0 1
32.113632 21.771445 15.685529 41.848740 0.595774 1.186599 0.014357 -0.013578 -774783.000000 0 0 1
30.989442 20.962145 16.367029 40.836708 0.594730 1.158415 0.006062 -0.007079 59106.800000 0 0 1
30.192842 21.612045 17.316829 40.970243 0.621252 1.134409 -0.003611 -0.008695 -38404.100000 0 0 1
29.114242 22.372945 16.805729 40.380940 0.655207 1.141556 -0.003529 -0.003307 -193891.000000 0 0 1
28.339642 23.119245 17.914629 40.725529 0.684296 1.115324 -0.004106 -0.003383 53834.400000 0 0 1
29.089792 24.062745 18.655829 42.110232 0.691101 1.111828 -0.019736 -0.003812 -779268.000000 0 0 1
28.249622 24.745045 19.502229 42.316608 0.719364 1.091827 -0.018344 -0.001928 -505663.000000 0 0 1
28.889312 25.478445 20.731529 43.744026 0.722743 1.077050 -0.016753 -0.011729 183441.000000 0 0 1
29.780862 26.533145 20.406729 44.803372 0.727790 1.097893 -0.003754 -0.010361 103777.000000 0 0 1
30.655452 26.793445 21.474729 46.030527 0.718274 1.085430 -0.001992 -0.012095 -193779.000000 0 0 1
31.837592 27.742045 21.160929 47.233868 0.716765 1.106266 0.023553 -0.018824 219145.000000 0 0 1
32.788772 27.999345 22.161429 48.478818 0.706772 1.096024 0.031860 -0.011796 -14076.400000 0 0 1
32.285512 28.961045 23.052229 49.117224 0.731171 1.082263 0.005770 -0.000641 -41681.100000 0 0 1
33.164312 29.449445 24.270159 50.558699 0.726138 1.070097 0.011339 -0.004328 432551.000000 0 0 1
34.330898 30.172845 23.938929 51.595382 0.721025 1.088320 0.041909 -0.013594 -66903.800000 0 0 1
35.009391 30.683145 25.059449 52.868600 0.719637 1.076974 0.048961 -0.007375 -350364.000000 0 0 1
-34.018577 31.457645 24.755569 52.532706 -0.746306 1.080099 0.058313 -0.013424 -309698.000000 0 0 1
-32.873077 30.703945 24.399709 51.173404 -0.751293 1.073781 0.053674 -0.019981 -429910.000000 0 0 1
-31.753637 31.537545 24.518849 51.030228 -0.781984 1.069598 0.051468 -0.015492 201685.000000 0 0 1
-30.409747 30.750145 24.361319 49.636660 -0.790964 1.057797 0.045578 -0.018813 98549.900000 0 0 1
-30.054287 30.364645 23.004229 48.522844 -0.790535 1.076865 0.021865 -0.017922 231808.000000 0 0 1
-30.713177 29.278145 22.370629 47.968261 -0.761482 1.085621 0.039799 -0.013968 -29581.300000 0 0 1
-30.214017 27.897545 23.001429 47.119270 -0.745557 1.060824 0.030639 -0.011785 560157.000000 0 0 1
-28.813687 27.591245 22.869629 45.983968 -0.763729 1.050267 -0.008154 -0.010642 895415.000000 0 0 1
-28.300177 26.577145 23.688729 45.479672 -0.754011 1.022933 -0.001369 -0.008030 11927.500000 0 0 1
-28.029727 26.908645 25.191129 46.306951 -0.764995 0.995596 0.022262 -0.009421 -640358.000000 0 0 1
-29.187857 27.253545 25.930669 47.613930 -0.751140 0.994881 0.022995 -0.010308 -1670.120000 0 0 1
-28.929367 28.073245 27.067639 48.555869 -0.770380 0.979481 0.035396 -0.016629 -458704.000000 0 0 1
-30.203277 28.450145 27.854689 49.975318 -0.755517 0.979583 0.042253 -0.020497 -86612.000000 0 0 1
-30.792037 27.312245 28.422119 50.019247 -0.725581 0.966451 0.037533 -0.011511 -440192.000000 0 0 1
-31.758627 27.671245 29.361579 51.345988 -0.716730 0.962052 0.039034 -0.007720 -60653.400000 0 0 1
-32.509547 26.398045 29.960379 51.491278 -0.682021 0.949791 0.034151 -0.009537 -50866.200000 0 0 1
-31.759407 25.601045 30.806739 51.118770 -0.678445 0.923978 0.036355 -0.008636 -330778.000000 0 0 1
-32.470967 24.424945 31.214629 51.237630 -0.644913 0.915729 0.022040 -0.009358 -71570.900000 0 0 1
-31.720587 23.563545 32.218889 50.985224 -0.638907 0.886761 0.048913 -0.017082 -1261180.000000 0 0 1
-30.622857 22.948845 31.680309 49.679481 -0.643119 0.879295 0.039788 -0.010790 -829418.000000 0 0 1
-29.914197 22.091445 32.550189 49.420703 -0.636096 0.851793 0.038939 -0.016754 239007.000000 0 0 1
-28.866347 22.672045 33.509449 49.700813 -0.665784 0.830884 0.043735 -0.022864 -369258.000000 0 0 1
-29.471837 23.470245 34.548499 51.117906 -0.672519 0.828667 0.051715 -0.024065 143984.000000 0 0 1
-29.388097 22.880845 -33.307870 49.966063 -0.661540 2.300448 0.042867 -0.017295 -601711.000000 0 0 1
-28.035317 23.033745 -32.623730 48.793854 -0.687772 2.303125 0.044769 -0.020489 -611455.000000 0 0 1
-27.780907 24.402945 -32.406200 49.167513 -0.720756 2.290415 0.040064 -0.021442 -45292.000000 0 0 1
-26.908017 24.591145 -31.301330 48.047258 -0.740440 2.280316 0.045980 -0.019831 -196880.000000 0 0 1
-27.136167 25.892045 -30.509040 48.348434 -0.761941 2.253669 0.021217 -0.010345 -83861.400000 0 0 1
-26.958847 27.169745 -31.145580 49.345938 -0.789294 2.253855 0.023079 -0.013726 164275.000000 0 0 1
-28.022487 27.435045 -32.039230 50.640435 -0.774806 2.255806 0.027708 -0.012098 -198501.000000 0 0 1
-28.110617 28.881745 -32.523160 51.789168 -0.798928 2.249766 0.030799 -0.009467 -91257.100000 0 0 1
-28.430477 29.813445 -31.512260 51.866714 -0.809138 2.223784 0.027337 -0.013803 109806.000000 0 0 1
-28.266647 31.118745 -31.945600 52.800577 -0.833388 2.220592 0.047031 -0.027251 -216174.000000 0 0 1
-28.625167 32.196645 -30.921840 53.030032 -0.844051 2.193336 0.037424 -0.008224 -50218.600000 0 0 1
-27.744977 32.143845 -29.835040 51.895473 -0.858717 2.183286 0.019611 0.000677 200001.000000 0 0 1
-28.110617 33.301845 -29.131800 52.420239 -0.869728 2.160044 0.011010 0.004782 -264103.000000 0 0 1
-27.283707 33.609345 -27.898120 51.500425 -0.888908 2.143262 -0.004398 -0.002921 1410900.000000 0 0 1
-25.871797 33.989945 -28.026580 51.089680 -0.920191 2.151457 0.000240 0.008912 1783590.000000 0 0 1
-25.609677 -33.835349 -28.160080 50.928150 0.922899 2.156682 0.007295 0.023104 -695921.000000 0 0 1
-25.924677 -32.830849 -27.012750 49.796005 0.902402 2.144169 0.002853 0.028956 1125240.000000 0 0 1
-27.276767 -32.299549 -27.040530 50.184391 0.869508 2.139836 -0.020867 0.017837 966010.000000 0 0 1
-27.699347 -31.630849 -25.859150 49.360511 0.851566 2.122200 -0.027215 0.026791 644154.000000 0 0 1
-29.184867 -31.156949 -25.866540 49.915827 0.818068 2.115545 -0.036350 0.019790 495491.000000 0 0 1
-29.463747 -30.126949 -26.754110 49.915206 0.796527 2.136478 -0.024870 0.013103 612142.000000 0 0 1
-30.882687 -29.953949 -26.749550 50.660811 0.770133 2.127055 -0.021553 0.001858 373645.000000 0 0 1
-31.526077 -29.031349 -27.791750 51.079292 0.744225 2.146101 -0.008149 -0.005409 -1150700.000000 0 0 1
-32.893957 -29.153549 -27.798450 52.006688 0.725188 2.134732 -0.006711 -0.004414 -1176140.000000 0 0 1
-33.505347 -28.293549 -28.754340 52.439920 0.701262 2.151161 0.012651 -0.017233 976570.000000 0 0 1
-35.068041 -28.389649 -28.728260 53.488808 0.680542 2.137779 0.011001 -0.021310 814913.000000 0 0 1
34.511465 -27.866549 -27.644010 52.266404 -0.679272 2.128107 -0.008529 -0.012306 -136648.000000 0 0 1
33.122192 -27.885049 -27.890180 51.502599 -0.699763 2.143052 0.002218 -0.013262 -125060.000000 0 0 1
32.178642 -27.441349 -26.783780 50.058600 -0.706107 2.135361 0.014805 -0.014982 -392066.000000 0 0 1
32.018582 -28.393149 -25.769820 49.954420 -0.725458 2.112815 0.010388 -0.009021 -195496.000000 0 0 1
31.238492 -27.920549 -24.716220 48.644547 -0.729372 2.103772 0.006596 -0.000286 -268234.000000 0 0 1
31.206662 -28.642049 -23.414320 48.398895 -0.742573 2.075763 0.011895 -0.001287 -246031.000000 0 0 1
30.799062 -29.993549 -23.535220 49.011241 -0.772149 2.071680 0.019478 -0.006222 -151211.000000 0 0 1
30.498962 -30.733249 -22.390020 48.744561 -0.789224 2.048041 0.030074 -0.020960 22395.000000 0 0 1
31.398752 -30.651149 -21.083120 48.681336 -0.773350 2.018708 0.019138 -0.009747 670167.000000 0 0 1
32.669112 -31.356449 -21.263220 50.026216 -0.764899 2.009804 0.013367 -0.007989 977412.000000 0 0 1
33.636272 -31.065549 -20.287920 50.080603 -0.745687 1.987890 0.014848 -0.003447 238145.000000 0 0 1
34.371693 -29.718549 -20.636820 49.904747 -0.712922 1.997118 -0.001088 -0.004384 -873825.000000 0 0 1
33.567122 -28.584749 -20.547320 48.641874 -0.705405 2.006910 -0.000614 0.000447 -248017.000000 0 0 1
34.160802 -27.546949 -21.319420 48.788446 -0.678626 2.023031 -0.014324 0.007124 -113717.000000 0 0 1
33.405472 -26.245549 -21.210820 47.483189 -0.665939 2.033872 -0.008681 0.013608 -143912.000000 0 0 1
32.102492 -26.173349 -21.731920 46.774892 -0.684004 2.053987 0.005560 0.007016 29736.300000 0 0 1
31.205982 -25.586549 -20.778420 45.389729 -0.686772 2.046291 0.022806 0.005238 183616.000000 0 0 1
29.783802 -25.457749 -21.363620 44.627078 -0.707246 2.069986 0.027336 0.002903 289175.000000 0 0 1
29.071282 -26.683249 -21.611420 44.990984 -0.742593 2.071850 0.037077 -0.000304 -185622.000000 0 0 1
27.940362 -26.496749 -22.404320 44.549917 -0.758885 2.097751 0.035922 -0.002353 -165023.000000 0 0 1
27.338192 -27.822649 -22.985320 45.274733 -0.794181 2.103292 0.034321 -0.005922 -174721.000000 0 0 1
26.651602 -28.550049 -22.030520 44.841465 -0.819776 2.084376 0.041293 -0.013101 -361709.000000 0 0 1
26.338382 -29.838649 -22.456720 45.698573 -0.847626 2.084504 0.031674 -0.020516 -85451.200000 0 0 1
25.533342 -30.650749 -21.409320 45.274484 -0.876230 2.063351 0.034119 -0.017165 -299164.000000 0 0 1
26.177142 -31.104149 -20.220420 45.404584 -0.871201 2.032349 0.050265 -0.021776 -213294.000000 0 0 1
27.020502 -32.219249 -20.396820 46.735616 -0.872932 2.022423 0.048732 -0.017368 383610.000000 0 0 1
28.124262 -32.377249 -19.300420 47.029422 -0.855578 1.993678 0.037035 -0.018057 83277.000000 0 0 1
27.700732 -32.885949 -18.008420 46.616728 -0.870774 1.967422 0.037219 -0.021745 -257179.000000 0 0 1
27.033822 -31.896849 -17.231920 45.223617 -0.867733 1.961715 0.021421 -0.024812 -62034.400000 0 0 1
26.452362 -32.690049 -16.035420 45.005571 -0.890479 1.935100 0.017487 -0.022336 -109589.000000 0 0 1
25.245372 -33.381149 -16.296820 44.913430 -0.923290 1.942120 0.024734 -0.019719 -108375.000000 0 0 1
24.882502 -34.098949 -15.162120 44.852727 -0.940405 1.915632 0.033433 -0.023642 -366625.000000 0 0 1
23.354202 -34.186149 -15.056820 44.054731 -0.971470 1.919602 0.032207 -0.019587 -86212.700000 0 0 1
22.786702 -32.902949 -14.709920 42.640586 -0.965093 1.923008 0.029658 -0.021363 255177.000000 0 0 1
21.384302 -32.992849 -14.542920 41.920317 -0.995723 1.925080 0.028558 -0.021664 75818.900000 0 0 1
-0.793967 -6.967155 -29.333040 30.159557 1.457327 2.906940 0.003579 0.004694 227686.000000 0 0 1
-0.425367 -8.323655 -29.317160 30.478845 1.519737 2.864612 0.011739 0.008916 -33094.300000 0 0 1
-0.324967 -8.812355 -30.671670 31.914174 1.533937 2.861636 0.005332 0.005729 -353914.000000 0 0 1
-0.178367 -10.360655 -30.725760 32.426028 1.553582 2.816323 0.007022 0.009821 67676.900000 0 0 1
1.149633 -10.752555 -30.441250 32.304934 -1.464284 2.800261 -0.000090 0.008531 -13712.700000 0 0 1
1.250033 -12.146055 -30.172180 32.549188 -1.468241 2.757055 0.016180 0.002033 -70219.200000 0 0 1
2.639033 -12.423655 -29.590230 32.200829 -1.361487 2.736149 0.018497 0.004868 902135.000000 0 0 1
3.737933 -12.366655 -30.586750 33.203246 -1.277268 2.741944 0.031670 -0.003582 1740140.000000 0 0 1
5.058833 -12.736555 -30.161210 33.128691 -1.192715 2.715108 0.021845 0.002582 1099070.000000 0 0 1
5.292133 -14.195355 -29.619660 33.269190 -1.213949 2.668806 0.014852 -0.003270 -930617.000000 0 0 1
4.682733 -14.494555 -28.377140 32.206865 -1.258312 2.648958 0.026967 -0.004963 -3886.740000 0 0 1
5.330033 -15.571855 -27.696700 32.217993 -1.241010 2.605411 0.030007 -0.004894 177210.000000 0 0 1
4.975033 -17.059455 -28.217850 33.347009 -1.287037 2.579588 0.018027 -0.009143 177490.000000 0 0 1
5.620333 -17.393155 -29.464250 34.673506 -1.258252 2.586331 0.031300 -0.024229 372356.000000 0 0 1
5.198233 -18.706755 -29.613190 35.410525 -1.299755 2.561263 0.031276 -0.018564 -150023.000000 0 0 1
5.310433 -19.320555 -31.051000 36.954690 -1.302561 2.568532 0.029669 -0.028518 -340227.000000 0 0 1
6.657633 -19.526555 -31.425000 37.591768 -1.242204 2.560666 0.020139 -0.019347 33295.300000 0 0 1
6.689033 -20.140855 -32.694370 38.978443 -1.250145 2.565836 0.027969 -0.017094 163528.000000 0 0 1
8.106433 -20.197855 -33.307190 39.787391 -1.189126 2.562810 0.020716 -0.017032 223541.000000 0 0 1
8.651533 -18.899555 -33.603090 39.512148 -1.141505 2.587636 0.006806 -0.024225 -405302.000000 0 0 1
9.917533 -19.096655 -34.169609 40.380711 -1.091802 2.579584 -0.007827 -0.015775 -709058.000000 0 0 1
10.402433 -17.746455 34.444770 40.119689 -1.040608 0.538361 -0.023655 -0.008766 -300672.000000 0 0 1
9.670233 -17.274755 33.288975 38.730949 -1.060468 0.536520 -0.006908 -0.014157 461537.000000 0 0 1
10.137933 -15.997655 32.860149 37.927458 -1.005956 0.522860 -0.028341 -0.008604 -54713.400000 0 0 1
9.172933 -15.358655 31.848929 36.529238 -1.032402 0.511778 -0.012148 -0.013703 1761.030000 0 0 1
9.306133 -16.084255 30.667069 35.857726 -1.046271 0.544777 -0.026002 -0.009683 405970.000000 0 0 1
8.095033 -15.895355 29.937559 34.848950 -1.099760 0.537354 -0.024377 -0.010116 156758.000000 0 0 1
8.069233 -16.674555 28.608269 34.082053 -1.120091 0.574629 -0.023563 -0.001860 -821200.000000 0 0 1
7.983833 -18.079155 28.834489 34.957477 -1.154946 0.600869 -0.021730 -0.011766 343750.000000 0 0 1
7.495533 -18.674655 27.630329 34.181294 -1.189105 0.629458 -0.014287 -0.001740 -129832.000000 0 0 1
6.778333 -19.995855 27.931339 35.013422 -1.243966 0.647271 0.000559 -0.005193 -512790.000000 0 0 1
7.639733 -20.836655 28.673569 36.258865 -1.219367 0.658679 -0.004648 -0.001851 385362.000000 0 0 1
7.038633 -21.947955 29.324109 37.298237 -1.260462 0.666151 -0.003781 0.002947 -211075.000000 0 0 1
7.599533 -22.100555 30.755829 38.627820 -1.239600 0.649793 -0.000730 -0.003218 -298579.000000 0 0 1
7.194733 -21.147855 31.765809 38.833781 -1.242869 0.612881 0.020619 -0.008971 139997.000000 0 0 1
7.477333 -19.770855 31.496769 37.932093 -1.209223 0.591068 0.007014 -0.016526 -459687.000000 0 0 1
6.917233 -18.952055 32.661029 38.389729 -1.220834 0.553338 0.016785 -0.018916 34311.200000 0 0 1
5.519533 -19.136255 32.831759 38.400337 -1.289985 0.545272 0.031838 -0.026997 -231943.000000 0 0 1
5.027733 -18.077355 33.597365 38.481837 -1.299529 0.509331 0.033021 -0.022069 273471.000000 0 0 1
3.518833 -18.169955 33.933511 38.652459 -1.379502 0.499310 0.043886 -0.023598 257077.000000 0 0 1
3.355633 -19.234755 -34.281278 39.451769 -1.398078 2.623856 0.041116 -0.023235 -76915.400000 0 0 1
2.482133 -18.869155 -33.230010 38.294119 -1.440003 2.621469 0.026923 -0.032455 -65899.100000 0 0 1
1.952433 -19.977755 -32.250470 37.987044 -1.473375 2.584860 0.012409 -0.012283 -228585.000000 0 0 1
0.824133 -20.775355 -32.667820 38.723133 -1.531148 2.574796 -0.007477 -0.008242 788531.000000 0 0 1
0.141633 -21.395355 -31.584220 38.148974 -1.564177 2.546181 -0.013383 -0.008514 375491.000000 0 0 1
-0.579567 -20.456355 -30.581160 36.796816 1.542472 2.551846 -0.006368 -0.007926 -1012820.000000 0 0 1
-1.557167 -19.622455 -31.105000 36.810141 1.491606 2.577383 -0.003203 -0.010406 -200535.000000 0 0 1
-2.211367 -18.758255 -30.174060 35.598261 1.453450 2.582294 0.014600 -0.007577 362077.000000 0 0 1
-2.106467 -17.257055 -30.579130 35.175650 1.449333 2.624635 0.010269 -0.004698 47406.300000 0 0 1
-2.984267 -16.420855 -29.845490 34.195081 1.391022 2.631708 0.016385 -0.005406 -276801.000000 0 0 1
-3.060767 -15.109555 -30.371940 34.060559 1.370929 2.671893 0.030648 -0.003415 319868.000000 0 0 1
-4.033867 -14.106955 -29.655170 33.086362 1.292280 2.682141 0.031332 0.004061 251791.000000 0 0 1
-3.608867 -13.823355 -28.328970 31.727584 1.315426 2.674500 0.017430 0.000794 35019.700000 0 0 1
-4.528967 -12.918955 -27.762240 30.954045 1.233616 2.683473 0.019040 0.002840 -411585.000000 0 0 1
-4.330367 -12.706555 -26.262850 29.494845 1.242343 2.669067 0.005507 0.000401 -143166.000000 0 0 1
-4.977667 -13.768055 -25.540640 29.439103 1.223880 2.621102 0.006751 0.005156 418778.000000 0 0 1
-4.826167 -13.471855 -24.126120 28.050890 1.226799 2.606231 0.006020 0.006125 -631511.000000 0 0 1
-5.840967 -12.521855 -23.454720 27.222006 1.134337 2.609227 0.002692 0.000446 -307514.000000 0 0 1
-7.091167 -13.162855 -23.531120 27.879365 1.076650 2.575557 0.001601 0.000424 529553.000000 0 0 1
-8.263167 -12.471155 -23.068720 27.495008 0.985627 2.566266 -0.003809 0.001343 1808460.000000 0 0 1
-9.646067 -13.176655 -23.354820 28.497692 0.938878 2.531393 0.008428 -0.000964 854798.000000 0 0 1
-9.995867 -14.039555 -22.268120 28.158402 0.952076 2.482938 0.008714 -0.000661 10121.700000 0 0 1
-11.063667 -14.889155 -22.678520 29.298582 0.931746 2.456007 0.013103 -0.001116 223693.000000 0 0 1
-11.555767 -15.903955 -21.616120 29.218627 0.942442 2.403579 0.024495 -0.007739 -496368.000000 0 0 1
-10.772367 -17.042355 -21.492620 29.468940 1.007112 2.388140 0.022637 -0.003642 -660784.000000 0 0 1
-11.403967 -18.308255 -21.658920 30.567163 1.013718 2.358263 0.019044 0.000251 61872.800000 0 0 1
-11.966567 -18.660955 -23.057620 31.985681 1.000588 2.375858 0.009384 0.001712 221378.000000 0 0 1
-13.069967 -17.850955 -23.399820 32.202984 0.938803 2.384208 0.013726 -0.004332 -362405.000000 0 0 1
-13.373667 -18.143055 -24.759620 33.482296 0.935587 2.403100 0.015233 -0.002097 387144.000000 0 0 1
-14.627867 -17.446955 -25.369910 34.088166 0.873064 2.410198 0.016107 -0.006696 770808.000000 0 0 1
-15.899267 -17.881355 -24.876620 34.516311 0.844006 2.375638 0.020363 -0.009105 857052.000000 0 0 1
-17.030267 -17.341555 -25.550610 35.264616 0.794454 2.381162 0.017140 -0.010445 364904.000000 0 0 1
-17.578367 -16.051655 -24.946220 34.481422 0.740032 2.379610 0.013209 -0.003010 -476130.000000 0 0 1
-18.460567 -16.231855 -23.847420 34.248578 0.721244 2.341031 0.017556 -0.006376 415089.000000 0 0 1
-19.233367 -15.054055 -23.593120 33.958538 0.664106 2.338886 0.013662 -0.007608 435877.000000 0 0 1
-19.988767 -15.112955 -22.253620 33.513815 0.647376 2.296970 0.008791 -0.019309 257784.000000 0 0 1
-19.070267 -14.840655 -21.181620 32.133800 0.661312 2.290510 0.005141 -0.012833 306995.000000 0 0 1
-19.605167 -14.748155 -19.904320 31.591970 0.644945 2.252406 -0.001457 -0.012020 -596798.000000 0 0 1
-19.922467 -13.328555 -19.387120 30.828809 0.589631 2.250887 0.006975 -0.015592 -812551.000000 0 0 1
-21.141867 -12.859955 -19.852220 31.724874 0.546478 2.246904 0.006627 -0.022199 -689126.000000 0 0 1
-21.621167 -11.869155 -19.000320 31.134609 0.502044 2.227190 0.011587 -0.013796 -23940.800000 0 0 1
-23.137467 -11.664655 -19.208720 32.254945 0.466959 2.208719 0.026462 -0.014468 -31750.300000 0 0 1
-23.448667 -10.789255 -20.293520 32.834052 0.431240 2.237073 0.037922 -0.024642 532875.000000 0 0 1
-24.870967 -10.825155 -20.472720 33.983543 0.410523 2.217339 0.026636 -0.026888 166410.000000 0 0 1
-25.392897 -9.721155 -21.372520 34.584457 0.365617 2.236968 0.044610 -0.020054 -271381.000000 0 0 1
-25.129117 -10.014155 -22.733620 35.335156 0.379220 2.269690 0.021280 -0.018999 68759.100000 0 0 1
-25.785527 -9.048155 -23.496920 36.039808 0.337477 2.280978 0.030796 -0.019745 -509372.000000 0 0 1
-25.920197 -9.363555 -24.984220 37.198710 0.346658 2.307219 0.020368 0.001174 416184.000000 0 0 1
-24.757067 -9.446155 -25.819560 36.997187 0.364504 2.343228 0.007471 -0.003220 211012.000000 0 0 1
-24.182367 -10.727155 -25.850830 36.988162 0.417514 2.344647 0.003436 0.005612 43388.200000 0 0 1
-23.064767 -10.859855 -26.921980 37.077121 0.440050 2.383440 -0.010307 0.023658 22745.300000 0 0 1
-23.522167 -11.094355 -28.234250 38.386845 0.440716 2.397229 -0.011680 0.023099 -239926.000000 0 0 1
-22.529367 -11.072755 -29.251930 38.546772 0.456809 2.432370 -0.023261 0.022452 -46443.700000 0 0 1
-22.993867 -11.414155 -30.658600 39.986880 0.460763 2.444507 -0.029928 0.017088 -97915.100000 0 0 1
-23.661267 -10.363055 -31.340860 40.614012 0.412809 2.452268 -0.026996 0.021309 193025.000000 0 0 1
-22.795167 -9.429355 -31.979240 40.388168 0.392223 2.484542 -0.022334 0.011654 -252456.000000 0 0 1
-23.619767 -8.380455 -32.695720 41.196304 0.340951 2.487593 -0.032722 0.011770 17459.900000 0 0 1
-24.433467 -8.815655 -33.842530 42.661773 0.346266 2.486966 -0.003714 0.009743 2086320.000000 0 0 1
-25.802607 -9.200955 -33.587820 43.342516 0.342534 2.457415 -0.007235 0.009562 1116250.000000 0 0 1
-26.829207 -8.201555 -32.963860 43.286117 0.296673 2.436473 -0.007035 0.015072 -411070.000000 0 0 1
-28.126817 -8.755755 -32.919090 44.175191 0.301787 2.411622 -0.007874 0.009400 -78625.500000 0 0 1
-28.838497 -8.199055 -31.828040 43.725365 0.277000 2.386062 -0.003697 0.010550 233038.000000 0 0 1
-30.261557 -8.817055 -31.713840 44.713196 0.283513 2.359262 0.004271 -0.003379 210748.000000 0 0 1
-30.348727 -10.216955 -31.522910 44.934677 0.324734 2.348335 -0.005170 -0.008119 -77269.900000 0 0 1
-31.700247 -10.609155 -31.497020 45.929534 0.322954 2.326455 -0.006837 -0.008827 -85035.000000 0 0 1
-31.753017 -12.160755 -31.559010 46.390830 0.365748 2.318948 -0.005132 -0.013383 -831794.000000 0 0 1
-33.075607 -12.609055 -31.664790 47.493610 0.364212 2.300591 0.015817 -0.016127 -368878.000000 0 0 1
-33.101857 -14.036255 -31.764010 47.976053 0.401051 2.294388 0.019026 -0.019624 -111742.000000 0 0 1
-34.436601 -14.760055 -31.534340 48.970943 0.404929 2.270433 0.009381 -0.026819 -223936.000000 0 0 1
-34.830357 -14.672755 -30.179700 48.365874 0.398701 2.244631 0.011979 -0.021366 -29894.700000 0 0 1
34.538024 -15.688855 -29.842060 48.265555 -0.426382 2.237360 0.013892 -0.014732 114209.000000 0 0 1
34.542976 -15.714655 -28.305470 47.343080 -0.426947 2.211650 0.004154 0.001014 103627.000000 0 0 1
-34.483322 -16.081355 -27.806860 47.126754 0.436368 2.201910 0.000635 -0.016321 -3641.660000 0 0 1
-34.578443 -16.201355 -26.387260 46.415947 0.438164 2.175472 -0.009061 -0.013558 392327.000000 0 0 1
-33.319367 -15.717355 -25.580480 44.850601 0.440767 2.177727 0.003614 -0.017434 818511.000000 0 0 1
-32.180727 -16.514255 -25.918280 44.498056 0.474130 2.192546 -0.001240 -0.020669 49804.600000 0 0 1
-31.013447 -15.949555 -25.383950 43.134291 0.475005 2.199982 0.004963 -0.014321 -412701.000000 0 0 1
-29.764867 -16.817455 -25.350690 42.560916 0.514294 2.208850 -0.007345 -0.006553 -387650.000000 0 0 1
-29.724077 -17.909555 -24.498320 42.478707 0.542275 2.185504 -0.004348 -0.007761 -42908.700000 0 0 1
-30.162447 -19.093055 -25.132480 43.657296 0.564337 2.184228 -0.013257 -0.012285 -551940.000000 0 0 1
-30.031707 -20.383255 -24.278520 43.667231 0.596304 2.160349 -0.013075 -0.011245 -786763.000000 0 0 1
-28.750137 -20.937455 -24.293920 43.071359 0.629439 2.170065 -0.014605 -0.006932 -405618.000000 0 0 1
-28.773867 -22.069255 -23.496120 43.209433 0.654286 2.145723 -0.024626 0.009063 -423272.000000 0 0 1
-27.527597 -22.976655 -23.600720 42.926556 0.695531 2.152913 -0.011464 0.002143 832987.000000 0 0 1
-26.294797 -22.453255 -23.050020 41.555606 0.706757 2.158773 0.001540 -0.008927 843091.000000 0 0 1
-26.183847 -22.358755 -21.597920 40.644531 0.706762 2.131032 -0.002479 -0.009726 -390340.000000 0 0 1
-26.217527 -23.637555 -20.765820 40.955000 0.733695 2.102543 -0.004826 -0.004809 -141791.000000 0 0 1
-26.097637 -23.297555 -19.369620 39.988059 0.728771 2.076456 -0.012410 -0.003779 82798.700000 0 0 1
-25.926137 -24.413955 -18.452220 40.108480 0.755368 2.048857 -0.016747 0.020387 -303515.000000 0 0 1
-25.823547 -23.987855 -16.974220 39.120288 0.748562 2.019611 -0.026920 0.026617 443099.000000 0 0 1
-27.031917 -23.379055 -16.516520 39.371311 0.713063 2.003698 -0.029906 0.014976 273324.000000 0 0 1
-26.734807 -22.316555 -15.635620 38.173959 0.695567 1.992799 -0.031735 0.012436 -22337.600000 0 0 1
-27.959837 -21.648355 -14.972720 38.400340 0.658851 1.971331 -0.033052 0.011534 -18130.800000 0 0 1
-28.864337 -21.020655 -15.822320 39.055905 0.629440 1.987906 -0.034696 0.011606 -700776.000000 0 0 1
-29.900317 -20.394055 -15.141420 39.232754 0.598590 1.967021 -0.020804 0.011418 -325663.000000 0 0 1
-30.949737 -19.853955 -16.137220 40.155642 0.570370 1.984351 -0.009534 -0.001475 -17696.700000 0 0 1
-31.862837 -20.789655 -16.736020 41.563740 0.578112 1.985216 -0.017383 0.001920 464998.000000 0 0 1
-32.572017 -20.095455 -17.794520 42.206736 0.552793 2.006010 -0.009629 -0.001007 167565.000000 0 0 1
-33.123297 -21.136755 -18.787220 43.553127 0.567981 2.016800 -0.020364 0.002333 34480.500000 0 0 1
-34.270426 -21.895455 -18.484420 44.671544 0.568534 1.997404 -0.014204 0.004060 -123993.000000 0 0 1
-34.113300 -22.798755 -17.376220 44.558203 0.589149 1.971392 -0.004627 0.003642 -385964.000000 0 0 1
-34.953142 -24.090055 -17.513920 45.921566 0.603448 1.962093 -0.011734 0.014293 143025.000000 0 0 1
33.968802 -23.832255 -17.230520 44.930465 -0.611794 1.964372 -0.011358 0.005538 103546.000000 0 0 1
33.258262 -25.068435 -17.230920 45.071532 -0.645897 1.963082 -0.012618 0.009192 54324.300000 0 0 1
31.846142 -24.908555 -16.634020 43.718457 -0.663763 1.961112 -0.005348 0.003943 -297333.000000 0 0 1
30.860822 -24.383955 -17.479620 43.040733 -0.668691 1.988998 0.005858 0.000506 -622818.000000 0 0 1
29.635642 -24.553755 -16.840820 42.009182 -0.691892 1.983278 0.021371 0.001165 216459.000000 0 0 1
28.305042 -24.402355 -17.644220 41.327579 -0.711489 2.011898 0.040623 -0.000481 503607.000000 0 0 1
27.958182 -23.186855 -18.240420 40.644841 -0.692377 2.036191 0.044868 0.002795 -62413.300000 0 0 1
26.768992 -23.337055 -18.975020 40.264730 -0.717012 2.061511 0.049038 -0.003812 -176375.000000 0 0 1
33.327892 30.864145 -18.849920 49.179908 0.747036 1.964147 0.012038 0.003851 504900.000000 0 0 1
32.299702 30.604045 -19.815020 48.708452 0.758448 1.989754 0.003499 -0.001654 115364.000000 0 0 1
32.863402 29.992945 -20.886320 49.150975 0.739763 2.009694 0.013301 0.010197 -221158.000000 0 0 1
31.997582 29.999645 -22.163120 49.142933 0.753183 2.038674 0.021862 0.009559 -760355.000000 0 0 1
30.898912 29.117945 -22.181820 47.902303 0.755732 2.052245 0.016143 0.005254 197477.000000 0 0 1
30.008872 29.420845 -23.254720 48.030204 0.775504 2.076209 0.023072 0.012316 42052.800000 0 0 1
28.992822 30.519745 -22.991820 47.965220 0.811050 2.070703 0.011426 0.016120 -1181780.000000 0 0 1
29.487932 31.860645 -23.037720 49.146469 0.824055 2.058679 0.030548 0.001351 399753.000000 0 0 1
28.401222 32.782145 -23.285020 49.228961 0.856879 2.063483 0.027047 0.004244 196821.000000 0 0 1
28.685142 34.284745 -23.020420 50.281416 0.874090 2.046351 0.036207 0.000541 121441.000000 0 0 1
29.163212 34.566145 -21.696420 50.160203 0.869975 2.018107 0.037248 -0.006087 654152.000000 0 0 1
30.571652 34.320245 -21.587220 50.779062 0.843101 2.009891 0.026600 -0.007959 246697.000000 0 0 1
31.068882 34.062545 -20.192220 50.331483 0.831329 1.983606 0.026990 -0.015796 -258209.000000 0 0 1
30.885722 -34.018949 -19.358620 49.859531 -0.833635 1.969542 0.022262 -0.015635 60241.700000 0 0 1
31.465852 -34.323849 -18.098220 49.957702 -0.828812 1.941499 -0.000750 -0.022289 -233121.000000 0 0 1
31.538202 -33.106849 -17.139020 48.831011 -0.809659 1.929421 -0.001973 -0.013146 -78520.200000 0 0 1
32.678822 -32.279649 -17.195520 49.046580 -0.779253 1.929003 0.002968 -0.011785 64668.500000 0 0 1
33.700622 -32.774349 -16.295620 49.753765 -0.771465 1.904480 -0.003765 -0.011139 -293972.000000 0 0 1
34.895517 -31.844349 -16.396820 50.006153 -0.739713 1.904872 -0.014745 0.003615 -634872.000000 0 0 1
-34.676124 -32.090549 -17.599520 50.418052 0.746692 1.927377 -0.009827 -0.001934 -656634.000000 0 0 1
-33.476907 -31.372949 -17.670220 49.165047 0.752966 1.938428 -0.030474 0.017178 -452654.000000 0 0 1
-32.509947 -32.006649 -18.671420 49.294463 0.777597 1.959267 -0.043875 0.012121 -1267310.000000 0 0 1
-31.950057 -33.243549 -18.244020 49.586126 0.805236 1.947574 -0.025880 0.003155 219578.000000 0 0 1
-31.047127 -33.839849 -19.149320 49.756968 0.828411 1.965849 -0.040346 0.011248 200683.000000 0 0 1
-29.840377 -33.050849 -19.711020 48.696314 0.836402 1.987528 -0.041205 0.013692 -1713960.000000 0 0 1
-30.022287 -32.077049 -20.686820 48.561500 0.818474 2.010855 -0.046147 0.018493 -465771.000000 0 0 1
-28.836137 -31.796149 -21.389020 47.958399 0.834179 2.033078 -0.033634 0.011252 199241.000000 0 0 1
-27.995567 -32.898549 -22.107320 48.526280 0.865741 2.043813 -0.028615 0.023546 -764594.000000 0 0 1
-28.829717 -33.601349 -22.944820 49.866501 0.861680 2.048932 -0.033545 0.030596 -669664.000000 0 0 1
-28.149537 34.588845 -23.655020 50.481131 -0.887677 2.058492 -0.029562 0.014731 -250546.000000 0 0 1
-28.880187 33.918945 -24.853620 51.012375 -0.865463 2.079686 -0.033872 -0.000209 -483595.000000 0 0 1
-29.930727 33.021445 -24.506620 50.860974 -0.834455 2.073544 -0.036111 -0.000967 -5125.670000 0 0 1
-30.534067 32.394745 -25.635460 51.370473 -0.814958 2.093277 -0.021932 -0.000005 577567.000000 0 0 1
-31.454917 33.275545 -26.587910 52.948944 -0.813517 2.096871 -0.016971 -0.014235 -384079.000000 0 0 1
-30.756867 34.279945 -27.293770 53.535496 -0.839516 2.105778 -0.025812 -0.010838 -69128.200000 0 0 1
-31.679877 -34.061949 -27.940280 54.263157 0.821616 2.111691 -0.024269 -0.011902 117183.000000 0 0 1
-30.996627 -33.313849 -29.054530 53.988601 0.821414 2.139049 -0.007217 -0.014656 -185781.000000 0 0 1
-30.718767 -34.078249 -30.240680 54.949690 0.837198 2.153560 -0.002073 -0.014008 -75143.500000 0 0 1
-31.810847 -34.390249 -31.086650 56.222762 0.824342 2.156660 0.003801 -0.008648 -210515.000000 0 0 1
-31.360457 34.209945 -32.435590 56.620368 -0.828828 2.180788 0.016859 -0.003633 -105444.000000 0 0 1
-30.810687 -34.089949 -33.338970 56.770678 0.835883 2.198462 0.039478 -0.030639 -166921.000000 0 0 1
-31.053407 -34.571249 34.534477 57.897456 0.838952 0.931692 0.032423 -0.035686 555592.000000 0 0 1
-29.801727 -34.234349 33.616826 56.482073 0.854509 0.933311 0.033920 -0.033564 1099200.000000 0 0 1
-28.609997 34.234245 33.821337 55.985697 -0.874655 0.922152 0.042949 -0.028558 4085.380000 0 0 1
-28.574907 32.916645 33.228227 54.810089 -0.855888 0.919469 0.051907 -0.031214 -271391.000000 0 0 1
-27.187747 32.234645 33.317005 53.742616 -0.870127 0.902135 0.036293 -0.020826 -66701.100000 0 0 1
-26.743207 32.010645 -34.489428 54.123942 -0.874812 2.261696 0.034658 -0.026282 421419.000000 0 0 1
-25.397527 31.603645 -34.304406 53.109481 -0.893848 2.273022 0.026252 -0.022186 -58742.700000 0 0 1
-24.881367 30.244245 34.212489 52.002800 -0.882378 0.852773 0.031647 -0.026123 -522668.000000 0 0 1
-25.264767 29.129145 -34.211361 51.548353 -0.856323 2.296518 0.035513 -0.022317 118832.000000 0 0 1
-24.787467 27.897645 34.506112 50.826852 -0.844363 0.824539 0.029927 -0.023296 -421426.000000 0 0 1
-24.699267 26.746045 -33.634430 49.564903 -0.825163 2.316643 0.038650 -0.031971 -236022.000000 0 0 1
-23.581167 26.761345 -32.750110 48.423245 -0.848485 2.313566 0.033409 -0.017274 128599.000000 0 0 1
-23.685567 27.714645 -31.707050 48.316091 -0.863625 2.286624 0.023126 -0.010654 881562.000000 0 0 1
-22.425967 27.672645 -30.728830 47.042111 -0.889745 2.282625 0.039852 -0.002440 519105.000000 0 0 1
-21.291767 28.279845 -31.223080 47.201374 -0.925445 2.293596 0.029711 -0.007869 -134432.000000 0 0 1
-20.131467 28.325045 -30.381260 46.158478 -0.952905 2.289214 0.014891 -0.002569 739160.000000 0 0 1
-20.098067 29.569045 -29.430720 46.307969 -0.973825 2.259508 0.010937 0.006587 -422476.000000 0 0 1
-19.587867 30.682345 -30.133200 47.255693 -1.002613 2.262257 0.003496 0.014101 95651.100000 0 0 1
-19.289167 31.659445 -29.165750 47.170259 -1.023588 2.237384 0.010158 0.007155 -262593.000000 0 0 1
-18.922767 33.005545 -29.776880 48.312521 -1.050225 2.234881 0.009802 0.015149 12516.700000 0 0 1
-17.725067 32.874345 -30.513200 48.228165 -1.076301 2.255811 0.007799 0.009810 -213459.000000 0 0 1
-17.455867 34.055445 -31.256800 49.411215 -1.097142 2.255683 0.007272 0.020853 -822762.000000 0 0 1
-16.021767 34.316345 -31.625490 49.340451 -1.133990 2.266551 0.017251 0.015224 -1845010.000000 0 0 1
-15.138267 -34.394949 -30.650160 48.493421 1.156180 2.254989 0.038961 0.008420 42175.400000 0 0 1
-13.787667 -34.446349 -31.080130 48.400673 1.190062 2.268086 0.052802 0.016571 351494.000000 0 0 1
-13.143667 33.367245 -31.139050 47.494941 -1.195552 2.285811 0.054616 0.006260 -1184750.000000 0 0 1
-12.896067 32.890045 -29.809910 46.224391 -1.197122 2.271683 0.058882 -0.007742 -39013.100000 0 0 1
-12.626667 31.514045 -29.818430 45.185246 -1.189714 2.291502 0.048733 -0.011853 -224351.000000 0 0 1
-12.350367 30.895145 -28.450420 43.777482 -1.190505 2.278232 0.041406 -0.025264 -194828.000000 0 0 1
-11.159367 31.395245 -27.898890 43.457346 -1.229277 2.267879 0.031292 -0.014830 -333561.000000 0 0 1
-10.943167 30.666045 -26.692190 42.102639 -1.228032 2.257484 0.021318 -0.022765 -1109860.000000 0 0 1
-9.654367 31.022545 -26.029100 41.630747 -1.269092 2.246232 0.016528 -0.010243 -721010.000000 0 0 1
-8.546767 30.322345 -26.569550 41.212047 -1.296060 2.271432 0.020095 -0.006183 -286648.000000 0 0 1
-7.316167 30.872045 -26.176830 41.131933 -1.338105 2.260633 0.019190 -0.010107 -634813.000000 0 0 1
-6.177167 29.947945 -26.534310 40.485879 -1.367386 2.285504 -0.001029 -0.005444 -689568.000000 0 0 1
-6.022267 28.884245 -25.561970 39.038207 -1.365244 2.284706 0.001570 -0.012607 590536.000000 0 0 1
-4.730067 28.265845 -25.690820 38.488307 -1.404991 2.301638 0.000920 -0.012163 745595.000000 0 0 1
-4.453267 27.021145 -24.865120 36.989837 -1.407458 2.307993 0.005774 -0.013694 -61952.600000 0 0 1
-5.302667 25.915745 -25.226310 36.552850 -1.368970 2.332468 0.018252 -0.011300 -50668.900000 0 0 1
-5.062967 24.756045 -24.455520 35.164867 -1.369064 2.339847 0.020924 -0.018579 -357626.000000 0 0 1
-5.865067 23.431045 -24.701220 34.547983 -1.325524 2.367396 0.024318 -0.021584 -62931.900000 0 0 1
-5.718167 22.741045 -25.901100 34.938797 -1.324456 2.405843 0.018293 -0.020634 -463594.000000 0 0 1
-6.708367 21.788845 -26.064570 34.628280 -1.272125 2.422944 0.021094 -0.022747 -579284.000000 0 0 1
-6.472267 20.988845 -27.257350 35.005499 -1.271681 2.463322 0.015598 -0.021821 472102.000000 0 0 1
-5.269967 20.191045 -27.238270 34.312887 -1.315487 2.487862 0.023447 -0.021904 328746.000000 0 0 1
-5.304467 18.953845 -26.478500 32.992371 -1.297915 2.502378 0.025527 -0.020095 -842803.000000 0 0 1
-4.131867 18.022145 -26.730580 32.502214 -1.345425 2.536454 0.026779 -0.022359 -359427.000000 0 0 1
-4.105467 17.528345 -28.017480 33.302806 -1.340725 2.570470 0.013408 -0.023386 -479899.000000 0 0 1
-3.153067 16.539245 -28.229950 32.869720 -1.382415 2.603804 0.010990 -0.017849 -847405.000000 0 0 1
-2.845867 16.381145 -29.727830 34.061485 -1.398785 2.631644 0.002360 -0.020102 -63990.700000 0 0 1
-2.037467 17.442545 -30.204520 34.938613 -1.454513 2.614956 0.001822 -0.023133 135830.000000 0 0 1
-1.949667 17.241145 -31.574590 36.027947 -1.458192 2.639114 -0.005722 -0.028817 9411.640000 0 0 1
-1.181667 18.392145 -32.279220 37.170087 -1.506636 2.622802 0.001287 -0.011613 732766.000000 0 0 1
0.185133 18.470745 -31.827860 36.799665 1.560774 2.615738 0.005433 -0.015276 797012.000000 0 0 1
0.865233 19.627245 -32.294780 37.801193 1.526742 2.595061 0.009309 0.000555 132071.000000 0 0 1
0.497533 20.960745 -31.680760 37.990405 1.547064 2.556960 0.003311 0.001759 -385621.000000 0 0 1
0.936033 21.038745 -30.345220 36.936937 1.526335 2.534905 0.017551 -0.016407 -263764.000000 0 0 1
0.847933 22.324345 -29.805190 37.248419 1.532832 2.498380 0.018642 -0.010243 15161.500000 0 0 1
1.708033 22.529345 -28.509830 36.377179 1.495127 2.471443 0.025810 -0.011069 1171750.000000 0 0 1
3.099833 22.651045 -28.863690 36.821073 1.434790 2.471704 0.022529 -0.012413 379056.000000 0 0 1
3.961433 22.922245 -27.789990 36.240941 1.399666 2.444656 0.020808 -0.013736 134987.000000 0 0 1
4.257533 24.404145 -27.443410 36.970659 1.398075 2.407296 0.027438 -0.011654 -391136.000000 0 0 1
4.953433 25.068445 -28.436910 38.231156 1.375713 2.409557 0.018678 -0.014778 -82118.300000 0 0 1
5.268733 26.392945 -28.093180 38.904676 1.373760 2.377634 0.023721 -0.011225 -22801.000000 0 0 1
6.037033 27.094645 -29.257360 40.330617 1.351565 2.382467 0.038102 -0.013103 -401525.000000 0 0 1
7.364433 26.667845 -29.314890 40.308456 1.301358 2.385124 0.053917 -0.014354 -698221.000000 0 0 1
8.093433 27.348445 -30.298920 41.610884 1.283071 2.386414 0.072905 -0.026065 42803.900000 0 0 1
9.605433 27.076045 -30.187990 41.673628 1.229889 2.380947 0.064895 -0.023933 30569.100000 0 0 1
10.437833 27.963945 -30.880260 42.947887 1.213552 2.373183 0.061427 -0.022413 461585.000000 0 0 1
11.749233 28.045245 -30.298280 42.925121 1.174071 2.354405 0.050707 -0.029130 1158240.000000 0 0 1
12.728733 29.092845 -30.948050 44.341809 1.158368 2.343317 0.057168 -0.026160 -14113.700000 0 0 1
12.342433 30.447445 -30.881120 45.089091 1.185671 2.325251 0.055245 -0.019758 244244.000000 0 0 1
13.329733 31.351345 -31.400910 46.331477 1.168779 2.315487 0.090716 -0.027153 72075.600000 0 0 1
12.993633 32.843245 -31.285450 47.183605 1.194067 2.295692 0.085006 -0.028899 -436200.000000 0 0 1
11.834433 33.117545 -32.017950 47.560222 1.227592 2.309336 0.070387 -0.033152 -266485.000000 0 0 1
11.554533 34.504245 -31.875580 48.374608 1.247661 2.290194 0.061395 -0.027378 144317.000000 0 0 1
10.166533 -34.333749 -32.462340 48.331855 -1.282913 2.307237 0.008806 -0.015266 167182.000000 0 0 1
10.185033 -34.275549 -33.887500 49.263686 -1.281955 2.329360 0.010194 -0.001816 583782.000000 0 0 1
8.866033 -33.881949 -34.278286 49.006059 -1.314861 2.345452 0.006971 -0.001629 743145.000000 0 0 1
8.665433 -33.456749 33.382490 48.050332 -1.317361 0.802738 0.016133 0.012885 105837.000000 0 0 1
8.994933 -32.084249 33.244207 47.068940 -1.297460 0.786556 -0.014477 0.004359 131778.000000 0 0 1
9.013233 -31.729149 31.897719 45.885093 -1.294019 0.802147 0.003422 0.014860 -184496.000000 0 0 1
9.193833 -30.225049 31.660499 44.726584 -1.275510 0.784322 -0.023073 -0.002311 60566.800000 0 0 1
8.007433 -29.457249 31.641009 43.965918 -1.305377 0.767468 -0.027605 0.007446 -35897.600000 0 0 1
7.341133 -29.157549 32.867729 44.545959 -1.324148 0.740934 -0.018611 0.008043 -910563.000000 0 0 1
5.945033 -28.560649 32.763439 43.869089 -1.365572 0.727490 -0.028359 0.007228 -99685.100000 0 0 1
4.880933 -29.422849 32.366819 44.012936 -1.406404 0.744549 0.000318 -0.004412 41934.200000 0 0 1
5.038933 -30.174049 31.119169 43.637905 -1.405328 0.776854 -0.010048 -0.006697 -1223200.000000 0 0 1
4.602233 -29.411249 29.841969 42.151456 -1.415576 0.784177 -0.002313 -0.001231 266772.000000 0 0 1
3.217733 -29.405149 29.521929 41.791876 -1.461802 0.786392 0.013571 -0.011388 538202.000000 0 0 1
3.024633 -28.891449 28.183239 40.474179 -1.466487 0.800530 0.025492 -0.009515 576144.000000 0 0 1
1.571633 -29.203749 27.658199 40.253012 -1.517032 0.813294 0.026687 -0.018870 753708.000000 0 0 1
1.302333 -30.482549 27.133419 40.830188 -1.528098 0.843914 0.020754 -0.025594 218873.000000 0 0 1
1.073233 -31.574849 28.006329 42.219396 -1.536819 0.845507 0.028597 -0.022834 -309711.000000 0 0 1
0.912233 -32.938749 27.295179 42.788084 -1.543109 0.879008 0.018938 -0.023124 521074.000000 0 0 1
2.167933 -33.455749 26.833079 42.941835 -1.506087 0.895831 0.009612 -0.019498 577447.000000 0 0 1
2.601133 -32.971249 25.589879 41.817593 -1.492068 0.912285 0.016165 -0.024007 -1118140.000000 0 0 1
4.096133 -32.807449 25.764739 41.915734 -1.446585 0.908817 0.007610 -0.015851 -1319080.000000 0 0 1
4.785933 -32.568049 24.575229 41.079494 -1.424889 0.929498 0.012402 -0.024480 49360.900000 0 0 1
6.158033 -32.457749 24.915379 41.378774 -1.383300 0.924631 0.002978 -0.022177 -72073.300000 0 0 1
7.003833 -31.965049 23.695429 40.401626 -1.355096 0.944069 0.004737 -0.020405 -105015.000000 0 0 1
8.393133 -31.828249 23.898129 40.676808 -1.312965 0.942815 -0.002093 -0.012846 45899.500000 0 0 1
9.055533 -31.514049 22.695029 39.877341 -1.290986 0.965360 0.011528 -0.018432 33488.400000 0 0 1
10.129533 -30.405149 22.893329 39.385086 -1.249209 0.950509 0.010891 -0.013209 91024.400000 0 0 1
11.277933 -30.902249 23.578729 40.473414 -1.220861 0.948905 0.021010 -0.018548 93169.500000 0 0 1
12.309333 -29.968549 23.298529 39.905577 -1.181064 0.947344 0.025760 -0.016972 -8946.000000 0 0 1
13.614033 -30.185449 24.084329 40.945795 -1.147100 0.941965 0.045148 -0.018377 -96174.200000 0 0 1
13.404933 -29.896149 25.449789 41.486910 -1.149288 0.910385 0.032734 -0.006797 72926.200000 0 0 1
14.624833 -29.850149 26.148969 42.292856 -1.115228 0.904240 0.019283 -0.005391 -199893.000000 0 0 1
-10.447967 -13.911555 25.657489 30.999970 0.926638 0.595868 0.023177 -0.011392 -62075.000000 0 0 1
-9.071567 -14.222855 25.665099 30.712868 1.003034 0.581488 0.025929 -0.013669 -452489.000000 0 0 1
-8.630467 -14.702855 26.959999 31.898283 1.039996 0.563882 0.030001 -0.019937 562584.000000 0 0 1
-7.064767 -14.648955 26.878089 31.415513 1.121432 0.544150 0.046822 -0.015127 750794.000000 0 0 1
-6.353667 -15.605955 26.106879 31.072239 1.184158 0.573145 0.043773 -0.012089 277463.000000 0 0 1
-6.519067 -15.340155 24.722629 29.816555 1.168953 0.593197 0.030537 -0.008230 -314251.000000 0 0 1
-5.718467 -16.351555 23.740229 29.388309 1.234371 0.630366 0.030706 -0.009387 424393.000000 0 0 1
-6.293167 -17.611455 23.503229 30.036129 1.227603 0.672128 0.035120 -0.007826 -193241.000000 0 0 1
-6.731867 -18.362555 24.685139 31.493770 1.219403 0.670018 0.042579 -0.010435 31802.100000 0 0 1
-7.393767 -19.731955 24.428299 32.260806 1.212280 0.711761 0.051076 -0.012671 764157.000000 0 0 1
-8.686267 -19.743255 23.804829 32.123469 1.156322 0.736176 0.037344 -0.016360 405058.000000 0 0 1
-9.140467 -21.057155 23.644729 32.954895 1.161261 0.770608 0.030153 -0.017531 1426030.000000 0 0 1
-10.679067 -21.382455 23.909529 33.807062 1.107604 0.785217 0.035218 -0.015410 1392170.000000 0 0 1
-11.040767 -21.221255 25.251099 34.783016 1.091065 0.758366 0.033006 -0.013412 120203.000000 0 0 1
-12.442667 -21.082455 25.379279 35.261844 1.037621 0.767372 0.037660 -0.006829 55743.400000 0 0 1
-12.940767 -20.990155 26.821939 36.434413 1.018321 0.743402 0.036018 -0.007898 -381487.000000 0 0 1
-12.716167 -22.179555 27.580419 37.607354 1.050219 0.747518 0.037220 -0.006653 570374.000000 0 0 1
-11.471967 -22.130755 28.285249 37.701879 1.092559 0.722380 0.037387 -0.004237 568251.000000 0 0 1
-11.076367 -23.535955 28.865679 38.856846 1.130932 0.733445 0.033083 -0.002673 -191016.000000 0 0 1
-12.001967 -23.956155 29.846039 40.108984 1.106351 0.731574 0.045982 -0.005077 -189015.000000 0 0 1
-11.560667 -25.038985 30.650459 41.231668 1.138250 0.732699 0.034558 0.001462 30354.500000 0 0 1
-12.610567 -25.701405 31.631219 42.662895 1.114651 0.735609 0.049382 -0.018006 562462.000000 0 0 1
-12.817267 -24.767355 32.749119 43.014056 1.093242 0.705390 0.044344 -0.017310 -240929.000000 0 0 1
-13.759167 -25.275805 33.658314 44.283892 1.072293 0.707394 0.049091 -0.022896 -358908.000000 0 0 1
-13.565567 -24.667155 -34.104518 44.222294 1.067996 2.451530 0.050210 -0.028232 71405.500000 0 0 1
-13.720667 -23.254155 -33.981920 43.402572 1.037739 2.470186 0.051047 -0.023723 815262.000000 0 0 1
-15.091867 -22.846855 -34.163797 43.782511 0.987029 2.465953 0.047527 -0.025763 361354.000000 0 0 1
-15.376167 -21.374555 -33.902990 42.926808 0.947190 2.481256 0.041803 -0.019453 -206757.000000 0 0 1
-15.278167 -20.882255 -32.588740 41.611500 0.939153 2.470539 0.037383 -0.022778 -22384.500000 0 0 1
-15.637667 -19.529255 -32.551400 41.055110 0.895610 2.486302 0.027594 -0.025968 -423454.000000 0 0 1
-15.855267 -18.933655 -31.163080 39.761920 0.873656 2.471464 0.023351 -0.018203 213445.000000 0 0 1
-16.969167 -19.519455 -30.497950 39.988582 0.855177 2.438222 0.021281 -0.021634 162531.000000 0 0 1
-17.021867 -19.174155 -29.113370 38.794078 0.844790 2.419553 0.024452 -0.020861 59163.000000 0 0 1
-16.217967 -20.141755 -28.212180 38.270613 0.892898 2.399678 0.024277 -0.009775 -721522.000000 0 0 1
-14.847767 -20.032955 -28.398140 37.791928 0.932972 2.421029 0.020959 -0.004435 -1092240.000000 0 0 1
-14.271567 -21.047155 -27.631230 37.551900 0.974937 2.397665 0.023861 0.000271 670281.000000 0 0 1
-12.704567 -21.136655 -27.691800 37.080992 1.029592 2.414022 0.029867 -0.006617 385197.000000 0 0 1
-12.097767 -19.962455 -27.099510 35.766451 1.025958 2.430547 0.014060 -0.004353 1030480.000000 0 0 1
-10.667167 -19.915955 -27.290040 35.428519 1.079069 2.450084 -0.006411 -0.012759 1373010.000000 0 0 1
-9.786767 -20.890955 -26.456820 35.102366 1.132690 2.424477 0.011865 -0.003590 -593811.000000 0 0 1
-9.877167 -22.263255 -26.832170 36.237774 1.153233 2.404532 0.004478 -0.002758 97147.500000 0 0 1
-9.382967 -23.110855 -25.807600 35.891279 1.185130 2.373230 0.014633 -0.003808 -100333.000000 0 0 1
-9.415567 -24.608555 -26.161920 37.130579 1.205368 2.352645 0.019735 -0.006968 90322.300000 0 0 1
-8.348267 -24.958355 -27.041290 37.733863 1.248007 2.369757 0.002902 0.001601 334556.000000 0 0 1
-8.479967 -26.198075 -27.662410 39.031499 1.257753 2.358479 0.002063 -0.000729 -79182.100000 0 0 1
-8.289267 -27.481905 -26.875830 39.322732 1.277848 2.323299 0.005805 0.005380 -29951.900000 0 0 1
-9.396567 -27.714445 -26.033510 39.167966 1.243910 2.297839 0.015634 0.003674 -17294.500000 0 0 1
-9.238867 -28.967285 -25.365050 39.596035 1.262054 2.266070 0.046519 0.014149 -266403.000000 0 0 1
-10.256667 -29.301505 -24.254420 39.396120 1.234087 2.234013 0.046633 0.006705 -407356.000000 0 0 1
-10.351867 -28.432885 -23.113720 38.076688 1.221633 2.223115 0.037012 -0.002311 -32589.700000 0 0 1
-11.144167 -27.264985 -23.393820 37.614394 1.182782 2.242011 0.024835 0.005167 -74842.400000 0 0 1
-11.171567 -26.197665 -22.287920 36.164526 1.167712 2.234822 0.029334 -0.012703 -20811.100000 0 0 1
-11.827267 -26.553585 -21.074320 35.904095 1.151765 2.198097 0.031941 -0.017639 306339.000000 0 0 1
-11.919767 -25.485935 -20.189120 34.629673 1.133321 2.193213 0.022074 -0.016072 -459985.000000 0 0 1
-12.307867 -25.973165 -18.790420 34.339027 1.128272 2.149815 0.033325 -0.019078 24928.700000 0 0 1
-13.680267 -26.309135 -18.740720 35.078980 1.091291 2.134409 0.046592 -0.017301 -28070.400000 0 0 1
-14.101367 -26.552935 -17.408020 34.741129 1.082606 2.095640 0.047912 -0.016352 -223019.000000 0 0 1
-15.623967 -26.709595 -17.314620 35.458523 1.041511 2.080944 0.057584 -0.018604 -1004830.000000 0 0 1
-16.395767 -25.513875 -17.450220 34.989844 0.999626 2.092921 0.065109 -0.017217 59785.400000 0 0 1
-17.784367 -25.563425 -17.245320 35.597380 0.962965 2.076536 0.065349 -0.010281 -158986.000000 0 0 1
-18.544167 -26.361835 -18.308620 37.068019 0.957760 2.087388 0.054901 -0.002429 -1495340.000000 0 0 1
-18.338367 -27.785555 -18.356120 38.016837 0.987426 2.074693 0.055032 -0.004890 29159.300000 0 0 1
-18.891967 -28.595635 -17.294220 38.388889 0.986964 2.038122 0.062612 -0.008040 195356.000000 0 0 1
-20.401567 -28.938275 -17.249420 39.385152 0.956721 2.024133 0.048479 -0.001596 263494.000000 0 0 1
-20.730767 -30.074165 -17.997320 40.720064 0.967273 2.028597 0.052809 -0.000823 -14613.800000 0 0 1
-22.043867 -30.535865 -17.718520 41.621113 0.945523 2.010543 0.047082 0.007010 339311.000000 0 0 1
-22.511767 -31.627175 -18.719520 43.098472 0.952204 2.020105 0.027469 0.004039 14378.700000 0 0 1
-21.922967 -32.930215 -18.540020 43.689219 0.983435 2.009053 0.034877 0.001216 168002.000000 0 0 1
-21.968867 -33.587975 -19.781720 44.744828 0.991566 2.028736 0.022175 0.013259 -270550.000000 0 0 1
-21.308567 34.298690 -19.769320 44.958660 -1.014888 2.026086 0.026366 0.008791 -330698.000000 0 0 1
-22.082367 33.338648 -19.083320 44.308797 -0.985777 2.016053 0.015160 0.002333 369686.000000 0 0 1
-21.290067 32.144499 -19.017320 42.990629 -0.985806 2.029024 0.014612 -0.008362 65364.100000 0 0 1
-22.059167 30.864969 -18.693420 42.292991 -0.950273 2.028621 0.011281 -0.012519 -59483.100000 0 0 1
-22.696767 30.883599 -17.419820 42.099763 -0.937021 1.997393 0.000163 -0.012759 -79973.500000 0 0 1
-23.402867 29.722089 -17.058720 41.498152 -0.903792 1.994426 0.005046 -0.007103 -423893.000000 0 0 1
-22.602667 28.427729 -16.758920 39.998471 -0.899055 2.003128 0.002054 -0.010405 -222486.000000 0 0 1
-22.097367 27.850149 -17.940620 39.821982 -0.900069 2.038145 -0.005833 -0.012869 -47970.000000 0 0 1
-21.234967 26.778369 -17.658920 38.468718 -0.900345 2.047718 -0.003429 -0.009133 154484.000000 0 0 1
-20.462567 26.141289 -18.862820 38.182320 -0.906651 2.087503 0.009151 -0.012167 -583818.000000 0 0 1
-20.230067 24.778359 -18.520720 36.962680 -0.886110 2.095626 0.010675 -0.016832 200454.000000 0 0 1
-19.561967 24.027839 -19.562620 36.642921 -0.887494 2.133969 0.005850 -0.004600 599722.000000 0 0 1
-18.066967 24.374179 -19.824020 36.242346 -0.932929 2.149555 0.010031 -0.014061 -350455.000000 0 0 1
-17.226267 24.108739 -18.720520 35.049014 -0.950389 2.134268 0.023777 -0.013940 1132530.000000 0 0 1
-16.056767 25.004899 -18.682420 35.101247 -0.999963 2.132045 0.042333 -0.019936 917369.000000 0 0 1
-16.187467 26.297849 -17.830720 35.658737 -1.019026 2.094439 0.022626 -0.020457 -126201.000000 0 0 1
-17.140167 27.258469 -18.286320 37.029703 -1.009468 2.087283 0.016640 -0.016518 86256.000000 0 0 1
-17.007767 28.488239 -17.597920 37.557032 -1.032578 2.058462 0.026820 -0.023726 -685708.000000 0 0 1
-18.057467 29.529549 -17.923420 38.978396 -1.021960 2.048600 0.026964 -0.021899 -415134.000000 0 0 1
-18.183167 30.025709 -19.241920 40.030266 -1.026279 2.072231 0.027997 -0.025874 -38644.400000 0 0 1
-18.809167 29.181779 -20.170320 40.152245 -0.998261 2.097106 0.024504 -0.021073 -499569.000000 0 0 1
-18.799267 29.909359 -21.521820 41.366301 -1.009655 2.117968 0.030363 -0.023197 -73909.400000 0 0 1
-19.615467 31.037479 -21.648420 42.623300 -1.007184 2.103543 0.034559 -0.017679 -193694.000000 0 0 1
-19.687867 31.329889 -23.065620 43.602716 -1.009752 2.128212 0.035685 -0.014736 169620.000000 0 0 1
-20.425067 32.666479 -23.454020 45.104027 -1.012010 2.117645 0.033095 -0.010087 -70979.600000 0 0 1
-19.789567 33.836338 -23.029120 45.462788 -1.041583 2.101974 0.017268 -0.004494 -303064.000000 0 0 1
-19.686067 -34.485728 -24.131120 46.466306 1.052089 2.116857 0.023872 0.006019 -201254.000000 0 0 1
-18.441967 -33.594415 -24.004720 45.220763 1.068752 2.130381 0.045129 0.010909 -287020.000000 0 0 1
-18.512767 -32.622025 -22.922820 43.958784 1.054622 2.119359 0.038890 0.006306 -166726.000000 0 0 1
-17.965267 -33.158555 -21.750220 43.535189 1.074271 2.093934 0.044863 0.001424 -325304.000000 0 0 1
-17.904967 -32.116615 -20.607920 42.151526 1.062214 2.081626 0.055425 -0.005057 -356903.000000 0 0 1
-16.930867 -31.188305 -20.951120 41.210606 1.073452 2.104112 0.046622 -0.001526 -351134.000000 0 0 1
-16.747567 -30.264185 -19.888920 39.899511 1.065363 2.092635 0.051011 -0.005059 -213927.000000 0 0 1
-15.540967 -29.343275 -20.152820 38.841802 1.083730 2.116294 0.057710 -0.007266 381785.000000 0 0 1
-14.341167 -30.115185 -20.190120 38.990183 1.126361 2.115104 0.062408 -0.005263 1187520.000000 0 0 1
-13.174267 -29.234465 -20.351520 37.978936 1.147409 2.136326 0.043160 -0.007798 547612.000000 0 0 1
-11.839267 -29.971155 -20.611320 38.252645 1.194589 2.139833 0.048463 -0.003333 61767.000000 0 0 1
-11.270567 -30.513875 -19.452620 37.901539 1.216981 2.109753 0.047583 -0.001949 -5631.070000 0 0 1
-10.647267 -29.575365 -18.582120 36.515225 1.225237 2.104688 0.040055 -0.008612 -759909.000000 0 0 1
-9.941267 -30.276505 -17.407620 36.311441 1.253538 2.070765 0.032372 0.004503 -673377.000000 0 0 1
-10.778467 -30.805805 -16.458320 36.552008 1.234225 2.037865 0.039522 0.000280 -413704.000000 0 0 1
-11.298967 -32.070695 -16.828920 37.939540 1.232061 2.030377 0.039850 0.000774 -65632.400000 0 0 1
-12.310567 -32.709625 -15.855120 38.377786 1.210835 1.996688 0.051068 -0.002739 -333159.000000 0 0 1
-11.785067 -33.302225 -14.660220 38.247196 1.230667 1.964165 0.039672 0.007786 -859981.000000 0 0 1
-12.798867 -33.733055 -13.826120 38.637955 1.208160 1.936748 0.047905 0.011140 -1017350.000000 0 0 1
-12.419767 -34.212901 -12.406820 38.453899 1.222575 1.899315 0.034815 0.010260 -128880.000000 0 0 1
-11.903267 -33.171135 -11.606020 37.104065 1.226264 1.888932 0.032786 0.013834 37932.300000 0 0 1
-11.613367 -33.725405 -10.280920 37.121026 1.239163 1.851422 0.034816 0.008056 -386799.000000 0 0 1
-10.541967 -32.877145 -9.567320 35.826992 1.260506 1.841119 0.018581 0.007807 -387286.000000 0 0 1
-9.279567 -33.308555 -9.997620 35.993369 1.299092 1.852261 -0.005951 0.014918 -195073.000000 0 0 1
-8.222667 -32.696425 -9.220320 34.952579 1.324420 1.837751 -0.021553 0.017749 -139063.000000 0 0 1
-6.874467 -33.147215 -9.712720 35.218363 1.366303 1.850203 -0.020861 0.018465 -986934.000000 0 0 1
-6.657067 -34.523766 -9.662920 36.463392 1.380309 1.839004 -0.022845 0.017246 126118.000000 0 0 1
-5.407467 34.240462 -10.186820 36.130613 -1.414164 1.856616 -0.017989 0.012873 389945.000000 0 0 1
-4.736767 33.014639 -9.462020 34.668908 -1.428294 1.847229 -0.022140 0.010130 69600.600000 0 0 1
-4.338267 33.407893 -8.162620 34.663182 -1.441661 1.808513 -0.031892 0.008705 -36649.800000 0 0 1
-3.526467 32.454279 -7.542620 33.505332 -1.462561 1.797859 -0.021764 -0.002859 -245191.000000 0 0 1
-3.045467 32.927389 -6.149420 33.634850 -1.478568 1.754659 -0.019613 -0.004102 -363869.000000 0 0 1
-2.377067 34.184395 -6.141520 34.812951 -1.501371 1.748139 -0.028524 0.000738 27433.500000 0 0 1
-2.039067 -34.429463 -4.899220 34.836017 1.511641 1.711901 -0.022922 0.000116 -411935.000000 0 0 1
-1.101567 34.041392 -3.940220 34.286369 -1.538448 1.685972 -0.016115 0.005005 -1086770.000000 0 0 1
0.199933 33.990471 -4.429120 34.278407 1.564914 1.700369 -0.021623 -0.003748 -981138.000000 0 0 1
1.047433 33.222250 -3.623920 33.435726 1.539279 1.679394 -0.024754 -0.001593 205865.000000 0 0 1
2.521633 33.173809 -4.112720 33.522749 1.494929 1.693791 -0.013250 -0.001682 383724.000000 0 0 1
3.230233 34.351851 -3.749120 34.706483 1.477038 1.679031 -0.006008 -0.001756 -273344.000000 0 0 1
4.528733 34.357128 -4.308320 34.921101 1.439738 1.694484 0.011322 -0.001844 438855.000000 0 0 1
5.331033 -33.575695 -3.827020 34.211011 -1.413334 1.682896 0.014042 -0.003266 279054.000000 0 0 1
4.863033 -32.365885 -4.443620 33.029462 -1.421660 1.705741 0.018105 -0.003546 293995.000000 0 0 1
5.430633 -31.213705 -3.785020 31.907891 -1.398538 1.689700 0.020645 -0.010236 63633.100000 0 0 1
5.366833 -30.016535 -4.731920 30.857517 -1.393870 1.724751 0.007589 -0.008250 534079.000000 0 0 1
6.410233 -29.873015 -5.737820 31.087147 -1.359419 1.756433 0.021718 -0.009974 666530.000000 0 0 1
6.159033 -28.770125 -6.573620 30.147409 -1.359902 1.790611 0.015320 -0.007150 63139.800000 0 0 1
6.656833 -27.392295 -6.019820 28.825154 -1.332399 1.781184 0.013135 -0.006208 -74547.600000 0 0 1
5.840433 -26.908985 -5.022020 27.989727 -1.357067 1.751197 0.009648 -0.010108 -933712.000000 0 0 1
6.454833 -25.793605 -4.514620 26.969552 -1.325583 1.738985 0.002143 -0.006002 -497272.000000 0 0 1
5.782633 -25.022045 -3.353520 25.899569 -1.343682 1.700643 -0.005681 -0.002108 -905270.000000 0 0 1
4.626933 -24.398855 -3.761920 25.117020 -1.383384 1.721138 -0.000430 -0.010190 -1126750.000000 0 0 1
3.819033 -24.132355 -2.622920 24.573060 -1.413844 1.677740 0.000502 -0.003736 30277.500000 0 1 0
2.533733 -23.439955 -3.119820 23.782022 -1.463120 1.702359 0.010599 -0.007567 -100829.000000 0 1 0
1.686133 -24.252655 -3.870020 24.617298 -1.501384 1.728659 -0.001886 -0.003387 -138516.000000 0 1 0
0.480633 -23.564555 -4.212720 23.942979 -1.550403 1.747665 -0.006075 -0.001497 141838.000000 0 1 0
-14.512567 23.412045 18.028329 32.920497 -1.015890 0.991264 -0.014072 0.005185 70409.900000 0 0 1
-15.116167 23.068645 19.283029 33.652579 -0.990726 0.960631 0.001423 0.009340 583474.000000 0 0 1
-14.602067 23.978545 20.233029 34.605873 -1.023812 0.946323 -0.009515 0.007548 -792490.000000 0 0 1
-14.800767 23.408245 21.637329 35.145165 -1.006973 0.907578 0.001703 -0.002053 -116859.000000 0 0 1
-13.929267 22.339845 22.109829 34.379321 -1.013264 0.872238 -0.010026 -0.005686 483205.000000 0 0 1
-12.557567 22.631445 22.238329 34.123571 -1.064220 0.860973 -0.016339 -0.009220 -289788.000000 0 0 1
-12.124167 23.713145 23.232529 35.342030 -1.098162 0.853483 -0.016025 0.002464 -884784.000000 0 0 1
-12.024267 23.135245 24.501919 35.779416 -1.091483 0.816460 -0.020846 0.002747 72203.600000 0 0 1
-11.785267 24.161245 25.490629 37.046328 -1.116976 0.811964 -0.008008 0.007671 -312645.000000 0 0 1
-11.182667 23.616645 26.791809 37.424577 -1.128566 0.772901 -0.016602 0.006422 528876.000000 0 0 1
-9.814467 23.210745 26.692719 36.709177 -1.170755 0.756649 -0.041837 0.000337 370660.000000 0 0 1
-9.462367 22.722845 27.988399 37.272169 -1.176211 0.721343 -0.048313 0.004230 -1292550.000000 0 0 1
-7.989067 22.332845 28.061159 36.742480 -1.227254 0.701732 -0.048741 -0.001317 -229118.000000 0 0 1
-7.144067 23.438345 28.481059 37.570792 -1.274939 0.710457 -0.037979 -0.001586 383909.000000 0 0 1
-6.902667 24.508945 27.514079 37.488128 -1.296269 0.746690 -0.037754 0.001712 -902867.000000 0 0 1
-5.831867 25.513245 28.018699 38.340368 -1.346075 0.751320 -0.029486 -0.000534 972303.000000 0 0 1
-4.513867 24.925945 27.984609 37.746736 -1.391647 0.735675 -0.028795 -0.001773 402218.000000 0 0 1
-3.527967 25.751045 28.556649 38.614053 -1.434641 0.738409 -0.022405 0.002365 357687.000000 0 0 1
-2.079467 25.248845 28.320589 37.998475 -1.488623 0.729799 -0.009044 -0.002527 278382.000000 0 0 1
-1.674067 25.166345 26.938839 36.903231 -1.504374 0.752495 -0.012712 0.000700 -1228960.000000 0 0 1
-0.315067 24.954545 26.897819 36.692251 -1.558171 0.747978 0.003660 0.005514 -982830.000000 0 0 1
0.174633 24.699545 25.477639 35.485322 1.563726 0.769905 0.001266 0.006105 -296656.000000 0 0 1
-0.281267 23.426045 25.106379 34.339321 -1.558790 0.750825 -0.004417 0.007958 -13093.300000 0 0 1
-0.139667 23.239545 23.688629 33.185043 -1.564787 0.775838 -0.004995 0.008043 -81065.600000 0 0 1
-0.737967 21.920745 23.158629 31.896485 -1.537144 0.758228 -0.006042 0.007982 -503785.000000 0 0 1
-0.070767 20.827745 23.580729 31.461894 -1.567399 0.723488 -0.010248 0.008250 -528790.000000 0 0 1
-0.283067 19.775145 22.706429 30.111765 -1.556483 0.716557 -0.006671 0.011483 -559919.000000 0 0 1
0.685933 18.648745 22.922429 29.558145 1.534031 0.683285 0.002726 0.015927 -523397.000000 0 0 1
1.985933 18.879645 22.434129 29.388349 1.465993 0.702285 0.013214 0.005587 53086.500000 0 0 1
2.721733 17.638945 22.454729 28.683707 1.417701 0.671581 0.006716 0.000801 829666.000000 0 0 1
4.221133 17.710145 22.001929 28.557873 1.336816 0.691276 0.012203 0.004418 395743.000000 0 0 1
5.090533 18.390945 22.831329 29.755839 1.300762 0.696193 0.011240 0.005922 -847093.000000 0 0 1
6.239833 18.753745 22.104229 29.651904 1.249594 0.729576 0.025610 -0.001557 -35208.100000 0 0 1
7.281033 19.487545 23.018729 31.026436 1.213232 0.734886 0.027402 -0.006972 39402.200000 0 0 1
6.828033 20.720645 23.654429 32.179173 1.252474 0.745004 0.018374 0.000222 182460.000000 0 0 1
6.465633 21.803845 22.849629 32.238449 1.282520 0.783044 0.021107 -0.000587 -261676.000000 0 0 1
5.347633 22.654845 23.458429 33.047497 1.338991 0.781526 -0.002467 0.006403 -136662.000000 0 0 1
5.123733 23.913045 22.764029 33.410887 1.359723 0.821210 -0.011187 0.004254 -457588.000000 0 0 1
3.953533 24.530545 23.154729 33.963503 1.411003 0.820640 -0.018345 0.009223 -980718.000000 0 0 1
3.851833 25.952745 22.633129 34.650254 1.423455 0.859009 -0.007751 0.005154 -182912.000000 0 0 1
3.570133 26.162445 21.225629 33.878411 1.435174 0.893711 -0.003991 0.002325 -178833.000000 0 0 1
2.315833 25.696545 20.788029 33.133332 1.480917 0.892580 -0.011718 0.005731 -466544.000000 0 0 1
2.128933 25.689745 19.296029 32.199877 1.488114 0.928223 -0.002992 0.000043 -550139.000000 0 0 1
2.196833 27.038845 18.827129 33.020993 1.489727 0.964100 0.004866 0.004230 145290.000000 0 0 1
1.598433 27.280545 17.576429 32.491753 1.512271 0.999230 0.005630 0.004445 418962.000000 0 0 1
0.272133 28.108145 17.759729 33.249810 1.561115 1.007318 -0.009203 0.011875 449881.000000 0 0 1
0.452433 29.461845 18.079629 34.569900 1.555441 1.020444 -0.000718 0.010862 17227.100000 0 0 1
-0.748467 30.011545 18.559129 35.294395 -1.545862 1.017096 -0.013453 0.011349 -95525.900000 0 0 1
-0.503267 31.477045 19.038529 36.790260 -1.554809 1.026883 -0.010845 0.009927 -18059.000000 0 0 1
0.193033 31.470545 20.255729 37.426288 1.564663 0.998913 -0.014077 0.008920 -157741.000000 0 0 1
0.480333 32.831145 20.660629 38.794025 1.556167 1.009159 -0.011516 -0.000386 -110956.000000 0 0 1
1.103133 32.916945 22.035029 39.626818 1.537296 0.981154 -0.009061 -0.006974 -67258.300000 0 0 1
0.240633 32.608445 23.105229 39.965237 1.563417 0.954357 -0.013495 -0.003142 44173.100000 0 0 1
0.964733 32.747345 24.281629 40.778877 1.541345 0.932975 -0.005683 -0.010856 -289678.000000 0 0 1
0.075733 32.487945 25.520139 41.312829 1.568465 0.904945 -0.004641 0.001764 736729.000000 0 0 1
-1.087567 33.367145 25.499969 42.009494 -1.538214 0.918510 -0.006897 0.003638 567787.000000 0 0 1
-2.019467 33.157145 26.518499 42.505356 -1.509966 0.897091 0.002530 -0.000609 -408217.000000 0 0 1
-1.714867 33.465745 28.006209 43.672012 -1.519599 0.874624 0.013977 -0.007437 -1192780.000000 0 0 1
-0.642167 32.714745 28.452229 43.361230 -1.551170 0.855068 0.011939 -0.012180 -469795.000000 0 0 1
-0.302467 33.109545 29.726519 44.497184 -1.561661 0.839206 0.009779 -0.007054 -224858.000000 0 0 1
0.937333 32.320345 30.222829 44.259493 1.541803 0.819132 -0.009745 -0.001008 507209.000000 0 0 1
2.220233 32.706845 29.742479 44.263780 1.503017 0.833975 -0.021535 -0.003998 662573.000000 0 0 1
2.593233 32.173245 28.445839 43.023346 1.490368 0.848416 -0.022799 -0.003457 -1028570.000000 0 0 1
4.078933 31.917245 28.264369 42.827827 1.443688 0.850040 -0.036361 -0.002171 -824904.000000 0 0 1
4.547733 30.845345 29.060189 42.621729 1.424414 0.820554 -0.037749 -0.006542 -812966.000000 0 0 1
5.914633 30.721845 28.869519 42.570692 1.380601 0.825547 -0.033133 -0.009416 -737765.000000 0 0 1
6.570533 29.638245 29.759009 42.511129 1.352634 0.795359 -0.032898 -0.000805 -62101.000000 0 0 1
6.631133 29.928745 31.132199 43.691138 1.352755 0.777668 -0.027382 -0.003104 159454.000000 0 0 1
7.187833 29.002345 32.056869 43.822869 1.327855 0.750262 -0.025553 0.013026 -244865.000000 0 0 1
6.997133 29.251845 33.530977 45.043942 1.336005 0.731152 0.001896 -0.010562 -787462.000000 0 0 1
5.664833 29.108645 33.926010 45.059713 1.378589 0.718320 -0.008243 -0.009371 -683895.000000 0 0 1
5.552233 28.588545 -33.894430 44.687409 1.378972 2.431771 0.015245 -0.010088 -341437.000000 0 0 1
5.600733 27.114745 -33.647340 43.574317 1.367104 2.453066 0.010389 -0.012142 -427072.000000 0 0 1
6.855233 26.580545 -33.937370 43.649337 1.318392 2.461477 -0.000036 -0.009907 -397113.000000 0 0 1
6.730133 25.152745 -34.006080 42.829531 1.309350 2.488135 0.011081 -0.010618 1061480.000000 0 0 1
8.137033 24.453545 -34.211968 42.832767 1.249567 2.495984 0.013049 -0.007889 541574.000000 0 0 1
8.654133 24.417345 33.658570 42.473522 1.230184 0.655964 -0.011350 -0.003779 -79170.800000 0 0 1
9.838233 23.676945 33.457434 42.151968 1.176983 0.653874 -0.002334 -0.011835 -132052.000000 0 0 1
9.912933 22.201845 33.921214 41.735320 1.150864 0.621905 0.006034 -0.013333 -1051930.000000 0 0 1
9.292833 21.367445 32.957009 40.361973 1.160565 0.615411 -0.001680 -0.015145 62492.300000 0 0 1
8.989533 20.091945 33.507482 40.090514 1.150090 0.581216 0.000261 -0.012284 449095.000000 0 0 1
7.674533 19.964245 34.342167 40.458052 1.203798 0.557021 0.013983 -0.019657 -16339.300000 0 0 1
7.748433 20.611145 -33.559810 40.138739 1.211207 2.560923 0.018319 -0.012230 -317166.000000 0 0 1
6.498733 20.802945 -32.952140 39.507462 1.268007 2.557248 0.027568 -0.014640 -601113.000000 0 0 1
6.583433 21.419845 -31.562180 38.708171 1.272608 2.524195 0.036204 -0.020765 8947.020000 0 0 1
7.036233 22.798745 -31.582640 39.582250 1.271447 2.494598 0.043085 -0.020715 242995.000000 0 0 1
7.335733 23.352145 -30.290010 38.943810 1.266422 2.461934 0.027822 -0.022118 205917.000000 0 0 1
8.844633 23.348945 -29.951040 38.993147 1.208696 2.446681 0.034762 -0.020457 217953.000000 0 0 1
9.378333 22.065845 -29.651450 38.132180 1.168912 2.461630 0.029808 -0.024953 -980233.000000 0 0 1
10.738733 22.176645 -29.395850 38.356746 1.119839 2.443983 0.040790 -0.020880 -466692.000000 0 0 1
11.494633 20.818245 -29.465010 37.864399 1.066310 2.462546 0.038766 -0.025633 14502.500000 0 0 1
11.692733 20.207845 -30.771440 38.625879 1.046243 2.492535 0.028703 -0.024840 464820.000000 0 0 1
10.471733 19.838945 -31.426720 38.611911 1.085128 2.521651 0.043156 -0.029929 345595.000000 0 0 1
10.653033 18.661145 -32.330220 38.819693 1.052074 2.554998 0.036506 -0.030315 -377631.000000 0 0 1
10.948933 17.457545 -31.626460 37.747556 1.010635 2.564113 0.038290 -0.026847 128386.000000 0 0 1
11.017133 16.190345 -32.312800 37.783879 0.973295 2.596734 0.027561 -0.024039 -36112.000000 0 0 1
12.063533 16.041145 -33.463630 39.021298 0.925993 2.601330 0.020801 -0.012828 43741.400000 0 0 1
11.734433 16.721145 34.513476 40.105781 0.958882 0.534426 0.031142 -0.012250 232712.000000 0 0 1
12.766533 16.459945 33.586893 39.522064 0.911104 0.555141 0.032279 -0.010814 220180.000000 0 0 1
12.323433 16.716545 32.104539 38.236256 0.935538 0.574184 0.036598 -0.015322 -497609.000000 0 0 1
12.435033 18.050645 31.639169 38.490166 0.967561 0.605871 0.024605 -0.013350 -177924.000000 0 0 1
11.782533 18.301745 30.428839 37.412514 0.998797 0.620938 0.024493 -0.011306 161222.000000 0 0 1
10.242533 18.507945 30.412529 37.045586 1.065337 0.607726 0.017005 0.001219 188176.000000 0 0 1
9.579633 17.327845 30.845309 36.653195 1.065771 0.570660 0.016659 -0.005532 -632456.000000 0 0 1
8.194833 17.523245 30.817639 36.386073 1.133358 0.560551 0.015464 -0.008123 -381856.000000 0 0 1
7.410633 16.610945 31.756319 36.596513 1.151166 0.520156 0.023607 -0.007411 -76841.300000 0 0 1
7.566733 17.032945 33.105754 37.991678 1.152742 0.512758 0.027300 -0.006474 -61256.900000 0 0 1
7.293033 15.948745 33.967501 38.227502 1.141905 0.476596 0.040521 -0.015531 -130154.000000 0 0 1
7.265633 16.365645 -33.727900 38.186319 1.152980 2.653536 0.038875 -0.017698 -176096.000000 0 0 1
6.181033 17.156445 -33.316740 37.980968 1.224998 2.640786 0.034751 -0.022574 -181716.000000 0 0 1
6.266533 17.285145 -31.951500 36.863858 1.222995 2.619431 0.033981 -0.026460 281146.000000 0 0 1
4.998933 17.852245 -31.243450 36.329673 1.297772 2.606062 0.025803 -0.021858 -140477.000000 0 0 1
5.154733 17.925345 -29.846710 35.195388 1.290785 2.583051 0.023986 -0.030118 28172.100000 0 0 1
4.559233 19.027145 -29.143000 35.101756 1.335613 2.550340 0.024767 -0.028373 405586.000000 0 0 1
3.016933 19.123645 -28.978320 34.850519 1.414327 2.552605 0.025323 -0.026060 -527122.000000 0 0 1
2.572733 18.052745 -28.098000 33.496539 1.429238 2.565932 0.030274 -0.024991 186817.000000 0 0 1
1.218333 17.653745 -28.223890 33.312565 1.501893 2.581573 0.025435 -0.023804 439790.000000 0 0 1
0.115733 18.689145 -27.901350 33.582478 1.564604 2.551395 0.026099 -0.027810 -833008.000000 0 0 1
0.052633 18.975645 -26.493470 32.588062 1.568023 2.520049 0.041083 -0.037105 -40235.800000 0 0 1
-0.611367 20.209745 -26.279400 33.157419 -1.540554 2.485800 0.048822 -0.027460 -123696.000000 0 0 1
-1.007167 20.456245 -24.792320 32.157914 -1.521601 2.451136 0.043308 -0.031293 -64831.800000 0 0 1
-2.163267 19.691345 -24.510320 31.514831 -1.461376 2.461857 0.043490 -0.025671 4875.480000 0 0 1
-2.625867 19.846345 -23.164220 30.616232 -1.439251 2.428893 0.055168 -0.029899 -406074.000000 0 0 1
-3.872167 19.048245 -22.847420 29.997232 -1.370247 2.436653 0.053913 -0.024540 -171878.000000 0 0 1
-5.131967 19.690345 -23.004320 30.712302 -1.315835 2.417387 0.037020 -0.020787 330837.000000 0 0 1
-6.140467 18.751845 -22.608920 30.008337 -1.254342 2.424046 0.028435 -0.021988 1186840.000000 0 0 1
-7.598667 19.361745 -22.564820 30.688565 -1.196809 2.396882 0.043060 -0.021621 709523.000000 0 0 1
-7.919067 20.253545 -21.500220 30.580666 -1.198076 2.350496 0.025533 -0.014276 181449.000000 0 0 1
-7.437567 21.598345 -21.642720 31.467654 -1.239156 2.329218 0.015891 -0.012243 20038.500000 0 0 1
-7.760467 22.464945 -20.442420 31.349500 -1.238183 2.281123 0.022561 -0.017248 265339.000000 0 0 1
-6.846567 22.168245 -19.384520 30.233527 -1.271244 2.266805 0.022700 -0.015474 552131.000000 0 0 1
-7.160867 23.079745 -18.324020 30.326924 -1.269948 2.219578 0.029479 -0.009203 29103.200000 0 0 1
-6.116067 23.076645 -17.179620 29.412194 -1.311720 2.194565 0.027979 -0.016297 493490.000000 0 0 1
-4.919067 23.744745 -17.551920 29.934596 -1.366521 2.197332 0.034978 -0.018121 255750.000000 0 0 1
-3.909467 23.694245 -16.523320 29.149979 -1.407273 2.173459 0.046539 -0.018142 485790.000000 0 0 1
-2.633867 24.393245 -17.008920 29.854162 -1.463238 2.176978 0.049486 -0.016675 -266897.000000 0 0 1
-2.686667 25.789045 -16.817320 30.904939 -1.466992 2.146187 0.032218 -0.018776 -461207.000000 0 0 1
-1.490767 26.350745 -17.267820 31.539844 -1.514283 2.150161 0.031196 -0.020081 -284480.000000 0 0 1
-1.385467 27.893645 -16.968720 32.678929 -1.521167 2.116776 0.023932 -0.025176 167057.000000 0 0 1
-2.311367 28.736945 -17.695220 33.827137 -1.490537 2.121289 0.025148 -0.024904 321971.000000 0 0 1
-1.920567 29.063745 -19.029220 34.792256 -1.504811 2.149499 0.027687 -0.027386 -503775.000000 0 0 1
-3.030267 29.468845 -20.041320 35.766602 -1.468327 2.165588 0.040105 -0.022086 301443.000000 0 0 1
-3.798067 30.648845 -19.792020 36.681072 -1.447503 2.140723 0.026546 -0.014208 -130767.000000 0 0 1
-4.837667 30.550645 -18.872320 36.234091 -1.413751 2.118636 0.019683 -0.013815 -683697.000000 0 0 1
-5.095067 31.922245 -18.193320 37.094290 -1.412523 2.083416 0.027497 -0.006330 262463.000000 0 0 1
-5.915767 32.858645 -18.950420 38.390171 -1.392668 2.087052 0.039636 -0.003502 591966.000000 0 0 1
-6.069667 34.114145 -18.329620 39.199371 -1.394717 2.057370 0.031414 -0.018660 165748.000000 0 0 1
-7.060467 -34.145949 -19.130320 39.771411 1.366897 2.072599 0.027880 -0.000461 1267140.000000 0 0 1
-8.321067 34.344645 -19.217720 40.225807 -1.333095 2.068884 0.035940 -0.000116 659253.000000 0 0 1
-9.399967 -33.990549 -19.508820 40.302740 1.300993 2.076081 0.055832 0.004847 -145140.000000 0 0 1
27.797533 -20.756155 -26.908070 43.904043 -0.641380 2.230501 0.014517 0.006628 197364.000000 0 0 1
27.841433 -22.096355 -26.458020 44.310508 -0.670857 2.210683 0.028545 -0.004699 -121686.000000 0 0 1
26.525233 -22.596455 -26.312960 43.664169 -0.705588 2.217578 0.010744 -0.002312 226465.000000 0 0 1
26.491133 -23.892655 -25.568290 43.890506 -0.733870 2.192655 0.007625 0.008545 114643.000000 0 0 1
26.719633 -25.122705 -26.215000 45.081208 -0.754604 2.191375 -0.003137 0.024611 -789830.000000 0 0 1
28.015233 -25.348335 -26.673360 46.247805 -0.735464 2.185539 0.012349 0.022702 -650704.000000 0 0 1
28.121333 -26.753975 -27.283800 47.444602 -0.760486 2.183482 0.016452 0.011286 -76764.200000 0 0 1
28.026533 -27.698785 -26.275030 47.361233 -0.779517 2.158894 0.025632 -0.003817 -399693.000000 0 0 1
28.353633 -28.972635 -26.783060 48.586772 -0.796196 2.154648 0.018871 0.000452 1030910.000000 0 0 1
27.143633 -29.888205 -27.329030 48.754051 -0.833485 2.165845 0.003029 0.008852 1039810.000000 0 0 1
26.561733 -29.470325 -28.576970 48.894467 -0.837261 2.195013 -0.007999 -0.002850 334285.000000 0 0 1
27.407433 -29.438805 -29.765110 50.037710 -0.821117 2.207880 -0.019650 -0.008679 -97162.300000 0 0 1
27.730533 -30.722935 -30.507640 51.415924 -0.836546 2.206011 -0.002776 -0.000915 364383.000000 0 0 1
28.554933 -31.694625 -29.822820 52.051263 -0.837463 2.180898 0.004690 -0.000552 1797620.000000 0 0 1
29.860133 -31.382795 -29.233650 52.260058 -0.810256 2.164444 0.011438 0.002180 1268600.000000 0 0 1
31.019633 -30.936885 -30.140170 53.176483 -0.784063 2.173407 0.011473 0.000781 -434870.000000 0 0 1
30.864733 -29.645385 -30.692190 52.663945 -0.765250 2.192958 0.013410 -0.014173 -313026.000000 0 0 1
32.053133 -29.137555 -31.239030 53.406717 -0.737787 2.195586 0.009741 -0.011791 -483853.000000 0 0 1
31.834133 -27.784935 -32.012220 53.011290 -0.717584 2.219151 0.008287 -0.008358 -3617.860000 0 0 1
31.668933 -26.591685 -31.300320 51.862791 -0.698471 2.218707 0.005071 -0.001422 59730.700000 0 0 1
30.515833 -26.526265 -30.471810 50.629932 -0.715571 2.216617 0.000679 0.000542 -36845.700000 0 0 1
30.295033 -25.179065 -29.781050 49.383046 -0.693436 2.218131 0.003704 0.001140 -209967.000000 0 0 1
31.224833 -24.930655 -28.726390 49.211109 -0.673779 2.194121 0.007315 -0.001178 329103.000000 0 0 1
31.048833 -23.596555 -28.197340 48.123980 -0.649859 2.196825 0.006004 0.005813 119955.000000 0 0 1
32.253933 -23.249855 -27.286860 48.222865 -0.624575 2.172259 0.003530 0.006362 -98706.000000 0 0 1
32.381533 -23.990755 -26.099050 48.013336 -0.637637 2.145492 0.011233 -0.005409 -309520.000000 0 0 1
31.470833 -23.764655 -25.043820 46.715790 -0.646778 2.136594 0.034937 0.003673 -262716.000000 0 0 1
31.828133 -22.571755 -24.126220 45.875796 -0.616858 2.124573 0.027137 0.009140 42685.700000 0 0 1
31.856833 -21.312355 -24.808020 45.656458 -0.589619 2.145234 0.010343 0.006490 -79910.900000 0 0 1
32.074033 -20.280455 -23.873320 44.832754 -0.563833 2.132345 -0.003216 0.005826 -155651.000000 0 0 1
32.120833 -18.906555 -24.604020 44.660537 -0.532000 2.154253 -0.014825 0.010530 163267.000000 0 0 1
30.962033 -18.590455 -25.356330 44.127043 -0.540734 2.182937 -0.009130 0.007597 351097.000000 0 0 1
31.187733 -17.406455 -26.040400 44.201378 -0.509055 2.200779 -0.013549 0.000959 318382.000000 0 0 1
30.180733 -17.160555 -27.206060 44.108174 -0.517006 2.235471 -0.021192 0.008896 15586.500000 0 0 1
28.922033 -16.604155 -26.920650 42.859110 -0.521158 2.249931 -0.021845 0.009224 -242378.000000 0 0 1
28.214233 -16.657055 -28.132510 43.184934 -0.533314 2.280281 -0.017743 0.002294 -913264.000000 0 0 1
26.714433 -16.327655 -28.104530 42.072768 -0.548608 2.302312 -0.028528 0.009327 11308.900000 0 0 1
25.959933 -17.361255 -27.465940 41.589772 -0.589458 2.292149 -0.019448 0.014004 33373.800000 0 0 1
25.823533 -17.020655 -26.111570 40.476804 -0.582756 2.271950 -0.010461 0.017512 -302634.000000 0 0 1
25.029633 -18.059055 -25.229900 39.864268 -0.625015 2.256083 0.011089 0.011632 7859.680000 0 0 1
24.917133 -17.681755 -23.909820 38.796745 -0.617155 2.234812 0.015362 0.017960 59704.300000 0 0 1
24.286333 -18.736155 -23.184220 38.449675 -0.657100 2.218022 0.033815 0.016661 104830.000000 0 0 1
24.206233 -18.416055 -21.651420 37.334659 -0.650376 2.189437 0.025836 0.014470 581283.000000 0 0 1
23.332533 -17.285555 -21.308120 36.017128 -0.637610 2.203852 0.018700 0.005224 869208.000000 0 0 1
23.873833 -15.971555 -21.636820 35.961124 -0.589615 2.216390 0.025688 0.010361 -31309.700000 0 0 1
25.176833 -15.493955 -21.004720 36.264774 -0.551670 2.188549 0.016263 0.004539 -227632.000000 0 0 1
24.983333 -14.761355 -19.802220 35.131075 -0.533663 2.169615 0.016211 -0.000840 -252960.000000 0 0 1
26.078233 -13.930955 -19.537820 35.438286 -0.490631 2.154741 -0.002891 0.004571 -348514.000000 0 0 1
26.008733 -13.037655 -18.250620 34.344137 -0.464671 2.131054 0.010221 0.003305 -340593.000000 0 0 1
26.253933 -13.718655 -17.017820 34.162504 -0.481514 2.092252 0.015921 0.009042 113338.000000 0 0 1
26.292333 -12.770755 -15.906120 33.277374 -0.452160 2.069157 0.005845 0.013113 81981.200000 0 0 1
26.826133 -13.452255 -14.579820 33.364288 -0.464816 2.023044 0.022418 -0.001049 -654220.000000 0 0 1
26.100933 -14.514755 -14.113120 33.032060 -0.507515 2.012251 0.049015 -0.006458 -390062.000000 0 0 1
26.589433 -14.940855 -12.873520 33.105205 -0.511941 1.970198 0.054579 -0.013269 -490621.000000 0 0 1
25.965233 -16.126155 -12.162420 32.896362 -0.555766 1.949503 0.058163 -0.033991 -736699.000000 0 0 1
24.641533 -15.935455 -11.761420 31.614472 -0.574045 1.951988 0.050737 -0.034374 -340374.000000 0 0 1
24.076833 -17.069555 -11.209620 31.570860 -0.616715 1.933777 0.032783 -0.016595 -1724270.000000 0 0 1
22.679533 -16.894355 -10.762920 30.259228 -0.640240 1.934449 0.033921 -0.017870 -1850210.000000 0 0 1
22.579733 -16.228455 -9.516920 29.390115 -0.623178 1.900554 0.025699 -0.016932 573986.000000 0 0 1
21.252933 -16.319455 -9.005420 28.268522 -0.654839 1.895014 0.021479 -0.015280 138384.000000 0 0 1
21.039033 -15.911055 -7.546020 27.436199 -0.647498 1.849426 0.018881 -0.018103 -550721.000000 0 0 1
21.105233 -14.534855 -7.267820 26.636705 -0.603091 1.847150 0.023999 -0.007969 386870.000000 0 0 1
20.988533 -14.179955 -5.856120 25.997765 -0.594165 1.798001 0.002005 -0.007213 -519710.000000 0 0 1
21.902933 -14.843055 -4.815620 26.893214 -0.595585 1.750832 0.006173 -0.004421 -859696.000000 0 0 1
23.250333 -14.526355 -4.994420 27.866417 -0.558441 1.750997 0.030300 -0.009701 -458170.000000 0 0 1
24.022733 -15.175755 -4.029920 28.699050 -0.563420 1.711682 0.021597 -0.014772 41371.100000 0 0 1
25.551433 -14.933055 -4.171820 29.887722 -0.528893 1.710837 0.039600 -0.022216 295790.000000 0 0 1
26.069933 -13.774955 -3.512820 29.693951 -0.486097 1.689375 0.037854 -0.024447 -192276.000000 0 0 1
27.305533 -13.343855 -3.980720 30.651211 -0.454556 1.701036 0.048230 -0.035003 -645983.000000 0 0 1
27.956133 -12.124755 -3.361220 30.657020 -0.409222 1.680657 0.052345 -0.034495 -973253.000000 0 0 1
28.397933 -12.200355 -1.996220 30.972184 -0.405778 1.635293 0.061690 -0.039960 633369.000000 0 0 1
28.944833 -10.989955 -1.440620 30.994481 -0.362873 1.617293 0.059301 -0.024744 938006.000000 0 0 1
30.438133 -10.690555 -1.860120 32.314516 -0.337763 1.628391 0.065911 -0.027248 362454.000000 0 0 1
30.622433 -10.336655 -3.229120 32.480872 -0.325542 1.670377 0.068242 -0.022269 59543.300000 0 0 1
31.692333 -10.984655 -3.867720 33.764269 -0.333645 1.685599 0.068361 -0.028098 -269866.000000 0 0 1
31.577333 -10.733255 -5.370320 33.781223 -0.327652 1.730447 0.065808 -0.028714 -859871.000000 0 0 1
30.436533 -11.244055 -5.970220 32.991739 -0.353875 1.752760 0.051450 -0.039161 -306258.000000 0 0 1
30.417633 -11.154355 -7.369420 33.225899 -0.351480 1.794454 0.048364 -0.022981 532071.000000 0 0 1
29.184733 -11.864455 -8.046620 32.515566 -0.386123 1.820864 0.050971 -0.021385 545412.000000 0 0 1
29.215333 -13.264155 -7.849320 33.031581 -0.426187 1.810722 0.051793 -0.030160 628415.000000 0 0 1
28.021233 -13.890955 -8.331420 32.366042 -0.460225 1.831140 0.055505 -0.030498 261042.000000 0 0 1
28.048333 -15.382255 -8.258620 33.038274 -0.501629 1.823447 0.058331 -0.036981 -207273.000000 0 0 1
29.065433 -15.947455 -9.041620 34.363812 -0.501825 1.837045 0.066418 -0.039012 102215.000000 0 0 1
29.060333 -17.376855 -9.049620 35.047877 -0.538917 1.831963 0.059431 -0.033680 -97677.500000 0 0 1
29.063233 -17.971355 -10.508120 35.749989 -0.553806 1.869136 0.055085 -0.036068 818279.000000 0 0 1
30.335833 -17.788355 -11.177220 36.900116 -0.530345 1.878535 0.056106 -0.026376 1190230.000000 0 0 1
30.358033 -18.307555 -12.491120 37.587296 -0.542663 1.909562 0.048258 -0.016610 -211224.000000 0 0 1
29.610333 -17.423255 -13.480520 36.906179 -0.531860 1.944713 0.047516 -0.020730 -250513.000000 0 0 1
30.347733 -16.314155 -13.948620 37.171233 -0.493253 1.955466 0.037540 -0.013609 251981.000000 0 0 1
29.638333 -15.624655 -14.968220 36.696161 -0.485152 1.990945 0.038647 -0.013046 -473460.000000 0 0 1
30.500533 -14.562155 -15.682720 37.259718 -0.445437 2.005237 0.015973 -0.001013 669836.000000 0 0 1
31.545633 -14.828755 -16.618820 38.616112 -0.439421 2.015688 -0.007136 -0.004102 1014310.000000 0 0 1
32.761133 -15.353755 -16.093620 39.598412 -0.438261 1.989330 0.000781 -0.000054 -218010.000000 0 0 1
33.801033 -15.562955 -17.197920 40.993705 -0.431492 2.003719 0.003259 0.002952 -816832.000000 0 0 1
35.088333 -15.805455 -16.713120 41.956309 -0.423226 1.980509 -0.004846 0.005868 -913948.000000 0 0 1
-34.465936 -16.373255 -17.761120 42.088497 0.443494 2.006441 0.000899 0.004230 85061.500000 0 0 1
-32.942136 -16.401455 -17.415820 40.712441 0.461956 2.012828 -0.007139 0.018793 257803.000000 0 0 1
-32.516436 -17.190155 -16.290620 40.226910 0.486312 1.987740 -0.009970 0.008454 109931.000000 0 0 1
-32.983236 -16.795655 -14.993320 39.934791 0.470995 1.955673 -0.003926 0.000872 -816269.000000 0 0 1
-32.477136 -17.562755 -13.769820 39.405871 0.495731 1.927765 -0.004954 -0.001828 -561699.000000 0 0 1
-31.164336 -17.201255 -13.415920 38.040582 0.504342 1.931223 -0.011152 0.002712 -133627.000000 0 0 1
-30.879136 -17.669955 -12.129320 37.588146 0.519750 1.899366 -0.001204 0.005680 -93640.400000 0 0 1
-29.429936 -17.352855 -11.708320 36.115474 0.532762 1.900953 0.003347 0.003420 -331870.000000 0 0 1
-29.065436 -15.991755 -11.576920 35.136318 0.502995 1.906555 -0.000315 -0.004945 -571858.000000 0 0 1
-27.829836 -15.910255 -10.939220 33.871854 0.519349 1.899651 -0.000397 -0.004772 -450399.000000 0 0 1
-27.766336 -16.135155 -9.404120 33.462667 0.526410 1.855667 0.008000 -0.001949 -320770.000000 0 0 1
-27.780536 -17.500755 -8.956620 34.033155 0.562161 1.837106 0.004252 -0.001367 -155256.000000 0 0 1
-28.194436 -17.500555 -7.605720 34.044715 0.555508 1.796101 0.009695 -0.008302 -73662.300000 0 0 1
-28.479236 -18.919255 -7.100120 34.920149 0.586374 1.775548 0.004366 -0.014729 1334950.000000 0 0 1
-29.694336 -19.533255 -7.661020 36.359220 0.581847 1.783091 -0.002237 -0.011988 1137160.000000 0 0 1
-29.493436 -20.020355 -8.992520 36.763335 0.596361 1.817909 -0.001979 -0.006108 -170949.000000 0 0 1
-30.647136 -20.925755 -9.472220 38.299571 0.599086 1.820709 -0.004645 -0.006287 -158052.000000 0 0 1
-31.764736 -20.173555 -9.885920 38.906326 0.565824 1.827709 -0.010091 -0.006437 -819838.000000 0 0 1
-32.821536 -21.071855 -10.024720 40.271222 0.570740 1.822372 -0.007737 -0.007884 81810.700000 0 0 1
-34.196336 -20.355455 -10.277120 41.101741 0.536921 1.823519 0.008076 -0.009143 515426.000000 0 0 1
-34.420836 -19.857355 -11.562120 41.385881 0.523260 1.853938 -0.000148 -0.012009 -735094.000000 0 0 1
34.582933 -19.446555 -11.863020 41.411098 -0.512250 1.861336 0.014150 -0.019303 -796295.000000 0 0 1
34.420633 -19.088255 -13.329420 41.554962 -0.506336 1.897334 0.005718 -0.012852 -197597.000000 0 0 1
34.493933 -20.247755 -14.168420 42.432854 -0.530802 1.911237 0.001955 -0.011367 -46341.900000 0 0 1
33.913433 -19.986655 -15.408320 42.272966 -0.532547 1.943888 -0.002915 -0.008701 -779373.000000 0 0 1
32.653833 -20.766655 -15.684620 41.755647 -0.566445 1.955871 0.009418 -0.009737 -1161170.000000 0 0 1
31.591933 -20.256855 -14.882120 40.371622 -0.570166 1.948329 0.026008 -0.010619 718014.000000 0 0 1
30.350533 -20.962455 -15.097120 39.856021 -0.604442 1.959286 0.035367 -0.013009 1309810.000000 0 0 1
29.585533 -20.662555 -16.460220 39.663381 -0.609652 1.998737 0.033681 -0.007525 -576470.000000 0 0 1
28.973933 -19.398355 -16.468020 38.561388 -0.589969 2.012035 0.038557 -0.004761 -266781.000000 0 0 1
28.188333 -19.328455 -17.607620 38.447361 -0.601057 2.046503 0.035351 -0.005284 -536214.000000 0 0 1
27.403333 -18.015755 -17.680320 37.257265 -0.581580 2.065246 0.037797 0.002569 732376.000000 0 0 1
26.224433 -18.026155 -16.834820 36.001032 -0.602206 2.057393 0.049229 -0.008469 910281.000000 0 0 1
25.470833 -16.829055 -16.871820 34.880349 -0.583873 2.075680 0.031971 0.002791 -1498190.000000 0 0 1
24.123533 -16.911055 -16.183720 33.613114 -0.611410 2.073128 0.025626 0.006531 600504.000000 0 0 1
23.118133 -17.718355 -16.924820 33.687352 -0.653932 2.097179 0.022840 -0.001967 1089600.000000 0 0 1
22.653633 -17.095355 -18.090920 33.655900 -0.646465 2.138297 0.019527 0.004534 -1602230.000000 0 0 1
21.381133 -17.678955 -18.658220 33.433927 -0.690899 2.162845 0.017889 0.011445 -269330.000000 0 0 1
20.178433 -17.285855 -18.017520 32.102974 -0.708342 2.166681 0.021423 0.007138 -62614.800000 0 0 1
19.088433 -18.020155 -18.545120 32.140562 -0.756618 2.185848 0.012271 0.000244 1164060.000000 0 0 1
17.691933 -17.695455 -17.866820 30.746656 -0.785498 2.190874 0.023498 -0.000732 1048960.000000 0 0 1
17.120033 -16.438655 -18.237020 29.931819 -0.765097 2.225955 0.026765 -0.004099 -415531.000000 0 0 1
15.839733 -16.417655 -17.681920 28.863243 -0.803312 2.230155 0.030096 -0.002267 -626294.000000 0 0 1
14.986433 -15.195255 -17.994120 27.915539 -0.792317 2.271285 0.036667 -0.003019 -308829.000000 0 0 1
14.398833 -15.160755 -19.285820 28.444995 -0.811168 2.315840 0.042247 0.007856 -728612.000000 0 0 1
13.065933 -14.813255 -19.096220 27.473928 -0.847991 2.339309 0.040783 0.012908 -798442.000000 0 0 1
12.513433 -14.127555 -20.352520 27.756060 -0.845912 2.393906 0.049019 0.014204 55258.000000 0 0 1
13.170433 -12.946855 -20.859020 27.860008 -0.776838 2.416908 0.056101 0.010411 -8178.970000 0 0 1
12.362933 -12.301955 -21.812520 27.927875 -0.782926 2.467110 0.064587 0.003719 -106783.000000 0 0 1
12.844633 -10.922855 -22.245320 27.913216 -0.704716 2.493018 0.062548 0.000435 423320.000000 0 0 1
14.032633 -10.988255 -23.051920 29.138420 -0.664320 2.483430 0.062203 0.000473 403627.000000 0 0 1
14.327133 -9.670555 -23.516320 29.185676 -0.593737 2.507735 0.067925 -0.006918 27062.800000 0 0 1
15.534433 -9.435555 -24.443620 30.460447 -0.545840 2.502221 0.054456 0.000463 122197.000000 0 0 1
15.399633 -9.990655 -25.703640 31.585424 -0.575503 2.521426 0.065409 -0.002857 -160801.000000 0 0 1
16.481833 -9.542955 -26.464430 32.604982 -0.524834 2.517799 0.052507 0.001663 -749776.000000 0 0 1
21.839933 4.977945 -6.840820 23.421346 0.224100 1.867193 0.023513 0.023509 -167380.000000 0 1 0
21.988533 6.368545 -7.048120 23.952660 0.281916 1.869469 0.011280 0.011357 646905.000000 0 1 0
21.636933 7.111345 -5.857920 23.516873 0.317545 1.822541 0.015797 0.007319 -344406.000000 0 1 0
21.430433 8.607745 -6.103420 23.887412 0.381936 1.829169 0.009560 0.003893 -586549.000000 0 1 0
20.265933 8.970145 -6.798320 23.181646 0.416701 1.868434 0.012735 0.003538 252780.000000 0 1 0
19.979333 10.303845 -7.107320 23.576619 0.476148 1.877016 0.016554 0.009284 -69129.700000 0 1 0
19.571333 11.261045 -5.927520 23.344886 0.522123 1.827518 0.034846 0.005628 676571.000000 0 1 0
20.609633 11.460845 -4.926520 24.091047 0.507508 1.776745 0.039075 0.002045 851684.000000 0 1 0
20.267933 12.607945 -4.150720 24.227626 0.556485 1.742967 0.060313 0.003012 399185.000000 0 1 0
21.128533 12.850445 -2.860420 24.894394 0.546430 1.685953 0.049069 -0.008754 999817.000000 0 1 0
22.477733 13.283345 -3.137920 26.297191 0.533743 1.690407 0.057721 -0.023915 1162850.000000 0 0 1
23.338233 13.294945 -2.031920 26.936172 0.517815 1.646303 0.065142 -0.022467 -230596.000000 0 0 1
24.199033 12.048245 -1.800820 27.092367 0.461951 1.637315 0.042052 -0.017705 94369.900000 0 0 1
25.372333 11.992545 -2.637020 28.187414 0.441539 1.664486 0.020346 -0.014089 525366.000000 0 0 1
26.113733 10.848345 -2.374220 28.376937 0.393734 1.654561 0.044171 -0.013658 -824265.000000 0 0 1
27.492133 10.727545 -3.005020 29.663576 0.372033 1.672274 0.021455 -0.016157 -840462.000000 0 0 1
28.210133 11.844445 -2.573520 30.703835 0.397513 1.654712 0.017709 -0.013076 866731.000000 0 0 1
29.632733 11.570445 -2.622120 31.919423 0.372257 1.653037 0.021357 -0.010972 1125560.000000 0 0 1
30.471833 12.746745 -2.068020 33.095148 0.396193 1.633324 -0.005315 -0.008357 -806693.000000 0 0 1
30.556633 12.877345 -0.664420 33.165875 0.398839 1.590831 -0.009815 -0.001591 854957.000000 0 0 1
31.351933 14.043745 -0.258420 34.354581 0.421138 1.578319 -0.015653 0.000183 848804.000000 0 0 1
32.894733 13.901045 -0.456220 35.714292 0.399829 1.583571 -0.010486 -0.007497 -68726.800000 0 0 1
33.570033 15.126545 -0.220020 36.821297 0.423350 1.576772 -0.006527 0.002642 65718.400000 0 0 1
34.327633 15.586745 -1.320320 37.723683 0.426224 1.605803 -0.000664 -0.001142 -414405.000000 0 0 1
33.558933 16.423045 -2.363420 37.436669 0.455115 1.633969 -0.028809 0.018488 -157857.000000 0 0 1
32.445033 15.773645 -2.918320 36.193986 0.452519 1.651514 -0.016956 0.009479 32027.900000 0 0 1
31.752733 16.619545 -3.876720 36.048222 0.482196 1.678547 -0.018384 0.017601 661394.000000 0 0 1
30.382533 16.053345 -4.357320 34.638049 0.486088 1.696926 0.000344 0.000326 -108287.000000 0 0 1
30.509433 14.909945 -5.172920 34.349542 0.454566 1.721968 -0.007335 -0.005146 377568.000000 0 0 1
29.376433 14.720745 -5.999120 33.401566 0.464533 1.751382 0.011091 -0.021317 471099.000000 0 0 1
28.136133 14.036945 -5.347720 31.894763 0.462762 1.739260 0.016405 -0.023555 -428109.000000 0 0 1
27.005033 13.879645 -6.135320 30.976741 0.474757 1.770177 0.024187 -0.025452 -328710.000000 0 0 1
25.900933 13.498945 -5.348420 29.693189 0.480445 1.751908 0.027013 -0.020006 822445.000000 0 0 1
24.613233 13.218045 -6.243820 28.627142 0.492831 1.790672 0.023515 -0.020855 576550.000000 0 0 1
24.853933 12.321045 -7.326620 28.691558 0.460232 1.829014 0.016057 -0.008666 -79143.600000 0 0 1
23.756933 12.017445 -8.142220 27.840736 0.468317 1.867592 0.015835 -0.003372 -339260.000000 0 0 1
23.480433 13.109245 -9.269320 28.444742 0.509197 1.902729 0.006201 0.002576 -393996.000000 0 0 1
22.832033 14.215345 -8.822520 28.305735 0.556875 1.887764 0.015145 -0.014483 -374599.000000 0 0 1
22.697633 15.205145 -9.830920 29.034909 0.590238 1.916214 0.010080 -0.008546 -640752.000000 0 0 1
21.861733 16.403845 -9.286720 28.866324 0.643722 1.898336 0.026015 -0.018283 570366.000000 0 0 1
20.509233 16.077845 -8.958620 27.556898 0.664866 1.901909 0.007768 -0.006459 411552.000000 0 0 1
20.332833 15.437645 -7.703520 26.666256 0.649393 1.863860 0.018372 -0.012478 -757955.000000 0 0 1
18.884233 14.936145 -7.522620 25.224839 0.669187 1.873626 0.027965 -0.010265 -220852.000000 0 0 1
18.053633 15.983145 -7.129020 25.143936 0.724642 1.858268 0.037197 -0.014419 541378.000000 0 0 1
16.659233 15.620845 -7.117620 23.920731 0.753241 1.872922 0.043973 -0.005292 1026530.000000 0 1 0
16.008633 15.478845 -5.718420 22.990679 0.768574 1.822163 0.063827 -0.011516 -262169.000000 0 1 0
16.434233 14.338045 -4.929120 22.359780 0.717384 1.793068 0.059832 -0.017836 491142.000000 0 1 0
15.873733 14.524645 -3.664420 21.825872 0.741047 1.739489 0.056608 -0.019492 -182393.000000 0 1 0
15.873633 13.332245 -2.714920 20.906740 0.698600 1.701023 0.058725 -0.018676 -29803.400000 0 1 0
17.204633 13.031945 -2.322620 21.707730 0.648263 1.677997 0.075812 -0.009329 753685.000000 0 1 0
17.237533 12.351345 -1.072120 21.232939 0.621739 1.621311 0.076304 -0.008275 -111541.000000 0 1 0
17.090633 13.320245 0.102280 21.668621 0.662046 1.566076 0.077295 -0.009551 -719128.000000 0 1 0
15.913433 14.086245 0.152680 21.252834 0.724566 1.563612 0.063959 -0.015493 207722.000000 0 1 0
15.948033 15.038445 1.209280 21.953518 0.756052 1.515685 0.063201 -0.009218 -34568.200000 0 1 0
14.613433 15.830345 1.309780 21.583970 0.825349 1.510076 0.051548 -0.006982 77349.800000 0 1 0
14.521733 16.982545 0.543980 22.351364 0.863350 1.546456 0.056203 -0.007602 728227.000000 0 1 0
13.355033 17.710845 0.976780 22.203266 0.924702 1.526789 0.037647 -0.014950 607981.000000 0 1 0
13.260633 19.108045 0.268980 23.260140 0.964121 1.559232 0.028589 -0.016406 -485623.000000 0 1 0
12.815333 19.077245 -1.027720 23.005005 0.979276 1.615485 0.039417 -0.026460 -230605.000000 0 1 0
12.506833 20.438545 -1.418320 24.003471 1.021655 1.629919 0.033991 -0.017541 -1241560.000000 0 1 0
11.041633 20.749645 -1.397820 23.546111 1.081772 1.630196 0.034940 -0.015988 -1287540.000000 0 1 0
10.546333 20.707645 -0.044020 23.238624 1.099739 1.572691 0.040502 -0.016929 403873.000000 0 1 0
9.128433 20.499945 -0.141920 22.440949 1.151866 1.577121 0.035744 -0.017973 894593.000000 0 1 0
8.501533 20.507745 1.276080 22.236728 1.177808 1.513379 0.036593 -0.017958 34792.500000 0 1 0
8.341033 21.788045 1.988680 23.414666 1.205182 1.485761 0.037037 -0.007267 295811.000000 0 1 0
7.266233 21.744945 2.911780 23.111020 1.248304 1.444470 0.028254 -0.013872 219496.000000 0 1 0
6.923033 23.074845 3.623980 24.362063 1.279316 1.421487 0.029555 -0.004331 164880.000000 0 1 0
7.634233 23.317045 4.833780 25.006630 1.254386 1.376272 0.016944 0.002632 295165.000000 0 0 1
7.352533 24.635845 5.248780 26.239937 1.280763 1.369408 0.004699 0.004947 -103886.000000 0 0 1
7.888033 24.980845 6.687880 27.036853 1.264941 1.320840 -0.000250 0.009072 26552.200000 0 0 1
7.390533 24.184845 7.774280 26.456873 1.274223 1.272547 0.016386 -0.010766 175391.000000 0 0 1
7.952333 24.597545 8.986480 27.368516 1.258105 1.236239 0.002150 -0.010154 -362891.000000 0 0 1
7.488433 23.627845 10.116580 26.771195 1.263878 1.183280 0.007384 -0.008595 1286110.000000 0 0 1
6.106433 23.855145 10.504180 26.771146 1.320198 1.167590 0.001829 -0.007581 1155520.000000 0 0 1
5.635133 22.819845 11.325480 26.091504 1.328700 1.121793 -0.001276 -0.004234 100647.000000 0 0 1
4.310233 23.216745 12.026380 26.499607 1.387234 1.099735 0.005049 -0.009055 607080.000000 0 0 1
3.192133 23.246445 11.125880 25.968676 1.434333 1.128037 0.006701 -0.016799 508537.000000 0 0 1
2.042333 23.763045 11.817980 26.618003 1.485061 1.110756 0.006988 -0.016401 257442.000000 0 0 1
0.890133 23.805045 10.790580 26.151656 1.533421 1.145473 0.023407 -0.015977 -640093.000000 0 0 1
1.055233 24.820145 9.841980 26.721109 1.528307 1.193593 0.023411 -0.016602 148081.000000 0 0 1
0.085333 24.888845 8.816780 26.404498 1.567368 1.230346 0.020041 -0.020608 999775.000000 0 0 1
-1.338267 25.496445 9.132680 27.115780 -1.518356 1.227277 0.023076 -0.026446 964688.000000 0 0 1
-2.155667 24.710145 9.976880 26.735301 -1.483778 1.188370 0.021199 -0.024986 -55548.200000 0 0 1
-3.476967 25.185245 9.963880 27.306863 -1.433608 1.197286 0.026121 -0.024234 -247960.000000 0 0 1
-4.576567 24.307845 10.621180 26.918874 -1.384700 1.165205 0.029361 -0.029782 7300.960000 0 0 1
-4.757667 24.439245 12.004180 27.640775 -1.378528 1.121544 0.021596 -0.015881 156029.000000 0 0 1
-5.680067 25.482045 12.282980 28.852546 -1.351477 1.131044 0.022657 -0.010835 -349901.000000 0 0 1
-6.108867 25.415345 13.724880 29.523387 -1.334910 1.087295 0.007661 -0.002713 -823095.000000 0 0 1
-7.145567 24.546345 13.978480 29.137263 -1.287520 1.070431 0.005352 -0.017116 -640045.000000 0 0 1
-7.316067 24.436745 15.363680 29.777878 -1.279901 1.028688 -0.011721 0.012920 1053230.000000 0 0 1
-8.732267 23.839045 15.731980 29.867169 -1.219674 1.016045 -0.010124 0.003283 1077090.000000 0 0 1
-9.882667 24.650145 15.590880 30.795654 -1.189500 1.039944 -0.016077 0.010784 464894.000000 0 0 1
-11.054567 23.813145 15.589580 30.533659 -1.136179 1.034948 -0.017791 0.001519 336638.000000 0 0 1
-12.281867 24.692345 15.293780 31.534994 -1.109234 1.064458 -0.019335 0.001479 -422590.000000 0 0 1
-12.635267 25.645845 16.296480 32.907972 -1.113020 1.052715 -0.021484 0.003363 18972.800000 0 0 1
-13.444167 26.664645 15.755880 33.763837 -1.103799 1.085298 -0.023454 0.002385 -796379.000000 0 0 1
-13.942567 27.600845 16.823580 35.202765 -1.103037 1.072528 -0.011182 0.008874 325134.000000 0 0 1
-15.092667 27.097945 17.534880 35.630875 -1.062620 1.056266 -0.001793 0.000604 647386.000000 0 0 1
-15.357367 27.852545 18.702980 36.897350 -1.066893 1.039221 0.000691 -0.003256 -163533.000000 0 0 1
-16.637067 27.374545 19.456480 37.479492 -1.024693 1.024971 0.005138 -0.010763 -568096.000000 0 0 1
-17.736967 27.640845 18.672380 37.779281 -1.000282 1.053825 0.011880 -0.007646 -940050.000000 0 0 1
-18.801367 26.769945 19.035480 37.847997 -0.958508 1.043793 0.015039 0.000073 755030.000000 0 0 1
-20.073367 27.008645 18.135280 38.226893 -0.931649 1.076501 0.023260 -0.008275 539071.000000 0 0 1
-20.640967 28.343145 18.250380 39.527962 -0.941359 1.090876 0.015649 -0.007854 385391.000000 0 0 1
-21.404167 28.633945 17.102280 39.629902 -0.928891 1.124586 0.014706 -0.008973 -211082.000000 0 0 1
-22.368867 29.823645 17.168980 41.043756 -0.927271 1.139213 0.008368 -0.016588 37496.300000 0 0 1
-23.631667 29.615645 17.761580 41.845141 -0.897309 1.132431 0.007024 -0.013293 -82735.800000 0 0 1
-24.458167 30.723745 17.601480 43.034434 -0.898458 1.149428 -0.003624 -0.009415 -300516.000000 0 0 1
-25.855047 30.564745 18.228580 43.988274 -0.868681 1.143517 -0.006947 -0.006757 -464268.000000 0 0 1
-26.665527 29.632045 17.522980 43.544957 -0.838043 1.156647 0.005876 -0.010315 -797854.000000 0 0 1
-27.845077 29.512045 18.250280 44.490244 -0.814453 1.148114 0.020774 -0.012161 -1194840.000000 0 0 1
-27.882377 28.297945 19.241080 44.140909 -0.792795 1.119757 0.009751 -0.015603 -708567.000000 0 0 1
-28.047067 27.064745 18.672480 43.218051 -0.767576 1.124029 0.017598 -0.015858 98759.100000 0 0 1
-28.250627 26.068045 19.648580 43.170680 -0.745239 1.098270 0.013536 -0.009357 -104772.000000 0 0 1
-28.380527 24.617045 19.096880 42.144324 -0.714505 1.100522 0.003257 -0.005956 -421543.000000 0 0 1
-29.615967 24.482845 18.470580 42.634230 -0.690797 1.122719 0.019388 -0.014657 -306360.000000 0 0 1
-29.512617 23.451945 17.488880 41.555375 -0.671465 1.136406 0.014520 -0.008698 -209018.000000 0 0 1
-30.163557 22.062245 17.588080 41.302825 -0.631504 1.130915 0.014037 -0.010491 -969281.000000 0 0 1
-31.489427 21.839645 17.287280 42.040506 -0.606387 1.147020 0.016574 -0.008776 -929570.000000 0 0 1
-31.782887 20.455345 17.109580 41.488683 -0.571860 1.145719 0.003805 -0.008004 285737.000000 0 0 1
-33.093347 20.144645 16.337380 42.046240 -0.546808 1.171731 0.002635 -0.016446 55926.900000 0 0 1
-33.011017 20.330445 14.913980 41.538910 -0.552006 1.203561 -0.001095 -0.012827 -302691.000000 0 0 1
-34.321108 20.151145 14.441980 42.338846 -0.530907 1.222704 0.011034 -0.013230 28535.700000 0 0 1
-34.372430 20.520245 12.992480 42.087396 -0.538209 1.256968 0.016386 -0.009178 -121326.000000 0 0 1
-34.098705 21.910145 12.798380 42.503819 -0.571121 1.264939 0.014056 -0.010936 56657.600000 0 0 1
-34.200589 22.354045 11.467680 42.436910 -0.578913 1.297166 0.005783 -0.007350 -293485.000000 0 0 1
-33.222307 21.735445 10.432580 41.048629 -0.579352 1.313826 0.010381 -0.003416 -182012.000000 0 0 1
-33.432437 20.342445 10.066580 40.408897 -0.546620 1.319027 0.023591 0.003290 38888.200000 0 0 1
-32.241207 19.975945 9.396780 39.074714 -0.554691 1.327934 0.038783 -0.001544 58730.300000 0 0 1
-31.594607 18.878545 10.244580 38.204320 -0.538597 1.299322 0.013768 -0.007792 -371829.000000 0 0 1
-31.107377 19.490645 11.446680 38.452316 -0.559720 1.268529 0.005150 -0.000059 94651.500000 0 0 1
-30.807997 18.480845 12.391480 38.002935 -0.540325 1.238657 -0.000134 -0.005492 -77677.000000 0 0 1
-30.460077 19.148445 13.755780 38.518836 -0.561213 1.205615 -0.012456 0.007486 318277.000000 0 0 1
-29.240287 19.896845 13.771280 37.954275 -0.597491 1.199484 -0.002467 0.001962 523715.000000 0 0 1
-29.559627 21.235745 13.655480 38.874163 -0.622971 1.211865 0.000995 0.007234 419715.000000 0 0 1
-28.289797 22.117045 13.802580 38.470606 -0.663546 1.203833 0.002975 -0.001822 282477.000000 0 0 1
-27.734577 22.026045 15.064180 38.487439 -0.671178 1.168638 0.001499 0.000669 271863.000000 0 0 1
-26.473687 22.693345 15.123380 38.007376 -0.708661 1.161563 0.025084 -0.009013 261659.000000 0 0 1
-25.764637 22.862745 16.464380 38.178495 -0.725793 1.124921 0.026818 -0.008225 -401569.000000 0 0 1
-25.457617 21.579445 16.908780 37.412158 -0.703135 1.101836 0.051984 -0.006742 88951.000000 0 0 1
-24.879867 21.508245 18.202680 37.589227 -0.712843 1.065288 0.043100 0.000790 -161407.000000 0 0 1
-24.190667 20.145945 18.354780 36.440986 -0.694422 1.042937 0.045303 0.000692 80460.900000 0 0 1
-23.380567 19.997445 19.516980 36.434341 -0.707564 1.005489 0.036591 -0.006043 356898.000000 0 0 1
-22.645567 18.772645 19.458680 35.268600 -0.692162 0.986361 0.037493 0.000095 54725.200000 0 0 1
-21.922867 18.585745 20.802980 35.479656 -0.703203 0.944269 0.035919 -0.008226 -234158.000000 0 0 1
-22.702267 17.970945 21.795780 36.240914 -0.669593 0.925527 0.038988 -0.010050 -82841.500000 0 0 1
-22.579367 18.503845 23.087680 37.219096 -0.686520 0.901648 0.048977 -0.015273 62707.400000 0 0 1
-23.252767 17.591445 24.156180 37.863850 -0.647668 0.878931 0.030533 -0.016230 -333364.000000 0 0 1
-22.575367 16.373845 24.369280 37.035278 -0.627503 0.852634 0.040844 -0.024450 120987.000000 0 0 1
-23.183867 15.491645 25.320880 37.664701 -0.589069 0.833524 0.040482 -0.023997 22531.700000 0 0 1
21.082533 25.122945 34.255912 47.424710 0.872621 0.763642 0.001651 -0.002789 -137055.000000 0 0 1
20.321133 24.395445 33.295238 46.007163 0.876261 0.761652 0.026372 -0.011199 61248.900000 0 0 1
19.722633 23.259745 33.902025 45.599839 0.867505 0.732555 0.021099 -0.007796 187432.000000 0 0 1
18.837033 22.422245 32.929879 44.067764 0.872075 0.726874 0.034635 -0.016433 373650.000000 0 0 1
19.613933 21.607145 32.039669 43.337230 0.833715 0.738751 0.034419 -0.003832 429013.000000 0 0 1
18.766633 20.692045 31.361649 41.998813 0.834155 0.727669 0.040158 -0.010687 -136360.000000 0 0 1
19.272633 20.182645 30.034339 40.997989 0.808458 0.748691 0.026949 0.000741 -387571.000000 0 0 1
20.428833 19.377945 30.070659 41.195710 0.759005 0.752553 0.030724 -0.001193 -181501.000000 0 0 1
20.629933 18.841045 28.744629 40.085319 0.740108 0.771184 0.023434 -0.000145 41586.300000 0 0 1
21.769833 17.776245 28.771749 40.221065 0.684754 0.773685 0.028863 0.011407 307128.000000 0 0 1
23.066833 18.333945 28.902099 41.274007 0.671573 0.795050 0.035194 0.007354 -33888.500000 0 0 1
24.010333 17.299945 29.109419 41.510751 0.624366 0.793647 0.032212 0.018089 694030.000000 0 0 1
25.421633 17.844845 29.559949 42.877599 0.612037 0.810132 0.021063 0.005474 761260.000000 0 0 1
26.089433 18.286645 28.376149 42.664572 0.611344 0.843170 0.017823 0.015644 801285.000000 0 0 1
27.419333 18.765745 28.685289 43.895544 0.600178 0.858611 0.018157 0.008842 798197.000000 0 0 1
28.346033 18.799145 27.480409 43.727318 0.585600 0.891238 0.015997 0.010406 -345412.000000 0 0 1
28.299433 19.925845 26.571389 43.634114 0.613477 0.916049 0.024734 0.001103 539099.000000 0 0 1
29.497133 19.866145 25.793509 43.932331 0.592714 0.943301 0.018478 0.000351 332335.000000 0 0 1
29.819833 21.143745 25.011789 44.293002 0.616774 0.970739 0.018077 0.000062 237405.000000 0 0 1
28.930033 21.217545 23.865429 43.089323 0.632798 0.983804 0.019291 0.000653 841936.000000 0 0 1
29.429533 21.966345 22.753129 43.200956 0.641196 1.016105 0.002993 -0.010087 -290322.000000 0 0 1
30.007033 21.111545 21.637029 42.594370 0.613107 1.037960 0.009009 -0.001208 -707277.000000 0 0 1
29.069833 20.414845 20.867029 41.197743 0.612247 1.039665 0.014878 0.000271 -52789.000000 0 0 1
29.652133 19.613845 19.862829 40.724488 0.584393 1.061301 0.004927 0.002133 97239.700000 0 0 1
30.724833 18.542945 20.279729 41.220427 0.543001 1.056431 0.017986 -0.002272 79131.900000 0 0 1
30.268333 17.359745 20.896629 40.671880 0.520728 1.031205 0.026248 0.004340 -357830.000000 0 0 1
31.272333 16.398145 20.982629 41.074672 0.482950 1.034633 0.020073 -0.000544 -493295.000000 0 0 1
30.731333 14.916045 21.336329 40.275826 0.451875 1.012484 0.026835 -0.002174 270447.000000 0 0 1
30.225133 14.646745 22.631229 40.500103 0.451242 0.977865 0.015878 0.007117 620391.000000 0 0 1
28.969933 15.270845 22.900329 39.960991 0.485113 0.960553 0.016697 0.008831 -220674.000000 0 0 1
28.323433 14.621945 24.114149 39.968867 0.476562 0.923135 0.015015 0.005379 -47825.000000 0 0 1
27.915133 13.251845 23.762729 38.981192 0.443219 0.915247 0.014493 0.010167 -44875.600000 0 0 1
27.004433 12.866045 24.758219 38.829678 0.444624 0.879404 0.002903 0.015588 -136746.000000 0 0 1
26.627733 11.335345 24.533549 37.939705 0.402461 0.867617 0.008311 0.014349 -167317.000000 0 0 1
25.627533 11.240045 23.549529 36.574436 0.413327 0.871238 0.011574 0.022011 -71459.100000 0 0 1
25.332233 9.837145 23.331729 35.817050 0.370402 0.861350 0.003907 0.024373 472494.000000 0 0 1
24.063433 9.609945 22.447229 34.282327 0.379954 0.856911 -0.008656 0.017474 523678.000000 0 0 1
22.784633 9.689945 23.033229 33.816626 0.402111 0.821503 -0.001885 0.013917 98355.900000 0 0 1
21.841833 8.952345 22.312729 32.481811 0.388987 0.813540 -0.011055 0.024967 256297.000000 0 0 1
20.340033 9.138045 22.678529 31.804661 0.422242 0.776948 0.000014 0.012551 420995.000000 0 0 1
20.128133 8.563145 23.966629 32.447935 0.402236 0.739778 0.015122 0.009033 452986.000000 0 0 1
18.719933 8.484045 24.164519 31.722845 0.425519 0.704804 0.025979 0.007277 553473.000000 0 0 1
18.203933 7.717345 25.457769 32.234122 0.400971 0.660351 0.029052 0.001410 -192581.000000 0 0 1
18.165633 6.320945 25.256779 31.746645 0.334858 0.650843 0.026606 -0.005152 238258.000000 0 0 1
17.665333 5.671745 26.424889 32.287884 0.310670 0.612149 0.020858 -0.011653 -34689.500000 0 0 1
17.907433 4.153345 26.319449 32.103580 0.227905 0.609684 0.030516 -0.019569 1005160.000000 0 0 1
19.303833 3.853045 26.553429 33.054024 0.197011 0.637923 0.028800 -0.017581 1038220.000000 0 0 1
19.581433 2.507445 26.183759 32.791905 0.127359 0.646026 0.034101 -0.014975 540056.000000 0 0 1
21.077633 2.198045 25.809549 33.395072 0.103908 0.687468 0.038838 -0.012463 234139.000000 0 0 1
21.891033 2.456845 26.891859 34.762415 0.111763 0.686309 0.046281 -0.025409 -230470.000000 0 0 1
23.244533 2.315545 26.483629 35.313633 0.099289 0.722803 0.045970 -0.020250 -50880.700000 0 0 1
24.281133 2.674345 27.535999 36.809738 0.109699 0.725658 0.036643 -0.027511 -924049.000000 0 0 1
24.448833 1.693145 28.556259 37.630734 0.069142 0.709244 0.040401 -0.032908 127628.000000 0 0 1
25.067733 2.238345 29.724429 38.947954 0.089056 0.702571 0.033076 -0.016694 337448.000000 0 0 1
26.570033 2.596945 29.685039 39.923832 0.097430 0.732445 0.022215 -0.014337 -983501.000000 0 0 1
26.792233 3.797745 28.966169 39.639445 0.140810 0.751389 0.006193 0.003498 916981.000000 0 0 1
28.200433 3.995445 28.726079 40.452634 0.140744 0.781133 -0.009980 0.016765 816715.000000 0 0 1
28.919533 3.075745 27.758679 40.203779 0.105957 0.808686 -0.001044 0.010638 -1107530.000000 0 0 1
28.682833 3.323945 26.414249 39.133950 0.115372 0.829872 -0.005554 0.023296 136820.000000 0 0 1
29.060533 2.220045 25.581579 38.779639 0.076246 0.850423 0.009918 0.033131 -432938.000000 0 0 1
28.569833 2.574945 24.184889 37.520322 0.089885 0.870321 0.015235 0.022398 87726.400000 0 0 1
29.338333 3.610745 23.615529 37.834752 0.122457 0.896720 0.013584 0.028424 -158168.000000 0 0 1
30.568533 3.153545 23.074229 38.429157 0.102799 0.926751 0.006919 0.024771 -23077.400000 0 0 1
31.254533 4.298445 22.257029 38.609556 0.136673 0.956401 -0.011720 0.026515 -251066.000000 0 0 1
30.644433 4.689745 21.015329 37.452891 0.151859 0.975066 -0.005265 0.016696 234549.000000 0 0 1
31.270833 5.840445 20.438529 37.811497 0.184642 0.999721 -0.007206 0.013224 423992.000000 0 0 1
32.800133 5.959845 20.122629 38.939552 0.179741 1.027727 -0.016825 0.009803 471532.000000 0 0 1
33.586333 6.345845 21.256029 40.250842 0.186740 1.014448 -0.008861 0.013532 193681.000000 0 0 1
33.466133 7.637445 21.798829 40.663271 0.224372 1.005008 0.001145 0.014868 -652470.000000 0 0 1
33.929833 7.564445 23.276929 41.836226 0.219356 0.980771 0.009006 0.018187 7741.720000 0 0 1
33.209533 6.582245 24.034529 41.519364 0.195668 0.953448 0.008396 0.021952 318081.000000 0 0 1
33.750833 6.438145 25.323779 42.683278 0.188491 0.935650 0.008326 0.017268 107009.000000 0 0 1
33.023433 5.326245 26.156869 42.462899 0.159910 0.907150 0.018230 0.018251 228169.000000 0 0 1
33.325033 4.000645 25.779019 42.321635 0.119477 0.915844 0.014122 0.006474 124757.000000 0 0 1
32.722033 3.048445 26.696059 42.340336 0.092894 0.888585 0.007831 0.014600 76723.500000 0 0 1
32.905433 1.555645 26.329459 42.171412 0.047241 0.896505 0.008770 0.011742 210372.000000 0 0 1
32.039433 1.087245 25.263509 40.816078 0.033922 0.903379 0.017461 0.007030 160880.000000 0 0 1
32.242333 -0.295355 25.037009 40.822875 -0.009160 0.910554 0.019616 0.000353 -496916.000000 0 0 1
31.264333 -1.086455 24.151539 39.521333 -0.034737 0.913345 0.029148 0.005783 -304865.000000 0 0 1
30.032133 -1.500955 24.650919 38.882511 -0.049937 0.884101 0.030759 0.007994 -647693.000000 0 0 1
29.330533 -2.285255 23.716529 37.788574 -0.077757 0.892315 0.031197 0.007726 796219.000000 0 0 1
27.780033 -2.282755 23.929029 36.736081 -0.081988 0.861399 0.035645 0.010086 440936.000000 0 0 1
27.229033 -1.002555 23.941729 36.271638 -0.036803 0.849888 0.029613 0.008351 88865.700000 0 0 1
25.812633 -1.132055 23.848729 35.161562 -0.043829 0.825402 0.034178 0.005876 512721.000000 0 0 1
25.088033 0.236245 23.731329 34.534638 0.009416 0.813203 0.032869 0.005620 -2712.150000 0 0 1
25.265033 0.959345 22.508929 33.851058 0.037953 0.843383 0.020335 0.004792 28777.400000 0 0 1
24.380233 2.036745 22.579929 33.292601 0.083347 0.825450 0.018576 0.004835 -163407.000000 0 0 1
24.180933 2.887945 21.292229 32.348366 0.118868 0.852349 0.008268 0.003489 49200.400000 0 0 1
23.386233 2.353445 20.228829 31.010645 0.100296 0.860156 0.010511 0.005919 456689.000000 0 0 1
23.022033 3.317745 19.239629 30.185837 0.143126 0.879712 0.006663 0.009633 -158599.000000 0 0 1
22.866033 2.746845 17.787029 29.099468 0.119555 0.913158 0.006345 0.008152 282477.000000 0 0 1
24.136233 2.701545 17.132229 29.721530 0.111465 0.956450 -0.004034 -0.005382 601478.000000 0 0 1
24.071233 3.220745 15.827729 28.988178 0.133011 0.993206 -0.016871 0.005136 -46163.100000 0 0 1
23.525433 2.252645 14.730629 27.848013 0.095463 1.013416 -0.009963 0.016318 471926.000000 0 0 1
22.117733 2.032345 14.747029 26.660822 0.091630 0.984674 0.008131 0.014798 599338.000000 0 0 1
21.724133 0.829045 14.161829 25.945764 0.038144 0.993424 0.006168 0.009135 -816134.000000 0 0 1
20.213833 0.646545 14.105329 24.657197 0.031974 0.961784 0.009426 -0.002962 -462286.000000 0 1 0
19.421833 1.343045 13.125929 23.479808 0.069041 0.977580 0.033855 -0.001245 408206.000000 0 1 0
19.548333 1.123545 11.717229 22.818701 0.057412 1.031547 0.041973 -0.006717 -1144500.000000 0 1 0
19.209833 -0.302755 11.213829 22.245433 -0.015759 1.042462 0.035159 -0.002384 -442719.000000 0 1 0
20.119533 -1.370355 11.307729 23.120083 -0.068006 1.059754 0.026983 -0.010382 343146.000000 0 1 0
21.339333 -1.140155 10.604829 23.856435 -0.053379 1.110150 0.030857 -0.005966 374942.000000 0 1 0
22.521033 -2.048055 11.110429 25.195894 -0.090690 1.114126 0.036484 -0.015800 229441.000000 0 0 1
22.918833 -1.633455 12.384229 26.101920 -0.071151 1.076450 0.028226 -0.017018 -281987.000000 0 0 1
23.722733 -2.644955 12.876129 27.121183 -0.111036 1.076102 0.018612 -0.017033 -411308.000000 0 0 1
23.800033 -2.495755 14.400729 27.929400 -0.104482 1.029075 0.047300 -0.010847 -326725.000000 0 0 1
24.713733 -1.478255 14.658629 28.772022 -0.059744 1.036222 0.032082 -0.008628 -139247.000000 0 0 1
24.732133 -1.270455 16.046429 29.508988 -0.051323 0.995860 0.015126 -0.017536 -288892.000000 0 0 1
25.906533 -0.390255 16.468629 30.700432 -0.015063 1.004595 0.044840 -0.006820 -578197.000000 0 0 1
27.162433 -0.977955 16.377729 31.733014 -0.035988 1.028493 0.037781 -0.010879 -239350.000000 0 0 1
28.209233 -0.051055 16.613829 32.738093 -0.001810 1.038542 0.019527 -0.001032 466879.000000 0 0 1
29.649533 -0.607555 16.744829 34.056618 -0.020488 1.056783 0.022744 0.001540 132886.000000 0 0 1
30.187433 -0.958255 15.487129 33.941870 -0.031733 1.096982 0.023641 0.008654 480361.000000 0 0 1
31.489333 -1.515555 15.699929 35.218784 -0.048092 1.108748 0.020249 0.013506 446675.000000 0 0 1
32.035633 -2.191655 14.442129 35.208809 -0.068307 1.148139 0.014853 0.000934 -167591.000000 0 0 1
32.210833 -1.349555 13.332329 34.887105 -0.041873 1.178668 0.016495 0.004753 55574.900000 0 0 1
32.400333 -2.025555 12.095229 34.643600 -0.062435 1.214150 0.015149 0.004686 -163825.000000 0 0 1
31.917533 -1.348055 10.782929 33.716728 -0.042210 1.245268 0.013887 0.017372 -422044.000000 0 0 1
32.589133 -0.164855 10.451729 34.224515 -0.005059 1.260451 0.018707 0.015347 -5987.600000 0 0 1
31.726133 0.836845 9.966429 33.265260 0.026371 1.266518 -0.001274 0.014600 -408279.000000 0 0 1
32.382133 2.141945 9.509929 33.817587 0.066050 1.285739 -0.001246 0.011562 -113981.000000 0 0 1
32.963933 1.999045 8.204629 34.028415 0.060569 1.327286 0.008531 0.012055 308243.000000 0 0 1
33.429933 3.252745 7.770429 34.474923 0.096995 1.343449 0.009005 0.010590 -98638.100000 0 0 1
34.024233 3.294045 6.329329 34.764343 0.096514 1.387711 0.013606 0.001646 -53090.700000 0 0 1
34.468133 4.543745 5.881829 35.260371 0.131069 1.403202 0.013268 0.003565 159357.000000 0 0 1
34.812133 4.617745 4.536829 35.408911 0.131878 1.442316 0.009522 -0.001463 -435244.000000 0 0 1
-34.948236 5.963845 3.962229 35.674163 -0.169020 1.459500 0.001053 -0.013749 -420989.000000 0 0 1
34.426933 7.000545 4.013529 35.360002 0.200610 1.457046 0.020433 -0.016066 -408974.000000 0 0 1
34.961533 8.225545 3.484229 36.084737 0.231072 1.474089 0.005519 -0.011373 170890.000000 0 0 1
33.807033 9.312145 3.263429 35.217631 0.268784 1.477999 0.031723 -0.016759 1362670.000000 0 0 1
32.887133 9.046145 2.192729 34.179004 0.268428 1.506598 0.036857 -0.020267 285595.000000 0 0 1
32.036933 7.933845 2.373329 33.089933 0.242763 1.499011 0.042741 -0.018710 -1169330.000000 0 0 1
30.731133 7.978645 1.591529 31.789846 0.254019 1.520711 0.059964 -0.020425 -447376.000000 0 0 1
31.019533 8.102045 0.230629 32.061001 0.255484 1.563603 0.052099 -0.017050 43664.400000 0 0 1
29.850933 8.008545 -0.550471 30.911454 0.262112 1.588605 0.069650 -0.011049 -319266.000000 0 0 1
30.025133 7.656745 -2.046471 31.053541 0.249689 1.636745 0.031685 -0.014067 -659846.000000 0 0 1
28.845333 7.287745 -2.706471 29.874562 0.247470 1.661515 0.032507 -0.011784 334089.000000 0 0 1
29.117033 6.997245 -4.052571 30.218974 0.235842 1.705308 0.028784 -0.014067 -977284.000000 0 0 1
28.013533 6.354845 -4.833871 29.129168 0.223074 1.737514 0.023110 -0.006905 -1033300.000000 0 0 1
28.057833 4.987245 -4.857771 28.908693 0.175911 1.739636 0.031917 -0.006987 1708240.000000 0 0 1
26.914933 4.559645 -5.668771 27.880799 0.167816 1.775546 0.013668 -0.004207 809582.000000 0 0 1
26.717933 3.045945 -5.616371 27.471246 0.113514 1.776693 0.016665 0.004271 -526026.000000 0 0 1
26.506433 2.644745 -4.311271 26.984676 0.099448 1.731251 0.022592 0.000829 290443.000000 0 0 1
26.382833 1.274145 -4.226071 26.749523 0.048257 1.729448 0.010092 -0.001647 -220110.000000 0 0 1
26.258933 0.758045 -2.764571 26.414940 0.028860 1.675648 0.013014 -0.004898 -186315.000000 0 0 1
27.528833 0.809245 -2.173771 27.626379 0.029388 1.649562 0.042844 -0.002745 159601.000000 0 0 1
27.495933 0.237545 -0.885971 27.511229 0.008639 1.603006 0.044998 0.003280 -869114.000000 0 0 1
28.786533 0.430445 -0.138271 28.790083 0.014952 1.575599 0.064308 0.003040 -262453.000000 0 0 1
29.925933 -0.230255 -0.696271 29.934917 -0.007694 1.594058 0.058807 -0.005464 84763.700000 0 0 1
31.100733 0.288345 -0.168071 31.102524 0.009271 1.576200 0.043144 -0.003013 -791372.000000 0 0 1
-2.911667 -21.471455 -8.311620 23.207417 1.436012 1.937077 -0.007832 0.014283 121375.000000 0 1 0
-3.282967 -22.193655 -7.164020 23.551207 1.423938 1.879883 -0.001825 0.014347 -235191.000000 0 1 0
-2.364367 -23.193655 -6.769620 24.276812 1.469207 1.853394 0.000359 0.009283 8330.940000 0 1 0
-2.883667 -23.777755 -5.436720 24.561252 1.450110 1.793999 -0.007166 0.010327 -317164.000000 0 1 0
-2.693767 -23.006355 -4.285620 23.556640 1.454239 1.753743 -0.006974 0.010269 -239446.000000 0 1 0
-3.164267 -23.648055 -3.134120 24.063786 1.437780 1.701410 0.004055 0.005224 -347425.000000 0 1 0
-2.881167 -22.796855 -1.836820 23.051499 1.445078 1.650564 -0.000028 -0.009561 415163.000000 0 1 0
-1.465767 -22.629155 -1.724020 22.742018 1.506113 1.646677 0.008499 -0.011376 4942.280000 0 1 0
-1.064067 -22.363455 -0.434120 22.392964 1.523252 1.590184 -0.000844 -0.011704 513974.000000 0 1 0
0.439633 -22.341355 -0.011720 22.345683 -1.551121 1.571321 0.006925 -0.013813 316517.000000 0 1 0
1.103933 -21.313555 -0.642320 21.351788 -1.519048 1.600884 0.002997 -0.011222 -474379.000000 0 1 0
2.355333 -21.072555 -0.014620 21.203782 -1.459486 1.571486 0.010619 -0.008944 50609.200000 0 1 0
3.153733 -19.973155 -0.671120 20.231741 -1.414191 1.603974 0.020849 -0.016084 204370.000000 0 1 0
3.778933 -20.525255 -1.865320 20.953421 -1.388724 1.659937 0.011549 -0.008249 -22934.700000 0 1 0
4.751633 -19.631955 -2.370820 20.337464 -1.333327 1.687636 0.023532 -0.004445 -358698.000000 0 1 0
5.643533 -20.124855 -3.472720 21.187710 -1.297393 1.735442 0.014051 0.000713 -1051160.000000 0 1 0
6.502033 -21.120855 -2.993520 22.300854 -1.272154 1.705436 0.019215 -0.004785 -397992.000000 0 1 0
7.173133 -21.822555 -4.052020 23.325878 -1.253219 1.745396 0.005958 -0.001598 886424.000000 0 1 0
8.277033 -21.207055 -5.015620 23.311047 -1.198683 1.787653 0.007765 0.014415 357417.000000 0 1 0
7.856333 -20.022955 -5.719820 22.256618 -1.196888 1.830707 0.006121 0.010408 -202773.000000 0 1 0
9.003933 -19.520355 -6.362020 22.418527 -1.138619 1.858534 0.008076 0.014613 -159827.000000 0 1 0
8.769033 -18.337255 -7.293320 21.594985 -1.124733 1.915303 0.002750 0.016552 -458910.000000 0 1 0
9.925333 -17.974155 -8.000620 22.036161 -1.066265 1.942355 0.010614 0.020723 77950.200000 0 1 0
9.761933 -16.675655 -8.609820 21.154238 -1.041181 1.989966 0.008563 0.015520 25335.300000 0 1 0
9.984533 -16.636155 -10.200420 21.920336 -1.030251 2.054816 0.001482 0.020162 -204166.000000 0 1 0
9.033833 -17.320955 -10.983620 22.411281 -1.090054 2.082993 -0.002590 0.013761 -169805.000000 0 1 0
8.617933 -16.557155 -12.052620 22.218771 -1.090887 2.144150 -0.005192 0.010772 -55636.100000 0 1 0
8.079233 -17.393655 -13.235320 23.302080 -1.135955 2.174856 -0.000632 0.010369 -497852.000000 0 1 0
6.808433 -17.920755 -13.063020 23.198075 -1.207720 2.168938 -0.013337 0.012073 -578745.000000 0 1 0
6.403233 -18.512455 -14.253420 24.225449 -1.237790 2.199832 -0.008432 0.017785 185024.000000 0 1 0
5.221033 -19.515955 -14.141020 24.659686 -1.309391 2.181503 -0.012017 0.032689 -87945.400000 0 1 0
5.584533 -20.690055 -13.440520 25.296501 -1.307165 2.130953 0.003346 0.015748 211624.000000 0 0 1
4.476133 -21.425355 -12.911120 25.412175 -1.364841 2.103737 0.012094 0.008040 492061.000000 0 0 1
4.829933 -22.903155 -12.639420 26.601460 -1.362957 2.065920 -0.001560 0.013134 28753.500000 0 0 1
5.017833 -23.646155 -13.836220 27.852473 -1.361693 2.090667 0.011448 0.001100 -306217.000000 0 0 1
4.717433 -24.986755 -13.740820 28.903326 -1.384195 2.066222 -0.000158 -0.000476 678363.000000 0 0 1
3.263033 -25.332755 -14.228620 29.237809 -1.442695 2.079049 0.007995 -0.003013 -352104.000000 0 0 1
2.269933 -24.710755 -13.485420 28.242354 -1.479193 2.068591 0.020712 -0.001138 -1145490.000000 0 0 1
1.012633 -25.157825 -13.903620 28.761993 -1.530567 2.075334 0.009620 -0.002746 -240562.000000 0 0 1
0.449733 -26.547665 -13.382120 29.733178 -1.553857 2.037644 0.004569 -0.001277 -438900.000000 0 0 1
1.276533 -27.643345 -13.843320 30.942229 -1.524650 2.034644 0.008786 -0.002370 455577.000000 0 0 1
0.764533 -28.909785 -13.419020 31.881504 -1.544357 2.005237 0.004871 0.006647 471967.000000 0 0 1
-0.617067 -29.429815 -13.943520 32.571714 1.549832 2.013171 0.002680 0.006232 1251030.000000 0 0 1
-1.719667 -28.723315 -13.339120 31.716213 1.510998 2.004878 -0.008585 -0.003117 107645.000000 0 0 1
-2.951267 -29.388225 -13.474720 32.464532 1.470708 1.998805 -0.005627 -0.000167 703367.000000 0 0 1
-4.164567 -28.545385 -12.870920 31.588656 1.425926 1.990461 -0.009881 -0.005192 815993.000000 0 0 1
-4.434467 -28.403315 -11.474520 30.952825 1.415922 1.950570 -0.004372 -0.011306 -33529.600000 0 0 1
-5.044067 -29.603715 -11.005020 31.983324 1.402031 1.922062 -0.017217 -0.001128 -523915.000000 0 0 1
-5.593767 -29.693605 -9.578420 31.697737 1.384596 1.877775 -0.009960 -0.007539 1124380.000000 0 0 1
-6.925267 -29.161135 -9.333120 31.391691 1.337633 1.872672 -0.003135 -0.007890 939557.000000 0 0 1
-7.027067 -27.759085 -9.293020 30.104928 1.322860 1.884609 0.006606 -0.008720 -366320.000000 0 0 1
-8.493167 -27.392235 -8.910720 30.031140 1.270138 1.872048 0.008954 -0.007227 1007600.000000 0 0 1
-9.531067 -27.552895 -9.884520 30.784850 1.237762 1.897670 0.011333 -0.010749 382165.000000 0 0 1
-9.829667 -28.923245 -10.175820 32.198195 1.243189 1.892346 0.018637 -0.014450 -908705.000000 0 0 1
-10.922767 -29.220485 -11.228020 33.154366 1.213074 1.916287 0.022301 -0.017065 -470328.000000 0 0 1
-10.699367 -28.740385 -12.522520 33.125514 1.214416 1.958466 0.029295 -0.013972 -85366.900000 0 0 1
-11.678467 -29.195955 -13.420520 34.189190 1.190287 1.974185 0.033095 -0.016009 -297029.000000 0 0 1
-11.903067 -28.331815 -14.704520 34.067545 1.173057 2.017094 0.030199 -0.018495 49729.000000 0 0 1
-12.931767 -27.332095 -14.745020 33.640595 1.128871 2.024514 0.028411 -0.023376 297561.000000 0 0 1
-12.939867 -26.325235 -13.749820 32.396230 1.113941 2.009125 0.039480 -0.017247 -395050.000000 0 0 1
-13.907567 -25.221435 -14.165220 32.096645 1.066865 2.027877 0.059203 -0.012275 -428170.000000 0 0 1
-13.414867 -24.367455 -15.142720 31.670704 1.067551 2.069321 0.055841 -0.017532 -387676.000000 0 0 1
-14.333767 -23.394455 -15.463720 31.494190 1.021091 2.084036 0.069003 -0.014413 -709580.000000 0 0 1
-13.949467 -22.684055 -16.770620 31.470743 1.019460 2.132815 0.066433 -0.015326 10836.000000 0 0 1
-12.913267 -21.733355 -16.636620 30.263316 1.034676 2.152836 0.061913 -0.016632 225503.000000 0 0 1
-12.652367 -21.111455 -17.870920 30.416208 1.030882 2.198819 0.036198 -0.013408 -487292.000000 0 0 1
-12.929767 -19.617055 -17.887920 29.529399 0.988045 2.221525 0.047048 -0.011074 -197650.000000 0 0 1
-11.887567 -18.789855 -17.412820 28.241444 1.006709 2.235175 0.053396 -0.011672 25493.200000 0 0 1
-12.247767 -17.428555 -17.391820 27.499777 0.958233 2.255489 0.050418 -0.002667 -538526.000000 0 0 1
-11.122567 -16.518155 -17.812620 26.717978 0.978178 2.300556 0.060138 -0.011010 -707128.000000 0 0 1
-10.310167 -16.180755 -16.772920 25.484254 1.003481 2.289179 0.051485 -0.001421 -1452900.000000 0 0 1
-9.031567 -15.790055 -17.074620 24.948701 1.051236 2.324562 0.042280 0.001453 -877489.000000 0 1 0
-8.249167 -15.020155 -15.911220 23.384198 1.068563 2.319140 0.029162 0.000295 260052.000000 0 1 0
-7.854867 -15.648755 -14.736120 22.885272 1.105591 2.270398 0.032553 0.001362 66529.700000 0 1 0
-6.834367 -16.594755 -14.988320 23.382562 1.180126 2.266602 0.025390 0.004810 -628336.000000 0 1 0
-6.383367 -17.340955 -13.756520 23.036882 1.218080 2.210742 0.026149 0.006147 -672797.000000 0 1 0
-5.605967 -16.624355 -12.842220 21.742094 1.245557 2.202675 0.017084 0.002255 16606.300000 0 1 0
-5.444667 -17.213255 -11.558720 21.436990 1.264447 2.140277 0.010981 -0.008903 -263431.000000 0 1 0
-4.483167 -18.441955 -11.444420 22.162564 1.332326 2.113421 0.014383 -0.005763 -224594.000000 0 1 0
-3.142667 -18.048555 -11.590220 21.678558 1.398402 2.134878 0.006082 0.002808 -747019.000000 0 1 0
-2.251267 -19.143255 -11.470020 22.429752 1.453733 2.107581 -0.003553 0.011734 912199.000000 0 1 0
-0.810367 -18.738155 -11.918220 22.222041 1.527576 2.136872 0.001406 0.019192 -66012.900000 0 1 0
-0.718667 -18.425855 -13.296420 22.733750 1.531813 2.195523 0.005088 0.011310 -266947.000000 0 1 0
0.453933 -17.764455 -13.752020 22.469979 -1.545249 2.229405 0.000812 0.011210 898189.000000 0 1 0
1.739733 -18.662355 -13.920920 23.347423 -1.477843 2.209619 -0.001087 0.008885 -19798.300000 0 1 0
1.727733 -19.634855 -14.991620 24.764112 -1.483029 2.221036 0.005064 0.006614 -95344.100000 0 1 0
0.886633 -20.777455 -14.853320 25.556014 -1.528149 2.191007 -0.000681 0.002101 -685782.000000 0 0 1
0.984733 -21.890555 -15.930620 27.091525 -1.525842 2.199417 0.007852 0.000916 1189200.000000 0 0 1
2.238033 -22.618355 -16.094220 27.850003 -1.472170 2.186936 0.012143 -0.003986 1824950.000000 0 0 1
3.402533 -21.833655 -16.451020 27.548535 -1.416201 2.210758 0.015765 -0.012569 789215.000000 0 0 1
4.652533 -22.668355 -16.863120 28.633288 -1.368364 2.200536 0.019281 -0.007188 330133.000000 0 0 1
4.482633 -23.425055 -18.046320 29.908140 -1.381721 2.218544 0.013758 -0.001626 12918.800000 0 0 1
5.716033 -23.914255 -18.528120 30.787268 -1.336176 2.216563 0.011241 -0.002502 170014.000000 0 0 1
5.889933 -23.919155 -20.061520 31.769197 -1.329356 2.254253 0.012584 0.001181 28189.600000 0 0 1
5.969233 -22.536755 -20.527220 31.062901 -1.311875 2.292717 0.027026 -0.005529 35080.100000 0 0 1
6.316133 -22.474755 -21.901620 32.010765 -1.296831 2.324296 0.037294 0.001136 124053.000000 0 0 1
6.689033 -21.012755 -22.302620 31.363767 -1.262607 2.361851 0.026217 -0.001565 622871.000000 0 0 1
5.560633 -20.139055 -22.398520 30.629983 -1.301397 2.390966 0.031293 0.000465 545441.000000 0 0 1
6.041833 -18.811155 -22.525620 29.962758 -1.260020 2.421565 0.042103 -0.001580 37750.300000 0 0 1
4.858433 -17.956355 -22.936920 29.531972 -1.306554 2.460176 0.034265 -0.000518 -1511610.000000 0 0 1
4.485133 -18.136355 -24.267920 30.626389 -1.328360 2.485507 0.020869 -0.004921 64451.800000 0 0 1
3.433233 -17.292455 -24.684320 30.333673 -1.374806 2.521388 0.034934 -0.007058 531056.000000 0 0 1
2.030233 -17.416955 -24.033320 29.750170 -1.454754 2.511271 0.036779 0.000935 -446455.000000 0 0 1
2.053433 -16.818255 -22.740520 28.358447 -1.449302 2.501258 0.028301 0.003676 -505003.000000 0 0 1
0.873133 -16.078155 -22.546020 27.705459 -1.516544 2.521415 0.017837 0.003515 125767.000000 0 0 1
1.034633 -15.434155 -21.145120 26.199231 -1.503861 2.510002 0.007553 0.012263 -186819.000000 0 0 1
1.959733 -14.407355 -21.108820 25.631908 -1.435603 2.538414 0.008564 0.016128 -723761.000000 0 0 1
1.774633 -13.481755 -20.090020 24.259347 -1.439917 2.546569 0.008799 0.013186 -324836.000000 0 1 0
2.883733 -12.436755 -20.024920 23.748394 -1.342951 2.574026 0.013704 0.008543 -44305.100000 0 1 0
4.145233 -12.960755 -19.622920 23.879345 -1.261248 2.535277 0.011794 0.003415 282175.000000 0 1 0
5.221833 -12.076855 -19.923920 23.876359 -1.162688 2.557952 0.018514 0.011691 435498.000000 0 1 0
5.642133 -11.053055 -18.790120 22.518266 -1.098816 2.557910 0.013406 0.012373 -564540.000000 0 1 0
4.754533 -10.018655 -18.430420 21.509519 -1.127701 2.599924 0.001963 0.010092 -481487.000000 0 1 0
4.797033 -8.818955 -19.176020 21.644982 -1.072613 2.659300 0.018370 -0.002667 -224606.000000 0 1 0
4.299233 -8.811355 -20.621620 22.833628 -1.116860 2.697789 0.023792 -0.005648 842435.000000 0 1 0
2.861533 -8.866555 -20.742320 22.738689 -1.258616 2.719427 0.020672 -0.005470 642167.000000 0 1 0
2.502733 -8.959755 -22.078220 23.958061 -1.298409 2.742815 0.024227 -0.011587 313294.000000 0 1 0
0.956533 -8.884755 -22.172320 23.905346 -1.463549 2.758477 0.019315 -0.012735 247795.000000 0 1 0
0.455933 -7.577255 -21.977120 23.251160 -1.510698 2.809019 0.018583 -0.009496 -515117.000000 0 1 0
-0.943067 -7.491755 -21.958420 23.220421 1.445574 2.810388 0.012734 -0.010263 -297170.000000 0 1 0
-1.336367 -6.545055 -23.046620 23.995214 1.369385 2.859472 0.021518 -0.007927 -299725.000000 0 1 0
-1.004867 -7.095455 -24.297820 25.332574 1.430111 2.854790 0.024594 -0.009732 54779.700000 0 0 1
-1.682567 -6.472655 -25.374490 26.241018 1.316475 2.883890 0.023424 -0.003602 -41322.600000 0 0 1
-0.895267 -5.208155 -25.860270 26.394695 1.400563 2.940018 0.024044 -0.003933 12748.600000 0 0 1
-1.489267 -4.544555 -26.959980 27.380858 1.254121 2.966032 0.015503 -0.002808 138593.000000 0 0 1
-0.766867 -3.393855 -27.420310 27.640183 1.348571 3.015375 0.001326 -0.006519 -857179.000000 0 0 1
-0.851667 -2.043655 -26.597070 26.689061 1.175945 3.058541 0.004076 -0.006819 1224760.000000 0 0 1
-2.198767 -1.520155 -26.456360 26.591059 0.604909 3.040896 -0.002951 -0.001139 1052730.000000 0 0 1
-2.809267 -1.048955 -27.638660 27.800860 0.357359 3.033518 -0.001708 0.000161 -49578.600000 0 0 1
-4.351567 -1.187655 -27.509150 27.876513 0.266437 2.979067 0.011770 0.009856 390640.000000 0 0 1
-4.874267 -0.100255 -26.690810 27.132413 0.020565 2.960926 0.015782 0.001658 1677500.000000 0 0 1
-6.289167 -0.336955 -26.385500 27.126772 0.053526 2.907278 0.019044 -0.008593 1459380.000000 0 0 1
-7.050567 0.848545 -25.693500 26.656827 -0.119775 2.871934 0.029211 -0.013215 -648064.000000 0 0 1
-7.277667 2.035345 -26.475510 27.532884 -0.272703 2.863555 0.028277 -0.013596 172179.000000 0 0 1
-8.186067 1.989045 -27.558440 28.817279 -0.238360 2.844927 0.037718 -0.010553 571249.000000 0 0 1
-9.657867 1.619045 -27.162160 28.873493 -0.166096 2.795572 0.036276 -0.011525 -197150.000000 0 0 1
-10.679667 2.128045 -27.996810 30.040060 -0.196685 2.770640 0.030828 -0.016510 -645510.000000 0 0 1
-11.885767 1.582445 -27.665550 30.152251 -0.132359 2.732617 0.013372 -0.012925 -417232.000000 0 0 1
-13.105567 2.119745 -28.491250 31.432475 -0.160355 2.705543 -0.001478 -0.010590 248979.000000 0 0 1
-14.409867 1.617545 -28.266020 31.768358 -0.111785 2.667602 0.000513 -0.010960 509876.000000 0 0 1
-15.346567 2.223445 -29.142650 33.011435 -0.143881 2.652596 -0.011991 -0.004432 132762.000000 0 0 1
-15.978467 3.581245 -28.707810 33.049585 -0.220486 2.623224 -0.013015 0.002443 -626017.000000 0 0 1
-15.258267 4.759745 -29.019160 33.129768 -0.302379 2.638144 -0.006855 0.005891 160932.000000 0 0 1
-15.061567 5.195945 -30.357910 34.284856 -0.332196 2.658282 -0.010002 -0.008854 -469977.000000 0 0 1
-16.327867 5.829645 -30.970780 35.493284 -0.342930 2.631259 -0.007553 0.000417 -181159.000000 0 0 1
-16.832367 6.847145 -30.177720 35.226506 -0.386341 2.599588 -0.008138 0.012469 518928.000000 0 0 1
-17.867167 7.587345 -30.881990 36.476030 -0.401577 2.580432 -0.017288 0.008967 430834.000000 0 0 1
-18.614867 8.574245 -29.957070 36.296790 -0.431644 2.541594 -0.010140 0.005787 208767.000000 0 0 1
-17.715867 9.602945 -29.498410 35.724287 -0.496722 2.542281 -0.014406 0.007241 797232.000000 0 0 1
-18.408967 10.788745 -29.133000 36.111200 -0.530106 2.509441 -0.010417 0.006785 44165.300000 0 0 1
-7.910067 24.986145 31.197319 40.744930 -1.264200 0.698708 -0.030843 0.010194 -716534.000000 0 0 1
-8.871967 26.031445 31.137969 41.544206 -1.242325 0.723469 -0.015924 0.009346 -36097.200000 0 0 1
-8.633267 27.076745 32.101139 42.873845 -1.262142 0.724645 -0.005613 0.009879 1077090.000000 0 0 1
-7.275267 27.892045 31.926629 43.014013 -1.315645 0.734393 -0.005513 0.005402 952024.000000 0 0 1
-7.283567 28.515645 30.682949 42.516299 -1.320720 0.764577 0.015035 0.014837 625814.000000 0 0 1
-5.984867 28.956045 30.284949 42.325516 -1.366978 0.773422 0.009483 0.007533 259666.000000 0 0 1
-5.951567 30.156145 29.281339 42.452456 -1.375942 0.809661 0.027482 0.001461 -242163.000000 0 0 1
-6.277867 31.378745 29.916599 43.806850 -1.373336 0.819043 0.027303 -0.000393 369507.000000 0 0 1
-5.734867 32.460545 29.176979 44.021265 -1.395929 0.846254 0.039330 -0.000122 -59440.800000 0 0 1
-6.075367 33.790445 29.834489 45.484074 -1.392902 0.855379 0.037673 0.001181 -761298.000000 0 0 1
-5.425467 34.007445 31.042069 46.363262 -1.412592 0.837207 0.027437 -0.000820 -493259.000000 0 0 1
-6.080867 -34.406749 32.033049 47.401662 1.395868 0.828775 0.017638 0.000091 -211738.000000 0 0 1
-7.242067 34.065545 32.740609 47.800171 -1.361323 0.816265 0.001465 -0.002212 -217863.000000 0 0 1
-6.991867 33.125545 33.780715 47.825983 -1.362778 0.786502 0.014478 0.000782 -157564.000000 0 0 1
-6.643767 31.812745 33.371068 46.581311 -1.364916 0.772161 0.023750 0.011144 -151029.000000 0 0 1
-6.499867 30.781645 34.490047 46.683201 -1.362693 0.739492 0.019583 0.017133 -38326.000000 0 0 1
-5.300467 30.930545 -33.937260 46.222626 -1.401078 2.395303 0.003402 0.013736 123035.000000 0 0 1
-5.562867 30.512945 -32.654520 45.036685 -1.390465 2.381925 0.007060 0.009514 -602128.000000 0 0 1
-4.298567 30.412245 -31.776870 44.194477 -1.430383 2.373193 -0.010602 0.008799 807973.000000 0 0 1
-3.409067 29.280045 -31.910650 43.442287 -1.454888 2.395804 -0.012205 0.008782 772217.000000 0 0 1
-2.712867 29.207345 -33.142380 44.258852 -1.478179 2.417092 -0.002429 0.006408 -1091500.000000 0 0 1
-2.186767 27.845145 -33.544780 43.650731 -1.492424 2.447261 -0.010568 0.004517 -161859.000000 0 0 1
-1.048867 27.386345 -32.804820 42.746558 -1.532516 2.445613 0.001315 0.004167 630078.000000 0 0 1
-0.693767 26.027345 -33.039130 42.065284 -1.544147 2.474179 0.000768 0.001015 86991.100000 0 0 1
-0.091167 25.625745 -34.411983 42.905380 -1.567239 2.501505 -0.007011 0.008713 -749719.000000 0 0 1
-1.086067 25.455145 33.807851 42.333376 -1.528156 0.645814 -0.008107 0.004017 -186983.000000 0 0 1
-0.579467 25.333745 32.473309 41.190414 -1.547927 0.662641 0.001040 0.009887 -187718.000000 0 0 1
-0.367567 26.609845 31.670279 41.366962 -1.556984 0.698833 -0.000456 0.005697 108550.000000 0 0 1
-1.581067 27.332345 31.540109 41.765241 -1.513015 0.714874 -0.005901 0.001559 124166.000000 0 0 1
-1.372167 28.494045 30.723429 41.925202 -1.522677 0.748346 -0.000950 0.000694 29838.400000 0 0 1
-2.303667 29.652845 31.033729 42.984770 -1.493264 0.764151 0.009336 -0.008021 -178512.000000 0 0 1
-1.971067 30.116845 32.302519 44.208169 -1.505442 0.751463 0.020032 0.005920 526548.000000 0 0 1
-2.775667 31.309945 32.551769 45.250797 -1.482376 0.767911 0.014461 0.013409 414492.000000 0 0 1
-2.243667 32.255845 33.649945 46.666823 -1.501350 0.765454 0.031661 0.006076 -58584.500000 0 0 1
-1.156167 32.971645 33.141363 46.763405 -1.535745 0.783138 0.004013 0.002320 -727754.000000 0 0 1
-0.138667 33.194745 34.076250 47.572062 -1.566619 0.772299 -0.019880 0.005826 80741.100000 0 0 1
1.081633 33.901945 33.427180 47.622349 1.538902 0.792704 -0.000202 -0.003920 151677.000000 0 0 1
0.745433 -34.041849 32.886349 47.338305 -1.548902 0.802781 0.013519 -0.012821 413760.000000 0 0 1
1.931833 -33.378949 32.468269 46.605522 -1.512985 0.800063 -0.000014 -0.018138 291599.000000 0 0 1
1.737033 -31.810649 32.345229 45.399873 -1.516245 0.777810 0.000193 -0.006129 -148083.000000 0 0 1
1.599833 -31.164949 33.607193 45.861279 -1.519507 0.748367 -0.015009 0.004684 205739.000000 0 0 1
2.020933 -29.808449 33.473278 44.867451 -1.503103 0.728689 0.001386 -0.003717 -310278.000000 0 0 1
1.889133 -28.914949 -34.440185 45.008548 -1.505555 2.442136 -0.000902 -0.001232 484408.000000 0 0 1
0.599233 -28.303849 -34.367150 44.526036 -1.549628 2.452532 -0.016902 -0.002144 242976.000000 0 0 1
0.159033 -28.294349 -33.051670 43.508716 -1.565176 2.433581 -0.029120 0.009394 -654971.000000 0 0 1
-1.164167 -27.551549 -32.992390 42.999313 1.528567 2.445381 -0.037392 0.016266 -562366.000000 0 0 1
-1.598467 -27.222049 -31.720930 41.830759 1.512144 2.431522 -0.032364 0.014056 434452.000000 0 0 1
-2.776267 -26.405949 -31.754810 41.392629 1.466043 2.445200 -0.023919 0.003506 401856.000000 0 0 1
-3.130767 -25.840249 -30.358390 39.989398 1.450225 2.432819 -0.022705 0.004349 -290317.000000 0 0 1
-3.580367 -26.795149 -29.422140 39.955742 1.437963 2.398483 -0.032400 0.009144 17830.000000 0 0 1
-4.350767 -26.308349 -28.358060 38.926057 1.406904 2.386942 -0.019219 0.004465 -188926.000000 0 0 1
-3.608167 -25.637749 -27.188510 37.543682 1.430978 2.380646 -0.016575 0.006121 12266.000000 0 0 1
-3.173067 -24.300749 -27.544700 36.868757 1.440956 2.414487 -0.011736 0.009310 60390.500000 0 0 1
-2.089467 -23.796949 -26.813750 35.911528 1.483217 2.413825 -0.005498 0.008272 -302866.000000 0 0 1
-1.209067 -22.775449 -27.676770 35.863442 1.517760 2.452348 0.009089 0.011442 1021660.000000 0 0 1
-0.397267 -23.151349 -28.829520 36.976803 1.553638 2.464927 -0.019492 0.007287 722220.000000 0 0 1
0.454233 -24.262849 -28.573550 37.487863 -1.552077 2.437514 -0.019120 0.015345 -338208.000000 0 0 1
1.252033 -24.604149 -29.850840 38.704061 -1.519953 2.451612 -0.031268 0.011334 33542.800000 0 0 1
2.224333 -23.665849 -30.259890 38.479618 -1.477082 2.475735 -0.007639 0.006283 82355.500000 0 0 1
3.032833 -24.230049 -31.271790 39.676418 -1.446276 2.478627 -0.002193 0.006336 -1507650.000000 0 0 1
3.986633 -23.171949 -31.805810 39.553027 -1.400419 2.505008 0.009682 -0.001342 -980077.000000 0 0 1
5.092633 -22.961649 -30.937980 38.862975 -1.352541 2.491584 0.026024 -0.002371 488004.000000 0 0 1
6.117833 -23.936749 -30.934960 39.589993 -1.320570 2.467676 0.020349 -0.000839 -655076.000000 0 0 1
6.889733 -24.278249 -32.222360 40.928990 -1.294284 2.477173 0.020782 -0.000549 -510044.000000 0 0 1
6.164333 -25.111649 -33.144160 42.037236 -1.330079 2.479077 -0.017193 -0.000343 258867.000000 0 0 1
6.719833 -24.967649 -34.445080 43.069748 -1.307885 2.497677 -0.001779 -0.001147 295038.000000 0 0 1
6.280233 -23.622549 33.984539 41.861856 -1.310949 0.623524 -0.002414 0.001369 -1123640.000000 0 0 1
4.927633 -23.602149 33.786238 41.507263 -1.364974 0.619819 0.009227 0.001178 -1402740.000000 0 0 1
4.522033 -22.511649 32.928499 40.143607 -1.372559 0.608918 0.027618 -0.009949 196278.000000 0 0 1
3.093233 -22.004049 33.269286 40.007395 -1.431136 0.588853 0.011925 -0.015816 758158.000000 0 0 1
1.933233 -22.773149 32.995819 40.138233 -1.486108 0.605786 0.011122 -0.010646 225547.000000 0 0 1
1.692833 -23.872649 33.928149 41.519734 -1.500004 0.614335 0.005273 -0.003294 -207394.000000 0 0 1
0.358433 -24.599649 33.662324 41.694403 -1.556227 0.631135 0.005274 -0.001457 140810.000000 0 0 1
0.330933 -25.229949 32.441009 41.098405 -1.557680 0.661047 0.021655 -0.008413 73897.500000 0 0 1
-0.910867 -25.867449 32.205289 41.317493 1.535598 0.676995 0.020833 -0.012724 156419.000000 0 0 1
-0.849567 -26.759249 30.922119 40.901792 1.539058 0.713602 0.027089 -0.030048 308229.000000 0 0 1
-2.089767 -27.267849 30.434919 40.916830 1.494307 0.732023 0.021595 -0.025754 432856.000000 0 0 1
-1.968867 -28.514949 29.778009 41.276005 1.501859 0.764922 0.024116 -0.017519 -217276.000000 0 0 1
-3.291967 -28.806249 29.065559 41.054156 1.457010 0.784161 0.026208 -0.010691 -542156.000000 0 0 1
-4.312567 -29.247449 29.895949 42.044967 1.424400 0.779810 0.024797 -0.009099 -764476.000000 0 0 1
-5.502967 -29.353449 29.171869 41.748120 1.385475 0.797135 0.008686 -0.005360 -272207.000000 0 0 1
-6.687167 -29.802849 30.083899 42.871540 1.350072 0.792985 0.000919 0.001846 -221308.000000 0 0 1
-7.805567 -30.214749 29.311079 42.813517 1.317987 0.816711 0.022028 0.003936 177822.000000 0 0 1
-8.927867 -30.507749 30.136379 43.802179 1.286103 0.812052 0.018932 0.002494 120402.000000 0 0 1
-8.867567 -31.833949 31.004439 45.313456 1.299126 0.817261 0.015883 0.004962 -672651.000000 0 0 1
-8.746867 -33.024649 30.264649 45.640816 1.311883 0.845837 0.028465 0.001848 397384.000000 0 0 1
-9.939367 -33.435649 29.583389 45.737408 1.281847 0.867403 0.026692 0.003156 324376.000000 0 0 1
-9.836567 34.340045 29.042879 46.037871 -1.291820 0.888151 0.039886 0.006639 -297688.000000 0 0 1
-9.919667 33.437745 30.112159 46.078462 -1.282406 0.858600 0.041740 0.010400 181942.000000 0 0 1
-9.560567 32.157745 29.778309 44.858363 -1.281816 0.844869 0.037723 -0.001400 -376800.000000 0 0 1
-10.074767 31.122945 30.824209 44.947419 -1.257733 0.815116 0.038776 0.017104 36945.500000 0 0 1
-11.486867 31.162545 30.905099 45.367141 -1.217638 0.821366 0.032126 0.028848 -12332.200000 0 0 1
-11.958267 30.017945 31.625519 45.213390 -1.191695 0.796137 0.027299 0.021888 105944.000000 0 0 1
-11.838167 29.975045 33.178070 46.253971 -1.194665 0.770874 0.031563 -0.002006 -641435.000000 0 0 1
-12.896567 30.703045 33.721649 47.393544 -1.173133 0.779131 0.025687 0.014898 -98439.100000 0 0 1
-13.095367 30.340145 -34.106245 47.489462 -1.163333 2.371988 0.031471 0.005729 71933.400000 0 0 1
-14.548767 30.484045 -33.591520 47.637525 -1.125507 2.353429 0.031931 0.008076 103495.000000 0 0 1
-14.620667 30.099945 -32.209870 46.446166 -1.118624 2.337116 0.020308 0.001171 107057.000000 0 0 1
-15.915267 30.323345 -31.666420 46.642932 -1.087465 2.317075 0.027682 0.001345 279745.000000 0 0 1
-16.122067 29.969745 -30.200680 45.499316 -1.077256 2.296633 0.036705 -0.008274 -334232.000000 0 0 1
-16.093167 28.539345 -30.006930 44.428595 -1.057349 2.312299 0.025556 -0.010552 141391.000000 0 0 1
-16.027767 28.134745 -28.676720 43.252832 -1.052970 2.295618 0.020771 -0.011855 -174180.000000 0 0 1
-16.412767 26.674545 -28.457740 42.317292 -1.019205 2.308357 0.004830 -0.016087 -354666.000000 0 0 1
-17.755367 26.468545 -28.785050 42.946665 -0.979931 2.305343 0.014121 -0.010552 -505282.000000 0 0 1
-18.155567 25.114945 -28.627390 42.189009 -0.944867 2.316584 -0.000244 -0.008594 -42944.900000 0 0 1
-19.633167 24.837345 -28.957250 42.905446 -0.901894 2.311637 -0.003061 0.000364 17047.200000 0 0 1
-20.535867 25.234745 -27.940780 42.885911 -0.887701 2.280375 -0.005758 -0.000543 475077.000000 0 0 1
-21.872167 24.878245 -28.285500 43.559020 -0.849610 2.277539 -0.002860 -0.006456 1057560.000000 0 0 1
-22.963967 25.111245 -27.170540 43.544881 -0.830033 2.244604 0.020450 -0.015848 461167.000000 0 0 1
-23.290367 26.510845 -27.084600 44.484173 -0.849975 2.225418 0.006866 -0.001182 562932.000000 0 0 1
-24.465767 26.801145 -26.311900 44.824002 -0.830920 2.198150 0.002431 -0.003679 583211.000000 0 0 1
-24.358567 26.503345 -24.759520 43.689826 -0.827542 2.173305 -0.003635 0.012127 -410672.000000 0 0 1
-24.017667 25.159745 -24.318220 42.440981 -0.808618 2.180945 -0.003696 0.006397 -221552.000000 0 0 1
-25.105167 24.280245 -24.160820 42.468164 -0.768696 2.175984 -0.001596 0.008122 -197652.000000 0 0 1
-25.884797 24.256445 -22.804020 42.171331 -0.752934 2.142121 -0.020145 0.008267 2659.720000 0 0 1
-25.252247 23.695645 -21.669420 40.850010 -0.753608 2.129943 -0.019328 0.009610 -300124.000000 0 0 1
-24.426067 24.659245 -21.079720 40.608690 -0.790149 2.116587 -0.005331 0.011511 -326131.000000 0 0 1
-23.580567 24.114045 -19.914820 39.167976 -0.796583 2.104176 0.002997 0.000284 -128671.000000 0 0 1
-24.275467 23.942045 -18.702720 38.888450 -0.778483 2.072514 0.006546 -0.004634 157231.000000 0 0 1
-23.319067 23.605145 -17.712720 37.612793 -0.791495 2.061133 0.013939 -0.010939 198016.000000 0 0 1
-23.786867 23.743045 -16.210620 37.313957 -0.784476 2.020211 0.004974 -0.010212 -184163.000000 0 0 1
-23.940267 25.032345 -15.807120 38.073872 -0.807694 1.998926 -0.000776 -0.013798 230355.000000 0 0 1
-24.612567 25.211145 -14.559720 38.123034 -0.797412 1.962663 -0.027613 -0.003961 104653.000000 0 0 1
-24.914367 26.657545 -14.093720 39.115001 -0.819186 1.939402 -0.023303 -0.000183 -108632.000000 0 0 1
-23.740167 27.320845 -13.716520 38.706162 -0.855409 1.933043 -0.006461 -0.000497 168581.000000 0 0 1
-24.050467 28.047945 -12.520020 39.011063 -0.861977 1.897513 -0.000973 -0.000583 509645.000000 0 0 1
-22.706967 28.634245 -11.989820 38.461437 -0.900338 1.887816 0.007605 0.003866 492100.000000 0 0 1
-21.874367 27.579445 -11.521420 37.038586 -0.900252 1.887110 0.001482 -0.002030 -1297000.000000 0 0 1
-20.715767 28.074345 -11.040920 36.595270 -0.935091 1.877275 -0.007427 0.006509 -1712720.000000 0 0 1
-19.893167 27.014345 -10.314720 35.098524 -0.936061 1.869079 0.019100 -0.003210 -312671.000000 0 0 1
-19.181167 26.210145 -11.218120 34.361826 -0.939031 1.903363 0.013565 -0.009426 -156395.000000 0 0 1
-18.512367 25.178845 -10.580020 32.994223 -0.936812 1.897225 0.014848 0.003713 -504980.000000 0 0 1
-17.826167 24.247245 -11.593620 32.250785 -0.936846 1.938510 0.015606 -0.002366 -222625.000000 0 0 1
-17.358567 23.067745 -11.025120 30.902977 -0.925695 1.935600 0.004377 -0.005153 98898.200000 0 0 1
-17.053867 22.029945 -11.996820 30.332763 -0.912035 1.977416 0.030353 -0.000223 63742.100000 0 0 1
-16.556367 20.713145 -11.338320 28.839299 -0.896472 1.974857 0.012563 0.006936 -122778.000000 0 0 1
-17.578767 19.925345 -10.747220 28.662434 -0.847885 1.955148 0.014911 0.007987 -80060.000000 0 0 1
-17.143567 18.650745 -10.481920 27.415740 -0.827480 1.963115 0.023218 0.000923 -933867.000000 0 0 1
-18.295067 17.621845 -10.560720 27.509411 -0.766656 1.964807 0.023190 0.007987 65032.000000 0 0 1
-18.815167 17.320545 -11.848920 28.185256 -0.744060 2.004676 0.029056 0.006907 366502.000000 0 0 1
-19.492167 18.356245 -12.563320 29.575891 -0.755395 2.009518 0.026280 0.006439 -1062760.000000 0 0 1
-20.265367 17.917145 -13.794420 30.364374 -0.723976 2.042378 0.033137 0.002491 -328225.000000 0 0 1
-19.502767 17.363845 -14.863320 30.046286 -0.727445 2.088264 0.041056 0.001587 262458.000000 0 0 1
-20.376367 17.048945 -15.960620 30.993616 -0.696723 2.111763 0.026536 0.007855 467608.000000 0 0 1
-19.711467 16.755845 -17.351920 31.151074 -0.704526 2.161595 0.046084 0.004362 33799.200000 0 0 1
-19.106967 17.946345 -17.947220 31.768698 -0.754085 2.171150 0.020338 -0.003812 404694.000000 0 0 1
-18.190667 17.603645 -18.961220 31.627781 -0.769000 2.213687 0.016943 0.003006 -348858.000000 0 0 1
-17.314267 18.789545 -19.466620 32.121334 -0.826238 2.221861 0.000925 0.007461 285948.000000 0 0 1
-16.167767 19.034745 -18.653820 31.171833 -0.866661 2.212323 -0.003775 0.006266 654336.000000 0 0 1
-15.419967 20.206045 -18.935720 31.695759 -0.918941 2.211078 0.004754 0.000440 199975.000000 0 0 1
32.224942 31.496145 2.313580 45.119915 0.773961 1.519498 0.017862 -0.005607 -252584.000000 0 0 1
33.387252 31.308745 1.555280 45.796998 0.753282 1.536829 0.033270 -0.009797 -296875.000000 0 0 1
33.385562 31.935545 0.293580 46.201309 0.763204 1.564442 0.023919 -0.000223 -13011.000000 0 0 1
34.713626 31.702845 -0.465820 47.014075 0.740097 1.580705 0.015564 0.003392 384146.000000 0 0 1
-34.490920 32.376945 0.153480 47.306592 -0.753794 1.567552 -0.005485 0.009121 746897.000000 0 0 1
-33.283547 32.324145 -0.617420 46.400712 -0.770776 1.584103 0.008477 0.008045 426057.000000 0 0 1
-32.239497 33.382545 -0.242820 46.409465 -0.802815 1.576028 -0.002290 0.011924 -59085.800000 0 0 1
-31.685477 33.174345 1.069480 45.887366 -0.808349 1.547488 -0.000337 0.011759 40814.500000 0 0 1
-31.446717 34.423145 1.611380 46.652390 -0.830554 1.536249 -0.018847 0.011958 86103.700000 0 0 1
-30.738887 34.255645 3.013880 46.123875 -0.839454 1.505407 -0.007765 0.013398 84934.700000 0 0 1
-30.333487 -33.718049 3.620680 45.498753 0.838190 1.491135 -0.007652 0.016939 67898.300000 0 0 1
-29.662027 -34.026049 4.822780 45.396773 0.853813 1.464359 0.008092 0.007166 -350908.000000 0 0 1
-29.341707 -32.751149 5.716880 44.342488 0.840252 1.441511 0.017764 0.011372 742766.000000 0 0 1
-30.465837 -32.169349 6.428980 44.770146 0.812589 1.426698 0.021429 0.004961 840627.000000 0 0 1
-31.093337 -32.981749 7.384680 45.925209 0.814861 1.409297 0.012336 -0.006385 -631211.000000 0 0 1
-32.146837 -32.262949 8.302380 46.295210 0.787201 1.390485 0.021036 -0.003897 1417010.000000 0 0 1
-33.432427 -31.847049 7.815980 46.830025 0.761117 1.403111 0.012976 0.004469 526885.000000 0 0 1
-34.216220 -32.855849 7.325780 47.999204 0.765119 1.417575 0.013807 0.009513 -675066.000000 0 0 1
34.519417 -32.773149 7.282880 48.152983 -0.759454 1.418969 0.007093 0.016622 520982.000000 0 0 1
33.917712 -32.857749 8.559780 47.992840 -0.769526 1.391482 0.003720 0.023327 -270545.000000 0 0 1
32.558882 -32.561349 8.342780 46.796626 -0.785436 1.391561 -0.007159 0.029405 -336929.000000 0 0 1
31.763792 -32.484249 9.669580 46.450680 -0.796611 1.361094 -0.010350 0.022974 340342.000000 0 0 1
30.347892 -32.458249 9.435980 45.426536 -0.818987 1.361553 -0.011204 0.017784 658614.000000 0 0 1
29.588632 -32.468149 10.608880 45.190886 -0.831766 1.333828 -0.009927 0.028399 -114109.000000 0 0 1
29.522512 -31.095949 11.404980 44.369024 -0.811349 1.310830 0.004193 0.023018 -568869.000000 0 0 1
28.898032 -30.028949 10.653880 43.015569 -0.804588 1.320517 0.009338 0.013320 434963.000000 0 0 1
29.673782 -29.410149 9.605280 42.869005 -0.780936 1.344817 0.006872 0.004390 151721.000000 0 0 1
28.935372 -28.189549 8.976980 41.382274 -0.772343 1.352130 0.007627 -0.007711 84453.700000 0 0 1
29.606432 -27.561149 7.884380 41.210693 -0.749636 1.378291 0.015170 -0.018598 -86308.300000 0 0 1
28.941782 -26.369049 7.516580 39.867938 -0.738918 1.381124 0.025012 -0.016607 131447.000000 0 0 1
29.264402 -25.931149 6.089580 39.571615 -0.725082 1.416295 0.007764 -0.007141 445830.000000 0 0 1
30.531062 -25.302549 5.912180 40.091378 -0.692026 1.422789 0.008760 -0.007988 -22410.800000 0 0 1
30.690242 -24.879449 4.571880 39.771598 -0.681209 1.455588 -0.000177 -0.006797 123306.000000 0 0 1
32.170872 -24.562449 4.292180 40.702601 -0.652085 1.465148 0.016244 -0.015898 413852.000000 0 0 1
32.928012 -25.692149 3.827580 41.940325 -0.662583 1.479407 0.018188 -0.005137 1421730.000000 0 0 1
34.372866 -25.524949 3.850680 42.986564 -0.638742 1.481097 0.032367 -0.013986 1625450.000000 0 0 1
35.126354 -26.857149 3.974980 44.395582 -0.652772 1.481141 0.035826 -0.009146 -184913.000000 0 0 1
34.798305 -27.446949 5.253280 44.630191 -0.667840 1.452816 0.027176 -0.000353 -257239.000000 0 0 1
-35.037504 -28.745849 5.512280 45.654526 0.687075 1.449762 0.022042 0.002566 -1203840.000000 0 0 1
34.236148 -29.562549 6.267080 45.665462 -0.712273 1.433123 0.024213 0.004339 175290.000000 0 0 1
33.013062 -29.990949 5.689480 44.963201 -0.737468 1.443920 0.015222 0.006608 486883.000000 0 0 1
32.064662 -28.923049 5.573080 43.540148 -0.733931 1.442446 0.015222 0.001108 -443652.000000 0 0 1
30.602692 -29.364049 5.352680 42.748372 -0.764746 1.445253 -0.008515 0.000953 -279588.000000 0 0 1
30.451732 -29.750749 4.004680 42.760408 -0.773755 1.477005 -0.017754 0.005693 -278463.000000 0 0 1
29.156282 -29.547949 3.492080 41.657709 -0.792070 1.486870 -0.015750 0.007850 188099.000000 0 0 1
28.123302 -30.698249 3.756280 41.802060 -0.829146 1.480816 -0.000866 0.004352 77881.100000 0 0 1
28.305102 -31.850649 2.999680 42.715813 -0.844270 1.500514 0.001019 0.017759 -471970.000000 0 0 1
27.235372 -32.774949 3.185180 42.732986 -0.877448 1.496190 0.010866 0.013873 -497597.000000 0 0 1
27.328202 -34.146149 2.552980 43.809905 -0.895854 1.512489 0.008382 0.009804 -242169.000000 0 0 1
27.332082 -34.070649 1.126080 43.693476 -0.894705 1.545021 0.013436 -0.006452 289475.000000 0 0 1
27.456052 33.827345 0.558280 43.571043 0.888990 1.557983 0.009234 0.003929 -17903.300000 0 0 1
26.978482 33.922345 -0.913320 43.352026 0.898927 1.591865 0.011023 -0.000773 -296398.000000 0 0 1
27.939652 34.528445 -1.731320 44.450367 0.890484 1.609756 0.001273 0.005780 378133.000000 0 0 1
27.350412 -34.583449 -3.025120 44.195150 -0.901658 1.639299 0.009161 0.003860 254224.000000 0 0 1
28.361852 -33.958749 -4.044920 44.429187 -0.874966 1.661965 0.005047 0.011582 447679.000000 0 0 1
28.552022 -32.556649 -3.857220 43.474492 -0.850837 1.659637 -0.006212 0.012566 332165.000000 0 0 1
29.523692 -31.940549 -4.697920 43.748343 -0.824699 1.678389 -0.010912 0.014891 109976.000000 0 0 1
29.734672 -30.402349 -4.497320 42.763061 -0.796500 1.676159 -0.007715 0.012703 -178733.000000 0 0 1
28.656322 -29.596249 -4.957120 41.493322 -0.801532 1.690550 -0.021111 0.011007 127275.000000 0 0 1
28.946562 -28.247449 -5.072920 40.762192 -0.773175 1.695571 -0.012412 0.000569 101754.000000 0 0 1
29.958212 -27.688749 -6.139720 41.253575 -0.746050 1.720180 0.006984 -0.000864 -358694.000000 0 0 1
31.260862 -28.066149 -5.837020 42.414868 -0.731601 1.708852 0.009096 0.008583 -347122.000000 0 0 1
32.275922 -27.520649 -6.697920 42.941628 -0.706041 1.727413 0.014565 0.000492 606305.000000 0 0 1
32.641812 -28.402149 -7.919220 43.987316 -0.716057 1.751818 0.003839 0.001545 -312401.000000 0 0 1
31.546122 -28.490449 -8.837720 43.416227 -0.734545 1.775787 -0.002549 0.006576 311026.000000 0 0 1
31.520802 -29.639549 -9.724420 44.346681 -0.754648 1.791875 -0.012589 0.017520 59077.600000 0 0 1
31.157572 -31.003149 -9.011520 44.868664 -0.782914 1.773014 -0.015419 0.021042 -302086.000000 0 0 1
32.103622 -31.505349 -8.108520 45.705335 -0.775993 1.749149 -0.000140 0.013554 -572520.000000 0 0 1
31.846112 -32.829649 -7.752620 46.390342 -0.800604 1.738701 0.007942 0.006602 1771450.000000 0 0 1
33.205652 -33.377649 -7.055920 47.607444 -0.787981 1.719555 0.008100 0.005821 1757620.000000 0 0 1
33.146622 34.463045 -6.671620 48.279504 0.804867 1.709427 0.004150 -0.000442 90931.100000 0 0 1
32.478322 34.233745 -5.427420 47.499975 0.811706 1.685308 0.017788 0.004075 11645.000000 0 0 1
32.387722 32.748245 -5.032120 46.332864 0.790933 1.679619 -0.000778 0.002527 -248696.000000 0 0 1
31.488682 32.026345 -5.826620 45.289882 0.793863 1.699806 0.005136 -0.018186 -75434.400000 0 0 1
31.529622 30.694445 -5.393120 44.332288 0.771977 1.692751 0.006578 0.002600 193816.000000 0 0 1
30.303842 29.838045 -5.807520 42.922710 0.777653 1.706514 0.012423 -0.014453 115194.000000 0 0 1
30.261552 29.597045 -7.207020 42.938185 0.774297 1.739441 -0.001944 -0.004344 -1195550.000000 0 0 1
29.002792 29.165145 -7.513920 41.811800 0.788189 1.751486 -0.006397 -0.015415 -1413870.000000 0 0 1
28.893722 28.919645 -9.060720 41.872302 0.785847 1.788911 -0.006538 -0.009283 -643448.000000 0 0 1
29.634782 27.791345 -9.448720 41.711599 0.753308 1.799305 -0.001230 -0.002611 -67932.800000 0 0 1
30.090442 27.795545 -10.796020 42.362496 0.745774 1.828487 -0.009564 -0.000355 264317.000000 0 0 1
31.281142 28.754845 -11.039920 43.900237 0.743343 1.825003 -0.001000 -0.002138 -885555.000000 0 0 1
32.493712 28.360245 -10.450620 44.377475 0.717578 1.808523 0.000646 -0.008638 757474.000000 0 0 1
33.681562 28.955845 -11.010620 45.761581 0.710095 1.813789 0.002865 -0.005574 860451.000000 0 0 1
33.976722 30.393045 -10.466120 46.772796 0.729782 1.796472 -0.002182 -0.010263 -738763.000000 0 0 1
34.476026 30.388645 -9.128120 46.854975 0.722467 1.766867 0.005327 -0.004464 -135926.000000 0 0 1
34.466444 31.657345 -8.532420 47.570216 0.742941 1.751137 -0.003046 -0.009294 -1713570.000000 0 0 1
-34.904389 31.744445 -7.313620 47.744269 -0.738022 1.724585 -0.001489 -0.002902 292283.000000 0 0 1
-33.523297 31.881845 -7.611120 46.884887 -0.760307 1.733854 0.017171 -0.002351 -42399.200000 0 0 1
-32.931547 30.803945 -8.299320 45.850284 -0.752029 1.752809 0.015418 -0.011040 -1558150.000000 0 0 1
-31.511417 31.271845 -8.721720 45.243409 -0.781582 1.764784 0.035243 -0.013225 540712.000000 0 0 1
-30.673927 31.651845 -7.581720 44.723725 -0.801087 1.741142 0.038438 -0.012238 521336.000000 0 0 1
-29.350017 32.067345 -7.842420 44.172861 -0.829613 1.749282 0.031967 -0.015621 -39458.600000 0 0 1
-29.193327 33.486145 -8.576820 45.245266 -0.853780 1.761513 0.019171 -0.009401 -359330.000000 0 0 1
-29.554647 -34.531049 -7.946120 46.141210 0.862895 1.743872 0.008727 -0.013617 -186389.000000 0 0 1
-28.501807 -34.139349 -7.112120 45.038099 0.875154 1.729374 0.016417 -0.017917 -200357.000000 0 0 1
-28.609777 -32.744249 -6.378020 43.947517 0.852684 1.716439 0.003547 -0.020130 -27141.200000 0 0 1
-29.560347 -32.605149 -5.334820 44.332495 0.834338 1.691425 0.008729 -0.022958 31536.300000 0 0 1
-29.385427 -33.437349 -4.179820 44.710519 0.849807 1.664419 0.009595 -0.014251 -78583.200000 0 0 1
-30.555647 -33.296649 -3.185620 45.304112 0.828299 1.641171 0.001170 -0.005227 -74347.100000 0 0 1
-30.666007 -31.990749 -2.618720 44.392225 0.806538 1.629821 0.001254 0.001394 612529.000000 0 0 1
-31.716207 -31.880649 -1.627620 44.999363 0.787984 1.606974 0.001142 0.009937 554372.000000 0 0 1
-32.453837 -30.513349 -1.623320 44.575230 0.754590 1.607222 0.014739 0.014372 -499185.000000 0 0 1
-33.434487 -30.595949 -0.647320 45.325446 0.741096 1.585078 0.017476 0.021246 -693746.000000 0 0 1
-33.931827 -29.336349 -0.184920 44.855595 0.712891 1.574919 0.033800 0.007309 257198.000000 0 0 1
-34.941409 -29.451549 1.000180 45.708819 0.700348 1.548913 0.030832 0.010118 28320.300000 0 0 1
34.073502 -29.844749 0.592380 45.299707 -0.719336 1.557719 0.008652 0.023599 -446601.000000 0 0 1
33.025482 -29.903849 1.512780 44.578146 -0.735833 1.536854 0.006605 0.015073 337163.000000 0 0 1
32.120872 -28.628949 1.628380 43.058318 -0.727981 1.532969 0.000725 0.021024 -587229.000000 0 0 1
31.116792 -28.581949 0.651580 42.256444 -0.742963 1.555376 -0.008223 0.016551 -606122.000000 0 0 1
30.444512 -27.341549 0.748880 40.926635 -0.731752 1.552497 -0.009852 0.014571 -604076.000000 0 0 1
29.263392 -27.279149 -0.216820 40.006813 -0.750320 1.576216 -0.022088 0.006523 -352078.000000 0 0 1
28.154012 -28.088049 0.132280 39.769390 -0.784225 1.567470 -0.020765 0.012169 26928.600000 0 0 1
28.269932 -29.520249 0.056180 40.873430 -0.807030 1.569422 -0.014496 0.009605 -967131.000000 0 0 1
27.857432 -29.984749 -1.364320 40.950983 -0.822160 1.604118 -0.017203 0.007862 537558.000000 0 0 1
26.457812 -29.776149 -1.590320 39.864320 -0.844339 1.610700 -0.012243 0.017099 476218.000000 0 0 1
26.092192 -30.328949 -2.850020 40.109478 -0.860349 1.641912 -0.010456 0.016871 -54990.700000 0 0 1
24.578302 -30.585249 -2.910120 39.344875 -0.893864 1.644828 -0.011427 0.013472 192442.000000 0 0 1
23.723102 -29.476549 -2.941520 37.951351 -0.893128 1.648382 0.000763 0.019964 714092.000000 0 0 1
22.337002 -29.767549 -3.209620 37.354388 -0.927051 1.656826 0.006171 0.016131 1151560.000000 0 0 1
21.546102 -28.442349 -3.360220 35.839821 -0.922490 1.664691 0.005742 0.017473 -78890.600000 0 0 1
21.660602 -27.920249 -4.688120 35.646885 -0.910985 1.702694 0.012394 0.026386 86159.900000 0 0 1
21.150302 -26.627649 -4.906420 34.357531 -0.899542 1.714091 0.016205 0.015849 -135948.000000 0 0 1
20.521602 -26.365549 -6.302920 34.000075 -0.909397 1.757254 0.021148 -0.004392 -258205.000000 0 0 1
19.168902 -26.683749 -6.422820 33.477184 -0.947845 1.763850 0.031934 -0.001118 -486510.000000 0 0 1
18.572702 -26.302849 -7.683420 33.103173 -0.955982 1.805038 0.049313 -0.000973 432891.000000 0 0 1
17.042302 -26.530749 -7.742920 32.469578 -0.999810 1.811583 0.047131 -0.001386 370073.000000 0 0 1
16.405402 -25.632949 -6.826820 31.189594 -1.001474 1.791464 0.032885 -0.001763 -351472.000000 0 0 1
15.017102 -25.802949 -6.734320 30.604846 -1.043723 1.792653 0.034205 -0.006454 -171786.000000 0 0 1
14.388402 -24.863649 -5.691620 29.285178 -1.046192 1.766393 0.017389 0.004375 -84184.000000 0 0 1
14.785802 -25.253449 -4.388120 29.590745 -1.041110 1.719639 0.013446 0.004776 318829.000000 0 0 1
14.128802 -24.459149 -3.384320 28.448666 -1.046974 1.690041 0.002257 0.017502 146872.000000 0 0 1
14.050902 -25.213849 -2.048020 28.937180 -1.062389 1.641630 0.010198 0.007229 112704.000000 0 0 1
13.251002 -26.364849 -2.221420 29.591029 -1.105070 1.645938 0.014065 -0.002521 719096.000000 0 0 1
14.024102 -27.572549 -1.905020 30.992741 -1.100272 1.632302 0.024321 -0.002286 965410.000000 0 0 1
13.123902 -28.842849 -2.192820 31.764055 -1.143781 1.639886 0.032386 0.001862 1225600.000000 0 0 1
12.042702 -29.056549 -1.233420 31.477468 -1.177889 1.609991 0.035697 -0.012690 679963.000000 0 0 1
11.477302 -30.382349 -1.249020 32.501933 -1.209606 1.609235 0.037974 -0.018086 -487352.000000 0 0 1
12.330902 -31.579549 -0.846220 33.912168 -1.198531 1.595752 0.037638 -0.012080 313358.000000 0 0 1
13.423902 -31.870549 -1.752620 34.626647 -1.172148 1.621433 0.038698 -0.008488 478069.000000 0 0 1
14.061202 -33.096349 -1.505520 35.991003 -1.169047 1.612639 0.037061 -0.009783 140337.000000 0 0 1
15.512002 -33.187849 -2.067120 36.692349 -1.133567 1.627163 0.032154 -0.000962 411255.000000 0 0 1
16.361402 -32.388449 -1.259220 36.308301 -1.103028 1.605485 0.030843 0.014318 -54913.700000 0 0 1
17.522302 -32.004949 -1.976620 36.541139 -1.069884 1.624916 0.028578 0.012700 104316.000000 0 0 1
18.282202 -30.823049 -1.300420 35.860707 -1.035441 1.607067 0.021151 0.014429 88790.800000 0 0 1
17.662602 -29.551449 -1.400020 34.455996 -1.032077 1.611440 0.020197 0.017872 134831.000000 0 0 1
18.272102 -28.661149 -0.501920 33.993868 -1.003243 1.585562 0.014083 0.019980 -85606.400000 0 0 1
17.975902 -27.152149 -0.819620 32.573671 -0.986001 1.595961 0.008907 0.016927 92039.100000 0 0 1
18.572602 -26.683149 -2.026320 32.573577 -0.962731 1.633044 0.011350 0.013445 188714.000000 0 0 1
17.708802 -26.893749 -3.117220 32.351081 -0.988488 1.667302 0.020824 0.014528 -10013.100000 0 0 1
31.529642 -29.494149 14.138680 45.430446 -0.752055 1.254324 0.002241 0.001570 -279341.000000 0 0 1
32.350252 -29.852249 15.191880 46.567035 -0.745261 1.238477 0.012403 0.008021 -114090.000000 0 0 1
31.593362 -30.433649 16.254180 46.781897 -0.766703 1.215950 0.011674 0.017354 8704.230000 0 0 1
32.435692 -31.123149 17.345480 48.182883 -0.764750 1.202536 0.005965 0.019183 -540214.000000 0 0 1
31.670992 -31.532449 18.456280 48.352677 -0.783206 1.179160 -0.005514 0.014349 -223036.000000 0 0 1
32.373422 -31.927849 19.595180 49.511585 -0.778469 1.163891 -0.010877 0.014382 -413223.000000 0 0 1
33.030252 -33.355249 19.526580 50.841494 -0.790294 1.176598 -0.010822 0.013787 -202992.000000 0 0 1
34.166792 -33.340049 18.684280 51.264323 -0.773152 1.197733 0.000126 0.022559 153269.000000 0 0 1
34.741338 34.560245 18.570280 52.404450 0.782785 1.208562 0.015661 0.011188 -502184.000000 0 0 1
-34.337549 34.481945 17.646480 51.763598 -0.787496 1.222917 0.015363 0.017682 -492463.000000 0 0 1
-33.311247 -33.917149 18.197480 50.903442 0.794411 1.205217 0.011580 0.011797 -118276.000000 0 0 1
-32.295017 -33.699349 17.240780 49.758002 0.806675 1.216967 0.018110 0.008156 -271065.000000 0 0 1
-31.089617 -32.894149 17.852180 48.654801 0.813594 1.195106 0.014051 -0.000550 1112590.000000 0 0 1
-29.917397 -32.859149 17.007880 47.581953 0.832225 1.205267 0.016748 -0.002644 846731.000000 0 0 1
-30.090587 -31.946249 15.934680 46.689616 0.815302 1.222508 0.019956 0.000002 -86358.500000 0 0 1
-28.921427 -31.979349 14.858780 45.606042 0.835568 1.238931 0.012790 -0.009718 1215750.000000 0 0 1
-27.698417 -31.514149 15.444880 44.708927 0.849750 1.218074 0.011005 -0.010386 22435.900000 0 0 1
-26.670227 -31.553649 14.480180 43.779097 0.869075 1.233692 0.009384 -0.007324 19249.100000 0 0 1
-25.337487 -31.025549 15.067380 42.797183 0.885976 1.211020 0.017510 -0.011206 166333.000000 0 0 1
-24.300467 -31.275149 14.122480 42.048687 0.910244 1.228278 0.023737 -0.006645 -482639.000000 0 0 1
-23.130467 -30.737049 14.674880 41.172039 0.925680 1.206354 0.024500 -0.002853 -445535.000000 0 0 1
-21.907867 -30.696849 13.732680 40.135242 0.950945 1.221581 0.020971 0.005425 234203.000000 0 0 1
-21.410967 -32.004149 13.345080 40.752745 0.981176 1.237177 0.016931 0.001475 8103.970000 0 0 1
-20.393167 -31.818149 12.393380 39.772751 1.000825 1.253915 -0.000841 -0.000201 -189496.000000 0 0 1
-19.976867 -33.180749 11.824280 40.495073 1.028862 1.274486 0.008718 0.005575 337632.000000 0 0 1
-20.866267 -33.782349 10.850280 41.162808 1.017487 1.304050 0.004385 0.003833 502617.000000 0 0 1
-20.697167 34.011445 10.897580 41.278425 -1.024124 1.303627 0.012286 0.009282 113168.000000 0 0 1
-21.622967 33.303945 9.882780 40.919125 -0.994940 1.326865 -0.000555 0.010538 -137989.000000 0 0 1
-21.384067 33.698945 8.558280 40.818395 -1.005351 1.359562 -0.004022 0.000785 -407498.000000 0 0 1
-22.541767 33.498745 7.804880 41.124364 -0.978481 1.379851 0.007200 -0.003900 -740445.000000 0 0 1
-22.356467 33.775745 6.288880 40.989786 -0.986095 1.416762 0.010798 -0.000799 -621518.000000 0 0 1
-21.609267 32.871245 5.475680 39.717279 -0.989243 1.432489 0.009870 -0.007303 234480.000000 0 0 1
-20.213667 32.783145 5.699580 38.933432 -1.018270 1.423875 -0.003202 -0.003846 91823.000000 0 0 1
-19.370067 34.062845 5.346580 39.548234 -1.053742 1.435190 0.005603 -0.001640 -855327.000000 0 0 1
-19.340467 -33.924049 6.139780 39.529630 1.052644 1.414844 0.003687 0.002267 -178483.000000 0 0 1
-18.727167 -34.128149 7.365880 39.619358 1.068928 1.383792 0.004928 0.003180 -508122.000000 0 0 1
-18.642167 -32.903749 8.344980 38.727584 1.055323 1.353614 0.004137 0.003812 197932.000000 0 0 1
-17.760167 -31.833849 7.898280 37.298797 1.061907 1.357424 0.000232 0.002059 368478.000000 0 0 1
-17.721767 -30.699049 8.734380 36.507287 1.047255 1.329203 0.004046 0.001180 205856.000000 0 0 1
-17.103367 -30.760749 10.160480 36.633102 1.063349 1.289753 0.000673 0.003923 837511.000000 0 0 1
-15.675467 -30.855549 10.145480 36.065439 1.100747 1.285640 0.003424 0.000351 643181.000000 0 0 1
-15.071867 -30.883849 11.453080 36.223560 1.116780 1.249099 -0.001702 0.000409 58062.000000 0 0 1
-13.701267 -31.583149 11.479680 36.290537 1.161482 1.248941 0.000665 0.002192 -285723.000000 0 0 1
-12.837167 -30.865649 10.652180 35.084898 1.176655 1.262315 -0.015101 0.007408 -1152180.000000 0 0 1
-11.755667 -31.650449 10.256180 35.286482 1.215166 1.275885 -0.016846 0.017093 -72967.100000 0 0 1
-10.654567 -30.708749 9.624480 33.899523 1.236836 1.282925 -0.014659 0.025257 353658.000000 0 0 1
-9.995467 -29.958249 10.635780 33.324553 1.248764 1.245956 -0.008119 0.014244 -285621.000000 0 0 1
-9.279667 -28.833249 10.139480 31.941783 1.259426 1.247772 0.001676 0.019948 161546.000000 0 0 1
-8.673267 -28.071249 11.321980 31.486629 1.271128 1.202978 0.006536 0.023355 187564.000000 0 0 1
-9.562867 -27.271149 12.088980 31.325827 1.233535 1.174601 0.011960 0.004243 -268929.000000 0 0 1
-9.002167 -26.980549 13.346880 31.418597 1.248757 1.132046 0.017889 0.006303 165031.000000 0 0 1
-9.535967 -25.690149 14.050680 30.795130 1.215369 1.097005 0.007569 -0.000604 167184.000000 0 0 1
-9.050867 -24.475849 13.459280 29.362180 1.216603 1.094615 0.016201 0.002062 -187597.000000 0 0 1
-9.604167 -24.148449 12.228280 28.721393 1.192263 1.131000 0.011181 0.004276 31503.800000 0 0 1
-8.905867 -22.943849 11.507980 27.169252 1.200539 1.133418 0.007359 -0.003702 473506.000000 0 0 1
-7.709667 -23.146149 10.746780 26.658516 1.249268 1.155865 0.006737 -0.001321 347709.000000 0 0 1
-7.474267 -21.981849 9.971780 25.268612 1.243040 1.165130 0.000328 -0.000365 121081.000000 0 0 1
-6.154867 -22.029449 9.152080 24.636144 1.298351 1.190183 0.005411 -0.002875 -512148.000000 0 1 0
-5.019867 -22.199849 9.904380 24.821948 1.348415 1.160352 0.007726 -0.008557 -981249.000000 0 1 0
-3.975167 -22.575749 9.015680 24.632273 1.396502 1.196077 0.004579 -0.003921 649659.000000 0 1 0
-2.784567 -23.405049 9.593080 25.447540 1.452380 1.184268 0.016542 -0.008552 223987.000000 0 0 1
-1.947967 -22.751449 10.498080 25.132304 1.485385 1.139870 0.007214 -0.006476 -397189.000000 0 0 1
-1.112367 -23.651749 11.176480 26.183130 1.523800 1.129781 0.015489 -0.006004 55243.900000 0 0 1
-0.207867 -22.999449 12.245180 26.056905 1.561759 1.081574 0.011208 0.001637 -260862.000000 0 0 1
-0.830667 -22.702649 13.481080 26.416657 1.534224 1.035234 -0.000648 0.002249 113390.000000 0 0 1
0.078733 -22.299349 14.525880 26.613312 -1.567266 0.993438 -0.005760 -0.001670 412059.000000 0 0 1
0.797333 -20.938349 14.327480 25.383595 -1.532735 0.971043 -0.013499 -0.006340 19321.300000 0 0 1
1.705133 -20.900149 13.246080 24.802870 -1.489392 1.007407 -0.001577 -0.014372 -648879.000000 0 1 0
2.091133 -19.614549 13.014680 23.632293 -1.464586 0.987575 -0.004856 -0.013258 -622582.000000 0 1 0
3.533633 -19.614849 12.525880 23.539892 -1.392557 1.009702 0.012131 -0.012424 -517765.000000 0 1 0
3.801633 -20.226549 11.277680 23.468101 -1.385011 1.069510 0.020705 -0.006940 -538199.000000 0 1 0
5.184933 -20.283549 11.040080 23.668317 -1.320533 1.085523 0.037608 -0.010667 -127539.000000 0 1 0
5.517433 -21.076649 9.739180 23.864593 -1.314762 1.150423 0.040903 -0.023597 -632511.000000 0 1 0
5.723133 -20.239849 8.586880 22.718720 -1.295225 1.183199 0.038711 -0.025049 -269155.000000 0 1 0
6.066033 -21.008249 7.483780 23.111691 -1.289697 1.241043 0.038539 -0.028253 -10098.900000 0 1 0
7.486333 -21.667349 7.465680 24.109242 -1.238125 1.255960 0.037284 -0.013529 442096.000000 0 1 0
8.565533 -20.820249 7.046480 23.590337 -1.180498 1.267464 0.053232 -0.016110 195096.000000 0 1 0
8.988333 -19.707449 7.792580 23.019513 -1.142891 1.225452 0.056903 -0.011541 100677.000000 0 1 0
9.764633 -20.024449 9.149880 24.084163 -1.117089 1.181094 0.054314 -0.006795 162286.000000 0 1 0
8.897833 -20.418049 10.175480 24.486906 -1.159828 1.142251 0.062047 -0.009326 -326961.000000 0 1 0
9.471333 -20.032649 11.404380 24.921337 -1.129149 1.095485 0.066101 -0.006693 681911.000000 0 1 0
8.511433 -20.383049 12.613780 25.436600 -1.175232 1.051936 0.066161 -0.008532 428320.000000 0 0 1
8.584433 -21.671949 13.135380 26.756384 -1.193650 1.057645 0.056520 -0.012452 27341.600000 0 0 1
7.641933 -21.788049 14.193080 27.102799 -1.233463 1.019636 0.059698 -0.010502 300179.000000 0 0 1
7.640033 -23.204449 14.830780 28.579164 -1.252726 1.025190 0.052581 -0.015811 85766.300000 0 0 1
7.314633 -24.152649 13.871980 28.797329 -1.276727 1.068191 0.050944 -0.010041 -405701.000000 0 0 1
7.295033 -25.416149 14.486980 30.150800 -1.291287 1.069590 0.048169 -0.009474 217533.000000 0 0 1
7.368433 -26.639449 13.525780 30.771753 -1.300945 1.115697 0.043735 -0.016987 -827227.000000 0 0 1
8.636433 -26.852549 13.042980 31.076787 -1.259621 1.137680 0.037986 -0.012454 -1086780.000000 0 0 1
8.624133 -27.843549 12.080080 31.552610 -1.270432 1.177911 0.035037 -0.007097 -98081.800000 0 0 1
9.984433 -28.278749 11.505980 32.121085 -1.231387 1.204450 0.027605 -0.013120 59928.200000 0 0 1
10.670033 -29.313549 12.254980 33.515941 -1.221707 1.196469 0.019820 -0.015045 518163.000000 0 0 1
11.938433 -29.552049 11.665480 33.940141 -1.186864 1.219934 0.026399 -0.009723 359599.000000 0 0 1
12.951833 -30.397049 12.504080 35.328212 -1.168004 1.209015 0.012699 -0.007752 -253514.000000 0 0 1
13.538333 -29.614249 13.551280 35.269355 -1.142007 1.176431 0.015817 -0.009400 572204.000000 0 0 1
14.408333 -30.378349 14.417080 36.582733 -1.127922 1.165713 0.019939 -0.008930 1275300.000000 0 0 1
15.854033 -30.674949 13.863780 37.208967 -1.093768 1.188995 0.020512 -0.003018 349850.000000 0 0 1
16.569733 -29.469049 13.679780 36.470773 -1.058577 1.186304 0.021564 -0.008228 -960403.000000 0 0 1
17.896433 -29.670949 13.363680 37.138060 -1.028054 1.202702 0.008616 -0.001303 -1017810.000000 0 0 1
18.556033 -28.251449 13.280780 36.315972 -0.989644 1.196411 0.009208 -0.008104 -28312.200000 0 0 1
19.875933 -28.285449 12.776380 36.855871 -0.958267 1.216791 0.000958 -0.008950 221892.000000 0 0 1
20.444133 -26.947549 12.704580 36.132248 -0.921773 1.211502 -0.004122 -0.005442 -322693.000000 0 0 1
21.808433 -26.946649 12.030980 36.694334 -0.890399 1.236748 0.004461 -0.000948 -855327.000000 0 0 1
22.797933 -27.476349 12.842780 37.942489 -0.878189 1.225495 0.015512 -0.001525 -797936.000000 0 0 1
23.795733 -28.062349 12.058980 38.718876 -0.867488 1.254078 0.003713 -0.017039 -873453.000000 0 0 1
24.826933 -28.846449 12.933780 40.196727 -0.860147 1.243206 0.012112 -0.009424 529953.000000 0 0 1
25.877133 -28.031349 13.515880 40.472973 -0.825338 1.230307 0.010133 -0.006631 -216681.000000 0 0 1
26.953433 -28.136949 12.634380 40.960994 -0.806878 1.257234 -0.003541 -0.005034 -764057.000000 0 0 1
28.250033 -27.584949 13.339080 41.676430 -0.773487 1.245000 0.024215 -0.015062 246084.000000 0 0 1
28.252133 -26.164649 13.596680 40.836768 -0.747056 1.231364 0.036473 -0.017159 -123472.000000 0 0 1
27.437333 -25.765349 14.675480 40.398393 -0.753982 1.199022 0.032615 -0.012123 -660105.000000 0 0 1
28.188233 -25.454649 15.992980 41.210327 -0.734483 1.172247 0.015615 0.005585 -42666.600000 0 0 1
28.599433 -26.714049 16.606780 42.512976 -0.751326 1.169482 0.024094 0.004692 15987.500000 0 0 1
29.120833 -26.501249 17.893080 43.249294 -0.738337 1.144260 0.023416 0.023655 22921.000000 0 0 1
29.638433 -27.797449 18.565180 44.674386 -0.753356 1.142231 0.012850 0.032981 624698.000000 0 0 1
28.579933 -28.709549 18.972280 44.732518 -0.787661 1.132798 0.013482 0.026869 933772.000000 0 0 1
29.106833 -29.850249 19.669580 46.099213 -0.798007 1.129978 0.002688 0.018168 919519.000000 0 0 1
27.907633 -30.778949 20.115480 46.160722 -0.834285 1.119902 0.014000 0.017962 805899.000000 0 0 1
27.085833 -30.308149 21.246480 45.865446 -0.841483 1.089154 0.015382 0.019966 1219210.000000 0 0 1
25.951133 -31.077949 21.604380 45.891714 -0.875055 1.080635 0.007776 0.012290 780576.000000 0 0 1
24.813633 -31.383249 20.583180 44.992133 -0.901773 1.095633 0.042768 0.003840 -392736.000000 0 0 1
25.210433 -32.344149 19.660880 45.478128 -0.908716 1.123738 0.028376 0.003552 25487.300000 0 0 1
24.454533 -32.300149 18.457580 44.519727 -0.922765 1.143300 0.042902 0.003347 -20405.800000 0 0 1
24.929533 -31.245749 17.429480 43.606940 -0.897366 1.159612 0.045759 0.007175 224203.000000 0 0 1
26.132033 -31.685849 16.815280 44.380512 -0.881161 1.182201 0.020447 0.005550 86363.500000 0 0 1
26.733033 -30.656749 16.039580 43.723671 -0.853662 1.195187 0.029128 -0.001662 122852.000000 0 0 1
28.001833 -31.157849 15.296080 44.596909 -0.838695 1.220703 0.022060 -0.003673 -209877.000000 0 0 1
27.805033 -32.108949 14.290180 44.814213 -0.857110 1.246253 0.034096 0.002638 139945.000000 0 0 1
27.821933 -33.434449 14.838580 45.957652 -0.876766 1.242031 0.017014 0.000208 -269072.000000 0 0 1
27.083433 -34.466349 13.972780 46.007392 -0.904778 1.262215 0.031440 0.000076 -123477.000000 0 0 1
27.671133 34.519845 12.702480 46.028951 0.895080 1.291201 0.038912 0.005160 40356.100000 0 0 1
26.925933 33.614645 11.946880 44.695393 0.895435 1.300211 0.026269 -0.001754 -456995.000000 0 0 1
27.556033 33.353245 10.545980 44.530794 0.880290 1.331700 0.032063 -0.007049 19688.800000 0 0 1
28.754833 32.603345 10.621680 44.750851 0.848038 1.331158 0.006105 -0.004634 162295.000000 0 0 1
29.016833 31.969345 9.397480 44.185159 0.833773 1.356475 0.005897 -0.011218 -322552.000000 0 0 1
30.384533 31.287645 9.525080 44.641502 0.800041 1.355775 -0.010949 -0.003163 -284212.000000 0 0 1
30.514633 30.370945 10.556980 44.328174 0.783038 1.330330 -0.019328 0.001332 -925658.000000 0 0 1
31.820533 29.991345 10.778480 45.035572 0.755814 1.329118 -0.004915 0.003688 -789057.000000 0 0 1
31.965133 29.102545 12.048780 44.876508 0.738557 1.298974 -0.006630 0.017065 -80597.600000 0 0 1
31.506233 27.791845 12.010380 43.695293 0.722841 1.292345 -0.003549 0.011434 281501.000000 0 0 1
32.051133 27.109645 13.142480 43.987871 0.702065 1.267387 0.008272 -0.003761 129645.000000 0 0 1
31.932233 25.547545 13.057380 42.928309 0.674775 1.261732 -0.000643 -0.005122 -720212.000000 0 0 1
32.871433 25.105045 12.170880 43.115249 0.652233 1.284619 0.009363 0.005948 -766711.000000 0 0 1
32.804233 23.696845 11.832680 42.162430 0.625583 1.286330 0.010428 -0.001689 -1307820.000000 0 0 1
31.633933 23.301145 10.989080 40.797169 0.634861 1.298069 -0.000474 -0.004779 -896051.000000 0 0 1
30.476933 23.175945 11.771480 40.056655 0.650151 1.272522 -0.001772 -0.004300 104803.000000 0 0 1
29.318033 23.083545 10.935980 38.884351 0.666980 1.285706 -0.001516 -0.000754 876409.000000 0 0 1
27.974433 22.588745 11.554380 37.766705 0.679284 1.259870 -0.017957 0.009872 582266.000000 0 0 1
27.437633 23.472545 12.549080 38.226476 0.707671 1.236312 -0.017398 0.005377 -111332.000000 0 0 1
26.640033 22.771345 13.448880 37.537953 0.707262 1.204378 0.010606 0.004964 -498964.000000 0 0 1
23.668733 9.609145 26.427279 36.755213 0.385655 0.768423 0.007849 0.006737 -144787.000000 0 0 1
23.321333 8.198145 26.491599 36.233948 0.338037 0.750825 0.019247 -0.004677 392391.000000 0 0 1
21.931533 8.051845 26.742179 35.510118 0.351858 0.718056 0.029356 -0.005078 -113000.000000 0 0 1
21.509133 6.703445 27.379839 35.457504 0.302116 0.688520 0.043463 -0.013551 -247459.000000 0 0 1
21.824433 6.537645 28.713129 36.653655 0.291050 0.670738 0.039811 -0.012042 734480.000000 0 0 1
23.230433 6.437045 28.979849 37.695095 0.270313 0.693840 0.034859 -0.011665 419720.000000 0 0 1
23.614533 6.241745 30.431579 39.021617 0.258408 0.676347 0.041497 -0.011423 -343625.000000 0 0 1
23.306333 7.381945 31.202109 39.638994 0.306739 0.664611 0.031486 -0.008192 302491.000000 0 0 1
23.320233 7.062545 32.542379 40.653650 0.294070 0.642703 0.021592 0.003187 -387666.000000 0 0 1
23.132233 8.257745 33.448383 41.498011 0.342880 0.633393 0.035687 0.004991 19213.900000 0 0 1
24.218033 9.166045 33.435279 42.290039 0.361818 0.658978 0.027026 0.006307 68422.500000 0 0 1
24.436933 9.677245 -34.431193 43.316507 0.377061 2.489597 0.046408 0.004567 340460.000000 0 0 1
25.481633 10.831645 -34.386277 44.148094 0.401935 2.463682 0.030431 0.002032 155955.000000 0 0 1
24.912233 12.091145 34.471525 44.216526 0.451859 0.676758 0.012121 -0.002248 326926.000000 0 0 1
25.404133 13.138345 -33.846260 44.312023 0.477292 2.440002 0.009111 0.002207 -369616.000000 0 0 1
24.698133 14.505745 -34.169092 44.586335 0.531045 2.443949 0.006260 0.004552 -586041.000000 0 0 1
25.271733 15.202045 33.900832 44.933607 0.541554 0.715958 0.007337 -0.003308 194836.000000 0 0 1
25.063333 16.617145 33.838680 45.269818 0.585464 0.726523 0.007033 0.002547 -261644.000000 0 0 1
25.928533 17.524345 -34.418158 46.518825 0.594348 2.403682 -0.000371 -0.004376 -252390.000000 0 0 1
25.606233 17.510945 -33.029050 45.312586 0.599808 2.387533 0.004557 -0.012705 696731.000000 0 0 1
26.535133 16.728645 -32.202320 44.954980 0.562497 2.369316 -0.002656 -0.017468 -56549.700000 0 0 1
25.989233 16.491445 -30.791470 43.537600 0.565437 2.356381 0.008956 -0.012695 -82778.500000 0 0 1
24.828333 15.708745 -31.020250 42.725481 0.564113 2.383337 0.009045 -0.004608 78765.700000 0 0 1
24.234933 15.214945 -29.816530 41.326166 0.560618 2.376752 0.029459 -0.019337 259517.000000 0 0 1
23.407333 13.915745 -30.087710 40.581048 0.536368 2.405984 0.031716 -0.014379 -47563.000000 0 0 1
22.381333 14.053245 -31.056060 40.778629 0.560682 2.436539 0.027501 -0.014304 424550.000000 0 0 1
21.800033 12.808445 -31.426450 40.335090 0.531209 2.464080 0.024224 0.004670 518496.000000 0 0 1
20.700333 12.127145 -30.551760 38.845611 0.529945 2.475904 0.022399 0.014907 240335.000000 0 0 1
19.504933 12.839945 -30.272880 38.232890 0.582182 2.484550 0.039729 0.007785 313540.000000 0 0 1
18.756733 12.054145 -29.365360 36.870609 0.571196 2.492187 0.041048 0.018223 -770900.000000 0 0 1
17.413633 12.659445 -28.992610 36.111876 0.628608 2.502866 0.033709 0.001017 -362841.000000 0 0 1
16.518033 12.568045 -30.103330 36.565170 0.650421 2.537960 0.016365 0.002334 650560.000000 0 0 1
15.336133 13.345845 -29.860890 36.124525 0.716118 2.543853 0.028212 -0.013654 440038.000000 0 0 1
14.448633 13.612845 -31.128460 36.919555 0.755623 2.573898 0.019480 -0.010745 546189.000000 0 0 1
13.718233 12.514845 -31.693220 36.732430 0.739557 2.611604 0.012300 -0.005123 748288.000000 0 0 1
12.465933 12.243445 -31.036880 35.617262 0.776394 2.628845 0.016104 -0.007231 236600.000000 0 0 1
11.431233 11.749745 -32.041070 35.991106 0.799138 2.668689 0.015784 -0.001741 -390569.000000 0 0 1
11.169133 12.702545 -33.075610 37.149699 0.849546 2.668873 0.021782 -0.003010 20215.700000 0 0 1
10.004833 12.326245 -33.780970 37.325419 0.888980 2.702268 0.027796 -0.004365 -78206.200000 0 0 1
9.733233 13.151145 34.119616 37.839617 0.933658 0.447133 0.043101 -0.004994 -92806.100000 0 0 1
10.615833 12.806645 33.078979 37.026003 0.878661 0.465942 0.035155 0.003363 467550.000000 0 0 1
10.190733 13.537945 31.908469 36.128623 0.925535 0.488174 0.038798 -0.010255 -152787.000000 0 0 1
11.059733 13.219145 30.685179 35.194370 0.874107 0.511773 0.036176 -0.007793 -299017.000000 0 0 1
10.892733 11.893945 30.295299 34.320879 0.829308 0.489203 0.042438 -0.005300 96308.500000 0 0 1
11.316633 11.715245 28.975269 33.239726 0.802703 0.512123 0.040658 -0.001709 -402941.000000 0 0 1
11.939433 10.319045 28.798729 32.838994 0.712728 0.501282 0.044798 -0.002928 -540976.000000 0 0 1
11.142733 9.238845 29.202059 32.592591 0.692256 0.460181 0.040348 -0.004625 -296178.000000 0 0 1
11.711933 8.024245 28.843829 32.148474 0.600679 0.457393 0.027485 -0.009116 -170346.000000 0 0 1
10.711833 6.845945 28.739099 31.425247 0.568675 0.416470 0.023558 -0.012436 -253580.000000 0 0 1
9.843833 6.893345 27.636519 30.136298 0.610907 0.410175 0.024660 -0.009907 53472.900000 0 0 1
8.867233 5.840245 27.750779 29.712658 0.582420 0.365426 0.019714 -0.015101 120289.000000 0 0 1
9.291133 4.430145 27.247189 29.126631 0.444928 0.361200 0.020441 -0.008400 -195979.000000 0 0 1
10.238433 3.733845 28.022919 30.067443 0.349700 0.370898 0.013848 -0.008591 118146.000000 0 0 1
10.366733 2.350445 27.777549 29.741990 0.222960 0.365485 0.014168 -0.005538 -335978.000000 0 0 1
11.048533 1.530645 28.885469 30.964226 0.137662 0.368508 -0.000590 -0.005883 77046.600000 0 0 1
10.179733 1.295545 29.962389 31.670967 0.126587 0.329969 -0.003631 0.001801 69706.300000 0 0 1
10.683033 0.232545 30.722589 32.527815 0.021764 0.334721 -0.008850 0.002192 269219.000000 0 0 1
9.659733 -0.045455 31.832969 33.266356 -0.004706 0.294623 0.007067 0.002477 202858.000000 0 0 1
9.645733 1.014945 32.744599 34.150828 0.104836 0.287968 -0.005915 -0.004644 22758.200000 0 0 1
8.396833 1.211045 33.376183 34.437524 0.143239 0.248913 0.007851 -0.006258 -140145.000000 0 0 1
8.349133 2.564845 34.145817 35.245188 0.298048 0.250422 0.007445 -0.010336 -348202.000000 0 0 1
8.392433 3.807745 33.428412 34.675504 0.425936 0.269007 0.014835 -0.014866 395989.000000 0 0 1
9.578533 4.134545 32.712139 34.335503 0.407487 0.308729 0.001304 -0.011639 18560.100000 0 0 1
9.483433 5.471845 31.936849 33.761501 0.523328 0.330270 0.009175 -0.011042 11448.700000 0 0 1
9.674633 6.609845 32.795509 34.825766 0.599371 0.343141 0.006206 -0.009830 201781.000000 0 0 1
9.733833 7.837545 32.075509 34.424016 0.677895 0.371519 0.008826 -0.006188 -161560.000000 0 0 1
9.967133 9.145245 32.903879 35.575898 0.742422 0.390044 0.037671 -0.012398 518203.000000 0 0 1
8.840533 9.677845 33.632750 36.096781 0.830583 0.371626 0.036858 -0.017839 443510.000000 0 0 1
8.517833 8.979645 -34.325070 36.488326 0.811785 2.795525 0.026065 -0.010339 1125360.000000 0 0 1
7.051833 9.232145 -33.756110 35.699241 0.918500 2.810136 0.020272 -0.007536 1146570.000000 0 0 1
6.738733 8.509445 -32.606680 34.365924 0.901006 2.820238 0.021728 -0.002027 337481.000000 0 0 1
5.379433 8.674945 -32.189850 33.769504 1.015720 2.834520 0.004926 -0.002440 477520.000000 0 0 1
4.950233 7.901645 -30.973450 32.346490 1.011132 2.849183 0.004258 0.001879 -608583.000000 0 0 1
5.521633 8.326745 -29.750940 31.383778 0.985253 2.817600 0.008257 0.004801 -50322.000000 0 0 1
4.927733 7.780645 -28.625800 30.070873 1.006228 2.830320 0.011617 0.008274 193211.000000 0 0 1
3.431833 8.052645 -28.271620 29.595727 1.167931 2.841335 0.000265 0.012038 591385.000000 0 0 1
2.526733 7.391045 -29.150530 30.178888 1.241388 2.879788 0.002831 0.007864 267515.000000 0 0 1
1.157033 7.647745 -28.913230 29.929945 1.420644 2.880197 0.021298 0.016271 374155.000000 0 0 1
0.192733 6.986145 -29.935130 30.740126 1.543215 2.912236 0.026512 0.007934 7306.930000 0 0 1
0.107433 7.678245 -31.190520 32.121885 1.556805 2.900197 0.022016 0.009655 163602.000000 0 0 1
-0.449167 6.841945 -32.170350 32.892938 -1.505241 2.931598 0.032897 0.007302 -659773.000000 0 0 1
-0.436167 7.533845 -33.548160 34.386452 -1.512967 2.920331 0.032816 -0.001367 557222.000000 0 0 1
0.884833 7.833845 -34.035210 34.936336 1.458323 2.913974 0.022173 -0.006297 930492.000000 0 0 1
1.677633 6.752745 -34.502524 35.197133 1.327289 2.942595 0.028742 -0.009848 -266452.000000 0 0 1
1.559233 6.564145 33.160002 33.839399 1.337581 0.200722 0.039073 -0.016263 1219410.000000 0 0 1
0.274833 5.966345 32.737269 33.277644 1.524765 0.180458 0.037346 -0.018452 1350910.000000 0 0 1
0.165133 5.810145 31.313669 31.848562 1.542382 0.183533 0.047183 -0.022464 -27534.400000 0 0 1
0.948733 4.690045 30.601489 30.973339 1.371203 0.155110 0.039316 -0.018375 -57786.400000 0 0 1
0.552133 4.513945 29.247149 29.598586 1.449084 0.154253 0.026030 -0.018075 355143.000000 0 0 1
1.468933 3.668945 28.541609 28.813927 1.189972 0.137592 0.011919 -0.006187 280494.000000 0 0 1
1.461233 3.867245 27.013139 27.327650 1.209531 0.151862 0.006174 -0.003488 222594.000000 0 0 1
2.123233 5.093145 26.603309 27.169547 1.175823 0.204518 0.002731 -0.002178 378488.000000 0 0 1
1.994033 5.366645 25.259229 25.899917 1.215045 0.222889 -0.005292 -0.003026 -878140.000000 0 0 1
2.441833 6.816245 24.923469 25.953864 1.226802 0.282724 -0.001652 0.000342 -489971.000000 0 0 1
3.828033 6.930745 25.098629 26.317869 1.066169 0.305580 0.006450 0.001586 -636803.000000 0 0 1
4.522333 6.829545 23.882729 25.248345 0.985912 0.330400 0.010719 -0.006914 -1006380.000000 0 0 1
6.011433 6.646145 24.202729 25.808539 0.835501 0.354616 0.013940 -0.001208 -605268.000000 0 0 1
6.401033 5.500145 24.960049 26.348223 0.709845 0.326052 0.014095 -0.003856 74862.800000 0 0 1
6.122433 4.162945 24.475299 25.570580 0.597142 0.293745 0.003591 -0.002622 -622119.000000 0 0 1
6.611133 3.796445 23.001429 24.231917 0.521271 0.320048 0.008673 -0.005343 357936.000000 0 1 0
5.779633 4.170245 21.880229 23.011726 0.625038 0.314893 -0.007097 -0.009823 312376.000000 0 1 0
4.536633 3.463545 21.897729 22.629355 0.652061 0.254977 -0.001296 -0.006816 -21238.900000 0 1 0
3.550433 4.010845 20.841929 21.519258 0.846214 0.251563 -0.005902 -0.015462 -233911.000000 0 1 0
3.163733 5.360645 21.128829 22.026646 1.037630 0.286498 -0.007462 -0.013529 -623492.000000 0 1 0
2.000533 5.701645 20.471929 21.345041 1.233347 0.287007 -0.009900 -0.006375 -913835.000000 0 1 0
1.712433 7.197245 20.809029 22.085028 1.337211 0.341590 -0.008387 0.006276 276860.000000 0 1 0
2.574233 8.050645 20.042929 21.752208 1.261316 0.399076 -0.006594 0.000522 198303.000000 0 1 0
2.174233 9.387445 20.250829 22.426491 1.343199 0.444125 0.000267 -0.000188 -217258.000000 0 1 0
3.112933 10.396045 19.643329 22.441668 1.279859 0.504728 0.011732 -0.011190 -960530.000000 0 1 0
3.159433 10.442245 18.211629 21.229365 1.276990 0.539723 0.000720 -0.013775 1067730.000000 0 1 0
4.218233 11.331845 17.718729 21.451283 1.214442 0.598825 0.001928 -0.018004 427887.000000 0 1 0
5.655533 10.881945 17.878829 21.680736 1.091500 0.601229 0.013484 -0.019415 -1177970.000000 0 1 0
5.864833 9.631945 17.221829 20.585481 1.023863 0.579748 0.009137 -0.017761 -452385.000000 0 1 0
7.187333 9.274545 17.529029 21.093644 0.911516 0.589875 0.013319 -0.010295 -253088.000000 0 1 0
7.334433 7.834845 17.994929 20.952236 0.818375 0.537767 0.019816 -0.009137 -178704.000000 0 1 0
6.755033 7.691345 19.285529 21.833893 0.850121 0.487975 0.021249 -0.011470 -66257.800000 0 1 0
6.939433 6.392545 19.893929 22.017919 0.744400 0.442851 0.017469 -0.015335 608938.000000 0 1 0
8.375733 5.869545 20.254629 22.690405 0.611249 0.467602 0.035290 -0.009551 631436.000000 0 1 0
9.141933 5.667445 19.072029 21.896054 0.554952 0.513510 0.027976 -0.007316 207147.000000 0 1 0
10.436033 5.086045 19.307129 22.528734 0.453480 0.541376 0.045740 -0.012354 790159.000000 0 1 0
10.684833 3.609345 19.303529 22.356638 0.325766 0.528754 0.053368 -0.010818 -493709.000000 0 1 0
9.921333 3.009645 20.306929 22.800486 0.294528 0.472055 0.038403 -0.013212 103254.000000 0 1 0
10.226533 1.651745 20.349029 22.834037 0.160133 0.470877 0.032348 -0.016494 -5086.510000 0 1 0
9.171433 1.028045 21.259829 23.176548 0.111626 0.409552 0.026910 -0.010655 -92460.600000 0 1 0
9.282733 1.334745 22.628729 24.495103 0.142809 0.392891 0.024512 -0.011357 -93633.000000 0 1 0
8.385933 0.575245 23.375929 24.841273 0.068489 0.345188 0.009426 -0.012425 -760702.000000 0 1 0
8.811833 0.493845 24.868489 26.388142 0.055985 0.341027 0.003646 -0.003303 193201.000000 0 0 1
10.019633 -0.209955 25.144659 27.068266 -0.020951 0.379270 0.010296 -0.007168 470381.000000 0 0 1
9.975833 -1.606555 25.003099 26.967633 -0.159674 0.384057 0.012390 -0.006447 40191.200000 0 0 1
11.335233 -2.261555 25.376339 27.884776 -0.196930 0.427409 0.017088 0.001885 342428.000000 0 0 1
11.334433 -3.653555 25.214089 27.884909 -0.311825 0.441247 0.020301 0.011568 -392935.000000 0 0 1
12.642533 -4.130855 25.382909 28.656407 -0.315807 0.482652 0.017925 0.013355 -229630.000000 0 0 1
12.737033 -5.650355 25.539419 29.093306 -0.417533 0.499452 0.023711 0.011841 -176147.000000 0 0 1
12.388333 -6.289755 24.308629 27.998951 -0.469801 0.519237 0.019031 0.008666 295944.000000 0 0 1
12.383433 -7.697855 24.418209 28.440382 -0.556169 0.538312 0.020242 0.002712 19166.900000 0 0 1
12.184333 -8.428355 23.064729 27.413078 -0.605159 0.570971 0.024788 0.006741 131293.000000 0 0 1
11.855933 -9.806155 23.244929 27.875626 -0.691054 0.584696 0.020234 0.015293 -270172.000000 0 0 1
12.122333 -10.624055 22.136029 27.382938 -0.719624 0.629388 0.026451 0.005870 -35252.000000 0 0 1
11.517033 -11.994355 22.299929 27.817143 -0.805697 0.640727 0.026515 0.012085 414190.000000 0 0 1
10.093333 -11.959055 22.320229 27.259622 -0.869801 0.611476 0.011407 0.013721 -59299.900000 0 0 1
9.483033 -13.155255 22.769329 27.954087 -0.946210 0.618885 0.009269 0.020376 725552.000000 0 0 1
8.007633 -12.842455 23.173929 27.678183 -1.013256 0.578537 -0.003281 0.020735 297244.000000 0 0 1
7.163833 -12.284255 22.247629 26.404174 -1.042842 0.568740 0.004788 0.014509 560367.000000 0 0 1
5.813833 -12.030955 22.711429 26.350589 -1.120647 0.531802 -0.001555 0.014646 1565860.000000 0 0 1
5.033633 -10.985455 21.923729 25.033329 -1.141137 0.503744 -0.008129 0.017270 194301.000000 0 0 1
5.563333 -9.687055 22.201529 24.853523 -1.049484 0.466173 -0.009829 0.012801 23526.600000 0 1 0
4.875733 -8.615655 21.539729 23.705742 -1.055816 0.430807 -0.009854 0.015558 262760.000000 0 1 0
5.322033 -7.262355 22.090229 23.854644 -0.938378 0.387028 -0.006830 0.017624 -27674.500000 0 1 0
4.683833 -6.175255 21.444329 22.802002 -0.921887 0.346821 -0.010265 0.012856 -140031.000000 0 1 0
5.150533 -4.964655 21.967229 23.102704 -0.767024 0.314824 -0.001367 0.005052 -193950.000000 0 1 0
-7.880567 -15.723955 -20.749320 27.200742 1.106203 2.438462 0.006884 0.010626 -393771.000000 0 0 1
-7.287567 -15.192055 -19.620120 25.862256 1.123524 2.432018 -0.001681 0.003390 -224645.000000 0 0 1
-6.768967 -13.889755 -19.882520 25.180524 1.117332 2.480952 0.008521 -0.002824 -74342.000000 0 0 1
-6.137967 -13.326655 -18.594220 23.685848 1.139180 2.473549 0.010143 -0.011538 347304.000000 0 1 0
-5.013467 -14.048055 -18.111320 23.462792 1.228006 2.452647 0.008874 -0.003295 138090.000000 0 1 0
-4.414767 -13.559255 -16.945420 22.147027 1.256030 2.442044 0.014404 -0.008035 510525.000000 0 1 0
-3.411367 -14.662455 -16.374320 22.242827 1.342203 2.398178 0.010207 0.005325 -239575.000000 0 1 0
-2.339567 -14.741155 -17.229120 22.795126 1.413399 2.427709 -0.002939 0.003740 -1559810.000000 0 1 0
-1.258067 -15.347855 -16.610720 22.650726 1.489009 2.394020 0.003834 0.008686 -632307.000000 0 1 0
-0.143367 -15.824355 -17.564820 23.642201 1.561737 2.408254 -0.005841 0.025651 -101132.000000 0 1 0
-0.455867 -16.686255 -18.632320 25.016040 1.543483 2.411054 0.000803 0.011170 -407433.000000 0 0 1
-0.527067 -18.046155 -18.221420 25.650763 1.541598 2.360814 0.001446 0.013005 -398241.000000 0 0 1
-0.770167 -18.967055 -19.424320 27.159649 1.530213 2.367693 0.008806 0.015545 1106670.000000 0 0 1
-2.116767 -18.793855 -19.934620 27.478696 1.458638 2.382495 0.021465 0.011281 967583.000000 0 0 1
-2.094567 -18.870855 -21.380720 28.594257 1.460254 2.415430 0.018667 0.004472 264583.000000 0 0 1
-3.288367 -18.065555 -21.966320 28.630348 1.390743 2.445321 0.015542 0.006298 372790.000000 0 0 1
-3.088367 -16.643255 -22.099020 27.837073 1.387321 2.487944 0.015360 0.009559 -77096.900000 0 0 1
-3.484867 -15.993355 -20.878720 26.530221 1.356255 2.476693 0.010615 0.004712 109190.000000 0 0 1
-2.751067 -14.632655 -20.656820 25.463448 1.384957 2.517056 0.008014 0.007675 36481.000000 0 0 1
-2.861567 -13.683155 -21.673720 25.790840 1.364637 2.568753 0.010913 -0.001874 279400.000000 0 0 1
-2.162367 -12.488255 -21.263120 24.753840 1.399344 2.604076 0.011200 0.000415 193810.000000 0 1 0
-2.013767 -11.390655 -22.373020 25.186391 1.395813 2.664422 0.013051 -0.001857 607560.000000 0 0 1
-3.178467 -10.565355 -22.631120 25.177310 1.278570 2.687980 0.017869 -0.004999 864193.000000 0 0 1
-3.144667 -9.769455 -23.807020 25.924995 1.259382 2.734570 0.016705 0.001381 -478184.000000 0 0 1
-4.303867 -8.794955 -23.861320 25.792190 1.115700 2.752194 0.026668 -0.000815 -171060.000000 0 0 1
-5.652167 -9.236455 -23.929220 26.265313 1.021643 2.716639 0.008470 -0.001798 158818.000000 0 0 1
-6.466267 -8.146055 -23.902620 26.067337 0.899853 2.731181 0.026216 -0.004774 -1197680.000000 0 0 1
-7.963067 -8.470455 -23.999220 26.666863 0.816264 2.690484 -0.006173 -0.003218 -227585.000000 0 0 1
-8.505967 -8.717255 -25.294950 28.074481 0.797665 2.692853 -0.011848 -0.005346 121568.000000 0 0 1
-8.662167 -7.636755 -26.167260 28.602074 0.722568 2.725989 -0.009088 0.000504 -486270.000000 0 0 1
-9.581767 -8.032055 -27.329620 30.053823 0.697641 2.712529 -0.005347 0.007943 -56424.200000 0 0 1
-10.112367 -6.908955 -28.001180 30.562390 0.599374 2.729282 0.001663 0.003738 170944.000000 0 0 1
-10.642467 -7.238155 -29.288670 31.991861 0.597259 2.727555 0.024051 0.003245 -157097.000000 0 0 1
-11.259767 -6.108955 -30.093150 32.706258 0.497103 2.739142 0.033820 -0.006150 -151043.000000 0 0 1
-10.347067 -5.389355 -30.869270 33.000284 0.480195 2.780254 -0.001636 0.006824 -221554.000000 0 0 1
-11.057367 -4.578155 -31.759970 33.939955 0.392548 2.781231 0.017973 -0.014225 -72479.200000 0 0 1
-10.162567 -3.545855 -32.429450 34.168993 0.335706 2.821131 0.005550 -0.015417 -578460.000000 0 0 1
-9.249667 -4.052355 -33.326920 34.823290 0.412921 2.847376 0.005341 0.004037 -114658.000000 0 0 1
-8.478067 -3.002755 -33.977220 35.147484 0.340393 2.882818 0.003028 0.013176 465076.000000 0 0 1
-7.422367 -3.655355 34.231149 35.216824 0.457612 0.237151 -0.000424 0.010651 222630.000000 0 0 1
-6.398167 -4.342055 -34.228313 35.090845 0.596246 2.919416 -0.009083 0.010631 598739.000000 0 0 1
-5.358467 -4.858655 34.055198 34.814885 0.736518 0.209287 -0.012734 0.013617 735337.000000 0 0 1
-3.979667 -4.227555 34.324050 34.811641 0.815593 0.167567 -0.013384 0.012114 -159278.000000 0 0 1
-4.012667 -2.791755 34.203055 34.550606 0.607858 0.141958 -0.003008 0.006840 334361.000000 0 0 1
-2.699667 -2.333055 34.511469 34.695430 0.712681 0.103023 -0.006770 0.003840 482242.000000 0 0 1
-2.581167 -0.878855 -34.169075 34.277696 0.328175 3.061962 -0.000323 0.005383 -172141.000000 0 0 1
-3.006467 -0.742055 -32.848850 32.994491 0.241983 3.047600 -0.004988 0.000743 195621.000000 0 0 1
-3.244067 0.585745 -32.468880 32.635797 -0.178634 3.040411 0.010314 0.000865 -561535.000000 0 0 1
-3.637167 0.481445 -30.961940 31.178558 -0.131603 3.023646 0.035066 -0.002792 278433.000000 0 0 1
-4.744267 -0.318055 -30.600780 30.967999 0.066940 2.987440 0.019646 -0.000517 295927.000000 0 0 1
-6.005267 0.308045 -30.784460 31.366241 -0.051251 2.948690 0.024876 -0.006286 557104.000000 0 0 1
-7.251767 -0.643555 -30.672590 31.524753 0.088513 2.908551 0.019422 -0.005983 556411.000000 0 0 1
-7.519267 -0.978555 -29.292770 30.258277 0.129412 2.888294 0.009734 -0.000740 326448.000000 0 0 1
-8.426067 -2.083055 -29.129620 30.395270 0.242356 2.852000 0.007670 0.004990 382390.000000 0 0 1
-8.739167 -2.560055 -27.674340 29.134104 0.284968 2.823696 0.004022 0.003547 -93101.300000 0 0 1
-9.735167 -1.814055 -26.999760 28.758499 0.184228 2.790056 0.003426 0.000065 345092.000000 0 0 1
-9.989267 -2.421155 -25.736850 27.713406 0.237790 2.761631 0.000573 -0.004483 47132.200000 0 0 1
-11.078867 -1.771055 -24.879620 27.292369 0.158518 2.717947 -0.000622 -0.007688 -73890.600000 0 0 1
-10.609167 -0.572555 -24.360520 26.576628 0.053916 2.730324 0.025283 -0.010444 183165.000000 0 0 1
-11.577467 0.126045 -23.609520 26.295685 -0.010887 2.685653 0.015408 -0.013797 49311.700000 0 0 1
-10.967967 1.424445 -23.064020 25.578787 -0.129150 2.694448 0.024238 -0.014507 253913.000000 0 0 1
-10.610567 2.424445 -24.019920 26.370791 -0.224637 2.716143 0.012465 -0.015556 140306.000000 0 0 1
-9.846267 3.436545 -23.392520 25.611888 -0.335802 2.722224 0.026454 -0.015191 -101248.000000 0 0 1
-9.740667 4.687245 -24.334220 26.627150 -0.448498 2.723555 0.024754 -0.014327 399232.000000 0 0 1
-11.029567 5.237145 -24.604220 27.467192 -0.443308 2.680951 0.013129 -0.007448 400487.000000 0 0 1
-11.413667 4.887445 -25.957030 28.773709 -0.404586 2.695429 0.006650 -0.008321 699197.000000 0 0 1
-12.817667 5.395545 -26.447180 29.880726 -0.398432 2.657487 -0.003644 0.001091 747130.000000 0 0 1
-12.842367 6.841345 -26.652160 30.365573 -0.489477 2.641858 0.002374 0.002771 1090520.000000 0 0 1
-14.173267 7.211245 -27.080200 31.404152 -0.470656 2.610616 0.007355 -0.000753 1010440.000000 0 0 1
-14.515667 8.757845 -27.102470 31.967926 -0.542870 2.582623 0.012809 0.002048 -305284.000000 0 0 1
-14.266867 9.318645 -25.817010 30.933778 -0.578598 2.558184 0.024635 -0.001695 169914.000000 0 0 1
-14.496067 10.710145 -25.816580 31.485536 -0.636315 2.532121 0.016794 0.000311 -277303.000000 0 0 1
-14.135667 11.482045 -24.532920 30.553536 -0.682181 2.503022 0.013043 -0.007569 109875.000000 0 0 1
-15.021367 11.217545 -23.452220 30.024680 -0.641432 2.467219 0.030705 -0.005290 281537.000000 0 0 1
-14.598967 11.983345 -22.319120 29.238220 -0.687317 2.439286 0.022365 -0.004604 221636.000000 0 0 1
-15.596867 11.972645 -21.102020 28.842707 -0.654690 2.391498 0.030609 -0.004833 238171.000000 0 0 1
-16.760867 12.721145 -21.364120 29.986327 -0.649223 2.363797 0.027478 -0.000663 -129461.000000 0 0 1
-17.442467 12.996545 -20.146020 29.648136 -0.640364 2.317882 0.031548 0.003337 -161129.000000 0 0 1
-18.844167 13.591645 -20.325820 30.870283 -0.624856 2.289523 0.029918 -0.000546 -202096.000000 0 0 1
-18.832467 14.850645 -20.998220 31.876774 -0.667730 2.289927 0.011535 0.000192 -101540.000000 0 0 1
-20.130767 15.368545 -21.154320 32.999170 -0.652045 2.266670 -0.002140 0.002550 -151631.000000 0 0 1
-20.146067 16.737745 -21.919220 34.153599 -0.693253 2.267618 -0.020503 0.003586 -145625.000000 0 0 1
-20.038967 16.486045 -23.314920 34.884601 -0.688430 2.302777 -0.012003 0.006764 62445.800000 0 0 1
-20.316767 17.634545 -24.083320 36.107541 -0.714840 2.300956 -0.030677 0.016437 128055.000000 0 0 1
-20.322267 17.346745 -25.594920 37.000054 -0.706571 2.334711 -0.034892 0.013720 276843.000000 0 0 1
-18.954667 17.200145 -25.940860 36.442456 -0.736908 2.362898 -0.030922 0.006880 322836.000000 0 0 1
-18.854767 16.737145 -27.267920 37.137228 -0.725971 2.395354 -0.033773 0.007398 -38941.500000 0 0 1
-18.205767 17.727645 -28.261750 38.005866 -0.772093 2.409258 -0.047156 0.019258 -592195.000000 0 0 1
-19.007367 18.866345 -28.351960 39.000674 -0.781675 2.384682 -0.051267 0.006131 351501.000000 0 0 1
-18.253667 20.079445 -28.341160 39.237760 -0.832991 2.377909 -0.062183 0.007711 -416022.000000 0 0 1
-19.177667 21.351345 -28.503060 40.448575 -0.838979 2.352760 -0.024936 0.000328 968026.000000 0 0 1
-20.002367 21.587545 -27.327940 40.161338 -0.823494 2.319178 -0.015135 0.010700 421196.000000 0 0 1
-21.165167 20.817245 -27.181640 40.251255 -0.777111 2.312167 0.005746 -0.005447 -761916.000000 0 0 1
-22.136767 21.359045 -26.122370 40.356207 -0.767520 2.274827 -0.001385 0.010118 -275970.000000 0 0 1
-21.819467 21.064945 -24.767020 39.156434 -0.767806 2.255592 -0.031631 0.013562 190632.000000 0 0 1
-22.909467 21.466845 -23.946220 39.485321 -0.752901 2.222396 -0.031395 0.005036 146521.000000 0 0 1
-22.715767 21.185345 -22.412020 38.303049 -0.750552 2.195829 -0.011690 0.011859 329627.000000 0 0 1
-21.575967 21.876145 -21.883820 37.722535 -0.792306 2.189680 -0.007974 0.010111 549354.000000 0 0 1
-20.556467 21.054945 -21.314120 36.334154 -0.797377 2.197668 -0.010409 0.007479 198455.000000 0 0 1
-20.857167 20.165445 -20.018820 35.247975 -0.768538 2.174800 0.008047 -0.006423 -1456580.000000 0 0 1
-21.707567 19.065345 -20.351620 35.339698 -0.720685 2.184483 0.020272 -0.004104 130067.000000 0 0 1
-22.223167 18.424545 -19.242120 34.692826 -0.692217 2.158730 0.012048 -0.008815 -590513.000000 0 0 1
-23.239567 19.266145 -18.435420 35.371267 -0.692189 2.119050 -0.006034 -0.004853 -1397000.000000 0 0 1
-24.524567 19.287145 -19.015320 36.538072 -0.666419 2.118145 -0.015437 -0.003328 -507113.000000 0 0 1
-25.249117 20.320645 -18.498620 37.318165 -0.677665 2.089437 -0.019793 -0.005922 -667627.000000 0 0 1
-26.664877 20.412245 -19.176420 38.670538 -0.653354 2.089658 -0.038341 0.018266 879102.000000 0 0 1
-27.549037 19.284745 -19.059220 38.653650 -0.610736 2.086419 -0.035096 0.011914 449203.000000 0 0 1
-28.000637 19.123145 -17.692620 38.246034 -0.599194 2.051722 -0.049242 0.013661 -914527.000000 0 0 1
-28.957487 17.980745 -17.337620 38.241813 -0.555672 2.041337 -0.057552 0.015802 14437.600000 0 0 1
-28.195127 16.807945 -17.074420 37.000108 -0.537569 2.050447 -0.051700 0.011595 -30858.900000 0 0 1
-28.963167 15.707345 -16.664020 36.922558 -0.496929 2.039044 -0.049347 0.011968 71362.500000 0 0 1
-28.116307 14.563645 -15.976620 35.466588 -0.477927 2.038088 -0.029027 0.010941 5471.790000 0 0 1
-27.555037 14.826445 -14.714920 34.577918 -0.493635 2.010375 -0.029422 0.010719 193706.000000 0 0 1
-28.511087 15.265445 -13.726520 35.133079 -0.491582 1.972189 -0.059036 0.018343 21274.500000 0 0 1
-28.004147 15.965345 -12.440820 34.552836 -0.518149 1.939120 -0.044947 0.012797 -476562.000000 0 0 1
-27.614917 17.326945 -12.580920 34.944044 -0.560358 1.939097 -0.036799 0.013820 -628218.000000 0 0 1
-28.600427 18.305445 -12.603720 36.220540 -0.569342 1.926203 -0.054298 0.022668 -854996.000000 0 0 1
-28.121317 19.795345 -12.800720 36.694994 -0.613356 1.927130 -0.008354 0.013887 102151.000000 0 0 1
-27.226787 20.360045 -11.837620 35.999425 -0.642088 1.905859 -0.046160 -0.002079 235721.000000 0 0 1
-26.649137 21.501145 -12.412420 36.421750 -0.678888 1.918561 -0.041401 -0.003812 -244780.000000 0 0 1
-25.760607 22.388045 -11.535820 36.026498 -0.715468 1.896741 -0.013104 0.000540 -152283.000000 0 0 1
-26.437987 23.255445 -10.679120 36.794381 -0.721442 1.865272 -0.026525 -0.001931 -220289.000000 0 0 1
-25.586467 24.304845 -10.292520 36.760424 -0.759716 1.854579 -0.007814 0.005007 -265322.000000 0 0 1
-26.135757 25.220345 -9.169720 37.459676 -0.767575 1.818098 0.013061 0.008165 -105491.000000 0 0 1
-25.791497 24.848245 -7.818120 36.657327 -0.766774 1.785723 0.016185 0.001082 292048.000000 0 0 1
-26.700747 25.315945 -6.833720 37.423611 -0.758782 1.754431 0.024645 -0.006793 81931.100000 0 0 1
-26.454087 24.566645 -5.539520 36.524308 -0.748421 1.723051 0.038017 -0.011781 -66944.400000 0 0 1
-26.905577 23.242845 -5.467420 35.972665 -0.712490 1.723376 0.034382 -0.012358 -394361.000000 0 0 1
-26.408857 22.559345 -4.368120 35.006174 -0.706947 1.695904 0.035660 -0.009932 -44884.300000 0 0 1
-26.322497 21.042645 -4.631520 34.016433 -0.674385 1.707376 0.025681 -0.005972 221777.000000 0 0 1
-25.328597 20.595845 -5.535820 33.111508 -0.682705 1.738772 0.008255 -0.007745 91953.700000 0 0 1
-25.664807 20.843345 -6.896720 33.774133 -0.682098 1.776444 -0.004273 -0.006756 -245929.000000 0 0 1
-26.758577 19.950645 -7.570820 34.225239 -0.640666 1.793847 -0.015330 -0.002972 405149.000000 0 0 1
-26.187777 18.681445 -7.956420 33.137602 -0.619640 1.813268 -0.024908 0.002182 594665.000000 0 0 1
-26.844747 18.209245 -9.106920 33.692032 -0.596025 1.844500 -0.040504 0.009971 -164746.000000 0 0 1
-26.389337 16.769345 -9.510420 32.681128 -0.566085 1.866075 -0.029500 0.010869 -307554.000000 0 0 1
-26.867447 15.765145 -8.666320 32.334264 -0.530638 1.842136 -0.042282 0.011869 -93480.400000 0 0 1
-26.300057 14.520145 -8.915920 31.337218 -0.504451 1.859297 -0.022863 -0.002681 -20003.400000 0 0 1
-26.912447 13.412845 -8.008820 31.117927 -0.462357 1.831096 0.006883 -0.012434 213479.000000 0 0 1
-28.239377 13.059245 -8.346420 32.212870 -0.433157 1.832889 -0.011535 -0.003295 -201768.000000 0 0 1
-28.710827 12.280045 -7.287320 32.065809 -0.404168 1.800061 -0.013724 0.000480 -237367.000000 0 0 1
-29.635647 11.090545 -7.473020 32.513348 -0.358095 1.802714 -0.012359 0.002722 -128028.000000 0 0 1
-28.908577 9.984045 -7.988720 31.610230 -0.332541 1.826293 0.006409 0.007131 377322.000000 0 0 1
-29.776607 8.909045 -8.366620 32.187229 -0.290719 1.833752 0.000702 0.002948 -99986.300000 0 0 1
-29.023797 7.743345 -9.006920 31.360242 -0.260720 1.862107 0.028368 -0.000940 -193636.000000 0 0 1
-28.433567 7.855245 -10.281820 31.239213 -0.269543 1.906180 0.031944 -0.016622 312416.000000 0 0 1
-27.616357 6.728245 -10.597120 30.335316 -0.238977 1.927655 0.058108 -0.018078 27130.200000 0 0 1
-26.794637 6.910845 -11.884120 30.115522 -0.252418 1.976448 0.051489 -0.025794 -317862.000000 0 0 1
-25.806637 7.915745 -11.902020 29.500841 -0.297622 1.986077 0.050860 -0.021561 155450.000000 0 0 1
-25.048467 7.697545 -13.055320 29.276599 -0.298146 2.033010 0.041049 -0.007452 -463846.000000 0 0 1
-30.918017 26.127045 34.555471 53.222428 -0.701609 0.864178 0.026223 0.000509 -93687.400000 0 0 1
-31.210837 27.481345 34.502108 54.034583 -0.721940 0.878224 0.021855 -0.006769 181701.000000 0 0 1
-30.952727 28.056245 33.219052 53.373492 -0.736352 0.899006 0.034307 -0.012209 -83743.300000 0 0 1
-31.342147 29.519945 33.072799 54.291504 -0.755467 0.915782 0.041930 -0.018697 -83199.800000 0 0 1
-31.176167 30.074545 31.777589 53.723801 -0.767415 0.937879 0.052196 -0.018651 76624.700000 0 0 1
-31.535697 31.421745 31.679779 54.639131 -0.783588 0.952313 0.061760 -0.023912 -124992.000000 0 0 1
-31.400217 31.907845 30.240229 54.023658 -0.793416 0.976701 0.071664 -0.026557 77023.700000 0 0 1
-30.044697 31.895645 29.861019 53.025432 -0.815272 0.972609 0.057923 -0.023889 -158495.000000 0 0 1
-29.854987 32.551745 28.654479 52.649934 -0.828584 0.995307 0.041990 -0.017494 470717.000000 0 0 1
-28.477807 32.388645 27.937379 51.385863 -0.849563 0.995983 0.036353 -0.016830 -175039.000000 0 0 1
-28.278687 31.247145 27.176439 50.146057 -0.835225 0.998046 0.048021 -0.023233 -65228.500000 0 0 1
-27.049697 31.236145 26.485689 49.080287 -0.857101 1.000787 0.014334 -0.011780 -251780.000000 0 0 1
-27.003347 32.079145 25.180909 48.911455 -0.871098 1.029991 0.013451 -0.019626 -536264.000000 0 0 1
-26.957117 33.457245 25.384199 49.904218 -0.892578 1.037171 0.001977 -0.017333 209416.000000 0 0 1
-27.919687 34.120345 24.593719 50.483244 -0.885013 1.061955 0.003735 -0.010719 -77855.800000 0 0 1
-28.222927 -33.706049 25.205519 50.674940 0.873707 1.050202 0.014407 -0.011887 -111966.000000 0 0 1
-28.922697 -33.763449 26.437179 51.724436 0.862467 1.034314 0.032568 -0.019147 290033.000000 0 0 1
-28.800777 -32.499449 27.122989 51.199174 0.845662 1.012485 0.025858 -0.016643 -93442.600000 0 0 1
-29.315727 -32.502949 28.610199 52.291462 0.836910 0.991865 0.042290 -0.023166 757966.000000 0 0 1
-30.722247 -32.723949 28.738669 53.297508 0.816937 1.001295 0.032515 -0.025522 262097.000000 0 0 1
-31.147497 -32.670349 30.076749 54.241396 0.809256 0.983037 0.033133 -0.023425 954373.000000 0 0 1
-32.602847 -33.195349 30.359449 55.556934 0.794403 0.992669 0.048911 -0.028827 880073.000000 0 0 1
-32.853077 -33.394749 31.739579 56.585641 0.793574 0.975309 0.045456 -0.033379 -111817.000000 0 0 1
-34.224006 -33.638249 31.992959 57.674637 0.776767 0.982777 0.030609 -0.032344 49387.500000 0 0 1
-34.594384 -34.028049 33.482775 58.955710 0.777145 0.966806 0.023216 -0.017239 -181882.000000 0 0 1
-34.091530 33.938645 33.832126 58.810516 -0.783151 0.957858 0.015645 -0.015025 -244204.000000 0 0 1
-35.010846 33.280645 -34.473451 59.344582 -0.760068 2.190634 0.016856 -0.011020 203829.000000 0 0 1
-34.679738 31.825445 -34.138737 58.146337 -0.742506 2.198290 0.013031 -0.007511 40314.200000 0 0 1
-33.703937 31.717945 -33.142800 56.924762 -0.755051 2.192254 0.009683 -0.013342 -305100.000000 0 0 1
-33.174477 30.407745 -32.911760 55.752675 -0.741911 2.202248 0.012160 -0.011669 652547.000000 0 0 1
-32.296327 30.366545 -31.611760 54.447067 -0.754612 2.190257 0.009674 -0.007813 521388.000000 0 0 1
-33.090927 30.438645 -30.433330 54.292800 -0.743674 2.165835 0.015280 -0.013931 77901.500000 0 0 1
-33.590897 31.721245 -30.074830 55.127862 -0.756780 2.147838 -0.001473 -0.003094 371781.000000 0 0 1
-34.642059 31.715945 -28.941270 55.168564 -0.741331 2.123038 -0.007479 -0.000712 -60146.600000 0 0 1
-34.016147 31.707445 -27.695010 54.124614 -0.750285 2.107947 -0.016162 -0.006740 153224.000000 0 0 1
-34.929117 31.904445 -26.610960 54.277804 -0.740172 2.083200 0.011991 -0.006963 159618.000000 0 0 1
-34.336298 31.389745 -25.267180 52.940795 -0.740597 2.068344 0.019000 -0.005032 47409.800000 0 0 1
-33.777397 32.438445 -24.449120 52.829203 -0.765180 2.051943 0.015716 -0.011200 -7233.480000 0 0 1
-33.523147 32.153145 -23.081920 51.869077 -0.764541 2.031974 0.009539 -0.011965 516070.000000 0 0 1
-34.866199 32.184345 -22.275720 52.418428 -0.745422 2.009714 0.009379 -0.010738 455961.000000 0 0 1
34.767999 33.413945 -22.053220 53.024994 0.765541 1.999731 0.012716 -0.021104 -304350.000000 0 0 1
-34.991599 34.342845 -21.158720 53.399761 -0.776042 1.978206 0.016936 -0.022176 -246523.000000 0 0 1
-35.085912 34.071745 -19.642920 52.704358 -0.770735 1.952713 0.016732 -0.015204 -355220.000000 0 0 1
-34.123213 33.186245 -19.183620 51.319897 -0.771479 1.953904 0.016766 -0.019320 -448399.000000 0 0 1
-34.080668 32.947045 -17.795820 50.632903 -0.768487 1.929934 0.026611 -0.009761 -16986.600000 0 0 1
-32.865227 32.049045 -17.474320 49.118390 -0.772826 1.934523 0.014366 0.002349 159438.000000 0 0 1
-32.705897 31.680845 -16.074520 48.288113 -0.769479 1.910161 0.012360 -0.001049 -665182.000000 0 0 1
-31.558777 30.907145 -15.945020 46.962237 -0.774967 1.917212 0.011011 0.005421 -669226.000000 0 0 1
-31.222057 30.511545 -14.520520 46.006703 -0.773889 1.891904 0.011720 0.003499 -153675.000000 0 0 1
-32.108337 29.594845 -13.880920 45.820084 -0.744685 1.878577 0.010441 0.001657 368634.000000 0 0 1
-31.697847 29.365645 -12.525120 44.988590 -0.747224 1.852931 0.013315 -0.000758 81712.800000 0 0 1
-32.497737 28.236945 -11.801720 44.639764 -0.715359 1.838354 0.013114 0.000460 -31759.500000 0 0 1
-32.115557 28.092545 -10.466620 43.933475 -0.718679 1.811347 0.016282 0.007235 643835.000000 0 0 1
-32.880707 26.981145 -9.899220 43.670558 -0.687162 1.799463 0.021583 0.008154 75318.900000 0 0 1
-32.133587 26.311645 -8.759320 42.445209 -0.686112 1.778658 0.010759 0.003182 -93387.100000 0 0 1
-31.828327 27.053445 -7.590120 42.456345 -0.704483 1.750537 0.020048 -0.006998 459631.000000 0 0 1
-30.567827 27.704445 -7.776420 41.980960 -0.736300 1.757109 0.024136 -0.012485 -220526.000000 0 0 1
-30.107027 28.281845 -6.478220 41.812237 -0.754149 1.726359 0.036955 -0.013445 -169349.000000 0 0 1
-29.391667 27.362845 -5.648520 40.552449 -0.749666 1.710540 0.051379 -0.020039 243784.000000 0 0 1
-29.313177 27.813245 -4.314020 40.638033 -0.759148 1.677154 0.046300 -0.024959 15644.700000 0 0 1
-28.457257 26.912045 -3.426220 39.316824 -0.757498 1.658051 0.047431 -0.020763 105696.000000 0 0 1
-29.183277 25.744445 -3.091720 39.038428 -0.722873 1.650076 0.038690 -0.015528 -110000.000000 0 0 1
-28.383517 24.936945 -2.303620 37.852106 -0.720849 1.631692 0.023493 -0.011785 -208095.000000 0 0 1
-29.129147 23.724945 -1.730820 37.608190 -0.683505 1.616835 0.031845 -0.019950 33616.100000 0 0 1
-29.407317 22.784045 -2.749620 37.302324 -0.659169 1.644575 0.012766 -0.015909 232880.000000 0 0 1
-30.503537 21.941645 -2.406720 37.652275 -0.623572 1.634760 0.025691 -0.013581 319131.000000 0 0 1
-31.004617 20.983945 -3.464120 37.598036 -0.594986 1.663063 0.007029 -0.008120 778905.000000 0 0 1
-29.928007 20.097745 -3.891520 36.259466 -0.591366 1.678328 0.003878 -0.006525 1203090.000000 0 0 1
-30.347877 19.386545 -5.039320 36.362433 -0.568469 1.709830 -0.008050 -0.002260 129800.000000 0 0 1
-29.211137 18.433445 -5.493320 34.975119 -0.562932 1.728513 -0.009903 0.002740 45448.700000 0 0 1
-29.029677 17.290645 -4.669020 34.109944 -0.537192 1.708109 -0.007710 0.001758 22918.400000 0 0 1
-28.251037 16.329245 -5.328120 33.062882 -0.524090 1.732653 -0.023858 0.001821 -192928.000000 0 0 1
-27.831377 15.047345 -4.544520 31.963429 -0.495645 1.713458 -0.020304 0.012002 -278252.000000 0 0 1
-28.953507 14.301445 -4.173320 32.561534 -0.458792 1.699317 0.002239 0.018183 67112.700000 0 0 1
-28.599427 13.098145 -3.533620 31.653990 -0.429475 1.682662 0.008957 0.009100 1110920.000000 0 0 1
-29.862487 12.351045 -2.879820 32.443949 -0.392173 1.659676 0.012194 -0.005345 1098000.000000 0 0 1
-30.813037 11.854845 -3.812620 33.234269 -0.367278 1.685769 -0.000197 0.004899 463008.000000 0 0 1
-31.794687 11.129245 -3.083920 33.827101 -0.336706 1.662090 -0.017569 0.011380 -157663.000000 0 0 1
-32.949507 10.615845 -3.973420 34.844716 -0.311684 1.685077 -0.006552 0.010848 -253908.000000 0 0 1
-32.635537 9.515445 -4.773420 34.327941 -0.283702 1.710302 -0.007237 0.006974 230525.000000 0 0 1
-33.613797 9.401445 -5.766220 35.376882 -0.272721 1.734521 -0.000404 0.008987 -259039.000000 0 0 1
-33.117947 8.518545 -6.959320 34.896936 -0.251761 1.771567 0.000203 -0.002661 -313707.000000 0 0 1
-32.806447 7.208045 -6.580220 34.227448 -0.216278 1.764251 -0.010240 0.008630 363037.000000 0 0 1
-32.515967 6.425445 -7.680420 34.022982 -0.195095 1.798501 0.009433 0.005768 -754624.000000 0 0 1
-31.756897 5.148045 -7.313020 32.992168 -0.160710 1.794312 0.021760 0.009715 483927.000000 0 0 1
-30.435167 5.511645 -6.877420 31.685588 -0.179153 1.789590 0.014751 0.007175 726392.000000 0 0 1
-29.569247 4.435645 -6.582520 30.616089 -0.148898 1.787490 0.008486 0.005976 85769.600000 0 0 1
-28.097957 4.829545 -6.359520 29.210669 -0.170219 1.790266 0.061697 -0.003434 342152.000000 0 0 1
-27.320377 4.969845 -7.570220 28.782123 -0.179942 1.836945 0.063613 -0.005753 857088.000000 0 0 1
-25.937177 4.734445 -7.300620 27.357836 -0.180547 1.840926 0.085769 -0.016134 199063.000000 0 0 1
-24.997767 5.151245 -8.403620 26.870886 -0.203224 1.888873 0.089222 -0.017283 -523534.000000 0 0 1
-25.022967 4.175745 -9.471420 27.079393 -0.165353 1.928116 0.083541 -0.022475 884104.000000 0 0 1
-23.987167 4.412845 -10.452420 26.535080 -0.181933 1.975677 0.079857 -0.025674 329055.000000 0 0 1
-24.168667 3.588645 -11.769320 27.120467 -0.147406 2.019685 0.079383 -0.034277 814621.000000 0 0 1
-25.309997 4.175145 -12.457520 28.516970 -0.163488 2.022886 0.076269 -0.022276 1084710.000000 0 0 1
-25.638767 3.539745 -13.666620 29.268629 -0.137195 2.056621 0.075750 -0.027687 -237173.000000 0 0 1
-26.452987 4.484945 -14.534420 30.514334 -0.167947 2.067255 0.055661 -0.025266 -597413.000000 0 0 1
-25.719247 5.390845 -15.377020 30.446570 -0.206612 2.100235 0.043599 -0.021951 140085.000000 0 0 1
-26.351987 6.185045 -16.373720 31.635118 -0.230536 2.114817 0.061414 -0.014905 44787.800000 0 0 1
-27.299107 5.556845 -17.485120 32.891476 -0.200811 2.131285 0.020637 -0.007472 2102840.000000 0 0 1
-28.519757 4.969545 -16.881520 33.512067 -0.172517 2.098724 0.020859 -0.020359 1602980.000000 0 0 1
-29.323487 4.372645 -17.897920 34.631235 -0.148027 2.113922 0.024895 -0.009650 426816.000000 0 0 1
-30.665157 3.672845 -17.562120 35.528435 -0.119205 2.087839 0.008350 -0.007382 -200663.000000 0 0 1
-30.601027 2.502945 -16.738620 34.969543 -0.081611 2.069927 0.015533 -0.022496 36358.400000 0 0 1
-30.164617 1.302345 -17.345820 34.820650 -0.043148 2.092257 0.030868 -0.032041 -152570.000000 0 0 1
-30.264117 0.122345 -16.370120 34.408030 -0.004043 2.066629 0.035075 -0.029859 -625777.000000 0 0 1
-29.908157 -1.125155 -16.980220 34.410633 0.037603 2.086858 0.031650 -0.020316 128850.000000 0 0 1
-30.100217 -2.181955 -16.072420 34.192202 0.072363 2.060156 0.033943 -0.027101 -19948.300000 0 0 1
-29.882577 -3.513855 -16.879820 34.499911 0.117051 2.082050 0.023243 -0.019313 415490.000000 0 0 1
-30.760237 -3.635355 -18.035020 35.842292 0.117638 2.098068 0.017958 -0.018575 560189.000000 0 0 1
-30.610807 -4.898855 -18.617420 36.161148 0.158691 2.111624 0.007081 -0.010289 283799.000000 0 0 1
-31.676317 -5.140455 -19.737320 37.674595 0.160878 2.122207 0.006246 -0.001679 50453.400000 0 0 1
-31.779537 -6.458855 -20.219820 38.216448 0.200508 2.128320 0.008086 0.000463 -433562.000000 0 0 1
-32.716967 -6.537555 -21.228920 39.544994 0.197224 2.137471 0.017454 0.003204 -933661.000000 0 0 1
-32.550877 -7.722255 -22.208420 40.154784 0.232930 2.156841 0.012534 -0.000933 -258023.000000 0 0 1
-31.337047 -7.610055 -22.903120 39.553462 0.238234 2.188350 0.007248 -0.002511 -180878.000000 0 0 1
-31.340587 -8.410355 -24.031920 40.379446 0.262177 2.208251 -0.002974 0.001240 94324.600000 0 0 1
-29.984997 -8.358455 -24.791320 39.794137 0.271853 2.243355 -0.003412 -0.001084 34844.200000 0 0 1
-29.803617 -7.072555 -25.322560 39.743033 0.232995 2.261601 0.010137 -0.000812 251998.000000 0 0 1
-29.362617 -7.097255 -26.671320 40.297563 0.237162 2.294093 0.009208 0.007343 -306995.000000 0 0 1
-30.562547 -7.112755 -27.621120 41.804148 0.228658 2.292583 0.001549 0.004060 63164.300000 0 0 1
-31.300297 -8.333355 -27.501610 42.491081 0.260203 2.274745 -0.004100 -0.005021 -400054.000000 0 0 1
-32.551497 -8.292155 -28.138170 43.819133 0.249434 2.268087 0.018051 -0.005439 -129179.000000 0 0 1
-33.319197 -9.550555 -27.693610 44.365730 0.279154 2.244918 0.021100 -0.014265 -999107.000000 0 0 1
-32.778677 -10.767255 -28.149750 44.528461 0.317379 2.255153 0.017313 -0.007699 194523.000000 0 0 1
-33.749397 -11.831355 -28.165080 45.522241 0.337178 2.237896 -0.002379 -0.003330 923397.000000 0 0 1
-35.050734 -11.728355 -29.054160 47.013322 0.322900 2.236991 -0.000404 -0.009919 1185510.000000 0 0 1
34.310754 -10.773055 -28.452450 45.856608 -0.304237 2.240133 -0.012928 -0.005457 426402.000000 0 0 1
33.431862 -10.158055 -29.381010 45.652155 -0.294979 2.269968 0.003530 -0.012751 -420153.000000 0 0 1
32.420272 -9.202455 -28.800700 44.331022 -0.276574 2.277951 0.002580 -0.010697 -1058280.000000 0 0 1
31.556472 -9.876755 -27.972490 43.310754 -0.303328 2.272940 -0.022824 -0.002526 -974975.000000 0 0 1
30.696092 -8.941555 -27.415650 42.116734 -0.283450 2.279624 -0.033023 0.001485 -191472.000000 0 0 1
29.602772 -9.450155 -26.463110 40.815753 -0.309006 2.276218 -0.045755 0.010993 152587.000000 0 0 1
30.156682 -9.836455 -25.206850 40.516251 -0.315297 2.242272 -0.056246 0.024884 -131268.000000 0 0 1
29.110632 -10.295055 -24.417920 39.365618 -0.339925 2.239903 -0.057567 0.023371 -383625.000000 0 0 1
29.278152 -10.328455 -22.917420 38.588798 -0.339140 2.206679 -0.065361 0.025204 268566.000000 0 0 1
30.114692 -11.437255 -22.512520 39.300369 -0.362963 2.180753 -0.076572 0.032679 415438.000000 0 0 1
30.459482 -11.300755 -21.158320 38.770628 -0.355268 2.148057 -0.053465 0.030658 -323340.000000 0 0 1
31.414992 -12.391355 -20.695520 39.607473 -0.375705 2.120595 -0.026085 0.021030 452921.000000 0 0 1
32.732412 -12.242055 -21.239020 40.894678 -0.357897 2.116897 -0.027657 0.026320 486916.000000 0 0 1
33.700962 -13.099455 -20.683520 41.655234 -0.370724 2.090405 -0.023090 0.026553 -326104.000000 0 0 1
35.048650 -13.027155 -21.394620 43.079512 -0.355864 2.090509 -0.022003 0.012846 -665452.000000 0 0 1
-34.687371 -11.748655 -21.334920 42.384235 0.326574 2.098290 -0.014908 0.023021 -23210.500000 0 0 1
-34.973827 -10.912955 -22.488820 42.988465 0.302458 2.121323 -0.015258 0.016152 -397481.000000 0 0 1
-34.494085 -11.324155 -23.931420 43.483229 0.317207 2.153591 -0.018722 0.012904 340721.000000 0 0 1
35.109096 -12.438855 -24.570920 44.621787 -0.340493 2.153937 -0.018578 0.020400 591081.000000 0 0 1
33.823002 -12.063755 -25.049920 43.783880 -0.342607 2.179893 -0.016787 0.023270 -409741.000000 0 0 1
33.107092 -13.158155 -25.833450 44.006633 -0.378299 2.198188 -0.025248 0.004162 -406754.000000 0 0 1
32.834922 -14.366755 -25.191510 43.808081 -0.412448 2.183452 -0.008489 0.000748 206364.000000 0 0 1
32.090502 -14.283655 -24.001120 42.542648 -0.418776 2.170219 -0.022447 0.011726 -671676.000000 0 0 1
-28.939427 8.455845 -19.674820 36.001254 -0.284277 2.148980 -0.011216 0.018805 631749.000000 0 0 1
-27.848077 7.740545 -20.272420 35.304425 -0.271112 2.182444 -0.011629 0.007049 654117.000000 0 0 1
-26.737477 8.587445 -20.562720 34.806067 -0.310770 2.202821 0.002176 0.005055 611510.000000 0 0 1
-25.508687 7.771045 -21.049120 33.972749 -0.295711 2.239014 0.008453 0.004918 22609.900000 0 0 1
-25.071697 6.744445 -20.139620 32.858512 -0.262785 2.230546 0.025042 0.004363 -83478.200000 0 0 1
-23.886767 6.098445 -20.524820 32.078605 -0.249967 2.265072 0.049071 -0.012440 -703348.000000 0 0 1
-22.643467 6.621745 -19.815220 30.809366 -0.284502 2.269409 0.021808 -0.003896 -632037.000000 0 0 1
-22.217967 7.889145 -20.309220 31.118179 -0.341193 2.281871 0.015882 -0.001860 237922.000000 0 0 1
-20.935067 8.125145 -19.741920 29.900475 -0.370216 2.291954 0.008473 0.003784 321202.000000 0 0 1
-20.198667 9.385145 -20.264120 30.111487 -0.434963 2.309013 0.012647 0.009477 -259413.000000 0 0 1
-19.927467 9.196245 -21.629920 30.814417 -0.432364 2.348916 0.019531 -0.007274 -118492.000000 0 0 1
-19.285867 10.291245 -22.209620 31.162824 -0.490177 2.364130 0.006394 -0.006293 -152623.000000 0 0 1
-18.232467 9.867745 -23.270820 31.166108 -0.496076 2.413839 0.025631 -0.001249 -15111.400000 0 0 1
-18.720167 9.014845 -24.307420 31.977535 -0.448785 2.434326 0.029877 -0.010140 -424214.000000 0 0 1
-17.701467 8.639645 -25.204540 31.988345 -0.454062 2.478235 0.010429 -0.002082 -415529.000000 0 0 1
-18.058067 7.625045 -26.311140 32.810230 -0.399540 2.501296 0.008423 0.003209 -388734.000000 0 0 1
-18.384367 6.321945 -25.821560 32.321895 -0.331209 2.496240 0.031180 0.001539 130271.000000 0 0 1
-18.957167 5.578745 -26.876000 33.358896 -0.286202 2.507589 0.032269 -0.002603 -288065.000000 0 0 1
-19.508667 4.209245 -26.261130 32.984129 -0.212505 2.491743 0.027078 0.009098 696680.000000 0 0 1
-18.557167 3.137745 -25.991050 32.089695 -0.167501 2.514863 0.024732 0.004763 802688.000000 0 0 1
-17.438167 3.442245 -25.184170 30.825008 -0.194892 2.526993 0.011525 -0.000627 -79946.200000 0 0 1
-16.628567 2.200245 -24.677320 29.838238 -0.131553 2.544612 0.006619 -0.001014 137873.000000 0 0 1
-17.241967 1.378145 -23.665620 29.312903 -0.079760 2.510435 -0.001341 -0.002535 -201862.000000 0 0 1
-18.303067 0.582945 -24.121920 30.285460 -0.031839 2.492256 0.006531 -0.003481 -413854.000000 0 0 1
-18.996867 -0.083355 -22.946120 29.789466 0.004388 2.450071 0.006993 -0.001972 -88539.600000 0 0 1
-18.237367 -1.184255 -22.475920 28.968448 0.064845 2.458899 0.006680 -0.006789 186119.000000 0 0 1
-18.867067 -1.696055 -21.318820 28.519027 0.089654 2.415132 0.010042 -0.010591 -278697.000000 0 0 1
-18.348767 -3.066855 -20.896320 27.977473 0.165611 2.414181 0.002377 -0.024073 152405.000000 0 0 1
-18.939167 -4.059455 -21.767520 29.137538 0.211147 2.414426 0.018438 -0.030844 478080.000000 0 0 1
-18.958167 -5.334755 -21.144120 28.895424 0.274303 2.391677 0.025496 -0.027233 -198182.000000 0 0 1
-18.970567 -6.432755 -22.246220 29.935882 0.326924 2.408531 0.014766 -0.027694 -634900.000000 0 0 1
-17.760967 -6.449355 -22.937720 29.718430 0.348315 2.452518 -0.001165 -0.017705 -508295.000000 0 0 1
-17.801867 -7.320655 -24.036520 30.793713 0.390149 2.466367 0.006714 -0.020859 -860196.000000 0 0 1
-16.465967 -7.529155 -24.698420 30.623980 0.428871 2.509014 0.017262 -0.017568 -1214410.000000 0 0 1
-16.537167 -8.352955 -25.851660 31.805000 0.467721 2.519769 0.020953 -0.014231 150110.000000 0 0 1
-15.242667 -8.608855 -26.350260 31.635225 0.514125 2.555197 0.022848 -0.011297 577656.000000 0 0 1
-14.179167 -9.536655 -25.670160 30.837537 0.592087 2.554279 0.031240 -0.015581 -71949.600000 0 0 1
-13.588267 -9.001755 -24.506220 29.431741 0.585088 2.554665 0.018649 -0.005488 -81936.400000 0 0 1
-12.656867 -9.885155 -23.952020 28.837680 0.663055 2.550946 -0.000430 -0.000504 128406.000000 0 0 1
-11.647067 -9.220055 -22.960020 27.346409 0.669610 2.567341 0.016242 0.001769 86248.700000 0 0 1
-12.241067 -8.819055 -21.732420 26.455954 0.624318 2.534757 0.007779 -0.001635 244255.000000 0 0 1
-11.379867 -8.012055 -20.931220 25.135838 0.613442 2.554806 0.013622 -0.000462 -1063480.000000 0 0 1
-11.880567 -7.492355 -19.538120 24.062863 0.562644 2.518301 0.006270 -0.000398 -3541.870000 0 1 0
-12.890867 -6.493155 -19.602020 24.342857 0.466605 2.506889 -0.001766 -0.000492 131732.000000 0 1 0
-14.185667 -6.936755 -19.922020 25.421223 0.454807 2.471359 -0.009495 -0.009379 -871251.000000 0 0 1
-15.177967 -5.812755 -19.572620 25.441035 0.365743 2.448592 -0.011081 -0.012228 -447440.000000 0 0 1
-15.299167 -5.532855 -18.179620 24.396220 0.347010 2.411604 -0.012855 -0.006870 283594.000000 0 1 0
-14.939967 -4.172055 -17.945020 23.719873 0.272317 2.428801 -0.013028 -0.010586 -1041910.000000 0 1 0
-14.777567 -3.775355 -16.422120 22.412403 0.250128 2.393113 -0.001236 -0.007379 259049.000000 0 1 0
-15.947567 -3.589655 -15.634620 22.619723 0.221401 2.333936 -0.003456 -0.008487 447092.000000 0 1 0
-16.777467 -2.457555 -15.966020 23.290272 0.145445 2.326118 -0.019466 -0.006067 -117522.000000 0 1 0
-17.901367 -2.305155 -14.949220 23.436123 0.128065 2.262527 -0.012030 -0.006903 -436557.000000 0 1 0
-17.386367 -2.263755 -13.622920 22.203475 0.129475 2.231343 -0.009305 -0.011807 590307.000000 0 1 0
-18.403467 -1.913655 -12.690620 22.436611 0.103611 2.171983 -0.006550 -0.014861 184111.000000 0 1 0
-17.959367 -0.655955 -11.838420 21.520161 0.036508 2.153290 -0.000413 -0.017109 119030.000000 0 1 0
-17.742267 0.412945 -12.765520 21.861314 -0.023270 2.194360 0.013634 -0.017044 466204.000000 0 1 0
-16.697267 1.224645 -12.261720 20.752066 -0.073213 2.202930 0.010901 -0.008429 -566986.000000 0 1 0
-16.179967 2.372045 -13.210920 21.022519 -0.145567 2.250314 0.013702 -0.009562 148144.000000 0 1 0
-15.551767 1.873845 -14.372720 21.258970 -0.119913 2.313223 0.015301 -0.007641 350099.000000 0 1 0
-14.254367 1.349245 -14.164220 20.140322 -0.094374 2.350793 0.012198 -0.009944 -763161.000000 0 1 0
-13.716767 0.540445 -15.362020 20.601782 -0.039380 2.412328 0.011402 -0.009485 -168132.000000 0 1 0
-13.218567 1.226045 -16.476520 21.159145 -0.092487 2.463379 0.003866 -0.015215 201001.000000 0 1 0
-12.888067 0.272245 -17.459820 21.703034 -0.021121 2.505608 0.000234 -0.012391 -119829.000000 0 1 0
-12.316367 0.866045 -18.790720 22.484085 -0.070201 2.560265 0.009078 -0.009576 465231.000000 0 1 0
-11.035367 1.449345 -18.566720 21.647240 -0.130589 2.601565 0.004709 -0.007136 87418.700000 0 1 0
-10.518767 2.113345 -19.669920 22.405723 -0.198272 2.642249 -0.005201 -0.004395 -661035.000000 0 1 0
-9.210167 2.823145 -19.381720 21.643668 -0.297432 2.680330 0.009223 -0.008247 -1038590.000000 0 1 0
-8.187167 1.826545 -19.388520 21.125356 -0.219504 2.733260 0.019403 -0.004801 -101390.000000 0 1 0
-6.846167 2.262645 -19.329320 20.630370 -0.319197 2.784552 0.014817 -0.000028 372932.000000 0 1 0
-6.306367 3.279645 -20.356020 21.561398 -0.479561 2.805637 0.011302 0.002265 -1091110.000000 0 1 0
-6.190467 2.804945 -21.674120 22.714688 -0.425435 2.837736 0.008630 0.002332 155462.000000 0 1 0
-5.932267 3.920845 -22.533920 23.629269 -0.584024 2.835919 0.012906 0.002072 -287747.000000 0 1 0
-5.380367 3.480145 -23.893320 24.737633 -0.574139 2.879575 0.020620 -0.005249 165287.000000 0 1 0
-4.099867 2.874745 -23.782920 24.304328 -0.611518 2.934081 0.023965 -0.012263 108697.000000 0 1 0
-3.599167 2.511945 -25.036420 25.418225 -0.609331 2.968049 0.033531 -0.003189 -364359.000000 0 0 1
-2.247767 1.786445 -24.999920 25.164257 -0.671540 3.027245 0.019157 -0.006987 -115287.000000 0 0 1
-1.199667 2.646445 -24.515220 24.686816 -1.145191 3.023618 0.010781 -0.012762 225524.000000 0 1 0
0.079933 2.078745 -24.625720 24.713430 1.532363 3.057317 0.006351 -0.013733 -212559.000000 0 1 0
0.590233 1.092345 -23.616620 23.649235 1.075403 3.089067 0.007211 -0.020940 -981195.000000 0 1 0
0.033933 -0.208055 -23.652220 23.653159 -1.409123 3.132680 0.006719 -0.022008 -195767.000000 0 1 0
0.697833 -1.002955 -22.706120 22.738970 -0.962910 3.087834 0.015953 -0.016353 -1188640.000000 0 1 0
0.375033 -2.515055 -22.712320 22.854225 -1.422772 3.030097 0.019318 -0.019875 -378696.000000 0 1 0
-0.916367 -2.797855 -22.263520 22.457338 1.254283 3.010117 0.016286 -0.011488 -158348.000000 0 1 0
-2.039867 -2.569655 -23.087020 23.318976 0.899829 3.000429 0.018618 -0.012412 81237.600000 0 1 0
-2.827067 -1.208755 -22.888720 23.094304 0.404041 3.008062 0.012551 -0.012356 -1110680.000000 0 1 0
-3.373067 -0.960755 -21.598620 21.881522 0.277483 2.980616 0.008198 -0.008822 236971.000000 0 1 0
-4.253067 0.146645 -21.545320 21.961577 -0.034466 2.946585 0.006442 -0.010950 980219.000000 0 1 0
-5.677567 -0.102255 -22.163120 22.879010 0.018008 2.890775 0.015691 -0.013485 32186.600000 0 1 0
-6.520167 -0.979555 -21.412220 22.404358 0.149119 2.842882 0.033086 -0.011862 -199294.000000 0 1 0
-7.818267 -0.745855 -21.925720 23.289886 0.095111 2.797633 0.019832 -0.003238 32837.700000 0 1 0
-8.723567 -1.964455 -21.554820 23.336023 0.221495 2.748350 0.021538 -0.003979 -141779.000000 0 1 0
-8.701267 -3.059855 -22.455120 24.275649 0.338150 2.751848 0.040461 -0.007726 15070.300000 0 1 0
-9.192067 -4.177755 -21.767520 23.995263 0.426586 2.707279 0.016532 -0.014575 -285458.000000 0 1 0
-10.133567 -5.102055 -22.535120 25.229977 0.466428 2.675182 0.016012 -0.010196 682792.000000 0 0 1
-11.499267 -4.702955 -22.730320 25.904022 0.388223 2.641383 0.015065 -0.011106 716487.000000 0 0 1
-12.135667 -5.553655 -23.683320 27.184869 0.429182 2.628427 0.001761 -0.001868 -905737.000000 0 0 1
-13.639667 -5.510455 -23.547120 27.764590 0.383952 2.583183 0.008501 -0.007236 -1189290.000000 0 0 1
-14.050867 -4.235555 -23.983220 28.116928 0.292781 2.592468 0.005468 -0.013476 81436.900000 0 0 1
-15.450067 -4.137255 -24.196720 29.005218 0.261644 2.557512 0.017636 -0.013782 334614.000000 0 0 1
-15.834367 -2.737955 -24.656920 29.431059 0.171219 2.564011 0.007653 -0.017546 -297498.000000 0 0 1
-15.175667 -2.397255 -25.852240 30.073011 0.156672 2.605379 0.019550 -0.019453 53029.000000 0 0 1
-15.387167 -1.066655 -26.392710 30.569229 0.069210 2.612717 0.010654 -0.017173 825402.000000 0 0 1
-16.839767 -0.839255 -27.007350 31.838327 0.049796 2.583497 0.022263 -0.015250 979078.000000 0 0 1
-17.144667 -1.583755 -28.151070 32.998949 0.092115 2.592675 0.022470 -0.025037 45526.800000 0 0 1
-16.781367 -0.920255 -29.331160 33.805001 0.054783 2.621267 0.019263 -0.016417 -211880.000000 0 0 1
-16.743067 -1.819455 -30.545320 34.880614 0.108244 2.637702 0.022517 -0.020991 616900.000000 0 0 1
-18.095867 -2.134555 -30.896930 35.869722 0.117416 2.608747 0.015418 -0.022912 744181.000000 0 0 1
-18.124667 -2.695655 -32.164520 37.017920 0.147646 2.623753 0.013472 -0.025391 -1504730.000000 0 0 1
-19.479067 -3.155455 -32.697760 38.190764 0.160597 2.598606 -0.012695 -0.017140 -423420.000000 0 0 1
-20.347067 -2.058955 -33.005180 38.827623 0.100848 2.586865 -0.001790 -0.025221 211896.000000 0 0 1
-21.087067 -1.645555 -31.893660 38.269802 0.077878 2.556009 0.004467 -0.010530 -306447.000000 0 0 1
-22.280067 -0.677555 -32.292920 39.238924 0.030401 2.537437 0.013410 -0.006233 396410.000000 0 0 1
-21.844267 0.557645 -32.777640 39.393612 -0.025523 2.553598 0.018214 -0.012271 221795.000000 0 0 1
-22.921567 1.272345 -33.335460 40.475548 -0.055452 2.538517 0.014764 -0.010855 -196040.000000 0 0 1
-22.508367 2.686545 -33.799240 40.696839 -0.118796 2.550824 0.015688 -0.009326 -439365.000000 0 0 1
-22.168467 3.648945 -32.826480 39.778556 -0.163138 2.541407 0.012538 -0.010648 893598.000000 0 0 1
-23.295067 4.109145 -32.068540 39.848920 -0.174599 2.506056 -0.002929 -0.008304 1096430.000000 0 0 1
-24.325967 5.054245 -32.875460 41.207935 -0.204857 2.494424 -0.001546 -0.012359 628753.000000 0 0 1
-25.470767 4.344545 -33.319850 42.164528 -0.168944 2.481987 0.013451 -0.022588 209724.000000 0 0 1
-25.984267 4.885545 -34.532543 43.491921 -0.185850 2.488156 0.015530 -0.025017 -119422.000000 0 0 1
-27.233897 4.150045 34.100612 43.837881 -0.151222 0.679511 0.018295 -0.016524 -165433.000000 0 0 1
-27.138027 2.752045 33.848773 43.471665 -0.101064 0.678301 0.028263 -0.012114 -20001.200000 0 0 1
-28.407187 2.273345 33.482808 43.968566 -0.079857 0.705146 0.025706 -0.012667 -134172.000000 0 0 1
-28.638197 0.745345 33.302011 43.928644 -0.026020 0.710412 0.025033 -0.002916 -338526.000000 0 0 1
-28.643827 0.057745 34.525041 44.860346 -0.002016 0.692564 0.012530 0.004371 196799.000000 0 0 1
-28.604667 -1.311055 34.301194 44.682410 0.045802 0.695604 0.008737 0.001906 -829951.000000 0 0 1
-27.963467 -2.106455 -33.703030 43.843892 0.075187 2.447611 -0.027645 0.010324 771447.000000 0 0 1
-26.550077 -2.047255 -33.439770 42.747117 0.076957 2.469097 -0.009933 0.002882 1120880.000000 0 0 1
-26.043047 -0.795955 -33.053140 42.087812 0.030554 2.474038 -0.021209 0.010498 -995783.000000 0 0 1
-26.245947 -0.344555 -31.589570 41.071515 0.013127 2.448284 -0.000065 0.009979 -572499.000000 0 0 1
-25.536317 -1.092055 -30.651300 39.909876 0.042739 2.446529 0.000762 0.001667 252941.000000 0 0 1
-25.751357 -0.577555 -29.355910 39.054262 0.022424 2.421387 0.001605 0.002315 35221.200000 0 0 1
-24.824567 -1.196355 -28.265550 37.638168 0.048155 2.420343 0.018908 0.000890 -78374.800000 0 0 1
-25.189847 -2.451055 -27.825070 37.613436 0.096998 2.403516 0.004021 0.006928 -196451.000000 0 0 1
-24.383067 -2.891355 -26.751330 36.311534 0.118029 2.398999 0.022513 -0.003943 -107238.000000 0 0 1
-24.777667 -4.276455 -26.027820 36.189339 0.170909 2.373464 0.016633 -0.006176 12624.900000 0 0 1
-26.039287 -4.278755 -25.405390 36.630398 0.162864 2.337216 0.007163 -0.000447 -248614.000000 0 0 1
-26.202027 -5.397355 -24.590720 36.337049 0.203148 2.314121 0.003559 -0.005313 413130.000000 0 0 1
-27.420787 -5.289055 -23.631020 36.582766 0.190545 2.273077 0.025359 -0.012998 109353.000000 0 0 1
-27.494857 -6.369355 -22.739520 36.243918 0.227641 2.249009 0.008466 -0.014411 -818347.000000 0 0 1
-28.570037 -6.319055 -21.886220 36.540171 0.217673 2.213002 0.007800 -0.011451 -861115.000000 0 0 1
-28.561437 -7.567555 -20.945620 36.217987 0.259006 2.187465 0.012897 -0.014121 310616.000000 0 0 1
-27.607257 -7.479855 -19.877020 34.831089 0.264586 2.178117 0.012767 -0.014099 498708.000000 0 0 1
-27.992717 -8.470355 -18.941820 34.844392 0.293833 2.145531 0.025086 -0.004388 191046.000000 0 0 1
-28.565027 -7.998255 -17.573120 34.478216 0.273010 2.105618 0.015519 -0.005787 -366558.000000 0 0 1
-27.651467 -7.288555 -16.802320 33.166920 0.257725 2.102032 0.031987 -0.022401 30196.700000 0 0 1
-28.266897 -6.589355 -15.700720 32.999237 0.229022 2.066659 0.018585 -0.014527 294953.000000 0 0 1
-27.273357 -5.629955 -14.980420 31.621913 0.203568 2.064324 0.036694 -0.023958 141591.000000 0 0 1
-26.988567 -4.350455 -15.528420 31.439482 0.159821 2.087382 0.035332 -0.022733 -398926.000000 0 0 1
-26.088127 -3.772455 -14.664020 30.163807 0.143609 2.078471 0.045582 -0.025424 -729795.000000 0 0 1
-13.933767 21.758845 -4.792920 26.278685 -1.001219 1.754211 0.013716 -0.001444 51886.600000 0 0 1
-13.765467 20.981545 -5.928820 25.784961 -0.990162 1.802805 0.031538 -0.010959 321335.000000 0 0 1
-14.763267 19.953745 -5.895720 25.512066 -0.933807 1.804000 0.022613 -0.018552 153060.000000 0 0 1
-15.001067 19.213745 -7.213720 25.421207 -0.907906 1.858517 0.037213 -0.024422 -383094.000000 0 0 1
-13.833567 18.628745 -7.754820 24.464974 -0.932053 1.893336 0.035508 -0.024547 -227186.000000 0 1 0
-13.960367 17.934645 -8.991420 24.441542 -0.909364 1.947519 0.021393 -0.024265 -807448.000000 0 1 0
-14.425467 16.469345 -8.777220 23.587560 -0.851458 1.952080 0.021354 -0.015185 1239290.000000 0 1 0
-15.820867 16.480845 -8.362820 24.328067 -0.805827 1.921706 0.021964 -0.012659 1285570.000000 0 1 0
-16.003367 15.576145 -7.296120 23.493774 -0.771871 1.886574 0.034710 -0.007273 119131.000000 0 1 0
-17.520967 15.498545 -6.993020 24.414985 -0.724225 1.861288 0.050099 -0.007443 -318434.000000 0 1 0
-18.279667 14.871045 -7.971520 24.876481 -0.682936 1.896995 0.044229 -0.010951 -382663.000000 0 1 0
-19.615767 15.283545 -7.735720 26.042397 -0.661895 1.872391 0.030109 -0.007654 -503185.000000 0 0 1
-20.550967 14.487745 -8.602520 26.575183 -0.614051 1.900439 0.022749 -0.001526 -738637.000000 0 0 1
-20.999567 13.251345 -8.082120 26.113227 -0.562923 1.885467 0.046098 -0.006721 -437202.000000 0 0 1
-21.838167 12.671245 -8.990620 26.801068 -0.525759 1.912887 0.045334 -0.007858 -455859.000000 0 0 1
-22.398367 11.362945 -8.404220 26.484604 -0.469480 1.893703 0.042363 -0.016950 -332005.000000 0 0 1
-21.387567 10.378945 -8.273320 25.171379 -0.451802 1.905702 0.053342 -0.011194 107103.000000 0 0 1
-21.787167 9.362245 -7.333220 24.821531 -0.405856 1.870710 0.057704 -0.012256 478339.000000 0 1 0
-20.694667 8.267345 -7.009020 23.361177 -0.380068 1.875519 0.056213 -0.014261 244180.000000 0 1 0
-20.539267 7.203145 -7.919920 23.161863 -0.337299 1.919775 0.052931 -0.014683 -227340.000000 0 1 0
-19.316967 6.562945 -7.761020 21.827755 -0.327515 1.934307 0.031360 -0.008625 -576084.000000 0 1 0
-19.141167 5.322145 -8.672720 21.677767 -0.271197 1.982394 0.017229 -0.011022 -323621.000000 0 1 0
-19.976267 4.189645 -8.391220 22.068460 -0.206735 1.960848 0.021829 -0.011293 926081.000000 0 1 0
-19.651367 3.265345 -9.387620 22.021946 -0.164659 2.011178 0.002460 -0.009468 32743.400000 0 1 0
-20.728767 2.134245 -9.398320 22.859685 -0.102599 1.994490 0.005967 -0.008574 384829.000000 0 1 0
-20.439567 1.211845 -8.350020 22.112605 -0.059220 1.958014 0.008770 -0.011115 472146.000000 0 1 0
-21.493967 0.310145 -8.114120 22.976635 -0.014428 1.931729 0.032250 -0.009637 -291070.000000 0 1 0
-21.452367 -0.990355 -8.977920 23.276338 0.046133 1.966774 0.003695 -0.012544 -185779.000000 0 1 0
-20.349667 -1.806755 -8.670020 22.193300 0.088553 1.972144 -0.008693 -0.004938 -29569.300000 0 1 0
-20.385167 -3.137255 -9.241220 22.600831 0.152701 1.992032 -0.020181 -0.003106 -417715.000000 0 1 0
-21.375167 -4.150955 -8.661520 23.433952 0.191808 1.949390 -0.008737 -0.001641 -159111.000000 0 1 0
-21.047167 -4.332055 -7.306620 22.696621 0.202991 1.898559 -0.020261 -0.000457 902044.000000 0 1 0
-21.987967 -5.246155 -6.668420 23.568213 0.234213 1.857656 -0.002143 -0.001199 -8474.410000 0 1 0
-21.935767 -6.726255 -7.019920 23.993742 0.297532 1.867713 -0.012412 -0.008450 -332520.000000 0 1 0
-20.886067 -7.515155 -6.498420 23.128658 0.345393 1.855599 -0.030013 -0.003253 417987.000000 0 1 0
-21.019467 -8.879655 -7.037020 23.878566 0.399708 1.869938 -0.026474 -0.000495 -193102.000000 0 1 0
-20.064267 -9.900755 -6.335020 23.253650 0.458396 1.846715 -0.019330 0.010833 683259.000000 0 1 0
-18.691067 -9.489255 -6.539120 21.958188 0.469780 1.873182 -0.020646 0.001129 825881.000000 0 1 0
-17.828867 -10.247255 -5.714320 21.343106 0.521651 1.841839 -0.003593 -0.000930 -266775.000000 0 1 0
-17.326967 -11.594255 -6.317420 21.784405 0.589716 1.865020 0.000485 0.003286 -536782.000000 0 1 0
-16.327867 -11.619355 -7.345220 21.343873 0.618487 1.922116 -0.001610 0.004281 573913.000000 0 1 0
-16.636067 -10.925555 -8.568620 21.669050 0.581098 1.977334 -0.000654 -0.001379 -251178.000000 0 1 0
-15.563967 -11.140955 -9.642920 21.432308 0.621263 2.037477 0.003564 -0.002074 245255.000000 0 1 0
-15.840367 -12.404855 -10.230520 22.571247 0.664361 2.041209 0.013368 -0.002237 257402.000000 0 1 0
-14.778767 -12.804955 -11.078820 22.474854 0.713963 2.086265 0.014785 0.007016 88707.700000 0 1 0
-14.989567 -14.079655 -11.867620 23.743719 0.754107 2.094189 0.035117 0.004030 -645689.000000 0 1 0
-15.872067 -13.968855 -12.892520 24.764258 0.721706 2.118362 0.024809 0.000202 -672075.000000 0 1 0
-15.952667 -15.238455 -13.520820 25.874904 0.762504 2.120630 0.023259 0.007660 375960.000000 0 0 1
-16.732967 -15.193455 -14.917920 27.080945 0.737215 2.154196 0.047318 0.007232 303329.000000 0 0 1
-16.617367 -16.407755 -15.605720 28.087182 0.779051 2.159901 0.038438 0.005175 128792.000000 0 0 1
-17.050367 -16.327855 -16.915520 29.042188 0.763755 2.192531 0.033682 0.006379 -426512.000000 0 0 1
-17.169267 -17.694955 -17.658820 30.327035 0.800475 2.192326 0.022485 -0.000446 -213886.000000 0 0 1
-18.283367 -18.479655 -17.318520 31.236361 0.790737 2.158480 -0.009273 0.007024 172091.000000 0 0 1
-19.181567 -18.616855 -18.466920 32.489182 0.770459 2.175359 -0.002122 0.007036 1341600.000000 0 0 1
-20.690567 -18.411755 -18.102120 33.087445 0.727186 2.149691 -0.010542 0.004179 347774.000000 0 0 1
-20.976867 -17.062655 -17.629620 32.279508 0.682860 2.148564 -0.025268 0.017514 235036.000000 0 0 1
-20.952167 -16.907155 -16.227820 31.435447 0.678959 2.113236 -0.038362 0.011931 -402335.000000 0 0 1
-20.859167 -15.483055 -15.721920 30.364594 0.638533 2.115040 -0.030678 0.006062 1382590.000000 0 0 1
-22.108067 -14.718855 -15.908420 30.959476 0.587381 2.110459 -0.026465 0.010343 1689310.000000 0 0 1
-21.911667 -13.384955 -15.534320 30.009886 0.548366 2.114887 -0.012779 0.007300 -351204.000000 0 0 1
-23.139567 -12.685455 -14.949920 30.329201 0.501472 2.086241 0.003556 -0.002995 -373496.000000 0 0 1
-23.382467 -13.116955 -13.586020 30.056184 0.511229 2.039826 -0.005130 0.006771 95742.800000 0 0 1
-24.485767 -12.399255 -13.112620 30.417677 0.468744 2.016492 0.030067 -0.004803 -338035.000000 0 0 1
-25.097827 -12.912855 -11.773020 30.581804 0.475181 1.965970 0.023837 -0.005761 140732.000000 0 0 1
-26.052897 -11.984755 -11.276420 30.814695 0.431152 1.945442 0.018464 -0.009378 186392.000000 0 0 1
-26.809607 -12.399755 -10.166120 31.238741 0.433210 1.902266 0.008299 -0.002982 -673552.000000 0 0 1
-27.683267 -11.405055 -9.493420 31.409609 0.390794 1.877844 0.026166 -0.010635 -606704.000000 0 0 1
-27.008557 -10.264355 -9.022920 30.269328 0.363183 1.873485 0.033705 -0.017125 -653634.000000 0 0 1
-27.823307 -9.483755 -8.246120 30.529928 0.328506 1.844293 0.051586 -0.025524 -373161.000000 0 0 1
-27.089807 -8.220855 -7.705920 29.339756 0.294634 1.836558 0.041563 -0.016414 174969.000000 0 0 1
-26.072007 -8.520755 -6.756120 28.248858 0.315874 1.812301 0.014384 -0.017281 -483402.000000 0 0 1
-25.474237 -7.382955 -6.268020 27.253125 0.282092 1.802867 0.009682 -0.010574 -1011960.000000 0 0 1
-26.210687 -6.342655 -5.466120 27.515593 0.237423 1.770782 0.023419 -0.018866 -923511.000000 0 0 1
-26.803227 -6.838355 -4.223620 27.982406 0.249803 1.722314 0.014646 -0.015205 -4582.270000 0 0 1
-25.996447 -7.073755 -3.075420 27.116627 0.265672 1.684455 0.024786 -0.002859 -314701.000000 0 0 1
-25.510707 -5.777055 -2.369520 26.263761 0.222700 1.661139 0.030060 -0.005618 -543708.000000 0 0 1
-26.565577 -5.104155 -1.738920 27.107307 0.189821 1.634990 0.031173 -0.011874 -46268.200000 0 0 1
-26.178557 -3.957255 -1.025320 26.495811 0.150028 1.609503 0.007810 -0.010240 -713964.000000 0 0 1
-27.416297 -3.186255 -0.541520 27.606137 0.115699 1.590414 0.012497 -0.014703 -83898.500000 0 0 1
-28.159167 -3.758655 0.575980 28.414748 0.132695 1.550524 0.015584 -0.008588 5776.240000 0 0 1
-27.538837 -3.875855 1.795580 27.868152 0.139823 1.506320 0.007138 -0.008314 -246132.000000 0 0 1
-28.559117 -4.209855 2.936780 29.016732 0.146354 1.469413 -0.002239 -0.007751 423263.000000 0 0 1
-28.978547 -5.547955 3.008280 29.657811 0.189161 1.469189 0.014463 -0.002465 142721.000000 0 0 1
-30.067567 -5.705055 3.903180 30.851921 0.187512 1.443943 0.029507 -0.006393 118618.000000 0 0 1
-30.787247 -7.078155 3.834780 31.822325 0.225979 1.449997 0.037635 -0.002358 -575517.000000 0 0 1
-30.043807 -8.142255 4.322880 31.426326 0.264656 1.432803 0.035349 0.008734 -136188.000000 0 0 1
-30.529307 -9.387055 3.942580 32.182283 0.298302 1.447980 0.052761 0.006255 -116672.000000 0 0 1
-29.697337 -10.517555 4.615080 31.841007 0.340374 1.425343 0.039289 0.002951 90774.000000 0 0 1
-29.879487 -10.689755 6.000580 32.296464 0.343573 1.383914 0.022757 0.012530 -89165.500000 0 0 1
-28.947347 -11.590955 6.495980 31.851168 0.380864 1.365407 0.007259 0.015457 -490907.000000 0 0 1
-29.193907 -11.917355 7.961280 32.522139 0.387567 1.323487 0.016127 0.006917 -95066.000000 0 0 1
-28.689457 -10.863255 8.781080 31.909287 0.361967 1.292010 0.024154 0.006716 435857.000000 0 0 1
-28.953607 -10.962955 10.156380 32.582968 0.361957 1.253806 0.034940 0.005645 -284501.000000 0 0 1
-29.046827 -9.564655 10.835080 32.443794 0.318102 1.230290 0.016942 0.003210 122742.000000 0 0 1
-27.796987 -8.911255 10.950080 31.176709 0.310232 1.211916 0.034190 0.002193 422057.000000 0 0 1
-27.998577 -7.752155 11.746480 31.336816 0.270110 1.186566 0.034882 -0.005156 17008.900000 0 0 1
-26.841757 -6.780555 11.527480 29.988975 0.247436 1.176249 0.045237 -0.005954 -447118.000000 0 0 1
-27.136537 -5.976755 10.452780 29.687941 0.216786 1.210995 0.044368 -0.009537 272306.000000 0 0 1
-26.468807 -4.752455 10.492880 28.866661 0.177656 1.198780 0.039686 -0.011164 -422547.000000 0 0 1
-26.621957 -3.948155 9.167080 28.431530 0.147231 1.242504 0.041916 -0.011240 181468.000000 0 0 1
-25.851017 -4.569855 8.131380 27.482322 0.174969 1.270423 0.025974 -0.004090 668538.000000 0 0 1
-26.221667 -4.017955 6.860080 27.400374 0.152048 1.317740 0.018623 -0.009971 -253448.000000 0 0 1
-25.300997 -4.513655 5.760280 26.338078 0.176541 1.350309 0.006574 0.002655 -624664.000000 0 0 1
-24.021167 -3.927555 5.797180 25.020980 0.162070 1.336979 0.022914 -0.014058 463000.000000 0 0 1
-23.225767 -4.537355 4.732980 24.133482 0.192929 1.373400 0.017362 0.000217 231323.000000 0 1 0
-21.834867 -3.862455 4.716880 22.670001 0.175083 1.361198 0.017624 -0.005102 -181617.000000 0 1 0
-21.844367 -2.475455 4.395880 22.419367 0.112841 1.373443 0.007006 -0.006512 1268300.000000 0 1 0
-20.523567 -1.903355 4.597480 21.118153 0.092475 1.351336 0.001045 -0.006222 512155.000000 0 1 0
-20.412167 -0.418855 4.865280 20.988162 0.020517 1.336858 0.000095 -0.010355 -575225.000000 0 1 0
-20.544567 0.527545 3.842480 20.907467 -0.025672 1.385961 0.008749 -0.016041 719685.000000 0 1 0
-21.872167 0.730045 3.373780 22.142878 -0.033365 1.417836 0.001291 -0.013608 -255122.000000 0 1 0
-21.844767 1.914345 2.454980 22.065482 -0.087411 1.459307 0.019161 -0.014152 -413867.000000 0 1 0
-21.531167 3.123945 3.141080 21.982187 -0.144084 1.427413 0.014736 -0.012471 101547.000000 0 1 0
-21.472467 4.269245 2.277880 22.010952 -0.196265 1.467122 0.024250 -0.013863 -35460.600000 0 1 0
-20.404267 4.372245 1.149080 20.899067 -0.211089 1.515786 0.026664 -0.007008 -798505.000000 0 1 0
-20.686067 5.188345 0.055680 21.326870 -0.245744 1.568186 0.040666 -0.001301 547915.000000 0 1 0
-21.752767 4.713745 -0.766020 22.270812 -0.213397 1.605199 0.068312 -0.010431 101867.000000 0 1 0
-21.425167 3.440245 -1.638520 21.761383 -0.159211 1.646162 0.073856 -0.009709 -278106.000000 0 1 0
-21.084367 2.340445 -0.842820 21.230604 -0.110551 1.610505 0.030318 -0.005437 429430.000000 0 1 0
-20.646067 1.278445 -1.633020 20.749970 -0.061843 1.649578 0.024041 -0.002900 -70122.900000 0 1 0
-19.794867 0.221145 -0.836920 19.813786 -0.011171 1.613048 0.015937 -0.000741 68835.500000 0 1 0
-20.587567 -0.559755 0.045980 20.595226 0.027182 1.568564 0.015899 -0.004935 267542.000000 0 1 0
-19.864167 -1.254755 1.040780 19.930950 0.063083 1.518553 0.014252 -0.007134 -1107870.000000 0 1 0
-19.233467 -2.563655 0.481480 19.409544 0.132510 1.545987 0.016475 -0.003317 -539200.000000 0 1 0
-18.371867 -3.159455 1.402680 18.694255 0.170307 1.495693 0.010395 -0.004453 520019.000000 0 1 0
-17.604167 -4.239255 0.847180 18.127209 0.236310 1.524044 0.003029 -0.001281 200577.000000 0 1 0
-18.455167 -5.512755 0.509080 19.267662 0.290273 1.544372 -0.010673 0.001668 43269.400000 0 1 0
-19.032667 -6.056655 1.673980 20.043146 0.308091 1.487180 0.007293 -0.001082 269704.000000 0 1 0
-19.875067 -7.141455 1.407580 21.166009 0.344951 1.504245 -0.022269 0.002820 -456716.000000 0 1 0
-20.698367 -7.549955 2.632080 22.189008 0.349764 1.451895 -0.006533 0.009926 -849634.000000 0 1 0
-19.971067 -8.163455 3.601280 21.873608 0.388039 1.405403 0.002382 0.006178 -19283.300000 0 1 0
-20.792667 -8.560055 4.664280 22.964430 0.390540 1.366264 0.016498 0.003877 -56080.300000 0 1 0
-19.987167 -9.330155 5.704280 22.783271 0.436743 1.317732 0.014085 0.010250 6277.910000 0 1 0
-19.612367 -10.644055 5.212580 22.915319 0.497238 1.341316 0.016270 0.012338 210540.000000 0 1 0
-18.593767 -11.281755 5.939380 22.545119 0.545367 1.304206 0.024719 0.009739 -344463.000000 0 1 0
-17.990867 -12.510955 5.342280 22.555160 0.607636 1.331670 0.012979 0.009870 29463.400000 0 1 0
-18.811867 -13.688755 5.245380 23.849159 0.629053 1.349044 0.023417 0.017108 145868.000000 0 1 0
-18.108267 -14.744155 4.631180 23.806454 0.683353 1.375013 0.008176 0.014681 -220923.000000 0 1 0
-18.716567 -16.131055 4.932680 25.196272 0.711339 1.373753 0.017354 0.013161 -934160.000000 0 0 1
-17.902867 -17.191455 4.608380 25.244721 0.765130 1.387219 0.011701 -0.001751 -593055.000000 0 0 1
-18.179067 -18.319055 5.407780 26.368738 0.789234 1.364248 0.013504 -0.001533 -230006.000000 0 0 1
-17.233767 -19.478055 5.113180 26.505508 0.846455 1.376669 0.016247 -0.004671 -877483.000000 0 0 1
-17.174967 -19.950055 3.753780 26.590883 0.860009 1.429155 0.017657 -0.007807 35384.400000 0 0 1
-16.399467 -21.133955 3.585580 26.989682 0.910876 1.437552 0.017984 -0.008352 409492.000000 0 0 1
-14.866767 -20.979755 3.774080 25.988739 0.954306 1.425061 0.014698 -0.009116 -74858.300000 0 0 1
-14.341467 -22.273455 4.132380 26.811584 0.998734 1.416053 0.017580 -0.009988 29017.100000 0 0 1
-12.959967 -22.245655 4.449780 26.127198 1.043281 1.399650 0.022129 -0.002707 65770.500000 0 0 1
-12.389967 -23.670355 4.528880 27.098113 1.088574 1.402879 0.019881 0.006059 -484993.000000 0 0 1
-12.423667 -24.428155 3.326880 27.607071 1.100308 1.449994 0.028919 0.001485 121611.000000 0 0 1
-12.110067 -25.814425 3.544780 28.733321 1.132156 1.447113 0.025177 0.004446 -16855.100000 0 0 1
17.737733 19.221445 -24.888420 36.104356 0.825521 2.331383 0.016837 -0.007945 26373.800000 0 0 1
16.972533 19.840145 -25.933150 36.799816 0.863139 2.352809 0.006574 -0.012897 30456.800000 0 0 1
17.419433 19.397245 -27.168420 37.653855 0.839067 2.376807 0.012552 -0.017608 74909.800000 0 0 1
16.406933 19.588845 -28.365750 38.177560 0.873566 2.408331 0.006483 -0.009062 209007.000000 0 0 1
16.319833 20.934645 -28.772300 39.146412 0.908643 2.396451 -0.003691 0.002620 -48903.900000 0 0 1
15.508333 21.217245 -29.870500 39.786011 0.939612 2.420037 -0.008095 0.001295 -375543.000000 0 0 1
15.238633 22.737045 -30.005840 40.614524 0.980343 2.402078 0.009541 -0.007344 -861687.000000 0 0 1
14.487533 23.313645 -29.031490 39.952998 1.014777 2.384216 0.015288 -0.005099 -209360.000000 0 0 1
14.126233 24.670145 -29.282560 40.812190 1.050764 2.370996 0.015497 -0.002043 -150282.000000 0 0 1
13.445733 25.306745 -28.090340 40.128372 1.082415 2.346211 0.014510 -0.003266 -307652.000000 0 0 1
12.080933 24.997045 -27.995160 39.427531 1.120602 2.360353 0.022976 -0.008892 -233353.000000 0 0 1
11.395633 25.797145 -27.019980 39.056785 1.154833 2.334793 0.023600 -0.000034 -821818.000000 0 0 1
9.896433 25.484945 -26.902240 38.355603 1.200395 2.348142 0.032016 -0.001312 -13297.700000 0 0 1
9.224733 26.318445 -25.988620 38.120396 1.233672 2.320950 0.026305 0.001621 -91605.800000 0 0 1
9.100633 27.644045 -26.385180 39.283488 1.252763 2.307245 0.039847 -0.014223 -1056520.000000 0 0 1
8.653333 28.540945 -25.244690 39.073777 1.276415 2.273230 0.043661 -0.010003 -512675.000000 0 0 1
9.641833 28.898545 -24.330320 38.987887 1.248766 2.244709 0.035666 -0.008208 -310194.000000 0 0 1
9.073833 29.786945 -23.367020 38.930889 1.275102 2.214570 0.037525 -0.006965 -517482.000000 0 0 1
10.101233 30.208245 -22.367220 38.921273 1.248098 2.183008 0.011700 0.004561 -397021.000000 0 0 1
11.084433 31.134245 -22.844320 40.175475 1.228768 2.175616 0.013597 -0.006107 153364.000000 0 0 1
11.757033 31.579745 -21.689020 40.073953 1.214398 2.142689 -0.010427 0.008939 -166506.000000 0 0 1
13.042233 32.395045 -21.949120 41.246850 1.188051 2.131923 -0.020209 0.025872 -44446.800000 0 0 1
14.138733 31.641545 -22.373420 41.251195 1.150573 2.144052 -0.022292 0.020522 -401146.000000 0 0 1
15.093133 32.426645 -23.059720 42.556323 1.135165 2.143449 -0.017417 0.024959 867558.000000 0 0 1
16.338433 31.642845 -23.647120 42.748103 1.094163 2.156965 -0.019222 0.029824 822561.000000 0 0 1
17.284533 31.313145 -22.667720 42.344937 1.066427 2.135672 -0.017295 0.031544 -223231.000000 0 0 1
18.368633 30.598145 -23.231920 42.583744 1.030143 2.147852 -0.022525 0.028962 -23849.700000 0 0 1
19.375933 30.040545 -22.216820 42.088576 0.997949 2.126874 -0.018828 0.036303 115165.000000 0 0 1
20.032733 31.034045 -21.399520 42.689130 0.997585 2.095882 -0.019465 0.031291 -252255.000000 0 0 1
20.782233 30.360545 -20.475620 42.105996 0.970539 2.078632 -0.016392 0.028231 -452085.000000 0 0 1
21.329233 31.266945 -19.344320 42.506008 0.972140 2.043276 -0.005554 0.010618 16832.100000 0 0 1
22.341733 32.193545 -19.727820 43.872135 0.964121 2.037188 -0.012764 0.011634 158653.000000 0 0 1
22.822233 32.758345 -18.539320 44.018972 0.962299 2.005527 -0.004442 0.009382 -1041690.000000 0 0 1
24.018633 33.683245 -18.659520 45.383184 0.951350 1.994517 -0.000844 0.002923 -585427.000000 0 0 1
25.108933 32.874845 -19.003620 45.523088 0.918538 2.001434 0.001825 0.006045 -336444.000000 0 0 1
26.358633 33.432545 -18.613920 46.464940 0.903161 1.982969 0.012624 -0.006043 971665.000000 0 0 1
27.635933 32.716745 -19.155420 46.915459 0.869385 1.991384 0.011776 -0.004824 421427.000000 0 0 1
27.811033 31.424645 -18.666720 45.928295 0.846327 1.989342 0.008358 0.011225 -488969.000000 0 0 1
29.114733 31.011745 -18.960620 46.571462 0.816938 1.990106 0.006899 0.014009 -321064.000000 0 0 1
29.455233 29.614545 -18.355120 45.623924 0.788095 1.984839 0.000683 0.012421 -192706.000000 0 0 1
29.684733 29.714345 -16.974220 45.301764 0.785897 1.954861 0.000899 0.009255 -29927.100000 0 0 1
29.968233 28.447145 -16.357520 44.439886 0.759365 1.947742 -0.006546 0.003881 -254574.000000 0 0 1
30.521133 28.652645 -14.922720 44.443236 0.753832 1.913219 0.001798 0.006456 -34636.000000 0 0 1
31.702633 29.401245 -14.702920 45.669092 0.747752 1.898579 -0.012451 0.008684 -45173.600000 0 0 1
31.506033 30.806445 -14.789020 46.479913 0.774172 1.894606 -0.011625 0.005594 -630819.000000 0 0 1
32.792633 31.606445 -15.020420 47.957660 0.766981 1.889359 0.001976 -0.001702 -191466.000000 0 0 1
33.635133 31.583345 -13.899720 48.187468 0.753948 1.863405 -0.007755 -0.002937 -1400790.000000 0 0 1
34.862433 32.079645 -14.268620 49.478140 0.743852 1.863333 0.012090 -0.009675 -458555.000000 0 0 1
-34.443836 32.261145 -13.039420 48.961064 -0.752688 1.840372 0.003751 -0.003346 151650.000000 0 0 1
-34.859336 33.300445 -12.199620 49.728499 -0.762531 1.818651 -0.001040 -0.005525 555805.000000 0 0 1
-33.871736 33.688545 -11.199120 49.067635 -0.782687 1.801064 0.001642 -0.000988 812345.000000 0 0 1
-34.418936 -34.279549 -10.385320 49.674998 0.783369 1.781415 0.003471 0.004995 598645.000000 0 0 1
-33.440736 -33.683349 -9.529120 48.411310 0.789013 1.768927 0.006761 -0.001206 232324.000000 0 0 1
-33.285436 -34.340949 -8.238820 48.529364 0.801005 1.741392 0.003507 -0.006396 303552.000000 0 0 1
-32.795536 -33.466649 -7.043920 47.383336 0.795526 1.720008 0.009244 0.002246 22555.300000 0 0 1
-33.808936 -32.559449 -6.702520 47.413981 0.766574 1.712633 0.007632 -0.000080 -391022.000000 0 0 1
-33.453536 -31.678349 -5.687120 46.421979 0.758150 1.693614 0.026483 -0.002608 -923859.000000 0 0 1
-34.586136 -30.777749 -5.284320 46.598226 0.727200 1.684443 0.024221 0.003092 -536977.000000 0 0 1
34.680933 -31.599649 -4.738020 47.156694 -0.738943 1.671440 0.009333 0.006731 -32407.900000 0 0 1
33.521933 -30.914349 -4.305920 45.803470 -0.744953 1.664944 0.002294 0.013070 -225838.000000 0 0 1
33.531833 -30.150349 -2.915320 45.187680 -0.732349 1.635357 0.006702 0.011190 -322402.000000 0 0 1
34.082233 -28.857149 -2.886320 44.751139 -0.702570 1.635338 0.020861 0.002724 426036.000000 0 0 1
33.165433 -28.037149 -2.178120 43.483007 -0.701801 1.620909 0.024483 -0.003985 221081.000000 0 0 1
33.453533 -26.524749 -2.361320 42.758356 -0.670386 1.626049 0.042277 -0.010130 -92393.800000 0 0 1
33.222033 -26.043449 -3.703820 42.375500 -0.664859 1.658313 0.029267 -0.014529 237130.000000 0 0 1
32.910433 -24.654149 -3.663920 41.283749 -0.642943 1.659663 0.036651 -0.019244 -107234.000000 0 0 1
32.481033 -24.117349 -4.990220 40.762315 -0.638687 1.693527 0.038728 -0.024809 50502.900000 0 0 1
33.598733 -23.938749 -5.853220 41.667718 -0.619059 1.711736 0.051870 -0.028759 348004.000000 0 0 1
33.155933 -23.654349 -7.174020 41.355902 -0.619681 1.745149 0.035471 -0.028026 -1148720.000000 0 0 1
34.268433 -23.469549 -8.139720 42.324937 -0.600502 1.764317 0.030608 -0.024624 -1375760.000000 0 0 1
34.896333 -24.646149 -8.524220 43.564309 -0.614920 1.767737 0.028638 -0.023206 -41985.100000 0 0 1
-34.295936 -24.335749 -9.370320 43.084136 0.617127 1.790037 0.031398 -0.012879 303996.000000 0 0 1
-33.732736 -25.486549 -10.218820 43.495815 0.647040 1.807951 0.026692 -0.019836 293230.000000 0 0 1
-32.969636 -26.507749 -9.558620 43.370783 0.677178 1.793014 0.024196 -0.013909 581818.000000 0 0 1
-33.814436 -27.509349 -8.983620 44.507143 0.682942 1.774039 0.025464 -0.006606 345689.000000 0 0 1
-33.014736 -28.700449 -8.412020 44.547173 0.715605 1.760771 0.026337 -0.003079 304093.000000 0 0 1
-32.243536 -29.492949 -9.335820 44.683746 0.740874 1.781278 0.020208 -0.006111 352283.000000 0 0 1
-31.588536 -30.558749 -8.727820 44.809012 0.768830 1.766828 0.014078 -0.015188 -181457.000000 0 0 1
-30.941836 -31.516149 -9.765520 45.233065 0.794593 1.788403 0.009343 -0.007376 -117196.000000 0 0 1
-29.932836 -30.958849 -10.567020 44.340578 0.802246 1.811427 -0.000802 0.011756 2882.830000 0 0 1
-29.791136 -31.727649 -11.771820 45.085821 0.816866 1.834956 -0.018781 0.015045 -137851.000000 0 0 1
-30.155336 -30.912549 -13.047720 45.112891 0.797797 1.864212 -0.028471 0.013720 -451758.000000 0 0 1
-29.207236 -29.964449 -13.541220 43.980626 0.798194 1.883771 -0.034330 0.024101 176490.000000 0 0 1
-29.644636 -29.427649 -14.761220 44.302196 0.781725 1.910485 -0.037680 0.032354 261397.000000 0 0 1
-28.729836 -28.242649 -15.243920 43.074677 0.776847 1.932529 -0.042916 0.026064 119341.000000 0 0 1
-27.490436 -28.712549 -15.700620 42.739256 0.807139 1.946963 -0.035752 0.023559 -614098.000000 0 0 1
-26.681736 -27.642449 -16.137920 41.670763 0.803081 1.968467 -0.027165 0.027763 -510130.000000 0 0 1
-25.385936 -28.185949 -16.725220 41.456319 0.837617 1.986072 -0.004647 0.016441 -694638.000000 0 0 1
-25.509936 -29.068849 -17.829420 42.586888 0.850513 2.002765 -0.009105 0.013248 -36317.400000 0 0 1
-25.874336 -28.517649 -19.129720 42.996322 0.833957 2.031876 -0.013282 0.012420 -163942.000000 0 0 1
-24.750236 -27.867349 -19.982120 42.290051 0.844570 2.062923 0.009879 0.011691 36997.400000 0 0 1
-24.214036 -26.686549 -19.468120 40.957284 0.833935 2.066132 -0.000804 0.016941 -794198.000000 0 0 1
-22.860736 -26.510449 -19.737320 40.186800 0.859188 2.084194 0.029495 0.007307 -626842.000000 0 0 1
-22.255436 -25.387549 -18.885820 38.684703 0.851045 2.080821 0.012297 0.002585 -442831.000000 0 0 1
-22.184836 -25.760749 -17.479320 38.227081 0.859843 2.045696 0.014442 0.012682 223465.000000 0 0 1
-21.793536 -24.679949 -16.669820 36.904484 0.847427 2.039468 0.010609 0.006240 -286627.000000 0 0 1
-21.988336 -24.887249 -15.143020 36.498947 0.847162 1.998617 -0.003069 0.013469 512719.000000 0 0 1
-23.329736 -24.713349 -14.663220 37.014000 0.814190 1.978120 -0.035727 0.029060 639203.000000 0 0 1
-23.371736 -24.539149 -13.266120 36.392277 0.809760 1.943926 -0.049008 0.034947 -76798.500000 0 0 1
-24.821136 -24.508949 -12.741620 37.136589 0.779070 1.921013 -0.054785 0.035253 -587686.000000 0 0 1
-25.418136 -25.759049 -12.961020 38.439540 0.792059 1.914716 -0.039712 0.029925 59712.200000 0 0 1
-26.717636 -25.956449 -12.445620 39.274200 0.770948 1.893246 -0.035466 0.024339 886442.000000 0 0 1
-27.953536 -25.145049 -13.037420 39.795075 0.732555 1.904573 -0.033645 0.011626 -378382.000000 0 0 1
-28.171036 -23.791249 -12.627220 38.975344 0.701309 1.900729 -0.033076 0.018589 -27867.700000 0 0 1
-28.545236 -23.582249 -11.296120 38.711178 0.690476 1.866910 -0.004219 0.006905 -322892.000000 0 0 1
-29.967436 -24.173849 -10.945820 40.027905 0.678795 1.847779 -0.018652 -0.000450 543630.000000 0 0 1
-31.054536 -23.358149 -11.389220 40.493230 0.644886 1.855906 0.004487 -0.006191 365185.000000 0 0 1
-31.320236 -23.452449 -12.758320 41.155185 0.642730 1.885995 0.000725 -0.003195 -938335.000000 0 0 1
-32.693436 -22.899849 -13.223220 42.048988 0.611022 1.890696 -0.009114 -0.009771 1034500.000000 0 0 1
-33.800436 -23.802649 -13.022120 43.342948 0.613547 1.875954 -0.006063 -0.003462 -40584.000000 0 0 1
-35.016836 -23.329449 -13.502820 44.190136 0.587704 1.881325 0.016072 -0.009894 -520332.000000 0 0 1
34.210233 -24.425049 -13.259120 44.076380 -0.620040 1.876350 0.013759 0.001849 -367729.000000 0 0 1
34.212433 -25.566149 -14.076520 44.969622 -0.641756 1.889171 -0.005324 0.012480 -236812.000000 0 0 1
33.330133 -26.563149 -13.657220 44.755092 -0.672891 1.880897 -0.006684 0.011422 -61957.200000 0 0 1
33.380333 -27.826049 -14.561820 45.832109 -0.694899 1.894121 -0.006810 0.006270 400569.000000 0 0 1
32.491233 -27.715449 -15.665020 45.488671 -0.706241 1.922366 0.005487 -0.006385 33668.900000 0 0 1
32.547333 -28.885249 -16.474320 46.530524 -0.725857 1.932699 0.001452 -0.003849 -41338.500000 0 0 1
31.658333 -28.649149 -17.724120 46.229516 -0.735542 1.964265 0.002780 -0.006453 -346137.000000 0 0 1
30.310733 -28.590449 -17.357420 45.137948 -0.756200 1.965508 0.049944 -0.013334 -522001.000000 0 0 1
29.507133 -28.243549 -18.486020 44.834160 -0.763522 1.995795 0.042482 -0.014192 863503.000000 0 0 1
27.983333 -28.417349 -18.177320 43.829529 -0.793093 1.998440 0.045870 -0.014900 599289.000000 0 0 1
27.378333 -27.575249 -17.204620 42.496663 -0.788981 1.987607 0.038323 -0.015007 -384502.000000 0 0 1
26.017433 -27.947649 -17.188320 41.873813 -0.821151 1.993776 0.049344 -0.015968 10687.600000 0 0 1
25.234733 -27.212149 -16.068520 40.441193 -0.823084 1.979402 0.047753 -0.021195 -344661.000000 0 0 1
25.296133 -25.827549 -16.398820 39.697329 -0.795792 1.996648 0.056128 -0.018647 43555.300000 0 0 1
25.266833 -25.107549 -15.186220 38.722385 -0.782236 1.973799 0.045212 -0.008982 -441219.000000 0 0 1
25.134633 -23.582749 -15.440420 37.766419 -0.753554 1.991979 0.041977 -0.016360 -318981.000000 0 0 1
23.815233 -23.187249 -15.682120 36.752452 -0.772038 2.011633 0.049974 -0.012595 -300250.000000 0 0 1
23.829133 -21.947149 -16.396320 36.309010 -0.744309 2.039329 0.045079 -0.020815 -223151.000000 0 0 1
22.388333 -21.473249 -16.598220 35.182933 -0.764538 2.062092 0.034425 -0.009325 -200678.000000 0 0 1
21.844033 -20.927149 -15.396420 33.943439 -0.763964 2.041586 0.037238 -0.011872 579251.000000 0 0 1
20.594233 -20.242449 -15.554920 32.799919 -0.776784 2.064893 0.027862 -0.010708 716004.000000 0 0 1
20.408533 -19.017549 -14.595920 31.483587 -0.750132 2.052855 0.027894 -0.008231 -21109.100000 0 0 1
20.084933 -19.316149 -13.273920 30.866083 -0.765889 2.015343 0.022275 -0.013598 54729.200000 0 0 1
19.788233 -18.135549 -12.516520 29.616474 -0.741847 2.007131 0.014582 -0.017055 -708659.000000 0 0 1
18.847433 -18.425749 -11.366920 28.704369 -0.774085 1.977953 0.017046 -0.002824 -666577.000000 0 0 1
19.379633 -19.025949 -10.205320 29.012160 -0.776189 1.930247 0.019991 -0.013166 156168.000000 0 0 1
18.395833 -19.083149 -9.176620 28.049663 -0.803735 1.904089 0.018930 -0.013038 61300.900000 0 0 1
18.898233 -19.789549 -7.926120 28.488468 -0.808433 1.852739 0.021598 -0.010372 225541.000000 0 0 1
19.875533 -18.989749 -7.251920 28.429522 -0.762611 1.828731 0.020374 -0.010612 382395.000000 0 0 1
20.532933 -19.685049 -6.201520 29.112907 -0.764319 1.785457 0.026050 0.001310 -88898.200000 0 0 1
21.817433 -18.973549 -5.734820 29.476840 -0.715792 1.766598 0.023155 -0.003030 -203331.000000 0 0 1
22.841833 -18.988849 -6.702620 30.450793 -0.693548 1.792727 0.025635 -0.019469 297772.000000 0 0 1
23.842833 -18.042949 -6.310020 30.558878 -0.647804 1.778780 0.029341 -0.025944 68431.200000 0 0 1
24.928833 -17.702249 -7.375820 31.451853 -0.617480 1.807512 0.037618 -0.035703 345228.000000 0 0 1
25.967633 -18.628649 -7.595820 32.848759 -0.622295 1.804144 0.043345 -0.038920 81394.200000 0 0 1
25.567333 -19.735249 -8.343920 33.358501 -0.657366 1.823610 0.048356 -0.044833 -679292.000000 0 0 1
26.520633 -20.919849 -8.326820 34.789653 -0.667883 1.812490 0.041319 -0.049743 324646.000000 0 0 1
27.838733 -20.699749 -8.826720 35.796447 -0.639366 1.819947 0.039139 -0.043797 511321.000000 0 0 1
28.568333 -21.929049 -8.750820 37.062241 -0.654670 1.809159 0.025747 -0.035611 -85163.300000 0 0 1
-29.408677 30.673945 3.921180 42.674780 -0.806454 1.478781 -0.009199 0.006666 666683.000000 0 0 1
-28.470547 31.607045 3.339280 42.669991 -0.837558 1.492458 -0.021852 0.013014 -579997.000000 0 0 1
-27.312607 31.797045 4.036680 42.110870 -0.861120 1.474791 -0.011279 0.005161 -1035530.000000 0 0 1
-26.471267 32.902745 3.423180 42.367874 -0.893299 1.489912 -0.004008 0.005796 -883165.000000 0 0 1
-25.855237 32.613845 2.195980 41.677074 -0.900480 1.518082 0.001767 0.007615 -134155.000000 0 0 1
-25.237647 33.706445 1.611380 42.138579 -0.928097 1.532547 0.005640 -0.005038 -346534.000000 0 0 1
-23.930967 34.266945 2.215780 41.854801 -0.961166 1.517832 0.017965 -0.011425 -595083.000000 0 0 1
-22.824167 33.652845 1.588180 40.693721 -0.974835 1.531759 0.020805 -0.008661 -318855.000000 0 0 1
-21.648467 34.107245 2.241580 40.459671 -1.005240 1.515365 0.025014 -0.013359 1445720.000000 0 0 1
-20.220167 33.840945 1.616680 39.454764 -1.032213 1.529809 0.024882 -0.012226 1280050.000000 0 0 1
-19.824167 -34.549649 0.547480 39.836862 1.049874 1.557053 0.020256 -0.025080 -118159.000000 0 0 1
-18.552767 34.327945 0.034780 39.020689 -1.075310 1.569905 0.017444 -0.013757 -236601.000000 0 0 1
-18.146667 -33.969249 -1.158820 38.529914 1.080158 1.600877 0.021581 -0.012843 -126149.000000 0 0 1
-18.044067 -32.594249 -0.962320 37.267941 1.065196 1.596621 0.017241 -0.015583 546511.000000 0 0 1
-17.128667 -32.123949 0.043580 36.405236 1.080939 1.569599 0.014313 -0.007474 98164.900000 0 0 1
-16.994467 -30.567049 0.099680 34.973795 1.063379 1.567946 0.013141 -0.005781 -223047.000000 0 0 1
-16.330967 -29.998549 -1.027520 34.171175 1.072269 1.600871 0.020691 -0.005125 -638.746000 0 0 1
-16.501067 -28.584949 -1.101220 33.024191 1.047262 1.604148 0.008192 -0.003692 -102290.000000 0 0 1
-15.707967 -27.925649 -2.244220 32.118820 1.058413 1.640726 0.014537 0.001905 -476110.000000 0 0 1
-15.952067 -28.461049 -3.540220 32.818179 1.059937 1.678880 0.015655 -0.009088 -81206.200000 0 0 1
-15.058367 -27.969149 -4.506920 32.083329 1.076909 1.711738 0.022683 -0.005309 -163672.000000 0 0 1
-15.710967 -28.049149 -5.915220 32.689127 1.060215 1.752752 0.030259 -0.014546 -532727.000000 0 0 1
-16.679767 -27.071949 -5.919220 32.344121 1.018603 1.754841 0.023565 -0.005410 -777569.000000 0 0 1
-17.416467 -27.059849 -7.139920 32.962815 0.998914 1.789132 0.040692 -0.012092 182771.000000 0 0 1
-17.989867 -25.660349 -7.367620 32.192711 0.959348 1.801703 0.025093 -0.005001 -980894.000000 0 0 1
-16.975767 -24.743249 -7.419820 30.910496 0.969476 1.813206 0.014696 0.002228 -560647.000000 0 0 1
-17.428667 -23.380749 -7.536320 30.119993 0.930228 1.823693 -0.007942 0.011779 -761132.000000 0 0 1
-16.393167 -22.387749 -7.095120 28.640669 0.938760 1.821132 0.001515 0.011424 -329698.000000 0 0 1
-15.472367 -22.169949 -8.142220 28.234668 0.961482 1.863327 0.018857 0.010158 -482669.000000 0 0 1
-14.438067 -21.286249 -7.768620 26.868450 0.974796 1.864120 0.031204 -0.000578 791151.000000 0 0 1
-13.396867 -20.999249 -8.907320 26.453447 1.002925 1.914224 0.045567 -0.000154 723767.000000 0 0 1
-13.985067 -20.121249 -9.849620 26.409501 0.963407 1.952991 0.056102 0.003016 105407.000000 0 0 1
-13.146367 -20.009849 -11.007320 26.351131 0.989520 2.001728 0.059135 0.005363 219146.000000 0 0 1
-13.809367 -19.282949 -12.161220 26.653818 0.949317 2.044590 0.078549 -0.000119 99307.400000 0 0 1
-14.836467 -20.028349 -12.814620 28.026237 0.933226 2.045682 0.048647 0.021338 -211807.000000 0 0 1
-15.269267 -19.342549 -13.918020 28.301872 0.902544 2.084918 0.060313 -0.001831 627465.000000 0 0 1
-16.544167 -19.938449 -14.628620 29.753113 0.878169 2.084799 0.070937 -0.005730 -91329.000000 0 0 1
-17.710867 -19.949449 -13.895320 30.078817 0.844770 2.051004 0.049297 0.003256 -1222850.000000 0 0 1
-18.741967 -20.168549 -14.797520 31.256972 0.822045 2.063960 0.017951 0.006384 -1505050.000000 0 0 1
-20.132367 -20.173549 -14.188020 31.836837 0.786420 2.032694 -0.011134 0.017042 -1012070.000000 0 0 1
-20.992167 -20.441549 -15.273220 33.042385 0.772110 2.051306 -0.009176 0.013038 -1561160.000000 0 0 1
-22.267167 -20.512949 -14.756320 33.680213 0.744416 2.024314 -0.040814 0.019333 -1487650.000000 0 0 1
-23.241567 -20.938749 -15.854620 35.070937 0.733322 2.039884 -0.041666 0.012171 -624865.000000 0 0 1
-23.156967 -20.201149 -17.031920 35.134283 0.717331 2.076892 -0.036699 -0.005543 69129.900000 0 0 1
-23.868467 -20.857449 -18.049220 36.476173 0.718178 2.088427 -0.022734 -0.011440 -125913.000000 0 0 1
-23.972167 -20.100649 -19.422320 36.822919 0.697779 2.126395 -0.016592 -0.011958 -247732.000000 0 0 1
-22.739467 -19.935249 -20.073020 36.296331 0.719781 2.156795 -0.008109 -0.017869 -97635.800000 0 0 1
-22.916167 -19.253249 -21.306420 36.739649 0.698754 2.189439 -0.006117 -0.024810 -409311.000000 0 0 1
-21.625067 -18.676049 -21.888820 35.993871 0.712354 2.224494 -0.007016 -0.009343 165708.000000 0 0 1
-20.609267 -19.614049 -22.205120 36.090444 0.760661 2.233516 0.000752 -0.013278 751538.000000 0 0 1
-19.425267 -18.995049 -22.743420 35.431850 0.774201 2.267759 0.004248 -0.018889 269632.000000 0 0 1
-18.244667 -19.913649 -22.989520 35.467440 0.829109 2.275997 0.034162 -0.015999 -865023.000000 0 0 1
-18.358367 -20.966949 -23.901320 36.713971 0.851635 2.279716 0.019384 -0.014876 -1082530.000000 0 0 1
-17.306867 -21.836149 -23.826120 36.661001 0.900597 2.278254 0.019213 -0.008690 -950693.000000 0 0 1
-17.352967 -23.041549 -24.788720 38.033131 0.925304 2.280708 0.018999 -0.007337 -314870.000000 0 0 1
-17.065267 -22.796249 -26.111480 38.635497 0.928192 2.312902 0.024614 -0.005672 -116494.000000 0 0 1
-17.346467 -23.969449 -26.867960 39.966507 0.944347 2.308056 0.029902 -0.007931 -360981.000000 0 0 1
-16.976067 -23.862249 -28.374180 40.776069 0.952447 2.340404 0.038146 0.000473 -452402.000000 0 0 1
-15.620267 -23.826149 -28.709840 40.446669 0.990499 2.360038 0.018893 -0.001027 -461373.000000 0 0 1
-15.517767 -23.682449 -30.107610 41.329501 0.990744 2.386893 0.042280 -0.010730 475516.000000 0 0 1
-14.022667 -23.587349 -30.557010 41.069807 1.034431 2.409872 0.011310 -0.009281 454882.000000 0 0 1
-13.360267 -24.812349 -30.285160 41.368349 1.076862 2.392174 0.027151 -0.009605 572618.000000 0 0 1
-12.037567 -24.680449 -30.842140 41.294856 1.117007 2.414148 0.051818 -0.012097 347198.000000 0 0 1
-11.083467 -25.787449 -30.472500 41.429567 1.164866 2.397238 0.038254 -0.008833 -1189210.000000 0 0 1
-11.286267 -26.934349 -31.243720 42.766915 1.173994 2.389935 0.041811 0.004104 245756.000000 0 0 1
-10.500767 -28.103449 -30.997280 43.138165 1.213212 2.372523 0.032186 0.005434 514235.000000 0 0 1
-9.064167 -28.040349 -31.614000 43.218807 1.258144 2.391297 0.034155 -0.004690 582438.000000 0 0 1
-8.255267 -26.959149 -31.081930 41.964646 1.273648 2.404862 0.012078 -0.003535 -712.978000 0 0 1
-7.223867 -26.669449 -32.003680 42.280956 1.306277 2.429397 0.021891 -0.003849 16442.300000 0 0 1
-6.485667 -25.337049 -31.481950 40.928512 1.320202 2.448375 0.018729 -0.005996 -396257.000000 0 0 1
-7.165167 -24.117749 -31.523670 40.332954 1.282010 2.468001 0.029590 -0.011324 -92510.700000 0 0 1
-7.978967 -23.860149 -30.386600 39.450172 1.248081 2.450034 0.023610 -0.013658 -221958.000000 0 0 1
-8.590867 -22.468349 -30.256520 38.653417 1.205594 2.469892 0.021325 -0.016534 -378779.000000 0 0 1
-9.471467 -22.187649 -31.305240 39.522379 1.167334 2.485020 0.025289 -0.019955 -84384.300000 0 0 1
-9.969967 -20.819849 -31.179260 38.794492 1.124196 2.504289 0.025172 -0.015398 293722.000000 0 0 1
-10.759567 -20.373249 -32.416460 39.770145 1.084905 2.523690 0.023432 -0.016421 -6718.640000 0 0 1
-11.349167 -19.113249 -32.310880 39.218781 1.034959 2.538989 0.028660 -0.016419 -94236.900000 0 0 1
-11.893967 -18.671649 -33.505830 40.158904 1.003609 2.557715 0.035784 -0.015220 -440239.000000 0 0 1
-12.843167 -17.472849 -33.519890 39.922805 0.936941 2.567375 0.040806 -0.011993 -328322.000000 0 0 1
-12.298267 -16.159849 -33.614210 39.272168 0.920268 2.598142 0.055446 -0.014063 208487.000000 0 0 1
-11.476967 -15.728449 -32.512580 37.896869 0.940418 2.602009 0.047711 -0.009169 352621.000000 0 0 1
-11.163667 -14.225949 -32.448940 37.147527 0.905430 2.633174 0.049598 -0.011653 83611.500000 0 0 1
-10.267567 -13.687149 -33.416770 37.542529 0.927192 2.668370 0.046513 -0.015352 491517.000000 0 0 1
-10.781167 -13.653949 34.347007 38.501698 0.902429 0.468845 0.053051 -0.012756 26629.800000 0 0 1
-11.442567 -12.364449 33.866411 37.825200 0.824102 0.461603 0.052229 -0.011762 -403503.000000 0 0 1
-12.532267 -11.893749 -34.567563 38.644991 0.759263 2.678086 0.050010 -0.007591 -1017430.000000 0 0 1
-13.343967 -11.225049 33.679234 37.925637 0.699368 0.477746 0.034216 -0.011701 45202.400000 0 0 1
-14.391967 -10.458349 34.552885 38.863963 0.628408 0.475481 0.039394 -0.008362 558113.000000 0 0 1
-13.815567 -9.345849 -33.930030 37.808223 0.594760 2.684693 0.045617 -0.005887 994485.000000 0 0 1
-14.886467 -8.813649 -33.135510 37.379798 0.534559 2.660425 0.040659 -0.007155 1019470.000000 0 0 1
-14.247267 -7.890849 -32.062280 35.961645 0.505794 2.671594 0.036872 -0.015594 174740.000000 0 0 1
-13.888067 -6.606749 -32.569160 36.017741 0.444031 2.700424 0.026574 -0.021106 468935.000000 0 0 1
-14.984767 -5.698849 -32.720460 36.436913 0.363417 2.686006 0.019148 -0.016522 245098.000000 0 0 1
-15.337467 -4.857549 -31.482740 35.355291 0.306717 2.669168 0.024816 -0.020263 -280319.000000 0 0 1
-15.770467 -5.732149 -30.411110 34.733280 0.348627 2.637392 0.019611 -0.017145 -106472.000000 0 0 1
-16.050867 -5.055549 -29.187970 33.691638 0.305134 2.618597 0.030980 -0.018823 85545.100000 0 0 1
-14.843567 -4.480149 -28.389830 32.347885 0.293130 2.641715 0.023542 -0.018695 105810.000000 0 0 1
-14.332267 -3.396449 -29.143230 32.653906 0.232687 2.673628 0.017399 -0.020488 -626411.000000 0 0 1
-13.176167 -2.914449 -28.509300 31.541806 0.217686 2.699498 0.018837 -0.018290 -316848.000000 0 0 1
-12.751467 -1.572449 -29.144160 31.850503 0.122696 2.726378 -0.001003 -0.015287 -157085.000000 0 0 1
-12.435367 -1.707449 -30.509230 32.990405 0.136453 2.751282 -0.002605 -0.013836 278767.000000 0 0 1
-12.576767 -0.505449 -31.296550 33.732841 0.040167 2.759206 0.001292 -0.020287 -273117.000000 0 0 1
-12.816067 -0.826449 -32.786350 35.211920 0.064396 2.768255 -0.002745 -0.017955 -895441.000000 0 0 1
-14.076267 -1.291449 -33.171940 36.058102 0.091490 2.738770 -0.003362 -0.027148 -180323.000000 0 0 1
-14.142067 -1.582449 -34.576106 37.389962 0.111433 2.751156 -0.011103 -0.020976 -590955.000000 0 0 1
-15.548567 -1.643449 33.997216 37.420176 0.105307 0.431053 -0.011973 -0.023297 -430368.000000 0 0 1
-15.492067 -1.933449 32.608239 36.153003 0.124161 0.446530 -0.002891 -0.021399 683115.000000 0 0 1
-16.759467 -1.775449 31.974969 36.144579 0.105543 0.485073 0.005204 -0.011756 438543.000000 0 0 1
-16.506667 -1.828449 30.420189 34.658349 0.110321 0.499722 0.006374 -0.002673 174451.000000 0 0 1
-16.012967 -0.583449 29.932989 33.952015 0.036420 0.491499 -0.002227 0.004649 170330.000000 0 0 1
-15.987167 -0.637449 28.528949 32.709277 0.039851 0.511119 -0.010418 0.007491 -457456.000000 0 0 1
-15.583867 0.716551 27.974129 32.030021 -0.045948 0.508713 -0.003137 0.011302 231001.000000 0 0 1
-16.407667 1.830551 28.370719 32.824688 -0.111107 0.527019 0.000051 0.008204 1067100.000000 0 0 1
-17.756867 1.994551 27.909449 33.139431 -0.111857 0.569478 0.000638 0.002597 696678.000000 0 0 1
-17.984567 2.812551 26.626449 32.254037 -0.155130 0.599668 0.009109 -0.001888 -504547.000000 0 0 1
-17.729467 4.162551 26.736069 32.349316 -0.230605 0.597970 0.004401 0.001682 60921.700000 0 0 1
-18.119467 4.814551 25.554019 31.693893 -0.259710 0.632967 0.002574 0.005014 -543740.000000 0 0 1
-18.104267 6.373551 25.700179 32.076250 -0.338497 0.641463 -0.001392 0.004911 -52724.100000 0 0 1
-16.830267 6.989551 25.633409 31.451286 -0.393623 0.618034 -0.009836 0.005903 106668.000000 0 0 1
-16.209967 6.942551 24.363379 30.075510 -0.404653 0.626519 -0.004394 0.007176 43706.100000 0 0 1
-14.972867 7.861551 24.235099 29.552170 -0.483489 0.609248 0.000505 0.003381 1087420.000000 0 0 1
-13.701167 7.473551 24.806209 29.307404 -0.499357 0.561581 -0.008271 0.005259 888724.000000 0 0 1
-12.735667 8.346551 24.239029 28.625036 -0.580140 0.560899 0.013629 0.006599 -35366.200000 0 0 1
-11.317967 8.098551 24.796719 28.435193 -0.621085 0.511435 0.018056 0.012103 398978.000000 0 0 1
-10.316567 8.886551 24.124399 27.701787 -0.711067 0.513846 0.021794 0.007060 779529.000000 0 0 1
-9.107167 9.062551 24.848309 27.973359 -0.782943 0.477199 0.014432 0.001105 124403.000000 0 0 1
-9.110567 10.423551 25.620639 29.121641 -0.852512 0.495397 0.003599 -0.013382 -638396.000000 0 0 1
-10.093067 10.531551 26.635959 30.368699 -0.806655 0.501035 -0.017206 -0.007192 220287.000000 0 0 1
-10.111967 11.737551 27.378919 31.458341 -0.859660 0.514938 -0.016474 -0.008834 -655294.000000 0 0 1
-10.746467 12.976551 26.646029 31.525994 -0.879128 0.563842 -0.032357 -0.010348 -177832.000000 0 0 1
-12.114467 12.957551 26.335509 31.752441 -0.819012 0.592762 -0.012900 -0.014021 -124879.000000 0 0 1
-12.481267 12.006551 25.330789 30.685309 -0.766015 0.599705 -0.006144 -0.004703 -1078960.000000 0 0 1
-14.001067 11.914551 25.177619 31.175293 -0.705060 0.630701 -0.012794 -0.003967 -458280.000000 0 0 1
-14.582967 13.120551 24.676139 31.523382 -0.732659 0.671662 0.006518 -0.011510 287355.000000 0 0 1
-15.863467 13.049551 24.070029 31.643430 -0.688380 0.706460 0.014020 -0.002642 169409.000000 0 0 1
-15.901767 12.348551 22.671529 30.320804 -0.660279 0.726172 0.014536 0.007513 -374658.000000 0 0 1
-15.688767 10.917551 22.619529 29.613737 -0.607958 0.701587 0.007649 0.007809 239894.000000 0 0 1
-15.708467 10.497551 21.273829 28.452246 -0.589114 0.726200 0.001112 0.016538 -429961.000000 0 0 1
-16.004167 8.979551 21.036829 27.916194 -0.511307 0.717319 -0.001866 0.014201 796329.000000 0 0 1
-17.418567 8.812551 21.120329 28.759969 -0.468379 0.746065 -0.002951 0.018874 378916.000000 0 0 1
-18.026867 7.573551 20.807129 28.552815 -0.397735 0.754339 -0.007575 0.018760 598432.000000 0 0 1
-19.479167 7.565551 21.368729 29.888093 -0.370460 0.774232 -0.004109 0.022181 325056.000000 0 0 1
-19.475167 7.342551 22.750229 30.834528 -0.360542 0.740966 -0.012847 0.010871 226151.000000 0 0 1
-20.815467 7.291551 23.206529 32.015518 -0.336937 0.759976 -0.022796 0.016476 134973.000000 0 0 1
-21.011667 8.094551 24.500689 33.276053 -0.367719 0.743231 -0.003493 0.014420 -760652.000000 0 0 1
-21.075667 9.516551 24.465589 33.664722 -0.424136 0.757228 0.000588 -0.000119 184149.000000 0 0 1
-19.913567 10.246551 24.111649 32.907652 -0.475221 0.748506 -0.006288 0.001646 -41409.200000 0 0 1
-18.684367 10.238551 25.017059 32.860109 -0.501287 0.705450 -0.001968 -0.000998 -585779.000000 0 0 1
-18.936067 10.862551 26.238559 34.132560 -0.520814 0.693951 0.005570 -0.005349 218713.000000 0 0 1
-18.784767 9.989551 27.318039 34.625624 -0.488755 0.661691 -0.000863 -0.004656 -475436.000000 0 0 1
-29.917577 -14.426255 21.458429 39.542919 0.449306 0.997194 0.014306 -0.003721 -100769.000000 0 0 1
-29.414417 -15.748655 21.625629 39.760481 0.491570 0.995722 0.024770 0.004384 207451.000000 0 0 1
-29.958247 -16.689555 20.708229 40.060811 0.508273 1.027547 0.013200 0.010220 -33965.000000 0 0 1
-29.499147 -16.587455 19.253429 38.936331 0.512240 1.053554 0.007086 0.009258 33713.000000 0 0 1
-30.084457 -15.473455 18.579629 38.596696 0.475049 1.068569 0.017957 -0.003960 225038.000000 0 0 1
-29.545997 -15.331755 17.269629 37.500250 0.478662 1.092215 0.025884 -0.004491 -924803.000000 0 0 1
-30.009197 -14.061655 16.564029 37.049279 0.438196 1.107297 0.007557 0.003430 239667.000000 0 0 1
-31.244197 -14.194555 15.860129 37.805144 0.426432 1.137877 0.009383 0.007778 1106680.000000 0 0 1
-32.469187 -14.208555 16.607129 39.139850 0.412495 1.132605 0.010830 0.006485 184072.000000 0 0 1
-32.941607 -12.895055 17.318829 39.387482 0.373116 1.115527 0.001371 0.004840 -417157.000000 0 0 1
-34.202281 -13.005955 17.954429 40.759200 0.363379 1.114641 -0.021842 0.006710 217962.000000 0 0 1
-34.717483 -11.766655 18.423929 41.026808 0.326775 1.105072 -0.011692 0.012581 -315602.000000 0 0 1
34.492704 -12.051955 19.419629 41.377751 -0.336145 1.082270 -0.001141 0.019995 -679186.000000 0 0 1
35.062800 -12.508355 20.633729 42.563008 -0.342668 1.064684 -0.013768 0.018637 367422.000000 0 0 1
34.201612 -12.133155 21.694629 42.280263 -0.340904 1.031986 -0.017251 0.018421 -618916.000000 0 0 1
34.801793 -12.554855 23.061129 43.595927 -0.346222 1.013405 -0.025575 0.019050 1011000.000000 0 0 1
-34.248877 -11.888555 23.377929 43.137581 0.334109 0.998054 -0.017407 0.015151 1143090.000000 0 0 1
-33.071347 -12.449555 22.789129 42.048184 0.360037 0.998009 -0.012845 0.005553 -491068.000000 0 0 1
-31.893707 -11.497155 22.911129 40.918369 0.345984 0.976504 -0.001687 0.003898 -629047.000000 0 0 1
-32.019217 -10.252055 22.170929 40.272633 0.309870 0.987808 0.001167 0.002740 25404.800000 0 0 1
-30.859117 -9.466955 22.347429 39.259597 0.297665 0.965237 0.008791 0.004656 -107559.000000 0 0 1
-30.923337 -8.136255 21.574129 38.573235 0.257279 0.977251 0.006743 0.004149 -39302.300000 0 0 1
-30.911277 -8.157455 20.152329 37.791103 0.258017 1.008352 0.006957 0.007414 -440641.000000 0 0 1
-32.164367 -8.489855 19.668129 38.645303 0.258066 1.036844 0.003773 0.004357 -984759.000000 0 0 1
-32.328727 -8.232955 18.145929 37.976346 0.249363 1.072623 0.006581 0.005682 -520227.000000 0 0 1
-33.561357 -8.688855 17.657829 38.905781 0.253332 1.099702 0.005128 0.009580 -105774.000000 0 0 1
-33.639137 -8.368955 16.286329 38.299810 0.243836 1.131577 0.003310 0.008187 -236606.000000 0 0 1
-35.100345 -8.176855 15.865329 39.377707 0.228875 1.156112 -0.017811 0.014798 -324171.000000 0 0 1
34.408049 -9.317055 16.087929 39.109370 -0.264440 1.146854 -0.027865 0.026586 -1062660.000000 0 0 1
33.067872 -9.023255 15.893129 37.782203 -0.266386 1.136633 -0.021491 0.023367 -899662.000000 0 0 1
32.233662 -10.305955 15.885329 37.384025 -0.309455 1.131920 -0.018540 0.023847 -526975.000000 0 0 1
32.017522 -10.955655 17.103629 37.916780 -0.329688 1.102817 -0.021358 0.020734 224054.000000 0 0 1
31.021342 -11.934055 16.828229 37.254995 -0.367252 1.102122 -0.015278 0.016729 -9392.780000 0 0 1
30.557922 -12.790755 18.046929 37.723755 -0.396415 1.071968 -0.013132 0.014501 -502998.000000 0 0 1
31.476342 -13.653855 18.615929 39.035121 -0.409285 1.073670 -0.015216 0.013026 -461924.000000 0 0 1
31.238232 -13.695455 20.027929 39.553895 -0.413182 1.039855 -0.020898 0.016526 -525351.000000 0 0 1
31.885222 -14.912655 20.612029 40.791058 -0.437474 1.041058 -0.027377 0.024324 -387646.000000 0 0 1
31.693872 -14.987255 22.035129 41.408529 -0.441713 1.009670 -0.023488 0.015675 -432132.000000 0 0 1
32.553612 -15.997555 22.526729 42.697927 -0.456762 1.015043 -0.035296 0.035296 48091.200000 0 0 1
32.810142 -16.034555 24.037729 43.719844 -0.454573 0.988656 -0.023433 0.017868 -241866.000000 0 0 1
33.751152 -15.201055 24.603019 44.446832 -0.423175 0.984190 -0.012787 0.021178 -525675.000000 0 0 1
34.065172 -15.499255 25.933289 45.532388 -0.426994 0.964830 -0.010656 0.022375 628005.000000 0 0 1
-35.037189 -14.623755 26.523649 46.313743 0.395397 0.961007 -0.002786 0.015917 -21000.300000 0 0 1
-33.799237 -15.056655 26.072769 45.264562 0.419083 0.956959 -0.016224 0.015697 114139.000000 0 0 1
-32.775697 -14.164255 26.599579 44.524263 0.407917 0.930519 -0.017035 0.005604 227576.000000 0 0 1
-31.323107 -14.576755 26.457679 43.515832 0.435560 0.917256 0.003465 0.000631 -696262.000000 0 0 1
-30.768607 -14.587255 25.107919 42.307243 0.442710 0.935438 0.005737 0.007170 820780.000000 0 0 1
-29.486627 -15.225155 25.030089 41.566475 0.476635 0.924580 0.019766 -0.007867 426102.000000 0 0 1
-29.401057 -16.766655 25.373809 42.300982 0.518275 0.927496 0.028780 -0.008556 -794067.000000 0 0 1
-29.438847 -17.041355 26.778799 43.291541 0.524740 0.903876 0.031948 -0.009533 154166.000000 0 0 1
-28.984107 -18.339255 27.085749 43.704056 0.564142 0.902368 0.041222 -0.018737 -267265.000000 0 0 1
-28.659887 -18.458155 28.585989 44.488778 0.572175 0.872983 0.042052 -0.024353 175737.000000 0 0 1
-27.507937 -17.681655 28.886579 43.632121 0.571286 0.847248 0.040428 -0.021025 192581.000000 0 0 1
-26.889227 -18.103155 30.089079 44.227903 0.592546 0.822599 0.050582 -0.024814 332067.000000 0 0 1
-25.697937 -17.215855 30.537899 43.466457 0.590259 0.791804 0.037991 -0.022001 145487.000000 0 0 1
-26.069017 -15.926755 30.975419 43.505537 0.548429 0.778471 0.039486 -0.025903 618026.000000 0 0 1
-25.000167 -15.028855 30.607229 42.280933 0.541265 0.761356 0.022553 -0.019469 242690.000000 0 0 1
-25.027567 -13.680155 31.401969 42.421803 0.500232 0.737381 0.021974 -0.003603 270569.000000 0 0 1
-24.260667 -13.770855 32.640159 42.937121 0.516271 0.707198 0.012032 0.000592 648043.000000 0 0 1
-24.274967 -12.554355 33.367533 43.130941 0.477291 0.686241 0.006170 0.008778 -8780.400000 0 0 1
-23.613467 -12.618955 -34.337483 43.541894 0.490785 2.479338 0.004585 0.007692 1102910.000000 0 0 1
-22.207467 -12.879055 -34.188656 42.754015 0.525541 2.497524 -0.016691 0.007175 738161.000000 0 0 1
-21.755767 -14.200455 -34.378249 43.090954 0.578286 2.494445 -0.013606 0.003642 -217781.000000 0 0 1
-21.612567 -15.121555 -33.160070 42.371626 0.610501 2.469629 -0.011764 0.001422 30498.000000 0 0 1
-20.698467 -14.645055 -32.159280 40.952698 0.615770 2.473942 -0.018141 0.006396 340248.000000 0 0 1
-20.619767 -15.541455 -31.121790 40.438563 0.645875 2.449021 0.000105 -0.002650 -75249.400000 0 0 1
-19.324367 -15.336755 -30.310690 39.081775 0.670856 2.458415 0.019482 0.000548 12620.800000 0 0 1
-19.222767 -14.215755 -29.386060 37.883281 0.636765 2.458620 0.011453 0.003906 67776.600000 0 0 1
-19.882867 -14.518955 -28.164640 37.408226 0.630724 2.423253 0.011188 0.001247 53085.700000 0 0 1
-19.739167 -13.424655 -27.084140 36.102724 0.597247 2.419156 0.009053 0.011770 -344034.000000 0 0 1
-18.432967 -13.283455 -26.612930 34.992463 0.624442 2.434930 0.021981 -0.003595 -435958.000000 0 0 1
-18.252567 -12.018855 -25.978820 33.948610 0.582310 2.442210 0.011527 -0.003349 451.313000 0 0 1
-16.903567 -11.932855 -25.250970 32.645598 0.614699 2.455122 0.029386 -0.008952 -707242.000000 0 0 1
-16.880467 -12.834455 -24.136020 32.128194 0.650069 2.420737 0.027741 -0.005984 603406.000000 0 0 1
-15.609167 -13.002555 -23.494020 31.059322 0.694546 2.428625 0.033357 -0.008652 -119301.000000 0 0 1
-14.595867 -13.817855 -24.214920 31.469585 0.758023 2.448808 0.014803 -0.006305 -944088.000000 0 0 1
-13.726167 -13.037955 -25.032020 31.384677 0.759690 2.494081 0.030176 -0.007963 485549.000000 0 0 1
-12.903767 -13.783755 -25.943430 32.086767 0.818360 2.512463 0.029460 -0.007674 285301.000000 0 0 1
-12.028367 -12.872655 -26.806080 32.077294 0.819291 2.560151 0.029888 0.005271 -249892.000000 0 0 1
-12.820267 -12.055855 -27.632410 32.760539 0.754679 2.574500 0.055811 0.000298 267954.000000 0 0 1
-11.974167 -11.125255 -28.284820 32.667767 0.748664 2.617609 0.057348 -0.002528 66333.200000 0 0 1
-11.772667 -11.357455 -29.776760 33.974150 0.767449 2.639242 0.047598 -0.004926 -109025.000000 0 0 1
-11.240167 -10.268055 -30.450690 34.044365 0.740232 2.677977 0.059752 -0.008360 -61486.100000 0 0 1
-10.988967 -10.688955 -31.760240 35.266471 0.771560 2.691896 0.063147 -0.011234 -62659.200000 0 0 1
-10.403667 -9.532655 -32.619330 35.540519 0.741736 2.733317 0.046946 -0.002753 868119.000000 0 0 1
-9.070767 -9.206255 -32.184120 34.682150 0.792811 2.759734 0.013893 0.003012 565155.000000 0 0 1
-8.659467 -7.966855 -32.794470 34.841561 0.743765 2.797096 0.007581 0.009134 -47324.500000 0 0 1
-7.202867 -7.596755 -32.456970 34.103473 0.812007 2.829589 0.014860 0.008773 -293674.000000 0 0 1
-6.869767 -7.453355 -31.068020 32.679780 0.826120 2.826218 -0.006949 0.012012 -112469.000000 0 0 1
-7.152667 -6.194655 -30.422680 31.860223 0.713745 2.840051 -0.008262 0.016261 -217440.000000 0 0 1
-6.401267 -4.936255 -30.973470 32.010915 0.656892 2.886306 -0.010345 0.016444 -275085.000000 0 0 1
-5.106267 -4.792355 -30.482960 31.277012 0.753696 2.915779 -0.000244 0.014330 -443888.000000 0 0 1
-4.499367 -3.585955 -30.914470 31.445315 0.672903 2.957586 0.000010 0.005210 9851.020000 0 0 1
-2.974567 -3.497055 -30.710690 31.051955 0.865959 2.993199 -0.022723 0.011748 -972617.000000 0 0 1
-2.225267 -4.275055 -31.611840 31.977122 1.090865 2.990298 -0.026297 0.008202 1736380.000000 0 0 1
-0.776867 -4.103755 -31.484280 31.760104 1.383704 3.009705 -0.011521 0.004595 1820160.000000 0 0 1
-0.120767 -2.724755 -31.648850 31.766154 1.526503 3.055627 -0.011935 0.006267 -1521880.000000 0 0 1
0.117633 -1.919155 -30.550950 30.611395 -1.509579 3.078739 -0.010619 0.000264 -23161.900000 0 0 1
0.781133 -0.750655 -30.887440 30.906433 -0.765504 3.106533 -0.010790 0.010659 -124445.000000 0 0 1
1.069633 0.288845 -29.811600 29.832181 0.263750 3.104445 -0.005807 -0.000518 -1314830.000000 0 0 1
-0.092867 0.811245 -29.367700 29.379049 -1.456818 3.113796 -0.000117 0.002851 -1436440.000000 0 0 1
0.128633 2.035645 -28.659440 28.731931 1.507690 3.070542 0.019144 -0.005323 94821.700000 0 0 1
-1.176867 2.753145 -28.200330 28.358833 -1.166842 3.035815 0.015162 0.001121 9430.850000 0 0 1
-1.912667 3.094045 -29.333170 29.557846 -1.017119 3.018216 0.002467 0.002438 -484286.000000 0 0 1
-2.976967 3.946545 -29.016030 29.434122 -0.924535 2.972844 0.040286 -0.004407 -376701.000000 0 0 1
-4.017367 4.132045 -30.123320 30.669650 -0.799469 2.952561 0.040581 -0.005225 -294733.000000 0 0 1
-3.573667 4.903345 -31.233600 31.817474 -0.940987 2.949722 0.038118 -0.002841 140108.000000 0 0 1
-4.653667 5.409145 -31.978800 32.765212 -0.860334 2.922056 0.042455 0.000828 -379558.000000 0 0 1
-4.173567 6.097545 -33.305630 34.115446 -0.970572 2.923272 0.043262 0.006131 20917.400000 0 0 1
-3.868367 5.166645 -34.383507 34.984054 -0.928115 2.956036 0.050654 0.002403 941420.000000 0 0 1
-2.709267 4.325245 -34.175636 34.554623 -1.011202 2.993350 0.032325 0.003769 316496.000000 0 0 1
-2.153967 3.594245 33.737694 33.996914 -1.030905 0.123568 0.021393 -0.000685 20607.400000 0 0 1
-3.057467 2.594245 33.244900 33.485842 -0.703620 0.120033 0.016348 -0.000573 364287.000000 0 0 1
-2.660067 1.986845 32.002839 32.174605 -0.641524 0.103376 0.019107 -0.002734 -228136.000000 0 0 1
-2.437367 2.896745 30.782169 31.014091 -0.871307 0.122371 0.026354 -0.011161 -125699.000000 0 0 1
-3.602067 3.642545 30.485029 30.912457 -0.790985 0.166487 0.016364 -0.009853 217087.000000 0 0 1
-3.445567 4.451145 29.352499 29.887352 -0.912058 0.189469 0.020237 -0.018308 188916.000000 0 0 1
-4.775667 5.221045 29.178699 30.024370 -0.829921 0.237905 0.020592 -0.010243 346111.000000 0 0 1
-4.725467 5.972145 27.956979 28.975666 -0.901413 0.265950 0.022586 -0.002670 -725519.000000 0 0 1
-5.933167 6.636545 27.815499 29.205277 -0.841298 0.309738 0.018380 -0.000062 -1106360.000000 0 0 1
-6.042267 7.474145 26.477399 28.167792 -0.890941 0.348200 0.018906 -0.001718 -647756.000000 0 0 1
-5.081867 8.472845 26.402139 28.190201 -1.030537 0.358080 0.021086 0.000351 -403649.000000 0 0 1
-5.080367 9.027445 25.039639 27.097757 -1.058202 0.392258 0.021463 -0.001617 111463.000000 0 0 1
-4.580967 10.512445 25.075469 27.573101 -1.159842 0.428914 0.018327 -0.004353 -268209.000000 0 0 1
-4.285367 11.188445 23.879029 26.716169 -1.205015 0.465038 0.017521 -0.006210 245461.000000 0 0 1
-4.019167 12.563145 24.179719 27.543513 -1.261168 0.499393 0.013429 0.008139 -824380.000000 0 0 1
-2.556267 12.957145 24.378849 27.726348 -1.376011 0.496476 0.010406 0.006461 -761421.000000 0 0 1
-1.807767 12.334645 25.421729 28.313880 -1.425272 0.455925 0.016720 0.006740 40477.600000 0 0 1
-2.145967 12.715645 26.750299 29.696318 -1.403606 0.449199 0.019718 0.005425 -443546.000000 0 0 1
-1.131667 12.340745 27.854119 30.486499 -1.479350 0.418611 0.017950 0.003791 -462064.000000 0 0 1
0.121033 12.936145 27.811529 30.673109 1.561440 0.435386 0.017705 0.006153 -739262.000000 0 0 1
0.885133 12.559745 28.943069 31.563141 1.500439 0.410329 0.022964 -0.005009 -270784.000000 0 0 1
2.368333 12.881645 28.722629 31.567946 1.388974 0.427833 0.023178 -0.005464 -238210.000000 0 0 1
2.674533 14.274145 28.898929 32.342734 1.385575 0.465669 0.021675 -0.004769 34188.800000 0 0 1
4.072033 14.421545 28.740649 32.412765 1.295603 0.480622 0.018905 -0.007282 33820.500000 0 0 1
4.580033 15.884545 28.985399 33.368381 1.290078 0.518328 0.013210 -0.004972 -352369.000000 0 0 1
4.252733 16.326645 30.280799 34.663697 1.315981 0.508328 0.012201 0.005086 852270.000000 0 0 1
3.025133 17.074945 30.389669 34.989101 1.395448 0.518534 0.005710 0.006312 516945.000000 0 0 1
2.979433 18.461445 29.729239 35.121640 1.410789 0.561486 0.010903 0.010072 -591239.000000 0 0 1
3.897333 19.305145 30.338409 36.170387 1.371593 0.575788 0.010956 0.010269 -181077.000000 0 0 1
4.838633 19.854045 29.423159 35.823425 1.331746 0.607043 0.004861 0.008869 304959.000000 0 0 1
5.945433 20.595445 30.239259 37.066606 1.289760 0.616670 0.009032 0.005514 12903.700000 0 0 1
5.602633 21.894145 30.704839 38.125191 1.320276 0.634499 0.000390 0.003849 -38834.100000 0 0 1
6.671433 22.512445 31.383079 39.194590 1.282697 0.642335 -0.011095 -0.004671 -327114.000000 0 0 1
6.648733 24.041945 31.018519 39.804137 1.300992 0.677282 -0.017277 0.006489 -398096.000000 0 0 1
6.958233 24.289045 29.656469 38.959991 1.291792 0.705630 -0.038398 0.014522 43759.300000 0 0 1
7.262033 25.644145 29.413579 39.692794 1.294837 0.736192 -0.043411 0.018810 70897.800000 0 0 1
7.903933 25.902845 28.037359 38.981060 1.274633 0.768066 -0.034393 0.020480 44025.300000 0 0 1
7.082433 25.277845 27.059379 37.700667 1.297618 0.770241 -0.032184 0.017682 311192.000000 0 0 1
7.730633 25.170245 25.819209 36.877303 1.272808 0.795205 -0.012181 0.008869 -272536.000000 0 0 1
28.280442 2.300345 7.017480 29.228753 0.081162 1.328340 0.021778 0.021047 41631.100000 0 0 1
28.405062 3.287845 8.003880 29.693763 0.115236 1.297873 0.012221 0.012237 317699.000000 0 0 1
27.518732 3.122945 9.100880 29.152349 0.113001 1.253306 0.007379 0.019100 -183691.000000 0 0 1
27.797072 4.170045 10.184280 29.896255 0.148907 1.223184 -0.005390 0.020239 -36708.300000 0 0 1
27.490642 5.560945 9.940980 29.757060 0.199592 1.230177 -0.004533 0.017029 -386453.000000 0 0 1
28.518542 6.265845 9.322580 30.650915 0.216275 1.261747 0.016876 0.001351 -546882.000000 0 0 1
28.313752 7.749845 8.927680 30.682766 0.267169 1.275559 0.039532 -0.005253 -349784.000000 0 0 1
27.606282 7.927745 7.764580 29.753061 0.279647 1.306772 0.030267 -0.006760 -414498.000000 0 0 1
27.685612 9.293445 7.448480 30.138698 0.323859 1.321069 0.045116 -0.020249 -131093.000000 0 0 1
26.896982 9.631945 6.158480 29.225826 0.343877 1.358484 0.042419 -0.018128 -744801.000000 0 0 1
25.544422 9.748945 6.353780 28.070090 0.364585 1.342463 0.042088 -0.012598 -1195400.000000 0 0 1
24.666302 9.593745 5.246480 26.981326 0.370937 1.375101 0.053591 -0.015198 534255.000000 0 0 1
23.292502 10.155145 5.702380 26.041981 0.411137 1.350039 0.015737 -0.011914 -45766.000000 0 0 1
23.373002 11.518345 6.004080 26.739829 0.457875 1.344328 0.014759 -0.005163 -129241.000000 0 0 1
22.181202 12.004045 6.575880 26.064248 0.496047 1.315745 0.024798 0.005314 -246638.000000 0 0 1
22.182402 13.550545 6.987380 26.916532 0.548373 1.308194 0.016145 0.023188 -188834.000000 0 0 1
22.013202 14.308945 5.832680 26.895114 0.576387 1.352192 0.008249 0.027776 238054.000000 0 0 1
21.971402 15.685745 6.068680 27.669731 0.620005 1.349673 0.026948 0.006395 -117815.000000 0 0 1
21.710902 16.600745 4.802780 27.749139 0.652797 1.396842 0.028035 -0.001028 -1135420.000000 0 0 1
20.476002 16.404745 4.227480 26.575438 0.675454 1.411043 0.049574 -0.003276 -598708.000000 0 0 1
20.090502 17.468145 3.345280 26.831982 0.715691 1.445796 0.035774 -0.004428 -13761.300000 0 0 1
18.611602 17.677945 2.968780 25.840184 0.759676 1.455652 0.040865 -0.001311 -119045.000000 0 0 1
17.767802 18.105045 4.001380 25.680703 0.794799 1.414346 0.041947 -0.009012 37456.800000 0 0 1
16.459202 18.280145 3.511580 24.847540 0.837768 1.428997 0.035337 -0.010044 -334748.000000 0 1 0
15.530402 19.242245 4.248880 25.090045 0.891742 1.400631 0.046020 -0.015110 201133.000000 0 0 1
14.177102 19.014245 3.897780 24.035899 0.930114 1.407912 0.040219 -0.017022 -183167.000000 0 1 0
13.323002 20.098545 4.041880 24.449759 0.985417 1.404720 0.026446 -0.015285 988427.000000 0 1 0
11.820702 19.611145 3.848480 23.219320 1.028354 1.404283 0.023022 -0.017458 1084060.000000 0 1 0
11.313502 18.958745 4.999080 22.636699 1.032775 1.348121 0.012601 -0.026575 -249362.000000 0 1 0
9.918702 18.843945 4.903080 21.852119 1.086284 1.344494 0.027046 -0.021730 -83472.100000 0 1 0
9.182802 18.412945 6.182280 21.484436 1.108178 1.278913 0.019803 -0.015756 -678902.000000 0 1 0
9.075802 19.489945 7.116580 22.646718 1.134991 1.251137 0.023497 -0.016253 -71566.500000 0 1 0
8.451002 18.983045 8.268880 22.364030 1.151952 1.192067 0.017097 -0.008161 -370851.000000 0 1 0
7.476202 19.904645 8.991080 23.085234 1.211499 1.170737 0.017848 -0.007580 476919.000000 0 1 0
6.264402 20.286245 8.320880 22.803761 1.271285 1.197281 0.018350 -0.009133 637283.000000 0 1 0
6.306202 21.395745 7.470280 23.523418 1.284171 1.247633 0.019727 -0.006500 -1166930.000000 0 1 0
5.100402 21.629145 6.560280 23.170483 1.339215 1.283739 0.019151 0.003521 -955076.000000 0 1 0
3.868302 21.817145 7.152480 23.283246 1.395314 1.258553 0.015286 -0.000813 -790296.000000 0 1 0
3.633102 22.970645 7.956680 24.579640 1.413933 1.241148 0.007917 -0.006249 -783380.000000 0 1 0
3.695502 24.364045 7.328380 25.709309 1.420265 1.281740 0.014007 -0.009270 -162022.000000 0 0 1
2.892902 24.299045 6.173080 25.237262 1.452300 1.323687 0.036847 -0.019187 124958.000000 0 0 1
3.032702 25.475945 5.403380 26.218649 1.452312 1.363220 0.025571 -0.013983 -73220.100000 0 0 1
1.722202 25.797945 4.669680 26.273672 1.504138 1.392115 0.024908 -0.015155 -20424.100000 0 0 1
0.597302 26.134745 5.477880 26.709340 1.547946 1.364238 0.039150 -0.019990 488157.000000 0 0 1
-0.427198 26.477345 4.531880 26.865782 -1.554663 1.401300 0.031401 -0.015600 101017.000000 0 0 1
-1.793798 26.855445 5.135180 27.400779 -1.504101 1.382272 0.023025 -0.021046 -103886.000000 0 0 1
-2.661398 27.323845 4.148580 27.764839 -1.473701 1.420816 0.038201 -0.016376 3879.100000 0 0 1
-3.869298 27.865745 4.683080 28.520211 -1.432824 1.405847 0.025612 -0.017870 169552.000000 0 0 1
-4.812498 28.410945 3.609280 29.040813 -1.403000 1.446191 0.023608 -0.020722 -120454.000000 0 0 1
-4.225098 29.545245 2.969080 29.993139 -1.428755 1.471642 0.031700 -0.021123 122335.000000 0 0 1
-4.954298 29.935645 1.819580 30.397348 -1.406785 1.510901 0.032595 -0.024758 -319946.000000 0 0 1
-4.203398 30.772645 0.779080 31.068170 -1.435041 1.545717 0.022085 -0.017351 -442584.000000 0 0 1
-4.010798 32.171245 1.034080 32.436782 -1.446766 1.538911 0.014268 -0.012957 509469.000000 0 0 1
-3.227498 32.563545 2.202280 32.797123 -1.472005 1.503597 0.020241 -0.016778 -140846.000000 0 0 1
-2.234798 33.703845 1.956680 33.834481 -1.504586 1.512933 0.018294 -0.014085 -325706.000000 0 0 1
-1.210098 33.362545 1.030980 33.400399 -1.534541 1.539924 0.000607 -0.004932 660549.000000 0 0 1
-0.248198 34.413345 0.850080 34.424738 -1.563584 1.546100 -0.008039 -0.007235 544808.000000 0 0 1
0.949902 34.512345 1.807480 34.572695 1.543280 1.518492 -0.018375 -0.009223 -562164.000000 0 0 1
0.552502 -34.334749 3.142280 34.482665 -1.554706 1.479543 -0.004787 -0.004945 229842.000000 0 0 1
1.631002 -34.428549 4.044880 34.703691 -1.523458 1.453976 -0.003095 -0.010360 -121734.000000 0 0 1
1.162702 -34.189349 5.441380 34.639169 -1.536802 1.413055 0.003979 -0.012082 -173641.000000 0 0 1
0.249702 34.017945 5.856780 34.519340 1.563456 1.400305 0.007857 -0.016421 -113505.000000 0 0 1
-0.197898 34.229645 7.169280 34.972937 -1.565015 1.364338 0.022727 -0.016586 -444849.000000 0 0 1
0.736902 33.779145 8.263380 34.783000 1.548984 1.330933 0.021558 -0.010473 -400862.000000 0 0 1
1.012102 32.392445 8.234080 33.437926 1.539561 1.321987 0.020621 -0.016933 79881.100000 0 0 1
1.997202 32.056945 9.209180 33.413254 1.508575 1.291567 0.027726 -0.007520 21459.200000 0 0 1
2.609602 30.672545 9.096380 32.099208 1.485921 1.283476 0.020958 -0.012728 -202176.000000 0 0 1
1.764002 29.591645 9.475280 31.121666 1.511255 1.261426 0.018279 -0.021960 -11853.900000 0 0 1
2.439002 28.381745 9.518480 30.034541 1.485071 1.248318 0.018471 -0.016889 -220841.000000 0 0 1
2.178402 27.726645 10.870380 29.860969 1.492390 1.198202 0.011650 -0.024308 -262886.000000 0 0 1
2.773602 28.387545 11.954180 30.926494 1.473401 1.173924 0.017222 -0.008275 -251152.000000 0 0 1
2.866302 27.613845 13.151480 30.719726 1.467367 1.128394 0.012043 -0.006890 -15777.300000 0 0 1
1.504902 27.097245 13.786680 30.440072 1.515316 1.100767 0.000620 -0.004443 1567260.000000 0 0 1
0.581902 28.041645 14.377980 31.518229 1.550048 1.097099 0.001847 -0.004106 739399.000000 0 0 1
0.207602 29.108745 13.512480 32.092823 1.563664 1.136201 0.004321 -0.011303 -1263430.000000 0 0 1
-0.503998 30.336945 14.154280 33.480261 -1.554185 1.134302 -0.004405 -0.005295 -567212.000000 0 0 1
-1.656498 29.979845 14.847080 33.495834 -1.515599 1.111574 -0.017028 0.006880 -548128.000000 0 0 1
-2.271998 31.087045 15.408780 34.770632 -1.497841 1.111681 -0.017014 0.008450 -127427.000000 0 0 1
-3.600698 30.727845 16.110780 34.881553 -1.454148 1.090693 -0.019666 0.019906 -5106.820000 0 0 1
-4.656898 30.306045 15.287880 34.261675 -1.418327 1.108271 -0.020582 0.013255 344799.000000 0 0 1
-5.755098 29.801445 16.044780 34.331942 -1.380030 1.084514 -0.015624 0.021114 -37219.800000 0 0 1
-6.862198 29.191645 15.136980 33.591220 -1.339914 1.103333 -0.002347 0.013256 -371216.000000 0 0 1
-7.965498 28.908745 15.958180 33.968047 -1.301929 1.081732 -0.000521 0.017420 -820519.000000 0 0 1
-8.968698 28.333145 15.155580 33.360100 -1.264231 1.099207 -0.003644 0.012301 366150.000000 0 0 1
-10.339998 28.292245 15.909380 34.065746 -1.220406 1.084879 -0.007234 0.011374 -293557.000000 0 0 1
-10.944798 29.423745 16.455280 35.444628 -1.214683 1.088005 -0.011542 0.001201 354730.000000 0 0 1
-10.336798 29.927445 17.640580 36.244881 -1.238230 1.062482 -0.005440 0.001188 -616935.000000 0 0 1
-11.161398 31.046745 18.277780 37.716766 -1.225681 1.064883 -0.005423 0.004128 -60332.400000 0 0 1
-12.225598 30.582445 19.091780 38.068980 -1.190498 1.045459 -0.016438 0.003664 374316.000000 0 0 1
-13.093398 31.646445 19.451980 39.386725 -1.178502 1.054260 0.000979 -0.008160 307413.000000 0 0 1
-14.231998 31.293845 20.445980 39.998658 -1.143970 1.034255 -0.000312 -0.003007 27452.700000 0 0 1
-13.808698 30.962845 21.740380 40.274335 -1.151293 1.000588 0.000984 -0.001125 103101.000000 0 0 1
-14.862398 30.504045 22.586080 40.761730 -1.117419 0.983515 -0.003171 -0.001445 158997.000000 0 0 1
-14.397898 30.501345 24.073780 41.438851 -1.129765 0.950905 0.000518 0.001023 -222609.000000 0 0 1
-13.356298 29.583245 24.348780 40.576128 -1.146711 0.927200 -0.003589 0.000559 276480.000000 0 0 1
-12.958798 29.432245 25.676380 41.151719 -1.156044 0.897016 0.008500 0.005074 -54178.500000 0 0 1
-12.489298 30.627445 26.531980 42.402464 -1.183600 0.894745 0.014529 0.005100 -416893.000000 0 0 1
-13.540298 31.513345 26.873680 43.573217 -1.164978 0.906192 0.019841 0.010506 37397.300000 0 0 1
-13.070998 32.716645 27.463280 44.670590 -1.190703 0.908670 0.026523 0.008599 -937200.000000 0 0 1
-14.154498 33.612345 27.986880 45.971785 -1.172225 0.916270 0.039765 0.005250 -360350.000000 0 0 1
-14.852198 33.125745 29.140580 46.551866 -1.149309 0.894408 0.003689 0.008991 343670.000000 0 0 1
-14.094498 33.296945 30.346480 47.204346 -1.170369 0.872551 0.026681 0.017256 111022.000000 0 0 1
-14.754998 32.698545 31.609880 47.813067 -1.146909 0.848494 0.014047 0.016158 470683.000000 0 0 1
-16.019398 33.275145 31.939080 48.825826 -1.122121 0.857747 0.006692 0.015409 310813.000000 0 0 1
-16.653998 32.590145 33.019780 49.292789 -1.098377 0.836762 -0.006315 0.018246 -192811.000000 0 0 1
-18.008998 33.157345 33.413380 50.400273 -1.073237 0.846030 -0.006902 0.010399 -407124.000000 0 0 1
-18.058998 34.427045 33.986680 51.637615 -1.087696 0.852402 0.002560 0.006313 -94353.900000 0 0 1
-19.422998 -34.483749 34.218480 52.319080 1.057837 0.857891 -0.013313 -0.001346 -58624.300000 0 0 1
-19.786598 -32.983449 34.270480 51.515854 1.030454 0.842979 -0.005302 0.009672 -220486.000000 0 0 1
-19.437698 -32.289149 -33.686468 50.548901 1.028916 2.300184 -0.000042 0.015782 -13563.700000 0 0 1
-20.196898 -32.662149 -32.553168 50.343216 1.016988 2.273948 0.000677 0.014874 -168537.000000 0 0 1
-19.770898 -31.854849 -31.299868 48.839549 1.015327 2.266429 0.008285 0.013420 -193814.000000 0 0 1
-20.001198 -30.481149 -31.355968 48.086850 0.990087 2.281107 0.014439 0.012833 77692.200000 0 0 1
-19.204298 -29.792649 -30.408268 46.701925 0.998228 2.279847 0.026898 0.008404 62375.900000 0 0 1
-19.417698 -28.246049 -30.570968 45.928971 0.968544 2.299113 0.033670 -0.002935 1237480.000000 0 0 1
-20.708998 -27.812649 -30.055468 45.888312 0.930767 2.284939 0.030562 0.002367 974269.000000 0 0 1
-20.885898 -26.390649 -30.116468 45.162913 0.901313 2.300757 0.028825 -0.002829 475660.000000 0 0 1
-22.156598 -25.875149 -29.366068 44.975595 0.862663 2.282247 0.037419 0.000095 355271.000000 0 0 1
-22.204698 -26.114849 -27.959968 44.235662 0.866145 2.255016 0.036235 0.000769 -300803.000000 0 0 1
-21.355098 -25.333149 -27.184368 42.857887 0.870397 2.257887 0.038560 -0.016251 -273558.000000 0 0 1
-21.372798 -25.705549 -25.685368 42.158153 0.877172 2.225926 0.047399 -0.008078 -158814.000000 0 0 1
-22.652298 -25.518349 -25.140568 42.383498 0.844826 2.205785 0.037232 -0.008838 -184466.000000 0 0 1
-22.711798 -25.828049 -23.758568 41.801716 0.849510 2.175312 0.041087 0.000730 -637649.000000 0 0 1
-24.156098 -25.735249 -23.243068 42.261807 0.817039 2.153134 0.023091 -0.000152 806608.000000 0 0 1
-25.145398 -26.709449 -23.729268 43.689402 0.815551 2.144963 0.002323 0.012698 677211.000000 0 0 1
-24.779298 -28.079949 -23.589968 44.260408 0.847759 2.132916 0.013874 0.017082 -786037.000000 0 0 1
-25.954998 -29.136749 -23.466868 45.533570 0.843088 2.112242 -0.007143 0.022333 1123130.000000 0 0 1
-26.887598 -28.944849 -22.397768 45.413734 0.822228 2.086554 -0.019080 0.027518 632726.000000 0 0 1
-28.026598 -28.162949 -22.790668 45.804546 0.787825 2.091584 -0.022249 0.023357 239287.000000 0 0 1
-28.583598 -27.412949 -21.562568 45.093638 0.764495 2.069370 -0.028010 0.020751 -31877.300000 0 0 1
-29.149098 -28.263749 -20.534568 45.499208 0.769979 2.039037 -0.042350 0.036294 356902.000000 0 0 1
-29.488198 -27.649849 -19.324468 44.805167 0.753235 2.016730 -0.040564 0.029305 -1032360.000000 0 0 1
-30.410998 -28.614149 -18.489968 45.667026 0.754965 1.987651 -0.043290 0.028573 105861.000000 0 0 1
-31.761498 -28.681449 -18.922368 46.791818 0.734484 1.987113 -0.048547 0.025714 528593.000000 0 0 1
-32.568398 -27.527449 -18.727968 46.574647 0.701712 1.984613 -0.042767 0.025760 -530609.000000 0 0 1
-33.076598 -27.132549 -17.321368 46.154808 0.686994 1.955504 -0.027684 0.022025 -701027.000000 0 0 1
-32.116298 -26.423149 -16.605868 44.781628 0.688450 1.950687 -0.028354 0.026257 111403.000000 0 0 1
-32.647098 -25.935249 -15.366668 44.436524 0.671324 1.923900 -0.019487 0.017842 11878.400000 0 0 1
-32.396398 -26.768249 -14.034768 44.306212 0.690557 1.893116 0.002356 0.019982 67854.100000 0 0 1
-33.153098 -27.980049 -13.942268 45.567509 0.700980 1.881753 0.002345 0.024371 447234.000000 0 0 1
-32.968198 -28.564149 -12.711168 45.435520 0.713947 1.854343 0.001984 0.016500 105074.000000 0 0 1
-33.830498 -29.856449 -12.557768 46.835965 0.723079 1.842240 0.005103 0.010679 219167.000000 0 0 1
-33.235198 -30.864749 -13.338168 47.277033 0.748434 1.856808 -0.010675 0.015272 69132.800000 0 0 1
-33.819598 -32.124649 -13.072968 48.442345 0.759701 1.844051 -0.014278 0.007697 -342250.000000 0 0 1
-33.300298 -33.240249 -13.946168 49.074633 0.784496 1.858950 -0.026109 0.014334 -664183.000000 0 0 1
-31.935198 -33.543749 -13.838468 48.337802 0.809959 1.861145 -0.021032 0.012805 -294389.000000 0 0 1
-31.691698 -34.351149 -14.986068 49.081029 0.825645 1.881085 -0.009145 -0.000279 203644.000000 0 0 1
-30.198498 34.483145 -15.175468 48.283863 -0.851544 1.890512 -0.014254 0.003816 230419.000000 0 0 1
-29.980598 33.631445 -16.299868 47.912379 -0.842728 1.917928 -0.009191 0.006645 1531810.000000 0 0 1
-28.554298 33.248445 -16.315968 46.765563 -0.861206 1.927181 -0.009312 0.007172 1784440.000000 0 0 1
8.972433 19.972645 -8.930820 23.646789 1.148578 1.958081 0.025276 -0.010799 -698948.000000 0 1 0
7.627033 20.264945 -9.202220 23.527016 1.210829 1.972660 0.025129 -0.006221 -227084.000000 0 1 0
7.347833 20.227945 -10.575920 23.979376 1.222365 2.027556 0.032873 -0.006511 89445.700000 0 1 0
7.328133 18.923945 -11.406720 23.279400 1.201337 2.082877 0.035748 -0.005584 -380053.000000 0 1 0
8.603333 18.374045 -11.601120 23.371111 1.132884 2.090228 0.048648 -0.016227 -572732.000000 0 1 0
8.513033 17.430145 -12.630920 23.147825 1.116465 2.147977 0.042583 -0.017647 -1022990.000000 0 1 0
9.711933 16.975245 -13.408220 23.712042 1.051127 2.171788 0.051505 -0.014460 -783106.000000 0 1 0
9.495133 15.789445 -14.158720 23.236469 1.029378 2.226014 0.048267 -0.023658 -80656.100000 0 1 0
10.671333 15.429145 -14.847620 23.924625 0.965707 2.240304 0.055281 -0.021494 -434484.000000 0 1 0
10.564333 14.177545 -15.727720 23.663666 0.930409 2.297803 0.044917 -0.024392 -665290.000000 0 1 0
10.547633 12.937845 -15.016020 22.452644 0.886823 2.303371 0.047646 -0.025839 89289.700000 0 1 0
11.810733 12.525445 -14.541120 22.534958 0.814758 2.272172 0.054257 -0.018685 -505639.000000 0 1 0
12.684633 11.893545 -15.591920 23.355177 0.753223 2.301777 0.052674 -0.011138 -915131.000000 0 1 0
13.338633 12.757345 -16.470020 24.737230 0.763127 2.299360 0.045051 -0.009333 -20806.400000 0 1 0
14.247233 12.032645 -17.265020 25.413561 0.701327 2.317690 0.044525 -0.009340 13498.400000 0 0 1
14.849333 12.840845 -18.466720 26.951989 0.712991 2.325635 0.031754 -0.004405 570156.000000 0 0 1
15.887033 13.745045 -18.070320 27.710297 0.713238 2.281168 -0.000530 0.007329 406869.000000 0 0 1
16.600333 14.315645 -19.181620 29.128050 0.711632 2.289657 0.003169 0.004396 494866.000000 0 0 1
17.774133 15.267445 -18.782420 30.029885 0.709679 2.246514 -0.013634 0.017778 -400513.000000 0 0 1
17.464533 16.540845 -18.228520 30.180928 0.758242 2.219275 -0.022982 0.017851 414130.000000 0 0 1
16.601733 17.434745 -18.981720 30.657683 0.809867 2.238457 -0.002768 0.014506 235751.000000 0 0 1
16.338233 18.766945 -18.290820 30.881874 0.854472 2.204686 -0.014187 0.018672 -524197.000000 0 0 1
17.407833 19.659145 -18.225920 31.964023 0.846060 2.177547 -0.016150 0.014692 -249314.000000 0 0 1
17.054233 20.905945 -17.539020 32.179537 0.886519 2.147229 -0.024039 0.018231 -119532.000000 0 0 1
18.046833 22.067045 -17.716520 33.563637 0.885285 2.126862 -0.014972 0.008407 -207031.000000 0 0 1
19.301033 21.987345 -17.085620 33.880549 0.850369 2.099356 -0.011627 0.012732 -238264.000000 0 0 1
19.608233 23.207545 -16.529120 34.587350 0.869266 2.069053 -0.007899 0.009156 583042.000000 0 0 1
21.020733 23.229045 -15.845220 35.107417 0.835262 2.039058 -0.013406 0.008590 -861905.000000 0 0 1
21.127433 22.541545 -14.627620 34.182699 0.817769 2.012992 -0.002819 0.008052 710276.000000 0 0 1
22.262133 23.031145 -13.863020 34.903002 0.802375 1.979246 -0.003745 0.005994 690174.000000 0 0 1
23.669633 22.716645 -14.373820 35.817652 0.764856 1.983738 0.010333 0.010446 -1025490.000000 0 0 1
23.950533 23.327745 -15.638720 36.910449 0.772226 2.008315 0.016537 0.009345 -534249.000000 0 0 1
24.901833 24.365545 -15.556920 38.154932 0.774513 1.990763 0.005186 0.007894 -305315.000000 0 0 1
25.256233 24.957545 -16.922620 39.333591 0.779450 2.015547 0.007845 0.003612 -477497.000000 0 0 1
25.957833 24.004245 -17.625620 39.505384 0.746317 2.033263 0.014255 -0.004281 -181967.000000 0 0 1
26.126133 24.584145 -18.875920 40.537086 0.755000 2.055160 0.006956 0.001526 -696107.000000 0 0 1
26.592533 23.583545 -19.935020 40.752318 0.725501 2.081940 0.002727 -0.005111 -191151.000000 0 0 1
27.973033 23.337545 -19.974520 41.546516 0.695301 2.072334 0.011341 -0.003616 -542060.000000 0 0 1
28.259333 22.365245 -20.989120 41.705362 0.669493 2.098177 0.031561 -0.011423 122260.000000 0 0 1
29.776133 22.418245 -21.256920 42.907487 0.645350 2.089106 0.044723 -0.008456 -137812.000000 0 0 1
30.108133 23.641145 -21.993720 44.148920 0.665656 2.092285 0.028802 0.001714 -371433.000000 0 0 1
31.501333 23.670345 -22.154720 45.204544 0.644401 2.083000 0.043013 -0.004496 -374592.000000 0 0 1
31.944433 24.994545 -22.788720 46.524185 0.663940 2.082686 0.030780 0.001797 -316076.000000 0 0 1
31.796833 25.229345 -24.203320 47.258429 0.670737 2.108480 0.031417 -0.000123 219500.000000 0 0 1
30.499033 25.073245 -24.758820 46.603195 0.688072 2.130894 0.029521 -0.006299 -5526.250000 0 0 1
30.425933 25.445645 -26.224340 47.549282 0.696495 2.154981 0.029896 -0.005575 -180531.000000 0 0 1
30.581433 26.814645 -26.473580 48.529369 0.719864 2.147802 0.026737 0.001065 27258.200000 0 0 1
29.377833 27.508845 -26.790150 48.347758 0.752555 2.158094 0.019147 0.010636 692519.000000 0 0 1
28.862333 27.400345 -28.297610 48.832038 0.759419 2.188897 0.021293 0.009037 254334.000000 0 0 1
28.613333 26.086045 -28.726470 48.212183 0.739228 2.209100 0.016237 0.004891 -26877.800000 0 0 1
28.027433 26.020645 -30.041980 48.632618 0.748286 2.236653 0.023806 -0.001521 79278.300000 0 0 1
27.435533 24.609845 -30.257890 47.685352 0.731159 2.258199 0.013582 -0.007851 321737.000000 0 0 1
26.199133 24.378845 -29.595010 46.439070 0.749424 2.261769 0.005516 -0.005549 148858.000000 0 0 1
25.665533 23.087745 -29.796410 45.602517 0.732573 2.282855 0.015345 -0.010845 285617.000000 0 0 1
24.222033 22.911845 -29.259190 44.359438 0.757608 2.291074 0.001047 -0.006697 186039.000000 0 0 1
24.135933 23.064245 -27.863170 43.484007 0.762697 2.266295 0.005904 0.002660 1021690.000000 0 0 1
22.740633 23.081045 -27.502930 42.500379 0.792827 2.274600 -0.002637 -0.000453 668425.000000 0 0 1
22.599533 23.377045 -25.979950 41.619502 0.802308 2.244936 0.010223 -0.001683 -345064.000000 0 0 1
23.061133 22.418345 -25.094350 40.793681 0.771266 2.233376 0.009309 -0.011493 177083.000000 0 0 1
23.405633 22.887845 -23.819020 40.484847 0.774214 2.199806 0.012978 -0.003793 -297196.000000 0 0 1
23.829733 21.740645 -22.914020 39.567210 0.739587 2.188441 0.019752 -0.010846 -806041.000000 0 0 1
25.093933 21.245845 -23.170420 40.223870 0.702548 2.184668 0.018305 -0.012872 -839324.000000 0 0 1
25.357833 20.106045 -22.453720 39.388352 0.670392 2.177375 0.045769 -0.023180 -274901.000000 0 0 1
26.479833 19.262745 -23.032320 40.034019 0.628912 2.183790 0.053248 -0.025262 -1180730.000000 0 0 1
27.764033 19.548645 -22.618620 40.799424 0.613472 2.158421 0.070566 -0.031202 -1122200.000000 0 0 1
28.628533 18.732145 -23.388320 41.442727 0.579404 2.170445 0.063883 -0.026297 206562.000000 0 0 1
29.914933 18.338645 -22.632020 41.754251 0.549943 2.143646 0.071185 -0.026048 99309.500000 0 0 1
30.861633 19.336545 -22.355820 42.733184 0.559718 2.121338 0.066626 -0.025654 -225190.000000 0 0 1
32.054733 18.832345 -21.800220 43.097711 0.531182 2.101143 0.066560 -0.020179 233982.000000 0 0 1
32.658033 19.984245 -20.916720 43.628275 0.549141 2.070802 0.050550 -0.028618 203753.000000 0 0 1
31.950333 20.041645 -19.664720 42.534604 0.560234 2.051409 0.049089 -0.020092 363489.000000 0 0 1
32.259533 21.162645 -18.900920 42.962539 0.580590 2.026328 0.026909 -0.004016 -81146.100000 0 0 1
31.562433 21.144345 -17.485420 41.821172 0.590252 2.002149 0.035829 -0.012218 148701.000000 0 0 1
32.073233 20.078045 -16.696320 41.359246 0.559323 1.986343 0.037331 -0.023601 348346.000000 0 0 1
31.759733 20.251445 -15.337320 40.669830 0.567641 1.957479 0.039389 -0.021882 -244990.000000 0 0 1
32.179133 18.980645 -14.525320 40.084241 0.532918 1.941606 0.029728 -0.014439 -88048.200000 0 0 1
33.596833 18.896245 -14.471620 41.173329 0.512345 1.929948 0.029059 -0.016324 328506.000000 0 0 1
34.136533 17.842345 -13.696420 40.880852 0.481623 1.912436 0.031027 -0.003689 43573.600000 0 0 1
34.020633 17.867145 -12.207720 40.319558 0.483592 1.878398 0.022541 -0.013914 -73410.900000 0 0 1
34.860133 18.938245 -11.744120 41.374030 0.497657 1.858606 0.013753 -0.010750 270004.000000 0 0 1
34.580333 19.413445 -10.450220 41.010832 0.511554 1.828454 -0.000521 -0.013084 -590497.000000 0 0 1
33.448733 20.424245 -10.277920 40.516702 0.548187 1.827270 0.010319 -0.015147 -158146.000000 0 0 1
32.158133 19.843545 -10.344620 39.178093 0.552870 1.838006 0.035592 -0.028644 -315109.000000 0 0 1
31.172533 20.817645 -10.151820 38.835044 0.588801 1.835278 0.022811 -0.018476 147763.000000 0 0 1
29.708833 20.321945 -10.324420 37.445826 0.599932 1.850131 0.024996 -0.017360 291241.000000 0 0 1
29.393333 20.087645 -11.670420 37.465720 0.599504 1.887563 0.033057 -0.022937 -408024.000000 0 0 1
28.186333 19.421245 -11.884520 36.233906 0.603326 1.904976 0.029231 -0.025240 -360258.000000 0 0 1
28.108733 18.917645 -13.320320 36.406168 0.592386 1.945375 0.055245 -0.016756 427619.000000 0 0 1
29.214033 18.044345 -13.647720 36.950215 0.553304 1.949110 0.057917 -0.013616 731201.000000 0 0 1
28.727933 17.052245 -14.535920 36.433037 0.535683 1.981197 0.051607 -0.014139 38070.300000 0 0 1
29.825033 16.446745 -15.451620 37.400275 0.503949 1.996698 0.053681 -0.019305 -97217.700000 0 0 1
30.576333 15.558445 -14.677820 37.315087 0.470694 1.975067 0.041984 -0.017172 -140077.000000 0 0 1
31.765333 15.115945 -15.274720 38.351600 0.444152 1.980439 0.047027 -0.018837 120974.000000 0 0 1
32.626333 14.127745 -14.433420 38.371792 0.408641 1.956430 0.030843 -0.023488 -265384.000000 0 0 1
33.232333 14.645445 -13.320920 38.682346 0.415092 1.922361 0.032797 -0.010440 -57231.700000 0 0 1
34.004533 13.636545 -12.698920 38.775330 0.381387 1.904453 0.024670 -0.002458 -255357.000000 0 0 1
34.982833 14.020745 -11.602520 39.433468 0.381187 1.869446 0.036999 0.002888 -188400.000000 0 0 1
-34.098336 14.520745 -12.127420 38.995165 -0.402590 1.887039 0.009901 0.001400 -95615.400000 0 0 1
-33.178836 14.909545 -11.116320 38.035539 -0.422329 1.867387 -0.006843 -0.002254 828595.000000 0 0 1
-31.718236 15.078945 -11.726020 37.025945 -0.443777 1.893042 0.003240 -0.006558 1046060.000000 0 0 1
-30.899836 14.006845 -12.158220 36.039060 -0.425593 1.914910 -0.012593 -0.010535 159637.000000 0 0 1
-30.693036 13.018345 -11.163420 35.159091 -0.401148 1.893900 0.007152 -0.001034 -626226.000000 0 0 1
-29.741136 11.848145 -11.529520 34.027100 -0.379105 1.916473 0.027667 -0.010459 -22816.800000 0 0 1
-30.110936 11.086245 -12.656520 34.492909 -0.352778 1.946504 0.005030 -0.000333 -201964.000000 0 0 1
-29.263536 10.006345 -12.716020 33.439178 -0.329476 1.960888 0.015981 -0.010399 -632044.000000 0 0 1
-29.304336 9.275445 -14.070920 33.804863 -0.306544 2.000102 0.014508 -0.009305 267799.000000 0 0 1
-30.502936 8.636645 -14.527920 34.872356 -0.275919 2.000501 0.003979 -0.007323 419703.000000 0 0 1
-30.241836 7.708245 -15.568020 34.876194 -0.249573 2.033512 0.009797 -0.013972 277200.000000 0 0 1
-31.454136 7.116345 -16.373920 36.167807 -0.222499 2.040611 0.008534 -0.013151 147093.000000 0 0 1
-32.368336 6.377445 -15.623020 36.502873 -0.194536 2.013069 0.024057 -0.017381 -418573.000000 0 0 1
-33.252836 5.657245 -16.408320 37.509845 -0.168515 2.023547 0.006015 -0.015261 -735364.000000 0 0 1
-34.331836 4.973045 -15.572720 38.025199 -0.143852 1.992743 -0.007607 -0.016794 263720.000000 0 0 1
34.891433 4.318045 -16.270220 38.739872 0.123131 2.004227 -0.006682 -0.013607 1457180.000000 0 0 1
33.730833 4.134645 -15.399720 37.309727 0.121969 1.996271 0.005193 -0.014397 1159640.000000 0 0 1
32.964333 2.846545 -15.657920 36.604925 0.086139 2.012803 0.010429 -0.012437 -552853.000000 0 0 1
33.848733 1.788645 -15.598720 37.312947 0.052793 2.002095 0.004790 -0.013862 -98802.800000 0 0 1
33.151933 0.528745 -15.555920 36.623993 0.015948 2.009478 0.005413 -0.005241 130458.000000 0 0 1
32.633233 0.256345 -14.110020 35.553991 0.007855 1.978892 0.005561 -0.003560 369998.000000 0 0 1
33.652033 0.021245 -13.130120 36.122844 0.000631 1.942803 0.016264 -0.006250 523893.000000 0 0 1
33.129433 0.211245 -11.818820 35.175111 0.006376 1.913463 0.014668 0.001708 -52058.300000 0 0 1
33.019633 1.614945 -11.219720 34.911120 0.048870 1.897982 0.014781 -0.009082 56740.100000 0 0 1
32.065433 2.417245 -11.908520 34.290639 0.075242 1.925467 0.019171 -0.010503 438700.000000 0 0 1
32.082533 3.716945 -11.315720 34.222071 0.115341 1.907795 0.025234 -0.010737 394680.000000 0 0 1
30.959833 4.702745 -11.827620 33.474164 0.150746 1.931931 0.018426 -0.001149 394099.000000 0 0 1
31.256533 5.244845 -13.093720 34.291759 0.166251 1.962575 0.021577 -0.008325 -82915.200000 0 0 1
30.320733 6.168745 -13.504820 33.760634 0.200710 1.982331 0.027704 -0.010556 -710427.000000 0 0 1
30.599033 6.783245 -14.890220 34.699163 0.218154 2.014318 0.009911 -0.003180 -304725.000000 0 0 1
30.491733 5.880245 -15.973820 34.921139 0.190508 2.045894 0.006114 0.003447 -7318.740000 0 0 1
30.877733 6.548345 -17.164320 35.929502 0.208977 2.068856 0.011211 -0.001195 -1165910.000000 0 0 1
29.766133 7.428445 -17.779220 35.458499 0.244565 2.096023 0.014802 0.003694 135915.000000 0 0 1
28.650133 6.838745 -18.408420 34.734255 0.234314 2.129372 0.002760 0.003084 -93255.300000 0 0 1
27.801033 6.153245 -17.545220 33.445397 0.217820 2.123033 -0.009318 0.006481 -921717.000000 0 0 1
26.377833 6.001445 -18.177120 32.591642 0.223710 2.162437 -0.015146 0.006441 283113.000000 0 0 1
26.301333 5.036645 -19.185420 32.942499 0.189207 2.192463 -0.006436 0.008630 -82060.700000 0 0 1
25.191433 5.190345 -20.032420 32.601316 0.203193 2.232506 -0.008713 0.014340 -117186.000000 0 0 1
24.843533 3.848645 -20.754720 32.600178 0.153694 2.260935 0.001754 0.018717 27276.500000 0 0 1
24.232833 2.872545 -19.912120 31.495622 0.117989 2.255210 0.008155 0.011304 144630.000000 0 0 1
23.894433 1.707845 -20.564520 31.571508 0.071353 2.280176 0.008098 0.015313 -317342.000000 0 0 1
23.076533 0.722745 -19.710720 30.357227 0.031309 2.277450 0.002558 0.010040 228389.000000 0 0 1
21.820133 1.266845 -19.384820 29.214625 0.057993 2.296325 0.003922 0.004049 -38349.400000 0 0 1
20.834533 0.430945 -18.824620 28.082553 0.020681 2.305452 -0.000411 0.000123 -313309.000000 0 0 1
19.564233 1.192345 -18.455520 26.921870 0.060870 2.326116 0.000068 -0.001264 -1638730.000000 0 0 1
18.925533 1.493445 -19.660920 27.330531 0.078748 2.373699 0.005825 -0.007644 -273498.000000 0 0 1
17.958033 2.511745 -19.573920 26.682169 0.138966 2.394394 -0.008688 -0.003910 143344.000000 0 0 1
16.624833 2.176545 -18.879420 25.249850 0.130181 2.415394 0.007606 -0.007470 -1471530.000000 0 0 1
16.763733 1.985545 -17.468720 24.292412 0.117894 2.373305 -0.003156 -0.010657 996333.000000 0 1 0
15.500333 1.935245 -16.751620 22.904634 0.124209 2.391116 -0.012859 -0.005311 1408060.000000 0 1 0
14.732633 3.316345 -16.601620 22.442424 0.221412 2.403484 0.007105 -0.005431 -149310.000000 0 1 0
14.443333 4.016345 -17.788820 23.263340 0.271224 2.441328 0.020557 0.006673 810357.000000 0 1 0
13.196933 4.734045 -17.766820 22.632501 0.344425 2.473514 0.020688 -0.002392 581172.000000 0 1 0
-19.452167 -22.103955 -18.033520 34.527952 0.849124 2.120328 0.009910 -0.002387 27262.700000 0 0 1
-19.164867 -22.271955 -19.403920 35.211421 0.860242 2.154441 0.032145 -0.008630 72435.600000 0 0 1
-20.348267 -22.321155 -20.166320 36.317577 0.831602 2.159492 0.029906 -0.010743 -29969.900000 0 0 1
-20.123967 -23.123255 -21.504120 37.444441 0.854639 2.182538 0.039955 -0.014137 -57034.000000 0 0 1
-20.151167 -24.506655 -21.304120 38.216635 0.882621 2.162116 0.033657 -0.013006 841691.000000 0 0 1
-19.146567 -25.271825 -22.043020 38.615423 0.922433 2.178318 0.035884 -0.018066 358002.000000 0 0 1
-19.153767 -26.777705 -21.795520 39.483629 0.949884 2.155574 0.030805 0.004643 237208.000000 0 0 1
-20.382267 -27.470245 -22.064620 40.705019 0.932450 2.143685 0.038053 0.013638 363484.000000 0 0 1
-20.269967 -28.791605 -21.559120 41.287089 0.957375 2.120197 0.061598 -0.001488 -118194.000000 0 0 1
-21.571867 -29.600015 -21.668020 42.555956 0.941016 2.105011 0.052144 0.001613 26616.400000 0 0 1
-22.230267 -29.724805 -22.951620 43.640871 0.928660 2.124593 0.027542 0.011152 -13063.700000 0 0 1
-21.512767 -30.306645 -24.019620 44.251938 0.953499 2.144555 0.033723 0.006686 -426202.000000 0 0 1
-21.772567 -29.580545 -25.355590 44.631371 0.936287 2.175005 0.024961 0.019199 369552.000000 0 0 1
-23.055767 -29.904495 -25.898010 45.788144 0.914003 2.171963 0.023073 0.022850 592085.000000 0 0 1
-23.441767 -29.179975 -27.029520 46.169062 0.894015 2.196227 0.023503 0.027983 -43121.100000 0 0 1
-22.799167 -29.620705 -28.371590 46.926914 0.914804 2.220049 0.021129 0.013441 -121282.000000 0 0 1
-23.329867 -30.845555 -28.881880 48.268975 0.923247 2.212240 0.019560 0.020185 136461.000000 0 0 1
-23.118167 -30.938925 -30.289550 49.082823 0.929077 2.235862 0.029650 0.016732 -267398.000000 0 0 1
-23.707667 -32.187825 -30.997350 50.586018 0.935964 2.230351 0.008263 0.013419 3151.440000 0 0 1
-22.990267 -33.419085 -30.811640 50.938637 0.968211 2.220408 0.008621 0.011629 40047.800000 0 0 1
-23.776367 -34.527897 -31.247450 52.286656 0.967753 2.211323 0.013454 0.008647 -139258.000000 0 0 1
-23.144467 33.236853 -31.250280 51.155984 -0.962525 2.227971 0.022931 0.005310 415463.000000 0 0 1
-22.254067 32.947019 -32.348770 51.256145 -0.976738 2.253792 0.006064 -0.003314 301152.000000 0 0 1
-21.906667 31.572249 -32.244020 50.163590 -0.964204 2.268915 0.022499 0.006121 26199.700000 0 0 1
-20.696167 31.158119 -33.126840 49.965460 -0.984482 2.295608 0.016130 0.015113 171700.000000 0 0 1
-20.974067 31.045539 -34.527971 50.950149 -0.976641 2.315401 0.004483 0.008535 -117599.000000 0 0 1
-20.078367 30.132799 34.103180 49.740861 -0.983027 0.815345 -0.005583 0.002408 -485629.000000 0 0 1
-20.182567 29.806569 32.582959 48.553236 -0.975593 0.835136 -0.009921 0.000130 -162218.000000 0 0 1
-19.874067 30.924569 31.768389 48.585368 -0.999596 0.858112 -0.005149 0.008081 253684.000000 0 0 1
-19.759267 30.602309 30.440139 47.471381 -0.997465 0.874694 0.002265 0.006763 -308564.000000 0 0 1
-19.299467 31.846079 29.657089 47.604465 -1.025960 0.898237 -0.009701 0.000051 -461561.000000 0 0 1
-20.333767 32.777389 29.531679 48.579207 -1.015541 0.917373 -0.011159 -0.005624 -399409.000000 0 0 1
-19.885967 34.057703 29.216689 49.081501 -1.042306 0.933196 -0.016916 -0.011376 -187442.000000 0 0 1
-20.858867 -33.975685 29.460869 49.571991 1.020193 0.934395 -0.002856 -0.015248 -212607.000000 0 0 1
-21.000767 -33.665165 30.842989 50.256000 1.013051 0.910036 -0.014407 -0.002115 -88267.800000 0 0 1
-21.897967 -32.612335 31.176169 50.150163 0.979481 0.899941 0.001783 -0.010577 -163177.000000 0 0 1
-21.443667 -31.168355 30.883199 48.837170 0.968173 0.886187 -0.001652 -0.003141 -204642.000000 0 0 1
-21.229867 -30.820175 29.478099 47.639781 0.967606 0.903619 0.000311 0.000748 10099.200000 0 0 1
-21.292867 -29.375755 29.348679 46.665470 0.943590 0.890638 0.004925 0.002442 174147.000000 0 0 1
-22.661067 -28.837895 28.857479 46.668000 0.904769 0.904146 0.000543 0.005438 -185747.000000 0 0 1
-23.745267 -28.802305 29.762549 47.741175 0.881340 0.897694 0.007274 0.011208 577463.000000 0 0 1
-24.762167 -29.783235 29.561369 48.724537 0.877192 0.918889 -0.002289 0.005059 172920.000000 0 0 1
-25.710057 -29.629465 28.334569 48.391735 0.856105 0.945269 -0.013672 0.008889 -896005.000000 0 0 1
-25.168827 -29.820085 27.066919 47.490267 0.869783 0.964355 -0.015952 0.005161 -208293.000000 0 0 1
-26.150127 -30.012395 26.041639 47.568266 0.854060 0.991472 -0.011588 0.008566 -5625.670000 0 0 1
-25.600417 -30.450245 24.664279 46.807322 0.871709 1.015810 -0.009054 -0.000597 -231798.000000 0 0 1
-24.952967 -29.379485 23.967029 45.389681 0.866690 1.014519 -0.027400 0.002231 140909.000000 0 0 1
-24.797667 -29.463025 22.586729 44.644758 0.871168 1.040347 -0.009343 0.006157 -20867.300000 0 0 1
-23.642067 -30.373025 22.082129 44.374412 0.909372 1.049930 -0.020350 0.005789 -283798.000000 0 0 1
-23.756967 -31.743845 22.496329 45.586730 0.928323 1.054705 -0.006016 -0.012095 -193775.000000 0 0 1
-22.640467 -32.482995 22.093329 45.341492 0.962090 1.061841 0.004254 -0.000869 -430278.000000 0 0 1
-21.811467 -33.120065 23.201029 45.945256 0.988429 1.041448 -0.005449 -0.003811 -474122.000000 0 0 1
-21.134167 -32.186435 23.980529 45.361717 0.989783 1.013785 0.005296 -0.009296 -591482.000000 0 0 1
-20.257467 -32.952545 24.707819 45.898927 1.019604 1.002367 0.013391 -0.013118 -475282.000000 0 0 1
-19.376467 -32.241565 25.792529 45.609435 1.029658 0.969746 0.023236 -0.007451 -760853.000000 0 0 1
-18.263467 -31.520795 25.396239 44.408149 1.045654 0.961998 0.031094 -0.008601 -469838.000000 0 0 1
-17.823367 -30.727555 26.489559 44.311982 1.045179 0.930046 0.031497 -0.001538 102836.000000 0 0 1
-16.802367 -31.308305 27.486499 44.922568 1.078241 0.912381 0.026746 -0.010011 -413896.000000 0 0 1
-17.422467 -32.362325 28.205289 46.329265 1.076936 0.916248 0.017963 -0.009899 125874.000000 0 0 1
-16.641567 -32.902715 29.259149 47.070460 1.102535 0.900009 0.016929 -0.009565 -82571.900000 0 0 1
-16.899467 -32.266795 30.696639 47.634249 1.088336 0.870527 0.022917 -0.003554 12135.600000 0 0 1
-16.411367 -30.942205 30.721149 46.589076 1.083135 0.850767 0.033023 -0.001986 129657.000000 0 0 1
-16.827067 -30.275555 31.915959 47.099765 1.063513 0.826269 0.035636 0.006283 -190692.000000 0 0 1
-16.443067 -28.781165 32.039499 46.100536 1.051737 0.802388 0.049505 -0.004848 -76241.900000 0 0 1
-17.312167 -27.877405 31.356989 45.388562 1.015071 0.808123 0.044676 -0.002495 296914.000000 0 0 1
-17.537667 -27.905875 29.945839 44.531572 1.009714 0.833265 0.035897 -0.005008 22311.200000 0 0 1
-16.266267 -27.632795 29.094329 43.297145 1.038758 0.833932 0.030290 0.000045 21946.600000 0 0 1
-15.896567 -26.255025 29.209479 42.370047 1.026366 0.810150 0.035025 0.004581 780480.000000 0 0 1
-14.764167 -26.044145 28.334389 41.220331 1.055078 0.812909 0.041538 -0.000597 576860.000000 0 0 1
-14.864367 -24.703055 27.598739 39.910910 1.029112 0.807221 0.039387 0.005086 -530107.000000 0 0 1
-15.855067 -24.725655 26.609299 39.633268 1.000604 0.834716 0.037081 0.003695 -14029.800000 0 0 1
-15.772267 -23.663755 25.669409 38.310002 0.982898 0.836527 0.019834 0.008517 142529.000000 0 0 1
-16.400667 -22.287655 26.158759 38.078893 0.936404 0.813496 0.015665 0.010221 -241217.000000 0 0 1
-16.419067 -21.253455 25.216989 36.840082 0.913027 0.816880 0.013328 0.008670 189479.000000 0 0 1
-16.756067 -19.957755 25.737619 36.626531 0.872385 0.791605 0.007422 0.011635 -158554.000000 0 0 1
-16.378967 -18.793255 24.852909 35.201194 0.853933 0.786927 0.003818 0.004736 -194756.000000 0 0 1
-14.993367 -18.589055 24.733599 34.381753 0.892062 0.767885 0.010982 -0.004826 -346309.000000 0 0 1
-14.744267 -17.371055 24.134089 33.190378 0.867009 0.756648 0.012910 -0.003279 -363507.000000 0 0 1
-13.318867 -16.845655 24.341619 32.460479 0.901788 0.722908 0.011886 -0.002472 322535.000000 0 0 1
-12.298367 -17.608055 23.651329 31.948064 0.961111 0.737272 0.000359 -0.005648 1401710.000000 0 0 1
-10.984567 -17.015755 23.779529 31.235599 0.997554 0.705487 0.001320 -0.005584 637719.000000 0 0 1
-10.548667 -16.144655 22.548829 29.671096 0.992046 0.707546 -0.007786 -0.000302 -218260.000000 0 0 1
-10.093067 -16.880755 21.437629 29.092986 1.031920 0.742374 0.009875 -0.001001 774187.000000 0 0 1
-8.702567 -17.225755 21.623229 28.983191 1.102992 0.728669 0.019685 -0.004440 277012.000000 0 0 1
-8.390867 -18.453755 20.745529 29.005598 1.144043 0.773850 0.026812 -0.005261 -54696.900000 0 0 1
-8.347967 -18.125555 19.413329 27.840647 1.139193 0.799170 0.025740 -0.002446 -53459.100000 0 0 1
-8.112067 -19.249955 18.568329 27.949047 1.171973 0.844154 0.026612 -0.003307 18753.100000 0 0 1
-7.888667 -18.887455 17.049029 26.639002 1.175153 0.876295 0.017162 -0.009755 -241512.000000 0 0 1
-6.687067 -18.186255 16.892229 25.706111 1.218442 0.853793 0.016276 -0.007309 -294720.000000 0 0 1
-6.187567 -18.151155 15.557929 24.694120 1.242259 0.889210 0.015788 -0.007380 160533.000000 0 1 0
-5.302467 -16.903355 15.281129 23.395565 1.266825 0.859042 0.004270 -0.006499 -141074.000000 0 1 0
-5.957267 -15.742255 15.583029 22.937707 1.209026 0.823902 0.014827 -0.009641 -307002.000000 0 1 0
-5.009367 -14.702555 15.706529 22.089679 1.242418 0.779828 0.007024 -0.002982 -305523.000000 0 1 0
-5.500367 -13.546755 16.567429 22.096342 1.185104 0.723064 0.000150 -0.000017 -106729.000000 0 1 0
-5.569867 -13.718355 18.014429 23.318155 1.185115 0.687950 0.019323 0.002381 -146324.000000 0 1 0
-6.416867 -14.744755 18.538529 24.541007 1.160321 0.714516 0.028422 -0.001378 -532306.000000 0 1 0
-7.535567 -14.053555 19.272529 25.014347 1.078607 0.691235 0.015321 -0.009341 -762516.000000 0 0 1
-6.972067 -13.187255 20.253629 25.153984 1.084455 0.634808 0.015752 -0.009320 84132.900000 0 0 1
-7.999967 -12.694455 21.087829 25.881368 1.008471 0.618433 0.016913 -0.005287 128458.000000 0 0 1
-7.497467 -11.803255 22.160129 26.203056 1.004893 0.562906 0.012453 -0.004892 -935224.000000 0 0 1
-7.269167 -10.427255 21.829529 25.260577 0.961998 0.527290 0.012501 0.000262 405214.000000 0 0 1
-6.715867 -9.551355 22.835829 25.647736 0.957971 0.472651 0.008842 -0.005061 -957693.000000 0 0 1
-5.378667 -9.933555 23.400029 25.983975 1.074530 0.449749 0.022767 -0.003095 -1498250.000000 0 0 1
-5.234667 -11.119855 24.124419 27.074721 1.130822 0.471185 0.030427 -0.001659 -709654.000000 0 0 1
-3.954367 -11.251055 24.652709 27.385750 1.232816 0.450563 0.029830 -0.002540 -838745.000000 0 0 1
-3.792467 -12.502355 25.541519 28.689038 1.276278 0.472818 0.036343 -0.005864 -485183.000000 0 0 1
-2.471467 -12.858055 25.854479 28.980887 1.380901 0.468776 0.029815 -0.008787 -102086.000000 0 0 1
-2.325967 -14.006655 26.654589 30.200391 1.406236 0.489452 0.040306 -0.014952 -362648.000000 0 0 1
-2.197667 -15.408055 25.986269 30.290660 1.429121 0.539633 0.036554 -0.023549 -633294.000000 0 0 1
-0.926767 -15.582355 25.452479 29.857953 1.511391 0.550138 0.022469 -0.018831 -424385.000000 0 0 1
-0.847467 -16.792755 24.692349 29.873515 1.520373 0.597822 0.018044 -0.008355 -239483.000000 0 0 1
0.516933 -17.506855 24.809259 30.368677 -1.541277 0.614719 0.023501 -0.008040 -16139.200000 0 0 1
0.910633 -18.125955 26.047889 31.747000 -1.520599 0.608540 0.038517 -0.013317 139338.000000 0 0 1
1.232833 -17.219455 27.078209 32.113220 -1.499323 0.567568 0.031116 -0.016752 -477782.000000 0 0 1
1.578033 -17.910055 28.420489 33.630112 -1.482914 0.564062 0.035096 -0.019235 -584420.000000 0 0 1
2.790733 -18.608355 28.253599 33.945912 -1.421934 0.587530 0.032300 -0.015085 128398.000000 0 0 1
3.536133 -18.770955 29.447619 35.100075 -1.384595 0.575424 0.031046 -0.020768 131369.000000 0 0 1
4.440533 -17.584255 29.899329 34.969905 -1.323439 0.545242 0.025489 -0.022914 -979323.000000 0 0 1
3.756733 -16.437355 30.321209 34.694025 -1.346107 0.507503 0.028166 -0.022240 71962.400000 0 0 1
4.554833 -15.427455 30.922019 34.855762 -1.283710 0.479681 0.026675 -0.018641 10296.000000 0 0 1
3.608933 -14.459855 31.704699 35.032838 -1.326210 0.439418 0.039228 -0.023009 237029.000000 0 0 1
2.971933 -15.252555 32.679539 36.185979 -1.378359 0.443863 0.039483 -0.033601 -543487.000000 0 0 1
1.922833 -14.529455 33.234128 36.322302 -1.439221 0.415342 0.054426 -0.025236 -24804.600000 0 0 1
1.089733 -15.259255 34.337681 37.591338 -1.499503 0.419122 0.036681 -0.022331 241515.000000 0 0 1
1.722433 -15.207655 -33.590460 36.912850 -1.458016 2.714065 0.061349 -0.018125 -34758.500000 0 0 1
0.842733 -15.585655 -32.524410 36.075755 -1.516778 2.694155 0.042882 -0.015013 182938.000000 0 0 1
1.532533 -15.476455 -31.171970 34.836203 -1.472095 2.678814 0.046291 -0.008048 -485545.000000 0 0 1
0.821733 -15.898055 -30.059910 34.015020 -1.519155 2.654558 0.057221 -0.017324 -877003.000000 0 0 1
1.488833 -15.847055 -28.833610 32.935131 -1.477121 2.637197 0.034563 -0.009376 -365411.000000 0 0 1
1.183933 -17.025155 -27.889700 32.696987 -1.501368 2.592454 0.050678 -0.016859 -409634.000000 0 0 1
1.707233 -18.233555 -28.381270 33.776821 -1.477437 2.568557 0.054276 -0.020965 84712.900000 0 0 1
1.424833 -19.341255 -27.529980 33.675125 -1.497261 2.527882 0.048799 -0.015977 -737647.000000 0 0 1
2.196133 -20.698655 -27.838500 34.759738 -1.465092 2.499565 0.038655 -0.007624 1936930.000000 0 0 1
3.616233 -20.758155 -27.471370 34.621587 -1.398319 2.487294 0.032305 -0.007872 1799870.000000 0 0 1
3.945933 -20.653355 -26.093560 33.511271 -1.382016 2.463308 0.035608 -0.001504 -741169.000000 0 0 1
5.401833 -21.108855 -25.855300 33.812129 -1.320269 2.441334 0.030466 -0.002095 -107912.000000 0 0 1
5.717033 -22.501955 -25.852120 34.747008 -1.321992 2.409848 0.034107 -0.000585 -124965.000000 0 0 1
5.804433 -22.999855 -27.212530 36.099952 -1.323590 2.424639 0.027598 0.002857 -621798.000000 0 0 1
4.858933 -24.190955 -27.571460 36.999958 -1.372576 2.411594 0.015423 0.003677 45097.400000 0 0 1
5.099533 -25.385525 -26.879670 37.322202 -1.372551 2.374895 0.021264 0.014712 -219958.000000 0 0 1
4.665833 -26.471045 -27.584570 38.514863 -1.396327 2.369147 0.024097 0.014079 -140947.000000 0 0 1
4.927333 -27.795695 -26.796230 38.921937 -1.395349 2.330161 0.023499 0.004482 -824093.000000 0 0 1
6.243433 -28.187035 -26.727960 39.343020 -1.352816 2.317682 0.027946 0.005518 -1361430.000000 0 0 1
6.314133 -29.371085 -25.917690 39.676889 -1.359041 2.282624 0.013948 0.004262 745222.000000 0 0 1
7.770933 -29.952085 -25.865150 40.330147 -1.316948 2.267034 0.012893 0.000300 726924.000000 0 0 1
8.255033 -30.238135 -27.160340 41.474986 -1.304290 2.284795 0.024760 -0.002909 -113056.000000 0 0 1
9.593033 -30.701375 -27.197980 42.122806 -1.267945 2.272714 0.076390 -0.003575 510686.000000 0 0 1
10.252133 -30.444965 -28.583570 43.000263 -1.245980 2.297929 0.088298 -0.019749 127407.000000 0 0 1
9.607033 -31.266055 -29.528730 44.065941 -1.272686 2.305144 0.098966 -0.023967 -149614.000000 0 0 1
10.118233 -31.129375 -30.786460 44.935762 -1.256530 2.325567 0.086957 -0.019010 -80699.100000 0 0 1
-34.021117 -4.549255 -5.915120 34.829883 0.132930 1.741452 0.068779 -0.023502 -120968.000000 0 0 1
-33.786307 -3.648055 -4.829320 34.324119 0.107558 1.711962 0.067859 -0.025325 334841.000000 0 0 1
-32.933127 -2.559155 -5.125920 33.427761 0.077552 1.724747 0.053836 -0.021093 157750.000000 0 0 1
-33.754807 -1.282655 -5.557220 34.233242 0.037981 1.733852 0.036786 -0.014095 -43232.300000 0 0 1
-34.432561 -0.723355 -4.475420 34.729726 0.021005 1.700020 0.015821 -0.001253 272289.000000 0 0 1
34.845894 0.200845 -4.842520 35.181340 0.005764 1.708879 0.027773 -0.006713 57411.200000 0 0 1
34.388181 1.051445 -3.676220 34.600103 0.030566 1.677246 0.028835 -0.000754 26429.400000 0 0 1
-34.896669 1.985045 -3.292320 35.107795 -0.056822 1.664712 0.006116 0.006803 571971.000000 0 0 1
34.871939 2.871345 -2.337720 35.067958 0.082154 1.637508 0.022757 -0.001400 154507.000000 0 0 1
-34.640946 4.215245 -2.301320 34.972268 -0.121089 1.636648 0.006653 -0.005866 -236462.000000 0 0 1
-34.831339 5.012145 -3.480020 35.361763 -0.142917 1.669368 0.008459 -0.000359 298745.000000 0 0 1
-33.687567 5.754345 -3.872120 34.394156 -0.169182 1.683616 -0.002515 0.013188 -29840.500000 0 0 1
-33.239057 6.915445 -3.018020 34.084699 -0.205126 1.659457 -0.007389 0.007069 -431550.000000 0 0 1
-32.708147 6.467045 -1.797420 33.389763 -0.195202 1.624654 -0.006788 -0.005572 238638.000000 0 0 1
-32.512817 7.547945 -0.864920 33.388663 -0.228112 1.596704 -0.005088 -0.019676 -130142.000000 0 0 1
-31.756377 7.081445 0.407280 32.538903 -0.219403 1.558279 -0.005545 -0.016793 -35415.300000 0 0 1
-30.379267 6.719945 0.186680 31.114183 -0.217696 1.564796 -0.001260 -0.013185 765444.000000 0 0 1
-29.562317 6.935045 1.291880 30.392341 -0.230424 1.528277 -0.000575 -0.003809 -120660.000000 0 0 1
-29.103857 8.428745 1.332680 30.329099 -0.281897 1.526842 0.002550 -0.008181 -931468.000000 0 0 1
-30.180077 9.335145 1.526580 31.627716 -0.299980 1.522510 0.002864 -0.010984 154653.000000 0 0 1
-29.777257 10.694445 1.392680 31.670108 -0.344801 1.526808 0.011932 0.003539 97676.600000 0 0 1
-30.966007 11.710745 1.376780 33.135037 -0.361556 1.529234 0.008075 0.002996 363144.000000 0 0 1
-31.758397 11.612145 0.186780 33.815271 -0.350540 1.565273 0.007687 0.013460 1342720.000000 0 0 1
-32.916287 12.497345 0.119280 35.209087 -0.362859 1.567409 -0.001107 0.020132 239174.000000 0 0 1
-34.209616 11.859745 0.530580 36.210950 -0.333713 1.556143 0.003185 -0.005300 -1044080.000000 0 0 1
-34.761430 10.995145 -0.464420 36.461842 -0.306346 1.583534 0.000472 -0.002975 439310.000000 0 0 1
34.236996 10.463645 -0.192920 35.800796 0.296608 1.576185 0.004809 -0.010991 509974.000000 0 0 1
33.933822 9.307545 -1.165520 35.206436 0.267702 1.603908 -0.003700 -0.021142 30448.600000 0 0 1
33.598042 9.855145 -2.469120 35.100554 0.285322 1.641199 0.005065 -0.016589 352380.000000 0 0 1
33.406642 8.783445 -3.430920 34.712013 0.257106 1.669798 -0.009768 -0.016483 -291090.000000 0 0 1
32.923402 9.339745 -4.761820 34.552224 0.276419 1.709051 -0.002702 -0.015016 -270377.000000 0 0 1
31.539492 9.599245 -4.812520 33.317344 0.295449 1.715748 0.014763 -0.020191 144395.000000 0 0 1
31.280092 9.980945 -6.119820 33.399336 0.308871 1.755069 0.007411 -0.013893 -50132.400000 0 0 1
29.853882 10.511545 -6.391720 32.289332 0.338544 1.770064 0.021479 -0.010138 586888.000000 0 0 1
28.784802 9.523645 -6.341420 30.975446 0.319520 1.776978 0.006749 -0.004007 948408.000000 0 0 1
27.554902 10.209345 -6.487520 30.093044 0.354828 1.788084 0.001464 -0.005506 -100151.000000 0 0 1
26.353742 9.241645 -6.358420 28.641879 0.337278 1.794659 0.007071 -0.000250 -258872.000000 0 0 1
26.350692 8.402245 -7.504520 28.657887 0.308671 1.835751 -0.000442 -0.000429 287409.000000 0 0 1
25.315172 7.428645 -7.458720 27.416696 0.285433 1.846319 -0.005883 -0.003968 -55414.800000 0 0 1
25.258632 6.405745 -8.619520 27.446825 0.248370 1.890246 -0.016379 0.000763 -100711.000000 0 0 1
26.238382 5.340845 -8.552620 28.109156 0.200807 1.879963 -0.002625 -0.001147 983081.000000 0 0 1
26.038262 4.456245 -9.639520 28.120625 0.169500 1.920683 -0.011012 -0.002050 -486702.000000 0 0 1
26.947132 3.210745 -9.511820 28.756417 0.118591 1.907918 0.005170 -0.001352 -194923.000000 0 0 1
28.324982 3.537945 -9.647120 30.131190 0.124262 1.896706 0.036187 0.003605 834364.000000 0 0 1
29.145532 3.129945 -8.530420 30.529112 0.106980 1.853985 0.022075 -0.006407 306321.000000 0 0 1
29.396682 1.627745 -8.282420 30.584521 0.055315 1.845025 0.030424 -0.011053 -601726.000000 0 0 1
28.317282 1.105045 -7.495220 29.313272 0.039004 1.829362 0.034777 -0.011123 717856.000000 0 0 1
28.521362 -0.223355 -6.982020 29.364376 -0.007831 1.810868 0.029025 -0.011405 -422234.000000 0 0 1
28.459192 -1.371555 -8.056120 29.609253 -0.048156 1.846351 0.019635 -0.009065 -712612.000000 0 0 1
29.606072 -1.491755 -8.869020 30.941951 -0.050344 1.861508 0.036538 -0.013471 11450.000000 0 0 1
29.355912 -2.470755 -9.874420 31.070539 -0.083968 1.894211 0.016285 -0.012905 -634819.000000 0 0 1
30.419042 -2.615955 -10.926920 32.427749 -0.085786 1.914485 0.017081 -0.006869 -373372.000000 0 0 1
31.645872 -3.186055 -10.487220 33.490207 -0.100340 1.889297 0.029752 -0.013031 250072.000000 0 0 1
32.512382 -3.547955 -11.524320 34.676403 -0.108696 1.909579 0.005682 -0.006037 -590973.000000 0 0 1
33.854142 -4.000755 -10.967620 35.810580 -0.117631 1.882066 0.016875 -0.010930 -699493.000000 0 0 1
33.852582 -5.291455 -10.329520 35.786810 -0.155054 1.863603 0.011938 -0.009951 -1481.490000 0 0 1
-35.138400 -5.791155 -10.151720 37.031095 0.163342 1.848492 0.028734 -0.007156 -269648.000000 0 0 1
-35.040522 -7.103855 -9.440420 36.978703 0.200022 1.828947 0.035280 -0.012229 -275954.000000 0 0 1
34.688840 -7.113555 -8.125520 36.331011 -0.202263 1.796357 0.036134 -0.010579 589854.000000 0 0 1
34.593210 -8.395855 -7.615420 36.402956 -0.238099 1.781551 0.039928 -0.008515 -347636.000000 0 0 1
34.185092 -8.480155 -6.120120 35.748978 -0.243157 1.742841 0.043491 -0.007858 40876.800000 0 0 1
-34.974909 -8.043355 -5.339120 36.282861 0.226045 1.718485 0.046778 -0.008982 1167690.000000 0 0 1
-34.642414 -8.763855 -4.131420 35.971803 0.247782 1.685902 0.066961 -0.015766 -199772.000000 0 0 1
-34.147300 -10.202055 -4.337020 35.901668 0.290324 1.691895 0.065293 -0.025264 -253173.000000 0 0 1
35.114481 -11.002655 -4.925520 37.126082 -0.303647 1.703859 0.051122 -0.027623 588134.000000 0 0 1
-34.672214 -12.145455 -5.557720 37.155925 0.336936 1.720938 0.035330 -0.023876 -156828.000000 0 0 1
34.730052 -12.528655 -6.759220 37.534394 -0.346214 1.751865 0.025047 -0.022752 -256939.000000 0 0 1
34.948011 -11.673355 -7.856320 37.674294 -0.322369 1.780871 0.039913 -0.013583 28584.300000 0 0 1
34.275148 -12.115255 -8.985920 37.447456 -0.339763 1.813122 0.030344 -0.013078 -273091.000000 0 0 1
34.706856 -11.405655 -10.257220 37.945558 -0.317510 1.844516 0.010710 -0.014058 -921776.000000 0 0 1
33.983692 -10.271755 -10.519520 37.027835 -0.293525 1.858861 0.007310 -0.009202 -197051.000000 0 0 1
34.253845 -9.721455 -11.771320 37.501954 -0.276535 1.890079 0.003557 -0.009812 -396975.000000 0 0 1
33.405132 -8.471455 -12.140220 36.538382 -0.248362 1.909494 -0.004756 -0.000627 -188527.000000 0 0 1
33.705902 -7.870555 -13.387620 37.111478 -0.229396 1.939858 -0.001942 0.002588 3652.330000 0 0 1
32.607022 -7.159555 -13.877220 36.153207 -0.216141 1.964753 0.005802 0.001362 -381370.000000 0 0 1
32.690462 -6.615855 -15.335320 36.709779 -0.199682 2.001758 0.002745 0.006354 -803499.000000 0 0 1
33.549892 -5.565455 -15.582820 37.408473 -0.164389 2.000453 -0.005340 0.006474 -608936.000000 0 0 1
33.126632 -4.278955 -15.472420 36.811397 -0.128458 2.004590 0.001872 0.006276 -1155500.000000 0 0 1
34.215942 -3.282955 -15.656020 37.770616 -0.095655 1.998193 -0.007790 -0.002377 -858025.000000 0 0 1
34.896747 -3.383555 -16.916820 38.928270 -0.096657 2.020350 -0.002963 -0.002022 488445.000000 0 0 1
-34.054137 -2.933555 -17.011320 38.179510 0.085932 2.032598 0.009426 -0.011671 303033.000000 0 0 1
-33.837147 -1.414255 -16.762420 37.787979 0.041772 2.030398 0.000097 -0.010477 -810903.000000 0 0 1
-34.050067 -0.535455 -17.826420 38.437937 0.015724 2.053044 -0.002877 -0.009531 78487.000000 0 0 1
-33.886757 0.789145 -17.402220 38.102130 -0.023284 2.045107 0.006855 -0.013057 -409907.000000 0 0 1
-34.169307 1.927845 -18.463020 38.886260 -0.056361 2.065528 -0.002419 -0.012393 -353947.000000 0 0 1
-33.165577 2.099045 -19.428820 38.494682 -0.063206 2.099847 -0.002599 -0.010945 22112.100000 0 0 1
-33.411367 3.189945 -20.291120 39.220208 -0.095186 2.114564 -0.002124 -0.006005 -514760.000000 0 0 1
-32.452537 3.336645 -21.463320 39.050921 -0.102456 2.152710 -0.002625 -0.000214 -1069270.000000 0 0 1
-31.176307 3.725445 -21.098820 37.828577 -0.118932 2.162467 0.004456 -0.004444 -478401.000000 0 0 1
-30.422237 4.238545 -22.213420 37.906646 -0.138433 2.196914 0.004348 0.001659 714120.000000 0 0 1
-28.956727 4.682645 -21.898920 36.605763 -0.160324 2.212095 0.014885 -0.004841 734906.000000 0 0 1
-28.132707 3.573345 -21.469620 35.569124 -0.126341 2.218808 0.027577 -0.003440 407242.000000 0 0 1
-26.868157 4.144345 -21.154520 34.446874 -0.153041 2.232067 0.014203 0.009681 67076.100000 0 0 1
-25.931627 3.116045 -20.435220 33.162588 -0.119590 2.234722 0.028071 0.001955 -274531.000000 0 0 1
-26.333977 2.720945 -19.140820 32.668836 -0.102959 2.196792 0.033226 -0.006763 -286332.000000 0 0 1
-25.488437 1.843745 -18.467520 31.529496 -0.072211 2.196567 0.036240 -0.008959 -403893.000000 0 0 1
-24.559767 2.472045 -17.415020 30.208874 -0.100316 2.185219 0.047769 -0.016659 -701989.000000 0 0 1
-23.513867 3.214245 -17.888320 29.719106 -0.135854 2.216691 0.046197 -0.013049 -995391.000000 0 0 1
-22.694067 3.664945 -16.866520 28.511962 -0.160111 2.203788 0.055327 -0.014583 -593646.000000 0 0 1
-21.598367 4.611045 -17.302020 28.055500 -0.210333 2.235349 0.039839 -0.015840 -420039.000000 0 0 1
-20.487467 4.040645 -17.963220 27.545242 -0.194726 2.281194 0.045871 -0.015905 -115430.000000 0 0 1
-19.409467 4.962245 -17.900320 26.865828 -0.250300 2.300013 0.032797 -0.013347 174367.000000 0 0 1
-18.103167 4.223345 -18.322720 26.101405 -0.229194 2.348973 0.025652 -0.017253 -50711.900000 0 0 1
-17.868467 3.179845 -17.388420 25.134651 -0.176115 2.334790 0.031404 -0.015366 -102620.000000 0 0 1
-16.737267 2.450545 -17.793520 24.550980 -0.145380 2.381479 0.012097 -0.011267 -696020.000000 0 1 0
-16.814867 0.937445 -17.419020 24.228925 -0.055693 2.373065 -0.004231 -0.011103 80832.000000 0 1 0
-17.741567 0.007945 -17.980920 25.260181 -0.000448 2.362895 -0.002910 -0.018048 1675350.000000 0 0 1
-19.122767 0.228645 -17.576420 25.974276 -0.011956 2.314048 0.011855 -0.024419 659161.000000 0 0 1
-20.204467 -0.718255 -17.990620 27.062867 0.035534 2.297984 0.008323 -0.025748 -620604.000000 0 0 1
-20.093167 -1.966555 -17.242420 26.550023 0.097561 2.277633 -0.005395 -0.019662 460327.000000 0 0 1
-21.132967 -2.846255 -17.641720 27.675508 0.133878 2.261979 0.018405 -0.016922 104709.000000 0 0 1
-21.404667 -4.060255 -16.714320 27.459314 0.187463 2.225210 0.023914 -0.017387 -127783.000000 0 0 1
-21.739067 -3.611955 -15.429320 26.901620 0.164646 2.181625 0.022923 -0.021368 308554.000000 0 0 1
-21.994267 -4.653355 -14.516520 26.760621 0.208497 2.144157 0.025194 -0.024340 -81147.500000 0 0 1
-22.199467 -3.992555 -13.096520 26.082095 0.177947 2.096853 0.022390 -0.021276 -422996.000000 0 0 1
-23.392767 -3.274255 -12.969720 26.947280 0.139065 2.072933 0.030678 -0.026358 -24719.000000 0 0 1
-23.457667 -2.522655 -11.807020 26.382412 0.107129 2.034802 0.027528 -0.029960 -820090.000000 0 0 1
-24.602767 -1.541455 -11.667420 27.272714 0.062572 2.012860 0.064424 -0.042422 -688200.000000 0 0 1
-24.796167 -1.253055 -10.281720 26.872547 0.050491 1.963417 0.065387 -0.037745 584063.000000 0 0 1
-25.527437 -0.038955 -10.139820 27.467572 0.001526 1.948897 0.075266 -0.037764 -339407.000000 0 0 1
-25.898217 0.287245 -8.672220 27.313139 -0.011091 1.893900 0.093353 -0.021883 -351588.000000 0 0 1
-24.804067 0.517045 -7.822720 26.013535 -0.020842 1.876241 0.068734 -0.016143 176943.000000 0 0 1
-25.258637 1.024545 -6.577520 26.121106 -0.040540 1.825345 0.059859 -0.013270 -132594.000000 0 0 1
-24.151667 1.449445 -5.594820 24.833564 -0.059942 1.798040 0.039536 -0.006096 -88773.800000 0 1 0
-23.801567 2.844445 -5.662520 24.630663 -0.118943 1.802768 0.061524 -0.009957 -200569.000000 0 1 0
-22.514167 3.054145 -5.174820 23.302237 -0.134831 1.794737 0.052925 -0.008249 -754796.000000 0 1 0
-22.187767 4.583345 -5.187920 23.242602 -0.203706 1.795900 0.071457 -0.018982 -265944.000000 0 1 0
-22.892667 5.430345 -4.306220 23.918745 -0.232904 1.751819 0.083820 -0.018591 458510.000000 0 1 0
-22.814067 6.847345 -4.635220 24.266294 -0.291582 1.762992 0.112214 -0.017623 -935985.000000 0 1 0
-23.130167 7.725145 -3.411220 24.623544 -0.322338 1.709778 0.081685 -0.011415 -44359.000000 0 1 0
-22.234167 7.667145 -2.281320 23.629382 -0.332067 1.667493 0.054181 -0.012128 1399390.000000 0 1 0
-20.861067 7.976645 -2.529020 22.476808 -0.365216 1.683552 0.062870 -0.013604 26580.100000 0 1 0
-20.436267 9.451345 -2.790020 22.688172 -0.433183 1.694081 0.050828 -0.009824 -846123.000000 0 1 0
-20.430267 9.912145 -4.139820 23.082126 -0.451713 1.751124 0.056285 -0.002792 781898.000000 0 1 0
-19.671367 11.123345 -4.186920 22.983076 -0.514634 1.753993 0.047021 -0.001304 -156809.000000 0 1 0
-19.445167 11.696345 -5.561220 23.363351 -0.541525 1.811135 0.042511 -0.006060 -291581.000000 0 1 0
-18.420967 10.999045 -6.226620 22.340139 -0.538280 1.853256 0.030761 -0.007165 -291908.000000 0 1 0
-18.246167 11.614045 -7.475920 22.884449 -0.566840 1.903586 0.034777 -0.002313 508034.000000 0 1 0
-16.960467 11.170945 -8.277020 21.930721 -0.582429 1.957801 0.023208 0.001306 -16973.000000 0 1 0
-16.903467 9.792645 -8.647520 21.363583 -0.525081 1.987533 0.026530 -0.000383 165402.000000 0 1 0
-17.876067 9.317145 -9.554520 22.308111 -0.480470 2.013405 0.041047 0.005242 -108789.000000 0 1 0
-17.950967 10.021345 -10.931920 23.284575 -0.509164 2.059512 0.045590 0.010372 -483694.000000 0 1 0
-16.817967 9.640245 -11.663420 22.623300 -0.520489 2.112445 0.029659 0.009562 -12777.800000 0 1 0
-16.813567 10.282345 -12.918920 23.565253 -0.548869 2.151030 0.032301 0.008616 625381.000000 0 1 0
-15.566467 9.892545 -13.805820 23.038620 -0.566117 2.213356 0.011923 0.010360 280814.000000 0 1 0
-15.651467 8.705045 -14.584520 23.096633 -0.507576 2.254227 0.010090 -0.000574 135785.000000 0 1 0
-15.523467 7.509845 -13.801120 22.087252 -0.450583 2.245730 0.002726 0.005838 -379271.000000 0 1 0
-15.409367 6.291145 -14.745320 22.236266 -0.387613 2.295776 0.000742 0.009728 -256910.000000 0 1 0
-14.406267 6.321345 -15.729120 22.246463 -0.413494 2.356099 0.012474 0.005299 307275.000000 0 1 0
-14.503067 5.059945 -16.373820 22.450923 -0.335684 2.388118 0.000686 0.003887 79075.500000 0 1 0
31.293312 -16.140155 28.753069 45.458937 -0.476184 0.886011 0.004499 0.011679 -290436.000000 0 0 1
30.896642 -14.846555 29.078839 44.951102 -0.447945 0.867285 -0.003965 0.007839 -1617.800000 0 0 1
29.652722 -14.785755 29.759219 44.536655 -0.462551 0.839015 0.007806 0.000467 314449.000000 0 0 1
29.751192 -14.773555 31.292329 45.635526 -0.460900 0.815230 0.020985 -0.009453 -61642.500000 0 0 1
30.287672 -13.570655 31.789669 45.957467 -0.421238 0.806929 0.019378 -0.009122 -56223.900000 0 0 1
30.465862 -13.562655 33.187208 47.047903 -0.418835 0.787820 0.011259 -0.016882 -128089.000000 0 0 1
30.880182 -12.145155 33.587977 47.214856 -0.374717 0.779328 0.017562 -0.019532 33671.700000 0 0 1
30.656212 -11.976455 -34.200833 47.465101 -0.372437 2.375387 0.006537 -0.026453 113235.000000 0 0 1
30.989192 -10.608855 -33.806630 47.071924 -0.329835 2.371995 0.013927 -0.022777 -459051.000000 0 0 1
30.773662 -10.251355 -32.333480 45.799154 -0.321559 2.354608 0.012191 -0.024115 244938.000000 0 0 1
29.395402 -10.157455 -32.002380 44.625283 -0.332701 2.370480 0.039638 -0.030621 294940.000000 0 0 1
29.204542 -9.888855 -30.638560 43.467414 -0.326489 2.353026 0.017891 -0.023140 29580.200000 0 0 1
27.704202 -10.048255 -30.269800 42.246314 -0.347942 2.369579 0.008759 -0.005723 278950.000000 0 0 1
27.412792 -9.987255 -28.886780 41.056698 -0.349382 2.351223 -0.000404 -0.008147 -532851.000000 0 0 1
26.444122 -10.878255 -28.500430 40.372051 -0.390267 2.354552 0.011765 -0.002636 -1335350.000000 0 0 1
25.983782 -10.763955 -27.020380 39.001546 -0.392736 2.336165 0.008602 0.001734 -296548.000000 0 0 1
25.102802 -9.646355 -26.705290 37.899543 -0.366876 2.352703 -0.003172 -0.002743 1517950.000000 0 0 1
23.834702 -9.476155 -27.378130 37.516030 -0.378417 2.388784 0.001428 -0.004975 29329.300000 0 0 1
22.833402 -10.554155 -27.241940 37.079344 -0.432973 2.396011 0.007039 0.003634 -1761890.000000 0 0 1
23.175802 -11.653555 -28.077980 38.226903 -0.465911 2.395738 0.009127 -0.005046 -63802.100000 0 0 1
22.413702 -12.798955 -27.826180 37.953703 -0.518848 2.393755 0.011929 -0.016067 -688606.000000 0 0 1
23.177202 -14.017255 -28.355690 39.213662 -0.543931 2.379087 0.001869 0.004751 166532.000000 0 0 1
23.285202 -13.905955 -29.799880 40.294032 -0.538359 2.403214 0.002756 -0.010476 327769.000000 0 0 1
24.216902 -14.811455 -30.387020 41.583753 -0.548917 2.390205 -0.006996 -0.005261 44666.300000 0 0 1
24.256902 -14.649755 -31.924210 42.686857 -0.543313 2.415644 0.008095 -0.019431 -681869.000000 0 0 1
23.190302 -15.305455 -32.539230 42.788416 -0.583369 2.434830 0.011962 -0.016244 -400550.000000 0 0 1
23.365502 -15.694355 -33.870690 44.039563 -0.591472 2.448223 0.020480 -0.015610 -102302.000000 0 0 1
23.418502 -14.611455 34.192097 43.943376 -0.557828 0.679170 0.005790 -0.016206 -568272.000000 0 0 1
22.183502 -13.995955 34.039788 42.973267 -0.562843 0.656529 0.006904 -0.015859 -543748.000000 0 0 1
22.385902 -12.922055 33.146745 42.033496 -0.523517 0.662301 0.009182 -0.015261 -726987.000000 0 0 1
21.437702 -11.722255 33.179821 41.205423 -0.500387 0.634734 0.024503 -0.022346 -556268.000000 0 0 1
20.072402 -11.963855 33.030769 40.460683 -0.537499 0.615704 0.027065 -0.017443 -316519.000000 0 0 1
19.644702 -12.160055 31.720059 39.242113 -0.554272 0.629509 0.019995 -0.002653 -511010.000000 0 0 1
18.126102 -12.471655 31.617839 38.519936 -0.602660 0.607956 0.019369 -0.003448 551899.000000 0 0 1
17.324302 -11.290355 31.632729 37.791971 -0.577574 0.578978 0.032267 -0.009775 -331138.000000 0 0 1
16.315202 -11.359355 32.582589 38.168650 -0.608200 0.547847 0.025797 -0.010545 -487024.000000 0 0 1
15.568902 -10.043455 32.793099 37.664958 -0.572921 0.514269 0.027447 -0.010434 -601006.000000 0 0 1
14.602202 -9.743855 31.787199 36.312436 -0.588432 0.504574 0.012762 -0.006746 525113.000000 0 0 1
13.761602 -8.618055 32.072269 35.948338 -0.559490 0.468655 0.021698 -0.000647 882699.000000 0 0 1
12.715102 -8.760555 33.239999 36.651312 -0.603297 0.434869 0.015347 -0.001201 -1789610.000000 0 0 1
11.820702 -9.807255 32.966269 36.368752 -0.692571 0.436008 -0.005146 0.005150 219012.000000 0 0 1
10.599802 -9.705455 33.688959 36.626461 -0.741382 0.403230 -0.026771 0.014726 702208.000000 0 0 1
9.596902 -8.625355 33.177649 35.598507 -0.732132 0.370917 -0.049476 0.013248 -677279.000000 0 0 1
10.181102 -7.352755 33.438202 35.718779 -0.625468 0.359275 -0.003475 0.004942 -24584.300000 0 0 1
9.504602 -6.382055 32.665429 34.613557 -0.591321 0.337100 -0.002485 0.008869 -144393.000000 0 0 1
10.113702 -4.992055 32.727069 34.616017 -0.458509 0.331880 0.023731 0.010410 -197473.000000 0 0 1
9.771402 -4.308655 33.869528 35.513233 -0.415299 0.305437 0.020795 -0.004045 167227.000000 0 0 1
10.287502 -3.010455 33.820738 35.478696 -0.284684 0.306919 0.009885 -0.005562 -406838.000000 0 0 1
10.039502 -2.230155 -34.076025 35.594110 -0.218589 2.848483 0.003384 -0.010183 -64003.100000 0 0 1
8.730702 -1.757555 -33.835970 34.988384 -0.198652 2.884223 0.011875 -0.001517 90237.100000 0 0 1
8.656302 -1.019155 -32.589480 33.734914 -0.117196 2.880258 0.017889 -0.006266 -951595.000000 0 0 1
7.231402 -0.680955 -32.239670 33.047741 -0.093890 2.919999 0.017923 -0.003294 -1000970.000000 0 0 1
6.699502 0.355745 -33.036200 33.710538 0.053050 2.941239 0.021979 0.000763 757679.000000 0 0 1
5.341102 0.592445 -32.602250 33.042171 0.110470 2.978231 0.022315 0.004437 801908.000000 0 0 1
4.655802 1.626445 -33.563490 33.923880 0.336084 2.995700 0.020291 0.004786 -116603.000000 0 0 1
5.283102 2.927945 -33.629410 34.167546 0.506069 2.963877 0.015186 -0.003248 -3751.970000 0 0 1
4.637602 3.726345 34.570987 35.079141 0.676876 0.170417 0.017767 -0.000120 -417827.000000 0 0 1
5.359602 5.023445 34.281009 35.059206 0.753034 0.211089 0.014602 -0.001815 -212857.000000 0 0 1
4.797602 5.909345 33.331966 34.190018 0.888861 0.224509 0.019880 -0.018463 -317464.000000 0 0 1
5.699102 6.947145 33.241277 34.434359 0.883768 0.264007 0.018181 -0.017861 -494298.000000 0 0 1
5.289002 7.964145 32.197499 33.586904 0.984572 0.288638 0.031326 -0.017268 -1219310.000000 0 0 1
4.003202 8.398645 32.440809 33.748614 1.126004 0.279300 0.033932 -0.012930 -873422.000000 0 0 1
3.508902 9.588945 31.799169 33.398315 1.219999 0.310703 0.043136 -0.025450 -62393.500000 0 0 1
3.342602 9.490845 30.319319 31.945426 1.232170 0.320439 0.040528 -0.026481 -664065.000000 0 0 1
2.220302 8.745445 29.953789 31.283255 1.322168 0.292582 0.047614 -0.027659 -462324.000000 0 0 1
2.061702 8.663845 28.583059 29.938338 1.337175 0.302042 0.027298 -0.013529 576101.000000 0 0 1
0.717702 8.018745 28.069599 29.201331 1.481531 0.279318 0.019011 -0.012316 1239070.000000 0 0 1
-0.475098 8.614745 28.568059 29.842479 -1.515703 0.293300 0.026562 -0.005953 -493135.000000 0 0 1
-1.555798 8.469445 27.716169 29.023060 -1.389126 0.301236 0.031515 -0.009577 -137849.000000 0 0 1
-2.902398 8.746245 28.421809 29.878419 -1.250386 0.313537 0.020156 -0.004884 -455663.000000 0 0 1
-3.170698 10.106645 28.738419 30.628326 -1.266797 0.353128 0.027846 -0.001815 -309348.000000 0 0 1
-4.486698 10.082445 29.223459 31.237745 -1.152107 0.361075 0.015006 0.005203 -661685.000000 0 0 1
-5.004298 11.311445 29.933209 32.388096 -1.154272 0.391850 0.004030 0.009374 -243135.000000 0 0 1
-5.095798 12.533745 29.243039 32.221379 -1.184642 0.433345 0.010218 0.003561 458718.000000 0 0 1
-6.105998 12.590045 28.230329 31.507839 -1.119232 0.460168 0.007383 -0.001167 87666.000000 0 0 1
-6.270898 13.951445 27.558619 31.518954 -1.148375 0.506700 -0.009867 0.005062 -37573.800000 0 0 1
-5.253198 14.298045 26.657899 30.702993 -1.218699 0.519131 -0.009188 0.009811 32768.400000 0 0 1
-5.495698 15.675345 26.299409 31.105917 -1.233592 0.563334 -0.031110 0.017396 623838.000000 0 0 1
-4.241298 16.291045 25.591189 30.631613 -1.316105 0.581845 0.003351 0.013138 346594.000000 0 0 1
-4.072498 15.879645 24.255749 29.276095 -1.319747 0.594342 -0.000900 0.010268 487163.000000 0 0 1
-2.991198 16.714145 23.767829 29.209923 -1.393709 0.620324 0.005992 0.012906 579074.000000 0 0 1
-2.713398 16.582745 22.252929 27.884455 -1.408606 0.646760 0.003972 0.008251 125187.000000 0 0 1
-1.987198 15.376745 21.916729 26.846532 -1.442275 0.615697 0.002364 0.003741 295879.000000 0 0 1
-2.053398 15.258445 20.523729 25.656579 -1.437025 0.643601 0.000106 0.001494 10919.500000 0 0 1
-1.213998 14.146345 19.850329 24.405500 -1.485189 0.620901 0.004111 -0.010163 -104454.000000 0 1 0
-1.757198 12.846645 20.024929 23.856274 -1.434857 0.574620 0.009706 -0.008870 -83010.100000 0 1 0
-1.030398 11.939745 19.281929 22.702687 -1.484710 0.556094 0.014242 -0.012082 -828384.000000 0 1 0
-1.738398 10.604845 19.116729 21.930210 -1.408317 0.512120 0.010522 -0.016454 -594947.000000 0 1 0
-1.949898 9.839445 20.326529 22.666816 -1.375160 0.458420 0.015594 -0.016933 162803.000000 0 1 0
-2.897898 10.256445 21.278529 23.798493 -1.295430 0.464351 0.021027 -0.011765 -872346.000000 0 1 0
-4.385498 10.236645 20.954529 23.730019 -1.166040 0.488498 0.026409 -0.009635 -986331.000000 0 1 0
-4.943998 8.991445 21.009729 23.381572 -1.068064 0.454321 0.025399 -0.007049 204492.000000 0 1 0
-6.364698 8.980545 20.940229 23.656981 -0.954242 0.483957 0.032930 -0.001060 400563.000000 0 1 0
-7.034898 7.622045 21.076129 23.490180 -0.825436 0.457337 0.032854 -0.000548 -195793.000000 0 1 0
-6.962298 7.113845 22.413829 24.524684 -0.796164 0.417934 0.031430 -0.001454 112508.000000 0 1 0
-7.399698 5.778145 22.441429 24.326122 -0.662962 0.396227 0.029701 0.002124 51405.700000 0 1 0
-7.332198 5.210045 23.851329 25.491010 -0.617785 0.360626 0.019620 0.001493 222155.000000 0 0 1
-8.303998 5.730145 24.757479 26.734317 -0.604015 0.386972 0.018468 0.001439 346504.000000 0 0 1
-8.582498 4.719645 25.775829 27.574040 -0.502778 0.363140 0.017358 0.007571 -284184.000000 0 0 1
-9.491398 5.201445 26.902709 28.998231 -0.501319 0.382495 0.009904 0.006520 -214425.000000 0 0 1
-8.931298 6.201845 27.740959 29.795835 -0.606954 0.373558 -0.003197 0.010317 -283894.000000 0 0 1
-9.976298 6.841845 28.425889 30.892856 -0.601139 0.402347 -0.014008 0.011288 2656.130000 0 0 1
-9.538698 8.145545 29.039699 31.632907 -0.706781 0.407734 0.007594 0.000791 -312401.000000 0 0 1
-8.606598 7.912745 30.042249 32.236963 -0.743420 0.371127 0.008123 0.000936 -45637.600000 0 0 1
-8.123398 9.176645 30.581879 32.946195 -0.846204 0.381151 0.009966 -0.002556 -134467.000000 0 0 1
-7.344198 8.945845 31.886039 33.921746 -0.883404 0.348201 0.012311 -0.004599 -214849.000000 0 0 1
-6.022598 8.545245 31.648379 33.330358 -0.956863 0.319043 0.009793 -0.006344 -521980.000000 0 0 1
-5.325498 7.962745 32.748819 34.121128 -0.981317 0.284574 0.026259 -0.005653 1047650.000000 0 0 1
-3.803498 7.756045 32.433469 33.564159 -1.114865 0.260301 0.006403 -0.004235 687401.000000 0 0 1
-3.095898 8.956345 32.360499 33.719469 -1.237988 0.284872 0.002225 -0.007180 -152462.000000 0 0 1
-1.702598 8.775545 32.126479 33.346959 -1.379161 0.271385 0.016550 -0.013716 375566.000000 0 0 1
-1.159098 10.024645 31.491769 33.069148 -1.455683 0.310108 0.017104 -0.012120 -297778.000000 0 0 1
-1.183098 11.115245 32.440899 34.312685 -1.464756 0.331826 0.014944 -0.019992 138201.000000 0 0 1
-1.474098 12.428145 31.837619 34.209147 -1.452738 0.374541 0.013727 -0.014315 -40128.800000 0 0 1
-1.709298 13.533745 32.872389 35.590419 -1.445163 0.393350 0.000881 -0.023690 262374.000000 0 0 1
-0.453598 13.867445 33.495371 36.255367 -1.538098 0.392715 0.013510 -0.017819 894543.000000 0 0 1
-0.768498 14.696445 -34.513653 37.520239 -1.518552 2.738539 0.012902 -0.013876 1012070.000000 0 0 1
0.611602 15.043245 -33.846240 37.043774 1.530162 2.723050 -0.005823 -0.014703 688739.000000 0 0 1
1.299802 15.960645 34.462446 38.001209 1.489538 0.434982 0.003803 -0.013829 109002.000000 0 0 1
2.553702 16.332245 -34.180351 37.967881 1.415693 2.691126 0.019229 -0.017462 -438212.000000 0 0 1
3.281002 17.389545 34.187545 38.496097 1.384312 0.477649 0.031103 -0.009136 -274384.000000 0 0 1
2.802202 18.707545 34.213875 39.094933 1.422112 0.505054 0.018793 -0.006708 -170648.000000 0 0 1
3.756802 19.501745 33.575752 39.009778 1.380488 0.534151 0.002884 0.006958 -107334.000000 0 0 1
3.458402 20.994545 33.754002 39.900678 1.407534 0.562451 0.001171 -0.000085 6123.850000 0 0 1
3.767202 21.507445 -34.115536 40.504713 1.397397 2.572260 0.008055 -0.007832 -165659.000000 0 0 1
3.164302 22.770045 -33.983740 41.029042 1.432713 2.546836 -0.002539 -0.003568 -39231.900000 0 0 1
3.341302 23.447245 -32.588030 40.285447 1.429246 2.513123 0.001089 -0.004400 -298855.000000 0 0 1
2.921102 24.767245 -32.520940 40.982445 1.453397 2.487390 -0.000334 -0.008147 -39269.800000 0 0 1
2.931302 25.198245 -31.182210 40.197939 1.454987 2.458646 0.010610 -0.003373 287720.000000 0 0 1
2.212602 26.581445 -30.878380 40.803715 1.487749 2.429130 0.001699 -0.008512 65159.600000 0 0 1
3.094702 27.616845 -31.140930 41.737571 1.459203 2.413001 -0.004555 -0.006350 -265037.000000 0 0 1
2.549102 28.822145 -30.683000 42.174168 1.482583 2.385512 -0.015933 -0.004820 -381227.000000 0 0 1
3.491402 30.064045 -30.645120 43.071569 1.455182 2.362417 -0.016493 -0.006004 -124209.000000 0 0 1
4.394502 29.790345 -29.570020 42.203819 1.424338 2.347102 0.022279 -0.019697 -8156.470000 0 0 1
5.087302 31.031445 -29.319170 42.993545 1.408302 2.321213 0.048030 -0.026008 -681843.000000 0 0 1
6.153902 30.957245 -28.198180 42.324448 1.374567 2.299950 0.066021 -0.036394 612684.000000 0 0 1
7.382102 30.421445 -28.728420 42.488608 1.332737 2.313313 0.079764 -0.035372 928495.000000 0 0 1
8.436602 31.340445 -29.092420 43.586335 1.307838 2.301598 0.095367 -0.039660 419678.000000 0 0 1
8.189702 32.549345 -30.028470 45.035986 1.324304 2.300657 0.094268 -0.038960 -1028180.000000 0 0 1
7.447502 33.630445 -29.411050 45.293288 1.352862 2.277521 0.072756 -0.036537 619663.000000 0 0 1
6.935502 -34.524449 -30.281780 46.443782 -1.372548 2.281028 0.083790 -0.037098 291780.000000 0 0 1
5.782802 34.262745 -31.242150 46.727384 1.403594 2.303127 0.026226 -0.017532 -154630.000000 0 0 1
6.152502 33.468945 -32.346540 46.950210 1.388999 2.330841 0.026504 -0.022980 651269.000000 0 0 1
4.935602 32.962545 -32.919380 46.846292 1.422167 2.349996 0.011755 -0.008952 800365.000000 0 0 1
5.064802 32.480445 -34.414242 47.591717 1.416108 2.379096 0.002807 -0.004575 -47603.600000 0 0 1
5.185102 33.506645 33.799336 47.874583 1.417266 0.786966 0.004921 -0.017904 93135.600000 0 0 1
5.591402 33.001745 32.539679 46.682006 1.402963 0.799522 0.009504 -0.012688 -269008.000000 0 0 1
5.079302 33.703245 31.268039 46.253630 1.421215 0.828458 -0.015055 -0.019381 -298776.000000 0 0 1
5.495302 -34.193149 30.986109 46.470514 -1.411445 0.840902 -0.013530 -0.009943 -83034.400000 0 0 1
5.051102 -33.697049 29.749039 45.232843 -1.422007 0.853053 -0.025036 -0.007175 54240.300000 0 0 1
17.727533 -22.932855 28.549109 40.684554 -0.912725 0.792989 0.027449 0.023831 -627743.000000 0 0 1
17.115633 -22.120755 29.455409 40.618885 -0.912276 0.759522 -0.004277 0.019545 -130888.000000 0 0 1
15.724833 -22.164555 29.160399 39.860591 -0.953751 0.750190 -0.013663 0.018269 455238.000000 0 0 1
14.922933 -22.176455 30.506869 40.560549 -0.978478 0.719506 -0.003208 0.016380 -57893.600000 0 0 1
15.255133 -23.353055 31.250059 41.888548 -0.992147 0.728718 0.032735 0.009323 66274.600000 0 0 1
14.780533 -23.340855 32.575899 42.713568 -1.006288 0.703382 0.028317 0.010018 99420.900000 0 0 1
15.609133 -24.226755 33.569876 44.243839 -0.998443 0.709409 0.046970 0.001207 -67284.400000 0 0 1
15.430433 -25.609915 33.291813 44.747188 -1.028527 0.731763 0.059842 -0.006097 591251.000000 0 0 1
16.264733 -26.516235 34.106949 46.162065 -1.020591 0.739431 0.051658 -0.007840 700724.000000 0 0 1
15.835033 -27.980385 33.924042 46.738537 -1.055803 0.758562 0.043495 -0.002109 -85282.300000 0 0 1
16.286333 -28.589555 32.746869 46.421598 -1.052984 0.787776 0.037248 -0.004844 161958.000000 0 0 1
15.664733 -29.834625 32.490799 46.809622 -1.087308 0.803620 0.036753 0.003305 -312231.000000 0 0 1
16.396133 -30.623985 31.388479 46.817713 -1.079230 0.835994 0.056546 -0.009655 2774.230000 0 0 1
17.568533 -31.297705 31.827899 47.970979 -1.059291 0.845333 0.049759 -0.019627 275486.000000 0 0 1
18.135133 -31.824195 30.589929 47.722177 -1.052838 0.874996 0.040818 -0.015582 361478.000000 0 0 1
19.530533 -32.512455 30.736639 48.818464 -1.029855 0.889744 0.018756 -0.013122 315029.000000 0 0 1
20.592333 -31.607055 30.878289 48.749552 -0.993360 0.884849 -0.001568 -0.013624 197481.000000 0 0 1
21.846933 -32.247245 31.084639 49.834005 -0.975343 0.897248 0.001267 -0.009408 727182.000000 0 0 1
23.022533 -31.224515 31.215279 49.793584 -0.935458 0.893237 -0.007874 -0.011742 190022.000000 0 0 1
23.388533 -30.496815 30.068799 48.797663 -0.916556 0.906896 -0.016058 -0.010326 61175.700000 0 0 1
24.398833 -29.536835 30.373199 48.890274 -0.880373 0.900456 -0.025977 -0.010592 15680.000000 0 0 1
25.638133 -29.662185 29.502459 49.066834 -0.858037 0.925706 -0.015910 -0.007180 -568075.000000 0 0 1
26.538033 -30.706605 29.784319 50.341518 -0.858090 0.937698 -0.014770 -0.004930 -119595.000000 0 0 1
27.433133 -30.841855 28.684459 50.265246 -0.843825 0.963485 -0.009737 -0.015236 464236.000000 0 0 1
28.744033 -31.585525 29.065799 51.659322 -0.832463 0.973216 -0.001884 -0.011659 574262.000000 0 0 1
28.389233 -32.961635 29.213189 52.400652 -0.859789 0.979429 -0.023431 -0.008936 1063390.000000 0 0 1
29.614733 -33.668455 29.501399 53.674294 -0.849368 0.988866 -0.013972 -0.013468 524807.000000 0 0 1
29.276333 34.047301 29.924599 53.961134 0.860599 0.982964 -0.029533 -0.005889 -294022.000000 0 0 1
28.754733 33.813017 31.239399 54.277572 0.866068 0.957521 -0.003451 -0.004758 775218.000000 0 0 1
27.642233 34.571643 31.745259 54.470662 0.896321 0.948632 0.002875 -0.001966 479983.000000 0 0 1
26.310433 34.510580 30.965899 53.311405 0.919414 0.951025 -0.013182 -0.001698 -386303.000000 0 0 1
25.649733 33.227039 31.080499 52.229707 0.913392 0.933440 -0.027944 0.002527 -300791.000000 0 0 1
24.320133 33.299444 30.631289 51.367282 0.939993 0.931889 -0.007796 0.002013 -87598.100000 0 0 1
23.570433 31.990739 30.702699 50.215818 0.935804 0.912949 0.012969 -0.010830 -150748.000000 0 0 1
23.956433 31.153219 29.640529 49.223924 0.915254 0.924596 0.004879 -0.014732 220204.000000 0 0 1
23.226733 29.930829 29.764809 48.179659 0.910853 0.904870 0.039852 -0.033055 -11421.200000 0 0 1
22.704833 29.416349 28.412629 46.777222 0.913461 0.918009 0.042158 -0.033459 -391377.000000 0 0 1
21.457233 29.931499 28.042669 46.289294 0.948832 0.920009 0.056592 -0.035296 -435293.000000 0 0 1
20.899233 29.322949 26.885549 44.938247 0.951580 0.929446 0.062594 -0.027550 195076.000000 0 0 1
19.441733 29.814869 26.746659 44.522928 0.992959 0.926371 0.081105 -0.019482 -77294.800000 0 0 1
19.453733 31.170169 26.329399 45.202482 1.012835 0.949024 0.085507 -0.024051 131050.000000 0 0 1
18.285733 31.568719 25.623069 44.581316 1.045785 0.958499 0.088910 -0.029407 -78964.600000 0 0 1
18.296533 32.978089 25.038319 45.268476 1.064269 0.984707 0.088790 -0.032793 -261873.000000 0 0 1
18.984833 33.124879 23.805929 44.993374 1.050369 1.013258 0.087577 -0.027704 -377780.000000 0 0 1
20.212533 33.765755 23.902529 46.043497 1.031399 1.024964 0.077889 -0.026525 -494974.000000 0 0 1
20.895433 34.069711 22.535429 45.882566 1.020645 1.057382 0.073901 -0.028103 91672.400000 0 0 1
20.273833 -34.052208 21.814029 45.237518 -1.033785 1.067620 0.073937 -0.016979 569268.000000 0 0 1
20.804533 -33.863345 20.486229 44.712865 -1.019880 1.094858 0.086721 -0.017694 -118179.000000 0 0 1
20.315933 -32.556665 19.844829 43.202903 -1.012904 1.093544 0.077194 -0.017539 -134226.000000 0 0 1
20.651033 -31.348945 20.539429 42.791233 -0.988296 1.070151 0.074570 -0.015781 244960.000000 0 0 1
20.135733 -30.204295 19.859729 41.378207 -0.982804 1.070191 0.067499 -0.022251 -149648.000000 0 0 1
20.990633 -29.601125 18.701029 40.823544 -0.953978 1.094946 0.051707 -0.014966 -355664.000000 0 0 1
21.039633 -30.376815 17.542629 40.904289 -0.965040 1.127555 0.049041 -0.015653 280390.000000 0 0 1
21.558233 -29.620995 16.465829 40.165710 -0.941654 1.148400 0.040732 -0.008275 -313100.000000 0 0 1
21.393533 -30.246985 15.052929 39.989424 -0.955191 1.184864 0.023410 -0.008575 168213.000000 0 0 1
22.183233 -31.439535 14.772029 41.215932 -0.956333 1.204237 0.039971 -0.001558 419722.000000 0 0 1
22.277533 -31.749715 13.401329 41.035698 -0.958957 1.238116 0.023972 0.001626 690716.000000 0 0 1
20.922333 -32.037405 12.638129 40.297167 -0.992273 1.251790 0.018504 -0.003050 527469.000000 0 0 1
20.194333 -33.159475 13.023629 40.950907 -1.023781 1.247145 0.019728 -0.003085 -773433.000000 0 0 1
19.165633 -33.483925 12.163829 40.453102 -1.050931 1.265381 0.005315 0.008299 -36079.400000 0 0 1
18.051833 -34.400476 12.812929 40.907610 -1.087541 1.252218 0.013587 0.003193 361651.000000 0 0 1
17.429833 -33.846065 13.955229 40.547548 -1.095242 1.219442 0.016960 0.002442 282108.000000 0 0 1
18.041333 -34.177196 15.202929 41.529501 -1.085097 1.196008 0.017585 -0.003509 -702611.000000 0 0 1
18.022033 -33.035465 16.290129 41.006145 -1.071387 1.162266 0.030639 -0.005840 1082010.000000 0 0 1
16.708733 -32.626935 16.747229 40.300972 -1.097504 1.142245 0.032719 -0.010102 2078770.000000 0 0 1
15.756333 -33.575035 17.374129 40.956140 -1.132019 1.132704 0.032322 -0.000487 508759.000000 0 0 1
16.272633 -34.219739 18.700129 42.254987 -1.126913 1.112351 0.024776 -0.012034 -73373.900000 0 0 1
17.150333 33.921400 18.358029 42.211521 1.102686 1.120863 0.021008 -0.008448 84325.200000 0 0 1
17.686533 33.265578 19.520529 42.431865 1.082130 1.092751 0.032579 -0.012121 325907.000000 0 0 1
18.474633 31.951449 19.347329 41.671648 1.046553 1.087974 0.046972 -0.012891 -311595.000000 0 0 1
17.647133 30.871569 19.010729 40.322238 1.051498 1.079839 0.037093 -0.014669 210043.000000 0 0 1
18.425533 29.673559 18.722929 39.630398 1.015121 1.078741 0.036923 -0.019626 226779.000000 0 0 1
17.645633 28.385739 18.432329 38.168957 1.014619 1.066817 0.039384 -0.018293 -358105.000000 0 0 1
17.111633 27.793569 19.536029 38.038755 1.018935 1.031442 0.046008 -0.019294 -266396.000000 0 0 1
16.671933 26.490809 19.248029 36.745107 1.009077 1.019460 0.042819 -0.016598 -543871.000000 0 0 1
16.521033 25.682319 20.590729 36.830750 0.999157 0.977540 0.045801 -0.016987 847917.000000 0 0 1
15.271633 25.852479 21.291729 36.809118 1.037227 0.953986 0.039938 -0.015023 1187650.000000 0 0 1
14.216733 25.001249 20.807129 35.498092 1.053754 0.944500 0.040626 -0.011946 251183.000000 0 0 1
12.903533 25.175369 21.605629 35.596398 1.097162 0.918565 0.031141 -0.014644 -3281.140000 0 0 1
12.251433 26.372369 21.205829 35.990091 1.135904 0.940712 0.041085 -0.017590 -833188.000000 0 0 1
11.024333 26.451059 21.845029 36.033314 1.175907 0.919465 0.021081 -0.013977 -424347.000000 0 0 1
10.108733 27.664029 21.401429 36.407501 1.220459 0.942422 0.008269 -0.008634 -46196.300000 0 0 1
10.601633 28.954869 21.691829 37.700325 1.219813 0.957734 0.014944 -0.011364 -168116.000000 0 0 1
10.428733 29.876859 20.657429 37.790403 1.234962 0.992460 0.011799 -0.011887 38778.800000 0 0 1
11.136033 31.200069 20.994529 39.220221 1.227967 1.005935 0.019063 -0.015558 -202409.000000 0 0 1
10.301333 31.996199 21.846829 40.089377 1.259321 0.994463 0.008753 -0.015163 98151.700000 0 0 1
10.808633 32.089099 23.179029 41.034183 1.245900 0.970519 0.013086 -0.013603 -25650.000000 0 0 1
9.986633 33.100349 23.999729 42.087444 1.277773 0.964005 -0.003045 -0.014358 509885.000000 0 0 1
8.758233 32.599779 24.529939 41.727331 1.308335 0.942382 -0.018575 -0.009127 225517.000000 0 0 1
8.292033 33.508812 25.536229 42.938296 1.328211 0.933880 -0.009001 -0.007437 187365.000000 0 0 1
6.950233 33.058799 26.261439 42.788469 1.363576 0.909994 0.003678 -0.011295 823383.000000 0 0 1
5.740833 33.584352 25.730739 42.695864 1.401495 0.923976 -0.004698 -0.015550 301710.000000 0 0 1
5.342933 33.075479 24.463699 41.485019 1.410642 0.940109 0.002451 -0.025172 -493292.000000 0 0 1
4.644333 31.664969 24.469469 40.286412 1.425164 0.918028 0.001476 -0.023530 -62642.400000 0 0 1
5.531233 30.660499 24.979559 39.932932 1.392313 0.894976 -0.015958 -0.018955 48262.700000 0 0 1
4.990033 29.371469 24.840799 38.789804 1.402509 0.875784 -0.022617 -0.011037 -163424.000000 0 0 1
6.098433 28.293839 25.162429 38.352054 1.358505 0.855169 -0.037458 0.003800 755125.000000 0 0 1
7.075033 28.096299 24.098769 37.685657 1.324111 0.876990 -0.038977 0.003506 1043110.000000 0 0 1
8.085533 29.097749 23.967529 38.555120 1.299759 0.899958 -0.018305 -0.000636 137745.000000 0 0 1
9.248333 29.027099 25.038779 39.434054 1.262354 0.882848 -0.008444 -0.007055 -195054.000000 0 0 1
8.890033 29.186489 26.392769 40.341815 1.275130 0.857634 -0.018721 -0.002006 -1101910.000000 0 0 1
9.971833 28.907509 27.162369 40.900804 1.238622 0.844502 -0.006383 0.000526 -473133.000000 0 0 1
10.833833 30.136959 27.593099 42.272773 1.225695 0.859602 0.002346 -0.013906 495867.000000 0 0 1
9.996533 30.992489 28.371089 43.190088 1.258785 0.854111 0.002558 -0.008833 577634.000000 0 0 1
10.606233 32.282419 28.473629 44.332768 1.253361 0.873339 -0.014361 0.004018 113761.000000 0 0 1
9.853533 33.331977 29.359009 45.497958 1.283365 0.869404 -0.004313 0.011407 -195983.000000 0 0 1
9.979933 33.263974 30.751119 46.386661 1.279319 0.846070 0.020248 -0.009944 -39791.600000 0 0 1
9.554933 32.086519 31.471789 45.949047 1.281371 0.816291 0.015583 -0.003837 -230345.000000 0 0 1
9.989533 32.059049 32.947369 47.043623 1.268733 0.794898 0.027709 -0.019678 -181856.000000 0 0 1
10.211133 30.764469 33.476409 46.598173 1.250324 0.769288 0.021119 -0.021384 118697.000000 0 0 1
10.459333 30.795769 -34.310441 47.275611 1.243385 2.382925 0.052252 -0.024536 -104590.000000 0 0 1
10.399433 29.344259 -33.797260 45.950936 1.230212 2.397212 0.049907 -0.016808 88438.500000 0 0 1
11.507933 28.565369 -34.248765 46.058557 1.187824 2.409223 0.045063 -0.006165 65430.000000 0 0 1
11.358433 27.172699 -34.064069 45.030327 1.174862 2.428694 0.051500 -0.012074 -522814.000000 0 0 1
12.554433 26.351799 -34.503061 45.193941 1.126193 2.439426 0.051784 -0.018384 -627857.000000 0 0 1
12.463633 24.954349 -34.222833 44.150469 1.107583 2.457734 0.036953 -0.015877 -225843.000000 0 0 1
12.890433 24.515399 -32.941260 43.038293 1.086715 2.442450 0.037461 -0.011878 -241278.000000 0 0 1
12.724233 22.978639 -32.850060 42.060080 1.065085 2.467105 0.018536 -0.022053 -361238.000000 0 0 1
13.605133 22.296139 -33.683500 42.623885 1.022910 2.482012 0.011640 -0.009970 -200308.000000 0 0 1
13.651033 20.860739 -33.401250 41.679307 0.991342 2.500407 0.008552 -0.005098 -26298.200000 0 0 1
15.003833 20.258839 -33.875540 42.226624 0.933334 2.501820 0.021128 -0.011921 58423.500000 0 0 1
16.099433 20.682339 -33.147200 42.257398 0.909357 2.472543 0.013083 -0.018198 -871197.000000 0 0 1
17.309333 20.096139 -33.524910 42.747952 0.859763 2.472276 0.020045 -0.020144 220111.000000 0 0 1
18.504533 20.383939 -32.556610 42.636317 0.833689 2.439649 0.014958 -0.019181 315699.000000 0 0 1
18.941833 21.768839 -32.635240 43.562992 0.854728 2.417575 0.009762 -0.020213 -761804.000000 0 0 1
19.881033 22.001339 -31.662330 43.379921 0.835980 2.388949 0.004390 -0.010657 -639038.000000 0 0 1
19.440233 22.413439 -30.227970 42.355815 0.856317 2.365516 -0.003388 -0.018949 4677.170000 0 0 1
18.836733 23.710939 -30.228060 42.787460 0.899460 2.355294 -0.008250 -0.005197 390846.000000 0 0 1
18.274533 24.154139 -28.988430 41.925053 0.923097 2.334269 -0.005496 0.007389 167830.000000 0 0 1
19.389233 24.667749 -28.019890 42.066072 0.904641 2.299754 -0.014739 0.007712 618806.000000 0 0 1
20.267433 25.709189 -28.415840 43.349639 0.903209 2.285645 -0.012057 0.015729 164477.000000 0 0 1
19.604133 26.980479 -28.575690 43.918542 0.942437 2.279239 -0.012272 0.019874 -7166.730000 0 0 1
20.433133 27.991159 -29.465520 45.488842 0.940228 2.275427 -0.017457 0.025094 -228442.000000 0 0 1
20.393233 27.768159 -30.893830 46.275083 0.937347 2.301794 -0.007857 0.022887 -18392.000000 0 0 1
20.961533 26.549509 -31.406670 46.158869 0.902475 2.319110 -0.009017 0.016417 8067.780000 0 0 1
22.441533 26.217889 -31.090270 46.450027 0.862851 2.304099 0.004384 0.016266 -61132.400000 0 0 1
23.299033 27.182089 -31.641050 47.779357 0.862168 2.294591 0.008295 0.017934 -88610.600000 0 0 1
24.668433 26.830939 -31.702700 48.306232 0.827364 2.286682 0.017062 0.009904 -7322.990000 0 0 1
25.564133 28.034899 -32.001830 49.634641 0.831463 2.271490 0.010574 0.010256 -450070.000000 0 0 1
25.603933 29.010769 -30.990180 49.573958 0.847697 2.246095 0.001346 0.011230 246360.000000 0 0 1
26.747633 29.833789 -31.211250 50.790087 0.839888 2.232567 0.004272 0.002720 530887.000000 0 0 1
26.841533 30.966159 -30.177600 50.892616 0.856628 2.205534 -0.010010 0.014135 139347.000000 0 0 1
27.373133 30.659149 -28.845360 50.212813 0.841962 2.182743 0.000039 0.004819 139380.000000 0 0 1
26.497333 31.227689 -27.900710 49.555290 0.867162 2.168834 -0.012091 0.006269 -367263.000000 0 0 1
27.009133 31.394229 -26.447390 49.138125 0.860340 2.139126 0.008282 0.012739 -212767.000000 0 0 1
27.243333 30.205449 -25.723490 48.127604 0.836914 2.134695 -0.004235 0.028731 929349.000000 0 0 1
26.037633 29.496979 -25.346850 46.802702 0.847609 2.143098 -0.013100 0.028347 1097160.000000 0 0 1
25.280633 29.919819 -24.039920 45.958935 0.869244 2.121250 -0.014602 0.032700 270662.000000 0 0 1
24.608533 31.180819 -24.023220 46.421315 0.902663 2.114728 0.006312 0.026234 424855.000000 0 0 1
23.872533 31.311789 -22.799220 45.498685 0.919398 2.095661 -0.021373 0.034664 348944.000000 0 0 1
2.627433 -26.305165 -19.915220 33.098053 -1.471244 2.216429 0.004493 0.013713 -97747.000000 0 0 1
2.802033 -27.397735 -19.061020 33.493428 -1.468878 2.176204 0.007487 0.013385 69910.700000 0 0 1
2.946433 -26.937335 -17.787220 32.414297 -1.461848 2.151660 0.022837 0.006566 -139587.000000 0 0 1
2.765533 -28.065445 -16.742320 32.796686 -1.472575 2.106549 0.020845 -0.005120 200967.000000 0 0 1
3.976533 -28.785345 -16.568420 33.450283 -1.433521 2.088993 0.016213 -0.003459 142954.000000 0 0 1
3.895633 -29.720645 -15.546920 33.766839 -1.440464 2.049264 0.014234 -0.010417 1130920.000000 0 0 1
5.297133 -30.296845 -15.072220 34.250989 -1.397705 2.026453 0.038227 -0.002683 1478860.000000 0 0 1
6.162833 -29.498525 -14.288920 33.351412 -1.364839 2.013557 0.017531 0.012513 -665597.000000 0 0 1
7.481433 -29.875815 -14.110620 33.876921 -1.325425 2.000417 0.017628 0.017575 -553203.000000 0 0 1
7.757933 -30.718365 -12.881620 34.201456 -1.323419 1.956962 0.016383 0.010207 -587774.000000 0 0 1
8.245233 -29.971905 -11.764220 33.236965 -1.302338 1.932587 0.015243 -0.000726 24699.400000 0 0 1
8.189533 -30.726325 -10.535920 33.498972 -1.310320 1.890742 0.024536 -0.001070 448.023000 0 0 1
9.308233 -31.767615 -10.313920 34.672778 -1.285765 1.872832 0.025583 -0.001825 84361.100000 0 0 1
10.510333 -31.260675 -9.789620 34.402523 -1.246454 1.859345 0.023629 -0.003425 332710.000000 0 0 1
11.513433 -32.254965 -9.562020 35.558039 -1.227943 1.843061 0.024976 -0.009668 50278.600000 0 0 1
12.764533 -31.765795 -8.835920 35.356365 -1.188711 1.823384 0.031888 -0.010429 -642947.000000 0 0 1
13.611433 -31.061605 -9.714720 35.277049 -1.157792 1.849785 0.020751 -0.014737 107337.000000 0 0 1
14.581533 -30.386945 -8.907620 34.861630 -1.123389 1.829175 0.025015 -0.014093 339806.000000 0 0 1
15.825133 -29.800635 -9.644820 35.093236 -1.082631 1.849214 0.042199 -0.016475 257931.000000 0 0 1
15.836533 -28.474795 -10.149020 34.126417 -1.063236 1.872759 0.036854 -0.016758 -217265.000000 0 0 1
14.885733 -28.257065 -11.153420 33.829655 -1.085942 1.906775 0.017602 -0.017345 -382579.000000 0 0 1
14.506633 -26.755095 -11.355720 32.484302 -1.073961 1.927914 0.010561 -0.007023 -1168420.000000 0 0 1
13.632833 -26.289455 -10.339420 31.367072 -1.092406 1.906704 0.005086 -0.005841 250350.000000 0 0 1
13.195833 -24.947855 -10.452120 30.096051 -1.084268 1.925478 -0.007692 0.003404 151868.000000 0 0 1
12.395833 -24.610255 -11.705820 29.939064 -1.104205 1.972501 -0.010676 0.001943 -1068060.000000 0 0 1
13.257133 -24.298355 -12.742120 30.471679 -1.071339 2.002218 -0.011503 0.002161 -215434.000000 0 0 1
12.582233 -24.127755 -14.004320 30.603629 -1.090110 2.046094 -0.000174 -0.004596 -157348.000000 0 0 1
13.511433 -23.499655 -15.052820 31.006128 -1.048990 2.077707 0.007273 -0.002383 432974.000000 0 0 1
14.393633 -24.405655 -15.731720 32.408327 -1.037936 2.077642 0.003818 -0.004964 338174.000000 0 0 1
14.923133 -23.862355 -16.949320 32.854091 -1.011921 2.112850 0.005948 -0.010367 -501394.000000 0 0 1
15.910933 -24.839955 -17.627820 34.364534 -1.001102 2.109432 0.014696 -0.010282 971835.000000 0 0 1
17.174033 -25.037615 -16.968620 34.781657 -0.969576 2.080434 0.018069 -0.010258 672276.000000 0 0 1
18.150333 -24.028855 -17.221820 34.690222 -0.923876 2.090296 0.015354 -0.009039 -836926.000000 0 0 1
19.530233 -24.402455 -16.720220 35.446799 -0.895849 2.062013 0.022349 -0.006265 -524003.000000 0 0 1
20.141533 -25.317775 -17.600920 36.830198 -0.898775 2.069052 0.035004 -0.004426 163211.000000 0 0 1
21.374833 -25.884465 -17.153120 37.697726 -0.880533 2.043188 0.053198 -0.009240 894463.000000 0 0 1
22.065233 -26.889345 -18.154720 39.236529 -0.883624 2.051834 0.048129 -0.011851 -5023.870000 0 0 1
22.789433 -26.252935 -19.187820 39.708277 -0.855904 2.075125 0.050155 -0.001797 -238520.000000 0 0 1
23.231233 -27.170985 -20.148820 41.035686 -0.863406 2.084042 0.045020 -0.010107 -231817.000000 0 0 1
24.115433 -26.635065 -21.284920 41.761569 -0.835005 2.105606 0.044569 -0.002969 -320938.000000 0 0 1
23.704233 -25.408485 -21.934220 41.092478 -0.820085 2.133857 0.046444 0.008903 -453488.000000 0 0 1
23.997933 -24.247955 -21.242120 40.188204 -0.790580 2.127707 0.048369 0.014800 -428238.000000 0 0 1
23.326633 -22.969555 -21.759620 39.309201 -0.777685 2.157418 0.068026 0.015608 -154660.000000 0 0 1
23.644233 -22.437855 -23.054020 39.924866 -0.759225 2.186380 0.042833 0.028300 -171630.000000 0 0 1
23.013633 -23.185455 -24.074120 40.580240 -0.789117 2.205883 0.017550 0.018162 -251151.000000 0 0 1
22.288333 -22.201255 -25.005320 40.186211 -0.783441 2.242393 0.005124 0.013410 -15015.100000 0 0 1
23.101933 -21.401455 -25.842300 40.737526 -0.747207 2.257978 0.003276 0.015471 -473029.000000 0 0 1
22.322833 -20.701555 -26.721860 40.508284 -0.747733 2.291168 -0.004006 0.020886 -953386.000000 0 0 1
23.111333 -19.958555 -27.780310 41.282239 -0.712327 2.308967 -0.003886 0.016365 -18671.800000 0 0 1
22.251633 -19.142555 -28.591810 40.976385 -0.710430 2.343066 -0.004466 0.012566 374696.000000 0 0 1
22.828933 -18.735755 -29.816740 41.966971 -0.687237 2.360978 -0.003396 0.002885 -247708.000000 0 0 1
21.964333 -17.654355 -30.456810 41.493679 -0.677038 2.395005 0.017156 0.000400 -215928.000000 0 0 1
20.719733 -18.154755 -30.889660 41.389293 -0.719513 2.413312 0.016009 -0.010230 93870.400000 0 0 1
19.931933 -17.147255 -31.507030 41.036608 -0.710438 2.446163 0.021581 -0.010047 43491.600000 0 0 1
18.598033 -17.609055 -32.099780 41.065332 -0.758090 2.468145 0.007313 -0.001104 -233150.000000 0 0 1
18.797833 -18.334555 -33.259510 42.375812 -0.772922 2.473283 0.009723 0.003684 60083.900000 0 0 1
17.591933 -18.728355 -33.876960 42.519123 -0.816677 2.492688 0.002009 -0.003960 -365773.000000 0 0 1
17.777133 -19.345055 33.891037 42.881931 -0.827610 0.659443 0.029623 0.010878 -162903.000000 0 0 1
18.531833 -20.564555 34.001626 43.845642 -0.837344 0.683314 0.031323 0.011855 216606.000000 0 0 1
18.570133 -21.343955 32.827619 43.336668 -0.854781 0.711318 0.019315 0.007309 105364.000000 0 0 1
19.272733 -22.716755 33.089369 44.524101 -0.867236 0.732987 0.010147 0.009904 -60811.200000 0 0 1
18.617333 -23.498855 34.045105 45.363757 -0.900789 0.721991 0.018300 0.004030 -43173.700000 0 0 1
18.995033 -23.227155 -33.744860 45.155593 -0.885299 2.414789 0.021977 0.005173 -290221.000000 0 0 1
18.307233 -24.195155 -32.771600 44.660251 -0.923054 2.394692 0.025051 0.000621 -159356.000000 0 0 1
18.726733 -25.575635 -32.805010 45.617675 -0.938778 2.373345 0.028402 -0.006704 -281663.000000 0 0 1
19.602933 -25.823565 -31.771890 45.393661 -0.921490 2.346081 0.018148 -0.005247 -429492.000000 0 0 1
19.966133 -27.330155 -31.740830 46.401122 -0.939858 2.324101 0.011179 -0.007069 -284280.000000 0 0 1
18.904333 -28.161295 -31.319850 46.166712 -0.979601 2.316389 0.016753 -0.008792 -87149.400000 0 0 1
19.165633 -29.550215 -31.367880 47.164399 -0.995421 2.298391 0.013371 -0.003757 -352439.000000 0 0 1
18.040533 -30.433915 -30.791010 46.901709 -1.035705 2.286967 0.027762 -0.003293 1130650.000000 0 0 1
16.810533 -30.646785 -31.519800 47.067157 -1.069086 2.304570 0.024106 -0.004596 723044.000000 0 0 1
16.925733 -31.208425 -32.868350 48.381553 -1.073849 2.317682 0.025057 -0.005080 -668873.000000 0 0 1
15.632133 -31.897975 -33.345370 48.721228 -1.115127 2.324593 0.042242 -0.012218 -313034.000000 0 0 1
14.518533 -31.092825 -33.494610 47.952481 -1.133943 2.344090 0.058302 -0.008728 -851094.000000 0 0 1
13.387633 -31.890685 -33.781820 48.347242 -1.173340 2.344421 0.034681 -0.008236 365601.000000 0 0 1
12.254333 -31.033305 -34.433618 47.946937 -1.194714 2.371952 0.036718 -0.003899 381202.000000 0 0 1
11.591833 -30.104155 -33.569970 46.557208 -1.203237 2.376110 0.047056 -0.006945 -23046.400000 0 0 1
10.999233 -29.115875 -34.377004 46.373437 -1.209596 2.405814 0.016318 0.003959 -213846.000000 0 0 1
10.098633 -28.088845 -33.652680 44.982980 -1.225662 2.416021 0.026699 0.002491 467812.000000 0 0 1
8.945433 -28.754605 -33.145770 44.782699 -1.269191 2.404085 0.048467 -0.004252 -532772.000000 0 0 1
8.103133 -27.973755 -32.396780 43.563093 -1.288844 2.409347 0.025844 -0.004219 -15738.600000 0 0 1
7.064833 -28.792185 -31.570150 43.307922 -1.330177 2.387612 0.012191 -0.002857 536427.000000 0 0 1
5.978833 -29.448705 -32.191740 44.037266 -1.370493 2.390599 -0.005493 0.008183 251895.000000 0 0 1
6.410833 -30.546225 -32.985880 45.411881 -1.363926 2.383824 0.004940 0.005037 -305104.000000 0 0 1
5.199033 -31.281485 -33.556940 46.169573 -1.406100 2.384476 0.015449 -0.001689 332660.000000 0 0 1
4.265933 -31.714365 -32.572460 45.661409 -1.437088 2.365060 0.006576 -0.013588 555290.000000 0 0 1
3.203533 -32.519815 -33.075720 46.495206 -1.472603 2.362255 0.001935 -0.020616 859489.000000 0 0 1
2.054733 -33.004665 -32.113490 46.095619 -1.508621 2.341543 -0.017148 -0.007069 292137.000000 0 0 1
1.251433 -31.934235 -31.784390 45.073372 -1.531629 2.353459 -0.050679 0.012735 -56662.400000 0 0 1
0.225833 -32.210395 -30.825280 44.584284 -1.563785 2.334212 -0.056435 0.017782 435032.000000 0 0 1
-0.806867 -31.078365 -30.678970 43.677397 1.544840 2.349559 -0.054164 0.018824 -551724.000000 0 0 1
-1.762567 -31.246785 -29.687850 43.137416 1.514448 2.329823 -0.045546 0.024328 -402553.000000 0 0 1
-2.339967 -30.034325 -29.292790 42.019087 1.493044 2.342184 -0.052752 0.024764 -622758.000000 0 0 1
-2.830167 -29.984285 -27.798190 40.985443 1.476687 2.316169 -0.040627 0.025172 -495001.000000 0 0 1
-1.877767 -30.123735 -26.750810 40.330773 1.508542 2.295997 -0.043403 0.027844 -431127.000000 0 0 1
-2.405867 -30.173195 -25.424490 39.529920 1.491229 2.269428 -0.022882 0.022704 -293111.000000 0 0 1
-1.508867 -30.813315 -24.377520 39.319213 1.521867 2.239526 -0.031999 0.022901 -192596.000000 0 0 1
-2.010667 -30.726085 -23.057020 38.467665 1.505451 2.213531 0.005469 0.006275 -445462.000000 0 0 1
-1.085767 -31.291335 -22.144120 38.349558 1.536112 2.186372 0.003746 0.000929 142877.000000 0 0 1
-1.594467 -31.418065 -20.673020 37.643205 1.520090 2.152183 -0.014196 0.006718 -99315.900000 0 0 1
-1.741167 -30.155135 -19.944520 36.195962 1.513120 2.154376 -0.012044 0.003794 929400.000000 0 0 1
-0.493367 -29.543265 -19.514320 35.409837 1.554098 2.154477 0.004221 -0.000170 616539.000000 0 0 1
-0.557267 -27.982115 -19.220320 33.951878 1.550884 2.172569 0.008769 -0.005974 -292940.000000 0 0 1
-1.385867 -27.784715 -18.086120 33.181602 1.520959 2.147263 0.006251 -0.007330 157772.000000 0 0 1
-1.053867 -26.568165 -17.437120 31.796716 1.531151 2.151238 0.012765 -0.005673 -497908.000000 0 0 1
-2.016667 -26.284555 -16.317020 31.003063 1.494222 2.125044 0.009236 -0.005276 -586390.000000 0 0 1
-1.888367 -25.099985 -15.609220 29.617949 1.495704 2.125885 0.001584 0.000021 491489.000000 0 0 1
-2.984267 -25.074475 -14.680520 29.208780 1.452337 2.097407 0.001508 0.001213 367684.000000 0 0 1
-2.872867 -23.915955 -13.692520 27.707605 1.451246 2.087687 0.005031 0.000386 -216497.000000 0 0 1
-1.790667 -23.993555 -12.802620 27.254435 1.496303 2.059798 0.004118 0.004748 -432822.000000 0 0 1
-1.622167 -22.837055 -12.087120 25.889399 1.499883 2.056550 0.001817 0.009094 193197.000000 0 0 1
-0.375967 -22.938155 -11.179920 25.520402 1.554407 2.024256 -0.009186 0.008777 194441.000000 0 0 1
-0.081167 -21.692055 -10.606920 24.146606 1.567055 2.025584 -0.010201 0.013953 655471.000000 0 1 0
1.230433 -21.736455 -10.006020 23.960548 -1.514250 2.001603 -0.016429 0.012870 1051080.000000 0 1 0
1.816333 -20.409455 -9.540220 22.602228 -1.482035 2.006548 -0.003652 0.015546 -962367.000000 0 1 0
2.226033 -19.533255 -10.609320 22.339672 -1.457325 2.065657 -0.004486 0.015641 69826.000000 0 1 0
3.152233 -18.500655 -10.342720 21.428548 -1.402032 2.074487 -0.004875 0.012176 142583.000000 0 1 0
4.493633 -18.818555 -9.649520 21.620453 -1.336398 2.033439 0.003076 -0.002303 -569028.000000 0 1 0
4.369233 -19.425455 -8.358220 21.593942 -1.349555 1.968241 0.006440 0.005777 -1066880.000000 0 1 0
5.482633 -20.164255 -8.012820 22.379940 -1.305316 1.936960 0.008716 0.005389 -963042.000000 0 1 0
5.167433 -21.318555 -7.047220 23.040105 -1.332991 1.881646 0.010932 0.008748 -594933.000000 0 1 0
4.428633 -22.320155 -7.669620 24.013021 -1.374926 1.895886 0.007361 0.011798 -50286.500000 0 1 0
4.265933 -23.471155 -6.851020 24.819947 -1.391007 1.850456 0.008549 0.003780 283351.000000 0 1 0
3.312433 -24.560255 -7.445820 25.876989 -1.436736 1.862662 0.005156 0.004502 512568.000000 0 0 1
3.881333 -25.156745 -8.566420 26.857217 -1.417717 1.895430 0.005396 0.003660 705130.000000 0 0 1
2.784733 -25.710835 -9.322320 27.490133 -1.462907 1.916772 -0.009406 0.004399 913916.000000 0 0 1
3.180933 -26.507365 -10.589620 28.721051 -1.451366 1.948413 -0.011556 0.003226 321285.000000 0 0 1
3.934933 -27.693665 -10.237720 29.786468 -1.429653 1.921654 -0.005423 0.002730 183434.000000 0 0 1
4.272433 -28.355855 -11.412320 30.863396 -1.421249 1.949556 0.011601 0.010177 181404.000000 0 0 1
4.502633 -29.866925 -11.248020 32.230806 -1.421167 1.927283 0.011154 0.003374 28976.500000 0 0 1
3.248533 -30.507745 -11.285520 32.690036 -1.464714 1.923278 0.013637 0.005624 321470.000000 0 0 1
3.475133 -31.926775 -11.195820 34.010908 -1.462376 1.906235 0.020710 0.005833 255453.000000 0 0 1
2.217733 -32.657075 -11.714020 34.765229 -1.502991 1.914468 0.022830 -0.002229 117026.000000 0 0 1
1.763933 -32.520005 -13.043920 35.082845 -1.516608 1.951747 0.026481 -0.006047 327466.000000 0 0 1
0.953133 -33.639195 -13.365520 36.209681 -1.542470 1.948852 0.027875 -0.005999 -200834.000000 0 0 1
0.519833 -33.660255 -14.861320 36.798666 -1.555354 1.986523 0.039347 -0.003251 22464.700000 0 0 1
-0.500667 -32.740965 -15.187720 36.095544 1.555506 2.005084 0.026807 0.004996 14511.300000 0 0 1
-0.996167 -33.017265 -16.502020 36.924907 1.540634 2.034102 0.005796 0.002546 -244946.000000 0 0 1
-1.975867 -31.967285 -16.981720 36.251761 1.509066 2.058319 0.004621 0.001262 168674.000000 0 0 1
-3.204467 -31.950385 -16.260520 35.993058 1.470836 2.039543 0.008019 0.002817 119053.000000 0 0 1
-4.255867 -31.481535 -17.092520 36.074280 1.436425 2.064414 0.008117 0.006700 979116.000000 0 0 1
-5.642867 -31.388485 -16.362720 35.844351 1.392921 2.044847 0.006457 0.006725 317477.000000 0 0 1
-5.697367 -30.429235 -15.336820 34.548754 1.385706 2.030763 -0.002103 0.005214 966920.000000 0 0 1
-7.071767 -30.093155 -15.014120 34.366141 1.339988 2.022931 0.012671 -0.001525 1369740.000000 0 0 1
-7.780967 -31.045465 -13.975520 34.923910 1.325224 1.982499 0.000126 0.008252 47729.200000 0 0 1
-7.958267 -32.303585 -14.547420 36.310922 1.329248 1.983006 0.001637 0.012220 -365453.000000 0 0 1
-8.417767 -33.261845 -13.641220 36.922784 1.322925 1.949216 0.003199 0.014489 -108275.000000 0 0 1
-8.913367 -34.514763 -14.321220 38.416329 1.318070 1.952810 0.025954 0.011662 -347795.000000 0 0 1
-7.910867 33.794558 -14.805020 37.733838 -1.340850 1.973986 0.025284 0.018051 -295500.000000 0 0 1
-8.422067 32.716779 -15.528620 37.181405 -1.318843 2.001648 0.041310 0.015138 -414357.000000 0 0 1
-7.144967 -22.082655 -3.447820 23.464477 1.257871 1.718268 0.027474 -0.006891 329543.000000 0 1 0
-6.971367 -20.942455 -4.226020 22.473220 1.249452 1.759970 0.018799 -0.010548 -499685.000000 0 1 0
-5.725567 -20.953655 -4.845520 22.255715 1.304059 1.790274 0.007762 -0.010352 -382967.000000 0 1 0
-5.759667 -19.877355 -5.979220 21.541450 1.288760 1.852058 0.006854 -0.014574 219656.000000 0 1 0
-6.648967 -20.230655 -7.030420 22.425766 1.253259 1.889670 0.012295 -0.012801 -80157.500000 0 1 0
-6.844267 -19.183655 -7.979320 21.875241 1.228098 1.944177 0.009042 -0.011755 -589605.000000 0 1 0
-7.767367 -19.500655 -9.120920 22.886649 1.191745 1.980705 0.015802 -0.014737 -40907.300000 0 1 0
-7.205367 -20.345155 -10.172120 23.860316 1.230424 2.011216 0.014992 -0.007009 -116396.000000 0 1 0
-8.144467 -20.542055 -11.207920 24.777527 1.193330 2.040186 0.032572 -0.003778 64498.900000 0 1 0
-7.639967 -21.438055 -12.351420 25.894340 1.228454 2.068027 0.028448 -0.002691 69150.200000 0 0 1
-6.784567 -20.733055 -13.244620 25.520773 1.254545 2.116447 0.026757 -0.003482 -199178.000000 0 0 1
-6.566067 -21.528755 -14.384620 26.711754 1.274767 2.139467 0.012161 0.000602 248098.000000 0 0 1
-5.399267 -20.982555 -15.251220 26.495649 1.318939 2.184149 0.000887 0.012985 -237568.000000 0 0 1
-4.144367 -20.938455 -14.663020 25.895923 1.375391 2.172720 0.006972 0.009357 297871.000000 0 0 1
-3.046067 -20.206255 -15.268620 25.508861 1.421174 2.212500 0.013489 0.007945 917878.000000 0 0 1
-3.102367 -18.648855 -15.359920 24.358399 1.405949 2.253097 0.022575 0.010451 -627.035000 0 1 0
-4.107467 -18.007955 -16.204420 24.571140 1.346541 2.290936 0.012278 0.013079 637798.000000 0 1 0
-4.021967 -18.244255 -17.582620 25.654972 1.353816 2.325880 0.017882 0.006658 -810016.000000 0 0 1
-5.371167 -18.057155 -18.325620 26.281907 1.281677 2.342380 0.009385 0.009979 323530.000000 0 0 1
-6.290067 -19.031755 -17.838220 26.832345 1.251595 2.298026 -0.002480 0.009665 -1059450.000000 0 0 1
-7.509467 -18.919855 -18.461420 27.480484 1.192957 2.307434 -0.010958 0.001986 -846164.000000 0 0 1
-8.569767 -19.844555 -17.854820 28.036438 1.163142 2.261193 0.029261 -0.008439 -215039.000000 0 0 1
-8.154067 -21.176155 -17.986220 28.955525 1.203236 2.241027 0.025581 -0.006699 158273.000000 0 0 1
-9.169867 -22.099455 -17.662520 29.739485 1.177480 2.206704 0.039108 -0.014329 -376078.000000 0 0 1
-8.847867 -23.578755 -17.943320 30.922567 1.211809 2.189852 0.023374 -0.017955 -841106.000000 0 0 1
-8.918867 -23.885255 -19.355820 32.010925 1.213425 2.220139 0.012600 -0.019850 655553.000000 0 0 1
-8.018567 -24.930055 -19.768820 32.811755 1.259604 2.217416 0.017074 -0.021985 1756200.000000 0 0 1
-6.451267 -24.681855 -19.602820 32.172711 1.315139 2.225973 0.024779 -0.015517 563926.000000 0 0 1
-5.982767 -23.589255 -20.410420 31.762111 1.322411 2.268687 0.024780 -0.009212 214656.000000 0 0 1
-5.625367 -22.415155 -19.733120 30.388813 1.324912 2.277532 0.018477 -0.006998 336460.000000 0 0 1
-4.420367 -22.482455 -18.704420 29.577960 1.376659 2.255414 0.013935 0.006266 -62165.300000 0 0 1
-3.204867 -22.733755 -19.363420 30.033928 1.430745 2.271451 0.015157 -0.005163 -837165.000000 0 0 1
-2.253067 -22.768655 -18.334720 29.319787 1.472163 2.246358 0.008741 0.001387 -144443.000000 0 0 1
-0.852767 -23.226255 -18.823320 29.908251 1.534097 2.251537 0.012469 0.000793 429362.000000 0 0 1
-0.176467 -22.247655 -19.639920 29.676855 1.562865 2.294004 0.018362 0.000012 295348.000000 0 0 1
1.199733 -22.619155 -19.766020 30.062619 -1.517805 2.288285 0.016961 -0.003376 862050.000000 0 0 1
1.865133 -21.751155 -20.872820 30.203743 -1.485257 2.333761 0.028747 -0.000201 175150.000000 0 0 1
1.356633 -22.172155 -22.104120 31.337470 -1.509686 2.353724 0.023862 -0.003122 -125546.000000 0 0 1
1.146833 -21.082755 -22.953720 31.187674 -1.516453 2.397920 0.028644 -0.003370 -135664.000000 0 0 1
0.498533 -21.476255 -24.299220 32.433473 -1.547587 2.417653 0.024313 -0.003550 -2325.670000 0 0 1
0.094733 -20.324955 -25.003320 32.222333 -1.566135 2.459036 0.024482 -0.000366 -293215.000000 0 0 1
-1.275867 -20.011855 -24.949620 32.009150 1.507127 2.464588 0.028350 -0.005800 -248460.000000 0 0 1
-1.723167 -18.818755 -25.826250 32.001719 1.479484 2.509896 0.027485 -0.003339 -158863.000000 0 0 1
-1.244167 -17.542055 -25.348470 30.851524 1.499990 2.535057 0.033046 -0.009857 365483.000000 0 0 1
-1.903867 -16.404455 -25.959300 30.767127 1.455255 2.575000 0.024212 -0.004337 170145.000000 0 0 1
-1.235867 -15.084755 -25.498900 29.652506 1.489051 2.605917 0.027603 -0.000548 264289.000000 0 0 1
0.134333 -14.976055 -25.863330 29.886654 -1.561827 2.616706 0.037518 -0.008286 -99444.600000 0 0 1
0.742333 -13.808755 -25.392790 28.914124 -1.517090 2.642911 0.034539 -0.007299 70780.300000 0 0 1
0.350433 -12.503455 -26.164680 29.000856 -1.542777 2.695648 0.021978 0.002370 -335255.000000 0 0 1
1.070133 -11.384855 -25.805480 28.225572 -1.477075 2.724471 0.013783 0.000830 -196377.000000 0 0 1
0.597833 -10.320855 -26.609940 28.547615 -1.512936 2.771033 0.011479 0.003188 -371772.000000 0 0 1
1.356633 -9.001855 -26.434750 27.958359 -1.421216 2.809936 0.024372 -0.001639 282401.000000 0 0 1
2.719833 -8.908755 -26.805900 28.378155 -1.274485 2.807159 0.034651 -0.002124 -219421.000000 0 0 1
2.913233 -8.946355 -28.204550 29.732488 -1.255992 2.819612 0.031519 -0.003187 188616.000000 0 0 1
4.378733 -8.605855 -28.639020 30.222963 -1.100127 2.816407 0.021860 -0.006366 395228.000000 0 0 1
4.539133 -7.247555 -28.650290 29.899329 -1.011264 2.851527 0.019074 -0.011421 588197.000000 0 0 1
5.775733 -6.778955 -29.213970 30.541273 -0.865137 2.845695 0.013689 -0.011642 -317210.000000 0 0 1
6.906033 -6.538355 -28.200270 29.760689 -0.758057 2.816333 0.028311 -0.012836 -173858.000000 0 0 1
7.630133 -7.647755 -27.703370 29.735228 -0.786552 2.769774 0.020877 -0.009528 653016.000000 0 0 1
8.383533 -8.365355 -28.717200 31.063489 -0.784313 2.750434 0.017758 -0.007942 -645551.000000 0 0 1
8.677333 -9.822955 -28.226570 31.121147 -0.847244 2.706877 0.021311 -0.003247 -164903.000000 0 0 1
7.581933 -10.708055 -28.236590 31.136043 -0.954682 2.706611 0.011839 -0.010171 -209508.000000 0 0 1
7.646533 -11.849955 -27.358930 30.779895 -0.997747 2.665641 0.023035 -0.013643 -25765.800000 0 0 1
8.653033 -12.995655 -27.701240 31.798124 -0.983366 2.628355 0.024311 -0.015803 -353987.000000 0 0 1
8.344633 -13.723455 -28.868830 33.035972 -1.024474 2.633883 0.024318 -0.017566 -147502.000000 0 0 1
9.300333 -14.737955 -29.086570 33.907699 -1.007861 2.601802 0.012358 -0.018111 -164062.000000 0 0 1
8.785133 -15.826755 -30.028530 35.062478 -1.064060 2.599109 0.011186 -0.013992 -239425.000000 0 0 1
8.510033 -15.223155 -31.257420 35.793734 -1.061055 2.632660 0.004348 -0.012881 -12126.800000 0 0 1
7.996533 -16.181955 -32.136430 36.858518 -1.111829 2.629837 0.019140 -0.013556 -600462.000000 0 0 1
7.051133 -15.615255 -33.199530 37.359918 -1.146651 2.665168 0.018569 -0.008320 -97027.400000 0 0 1
7.506433 -14.626055 -34.132331 37.885142 -1.096626 2.692733 0.005799 -0.008586 -86047.200000 0 0 1
6.334333 -14.100755 34.464637 37.772560 -1.148592 0.421625 -0.009254 -0.011669 174273.000000 0 0 1
6.557833 -12.789455 33.653207 36.593902 -1.096998 0.403634 -0.002483 -0.007169 -116236.000000 0 0 1
7.055433 -13.040655 32.369919 35.604065 -1.074863 0.429525 -0.015812 -0.003559 9858.650000 0 0 1
7.301533 -11.825355 31.709949 34.621847 -1.017647 0.413066 -0.020003 -0.003702 -327264.000000 0 0 1
7.748433 -11.935355 30.249499 33.429375 -0.994984 0.439704 -0.038424 0.003904 232846.000000 0 0 1
6.726833 -12.280155 29.296839 32.470868 -1.069659 0.445837 -0.018128 -0.001976 717895.000000 0 0 1
7.212633 -12.233355 27.968329 31.367252 -1.038068 0.469839 -0.033075 0.006642 49795.900000 0 0 1
6.207833 -13.023355 27.043059 30.650808 -1.125987 0.490080 -0.016539 -0.007497 258030.000000 0 0 1
6.351533 -14.452955 27.123039 31.382943 -1.156740 0.527118 -0.013156 -0.002433 5420.270000 0 0 1
5.956733 -15.161055 25.951609 30.640272 -1.196428 0.560523 -0.008770 -0.002216 -180497.000000 0 0 1
4.496733 -15.187555 25.477719 29.999943 -1.282940 0.556216 -0.006442 -0.010630 -636019.000000 0 0 1
3.928633 -14.056555 24.955099 28.909823 -1.298263 0.529213 -0.016622 -0.010652 -28168.500000 0 0 1
2.613333 -14.335455 24.492849 28.499727 -1.390478 0.536689 -0.010200 -0.008250 102193.000000 0 0 1
1.689933 -13.128755 24.417909 27.775067 -1.442780 0.496762 -0.001068 -0.014305 -710172.000000 0 0 1
1.630533 -12.341855 23.215829 26.343021 -1.439443 0.492212 -0.017016 -0.013436 -407783.000000 0 0 1
0.560533 -11.454255 23.228529 25.905187 -1.521899 0.458596 -0.007499 0.005903 345225.000000 0 0 1
-0.853567 -12.023555 22.900529 25.879117 1.499924 0.484509 0.005844 0.008307 -383390.000000 0 0 1
-1.066167 -12.372055 21.546429 24.868717 1.484833 0.522835 -0.003247 -0.002117 228260.000000 0 1 0
-2.372667 -12.934755 21.421729 25.136187 1.389380 0.550570 0.020120 -0.005062 731755.000000 0 0 1
-2.623867 -13.668455 20.075729 24.428390 1.381138 0.606199 0.023810 -0.005059 9227.170000 0 1 0
-1.834167 -14.811055 20.039129 24.985960 1.447586 0.640134 0.017358 -0.010693 -394712.000000 0 1 0
-1.819267 -15.453455 18.817329 24.417430 1.453610 0.690933 0.013162 -0.010831 497481.000000 0 1 0
-2.526567 -16.880555 18.868229 25.443010 1.422226 0.735362 0.001757 -0.007269 450716.000000 0 0 1
-2.338367 -17.695455 17.740129 25.165637 1.439412 0.788465 -0.010910 -0.008175 -929319.000000 0 0 1
-3.255567 -18.729655 17.766029 26.019809 1.398697 0.819224 -0.005351 0.003279 -686137.000000 0 0 1
-3.021267 -19.941355 16.840829 26.275449 1.420432 0.875082 -0.002570 -0.001613 -79564.500000 0 0 1
-1.902467 -20.790155 17.045229 26.951619 1.479542 0.886100 -0.008978 -0.003442 -113758.000000 0 0 1
-1.954067 -21.615755 18.128329 28.278889 1.480641 0.874924 -0.020158 0.003834 -301132.000000 0 0 1
-0.585267 -22.235355 18.520529 28.944145 1.544481 0.876465 -0.011640 0.001263 96061.300000 0 0 1
-0.085467 -23.147555 17.591129 29.073432 1.567104 0.920957 -0.020038 0.002147 -445434.000000 0 0 1
0.951433 -23.883255 18.222029 30.055905 -1.530981 0.919433 -0.009282 0.000254 18421.000000 0 0 1
2.296733 -23.804855 17.476429 29.620460 -1.474612 0.939723 -0.008557 -0.002873 -208801.000000 0 0 1
2.734333 -22.472855 17.472429 28.597055 -1.449719 0.913490 -0.001993 -0.005362 -1055430.000000 0 0 1
3.967533 -22.403155 16.849329 28.311527 -1.395517 0.933356 0.017741 -0.007276 -593667.000000 0 0 1
4.646733 -21.028555 16.959329 27.411879 -1.353319 0.903728 0.034200 -0.011465 -375626.000000 0 0 1
5.233533 -20.858055 18.231029 28.192530 -1.324960 0.867597 0.031766 -0.011429 87008.400000 0 0 1
5.811833 -19.565855 18.607529 27.619562 -1.282058 0.831581 0.035674 -0.002478 613761.000000 0 0 1
6.906633 -18.896755 17.725329 26.813732 -1.220386 0.848574 0.043545 -0.005522 -311870.000000 0 0 1
6.449333 -18.366355 16.535529 25.540960 -1.233098 0.866612 0.033687 -0.006324 -50184.600000 0 0 1
7.435633 -17.653655 15.796129 24.828570 -1.172153 0.881223 0.043239 -0.002883 238830.000000 0 1 0
6.781633 -16.755455 14.685429 23.289432 -1.186209 0.888519 0.025759 -0.007444 177267.000000 0 1 0
6.099433 -17.477955 13.660329 23.006229 -1.235032 0.935064 0.030619 -0.009922 283343.000000 0 1 0
5.431333 -16.523755 12.825729 21.610951 -1.253223 0.935417 0.018207 -0.009905 -42812.900000 0 1 0
5.851833 -16.650155 11.369629 20.993810 -1.232823 0.998492 0.013739 -0.013793 -273119.000000 0 1 0
7.171233 -16.218555 11.176729 20.961569 -1.154479 1.008417 0.025069 -0.013192 -296677.000000 0 1 0
7.724533 -16.535455 9.909929 20.767676 -1.133773 1.073353 0.027488 -0.012798 -255115.000000 0 1 0
9.183233 -16.085955 9.958229 21.029885 -1.052060 1.077505 0.031011 -0.008633 -24500.300000 0 1 0
9.973433 -16.430455 8.795529 21.137421 -1.025239 1.141631 0.034912 -0.009723 -298504.000000 0 1 0
11.301533 -15.994655 8.973329 21.542383 -0.955667 1.141157 0.024601 -0.001513 -79207.400000 0 1 0
12.239333 -16.820755 8.070629 22.313093 -0.941765 1.200706 0.024424 -0.010523 -80498.200000 0 1 0
12.526733 -18.157755 8.550129 23.658567 -0.966892 1.201031 0.032743 -0.010730 -177522.000000 0 1 0
13.198133 -18.925155 7.593529 24.290202 -0.961827 1.252849 0.028105 -0.006445 -132952.000000 0 1 0
13.895233 -20.152855 8.211429 25.819424 -0.967158 1.247142 0.025417 -0.003821 78757.700000 0 0 1
12.989233 -21.021355 8.905329 26.266374 -1.017314 1.224901 0.029206 -0.003001 50781.300000 0 0 1
13.583533 -22.240255 9.353729 27.688148 -1.022500 1.226192 0.034201 -0.001765 -275697.000000 0 0 1
12.611333 -23.248655 9.950029 28.258605 -1.073765 1.210976 0.037117 -0.002347 -141686.000000 0 0 1
12.348833 -22.864055 11.310929 28.340709 -1.075587 1.160255 0.041606 -0.007159 -268601.000000 0 0 1
11.264933 -23.543155 11.929929 28.696726 -1.124512 1.142057 0.041831 -0.004020 13557.900000 0 0 1
11.481733 -24.996355 12.243929 30.109164 -1.140206 1.152011 0.016010 -0.013843 -585608.000000 0 0 1
12.415433 -25.207435 13.246229 31.064777 -1.113142 1.130280 0.010156 -0.011247 -439597.000000 0 0 1
12.439533 -26.543485 13.812929 32.405178 -1.132544 1.130446 0.005445 -0.016610 -222612.000000 0 0 1
13.572333 -26.735365 14.838829 33.454130 -1.101044 1.111232 0.019071 -0.013765 -151917.000000 0 0 1
13.337333 -26.116505 16.081529 33.445057 -1.098637 1.069190 0.019193 -0.015484 333313.000000 0 0 1
14.275133 -26.582115 17.029529 34.646690 -1.077973 1.056962 0.019494 -0.015751 -389218.000000 0 0 1
13.982633 -26.071095 18.480129 34.881674 -1.078511 1.012438 0.018986 -0.019534 -169403.000000 0 0 1
14.361633 -24.768855 18.810929 34.257900 -1.045343 0.989512 0.015349 -0.009104 528778.000000 0 0 1
15.742233 -24.715455 19.192829 35.029078 -1.003658 0.990931 0.014714 -0.010214 453302.000000 0 0 1
16.137033 -23.271155 19.582929 34.430243 -0.964490 0.965785 0.002339 -0.002942 32052.500000 0 0 1
16.349333 -22.252855 18.598829 33.292742 -0.937155 0.978045 0.006730 -0.005506 -19624.600000 0 0 1
15.144433 -21.601955 18.291929 32.102850 -0.959354 0.964544 0.006308 0.000941 -441123.000000 0 0 1
15.361133 -20.516155 17.202429 30.867468 -0.928106 0.979666 0.013104 0.000679 56792.900000 0 0 1
16.013333 -19.311655 17.576529 30.631703 -0.878499 0.959656 0.016252 -0.003070 577569.000000 0 0 1
17.430733 -19.436055 17.479729 31.418651 -0.839738 0.980811 0.007517 0.000355 851765.000000 0 0 1
18.356333 -18.163055 17.729629 31.323973 -0.780106 0.969140 0.010584 -0.000888 362319.000000 0 0 1
18.521033 -17.836455 19.078929 32.018328 -0.766571 0.932441 0.006086 0.004142 152975.000000 0 0 1
19.121333 -16.550555 19.226129 31.767755 -0.713455 0.920768 0.013610 -0.000732 -254227.000000 0 0 1
19.597033 -16.230855 20.642429 32.765748 -0.691719 0.889243 0.015318 -0.000557 -485439.000000 0 0 1
20.817733 -16.835055 20.983729 34.016378 -0.680016 0.906035 0.021928 0.000355 -424105.000000 0 0 1
21.217933 -16.638455 22.344529 35.018807 -0.665013 0.878804 0.027755 0.002967 140267.000000 0 0 1
32.265122 -0.371155 -7.856220 33.209879 -0.011503 1.809623 0.050113 -0.012941 -1416640.000000 0 0 1
33.438882 -0.306155 -8.596020 34.527440 -0.009155 1.822405 0.024372 -0.015292 -582737.000000 0 0 1
34.215232 -1.444155 -8.317820 35.241365 -0.042183 1.809069 0.028801 -0.022271 -1038580.000000 0 0 1
-34.754712 -1.313555 -9.032620 35.933322 0.037777 1.824894 0.007348 -0.021882 -950697.000000 0 0 1
-33.863157 -2.389655 -8.773620 35.062804 0.070451 1.823710 0.033048 -0.015843 122224.000000 0 0 1
-32.598667 -2.037655 -9.309920 33.963211 0.062426 1.848469 0.095742 -0.027541 256313.000000 0 0 1
-31.513187 -3.149055 -9.211020 32.982425 0.099598 1.853831 0.093181 -0.020048 17774.700000 0 0 1
-31.137667 -3.365855 -7.864820 32.291464 0.107678 1.816828 0.071942 -0.020035 -46373.500000 0 0 1
-30.057427 -4.242855 -7.726220 31.323237 0.140232 1.820030 0.066198 -0.026482 -328524.000000 0 0 1
-29.695147 -4.595955 -6.266620 30.695196 0.153553 1.776398 0.045947 -0.033083 -186198.000000 0 0 1
-29.221617 -3.433155 -5.655720 29.961252 0.116951 1.760704 0.042802 -0.022773 264806.000000 0 0 1
-29.229357 -3.629555 -4.285220 29.763939 0.123543 1.715272 0.044095 -0.027948 -229884.000000 0 0 1
-29.100457 -2.264155 -3.516220 29.399435 0.077648 1.690685 0.032626 -0.013935 -139883.000000 0 0 1
-27.844917 -1.608955 -3.588520 28.121266 0.057719 1.698754 0.034774 -0.011581 571863.000000 0 0 1
-27.953427 -0.274455 -3.191720 28.136391 0.009818 1.684478 0.037219 -0.019325 356893.000000 0 0 1
-26.553307 0.283945 -2.778520 26.699792 -0.010693 1.675050 0.061413 -0.007355 403057.000000 0 0 1
-26.060187 -0.121055 -1.531720 26.105443 0.004645 1.629504 0.035955 -0.008648 1079770.000000 0 0 1
-24.653067 0.159245 -1.477520 24.697816 -0.006459 1.630656 0.037909 -0.008554 691206.000000 0 1 0
-23.931667 -0.337455 -0.208920 23.934958 0.014100 1.579525 0.018583 -0.009873 -170000.000000 0 1 0
-24.010567 -1.768155 -0.146320 24.076028 0.073508 1.576874 0.013363 -0.011810 112265.000000 0 1 0
-23.140267 -2.142855 0.867780 23.255469 0.092340 1.533473 -0.000248 -0.011917 -1328050.000000 0 1 0
-22.852467 -3.707655 1.003380 23.173017 0.160842 1.527483 -0.011164 0.007716 -245145.000000 0 1 0
-23.978067 -4.512455 1.318080 24.434551 0.186015 1.516827 -0.015521 0.002868 251019.000000 0 1 0
-23.695667 -5.855855 1.258180 24.440922 0.242273 1.519295 -0.036012 0.016697 459478.000000 0 1 0
-24.870167 -6.811455 1.759180 25.846002 0.267325 1.502680 -0.016006 0.018844 777938.000000 0 0 1
-25.088767 -6.753255 3.157880 26.172980 0.262942 1.449847 -0.014058 0.020571 -13532.800000 0 0 1
-26.232197 -7.504955 3.457280 27.502823 0.278654 1.444757 0.004447 0.023562 -211313.000000 0 0 1
-26.598507 -7.855655 4.895980 28.163141 0.287178 1.396065 0.003274 0.006296 -227277.000000 0 0 1
-25.638027 -8.727555 5.431380 27.622066 0.328110 1.372875 0.004340 0.024757 -97598.100000 0 0 1
-25.820567 -9.090555 6.789780 28.203563 0.338515 1.327666 0.001322 0.012519 -175632.000000 0 0 1
-25.385377 -8.101655 7.871080 27.785033 0.308929 1.283579 0.018369 0.014110 -967331.000000 0 0 1
-24.012267 -8.066155 8.006480 26.566060 0.324075 1.264657 0.023171 0.000267 -905887.000000 0 0 1
-23.523767 -6.900055 8.621380 25.986661 0.285320 1.232626 0.020164 0.001462 -209682.000000 0 0 1
-22.173567 -6.418455 8.086480 24.459248 0.281763 1.233846 0.015761 -0.003846 -867449.000000 0 1 0
-21.082367 -7.160455 8.468680 23.821353 0.327417 1.207339 0.016823 -0.008425 617563.000000 0 1 0
-19.848067 -6.537355 7.980880 22.369113 0.318179 1.205976 0.014876 -0.008669 2016520.000000 0 1 0
-18.603067 -6.762355 8.925480 21.713308 0.348657 1.147179 0.023007 -0.012218 428718.000000 0 1 0
-18.685167 -6.046255 10.133980 22.099552 0.312952 1.094422 0.023367 -0.001171 -167512.000000 0 1 0
-17.511967 -6.159755 10.875680 21.514925 0.338229 1.040841 0.014437 -0.010149 -610551.000000 0 1 0
-17.419567 -4.983155 11.884580 21.668327 0.278625 0.990255 0.012554 -0.003355 -239916.000000 0 1 0
-18.295767 -5.115455 12.967180 23.001103 0.272636 0.971861 0.010188 -0.002618 -86600.200000 0 1 0
-18.629567 -3.855355 13.467080 23.308513 0.204067 0.954796 0.022977 0.005251 -135053.000000 0 1 0
-19.791967 -3.714155 14.445880 24.783066 0.185502 0.948512 0.019181 0.001774 -254856.000000 0 1 0
-19.503067 -4.144955 15.745980 25.406420 0.209413 0.902355 0.020147 0.003254 -166443.000000 0 0 1
-20.689767 -4.216855 16.475280 26.782143 0.201060 0.908209 0.008640 0.007331 -505357.000000 0 0 1
-20.496867 -4.957655 17.796780 27.593936 0.237316 0.869835 0.008989 0.011988 -325377.000000 0 0 1
-21.514667 -4.895355 18.778480 28.973725 0.223727 0.865682 0.002569 0.008622 301439.000000 0 0 1
-21.212267 -5.794555 19.846080 29.621007 0.266664 0.836587 0.014278 0.008247 -339691.000000 0 0 1
-21.890667 -5.463755 21.166780 30.936815 0.244595 0.817298 0.006239 0.004928 -582875.000000 0 0 1
-21.509467 -4.224155 21.683380 30.832931 0.193918 0.790832 -0.000810 0.000297 370336.000000 0 0 1
-22.230967 -3.903055 22.851780 32.119365 0.173797 0.779217 0.004604 0.000266 -254591.000000 0 0 1
-22.296167 -2.368755 23.176680 32.247303 0.105843 0.768841 -0.001766 0.014315 -501686.000000 0 0 1
-23.264667 -1.700255 22.431480 32.362121 0.072953 0.804960 -0.010591 0.011669 -558226.000000 0 0 1
-23.079467 -0.278855 22.588680 32.295325 0.012082 0.796181 -0.012296 0.005588 -843729.000000 0 0 1
-24.218067 0.584445 22.102580 32.792993 -0.024128 0.831182 -0.019862 0.009342 -68050.600000 0 0 1
-25.338137 0.419145 22.990380 34.216289 -0.016541 0.834007 -0.016785 0.010096 488627.000000 0 0 1
-26.466457 1.130045 22.488280 34.748714 -0.042671 0.866932 -0.010047 0.008907 522014.000000 0 0 1
-27.554917 1.425845 23.562280 36.283433 -0.051699 0.864008 -0.004674 0.003540 -132651.000000 0 0 1
-27.119957 2.317645 24.579280 36.674304 -0.085252 0.836312 -0.000727 0.005474 299851.000000 0 0 1
-27.996987 2.236045 25.712280 38.078242 -0.079698 0.829495 0.001853 -0.000599 -117155.000000 0 0 1
-27.595927 3.108945 26.930080 38.683717 -0.112187 0.800761 0.015332 -0.000576 282097.000000 0 0 1
-26.480377 2.645945 27.699380 38.411809 -0.099590 0.765384 0.020163 -0.006935 573841.000000 0 0 1
-26.163617 3.391845 28.834680 39.082966 -0.128921 0.741019 0.019971 -0.009263 207191.000000 0 0 1
-24.965567 2.855145 29.675380 38.885210 -0.113869 0.702617 0.031133 -0.011893 124930.000000 0 0 1
-25.273037 1.776345 30.519480 39.665104 -0.070171 0.692850 0.028329 -0.012018 215223.000000 0 0 1
-24.251367 1.482945 31.463480 39.752717 -0.061073 0.657570 0.031374 -0.016649 566882.000000 0 0 1
-24.782067 0.332145 32.405080 40.796451 -0.013402 0.652923 0.023059 -0.022209 230865.000000 0 0 1
-24.717567 -0.885555 31.658280 40.174482 0.035812 0.663211 0.024373 -0.018069 -212848.000000 0 0 1
-25.148387 -1.990855 32.414980 41.074759 0.079000 0.661339 0.022647 -0.013707 -239601.000000 0 0 1
-25.996557 -2.945055 31.496880 40.945669 0.112805 0.693152 0.022336 -0.011677 -596381.000000 0 0 1
-27.251537 -2.487355 31.146980 41.460434 0.091022 0.720849 0.012662 -0.008323 -816592.000000 0 0 1
-27.231387 -1.655955 29.989380 40.541997 0.060736 0.738155 0.013119 -0.007030 -1228320.000000 0 0 1
-28.610787 -1.414055 29.398180 41.046677 0.049384 0.772435 -0.000723 -0.012359 -630933.000000 0 0 1
-29.350717 -0.696955 30.361180 42.234484 0.023741 0.768618 0.008479 -0.005749 -679091.000000 0 0 1
-30.699607 -0.663955 29.923680 42.875790 0.021624 0.798313 -0.003146 -0.001759 112241.000000 0 0 1
-31.602867 -0.223855 31.118680 44.352718 0.007083 0.793130 -0.002735 -0.002192 -461055.000000 0 0 1
-31.694927 -1.191355 32.111080 45.134346 0.037571 0.779229 -0.007994 0.001607 -84169.900000 0 0 1
-32.308787 -0.803355 33.321280 46.419940 0.024860 0.770127 0.013202 -0.002148 -225250.000000 0 0 1
-32.425717 -2.070155 34.224580 47.191467 0.063756 0.759431 0.016990 -0.004999 135836.000000 0 0 1
-33.425657 -2.922055 33.670480 47.534347 0.087198 0.783653 0.011671 -0.004156 324787.000000 0 0 1
-33.360807 -4.172955 34.269480 48.007856 0.124439 0.775843 0.014030 -0.002303 -528621.000000 0 0 1
-34.565183 -4.932155 33.768480 48.573535 0.141735 0.802094 0.013855 -0.008365 -18502.000000 0 0 1
34.535763 -4.586755 34.447480 48.993736 -0.132039 0.791049 0.024169 -0.017258 756763.000000 0 0 1
33.339232 -5.324255 34.177780 48.041365 -0.158362 0.779274 0.017975 -0.019159 603295.000000 0 0 1
32.056712 -4.927555 -34.213568 47.143206 -0.152520 2.382901 0.038515 -0.027631 -466664.000000 0 0 1
31.797022 -5.553555 -32.956468 46.130482 -0.172912 2.366589 0.043251 -0.036429 169522.000000 0 0 1
31.374762 -6.930055 -33.100568 46.130781 -0.217389 2.371057 0.045039 -0.032011 517055.000000 0 0 1
29.915682 -7.159855 -33.683168 45.615429 -0.234916 2.401515 0.046378 -0.034536 258925.000000 0 0 1
28.899602 -6.844155 -32.792968 44.242607 -0.232541 2.405664 0.049413 -0.034918 485901.000000 0 0 1
27.616352 -7.073955 -33.416368 43.924451 -0.250759 2.435294 0.050954 -0.026826 1240850.000000 0 0 1
26.393812 -6.470855 -32.636168 42.469104 -0.240423 2.447241 0.053639 -0.038826 1248440.000000 0 0 1
25.151702 -7.126255 -32.953668 42.063475 -0.276095 2.470958 0.044903 -0.031039 1110860.000000 0 0 1
24.067602 -6.790755 -32.077268 40.673271 -0.275004 2.479418 0.046322 -0.026211 368702.000000 0 0 1
22.705402 -7.353455 -32.530168 40.346257 -0.313204 2.508624 0.044792 -0.031213 -152036.000000 0 0 1
22.639402 -8.788755 -32.644668 40.687334 -0.370298 2.501985 0.043220 -0.037631 261939.000000 0 0 1
22.463202 -9.436555 -31.340768 39.697453 -0.397704 2.480775 0.037395 -0.027495 -661168.000000 0 0 1
22.390902 -10.959655 -31.311268 40.023269 -0.455187 2.469189 0.031016 -0.022492 -366426.000000 0 0 1
21.257102 -11.338055 -32.043168 40.089656 -0.489992 2.496905 0.044641 -0.027763 -163211.000000 0 0 1
21.100502 -12.800755 -32.068868 40.466070 -0.545300 2.485674 0.035248 -0.021843 -96976.300000 0 0 1
19.924502 -13.337455 -32.990768 40.783137 -0.589892 2.513129 0.028728 -0.017394 438590.000000 0 0 1
18.616302 -12.957555 -32.674868 39.775771 -0.608058 2.534792 0.039496 -0.016131 -314174.000000 0 0 1
18.293102 -11.600355 -32.925368 39.411746 -0.565144 2.559693 0.039551 -0.021803 149444.000000 0 0 1
16.857902 -11.288155 -32.353468 38.188457 -0.590035 2.581499 0.033457 -0.023460 530167.000000 0 0 1
15.767802 -11.693755 -33.105168 38.487916 -0.638118 2.606349 0.026048 -0.016000 -580650.000000 0 0 1
14.542802 -11.262855 -32.525568 37.366530 -0.658974 2.626905 0.025409 -0.017272 641612.000000 0 0 1
13.381302 -11.733655 -33.465368 37.903414 -0.719888 2.652824 -0.008962 -0.008717 -379228.000000 0 0 1
13.201102 -13.132255 -33.462068 38.294063 -0.782784 2.633797 -0.009481 -0.003236 549697.000000 0 0 1
12.066502 -13.611555 -34.213568 38.748460 -0.845496 2.652939 -0.032228 0.002377 591622.000000 0 0 1
10.742302 -13.584455 -33.429268 37.649043 -0.901703 2.663596 -0.041014 0.006933 -617107.000000 0 0 1
10.218702 -12.310655 -33.170268 36.827175 -0.877987 2.692176 -0.016801 -0.000340 -392939.000000 0 0 1
9.406602 -12.263055 -32.026068 35.560311 -0.916461 2.691974 -0.009799 -0.002806 -657503.000000 0 0 1
8.297202 -11.249955 -32.246968 35.146437 -0.935323 2.732553 -0.012369 0.006860 -816372.000000 0 0 1
8.690002 -9.954655 -32.446468 35.034049 -0.853124 2.754846 -0.016730 0.005118 -160114.000000 0 0 1
7.592502 -9.073055 -32.407768 34.499708 -0.874005 2.791566 -0.017235 0.007018 -180886.000000 0 0 1
7.903502 -7.584455 -32.764968 34.547539 -0.764801 2.818955 -0.004449 0.009177 -101938.000000 0 0 1
8.514202 -6.867355 -31.687768 33.522632 -0.678738 2.809202 0.010511 -0.004604 467405.000000 0 0 1
8.815102 -5.527355 -32.129868 33.772565 -0.560060 2.828417 0.022554 -0.007053 -256877.000000 0 0 1
8.957902 -4.482755 -30.992268 32.570843 -0.463987 2.828983 0.028853 -0.009726 1128340.000000 0 0 1
7.694202 -4.140855 -30.345768 31.578681 -0.493722 2.861238 0.035466 -0.011307 1076390.000000 0 0 1
7.850302 -3.205355 -29.297168 30.499600 -0.387649 2.859861 0.038972 -0.016917 -471605.000000 0 0 1
6.551702 -2.688855 -28.699268 29.560155 -0.389444 2.899660 0.026961 -0.015835 -999628.000000 0 0 1
5.786002 -1.930855 -29.634068 30.255314 -0.322091 2.938595 0.025558 -0.005996 200212.000000 0 0 1
4.565902 -1.515855 -29.053568 29.449195 -0.320545 2.977493 0.019554 -0.004838 391380.000000 0 0 1
3.371502 -2.504455 -28.995068 29.297667 -0.638897 2.997744 0.013558 -0.006476 -549292.000000 0 0 1
3.584302 -3.569655 -28.074668 28.526771 -0.783351 2.963321 0.020525 -0.018676 531237.000000 0 0 1
2.494802 -4.507955 -28.106268 28.574604 -1.065330 2.960292 0.024855 -0.014544 312716.000000 0 0 1
2.655302 -5.472655 -26.883768 27.563338 -1.119063 2.919076 0.020115 -0.025310 -128403.000000 0 0 1
2.577202 -4.795555 -25.648868 26.220293 -1.077667 2.932438 0.032472 -0.030201 82260.600000 0 0 1
2.876902 -5.742255 -24.637968 25.461334 -1.106345 2.886588 0.036477 -0.032994 -327089.000000 0 0 1
2.815202 -5.160455 -23.242968 23.974804 -1.071389 2.893876 0.036104 -0.031247 -85214.400000 0 1 0
3.777302 -4.162555 -22.994168 23.671220 -0.833882 2.901844 0.034457 -0.028531 -235059.000000 0 1 0
3.758502 -3.678455 -21.668368 22.297434 -0.774635 2.903491 0.035802 -0.025287 -212906.000000 0 1 0
4.673602 -2.470055 -21.338768 21.983784 -0.486196 2.898755 0.050086 -0.027897 -25984.600000 0 1 0
6.023702 -2.862855 -21.322568 22.341281 -0.443665 2.838447 0.046430 -0.015089 -59963.400000 0 1 0
6.888302 -1.815355 -20.831868 22.016152 -0.257683 2.812106 0.055962 -0.007202 359210.000000 0 1 0
8.255302 -2.330655 -20.370168 22.102618 -0.275161 2.743025 0.040417 -0.008635 -983096.000000 0 1 0
9.091102 -2.666155 -21.433468 23.433952 -0.285272 2.725396 0.051273 -0.014828 829660.000000 0 1 0
10.377202 -3.269555 -21.156368 23.790087 -0.305225 2.666594 0.040722 -0.014838 1675720.000000 0 1 0
11.453502 -2.428755 -20.383668 23.506924 -0.208958 2.620217 0.020398 -0.010868 -691475.000000 0 1 0
11.147302 -2.138655 -19.047668 22.173179 -0.189551 2.604190 0.020587 -0.008008 -312760.000000 0 1 0
12.197302 -1.601355 -18.303068 22.053136 -0.130541 2.549820 0.019187 -0.013014 -575003.000000 0 1 0
12.458602 -0.089655 -18.477168 22.285209 -0.007196 2.548333 0.015648 -0.008597 -15732.700000 0 1 0
12.981002 0.423045 -19.701668 23.597481 0.032578 2.558758 0.016903 -0.008119 222073.000000 0 1 0
12.998602 1.799545 -19.627368 23.610074 0.137567 2.552263 0.027083 -0.018115 -282682.000000 0 1 0
13.172102 2.608645 -20.931668 24.868535 0.195513 2.571207 0.007721 -0.010388 8807.190000 0 1 0
14.461102 2.537645 -21.515168 26.047372 0.173712 2.542773 0.001239 -0.003412 172125.000000 0 0 1
14.618802 3.636945 -22.322768 26.930331 0.243835 2.547949 0.011011 -0.011635 -678004.000000 0 0 1
16.013802 3.658545 -22.935468 28.211035 0.224607 2.520076 0.005202 -0.005824 -395378.000000 0 0 1
16.296602 2.660845 -23.889468 29.040765 0.161848 2.536797 -0.007845 -0.001233 246986.000000 0 0 1
16.954802 1.499745 -23.382868 28.921844 0.088226 2.512369 -0.015866 -0.001307 -448416.000000 0 0 1
8.519433 26.916745 2.850280 28.376328 1.264262 1.470181 -0.012898 0.014276 103364.000000 0 0 1
8.726933 27.437345 4.145280 29.088668 1.262847 1.427805 -0.017074 0.015648 -499487.000000 0 0 1
10.072533 27.668545 4.412480 29.773718 1.221666 1.422048 -0.001213 0.011444 -697553.000000 0 0 1
10.255733 28.241245 5.808680 30.602104 1.222457 1.379825 -0.013408 0.011228 -342640.000000 0 0 1
10.019933 27.486545 6.969680 30.074668 1.221228 1.336924 -0.019448 0.012954 62165.600000 0 0 1
10.012533 28.286445 8.117780 31.084918 1.230590 1.306585 -0.017924 0.013419 -333824.000000 0 0 1
9.909633 27.433545 9.482880 30.671245 1.224158 1.256468 -0.012775 0.003037 366021.000000 0 0 1
11.074133 26.774745 10.009180 30.654642 1.178618 1.238183 0.009437 0.005758 737316.000000 0 0 1
11.685533 25.808245 9.129080 29.765035 1.145631 1.259067 0.009945 0.003180 423330.000000 0 0 1
12.946133 25.038145 9.653380 29.794275 1.093597 1.240841 0.013958 -0.001004 230150.000000 0 0 1
14.050433 25.861045 9.867480 31.041512 1.073108 1.247304 0.016814 -0.003607 110745.000000 0 0 1
15.075733 25.208245 10.655380 31.245327 1.031814 1.222791 0.021853 -0.003499 274238.000000 0 0 1
16.155433 26.202945 11.068280 32.712370 1.018296 1.225632 0.017485 -0.006828 -525738.000000 0 0 1
16.875733 26.755645 9.922480 33.152836 1.008083 1.266843 0.022021 -0.009358 79660.400000 0 0 1
18.272633 26.672945 9.949380 33.827877 0.970166 1.272264 0.037946 -0.022229 -172511.000000 0 0 1
19.086433 27.432545 11.021380 35.189590 0.962923 1.252236 0.036642 -0.023085 -925705.000000 0 0 1
19.143933 28.881645 10.817880 36.299671 0.985447 1.268183 0.042650 -0.036055 755473.000000 0 0 1
17.950533 29.605645 11.199480 36.388792 1.025742 1.257945 0.026275 -0.021454 713603.000000 0 0 1
18.207533 31.058545 11.355880 37.750543 1.040561 1.265251 0.011582 -0.009255 -678790.000000 0 0 1
18.442133 31.857445 10.203280 38.198377 1.046039 1.300400 0.028294 -0.019435 822661.000000 0 0 1
17.352333 31.992445 9.247880 37.551875 1.073816 1.321967 0.021886 -0.016603 553035.000000 0 0 1
16.110833 32.768445 9.673180 37.774335 1.113845 1.311833 0.020544 -0.012945 -449358.000000 0 0 1
16.314633 34.179345 9.895280 39.144750 1.125453 1.315237 0.016546 -0.012285 1444210.000000 0 0 1
15.013533 -34.357349 9.900780 38.779621 -1.158821 1.312629 0.019265 -0.009463 1427570.000000 0 0 1
15.271033 -32.830249 10.148280 37.603421 -1.135414 1.297532 0.024219 -0.002350 -108764.000000 0 0 1
15.905433 -32.188749 9.075080 37.033167 -1.111856 1.323222 0.021122 -0.004385 -35837.300000 0 0 1
16.009833 -30.790149 9.113080 35.880304 -1.091304 1.313998 0.004923 -0.005770 59193.800000 0 0 1
16.754433 -30.211349 7.879880 35.433447 -1.064448 1.346536 0.011285 0.000327 383306.000000 0 0 1
15.848733 -30.156449 6.781680 34.735931 -1.086918 1.374299 0.006971 0.001389 493372.000000 0 0 1
16.521333 -29.739149 5.552580 34.470314 -1.063709 1.409008 0.011931 0.003254 247644.000000 0 0 1
15.751633 -30.092749 4.272980 34.233694 -1.088576 1.445652 0.021675 -0.003829 15238.000000 0 0 1
16.026333 -31.411749 3.789080 35.466864 -1.099021 1.463758 0.027251 -0.003674 -42359.400000 0 0 1
15.988733 -31.430249 2.356880 35.341972 -1.100209 1.504059 0.030651 0.000131 -112293.000000 0 0 1
16.313533 -32.852949 1.824680 36.725700 -1.109903 1.521092 0.033121 -0.001484 -713543.000000 0 0 1
17.614733 -33.328149 1.915280 37.745365 -1.084591 1.520032 0.032403 0.006135 -521528.000000 0 0 1
17.808333 -34.507049 1.177580 38.849193 -1.094369 1.540480 0.052491 -0.004239 -280364.000000 0 0 1
19.169033 34.055845 1.497780 39.108768 1.058125 1.532489 0.055098 -0.006802 -153882.000000 0 0 1
19.320533 33.510945 2.746480 38.778984 1.047802 1.499913 0.040420 -0.018483 954522.000000 0 0 1
20.744533 33.488145 2.979680 39.505316 1.016191 1.495300 0.035573 -0.017465 858535.000000 0 0 1
21.067233 33.094545 4.407980 39.477937 1.003915 1.458906 0.037969 -0.017511 -341225.000000 0 0 1
20.835633 31.682145 4.586180 38.195745 0.989065 1.450435 0.045814 -0.025218 -241999.000000 0 0 1
21.628733 31.109245 5.563680 38.295454 0.963265 1.424997 0.026053 -0.029360 -257242.000000 0 0 1
20.764833 30.546645 6.718880 37.542232 0.973774 1.390858 0.027920 -0.030243 134594.000000 0 0 1
20.060533 29.419945 6.242880 36.151510 0.972343 1.397240 0.044356 -0.027321 114706.000000 0 0 1
18.930833 29.031545 7.015480 35.361335 0.992962 1.371077 0.040110 -0.034682 43104.300000 0 0 1
17.586233 29.365945 6.379680 34.818596 1.031212 1.386529 0.057497 -0.029500 -793635.000000 0 0 1
17.268633 30.736345 6.417380 35.834500 1.058915 1.390741 0.051889 -0.027936 25144.000000 0 0 1
17.409833 31.362345 5.149380 36.238310 1.064031 1.428216 0.050550 -0.026355 -340352.000000 0 0 1
17.264433 32.889445 5.177380 37.504420 1.087410 1.432307 0.045224 -0.022415 946063.000000 0 0 1
15.956633 33.381145 5.567280 37.415366 1.124892 1.421445 0.040160 -0.017948 813010.000000 0 0 1
15.867433 -34.415149 5.400180 38.279758 -1.138783 1.429253 0.033448 -0.016530 -93083.300000 0 0 1
14.463333 -33.784849 5.553280 37.167767 -1.166302 1.420824 0.027896 -0.013520 -182675.000000 0 0 1
13.504533 -34.142349 4.613680 37.004843 -1.194144 1.445793 0.028309 -0.011307 -456727.000000 0 0 1
12.433133 -33.211549 4.641680 35.764996 -1.212585 1.440646 0.021178 -0.010963 -558548.000000 0 0 1
11.654433 -33.356949 3.375780 35.495179 -1.234669 1.475547 0.019406 -0.010008 -197714.000000 0 0 1
10.645433 -32.335149 3.389880 34.210793 -1.252751 1.471545 0.021700 -0.018737 173656.000000 0 0 1
10.112633 -31.967449 2.146780 33.597497 -1.264415 1.506856 0.021818 -0.012482 -264882.000000 0 0 1
9.164033 -30.731249 2.289280 32.150116 -1.280992 1.499530 0.023729 -0.014090 266539.000000 0 0 1
8.591633 -30.193749 1.088480 31.411199 -1.293573 1.536137 0.026743 -0.001668 883305.000000 0 0 1
7.531633 -30.982149 0.462780 31.887822 -1.332326 1.556283 0.016853 -0.009520 -10912.700000 0 0 1
7.828133 -31.456149 -1.006920 32.431202 -1.326892 1.601849 0.032537 -0.014938 -446245.000000 0 0 1
8.851133 -32.410549 -1.049320 33.613796 -1.304203 1.602018 0.029897 -0.018885 -354294.000000 0 0 1
8.982933 -33.080449 -2.247820 34.352029 -1.305642 1.636278 0.030517 -0.009378 -373117.000000 0 0 1
10.158933 -34.071349 -2.238320 35.624020 -1.281023 1.633669 0.029559 -0.007534 -211767.000000 0 0 1
10.247033 34.260845 -1.132020 35.778327 1.280176 1.602441 0.032523 -0.010217 196610.000000 0 0 1
11.379533 33.387345 -1.224920 35.294603 1.242311 1.605509 0.038768 -0.012785 80741.900000 0 0 1
11.559633 32.443345 -0.006420 34.441193 1.228518 1.570983 0.036144 -0.014839 185451.000000 0 0 1
12.103433 32.980545 1.238880 35.153154 1.219069 1.535547 0.029386 -0.011571 188476.000000 0 0 1
13.368933 33.604645 1.217680 36.186783 1.192162 1.537140 0.037858 -0.011408 -270151.000000 0 0 1
14.599733 32.729045 1.468580 35.867803 1.151208 1.529841 0.049599 -0.016885 -404190.000000 0 0 1
14.962033 31.878845 0.400380 35.217659 1.131976 1.559427 0.050331 -0.014332 -394590.000000 0 0 1
15.903533 30.932845 0.789680 34.790615 1.095908 1.548096 0.057525 -0.014037 -487653.000000 0 0 1
16.527433 30.163645 -0.380720 34.396896 1.069547 1.581865 0.059743 -0.010307 304089.000000 0 0 1
17.535133 30.942345 -1.091620 35.582316 1.055219 1.601480 0.048847 -0.007680 485690.000000 0 0 1
17.120733 31.747845 -2.203920 36.137272 1.076227 1.631822 0.059764 -0.022194 209406.000000 0 0 1
18.358933 32.411645 -2.882920 37.361429 1.055426 1.648036 0.046988 -0.016065 268652.000000 0 0 1
18.886233 33.436145 -2.054420 38.456290 1.056627 1.624244 0.029543 -0.000233 -96661.800000 0 0 1
19.990733 34.019045 -2.708920 39.550766 1.039519 1.639342 0.024281 0.008018 -778015.000000 0 0 1
20.897433 -34.293849 -1.797520 40.199525 -1.023520 1.615526 0.021401 0.010430 -437381.000000 0 0 1
21.835833 34.214945 -0.931920 40.599686 1.002764 1.593752 0.013957 0.003473 1080080.000000 0 0 1
22.790933 33.260345 -1.420220 40.344692 0.970053 1.606006 0.016293 0.003994 102119.000000 0 0 1
23.730033 33.896845 -2.488320 41.452410 0.960026 1.630861 0.012045 0.001466 -1620210.000000 0 0 1
23.080533 34.389545 -3.656020 41.577858 0.979696 1.658842 0.010364 -0.001403 18965.000000 0 0 1
23.994933 -34.071849 -4.480920 41.913319 -0.957227 1.677910 0.016303 0.003591 175554.000000 0 0 1
23.296633 -33.575149 -5.767720 41.270938 -0.964199 1.711008 0.017622 -0.005920 -251968.000000 0 0 1
22.311533 -32.611349 -5.620020 39.911016 -0.970777 1.712080 0.017528 0.000904 -215761.000000 0 0 1
21.758633 -32.232049 -6.866020 39.490319 -0.977004 1.745550 0.020715 -0.006599 300420.000000 0 0 1
20.798233 -31.004049 -6.663220 37.923819 -0.979922 1.747413 0.028606 -0.001553 934946.000000 0 0 1
19.502733 -31.276349 -6.113520 37.362303 -1.013232 1.735163 0.034881 0.001691 245457.000000 0 0 1
18.797033 -30.069649 -6.044320 35.972851 -1.012113 1.739622 0.046745 -0.002122 -25463.900000 0 0 1
17.577433 -30.115949 -5.094720 35.240498 -1.042479 1.715875 0.028169 0.001620 549398.000000 0 0 1
16.421533 -30.721749 -5.662320 35.292414 -1.079912 1.731933 0.032040 -0.010078 464572.000000 0 0 1
15.298933 -30.608849 -4.783420 34.551991 -1.107292 1.709684 0.021920 -0.011437 693134.000000 0 0 1
14.028733 -31.398049 -5.179220 34.777394 -1.150604 1.720277 0.025467 -0.010021 13607.900000 0 0 1
14.113033 -32.772549 -5.040220 36.036391 -1.164162 1.711121 0.029903 -0.004036 -103682.000000 0 0 1
12.890933 -33.367449 -5.452220 36.184105 -1.202127 1.722052 0.033170 0.003807 -17629.600000 0 0 1
13.072833 34.306345 -5.500820 37.122544 1.206722 1.719524 0.035223 -0.004671 -373251.000000 0 0 1
13.121833 33.698345 -4.181720 36.403952 1.199469 1.685920 0.048913 -0.017044 2210.180000 0 0 1
13.588633 32.361545 -4.246720 35.354705 1.173253 1.691205 0.046971 -0.013409 236607.000000 0 0 1
12.529333 31.290345 -4.670920 34.027744 1.189926 1.708499 0.036859 -0.010729 305970.000000 0 0 1
11.598533 30.835345 -3.712620 33.153100 1.211023 1.683016 0.031060 -0.010279 117573.000000 0 0 1
12.168333 29.821745 -2.918220 32.340699 1.183382 1.661153 0.044191 -0.012104 295892.000000 0 0 1
11.053633 29.043645 -2.156420 31.150702 1.207137 1.640077 0.036340 -0.000293 484118.000000 0 0 1
10.265933 29.852545 -1.306220 31.595412 1.239577 1.612150 0.010846 -0.004407 -303956.000000 0 0 1
9.395633 29.096045 -0.498520 30.579507 1.258449 1.587099 0.000180 0.009725 194795.000000 0 0 1
8.145533 29.893345 -0.047320 30.983286 1.304768 1.572324 -0.006648 0.010878 326167.000000 0 0 1
7.188733 29.173045 0.697080 30.053791 1.329193 1.547600 -0.012008 0.007571 -80030.100000 0 0 1
5.985833 29.903845 0.784280 30.507134 1.373238 1.545085 -0.014307 0.005544 340565.000000 0 0 1
4.887233 29.245745 1.699580 29.699953 1.405217 1.513540 -0.005257 0.002362 314132.000000 0 0 1
4.444933 28.077145 1.078580 28.447264 1.413788 1.532872 -0.004601 -0.002298 427318.000000 0 0 1
3.263033 27.582045 1.731980 27.828337 1.453041 1.508518 0.002716 -0.006411 785949.000000 0 0 1
2.626333 26.383545 0.960880 26.531347 1.471579 1.534572 0.010497 -0.005787 131323.000000 0 0 1
1.432933 25.878045 1.525080 25.962519 1.515480 1.512021 0.012001 -0.005185 -69478.800000 0 0 1
1.013533 24.852245 0.760280 24.884520 1.530037 1.540239 0.010539 -0.004825 -590041.000000 0 1 0
-0.299167 24.198145 1.170280 24.228274 -1.558434 1.522475 0.010376 -0.002418 252790.000000 0 1 0
-1.451167 25.032845 1.024680 25.095800 -1.512891 1.529954 0.007623 -0.003254 -210534.000000 0 0 1
-2.615267 24.377445 1.374780 24.555844 -1.463923 1.514781 0.005166 0.002058 204834.000000 0 1 0
-3.889667 25.278845 1.676980 25.631266 -1.418123 1.505322 0.020042 -0.008089 334797.000000 0 0 1
-5.051467 24.488445 1.585380 25.054235 -1.367370 1.507476 0.010318 -0.002805 -820008.000000 0 0 1
-6.072567 25.037845 2.349180 25.870609 -1.332855 1.479866 0.009080 -0.006610 -423362.000000 0 0 1
-7.196667 25.626945 1.455880 26.658055 -1.297023 1.516156 0.021836 -0.006287 -639698.000000 0 0 1
-6.843867 26.838945 0.796180 27.709229 -1.321120 1.542059 0.025211 -0.012198 101691.000000 0 0 1
-7.214167 26.760045 -0.583420 27.721555 -1.307469 1.591844 0.011203 -0.005292 -111287.000000 0 0 1
-6.767467 27.976845 -1.439420 28.819688 -1.333460 1.620763 0.012694 -0.006067 84168.900000 0 0 1
-7.365567 29.191045 -1.028620 30.123525 -1.323633 1.604950 0.018416 -0.019240 16351.700000 0 0 1
-7.048167 30.273545 -1.934920 31.143348 -1.342055 1.632966 0.007706 -0.015796 -130835.000000 0 0 1
-7.285567 31.716045 -1.444720 32.574134 -1.345001 1.615163 0.007045 -0.017199 -625952.000000 0 0 1
-7.326767 32.804045 -2.416920 33.699086 -1.351053 1.642579 0.002669 -0.003117 -28361.200000 0 0 1
-6.258767 32.925645 -3.345320 33.681767 -1.382950 1.670282 -0.010401 0.000298 161388.000000 0 0 1
-4.885467 33.300345 -2.750120 33.768979 -1.425126 1.652326 -0.003239 -0.003177 -708465.000000 0 0 1
-4.735467 -34.506349 -2.525420 34.921204 1.434414 1.643177 -0.001367 0.002395 -212007.000000 0 0 1
-4.066667 -34.112649 -1.388720 34.382250 1.452143 1.611198 -0.006194 0.000866 -300363.000000 0 0 1
-4.107667 -32.541449 -1.258020 32.823794 1.445232 1.609132 0.005813 0.002339 131863.000000 0 0 1
-5.415967 -32.010849 -1.258620 32.490172 1.403192 1.609544 0.011041 0.003533 -194873.000000 0 0 1
-5.476367 -30.705049 -1.704720 31.236144 1.394298 1.625399 0.024361 0.009715 -72652.000000 0 0 1
-6.781967 -29.957649 -1.392320 30.747266 1.348164 1.616095 0.048808 0.004943 -100300.000000 0 0 1
-6.893867 -29.582049 -0.042820 30.374740 1.341840 1.572206 0.036869 0.004456 -215675.000000 0 0 1
-8.094567 -28.914549 0.249380 30.027243 1.297836 1.562491 0.025368 0.002268 7710.170000 0 0 1
-8.039467 -28.241449 1.629380 29.408627 1.293463 1.515363 0.029841 0.007347 127101.000000 0 0 1
-7.323867 -27.032049 1.583380 28.051342 1.306215 1.514321 0.044937 0.002681 -193638.000000 0 0 1
-6.915367 -26.500449 2.849280 27.535695 1.315536 1.467135 0.043741 0.005584 34862.200000 0 0 1
-7.907467 -25.474249 3.443080 26.894613 1.269816 1.442423 0.032389 0.005679 16559.200000 0 0 1
-8.000767 -24.255349 2.808980 25.694836 1.252179 1.461257 0.028060 -0.001825 -378848.000000 0 0 1
-8.952467 -23.387349 3.377380 25.268982 1.205213 1.436738 0.024163 -0.000129 -149216.000000 0 0 1
-8.252867 -22.055249 3.770880 23.848760 1.212735 1.412014 0.003370 0.018790 525730.000000 0 1 0
-7.643967 -22.176149 5.049180 23.993875 1.238857 1.358775 -0.001651 0.011872 -513368.000000 0 1 0
-6.798267 -21.095549 5.339380 22.797973 1.259044 1.334396 -0.008043 0.017193 -312810.000000 0 1 0
-7.388167 -19.755949 5.914780 21.905870 1.212927 1.297394 -0.006471 0.003697 -138787.000000 0 1 0
-7.997167 -20.037449 7.134180 22.723348 1.191057 1.251437 -0.000315 0.000524 43805.600000 0 1 0
-8.721667 -18.942449 7.677980 22.222404 1.139303 1.218018 -0.008119 -0.009091 -520310.000000 0 1 0
-26.182157 29.401945 -6.057220 39.833022 -0.843260 1.723454 0.040618 0.002540 105208.000000 0 0 1
-25.821097 30.111845 -4.833020 39.960109 -0.861961 1.692039 0.027911 -0.006426 -1036980.000000 0 0 1
-24.558867 29.724045 -4.458920 38.814157 -0.880265 1.685929 0.012667 0.004494 -981622.000000 0 0 1
-23.805667 30.540545 -3.414620 38.872796 -0.908695 1.658751 0.010429 -0.001706 -294326.000000 0 0 1
-24.318767 30.480445 -2.085220 39.048791 -0.897369 1.624222 0.007125 -0.011543 -104452.000000 0 0 1
-23.829467 31.500145 -1.258920 39.518192 -0.923156 1.602658 0.016966 -0.016529 483315.000000 0 0 1
-22.482567 31.098245 -0.568520 38.378247 -0.944831 1.585610 0.014048 -0.010629 859754.000000 0 0 1
-21.384167 30.862945 -1.452020 37.575422 -0.964868 1.609449 0.005090 -0.008411 -161145.000000 0 0 1
-20.160767 30.966845 -0.771820 36.959406 -0.993688 1.591681 0.003399 -0.007143 -30085.600000 0 0 1
-18.950467 30.612145 -1.671420 36.041882 -1.016487 1.617187 0.009991 -0.004879 -374625.000000 0 0 1
-17.719867 30.650445 -1.011520 35.418450 -1.046615 1.599359 0.012161 -0.006998 -312235.000000 0 0 1
-16.772667 29.933745 -1.830220 34.361332 -1.060060 1.624085 0.007292 -0.006592 993012.000000 0 0 1
-15.313267 30.182545 -1.291820 33.869617 -1.101282 1.608947 0.014303 -0.010475 548398.000000 0 0 1
-15.014367 29.455345 -0.117020 33.061492 -1.099393 1.574336 0.006299 -0.007347 -147865.000000 0 0 1
-13.922767 30.055445 0.536980 33.127957 -1.136990 1.554586 0.009288 -0.010600 -86531.200000 0 0 1
-13.527967 29.232545 1.773880 32.259793 -1.137373 1.515781 0.002106 -0.013475 -164923.000000 0 0 1
-14.454067 29.434545 2.821880 32.913151 -1.114328 1.484954 -0.007004 -0.010009 -90341.700000 0 0 1
-14.167367 28.715145 4.025880 32.271993 -1.112462 1.445722 -0.004898 -0.018654 630591.000000 0 0 1
-12.895967 29.184145 4.841580 32.271678 -1.154713 1.420202 0.007131 -0.015197 712104.000000 0 0 1
-13.054467 30.359645 5.641080 33.525348 -1.164703 1.401729 0.001550 -0.009140 -234185.000000 0 0 1
-13.029667 31.605745 4.941780 34.541519 -1.179769 1.427236 0.003429 -0.009993 -133391.000000 0 0 1
-12.713767 32.833545 5.819280 35.686770 -1.201357 1.406999 0.006952 -0.002599 247598.000000 0 0 1
-13.780467 33.173545 6.725380 36.546082 -1.177080 1.385717 0.001091 0.001326 463637.000000 0 0 1
-13.530867 34.279945 7.499280 37.609017 -1.194853 1.370050 0.007168 0.004135 855610.000000 0 0 1
-14.830167 -34.462549 8.296980 38.424484 1.164422 1.353153 0.002426 0.004161 963009.000000 0 0 1
-15.026567 33.945445 9.495380 38.317792 -1.154056 1.320381 -0.007263 0.001082 176553.000000 0 0 1
-16.210767 34.247645 10.215680 39.243474 -1.128704 1.307447 0.006532 0.001013 -307052.000000 0 0 1
-16.284767 33.507945 11.567380 39.010003 -1.118414 1.269746 -0.001186 0.005367 644471.000000 0 0 1
-15.414667 33.991145 12.613480 39.396825 -1.145043 1.244893 0.002202 -0.002805 271092.000000 0 0 1
-14.038967 33.735745 12.526080 38.627656 -1.176450 1.240548 0.014924 -0.001453 -828470.000000 0 0 1
-13.264967 34.016945 13.798180 39.032060 -1.198982 1.209477 0.028193 -0.003285 -572375.000000 0 0 1
-13.540967 33.163645 14.926280 38.806945 -1.183149 1.175990 0.015179 0.000820 210359.000000 0 0 1
-12.942967 31.875845 14.985980 37.525585 -1.185091 1.159985 0.005117 0.004337 -411779.000000 0 0 1
-13.882267 30.745745 14.548780 36.738062 -1.146680 1.163625 0.002723 -0.005513 -290258.000000 0 0 1
-13.936067 30.674245 13.114780 36.154125 -1.144352 1.199583 0.007105 -0.003279 401940.000000 0 0 1
-14.927967 29.758445 12.696080 35.631443 -1.105839 1.206473 -0.004813 -0.003887 5711.960000 0 0 1
-15.127467 29.676145 11.188280 35.138177 -1.099378 1.246747 -0.008864 -0.001541 -114609.000000 0 0 1
-14.192167 28.813245 10.622380 33.829804 -1.113121 1.251399 -0.011461 0.000656 195180.000000 0 0 1
-14.412167 28.833245 9.211280 33.524830 -1.107272 1.292456 -0.008645 0.002622 -71320.100000 0 0 1
-13.708367 27.601045 8.606280 31.996954 -1.109823 1.298471 -0.004862 0.003673 -987443.000000 0 0 1
-12.343067 27.711545 8.470780 31.496589 -1.151764 1.298501 0.004051 0.000578 -797752.000000 0 0 1
-11.775667 26.450045 8.208480 30.094025 -1.151938 1.294535 0.001712 -0.003551 -246616.000000 0 0 1
-10.514267 26.428145 7.328880 29.371911 -1.192150 1.318612 0.009745 -0.005955 -371953.000000 0 0 1
-10.753867 26.721345 5.973880 29.417056 -1.188184 1.366299 0.015591 -0.009473 -462417.000000 0 0 1
-9.638967 26.464145 5.219480 28.644435 -1.221503 1.387556 0.029907 -0.010503 -1015060.000000 0 0 1
-9.856367 26.766345 3.733880 28.766770 -1.217968 1.440631 0.021349 -0.012571 -179044.000000 0 0 1
-9.529267 28.075745 3.346480 29.837113 -1.243584 1.458402 0.022514 -0.013412 101484.000000 0 0 1
-9.770867 28.187245 1.951180 29.896450 -1.237117 1.505485 0.019215 -0.017273 -113294.000000 0 0 1
-9.479667 29.635945 1.397680 31.146538 -1.261211 1.525907 0.027573 -0.019303 -196930.000000 0 0 1
-10.368367 30.614445 1.812380 32.373322 -1.244245 1.514783 0.014108 -0.023455 -462570.000000 0 0 1
-9.820167 31.903145 1.612980 33.419277 -1.272188 1.522513 0.013790 -0.023647 -141431.000000 0 0 1
-10.373867 33.068145 2.443380 34.743193 -1.266808 1.500411 0.007038 -0.009062 1221660.000000 0 0 1
-11.726567 33.551345 2.162080 35.607299 -1.234557 1.510039 0.014156 -0.007987 1253330.000000 0 0 1
-11.823367 34.430345 1.014480 36.417988 -1.240014 1.542936 0.012477 -0.001312 -441880.000000 0 0 1
-13.258567 -34.271249 0.771280 36.754632 1.201659 1.549810 0.017888 -0.003784 371026.000000 0 0 1
-14.131667 33.957845 0.141380 36.781235 -1.176443 1.566953 0.011515 -0.006299 291706.000000 0 0 1
-14.324067 34.056745 -1.304220 36.969471 -1.172663 1.606082 0.017060 -0.006035 -1019240.000000 0 0 1
-13.150367 33.663945 -2.133020 36.204186 -1.198388 1.629747 0.015616 -0.006911 -1063260.000000 0 0 1
-12.839767 32.307345 -1.976220 34.821396 -1.192511 1.627580 0.010470 -0.007983 845199.000000 0 0 1
-11.459167 31.988145 -2.251420 34.053235 -1.226807 1.636959 0.013960 -0.005148 912615.000000 0 0 1
-11.053467 30.501445 -2.335520 32.526480 -1.223125 1.642662 0.015801 -0.015250 -98216.100000 0 0 1
-11.093367 29.859345 -3.582020 32.054237 -1.215079 1.682779 0.009237 -0.011969 36393.300000 0 0 1
-10.022967 30.127345 -4.472420 32.064300 -1.249628 1.710735 0.011135 -0.006152 -85580.800000 0 0 1
-10.347867 29.601245 -5.894820 31.907067 -1.234500 1.756613 0.023106 -0.007412 -306220.000000 0 0 1
-10.537367 28.206045 -6.014420 30.704891 -1.213266 1.767949 0.026174 -0.003387 138430.000000 0 0 1
-10.432767 27.657745 -7.323320 30.453645 -1.210090 1.813651 0.026650 0.000187 -7723.960000 0 0 1
-11.057167 26.207345 -7.385920 29.387713 -1.171545 1.824847 0.040631 -0.005768 66755.500000 0 0 1
-10.397367 25.184245 -6.670320 28.050750 -1.179260 1.810891 0.022682 -0.000406 99959.200000 0 0 1
-11.010167 23.895145 -6.869320 27.191714 -1.139022 1.826189 0.031554 -0.000320 219474.000000 0 0 1
-10.361267 22.721545 -6.003720 25.684024 -1.142955 1.806732 0.023048 0.004317 411198.000000 0 0 1
-9.017267 22.357145 -6.292320 24.914781 -1.187424 1.826115 0.031795 0.003478 564998.000000 0 1 0
-8.462867 21.209545 -5.566120 23.504183 -1.191142 1.809882 0.031144 0.003702 153235.000000 0 1 0
-8.498067 21.059545 -3.988020 23.057014 -1.187254 1.744634 0.016919 0.001583 -813219.000000 0 1 0
-9.723267 20.852445 -3.375120 23.254200 -1.134479 1.716451 0.026118 -0.007175 -768566.000000 0 1 0
-10.074467 19.501345 -3.212820 22.183768 -1.093954 1.716135 0.025001 -0.012259 1045930.000000 0 1 0
-11.427767 19.366045 -2.375020 22.611463 -1.037693 1.676027 0.030313 -0.013863 926101.000000 0 1 0
-11.405467 19.331845 -0.920220 22.464454 -1.037775 1.611771 0.034405 -0.017158 190681.000000 0 1 0
-10.938667 18.086845 -0.355720 21.140363 -1.026865 1.587624 0.026019 -0.023748 -253157.000000 0 1 0
-10.650767 18.284445 1.142980 21.191181 -1.043341 1.516834 0.019503 -0.011643 -221138.000000 0 1 0
-11.862867 18.424145 1.841280 21.990158 -0.998738 1.486966 0.030102 -0.012181 -33866.500000 0 1 0
-11.667867 18.601445 3.226880 22.193820 -1.010576 1.424884 0.020781 -0.009392 -386416.000000 0 1 0
-12.933167 18.593045 4.087980 23.014772 -0.963035 1.392225 0.030629 -0.016699 -37305.600000 0 1 0
-13.469367 17.255245 4.267880 22.302066 -0.908000 1.378242 0.020839 -0.015782 -121557.000000 0 1 0
-14.718067 17.297245 4.880380 23.230030 -0.865785 1.359130 0.025532 -0.019616 -624694.000000 0 1 0
-15.190167 15.954645 5.451080 22.693747 -0.809939 1.328223 0.014861 -0.018215 -517864.000000 0 1 0
-14.538867 15.458645 6.608480 22.226569 -0.816050 1.268908 0.017053 -0.011695 128514.000000 0 1 0
-15.127567 15.981845 7.794980 23.345757 -0.812852 1.230366 0.012352 -0.014377 -159937.000000 0 1 0
-14.082367 15.882145 9.001980 23.056262 -0.845390 1.169692 -0.001960 -0.003774 1200220.000000 0 1 0
-12.889967 16.640045 8.858180 22.836587 -0.911714 1.172450 0.004645 -0.017860 45250.300000 0 1 0
-11.985267 16.078445 7.950580 21.572546 -0.930230 1.193347 0.006812 -0.015887 -1656080.000000 0 1 0
-10.764667 16.944445 7.631680 21.476378 -1.004830 1.207505 0.010015 -0.028788 -299014.000000 0 1 0
-10.010367 17.227645 8.778480 21.772940 -1.044417 1.155804 0.016635 -0.019842 -26364.900000 0 1 0
-9.225167 18.395945 8.522880 22.274514 -1.105967 1.178156 0.020602 -0.025550 118452.000000 0 1 0
-7.966367 18.624345 9.412580 22.336649 -1.166608 1.135812 0.030580 -0.019543 -292752.000000 0 1 0
-6.957367 17.755045 8.932480 21.057915 -1.197333 1.132733 0.016861 -0.019984 313265.000000 0 1 0
-5.742267 17.797345 9.709680 21.071237 -1.258694 1.091897 0.024949 -0.020490 1230580.000000 0 1 0
-4.674967 18.808645 9.212480 21.459036 -1.327179 1.127073 0.014878 -0.021908 -585696.000000 0 1 0
-5.085567 20.178345 9.384080 22.827386 -1.323907 1.147148 0.017399 -0.025316 265308.000000 0 1 0
-4.503267 21.133845 8.439880 23.198069 -1.360853 1.198433 0.021128 -0.026419 1430620.000000 0 1 0
-3.006467 21.612445 8.744180 23.507388 -1.432575 1.189660 0.021125 -0.019678 1790530.000000 0 1 0
-1.961267 20.690545 8.399780 22.416546 -1.476288 1.186709 0.010938 -0.009452 293217.000000 0 1 0
-0.742767 21.382845 8.384180 22.979823 -1.536074 1.197325 0.009969 -0.013088 106170.000000 0 1 0
0.591033 20.639745 8.171580 22.206376 1.542168 1.193957 0.007496 -0.000325 260999.000000 0 1 0
1.028833 19.831245 9.252180 21.907524 1.518963 1.134783 0.004381 -0.011464 983644.000000 0 1 0
2.437833 19.578045 8.982480 21.677819 1.446915 1.143554 0.004932 -0.007607 1210970.000000 0 1 0
3.247333 19.418845 10.274180 22.208005 1.405104 1.089832 -0.002490 -0.018365 -1021330.000000 0 1 0
3.245033 18.107745 10.754080 21.308940 1.393472 1.041791 -0.011317 -0.009058 299606.000000 0 1 0
4.021933 17.788945 11.899380 21.776542 1.348443 0.992699 -0.025480 -0.006909 410118.000000 0 1 0
5.501633 18.272345 11.978080 22.530445 1.278339 1.010261 0.004888 -0.003363 136190.000000 0 1 0
6.456733 17.598845 11.148880 21.810692 1.219160 1.034256 -0.009019 -0.004482 274373.000000 0 1 0
7.285633 16.861545 12.014380 21.948519 1.162939 0.991555 -0.009155 0.001865 42878.000000 0 1 0
8.560933 16.158845 11.426780 21.563143 1.083595 1.012288 -0.004824 -0.004107 1724240.000000 0 1 0
9.568733 17.049545 10.861680 22.365682 1.059371 1.063701 0.008093 -0.014564 -14282.700000 0 1 0
10.687633 16.480345 10.321080 22.189006 0.995471 1.086999 0.008058 -0.012978 -733453.000000 0 1 0
11.705133 17.505545 9.807380 23.230130 0.981420 1.134944 0.011645 -0.005793 288832.000000 0 1 0
12.757333 17.016245 8.972080 23.082469 0.927478 1.171580 0.021134 -0.001503 219263.000000 0 1 0
13.573133 18.103245 8.575080 24.196889 0.927447 1.208537 0.032130 -0.001473 -157525.000000 0 1 0
14.718933 17.780845 7.619880 24.307777 0.879334 1.251946 0.024530 -0.004114 -143607.000000 0 1 0
15.905533 17.256045 8.185680 24.854827 0.826101 1.235192 0.037228 -0.000291 -480577.000000 0 1 0
16.750233 16.885945 7.147680 24.835353 0.789433 1.278865 0.053971 -0.001948 -1247770.000000 0 1 0
18.101033 16.639445 7.780180 25.788558 0.743351 1.264330 0.031495 0.002373 -1113580.000000 0 0 1
18.168733 15.484545 8.564180 25.361766 0.705807 1.226344 0.027187 0.010006 404087.000000 0 0 1
19.286033 15.604445 9.435180 26.541899 0.680269 1.207366 0.032119 0.009023 -9279.820000 0 0 1
19.471833 14.451245 10.484280 26.418003 0.638466 1.162702 0.024216 0.010194 -211736.000000 0 0 1
20.112033 13.375145 9.862980 26.089591 0.586870 1.183115 0.020271 0.007558 239512.000000 0 0 1
20.104533 12.232245 10.679080 25.843042 0.546597 1.144800 0.023720 -0.001338 239813.000000 0 0 1
21.156033 11.149345 10.203780 26.000053 0.485018 1.167500 0.022570 -0.001730 440242.000000 0 0 1
22.509833 11.598545 10.383780 27.368627 0.475785 1.181644 0.016874 -0.005392 975139.000000 0 0 1
23.481033 10.834245 9.724380 27.627945 0.432297 1.211115 0.028132 -0.005443 -341899.000000 0 0 1
23.748833 9.380945 10.200880 27.496675 0.376194 1.190726 0.034616 -0.011568 -616068.000000 0 0 1
22.637433 8.534545 9.914680 26.145606 0.360532 1.181854 0.035896 -0.010703 742583.000000 0 0 1
22.875033 7.160045 10.209980 26.053351 0.303347 1.168114 0.029841 -0.010321 -67086.000000 0 0 1
23.941733 6.260745 9.533680 26.519702 0.255772 1.203070 0.043219 -0.012302 474963.000000 0 0 1
23.517033 6.081445 8.179180 25.630720 0.253054 1.245999 0.047927 -0.007156 645352.000000 0 0 1
24.646433 5.815245 7.376880 26.375786 0.231709 1.287332 0.048678 -0.002131 173694.000000 0 0 1
24.205033 5.469345 5.940080 25.516307 0.222227 1.335845 0.048756 -0.010823 -228669.000000 0 0 1
23.515833 4.248445 5.829580 24.597311 0.178735 1.331519 0.059665 -0.009622 352669.000000 0 1 0
23.259033 3.911845 4.476880 24.006824 0.166627 1.383215 0.056591 -0.012300 -414781.000000 0 1 0
22.190233 2.818445 4.347480 22.787072 0.126336 1.378832 0.054234 -0.005425 -327029.000000 0 1 0
22.668533 1.570645 4.779680 23.220135 0.069177 1.363472 0.051157 -0.006545 376906.000000 0 1 0
21.903133 0.498445 4.251680 22.317537 0.022753 1.379116 0.035243 -0.002132 -465280.000000 0 1 0
22.371333 -0.883455 4.678780 22.872429 -0.039470 1.364782 0.033947 0.001934 -351123.000000 0 1 0
21.868333 -1.396155 5.937880 22.703120 -0.063757 1.306174 0.013810 0.000829 652758.000000 0 1 0
22.116133 -2.778455 6.050480 23.096568 -0.124975 1.305739 0.012169 0.000817 -693475.000000 0 1 0
21.516033 -3.400955 7.336080 22.985305 -0.156769 1.245949 0.012394 -0.003348 -221589.000000 0 1 0
21.700933 -4.783055 7.583880 23.480276 -0.216939 1.241910 0.011058 -0.003434 485461.000000 0 1 0
21.358733 -5.116055 8.940380 23.712864 -0.235100 1.184212 0.014631 -0.005092 -24305.600000 0 1 0
21.655633 -6.574155 9.272780 24.457523 -0.294735 1.181932 0.030574 -0.013507 198654.000000 0 1 0
20.629633 -7.443255 8.802680 23.631991 -0.346267 1.189106 0.037123 -0.005105 610527.000000 0 1 0
20.639233 -8.657155 9.501480 24.314654 -0.397162 1.169326 0.049589 0.003402 -119180.000000 0 1 0
-25.532157 -33.054849 5.397180 42.114648 0.913101 1.442288 -0.002021 -0.000967 -220419.000000 0 0 1
-26.085857 -34.267349 5.740080 43.447343 0.920137 1.438293 0.006567 -0.005113 -70415.000000 0 0 1
-26.106377 -34.414649 7.107580 43.777033 0.921825 1.407716 0.012311 -0.001304 -236199.000000 0 0 1
-26.805377 33.494045 7.634580 43.573686 -0.895871 1.394676 0.016096 0.000034 371296.000000 0 0 1
-28.215577 33.542045 7.473580 44.463940 -0.871433 1.401913 0.012812 -0.000096 -15371.000000 0 0 1
-28.772497 32.331245 7.932480 44.001025 -0.843574 1.389526 0.010436 0.007206 -560054.000000 0 0 1
-30.292737 32.384745 8.023480 45.064375 -0.818763 1.391797 0.005942 0.010179 -497150.000000 0 0 1
-30.865347 32.517345 6.736180 45.336779 -0.811456 1.421663 -0.004955 0.005135 -442000.000000 0 0 1
-32.231127 32.825545 6.830280 46.508222 -0.794535 1.423401 -0.006509 0.013014 -170135.000000 0 0 1
-32.938947 32.964545 5.457380 46.919276 -0.785787 1.454218 0.001572 0.010087 -237954.000000 0 0 1
-32.986877 31.664145 4.856680 45.981947 -0.764941 1.464977 -0.002378 0.005304 69172.800000 0 0 1
-33.505907 31.655345 3.564980 46.232194 -0.757006 1.493609 0.012123 0.007611 -153617.000000 0 0 1
-33.102907 30.367245 2.819780 45.010256 -0.742323 1.508108 0.017548 -0.000905 -233970.000000 0 0 1
-33.543647 29.222045 3.410780 44.617682 -0.716654 1.494277 0.025311 -0.007406 42847.300000 0 0 1
-33.125447 28.146845 2.606480 43.546916 -0.704323 1.510906 0.023480 -0.002611 -316080.000000 0 0 1
-33.452437 26.689045 3.103080 42.906873 -0.673411 1.498412 0.036517 -0.007524 -538916.000000 0 0 1
-34.827087 26.423345 3.008680 43.819759 -0.649047 1.502082 0.049616 -0.012883 -412573.000000 0 0 1
-35.139037 25.494945 4.034180 43.600674 -0.627665 1.478138 0.054646 -0.007346 1270930.000000 0 0 1
33.596822 25.156445 4.014680 42.162908 0.642716 1.475434 0.058188 -0.017670 770400.000000 0 0 1
33.161772 24.478845 2.892080 41.319258 0.635883 1.500746 0.043599 -0.016976 -86118.800000 0 0 1
33.587632 23.134945 2.707880 40.874042 0.603165 1.504498 0.034160 -0.007166 -1126190.000000 0 0 1
32.566982 22.322645 1.933280 39.530322 0.600886 1.521871 0.030742 -0.012618 -152014.000000 0 0 1
31.394192 21.977445 2.660880 38.414628 0.610758 1.501473 0.023730 -0.017121 607838.000000 0 0 1
31.593542 20.942745 3.623580 38.077300 0.585377 1.475488 0.004762 0.009107 -816838.000000 0 0 1
32.028252 19.544245 3.186680 37.655562 0.547900 1.486068 -0.001959 -0.001365 -427257.000000 0 0 1
31.157012 18.781545 2.390880 36.458499 0.542478 1.505171 -0.008055 -0.005495 -15373.800000 0 0 1
31.643942 17.523545 2.031880 36.229025 0.505735 1.514683 -0.013886 -0.001141 -709774.000000 0 0 1
31.166252 16.357345 2.940480 35.320595 0.483323 1.487449 -0.009243 0.000483 -229212.000000 0 0 1
29.755592 16.272145 2.923980 34.040089 0.500429 1.484792 -0.001339 0.010881 81477.100000 0 0 1
29.402302 15.161345 3.695280 33.286887 0.476090 1.459554 0.020787 -0.002896 766673.000000 0 0 1
27.868982 15.057945 4.070480 31.937293 0.495375 1.442996 0.006730 0.011400 858620.000000 0 0 1
27.094892 14.741145 2.948980 30.985981 0.498268 1.475481 0.011473 0.004329 -1022620.000000 0 0 1
25.859322 15.346345 2.991080 30.218561 0.535593 1.471652 -0.002027 0.012573 -958584.000000 0 0 1
24.969502 15.038645 1.775280 29.202543 0.542095 1.509967 0.017146 -0.004964 -332145.000000 0 0 1
25.416042 15.525445 0.536380 29.787621 0.548361 1.552789 0.022882 -0.003311 -51715.900000 0 0 1
26.427892 14.778045 -0.088520 30.279233 0.509867 1.573720 0.028197 -0.000326 -814654.000000 0 0 1
26.949832 15.341045 -1.453920 31.044404 0.517498 1.617647 0.036195 0.000657 480588.000000 0 0 1
27.593052 16.647645 -1.500720 32.261010 0.542863 1.617331 0.025702 -0.003630 766062.000000 0 0 1
28.593712 16.876745 -0.519920 33.206855 0.533202 1.586454 0.011011 0.001535 -768983.000000 0 0 1
29.145382 18.277245 -0.621220 34.407803 0.560112 1.588852 0.015228 0.004872 -763612.000000 0 0 1
30.097992 18.399045 -1.622620 35.313551 0.548690 1.616761 -0.002316 0.007418 -379100.000000 0 0 1
30.688692 19.654845 -1.522820 36.475029 0.569639 1.612558 -0.008636 0.020026 58312.600000 0 0 1
29.982622 20.821645 -2.330720 36.577736 0.606996 1.634559 -0.007524 0.013289 -53290.300000 0 0 1
30.870282 21.892945 -2.503020 37.928096 0.616868 1.636838 -0.035709 0.020082 126883.000000 0 0 1
30.508772 22.799045 -3.520920 38.248902 0.641767 1.662980 -0.017157 0.010257 -58937.800000 0 0 1
31.432662 24.061745 -3.586620 39.747247 0.653348 1.661155 -0.023003 0.011110 -145618.000000 0 0 1
31.277742 24.960245 -2.497620 40.094253 0.673532 1.633130 -0.012610 0.010239 27901.700000 0 0 1
32.058302 24.602545 -1.393220 40.434651 0.654564 1.605259 -0.006272 0.020197 -475076.000000 0 0 1
31.657162 25.428545 -0.146820 40.605521 0.676718 1.574412 0.003701 0.000564 -71264.900000 0 0 1
32.129852 26.809845 -0.082420 41.846170 0.695380 1.572766 0.011315 -0.004715 567878.000000 0 0 1
33.405912 26.852845 0.578380 42.864493 0.677075 1.557303 0.036477 -0.009689 524761.000000 0 0 1
34.310356 28.046845 0.190580 44.315487 0.685288 1.566496 0.026543 -0.012838 90057.300000 0 0 1
34.955917 27.868445 -1.065820 44.718031 0.673059 1.594633 0.018979 -0.006013 608565.000000 0 0 1
34.160682 28.409445 -2.155420 44.482520 0.693739 1.619271 0.006636 -0.008139 365257.000000 0 0 1
34.486231 27.744145 -3.499120 44.399117 0.677478 1.649689 0.015976 -0.008790 1028030.000000 0 0 1
-34.602417 28.354245 -4.049620 44.918703 -0.686476 1.661073 0.014432 -0.007765 784763.000000 0 0 1
-34.242543 27.894445 -5.354720 44.489604 -0.683588 1.691448 0.014277 -0.010499 -261344.000000 0 0 1
35.116830 27.962745 -6.578320 45.369386 0.672467 1.716304 0.002862 -0.005967 122565.000000 0 0 1
33.964442 27.129445 -6.437720 43.943536 0.673985 1.717825 -0.005928 0.001198 35441.100000 0 0 1
33.004482 27.390045 -7.450720 43.531869 0.692702 1.742799 -0.016972 0.002524 698545.000000 0 0 1
31.787922 26.397445 -7.295120 41.958502 0.693019 1.745550 -0.017997 0.005212 211631.000000 0 0 1
32.136792 25.001145 -7.537720 41.408307 0.661157 1.753851 -0.023913 0.005473 371897.000000 0 0 1
33.165282 24.336245 -6.789920 41.692826 0.633044 1.734381 -0.017731 0.006570 230122.000000 0 0 1
33.351962 22.842245 -6.970620 41.020861 0.600509 1.741554 -0.020272 0.008916 -604651.000000 0 0 1
32.265132 22.058645 -6.595820 39.637450 0.599681 1.737978 -0.014822 0.014495 -344046.000000 0 0 1
32.512982 20.644545 -6.631020 39.080195 0.565732 1.741298 -0.000311 -0.004311 -195007.000000 0 0 1
31.383092 19.788945 -6.008320 37.584581 0.562588 1.731346 0.015259 0.001669 -571193.000000 0 0 1
30.287402 19.745545 -6.845520 36.797750 0.577737 1.757917 0.004648 -0.006080 -840840.000000 0 0 1
29.211712 19.074545 -6.239020 35.441328 0.578464 1.747756 0.033705 -0.010691 -910105.000000 0 0 1
28.016352 18.953745 -7.130120 34.568758 0.594796 1.778547 0.028565 -0.024839 -790562.000000 0 0 1
27.966992 17.782645 -7.889420 34.067845 0.566359 1.804497 0.031503 -0.027409 271288.000000 0 0 1
26.770862 17.836345 -8.651620 33.311631 0.587721 1.833526 0.033422 -0.024504 130715.000000 0 0 1
26.809252 16.754245 -9.695120 33.067145 0.558558 1.868363 0.036005 -0.025212 -357183.000000 0 0 1
25.819232 16.821045 -10.679220 32.613280 0.577424 1.904400 0.037402 -0.020180 77841.400000 0 0 1
26.072992 15.780145 -11.557920 32.594469 0.544256 1.933280 0.036575 -0.016787 54743.100000 0 0 1
25.136102 15.796645 -12.805120 32.331544 0.561072 1.978015 0.026609 -0.008987 65470.100000 0 0 1
23.761802 15.525345 -12.568320 31.042265 0.578743 1.987641 0.010395 -0.003107 275293.000000 0 0 1
22.990402 15.853145 -13.707220 31.108980 0.603681 2.027085 0.008513 -0.004590 -165803.000000 0 0 1
22.692902 14.599945 -14.574120 30.668081 0.571701 2.066012 0.005715 -0.003423 -535897.000000 0 0 1
23.791702 14.037545 -15.264620 31.561153 0.533048 2.075619 0.016794 -0.006756 157076.000000 0 0 1
24.176002 14.756045 -16.469020 32.763525 0.548002 2.097473 0.036136 -0.014034 -680926.000000 0 0 1
25.592222 14.406945 -16.966920 33.917521 0.512725 2.094673 0.039540 -0.010568 -84689.200000 0 0 1
25.801852 13.052345 -17.258820 33.674414 0.468331 2.108914 0.037983 -0.010075 -714600.000000 0 0 1
27.136622 12.888345 -17.610720 34.823026 0.443402 2.101013 0.042496 -0.003652 -512110.000000 0 0 1
27.334822 11.414445 -18.132620 34.731455 0.395568 2.120085 0.021561 -0.002173 -314434.000000 0 0 1
26.542192 11.138345 -19.250220 34.628336 0.397328 2.160253 0.020232 -0.007802 -307493.000000 0 0 1
26.703922 9.843845 -19.817920 34.680696 0.353174 2.179055 -0.003482 0.009768 -618867.000000 0 0 1
27.981772 9.425845 -20.571620 35.986354 0.324918 2.179312 0.010919 0.002084 -535568.000000 0 0 1
28.373592 10.256645 -21.649820 37.134542 0.346870 2.193225 0.015638 -0.007426 199566.000000 0 0 1
29.030102 9.670845 -22.739320 38.122811 0.321569 2.209899 0.009190 0.005526 15282.500000 0 0 1
30.404982 8.968945 -22.649520 38.960309 0.286847 2.191181 0.010473 0.004441 -421693.000000 0 0 1
31.481482 9.807145 -22.447720 39.889396 0.301993 2.168504 0.014414 0.000939 -351976.000000 0 0 1
32.774002 9.236145 -22.539320 40.834575 0.274689 2.155517 -0.001349 0.007131 723479.000000 0 0 1
33.843192 10.391345 -22.499220 41.947069 0.297906 2.136928 0.020660 0.001721 50968.000000 0 0 1
33.800442 11.156945 -21.325120 41.493470 0.318822 2.110567 0.020118 0.001577 128039.000000 0 0 1
34.669575 12.267945 -21.314520 42.506360 0.340104 2.096062 0.002168 0.009158 -228427.000000 0 0 1
34.672829 13.105945 -20.038420 42.136791 0.361389 2.066393 -0.006779 0.006046 -229450.000000 0 0 1
35.097425 12.322945 -18.954620 41.748794 0.337661 2.042064 -0.005860 0.011264 316348.000000 0 0 1
34.753747 12.875945 -17.671620 41.059701 0.354812 2.015719 -0.001377 0.009282 -116202.000000 0 0 1
-35.081865 12.063845 -16.441520 40.578285 -0.331210 1.987972 -0.020096 0.005641 -351095.000000 0 0 1
34.514856 10.836645 -16.360220 39.703463 0.304224 1.995510 -0.016087 0.004815 205352.000000 0 0 1
35.091081 9.937445 -15.428820 39.600319 0.275964 1.971008 -0.013006 -0.007209 -139705.000000 0 0 1
34.229209 8.725445 -15.043620 38.393784 0.249597 1.973410 0.028858 -0.000965 -104093.000000 0 0 1
33.101972 8.917645 -14.214320 37.112152 0.263152 1.963849 0.041244 -0.007856 510821.000000 0 0 1
33.434392 8.868545 -12.833020 36.894391 0.259281 1.926053 0.025670 -0.007139 -466849.000000 0 0 1
32.183702 9.126945 -11.961320 35.526961 0.276334 1.914188 0.029135 -0.000014 -29517.000000 0 0 1
32.036602 10.534745 -11.882120 35.756251 0.317696 1.909547 0.040177 -0.008574 107725.000000 0 0 1
31.223562 10.959645 -10.810020 34.812084 0.337570 1.886542 0.014776 0.000862 -343154.000000 0 0 1
31.910712 10.812045 -9.408720 34.981679 0.326682 1.843111 0.020256 0.000610 597202.000000 0 0 1
33.110922 11.577245 -9.253720 36.276674 0.336363 1.828734 0.014075 -0.004298 484122.000000 0 0 1
32.907742 12.886245 -8.769420 36.412601 0.373233 1.814022 0.025854 -0.013129 -668988.000000 0 0 1
32.715072 13.066145 -7.211520 35.958394 0.379982 1.772717 0.015252 -0.017197 540706.000000 0 0 1
33.903832 12.829445 -6.417120 36.813638 0.361754 1.746005 0.022273 -0.016360 1022580.000000 0 0 1
33.638992 13.136645 -5.080820 36.468726 0.372306 1.710571 0.011685 -0.011817 -250535.000000 0 0 1
34.856497 13.195845 -4.152420 37.501311 0.361902 1.681751 0.005721 -0.002058 -245837.000000 0 0 1
-34.674327 14.373545 -4.264020 37.776840 -0.392969 1.683911 0.007427 0.002408 1083460.000000 0 0 1
-33.336857 14.286545 -3.715720 36.458990 -0.404875 1.672889 -0.000208 0.007317 1172130.000000 0 0 1
-32.559617 15.608645 -3.601920 36.286806 -0.447021 1.670223 0.014437 0.001869 472291.000000 0 0 1
-33.084487 16.438945 -2.514820 37.028995 -0.461147 1.638764 0.010897 0.003344 306582.000000 0 0 1
-32.154897 17.454445 -2.343020 36.661762 -0.497317 1.634749 0.030479 -0.000432 -228082.000000 0 0 1
-32.503767 18.364045 -1.159220 37.350727 -0.514273 1.601837 0.020220 0.006151 347894.000000 0 0 1
-33.714707 19.084545 -1.388820 38.766353 -0.515090 1.606629 -0.001063 0.008536 526868.000000 0 0 1
-33.906327 19.969345 -0.338020 39.351341 -0.532260 1.579386 -0.023203 0.013350 -489145.000000 0 0 1
35.048825 20.733345 -0.360120 40.723721 0.534188 1.579639 -0.019203 0.007183 -216769.000000 0 0 1
34.958185 21.866145 -1.211120 41.251301 0.558955 1.600160 0.004415 0.007092 109288.000000 0 0 1
34.697276 21.503945 -2.591620 40.902776 0.554822 1.634199 -0.011891 0.016230 -211071.000000 0 0 1
34.991124 22.662945 -3.555220 41.840500 0.574740 1.655870 0.017404 -0.019073 -537801.000000 0 0 1
-33.943827 22.965245 -3.685520 41.148134 -0.594825 1.660484 0.024607 -0.006937 -523552.000000 0 0 1
-33.777197 24.152045 -4.412220 41.757490 -0.620749 1.676657 0.029109 -0.011809 -75173.400000 0 0 1
-32.293497 24.441545 -4.700220 40.771940 -0.647875 1.686334 0.012653 -0.019434 149309.000000 0 0 1
-31.736567 23.598245 -5.714520 39.959262 -0.639371 1.714297 -0.011090 -0.003736 -404673.000000 0 0 1
-30.447397 24.045945 -6.051720 39.266713 -0.668462 1.725531 0.000370 0.005993 -63493.000000 0 0 1
-29.768377 23.124245 -7.113420 38.359975 -0.660437 1.757314 -0.001413 -0.010807 -50704.100000 0 0 1
-30.424307 23.197945 -8.378320 39.166048 -0.651441 1.786380 -0.000082 -0.019822 264845.000000 0 0 1
-29.470397 23.211745 -9.460820 38.688454 -0.667152 1.817840 -0.026815 -0.014986 125143.000000 0 0 1
-29.985927 22.857645 -10.874520 39.241342 -0.651314 1.851591 -0.028970 0.012566 -198378.000000 0 0 1
-30.850647 23.887345 -11.319320 40.626280 -0.658866 1.853154 -0.026999 0.009763 128562.000000 0 0 1
-31.204197 23.703045 -12.691420 41.189906 -0.649624 1.884012 -0.054688 0.015396 152968.000000 0 0 1
-31.999387 24.927445 -13.270520 42.678390 -0.661803 1.886981 0.002897 0.012916 832737.000000 0 0 1
-31.169087 26.121145 -13.451720 42.834273 -0.697513 1.890243 -0.002087 0.003219 -193901.000000 0 0 1
-30.479267 26.145745 -14.656020 42.747919 -0.709017 1.920743 -0.015281 0.002477 -624275.000000 0 0 1
-29.290307 27.112145 -14.487420 42.460285 -0.746799 1.918989 -0.015235 0.001154 46646.600000 0 0 1
-28.176267 26.537845 -13.779920 41.085830 -0.755462 1.912819 -0.012852 0.006098 367218.000000 0 0 1
-28.273787 26.259645 -12.368920 40.521182 -0.748481 1.880993 -0.008782 0.009256 -832921.000000 0 0 1
-28.597297 27.381045 -11.352520 41.187458 -0.763674 1.850042 0.001967 0.015753 -150194.000000 0 0 1
-27.439967 28.096145 -11.005020 40.785483 -0.797213 1.844010 0.000783 0.013183 -92082.200000 0 0 1
-27.727457 29.213845 -10.135520 41.532991 -0.811496 1.817321 -0.003419 0.001955 751310.000000 0 0 1
-26.450137 30.101545 -9.912020 41.279061 -0.849876 1.813288 0.000456 0.006500 817367.000000 0 0 1
-26.759697 31.294945 -9.199420 42.191045 -0.863360 1.790604 0.011270 -0.011185 -627184.000000 0 0 1
-25.590557 31.984445 -8.871120 41.911551 -0.895998 1.784072 0.014237 -0.000335 -646917.000000 0 0 1
33.231742 -25.505465 34.171023 54.060487 -0.654609 0.886551 0.015894 -0.004808 53462.200000 0 0 1
32.857112 -24.188155 -34.571680 53.477637 -0.634586 2.273745 0.018126 -0.015353 -158684.000000 0 0 1
31.940752 -24.208455 -33.525750 52.251668 -0.648549 2.267406 0.011606 -0.007456 -328566.000000 0 0 1
31.493782 -22.811455 -33.078380 51.052914 -0.626860 2.275651 0.012858 -0.011427 83252.700000 0 0 1
30.845202 -22.028355 -34.078862 50.971009 -0.620165 2.303111 -0.003053 -0.006515 104429.000000 0 0 1
30.595192 -20.733055 -33.642290 49.977285 -0.595573 2.309259 -0.004797 0.002021 174173.000000 0 0 1
30.229212 -19.800655 34.358012 49.863255 -0.579894 0.810626 -0.005817 0.015986 59623.100000 0 0 1
31.321632 -19.607655 33.482138 49.865402 -0.559325 0.834632 0.006819 0.002733 -73485.600000 0 0 1
31.152712 -18.717855 32.374779 48.672126 -0.541038 0.843087 0.006152 0.016803 -130065.000000 0 0 1
32.335232 -18.669055 31.368109 48.765347 -0.523606 0.872066 0.005217 0.022430 894407.000000 0 0 1
33.465392 -17.820555 31.672969 49.403255 -0.489314 0.874851 0.000417 0.006740 478440.000000 0 0 1
34.189912 -17.468855 30.559669 49.071421 -0.472358 0.898532 0.016254 0.005684 -298679.000000 0 0 1
-34.766761 -16.811355 31.019919 49.533672 0.450399 0.894077 0.002409 -0.003603 -898798.000000 0 0 1
-33.872757 -16.505055 29.996369 48.161838 0.453409 0.898449 0.020501 -0.000798 70993.200000 0 0 1
-32.842327 -15.626455 30.415699 47.412227 0.444103 0.874324 0.016305 -0.008990 -89705.100000 0 0 1
-31.647767 -16.301755 31.122989 47.286032 0.475654 0.852390 0.026508 -0.018080 -1251030.000000 0 0 1
-30.827487 -15.254555 31.609659 46.714087 0.459508 0.827576 0.017446 -0.014303 -586813.000000 0 0 1
-29.779937 -15.871755 32.288719 46.704589 0.489673 0.807455 0.020634 -0.014571 -1295690.000000 0 0 1
-28.675327 -14.921455 32.574309 45.891282 0.479802 0.781561 0.020099 -0.010974 -1105810.000000 0 0 1
-29.004107 -14.194455 33.767068 46.721897 0.455127 0.763060 0.018225 -0.012814 493110.000000 0 0 1
-28.119347 -13.128055 34.084741 46.095694 0.436793 0.738567 0.007058 -0.008395 -113114.000000 0 0 1
-28.311677 -12.590155 -33.619430 45.720117 0.418436 2.396952 0.009481 -0.007236 -118006.000000 0 0 1
-28.268547 -13.563555 -32.573190 45.211652 0.447366 2.375262 0.014609 -0.007207 306712.000000 0 0 1
-28.364057 -12.911855 -31.353150 44.206965 0.427185 2.359210 0.027064 -0.004641 -761888.000000 0 0 1
-28.477577 -13.948255 -30.180590 43.776640 0.455453 2.331487 0.027351 -0.009260 -206560.000000 0 0 1
-29.742297 -14.575655 -30.157750 44.794462 0.455668 2.309388 0.007853 -0.010344 17373.000000 0 0 1
-30.204997 -15.123055 -28.938160 44.479947 0.464192 2.279156 0.006388 -0.010766 487725.000000 0 0 1
-31.386727 -16.129855 -29.045930 45.705195 0.474711 2.259460 0.004513 -0.017696 115703.000000 0 0 1
-31.106427 -17.419455 -29.494430 46.270602 0.510485 2.261959 0.002383 -0.007056 119040.000000 0 0 1
-32.297077 -18.167755 -29.693950 47.485778 0.512405 2.246342 0.004570 -0.009009 175940.000000 0 0 1
-31.936817 -19.635555 -30.036750 48.038751 0.551249 2.246262 -0.002443 -0.004881 642291.000000 0 0 1
-33.088237 -20.462155 -30.247130 49.279002 0.553848 2.231653 -0.000301 -0.004376 521302.000000 0 0 1
-32.602767 -21.603955 -30.946100 49.873163 0.585211 2.240171 0.002439 -0.009051 454769.000000 0 0 1
-33.730277 -22.544855 -31.464070 51.341891 0.589192 2.230439 0.005076 -0.007960 124342.000000 0 0 1
-34.568250 -22.999755 -30.433480 51.479601 0.587086 2.203312 -0.003353 -0.008933 -64311.300000 0 0 1
34.615097 -23.771355 -30.869680 52.117362 -0.601767 2.204720 0.014058 -0.016819 197101.000000 0 0 1
34.913617 -25.284555 -31.100460 53.155507 -0.626786 2.195780 0.007391 -0.014405 -86378.200000 0 0 1
-34.664628 -25.556915 -32.297250 53.832190 0.635299 2.214250 0.017258 -0.014854 -308217.000000 0 0 1
-34.026067 -26.795085 -32.133990 53.929056 0.667064 2.209128 0.020349 -0.012473 -293268.000000 0 0 1
-34.239521 -27.728315 -33.357190 55.262160 0.680708 2.218827 0.026439 -0.019742 164172.000000 0 0 1
34.716053 -28.194765 -33.429140 55.835979 -0.682108 2.212677 0.020409 -0.011935 -341218.000000 0 0 1
34.574264 -29.448755 -34.122151 56.806074 -0.705511 2.215145 0.017760 -0.017726 246172.000000 0 0 1
-35.057752 -30.720445 -33.452720 57.374874 0.719555 2.193281 0.015962 -0.023857 84657.000000 0 0 1
34.759816 -30.998535 -32.179040 56.609580 -0.728262 2.175402 0.023160 -0.023008 -596133.000000 0 0 1
-34.638685 -31.789165 -31.482880 56.582340 0.742528 2.160853 0.015970 -0.025077 -571875.000000 0 0 1
35.040786 -32.410095 -30.216840 56.491843 -0.746416 2.135172 0.013175 -0.019883 93321.700000 0 0 1
34.071222 -33.408255 -30.458880 56.610097 -0.775574 2.138914 0.022393 -0.013235 1510.360000 0 0 1
33.560982 -33.920215 -29.270170 55.979133 -0.790722 2.121018 0.030480 -0.015132 -229543.000000 0 0 1
32.395672 34.289373 -29.391320 55.579585 0.813788 2.128000 0.024798 -0.023777 986100.000000 0 0 1
31.122682 -34.384141 -29.824640 55.139819 -0.835145 2.142293 0.026453 -0.018791 1649860.000000 0 0 1
30.023662 33.907080 -29.535130 54.068792 0.846068 2.148678 0.019214 -0.022923 1679690.000000 0 0 1
28.634652 34.166091 -30.202960 53.846856 0.873251 2.166275 -0.004563 -0.006634 584008.000000 0 0 1
28.553652 33.820934 -31.600780 54.385438 0.869644 2.190817 0.004640 0.000490 23542.000000 0 0 1
27.337492 34.195081 -32.233910 54.366046 0.896387 2.205458 0.003563 0.005936 -68280.700000 0 0 1
27.293512 33.727271 -33.687170 54.929864 0.890446 2.230998 0.009666 -0.001318 -18269.900000 0 0 1
27.106582 32.353129 -33.660110 53.986060 0.873407 2.244003 -0.006480 0.001515 -91811.000000 0 0 1
26.893422 31.836239 34.230798 53.930972 0.869362 0.883157 0.000073 0.000695 -124236.000000 0 0 1
26.899672 30.322939 34.279905 53.086579 0.845151 0.868810 0.002321 -0.011618 -782841.000000 0 0 1
28.154322 29.761109 34.416777 53.506112 0.813135 0.872086 0.001514 -0.009063 -1081760.000000 0 0 1
28.048872 28.364849 34.377181 52.660179 0.790999 0.859506 0.000676 -0.011285 826570.000000 0 0 1
29.419132 27.669379 -34.462210 53.091654 0.754758 2.277207 0.025479 -0.017839 818152.000000 0 0 1
29.967422 27.939749 -33.179540 52.721512 0.750397 2.251495 0.028895 -0.010000 -355600.000000 0 0 1
31.176492 27.240929 -33.030140 52.962553 0.718130 2.244201 0.043332 -0.010893 -22303.500000 0 0 1
31.764262 27.365139 -31.583520 52.491312 0.711137 2.216412 0.032623 -0.011326 -383165.000000 0 0 1
32.432922 28.546229 -31.204500 53.296364 0.721746 2.196281 0.022311 -0.012119 -342008.000000 0 0 1
31.846932 29.818209 -31.348520 53.722270 0.752511 2.193864 0.027264 -0.015098 86191.600000 0 0 1
30.835202 30.202589 -30.210840 52.684921 0.775034 2.181476 0.025567 -0.006605 600597.000000 0 0 1
31.504912 30.512989 -28.981720 52.569402 0.769405 2.154723 0.017229 -0.001073 -504980.000000 0 0 1
30.601332 30.724609 -27.975210 51.604801 0.787408 2.143736 0.019592 -0.001566 -803204.000000 0 0 1
31.185762 31.193679 -26.640000 51.529476 0.785525 2.114122 0.036680 -0.006250 -186892.000000 0 0 1
31.553972 32.543219 -26.526570 52.520216 0.800830 2.100263 0.034393 -0.012726 37688.600000 0 0 1
31.707782 32.902659 -25.164180 52.165164 0.803890 2.074182 0.027543 -0.020325 -27525.800000 0 0 1
32.234892 34.353065 -25.001220 53.331813 0.817198 2.058712 0.025412 -0.016766 572714.000000 0 0 1
31.166422 -33.888985 -25.128180 52.452212 -0.827224 2.070389 0.032175 -0.013823 347572.000000 0 0 1
31.513782 -32.556825 -25.025220 51.762215 -0.801676 2.075405 0.029712 -0.024092 -495347.000000 0 0 1
32.156312 -31.803755 -26.222220 52.279174 -0.779886 2.096221 0.023594 -0.026977 293286.000000 0 0 1
33.461462 -32.169125 -26.612160 53.504477 -0.765710 2.091375 0.029746 -0.029827 89836.800000 0 0 1
34.471244 -31.381055 -26.009050 53.380783 -0.738506 2.079718 0.026970 -0.026196 -543186.000000 0 0 1
-34.360711 -31.686725 -26.339060 53.651217 0.744934 2.083955 0.001891 -0.015163 -475995.000000 0 0 1
-33.920427 -32.970355 -25.979400 53.968221 0.771196 2.073029 0.002514 -0.017565 -355984.000000 0 0 1
-33.703477 -33.292375 -24.616920 53.388195 0.779262 2.050023 0.015478 -0.013342 -478184.000000 0 0 1
-32.316897 -33.015095 -24.042620 52.080955 0.796085 2.050639 -0.007452 -0.001654 -278574.000000 0 0 1
-32.241057 -31.612575 -23.766020 51.026114 0.775556 2.055292 -0.010472 0.001118 -108887.000000 0 0 1
-32.321167 -31.169515 -22.398920 50.178761 0.767261 2.033515 -0.025921 0.009818 -478170.000000 0 0 1
-32.224307 -29.606985 -22.245720 49.090239 0.743093 2.041103 -0.033151 0.022198 786826.000000 0 0 1
-33.348967 -28.856595 -22.771120 49.632455 0.713305 2.047435 -0.032959 0.014983 326522.000000 0 0 1
-33.379737 -28.681075 -24.166420 50.207835 0.709832 2.072965 -0.029678 0.018144 -732805.000000 0 0 1
-34.434910 -27.793615 -24.742320 50.699413 0.679076 2.080616 -0.024870 0.013624 -610484.000000 0 0 1
-34.299731 -26.417425 -24.464620 49.727955 0.656300 2.085146 -0.027001 0.015009 -89476.400000 0 0 1
35.019028 -25.598015 -25.104860 50.118307 -0.631213 2.095448 -0.016192 0.004271 -228406.000000 0 0 1
-34.866605 -24.983655 -26.386770 50.359952 0.621747 2.122294 -0.012258 -0.005949 -573199.000000 0 0 1
-33.849427 -24.041555 -26.213040 49.100952 0.617572 2.133955 -0.021213 -0.001563 -533976.000000 0 0 1
-33.558637 -23.317055 -27.371280 49.183881 0.607238 2.160975 -0.013990 -0.005386 403897.000000 0 0 1
-32.352827 -22.318755 -27.230670 47.815705 0.603885 2.176684 -0.013231 -0.014140 -114760.000000 0 0 1
-32.310277 -21.222955 -26.286660 46.747794 0.581175 2.167971 -0.013054 -0.000777 129704.000000 0 0 1
-33.307257 -20.192355 -26.422600 47.066531 0.544999 2.166859 -0.012101 -0.004702 539759.000000 0 0 1
-34.521495 -20.220355 -25.433900 47.407590 0.529862 2.137074 -0.002909 -0.002440 409966.000000 0 0 1
-34.195983 -19.829755 -24.121020 46.307753 0.525498 2.118684 -0.002498 -0.003024 -316010.000000 0 0 1
-33.566807 -20.834755 -23.374220 45.903940 0.555498 2.105050 -0.026330 -0.005484 -811246.000000 0 0 1
-34.395391 -21.969455 -22.812120 46.755670 0.568414 2.080479 -0.012938 0.003535 -582554.000000 0 0 1
34.972176 -21.491955 -21.883420 46.517107 -0.551045 2.060584 -0.005864 0.006483 -462763.000000 0 0 1
34.430144 -22.577655 -21.176320 46.299264 -0.580409 2.045842 -0.002876 0.009565 -589955.000000 0 0 1
33.289352 -22.302855 -20.202620 44.874761 -0.590286 2.037786 -0.003646 0.004015 -848892.000000 0 0 1
32.127322 -22.005055 -20.900620 44.195285 -0.600542 2.063393 0.024434 0.007356 -796203.000000 0 0 1
31.021962 -21.917755 -20.025320 42.939068 -0.615091 2.055974 0.028545 0.010115 -2.442280 0 0 1
29.821472 -21.167755 -20.610520 41.978418 -0.617283 2.084009 0.025659 0.019745 -316987.000000 0 0 1
29.296052 -21.803455 -21.764920 42.513069 -0.639808 2.108259 0.023688 0.020564 756186.000000 0 0 1
28.081002 -21.251955 -22.306720 41.686665 -0.647845 2.135428 0.033787 0.024952 796080.000000 0 0 1
28.202912 -19.928655 -23.157920 41.579379 -0.615153 2.161514 0.023681 0.008286 -364871.000000 0 0 1
28.528622 -18.862855 -22.299320 40.828290 -0.584202 2.148585 0.019390 0.017236 -112602.000000 0 0 1
28.423762 -17.640155 -22.959520 40.573697 -0.555438 2.172287 0.005681 0.012722 -109124.000000 0 0 1
29.281792 -16.530755 -22.328520 40.363994 -0.513938 2.156972 0.002138 0.008186 -503834.000000 0 0 1
28.831622 -16.053455 -21.090920 39.163794 -0.508049 2.139489 -0.011419 0.006369 -162343.000000 0 0 1
29.788302 -15.626255 -20.151920 39.212532 -0.483115 2.110539 -0.015264 -0.000885 -352291.000000 0 0 1
30.603182 -16.690255 -19.420220 39.903187 -0.499287 2.079086 0.009277 -0.007436 413925.000000 0 0 1
31.638482 -17.274355 -20.243820 41.342582 -0.499761 2.082496 0.002335 0.000780 651315.000000 0 0 1
32.458612 -18.230155 -19.559820 42.053378 -0.511738 2.054565 0.004034 -0.000771 -387707.000000 0 0 1
33.604292 -18.648255 -20.454820 43.536255 -0.506625 2.059899 -0.012336 0.002102 -548117.000000 0 0 1
34.529039 -17.576355 -20.556120 43.860425 -0.470846 2.058582 -0.015838 0.001352 -25749.800000 0 0 1
-34.770300 -17.905855 -21.513320 44.636491 0.475556 2.073695 -0.015240 0.007663 -44606.000000 0 0 1
-33.884607 -16.808355 -22.038920 43.776722 0.460480 2.098371 -0.017874 0.008877 -29353.000000 0 0 1
-33.037337 -16.198755 -21.086020 42.408555 0.455871 2.091178 -0.015264 0.007572 658798.000000 0 0 1
-32.129587 -15.217755 -21.669120 41.634615 0.442336 2.118185 -0.006656 -0.000309 619075.000000 0 0 1
-30.923297 -14.811655 -20.765220 40.085281 0.446691 2.115338 -0.004925 0.010481 4005.010000 0 0 1
-29.842087 -15.726455 -20.717020 39.586190 0.485005 2.121562 -0.009489 -0.002222 233827.000000 0 0 1
-30.089497 -16.922855 -19.983620 39.888669 0.512327 2.095533 -0.014721 -0.001427 -521011.000000 0 0 1
-29.037977 -18.043555 -20.118320 39.667629 0.555990 2.102697 -0.017391 -0.010370 -462998.000000 0 0 1
-29.459797 -19.205755 -19.411720 40.169087 0.577731 2.075160 -0.025400 -0.003782 32961.500000 0 0 1
-28.453187 -20.169355 -19.359120 39.889375 0.616648 2.077526 -0.022399 -0.004975 -397406.000000 0 0 1
-28.949397 -21.556755 -18.921320 40.752639 0.640059 2.053637 -0.030156 0.004186 -469775.000000 0 0 1
-29.922177 -22.096655 -19.765620 42.122186 0.636082 2.059232 -0.036309 0.013866 -22299.500000 0 0 1
-30.148537 -23.490655 -19.461420 42.889299 0.661906 2.041776 -0.033057 0.027798 -224132.000000 0 0 1
-31.071477 -24.167155 -20.467220 44.366599 0.661052 2.050279 -0.037961 0.022125 12777.600000 0 0 1
-30.466537 -24.415955 -21.751020 44.692903 0.675595 2.079078 -0.040889 0.011472 713763.000000 0 0 1
-31.420217 -25.082095 -22.581420 46.111409 0.673691 2.082558 -0.027895 0.014600 212222.000000 0 0 1
-31.090747 -25.058925 -24.060220 46.620580 0.678385 2.113071 -0.020164 0.016913 -517380.000000 0 0 1
-29.934387 -25.736445 -24.416420 46.417601 0.710134 2.124706 -0.026320 0.015622 -827586.000000 0 0 1
-29.823417 -25.928025 -25.841280 47.217268 0.715641 2.149913 -0.011070 0.018519 235510.000000 0 0 1
-28.361047 -26.223055 -26.241560 46.697078 0.746249 2.167541 -0.003110 0.015291 295884.000000 0 0 1
-27.573157 -25.072715 -26.417140 45.681345 0.737938 2.187429 0.005297 0.005787 710379.000000 0 0 1
-26.151997 -25.293715 -26.434250 44.971864 0.768716 2.199127 0.005666 0.011523 1023600.000000 0 0 1
-25.339247 -24.040855 -26.731410 43.984184 0.759110 2.224021 0.018558 0.009115 -239304.000000 0 0 1
-25.402647 -23.721855 -28.134980 44.716864 0.751197 2.251295 0.011340 0.000781 134367.000000 0 0 1
-24.567767 -22.612555 -28.449150 43.866353 0.743981 2.276463 0.028728 -0.015668 136679.000000 0 0 1
-24.380367 -22.307155 -29.942030 44.593011 0.741021 2.306962 0.012749 -0.008023 -212808.000000 0 0 1
-23.522167 -23.163255 -30.632500 45.035306 0.777710 2.318816 0.019361 -0.007933 -29124.200000 0 0 1
-23.287867 -22.680555 -31.974250 45.596984 0.772187 2.347926 0.020146 -0.006095 2161.640000 0 0 1
-22.766467 -23.882855 -32.855920 46.564087 0.809325 2.354075 0.022585 -0.003193 -378850.000000 0 0 1
-23.809367 -24.701455 -33.296350 47.808940 0.803786 2.341229 0.009697 -0.000213 -393506.000000 0 0 1
-23.492167 -25.753485 -34.188082 48.825698 0.831285 2.346483 0.012461 0.000375 -199245.000000 0 0 1
-19.670767 -15.091655 -12.315920 27.683551 0.654426 2.031839 -0.040117 0.027066 -137159.000000 0 0 1
-19.914067 -14.453455 -11.044920 26.971516 0.627827 1.992706 -0.037310 0.022609 337759.000000 0 0 1
-18.858267 -14.689855 -10.095520 25.948903 0.661780 1.970401 -0.039811 0.011782 284164.000000 0 0 1
-19.099667 -14.052855 -8.718920 25.264591 0.634328 1.923146 -0.025778 -0.002243 -349782.000000 0 0 1
-20.277167 -14.523955 -8.137320 26.235944 0.621563 1.886157 -0.005496 -0.006668 -351471.000000 0 0 1
-20.473767 -13.992255 -6.856220 25.728701 0.599514 1.840537 -0.016370 -0.013878 871015.000000 0 0 1
-21.735167 -14.680755 -6.158020 26.941849 0.594050 1.801402 -0.005390 -0.016887 519379.000000 0 0 1
-21.686467 -15.999355 -5.646520 27.534803 0.635620 1.777330 -0.013596 -0.008655 -21649.500000 0 0 1
-20.862667 -16.076155 -4.507120 26.720924 0.656537 1.740280 -0.005826 -0.007353 -416385.000000 0 0 1
-20.648967 -17.467355 -3.901020 27.325927 0.702120 1.714045 -0.016188 -0.002691 -284343.000000 0 0 1
-21.789067 -18.212255 -3.540820 28.617950 0.696218 1.694841 0.002034 -0.004901 -6338.240000 0 0 1
-21.472067 -19.263755 -2.601020 28.963895 0.731241 1.660720 -0.004873 0.001643 176172.000000 0 0 1
-22.656867 -20.243555 -2.412120 30.478738 0.729204 1.650020 0.002582 -0.005628 241707.000000 0 0 1
-22.953067 -21.058955 -3.558720 31.352629 0.742388 1.684548 -0.009144 -0.014655 227521.000000 0 0 1
-24.001767 -21.998955 -3.299220 32.724970 0.741887 1.671784 0.006592 -0.011400 302370.000000 0 0 1
-24.014567 -23.219555 -4.219320 33.669717 0.768568 1.696442 -0.001290 -0.005837 -232361.000000 0 0 1
-22.989767 -24.207055 -4.034720 33.627219 0.811184 1.691070 -0.004077 -0.004422 -21501.900000 0 0 1
-22.739867 -24.916755 -5.263520 34.141630 0.831045 1.725581 -0.003006 -0.009064 693909.000000 0 0 1
-21.352467 -24.706555 -5.981620 33.198215 0.858091 1.751965 -0.004141 -0.006209 636204.000000 0 0 1
-21.074267 -23.370755 -6.498520 32.133280 0.837023 1.774437 -0.007346 -0.003795 182655.000000 0 0 1
-20.697367 -22.486255 -5.418320 31.038216 0.826800 1.746265 -0.009871 0.004659 -876233.000000 0 0 1
-20.723767 -21.002455 -5.880820 30.085905 0.792077 1.767531 -0.012928 0.016294 -327049.000000 0 0 1
-19.632167 -20.756455 -6.710820 29.347700 0.813228 1.801503 -0.024003 0.018869 -214383.000000 0 0 1
-19.819467 -19.430355 -7.207020 28.675618 0.775485 1.824850 -0.034546 0.016288 804548.000000 0 0 1
-18.737367 -18.973655 -8.265820 27.917956 0.791664 1.871378 -0.028219 0.016765 505767.000000 0 0 1
-19.001867 -19.527055 -9.560120 28.875123 0.799028 1.908250 -0.043990 0.013891 394463.000000 0 0 1
-17.886467 -19.536955 -10.462320 28.479439 0.829473 1.946970 0.013871 0.015810 302151.000000 0 0 1
-17.534267 -18.180355 -11.148720 27.609233 0.803486 1.986467 0.012022 0.020149 130191.000000 0 0 1
-16.997867 -17.091455 -10.361220 26.237381 0.788144 1.976759 0.002223 0.012846 282267.000000 0 0 1
-15.721167 -17.292955 -9.777320 25.333720 0.832972 1.967024 0.032409 0.014010 -259510.000000 0 0 1
-15.304467 -16.226055 -8.764920 23.965295 0.814618 1.945217 0.011224 0.012146 314580.000000 0 1 0
-16.158267 -16.235255 -7.612020 24.137439 0.787775 1.891634 0.001622 0.010479 463026.000000 0 1 0
-15.934467 -15.095255 -6.838120 22.989864 0.758359 1.872807 -0.009129 0.007248 264680.000000 0 1 0
-16.679867 -15.385655 -5.479520 23.344410 0.745059 1.807732 -0.006741 -0.000775 327157.000000 0 1 0
-17.099967 -14.245755 -4.735820 22.754744 0.694593 1.780453 -0.006732 0.001509 89195.500000 0 1 0
-17.238567 -14.468655 -3.333220 22.751275 0.698260 1.717833 -0.019009 -0.002692 -244029.000000 0 1 0
-18.211067 -13.418455 -2.714020 22.782972 0.635019 1.690205 -0.011606 0.000043 -258896.000000 0 1 0
-19.541467 -13.548155 -3.140720 23.985111 0.606217 1.702118 -0.006996 -0.003701 -316337.000000 0 1 0
-20.275667 -12.569955 -2.467820 23.983256 0.554962 1.673876 -0.011377 0.005840 -616864.000000 0 1 0
-21.777167 -12.578255 -2.776420 25.301502 0.523778 1.680751 -0.018870 0.008938 -231616.000000 0 0 1
-22.139367 -11.784455 -3.944920 25.388725 0.489141 1.726809 -0.011119 -0.007004 -406641.000000 0 0 1
-23.509867 -11.765955 -4.140120 26.613758 0.464023 1.726994 -0.015630 -0.003269 -978700.000000 0 0 1
-23.996867 -10.994855 -5.345420 26.931579 0.429635 1.770605 -0.005264 -0.010898 -250182.000000 0 0 1
-23.710267 -11.651455 -6.545720 27.217267 0.456752 1.813676 -0.003068 -0.016560 165496.000000 0 0 1
-24.219067 -10.994855 -7.667820 27.681140 0.426155 1.851472 0.010730 -0.014272 -645737.000000 0 0 1
-23.546067 -11.405555 -8.993620 27.665667 0.451084 1.901895 0.029933 -0.018654 -562136.000000 0 0 1
-22.240367 -10.900555 -9.105220 26.388654 0.455716 1.923081 0.011338 -0.013263 69748.000000 0 0 1
-21.643767 -11.258555 -10.378420 26.512625 0.479657 1.973005 0.001960 -0.004788 210651.000000 0 0 1
-20.203067 -10.706455 -10.507420 25.163425 0.487313 2.001563 -0.004740 0.004156 555.692000 0 0 1
-20.164267 -9.291155 -10.626420 24.613899 0.431777 2.017200 0.002160 -0.006431 216542.000000 0 1 0
-18.805267 -8.935055 -10.581120 23.354515 0.443559 2.040997 -0.009246 0.005542 -302608.000000 0 1 0
-18.617467 -7.516455 -11.138420 22.960217 0.383719 2.077295 -0.044183 0.013684 -144429.000000 0 1 0
-18.710867 -7.405255 -12.569220 23.725927 0.376857 2.129122 0.000990 0.000045 293712.000000 0 1 0
-18.540667 -6.134255 -13.075520 23.502226 0.319518 2.160786 0.004655 -0.005181 -356139.000000 0 1 0
-17.926267 -6.020055 -14.472320 23.812605 0.323990 2.224032 0.005311 -0.005600 -478732.000000 0 1 0
-18.649267 -6.635255 -15.466920 25.120656 0.341825 2.234077 0.016599 -0.014281 117260.000000 0 0 1
-18.127667 -6.212255 -16.708720 25.424117 0.330152 2.287894 0.019355 -0.025369 27400.500000 0 0 1
-18.706667 -7.097355 -17.871720 26.827415 0.362625 2.299863 0.026041 -0.018612 165613.000000 0 0 1
-20.078667 -7.015855 -18.188420 27.985598 0.336157 2.278276 0.036545 -0.031644 270390.000000 0 0 1
-20.452467 -7.952555 -19.183820 29.147306 0.370841 2.289179 0.054846 -0.028484 87926.700000 0 0 1
-21.864767 -7.725555 -19.793220 30.488092 0.339641 2.277344 0.042968 -0.032155 -561124.000000 0 0 1
-21.977967 -6.494455 -20.511020 30.755665 0.287322 2.300840 0.044288 -0.033491 16488.000000 0 0 1
-23.225267 -6.331255 -21.128320 32.029732 0.266135 2.291145 0.035857 -0.030877 -300482.000000 0 0 1
-24.472067 -6.079755 -20.293020 32.367455 0.243507 2.248438 0.056279 -0.035114 -727938.000000 0 0 1
-24.501467 -4.774255 -19.795020 31.858409 0.192444 2.241253 0.044599 -0.026120 -11895.900000 0 0 1
-25.722637 -4.628855 -19.108920 32.376398 0.178047 2.202117 0.054831 -0.024900 -201978.000000 0 0 1
-25.794527 -3.317355 -18.268220 31.781918 0.127905 2.183155 0.040351 -0.017091 -256882.000000 0 0 1
-25.966457 -2.080655 -18.992320 32.238086 0.079958 2.200774 0.041174 -0.016118 181793.000000 0 0 1
-27.242457 -1.908655 -19.578620 33.602333 0.069947 2.192790 0.043019 -0.015313 24635.300000 0 0 1
-27.341667 -0.640655 -20.449620 34.149145 0.023427 2.212839 0.041981 -0.009837 71046.000000 0 0 1
-26.658427 -0.691255 -21.730520 34.400073 0.025924 2.254540 0.036781 -0.006900 457562.000000 0 0 1
-27.280557 -1.519455 -22.723620 35.537310 0.055640 2.264553 0.035608 0.002505 -61463.400000 0 0 1
-26.753287 -1.270955 -24.194320 36.093196 0.047471 2.305449 0.035170 0.003355 -569023.000000 0 0 1
-26.954507 0.006645 -24.753020 36.595867 -0.000247 2.313644 0.012408 0.006962 -119000.000000 0 0 1
-26.445027 1.160645 -24.152520 35.833375 -0.043861 2.310438 0.021296 0.002025 -409806.000000 0 0 1
-24.927567 1.183645 -23.913520 34.563580 -0.047448 2.334873 0.028222 -0.006630 -490069.000000 0 0 1
-24.148367 1.156545 -25.075920 34.832212 -0.047857 2.374463 0.027446 0.003164 490786.000000 0 0 1
-22.731167 1.148545 -24.843320 33.692961 -0.050484 2.399927 0.035300 -0.000400 1130170.000000 0 0 1
-21.939467 0.437645 -25.995640 34.019186 -0.019945 2.440513 0.034774 -0.004203 72520.700000 0 0 1
-21.945267 1.107445 -27.209140 34.973682 -0.050421 2.462255 0.017310 0.004426 6020.230000 0 0 1
-21.116467 0.470245 -28.148290 35.191654 -0.022265 2.497853 0.006321 -0.003884 -77333.700000 0 0 1
-20.896667 1.347845 -29.365210 36.066645 -0.064411 2.522134 0.011089 0.005286 -641571.000000 0 0 1
-19.842467 2.264945 -29.303560 35.461981 -0.113654 2.543369 0.015188 0.001502 -12709.400000 0 0 1
-19.635667 3.016645 -30.488180 36.389403 -0.152439 2.564095 -0.001693 0.003163 -123819.000000 0 0 1
-19.035267 2.302745 -31.708070 37.054631 -0.120388 2.597720 0.000330 0.000754 -855333.000000 0 0 1
-17.643167 2.215645 -31.640940 36.295172 -0.124927 2.629594 -0.012820 0.004013 -481751.000000 0 0 1
-17.195667 1.648645 -32.901050 37.160302 -0.095583 2.658111 -0.020392 0.006849 1011210.000000 0 0 1
-15.634267 1.530745 -33.041930 36.586098 -0.097599 2.697796 -0.021638 -0.007635 638711.000000 0 0 1
-14.986067 2.754145 -33.242470 36.568146 -0.181752 2.711808 -0.017168 0.000420 -457729.000000 0 0 1
-13.592867 2.677845 -33.139170 35.918539 -0.194513 2.745616 -0.006496 -0.007718 -835762.000000 0 0 1
-12.928167 3.859445 -33.656140 36.259737 -0.290108 2.760331 0.007418 0.006832 -876818.000000 0 0 1
-12.947667 4.879945 -32.636190 35.448227 -0.360433 2.740595 0.018748 -0.007286 75518.200000 0 0 1
-12.466967 6.042545 -33.192000 35.967297 -0.451320 2.746182 0.016136 0.004047 -440887.000000 0 0 1
-12.273767 7.152645 -32.105330 35.107804 -0.527646 2.725013 0.020504 0.002647 -352577.000000 0 0 1
-11.152467 7.011045 -31.254290 33.917000 -0.561223 2.742704 0.045727 -0.008103 329532.000000 0 0 1
-11.341667 6.058345 -30.219860 32.841694 -0.490606 2.739304 0.048535 -0.013867 -201995.000000 0 0 1
-9.958467 5.497845 -29.743070 31.844113 -0.504437 2.776305 0.058108 -0.015675 538800.000000 0 0 1
-9.285667 4.689845 -30.721750 32.435230 -0.467690 2.815097 0.043845 -0.012408 447734.000000 0 0 1
-9.997067 3.515045 -31.095540 32.851628 -0.338106 2.813147 0.044638 -0.011201 -752511.000000 0 0 1
-9.344267 2.708445 -32.167610 33.606638 -0.282120 2.847896 0.034542 -0.009664 -717010.000000 0 0 1
-10.065867 1.558745 -32.431620 33.993548 -0.153634 2.837277 0.035847 -0.010125 107160.000000 0 0 1
-9.610167 0.761845 -33.521810 34.880474 -0.079109 2.861566 0.024733 -0.003470 -503996.000000 0 0 1
-9.874867 1.303245 34.206067 35.626766 -0.131218 0.283356 0.024765 -0.003931 366087.000000 0 0 1
-11.282067 1.328545 33.950819 35.800952 -0.117217 0.322892 0.018321 -0.005041 376026.000000 0 0 1
-11.452067 1.527345 32.591539 34.578766 -0.132586 0.340672 0.000410 0.006824 795798.000000 0 0 1
-12.901567 1.174145 32.076949 34.594215 -0.090758 0.383837 -0.004764 0.005740 935882.000000 0 0 1
-13.886067 2.086345 32.579639 35.476874 -0.149132 0.406944 -0.015494 0.013026 -2406.500000 0 0 1
-15.073767 1.725945 31.905679 35.329445 -0.114003 0.443884 -0.023482 0.018878 20671.600000 0 0 1
-15.959267 2.942345 31.438729 35.380069 -0.182319 0.476512 -0.017617 0.016998 129621.000000 0 0 1
-16.755967 3.502445 32.441989 36.681224 -0.206060 0.485524 -0.021305 0.007146 -29500.400000 0 0 1
-16.052467 4.583945 33.003249 36.985250 -0.278157 0.468303 -0.012800 0.008960 -173421.000000 0 0 1
-16.648967 5.096845 34.337373 38.499625 -0.297076 0.469292 -0.014700 0.011060 -552288.000000 0 0 1
-17.865767 5.732945 34.092649 38.914792 -0.310510 0.503116 -0.019626 0.011158 -681693.000000 0 0 1
-18.708067 5.379345 -33.982340 39.162846 -0.279988 2.621391 -0.025859 0.014661 572286.000000 0 0 1
-20.115967 6.083445 -33.994620 39.966168 -0.293674 2.587893 -0.016861 0.006536 448147.000000 0 0 1
-20.195367 7.462045 -33.588700 39.896563 -0.353934 2.571581 -0.014064 -0.000087 297851.000000 0 0 1
-19.602667 8.410745 -34.484946 40.548942 -0.405306 2.587641 -0.012256 0.001488 -190742.000000 0 0 1
-19.494367 9.859445 -34.002820 40.415724 -0.468244 2.570529 0.004920 0.005702 -450267.000000 0 0 1
-18.537967 10.248545 -33.044240 39.250614 -0.505022 2.571551 -0.001790 0.009096 -36852.900000 0 0 1
-18.584567 11.635445 -32.717520 39.385350 -0.559376 2.551165 -0.006146 0.005568 -65046.200000 0 0 1
-17.866167 12.520145 -33.750520 40.187704 -0.611245 2.567752 -0.018375 0.003356 -586787.000000 0 0 1
-18.545667 12.665945 34.187090 40.903851 -0.599198 0.581224 -0.004322 0.001432 -494954.000000 0 0 1
-17.770967 12.822845 33.066979 39.669355 -0.625051 0.585267 -0.006676 -0.001784 -480231.000000 0 0 1
-18.540567 12.428545 31.771069 38.828111 -0.590544 0.612438 0.003253 -0.008469 57062.700000 0 0 1
-18.788767 11.020745 31.663819 38.432695 -0.530479 0.602578 -0.008519 -0.001585 30223.800000 0 0 1
-17.719067 10.413045 30.990279 37.185941 -0.531307 0.585589 -0.025875 0.000054 78740.000000 0 0 1
-17.535367 8.888045 31.262629 36.930183 -0.469124 0.561357 -0.008635 0.011129 -236294.000000 0 0 1
-18.232867 8.150945 30.310519 36.298800 -0.420395 0.582612 -0.001304 -0.006653 53793.000000 0 0 1
-18.090467 6.776045 30.461889 36.070853 -0.358389 0.565163 -0.003687 -0.000543 -208470.000000 0 0 1
-18.721267 6.002745 29.278429 35.266772 -0.310281 0.591332 -0.003804 -0.000059 268552.000000 0 0 1
-20.125067 6.118145 29.099019 35.905472 -0.295128 0.625904 0.008803 -0.006181 349875.000000 0 0 1
-20.648867 5.050045 28.306209 35.399437 -0.239859 0.644129 0.003778 -0.004966 713627.000000 0 0 1
-22.178467 5.125745 27.975359 36.066305 -0.227126 0.683029 0.006299 -0.000560 742421.000000 0 0 1
-22.647367 6.141045 27.118279 35.861075 -0.264792 0.713305 0.002927 0.002202 69746.100000 0 0 1
-24.033367 6.363045 27.172329 36.829696 -0.258820 0.741016 0.003016 -0.001303 -229465.000000 0 0 1
-24.642667 7.202445 25.946739 36.501637 -0.284355 0.780108 0.005316 0.000468 43261.000000 0 0 1
-24.714467 6.545545 24.743109 35.579074 -0.258902 0.801764 -0.003480 0.004733 417628.000000 0 0 1
-25.553327 5.409445 24.630159 35.900966 -0.208613 0.814739 -0.001003 0.010399 -368202.000000 0 0 1
-25.779027 4.879445 23.147329 34.988084 -0.187067 0.847876 -0.008677 0.017646 -195857.000000 0 0 1
-26.399067 5.699645 22.207929 34.965537 -0.212639 0.882610 -0.006910 0.016800 -90253.800000 0 0 1
-26.435967 5.042145 20.998229 34.135161 -0.188467 0.908221 -0.000506 0.028199 37348.400000 0 0 1
-27.307947 5.738345 19.907229 34.277549 -0.207121 0.951127 0.009449 0.015422 598138.000000 0 0 1
-28.700097 5.701845 20.198529 35.555410 -0.196116 0.966618 0.014233 0.011698 162267.000000 0 0 1
-29.475147 6.030645 19.073629 35.622413 -0.201816 1.005769 0.017326 0.012777 -454439.000000 0 0 1
-30.978067 6.059045 19.338029 37.017726 -0.193153 1.021134 0.016933 0.008798 -482809.000000 0 0 1
-31.325967 7.208845 20.081829 37.902025 -0.226186 1.012390 0.012479 -0.002942 223788.000000 0 0 1
-32.588147 7.085045 20.724529 39.264377 -0.214080 1.014764 0.012023 -0.004066 215620.000000 0 0 1
-32.925267 8.109645 21.841329 40.334640 -0.241498 0.998572 0.024239 -0.006339 -240914.000000 0 0 1
-32.147197 8.136345 23.033029 40.375275 -0.247891 0.963714 0.020617 -0.006706 54959.600000 0 0 1
-32.729497 8.882845 24.061829 41.582406 -0.265018 0.953719 0.032537 0.000581 -106555.000000 0 0 1
-0.323067 33.027245 11.952280 35.124924 -1.561015 1.223583 0.001837 -0.004846 -204538.000000 0 0 1
-0.980267 33.337845 13.189280 35.865442 -1.541401 1.194215 -0.009149 0.001583 386717.000000 0 0 1
-0.552767 -34.582149 13.698780 37.200634 1.554814 1.193680 -0.011228 0.000945 -32673.400000 0 0 1
-0.332367 -34.548349 15.201780 37.746430 1.561176 1.156294 -0.028204 0.007538 -26333.700000 0 0 1
-1.495567 34.570645 15.995580 38.121186 -1.527562 1.137794 -0.028036 0.010510 -94823.000000 0 0 1
-1.171167 34.594745 17.366180 38.726635 -1.536955 1.105788 -0.031518 0.006299 -235503.000000 0 0 1
-2.398767 -34.477649 18.252780 39.084861 1.501334 1.084897 -0.028983 0.012173 -676672.000000 0 0 1
-3.149167 33.558245 18.449180 38.424541 -1.477229 1.069981 -0.030437 0.011206 -409566.000000 0 0 1
-4.127567 33.823245 19.421980 39.220684 -1.449363 1.052734 -0.026622 0.011178 -518534.000000 0 0 1
-5.373867 32.940945 19.347480 38.578612 -1.409084 1.045455 -0.030700 0.015491 -610437.000000 0 0 1
-6.169067 33.386745 18.289880 38.564904 -1.388081 1.076670 -0.019660 0.005769 106733.000000 0 0 1
-7.278967 32.526345 18.036680 37.898131 -1.350637 1.074780 -0.006498 0.008346 280479.000000 0 0 1
-8.266367 32.958645 16.933480 37.965087 -1.325055 1.108474 0.001360 -0.003106 -390553.000000 0 0 1
-9.226267 33.862045 17.382480 39.165198 -1.304787 1.110934 0.015906 -0.004773 -574310.000000 0 0 1
-10.066267 34.335245 16.369380 39.347114 -1.285612 1.141727 0.014567 -0.008577 -211295.000000 0 0 1
-11.200667 -33.957149 16.839580 39.523592 1.252187 1.130659 0.021746 -0.005856 -278117.000000 0 0 1
-12.192267 34.583645 17.617780 40.682503 -1.231857 1.122916 0.015912 -0.009078 -263610.000000 0 0 1
-13.415167 -33.971849 17.343480 40.433272 1.194702 1.127476 0.008344 -0.013698 611557.000000 0 0 1
-14.577267 -34.380849 18.335580 41.602079 1.169778 1.114377 0.024476 -0.004832 689782.000000 0 0 1
-14.294467 -33.838249 19.626780 41.648162 1.171100 1.080087 0.023571 -0.009321 -306139.000000 0 0 1
-15.173467 -34.319749 20.566080 42.790687 1.154514 1.069434 0.026608 -0.005785 -601149.000000 0 0 1
-14.890567 -33.671549 21.948580 42.863065 1.154423 1.033212 0.021007 -0.010580 -357138.000000 0 0 1
-15.068867 -32.277949 21.990080 41.862876 1.134021 1.017742 0.025445 -0.005462 35883.800000 0 0 1
-15.090067 -31.820749 23.302580 42.228905 1.127984 0.986256 0.032634 -0.011069 160684.000000 0 0 1
-15.041967 -30.309549 23.553680 41.227483 1.110131 0.962695 0.034885 -0.015076 116198.000000 0 0 1
-14.841867 -29.857849 24.926780 41.630716 1.109484 0.928845 0.042112 -0.023751 -212970.000000 0 0 1
-14.641467 -28.485149 25.121880 40.704854 1.096009 0.905653 0.048527 -0.008554 -332828.000000 0 0 1
-15.777867 -27.505749 24.797980 40.254778 1.049999 0.907109 0.040323 -0.002086 324529.000000 0 0 1
-16.890767 -27.615749 25.716380 41.343195 1.021865 0.899474 0.048477 -0.000734 153222.000000 0 0 1
-18.002167 -26.963749 25.175180 41.047673 0.982118 0.910545 0.038179 0.009446 169329.000000 0 0 1
-19.189367 -26.911749 26.246880 42.206312 0.951367 0.899667 0.027841 0.013576 588404.000000 0 0 1
-19.984567 -28.078049 26.443780 43.439996 0.952228 0.916321 0.016631 0.013247 414707.000000 0 0 1
-20.861167 -28.485749 25.406080 43.498219 0.938696 0.947060 0.011548 0.012482 860468.000000 0 0 1
-22.068367 -27.524149 24.994680 43.235698 0.894970 0.954395 0.009629 0.013637 383661.000000 0 0 1
-21.693867 -26.435649 24.169380 41.876322 0.883603 0.955548 0.003314 0.013521 622313.000000 0 0 1
-22.824367 -25.913949 23.457580 41.746168 0.848705 0.974104 -0.001903 0.016664 163253.000000 0 0 1
-23.042667 -24.406049 23.600880 41.031954 0.814124 0.957969 0.004240 0.020782 -131145.000000 0 0 1
-23.694667 -23.991949 24.830080 41.875813 0.791632 0.936084 0.005205 0.020701 516934.000000 0 0 1
-24.100767 -22.636449 24.688880 41.264956 0.754078 0.929417 0.005690 0.018767 -100565.000000 0 0 1
-24.563167 -21.971349 25.942980 41.941955 0.729759 0.903907 0.014611 0.018637 330034.000000 0 0 1
-25.848807 -22.406249 26.387380 43.202947 0.714178 0.913754 0.010372 0.017752 449005.000000 0 0 1
-26.128537 -21.693749 27.560380 43.736641 0.692928 0.889058 0.020364 0.007356 -1192190.000000 0 0 1
-27.440097 -22.071049 28.260980 45.152775 0.677379 0.894515 0.030384 0.003631 -100834.000000 0 0 1
-28.652937 -21.707449 27.637580 45.343577 0.648347 0.915348 0.039453 -0.000102 353313.000000 0 0 1
-29.029917 -22.552649 26.555580 45.349277 0.660481 0.945202 0.018318 0.004917 -491456.000000 0 0 1
-30.573497 -22.616049 26.306380 46.241216 0.636894 0.965635 0.007241 0.010273 598659.000000 0 0 1
-31.023747 -23.264849 25.121580 46.204111 0.643440 0.995946 -0.007317 0.003019 280334.000000 0 0 1
-30.727647 -24.671249 25.075380 46.707960 0.676507 1.004092 -0.011255 0.002540 -548001.000000 0 0 1
-30.972787 -25.436749 23.725180 46.574949 0.687571 1.036311 -0.016596 0.009445 420890.000000 0 0 1
-32.317247 -25.833749 23.446480 47.555488 0.674363 1.055223 -0.007264 0.006183 374360.000000 0 0 1
-32.471337 -26.417549 22.166680 47.367038 0.682958 1.083796 -0.009951 0.011974 -74047.300000 0 0 1
-33.883597 -26.996649 21.926380 48.555981 0.672754 1.102273 0.003853 0.007116 -372553.000000 0 0 1
-34.270139 -28.127249 22.657280 49.788923 0.687267 1.098349 0.006194 0.010149 349717.000000 0 0 1
-33.366797 -29.256349 22.668780 49.831222 0.719854 1.098524 -0.009381 0.005279 -120257.000000 0 0 1
-33.512997 -30.311149 21.593280 50.081498 0.735273 1.125015 0.003239 0.004736 -73874.700000 0 0 1
-33.302587 -29.803449 20.252580 49.066026 0.730006 1.145312 -0.011497 0.005411 513831.000000 0 0 1
-33.794697 -30.792449 19.346580 49.644200 0.738948 1.170485 -0.004373 0.012078 -133454.000000 0 0 1
-34.243740 -30.362749 17.954280 49.161839 0.725399 1.196940 0.001260 0.015600 -344654.000000 0 0 1
-33.154267 -30.041149 17.103680 47.897932 0.736176 1.205650 0.010351 0.007813 438846.000000 0 0 1
-33.562827 -29.557949 15.831680 47.442363 0.722035 1.230567 0.017397 0.013457 36698.000000 0 0 1
-34.104887 -30.570249 14.807380 48.134623 0.730800 1.258101 0.012800 0.020398 263776.000000 0 0 1
-33.107127 -31.346549 14.137280 47.734167 0.758090 1.270119 0.010588 0.008575 125948.000000 0 0 1
-33.543687 -32.165049 13.037980 48.267569 0.764420 1.297280 0.026202 0.010863 79968.900000 0 0 1
-33.944077 -31.421249 11.754780 47.724942 0.746821 1.321933 0.021267 0.012165 430167.000000 0 0 1
-35.018354 -30.482449 11.769680 47.895617 0.716259 1.322517 0.023950 0.010426 348435.000000 0 0 1
-34.936465 -29.791749 10.571180 47.115334 0.706083 1.344502 0.020720 0.007289 346470.000000 0 0 1
34.203702 -28.751449 10.471580 45.893279 -0.699008 1.340596 0.039683 0.008102 209023.000000 0 0 1
34.428281 -27.834449 9.468980 45.273885 -0.679888 1.360092 0.047996 -0.031586 -799819.000000 0 0 1
33.386692 -26.960549 9.271980 43.903440 -0.679312 1.358004 0.056482 -0.027837 -647758.000000 0 0 1
33.545902 -25.920049 8.138480 43.167248 -0.657855 1.381127 0.045987 -0.030575 178131.000000 0 0 1
34.116972 -24.682849 8.595380 42.977801 -0.626309 1.369443 0.060336 -0.038672 29721.400000 0 0 1
34.379967 -23.876049 7.485780 42.521580 -0.607009 1.393827 0.054797 -0.038130 -39038.600000 0 0 1
34.798517 -22.445249 7.919780 42.159802 -0.572856 1.381822 0.058526 -0.044789 -511887.000000 0 0 1
33.717462 -21.620549 8.226480 40.889979 -0.570183 1.368228 0.041114 -0.046540 -744912.000000 0 0 1
34.028382 -20.234449 8.057280 40.401528 -0.536465 1.370020 0.046409 -0.031023 -20198.400000 0 0 1
33.257772 -19.320949 9.040880 39.510960 -0.526291 1.339931 0.054059 -0.019998 -140020.000000 0 0 1
33.616932 -19.488949 10.376380 40.219231 -0.525386 1.309849 0.047921 -0.036584 -521668.000000 0 0 1
32.972162 -18.657249 11.279080 39.528143 -0.514929 1.281432 0.041533 -0.020309 -481643.000000 0 0 1
33.360712 -18.856349 12.721080 40.377282 -0.514458 1.250281 0.032491 -0.027841 -27491.500000 0 0 1
34.598265 -18.260149 13.047080 41.239535 -0.485621 1.248893 -0.020268 -0.003883 -6357.110000 0 0 1
34.958278 -18.610849 14.346180 42.121939 -0.489209 1.223255 -0.003970 -0.000095 -205839.000000 0 0 1
-34.093459 -17.898049 14.948580 41.305740 0.483424 1.200490 0.000001 -0.004333 -341512.000000 0 0 1
-32.982537 -18.221049 14.156880 40.252598 0.504719 1.211409 0.005435 -0.008122 -666353.000000 0 0 1
-31.860467 -17.649149 14.804780 39.316197 0.505872 1.184720 0.000987 -0.004239 456005.000000 0 0 1
-30.573837 -17.635249 13.900480 37.933954 0.523192 1.195617 0.018633 -0.006032 241878.000000 0 0 1
-29.946887 -18.851449 13.822680 37.990257 0.561826 1.198401 0.006534 0.001293 -127928.000000 0 0 1
-28.789087 -18.787049 13.015680 36.758301 0.578184 1.208857 -0.034616 0.012598 368214.000000 0 0 1
-28.015407 -20.105849 12.751680 36.765657 0.622488 1.216600 -0.051955 0.012864 -83033.700000 0 0 1
-28.737897 -20.843649 11.826180 37.419019 0.627506 1.249236 -0.037750 0.015950 -100926.000000 0 0 1
-27.802027 -21.643049 11.094180 36.938531 0.661474 1.265745 -0.048795 0.019321 36315.100000 0 0 1
-28.377067 -22.617249 10.032580 37.649044 0.672925 1.301061 -0.023619 0.009109 204173.000000 0 0 1
-28.960097 -23.864249 10.354580 38.928228 0.689228 1.301564 -0.015406 0.001157 -741991.000000 0 0 1
-30.224157 -23.742749 10.925280 39.957221 0.665871 1.293845 0.000841 -0.006850 -927028.000000 0 0 1
-30.988727 -25.086749 10.907880 41.335554 0.680534 1.303747 0.010395 -0.013787 -131267.000000 0 0 1
-31.286587 -25.626949 9.639680 41.575407 0.686281 1.336807 0.018571 -0.010082 338348.000000 0 0 1
-32.193447 -26.736949 9.715780 42.961364 0.693069 1.342671 0.028036 -0.008181 430046.000000 0 0 1
-32.415767 -27.460449 8.365580 43.299436 0.702827 1.376371 0.025399 -0.012892 358197.000000 0 0 1
-31.226047 -28.068449 7.880880 42.720160 0.732196 1.385257 0.013217 -0.007710 127258.000000 0 0 1
-31.425417 -28.746749 6.718280 43.116907 0.740911 1.414343 0.015148 0.000161 -484068.000000 0 0 1
-30.099957 -29.032449 6.029580 42.252175 0.767347 1.427603 0.022935 0.006156 -395326.000000 0 0 1
-29.552207 -27.941649 5.388780 41.025695 0.757393 1.439064 0.022742 0.010263 -246141.000000 0 0 1
-28.224817 -28.129149 4.940180 40.153389 0.783701 1.447451 0.024122 0.002233 -99577.900000 0 0 1
-27.618417 -26.949149 4.174980 38.813194 0.773134 1.463022 0.009193 0.007766 117215.000000 0 0 1
-28.235277 -26.621049 2.881280 38.912888 0.755980 1.496684 0.025417 0.009115 331449.000000 0 0 1
-27.614017 -25.435849 2.293680 37.613525 0.744362 1.509778 0.018010 0.009356 -2576.050000 0 0 1
-28.112097 -24.917049 0.944680 37.577144 0.725220 1.545654 0.030435 0.006042 -260239.000000 0 0 1
-27.602627 -25.750149 -0.121420 37.749039 0.750691 1.574013 0.028731 -0.002805 57233.600000 0 0 1
-27.743197 -25.273949 -1.449220 37.557392 0.738857 1.609393 0.024776 -0.011909 112682.000000 0 0 1
-29.184147 -25.006949 -1.957620 38.482388 0.708468 1.621689 0.047529 -0.013817 -97690.700000 0 0 1
-29.850927 -23.894749 -1.450720 38.264101 0.675027 1.608719 0.045426 -0.007141 -315419.000000 0 0 1
-31.187587 -24.084249 -1.882820 39.449482 0.657582 1.618542 0.057046 -0.014785 170991.000000 0 0 1
-32.076427 -22.807349 -1.856520 39.402018 0.618091 1.617931 0.049332 -0.009922 41282.000000 0 0 1
-32.237127 -22.271949 -0.530720 39.186142 0.604578 1.584340 0.053491 -0.017122 754917.000000 0 0 1
-33.246377 -21.238649 -0.442720 39.453742 0.568480 1.582018 0.044807 -0.013868 395907.000000 0 0 1
-33.247457 -20.537049 0.927480 39.089947 0.553335 1.547067 0.047660 -0.016097 -97839.100000 0 0 1
-33.915697 -21.444549 1.791880 40.166578 0.563824 1.526170 0.052517 -0.018444 304634.000000 0 0 1
-34.022447 -20.923849 3.134380 40.064432 0.551377 1.492483 0.048974 -0.026236 -1126890.000000 0 0 1
-34.984210 -21.710149 4.079180 41.374693 0.555407 1.472045 0.065431 -0.012756 1513590.000000 0 0 1
33.936152 -21.748249 3.620680 40.469224 -0.569922 1.481209 0.046575 -0.017191 880773.000000 0 0 1
33.270992 -20.498849 3.673180 39.251165 -0.552187 1.477078 0.040697 -0.028861 -1588970.000000 0 0 1
32.149832 -20.395849 2.643280 38.165289 -0.565330 1.501482 0.030831 -0.014711 -1111220.000000 0 0 1
31.082972 -21.118849 3.119280 37.707915 -0.596790 1.487980 0.029415 -0.007748 -697152.000000 0 0 1
29.887472 -20.653749 2.479180 36.414072 -0.604694 1.502661 0.011474 -0.009410 104263.000000 0 0 1
28.585082 -21.407449 2.700580 35.814507 -0.642799 1.495320 -0.004722 0.008684 -566017.000000 0 0 1
28.601982 -22.734249 2.104680 36.597119 -0.671592 1.513255 -0.016445 0.002584 -215320.000000 0 0 1
27.447212 -23.427149 2.513680 36.173185 -0.706543 1.501250 -0.022136 0.012296 56398.000000 0 0 1
26.905072 -24.646549 1.766080 36.530184 -0.741615 1.522432 -0.022585 0.009732 88936.900000 0 0 1
26.408032 -24.322349 0.490080 35.905445 -0.744308 1.557147 -0.022744 0.005502 314096.000000 0 0 1
25.817692 -25.425649 -0.249220 36.236431 -0.777748 1.577674 -0.028210 0.009926 -282184.000000 0 0 1
25.236832 -25.148149 -1.665120 35.666507 -0.783638 1.617499 -0.030608 0.011791 -333141.000000 0 0 1
26.158492 -24.822549 -2.670520 36.160162 -0.759199 1.644716 -0.026891 0.004471 -206165.000000 0 0 1
26.483412 -25.930449 -3.507120 37.229816 -0.774849 1.665138 -0.020491 0.004656 120146.000000 0 0 1
25.392342 -26.296249 -4.589220 36.841887 -0.802884 1.695686 -0.018420 -0.001054 494522.000000 0 0 1
25.110102 -25.289949 -5.573420 36.071620 -0.788967 1.725928 -0.006549 -0.014763 885300.000000 0 0 1
24.103202 -24.322649 -5.154720 34.628409 -0.789930 1.720210 0.001736 -0.007852 344555.000000 0 0 1
23.882402 -23.273449 -6.317020 33.940054 -0.772485 1.758011 0.026456 -0.016232 131238.000000 0 0 1
23.106102 -23.843649 -7.375220 34.011842 -0.801106 1.789375 0.041716 -0.011361 334541.000000 0 0 1
21.996002 -23.179149 -7.937920 32.925789 -0.811582 1.814280 0.029245 -0.016775 88706.000000 0 0 1
22.265802 -21.794349 -8.563920 32.312541 -0.774698 1.839035 0.034114 -0.016957 -580648.000000 0 0 1
22.867802 -21.810549 -9.850320 33.100834 -0.761739 1.872959 0.040371 -0.023325 74954.500000 0 0 1
22.587802 -20.653849 -10.581720 32.384611 -0.740704 1.903661 0.031401 -0.016731 114636.000000 0 0 1
23.210002 -20.685949 -12.056520 33.346249 -0.727961 1.940732 0.030634 -0.016970 -491110.000000 0 0 1
24.591002 -20.553749 -12.072520 34.247915 -0.696206 1.931042 0.043441 -0.019810 -1045820.000000 0 0 1
24.977202 -20.228149 -13.408220 34.825551 -0.680727 1.966016 0.039288 -0.016656 -657146.000000 0 0 1
26.500612 -20.198749 -13.532720 35.963960 -0.651263 1.956580 0.040370 -0.024922 -356533.000000 0 0 1
27.120412 -21.461449 -13.592520 37.160021 -0.669438 1.945271 0.024483 -0.020372 64637.000000 0 0 1
27.345932 -22.027649 -12.288120 37.202355 -0.678097 1.907423 0.025509 -0.028715 -759837.000000 0 0 1
27.958262 -23.430849 -12.378420 38.521349 -0.697524 1.897940 0.016057 -0.010710 -268971.000000 0 0 1
29.295212 -23.367549 -12.814020 39.603673 -0.673311 1.900282 0.007766 -0.015965 -159136.000000 0 0 1
29.611392 -24.643449 -13.361920 40.775912 -0.694086 1.904655 0.029676 -0.013493 -20450.300000 0 0 1
-4.549767 -8.900455 -27.474330 29.236232 1.098242 2.792653 0.021756 0.005671 -171725.000000 0 0 1
-4.146067 -7.655855 -27.086560 28.451427 1.074460 2.830593 0.000322 0.009910 -261966.000000 0 0 1
-4.927667 -6.594155 -27.541600 28.745513 0.929040 2.851154 -0.006783 0.007177 -483979.000000 0 0 1
-4.766267 -5.286055 -26.762750 27.693040 0.837060 2.881659 -0.012367 0.002867 -431302.000000 0 0 1
-5.417267 -5.290755 -25.526640 26.626081 0.773584 2.853221 -0.003223 0.010889 249475.000000 0 0 1
-5.105667 -4.096455 -24.849520 25.697226 0.676163 2.884022 0.000626 -0.007603 -8037.450000 0 0 1
-5.580967 -4.120555 -23.415420 24.421467 0.635986 2.853561 0.002778 -0.013567 -226068.000000 0 1 0
-4.919267 -5.155455 -22.733620 23.824260 0.808838 2.837842 0.001390 -0.013548 343537.000000 0 1 0
-5.353367 -5.245955 -21.405620 22.679928 0.775265 2.804782 0.001309 -0.011242 -149591.000000 0 1 0
-4.695267 -6.363955 -20.556420 22.025255 0.935155 2.774323 0.005792 -0.018662 -763074.000000 0 1 0
-5.361167 -7.578155 -20.724920 22.708871 0.955088 2.720482 0.001325 -0.008979 465219.000000 0 1 0
-4.666767 -8.545155 -19.958820 22.207046 1.070929 2.687731 0.001620 -0.014773 -1204280.000000 0 1 0
-5.438467 -9.919555 -20.009120 22.985634 1.069292 2.627025 0.010535 -0.010316 112540.000000 0 1 0
-6.553567 -10.002655 -19.165720 22.590422 0.990786 2.583752 0.020724 -0.010975 -432643.000000 0 1 0
-7.627167 -9.199655 -19.587920 22.945455 0.878579 2.593794 0.010090 -0.003848 -1236510.000000 0 1 0
-8.838867 -9.351955 -18.592320 22.611037 0.813597 2.536180 0.008633 0.003136 -23079.400000 0 1 0
-9.367867 -10.666355 -18.619320 23.413823 0.850121 2.490179 0.031376 0.001589 -183934.000000 0 1 0
-10.032267 -10.895255 -17.419320 22.864507 0.826612 2.436960 0.023736 -0.001027 -228613.000000 0 1 0
-10.819067 -12.237655 -17.401820 23.867043 0.846847 2.387824 0.024740 0.000981 -393233.000000 0 1 0
-11.925067 -12.229855 -18.273020 25.013593 0.798016 2.389885 0.025965 -0.002388 -46308.600000 0 0 1
-11.692667 -12.515255 -19.687920 26.095292 0.819365 2.425631 0.024411 -0.001802 -669920.000000 0 0 1
-12.938467 -12.216055 -20.561520 27.192132 0.756687 2.428217 0.015723 -0.005723 525351.000000 0 0 1
-13.900667 -13.261955 -20.651720 28.206409 0.761888 2.392290 0.011219 0.004663 305222.000000 0 0 1
-14.838367 -13.313955 -19.558120 27.927738 0.731302 2.346630 0.012600 0.010390 -438945.000000 0 0 1
-15.898767 -14.339755 -19.985720 29.288707 0.733887 2.321795 0.009706 0.010599 -660396.000000 0 0 1
-15.463567 -15.668355 -20.016720 29.753795 0.791976 2.308709 0.010539 0.005926 -332309.000000 0 0 1
-16.089367 -16.387455 -21.047320 31.151341 0.794576 2.312639 0.011043 -0.001858 -163794.000000 0 0 1
-15.596367 -17.797255 -21.327120 31.856475 0.851210 2.304298 0.019428 -0.005971 -261965.000000 0 0 1
-15.853667 -18.754655 -20.315920 31.871812 0.869026 2.261949 0.026610 -0.005010 -175718.000000 0 0 1
-15.291967 -19.982255 -20.674520 32.566402 0.917589 2.258600 0.022073 -0.004277 -579592.000000 0 0 1
-15.892867 -21.241455 -20.081920 33.272603 0.928448 2.218751 0.022558 -0.006265 -309730.000000 0 0 1
-15.385767 -22.434055 -20.659420 34.158751 0.969649 2.220319 0.020368 -0.005719 166458.000000 0 0 1
-16.106067 -23.584155 -20.219320 34.991980 0.971626 2.186860 0.035213 -0.005580 53313.600000 0 0 1
-15.540367 -24.947255 -20.666020 35.929833 1.013688 2.183617 0.032636 -0.004073 -510498.000000 0 0 1
-15.891967 -25.160325 -22.014920 37.016932 1.007445 2.207721 0.026222 -0.001278 268387.000000 0 0 1
-15.243667 -26.365135 -22.406920 37.809520 1.046579 2.205112 0.030111 0.004449 -314597.000000 0 0 1
-15.511167 -26.704195 -23.880620 39.038370 1.044576 2.229032 0.035600 0.001689 -795886.000000 0 0 1
-16.768567 -27.249715 -24.089120 40.050187 1.019154 2.216140 0.042276 0.001479 -916406.000000 0 0 1
-16.861467 -28.622395 -23.846720 40.892745 1.038430 2.193401 0.047870 0.008620 -404579.000000 0 0 1
-17.719167 -29.318545 -24.894620 42.347232 1.027172 2.199218 0.050413 0.004856 47329.100000 0 0 1
-17.059367 -29.423105 -26.181990 42.921296 1.045366 2.226857 0.048591 0.007377 530464.000000 0 0 1
-17.425667 -28.282875 -27.023730 42.823555 1.018608 2.253700 0.072542 -0.001996 186832.000000 0 0 1
-16.305267 -27.985295 -28.041900 42.841412 1.043242 2.284385 0.069539 -0.005394 -464811.000000 0 0 1
-16.350667 -28.640145 -29.299390 44.114130 1.052049 2.297183 0.068447 -0.002007 248809.000000 0 0 1
-15.185867 -28.231145 -30.009400 43.910957 1.077281 2.323226 0.050433 0.002182 136351.000000 0 0 1
-15.311067 -28.233445 -31.557740 45.027182 1.073882 2.347398 0.052735 -0.001573 -70380.200000 0 0 1
-15.306467 -29.598875 -31.987160 46.190472 1.093539 2.335753 0.035747 0.005503 -194646.000000 0 0 1
-16.230967 -29.751585 -33.009170 47.309686 1.071376 2.343014 0.042844 0.008230 -267976.000000 0 0 1
-16.130367 -31.182715 -33.586850 48.586283 1.093416 2.334059 0.028941 0.010822 199790.000000 0 0 1
-14.918567 -31.372035 -34.284235 48.807550 1.126910 2.349612 0.042306 0.012351 -226343.000000 0 0 1
-15.049867 -32.471405 34.042011 49.393817 1.136789 0.810418 0.030854 0.016684 -351984.000000 0 0 1
-13.723367 -33.023625 33.528250 49.020752 1.176947 0.817619 0.031886 0.011074 -386439.000000 0 0 1
-12.886867 -33.709275 34.406085 49.861461 1.205646 0.809261 0.034035 0.010867 -176283.000000 0 0 1
-12.134567 34.501069 33.724039 49.748189 -1.232594 0.825901 0.025579 0.009276 11430.400000 0 0 1
-11.201467 33.665785 -34.534500 49.512520 -1.249593 2.342685 0.040145 0.006191 -444200.000000 0 0 1
-10.229367 34.424574 -33.896480 49.382816 -1.281953 2.327327 0.034717 0.007431 -301397.000000 0 0 1
-9.330267 33.537922 -33.210660 48.112306 -1.299457 2.332664 0.030467 0.003480 728256.000000 0 0 1
-8.357667 34.399613 -32.356980 47.959963 -1.332456 2.311309 0.025137 0.002028 688172.000000 0 0 1
-9.229367 -34.272499 -31.341450 47.350521 1.307743 2.294151 0.025783 0.010657 518247.000000 0 0 1
-8.712867 -33.117675 -30.768120 46.036634 1.313538 2.302771 0.003057 0.013616 -255187.000000 0 0 1
-9.627267 -32.448405 -29.704730 45.032813 1.282375 2.291115 0.021363 0.016119 111496.000000 0 0 1
-9.772167 -32.943865 -28.381970 44.568259 1.282433 2.261163 0.035799 0.020987 -155575.000000 0 0 1
-10.417067 -34.198691 -28.325970 45.611690 1.275121 2.240845 0.046183 0.007999 -189374.000000 0 0 1
-10.879867 -34.491467 -26.863380 45.051903 1.265238 2.209651 0.046254 0.005804 250486.000000 0 0 1
-9.810767 34.517295 -25.956510 44.288093 -1.293872 2.197013 0.036497 0.014065 -102507.000000 0 0 1
-10.315367 34.230112 -24.675520 43.439482 -1.278098 2.174923 0.042418 0.002415 373592.000000 0 0 1
-9.267867 34.247918 -23.524920 42.570355 -1.306515 2.156292 0.042405 0.006874 1016020.000000 0 0 1
-8.217267 33.253191 -23.617120 41.606087 -1.328537 2.174428 0.023930 -0.004258 1013070.000000 0 0 1
-7.292467 33.340286 -22.530720 40.894841 -1.355459 2.154290 0.035062 -0.002893 117684.000000 0 0 1
-6.392367 32.140469 -22.288220 39.631261 -1.374470 2.168070 0.025395 -0.007298 -43686.100000 0 0 1
-5.342167 31.984269 -23.226620 39.887442 -1.405299 2.192356 0.011440 -0.017059 -375366.000000 0 0 1
-4.577667 30.850739 -22.947620 38.721007 -1.423490 2.205129 0.005444 -0.010818 513968.000000 0 0 1
-3.068867 30.936329 -23.389520 38.904293 -1.471920 2.215807 0.006687 -0.015245 593631.000000 0 0 1
-2.769967 31.083529 -24.768720 39.841535 -1.481917 2.241683 -0.004400 -0.009173 -151078.000000 0 0 1
-3.186867 32.305669 -25.340840 41.182163 -1.472467 2.233608 -0.000378 -0.010734 -597729.000000 0 0 1
-2.656867 32.536359 -26.761660 42.212084 -1.489319 2.257487 -0.015275 0.011822 956751.000000 0 0 1
-1.515067 33.468367 -26.823350 42.917585 -1.525559 2.245924 -0.018747 0.005697 971907.000000 0 0 1
-1.820867 -34.341040 -26.621300 43.489265 1.517823 2.229554 -0.021284 0.010464 -4323.880000 0 0 1
-0.734067 -33.325955 -27.123860 42.975131 1.548773 2.253834 -0.055763 0.020532 78188.300000 0 0 1
0.313933 -33.176395 -26.215550 42.285066 -1.561334 2.239503 -0.033329 0.019169 -476180.000000 0 0 1
1.216833 -32.209225 -26.714990 41.864132 -1.533035 2.262871 -0.044618 0.025161 -238751.000000 0 0 1
2.385633 -31.861305 -25.782660 41.055810 -1.496060 2.249765 -0.031128 0.021405 -616789.000000 0 0 1
2.027033 -31.211605 -24.557320 39.766004 -1.505943 2.236415 -0.023676 0.017968 852226.000000 0 0 1
3.153033 -30.553285 -23.935120 38.940144 -1.467963 2.232757 -0.020280 0.025096 419367.000000 0 0 1
2.887233 -30.011155 -22.528520 37.636946 -1.474886 2.212517 -0.017764 0.021375 -174448.000000 0 0 1
2.802333 -31.027125 -21.523520 37.865518 -1.480722 2.175381 -0.008573 0.017779 433691.000000 0 0 1
2.906233 -30.413995 -20.236620 36.646665 -1.475530 2.155808 0.004172 0.013135 -587544.000000 0 0 1
2.953733 -31.334115 -19.020020 36.773801 -1.476808 2.114392 0.010849 0.011201 551057.000000 0 0 1
1.760733 -32.106225 -18.697520 37.195525 -1.516010 2.097495 0.019629 -0.001086 1077230.000000 0 0 1
1.567433 -33.362915 -19.389720 38.619971 -1.523850 2.096781 0.022380 0.006402 -235668.000000 0 0 1
2.238633 -34.592487 -18.680620 39.377877 -1.506172 2.065072 0.020527 -0.002680 1258480.000000 0 0 1
3.681533 -34.511836 -18.785220 39.465238 -1.464524 2.066890 0.015870 0.005524 1036950.000000 0 0 1
4.284233 33.568720 -18.121320 38.387444 1.443857 2.062427 0.029989 -0.013998 947225.000000 0 0 1
5.497533 32.974769 -18.933620 38.419269 1.405596 2.086119 0.030384 -0.006002 -118795.000000 0 0 1
6.583433 33.773296 -19.110320 39.359642 1.378280 2.077767 0.061362 -0.001024 -1091110.000000 0 0 1
7.618433 33.089249 -19.780120 39.296209 1.344501 2.098279 0.033959 0.000718 -58863.300000 0 0 1
8.959333 33.811464 -19.917520 40.251613 1.311770 2.088430 0.009847 0.000144 -237549.000000 0 0 1
9.671433 33.909759 -18.716820 39.921519 1.292962 2.058774 -0.002701 0.006449 -816398.000000 0 0 1
10.885333 34.559138 -18.878220 40.855987 1.265656 2.051121 -0.003691 0.015874 -429723.000000 0 0 1
11.602733 -34.369179 -17.531620 40.289224 -1.245219 2.020995 -0.021788 0.017608 -324441.000000 0 0 1
12.300633 33.700902 -17.072420 39.730641 1.220827 2.014961 -0.017317 0.011159 -210278.000000 0 0 1
12.741633 33.870612 -15.736820 39.461564 1.210987 1.980992 -0.022054 0.004810 -461055.000000 0 0 1
13.742433 32.777209 -15.332820 38.707819 1.173791 1.978080 -0.020190 0.012705 -220982.000000 0 0 1
13.401633 31.392919 -15.247820 37.384691 1.167318 1.990908 -0.007379 0.002735 263030.000000 0 0 1
14.651833 30.696569 -15.153620 37.236914 1.125463 1.989911 -0.002791 0.001427 702882.000000 0 0 1
14.686633 29.444349 -14.280220 35.869089 1.108115 1.980263 0.009887 -0.000190 -516540.000000 0 0 1
14.823333 29.765729 -12.929220 35.677648 1.108750 1.941627 0.021520 -0.004564 91980.500000 0 0 1
13.676233 29.725529 -12.073820 34.877264 1.139588 1.924293 0.018826 -0.002732 276089.000000 0 0 1
13.097733 28.301879 -11.843920 33.359038 1.137360 1.933757 0.016997 0.000120 -441835.000000 0 0 1
12.253133 27.830879 -12.896320 33.030473 1.156062 1.971903 0.014407 0.000542 91694.300000 0 0 1
11.853833 26.467979 -12.803220 31.701572 1.149727 1.986536 0.037612 -0.009391 184321.000000 0 0 1
10.949233 26.066679 -11.591520 30.556845 1.173128 1.959882 0.047691 -0.007916 -270615.000000 0 0 1
9.646833 26.603239 -11.654820 30.604387 1.222924 1.961481 0.029128 -0.005672 -89852.100000 0 0 1
9.213433 26.772549 -10.338220 30.141923 1.239354 1.920889 0.015233 0.006348 348592.000000 0 0 1
7.924933 27.650579 -10.305520 30.554260 1.291669 1.914829 0.015005 0.004196 447488.000000 0 0 1
8.304033 28.961449 -10.614020 31.943386 1.291561 1.909512 0.012738 0.002262 -185351.000000 0 0 1
7.247433 29.851419 -10.455720 32.449261 1.332621 1.898867 0.001191 -0.005121 -293449.000000 0 0 1
7.707133 31.238199 -10.881820 33.965261 1.328906 1.896928 0.030118 -0.016744 -378397.000000 0 0 1
8.489833 31.913789 -9.928020 34.483804 1.310794 1.862834 0.025928 -0.010219 -251947.000000 0 0 1
9.031433 33.115239 -10.411420 35.868977 1.304544 1.865297 0.033706 -0.014149 92371.200000 0 0 1
10.160633 33.067899 -11.481220 36.449181 1.272687 1.891245 0.016163 -0.014652 -531884.000000 0 0 1
11.420933 32.746329 -10.933620 36.363495 1.235218 1.876197 0.008863 -0.010454 76272.600000 0 0 1
12.392933 33.305103 -11.811520 37.447652 1.214568 1.891689 0.013950 -0.004742 -1316360.000000 0 0 1
13.829233 33.400863 -11.477820 37.928955 1.178247 1.878230 0.016112 -0.012793 -1294430.000000 0 0 1
14.150333 34.406569 -10.560420 38.672553 1.180614 1.847382 0.020479 -0.011979 -81442.300000 0 0 1
15.556033 34.523401 -10.475820 39.288652 1.147449 1.840699 0.021218 -0.014192 131340.000000 0 0 1
15.994033 -33.828765 -9.277020 38.552011 -1.129150 1.813818 0.035698 -0.021445 -204907.000000 0 0 1
15.784233 -34.425034 -8.049920 38.717260 -1.140888 1.780240 0.029994 -0.022990 74063.000000 0 0 1
16.223933 -33.696865 -6.930820 38.035917 -1.122085 1.754038 0.026590 -0.014569 -1708670.000000 0 0 1
16.699733 -34.581914 -5.764620 38.833242 -1.120919 1.719792 0.031929 -0.006535 16960.600000 0 0 1
17.795333 33.755078 -5.995520 38.626745 1.085634 1.726643 0.022696 -0.012588 -648511.000000 0 0 1
19.020333 34.354331 -6.222820 39.758227 1.065154 1.727959 0.025185 -0.007242 -1996300.000000 0 0 1
19.983833 33.457766 -6.975720 39.590862 1.032375 1.747916 0.016656 -0.008119 -243549.000000 0 0 1
20.284733 32.233549 -6.308320 38.603976 1.009107 1.734944 0.025874 -0.003475 -214945.000000 0 0 1
21.440233 32.466099 -5.522320 39.296656 0.987153 1.711792 0.023807 0.000653 -839948.000000 0 0 1
21.894033 31.085719 -5.035920 38.354023 0.957183 1.702478 0.000601 -0.003073 -435044.000000 0 0 1
22.441333 30.281729 -6.058320 38.174596 0.933025 1.730170 -0.008528 -0.000985 -129826.000000 0 0 1
22.910533 29.118319 -5.428320 37.446437 0.904151 1.716271 -0.013573 0.006984 -488677.000000 0 0 1
23.632133 28.133159 -6.337520 37.284266 0.872131 1.741604 -0.023435 0.018243 -720307.000000 0 0 1
24.875633 28.676799 -6.746520 38.557378 0.856260 1.746675 -0.007338 0.003618 -23070.200000 0 0 1
25.699033 27.738769 -7.414620 38.533832 0.823550 1.764422 -0.015117 0.005230 -187374.000000 0 0 1
26.353833 26.664089 -6.480420 38.045946 0.791250 1.741962 -0.014940 0.006337 -1573790.000000 0 0 1
27.351933 27.252869 -5.721720 39.033129 0.783584 1.717913 -0.011381 -0.003547 -668370.000000 0 0 1
27.702833 26.350439 -4.695520 38.520650 0.760384 1.692996 -0.014245 0.009757 -88271.900000 0 0 1
28.994933 26.694899 -3.920520 39.606745 0.744121 1.669945 -0.006275 0.004588 -225338.000000 0 0 1
28.946833 27.955319 -3.196220 40.368736 0.767975 1.650055 0.002759 -0.008810 -536211.000000 0 0 1
30.086033 28.132579 -2.430520 41.261590 0.751857 1.629736 0.016573 -0.021447 -586797.000000 0 0 1
30.029633 29.508089 -1.667420 42.134148 0.776638 1.610381 0.026496 -0.013883 65460.500000 0 0 1
30.234233 30.641839 -2.509220 43.119918 0.792094 1.629021 0.014831 -0.015876 28569.900000 0 0 1
29.959733 31.822539 -1.802920 43.743686 0.815540 1.612024 0.026405 -0.011678 -69667.600000 0 0 1
32.264132 22.891345 19.470729 44.091917 0.617072 1.113422 0.015967 -0.009311 -146469.000000 0 0 1
32.666322 22.741245 20.783629 44.902250 0.608149 1.089573 0.007682 -0.006786 -166501.000000 0 0 1
33.370992 23.926045 21.147129 46.187442 0.622026 1.095216 0.015733 -0.011961 125451.000000 0 0 1
33.365392 24.103145 22.686529 46.998825 0.625602 1.067057 0.007155 -0.001937 -685361.000000 0 0 1
32.130322 24.535345 23.113829 46.568120 0.652161 1.051413 -0.002481 0.002811 -783635.000000 0 0 1
32.172262 24.619545 24.501939 47.344709 0.653184 1.026844 -0.005923 0.002766 -251308.000000 0 0 1
30.884802 25.128245 25.153829 47.095805 0.682986 1.007355 0.004307 -0.000863 -197236.000000 0 0 1
30.718372 26.534645 25.156339 47.755075 0.712453 1.015990 -0.005411 -0.001839 76779.800000 0 0 1
29.463712 26.808445 25.736539 47.425441 0.738247 0.997179 -0.011359 -0.010501 -173255.000000 0 0 1
29.150502 28.313945 25.917059 48.198809 0.770841 1.003076 -0.021317 -0.006808 -198028.000000 0 0 1
29.057712 29.186545 24.792839 48.071716 0.787610 1.028917 -0.018340 -0.010544 322779.000000 0 0 1
28.701032 30.480445 25.209309 48.870400 0.815456 1.028808 -0.028364 -0.008650 -187659.000000 0 0 1
28.730272 31.505045 24.048129 48.952108 0.831431 1.057263 -0.012708 -0.012177 -571134.000000 0 0 1
30.035172 31.902445 23.712629 49.821344 0.815537 1.074749 -0.019309 -0.014783 -75666.000000 0 0 1
29.971132 32.435345 22.370229 49.505025 0.824864 1.101927 -0.014597 -0.009677 -149611.000000 0 0 1
31.369882 32.810645 21.831229 50.370731 0.807843 1.122522 -0.009880 -0.007432 152462.000000 0 0 1
32.013852 33.710945 22.719829 51.744615 0.811214 1.116226 -0.015629 0.005449 1075520.000000 0 0 1
33.408812 33.838945 22.340629 52.538811 0.791794 1.131590 -0.009319 0.015284 1096130.000000 0 0 1
34.192762 -34.266549 23.086229 53.631290 -0.786476 1.125792 -0.000756 0.015473 -318242.000000 0 0 1
33.727552 -32.933349 22.871529 52.395229 -0.773485 1.119070 -0.013675 0.008412 -34986.500000 0 0 1
34.167342 -31.917249 23.798729 52.464250 -0.751363 1.099975 0.004016 0.002461 -1025130.000000 0 0 1
33.304902 -30.651449 23.827529 51.151529 -0.743933 1.086233 -0.002343 0.007510 166209.000000 0 0 1
31.925192 -30.826749 24.099469 50.500403 -0.767895 1.073315 -0.008221 0.007889 470904.000000 0 0 1
31.126752 -31.154449 22.957229 49.663958 -0.785843 1.090264 -0.009888 0.015142 -267638.000000 0 0 1
30.353052 -32.493549 23.196729 50.152036 -0.819444 1.089952 -0.019686 0.012631 -64614.700000 0 0 1
29.283912 -32.467749 24.113769 49.931714 -0.836911 1.066793 -0.011680 0.003340 164464.000000 0 0 1
28.649672 -33.732949 24.270459 50.475447 -0.866704 1.069187 -0.013641 -0.002413 193873.000000 0 0 1
27.785092 -33.723249 25.577729 50.630910 -0.881642 1.041206 -0.024448 -0.006598 140147.000000 0 0 1
27.383332 34.151045 25.838249 50.830659 0.894941 1.037563 -0.022277 -0.017224 -131755.000000 0 0 1
26.514312 34.055245 26.932009 50.873388 0.909261 1.012912 -0.019527 -0.015642 -431004.000000 0 0 1
26.208482 32.595445 27.331679 49.963669 0.893589 0.991983 -0.020798 -0.007130 12708.800000 0 0 1
25.615082 31.750645 26.377199 48.579754 0.891948 0.996830 -0.018964 -0.006025 -700937.000000 0 0 1
24.240802 31.917245 26.236319 47.902729 0.921250 0.991184 -0.012227 -0.005513 -822834.000000 0 0 1
23.695302 31.611845 24.789979 46.640317 0.927570 1.010409 0.019416 -0.022936 46374.600000 0 0 1
24.022102 32.472445 23.706329 46.834935 0.933875 1.040061 0.015614 -0.024488 1142580.000000 0 0 1
25.395652 32.410645 23.242229 47.282029 0.906161 1.056909 -0.001400 -0.015386 582026.000000 0 0 1
25.784852 33.511645 22.261229 47.785471 0.914976 1.086193 0.014553 -0.003618 991471.000000 0 0 1
27.087792 33.439445 21.622229 48.160832 0.889954 1.105197 0.004407 -0.001770 947414.000000 0 0 1
27.044272 34.258345 20.502729 48.222285 0.902539 1.131645 0.005498 -0.007108 487080.000000 0 0 1
28.410722 -34.422949 19.903729 48.869898 -0.880793 1.151323 0.008691 -0.012406 617079.000000 0 0 1
29.127692 33.704445 19.335529 48.562071 0.858111 1.161285 0.005167 -0.018640 -208038.000000 0 0 1
30.133252 34.175545 18.453729 49.158121 0.848173 1.185973 0.003986 -0.005802 4866.620000 0 0 1
31.045292 33.038945 17.876129 48.733336 0.816498 1.195213 -0.004805 0.000713 72773.400000 0 0 1
31.769712 32.272745 18.813329 49.038618 0.793253 1.177058 -0.003452 -0.008944 -157187.000000 0 0 1
32.624622 31.408045 18.126129 48.778969 0.766401 1.190067 0.014841 -0.008680 -423282.000000 0 0 1
33.547322 30.639045 19.098329 49.284075 0.740119 1.172862 0.030390 -0.027282 -67287.500000 0 0 1
34.545545 31.519845 19.573929 50.695503 0.739632 1.174388 0.040772 -0.020697 -353102.000000 0 0 1
-34.899605 30.880745 20.474129 50.899831 -0.724379 1.156830 0.050069 -0.025845 -799513.000000 0 0 1
-33.924037 31.821745 21.109429 51.079073 -0.753433 1.144755 0.057370 -0.021284 -535277.000000 0 0 1
-32.865667 32.216845 20.251129 50.281064 -0.775429 1.156268 0.044204 -0.021191 651719.000000 0 0 1
-31.828787 33.024245 20.876829 50.393595 -0.803829 1.143650 0.032125 -0.014364 669691.000000 0 0 1
-32.102347 34.420745 21.529229 51.757667 -0.820235 1.141796 0.021657 -0.012121 -504727.000000 0 0 1
-32.180517 34.264645 22.900529 52.288486 -0.816754 1.117463 0.030866 -0.009577 240913.000000 0 0 1
-32.152807 -33.714649 23.691329 52.266238 0.809106 1.100353 0.019478 -0.004477 -31663.500000 0 0 1
-32.137227 -34.080649 25.176009 53.180103 0.814739 1.077638 0.022125 -0.005185 151397.000000 0 0 1
-33.429067 -34.425349 25.639789 54.405937 0.800080 1.080068 0.026613 0.003941 -71764.100000 0 0 1
-33.364127 34.388845 27.049629 55.022178 -0.800521 1.056855 0.032696 0.008619 63752.000000 0 0 1
-34.741963 34.264945 27.702889 56.111857 -0.778486 1.054447 0.024019 -0.001091 -186960.000000 0 0 1
-34.679906 33.663445 29.008959 56.368813 -0.770526 1.030223 0.044508 -0.015664 590047.000000 0 0 1
34.325999 33.639645 29.680569 56.487486 0.775300 1.017569 0.036992 -0.018581 933689.000000 0 0 1
34.259971 32.469945 30.770509 56.345960 0.758580 0.993095 0.035179 -0.007483 -4193.360000 0 0 1
34.041152 31.115845 30.309039 55.187260 0.740532 0.989385 0.026973 -0.009556 288645.000000 0 0 1
35.081906 30.645545 29.452509 55.112066 0.718004 1.006985 0.030795 -0.011894 50993.600000 0 0 1
34.936088 29.153445 28.976609 53.945319 0.695414 1.003744 0.034842 -0.008146 -371656.000000 0 0 1
33.775342 29.013645 28.187529 52.698217 0.709707 1.006424 0.029133 -0.003574 -42994.600000 0 0 1
33.591452 27.791245 27.508179 51.550353 0.691185 1.007924 0.038303 -0.011253 -8473.350000 0 0 1
33.316162 26.440845 28.287299 51.080879 0.670847 0.983906 0.020405 -0.007288 -68595.900000 0 0 1
34.476267 25.985445 28.984559 51.999625 0.645878 0.979546 0.023584 -0.003306 205368.000000 0 0 1
34.386584 24.697345 29.580759 51.647046 0.622854 0.960942 0.016241 -0.005525 -104769.000000 0 0 1
34.776557 23.554445 28.627089 50.830414 0.595334 0.972557 0.015740 0.002260 -160208.000000 0 0 1
33.776802 23.306745 27.652289 49.484602 0.603998 0.977851 0.000172 0.006008 -57472.800000 0 0 1
34.095082 22.442745 26.611509 48.727034 0.582146 0.993054 0.003804 -0.000397 -301898.000000 0 0 1
34.040642 20.936845 26.913609 48.181523 0.551415 0.978114 -0.001377 0.004233 51788.900000 0 0 1
32.677252 20.517145 26.896979 47.034068 0.560662 0.962023 0.003760 0.007107 595863.000000 0 0 1
32.469662 19.407945 27.684499 46.876207 0.538745 0.939010 0.012213 0.002027 -454016.000000 0 0 1
32.481292 19.574445 29.231419 47.881824 0.542357 0.914116 0.005728 -0.005333 89262.600000 0 0 1
31.283262 20.197745 29.684349 47.620919 0.573305 0.897781 0.010446 -0.001295 508431.000000 0 0 1
31.302382 21.630445 29.543899 48.172163 0.604671 0.910567 0.005423 -0.005597 -468562.000000 0 0 1
30.103102 22.324245 30.218319 48.142658 0.638099 0.892223 0.010406 -0.013658 217599.000000 0 0 1
28.800232 22.158345 29.659499 46.905559 0.655790 0.886247 0.019971 -0.024809 357442.000000 0 0 1
28.517612 23.085445 28.586569 46.512191 0.680516 0.908913 0.016771 -0.028766 -55900.500000 0 0 1
28.339422 24.566645 28.937379 47.371033 0.714208 0.913642 0.009183 -0.022631 617421.000000 0 0 1
29.632662 25.231645 28.917419 48.486572 0.705353 0.931787 0.002154 -0.012330 915136.000000 0 0 1
29.775902 26.427845 29.623129 49.624239 0.725898 0.931104 -0.007725 -0.011465 -156040.000000 0 0 1
30.115342 26.261445 31.100119 50.634126 0.717145 0.909409 -0.001747 -0.013379 237449.000000 0 0 1
31.319572 25.527645 31.285559 51.101492 0.683863 0.911926 0.009599 -0.010852 39126.000000 0 0 1
31.718172 25.349345 32.640289 52.096259 0.674256 0.893693 0.029046 -0.010955 -265778.000000 0 0 1
30.907312 24.396645 33.508028 51.703444 0.668212 0.865734 0.030621 -0.012829 -27497.400000 0 0 1
31.479952 24.276745 -34.370516 52.551690 0.656920 2.283699 0.025177 -0.016562 557816.000000 0 0 1
30.487172 23.527645 -33.681120 51.160879 0.657259 2.289404 0.003229 -0.018687 387229.000000 0 0 1
30.963752 22.998345 -32.289690 50.302106 0.638845 2.267790 0.001806 -0.020831 -212657.000000 0 0 1
31.191122 24.041245 -31.357160 50.340233 0.656663 2.243246 0.004000 -0.020629 158644.000000 0 0 1
31.273262 23.561345 -29.991820 49.322035 0.645675 2.224438 0.033700 -0.032602 490367.000000 0 0 1
32.401082 24.377845 -29.217320 49.977607 0.645021 2.195193 0.028795 -0.007810 897699.000000 0 0 1
32.890912 23.676945 -28.087220 49.308232 0.623933 2.176846 0.034999 -0.020245 512948.000000 0 0 1
34.087092 24.292145 -27.571150 50.121916 0.619165 2.153258 0.039950 -0.011888 1174590.000000 0 0 1
34.977659 23.404945 -26.609360 49.792430 0.589713 2.134601 0.042481 -0.008546 308318.000000 0 0 1
-34.292080 22.619745 -27.224750 49.282721 -0.583108 2.156061 0.039726 -0.014599 318377.000000 0 0 1
-34.424325 21.296745 -26.893860 48.599025 -0.554023 2.157216 0.025049 -0.010647 -312816.000000 0 0 1
-33.207427 20.457445 -27.312390 47.615196 -0.552138 2.181698 0.043636 -0.011652 -77904.000000 0 0 1
-32.018177 20.738045 -26.606150 46.509326 -0.574754 2.179812 0.056800 -0.021818 33473.800000 0 0 1
-31.203277 19.563545 -26.497030 45.370358 -0.560015 2.194464 0.021018 -0.021397 -320093.000000 0 0 1
-29.810647 19.779845 -25.934170 44.187081 -0.585818 2.198043 0.008706 -0.018243 -724270.000000 0 0 1
-29.739457 20.073145 -24.574420 43.488718 -0.593727 2.171321 -0.001967 -0.008135 -963948.000000 0 0 1
-28.459037 20.047045 -24.069420 42.321835 -0.613685 2.175749 -0.030163 -0.000296 -803986.000000 0 0 1
-28.411327 20.430645 -22.574620 41.644066 -0.623431 2.143713 -0.039105 -0.003388 293515.000000 0 0 1
-29.295127 19.545445 -21.884720 41.462873 -0.588366 2.126822 -0.032036 0.009988 -27426.200000 0 0 1
-29.976787 20.142545 -20.830520 41.692211 -0.591643 2.093963 -0.021792 0.013438 -749793.000000 0 0 1
-30.944707 19.110145 -20.220420 41.612954 -0.553230 2.078208 -0.024410 0.015497 524234.000000 0 0 1
-31.848097 19.483145 -19.171920 41.969712 -0.549016 2.045195 -0.019157 0.003257 720423.000000 0 0 1
-32.864607 20.471945 -19.373420 43.295638 -0.557101 2.034729 -0.024463 0.007325 292958.000000 0 0 1
-34.024997 20.281245 -18.355420 43.657196 -0.537524 2.004731 -0.009890 0.001203 -28568.000000 0 0 1
-33.774667 20.858145 -17.104820 43.224590 -0.553237 1.977648 -0.018320 -0.000857 339129.000000 0 0 1
-34.934384 20.973045 -16.275320 43.876712 -0.540681 1.950810 -0.004434 0.007951 -91607.700000 0 0 1
-34.680385 21.820345 -15.020720 43.640332 -0.561602 1.922176 -0.005578 0.010131 -226538.000000 0 0 1
-34.810693 23.195645 -15.202720 44.507808 -0.587774 1.919388 0.002647 0.001115 162217.000000 0 0 1
34.161842 23.665245 -14.980320 44.175618 0.605836 1.916765 0.015668 0.004940 169513.000000 0 0 1
33.908632 25.152145 -15.310120 44.909080 0.638208 1.918685 0.002031 0.004825 -201002.000000 0 0 1
34.245143 25.944945 -14.182720 45.244000 0.648363 1.889643 0.004696 0.005577 54838.500000 0 0 1
34.032462 27.343045 -14.325420 45.946363 0.676835 1.887868 -0.000928 0.013372 539298.000000 0 0 1
-35.109905 28.143145 -15.086720 47.458942 -0.675699 1.894299 0.011568 0.018307 891855.000000 0 0 1
-34.868590 27.645445 -16.402520 47.425013 -0.670364 1.923954 0.014967 0.017681 -236630.000000 0 0 1
-33.714467 28.196945 -16.969020 47.113487 -0.696513 1.939250 0.025388 0.008981 -896819.000000 0 0 1
-33.585117 27.940845 -18.485820 47.438133 -0.693916 1.971083 0.026368 0.009122 22465.100000 0 0 1
-33.266747 26.575845 -18.740420 46.520483 -0.674052 1.985417 0.025671 0.004404 -192137.000000 0 0 1
-31.929647 26.263445 -18.442820 45.270393 -0.688335 1.990393 0.019793 0.012112 -637079.000000 0 0 1
-31.483887 24.891645 -18.936320 44.378073 -0.668992 2.011642 0.011056 0.009782 -314112.000000 0 0 1
-31.269397 24.930345 -20.322220 44.858554 -0.673078 2.040956 0.005181 0.009946 147636.000000 0 0 1
-30.872907 23.600645 -20.787520 44.070941 -0.652682 2.061995 0.000691 0.011026 -56584.200000 0 0 1
-30.512677 23.573345 -22.346320 44.565503 -0.657794 2.096043 0.006523 0.006410 -346097.000000 0 0 1
-31.603157 23.874345 -23.149220 45.876249 -0.646975 2.099717 0.025785 0.000404 -541729.000000 0 0 1
-31.303537 23.560745 -24.463620 46.189705 -0.645198 2.128965 0.038024 -0.012171 -288837.000000 0 0 1
-32.166777 24.293145 -25.456220 47.674706 -0.646837 2.134069 0.024362 0.004357 -754541.000000 0 0 1
-31.810717 25.656945 -25.602020 48.225138 -0.678722 2.130441 0.010932 0.011008 256783.000000 0 0 1
-32.751207 26.347245 -26.434020 49.654569 -0.677458 2.132180 0.018396 0.001053 140018.000000 0 0 1
-32.374047 27.838645 -26.620730 50.316323 -0.710217 2.128298 0.001194 0.011148 782725.000000 0 0 1
-31.264287 27.882045 -27.541490 50.133798 -0.728276 2.152394 -0.004227 0.006214 25968.500000 0 0 1
-30.854917 29.194945 -27.790780 50.761187 -0.757762 2.150147 -0.004080 -0.001252 433022.000000 0 0 1
-29.446587 29.271645 -28.450790 50.332674 -0.782419 2.171539 0.002783 0.000242 416744.000000 0 0 1
-28.462307 28.657245 -27.597490 48.917911 -0.788811 2.170211 -0.019886 0.006056 -420784.000000 0 0 1
-27.168037 28.724045 -28.100610 48.505848 -0.813230 2.188696 0.004738 0.004610 -22318.500000 0 0 1
-26.353617 30.052245 -27.808310 48.692429 -0.850876 2.178643 0.002732 -0.002782 -409337.000000 0 0 1
-26.009537 30.243145 -26.451900 47.862792 -0.860517 2.156350 0.006292 -0.000019 289057.000000 0 0 1
-27.083537 30.648845 -25.615150 48.259772 -0.847076 2.130313 -0.009705 0.003544 -220666.000000 0 0 1
-26.584657 30.979045 -24.244620 47.478909 -0.861590 2.106725 -0.018593 -0.004022 2112.940000 0 0 1
-26.033457 32.286145 -24.297120 48.067516 -0.892204 2.100733 -0.000834 0.003038 -614862.000000 0 0 1
-24.892467 32.380345 -23.496120 47.118885 -0.915401 2.092844 0.012045 0.013496 -66391.000000 0 0 1
-24.205867 33.773945 -23.656120 47.814384 -0.948948 2.088342 0.002232 0.018321 -8733.170000 0 0 1
-24.995567 -34.522049 -22.932220 48.398728 0.944113 2.064418 -0.009919 0.014243 25636.300000 0 0 1
-24.397767 -33.256749 -22.738320 47.098764 0.937862 2.074622 0.006617 0.022732 -221424.000000 0 0 1
16.213133 9.062945 -25.443750 31.502175 0.509718 2.511007 0.019875 -0.010938 -542772.000000 0 0 1
14.981433 8.402545 -25.330250 30.605027 0.511146 2.545704 0.021909 -0.015145 -329140.000000 0 0 1
14.930733 7.093145 -25.900590 30.725886 0.443506 2.573552 0.020791 -0.017839 -117842.000000 0 0 1
13.494133 6.531545 -25.744920 29.791838 0.450789 2.614275 0.019263 -0.019468 151893.000000 0 0 1
13.014533 6.472945 -24.430020 28.427152 0.461536 2.604872 0.042004 -0.024349 -158675.000000 0 0 1
11.872333 5.686045 -24.268820 27.609039 0.446652 2.644593 0.032079 -0.023238 -174601.000000 0 0 1
11.058233 5.864745 -22.947520 26.139403 0.487633 2.642234 0.040831 -0.027706 -40690.400000 0 0 1
11.600633 5.235845 -21.824220 25.264309 0.423969 2.613632 0.049012 -0.020342 -87040.200000 0 0 1
10.881233 5.485845 -20.632320 23.962227 0.466967 2.608098 0.046017 -0.014110 -170300.000000 0 1 0
10.852033 6.929545 -20.044320 23.823517 0.568282 2.570604 0.032023 -0.020158 18631.800000 0 1 0
10.702033 7.054545 -18.668920 22.645721 0.582800 2.539921 0.017792 -0.009346 -389676.000000 0 1 0
10.998433 8.380645 -18.187920 22.847345 0.651128 2.491558 0.023203 -0.008039 1142700.000000 0 1 0
12.515533 8.754245 -17.912120 23.539741 0.610370 2.435543 0.022802 -0.004697 998904.000000 0 1 0
12.901033 8.168345 -16.651120 22.592439 0.564442 2.399450 0.020313 -0.003852 -915717.000000 0 1 0
14.282233 8.241245 -16.612620 23.406825 0.523357 2.359917 0.025602 0.004081 -1056860.000000 0 1 0
14.817833 8.111045 -15.179920 22.710949 0.500833 2.302847 0.030181 0.000868 -667644.000000 0 1 0
16.203333 7.899345 -15.102720 23.516798 0.453609 2.268174 0.026730 -0.001695 39702.600000 0 1 0
16.650033 8.092645 -13.793220 23.086087 0.452420 2.211137 0.016007 0.000063 337973.000000 0 1 0
17.253233 9.506745 -13.455020 23.855603 0.503620 2.170041 0.027662 -0.006230 -460577.000000 0 1 0
16.193333 10.323145 -13.139020 23.268545 0.567533 2.170828 0.041551 -0.002550 -360708.000000 0 1 0
16.683033 11.606145 -12.991020 24.120381 0.607824 2.139560 0.038600 -0.005430 -187307.000000 0 1 0
15.641333 12.721345 -12.681720 23.818269 0.682808 2.132273 0.049745 -0.004956 15707.300000 0 1 0
14.976633 12.621145 -11.442420 22.683073 0.700254 2.099538 0.065225 -0.004326 114746.000000 0 1 0
15.458533 13.511745 -10.420420 23.024306 0.718300 2.040457 0.052957 -0.006220 -373694.000000 0 1 0
15.114833 15.021745 -10.641920 23.819350 0.782309 2.033955 0.047074 -0.004250 373349.000000 0 1 0
13.746133 15.285045 -10.358320 23.019200 0.838358 2.037546 0.062450 -0.012163 319696.000000 0 1 0
13.532033 16.675545 -10.505720 23.907318 0.889089 2.025766 0.051067 -0.014042 -581020.000000 0 1 0
12.221333 17.013345 -9.837320 23.142769 0.947869 2.009837 0.052831 -0.017446 -669421.000000 0 1 0
12.339833 16.781845 -8.473520 22.487826 0.936764 1.957141 0.051467 -0.017288 352121.000000 0 1 0
11.327433 17.488145 -7.773420 22.238975 0.996025 1.927877 0.047245 -0.001699 -7559.600000 0 1 0
11.494033 17.316645 -6.282320 21.712820 0.984811 1.864330 0.034900 -0.005510 658215.000000 0 1 0
12.628433 18.032845 -5.775920 22.760098 0.959868 1.827376 0.043950 -0.013397 466400.000000 0 1 0
13.102033 17.480545 -4.569320 22.318410 0.927602 1.776987 0.052118 -0.022323 -252686.000000 0 1 0
14.079933 18.523745 -3.991720 23.607361 0.920861 1.740701 0.048404 -0.022815 -822548.000000 0 1 0
15.271733 18.632045 -4.697620 24.544787 0.884189 1.763374 0.046212 -0.028448 -440575.000000 0 1 0
15.922433 19.845745 -4.361520 25.814731 0.894649 1.740565 0.047076 -0.026265 1153830.000000 0 0 1
17.396833 20.055245 -4.942420 27.005373 0.856261 1.754850 0.033750 -0.022803 1374730.000000 0 0 1
18.395733 19.235945 -4.378520 26.973988 0.807722 1.733842 0.037536 -0.034722 91660.600000 0 0 1
18.593933 18.001345 -4.976020 26.354194 0.769207 1.760750 0.031727 -0.028102 -770195.000000 0 0 1
19.755933 17.230145 -4.347620 26.572102 0.717214 1.735151 0.051421 -0.027819 495231.000000 0 0 1
21.057633 17.673645 -4.795820 27.906657 0.698249 1.743506 0.046423 -0.033862 505483.000000 0 0 1
22.006633 16.864045 -4.175220 28.037838 0.653862 1.720266 0.053110 -0.030965 -1258790.000000 0 0 1
23.428033 16.922945 -4.679220 29.277191 0.625561 1.731309 0.050417 -0.031120 -779910.000000 0 0 1
24.057233 18.053345 -4.151020 30.362883 0.643778 1.707939 0.047887 -0.022018 1061930.000000 0 0 1
25.501833 18.004945 -4.219120 31.501151 0.614759 1.705135 0.041204 -0.011979 1196790.000000 0 0 1
26.206733 19.214345 -3.565220 32.690896 0.632651 1.680072 0.034208 -0.004519 -129138.000000 0 0 1
25.904833 20.454045 -4.212020 33.274156 0.668357 1.697722 0.032234 -0.007102 259654.000000 0 0 1
26.049233 21.519645 -3.330520 33.952173 0.690463 1.669049 0.027853 0.015048 -85937.300000 0 0 1
25.796633 22.824845 -4.142120 34.692895 0.724353 1.690476 0.006278 0.009015 18287.700000 0 0 1
26.822133 23.222945 -5.056420 35.837123 0.713603 1.712363 0.000459 0.013461 385987.000000 0 0 1
26.939233 22.501045 -6.276320 35.656858 0.695869 1.747738 0.012472 0.004004 216904.000000 0 0 1
28.117733 23.053745 -7.124120 37.051790 0.686758 1.764276 0.002177 0.005025 109856.000000 0 0 1
27.663233 24.152445 -7.862620 37.555504 0.717746 1.781717 0.001631 0.002344 209821.000000 0 0 1
28.645633 24.865345 -8.589020 38.892531 0.714870 1.793472 -0.005327 0.002636 -169247.000000 0 0 1
29.653233 24.311845 -9.625720 39.535231 0.686741 1.816740 0.003354 -0.004537 55389.400000 0 0 1
29.127233 23.918545 -10.865720 39.224436 0.687520 1.851481 0.006615 -0.003587 -219496.000000 0 0 1
30.178533 23.767045 -11.780220 40.179471 0.667102 1.868358 0.003178 -0.008016 -190159.000000 0 0 1
29.821833 23.060945 -13.107020 39.911688 0.658241 1.905406 -0.005725 -0.008102 -137537.000000 0 0 1
29.512233 24.055945 -14.014720 40.571822 0.683891 1.923493 0.012788 0.001524 239731.000000 0 0 1
29.117733 23.373745 -15.252420 40.333741 0.676405 1.958599 0.012802 0.000656 99973.400000 0 0 1
29.133133 24.248445 -16.521720 41.348443 0.694147 1.981847 0.007585 0.006073 160511.000000 0 0 1
30.425233 24.455345 -17.083020 42.609720 0.677045 1.983315 0.002284 0.013006 234846.000000 0 0 1
30.438733 25.344245 -18.180520 43.581860 0.694324 2.001112 0.004224 0.009655 1088120.000000 0 0 1
31.938233 25.793045 -18.433220 45.001283 0.679353 1.992829 0.004430 0.006034 1098630.000000 0 0 1
32.719633 24.673345 -18.787420 45.081210 0.646110 2.000659 0.012881 0.006845 -891225.000000 0 0 1
34.049633 25.017845 -19.039420 46.344035 0.633667 1.994158 0.018320 0.002652 -788505.000000 0 0 1
34.995333 23.857945 -19.185620 46.496913 0.598370 1.996126 0.017948 -0.007173 -545010.000000 0 0 1
34.836233 23.098245 -20.373320 46.499078 0.585496 2.024330 0.021178 0.002371 -132713.000000 0 0 1
-34.520536 23.501045 -21.328020 46.891907 -0.597713 2.042982 0.028985 -0.006137 -511550.000000 0 0 1
-34.548636 22.557445 -22.547320 47.019445 -0.578424 2.070917 0.037201 -0.013939 61998.200000 0 0 1
-33.987936 21.263445 -22.264220 45.858580 -0.559043 2.077728 0.021880 -0.016396 225123.000000 0 0 1
-33.718836 20.601245 -23.457520 45.952437 -0.548448 2.106532 0.025419 -0.016610 114873.000000 0 0 1
-33.416736 19.150845 -23.281720 45.005239 -0.520399 2.114503 0.009942 -0.015477 708528.000000 0 0 1
-34.611036 18.449745 -22.919020 45.426846 -0.489744 2.099629 0.018128 -0.019369 833932.000000 0 0 1
-34.282636 17.086745 -22.878720 44.617169 -0.462373 2.109214 0.015647 -0.013663 59930.600000 0 0 1
34.735533 16.269945 -22.574320 44.506946 0.438045 2.102739 0.026423 -0.012815 -628852.000000 0 0 1
33.863933 16.258545 -23.629920 44.378817 0.447613 2.132300 0.058809 -0.021930 -674717.000000 0 0 1
32.850133 15.286545 -23.443920 43.155846 0.435539 2.145086 0.057714 -0.014834 -337601.000000 0 0 1
32.993833 13.853645 -23.994420 43.084205 0.397531 2.161468 0.029635 -0.012684 -771690.000000 0 0 1
33.122733 13.749945 -25.377500 43.933972 0.393473 2.186616 0.030586 -0.001017 262100.000000 0 0 1
33.276333 12.387045 -25.838630 43.913415 0.356356 2.199874 0.019478 0.005137 -357443.000000 0 0 1
33.200333 12.366745 -27.356360 44.761243 0.356567 2.228324 0.031081 0.004082 110285.000000 0 0 1
31.902333 12.486845 -27.918970 44.194446 0.373078 2.254580 0.021867 0.007215 209279.000000 0 0 1
31.577533 13.734245 -28.534880 44.721465 0.410257 2.262770 0.021842 0.004037 -24847.300000 0 0 1
32.009033 13.925345 -30.024170 46.042852 0.410347 2.281137 0.010181 -0.005366 67045.100000 0 0 1
33.392933 14.208845 -30.163850 47.189375 0.402298 2.264265 0.015048 0.002211 64045.300000 0 0 1
33.700733 14.265545 -31.565840 48.328536 0.400430 2.282535 0.010021 -0.000237 -1887460.000000 0 0 1
-35.122536 14.376245 -31.783120 49.501875 -0.388512 2.267977 0.028168 -0.004841 -1499190.000000 0 0 1
-34.296236 13.292445 -31.407220 48.366666 -0.369752 2.277535 0.024528 -0.000171 131420.000000 0 0 1
-34.017736 13.257445 -30.011820 47.261777 -0.371614 2.258821 0.027364 0.000345 -468454.000000 0 0 1
-32.931436 12.202745 -29.610880 45.936812 -0.354864 2.271297 0.022715 0.001137 652339.000000 0 0 1
-33.366136 10.842045 -29.938970 46.121480 -0.314179 2.277240 0.021515 -0.010257 461008.000000 0 0 1
-32.226736 10.010145 -29.921830 45.100792 -0.301168 2.296208 0.017753 -0.011528 114804.000000 0 0 1
-32.492436 8.501245 -30.364550 45.277317 -0.255901 2.305861 0.020558 -0.009779 -547830.000000 0 0 1
-32.640236 8.398845 -31.779500 46.323452 -0.251852 2.326821 0.004878 -0.006683 322169.000000 0 0 1
-33.076736 7.167345 -32.413770 46.862498 -0.213389 2.334607 0.006995 -0.009326 -263286.000000 0 0 1
-34.363036 6.474745 -31.933620 47.355006 -0.186238 2.310874 0.012492 -0.000413 -681328.000000 0 0 1
-34.224536 5.732445 -30.778930 46.384505 -0.165955 2.296364 0.015283 -0.005053 306230.000000 0 0 1
34.809533 5.391145 -30.218190 46.410204 0.153655 2.279844 0.019195 0.001883 62959.300000 0 0 1
34.836533 4.691545 -28.832290 45.463123 0.133868 2.257758 0.015894 -0.005727 52918.800000 0 0 1
-34.820436 3.422645 -28.866790 45.359330 -0.097979 2.260622 0.018705 -0.003679 413306.000000 0 0 1
34.983333 2.682145 -27.784380 44.754880 0.076520 2.240575 0.021494 -0.001768 -306637.000000 0 0 1
-34.622236 1.310445 -27.653260 44.329666 -0.037832 2.244404 0.055607 -0.007447 -324047.000000 0 0 1
-33.381136 1.341945 -26.983700 42.944395 -0.040179 2.250214 0.045749 -0.003488 -25945.200000 0 0 1
-32.612536 0.147845 -27.154360 42.437703 -0.004533 2.265118 0.052283 -0.007479 1483070.000000 0 0 1
-31.254636 0.262645 -26.306100 40.852566 -0.008403 2.270417 0.022656 -0.004279 1148400.000000 0 0 1
-31.523036 0.638245 -24.979820 40.225620 -0.020244 2.240805 0.021826 -0.000692 84060.400000 0 0 1
-30.348636 0.871945 -24.236220 38.848350 -0.028723 2.244478 0.038493 0.001969 407.053000 0 0 1
-30.602836 0.438645 -22.784520 38.155738 -0.014332 2.210734 0.018333 0.002124 -375924.000000 0 0 1
-30.741436 -0.950955 -22.530120 38.125405 0.030924 2.203029 0.024011 -0.008731 196178.000000 0 0 1
-31.132536 -1.304655 -21.214320 37.695945 0.041882 2.168535 0.022659 -0.008913 -238744.000000 0 0 1
-32.583436 -0.998555 -20.787220 38.662461 0.030637 2.138455 0.016415 -0.002796 -377578.000000 0 0 1
-33.510636 -2.001355 -21.211920 39.710372 0.059652 2.134317 0.005003 -0.000447 -613285.000000 0 0 1
-34.685436 -1.743755 -20.500120 40.328341 0.050231 2.104041 0.002632 0.003590 -491805.000000 0 0 1
34.903333 -3.140255 -20.297620 40.498114 -0.089728 2.095780 0.009362 0.005954 -371774.000000 0 0 1
34.212533 -3.694155 -21.360520 40.502049 -0.107560 2.126326 -0.000902 0.005758 -120024.000000 0 0 1
35.079633 -4.352955 -22.240020 41.762990 -0.123457 2.132382 -0.018726 0.008487 -508689.000000 0 0 1
34.354433 -5.284555 -23.227820 41.805325 -0.152628 2.159903 -0.013881 0.012046 -646646.000000 0 0 1
34.129633 -6.592555 -22.676920 41.503450 -0.190812 2.148840 -0.007162 0.014896 396392.000000 0 0 1
33.537933 -7.547055 -23.581220 41.687227 -0.221343 2.172042 -0.008170 0.018113 -413902.000000 0 0 1
32.132233 -7.356455 -24.108320 40.838816 -0.225064 2.202262 -0.025599 0.019144 -1037330.000000 0 0 1
32.090933 -6.337755 -25.079930 41.218903 -0.194984 2.224911 -0.015850 0.013744 -137293.000000 0 0 1
30.767333 -5.945055 -25.364030 40.315090 -0.190874 2.251249 -0.021450 0.007825 -98130.800000 0 0 1
30.621633 -4.868455 -26.457110 40.759844 -0.157668 2.277194 0.011977 -0.019575 166981.000000 0 0 1
31.015333 -5.293655 -27.772780 41.967856 -0.169050 2.293964 0.026324 -0.028831 362442.000000 0 0 1
30.693733 -4.213655 -28.624500 42.180826 -0.136428 2.316670 0.027169 -0.034447 -19771.100000 0 0 1
30.361233 -4.512155 -30.101330 42.991325 -0.147536 2.346435 0.038594 -0.029507 53156.200000 0 0 1
29.899333 -3.413655 -30.811880 43.069654 -0.113679 2.367988 0.040781 -0.039794 -15601.500000 0 0 1
29.231033 -3.836355 -31.993770 43.506002 -0.130497 2.397035 0.048816 -0.045436 -681630.000000 0 0 1
28.867533 -2.739855 -33.062920 43.977243 -0.094628 2.421613 0.054825 -0.042479 -146097.000000 0 0 1
27.860333 -1.770255 -32.692860 42.990174 -0.063455 2.434837 0.054400 -0.042049 739327.000000 0 0 1
26.546933 -2.247055 -32.452220 41.987325 -0.084443 2.454203 0.067788 -0.044260 79293.500000 0 0 1
25.803633 -2.633855 -33.800020 42.605234 -0.101721 2.487056 0.064871 -0.045822 -815267.000000 0 0 1
26.247633 -3.838655 -34.420825 43.456492 -0.145218 2.484998 0.072894 -0.050724 -99888.400000 0 0 1
25.621633 -4.078055 33.492200 42.365388 -0.157841 0.659080 0.060308 -0.038316 -347574.000000 0 0 1
26.349633 -5.105855 32.617819 42.240917 -0.191401 0.688523 0.033898 -0.045152 -500309.000000 0 0 1
27.625333 -4.904855 32.097009 42.631381 -0.175718 0.718345 0.034946 -0.039845 -428875.000000 0 0 1
27.768433 -3.860755 31.106279 41.875911 -0.138148 0.733523 0.049792 -0.036605 -782978.000000 0 0 1
28.230033 -2.462355 31.669929 42.496851 -0.087004 0.729917 0.039733 -0.039800 -1106560.000000 0 0 1
29.541733 -2.602155 32.085039 43.691360 -0.087857 0.746078 0.033547 -0.035704 -1134260.000000 0 0 1
29.975933 -1.363055 32.551319 44.271919 -0.045440 0.744748 0.027948 -0.031490 -217761.000000 0 0 1
31.445533 -1.492955 32.997469 45.605739 -0.047442 0.761883 0.016470 -0.028950 173799.000000 0 0 1
32.310533 -1.784955 31.901909 45.441043 -0.055188 0.792523 0.020074 -0.023251 561502.000000 0 0 1
33.693533 -1.817355 32.290159 46.703440 -0.053886 0.807389 0.022342 -0.014936 1050760.000000 0 0 1
34.649933 -2.393255 31.205349 46.691748 -0.068960 0.838839 0.005485 -0.006260 173832.000000 0 0 1
34.868333 -1.489755 30.143059 46.115334 -0.042699 0.858405 -0.002840 0.000121 -83281.000000 0 0 1
-34.325936 -1.926055 29.377909 45.222131 0.056052 0.863691 -0.002067 0.006897 -185013.000000 0 0 1
-34.182736 -1.206655 28.042959 44.230340 0.035285 0.884055 -0.002412 0.010566 -288574.000000 0 0 1
-35.118936 -1.523055 27.055959 44.358587 0.043341 0.914815 0.015637 -0.009588 -453910.000000 0 0 1
-34.722436 -0.946755 25.876119 43.314171 0.027260 0.930535 0.010391 -0.010773 -1051940.000000 0 0 1
-26.357767 15.566145 12.375880 33.018164 -0.533458 1.186593 0.023046 0.001782 88007.500000 0 0 1
-27.388817 14.841345 13.032280 33.767635 -0.496585 1.174570 -0.021651 0.007817 351440.000000 0 0 1
-28.192567 15.745645 13.747280 35.096066 -0.509348 1.168313 -0.013939 0.009339 -459176.000000 0 0 1
-29.531497 15.206545 14.260580 36.148478 -0.475517 1.165272 -0.012408 0.005416 -326420.000000 0 0 1
-30.227367 16.172245 14.960680 37.403973 -0.491270 1.159306 -0.006397 -0.002903 -319861.000000 0 0 1
-31.475967 15.680445 15.403680 38.391226 -0.462184 1.157938 -0.009302 0.011108 -121207.000000 0 0 1
-32.387887 16.550945 16.271780 39.845700 -0.472427 1.150129 0.006686 0.000296 -368869.000000 0 0 1
-31.780377 17.008145 17.472880 40.057096 -0.491392 1.119426 -0.002870 0.003038 -425754.000000 0 0 1
-32.606327 17.158045 18.605080 41.276144 -0.484402 1.103195 -0.005982 -0.010084 -111924.000000 0 0 1
-31.775887 17.314245 19.920580 41.307621 -0.498909 1.067576 -0.005631 -0.009216 303590.000000 0 0 1
-31.206227 16.111445 20.504280 40.667343 -0.476594 1.042347 -0.000299 -0.001574 1151700.000000 0 0 1
-30.067337 16.251145 21.405380 40.327841 -0.495514 1.011271 -0.003949 -0.007112 936765.000000 0 0 1
-30.280047 16.898845 22.756580 41.476670 -0.509029 0.990036 0.011615 -0.016777 -894626.000000 0 0 1
-30.865677 18.218145 22.770880 42.462970 -0.533212 1.004805 0.007315 -0.012947 339854.000000 0 0 1
-31.394547 18.679445 23.946180 43.680188 -0.536728 0.990567 0.017947 -0.016710 -992033.000000 0 0 1
-32.367547 17.714245 24.698080 44.400988 -0.500756 0.980929 -0.000433 -0.013926 -368559.000000 0 0 1
-33.516997 17.276245 23.986980 44.690412 -0.475929 1.004232 0.013916 -0.008049 119074.000000 0 0 1
-34.469425 18.298845 23.775980 45.697770 -0.488039 1.023609 0.014688 -0.006286 422337.000000 0 0 1
34.354815 17.656845 23.665680 45.299911 0.474750 1.021107 0.003774 -0.009264 1392510.000000 0 0 1
33.930292 17.147345 24.926180 45.459989 0.467934 0.990454 0.011411 -0.001301 177012.000000 0 0 1
32.810832 16.286445 24.720780 44.191809 0.460743 0.977138 0.019523 0.000931 367931.000000 0 0 1
32.664732 15.358145 25.902580 44.427480 0.439504 0.948342 0.021097 0.006273 -212368.000000 0 0 1
32.126762 16.096645 27.045180 44.974133 0.464476 0.925607 0.018252 0.002893 403118.000000 0 0 1
31.992882 15.361045 28.236380 45.351950 0.447633 0.898728 0.007279 0.002478 -92013.100000 0 0 1
30.837662 14.341345 28.341280 44.270348 0.435307 0.876055 0.013664 0.015671 175774.000000 0 0 1
31.190642 13.350145 27.369380 43.590888 0.404424 0.891984 0.006027 0.011508 1168670.000000 0 0 1
30.173142 12.328845 27.551880 42.679328 0.387901 0.869046 0.006166 0.014941 564216.000000 0 0 1
30.742742 10.976645 27.241180 42.516877 0.342940 0.875368 0.005290 0.017337 -162282.000000 0 0 1
31.851252 10.563945 28.016880 43.715498 0.320248 0.875138 0.001022 0.019842 158517.000000 0 0 1
32.057552 9.160245 27.743280 43.373798 0.278327 0.876777 -0.004564 0.020931 -651999.000000 0 0 1
33.127562 8.481145 28.588980 44.572357 0.250632 0.874467 0.000813 0.023345 -894055.000000 0 0 1
34.388077 9.022645 28.411380 45.509938 0.256593 0.896575 0.017928 0.020325 -263978.000000 0 0 1
-34.897304 8.209345 29.053980 46.144869 -0.231042 0.889725 0.008283 0.017476 941270.000000 0 0 1
-33.593427 9.007345 29.384680 45.531418 -0.261966 0.869287 0.013652 0.016089 66197.400000 0 0 1
-32.794997 9.242945 28.290680 44.286640 -0.274714 0.877848 0.018695 0.016025 1030830.000000 0 0 1
-31.536557 9.882445 28.703480 43.773359 -0.303672 0.855648 0.022866 0.010822 1472020.000000 0 0 1
-30.820157 10.630845 27.531580 42.671827 -0.332152 0.869520 0.018667 0.004560 -128996.000000 0 0 1
-30.206547 9.698745 26.684180 41.455357 -0.310683 0.871493 0.020855 0.003427 -220125.000000 0 0 1
-29.266327 10.365645 25.893180 40.427976 -0.340397 0.875677 0.011484 0.006000 -461810.000000 0 0 1
-28.575907 9.362245 24.975980 39.090071 -0.316606 0.877684 0.010623 -0.002422 -322267.000000 0 0 1
-27.669417 9.966445 24.104580 38.025747 -0.345730 0.884209 -0.003257 -0.005357 -488086.000000 0 0 1
-27.047897 9.026845 23.308380 36.828701 -0.322113 0.885521 -0.010955 0.011445 351142.000000 0 0 1
-25.992687 9.703745 22.358480 35.632627 -0.357302 0.892494 -0.015046 0.020860 225480.000000 0 0 1
-24.732067 10.132245 22.870080 35.176385 -0.388824 0.863009 -0.010864 0.010156 781072.000000 0 0 1
-23.809267 10.589045 21.901680 34.039575 -0.418475 0.871841 -0.011385 0.011848 214350.000000 0 0 1
-23.302367 9.675145 20.741280 32.662049 -0.393541 0.882753 -0.009017 0.018655 -606118.000000 0 0 1
-24.218567 9.409345 19.671980 32.589286 -0.370569 0.922746 -0.010962 0.016691 366747.000000 0 0 1
-23.697667 8.624545 18.633480 31.355522 -0.349040 0.934445 -0.004766 0.019237 -699315.000000 0 0 1
-23.647967 7.129445 18.876280 31.086481 -0.292816 0.918241 -0.011576 0.027467 247328.000000 0 0 1
-22.530067 6.614045 19.650680 30.618601 -0.285543 0.873968 -0.010182 0.028757 1156960.000000 0 0 1
-22.613367 5.252445 20.079280 30.694137 -0.228225 0.857707 -0.005369 0.022977 -270762.000000 0 0 1
-22.662467 4.116145 19.030580 29.877969 -0.179670 0.880269 -0.014635 0.025060 -488228.000000 0 0 1
-23.906367 4.083945 18.360480 30.418748 -0.169198 0.922799 -0.013348 0.032562 424359.000000 0 0 1
-24.029867 3.122045 17.268180 29.755197 -0.129200 0.951648 0.006236 0.023241 -306420.000000 0 0 1
-23.834467 1.615645 17.567480 29.653136 -0.067683 0.936721 0.002519 0.019895 -963569.000000 0 0 1
-22.598967 1.040645 17.887980 28.840529 -0.046016 0.901751 -0.019982 0.024707 -25166.100000 0 0 1
-22.886367 -0.180055 18.539880 29.454123 0.007867 0.889952 -0.006876 0.017891 -38333.300000 0 0 1
-21.641467 -1.074455 18.717280 28.632920 0.049607 0.858336 -0.010404 0.018288 -429620.000000 0 0 1
-20.717467 -0.604155 19.660280 28.567553 0.029153 0.811787 -0.010194 0.018602 -155265.000000 0 0 1
-20.061567 -1.750655 20.182380 28.510695 0.087044 0.784293 0.008773 0.014284 151371.000000 0 0 1
-18.876067 -1.285155 21.092580 28.334687 0.067979 0.731148 0.004182 0.012715 405302.000000 0 0 1
-19.280767 -1.047455 22.413680 29.584087 0.054273 0.711128 0.002310 0.010007 713193.000000 0 0 1
-18.137167 -0.992855 23.288280 29.534498 0.054687 0.662412 0.010024 0.005079 609714.000000 0 0 1
-18.597467 -1.075655 24.767180 30.990902 0.057774 0.644873 0.016524 0.006239 417882.000000 0 0 1
-19.219367 0.096945 25.353280 31.814812 -0.005044 0.648647 0.019492 0.001861 131617.000000 0 0 1
-20.625267 -0.019455 25.430580 32.743189 0.000943 0.681438 0.015256 0.000897 -402623.000000 0 0 1
-21.242267 1.187745 26.129180 33.695381 -0.055856 0.683364 0.022798 -0.003894 -704651.000000 0 0 1
-21.191067 2.424145 25.509180 33.251407 -0.113900 0.696393 0.012535 0.001514 177612.000000 0 0 1
-22.358167 2.714945 24.766280 33.475770 -0.120838 0.737983 0.003136 0.008184 -600210.000000 0 0 1
-22.054567 3.785545 23.711880 32.603490 -0.169988 0.756445 -0.003354 0.011495 -78015.000000 0 0 1
-21.451267 3.316145 22.535480 31.289000 -0.153376 0.766653 -0.010368 0.021593 896887.000000 0 0 1
-20.073067 2.937145 22.627780 30.390316 -0.145292 0.730903 0.000239 0.013409 -32003.300000 0 0 1
-19.466467 2.434045 21.320380 28.972858 -0.124392 0.743839 0.000712 0.015970 -353184.000000 0 0 1
-19.119967 3.363745 20.345680 28.121782 -0.174146 0.761959 0.002702 0.018166 308239.000000 0 0 1
-19.153667 2.659945 19.126480 27.198539 -0.137991 0.790884 0.021483 0.013154 -235161.000000 0 0 1
-18.737067 3.498545 17.922280 26.163441 -0.184592 0.816176 0.013346 0.015220 728060.000000 0 0 1
-17.329067 3.793645 17.941080 25.230352 -0.215518 0.779747 0.014338 0.008408 955133.000000 0 0 1
-16.940667 4.550645 16.775180 24.271408 -0.262428 0.807717 0.011592 0.011954 -165424.000000 0 1 0
-15.440867 4.900545 16.725780 23.284919 -0.307320 0.769427 0.016608 0.013416 174815.000000 0 1 0
-14.924067 5.896845 17.722980 23.908254 -0.376295 0.735804 0.009005 0.009943 179144.000000 0 1 0
-15.405867 7.201345 17.711080 24.553665 -0.437263 0.765088 -0.000326 0.007454 -693210.000000 0 1 0
-15.041367 8.259345 16.541080 23.834153 -0.502159 0.803756 0.007079 0.014220 -141052.000000 0 1 0
-15.285367 7.968245 15.197680 22.980532 -0.480541 0.848208 -0.003958 0.011727 799639.000000 0 1 0
-16.676867 8.063445 14.848180 23.740377 -0.450369 0.895101 -0.002197 0.012447 780019.000000 0 1 0
-17.048267 7.376745 13.505780 22.966625 -0.408373 0.942137 -0.005877 0.010720 -382336.000000 0 1 0
-16.979567 5.966145 13.561580 22.534796 -0.337897 0.925036 -0.000055 0.011148 -92261.700000 0 1 0
-17.474167 5.314845 12.472080 22.116665 -0.295264 0.971669 -0.005045 0.003891 -343294.000000 0 1 0
-17.133467 3.821345 12.544480 21.575967 -0.219442 0.950336 -0.007991 0.012385 -13961.500000 0 1 0
-17.831567 3.256645 13.665780 22.700750 -0.180643 0.924797 -0.004878 0.014047 611873.000000 0 1 0
-17.424567 1.935145 13.981980 22.424453 -0.110605 0.897566 -0.004394 0.011552 -312007.000000 0 1 0
-18.505667 1.360945 14.903080 23.799447 -0.073410 0.894134 0.007600 0.009178 -291312.000000 0 1 0
-19.639767 0.834145 14.289480 24.302376 -0.042447 0.942228 0.004774 0.010397 -306643.000000 0 1 0
-20.536467 0.374445 15.285880 25.603610 -0.018231 0.931014 0.000188 0.009282 1101740.000000 0 0 1
-21.937667 -0.075955 14.666480 26.388873 0.003462 0.981492 0.005317 0.011201 968441.000000 0 0 1
-21.817267 -1.198455 13.870380 25.880821 0.054876 1.005184 0.014301 -0.000115 77021.000000 0 0 1
-23.051367 -1.503955 13.267980 26.639570 0.065151 1.049442 0.028829 -0.004281 -219559.000000 0 0 1
-23.033767 -2.670855 12.271980 26.235270 0.115438 1.084034 0.027313 -0.011370 -319414.000000 0 0 1
-22.846567 -3.881655 12.902980 26.523947 0.168294 1.062757 0.024583 -0.009428 208939.000000 0 0 1
-22.831167 -4.985955 12.010080 26.274778 0.215008 1.096070 0.041678 -0.016707 -239499.000000 0 0 1
-22.878067 -6.447955 12.563580 26.885416 0.274714 1.084561 0.047543 -0.014423 -476346.000000 0 0 1
-23.917467 -6.609155 13.463880 28.231228 0.269604 1.073655 0.041223 -0.014620 -217905.000000 0 0 1
-23.974867 -7.958855 13.857580 28.812673 0.320520 1.069053 0.057205 -0.020124 183395.000000 0 0 1
-24.854367 -8.264955 15.125980 30.246393 0.321032 1.047091 0.054677 -0.012857 -49414.100000 0 0 1
-26.157987 -7.762955 15.047780 31.159901 0.288493 1.066809 0.041851 -0.009750 -97666.000000 0 0 1
-26.891337 -8.182355 16.202280 32.443934 0.295374 1.047898 0.036157 -0.009348 -507819.000000 0 0 1
-28.372827 -7.708255 16.311680 33.622989 0.265275 1.064279 0.032922 -0.005035 64158.300000 0 0 1
-29.201827 -8.171355 15.275980 33.953988 0.272845 1.104140 0.022193 -0.003400 215416.000000 0 0 1
-29.402877 -9.580755 15.145480 34.434076 0.314995 1.115376 0.025418 -0.007123 -684035.000000 0 0 1
-29.974867 -10.352255 16.360980 35.683939 0.332539 1.094493 0.025434 -0.006407 -617336.000000 0 0 1
-28.869557 -10.561555 17.200180 35.225615 0.350713 1.060672 0.033368 -0.003367 144888.000000 0 0 1
-29.131707 -10.637955 18.591280 36.158791 0.350123 1.030772 0.030234 0.009157 678549.000000 0 0 1
-27.816727 -10.926755 19.421880 35.642302 0.374295 0.994513 0.040005 0.006930 1042520.000000 0 0 1
-27.064567 -12.094955 19.135980 35.284054 0.420267 0.997576 0.059493 -0.000641 310861.000000 0 0 1
-25.782757 -11.944055 19.736480 34.596816 0.433824 0.963717 0.048527 -0.004639 459283.000000 0 0 1
-24.676567 -12.871355 19.206080 33.815355 0.480780 0.966760 0.062161 -0.006553 147138.000000 0 0 1
-23.996367 -12.463755 17.998180 32.482385 0.479048 0.983526 0.051737 -0.005433 357157.000000 0 0 1
-22.735067 -13.112655 17.981480 31.814440 0.523155 0.970122 0.048041 -0.009840 5685.450000 0 0 1
-22.109867 -13.271155 16.606580 30.671620 0.540594 0.998658 0.059125 -0.014427 -117177.000000 0 0 1
-21.702667 -12.043055 16.009880 29.535694 0.506606 0.997919 0.052215 -0.013957 -80653.200000 0 0 1
-21.303067 -12.222355 14.667180 28.606517 0.520884 1.032444 0.079128 -0.016992 -11347.500000 0 0 1
-20.293267 -11.213155 14.093480 27.132595 0.504803 1.024613 0.047090 -0.015285 -165290.000000 0 0 1
-20.739467 -9.874255 14.100680 26.952840 0.444353 1.020240 0.034600 -0.016146 -214851.000000 0 0 1
-19.824167 -8.970755 13.545880 25.631288 0.424944 1.013975 0.031102 -0.013357 -227402.000000 0 0 1
-19.395367 -9.032655 12.047680 24.554342 0.435843 1.057956 0.041953 -0.004127 -605645.000000 0 1 0
-18.529167 -10.054555 11.727180 24.123658 0.497170 1.063143 0.023082 -0.013082 -245537.000000 0 1 0
-18.293267 -10.051755 10.341780 23.294502 0.502443 1.110785 0.034837 -0.003177 48787.300000 0 1 0
-17.554067 -11.350155 9.817780 23.094590 0.573969 1.131711 0.010838 -0.002378 2841480.000000 0 1 0
-16.103667 -11.608955 9.964280 22.212222 0.624608 1.105604 0.007337 -0.002413 2472170.000000 0 1 0
-15.564267 -11.621055 11.273080 22.458354 0.641353 1.044939 0.014055 -0.000023 739703.000000 0 1 0
-14.091967 -12.196455 11.326080 21.808648 0.713418 1.024719 0.013890 0.003915 935602.000000 0 1 0
-13.868767 -13.508655 10.946880 22.240968 0.772245 1.056187 0.006642 -0.004211 -143910.000000 0 1 0
-12.481367 -13.734955 10.869780 21.507804 0.833179 1.040965 0.011120 -0.009506 -128424.000000 0 1 0
-12.121267 -15.188555 10.858280 22.260269 0.897244 1.061243 0.020947 -0.010846 -306196.000000 0 1 0
-12.265867 -15.851655 9.610680 22.228172 0.912242 1.123683 0.002290 -0.006918 46746.900000 0 1 0
-12.192667 -17.231255 9.722480 23.240136 0.954994 1.139170 0.003024 -0.004026 -214360.000000 0 1 0
-12.652367 -17.951255 8.451180 23.531944 0.956844 1.203454 -0.001999 0.002299 -52999.700000 0 1 0
-11.718867 -17.877655 7.371580 22.611559 0.990562 1.238717 -0.004866 -0.003685 15533.900000 0 1 0
-12.161867 -18.580055 6.236580 23.065654 0.991218 1.297005 -0.008447 0.002143 -540425.000000 0 1 0
-11.269867 -18.480355 5.016780 22.219395 1.023181 1.343049 0.000347 0.001795 -22519.200000 0 1 0
-11.841467 -19.070155 3.767280 22.761449 1.015120 1.404520 0.012602 -0.006393 1147270.000000 0 1 0
-10.907467 -18.950755 2.659880 22.026777 1.048535 1.449744 0.015022 -0.012066 698720.000000 0 1 0
-11.274567 -19.875855 1.512080 22.900914 1.054806 1.504721 0.025411 -0.012059 71158.900000 0 1 0
-10.881667 -21.234955 1.823080 23.930266 1.097245 1.494539 0.017976 -0.012842 -8203.360000 0 1 0
-11.274467 -22.198955 0.818380 24.911382 1.100862 1.537939 0.023962 -0.015112 -543340.000000 0 1 0
-10.363567 -22.348355 -0.361220 24.637024 1.136585 1.585459 0.033099 -0.009615 -762552.000000 0 1 0
-10.341767 -21.374955 -1.364620 23.784512 1.120171 1.628202 0.031800 -0.020702 -657015.000000 0 1 0
-11.301367 -21.324855 -2.360020 24.249537 1.083467 1.668273 0.039592 -0.016415 -595831.000000 0 1 0
-12.321267 -20.179855 -2.281020 23.753804 1.022639 1.666972 0.034931 -0.018971 -404828.000000 0 1 0
-13.187167 -20.275555 -1.207420 24.216882 0.994142 1.620676 0.031663 -0.016941 -78760.500000 0 1 0
-14.115567 -19.190555 -1.180320 23.852039 0.936609 1.620302 0.031886 -0.013324 371533.000000 0 1 0
25.555033 -20.296955 -4.237620 32.908715 -0.671222 1.699924 0.026062 -0.004406 -52039.100000 0 0 1
24.407233 -20.392755 -3.426320 31.989329 -0.696028 1.678110 0.021577 -0.002236 -34787.900000 0 0 1
24.501533 -21.574355 -2.586320 32.748541 -0.721954 1.649854 0.006527 0.002340 345833.000000 0 0 1
23.219433 -21.887555 -1.752720 31.957459 -0.755880 1.625669 -0.003682 0.007798 1220210.000000 0 0 1
22.113133 -22.470755 -2.478920 31.623892 -0.793419 1.649264 0.007166 0.001227 272371.000000 0 0 1
20.930733 -22.479155 -1.738020 30.764081 -0.821053 1.627322 0.000284 0.000796 -244784.000000 0 0 1
19.780133 -23.245155 -2.443120 30.619597 -0.865759 1.650671 0.012525 -0.002167 61027.100000 0 0 1
19.347133 -22.530355 -3.588720 29.913331 -0.861265 1.691057 0.020967 -0.001395 -124605.000000 0 0 1
18.311433 -23.274555 -4.231620 29.915215 -0.904182 1.712726 0.027991 0.002626 188746.000000 0 0 1
17.344233 -22.503155 -5.144420 28.873508 -0.914149 1.749924 0.017650 0.019265 481846.000000 0 0 1
16.338933 -21.688555 -4.501020 27.524777 -0.925159 1.735060 0.009416 0.022565 601796.000000 0 0 1
16.872933 -20.676555 -3.658720 26.937001 -0.886350 1.707043 0.005755 0.011127 -673401.000000 0 0 1
15.928133 -20.185355 -2.566120 25.840645 -0.902741 1.670266 0.004235 0.013360 -141700.000000 0 0 1
15.807733 -21.147555 -1.527420 26.446862 -0.928899 1.628583 0.012680 0.010618 336256.000000 0 0 1
14.867633 -20.625755 -0.593720 25.432672 -0.946228 1.594143 0.020819 0.012985 144323.000000 0 0 1
14.350433 -21.530355 0.533980 25.880036 -0.982895 1.550162 0.009487 0.011945 -549675.000000 0 0 1
13.529433 -22.617855 0.229580 26.356510 -1.031720 1.562086 0.012093 0.006182 -108109.000000 0 0 1
12.786233 -22.893755 1.425180 26.261053 -1.061448 1.516500 0.016554 0.011674 460037.000000 0 0 1
11.786433 -24.090155 1.320080 26.851409 -1.115775 1.521614 0.015090 0.008085 499539.000000 0 0 1
12.396333 -25.396245 1.450880 28.297410 -1.116700 1.519501 0.015770 0.004357 309183.000000 0 0 1
11.472733 -26.396345 1.099380 28.802765 -1.160794 1.532618 0.028071 -0.003001 65093.100000 0 0 1
11.828833 -27.702225 1.782480 30.174688 -1.167233 1.511690 0.026561 -0.000184 8443.470000 0 0 1
11.446933 -27.755815 3.119080 30.185198 -1.179633 1.467280 0.039452 -0.007771 50074.200000 0 0 1
11.986233 -28.835165 3.861480 31.465021 -1.176845 1.447763 0.037343 -0.013829 -65663.500000 0 0 1
11.571833 -28.840155 5.330380 31.528952 -1.189221 1.400917 0.032565 -0.010458 -395560.000000 0 0 1
12.275633 -29.832265 6.024580 32.816928 -1.180425 1.386168 0.026983 -0.007573 -291138.000000 0 0 1
11.805433 -30.214315 7.308580 33.251894 -1.198313 1.349193 0.017328 -0.010080 -535784.000000 0 0 1
12.632433 -31.337335 7.946280 34.709513 -1.187611 1.339811 0.013197 -0.000505 -243691.000000 0 0 1
12.322833 -31.623915 9.344080 35.202785 -1.199228 1.302140 0.011252 -0.002158 -299338.000000 0 0 1
11.307133 -32.599205 9.436880 35.771695 -1.236928 1.303828 0.004050 -0.001910 31769.300000 0 0 1
11.089533 -33.127595 10.862880 36.584388 -1.247769 1.269324 0.002542 -0.001125 -534692.000000 0 0 1
12.114233 -33.962385 11.293280 37.785400 -1.228169 1.267278 0.001002 -0.002639 -540983.000000 0 0 1
12.187233 -34.266630 12.723680 38.530801 -1.229089 1.234259 0.009336 0.005498 77424.400000 0 0 1
11.051333 34.007497 13.225580 38.125553 1.256594 1.216537 0.009638 0.008045 110915.000000 0 0 1
11.138533 32.647619 12.698280 36.758404 1.242005 1.218075 0.010045 0.006821 -5527.270000 0 0 1
9.961933 31.894419 12.900780 35.817931 1.268056 1.202339 0.012373 0.013746 -238880.000000 0 0 1
10.012933 30.725209 11.918280 34.443326 1.255763 1.217464 0.007267 0.011551 -390914.000000 0 0 1
9.712733 31.002229 10.546280 34.156982 1.267191 1.256908 0.013275 0.005116 -158101.000000 0 0 1
10.658633 31.722929 9.806080 34.872767 1.246655 1.285756 -0.004976 0.003284 -447834.000000 0 0 1
10.160333 32.055999 8.374780 34.654817 1.263857 1.326717 -0.006449 0.003833 139466.000000 0 0 1
8.999533 32.864789 8.408480 35.096844 1.303513 1.328864 0.005470 0.002610 -227828.000000 0 0 1
8.497533 33.044239 7.136180 34.857637 1.319094 1.364615 0.002668 -0.005166 -359153.000000 0 0 1
9.001333 34.380532 6.503980 36.129582 1.314729 1.389791 0.007247 0.000007 231069.000000 0 0 1
8.491333 -33.614185 7.129880 35.395640 -1.323361 1.367975 0.011483 -0.002119 257944.000000 0 0 1
8.951433 -32.565745 6.332680 34.362170 -1.302549 1.385445 0.021630 -0.011811 -225695.000000 0 0 1
8.210433 -31.280195 6.685280 33.023549 -1.314106 1.366948 0.016070 -0.005458 -145199.000000 0 0 1
8.516533 -30.747575 7.968180 32.885203 -1.300588 1.326058 0.018105 -0.006141 43216.200000 0 0 1
7.933633 -29.455695 8.211980 31.591409 -1.307699 1.307833 0.032319 -0.000227 30337.000000 0 0 1
8.719033 -28.229515 7.672780 30.525377 -1.271229 1.316714 0.036648 -0.006488 -326410.000000 0 0 1
9.440333 -27.534765 8.653780 30.367270 -1.240504 1.281821 0.038599 -0.002645 -42119.800000 0 0 1
10.166933 -26.375105 8.194380 29.430606 -1.202874 1.288637 0.024386 -0.009313 184661.000000 0 0 1
9.465833 -25.232545 7.398480 27.946750 -1.211900 1.302867 0.033671 -0.010572 -161289.000000 0 0 1
9.289133 -25.652795 6.061280 27.948041 -1.223374 1.352182 0.046307 -0.010772 -275898.000000 0 0 1
8.728233 -24.622055 5.236780 26.643039 -1.230129 1.372955 0.039296 -0.013989 131302.000000 0 0 1
8.242033 -25.107335 3.855180 26.705277 -1.253608 1.425930 0.033779 -0.006299 198961.000000 0 0 1
7.308833 -26.175195 3.822780 27.444007 -1.298504 1.431048 0.021022 -0.005150 -122434.000000 0 0 1
7.764133 -27.458565 4.182180 28.839993 -1.295232 1.425270 0.018634 0.002216 413486.000000 0 0 1
6.699333 -28.477335 3.596080 29.474929 -1.339746 1.448487 0.019727 -0.001921 1498670.000000 0 0 1
5.551833 -28.612595 4.477680 29.488185 -1.379143 1.418360 0.010603 0.001589 726567.000000 0 0 1
4.452033 -29.355795 3.977280 29.956670 -1.420286 1.437635 0.011715 0.003069 231832.000000 0 0 1
4.559333 -30.939435 4.072780 31.537655 -1.424486 1.441294 0.013432 -0.000944 -867254.000000 0 0 1
5.574333 -31.550755 3.368380 32.215979 -1.395923 1.466049 0.006263 -0.007299 -598113.000000 0 0 1
5.664433 -32.923635 3.793680 33.622069 -1.400417 1.457722 0.000359 -0.004146 283181.000000 0 0 1
6.814633 -33.719155 3.109080 34.541092 -1.371383 1.480663 -0.002814 -0.008258 109498.000000 0 0 1
6.556733 -33.961915 1.725280 34.632052 -1.380081 1.520958 -0.000983 -0.005831 -486826.000000 0 0 1
7.493233 34.352021 1.223180 35.181047 1.356030 1.536021 -0.009374 -0.004545 -1072350.000000 0 0 1
7.243633 33.687790 -0.152420 34.458100 1.358999 1.575220 0.000421 -0.002199 222709.000000 0 0 1
6.048933 32.932649 -0.271620 33.484664 1.389145 1.578908 -0.012255 -0.000945 -492919.000000 0 0 1
4.863333 33.627799 -0.446720 33.980589 1.427170 1.583943 -0.010119 -0.003035 -21033.900000 0 0 1
3.566533 32.812409 -0.089520 33.005793 1.462527 1.573509 -0.007481 -0.005184 498539.000000 0 0 1
3.524833 31.712739 -0.962820 31.922551 1.460102 1.600962 -0.013506 0.000283 -316606.000000 0 0 1
2.449133 30.836329 -0.784620 30.943385 1.491539 1.596156 -0.007187 -0.008605 -217841.000000 0 0 1
2.483633 29.714709 -1.834520 29.874702 1.487408 1.632242 -0.009095 -0.007695 -229356.000000 0 0 1
2.115733 30.159069 -3.096820 30.391381 1.500759 1.672871 -0.007573 -0.011530 -80252.000000 0 0 1
2.183833 29.133469 -4.070620 29.497425 1.495977 1.709237 -0.012246 -0.010746 -311595.000000 0 0 1
1.576133 29.582409 -5.423020 30.116644 1.517567 1.751851 -0.003944 -0.010002 2627.720000 0 0 1
0.178433 29.852089 -5.412220 30.339268 1.564819 1.750146 -0.006513 -0.011586 287453.000000 0 0 1
-0.129967 30.722699 -6.484220 31.399780 -1.566566 1.778798 -0.009800 -0.002721 -155157.000000 0 0 1
0.112133 30.324049 -7.980520 31.356805 1.567099 1.828134 -0.001833 -0.003437 -613157.000000 0 0 1
-0.840367 29.349399 -8.370820 30.531362 -1.542171 1.848524 0.012767 -0.003028 258898.000000 0 0 1
-0.734767 28.889179 -9.744420 30.497184 -1.545368 1.896018 0.019502 -0.006887 -218448.000000 0 0 1
-1.180267 30.013369 -10.770220 31.909136 -1.531492 1.915086 0.007056 -0.008855 478059.000000 0 0 1
-0.115067 30.918299 -11.156120 32.869643 -1.567075 1.917081 0.003087 -0.006660 306520.000000 0 0 1
-0.569867 32.197809 -11.569620 34.218120 -1.553099 1.915708 0.000192 -0.010664 72983.900000 0 0 1
-0.939667 33.144709 -10.352320 34.736511 -1.542453 1.873418 -0.011696 -0.003198 597716.000000 0 0 1
0.185333 33.417962 -9.506120 34.744220 1.565250 1.847933 -0.009437 -0.018982 319681.000000 0 0 1
-0.221467 34.357789 -8.533420 35.402344 -1.564351 1.814235 -0.010378 -0.005836 -557111.000000 0 0 1
0.877433 -34.333150 -7.619520 35.179428 -1.545245 1.789117 0.001021 -0.012071 -527308.000000 0 0 1
1.816233 -33.466515 -8.209720 34.506606 -1.516579 1.811017 0.009550 -0.008632 -101598.000000 0 0 1
2.686833 -32.986155 -7.185520 33.866461 -1.489522 1.784594 0.015186 -0.012268 -865311.000000 0 0 1
3.950033 -32.341125 -7.740420 33.488285 -1.449262 1.804044 0.006693 -0.008662 -354096.000000 0 0 1
4.813633 -33.131125 -8.522320 34.546670 -1.426516 1.820060 0.016015 -0.004902 258423.000000 0 0 1
5.668333 -33.956765 -7.733420 35.284524 -1.405393 1.791763 0.028808 0.002745 -1159320.000000 0 0 1
5.947833 33.874584 -8.420320 35.408557 1.396984 1.810901 0.024804 0.001195 -461174.000000 0 0 1
4.905933 32.953719 -8.480320 34.379232 1.423008 1.820039 0.009819 0.002231 -375201.000000 0 0 1
3.915233 33.279893 -9.453820 34.817453 1.453689 1.845774 0.012845 -0.003457 -5059.600000 0 0 1
3.027533 32.086289 -9.875120 33.707772 1.476719 1.868120 0.014700 -0.015660 -246060.000000 0 0 1
3.612033 31.039389 -10.663920 33.018322 1.454948 1.899662 0.014370 -0.009666 -32862.500000 0 0 1
2.862133 29.871109 -10.451220 31.775823 1.475272 1.905940 0.012641 -0.015213 -446975.000000 0 0 1
3.580733 28.696529 -11.076820 30.967860 1.446659 1.936587 0.004675 -0.017329 -108890.000000 0 0 1
3.567133 28.776299 -12.493520 31.573531 1.447465 1.977622 0.016265 -0.015323 62779.700000 0 0 1
4.818133 28.380019 -13.016320 31.592158 1.402628 1.995456 0.013765 -0.015238 -37946.100000 0 0 1
5.094033 29.137569 -14.327320 32.866688 1.397719 2.021859 0.026028 -0.016261 -539259.000000 0 0 1
4.311733 28.695129 -15.399220 32.850227 1.421652 2.058695 0.034335 -0.010873 -34336.100000 0 0 1
4.457433 29.451299 -16.585820 34.093066 1.420587 2.078860 0.044936 -0.004054 53317.600000 0 0 1
3.450733 28.962509 -17.633620 34.083413 1.452211 2.114567 0.034622 -0.003170 317332.000000 0 0 1
3.840133 27.649339 -18.086620 33.261966 1.432792 2.145711 0.035348 0.000566 -67668.500000 0 0 1
2.850133 27.180639 -18.954320 33.259234 1.466319 2.177176 0.048319 -0.011884 20645.800000 0 0 1
3.082733 25.805889 -19.702020 32.613137 1.451901 2.219449 0.053023 -0.006841 69695.200000 0 0 1
3.276133 24.663379 -18.909720 31.250485 1.438736 2.220690 0.052459 -0.016657 116309.000000 0 0 1
3.987233 23.675239 -19.630520 31.012453 1.403948 2.256204 0.046440 -0.005608 218307.000000 0 0 1
4.576733 22.427839 -18.927320 29.701816 1.369495 2.261714 0.040003 -0.005271 663689.000000 0 0 1
3.577833 21.407439 -18.624620 28.599926 1.405197 2.279977 0.058574 -0.007453 717039.000000 0 0 1
4.237733 20.217439 -18.243520 27.559558 1.364180 2.294236 0.053139 -0.004950 326616.000000 0 0 1
3.236233 19.063839 -17.948620 26.382875 1.402642 2.318986 0.045577 -0.017684 110046.000000 0 0 1
2.440233 19.289239 -16.826720 25.713187 1.444957 2.284186 0.038829 -0.016764 -332960.000000 0 0 1
1.517933 18.248639 -16.537720 24.674138 1.487807 2.305335 0.030404 -0.010400 34509.800000 0 1 0
1.993733 17.126639 -15.584020 23.241308 1.454907 2.305721 0.030063 -0.008959 525792.000000 0 1 0
3.064933 16.231939 -15.957020 22.967284 1.384172 2.338899 0.035811 -0.026532 181505.000000 0 1 0
2.756233 15.253939 -16.913420 22.942171 1.392035 2.399742 0.039905 -0.024177 -120016.000000 0 1 0
2.612233 15.597239 -18.377520 24.245223 1.404856 2.431015 0.029007 -0.020111 233644.000000 0 1 0
3.893933 15.868639 -18.933320 25.008938 1.330165 2.429601 0.035960 -0.021679 54349.500000 0 0 1
3.828033 16.366839 -20.279320 26.339667 1.341037 2.449505 0.021257 -0.013787 -350273.000000 0 0 1
4.391033 15.476739 -21.449320 26.812011 1.294343 2.498074 0.009828 -0.011423 62616.000000 0 0 1
3.653233 14.338939 -21.849720 26.388663 1.321327 2.546321 0.012899 -0.007981 -600155.000000 0 0 1
2.393033 14.668839 -22.345620 26.837067 1.409084 2.554654 0.029632 -0.016510 -56209.300000 0 0 1
1.502933 13.466939 -22.881720 26.593051 1.459655 2.606929 0.042699 -0.009131 797446.000000 0 0 1
0.829533 12.699539 -21.861520 25.296096 1.505569 2.614404 0.038589 0.000147 463163.000000 0 0 1
-0.042167 11.734339 -22.406120 25.292898 -1.567203 2.659154 0.036148 0.004320 120600.000000 0 0 1
-0.727967 10.767839 -21.382720 23.951973 -1.503293 2.674171 0.027402 -0.000284 -29405.100000 0 1 0
-1.733067 11.329839 -20.519820 23.503867 -1.419008 2.632199 0.028598 -0.000235 369141.000000 0 1 0
-2.187667 10.479139 -19.486120 22.233018 -1.364988 2.639235 0.021552 0.000522 -3282.500000 0 1 0
-3.250567 9.476239 -19.954020 22.327745 -1.240351 2.676293 0.020467 -0.002460 -816498.000000 0 1 0
-2.719867 8.311839 -20.611220 22.389880 -1.254551 2.740307 0.016930 -0.007376 -1196600.000000 0 1 0
-3.664467 7.565239 -21.192620 22.798866 -1.119721 2.763979 0.014480 0.002954 -1217690.000000 0 1 0
-3.106867 6.343839 -21.910120 23.020648 -1.115386 2.829716 0.007850 -0.004167 -11419.700000 0 1 0
-2.486967 5.408539 -21.049320 21.874898 -1.139804 2.865982 0.015191 -0.008938 189474.000000 0 1 0
-1.890867 4.430739 -21.897720 22.421350 -1.167435 2.925049 0.013052 -0.005616 -222433.000000 0 1 0
-1.289867 3.189039 -21.186920 21.464373 -1.186443 2.980632 0.011254 -0.006160 115308.000000 0 1 0
-0.024067 3.497939 -20.642220 20.936508 -1.563916 2.973728 0.008421 -0.017643 -104418.000000 0 1 0
0.574033 2.453539 -19.867720 20.026873 1.340969 3.015438 0.011518 -0.017306 -1032530.000000 0 1 0
2.061633 2.389739 -19.986820 20.234479 0.858974 2.984975 0.009980 -0.016135 -1193630.000000 0 1 0
2.586333 2.010039 -21.265420 21.516214 0.660669 2.988761 0.018064 -0.013483 -573121.000000 0 1 0
3.982533 2.053139 -21.232720 21.700330 0.475999 2.933620 0.026763 -0.010711 -297383.000000 0 1 0
4.624633 1.203039 -22.384520 22.888889 0.254496 2.931274 0.030567 -0.008820 439169.000000 0 1 0
6.040133 1.284639 -22.490320 23.322692 0.209561 2.873624 0.028062 -0.001132 441540.000000 0 1 0
6.546033 0.702339 -23.683820 24.581846 0.106883 2.870459 0.033111 -0.002290 -424387.000000 0 1 0
8.061333 0.800239 -23.875520 25.212416 0.098945 2.814482 0.022109 -0.002609 -251550.000000 0 0 1
8.523733 2.128239 -24.078920 25.631578 0.244681 2.791742 0.027454 -0.002020 -1258470.000000 0 0 1
9.843633 2.070439 -24.426020 26.416174 0.207311 2.750942 0.013129 0.000785 -1514990.000000 0 0 1
13.321233 -21.630155 22.224729 33.752888 -1.018794 0.852033 0.000438 0.023821 -181048.000000 0 0 1
12.293333 -22.614455 22.364229 34.098363 -1.072876 0.855456 0.001730 0.029210 487951.000000 0 0 1
10.947433 -22.228355 22.158929 33.241002 -1.113168 0.841139 0.004215 0.017519 491910.000000 0 0 1
10.643333 -21.870455 20.678329 31.924765 -1.117883 0.866207 0.020338 0.004375 -945205.000000 0 0 1
11.043233 -20.624755 20.219329 30.921753 -1.079204 0.858086 0.021618 0.002078 -154656.000000 0 0 1
10.749733 -20.457355 18.845429 29.819630 -1.086981 0.886690 0.041917 -0.009370 137739.000000 0 0 1
11.247833 -19.074255 18.350229 28.758857 -1.037995 0.878804 0.051685 -0.005305 917.986000 0 0 1
10.471333 -17.996855 18.813229 28.061953 -1.043835 0.836025 0.052277 -0.007115 -179726.000000 0 0 1
10.681233 -16.837755 18.078729 26.915408 -1.005493 0.834313 0.058679 -0.005570 67981.900000 0 0 1
9.781033 -15.720655 18.651229 26.280714 -1.014229 0.781735 0.057602 0.011750 1501660.000000 0 0 1
8.367833 -15.910355 18.443229 25.754858 -1.086616 0.772588 0.047299 0.007026 1071750.000000 0 0 1
7.484833 -14.938155 19.002929 25.303804 -1.106305 0.721235 0.020697 0.008036 879955.000000 0 0 1
5.997133 -15.076555 18.582529 24.669384 -1.192206 0.717787 0.006166 0.011378 51833.900000 0 1 0
5.709333 -14.946355 17.206929 23.496136 -1.205913 0.749059 0.009008 0.011208 985239.000000 0 1 0
4.306833 -15.048255 16.853029 23.000508 -1.292046 0.748480 -0.014688 0.009102 1004960.000000 0 1 0
3.640833 -16.434755 16.977229 23.907805 -1.352785 0.781138 -0.021190 0.010846 -1737170.000000 0 1 0
2.315833 -16.417855 16.634829 23.486732 -1.430665 0.783759 -0.030089 0.016297 -1449240.000000 0 1 0
1.752133 -17.695355 16.806929 24.467702 -1.472101 0.813578 -0.025145 0.005369 -669666.000000 0 1 0
0.327033 -17.741355 16.316229 24.105642 -1.552365 0.827303 -0.021391 0.011919 -1204250.000000 0 1 0
0.132433 -17.394955 14.972829 22.951854 -1.563183 0.860105 -0.018422 0.000966 204208.000000 0 1 0
-1.193767 -17.767055 14.604729 23.030229 1.503707 0.883881 -0.015313 0.008655 -165984.000000 0 1 0
-1.434267 -17.602955 13.072229 21.972809 1.489497 0.933621 -0.016866 -0.018190 -14567.500000 0 1 0
-2.750167 -17.968655 12.698229 22.173881 1.418921 0.961042 -0.013970 -0.021423 -13166.900000 0 1 0
-2.908767 -19.387855 12.630029 23.320967 1.421877 0.998488 -0.010766 -0.014267 313424.000000 0 1 0
-4.341967 -19.983955 12.407229 23.919667 1.356849 1.025462 -0.003998 -0.010586 745270.000000 0 1 0
-4.953567 -20.448455 13.591629 25.048144 1.333128 0.997243 -0.002751 -0.010395 -63060.200000 0 0 1
-6.056467 -21.302555 13.334429 25.851241 1.293798 1.028839 -0.001953 -0.009364 55903.700000 0 0 1
-6.606367 -22.011155 14.579529 27.215762 1.279214 1.005458 0.006537 -0.002302 -149697.000000 0 0 1
-7.923267 -21.624955 14.883329 27.421348 1.219591 0.997071 0.014082 -0.006358 -150691.000000 0 0 1
-8.586667 -22.520255 15.784729 28.810595 1.206526 0.990969 0.021793 -0.009680 21303.900000 0 0 1
-10.073967 -22.209855 15.965529 29.148938 1.144968 0.991157 0.026880 -0.007230 -250485.000000 0 0 1
-10.241567 -20.933055 16.562329 28.590090 1.115783 0.952923 0.021427 -0.013555 -404557.000000 0 0 1
-11.538367 -20.403055 16.393429 28.603550 1.056115 0.960481 0.016847 -0.013162 -137843.000000 0 0 1
-11.780867 -19.330055 17.476629 28.598469 1.023451 0.913342 0.019362 -0.009014 -641028.000000 0 0 1
-12.042867 -19.834655 18.804829 29.867470 1.025127 0.889746 0.019521 -0.006712 14136.100000 0 0 1
-12.283567 -18.793855 19.710029 29.876082 0.991898 0.850342 0.011799 -0.006287 -25741.800000 0 0 1
-12.758867 -19.386955 21.096629 31.364159 0.988737 0.833032 0.007166 -0.011387 414887.000000 0 0 1
-14.003767 -20.060655 20.923729 32.192201 0.961366 0.863261 0.007181 -0.003698 171363.000000 0 0 1
-14.426667 -20.693655 22.065829 33.515025 0.961983 0.852124 0.019085 0.006592 188302.000000 0 0 1
-15.804167 -21.400655 21.914729 34.467595 0.934702 0.881743 0.014562 0.011651 -918589.000000 0 0 1
-15.762067 -22.454655 20.968229 34.530000 0.958762 0.918206 0.027901 0.007765 -45684.800000 0 0 1
-16.997567 -22.726555 20.361329 34.928460 0.928630 0.948449 0.006430 0.012004 369508.000000 0 0 1
-18.097567 -23.339455 21.319129 36.424681 0.911232 0.945554 0.003376 0.011705 -347396.000000 0 0 1
-18.511267 -22.493855 22.377729 36.734225 0.882219 0.915771 0.014739 0.018279 55166.000000 0 0 1
-19.502367 -23.112855 23.204829 38.118374 0.869919 0.916303 0.001036 0.020322 163671.000000 0 0 1
-20.036267 -22.153255 24.278409 38.492335 0.835534 0.888298 0.005187 0.022338 -283808.000000 0 0 1
-20.843667 -21.076155 23.846629 38.043718 0.790944 0.893329 -0.002321 0.026900 172038.000000 0 0 1
-20.822067 -19.907155 24.675779 37.930823 0.762939 0.862492 0.009806 0.016937 279716.000000 0 0 1
-21.767267 -18.780455 24.153859 37.549012 0.711869 0.872045 0.020251 0.015124 126431.000000 0 0 1
-21.248167 -18.127555 22.987929 36.173716 0.706311 0.882157 0.020764 0.016692 -84224.100000 0 0 1
-22.203667 -17.338255 22.319729 35.941455 0.662969 0.900775 0.034858 0.005478 -279842.000000 0 0 1
-21.656667 -16.665955 21.025629 34.479593 0.655898 0.914989 0.036396 0.012876 194289.000000 0 0 1
-20.541667 -15.797155 21.107229 33.421928 0.655569 0.887261 0.034966 0.008570 -221658.000000 0 0 1
-20.408367 -15.257355 19.832729 32.289711 0.641965 0.909409 0.028367 0.002103 352634.000000 0 0 1
-19.167567 -14.352555 19.551129 30.913397 0.642729 0.886086 0.021779 -0.007486 210004.000000 0 0 1
-19.001167 -14.215255 18.139329 29.868932 0.642300 0.918142 0.021784 -0.007153 -4916.820000 0 0 1
-18.067467 -13.232255 17.756029 28.579757 0.632129 0.900421 0.024790 -0.018101 -504231.000000 0 0 1
-17.826767 -13.245355 16.229929 27.507156 0.639008 0.939706 0.004298 -0.015621 32492.500000 0 0 1
-17.271567 -12.111155 15.591929 26.231572 0.611544 0.934283 0.006559 -0.015069 -191946.000000 0 0 1
-16.026867 -11.623355 15.993529 25.451047 0.627467 0.891297 -0.032332 -0.012867 -645707.000000 0 0 1
-15.693867 -10.292255 15.314129 24.222934 0.580451 0.886386 -0.016089 -0.012983 8422.520000 0 1 0
-16.523667 -9.198955 15.694529 24.575813 0.507983 0.878097 -0.006746 -0.008399 178548.000000 0 1 0
-16.310667 -7.994255 14.918329 23.505372 0.455716 0.883205 -0.002936 -0.006064 -479416.000000 0 1 0
-16.609867 -6.655655 15.665729 23.782357 0.381114 0.851690 0.008412 0.002845 816271.000000 0 1 0
-15.804867 -6.388755 16.873429 23.985884 0.384145 0.790524 0.003539 0.007035 1881830.000000 0 1 0
-14.394267 -6.150055 16.630629 22.838475 0.403781 0.755127 -0.002958 -0.000708 1058660.000000 0 1 0
-13.477367 -6.337955 17.866029 23.259495 0.439579 0.694900 -0.008254 0.004061 110916.000000 0 1 0
-13.648267 -7.600355 18.538129 24.242583 0.508105 0.700232 -0.009048 -0.004315 14637.900000 0 1 0
-13.219867 -8.724555 17.803929 23.829868 0.583344 0.727068 -0.007783 0.002325 -674644.000000 0 1 0
-13.142467 -10.001355 18.636829 24.901465 0.650501 0.725115 -0.021380 -0.001330 -1538140.000000 0 1 0
-14.333867 -10.544755 19.040229 26.061119 0.634256 0.751597 -0.015079 -0.002679 -999365.000000 0 0 1
-14.896767 -9.944155 20.212329 27.006261 0.588605 0.725103 -0.013807 -0.004566 -1043630.000000 0 0 1
-16.289467 -10.491555 20.598129 28.279009 0.572195 0.754828 -0.010434 -0.006958 670353.000000 0 0 1
-17.367967 -10.491655 19.656229 28.250459 0.543415 0.801285 0.010643 -0.018898 677951.000000 0 0 1
-17.638367 -9.186555 19.135429 27.598359 0.480171 0.804663 0.012427 -0.015243 -1006300.000000 0 0 1
-18.759067 -9.110055 18.069729 27.593673 0.452090 0.856812 0.032835 -0.014827 28635.800000 0 0 1
-20.069767 -9.314355 18.525129 28.857116 0.434516 0.873744 0.032413 -0.011719 -679125.000000 0 0 1
-20.957467 -9.235055 17.458629 28.797663 0.415057 0.919458 0.055925 -0.015443 -98859.700000 0 0 1
-22.423867 -9.390655 17.934029 30.209992 0.396590 0.935215 0.052411 -0.007062 -84580.900000 0 0 1
-22.942367 -8.477255 18.826329 30.864976 0.353942 0.914789 0.046379 -0.002325 520123.000000 0 0 1
-24.323167 -8.656155 19.115229 32.123783 0.341904 0.933470 0.040399 0.000104 192253.000000 0 0 1
-24.983067 -7.582155 19.985529 32.879539 0.294657 0.917458 0.033128 -0.002698 -297405.000000 0 0 1
-24.668167 -7.619555 21.349129 33.501662 0.299585 0.879864 0.042778 -0.009502 108930.000000 0 0 1
-25.252387 -6.600855 22.108429 34.205803 0.255675 0.868024 0.026409 -0.010933 -913272.000000 0 0 1
-25.198397 -6.754655 23.667829 35.224291 0.261902 0.834001 0.030270 -0.007638 2771.350000 0 0 1
-23.962567 -6.454555 24.282919 34.720686 0.263115 0.796268 0.013547 -0.003537 -235381.000000 0 0 1
-22.982867 -7.455955 24.151979 34.163160 0.313701 0.785606 0.028553 -0.000823 -315851.000000 0 0 1
-21.974767 -7.241055 25.370859 34.336624 0.318312 0.739380 0.033382 0.005019 482658.000000 0 0 1
-21.226867 -6.051455 25.078649 33.408661 0.277717 0.721731 0.027694 0.002387 91056.000000 0 0 1
-20.579667 -5.571755 26.220069 33.794366 0.264402 0.682702 0.040607 -0.004031 -42903.800000 0 0 1
-20.154667 -4.080955 26.100739 33.228201 0.199781 0.667293 0.031539 -0.005753 100013.000000 0 0 1
-19.175067 -3.619455 27.027349 33.335585 0.186563 0.625337 0.027107 -0.000561 17455.200000 0 0 1
-19.495167 -3.525255 28.397089 34.624899 0.178894 0.609150 0.032292 -0.005112 -237968.000000 0 0 1
-20.396367 -2.342055 28.794499 35.364109 0.114326 0.619396 0.034812 -0.015636 969671.000000 0 0 1
-21.765667 -2.478855 28.392069 35.860822 0.113400 0.657161 0.041148 -0.015742 718841.000000 0 0 1
-22.630067 -1.536655 29.054749 36.860001 0.067799 0.662843 0.035629 -0.007611 501298.000000 0 0 1
-23.909467 -1.222655 28.268289 37.043942 0.051092 0.702698 0.026203 -0.010635 -843184.000000 0 0 1
-23.725267 -0.411455 27.138089 36.049042 0.017341 0.718475 0.016946 -0.008763 22293.100000 0 0 1
-24.862567 0.003545 26.385499 36.253852 -0.000143 0.755690 0.005373 -0.001443 -37589.400000 0 0 1
-25.690677 -1.130855 25.703349 36.358656 0.043990 0.785636 0.001936 -0.003852 444437.000000 0 0 1
-26.691507 -1.745555 26.564519 37.698238 0.065304 0.788850 0.009084 -0.004682 831917.000000 0 0 1
-27.108637 -3.092555 26.217799 37.839332 0.113589 0.805332 0.004801 -0.006295 371116.000000 0 0 1
-26.006427 -4.210555 26.327309 37.245003 0.160512 0.785735 0.011109 -0.013618 609471.000000 0 0 1
-25.563237 -4.421055 27.692639 37.946107 0.171252 0.752784 0.018479 -0.013012 395412.000000 0 0 1
-24.549367 -5.441655 27.718739 37.424745 0.218135 0.736755 0.028424 -0.012312 658703.000000 0 0 1
-24.114667 -5.868255 29.163549 38.294467 0.238708 0.705079 0.020707 -0.003040 357722.000000 0 0 1
-25.254697 -6.412455 29.798069 39.583383 0.248657 0.718502 0.023567 -0.004132 408749.000000 0 0 1
-24.874667 -7.061655 31.014649 40.379753 0.276612 0.694968 0.021089 -0.002431 -463265.000000 0 0 1
-26.048527 -7.639955 31.802209 41.812381 0.285296 0.706570 -0.006982 0.001341 -178016.000000 0 0 1
-26.703937 -8.664655 31.045979 41.857249 0.313753 0.735179 -0.003463 -0.002209 1588880.000000 0 0 1
-27.958107 -9.121655 31.664789 43.214803 0.315372 0.748471 -0.008245 0.004409 1259870.000000 0 0 1
-28.791617 -10.053555 30.788649 43.335575 0.335947 0.780630 -0.014608 -0.002168 -327861.000000 0 0 1
-28.469097 -11.405355 30.670199 43.373180 0.381043 0.785374 -0.007313 -0.006626 1022560.000000 0 0 1
-29.589877 -12.124955 30.091429 43.909788 0.388898 0.815779 -0.014445 0.002203 973117.000000 0 0 1
-28.996847 -13.394455 29.421959 43.426723 0.432729 0.826427 0.006534 -0.010557 -14683.100000 0 0 1
-28.402217 -13.161255 28.190909 42.126380 0.433932 0.837667 0.013691 -0.005116 -231045.000000 0 0 1
-27.367547 -14.095755 27.951849 41.580991 0.475618 0.833584 0.023664 -0.006830 599881.000000 0 0 1
-26.056277 -13.439855 27.364799 40.104757 0.476208 0.819847 0.033726 -0.005379 1022650.000000 0 0 1
-25.221377 -12.614455 28.234519 39.905268 0.463767 0.784787 0.029743 -0.008725 566170.000000 0 0 1
-25.773567 -11.379755 28.676689 40.201095 0.415786 0.776557 0.026324 -0.014020 -823160.000000 0 0 1
-26.011657 -10.197955 27.674239 39.325158 0.373637 0.790164 0.031175 -0.011790 2005900.000000 0 0 1
-24.750867 -9.608455 27.105659 37.942648 0.370299 0.775051 0.028132 -0.008113 2100110.000000 0 0 1
-24.061767 -10.418255 26.193749 37.062395 0.408610 0.785906 0.025161 -0.013571 -330213.000000 0 0 1
-24.700367 -10.445055 24.763509 36.502585 0.400066 0.825208 0.036604 -0.007006 621831.000000 0 0 1
-25.900297 -11.258455 24.773229 37.567154 0.410045 0.850725 0.030618 -0.006944 364541.000000 0 0 1
-26.457797 -11.381155 23.468829 37.152815 0.406235 0.887073 0.047574 -0.000784 -385705.000000 0 0 1
-27.758527 -12.190255 23.659529 38.456618 0.413797 0.908123 0.043653 -0.012801 246931.000000 0 0 1
-28.906077 -11.517755 24.164089 39.396994 0.379173 0.910503 0.033985 -0.006516 175529.000000 0 0 1
-28.866557 -11.380255 25.543729 40.190427 0.375528 0.882053 0.039542 -0.009194 -200157.000000 0 0 1
-30.210737 -10.835355 26.149609 41.399222 0.344368 0.887123 -0.007751 -0.000965 -168528.000000 0 0 1
-30.519177 -9.539155 25.759989 41.060841 0.302942 0.892636 -0.002298 -0.006010 316275.000000 0 0 1
-31.795637 -9.084955 26.225829 42.205367 0.278314 0.900286 -0.009571 0.002963 303510.000000 0 0 1
-32.131317 -9.150255 27.739819 43.424029 0.277433 0.877842 -0.018391 0.008787 -732933.000000 0 0 1
-32.431407 -10.468255 28.236259 44.256828 0.312224 0.878886 -0.017574 -0.003493 136215.000000 0 0 1
-33.145247 -10.488455 29.449479 45.561902 0.306470 0.867989 -0.009138 -0.000219 -586980.000000 0 0 1
-33.644457 -11.853455 30.016689 46.620334 0.338736 0.871272 0.003756 -0.003634 1003430.000000 0 0 1
-34.798848 -12.499955 29.414179 47.248308 0.344852 0.898806 -0.008255 0.006352 1603410.000000 0 0 1
34.241534 -11.882155 29.716959 46.869670 -0.334009 0.884038 0.004070 0.007655 -7937.080000 0 0 1
32.996612 -12.414755 29.016199 45.660074 -0.359860 0.882162 0.005158 0.004015 -186685.000000 0 0 1
32.983672 -11.884755 27.700689 44.682191 -0.345841 0.902118 -0.000175 0.011094 -79963.800000 0 0 1
31.909462 -12.410355 26.956509 43.576187 -0.370922 0.903829 -0.000878 0.019676 -174679.000000 0 0 1
31.929862 -11.772355 25.514729 42.533585 -0.353231 0.927455 -0.004646 0.015633 -199257.000000 0 0 1
31.471482 -10.448255 25.412429 41.778125 -0.320542 0.916916 0.004235 0.006169 -25750.100000 0 0 1
31.565762 -10.018655 24.080329 40.946710 -0.307334 0.942102 0.004629 0.013769 -223617.000000 0 0 1
31.164872 -8.526155 23.925629 40.204232 -0.267048 0.933403 0.012297 0.015711 426271.000000 0 0 1
29.766752 -8.291355 24.041429 39.150944 -0.271658 0.909589 0.019467 0.017010 45595.100000 0 0 1
29.399542 -7.047755 23.541029 38.316889 -0.235283 0.909200 0.025115 0.016341 -382351.000000 0 0 1
27.880752 -6.895455 23.420229 37.059287 -0.242454 0.886708 0.024426 0.022537 -414056.000000 0 0 1
27.385412 -7.676655 22.370829 36.184884 -0.273305 0.904299 0.020879 0.026425 -9851.200000 0 0 1
26.215222 -8.414155 22.677929 35.669656 -0.310578 0.881782 0.017447 0.015707 262666.000000 0 0 1
14.389333 -17.613455 26.138489 34.648338 -0.885804 0.716066 -0.016334 0.035161 1166210.000000 0 0 1
13.416233 -18.711055 25.962849 34.701130 -0.948737 0.725475 -0.038550 0.037948 899879.000000 0 0 1
14.136333 -19.889855 25.957949 35.626638 -0.952905 0.754505 -0.016860 0.033298 -1008980.000000 0 0 1
13.364533 -21.215155 25.829949 35.998331 -1.008644 0.770544 -0.044010 0.022929 -115352.000000 0 0 1
12.759333 -21.727755 26.998849 36.930120 -1.039815 0.750894 -0.033229 0.016510 1268080.000000 0 0 1
11.650033 -20.940655 27.526569 36.495840 -1.063102 0.716303 -0.033413 0.017875 320562.000000 0 0 1
11.126733 -21.300455 28.975569 37.644351 -1.089413 0.692396 -0.034381 0.010415 126383.000000 0 0 1
11.835333 -20.765155 30.077879 38.418037 -1.052757 0.671466 -0.034054 0.014568 56889.400000 0 0 1
11.192333 -19.610055 30.636459 38.058050 -1.052166 0.635133 -0.029241 0.015447 25479.400000 0 0 1
11.337533 -18.192355 29.998939 36.870554 -1.013490 0.620430 -0.032764 0.011490 592575.000000 0 0 1
12.651033 -17.647655 30.246939 37.233932 -0.948839 0.622628 -0.032606 0.022048 656262.000000 0 0 1
12.787733 -16.417155 29.591049 36.175672 -0.909039 0.612902 -0.035692 0.027291 65829.600000 0 0 1
12.886833 -15.209255 30.526049 36.458628 -0.867871 0.578508 -0.037293 0.017883 -142465.000000 0 0 1
12.342133 -13.981655 30.030199 35.350075 -0.847601 0.555743 -0.025162 0.015480 105141.000000 0 0 1
12.593533 -12.823755 30.821179 35.678997 -0.794456 0.527940 -0.021070 0.018669 246404.000000 0 0 1
11.874733 -11.503755 30.231339 34.456923 -0.769531 0.500451 -0.013578 0.016582 365653.000000 0 0 1
12.292433 -11.022655 28.961619 33.337340 -0.730990 0.518135 -0.007834 0.018911 914204.000000 0 0 1
13.675933 -10.643055 28.836129 33.642653 -0.661326 0.541124 0.023032 0.018573 319186.000000 0 0 1
13.966833 -9.784455 27.645299 32.481849 -0.611095 0.552720 0.031088 0.015632 -30975.100000 0 0 1
14.235933 -8.428255 27.838649 32.383447 -0.534547 0.536199 0.036008 0.008726 510422.000000 0 0 1
15.540433 -8.242955 28.394789 33.402326 -0.487686 0.554651 0.038362 0.002610 -102921.000000 0 0 1
15.975533 -6.775355 28.170619 33.086355 -0.401115 0.552096 0.041142 -0.004076 801212.000000 0 0 1
17.366533 -6.513855 28.442039 33.955506 -0.358842 0.577872 0.045981 -0.010884 882626.000000 0 0 1
17.754733 -5.165655 28.046119 33.593144 -0.283129 0.582888 0.041870 -0.010336 1363300.000000 0 0 1
19.324333 -5.077755 27.821579 34.252791 -0.256956 0.622810 0.044337 -0.010695 580611.000000 0 0 1
19.716333 -5.835355 26.684059 33.687151 -0.287751 0.656532 0.041901 -0.004862 1127590.000000 0 0 1
21.076233 -5.695755 26.220399 34.119768 -0.263941 0.694332 0.033335 -0.002517 664164.000000 0 0 1
22.244533 -6.086755 27.101779 35.586153 -0.267091 0.705045 0.042796 -0.017275 -1100800.000000 0 0 1
22.559533 -5.083755 28.041239 36.346777 -0.221646 0.689614 0.050115 -0.022238 -3983.350000 0 0 1
23.540933 -5.483955 28.994529 37.748272 -0.228872 0.694924 0.052904 -0.036604 105740.000000 0 0 1
24.115333 -4.198355 29.684979 38.475622 -0.172367 0.689559 0.062670 -0.038903 -573233.000000 0 0 1
24.912933 -3.431155 28.883939 38.297637 -0.136865 0.716367 0.047571 -0.026513 -482765.000000 0 0 1
25.088033 -2.149255 29.358939 38.677849 -0.085460 0.708923 0.040448 -0.036308 -219327.000000 0 0 1
25.982833 -1.243755 28.433439 38.537190 -0.047832 0.740964 0.036583 -0.027452 -992047.000000 0 0 1
27.317133 -1.435655 28.630179 39.597652 -0.052507 0.762622 0.035309 -0.025131 -1631270.000000 0 0 1
28.106433 -0.816855 27.649209 39.434979 -0.029055 0.793810 0.025468 -0.009726 730274.000000 0 0 1
29.645633 -0.681155 27.856929 40.685821 -0.022973 0.816626 0.012304 -0.010617 580122.000000 0 0 1
29.989433 0.116745 28.966199 41.694369 0.003893 0.802756 -0.000786 0.000460 -612524.000000 0 0 1
31.355133 0.140245 29.237779 42.872039 0.004473 0.820333 0.007675 -0.008789 -394002.000000 0 0 1
31.710733 1.170345 30.338809 43.901978 0.036890 0.807845 0.005690 -0.011970 -102753.000000 0 0 1
31.382433 2.473545 29.912199 43.424822 0.078657 0.810926 -0.004783 0.004198 147416.000000 0 0 1
31.678733 3.459345 30.872459 44.369110 0.108770 0.801250 -0.012300 0.005610 -8593.550000 0 0 1
31.975033 4.889345 30.274179 44.303886 0.151736 0.818482 -0.014750 0.011046 -206519.000000 0 0 1
32.082433 6.016245 31.149549 45.119531 0.185372 0.808784 -0.016093 0.023412 -12999.900000 0 0 1
30.900633 6.619745 31.643569 44.721199 0.211037 0.784737 -0.014055 0.023802 -285753.000000 0 0 1
31.004533 7.344745 33.013539 45.881588 0.232605 0.767660 -0.003644 0.011590 -286391.000000 0 0 1
31.371433 6.507245 34.081738 46.776874 0.204525 0.754517 0.000186 0.013613 116098.000000 0 0 1
31.595133 7.314445 -33.928900 46.935315 0.227498 2.378767 -0.004894 0.006103 -523237.000000 0 0 1
32.473733 6.605945 -32.906760 46.701570 0.200686 2.352681 0.010647 0.008048 -895294.000000 0 0 1
31.905433 5.522445 -32.198580 45.664019 0.171390 2.353388 -0.002634 0.008085 303206.000000 0 0 1
31.540333 4.371245 -32.956130 45.825832 0.137715 2.373390 0.024302 -0.004183 -177722.000000 0 0 1
31.245733 3.165845 -32.002100 44.838073 0.100976 2.365600 0.018862 -0.011141 -203853.000000 0 0 1
31.368133 1.950545 -32.641320 45.312472 0.062102 2.375118 0.019020 -0.018099 65472.300000 0 0 1
31.381333 0.856845 -31.713740 44.623800 0.027298 2.361276 0.014508 -0.022586 -190927.000000 0 0 1
31.763233 -0.496555 -32.314340 45.314083 -0.015632 2.364734 0.022803 -0.042929 -566868.000000 0 0 1
33.015433 -0.539455 -32.954030 46.650594 -0.016338 2.355197 0.022803 -0.032921 -163154.000000 0 0 1
33.715833 -1.753855 -32.922680 47.156508 -0.051972 2.343617 0.028839 -0.025278 253909.000000 0 0 1
34.557633 -1.949655 -31.633470 46.890378 -0.056358 2.311254 0.031664 -0.022048 -632843.000000 0 0 1
33.779933 -2.282255 -30.539010 45.595216 -0.067460 2.304716 0.028425 -0.023331 -463059.000000 0 0 1
34.535633 -2.120955 -29.392360 45.399551 -0.061336 2.274984 0.029787 -0.020511 -390316.000000 0 0 1
33.693533 -1.850555 -28.149350 43.943880 -0.054868 2.266043 0.032275 -0.020502 -330815.000000 0 0 1
33.210633 -0.506855 -28.169660 43.551496 -0.015261 2.274194 0.009208 -0.011666 -44158.200000 0 0 1
32.355133 -0.377255 -27.066790 42.185401 -0.011659 2.267398 0.013211 -0.004191 -581068.000000 0 0 1
31.786133 1.050445 -26.884960 41.644480 0.033035 2.272582 -0.000714 0.004045 389536.000000 0 0 1
30.837133 1.352745 -27.959250 41.647069 0.043839 2.306809 0.005675 -0.008284 928456.000000 0 0 1
30.125933 2.543445 -27.627980 40.955417 0.084227 2.311201 -0.000137 0.002352 6342.720000 0 0 1
29.196433 2.990145 -28.770710 41.098983 0.102059 2.346242 0.021931 -0.001869 -108321.000000 0 0 1
28.205533 3.924845 -28.370210 40.197330 0.138264 2.354311 0.015907 0.009266 264181.000000 0 0 1
27.635833 4.525945 -29.539150 40.703622 0.162330 2.382867 0.013033 0.007780 -317973.000000 0 0 1
26.537633 5.498745 -29.087570 39.756369 0.204314 2.391529 0.013990 0.011002 482022.000000 0 0 1
25.331633 4.846545 -28.660690 38.556657 0.189039 2.408846 0.026109 0.010166 549715.000000 0 0 1
24.378733 5.659445 -28.041890 37.585895 0.228106 2.412944 0.021176 0.007660 -487387.000000 0 0 1
22.995033 5.018445 -27.960840 36.548117 0.214871 2.441903 0.026462 0.016543 -679701.000000 0 0 1
22.300933 5.010445 -29.158520 37.049365 0.221004 2.476757 0.025514 0.013336 -63875.700000 0 0 1
21.056833 4.356845 -29.026800 36.123779 0.204030 2.504010 0.022593 0.009311 133183.000000 0 0 1
20.241233 4.245445 -30.333850 36.713400 0.206745 2.543185 0.020032 0.010527 14343.200000 0 0 1
20.378133 2.988745 -30.944070 37.171714 0.145626 2.554334 0.025746 0.000222 584273.000000 0 0 1
19.700933 2.848945 -32.266080 37.912309 0.143614 2.588819 0.003860 -0.003555 -230690.000000 0 0 1
20.194233 3.636945 -33.458110 39.248943 0.178188 2.591467 -0.004126 -0.003655 -741001.000000 0 0 1
21.337233 3.058745 -34.030620 40.282956 0.142382 2.576968 0.026099 -0.001594 -381408.000000 0 0 1
21.804833 3.696145 33.986295 40.548495 0.167914 0.576888 0.018041 -0.020610 -105860.000000 0 0 1
23.217033 3.325745 33.484692 40.881729 0.142278 0.611021 0.029407 -0.011276 130291.000000 0 0 1
23.312533 1.957745 33.252490 40.657534 0.083782 0.613101 0.050008 -0.026013 -201252.000000 0 0 1
24.637233 1.492645 33.340396 41.482566 0.060511 0.637274 0.056345 -0.030633 -190358.000000 0 0 1
24.611233 -0.016255 33.115474 41.259516 -0.000660 0.639131 0.047398 -0.029974 -266060.000000 0 0 1
24.069433 -0.568955 31.905309 39.970115 -0.023634 0.646447 0.048263 -0.037184 657800.000000 0 0 1
22.667333 -0.607555 31.669469 38.950384 -0.026797 0.621386 0.055828 -0.040761 171973.000000 0 0 1
21.791733 -1.440055 32.609929 39.247431 -0.065987 0.590108 0.049483 -0.042992 -726932.000000 0 0 1
21.952833 -2.824655 32.302759 39.158317 -0.127966 0.600723 0.055659 -0.047599 374555.000000 0 0 1
21.173333 -3.573355 33.227267 39.561726 -0.167191 0.573727 0.049183 -0.037237 24441.300000 0 0 1
21.100433 -5.089855 32.905479 39.419607 -0.236699 0.583119 0.053217 -0.034141 130688.000000 0 0 1
22.413133 -5.609855 32.931209 40.227895 -0.245255 0.611799 0.058037 -0.029106 190026.000000 0 0 1
22.357433 -6.955855 32.539829 40.088392 -0.301628 0.623736 0.050770 -0.027582 -259295.000000 0 0 1
23.718333 -7.678455 32.500739 40.961153 -0.313087 0.654335 0.048601 -0.032856 -294086.000000 0 0 1
24.325433 -7.551155 31.253269 40.317657 -0.300991 0.683803 0.047977 -0.027305 -1025300.000000 0 0 1
25.490633 -8.298955 31.199069 41.134255 -0.314746 0.709835 0.034631 -0.028043 -745888.000000 0 0 1
26.174833 -8.126455 29.823469 40.504326 -0.301033 0.743206 0.030505 -0.018488 -208368.000000 0 0 1
25.418333 -8.589255 28.730809 39.310639 -0.325869 0.751206 0.027425 -0.009994 44703.600000 0 0 1
26.086933 -8.375855 27.475459 38.801854 -0.310678 0.783997 0.025394 0.003468 140914.000000 0 0 1
25.323433 -9.232155 26.430839 37.750473 -0.349595 0.795194 0.015625 0.001416 698872.000000 0 0 1
24.061033 -8.744455 25.997809 36.486777 -0.348587 0.777703 0.007469 -0.000206 165191.000000 0 0 1
23.274633 -9.769055 25.434339 35.833624 -0.397398 0.781597 0.014528 -0.007203 402701.000000 0 0 1
22.012533 -9.294955 24.657499 34.335697 -0.399545 0.769685 0.013403 0.006912 342139.000000 0 0 1
20.936833 -8.981255 25.502369 34.196268 -0.405228 0.729114 0.019553 0.005811 316926.000000 0 0 1
19.684133 -8.798655 24.814689 32.873245 -0.420350 0.715356 0.031868 0.008647 382866.000000 0 0 1
18.562933 -8.755055 25.827279 32.989117 -0.440705 0.671478 0.048842 0.005084 -784955.000000 0 0 1
17.916333 -9.916255 26.302649 33.334013 -0.505508 0.661514 0.048753 0.007668 264733.000000 0 0 1
18.682233 -10.710455 27.201609 34.693907 -0.520553 0.669639 0.037180 0.005567 -112061.000000 0 0 1
17.831333 -11.746255 27.949879 35.172812 -0.582496 0.652375 0.026305 0.005526 313435.000000 0 0 1
17.182633 -12.778955 27.168919 34.593276 -0.639466 0.667484 0.018888 0.012871 366047.000000 0 0 1
16.315433 -13.648555 27.844409 35.039799 -0.696629 0.652364 0.009153 0.018637 -165942.000000 0 0 1
16.965433 -14.588855 28.926239 36.570315 -0.710223 0.658394 0.003998 0.031033 -138431.000000 0 0 1
16.113633 -15.597255 29.488839 37.047472 -0.769116 0.650181 -0.014172 0.027285 144332.000000 0 0 1
16.800633 -16.614255 30.214969 38.356735 -0.779821 0.663672 -0.006037 0.018648 -309843.000000 0 0 1
16.927433 -17.868055 29.393409 38.337682 -0.812424 0.697115 -0.006240 0.032502 -13279.600000 0 0 1
17.936033 -17.703955 28.424139 37.987669 -0.778887 0.725381 -0.006020 0.026865 232980.000000 0 0 1
18.144733 -18.996355 27.830149 38.270224 -0.808324 0.756561 -0.009289 0.028195 -773806.000000 0 0 1
19.018133 -18.952355 26.634939 37.819322 -0.783666 0.789405 0.010519 0.017545 154549.000000 0 0 1
20.336433 -18.475055 26.973609 38.502906 -0.737475 0.794614 0.019014 0.003478 443698.000000 0 0 1
21.055733 -18.024055 25.872629 37.915741 -0.707977 0.819794 0.001598 0.006194 -966515.000000 0 0 1
22.448833 -17.626355 26.294549 38.807754 -0.665638 0.826358 -0.002223 0.002921 -999702.000000 0 0 1
23.229833 -18.740855 26.568739 39.959263 -0.678848 0.843442 -0.008031 -0.003482 -563856.000000 0 0 1
24.552333 -18.455255 26.911809 40.836980 -0.644569 0.851300 0.008732 -0.002500 7724.320000 0 0 1
25.504533 -19.687755 27.122949 42.115832 -0.657390 0.871070 0.000275 0.006563 181302.000000 0 0 1
25.304333 -20.364055 28.317199 43.091389 -0.677640 0.853774 -0.007027 0.011271 294239.000000 0 0 1
26.146433 -21.526755 28.399439 44.199155 -0.688797 0.872996 -0.000611 0.017037 338512.000000 0 0 1
25.665633 -22.604655 29.416139 45.111023 -0.722070 0.860467 -0.004409 0.021704 46140.800000 0 0 1
25.648333 -22.198555 30.773819 45.800008 -0.713422 0.834002 -0.000326 0.009976 -191903.000000 0 0 1
25.412133 -23.344455 31.583139 46.778572 -0.743015 0.829611 0.002673 0.009350 -1265880.000000 0 0 1
24.765133 -23.118355 32.968579 47.272586 -0.751020 0.799013 -0.002834 0.002711 17894.200000 0 0 1
24.677033 -24.284455 33.730877 48.336971 -0.777380 0.798436 -0.013728 0.003117 102599.000000 0 0 1
24.177133 -24.144855 -34.081728 48.260459 -0.784730 2.354919 0.004211 0.004755 -400551.000000 0 0 1
23.891733 -25.499965 -33.333910 48.292988 -0.817947 2.332622 -0.000059 0.007662 139523.000000 0 0 1
22.710933 -26.271455 -33.533810 48.275172 -0.857960 2.338714 0.015863 0.002888 18513.500000 0 0 1
22.511433 -26.631555 34.269191 48.891531 -0.869042 0.794106 0.001511 -0.007291 227738.000000 0 0 1
21.089733 -27.233855 34.053877 48.436827 -0.911865 0.791108 0.021359 -0.012073 519890.000000 0 0 1
21.136533 -28.638085 34.094111 49.287943 -0.934983 0.806910 0.024975 -0.009370 -140281.000000 0 0 1
19.852333 -29.181425 33.935752 48.962291 -0.973410 0.805016 0.041978 -0.000804 -221343.000000 0 0 1
19.836333 -30.690765 34.126259 50.000047 -0.997006 0.819585 0.022455 -0.003948 -245921.000000 0 0 1
20.164933 -31.290735 -33.772870 50.262723 -0.998341 2.307604 -0.000420 -0.003669 118478.000000 0 0 1
20.925933 -32.470315 -33.937800 51.419746 -0.998323 2.291635 -0.019991 0.006699 -335457.000000 0 0 1
21.913533 -32.663615 -32.806810 51.219151 -0.979879 2.265969 -0.016633 0.013992 -849536.000000 0 0 1
22.819033 -33.736235 -32.908270 52.362162 -0.976089 2.250386 -0.023213 0.015829 395890.000000 0 0 1
23.364933 -34.141450 -31.639890 52.083023 -0.970646 2.223693 -0.024871 0.023552 337460.000000 0 0 1
24.541233 -33.359685 -30.990280 51.725604 -0.936539 2.213208 -0.016111 0.008593 -404404.000000 0 0 1
24.965333 -34.008644 -29.825860 51.666601 -0.937557 2.186184 -0.009937 0.013745 -29913.200000 0 0 1
25.544033 -33.106945 -28.852350 50.803794 -0.913638 2.174770 -0.006673 0.001681 -656895.000000 0 0 1
25.580333 -33.538875 -27.422820 50.311237 -0.919212 2.147261 -0.006745 0.001684 422717.000000 0 0 1
26.548733 -34.524300 -27.017990 51.251676 -0.915254 2.126055 -0.007597 0.018318 1593900.000000 0 0 1
27.860033 -33.928175 -26.745670 51.406550 -0.883293 2.117972 -0.006045 0.001008 1380690.000000 0 0 1
-26.090357 -30.656549 8.848080 41.216735 0.865691 1.354440 0.007786 -0.000417 -119656.000000 0 0 1
-26.140787 -31.917649 9.566380 42.350828 0.884573 1.342946 0.017377 -0.004209 -1025950.000000 0 0 1
-24.993867 -32.136449 10.278480 41.989188 0.909775 1.323495 0.010281 -0.005392 -1026130.000000 0 0 1
-25.000967 -33.374649 11.172180 43.170976 0.927871 1.309028 -0.003386 -0.001105 63846.000000 0 0 1
-24.828267 34.517945 10.566480 43.813033 -0.947244 1.327223 -0.003289 0.003265 -26184.100000 0 0 1
-24.895467 33.603145 11.667080 43.417466 -0.933166 1.298734 -0.007743 0.009668 -78103.200000 0 0 1
-24.935567 32.092445 11.268680 42.174526 -0.910243 1.300319 0.001736 0.001875 342373.000000 0 0 1
-26.054957 31.744945 10.446280 42.376020 -0.883525 1.321715 0.004465 -0.002110 340168.000000 0 0 1
-26.135007 30.358845 10.219880 41.341795 -0.860026 1.321002 0.009406 -0.002562 178879.000000 0 0 1
-25.442467 30.000445 8.848580 40.319266 -0.867424 1.349532 0.006888 -0.008884 -415894.000000 0 0 1
-24.087967 30.259745 8.622880 39.626208 -0.898475 1.351436 0.014207 -0.002892 -295340.000000 0 0 1
-23.852967 29.878745 7.237480 38.911239 -0.897077 1.383707 0.024391 -0.003562 356862.000000 0 0 1
-22.450767 29.228045 7.037780 37.521273 -0.915796 1.382111 0.017256 -0.001404 227671.000000 0 0 1
-22.377367 27.832645 7.247780 36.440815 -0.893623 1.370569 0.041008 -0.003895 335816.000000 0 0 1
-22.679767 27.019145 6.058980 35.792699 -0.872491 1.400697 0.021270 -0.002733 -345638.000000 0 0 1
-23.050167 25.576845 6.475780 35.034568 -0.837312 1.384888 0.028030 -0.003091 194213.000000 0 0 1
-24.237867 25.374545 7.271280 35.835921 -0.808305 1.366473 0.017759 -0.004829 974390.000000 0 0 1
-24.444867 23.994045 7.580280 35.081710 -0.776091 1.353004 0.014444 -0.019638 -110392.000000 0 0 1
-24.785767 23.050845 6.392880 34.446257 -0.749146 1.384124 -0.004078 -0.021459 -627595.000000 0 0 1
-26.085647 23.329945 5.926180 35.494604 -0.729690 1.403051 -0.003894 -0.019120 -14359.200000 0 0 1
-26.346737 22.775945 4.631580 35.133257 -0.712834 1.438583 -0.009893 -0.019150 -11541.100000 0 0 1
-25.944487 23.688445 3.435680 35.299614 -0.739975 1.473313 -0.023323 -0.014900 -1545000.000000 0 0 1
-24.604167 23.929145 3.305180 34.480331 -0.771491 1.474792 -0.011987 -0.014997 -1034470.000000 0 0 1
-24.332367 24.620045 2.107180 34.679258 -0.791275 1.509997 -0.011791 -0.009154 -34668.900000 0 0 1
-23.204267 25.648045 2.300380 34.663410 -0.835380 1.504384 0.020962 -0.004500 -23787.400000 0 0 1
-22.796367 26.276845 1.109080 34.804841 -0.856204 1.538925 0.007309 -0.006932 -430497.000000 0 0 1
-21.507667 26.805945 1.230980 34.389733 -0.894626 1.534994 0.020417 -0.014063 -655434.000000 0 0 1
-20.869467 27.281645 -0.116320 34.348746 -0.917787 1.574183 0.013483 -0.009487 262708.000000 0 0 1
-20.499267 26.351245 -1.167420 33.406151 -0.909662 1.605750 0.004039 -0.005257 937186.000000 0 0 1
-19.367467 25.504145 -0.817420 32.034799 -0.921316 1.596316 0.003834 -0.011894 537860.000000 0 0 1
-18.964267 24.561545 -1.995620 31.094942 -0.913293 1.635019 0.002857 -0.013033 -620967.000000 0 0 1
-19.954767 23.714145 -2.450220 31.089499 -0.871275 1.649690 -0.005492 -0.009270 -710382.000000 0 0 1
-19.436767 22.806545 -3.380820 30.155536 -0.865000 1.683145 -0.005452 -0.009732 -404468.000000 0 0 1
-20.416367 21.869745 -4.114120 30.199996 -0.819755 1.707450 -0.016247 0.000729 -260165.000000 0 0 1
-21.216167 22.636645 -4.985220 31.422856 -0.817779 1.730119 -0.023079 0.010806 -337882.000000 0 0 1
-22.241567 21.928345 -5.622820 31.735717 -0.778307 1.748913 -0.015047 0.009572 -194390.000000 0 0 1
-22.734167 22.685945 -6.850220 32.839305 -0.784336 1.780938 -0.013809 0.020834 -112310.000000 0 0 1
-21.957567 22.337545 -7.988020 32.325054 -0.793976 1.820499 -0.018627 0.006839 234869.000000 0 0 1
-22.312367 23.244545 -8.970620 33.445816 -0.805857 1.842334 -0.011161 0.006862 -161959.000000 0 0 1
-21.623467 22.933245 -10.322220 33.167096 -0.814785 1.887271 -0.012481 0.002636 -234217.000000 0 0 1
-21.821867 21.660345 -10.942120 32.635784 -0.781684 1.912699 0.001276 -0.001762 -70012.400000 0 0 1
-21.231867 21.406245 -12.212620 32.529488 -0.789488 1.955659 -0.006514 0.001326 -149626.000000 0 0 1
-22.025167 21.961545 -13.428120 33.878191 -0.783952 1.978350 -0.002049 0.000434 1359290.000000 0 0 1
-23.344367 21.379445 -13.685720 34.486795 -0.741492 1.978867 -0.017775 0.000167 1529300.000000 0 0 1
-23.283067 20.272545 -14.535920 34.122870 -0.716389 2.010850 0.004953 -0.001636 -664629.000000 0 0 1
-24.652167 19.672045 -14.774620 34.828265 -0.673511 2.008889 0.023503 -0.012171 -658743.000000 0 0 1
-24.398267 18.656445 -15.688620 34.488711 -0.652819 2.043047 0.025403 -0.011792 -131296.000000 0 0 1
-25.374167 17.680845 -15.751120 34.706749 -0.608578 2.041860 0.011400 -0.001295 -978296.000000 0 0 1
-24.970967 16.652345 -16.860220 34.425525 -0.588142 2.082610 0.015176 -0.000403 366734.000000 0 0 1
-23.848367 15.830945 -16.500920 33.040033 -0.586027 2.093728 0.040890 0.002894 519501.000000 0 0 1
-23.847167 14.817345 -17.451720 33.057580 -0.555968 2.126945 0.036057 -0.005168 120536.000000 0 0 1
-22.913667 13.631645 -17.073920 31.660332 -0.536671 2.140383 0.037451 -0.003967 511797.000000 0 0 1
-21.541367 14.002845 -16.920720 30.763955 -0.576406 2.153182 0.040409 -0.006914 434238.000000 0 0 1
-20.855367 12.749345 -16.894120 29.713691 -0.548703 2.175555 0.049069 0.004529 -250057.000000 0 0 1
-19.486767 12.792045 -16.200820 28.387269 -0.580895 2.178163 0.054025 0.000765 -201610.000000 0 0 1
-18.535367 13.637145 -16.811420 28.498340 -0.634310 2.201742 0.046821 0.005561 -116035.000000 0 0 1
-17.439067 13.812145 -15.947720 27.371996 -0.669858 2.192756 0.036341 0.014617 137164.000000 0 0 1
-16.518767 15.011245 -16.402820 27.699452 -0.737622 2.204547 0.016211 0.023244 273559.000000 0 0 1
-15.683367 14.731145 -17.517820 27.746146 -0.754100 2.254103 0.024509 0.011864 300355.000000 0 0 1
-14.995367 15.907145 -17.932120 28.274710 -0.814895 2.257783 0.011627 0.012602 34457.100000 0 0 1
-14.107767 15.674045 -19.168720 28.498151 -0.837942 2.308554 0.011242 0.009125 260095.000000 0 0 1
-13.243967 14.552845 -19.071020 27.402404 -0.832451 2.340554 0.008910 0.009091 -278698.000000 0 0 1
-12.184867 14.681045 -19.979720 27.625953 -0.878045 2.379254 0.017522 0.002977 105621.000000 0 0 1
-11.163467 13.534645 -19.962420 26.576452 -0.881111 2.420571 0.012849 -0.003302 93705.400000 0 0 1
-11.810767 12.335545 -20.370120 26.581980 -0.807128 2.443879 0.028675 -0.001924 -31017.200000 0 0 1
-11.067367 11.210845 -20.059020 25.505567 -0.791838 2.475847 -0.000326 0.008326 -448229.000000 0 0 1
-11.514967 9.990245 -20.819420 25.804025 -0.714616 2.509560 0.012980 -0.000529 -91626.900000 0 0 1
-11.216567 10.073245 -22.222120 26.853384 -0.731747 2.545499 0.019227 -0.002142 93331.300000 0 0 1
-11.350067 8.823245 -22.856220 27.001490 -0.660791 2.580135 0.013260 0.006840 -205020.000000 0 0 1
-11.412167 8.851845 -24.378320 28.335405 -0.659716 2.606749 0.012250 0.003883 198575.000000 0 0 1
-10.240767 9.447045 -24.928520 28.557855 -0.745105 2.631938 0.016267 -0.000556 281080.000000 0 0 1
-10.100867 8.877145 -26.254230 29.497725 -0.721006 2.668235 0.015250 -0.002107 95464.900000 0 0 1
-9.410967 9.780145 -27.328440 30.513295 -0.804633 2.680628 0.026143 -0.003310 -206822.000000 0 0 1
-8.068367 10.135545 -27.240650 30.164231 -0.898471 2.697679 0.032878 -0.003433 -462229.000000 0 0 1
-7.856967 11.247645 -26.402220 29.754305 -0.961049 2.662343 0.014830 -0.002286 -524664.000000 0 0 1
-6.358467 11.531745 -26.560070 29.645380 -1.066888 2.681308 0.019455 -0.008604 -381552.000000 0 0 1
-6.029967 12.016545 -27.897970 30.968606 -1.105705 2.692512 0.016586 -0.014337 -703975.000000 0 0 1
-4.663067 12.224645 -27.950830 30.861546 -1.206385 2.703788 0.022954 -0.020720 -897481.000000 0 0 1
-4.227167 12.743545 -29.331460 32.258354 -1.250507 2.712316 0.014011 -0.014824 712721.000000 0 0 1
-2.813767 12.995345 -29.416490 32.281979 -1.357567 2.717070 0.014844 -0.020318 600424.000000 0 0 1
-2.364767 12.959045 -30.758110 33.460279 -1.390302 2.736948 0.004114 -0.014471 529006.000000 0 0 1
-0.806167 12.958345 -30.797440 33.422311 -1.508664 2.742627 0.017438 -0.017250 253184.000000 0 0 1
-0.303167 11.779645 -30.189720 32.407887 -1.545065 2.769462 0.000711 -0.000032 -548696.000000 0 0 1
1.065433 11.550445 -30.342360 32.483946 1.478815 2.776449 0.017187 -0.006116 -440767.000000 0 0 1
1.521033 10.858845 -31.626810 33.473619 1.431629 2.807865 0.024415 -0.008272 -486702.000000 0 0 1
1.440933 11.634045 -32.828820 34.859126 1.447569 2.798613 0.027539 -0.016916 270390.000000 0 0 1
1.633433 10.916745 -34.011390 35.757769 1.422272 2.827771 0.029266 -0.018800 -48655.000000 0 0 1
1.737633 11.774945 33.875775 35.905944 1.424283 0.337883 0.034198 -0.025063 -615191.000000 0 0 1
2.932333 12.508845 33.888627 36.242362 1.340533 0.362380 0.026901 -0.023169 -500676.000000 0 0 1
3.047033 13.267845 32.687689 35.409111 1.345055 0.394618 0.029277 -0.019672 73019.200000 0 0 1
4.521633 13.488545 32.287569 35.282760 1.247349 0.415018 0.034802 -0.017022 -46297.800000 0 0 1
5.053233 12.314245 31.758759 34.435368 1.181394 0.396880 0.035065 -0.023077 822492.000000 0 0 1
6.477033 12.420645 31.529619 34.501323 1.090118 0.418088 0.039321 -0.016049 970004.000000 0 0 1
7.064433 11.219645 30.849389 33.577842 1.008861 0.405913 0.032396 -0.008252 -265333.000000 0 0 1
6.794333 11.103745 29.491039 32.236276 1.021676 0.415684 0.022848 -0.008463 416572.000000 0 0 1
7.660033 10.165145 28.810309 31.496669 0.925022 0.416007 0.026932 -0.017231 701938.000000 0 0 1
6.803733 9.168545 27.969389 30.209928 0.932388 0.387559 0.012722 -0.007477 248371.000000 0 0 1
6.176133 8.190645 28.750699 30.525956 0.924710 0.342719 0.011096 -0.013263 -75095.500000 0 0 1
5.549833 7.264945 27.854539 29.316470 0.918446 0.317135 0.013213 -0.009886 -580156.000000 0 0 1
4.765033 6.187645 28.569959 29.618154 0.914562 0.266837 0.011613 -0.013183 -453231.000000 0 0 1
5.543533 5.131845 29.086609 30.051579 0.746853 0.254102 0.007208 -0.014390 195970.000000 0 0 1
4.928533 4.596745 30.252299 30.993904 0.750580 0.219196 -0.000819 -0.014481 -11138.900000 0 0 1
5.741033 3.423545 30.898679 31.613423 0.537716 0.213047 0.009729 -0.010352 123194.000000 0 0 1
5.771833 2.219445 30.121059 30.749280 0.367100 0.202486 0.002499 -0.003356 -705268.000000 0 0 1
6.819633 2.115345 29.237189 30.096433 0.300774 0.239527 0.010769 -0.004889 -987455.000000 0 0 1
6.756333 0.814845 28.446239 29.248941 0.120025 0.234820 0.000805 -0.008042 -33113.300000 0 0 1
7.063033 -0.324655 29.208499 30.052092 -0.045933 0.237501 -0.004731 0.007017 88283.300000 0 0 1
7.180933 -1.564855 28.499699 29.432081 -0.214564 0.252380 -0.004329 0.010851 -801256.000000 0 0 1
7.742833 -2.656055 29.367369 30.486857 -0.330456 0.271836 -0.009898 0.018711 -600917.000000 0 0 1
9.089433 -2.469555 29.665739 31.125112 -0.265291 0.307436 -0.004365 0.008387 -628745.000000 0 0 1
9.951133 -3.160755 28.790359 30.625156 -0.307549 0.347906 -0.003017 0.021256 96826.700000 0 0 1
11.422833 -3.308055 29.291359 31.613416 -0.281889 0.385665 0.006313 0.010641 1277450.000000 0 0 1
12.193433 -4.425455 28.697939 31.493431 -0.348154 0.424522 0.014462 0.004773 650540.000000 0 0 1
12.169933 -5.559755 29.582299 32.467377 -0.428530 0.424756 0.010866 0.005305 -310995.000000 0 0 1
11.560733 -6.893655 29.111419 32.072539 -0.537694 0.433088 0.009053 0.011685 -978490.000000 0 0 1
10.195733 -6.905255 29.311419 31.792999 -0.595307 0.397722 -0.006800 0.020672 -1241750.000000 0 0 1
9.620033 -8.184655 29.275399 31.883893 -0.704954 0.407315 -0.019516 0.023567 -486148.000000 0 0 1
8.119233 -8.066855 29.021969 31.197288 -0.782162 0.375642 -0.025037 0.021199 -331236.000000 0 0 1
7.456533 -7.630055 30.217359 32.045381 -0.796899 0.339398 -0.020971 0.014226 798043.000000 0 0 1
6.024133 -7.621455 30.129159 31.656642 -0.901926 0.311912 -0.020261 0.013554 641798.000000 0 0 1
5.462833 -6.900455 31.336339 32.548809 -0.901160 0.273804 -0.017030 0.016136 -230676.000000 0 0 1
5.696533 -7.670555 32.467799 33.844436 -0.932016 0.286197 -0.026990 0.024372 96927.500000 0 0 1
5.172633 -7.035655 33.639772 34.754724 -0.936833 0.253983 -0.021361 0.021033 40079.700000 0 0 1
5.756133 -5.663955 34.081888 35.025542 -0.777327 0.232653 -0.003531 0.015222 4292.030000 0 0 1
5.591233 -4.581655 33.100254 33.880382 -0.686480 0.215011 -0.004456 0.014234 56653.600000 0 0 1
6.125733 -3.360855 33.675449 34.392671 -0.501803 0.204582 0.009718 0.009195 110975.000000 0 0 1
6.130833 -2.143155 32.749859 33.387625 -0.336292 0.195770 0.012422 0.007976 -266775.000000 0 0 1
4.890533 -1.626255 32.360579 32.768416 -0.321028 0.157936 0.005128 0.010707 -328562.000000 0 0 1
5.073933 -0.301955 31.937259 32.339210 -0.059441 0.157829 0.004902 0.006085 -414346.000000 0 0 1
3.739633 0.414145 31.776039 31.998016 0.110295 0.117858 0.009564 0.001105 -406843.000000 0 0 1
3.016233 0.551145 33.013359 33.155441 0.180732 0.092611 0.004554 -0.002030 151070.000000 0 0 1
1.837233 1.276745 32.666429 32.742955 0.607314 0.068382 0.004569 0.004277 270006.000000 0 0 1
0.934733 1.522245 33.912681 33.959695 1.020111 0.052626 0.003321 0.001642 -245286.000000 0 0 1
1.542033 2.280445 -34.256435 34.366868 0.976224 3.061404 0.003070 0.000441 -367256.000000 0 0 1
0.695933 2.379445 -33.154760 33.247318 1.286256 3.066957 -0.008330 0.009446 -229709.000000 0 0 1
1.121033 3.421945 -32.039110 32.240828 1.254214 3.029672 0.001266 0.018331 373113.000000 0 0 1
2.121333 2.931545 -31.135300 31.344870 0.944391 3.025891 -0.008877 0.018897 277198.000000 0 0 1
2.708633 3.982045 -30.400310 30.779412 0.973475 2.984480 -0.007919 0.027443 -601225.000000 0 0 1
3.914533 3.488345 -29.620240 30.080737 0.727891 2.966390 0.002976 0.019269 -611400.000000 0 0 1
3.555333 2.679545 -28.498170 28.843821 0.645845 2.986624 -0.000706 -0.007014 231655.000000 0 0 1
4.705633 2.040945 -28.024090 28.489613 0.409237 2.960569 0.010383 -0.011370 -406778.000000 0 0 1
4.421833 1.360845 -26.678560 27.076744 0.298557 2.969884 0.013596 -0.013209 -149261.000000 0 0 1
3.424333 0.379745 -26.812450 27.032901 0.110445 3.013796 0.013810 -0.011784 -90718.900000 0 0 1
3.154733 -0.285755 -25.578660 25.774053 -0.090333 3.018380 0.015294 -0.008686 -360845.000000 0 0 1
3.807133 -1.681255 -25.377780 25.716776 -0.415852 2.979044 0.028497 -0.019767 342634.000000 0 0 1
5.189033 -1.600055 -25.054720 25.636404 -0.299103 2.928163 0.027529 -0.023528 160492.000000 0 0 1
5.748733 -2.940555 -25.019120 25.838946 -0.472816 2.889016 0.033161 -0.033898 -123391.000000 0 0 1
7.239333 -2.990655 -24.669120 25.882763 -0.391758 2.834148 0.045068 -0.030711 -124086.000000 0 0 1
8.073933 -2.373455 -25.598230 26.946077 -0.285911 2.823968 0.033678 -0.024865 31332.900000 0 0 1
9.448633 -2.534555 -25.245180 27.074337 -0.262076 2.771903 0.035133 -0.013465 541042.000000 0 0 1
-28.383807 -4.001155 17.702129 33.689985 0.140043 1.017562 0.019902 -0.000514 -433494.000000 0 0 1
-29.714577 -3.792455 18.096329 34.997370 0.126943 1.027364 0.017682 0.013872 -334785.000000 0 0 1
-30.144207 -4.671255 19.107729 35.994432 0.153741 1.011190 0.022323 0.009554 -602622.000000 0 0 1
-31.579847 -4.470955 19.525429 37.396772 0.140642 1.021467 0.016073 0.012251 -470190.000000 0 0 1
-32.570087 -4.785255 18.559929 37.791271 0.145878 1.057425 0.012676 0.010493 386354.000000 0 0 1
-33.917247 -4.649855 18.943129 39.125988 0.136245 1.065397 0.020718 0.010817 309064.000000 0 0 1
-34.960877 -4.912855 17.817329 39.545623 0.139610 1.103414 0.006273 0.008589 739211.000000 0 0 1
34.006402 -5.038055 18.346029 38.966578 -0.147080 1.080583 0.014133 0.012061 513706.000000 0 0 1
33.057102 -5.008555 17.282329 37.636904 -0.150369 1.093718 0.009233 0.010432 492545.000000 0 0 1
31.635542 -5.426655 17.745729 36.676518 -0.169883 1.065754 0.018726 0.013205 -87870.300000 0 0 1
30.891452 -4.485255 18.457229 36.263875 -0.144186 1.036808 0.038803 0.003809 477307.000000 0 0 1
29.760132 -5.200055 18.990329 35.683871 -0.172986 1.009620 0.033348 -0.000611 528478.000000 0 0 1
29.249862 -4.604655 20.358629 35.933704 -0.156143 0.968470 0.037113 0.005512 -33770.200000 0 0 1
28.603002 -3.349455 20.444729 35.317666 -0.116571 0.953441 0.042119 0.002900 76747.400000 0 0 1
29.318442 -2.245555 19.974729 35.547199 -0.076443 0.974090 0.041045 0.000409 -566727.000000 0 0 1
28.576422 -0.943855 20.306529 35.069330 -0.033017 0.953246 0.054955 0.001679 -53371.800000 0 0 1
29.130832 0.273145 19.898329 35.279222 0.009376 0.971545 0.028768 0.000748 238250.000000 0 0 1
28.321642 1.324245 20.467629 34.968455 0.046723 0.945525 0.034018 0.006250 570391.000000 0 0 1
28.569492 2.678845 19.717129 34.816049 0.093493 0.968759 0.006655 0.011561 -105825.000000 0 0 1
28.360332 2.607345 18.276029 33.839621 0.091679 1.000267 0.013253 0.006603 191139.000000 0 0 1
28.306422 3.848445 17.695829 33.603667 0.135128 1.016195 0.001047 0.013289 98266.600000 0 0 1
28.266982 3.754145 16.183229 32.787388 0.132038 1.054594 -0.003067 0.012684 -77678.000000 0 0 1
27.972502 4.973345 15.484429 32.356801 0.175955 1.071791 -0.014473 0.018822 454173.000000 0 0 1
27.320812 4.717445 14.226129 31.161897 0.170983 1.096713 -0.006173 0.018184 131739.000000 0 0 1
26.889032 6.018745 13.428229 30.652287 0.220207 1.117332 -0.007846 0.017974 -234255.000000 0 0 1
25.825672 6.651345 14.055729 30.145800 0.252070 1.085740 -0.011319 0.018649 -646399.000000 0 0 1
25.433022 7.843645 13.424429 29.809003 0.299149 1.103641 0.003267 0.004902 -212308.000000 0 0 1
24.241502 8.571945 14.172929 29.359846 0.339884 1.067025 0.002830 0.002992 320711.000000 0 0 1
22.994602 7.965045 13.987429 28.068520 0.333453 1.049123 0.006195 0.008485 7131.000000 0 0 1
22.816002 6.776945 14.797829 28.026286 0.288726 1.014555 0.019554 0.008307 -897164.000000 0 0 1
21.505402 6.015245 14.517829 26.635181 0.272738 0.994333 0.043075 0.014120 -197304.000000 0 0 1
21.368902 5.783045 13.145429 25.746376 0.264298 1.034944 0.066365 0.010793 848140.000000 0 0 1
20.214602 5.019345 12.763729 24.428196 0.243381 1.021016 0.072933 0.006631 455654.000000 0 1 0
19.906602 5.056345 11.215829 23.401587 0.248743 1.070966 0.078865 -0.001739 -347454.000000 0 1 0
20.824502 4.282745 10.511329 23.716868 0.202831 1.111630 0.070654 -0.003992 359533.000000 0 1 0
20.384002 4.128645 9.159829 22.725662 0.199840 1.155937 0.075235 -0.011766 -2732.850000 0 1 0
21.397002 3.342545 8.317629 23.198863 0.154963 1.204097 0.061242 -0.007104 -762548.000000 0 1 0
21.548302 1.982445 8.668629 23.311039 0.091742 1.189776 0.049743 -0.006209 179648.000000 0 1 0
22.423102 1.216545 7.905329 23.806926 0.054201 1.232310 0.042051 -0.001120 869876.000000 0 1 0
23.985702 1.505145 8.024929 25.337302 0.062670 1.248523 0.055166 -0.001261 964320.000000 0 0 1
24.665802 1.028045 9.175429 26.337182 0.041655 1.214951 0.021928 0.012339 434054.000000 0 0 1
24.325802 1.722245 10.378529 26.503295 0.070681 1.168433 0.016965 0.013409 -624183.000000 0 0 1
24.948502 1.127745 11.656229 27.560247 0.045172 1.134113 -0.001681 0.013822 1085610.000000 0 0 1
26.394252 1.091945 11.734429 28.905808 0.041347 1.152774 -0.009789 0.021102 1198520.000000 0 0 1
26.787652 0.387045 12.866829 29.720084 0.014448 1.123051 0.005900 0.002799 249635.000000 0 0 1
28.332452 0.364245 13.049829 31.195489 0.012855 1.139197 0.015197 -0.000757 295290.000000 0 0 1
28.829292 1.643345 13.302629 31.792902 0.056941 1.139097 0.006826 0.013759 517265.000000 0 0 1
30.259022 1.650645 13.210729 33.058379 0.054496 1.159696 0.007619 0.018057 606521.000000 0 0 1
30.822442 2.979245 13.743429 33.878912 0.096359 1.153092 0.003369 0.017334 -761613.000000 0 0 1
30.618092 4.108445 12.937829 33.492302 0.133387 1.174188 0.004476 0.015892 686559.000000 0 0 1
31.549362 5.222445 13.003729 34.521488 0.164045 1.184581 0.003201 0.007496 1309710.000000 0 0 1
32.906932 5.035145 12.220429 35.462061 0.151834 1.218978 -0.003830 0.014801 767691.000000 0 0 1
33.741612 4.038845 12.790829 36.309971 0.119132 1.210803 -0.010445 0.013883 1075950.000000 0 0 1
35.085468 4.095445 12.259229 37.390526 0.116202 1.236748 -0.009758 0.017091 1216780.000000 0 0 1
-34.199380 3.142945 12.983029 36.715593 -0.091643 1.209368 0.008710 0.022058 -343731.000000 0 0 1
-34.296204 1.759645 12.701729 36.615023 -0.051262 1.216533 0.006558 0.025311 254901.000000 0 0 1
34.824805 1.037245 13.083929 37.216020 0.029776 1.211552 0.012601 0.025617 185212.000000 0 0 1
34.552847 0.888945 14.614029 37.526781 0.025721 1.170784 0.004934 0.032685 185181.000000 0 0 1
-34.787354 0.081645 15.346929 38.022295 -0.002347 1.155316 0.016622 0.028231 497410.000000 0 0 1
35.095456 -0.086455 16.701429 38.866904 -0.002463 1.126627 0.019332 0.016330 -568152.000000 0 0 1
-34.179022 -0.782755 17.584329 38.445115 0.022898 1.095741 0.020530 0.018501 -1255220.000000 0 0 1
-32.987717 -0.085755 17.676329 37.425251 0.002600 1.078886 0.022218 0.016204 -755322.000000 0 0 1
-32.025227 -0.800155 18.441829 36.964259 0.024980 1.048456 0.020089 0.009138 184731.000000 0 0 1
-31.938047 -0.660055 19.989829 37.683787 0.020664 1.011650 0.012110 -0.001140 -770988.000000 0 0 1
-33.021797 -1.215455 20.651429 38.966626 0.036791 1.012222 0.017969 -0.001396 -486582.000000 0 0 1
-32.861577 -1.204255 22.024829 39.578107 0.036630 0.980641 0.009641 -0.001523 137166.000000 0 0 1
-33.450957 -2.430855 22.755729 40.530221 0.072542 0.974658 0.012684 0.001783 349974.000000 0 0 1
-32.674107 -3.625755 22.475229 39.823100 0.110515 0.971118 0.017712 -0.004274 495106.000000 0 0 1
-33.131457 -4.878355 23.033729 40.645350 0.146192 0.968301 0.020047 -0.002607 -342244.000000 0 0 1
-33.361287 -4.930855 24.578079 41.729735 0.146739 0.940997 0.010557 -0.017963 -58468.600000 0 0 1
-32.262757 -4.709055 25.432149 41.350392 0.144936 0.908360 0.012002 -0.017236 -611529.000000 0 0 1
-32.592537 -4.746755 26.792769 42.457716 0.144623 0.887896 0.008341 -0.020572 405355.000000 0 0 1
-31.445287 -4.095355 27.647909 42.071188 0.129509 0.853739 0.006389 -0.016422 487795.000000 0 0 1
-31.361617 -2.672455 27.458379 41.769075 0.085009 0.853453 -0.001448 -0.006567 -7985.000000 0 0 1
-30.822027 -2.233855 26.186339 40.505701 0.072349 0.867828 0.004876 -0.006312 -371980.000000 0 0 1
-30.603027 -0.695555 25.903959 40.100426 0.022724 0.868494 0.000911 -0.004757 -324483.000000 0 0 1
-31.823567 -0.045955 25.733229 40.926038 0.001444 0.890821 0.017853 -0.013495 -620472.000000 0 0 1
-31.654027 1.304245 25.533189 40.689338 -0.041180 0.892438 0.005249 -0.003452 370527.000000 0 0 1
-33.025017 2.011545 25.258259 41.625445 -0.060835 0.918770 0.014154 -0.008622 532006.000000 0 0 1
-33.715437 1.636445 24.067129 41.456427 -0.048499 0.951404 0.010807 0.002457 106447.000000 0 0 1
-34.817427 2.484145 23.789629 42.241812 -0.071227 0.972571 0.003451 0.012176 176982.000000 0 0 1
-34.437636 3.828945 23.136829 41.664427 -0.110730 0.982056 0.001736 0.017382 -141547.000000 0 0 1
-33.824397 3.701445 21.865329 40.446052 -0.108998 0.999641 0.004798 -0.006965 66567.700000 0 0 1
-34.748795 3.451745 20.807729 40.649168 -0.099009 1.033418 0.000143 0.001704 62999.100000 0 0 1
-34.096053 2.929145 19.518229 39.396472 -0.085698 1.052466 0.015524 0.004163 400288.000000 0 0 1
-33.162157 3.751345 18.760729 38.285326 -0.112642 1.058679 0.010571 0.005999 621325.000000 0 0 1
-32.729457 2.975445 17.647829 37.303036 -0.090661 1.077997 0.012479 0.020004 189932.000000 0 0 1
-31.714097 3.748845 16.707029 36.041124 -0.117662 1.088794 0.008387 0.020775 205944.000000 0 0 1
-32.280817 4.914445 16.216329 36.457814 -0.151080 1.109849 0.013769 0.011387 -465585.000000 0 0 1
-31.468117 5.566545 15.288729 35.425613 -0.175084 1.124561 0.019505 0.015838 -330844.000000 0 0 1
-32.096297 6.858845 14.692529 35.959511 -0.210529 1.149893 0.014822 0.000337 -19749.700000 0 0 1
-31.329577 7.368645 13.649029 34.959052 -0.230999 1.169699 0.018135 0.005491 -59137.900000 0 0 1
-31.765537 8.704245 13.482429 35.589171 -0.267451 1.182259 -0.000517 0.000610 8035.340000 0 0 1
-31.148267 9.433645 12.243829 34.772396 -0.294081 1.210968 -0.001677 0.002459 -126450.000000 0 0 1
-31.413697 10.806945 12.087229 35.351259 -0.331338 1.221839 -0.004845 0.004279 -385708.000000 0 0 1
-30.601237 11.477745 11.185929 34.544165 -0.358836 1.241037 -0.016541 -0.002359 -571017.000000 0 0 1
-30.567447 13.053645 11.386629 35.134339 -0.403601 1.240748 -0.012884 0.005046 -107536.000000 0 0 1
-30.097377 13.632745 10.210229 34.582548 -0.425308 1.271087 -0.019489 0.007136 -24422.400000 0 0 1
-30.106407 15.026645 10.407829 35.220998 -0.462942 1.270817 -0.018407 0.006351 136348.000000 0 0 1
-29.466047 15.894045 9.225429 34.727181 -0.494670 1.301914 -0.000869 0.000300 -295631.000000 0 0 1
-28.073317 15.790645 9.135929 33.480155 -0.512373 1.294415 -0.004524 0.010572 -293537.000000 0 0 1
-27.547567 16.842145 8.334729 33.346574 -0.548748 1.318175 -0.003194 -0.011586 -558858.000000 0 0 1
-26.054277 17.078645 8.575629 32.311714 -0.580234 1.302174 0.012403 -0.004540 -490325.000000 0 0 1
-25.749527 17.452945 9.895129 32.642871 -0.595668 1.262818 0.007770 0.000021 186258.000000 0 0 1
-25.929917 18.821645 10.199429 33.625039 -0.627876 1.262613 0.011628 -0.014001 -302560.000000 0 0 1
-26.001427 19.275245 11.727329 34.425855 -0.637919 1.223183 0.023959 -0.001563 -155785.000000 0 0 1
-24.724267 19.406645 12.302829 33.753027 -0.665480 1.197705 0.029389 0.004152 -89696.700000 0 0 1
-24.703167 19.921645 13.639129 34.541920 -0.678656 1.164884 0.036471 -0.000794 -262911.000000 0 0 1
-25.253577 19.030045 14.775629 34.902793 -0.645775 1.133671 0.037652 0.001061 -250307.000000 0 0 1
-24.454067 17.936445 15.089329 33.873372 -0.632841 1.109105 0.041667 0.001587 5586.470000 0 0 1
-25.029167 17.064745 16.041929 34.278393 -0.598403 1.083782 0.031898 0.004192 -335752.000000 0 0 1
-23.982967 15.994745 16.341029 33.136744 -0.588179 1.055102 0.044968 0.005800 -210376.000000 0 0 1
-22.876067 16.548045 17.042929 32.978988 -0.626244 1.027709 0.047050 0.005629 606417.000000 0 0 1
-21.850167 15.550045 17.249029 31.886717 -0.618513 0.999233 0.033436 -0.007176 411629.000000 0 0 1
-22.253867 14.441945 18.296129 32.226584 -0.575646 0.967046 0.032062 0.004737 -527773.000000 0 0 1
-22.269067 14.953645 19.638929 33.244704 -0.591340 0.938822 0.027361 0.009381 116215.000000 0 0 1
-22.570167 13.864445 20.490929 33.489005 -0.550855 0.912373 0.017982 0.011372 -414286.000000 0 0 1
-22.192267 14.080545 21.943029 34.238209 -0.565387 0.875135 0.015691 -0.000762 -102922.000000 0 0 1
-20.804067 14.177345 22.161029 33.539790 -0.598181 0.848994 0.024295 -0.005049 25532.000000 0 0 1
-20.257567 15.476845 22.353429 33.905420 -0.652403 0.850925 0.034405 0.008312 707038.000000 0 0 1
-18.736967 15.433545 22.840929 33.331311 -0.689023 0.815823 0.055987 -0.006193 1160340.000000 0 0 1
-17.848367 15.001045 21.882429 31.975557 -0.698936 0.817086 0.034577 0.002260 -627041.000000 0 0 1
-17.455167 15.943545 20.953029 31.589696 -0.740169 0.845594 0.042205 0.000416 -481400.000000 0 0 1
-16.211167 15.451345 20.099729 30.092276 -0.761405 0.839364 0.042083 0.009892 1822150.000000 0 0 1
-15.017067 15.012545 20.783129 29.712409 -0.785248 0.796132 0.036268 0.012683 733092.000000 0 0 1
-14.306067 16.046145 21.423729 30.349934 -0.842665 0.787117 0.030398 0.006716 -441859.000000 0 0 1
-13.217567 15.427545 22.380029 30.225468 -0.862396 0.737077 -0.012697 0.007100 -266646.000000 0 0 1
-12.161067 14.905345 21.633729 28.949596 -0.886443 0.726823 0.001557 0.013032 -927958.000000 0 0 1
-11.226167 14.346845 22.494329 28.945701 -0.906828 0.680717 0.000347 0.005962 -680029.000000 0 0 1
-10.046167 13.658945 21.833529 27.644081 -0.936639 0.660300 -0.000134 0.003415 -882548.000000 0 0 1
-9.267167 12.916645 22.768629 27.769238 -0.948449 0.609520 0.000509 0.002951 -106126.000000 0 0 1
-8.451667 11.976945 22.104429 26.523267 -0.956281 0.585569 0.012756 0.007049 1230630.000000 0 0 1
-6.973667 12.604145 22.112429 26.390453 -1.065436 0.577381 0.013632 0.004898 505943.000000 0 0 1
-6.757567 13.535845 21.050729 25.923291 -1.107761 0.623158 0.006807 0.000403 144756.000000 0 0 1
-5.969967 14.682245 21.523429 26.729512 -1.184604 0.634732 -0.000179 0.006507 199318.000000 0 0 1
-6.662667 15.781945 22.386029 28.188565 -1.171325 0.653184 -0.023095 0.007700 -16026.400000 0 0 1
-7.760167 16.386845 21.728329 28.299632 -1.128523 0.695403 -0.032462 -0.001872 -32897.600000 0 0 1
-7.332567 17.546445 20.971829 28.310102 -1.174959 0.736551 -0.027328 0.012743 -1472320.000000 0 0 1
-8.224067 17.858245 19.766829 27.879737 -1.139229 0.782712 -0.009443 0.005467 706163.000000 0 0 1
-9.347067 18.724445 20.023029 28.963670 -1.107796 0.807488 -0.019056 0.004713 418851.000000 0 0 1
-10.329067 18.076845 20.817929 29.442285 -1.051674 0.785442 -0.017354 0.003310 -1206080.000000 0 0 1
-11.670767 18.835045 20.893929 30.455246 -1.016068 0.814746 -0.015041 -0.005529 -419473.000000 0 0 1
-12.439967 18.798445 19.765029 29.979838 -0.986202 0.850939 -0.011452 0.000391 -329373.000000 0 0 1
-13.630967 19.554045 19.925429 31.067453 -0.962025 0.874526 -0.008431 0.000230 56239.800000 0 0 1
-14.380067 19.667045 18.594529 30.648581 -0.939452 0.918892 0.003119 0.006531 -461110.000000 0 0 1
-15.274767 18.596445 18.426029 30.309484 -0.883153 0.917346 0.031838 0.006083 188199.000000 0 0 1
-15.823367 18.632845 17.074029 29.817517 -0.866756 0.961101 0.047482 0.001140 -470698.000000 0 0 1
-16.495167 17.273345 16.679229 29.131695 -0.808439 0.961189 0.048400 -0.001014 689792.000000 0 0 1
-17.604367 16.857345 17.477229 29.992288 -0.763725 0.948720 0.051335 0.004202 363106.000000 0 0 1
-18.811367 17.568245 17.344429 31.037719 -0.751241 0.977837 0.048618 0.000348 -560971.000000 0 0 1
33.718392 -9.473955 11.439180 36.844818 -0.273911 1.255110 -0.025213 0.014973 -638642.000000 0 0 1
32.380392 -9.766955 11.740780 35.801245 -0.292953 1.236671 -0.023323 0.016183 28176.300000 0 0 1
32.258132 -11.051455 12.420380 36.290324 -0.330062 1.221485 -0.032022 0.017625 540298.000000 0 0 1
30.786502 -11.626155 12.431680 35.178443 -0.361081 1.209605 -0.009652 0.029393 408728.000000 0 0 1
30.001212 -10.820955 13.254780 34.537733 -0.346161 1.176914 -0.009262 0.028746 683153.000000 0 0 1
28.578572 -10.959155 13.116380 33.299809 -0.366180 1.165939 -0.002827 0.017522 905834.000000 0 0 1
27.949262 -12.008655 14.008880 33.490562 -0.405810 1.139231 -0.005022 0.021191 -1435790.000000 0 0 1
28.099702 -11.748255 15.412080 34.134249 -0.396005 1.102335 0.002358 0.019669 -152258.000000 0 0 1
27.048752 -12.182055 16.233280 33.816517 -0.423165 1.070096 0.004446 0.017070 362510.000000 0 0 1
25.691752 -11.439555 15.967280 32.340123 -0.418907 1.054423 0.020176 -0.001052 -305675.000000 0 0 1
25.527402 -10.120755 16.523280 32.048350 -0.377456 1.029119 0.008715 0.026143 -424086.000000 0 0 1
24.467302 -9.441055 15.915080 30.676900 -0.368261 1.025353 0.033177 0.003983 -462668.000000 0 0 1
24.241602 -7.990755 16.438880 30.360241 -0.318414 0.998623 0.034692 -0.012708 -156495.000000 0 0 1
25.248042 -7.135755 15.960480 30.710252 -0.275442 1.024283 0.027237 -0.013120 -90267.300000 0 0 1
25.131202 -5.849855 16.499580 30.627345 -0.228700 1.001879 0.019794 -0.000300 197379.000000 0 0 1
26.392132 -4.954255 16.339680 31.433651 -0.185558 1.024162 0.032163 -0.005270 161226.000000 0 0 1
26.643752 -4.547055 15.000480 30.912451 -0.169033 1.064139 0.038820 -0.007911 77950.500000 0 0 1
27.915242 -3.945755 14.923280 31.898809 -0.140417 1.083960 0.037974 -0.001950 -56489.500000 0 0 1
28.234352 -3.295955 13.546580 31.488915 -0.116210 1.126080 0.030440 -0.003725 -144437.000000 0 0 1
28.730342 -4.126355 12.537580 31.617247 -0.142648 1.163049 0.014974 -0.001707 93340.300000 0 0 1
28.669212 -3.566555 11.280580 31.014441 -0.123768 1.198538 0.019804 -0.001645 -233299.000000 0 0 1
29.261732 -4.441855 10.146180 31.287761 -0.150647 1.240540 0.031871 0.003250 -13963.800000 0 0 1
30.663292 -4.627355 10.212480 32.648808 -0.149778 1.252659 0.008693 0.004476 58044.800000 0 0 1
30.908512 -5.444255 9.071780 32.669148 -0.174353 1.289411 0.005344 0.001804 1692740.000000 0 0 1
32.388912 -6.066955 8.968080 34.150784 -0.185170 1.305078 -0.002507 0.004444 1600680.000000 0 0 1
33.432222 -5.189055 8.618880 34.913104 -0.153983 1.321351 0.003109 0.005647 453176.000000 0 0 1
34.623765 -5.966155 8.390780 36.122089 -0.170638 1.336365 -0.001377 -0.004106 494314.000000 0 0 1
-34.466336 -5.143855 7.935480 35.740165 0.148149 1.346898 0.013179 -0.014249 -202681.000000 0 0 1
-34.638973 -4.802455 6.569480 35.582019 0.137765 1.385102 0.022255 -0.012453 -341490.000000 0 0 1
-33.636137 -3.878355 6.369580 34.452908 0.114796 1.384849 0.021349 0.000880 -719108.000000 0 0 1
-33.665707 -3.061355 5.070080 34.182707 0.090685 1.421924 0.030866 -0.009709 -230509.000000 0 0 1
-33.230787 -3.898955 3.997780 33.696725 0.116796 1.451876 0.033814 -0.010249 50828.200000 0 0 1
-33.120767 -3.206355 2.777580 33.391329 0.096507 1.487517 0.029572 -0.004871 280269.000000 0 0 1
-32.415097 -4.091855 1.661280 32.714548 0.125569 1.519993 0.043242 -0.012498 330060.000000 0 0 1
-33.225497 -5.183855 1.258880 33.651015 0.154773 1.533378 0.049299 -0.001961 461489.000000 0 0 1
-34.324478 -4.940255 0.391780 34.680389 0.142946 1.559499 0.036533 -0.000543 -331655.000000 0 0 1
-33.857177 -4.926255 -1.053720 34.229910 0.144487 1.601585 0.057414 -0.006108 -1290810.000000 0 0 1
-33.409387 -6.243255 -1.406820 34.016827 0.184741 1.612165 0.055870 -0.016353 328046.000000 0 0 1
-32.503087 -6.219655 -2.503120 33.187353 0.189070 1.646292 0.053269 -0.010744 284686.000000 0 0 1
-31.044637 -5.865555 -2.096520 31.663380 0.186738 1.637058 0.049284 -0.020674 -459422.000000 0 0 1
-30.473977 -6.864355 -1.289820 31.264137 0.221555 1.612064 0.061603 -0.016000 -987903.000000 0 0 1
-29.171867 -6.599055 -0.920820 29.923122 0.222469 1.601574 0.033114 -0.022153 -1025200.000000 0 0 1
-28.662757 -7.636655 0.137080 29.662955 0.260383 1.566175 0.015059 -0.013966 -67924.000000 0 0 1
-28.206817 -8.878055 -0.373820 29.573368 0.304932 1.583437 0.009089 -0.005552 437629.000000 0 0 1
-27.725907 -9.749355 0.648780 29.397224 0.338129 1.548725 0.027431 0.005972 12229.000000 0 0 1
-27.287057 -11.161255 0.196780 29.482127 0.388267 1.564122 0.001389 0.000236 -477670.000000 0 0 1
-26.253357 -11.109055 -0.742020 28.516670 0.400301 1.596820 0.000239 0.002844 130405.000000 0 0 1
-25.703107 -12.358255 -1.211520 28.545472 0.448176 1.613251 -0.015987 0.013718 243527.000000 0 0 1
-26.557937 -13.271155 -2.204220 29.770894 0.463412 1.644904 -0.009877 0.008324 -56311.000000 0 0 1
-27.650677 -13.912455 -1.600420 30.994801 0.466165 1.622454 0.000401 -0.002059 27265.200000 0 0 1
-28.173237 -14.880455 -2.441520 31.954972 0.485934 1.647276 0.003880 -0.009276 -247468.000000 0 0 1
-29.161117 -15.878655 -1.781120 33.251689 0.498622 1.624387 0.022375 -0.012018 297715.000000 0 0 1
-28.549297 -16.946455 -1.015720 33.215604 0.535690 1.601381 0.003779 -0.003482 63648.700000 0 0 1
-29.532757 -17.539955 -0.241220 34.349555 0.535933 1.577819 0.012226 0.005608 -609149.000000 0 0 1
-29.692057 -19.096655 -0.374720 35.304970 0.571550 1.581410 0.017972 0.005813 -674780.000000 0 0 1
-28.604667 -19.829455 0.110980 34.805841 0.606164 1.567608 0.033714 -0.004359 -76645.700000 0 0 1
-28.844317 -21.216455 0.150880 35.807197 0.634189 1.566583 0.037294 -0.004871 -180883.000000 0 0 1
-29.670577 -21.698755 1.332680 36.782539 0.631440 1.534557 0.034985 0.001263 -336308.000000 0 0 1
-28.996377 -21.519455 2.569780 36.200561 0.638454 1.499749 0.026210 -0.001098 365483.000000 0 0 1
-29.830547 -21.909255 3.666980 37.193060 0.633479 1.472043 0.022566 -0.000648 412692.000000 0 0 1
-29.039977 -22.072255 5.010880 36.818659 0.649911 1.434276 0.007103 0.000876 -74660.000000 0 0 1
-28.567237 -20.836855 5.537780 35.790062 0.630184 1.415443 -0.001987 0.001734 207713.000000 0 0 1
-27.796237 -20.976855 6.724180 35.466517 0.646480 1.380049 -0.015631 0.001462 69375.000000 0 0 1
-27.560727 -19.573355 7.470380 34.619597 0.617532 1.353301 -0.017859 0.012505 125510.000000 0 0 1
-26.578307 -19.792655 8.458780 34.200973 0.640095 1.320877 -0.017787 0.003420 -532020.000000 0 0 1
-26.241017 -18.585655 9.116180 33.423379 0.616253 1.294548 -0.007611 -0.002165 78785.500000 0 0 1
-25.028267 -18.720355 10.036480 32.826769 0.642200 1.260080 -0.006864 0.005080 -224181.000000 0 0 1
-25.413127 -19.492555 11.177080 33.922173 0.654310 1.235031 -0.007684 0.007829 40747.000000 0 0 1
-24.355667 -19.814955 12.083880 33.642995 0.682959 1.203408 -0.000600 0.020872 17564.200000 0 0 1
-23.888467 -18.749455 13.065080 33.058996 0.665450 1.164505 0.003269 0.010265 -351284.000000 0 0 1
-23.110367 -17.708455 12.512080 31.689598 0.653824 1.164911 0.008173 0.000070 -122662.000000 0 0 1
-22.904767 -16.532855 13.293480 31.219870 0.625213 1.130948 0.015698 0.002138 38791.800000 0 0 1
-22.169667 -16.667455 14.651880 31.368388 0.644661 1.084799 0.026276 0.000996 -197124.000000 0 0 1
-22.825767 -17.536555 15.597180 32.738638 0.655097 1.074224 0.016918 -0.001385 -91570.200000 0 0 1
-22.024767 -17.794355 16.731480 32.888780 0.679554 1.037088 0.024905 0.001876 -867065.000000 0 0 1
-22.742467 -18.603155 17.802980 34.354669 0.685616 1.026038 0.006714 0.018354 -182653.000000 0 0 1
-23.557267 -17.807055 18.615380 34.907999 0.647270 1.008335 0.025585 0.018195 -353773.000000 0 0 1
-24.634067 -18.578655 19.118380 36.297605 0.646174 1.016069 0.011803 0.022073 70745.500000 0 0 1
-25.635987 -17.626455 19.846080 36.902068 0.602333 1.002966 0.024917 0.014566 -289071.000000 0 0 1
-25.029967 -16.984455 20.904380 36.769064 0.596195 0.966076 0.043136 0.008181 -421116.000000 0 0 1
-25.834547 -15.943355 21.371880 37.126428 0.552922 0.957396 0.047077 -0.000336 -115269.000000 0 0 1
-25.255957 -15.209855 22.636080 37.169815 0.542056 0.916009 0.050440 -0.000188 273463.000000 0 0 1
-24.158967 -14.414655 22.216080 35.846788 0.537959 0.902371 0.054509 -0.001433 140853.000000 0 0 1
-23.508367 -13.610255 23.169980 35.703366 0.524800 0.864582 0.052501 -0.007267 774459.000000 0 0 1
-22.286667 -12.777955 22.598080 34.214688 0.520590 0.849340 0.051866 -0.006277 693645.000000 0 0 1
-22.722267 -11.777355 21.681980 33.542745 0.478194 0.867942 0.063716 -0.004131 1104840.000000 0 0 1
-21.622967 -10.980455 21.167380 32.189767 0.469880 0.853193 0.059519 -0.007610 420057.000000 0 0 1
-21.271267 -9.683755 22.006780 32.102029 0.427212 0.815470 0.062065 -0.006514 -97957.700000 0 0 1
-20.642967 -9.803555 23.234880 32.589898 0.443375 0.777104 0.057392 -0.008616 148671.000000 0 0 1
-19.264167 -10.087055 23.206280 31.802331 0.482363 0.752908 0.036872 -0.007285 -119875.000000 0 0 1
-18.507567 -10.278155 24.573280 32.434806 0.506940 0.711136 0.038415 -0.003716 80248.300000 0 0 1
-18.850567 -11.447055 25.290880 33.556036 0.545735 0.717136 0.037383 -0.003840 216953.000000 0 0 1
-18.363967 -11.433655 26.638180 34.315542 0.556881 0.682067 0.044609 0.000320 -1176000.000000 0 0 1
-18.588367 -12.750355 27.429380 35.503096 0.601222 0.687884 0.030326 -0.014350 952728.000000 0 0 1
-19.774667 -12.749155 28.240480 36.757355 0.572656 0.694624 0.033583 -0.005641 29864.800000 0 0 1
-21.000467 -13.016855 27.647780 37.079076 0.554878 0.729296 0.032148 -0.005887 -214749.000000 0 0 1
-22.140067 -13.360155 28.642980 38.588815 0.542944 0.734358 0.026452 -0.003030 -8780.090000 0 0 1
-21.965767 -14.662455 29.196580 39.369059 0.588589 0.735326 0.023995 -0.003498 449640.000000 0 0 1
-21.048167 -14.708655 30.320380 39.732799 0.609926 0.702689 0.018692 -0.005426 448803.000000 0 0 1
-21.450067 -15.710955 31.433380 41.170340 0.632170 0.702087 0.011622 -0.008544 -566468.000000 0 0 1
-21.307167 -17.086855 31.057080 41.358170 0.675917 0.721327 0.009131 -0.004928 88460.100000 0 0 1
-21.443167 -18.012255 32.131180 42.622336 0.698660 0.716882 0.011436 -0.006624 123822.000000 0 0 1
-22.885467 -18.200955 32.696080 43.864029 0.671872 0.729667 0.021838 -0.008541 235171.000000 0 0 1
-23.426167 -17.295555 33.650380 44.500220 0.635971 0.713334 0.020300 -0.001415 100888.000000 0 0 1
-24.722667 -17.686055 34.070180 45.659435 0.620972 0.728490 0.024857 -0.014676 -476404.000000 0 0 1
-25.429447 -16.550755 -34.359668 45.838533 0.576973 2.418224 0.022645 -0.009827 -191144.000000 0 0 1
-24.990467 -16.416455 -33.028768 44.552474 0.581217 2.405869 0.023440 -0.011481 -239054.000000 0 0 1
-25.541037 -15.266255 -32.528968 44.085563 0.538737 2.400690 0.011254 -0.001521 -361099.000000 0 0 1
-25.031967 -14.869655 -31.106568 42.606626 0.536016 2.389246 0.001605 0.003794 -33546.900000 0 0 1
-25.620997 -15.576855 -29.998568 42.414479 0.546261 2.356428 0.009282 0.001645 352111.000000 0 0 1
-24.912467 -15.315055 -28.767668 41.021466 0.551198 2.347992 0.028874 -0.000327 400717.000000 0 0 1
-25.595807 -16.043955 -27.549968 40.884650 0.559907 2.310198 0.022000 -0.002136 421921.000000 0 0 1
-26.805977 -15.529055 -27.010868 41.101082 0.525070 2.287869 0.029397 -0.009797 219020.000000 0 0 1
-26.801297 -14.334655 -26.300868 40.193625 0.491137 2.284125 0.012492 -0.008562 -681329.000000 0 0 1
-25.994847 -14.123855 -24.994968 38.729366 0.497710 2.272311 0.022522 -0.015243 -379288.000000 0 0 1
-24.629067 -13.965555 -25.320668 37.983732 0.515828 2.300460 0.017950 -0.016042 746630.000000 0 0 1
-23.682567 -14.426255 -24.314268 36.880407 0.547121 2.290648 0.020652 -0.014989 584006.000000 0 0 1
-23.444167 -15.955155 -24.440068 37.436785 0.597559 2.282118 0.031759 -0.004992 -723272.000000 0 0 1
-22.434467 -16.048055 -25.436868 37.521722 0.620941 2.315731 0.032088 -0.004156 169491.000000 0 0 1
-22.044067 -17.384055 -25.519668 37.939422 0.667754 2.308570 0.034238 -0.012872 -250599.000000 0 0 1
-21.176967 -17.768655 -26.732368 38.455280 0.698106 2.339431 0.029803 -0.013589 56907.100000 0 0 1
-21.798367 -17.716555 -28.019668 39.675521 0.682465 2.354942 0.032158 -0.015517 165558.000000 0 0 1
-22.712267 -18.770655 -28.253568 40.822159 0.690665 2.335209 0.045946 -0.025121 135174.000000 0 0 1
-23.379067 -18.736555 -29.666568 42.163308 0.675609 2.351263 0.022528 -0.017092 278647.000000 0 0 1
-22.430867 -19.076355 -30.672168 42.518620 0.704756 2.376592 0.028377 -0.021296 384130.000000 0 0 1
-22.930067 -18.623455 -31.875468 43.458791 0.682127 2.394201 0.007835 -0.010563 -543619.000000 0 0 1
-22.058967 -19.007355 -33.073868 44.065387 0.711225 2.419711 0.015206 -0.013666 -203961.000000 0 0 1
-20.787867 -18.341955 -33.139168 43.206101 0.722972 2.444952 0.010619 -0.004687 784993.000000 0 0 1
-19.686767 -19.097155 -32.642068 42.635370 0.770197 2.442785 0.020048 -0.014608 77786.900000 0 0 1
-19.216067 -20.174255 -33.647568 43.685428 0.809719 2.449989 0.023793 -0.016271 -1055090.000000 0 0 1
-18.612067 -19.690955 34.307380 43.716577 0.813558 0.668474 0.022726 -0.018957 305658.000000 0 0 1
-18.304867 -20.621655 33.251880 43.197319 0.844845 0.692320 0.024098 -0.020802 -38134.200000 0 0 1
-19.540067 -21.310055 32.611680 43.582730 0.828700 0.725345 0.020557 -0.013428 586385.000000 0 0 1
-20.362667 -22.063855 33.560380 45.030557 0.825474 0.729841 0.019260 -0.014369 383465.000000 0 0 1
-21.585467 -22.474255 32.962580 45.360293 0.805568 0.757314 0.018377 -0.003640 73361.700000 0 0 1
-21.648067 -23.691155 32.015180 45.330800 0.830430 0.786600 0.021034 0.008960 -578745.000000 0 0 1
-21.321067 -24.879855 32.726380 46.309945 0.862275 0.785999 0.017760 0.011054 42944.700000 0 0 1
-21.323267 -26.048575 31.944080 46.407265 0.884819 0.811595 0.017983 0.020601 -11378.200000 0 0 1
-20.597167 -27.228905 32.627080 47.224813 0.923183 0.808079 0.021543 0.014792 80819.200000 0 0 1
-21.429767 -27.840825 33.571380 48.594074 0.914791 0.808128 0.007872 0.008815 184728.000000 0 0 1
-20.659967 -28.821325 34.231880 49.288179 0.948865 0.803037 0.014193 0.000626 -582.868000 0 0 1
-21.590067 -29.944105 -34.399868 50.459205 0.946107 2.320930 0.010814 0.004252 -831443.000000 0 0 1
-22.450767 -30.609585 33.821680 50.841810 0.937968 0.842990 0.012216 0.002113 1390260.000000 0 0 1
-23.741267 -29.982415 33.671180 50.954306 0.901051 0.848897 0.009748 0.002036 186449.000000 0 0 1
-24.624867 -29.618135 -34.298568 51.575283 0.877193 2.298316 0.017722 -0.004727 -1317230.000000 0 0 1
-25.803437 -28.978925 34.388980 51.847829 0.843299 0.845620 0.016286 0.003925 310588.000000 0 0 1
-26.693877 -28.755315 -33.673268 51.704160 0.822558 2.280051 0.011842 0.011308 -114357.000000 0 0 1
-27.735017 -27.721205 -34.080268 51.953451 0.785149 2.286273 0.004656 -0.000932 -143345.000000 0 0 1
-28.791357 -28.175095 34.226080 52.860219 0.774581 0.866520 0.016324 -0.010160 175294.000000 0 0 1
-29.750337 -27.154265 34.080780 52.763020 0.739808 0.868566 0.016939 -0.012623 -21990.200000 0 0 1
